        1372
Lattice="  0.3778015E+02  0.0000000E+00  0.0000000E+00  0.0000000E+00  0.3778015E+02  0.0000000E+00  0.0000000E+00  0.0000000E+00  0.3778015E+02" Properties=species:S:1:id:I:1:pos:R:3:tempK:R:1
Ar    1  0.9685215E+00  0.3001989E+00  0.3756247E+02  0.2089067E+02
Ar    2  0.3091238E+01  0.3179790E+01  0.1132367E+00  0.3587230E+03
Ar    3  0.2837515E+01  0.3768484E+02  0.2851123E+01  0.4739518E+03
Ar    4  0.2885115E+00  0.2610039E+01  0.2754865E+01  0.1758696E+03
Ar    5  0.3737083E+02  0.4955301E+00  0.5681980E+01  0.2014385E+03
Ar    6  0.2603529E+01  0.2414323E+01  0.4905183E+01  0.3801853E+03
Ar    7  0.3189474E+01  0.3729070E+02  0.8904306E+01  0.7695220E+03
Ar    8  0.3755150E+02  0.2749251E+01  0.8813505E+01  0.1502962E+04
Ar    9  0.3756744E+02  0.3769945E+02  0.1089317E+02  0.2526563E+03
Ar   10  0.3080783E+01  0.2383061E+01  0.1106350E+02  0.2232976E+03
Ar   11  0.2787281E+01  0.7627412E-02  0.1348151E+02  0.1993450E+03
Ar   12  0.5459285E+00  0.2667499E+01  0.1366467E+02  0.9657191E+02
Ar   13  0.3755156E+02  0.3735041E+02  0.1589970E+02  0.3035414E+03
Ar   14  0.2528513E+01  0.2666154E+01  0.1641866E+02  0.6750188E+03
Ar   15  0.2333670E+01  0.3753204E+02  0.1909800E+02  0.2828706E+03
Ar   16  0.3724848E+02  0.2993558E+01  0.1878084E+02  0.1028332E+03
Ar   17  0.3743050E+02  0.1710740E+00  0.2178994E+02  0.1944987E+03
Ar   18  0.2714068E+01  0.2090686E+01  0.2146083E+02  0.4578710E+03
Ar   19  0.2600811E+01  0.3714965E+02  0.2399271E+02  0.2769721E+03
Ar   20  0.3827019E+00  0.2087253E+01  0.2426445E+02  0.1430735E+03
Ar   21  0.6406024E+00  0.3764206E+02  0.2733365E+02  0.4605883E+03
Ar   22  0.2782835E+01  0.3421752E+01  0.2708771E+02  0.1673515E+03
Ar   23  0.3572078E+01  0.7886456E+00  0.2995064E+02  0.4150672E+03
Ar   24  0.3677887E+02  0.3067351E+01  0.3011063E+02  0.3110522E+03
Ar   25  0.3775812E+02  0.5906900E+00  0.3224212E+02  0.1251858E+04
Ar   26  0.3014701E+01  0.2810370E+01  0.3282080E+02  0.4189367E+03
Ar   27  0.3142537E+01  0.2992310E+00  0.3471923E+02  0.1498717E+03
Ar   28  0.5074128E+00  0.2964242E+01  0.3555424E+02  0.3363258E+03
Ar   29  0.1919327E+00  0.5082997E+01  0.2978282E+00  0.3294174E+03
Ar   30  0.2662075E+01  0.8364649E+01  0.6993809E-02  0.6345134E+03
Ar   31  0.3467275E+01  0.5342306E+01  0.2700821E+01  0.5389806E+03
Ar   32  0.3754182E+02  0.8496713E+01  0.1861433E+01  0.8566689E+03
Ar   33  0.9202597E-01  0.4338775E+01  0.5683157E+01  0.1451467E+02
Ar   34  0.2428406E+01  0.7330083E+01  0.5667241E+01  0.3391599E+03
Ar   35  0.2906611E+01  0.4551298E+01  0.7644088E+01  0.2410260E+03
Ar   36  0.3665430E+02  0.8018707E+01  0.8146074E+01  0.2849670E+03
Ar   37  0.3758042E+02  0.5345661E+01  0.1110457E+02  0.7932242E+03
Ar   38  0.3202152E+01  0.7174373E+01  0.1009743E+02  0.2001735E+03
Ar   39  0.2665979E+01  0.5269874E+01  0.1292213E+02  0.3393535E+03
Ar   40  0.3719356E+02  0.8001950E+01  0.1349323E+02  0.1618456E+03
Ar   41  0.2575417E-03  0.5256502E+01  0.1587089E+02  0.2095745E+03
Ar   42  0.2723236E+01  0.8059981E+01  0.1557509E+02  0.1394565E+03
Ar   43  0.2842558E+01  0.5510948E+01  0.1896067E+02  0.8865583E+03
Ar   44  0.3871466E+00  0.7857418E+01  0.1856893E+02  0.1350879E+03
Ar   45  0.2787014E+00  0.5494482E+01  0.2110908E+02  0.3911720E+03
Ar   46  0.3085781E+01  0.8470356E+01  0.2172553E+02  0.2618800E+03
Ar   47  0.2446744E+01  0.5119893E+01  0.2393929E+02  0.5545414E+02
Ar   48  0.4437750E+00  0.8184979E+01  0.2410879E+02  0.1841320E+03
Ar   49  0.3766741E+02  0.5357955E+01  0.2741318E+02  0.5780432E+03
Ar   50  0.2696204E+01  0.8118236E+01  0.2717365E+02  0.9931035E+02
Ar   51  0.2585013E+01  0.5443774E+01  0.3026960E+02  0.1673767E+03
Ar   52  0.3431869E+00  0.8338874E+01  0.2966485E+02  0.4742593E+02
Ar   53  0.6434976E-01  0.5121118E+01  0.3246782E+02  0.1103665E+03
Ar   54  0.2494267E+01  0.7897113E+01  0.3221154E+02  0.3836376E+03
Ar   55  0.2843096E+01  0.5824879E+01  0.3512589E+02  0.7385343E+02
Ar   56  0.1919813E+00  0.8002681E+01  0.3539474E+02  0.1773748E+03
Ar   57  0.2122600E+00  0.1086930E+02  0.3729472E+02  0.4926604E+02
Ar   58  0.2956450E+01  0.1213629E+02  0.5336747E+00  0.5754398E+03
Ar   59  0.2450149E+01  0.1006221E+02  0.3652687E+01  0.1437797E+03
Ar   60  0.3771217E+02  0.1259660E+02  0.2619208E+01  0.2488786E+03
Ar   61  0.3761368E+02  0.1053664E+02  0.5378030E+01  0.1060836E+03
Ar   62  0.2496690E+01  0.1293468E+02  0.5740819E+01  0.4729212E+03
Ar   63  0.1762751E+01  0.9479602E+01  0.8182820E+01  0.7263174E+03
Ar   64  0.3758881E+02  0.1408440E+02  0.7711464E+01  0.3563654E+03
Ar   65  0.3738503E+02  0.1036425E+02  0.1110612E+02  0.5608917E+03
Ar   66  0.2117406E+01  0.1284527E+02  0.9990212E+01  0.2507843E+03
Ar   67  0.2942712E+01  0.1042565E+02  0.1286075E+02  0.4219715E+03
Ar   68  0.1035616E+00  0.1310343E+02  0.1374458E+02  0.9805057E+02
Ar   69  0.3725345E+02  0.1118006E+02  0.1626709E+02  0.2920232E+03
Ar   70  0.2623955E+01  0.1334509E+02  0.1620435E+02  0.3292641E+03
Ar   71  0.2816729E+01  0.1038098E+02  0.1821937E+02  0.2067124E+03
Ar   72  0.3030057E+00  0.1353403E+02  0.1891593E+02  0.8645812E+03
Ar   73  0.5377465E+00  0.1037832E+02  0.2127777E+02  0.3172432E+03
Ar   74  0.2602517E+01  0.1297784E+02  0.2153086E+02  0.5709684E+03
Ar   75  0.2509881E+01  0.1068289E+02  0.2462501E+02  0.1745941E+03
Ar   76  0.1073572E+00  0.1391112E+02  0.2427565E+02  0.3109657E+02
Ar   77  0.3751809E+02  0.1094036E+02  0.2633556E+02  0.8613445E+02
Ar   78  0.3109184E+01  0.1365210E+02  0.2717362E+02  0.1490634E+03
Ar   79  0.2843820E+01  0.1045123E+02  0.3012142E+02  0.2707977E+03
Ar   80  0.4286330E+00  0.1294316E+02  0.2942250E+02  0.5573880E+03
Ar   81  0.1409864E+00  0.1132034E+02  0.3232761E+02  0.4641367E+03
Ar   82  0.2858514E+01  0.1341941E+02  0.3254241E+02  0.2234500E+03
Ar   83  0.3006894E+01  0.1077445E+02  0.3519233E+02  0.3607342E+02
Ar   84  0.3718871E+02  0.1360916E+02  0.3499039E+02  0.1002934E+03
Ar   85  0.1240270E-01  0.1617155E+02  0.4561606E+00  0.5033885E+02
Ar   86  0.3055991E+01  0.1936444E+02  0.4230029E+00  0.7114198E+03
Ar   87  0.2369340E+01  0.1511950E+02  0.2675266E+01  0.2241815E+02
Ar   88  0.3739719E+02  0.1944327E+02  0.3008043E+01  0.7149018E+02
Ar   89  0.3727384E+02  0.1581019E+02  0.4660946E+01  0.2550458E+03
Ar   90  0.2324587E+01  0.1767820E+02  0.4711509E+01  0.4117267E+03
Ar   91  0.2443833E+01  0.1636532E+02  0.8088415E+01  0.4225012E+03
Ar   92  0.5698600E-01  0.1916004E+02  0.7717980E+01  0.2225024E+02
Ar   93  0.3776779E+02  0.1586403E+02  0.1047774E+02  0.7601876E+03
Ar   94  0.2612250E+01  0.1861185E+02  0.1047182E+02  0.1180956E+03
Ar   95  0.2563793E+01  0.1617890E+02  0.1296342E+02  0.4824640E+03
Ar   96  0.2244832E+00  0.1844325E+02  0.1295413E+02  0.2180702E+03
Ar   97  0.3748933E+00  0.1592756E+02  0.1564958E+02  0.7463704E+03
Ar   98  0.2597411E+01  0.1869919E+02  0.1592485E+02  0.9014773E+02
Ar   99  0.2728230E+01  0.1608565E+02  0.1926982E+02  0.2505706E+03
Ar  100  0.3765604E+02  0.1851150E+02  0.1847704E+02  0.9932973E+02
Ar  101  0.8932354E-01  0.1595063E+02  0.2168516E+02  0.1066674E+02
Ar  102  0.2244296E+01  0.1921225E+02  0.2091431E+02  0.3390923E+02
Ar  103  0.2792394E+01  0.1638653E+02  0.2426777E+02  0.1733761E+03
Ar  104  0.6349833E+00  0.1864885E+02  0.2466008E+02  0.9937756E+02
Ar  105  0.1635165E+00  0.1591334E+02  0.2675635E+02  0.2574053E+03
Ar  106  0.3192100E+01  0.1945351E+02  0.2716900E+02  0.1971890E+03
Ar  107  0.2586793E+01  0.1595778E+02  0.2975448E+02  0.4663940E+02
Ar  108  0.2599912E+00  0.1918395E+02  0.2892987E+02  0.6745862E+02
Ar  109  0.3770328E+02  0.1632450E+02  0.3171678E+02  0.3153856E+03
Ar  110  0.2756371E+01  0.1916504E+02  0.3263434E+02  0.2400420E+03
Ar  111  0.2715827E+01  0.1618616E+02  0.3558911E+02  0.6894583E+03
Ar  112  0.6518781E+00  0.1885752E+02  0.3568550E+02  0.3423446E+03
Ar  113  0.3701461E+02  0.2133552E+02  0.3770757E+02  0.2596892E+03
Ar  114  0.2371857E+01  0.2454461E+02  0.3740301E+02  0.8497600E+02
Ar  115  0.2168324E+01  0.2224758E+02  0.2262435E+01  0.2104796E+03
Ar  116  0.5790425E-02  0.2486273E+02  0.2375597E+01  0.4082997E+03
Ar  117  0.3730378E+02  0.2186637E+02  0.5605105E+01  0.1002788E+03
Ar  118  0.2411359E+01  0.2444315E+02  0.5219982E+01  0.2099554E+03
Ar  119  0.2570862E+01  0.2176093E+02  0.7944989E+01  0.4835605E+03
Ar  120  0.3753936E+02  0.2473262E+02  0.8008677E+01  0.9792952E+02
Ar  121  0.7732228E-01  0.2144412E+02  0.1045039E+02  0.1692495E+03
Ar  122  0.3334522E+01  0.2434365E+02  0.1059092E+02  0.2135307E+03
Ar  123  0.2618060E+01  0.2151214E+02  0.1284708E+02  0.6839287E+02
Ar  124  0.3294357E+00  0.2405939E+02  0.1268677E+02  0.2169062E+03
Ar  125  0.2589101E-01  0.2079874E+02  0.1552972E+02  0.4932990E+02
Ar  126  0.1950045E+01  0.2393355E+02  0.1561363E+02  0.1503181E+03
Ar  127  0.2365026E+01  0.2153018E+02  0.1853736E+02  0.2770907E+03
Ar  128  0.3777383E+02  0.2437717E+02  0.1888625E+02  0.6174480E+02
Ar  129  0.2784329E+00  0.2196115E+02  0.2194119E+02  0.1516004E+03
Ar  130  0.2866253E+01  0.2369613E+02  0.2114502E+02  0.5679767E+03
Ar  131  0.3091209E+01  0.2158359E+02  0.2448171E+02  0.2812435E+03
Ar  132  0.6872076E+00  0.2476790E+02  0.2497180E+02  0.2791445E+03
Ar  133  0.5733880E+00  0.2218817E+02  0.2708368E+02  0.1601854E+03
Ar  134  0.3477536E+01  0.2464463E+02  0.2723804E+02  0.1880800E+03
Ar  135  0.3227382E+01  0.2194065E+02  0.3021564E+02  0.4995695E+03
Ar  136  0.3774028E+02  0.2429753E+02  0.2969413E+02  0.4413699E+03
Ar  137  0.3757997E+02  0.2166091E+02  0.3211331E+02  0.4012103E+03
Ar  138  0.3262966E+01  0.2459708E+02  0.3287938E+02  0.4834798E+03
Ar  139  0.2797339E+01  0.2185482E+02  0.3544012E+02  0.1246945E+03
Ar  140  0.3725988E+02  0.2397140E+02  0.3494107E+02  0.7574953E+03
Ar  141  0.3753965E+02  0.2715049E+02  0.3741235E+02  0.6113430E+03
Ar  142  0.2666058E+01  0.2968978E+02  0.2755390E+00  0.9555592E+03
Ar  143  0.2846517E+01  0.2696018E+02  0.2394004E+01  0.3016224E+03
Ar  144  0.3738865E+02  0.3001440E+02  0.3175908E+01  0.8660414E+03
Ar  145  0.3709356E+02  0.2700881E+02  0.5473313E+01  0.1370386E+03
Ar  146  0.2873962E+01  0.2960450E+02  0.4853922E+01  0.3497962E+03
Ar  147  0.2400528E+01  0.2708362E+02  0.7838359E+01  0.4289556E+03
Ar  148  0.3769589E+02  0.2944737E+02  0.8004453E+01  0.8777149E+03
Ar  149  0.3689353E+00  0.2675349E+02  0.1096046E+02  0.6565180E+03
Ar  150  0.2437654E+01  0.2953115E+02  0.1097094E+02  0.3685547E+03
Ar  151  0.2566595E+01  0.2672324E+02  0.1397271E+02  0.4422806E+03
Ar  152  0.3745152E+02  0.2988638E+02  0.1335432E+02  0.4833137E+03
Ar  153  0.3759157E+02  0.2681406E+02  0.1562435E+02  0.1661941E+03
Ar  154  0.2062003E+01  0.2937964E+02  0.1646446E+02  0.1098430E+03
Ar  155  0.2709726E+01  0.2707800E+02  0.1889314E+02  0.6097935E+03
Ar  156  0.3734664E+02  0.2939362E+02  0.1889583E+02  0.4475080E+03
Ar  157  0.6735154E+00  0.2747537E+02  0.2225436E+02  0.1164366E+04
Ar  158  0.3368242E+01  0.3081645E+02  0.2239617E+02  0.1555878E+03
Ar  159  0.2647599E+01  0.2753143E+02  0.2491631E+02  0.6795637E+03
Ar  160  0.7241777E-01  0.3006135E+02  0.2503006E+02  0.4832918E+03
Ar  161  0.3770782E+02  0.2693121E+02  0.2786141E+02  0.9152354E+02
Ar  162  0.2886383E+01  0.3010464E+02  0.2765464E+02  0.2663889E+03
Ar  163  0.2602185E+01  0.2666217E+02  0.3008757E+02  0.1102213E+03
Ar  164  0.1745516E+00  0.2994097E+02  0.2967921E+02  0.6117722E+03
Ar  165  0.3775137E+02  0.2708241E+02  0.3269881E+02  0.2716082E+03
Ar  166  0.3467869E+01  0.2959602E+02  0.3228058E+02  0.5099112E+03
Ar  167  0.3223286E+01  0.2729319E+02  0.3511747E+02  0.8120476E+02
Ar  168  0.1986242E+00  0.2948280E+02  0.3494422E+02  0.3205670E+02
Ar  169  0.3769785E+02  0.3235200E+02  0.6876372E-01  0.3763968E+02
Ar  170  0.2471275E+01  0.3499269E+02  0.5420893E+00  0.3798049E+03
Ar  171  0.2768255E+01  0.3250388E+02  0.2733696E+01  0.7771786E+02
Ar  172  0.3549393E+02  0.3485143E+02  0.3751882E+02  0.1416246E+03
Ar  173  0.4538584E+00  0.3252402E+02  0.5796037E+01  0.3080130E+03
Ar  174  0.2348902E+01  0.3586179E+02  0.5801597E+01  0.2633188E+03
Ar  175  0.2795441E+01  0.3213785E+02  0.8333552E+01  0.9885408E+02
Ar  176  0.3742974E+02  0.3537337E+02  0.8199054E+01  0.7349079E+03
Ar  177  0.3777534E+02  0.3231529E+02  0.1059495E+02  0.8007836E+03
Ar  178  0.2505403E+01  0.3495173E+02  0.1114769E+02  0.9052654E+03
Ar  179  0.2472140E+01  0.3228143E+02  0.1360347E+02  0.1182280E+03
Ar  180  0.3726403E+02  0.3455537E+02  0.1337877E+02  0.1233599E+03
Ar  181  0.3760007E+02  0.3201236E+02  0.1617431E+02  0.1776954E+03
Ar  182  0.1996701E+01  0.3508401E+02  0.1598552E+02  0.3308749E+03
Ar  183  0.2022369E+01  0.3252066E+02  0.1924367E+02  0.1131446E+03
Ar  184  0.3740948E+02  0.3548116E+02  0.1911494E+02  0.1077228E+03
Ar  185  0.3711489E+02  0.3195934E+02  0.2165045E+02  0.5343793E+03
Ar  186  0.1972691E+01  0.3464884E+02  0.2150550E+02  0.1049464E+03
Ar  187  0.2425981E+01  0.3298262E+02  0.2478676E+02  0.7114429E+02
Ar  188  0.3743078E+02  0.3507370E+02  0.2434218E+02  0.6341320E+03
Ar  189  0.3773313E+02  0.3291036E+02  0.2753095E+02  0.4009953E+03
Ar  190  0.3053585E+01  0.3505852E+02  0.2740572E+02  0.1074677E+02
Ar  191  0.3064619E+01  0.3253826E+02  0.3014496E+02  0.7280375E+02
Ar  192  0.3732981E+02  0.3454219E+02  0.3070136E+02  0.8549169E+03
Ar  193  0.5090660E+00  0.3198685E+02  0.3255950E+02  0.5313363E+03
Ar  194  0.2814936E+01  0.3585225E+02  0.3174912E+02  0.2439535E+03
Ar  195  0.2758658E+01  0.3190249E+02  0.3537545E+02  0.1026792E+03
Ar  196  0.4901474E+00  0.3451461E+02  0.3483003E+02  0.1090827E+03
Ar  197  0.5164950E+01  0.3375354E+00  0.2921793E+00  0.2850323E+02
Ar  198  0.8146173E+01  0.3046534E+01  0.3744306E+02  0.2996020E+03
Ar  199  0.7942586E+01  0.3739003E+02  0.2502157E+01  0.4323974E+02
Ar  200  0.5382163E+01  0.2309714E+01  0.3147806E+01  0.2225016E+03
Ar  201  0.5285680E+01  0.3758617E+02  0.6018455E+01  0.6364776E+03
Ar  202  0.8134335E+01  0.2381487E+01  0.5722508E+01  0.1865639E+03
Ar  203  0.8691811E+01  0.3755692E+02  0.7754721E+01  0.3023660E+03
Ar  204  0.5482993E+01  0.2576923E+01  0.8152750E+01  0.4235128E+03
Ar  205  0.5460505E+01  0.3748413E+02  0.1122681E+02  0.2564670E+03
Ar  206  0.7945522E+01  0.2192981E+01  0.1026911E+02  0.2032967E+03
Ar  207  0.8154446E+01  0.3766586E+02  0.1368499E+02  0.1915626E+03
Ar  208  0.5384958E+01  0.2895899E+01  0.1308733E+02  0.6653272E+03
Ar  209  0.5240575E+01  0.3771207E+02  0.1621388E+02  0.1975365E+03
Ar  210  0.7937646E+01  0.3070174E+01  0.1627970E+02  0.3671808E+03
Ar  211  0.8290548E+01  0.3380776E+00  0.1889377E+02  0.1719297E+03
Ar  212  0.5014507E+01  0.2532452E+01  0.1870241E+02  0.1628779E+03
Ar  213  0.5216639E+01  0.1220870E+00  0.2162078E+02  0.1388282E+03
Ar  214  0.7777230E+01  0.2741449E+01  0.2196132E+02  0.7215642E+02
Ar  215  0.8218786E+01  0.2268386E+00  0.2504493E+02  0.7084084E+03
Ar  216  0.4982040E+01  0.2386353E+01  0.2438667E+02  0.3792031E+03
Ar  217  0.4973008E+01  0.1995701E+00  0.2689746E+02  0.2359117E+03
Ar  218  0.8227292E+01  0.3005782E+01  0.2703656E+02  0.7488257E+02
Ar  219  0.7716221E+01  0.4565121E+00  0.2930372E+02  0.3401192E+03
Ar  220  0.6649101E+01  0.3385259E+01  0.3018299E+02  0.3194854E+03
Ar  221  0.5847087E+01  0.3761166E+02  0.3243090E+02  0.3246176E+03
Ar  222  0.8818428E+01  0.2417725E+01  0.3322952E+02  0.1620249E+03
Ar  223  0.7711807E+01  0.1123894E+00  0.3526064E+02  0.6615192E+03
Ar  224  0.5684887E+01  0.3489188E+01  0.3500403E+02  0.2467853E+03
Ar  225  0.6141258E+01  0.5555223E+01  0.2217116E+00  0.1144955E+03
Ar  226  0.8531756E+01  0.8765694E+01  0.3019134E+00  0.1569368E+03
Ar  227  0.7863128E+01  0.5318417E+01  0.3441347E+01  0.1061051E+04
Ar  228  0.5335895E+01  0.8514466E+01  0.2756846E+01  0.4647986E+03
Ar  229  0.5515057E+01  0.4862227E+01  0.5537977E+01  0.1728804E+03
Ar  230  0.8272667E+01  0.8312197E+01  0.5130202E+01  0.5782001E+03
Ar  231  0.8499642E+01  0.5432401E+01  0.8319030E+01  0.4850519E+03
Ar  232  0.5575675E+01  0.7779954E+01  0.7464941E+01  0.6442927E+03
Ar  233  0.5966914E+01  0.5185058E+01  0.1085499E+02  0.2422718E+02
Ar  234  0.8230818E+01  0.8034913E+01  0.1036510E+02  0.1662889E+03
Ar  235  0.8575743E+01  0.5852989E+01  0.1308665E+02  0.4190673E+02
Ar  236  0.5634594E+01  0.8146329E+01  0.1276586E+02  0.2033701E+03
Ar  237  0.5113418E+01  0.5016048E+01  0.1577363E+02  0.1113860E+03
Ar  238  0.7787216E+01  0.7575599E+01  0.1577984E+02  0.2157513E+03
Ar  239  0.7381318E+01  0.5237542E+01  0.1895278E+02  0.6925704E+03
Ar  240  0.5148096E+01  0.7613564E+01  0.1828938E+02  0.6880162E+03
Ar  241  0.5487324E+01  0.5587613E+01  0.2199055E+02  0.1695211E+03
Ar  242  0.8135232E+01  0.7477918E+01  0.2182593E+02  0.2394618E+03
Ar  243  0.7912950E+01  0.5206520E+01  0.2443201E+02  0.1006237E+04
Ar  244  0.5341932E+01  0.7617264E+01  0.2451369E+02  0.4417250E+03
Ar  245  0.5524053E+01  0.5442951E+01  0.2715907E+02  0.3272443E+03
Ar  246  0.8584931E+01  0.8038901E+01  0.2630690E+02  0.1768797E+03
Ar  247  0.9288441E+01  0.5480963E+01  0.2999572E+02  0.4040318E+03
Ar  248  0.5489028E+01  0.8430793E+01  0.2909242E+02  0.1853216E+03
Ar  249  0.5630649E+01  0.6046967E+01  0.3185484E+02  0.3378664E+03
Ar  250  0.8290777E+01  0.8055263E+01  0.3239802E+02  0.5178341E+03
Ar  251  0.8582938E+01  0.5386958E+01  0.3504758E+02  0.5393205E+03
Ar  252  0.5382100E+01  0.8048743E+01  0.3523059E+02  0.6851630E+02
Ar  253  0.5865354E+01  0.1080443E+02  0.2584062E+00  0.4696684E+02
Ar  254  0.8350168E+01  0.1381471E+02  0.3536403E+00  0.4426647E+03
Ar  255  0.8327851E+01  0.1090320E+02  0.3045269E+01  0.1366246E+03
Ar  256  0.5001177E+01  0.1331081E+02  0.2823744E+01  0.2041650E+03
Ar  257  0.4810219E+01  0.1076381E+02  0.6122652E+01  0.5681855E+02
Ar  258  0.8040750E+01  0.1374637E+02  0.5946224E+01  0.1780033E+03
Ar  259  0.8491151E+01  0.1062037E+02  0.7518458E+01  0.3430311E+03
Ar  260  0.5399747E+01  0.1416420E+02  0.8698857E+01  0.1553413E+03
Ar  261  0.5148664E+01  0.1046802E+02  0.1003434E+02  0.3052131E+03
Ar  262  0.8396043E+01  0.1346380E+02  0.1041379E+02  0.2843206E+03
Ar  263  0.8185488E+01  0.1062831E+02  0.1262482E+02  0.1892173E+03
Ar  264  0.4951828E+01  0.1338147E+02  0.1210432E+02  0.3544035E+02
Ar  265  0.5523331E+01  0.1047138E+02  0.1575807E+02  0.1661054E+03
Ar  266  0.7530004E+01  0.1380088E+02  0.1462814E+02  0.1568207E+03
Ar  267  0.7867629E+01  0.9617924E+01  0.1861053E+02  0.1295706E+03
Ar  268  0.6085949E+01  0.1256219E+02  0.1833300E+02  0.3816311E+03
Ar  269  0.5624079E+01  0.1033859E+02  0.2116556E+02  0.5224313E+03
Ar  270  0.7930295E+01  0.1281504E+02  0.2183833E+02  0.2002898E+03
Ar  271  0.7412974E+01  0.1053540E+02  0.2430423E+02  0.2425902E+03
Ar  272  0.4906397E+01  0.1302877E+02  0.2382714E+02  0.2301834E+03
Ar  273  0.5092081E+01  0.1107740E+02  0.2673128E+02  0.8072709E+02
Ar  274  0.8219192E+01  0.1316951E+02  0.2733235E+02  0.4340819E+03
Ar  275  0.7929283E+01  0.1080708E+02  0.2962054E+02  0.5528149E+03
Ar  276  0.5432037E+01  0.1405532E+02  0.3063973E+02  0.9382614E+02
Ar  277  0.5614897E+01  0.1106268E+02  0.3292135E+02  0.4737132E+02
Ar  278  0.8184548E+01  0.1373469E+02  0.3269203E+02  0.2035245E+03
Ar  279  0.8142284E+01  0.1063096E+02  0.3521197E+02  0.1785664E+03
Ar  280  0.5684965E+01  0.1356585E+02  0.3543519E+02  0.9369594E+03
Ar  281  0.4886865E+01  0.1570483E+02  0.5609025E+00  0.1099163E+03
Ar  282  0.7308462E+01  0.1821596E+02  0.7753666E+00  0.3065432E+03
Ar  283  0.7662894E+01  0.1592611E+02  0.3313385E+01  0.2128057E+03
Ar  284  0.4927269E+01  0.1885676E+02  0.2950343E+01  0.2987262E+03
Ar  285  0.4923534E+01  0.1555386E+02  0.5693135E+01  0.7677754E+03
Ar  286  0.7789182E+01  0.1909531E+02  0.5228859E+01  0.2781473E+03
Ar  287  0.8523647E+01  0.1657922E+02  0.7895063E+01  0.5486637E+03
Ar  288  0.4925784E+01  0.1961095E+02  0.7294608E+01  0.4360847E+03
Ar  289  0.5564422E+01  0.1669129E+02  0.1052592E+02  0.1398554E+03
Ar  290  0.8117602E+01  0.1935189E+02  0.1032280E+02  0.3562060E+03
Ar  291  0.8094888E+01  0.1677971E+02  0.1293565E+02  0.1564999E+03
Ar  292  0.5361568E+01  0.1899512E+02  0.1329868E+02  0.5351047E+03
Ar  293  0.5046974E+01  0.1616714E+02  0.1587447E+02  0.3575513E+03
Ar  294  0.8007284E+01  0.1901873E+02  0.1575304E+02  0.1576906E+03
Ar  295  0.8456409E+01  0.1547963E+02  0.1765577E+02  0.3702238E+02
Ar  296  0.5803739E+01  0.1825914E+02  0.1856925E+02  0.3348369E+03
Ar  297  0.5774274E+01  0.1518039E+02  0.2072841E+02  0.2220559E+03
Ar  298  0.8595717E+01  0.1846443E+02  0.2173518E+02  0.3655181E+03
Ar  299  0.7887348E+01  0.1578178E+02  0.2458210E+02  0.4630162E+02
Ar  300  0.5541910E+01  0.1861919E+02  0.2379755E+02  0.7952773E+02
Ar  301  0.5175245E+01  0.1642677E+02  0.2700331E+02  0.6625062E+02
Ar  302  0.8646689E+01  0.1851916E+02  0.2668402E+02  0.2911192E+03
Ar  303  0.8025931E+01  0.1710896E+02  0.2992781E+02  0.1307009E+03
Ar  304  0.4891489E+01  0.1882221E+02  0.3018396E+02  0.1578331E+03
Ar  305  0.4887484E+01  0.1648029E+02  0.3289864E+02  0.8691982E+02
Ar  306  0.7741920E+01  0.1846452E+02  0.3287479E+02  0.1569238E+03
Ar  307  0.7265754E+01  0.1628149E+02  0.3543695E+02  0.1779696E+03
Ar  308  0.4894320E+01  0.1859672E+02  0.3558076E+02  0.3966714E+02
Ar  309  0.5092089E+01  0.2260214E+02  0.3711385E+00  0.2168479E+03
Ar  310  0.8598724E+01  0.2502467E+02  0.3749130E+02  0.4874047E+03
Ar  311  0.8900108E+01  0.2141897E+02  0.2796476E+01  0.5345429E+03
Ar  312  0.5559744E+01  0.2489016E+02  0.2857175E+01  0.3887757E+02
Ar  313  0.5094646E+01  0.2186473E+02  0.4594164E+01  0.2271721E+03
Ar  314  0.7924304E+01  0.2461186E+02  0.5091216E+01  0.9435958E+02
Ar  315  0.7608957E+01  0.2155934E+02  0.7508968E+01  0.3529980E+03
Ar  316  0.5049480E+01  0.2412567E+02  0.7453220E+01  0.5381454E+03
Ar  317  0.5112541E+01  0.2090822E+02  0.1059674E+02  0.5911239E+03
Ar  318  0.7603204E+01  0.2417668E+02  0.1034561E+02  0.8795780E+02
Ar  319  0.7862973E+01  0.2175511E+02  0.1301321E+02  0.5190190E+03
Ar  320  0.5793697E+01  0.2439076E+02  0.1347656E+02  0.5327374E+02
Ar  321  0.5131777E+01  0.2101983E+02  0.1562822E+02  0.2662824E+03
Ar  322  0.8088987E+01  0.2442086E+02  0.1613308E+02  0.1484322E+02
Ar  323  0.7978088E+01  0.2136645E+02  0.1818303E+02  0.1482223E+03
Ar  324  0.5599690E+01  0.2400532E+02  0.1865613E+02  0.8412041E+03
Ar  325  0.5724858E+01  0.2116198E+02  0.2070171E+02  0.2330514E+03
Ar  326  0.7786009E+01  0.2464934E+02  0.2128706E+02  0.2370171E+03
Ar  327  0.8033018E+01  0.2179279E+02  0.2330680E+02  0.2659741E+04
Ar  328  0.5264632E+01  0.2436950E+02  0.2381460E+02  0.1217878E+02
Ar  329  0.6344918E+01  0.2101336E+02  0.2666859E+02  0.8563390E+03
Ar  330  0.7916059E+01  0.2442210E+02  0.2688125E+02  0.4048920E+03
Ar  331  0.7607672E+01  0.2128105E+02  0.3013096E+02  0.3170551E+03
Ar  332  0.5892287E+01  0.2441639E+02  0.3006194E+02  0.1934045E+03
Ar  333  0.5455679E+01  0.2155946E+02  0.3319299E+02  0.6620038E+02
Ar  334  0.8681741E+01  0.2492035E+02  0.3174638E+02  0.9312868E+03
Ar  335  0.7514113E+01  0.2114260E+02  0.3573083E+02  0.5605662E+03
Ar  336  0.6036815E+01  0.2413956E+02  0.3553158E+02  0.2260347E+03
Ar  337  0.5298506E+01  0.2685816E+02  0.5199860E-01  0.2064965E+03
Ar  338  0.8645877E+01  0.2996160E+02  0.3731564E+02  0.1953633E+03
Ar  339  0.8101521E+01  0.2708492E+02  0.2204637E+01  0.1622386E+03
Ar  340  0.5245760E+01  0.2960664E+02  0.2299348E+01  0.1128192E+03
Ar  341  0.5213795E+01  0.2706789E+02  0.5619446E+01  0.2262430E+03
Ar  342  0.8046362E+01  0.2957207E+02  0.5107055E+01  0.5729126E+02
Ar  343  0.7301178E+01  0.2686260E+02  0.7972573E+01  0.5410832E+03
Ar  344  0.5368679E+01  0.2967303E+02  0.7983793E+01  0.3963932E+03
Ar  345  0.5619705E+01  0.2729632E+02  0.1096899E+02  0.2646736E+02
Ar  346  0.8271490E+01  0.2994378E+02  0.1112754E+02  0.2266507E+03
Ar  347  0.8334994E+01  0.2755543E+02  0.1409106E+02  0.3042413E+03
Ar  348  0.4837855E+01  0.2936113E+02  0.1359477E+02  0.1582166E+03
Ar  349  0.5420757E+01  0.2710884E+02  0.1603493E+02  0.3184478E+03
Ar  350  0.7115286E+01  0.2965590E+02  0.1680338E+02  0.9428106E+02
Ar  351  0.8135628E+01  0.2735729E+02  0.1922128E+02  0.1845389E+03
Ar  352  0.4675565E+01  0.2992674E+02  0.1880837E+02  0.7600653E+02
Ar  353  0.4489110E+01  0.2729130E+02  0.2202497E+02  0.7656805E+03
Ar  354  0.7234601E+01  0.3039676E+02  0.2173177E+02  0.5173270E+03
Ar  355  0.7864947E+01  0.2728080E+02  0.2361970E+02  0.3847364E+03
Ar  356  0.5315521E+01  0.3034213E+02  0.2494955E+02  0.1407071E+03
Ar  357  0.5553185E+01  0.2736429E+02  0.2763737E+02  0.4120954E+03
Ar  358  0.8107231E+01  0.2935728E+02  0.2672648E+02  0.1044896E+03
Ar  359  0.8672558E+01  0.2705513E+02  0.2892411E+02  0.5795085E+03
Ar  360  0.6247132E+01  0.2984736E+02  0.3019145E+02  0.5341445E+03
Ar  361  0.5724621E+01  0.2689581E+02  0.3268390E+02  0.9217597E+03
Ar  362  0.8892176E+01  0.2998190E+02  0.3240475E+02  0.1184187E+03
Ar  363  0.8374574E+01  0.2689881E+02  0.3477139E+02  0.4180043E+02
Ar  364  0.6284981E+01  0.3002019E+02  0.3480979E+02  0.1917685E+04
Ar  365  0.5708357E+01  0.3219282E+02  0.1905659E+00  0.2035248E+03
Ar  366  0.7426411E+01  0.3513142E+02  0.3716461E+02  0.3057130E+03
Ar  367  0.7755834E+01  0.3297650E+02  0.2839482E+01  0.3980627E+03
Ar  368  0.5167832E+01  0.3526409E+02  0.3147056E+01  0.4512256E+03
Ar  369  0.5447130E+01  0.3218306E+02  0.5160953E+01  0.2886203E+03
Ar  370  0.8040682E+01  0.3493435E+02  0.5733496E+01  0.1761758E+03
Ar  371  0.8278278E+01  0.3205638E+02  0.8211834E+01  0.2802557E+03
Ar  372  0.6076630E+01  0.3491100E+02  0.8894621E+01  0.8604731E+03
Ar  373  0.5497010E+01  0.3222474E+02  0.1106922E+02  0.3747146E+03
Ar  374  0.8931151E+01  0.3573472E+02  0.1071099E+02  0.1035048E+02
Ar  375  0.7328090E+01  0.3172169E+02  0.1431105E+02  0.2810896E+03
Ar  376  0.5577225E+01  0.3502433E+02  0.1351475E+02  0.2691605E+03
Ar  377  0.4620977E+01  0.3261460E+02  0.1642079E+02  0.1420298E+03
Ar  378  0.7533071E+01  0.3506094E+02  0.1670931E+02  0.1517653E+03
Ar  379  0.7618192E+01  0.3252084E+02  0.1900683E+02  0.9064158E+02
Ar  380  0.4685644E+01  0.3525178E+02  0.1890792E+02  0.1096063E+03
Ar  381  0.5167844E+01  0.3352900E+02  0.2163716E+02  0.3193598E+03
Ar  382  0.7994660E+01  0.3591532E+02  0.2148063E+02  0.3115472E+03
Ar  383  0.8307448E+01  0.3344903E+02  0.2433633E+02  0.6614046E+03
Ar  384  0.5546476E+01  0.3545958E+02  0.2472315E+02  0.2472643E+03
Ar  385  0.5598349E+01  0.3284778E+02  0.2709223E+02  0.6941714E+02
Ar  386  0.8386693E+01  0.3560597E+02  0.2760929E+02  0.2507984E+03
Ar  387  0.8624491E+01  0.3244863E+02  0.2922596E+02  0.2368343E+03
Ar  388  0.5757765E+01  0.3528578E+02  0.2996168E+02  0.2038211E+02
Ar  389  0.5941201E+01  0.3281376E+02  0.3212327E+02  0.8052546E+03
Ar  390  0.8535675E+01  0.3515126E+02  0.3202264E+02  0.2995915E+03
Ar  391  0.8978694E+01  0.3310914E+02  0.3450774E+02  0.1126382E+04
Ar  392  0.4576270E+01  0.3503879E+02  0.3468065E+02  0.6867053E+03
Ar  393  0.1122133E+02  0.3774179E+02  0.4698561E+00  0.1816240E+03
Ar  394  0.1358411E+02  0.3078101E+01  0.4407637E+00  0.2172841E+03
Ar  395  0.1388702E+02  0.3742577E+02  0.3216574E+01  0.8576422E+03
Ar  396  0.1117430E+02  0.2358031E+01  0.3171402E+01  0.2349938E+03
Ar  397  0.1126125E+02  0.2857281E-01  0.5689036E+01  0.2070787E+03
Ar  398  0.1368213E+02  0.2516424E+01  0.6128375E+01  0.5858703E+03
Ar  399  0.1371109E+02  0.3770773E+02  0.8252751E+01  0.2353847E+03
Ar  400  0.1089707E+02  0.3128134E+01  0.8484325E+01  0.5792710E+03
Ar  401  0.1099381E+02  0.8978323E+00  0.1126997E+02  0.5541464E+02
Ar  402  0.1391048E+02  0.3130910E+01  0.1020361E+02  0.2722040E+03
Ar  403  0.1353620E+02  0.3760364E+02  0.1339258E+02  0.2213655E+03
Ar  404  0.1043126E+02  0.3131077E+01  0.1368497E+02  0.2639595E+03
Ar  405  0.1098149E+02  0.3768903E+02  0.1571271E+02  0.4454594E+03
Ar  406  0.1298126E+02  0.2856205E+01  0.1648234E+02  0.2500049E+03
Ar  407  0.1340507E+02  0.2843986E+00  0.1867071E+02  0.2120584E+03
Ar  408  0.1040326E+02  0.3110708E+01  0.1881388E+02  0.1241499E+03
Ar  409  0.1038035E+02  0.5423790E+00  0.2148371E+02  0.3730614E+03
Ar  410  0.1345153E+02  0.3097489E+01  0.2189567E+02  0.6776633E+03
Ar  411  0.1383172E+02  0.3792210E+00  0.2401785E+02  0.5628622E+03
Ar  412  0.1074903E+02  0.3052104E+01  0.2422164E+02  0.1594144E+03
Ar  413  0.1119561E+02  0.2172048E+00  0.2722834E+02  0.2734857E+03
Ar  414  0.1338724E+02  0.3202450E+01  0.2676013E+02  0.7698857E+02
Ar  415  0.1379318E+02  0.1608778E+00  0.2997778E+02  0.5489042E+03
Ar  416  0.1052853E+02  0.2154515E+01  0.3036108E+02  0.6484118E+02
Ar  417  0.1134933E+02  0.3728879E+02  0.3267772E+02  0.1651306E+03
Ar  418  0.1303378E+02  0.2655645E+01  0.3296418E+02  0.2607012E+03
Ar  419  0.1391127E+02  0.3767795E+02  0.3530483E+02  0.6435401E+03
Ar  420  0.1122094E+02  0.2012554E+01  0.3578446E+02  0.1070591E+03
Ar  421  0.1079148E+02  0.5142030E+01  0.6746682E+00  0.4460438E+03
Ar  422  0.1405283E+02  0.8249031E+01  0.3766316E+02  0.8930707E+03
Ar  423  0.1392722E+02  0.5733231E+01  0.2329659E+01  0.1324970E+03
Ar  424  0.1135529E+02  0.7994271E+01  0.2746875E+01  0.1047138E+03
Ar  425  0.1078871E+02  0.5321363E+01  0.5481155E+01  0.1504746E+03
Ar  426  0.1398407E+02  0.8853569E+01  0.4345830E+01  0.1038472E+03
Ar  427  0.1379555E+02  0.6140767E+01  0.7765542E+01  0.5663756E+03
Ar  428  0.1098501E+02  0.8197137E+01  0.7269508E+01  0.4675912E+03
Ar  429  0.1148337E+02  0.5754147E+01  0.1017363E+02  0.5787877E+03
Ar  430  0.1409757E+02  0.8335053E+01  0.1050758E+02  0.1170013E+03
Ar  431  0.1395424E+02  0.4914528E+01  0.1340949E+02  0.2718736E+03
Ar  432  0.1169363E+02  0.7577667E+01  0.1351427E+02  0.2588115E+03
Ar  433  0.1068419E+02  0.5300946E+01  0.1620040E+02  0.5763267E+03
Ar  434  0.1382004E+02  0.6670452E+01  0.1600297E+02  0.2235656E+03
Ar  435  0.1301533E+02  0.5385550E+01  0.1898224E+02  0.4996114E+03
Ar  436  0.1045227E+02  0.7644685E+01  0.1843623E+02  0.7259523E+02
Ar  437  0.1102831E+02  0.5908319E+01  0.2181924E+02  0.1271146E+03
Ar  438  0.1372445E+02  0.8500136E+01  0.2183453E+02  0.7030350E+02
Ar  439  0.1349503E+02  0.5913480E+01  0.2420084E+02  0.2111358E+03
Ar  440  0.1075866E+02  0.8936123E+01  0.2397653E+02  0.2137075E+03
Ar  441  0.1078693E+02  0.5759583E+01  0.2693895E+02  0.3246415E+02
Ar  442  0.1366692E+02  0.7621153E+01  0.2745046E+02  0.9185758E+02
Ar  443  0.1370004E+02  0.4705227E+01  0.2958790E+02  0.1276891E+03
Ar  444  0.1091071E+02  0.8380317E+01  0.2919478E+02  0.7472637E+03
Ar  445  0.1175193E+02  0.6617704E+01  0.3209204E+02  0.7821313E+03
Ar  446  0.1433348E+02  0.8288266E+01  0.3326360E+02  0.1152621E+04
Ar  447  0.1335069E+02  0.5025512E+01  0.3528514E+02  0.3704336E+03
Ar  448  0.1131578E+02  0.8649133E+01  0.3526328E+02  0.3499752E+03
Ar  449  0.1084112E+02  0.1144392E+02  0.3732242E+02  0.1970536E+03
Ar  450  0.1447171E+02  0.1389669E+02  0.3745133E+02  0.6895384E+02
Ar  451  0.1346020E+02  0.1103817E+02  0.1657373E+01  0.1309392E+03
Ar  452  0.1145217E+02  0.1387070E+02  0.2027754E+01  0.1499220E+03
Ar  453  0.1164534E+02  0.1147708E+02  0.4785710E+01  0.6925510E+02
Ar  454  0.1380755E+02  0.1348410E+02  0.6187780E+01  0.5171625E+03
Ar  455  0.1352248E+02  0.1046599E+02  0.7663580E+01  0.6191499E+02
Ar  456  0.1084387E+02  0.1385948E+02  0.7756044E+01  0.2853551E+03
Ar  457  0.1124578E+02  0.1078951E+02  0.1075665E+02  0.5437250E+03
Ar  458  0.1382918E+02  0.1333564E+02  0.1073065E+02  0.1254268E+03
Ar  459  0.1400276E+02  0.1033168E+02  0.1321287E+02  0.4114803E+03
Ar  460  0.1100588E+02  0.1373412E+02  0.1310718E+02  0.2561790E+03
Ar  461  0.1045730E+02  0.1036625E+02  0.1552618E+02  0.3332466E+03
Ar  462  0.1288311E+02  0.1314760E+02  0.1593943E+02  0.7699292E+03
Ar  463  0.1299623E+02  0.1046150E+02  0.1860143E+02  0.1627528E+03
Ar  464  0.1019423E+02  0.1244440E+02  0.1825564E+02  0.6677950E+03
Ar  465  0.1033707E+02  0.1051918E+02  0.2101840E+02  0.1145906E+03
Ar  466  0.1295762E+02  0.1349223E+02  0.2098074E+02  0.3382387E+03
Ar  467  0.1358918E+02  0.1110397E+02  0.2385503E+02  0.1680482E+03
Ar  468  0.1046078E+02  0.1294577E+02  0.2385804E+02  0.1444339E+02
Ar  469  0.1148237E+02  0.1081745E+02  0.2692779E+02  0.3364714E+03
Ar  470  0.1374807E+02  0.1344832E+02  0.2694502E+02  0.3856600E+03
Ar  471  0.1364893E+02  0.1114289E+02  0.2991935E+02  0.4545779E+03
Ar  472  0.1057686E+02  0.1342993E+02  0.3006354E+02  0.1342222E+03
Ar  473  0.1110031E+02  0.1041705E+02  0.3245271E+02  0.1332365E+03
Ar  474  0.1401122E+02  0.1341022E+02  0.3235092E+02  0.6566058E+02
Ar  475  0.1389600E+02  0.1111293E+02  0.3549945E+02  0.7307273E+02
Ar  476  0.1059311E+02  0.1392421E+02  0.3490294E+02  0.1163999E+03
Ar  477  0.1033407E+02  0.1639913E+02  0.3764796E+02  0.1429694E+03
Ar  478  0.1320782E+02  0.1916854E+02  0.3748394E+02  0.2101252E+03
Ar  479  0.1333224E+02  0.1706884E+02  0.2346077E+01  0.2303441E+03
Ar  480  0.1059842E+02  0.1862108E+02  0.3052965E+01  0.7586941E+03
Ar  481  0.1208225E+02  0.1656928E+02  0.5744481E+01  0.5361148E+03
Ar  482  0.1383210E+02  0.1957472E+02  0.5160764E+01  0.3660730E+03
Ar  483  0.1353225E+02  0.1650211E+02  0.8744238E+01  0.3974081E+03
Ar  484  0.1069983E+02  0.1904141E+02  0.7921768E+01  0.1135804E+02
Ar  485  0.1081652E+02  0.1647297E+02  0.1076813E+02  0.5149077E+02
Ar  486  0.1317698E+02  0.1957795E+02  0.1051541E+02  0.5282191E+03
Ar  487  0.1349900E+02  0.1699535E+02  0.1262502E+02  0.1816200E+03
Ar  488  0.1059208E+02  0.1932627E+02  0.1267823E+02  0.2896571E+02
Ar  489  0.1101041E+02  0.1688193E+02  0.1511786E+02  0.5124277E+03
Ar  490  0.1353443E+02  0.1929766E+02  0.1585537E+02  0.7423197E+02
Ar  491  0.1347083E+02  0.1602799E+02  0.1869234E+02  0.5732154E+02
Ar  492  0.1113147E+02  0.1905507E+02  0.1878834E+02  0.2040834E+03
Ar  493  0.1005861E+02  0.1528739E+02  0.2128981E+02  0.1195537E+03
Ar  494  0.1238744E+02  0.1928106E+02  0.2174165E+02  0.4532280E+02
Ar  495  0.1368670E+02  0.1496767E+02  0.2389079E+02  0.9379658E+02
Ar  496  0.1102139E+02  0.1743136E+02  0.2422686E+02  0.1269565E+03
Ar  497  0.1063828E+02  0.1562133E+02  0.2750054E+02  0.3121447E+03
Ar  498  0.1297556E+02  0.1852723E+02  0.2697397E+02  0.6181108E+02
Ar  499  0.1352218E+02  0.1635099E+02  0.2963223E+02  0.5590590E+03
Ar  500  0.1101661E+02  0.1909499E+02  0.2986291E+02  0.1639228E+03
Ar  501  0.1056495E+02  0.1614263E+02  0.3187692E+02  0.1145703E+03
Ar  502  0.1339463E+02  0.1869660E+02  0.3213711E+02  0.3280277E+03
Ar  503  0.1290059E+02  0.1637671E+02  0.3465436E+02  0.1087985E+03
Ar  504  0.1080528E+02  0.1909670E+02  0.3500524E+02  0.6862761E+03
Ar  505  0.1039088E+02  0.2207453E+02  0.3744731E+02  0.2275271E+03
Ar  506  0.1357917E+02  0.2403058E+02  0.2670011E+00  0.4425100E+03
Ar  507  0.1269122E+02  0.2117403E+02  0.2164240E+01  0.1152202E+03
Ar  508  0.1089523E+02  0.2460954E+02  0.2246659E+01  0.1867184E+03
Ar  509  0.1122133E+02  0.2178593E+02  0.5183641E+01  0.3487158E+03
Ar  510  0.1347801E+02  0.2474952E+02  0.5396999E+01  0.7246575E+02
Ar  511  0.1304334E+02  0.2194048E+02  0.8191103E+01  0.1538326E+03
Ar  512  0.1010786E+02  0.2426567E+02  0.7899814E+01  0.1766003E+03
Ar  513  0.1041049E+02  0.2235671E+02  0.1083595E+02  0.9072403E+02
Ar  514  0.1331420E+02  0.2459958E+02  0.1138985E+02  0.2210696E+03
Ar  515  0.1298428E+02  0.2167790E+02  0.1359052E+02  0.1087230E+03
Ar  516  0.1038306E+02  0.2425766E+02  0.1361230E+02  0.4431165E+03
Ar  517  0.1078441E+02  0.2212833E+02  0.1618573E+02  0.1464702E+03
Ar  518  0.1352022E+02  0.2483991E+02  0.1672796E+02  0.3681278E+03
Ar  519  0.1296494E+02  0.2193652E+02  0.1862028E+02  0.1834712E+03
Ar  520  0.1042230E+02  0.2456581E+02  0.1878015E+02  0.6385993E+03
Ar  521  0.1008554E+02  0.2185395E+02  0.2085331E+02  0.4015588E+03
Ar  522  0.1281802E+02  0.2399990E+02  0.2142563E+02  0.2012001E+03
Ar  523  0.1265479E+02  0.2140710E+02  0.2451907E+02  0.2382416E+03
Ar  524  0.1010779E+02  0.2444868E+02  0.2365052E+02  0.9244524E+01
Ar  525  0.1025063E+02  0.2239408E+02  0.2664095E+02  0.2894931E+03
Ar  526  0.1332639E+02  0.2475948E+02  0.2639009E+02  0.5018001E+02
Ar  527  0.1366190E+02  0.2147209E+02  0.2970437E+02  0.7534393E+02
Ar  528  0.1136758E+02  0.2391482E+02  0.2934456E+02  0.2156934E+03
Ar  529  0.1043235E+02  0.2193595E+02  0.3196036E+02  0.1167138E+04
Ar  530  0.1354271E+02  0.2431948E+02  0.3215255E+02  0.9537833E+03
Ar  531  0.1272809E+02  0.2199885E+02  0.3474634E+02  0.2352608E+02
Ar  532  0.1108422E+02  0.2472769E+02  0.3524297E+02  0.5475168E+02
Ar  533  0.1081823E+02  0.2755895E+02  0.3725921E+02  0.1923212E+03
Ar  534  0.1364051E+02  0.2952277E+02  0.1915783E+00  0.4340235E+02
Ar  535  0.1321161E+02  0.2736022E+02  0.2821555E+01  0.1200610E+03
Ar  536  0.1109225E+02  0.3001263E+02  0.2751041E+01  0.3324989E+03
Ar  537  0.1042664E+02  0.2710174E+02  0.5170016E+01  0.9967135E+03
Ar  538  0.1316087E+02  0.2960130E+02  0.5648701E+01  0.4088429E+03
Ar  539  0.1264273E+02  0.2679840E+02  0.8489475E+01  0.3339513E+03
Ar  540  0.1002505E+02  0.2935062E+02  0.7904721E+01  0.4003671E+03
Ar  541  0.9520861E+01  0.2707998E+02  0.1095858E+02  0.1141033E+03
Ar  542  0.1299248E+02  0.2944753E+02  0.1050211E+02  0.7285954E+02
Ar  543  0.1301498E+02  0.2705523E+02  0.1441248E+02  0.3951894E+02
Ar  544  0.1047692E+02  0.3005660E+02  0.1396176E+02  0.5715051E+03
Ar  545  0.1079386E+02  0.2740036E+02  0.1714322E+02  0.5444441E+02
Ar  546  0.1348237E+02  0.2977708E+02  0.1576823E+02  0.1058118E+03
Ar  547  0.1386971E+02  0.2777820E+02  0.1956020E+02  0.4309737E+03
Ar  548  0.1045999E+02  0.3058599E+02  0.1903344E+02  0.2097819E+03
Ar  549  0.1055713E+02  0.2720130E+02  0.2143669E+02  0.9071714E+03
Ar  550  0.1331159E+02  0.3057965E+02  0.2126063E+02  0.2167234E+03
Ar  551  0.1298199E+02  0.2731688E+02  0.2399119E+02  0.1284489E+03
Ar  552  0.1099994E+02  0.3052693E+02  0.2390454E+02  0.1952785E+03
Ar  553  0.1083783E+02  0.2712633E+02  0.2625437E+02  0.4706079E+03
Ar  554  0.1285743E+02  0.2988501E+02  0.2667155E+02  0.2511059E+03
Ar  555  0.1341389E+02  0.2672144E+02  0.2956048E+02  0.1628327E+03
Ar  556  0.1092658E+02  0.3004429E+02  0.2939451E+02  0.1932368E+03
Ar  557  0.1158796E+02  0.2710785E+02  0.3245055E+02  0.3104603E+03
Ar  558  0.1426195E+02  0.2991892E+02  0.2988261E+02  0.1212171E+02
Ar  559  0.1352781E+02  0.2734652E+02  0.3499878E+02  0.2104586E+03
Ar  560  0.1193905E+02  0.3040220E+02  0.3480193E+02  0.6494610E+02
Ar  561  0.1074661E+02  0.3318981E+02  0.2647581E+00  0.1529518E+03
Ar  562  0.1383886E+02  0.3536469E+02  0.1620886E-01  0.1685272E+03
Ar  563  0.1367090E+02  0.3248396E+02  0.2075030E+01  0.7144883E+03
Ar  564  0.1056553E+02  0.3507143E+02  0.3519880E+01  0.8322677E+02
Ar  565  0.1037152E+02  0.3227978E+02  0.5302696E+01  0.1704357E+03
Ar  566  0.1335175E+02  0.3495374E+02  0.5561848E+01  0.2239307E+03
Ar  567  0.1325856E+02  0.3285163E+02  0.8220556E+01  0.1697278E+03
Ar  568  0.1051408E+02  0.3511675E+02  0.7663146E+01  0.8056653E+03
Ar  569  0.1072192E+02  0.3231753E+02  0.1058943E+02  0.8693250E+03
Ar  570  0.1279673E+02  0.3559151E+02  0.1091899E+02  0.5049964E+03
Ar  571  0.1332357E+02  0.3241925E+02  0.1313734E+02  0.4330332E+03
Ar  572  0.1075999E+02  0.3475962E+02  0.1368732E+02  0.6112848E+03
Ar  573  0.1023413E+02  0.3287500E+02  0.1646300E+02  0.2738120E+03
Ar  574  0.1347640E+02  0.3489130E+02  0.1580192E+02  0.8519561E+03
Ar  575  0.1347972E+02  0.3259520E+02  0.1872270E+02  0.2003313E+02
Ar  576  0.1078710E+02  0.3583959E+02  0.1905757E+02  0.1468650E+04
Ar  577  0.1088445E+02  0.3296894E+02  0.2133868E+02  0.1943124E+03
Ar  578  0.1370064E+02  0.3562306E+02  0.2145394E+02  0.4220784E+03
Ar  579  0.1371878E+02  0.3243148E+02  0.2455040E+02  0.2331132E+03
Ar  580  0.1118204E+02  0.3535126E+02  0.2382993E+02  0.1656774E+03
Ar  581  0.1095931E+02  0.3262112E+02  0.2674102E+02  0.2575555E+03
Ar  582  0.1342941E+02  0.3500525E+02  0.2642697E+02  0.7826858E+02
Ar  583  0.1317758E+02  0.3279546E+02  0.2934034E+02  0.4372551E+03
Ar  584  0.1109880E+02  0.3539246E+02  0.2965691E+02  0.1409436E+03
Ar  585  0.1133454E+02  0.3248667E+02  0.3219973E+02  0.1131853E+03
Ar  586  0.1407320E+02  0.3528567E+02  0.3264365E+02  0.2888157E+03
Ar  587  0.1319012E+02  0.3354376E+02  0.3528120E+02  0.1468428E+03
Ar  588  0.1050316E+02  0.3571408E+02  0.3523500E+02  0.1818676E+03
Ar  589  0.1567957E+02  0.5270770E+00  0.2819830E+00  0.1899765E+03
Ar  590  0.1943972E+02  0.3038878E+01  0.1675753E-01  0.2394044E+03
Ar  591  0.1917734E+02  0.3768956E+02  0.1830584E+01  0.1504084E+03
Ar  592  0.1628962E+02  0.2870946E+01  0.2684694E+01  0.7123096E+01
Ar  593  0.1702849E+02  0.3724436E+02  0.5327252E+01  0.2445301E+03
Ar  594  0.1885551E+02  0.2219941E+01  0.5338166E+01  0.1154506E+03
Ar  595  0.1883878E+02  0.3775897E+02  0.8342732E+01  0.3695101E+03
Ar  596  0.1666882E+02  0.3013461E+01  0.8382445E+01  0.2636952E+03
Ar  597  0.1629027E+02  0.2467779E+00  0.1093405E+02  0.1291565E+03
Ar  598  0.1967219E+02  0.3115960E+01  0.1077485E+02  0.1493151E+03
Ar  599  0.1908774E+02  0.3749034E+02  0.1334159E+02  0.2799044E+03
Ar  600  0.1702715E+02  0.3002288E+01  0.1308930E+02  0.3252676E+03
Ar  601  0.1594902E+02  0.6004479E+00  0.1591178E+02  0.7557315E+02
Ar  602  0.1925875E+02  0.1669263E+01  0.1588273E+02  0.2199142E+03
Ar  603  0.1840359E+02  0.3740739E+02  0.1870112E+02  0.4210238E+03
Ar  604  0.1671207E+02  0.2756312E+01  0.1876018E+02  0.1200797E+03
Ar  605  0.1640814E+02  0.3772212E+02  0.2213438E+02  0.1202440E+03
Ar  606  0.1859465E+02  0.2911780E+01  0.2166431E+02  0.3452618E+03
Ar  607  0.1876037E+02  0.7208579E+00  0.2432269E+02  0.5539194E+03
Ar  608  0.1592151E+02  0.3033570E+01  0.2411839E+02  0.2838956E+03
Ar  609  0.1598128E+02  0.5726790E+00  0.2708369E+02  0.4713605E+03
Ar  610  0.1869487E+02  0.3234207E+01  0.2691847E+02  0.1224279E+03
Ar  611  0.1879505E+02  0.2035287E+00  0.2948653E+02  0.2350736E+03
Ar  612  0.1679721E+02  0.3029945E+01  0.3000391E+02  0.2951784E+03
Ar  613  0.1662485E+02  0.2614508E+00  0.3281741E+02  0.1003631E+04
Ar  614  0.1940367E+02  0.2487010E+01  0.3203290E+02  0.3186617E+03
Ar  615  0.1901483E+02  0.7091687E+00  0.3512141E+02  0.3182696E+03
Ar  616  0.1597313E+02  0.2671832E+01  0.3499367E+02  0.2246001E+03
Ar  617  0.1645758E+02  0.5757099E+01  0.3749299E+02  0.2099166E+03
Ar  618  0.1939573E+02  0.7638455E+01  0.2141405E+00  0.4338309E+03
Ar  619  0.1912503E+02  0.4949928E+01  0.2626932E+01  0.7744983E+03
Ar  620  0.1677850E+02  0.8006531E+01  0.2374721E+01  0.3355955E+03
Ar  621  0.1652429E+02  0.5752742E+01  0.4845577E+01  0.2145629E+03
Ar  622  0.1892743E+02  0.8356093E+01  0.4997960E+01  0.1419535E+03
Ar  623  0.1961487E+02  0.5060494E+01  0.7734129E+01  0.2984439E+03
Ar  624  0.1695222E+02  0.8156779E+01  0.8138326E+01  0.2930647E+03
Ar  625  0.1665003E+02  0.5863077E+01  0.1074609E+02  0.2730505E+03
Ar  626  0.1987802E+02  0.8022946E+01  0.1103338E+02  0.6418896E+03
Ar  627  0.1954355E+02  0.4703919E+01  0.1398326E+02  0.2576960E+03
Ar  628  0.1619542E+02  0.7285324E+01  0.1360873E+02  0.5878541E+01
Ar  629  0.1630820E+02  0.4602052E+01  0.1599308E+02  0.2491513E+03
Ar  630  0.1950920E+02  0.8180307E+01  0.1592366E+02  0.6840733E+03
Ar  631  0.1847335E+02  0.6304983E+01  0.1859892E+02  0.7978786E+03
Ar  632  0.1596027E+02  0.8405373E+01  0.1871243E+02  0.1157235E+04
Ar  633  0.1573126E+02  0.5957553E+01  0.2117229E+02  0.2657888E+03
Ar  634  0.1837277E+02  0.8491543E+01  0.2145798E+02  0.2165232E+03
Ar  635  0.1856948E+02  0.5665423E+01  0.2433955E+02  0.2932942E+02
Ar  636  0.1625994E+02  0.8296138E+01  0.2440633E+02  0.2891107E+02
Ar  637  0.1636748E+02  0.5371016E+01  0.2704502E+02  0.2205720E+03
Ar  638  0.1845151E+02  0.8009082E+01  0.2711160E+02  0.1016380E+04
Ar  639  0.1908365E+02  0.5379971E+01  0.2980220E+02  0.2616176E+03
Ar  640  0.1584139E+02  0.7656073E+01  0.2997088E+02  0.3718952E+03
Ar  641  0.1631021E+02  0.5169695E+01  0.3285450E+02  0.2485298E+03
Ar  642  0.1877414E+02  0.7508770E+01  0.3257294E+02  0.3298020E+03
Ar  643  0.1916772E+02  0.5087275E+01  0.3482462E+02  0.1452557E+02
Ar  644  0.1707389E+02  0.8061957E+01  0.3546708E+02  0.1951842E+03
Ar  645  0.1682144E+02  0.1093323E+02  0.3768105E+02  0.3059063E+03
Ar  646  0.1890964E+02  0.1395581E+02  0.3760681E+02  0.2494963E+03
Ar  647  0.1902853E+02  0.1115251E+02  0.2530166E+01  0.1951035E+03
Ar  648  0.1527266E+02  0.1433205E+02  0.3192657E+01  0.1402148E+03
Ar  649  0.1662084E+02  0.1131382E+02  0.4973850E+01  0.1860530E+02
Ar  650  0.1915829E+02  0.1393272E+02  0.5496289E+01  0.3497854E+02
Ar  651  0.1894225E+02  0.1086861E+02  0.7537978E+01  0.3766267E+03
Ar  652  0.1669420E+02  0.1377485E+02  0.7876678E+01  0.1952637E+03
Ar  653  0.1675678E+02  0.1072165E+02  0.9968960E+01  0.9589808E+02
Ar  654  0.1923217E+02  0.1328922E+02  0.1020654E+02  0.4532428E+03
Ar  655  0.1828432E+02  0.1015451E+02  0.1312458E+02  0.5793528E+02
Ar  656  0.1618173E+02  0.1340813E+02  0.1337462E+02  0.7175252E+03
Ar  657  0.1584444E+02  0.1039632E+02  0.1605720E+02  0.8669876E+03
Ar  658  0.1837884E+02  0.1316931E+02  0.1598060E+02  0.4090658E+03
Ar  659  0.1891892E+02  0.1072066E+02  0.1864377E+02  0.1517945E+03
Ar  660  0.1551005E+02  0.1314228E+02  0.1839214E+02  0.3306062E+03
Ar  661  0.1615466E+02  0.1123194E+02  0.2132098E+02  0.7314631E+03
Ar  662  0.1921104E+02  0.1345463E+02  0.2237308E+02  0.2542861E+03
Ar  663  0.1905646E+02  0.1080732E+02  0.2527978E+02  0.2604797E+02
Ar  664  0.1644069E+02  0.1315828E+02  0.2482867E+02  0.1888554E+03
Ar  665  0.1555747E+02  0.1034320E+02  0.2713610E+02  0.5638249E+03
Ar  666  0.1906316E+02  0.1389498E+02  0.2688197E+02  0.5597423E+03
Ar  667  0.1859827E+02  0.1034093E+02  0.2989028E+02  0.5359457E+03
Ar  668  0.1622058E+02  0.1329225E+02  0.2970855E+02  0.8046975E+03
Ar  669  0.1735223E+02  0.1055616E+02  0.3288915E+02  0.4273512E+02
Ar  670  0.1936441E+02  0.1347484E+02  0.3242740E+02  0.3770378E+03
Ar  671  0.2006988E+02  0.1147987E+02  0.3530242E+02  0.8259454E+02
Ar  672  0.1669339E+02  0.1373725E+02  0.3499376E+02  0.6895053E+02
Ar  673  0.1567101E+02  0.1715545E+02  0.3658263E+02  0.1262637E+03
Ar  674  0.1924140E+02  0.1854518E+02  0.8611255E-01  0.3216765E+03
Ar  675  0.1894915E+02  0.1603638E+02  0.3003758E+01  0.3743369E+03
Ar  676  0.1640454E+02  0.1831246E+02  0.2563981E+01  0.3878953E+02
Ar  677  0.1602842E+02  0.1676124E+02  0.6341664E+01  0.1128145E+03
Ar  678  0.1949243E+02  0.1904904E+02  0.5291914E+01  0.2875316E+03
Ar  679  0.1929019E+02  0.1661752E+02  0.8299778E+01  0.3545328E+03
Ar  680  0.1614749E+02  0.1936710E+02  0.8446313E+01  0.4531047E+03
Ar  681  0.1629862E+02  0.1640172E+02  0.1050939E+02  0.2307313E+02
Ar  682  0.1893007E+02  0.1915845E+02  0.1087231E+02  0.6743819E+03
Ar  683  0.1911523E+02  0.1635598E+02  0.1295491E+02  0.8843763E+03
Ar  684  0.1586715E+02  0.1938388E+02  0.1297252E+02  0.5532796E+03
Ar  685  0.1643464E+02  0.1618007E+02  0.1596617E+02  0.1187523E+03
Ar  686  0.1894005E+02  0.1840827E+02  0.1753863E+02  0.2811069E+03
Ar  687  0.1827743E+02  0.1567097E+02  0.1932946E+02  0.2363360E+03
Ar  688  0.1518518E+02  0.1917186E+02  0.1937066E+02  0.1519774E+03
Ar  689  0.1572752E+02  0.1569446E+02  0.2125368E+02  0.7970095E+02
Ar  690  0.1919546E+02  0.1825879E+02  0.2166168E+02  0.1983717E+03
Ar  691  0.1832605E+02  0.1609312E+02  0.2397201E+02  0.4158290E+03
Ar  692  0.1503556E+02  0.1813284E+02  0.2388023E+02  0.4609792E+02
Ar  693  0.1646024E+02  0.1610290E+02  0.2694704E+02  0.4458304E+03
Ar  694  0.1795628E+02  0.1908979E+02  0.2660674E+02  0.5679890E+03
Ar  695  0.1880807E+02  0.1672450E+02  0.2936861E+02  0.5119269E+03
Ar  696  0.1616653E+02  0.1889155E+02  0.2965789E+02  0.9738898E+03
Ar  697  0.1580944E+02  0.1622987E+02  0.3217711E+02  0.2505101E+02
Ar  698  0.1897062E+02  0.1960592E+02  0.3197134E+02  0.1607325E+03
Ar  699  0.1880551E+02  0.1683386E+02  0.3456139E+02  0.1573896E+03
Ar  700  0.1590297E+02  0.1973783E+02  0.3440569E+02  0.6119953E+03
Ar  701  0.1578174E+02  0.2123124E+02  0.5569735E+00  0.1332278E+03
Ar  702  0.1874831E+02  0.2470428E+02  0.7582634E+00  0.3555754E+03
Ar  703  0.1881312E+02  0.2162776E+02  0.2494446E+01  0.1498169E+03
Ar  704  0.1614901E+02  0.2472216E+02  0.3205652E+01  0.3394826E+03
Ar  705  0.1677516E+02  0.2155485E+02  0.5231670E+01  0.7461203E+02
Ar  706  0.1844667E+02  0.2435897E+02  0.5788852E+01  0.5654958E+03
Ar  707  0.1895965E+02  0.2135997E+02  0.8071460E+01  0.4965079E+03
Ar  708  0.1562622E+02  0.2441112E+02  0.7845958E+01  0.6575687E+03
Ar  709  0.1680047E+02  0.2180880E+02  0.1062450E+02  0.3562413E+03
Ar  710  0.1869573E+02  0.2432106E+02  0.1119094E+02  0.4475640E+03
Ar  711  0.1925938E+02  0.2137568E+02  0.1374625E+02  0.2169881E+03
Ar  712  0.1617619E+02  0.2473347E+02  0.1396694E+02  0.3829083E+03
Ar  713  0.1687154E+02  0.2180975E+02  0.1662180E+02  0.2652379E+02
Ar  714  0.1896739E+02  0.2419057E+02  0.1691523E+02  0.4782092E+03
Ar  715  0.1850846E+02  0.2142989E+02  0.1950068E+02  0.2345721E+03
Ar  716  0.1633252E+02  0.2416891E+02  0.1932313E+02  0.1330652E+04
Ar  717  0.1548057E+02  0.2160615E+02  0.2150117E+02  0.7870627E+02
Ar  718  0.1859274E+02  0.2381808E+02  0.2182980E+02  0.3511796E+03
Ar  719  0.1820377E+02  0.2112883E+02  0.2384728E+02  0.1159893E+03
Ar  720  0.1549806E+02  0.2353112E+02  0.2412762E+02  0.2767156E+03
Ar  721  0.1566488E+02  0.2184736E+02  0.2685742E+02  0.3110572E+03
Ar  722  0.1904504E+02  0.2362901E+02  0.2644047E+02  0.7194465E+03
Ar  723  0.1829428E+02  0.2174138E+02  0.2936248E+02  0.3268577E+03
Ar  724  0.1677002E+02  0.2504546E+02  0.2979984E+02  0.1594779E+04
Ar  725  0.1646422E+02  0.2224761E+02  0.3230419E+02  0.3081417E+03
Ar  726  0.1941412E+02  0.2407584E+02  0.3213897E+02  0.3080283E+03
Ar  727  0.1850715E+02  0.2229669E+02  0.3526976E+02  0.7377510E+03
Ar  728  0.1609261E+02  0.2476677E+02  0.3514459E+02  0.3086716E+03
Ar  729  0.1595575E+02  0.2689426E+02  0.1596263E+00  0.4940851E+03
Ar  730  0.1857461E+02  0.2963713E+02  0.3733141E+02  0.3356417E+03
Ar  731  0.1863222E+02  0.2774966E+02  0.3522632E+01  0.2099989E+03
Ar  732  0.1573915E+02  0.2966037E+02  0.3072556E+01  0.1489640E+03
Ar  733  0.1626685E+02  0.2739976E+02  0.5790725E+01  0.2232967E+03
Ar  734  0.1805839E+02  0.3060501E+02  0.5757715E+01  0.6965411E+03
Ar  735  0.1894984E+02  0.2762435E+02  0.8381331E+01  0.1204747E+02
Ar  736  0.1571058E+02  0.2946890E+02  0.8337418E+01  0.4251171E+03
Ar  737  0.1633534E+02  0.2657338E+02  0.1074888E+02  0.2097006E+03
Ar  738  0.1914875E+02  0.2967780E+02  0.1145875E+02  0.4342454E+03
Ar  739  0.1853055E+02  0.2687645E+02  0.1399518E+02  0.4687292E+03
Ar  740  0.1583610E+02  0.2936354E+02  0.1303135E+02  0.5611540E+02
Ar  741  0.1589135E+02  0.2741448E+02  0.1632330E+02  0.7534667E+02
Ar  742  0.1898637E+02  0.2986217E+02  0.1660705E+02  0.1419203E+03
Ar  743  0.1822888E+02  0.2672126E+02  0.1916972E+02  0.2748868E+03
Ar  744  0.1595962E+02  0.3001638E+02  0.1868320E+02  0.7245042E+03
Ar  745  0.1595968E+02  0.2664378E+02  0.2214419E+02  0.2229127E+03
Ar  746  0.1850936E+02  0.2960093E+02  0.2117112E+02  0.4288248E+03
Ar  747  0.1871520E+02  0.2709212E+02  0.2401823E+02  0.6883967E+02
Ar  748  0.1611377E+02  0.2977135E+02  0.2448741E+02  0.4641969E+03
Ar  749  0.1579228E+02  0.2713594E+02  0.2676852E+02  0.5174060E+03
Ar  750  0.1865004E+02  0.2899973E+02  0.2700510E+02  0.4061501E+03
Ar  751  0.1972827E+02  0.2615949E+02  0.2895445E+02  0.3445849E+03
Ar  752  0.1734974E+02  0.2877754E+02  0.2998661E+02  0.3399668E+03
Ar  753  0.1569080E+02  0.2733359E+02  0.3236753E+02  0.1940694E+03
Ar  754  0.1852994E+02  0.2969269E+02  0.3302433E+02  0.3911476E+03
Ar  755  0.1901829E+02  0.2677350E+02  0.3525618E+02  0.5409361E+02
Ar  756  0.1564918E+02  0.2960870E+02  0.3543058E+02  0.2799167E+03
Ar  757  0.1586691E+02  0.3215125E+02  0.3732813E+02  0.8830449E+03
Ar  758  0.1888010E+02  0.3451550E+02  0.3725045E+02  0.5783873E+03
Ar  759  0.1879760E+02  0.3159679E+02  0.2415516E+01  0.3068184E+03
Ar  760  0.1626258E+02  0.3468842E+02  0.2626445E+01  0.9956979E+02
Ar  761  0.1548541E+02  0.3263880E+02  0.5308709E+01  0.2440958E+03
Ar  762  0.1858893E+02  0.3395245E+02  0.5616122E+01  0.4285665E+03
Ar  763  0.1870577E+02  0.3191213E+02  0.8660195E+01  0.2874097E+02
Ar  764  0.1617414E+02  0.3548362E+02  0.8090224E+01  0.1586525E+03
Ar  765  0.1583170E+02  0.3207291E+02  0.1092750E+02  0.4228738E+03
Ar  766  0.1858763E+02  0.3501418E+02  0.1072945E+02  0.4220389E+03
Ar  767  0.1862742E+02  0.3236298E+02  0.1373699E+02  0.1604235E+03
Ar  768  0.1584702E+02  0.3494258E+02  0.1360051E+02  0.2581399E+03
Ar  769  0.1641543E+02  0.3262455E+02  0.1608279E+02  0.1531540E+03
Ar  770  0.1884877E+02  0.3500757E+02  0.1580393E+02  0.2259861E+03
Ar  771  0.1971191E+02  0.3235901E+02  0.1912020E+02  0.5586330E+03
Ar  772  0.1549507E+02  0.3537732E+02  0.1872889E+02  0.4848512E+03
Ar  773  0.1593068E+02  0.3313557E+02  0.2166444E+02  0.3165798E+03
Ar  774  0.1866312E+02  0.3526750E+02  0.2112195E+02  0.3211391E+03
Ar  775  0.1854003E+02  0.3228717E+02  0.2349370E+02  0.3558522E+03
Ar  776  0.1659110E+02  0.3531399E+02  0.2470322E+02  0.2527881E+03
Ar  777  0.1624076E+02  0.3153504E+02  0.2747800E+02  0.2348649E+02
Ar  778  0.1893451E+02  0.3515324E+02  0.2726583E+02  0.1516556E+03
Ar  779  0.1806515E+02  0.3217468E+02  0.3018435E+02  0.1919334E+03
Ar  780  0.1581213E+02  0.3513542E+02  0.2892347E+02  0.3618261E+03
Ar  781  0.1496205E+02  0.3210622E+02  0.3234661E+02  0.3225763E+03
Ar  782  0.1808659E+02  0.3518696E+02  0.3241541E+02  0.2009856E+03
Ar  783  0.1776377E+02  0.3235208E+02  0.3479416E+02  0.5677522E+03
Ar  784  0.1637516E+02  0.3524035E+02  0.3539219E+02  0.3080892E+03
Ar  785  0.2195037E+02  0.3739054E+02  0.3734180E+02  0.3753754E+03
Ar  786  0.2432226E+02  0.2939059E+01  0.1812536E+00  0.5571373E+03
Ar  787  0.2440550E+02  0.3750225E+02  0.2806082E+01  0.6159017E+02
Ar  788  0.2172265E+02  0.2578893E+01  0.2493487E+01  0.7262607E+02
Ar  789  0.2131418E+02  0.3752137E+02  0.5696281E+01  0.1116532E+02
Ar  790  0.2410466E+02  0.2025435E+01  0.5638877E+01  0.5561078E+03
Ar  791  0.2423883E+02  0.3757437E+02  0.8161622E+01  0.5641672E+03
Ar  792  0.2193373E+02  0.2504320E+01  0.8106522E+01  0.1510393E+03
Ar  793  0.2152666E+02  0.3776242E+02  0.1047930E+02  0.1688345E+03
Ar  794  0.2463382E+02  0.2324163E+01  0.1116684E+02  0.8250108E+03
Ar  795  0.2451357E+02  0.3729343E+02  0.1343967E+02  0.2022981E+03
Ar  796  0.2184627E+02  0.1993830E+01  0.1333096E+02  0.2377598E+03
Ar  797  0.2178944E+02  0.3718400E+02  0.1604949E+02  0.8988526E+03
Ar  798  0.2387339E+02  0.2273557E+01  0.1613588E+02  0.8558197E+03
Ar  799  0.2377975E+02  0.3748970E+00  0.1942655E+02  0.3811061E+03
Ar  800  0.2048071E+02  0.3036426E+01  0.1866669E+02  0.6089509E+02
Ar  801  0.2116651E+02  0.8242389E-01  0.2134815E+02  0.8718096E+02
Ar  802  0.2369700E+02  0.2737419E+01  0.2190486E+02  0.1300824E+04
Ar  803  0.2349129E+02  0.3498336E+00  0.2404015E+02  0.3764537E+03
Ar  804  0.2132425E+02  0.3494980E+01  0.2449102E+02  0.7289242E+02
Ar  805  0.2183845E+02  0.3722537E+02  0.2785071E+02  0.4838684E+03
Ar  806  0.2417510E+02  0.2355986E+01  0.2655106E+02  0.1309357E+03
Ar  807  0.2522192E+02  0.3716761E+02  0.2948598E+02  0.1074253E+04
Ar  808  0.2128565E+02  0.2417505E+01  0.2949411E+02  0.4248770E+02
Ar  809  0.2219934E+02  0.9180842E-01  0.3182280E+02  0.1260161E+03
Ar  810  0.2446763E+02  0.2780052E+01  0.3234032E+02  0.1206502E+04
Ar  811  0.2459227E+02  0.2638776E+00  0.3531884E+02  0.6379293E+03
Ar  812  0.2196892E+02  0.2392213E+01  0.3483203E+02  0.3038291E+03
Ar  813  0.2230211E+02  0.5504209E+01  0.5543177E+00  0.3810108E+03
Ar  814  0.2407905E+02  0.8543434E+01  0.4765715E-01  0.3264577E+03
Ar  815  0.2431379E+02  0.4812063E+01  0.3184639E+01  0.4876621E+03
Ar  816  0.2158956E+02  0.7557215E+01  0.3177375E+01  0.1897053E+03
Ar  817  0.2151958E+02  0.4886455E+01  0.5201711E+01  0.2009677E+03
Ar  818  0.2447661E+02  0.8921515E+01  0.5349136E+01  0.9189104E+03
Ar  819  0.2420679E+02  0.5665423E+01  0.7154075E+01  0.8846532E+03
Ar  820  0.2150654E+02  0.7989142E+01  0.7407995E+01  0.3421371E+03
Ar  821  0.2213964E+02  0.5544612E+01  0.1039450E+02  0.4157632E+02
Ar  822  0.2478408E+02  0.7955283E+01  0.1064039E+02  0.8651374E+02
Ar  823  0.2391746E+02  0.5064259E+01  0.1360061E+02  0.1395028E+03
Ar  824  0.2178737E+02  0.7762896E+01  0.1362305E+02  0.5480968E+03
Ar  825  0.2147208E+02  0.5534216E+01  0.1686448E+02  0.3478340E+03
Ar  826  0.2452359E+02  0.6726344E+01  0.1721876E+02  0.5332225E+02
Ar  827  0.2386535E+02  0.3942397E+01  0.1906695E+02  0.3261665E+03
Ar  828  0.2190943E+02  0.8587086E+01  0.1869607E+02  0.6250503E+02
Ar  829  0.2094981E+02  0.5628572E+01  0.2156263E+02  0.2610035E+03
Ar  830  0.2374923E+02  0.8204413E+01  0.2151179E+02  0.5325433E+02
Ar  831  0.2415803E+02  0.5595432E+01  0.2428091E+02  0.4534758E+03
Ar  832  0.2112414E+02  0.8047795E+01  0.2450434E+02  0.3143474E+03
Ar  833  0.2133085E+02  0.5306907E+01  0.2723145E+02  0.1512942E+03
Ar  834  0.2354370E+02  0.8085495E+01  0.2696711E+02  0.2611230E+03
Ar  835  0.2434200E+02  0.5017121E+01  0.2929802E+02  0.1833685E+03
Ar  836  0.2138694E+02  0.8136975E+01  0.3013997E+02  0.5823542E+03
Ar  837  0.2165154E+02  0.5315865E+01  0.3229645E+02  0.2783003E+03
Ar  838  0.2409499E+02  0.7749356E+01  0.3159106E+02  0.1619024E+03
Ar  839  0.2382135E+02  0.5675239E+01  0.3457922E+02  0.6037621E+03
Ar  840  0.2107067E+02  0.8018770E+01  0.3509647E+02  0.6049907E+03
Ar  841  0.2168033E+02  0.1058895E+02  0.4325384E+00  0.4038055E+03
Ar  842  0.2431858E+02  0.1347810E+02  0.3738281E+02  0.4365514E+03
Ar  843  0.2396606E+02  0.1084575E+02  0.2776585E+01  0.3796177E+03
Ar  844  0.2199171E+02  0.1396156E+02  0.2498789E+01  0.7956397E+02
Ar  845  0.2165663E+02  0.1129693E+02  0.5336405E+01  0.2770236E+03
Ar  846  0.2466236E+02  0.1375796E+02  0.4789037E+01  0.6099539E+03
Ar  847  0.2461583E+02  0.1058627E+02  0.8493924E+01  0.2040729E+03
Ar  848  0.2227558E+02  0.1400749E+02  0.7862932E+01  0.9398690E+03
Ar  849  0.2167448E+02  0.1100256E+02  0.9814167E+01  0.3382490E+02
Ar  850  0.2456700E+02  0.1364604E+02  0.1110986E+02  0.1175389E+03
Ar  851  0.2357531E+02  0.1045454E+02  0.1248836E+02  0.5573620E+03
Ar  852  0.2113900E+02  0.1284529E+02  0.1322493E+02  0.4607083E+03
Ar  853  0.2182371E+02  0.1133162E+02  0.1673487E+02  0.4956122E+02
Ar  854  0.2429916E+02  0.1391109E+02  0.1677445E+02  0.5967496E+03
Ar  855  0.2408067E+02  0.1124195E+02  0.1921367E+02  0.3101072E+03
Ar  856  0.2075340E+02  0.1349777E+02  0.1966064E+02  0.1681058E+03
Ar  857  0.2111901E+02  0.1035449E+02  0.2198976E+02  0.3704673E+03
Ar  858  0.2355808E+02  0.1303998E+02  0.2214945E+02  0.1743725E+03
Ar  859  0.2391722E+02  0.1048933E+02  0.2458907E+02  0.4652632E+02
Ar  860  0.2175902E+02  0.1317357E+02  0.2493577E+02  0.3338187E+03
Ar  861  0.2145768E+02  0.1072090E+02  0.2789795E+02  0.7238107E+02
Ar  862  0.2481593E+02  0.1336284E+02  0.2786123E+02  0.1226939E+03
Ar  863  0.2444788E+02  0.1004208E+02  0.2943162E+02  0.3749621E+03
Ar  864  0.2103898E+02  0.1355419E+02  0.2954633E+02  0.8922824E+02
Ar  865  0.2127409E+02  0.1046369E+02  0.3209565E+02  0.1772342E+03
Ar  866  0.2316167E+02  0.1344024E+02  0.3254110E+02  0.2195179E+03
Ar  867  0.2378311E+02  0.1041670E+02  0.3485189E+02  0.2634493E+03
Ar  868  0.2164855E+02  0.1467628E+02  0.3520606E+02  0.2436118E+03
Ar  869  0.2198499E+02  0.1689477E+02  0.8782942E+00  0.5020196E+03
Ar  870  0.2424059E+02  0.1937784E+02  0.3882535E-01  0.4043351E+03
Ar  871  0.2497447E+02  0.1636769E+02  0.2483461E+01  0.1590033E+03
Ar  872  0.2221751E+02  0.1940477E+02  0.3199936E+01  0.5437878E+02
Ar  873  0.2269678E+02  0.1659644E+02  0.5572149E+01  0.2716037E+03
Ar  874  0.2464562E+02  0.1907571E+02  0.5865936E+01  0.4865290E+03
Ar  875  0.2456982E+02  0.1649408E+02  0.8581136E+01  0.2064293E+03
Ar  876  0.2151499E+02  0.1925606E+02  0.8094448E+01  0.1149026E+03
Ar  877  0.2179556E+02  0.1620282E+02  0.1084229E+02  0.3441485E+03
Ar  878  0.2394254E+02  0.1888971E+02  0.1060112E+02  0.7839520E+03
Ar  879  0.2329757E+02  0.1563224E+02  0.1376320E+02  0.3466028E+02
Ar  880  0.2169182E+02  0.1893152E+02  0.1398032E+02  0.3299119E+03
Ar  881  0.2049910E+02  0.1580677E+02  0.1633447E+02  0.2901888E+03
Ar  882  0.2428860E+02  0.1931105E+02  0.1621848E+02  0.8286526E+02
Ar  883  0.2368301E+02  0.1531207E+02  0.1955216E+02  0.8800012E+02
Ar  884  0.2158121E+02  0.1802313E+02  0.1948005E+02  0.1732050E+03
Ar  885  0.2178590E+02  0.1581144E+02  0.2242791E+02  0.5045192E+02
Ar  886  0.2421813E+02  0.1883393E+02  0.2202624E+02  0.2095261E+03
Ar  887  0.2432393E+02  0.1614199E+02  0.2491129E+02  0.5239792E+03
Ar  888  0.2106676E+02  0.1924618E+02  0.2466229E+02  0.2148822E+03
Ar  889  0.2119103E+02  0.1630451E+02  0.2673927E+02  0.4587636E+03
Ar  890  0.2408311E+02  0.1895565E+02  0.2737760E+02  0.1984446E+03
Ar  891  0.2388093E+02  0.1621363E+02  0.3051360E+02  0.4527080E+03
Ar  892  0.2127966E+02  0.1967890E+02  0.2945161E+02  0.3175637E+03
Ar  893  0.2113013E+02  0.1670360E+02  0.3219275E+02  0.2023316E+03
Ar  894  0.2442430E+02  0.1934139E+02  0.3231257E+02  0.3109513E+03
Ar  895  0.2432907E+02  0.1655403E+02  0.3516063E+02  0.5020011E+03
Ar  896  0.2191991E+02  0.1859591E+02  0.3537628E+02  0.3132715E+03
Ar  897  0.2107500E+02  0.2144760E+02  0.3763731E+02  0.1782881E+03
Ar  898  0.2447143E+02  0.2369587E+02  0.1917589E+00  0.1282183E+03
Ar  899  0.2470408E+02  0.2177264E+02  0.3614131E+01  0.5813911E+03
Ar  900  0.2127109E+02  0.2414904E+02  0.3321985E+01  0.1161735E+03
Ar  901  0.2175692E+02  0.2191870E+02  0.5900431E+01  0.8179825E+03
Ar  902  0.2371353E+02  0.2446564E+02  0.5678244E+01  0.3636005E+03
Ar  903  0.2400182E+02  0.2209027E+02  0.8343065E+01  0.5365833E+03
Ar  904  0.2116267E+02  0.2466433E+02  0.8121641E+01  0.1170580E+03
Ar  905  0.2162368E+02  0.2140325E+02  0.1103362E+02  0.1698696E+03
Ar  906  0.2425716E+02  0.2464109E+02  0.1122880E+02  0.5241305E+03
Ar  907  0.2396903E+02  0.2176781E+02  0.1400974E+02  0.1754057E+02
Ar  908  0.2105170E+02  0.2422130E+02  0.1428548E+02  0.1145835E+03
Ar  909  0.2098735E+02  0.2102084E+02  0.1702467E+02  0.2402968E+03
Ar  910  0.2411593E+02  0.2376630E+02  0.1668769E+02  0.2457033E+02
Ar  911  0.2380029E+02  0.2111032E+02  0.1899150E+02  0.2059851E+03
Ar  912  0.2135467E+02  0.2446717E+02  0.1956765E+02  0.6611690E+02
Ar  913  0.2155270E+02  0.2119166E+02  0.2137049E+02  0.4763174E+03
Ar  914  0.2463168E+02  0.2421363E+02  0.2094933E+02  0.2003862E+03
Ar  915  0.2457517E+02  0.2132564E+02  0.2452033E+02  0.1492447E+03
Ar  916  0.2170559E+02  0.2399504E+02  0.2354407E+02  0.2000293E+03
Ar  917  0.2189134E+02  0.2168191E+02  0.2683096E+02  0.7317886E+02
Ar  918  0.2417579E+02  0.2461422E+02  0.2702412E+02  0.1852548E+03
Ar  919  0.2467457E+02  0.2193208E+02  0.2948175E+02  0.5350883E+03
Ar  920  0.2181639E+02  0.2364239E+02  0.2960252E+02  0.5274758E+03
Ar  921  0.2186277E+02  0.2101193E+02  0.3328844E+02  0.2180344E+03
Ar  922  0.2461245E+02  0.2420645E+02  0.3242430E+02  0.5010868E+02
Ar  923  0.2438160E+02  0.2144188E+02  0.3531012E+02  0.3278319E+03
Ar  924  0.2153768E+02  0.2389657E+02  0.3502802E+02  0.1997830E+04
Ar  925  0.2138952E+02  0.2611467E+02  0.3748410E+02  0.1175343E+03
Ar  926  0.2405154E+02  0.2977988E+02  0.3749146E+02  0.6458163E+02
Ar  927  0.2406016E+02  0.2669609E+02  0.2343955E+01  0.1042587E+03
Ar  928  0.2143505E+02  0.2913038E+02  0.1974558E+01  0.4694002E+03
Ar  929  0.2125360E+02  0.2717068E+02  0.5428151E+01  0.4853908E+03
Ar  930  0.2379857E+02  0.2918526E+02  0.4572443E+01  0.4295404E+03
Ar  931  0.2369504E+02  0.2662930E+02  0.8417553E+01  0.7085612E+02
Ar  932  0.2164211E+02  0.3005342E+02  0.8145903E+01  0.2164096E+03
Ar  933  0.2163423E+02  0.2688800E+02  0.1142411E+02  0.8569196E+03
Ar  934  0.2390544E+02  0.2905768E+02  0.1087214E+02  0.4087984E+03
Ar  935  0.2434235E+02  0.2719930E+02  0.1381652E+02  0.1160537E+03
Ar  936  0.2168468E+02  0.2969268E+02  0.1402698E+02  0.1398277E+03
Ar  937  0.2126048E+02  0.2727506E+02  0.1705954E+02  0.2990498E+03
Ar  938  0.2376557E+02  0.3021431E+02  0.1642625E+02  0.3866855E+01
Ar  939  0.2461351E+02  0.2681723E+02  0.1807083E+02  0.2581434E+03
Ar  940  0.2161524E+02  0.2982913E+02  0.1978387E+02  0.7266710E+03
Ar  941  0.2151637E+02  0.2681662E+02  0.2177548E+02  0.2061156E+03
Ar  942  0.2443427E+02  0.2981535E+02  0.2187800E+02  0.3597905E+03
Ar  943  0.2425047E+02  0.2712137E+02  0.2409528E+02  0.9890269E+02
Ar  944  0.2148253E+02  0.2967617E+02  0.2430193E+02  0.4546583E+03
Ar  945  0.2133092E+02  0.2680652E+02  0.2585835E+02  0.1131818E+03
Ar  946  0.2389014E+02  0.3027381E+02  0.2682571E+02  0.7749811E+02
Ar  947  0.2383570E+02  0.2719585E+02  0.2934680E+02  0.2479689E+03
Ar  948  0.2104584E+02  0.3003021E+02  0.2966616E+02  0.2204158E+03
Ar  949  0.2101565E+02  0.2728073E+02  0.3218748E+02  0.9240677E+02
Ar  950  0.2438760E+02  0.2941675E+02  0.3235224E+02  0.5230945E+03
Ar  951  0.2340612E+02  0.2708965E+02  0.3460129E+02  0.5209147E+03
Ar  952  0.2127218E+02  0.2999541E+02  0.3524036E+02  0.7777166E+03
Ar  953  0.2161208E+02  0.3223307E+02  0.3767754E+02  0.5892003E+02
Ar  954  0.2430472E+02  0.3431383E+02  0.1076545E+00  0.9998098E+03
Ar  955  0.2440981E+02  0.3209397E+02  0.2836771E+01  0.9079305E+01
Ar  956  0.2138898E+02  0.3519316E+02  0.2333970E+01  0.3234106E+02
Ar  957  0.2143826E+02  0.3223588E+02  0.4629088E+01  0.1949789E+02
Ar  958  0.2400487E+02  0.3495429E+02  0.4785914E+01  0.9522136E+02
Ar  959  0.2403500E+02  0.3237246E+02  0.7992601E+01  0.4744180E+03
Ar  960  0.2144891E+02  0.3480566E+02  0.8161048E+01  0.7702202E+02
Ar  961  0.2154169E+02  0.3225917E+02  0.1094514E+02  0.1502817E+03
Ar  962  0.2391881E+02  0.3481389E+02  0.1052660E+02  0.1848068E+03
Ar  963  0.2423493E+02  0.3274459E+02  0.1340656E+02  0.5783014E+03
Ar  964  0.2157535E+02  0.3519743E+02  0.1289117E+02  0.3624171E+03
Ar  965  0.2187375E+02  0.3295403E+02  0.1579816E+02  0.3223274E+03
Ar  966  0.2497376E+02  0.3460292E+02  0.1624968E+02  0.2414883E+03
Ar  967  0.2430133E+02  0.3229675E+02  0.1921289E+02  0.3428390E+03
Ar  968  0.2188347E+02  0.3498719E+02  0.1893644E+02  0.7086545E+03
Ar  969  0.2198575E+02  0.3292448E+02  0.2202752E+02  0.8775810E+02
Ar  970  0.2438528E+02  0.3551920E+02  0.2170807E+02  0.4170928E+03
Ar  971  0.2486727E+02  0.3224795E+02  0.2429030E+02  0.8913099E+03
Ar  972  0.2106609E+02  0.3555203E+02  0.2450882E+02  0.1213148E+04
Ar  973  0.2005457E+02  0.3200018E+02  0.2669494E+02  0.2557790E+03
Ar  974  0.2420684E+02  0.3499532E+02  0.2677940E+02  0.2867407E+03
Ar  975  0.2477460E+02  0.3235898E+02  0.2936951E+02  0.2251619E+03
Ar  976  0.2112926E+02  0.3446893E+02  0.3013964E+02  0.4938174E+03
Ar  977  0.2150290E+02  0.3239024E+02  0.3295456E+02  0.7329731E+02
Ar  978  0.2412576E+02  0.3507244E+02  0.3221852E+02  0.1622624E+03
Ar  979  0.2432388E+02  0.3256092E+02  0.3454464E+02  0.2444490E+03
Ar  980  0.2204069E+02  0.3501564E+02  0.3484647E+02  0.3157661E+03
Ar  981  0.2673777E+02  0.3702062E+02  0.5793324E+00  0.1156052E+02
Ar  982  0.2943164E+02  0.2436778E+01  0.5595566E+00  0.1707361E+03
Ar  983  0.2946780E+02  0.3766778E+02  0.2672092E+01  0.5701531E+03
Ar  984  0.2688227E+02  0.2673660E+01  0.3382411E+01  0.8728919E+02
Ar  985  0.2704778E+02  0.3716615E+02  0.5293007E+01  0.1877207E+03
Ar  986  0.3026747E+02  0.2248522E+01  0.5346523E+01  0.7479220E+03
Ar  987  0.2947721E+02  0.3729185E+02  0.7869273E+01  0.4435857E+03
Ar  988  0.2748947E+02  0.2224433E+01  0.8295848E+01  0.6284987E+03
Ar  989  0.2718286E+02  0.3738963E+02  0.1108955E+02  0.2845828E+03
Ar  990  0.3001260E+02  0.2244441E+01  0.1102729E+02  0.3826016E+03
Ar  991  0.2998115E+02  0.3743656E+02  0.1380485E+02  0.3133482E+03
Ar  992  0.2705701E+02  0.2554639E+01  0.1332073E+02  0.6218689E+02
Ar  993  0.2704388E+02  0.3742658E+02  0.1595724E+02  0.4992064E+03
Ar  994  0.2987937E+02  0.2872901E+01  0.1597927E+02  0.5758610E+02
Ar  995  0.3009498E+02  0.9319922E-01  0.1953208E+02  0.3525375E+03
Ar  996  0.2714336E+02  0.1694634E+01  0.1906820E+02  0.1780599E+03
Ar  997  0.2772220E+02  0.1875435E+00  0.2252674E+02  0.3998582E+03
Ar  998  0.2974605E+02  0.3066431E+01  0.2101874E+02  0.5132269E+03
Ar  999  0.3065221E+02  0.3717539E+02  0.2458992E+02  0.2183268E+03
Ar 1000  0.2676656E+02  0.2870561E+01  0.2396516E+02  0.2462414E+03
Ar 1001  0.2722121E+02  0.2688034E+00  0.2662619E+02  0.9575380E+02
Ar 1002  0.2987866E+02  0.2688882E+01  0.2722784E+02  0.1212360E+03
Ar 1003  0.2961787E+02  0.2258619E+00  0.2953937E+02  0.5586781E+03
Ar 1004  0.2735045E+02  0.2898713E+01  0.2940036E+02  0.3457683E+03
Ar 1005  0.2741210E+02  0.3655578E+00  0.3230600E+02  0.9261437E+03
Ar 1006  0.3003408E+02  0.2779127E+01  0.3264230E+02  0.1384319E+03
Ar 1007  0.2974620E+02  0.3757316E+02  0.3557743E+02  0.3841010E+03
Ar 1008  0.2717345E+02  0.2765778E+01  0.3492200E+02  0.1419505E+03
Ar 1009  0.2768357E+02  0.5422420E+01  0.2557187E+00  0.2400741E+02
Ar 1010  0.2984217E+02  0.8315681E+01  0.3754498E+02  0.1844783E+03
Ar 1011  0.3011258E+02  0.5457892E+01  0.2812608E+01  0.5903627E+03
Ar 1012  0.2676797E+02  0.8268185E+01  0.2290540E+01  0.3122289E+03
Ar 1013  0.2773594E+02  0.5196276E+01  0.5744688E+01  0.3840248E+02
Ar 1014  0.2992700E+02  0.7987174E+01  0.5267824E+01  0.1308575E+03
Ar 1015  0.2986408E+02  0.5199869E+01  0.8437231E+01  0.5882337E+02
Ar 1016  0.2755956E+02  0.7364664E+01  0.8303307E+01  0.1340131E+03
Ar 1017  0.2707481E+02  0.4821763E+01  0.1070920E+02  0.3240706E+03
Ar 1018  0.2918988E+02  0.7731668E+01  0.1100400E+02  0.1257389E+04
Ar 1019  0.2916548E+02  0.5419019E+01  0.1375071E+02  0.4366816E+03
Ar 1020  0.2637320E+02  0.7528298E+01  0.1379970E+02  0.3202065E+03
Ar 1021  0.2652639E+02  0.4690588E+01  0.1618715E+02  0.5904748E+02
Ar 1022  0.2932188E+02  0.7620970E+01  0.1668469E+02  0.5929426E+03
Ar 1023  0.2915021E+02  0.6192462E+01  0.1958901E+02  0.2051104E+03
Ar 1024  0.2642418E+02  0.8473531E+01  0.1953315E+02  0.2026377E+03
Ar 1025  0.2633044E+02  0.5031952E+01  0.2143964E+02  0.5187132E+01
Ar 1026  0.3061271E+02  0.8301790E+01  0.2217938E+02  0.1152064E+03
Ar 1027  0.3001838E+02  0.5310753E+01  0.2431370E+02  0.7985715E+02
Ar 1028  0.2717884E+02  0.7859369E+01  0.2362625E+02  0.4429869E+02
Ar 1029  0.2696118E+02  0.5936211E+01  0.2745230E+02  0.1283355E+03
Ar 1030  0.3091105E+02  0.7785585E+01  0.2637651E+02  0.5161711E+02
Ar 1031  0.3001856E+02  0.5834718E+01  0.2939578E+02  0.8172664E+03
Ar 1032  0.2747254E+02  0.8306145E+01  0.2988077E+02  0.1998626E+03
Ar 1033  0.2713640E+02  0.5289482E+01  0.3248471E+02  0.1642125E+03
Ar 1034  0.2957230E+02  0.8408645E+01  0.3257651E+02  0.2141459E+03
Ar 1035  0.2971450E+02  0.5356459E+01  0.3487114E+02  0.2941073E+02
Ar 1036  0.2630992E+02  0.7635757E+01  0.3517776E+02  0.1226312E+04
Ar 1037  0.2730077E+02  0.1021495E+02  0.3705046E+02  0.2509047E+03
Ar 1038  0.2910050E+02  0.1317956E+02  0.3731590E+02  0.4256296E+01
Ar 1039  0.2957502E+02  0.1056291E+02  0.2532679E+01  0.1027342E+03
Ar 1040  0.2692202E+02  0.1287394E+02  0.1905487E+01  0.2353510E+02
Ar 1041  0.2732275E+02  0.1105850E+02  0.5143662E+01  0.1498625E+03
Ar 1042  0.2946148E+02  0.1435306E+02  0.5273767E+01  0.4541108E+03
Ar 1043  0.2836662E+02  0.1111307E+02  0.8531693E+01  0.3018928E+02
Ar 1044  0.2610613E+02  0.1352429E+02  0.7827858E+01  0.1430286E+03
Ar 1045  0.2714736E+02  0.1048059E+02  0.1190877E+02  0.5455178E+02
Ar 1046  0.2873186E+02  0.1374205E+02  0.1100788E+02  0.3000632E+03
Ar 1047  0.2926148E+02  0.1000838E+02  0.1447851E+02  0.4324435E+03
Ar 1048  0.2645329E+02  0.1251460E+02  0.1421578E+02  0.2005376E+03
Ar 1049  0.2604791E+02  0.1050880E+02  0.1671683E+02  0.3742805E+02
Ar 1050  0.2901248E+02  0.1349239E+02  0.1657544E+02  0.9834973E+02
Ar 1051  0.2966480E+02  0.1099298E+02  0.1904177E+02  0.2425787E+03
Ar 1052  0.2693958E+02  0.1309206E+02  0.1927484E+02  0.6830102E+03
Ar 1053  0.2740383E+02  0.1154229E+02  0.2223413E+02  0.2165773E+03
Ar 1054  0.2974989E+02  0.1392887E+02  0.2195868E+02  0.4617657E+02
Ar 1055  0.3009405E+02  0.1142052E+02  0.2494666E+02  0.3112890E+03
Ar 1056  0.2705568E+02  0.1413131E+02  0.2446591E+02  0.1538914E+03
Ar 1057  0.2670528E+02  0.1032384E+02  0.2692875E+02  0.2087468E+03
Ar 1058  0.2895047E+02  0.1335938E+02  0.2786536E+02  0.3186706E+03
Ar 1059  0.2993081E+02  0.1081270E+02  0.3031584E+02  0.5831393E+03
Ar 1060  0.2699344E+02  0.1360820E+02  0.3090575E+02  0.3733660E+02
Ar 1061  0.2700235E+02  0.1025162E+02  0.3273994E+02  0.1720615E+03
Ar 1062  0.2998768E+02  0.1358362E+02  0.3223315E+02  0.2443209E+03
Ar 1063  0.3035512E+02  0.1115547E+02  0.3426558E+02  0.9963674E+02
Ar 1064  0.2687190E+02  0.1363543E+02  0.3490482E+02  0.4229140E+03
Ar 1065  0.2673543E+02  0.1638842E+02  0.3734362E+02  0.3174427E+03
Ar 1066  0.2996159E+02  0.1855361E+02  0.3765574E+02  0.2085234E+03
Ar 1067  0.2879609E+02  0.1671587E+02  0.2621371E+01  0.4116049E+03
Ar 1068  0.2696164E+02  0.1956783E+02  0.2938270E+01  0.1135384E+03
Ar 1069  0.2692609E+02  0.1657587E+02  0.5681974E+01  0.8106159E+02
Ar 1070  0.2943019E+02  0.1951341E+02  0.5233366E+01  0.5245556E+03
Ar 1071  0.2954394E+02  0.1618073E+02  0.8221607E+01  0.1687219E+03
Ar 1072  0.2730955E+02  0.1915226E+02  0.8173946E+01  0.6422603E+03
Ar 1073  0.2695405E+02  0.1698087E+02  0.1122491E+02  0.1144658E+04
Ar 1074  0.2975147E+02  0.1899411E+02  0.1070963E+02  0.9157096E+02
Ar 1075  0.2979645E+02  0.1633275E+02  0.1371654E+02  0.2168097E+02
Ar 1076  0.2752061E+02  0.1926721E+02  0.1375452E+02  0.1534421E+03
Ar 1077  0.2683048E+02  0.1654632E+02  0.1570551E+02  0.1304095E+03
Ar 1078  0.3022373E+02  0.1887644E+02  0.1616305E+02  0.5818998E+02
Ar 1079  0.2984876E+02  0.1629404E+02  0.1885662E+02  0.2287749E+03
Ar 1080  0.2729697E+02  0.1880578E+02  0.1806937E+02  0.1201857E+03
Ar 1081  0.2701091E+02  0.1588638E+02  0.2161135E+02  0.1623798E+03
Ar 1082  0.3063068E+02  0.1991745E+02  0.2136692E+02  0.2352435E+03
Ar 1083  0.2984873E+02  0.1629731E+02  0.2422353E+02  0.1115891E+03
Ar 1084  0.2760934E+02  0.1852929E+02  0.2376205E+02  0.2961728E+03
Ar 1085  0.2673678E+02  0.1602813E+02  0.2778239E+02  0.7864371E+02
Ar 1086  0.2996217E+02  0.1875628E+02  0.2688216E+02  0.1024122E+03
Ar 1087  0.3054539E+02  0.1621897E+02  0.2971540E+02  0.4580864E+03
Ar 1088  0.2730925E+02  0.1877300E+02  0.2995991E+02  0.5206609E+03
Ar 1089  0.2712231E+02  0.1684104E+02  0.3254042E+02  0.4347448E+02
Ar 1090  0.3048883E+02  0.1911913E+02  0.3199219E+02  0.5702227E+03
Ar 1091  0.3010192E+02  0.1602350E+02  0.3505283E+02  0.7948027E+02
Ar 1092  0.2722414E+02  0.1874511E+02  0.3526506E+02  0.3278546E+03
Ar 1093  0.2713269E+02  0.2116513E+02  0.7488328E-02  0.6378143E+01
Ar 1094  0.2947851E+02  0.2417090E+02  0.3754759E+02  0.3196855E+03
Ar 1095  0.2969820E+02  0.2190091E+02  0.2473965E+01  0.1971919E+03
Ar 1096  0.2673930E+02  0.2408683E+02  0.2567361E+01  0.3806370E+03
Ar 1097  0.2670936E+02  0.2204796E+02  0.6199462E+01  0.4046021E+03
Ar 1098  0.3009936E+02  0.2410966E+02  0.5102372E+01  0.2511645E+02
Ar 1099  0.2977925E+02  0.2160242E+02  0.8148268E+01  0.4276638E+03
Ar 1100  0.2699102E+02  0.2445885E+02  0.8685400E+01  0.2000114E+03
Ar 1101  0.2751450E+02  0.2154381E+02  0.1091407E+02  0.1586319E+03
Ar 1102  0.2983328E+02  0.2425221E+02  0.1088502E+02  0.3833485E+03
Ar 1103  0.3002759E+02  0.2148582E+02  0.1358398E+02  0.4630213E+03
Ar 1104  0.2715960E+02  0.2375258E+02  0.1337910E+02  0.1989467E+03
Ar 1105  0.2702749E+02  0.2148297E+02  0.1631829E+02  0.6532892E+03
Ar 1106  0.3065542E+02  0.2420080E+02  0.1565980E+02  0.4593732E+03
Ar 1107  0.3032615E+02  0.2162145E+02  0.1828103E+02  0.5556222E+03
Ar 1108  0.2773188E+02  0.2459998E+02  0.1829664E+02  0.4617662E+03
Ar 1109  0.2722658E+02  0.2170764E+02  0.2034522E+02  0.8495138E+03
Ar 1110  0.2991421E+02  0.2402912E+02  0.2170837E+02  0.7668558E+02
Ar 1111  0.3000280E+02  0.2149524E+02  0.2421513E+02  0.3895887E+03
Ar 1112  0.2694532E+02  0.2374798E+02  0.2408148E+02  0.1263601E+03
Ar 1113  0.2736125E+02  0.2119237E+02  0.2719324E+02  0.1739462E+02
Ar 1114  0.2992529E+02  0.2412319E+02  0.2635642E+02  0.4648411E+03
Ar 1115  0.2984200E+02  0.2204601E+02  0.2990472E+02  0.2544039E+02
Ar 1116  0.2737757E+02  0.2465175E+02  0.2938179E+02  0.1420715E+03
Ar 1117  0.2754866E+02  0.2120194E+02  0.3248464E+02  0.1903326E+03
Ar 1118  0.2960482E+02  0.2430687E+02  0.3241739E+02  0.6782882E+02
Ar 1119  0.3011417E+02  0.2075960E+02  0.3497579E+02  0.3056450E+03
Ar 1120  0.2703843E+02  0.2422320E+02  0.3475486E+02  0.2352974E+03
Ar 1121  0.2574558E+02  0.2693718E+02  0.3704057E+02  0.5215987E+02
Ar 1122  0.2941225E+02  0.3034680E+02  0.2803222E+00  0.3130155E+03
Ar 1123  0.2896795E+02  0.2711353E+02  0.1855096E+01  0.7392595E+02
Ar 1124  0.2651129E+02  0.2927075E+02  0.2376663E+01  0.3453142E+03
Ar 1125  0.2646637E+02  0.2655710E+02  0.5005951E+01  0.1132453E+03
Ar 1126  0.2891554E+02  0.2907303E+02  0.4925853E+01  0.1592843E+03
Ar 1127  0.2930575E+02  0.2698389E+02  0.8095580E+01  0.4054132E+03
Ar 1128  0.2629668E+02  0.2973617E+02  0.8495936E+01  0.9996766E+02
Ar 1129  0.2745621E+02  0.2759320E+02  0.1106351E+02  0.2408183E+03
Ar 1130  0.3000493E+02  0.2965466E+02  0.1047670E+02  0.4139879E+03
Ar 1131  0.2970320E+02  0.2711893E+02  0.1394245E+02  0.2177751E+03
Ar 1132  0.2707974E+02  0.3030685E+02  0.1342464E+02  0.5111678E+03
Ar 1133  0.2713288E+02  0.2729576E+02  0.1591584E+02  0.1982182E+03
Ar 1134  0.2964802E+02  0.2992061E+02  0.1609338E+02  0.8045815E+02
Ar 1135  0.2921246E+02  0.2745758E+02  0.1836814E+02  0.2073014E+03
Ar 1136  0.2643726E+02  0.2931484E+02  0.1925650E+02  0.2495613E+03
Ar 1137  0.2709301E+02  0.2635496E+02  0.2143361E+02  0.1639591E+03
Ar 1138  0.2941087E+02  0.2911938E+02  0.2153734E+02  0.1691661E+03
Ar 1139  0.3014298E+02  0.2675655E+02  0.2388560E+02  0.1696629E+03
Ar 1140  0.2756646E+02  0.2932886E+02  0.2487840E+02  0.4356939E+03
Ar 1141  0.2759538E+02  0.2660365E+02  0.2662054E+02  0.4715816E+03
Ar 1142  0.3005107E+02  0.2968796E+02  0.2702773E+02  0.2653735E+03
Ar 1143  0.2973448E+02  0.2716688E+02  0.2970736E+02  0.1526860E+03
Ar 1144  0.2698394E+02  0.2957117E+02  0.2980249E+02  0.9749445E+03
Ar 1145  0.2683418E+02  0.2668286E+02  0.3234255E+02  0.3305243E+03
Ar 1146  0.2953990E+02  0.2908317E+02  0.3204580E+02  0.3402897E+03
Ar 1147  0.2934825E+02  0.2687482E+02  0.3531675E+02  0.2108475E+02
Ar 1148  0.2710231E+02  0.2939661E+02  0.3483500E+02  0.3345302E+03
Ar 1149  0.2684890E+02  0.3235715E+02  0.3759274E+02  0.1780961E+03
Ar 1150  0.3048243E+02  0.3470478E+02  0.3820736E+00  0.2205325E+03
Ar 1151  0.2954253E+02  0.3221897E+02  0.2863138E+01  0.1156417E+03
Ar 1152  0.2753329E+02  0.3474772E+02  0.2819392E+01  0.1578816E+03
Ar 1153  0.2659053E+02  0.3247029E+02  0.5488301E+01  0.2165193E+03
Ar 1154  0.2981076E+02  0.3489474E+02  0.5773126E+01  0.4255943E+03
Ar 1155  0.2920717E+02  0.3154743E+02  0.7442608E+01  0.1652060E+03
Ar 1156  0.2628201E+02  0.3475032E+02  0.8080367E+01  0.4500954E+03
Ar 1157  0.2689561E+02  0.3239023E+02  0.1049822E+02  0.3685080E+03
Ar 1158  0.2977457E+02  0.3435901E+02  0.1013577E+02  0.1619771E+03
Ar 1159  0.3001530E+02  0.3222975E+02  0.1303175E+02  0.5277377E+03
Ar 1160  0.2720981E+02  0.3463733E+02  0.1390517E+02  0.1904748E+03
Ar 1161  0.2721153E+02  0.3225770E+02  0.1675059E+02  0.6784885E+03
Ar 1162  0.2960220E+02  0.3547447E+02  0.1666757E+02  0.9537047E+02
Ar 1163  0.3021901E+02  0.3209788E+02  0.1949066E+02  0.6297961E+03
Ar 1164  0.2705235E+02  0.3535655E+02  0.1954819E+02  0.3911954E+03
Ar 1165  0.2730695E+02  0.3206778E+02  0.2058450E+02  0.8796712E+02
Ar 1166  0.2952984E+02  0.3526422E+02  0.2211719E+02  0.7026451E+01
Ar 1167  0.2945595E+02  0.3225787E+02  0.2329965E+02  0.2424029E+03
Ar 1168  0.2715368E+02  0.3500315E+02  0.2481120E+02  0.2486923E+03
Ar 1169  0.2730156E+02  0.3231773E+02  0.2657641E+02  0.2599143E+03
Ar 1170  0.2971132E+02  0.3469519E+02  0.2731068E+02  0.7577129E+02
Ar 1171  0.2968578E+02  0.3217246E+02  0.3005718E+02  0.4032610E+03
Ar 1172  0.2730096E+02  0.3491235E+02  0.2984201E+02  0.2378182E+03
Ar 1173  0.2680143E+02  0.3239369E+02  0.3227029E+02  0.1908352E+03
Ar 1174  0.2966215E+02  0.3486978E+02  0.3250212E+02  0.4455914E+03
Ar 1175  0.3265685E+02  0.3245508E+02  0.3241461E+02  0.2575166E+03
Ar 1176  0.2678579E+02  0.3490827E+02  0.3523002E+02  0.2417797E+03
Ar 1177  0.3283229E+02  0.3756322E+02  0.3724101E+02  0.2161264E+03
Ar 1178  0.3555218E+02  0.2535578E+01  0.2460989E+00  0.5352425E+02
Ar 1179  0.3517572E+02  0.3725731E+02  0.2292358E+01  0.8156123E+03
Ar 1180  0.3234756E+02  0.2666116E+01  0.2564702E+01  0.2013933E+03
Ar 1181  0.3259443E+02  0.3722966E+02  0.5291840E+01  0.1474254E+03
Ar 1182  0.3490007E+02  0.2712381E+01  0.4916921E+01  0.8906537E+02
Ar 1183  0.3505151E+02  0.3760022E+02  0.8188376E+01  0.1003977E+04
Ar 1184  0.3237146E+02  0.2444189E+01  0.7904749E+01  0.7783841E+02
Ar 1185  0.3245735E+02  0.8925491E-01  0.1093005E+02  0.3930876E+03
Ar 1186  0.3465603E+02  0.2406612E+01  0.1044896E+02  0.6556995E+02
Ar 1187  0.3470367E+02  0.1508709E+00  0.1370431E+02  0.1835526E+03
Ar 1188  0.3263924E+02  0.2828194E+01  0.1332121E+02  0.3733080E+02
Ar 1189  0.3235917E+02  0.3759507E+02  0.1651052E+02  0.7197310E+03
Ar 1190  0.3436357E+02  0.2602310E+01  0.1609048E+02  0.1682854E+03
Ar 1191  0.3498290E+02  0.1954989E-01  0.1855261E+02  0.7274641E+03
Ar 1192  0.3277846E+02  0.3211023E+01  0.1899660E+02  0.1023199E+03
Ar 1193  0.3296923E+02  0.3771492E+02  0.2158169E+02  0.2590024E+03
Ar 1194  0.3508157E+02  0.3090853E+01  0.2199180E+02  0.1691968E+03
Ar 1195  0.3504777E+02  0.3746447E+02  0.2437102E+02  0.3486452E+03
Ar 1196  0.3208156E+02  0.2891202E+01  0.2414989E+02  0.6924792E+03
Ar 1197  0.3248158E+02  0.3751830E+02  0.2748934E+02  0.7767053E+03
Ar 1198  0.3468931E+02  0.2481852E+01  0.2698609E+02  0.1294207E+03
Ar 1199  0.3529535E+02  0.5406665E-01  0.3013166E+02  0.5502857E+03
Ar 1200  0.3219967E+02  0.2414977E+01  0.2956604E+02  0.1413323E+03
Ar 1201  0.3244024E+02  0.3712837E+02  0.3374982E+02  0.6856965E+02
Ar 1202  0.3434657E+02  0.2881535E+01  0.3254230E+02  0.8652773E+03
Ar 1203  0.3633848E+02  0.3749670E+02  0.3539610E+02  0.1545350E+03
Ar 1204  0.3216284E+02  0.2645793E+01  0.3531705E+02  0.5095925E+03
Ar 1205  0.3254799E+02  0.4932294E+01  0.3764122E+02  0.4555677E+02
Ar 1206  0.3495300E+02  0.7810257E+01  0.3694772E+02  0.5143787E+03
Ar 1207  0.3465805E+02  0.5389221E+01  0.2537575E+01  0.1862224E+03
Ar 1208  0.3248205E+02  0.8029251E+01  0.2617258E+01  0.7366587E+02
Ar 1209  0.3224785E+02  0.5355918E+01  0.5781949E+01  0.4386033E+03
Ar 1210  0.3616064E+02  0.7406484E+01  0.4920570E+01  0.4753507E+03
Ar 1211  0.3480385E+02  0.4891196E+01  0.8217916E+01  0.4923317E+03
Ar 1212  0.3165907E+02  0.8196917E+01  0.8413897E+01  0.3020554E+03
Ar 1213  0.3216088E+02  0.5858472E+01  0.1088043E+02  0.2796388E+02
Ar 1214  0.3446822E+02  0.8226727E+01  0.1077242E+02  0.3429905E+02
Ar 1215  0.3489447E+02  0.5684348E+01  0.1375116E+02  0.8018009E+03
Ar 1216  0.3227388E+02  0.8211576E+01  0.1354617E+02  0.3551242E+03
Ar 1217  0.3219889E+02  0.5384336E+01  0.1591921E+02  0.1723721E+03
Ar 1218  0.3507576E+02  0.8435756E+01  0.1640950E+02  0.2424926E+03
Ar 1219  0.3535938E+02  0.5649453E+01  0.1861894E+02  0.3414155E+03
Ar 1220  0.3233503E+02  0.7729047E+01  0.1869412E+02  0.1645520E+03
Ar 1221  0.3285373E+02  0.5759893E+01  0.2182937E+02  0.2232920E+03
Ar 1222  0.3526944E+02  0.8664755E+01  0.2072877E+02  0.6737166E+02
Ar 1223  0.3633385E+02  0.5288010E+01  0.2458661E+02  0.2634936E+03
Ar 1224  0.3365397E+02  0.8272671E+01  0.2421181E+02  0.3331189E+03
Ar 1225  0.3336421E+02  0.5591015E+01  0.2614499E+02  0.3281075E+03
Ar 1226  0.3541398E+02  0.8376877E+01  0.2726812E+02  0.4213685E+03
Ar 1227  0.3460372E+02  0.5349840E+01  0.3042778E+02  0.1506667E+03
Ar 1228  0.3266090E+02  0.7986683E+01  0.2927531E+02  0.3670299E+03
Ar 1229  0.3192968E+02  0.6023287E+01  0.3259156E+02  0.2162487E+03
Ar 1230  0.3526295E+02  0.8029454E+01  0.3264816E+02  0.2005040E+03
Ar 1231  0.3534103E+02  0.5001458E+01  0.3521414E+02  0.2886165E+03
Ar 1232  0.3222477E+02  0.8316315E+01  0.3519858E+02  0.1017181E+04
Ar 1233  0.3210778E+02  0.1127401E+02  0.3771576E+02  0.1798818E+03
Ar 1234  0.3541414E+02  0.1360621E+02  0.1325225E+00  0.1425810E+03
Ar 1235  0.3494690E+02  0.1072370E+02  0.1683898E+01  0.4164638E+02
Ar 1236  0.3112374E+02  0.1336917E+02  0.2849540E+01  0.4189420E+03
Ar 1237  0.3267003E+02  0.1001484E+02  0.5614993E+01  0.3592940E+03
Ar 1238  0.3500104E+02  0.1242073E+02  0.4785976E+01  0.6275465E+03
Ar 1239  0.3503389E+02  0.1138255E+02  0.7916792E+01  0.1202262E+03
Ar 1240  0.3246295E+02  0.1312959E+02  0.6710288E+01  0.2311945E+03
Ar 1241  0.3154551E+02  0.1089710E+02  0.1089929E+02  0.1596318E+03
Ar 1242  0.3516743E+02  0.1306846E+02  0.1077817E+02  0.6128434E+03
Ar 1243  0.3460011E+02  0.1094945E+02  0.1339499E+02  0.1673468E+03
Ar 1244  0.3125378E+02  0.1301797E+02  0.1401955E+02  0.2178513E+03
Ar 1245  0.3212524E+02  0.1087842E+02  0.1658606E+02  0.5462991E+03
Ar 1246  0.3507332E+02  0.1394409E+02  0.1602479E+02  0.4036417E+02
Ar 1247  0.3463255E+02  0.1134757E+02  0.1898275E+02  0.1956567E+03
Ar 1248  0.3236543E+02  0.1358228E+02  0.1964243E+02  0.4270755E+03
Ar 1249  0.3274608E+02  0.1061832E+02  0.2170209E+02  0.1508590E+03
Ar 1250  0.3524666E+02  0.1383208E+02  0.2170581E+02  0.4414680E+03
Ar 1251  0.3568446E+02  0.1127417E+02  0.2372335E+02  0.1509074E+03
Ar 1252  0.3276501E+02  0.1368975E+02  0.2438524E+02  0.8947759E+01
Ar 1253  0.3308079E+02  0.1099247E+02  0.2672407E+02  0.4115742E+03
Ar 1254  0.3552313E+02  0.1353436E+02  0.2696644E+02  0.4245705E+03
Ar 1255  0.3539559E+02  0.1078100E+02  0.2971179E+02  0.2594028E+03
Ar 1256  0.3288915E+02  0.1313977E+02  0.2957218E+02  0.3831123E+03
Ar 1257  0.3305577E+02  0.1070092E+02  0.3218039E+02  0.6595215E+03
Ar 1258  0.3506098E+02  0.1322473E+02  0.3224307E+02  0.4148776E+03
Ar 1259  0.3499820E+02  0.1089894E+02  0.3536468E+02  0.3072637E+03
Ar 1260  0.3251805E+02  0.1355528E+02  0.3489134E+02  0.2268408E+03
Ar 1261  0.3269572E+02  0.1620777E+02  0.3735654E+02  0.4551295E+03
Ar 1262  0.3511017E+02  0.1855527E+02  0.8957998E+00  0.6226065E+03
Ar 1263  0.3429896E+02  0.1553279E+02  0.3032671E+01  0.2486639E+03
Ar 1264  0.3211038E+02  0.1888965E+02  0.2631395E+01  0.2125002E+03
Ar 1265  0.3206717E+02  0.1624281E+02  0.5334614E+01  0.1751607E+02
Ar 1266  0.3453289E+02  0.1877461E+02  0.4768587E+01  0.5509461E+03
Ar 1267  0.3488011E+02  0.1680178E+02  0.7360182E+01  0.9996726E+03
Ar 1268  0.3192793E+02  0.1856044E+02  0.7923580E+01  0.3490029E+03
Ar 1269  0.3197077E+02  0.1522032E+02  0.1066364E+02  0.1079547E+03
Ar 1270  0.3516795E+02  0.1800371E+02  0.1049495E+02  0.3977502E+03
Ar 1271  0.3513266E+02  0.1557963E+02  0.1292309E+02  0.5759339E+03
Ar 1272  0.3250898E+02  0.1885441E+02  0.1291425E+02  0.1054192E+03
Ar 1273  0.3206404E+02  0.1532885E+02  0.1651525E+02  0.8635578E+01
Ar 1274  0.3517658E+02  0.1729028E+02  0.1625892E+02  0.3046693E+03
Ar 1275  0.3513679E+02  0.1631539E+02  0.1940023E+02  0.5035415E+03
Ar 1276  0.3299602E+02  0.1889631E+02  0.1836241E+02  0.2932604E+03
Ar 1277  0.3251071E+02  0.1662796E+02  0.2175732E+02  0.7602150E+03
Ar 1278  0.3575450E+02  0.1912514E+02  0.2153022E+02  0.2944773E+03
Ar 1279  0.3516810E+02  0.1649887E+02  0.2452017E+02  0.5801145E+03
Ar 1280  0.3295983E+02  0.1956713E+02  0.2410834E+02  0.1151483E+03
Ar 1281  0.3251708E+02  0.1641736E+02  0.2652659E+02  0.8153656E+03
Ar 1282  0.3561108E+02  0.1934796E+02  0.2686796E+02  0.5895616E+02
Ar 1283  0.3551747E+02  0.1627473E+02  0.2900157E+02  0.5999093E+03
Ar 1284  0.3351723E+02  0.1898494E+02  0.2932973E+02  0.1029451E+03
Ar 1285  0.3296873E+02  0.1641101E+02  0.3246676E+02  0.5137462E+03
Ar 1286  0.3561034E+02  0.1882716E+02  0.3245107E+02  0.8297500E+02
Ar 1287  0.3531302E+02  0.1683568E+02  0.3547975E+02  0.2233313E+03
Ar 1288  0.3287907E+02  0.1879658E+02  0.3484282E+02  0.2468298E+03
Ar 1289  0.3265374E+02  0.2114184E+02  0.9746590E-02  0.3605303E+03
Ar 1290  0.3517176E+02  0.2416652E+02  0.3437943E-01  0.1437983E+03
Ar 1291  0.3468113E+02  0.2167691E+02  0.2528611E+01  0.8734734E+03
Ar 1292  0.3255179E+02  0.2474245E+02  0.2475128E+01  0.1976559E+03
Ar 1293  0.3236608E+02  0.2144106E+02  0.5268749E+01  0.9056155E+03
Ar 1294  0.3470370E+02  0.2420263E+02  0.5529941E+01  0.3535814E+03
Ar 1295  0.3454036E+02  0.2066956E+02  0.7914698E+01  0.1027360E+04
Ar 1296  0.3232920E+02  0.2388688E+02  0.7960113E+01  0.2388791E+03
Ar 1297  0.3224661E+02  0.2119971E+02  0.1039786E+02  0.9396285E+03
Ar 1298  0.3510328E+02  0.2417252E+02  0.1062770E+02  0.2868429E+03
Ar 1299  0.3522420E+02  0.2112136E+02  0.1257764E+02  0.1720878E+03
Ar 1300  0.3302793E+02  0.2463472E+02  0.1357420E+02  0.1788838E+03
Ar 1301  0.3262987E+02  0.2150641E+02  0.1593403E+02  0.3476972E+03
Ar 1302  0.3602041E+02  0.2365171E+02  0.1541933E+02  0.1677784E+03
Ar 1303  0.3554799E+02  0.2138276E+02  0.1878819E+02  0.2027403E+03
Ar 1304  0.3217344E+02  0.2468364E+02  0.1875409E+02  0.2950283E+03
Ar 1305  0.3316290E+02  0.2246148E+02  0.2131707E+02  0.4072871E+03
Ar 1306  0.3579520E+02  0.2501889E+02  0.2155406E+02  0.3021024E+03
Ar 1307  0.3554068E+02  0.2216537E+02  0.2455454E+02  0.3459628E+03
Ar 1308  0.3254580E+02  0.2393863E+02  0.2431115E+02  0.3295942E+03
Ar 1309  0.3264783E+02  0.2148413E+02  0.2679892E+02  0.1336796E+03
Ar 1310  0.3494010E+02  0.2451210E+02  0.2725466E+02  0.3692477E+03
Ar 1311  0.3544126E+02  0.2147529E+02  0.2931356E+02  0.5801125E+02
Ar 1312  0.3212977E+02  0.2436027E+02  0.2952395E+02  0.4835371E+03
Ar 1313  0.3312816E+02  0.2162870E+02  0.3197360E+02  0.8156702E+03
Ar 1314  0.3508681E+02  0.2437640E+02  0.3236613E+02  0.2075077E+03
Ar 1315  0.3487733E+02  0.2160631E+02  0.3499295E+02  0.2005846E+03
Ar 1316  0.3233793E+02  0.2399443E+02  0.3562739E+02  0.1811479E+03
Ar 1317  0.3242137E+02  0.2740971E+02  0.4982538E-01  0.9107012E+03
Ar 1318  0.3534643E+02  0.2992519E+02  0.3748044E+02  0.1051256E+03
Ar 1319  0.3478736E+02  0.2758015E+02  0.2717775E+01  0.3780888E+03
Ar 1320  0.3270068E+02  0.3029869E+02  0.3134894E+01  0.8737239E+03
Ar 1321  0.3182427E+02  0.2677821E+02  0.5614385E+01  0.3927597E+03
Ar 1322  0.3520047E+02  0.3015895E+02  0.5782501E+01  0.4658628E+03
Ar 1323  0.3456114E+02  0.2700827E+02  0.8123021E+01  0.3677908E+03
Ar 1324  0.3191049E+02  0.2931253E+02  0.7553870E+01  0.5557827E+02
Ar 1325  0.3222566E+02  0.2681329E+02  0.1078401E+02  0.1937883E+03
Ar 1326  0.3435720E+02  0.2937900E+02  0.1008473E+02  0.1194192E+03
Ar 1327  0.3515097E+02  0.2739068E+02  0.1337562E+02  0.1370336E+03
Ar 1328  0.3210289E+02  0.2950939E+02  0.1348868E+02  0.3371952E+02
Ar 1329  0.3251460E+02  0.2718181E+02  0.1634807E+02  0.4679451E+02
Ar 1330  0.3502850E+02  0.2988009E+02  0.1635910E+02  0.3942020E+03
Ar 1331  0.3515011E+02  0.2653076E+02  0.1849876E+02  0.4046180E+03
Ar 1332  0.3258215E+02  0.2925350E+02  0.1907954E+02  0.7198667E+02
Ar 1333  0.3285536E+02  0.2666385E+02  0.2131466E+02  0.2830074E+03
Ar 1334  0.3520069E+02  0.2927043E+02  0.2170657E+02  0.2102721E+03
Ar 1335  0.3534243E+02  0.2663626E+02  0.2457370E+02  0.3377568E+03
Ar 1336  0.3254694E+02  0.2908847E+02  0.2421044E+02  0.3212185E+03
Ar 1337  0.3240996E+02  0.2739365E+02  0.2744739E+02  0.8298598E+03
Ar 1338  0.3525053E+02  0.2975201E+02  0.2762627E+02  0.6676304E+03
Ar 1339  0.3489011E+02  0.2731324E+02  0.3000545E+02  0.2242284E+03
Ar 1340  0.3240364E+02  0.2976552E+02  0.3006530E+02  0.1094818E+03
Ar 1341  0.3232333E+02  0.2650684E+02  0.3206562E+02  0.2225414E+03
Ar 1342  0.3517309E+02  0.2982649E+02  0.3272451E+02  0.1758270E+03
Ar 1343  0.3504777E+02  0.2644844E+02  0.3503730E+02  0.1620671E+03
Ar 1344  0.3240633E+02  0.2957951E+02  0.3477076E+02  0.5534362E+02
Ar 1345  0.2966913E+02  0.3128552E+02  0.3475719E+02  0.3311108E+03
Ar 1346  0.4108765E+00  0.3522518E+02  0.3026356E+01  0.3458240E+03
Ar 1347  0.3510433E+02  0.3252274E+02  0.2914200E+01  0.8384121E+03
Ar 1348  0.3250644E+02  0.3513895E+02  0.2927719E+01  0.2970919E+03
Ar 1349  0.3261504E+02  0.3294360E+02  0.5845768E+01  0.9876063E+03
Ar 1350  0.3570052E+02  0.3508717E+02  0.5388861E+01  0.5077451E+02
Ar 1351  0.3518624E+02  0.3255038E+02  0.7849741E+01  0.2110128E+03
Ar 1352  0.3235251E+02  0.3542688E+02  0.8331106E+01  0.2846996E+03
Ar 1353  0.3240134E+02  0.3186721E+02  0.1018116E+02  0.6253788E+02
Ar 1354  0.3475477E+02  0.3512200E+02  0.1093368E+02  0.5490796E+03
Ar 1355  0.3434700E+02  0.3251285E+02  0.1342075E+02  0.1239539E+03
Ar 1356  0.3223190E+02  0.3521605E+02  0.1371276E+02  0.3070408E+03
Ar 1357  0.3201065E+02  0.3243157E+02  0.1636127E+02  0.1883330E+03
Ar 1358  0.3492862E+02  0.3437083E+02  0.1623359E+02  0.2688973E+03
Ar 1359  0.3492733E+02  0.3240357E+02  0.1901422E+02  0.9581712E+02
Ar 1360  0.3197235E+02  0.3504135E+02  0.1925739E+02  0.4538426E+03
Ar 1361  0.3284288E+02  0.3187447E+02  0.2196843E+02  0.2821840E+03
Ar 1362  0.3511961E+02  0.3481609E+02  0.2167932E+02  0.2571812E+03
Ar 1363  0.3497707E+02  0.3143418E+02  0.2458098E+02  0.2103902E+03
Ar 1364  0.3277411E+02  0.3454476E+02  0.2460386E+02  0.2720696E+03
Ar 1365  0.3253892E+02  0.3188672E+02  0.2682339E+02  0.2693405E+03
Ar 1366  0.3495545E+02  0.3490522E+02  0.2779127E+02  0.3963534E+01
Ar 1367  0.3538335E+02  0.3210255E+02  0.2991376E+02  0.2405537E+03
Ar 1368  0.3188507E+02  0.3532803E+02  0.3011301E+02  0.5754554E+03
Ar 1369  0.3255670E+02  0.3208687E+02  0.4339292E+00  0.9602602E+02
Ar 1370  0.3492122E+02  0.3498646E+02  0.3307898E+02  0.3703728E+03
Ar 1371  0.3563799E+02  0.3242696E+02  0.3523246E+02  0.3866315E+03
Ar 1372  0.3174588E+02  0.3403039E+02  0.3507437E+02  0.2023168E+02
