        1372
Lattice="  0.3778015E+02  0.0000000E+00  0.0000000E+00  0.0000000E+00  0.3778015E+02  0.0000000E+00  0.0000000E+00  0.0000000E+00  0.3778015E+02" Properties=species:S:1:id:I:1:pos:R:3:tempK:R:1
Ar    1  0.3716588E+02  0.3763710E+02  0.3737135E+02  0.1578786E+03
Ar    2  0.2715345E+01  0.2706797E+01  0.3744452E+02  0.4497105E+03
Ar    3  0.1826733E+01  0.1453198E+00  0.2586949E+01  0.2926166E+02
Ar    4  0.3763153E+02  0.3176398E+01  0.2292951E+01  0.2580424E+03
Ar    5  0.3740061E+02  0.3757614E+02  0.5592815E+01  0.4137738E+02
Ar    6  0.2293741E+01  0.2171951E+01  0.5300154E+01  0.4992065E+03
Ar    7  0.2519532E+01  0.9194818E-01  0.8138611E+01  0.2164470E+03
Ar    8  0.1954442E-01  0.2661726E+01  0.7904189E+01  0.2173028E+03
Ar    9  0.3720528E+02  0.3689651E+02  0.1064046E+02  0.2918528E+03
Ar   10  0.3034457E+01  0.3167246E+01  0.1024857E+02  0.1971059E+03
Ar   11  0.2410419E+01  0.3745313E+02  0.1306651E+02  0.2833008E+03
Ar   12  0.1559264E+00  0.2494943E+01  0.1277097E+02  0.3580016E+03
Ar   13  0.5453101E+00  0.9163206E-01  0.1642572E+02  0.3073954E+03
Ar   14  0.2958632E+01  0.2142865E+01  0.1517790E+02  0.3599772E+03
Ar   15  0.2358147E+01  0.1030920E+00  0.1930029E+02  0.1812071E+02
Ar   16  0.3698067E+02  0.2512004E+01  0.1907868E+02  0.4838250E+03
Ar   17  0.3773070E+02  0.1995163E+00  0.2148810E+02  0.1309960E+03
Ar   18  0.2731904E+01  0.2583110E+01  0.2182067E+02  0.1342561E+03
Ar   19  0.2399771E+01  0.3763367E+02  0.2449193E+02  0.2054931E+03
Ar   20  0.3749875E+02  0.2556560E+01  0.2431677E+02  0.4566712E+03
Ar   21  0.1318512E+00  0.9226973E-01  0.2692651E+02  0.4232389E+02
Ar   22  0.2689542E+01  0.2973419E+01  0.2653784E+02  0.1456289E+03
Ar   23  0.1998879E+01  0.3755323E+02  0.2972520E+02  0.2744859E+03
Ar   24  0.3772049E+02  0.2654405E+01  0.2945805E+02  0.6303763E+03
Ar   25  0.3742045E+02  0.3726662E+02  0.3262693E+02  0.1109486E+03
Ar   26  0.2111457E+01  0.2156603E+01  0.3221582E+02  0.2528480E+03
Ar   27  0.2496111E+01  0.3758337E+02  0.3484158E+02  0.3901149E+03
Ar   28  0.3729668E+02  0.2444609E+01  0.3505633E+02  0.3696000E+02
Ar   29  0.8131259E-01  0.5555111E+01  0.3727913E+02  0.4259836E+03
Ar   30  0.2829347E+01  0.7275641E+01  0.4736941E+00  0.5324365E+03
Ar   31  0.2514780E+01  0.5023068E+01  0.2787193E+01  0.8531459E+02
Ar   32  0.3755755E+02  0.7421364E+01  0.2599261E+01  0.8645635E+02
Ar   33  0.3772215E+02  0.5353457E+01  0.5561282E+01  0.1955612E+03
Ar   34  0.2596260E+01  0.7876790E+01  0.4991635E+01  0.1345357E+03
Ar   35  0.2760114E+01  0.5202666E+01  0.7797647E+01  0.2909720E+03
Ar   36  0.3749717E+02  0.7908679E+01  0.8577206E+01  0.6077487E+03
Ar   37  0.9945296E-01  0.5254132E+01  0.1070273E+02  0.3532848E+03
Ar   38  0.2653974E+01  0.8037393E+01  0.1092905E+02  0.5840083E+03
Ar   39  0.2850562E+01  0.5027371E+01  0.1315531E+02  0.1259156E+03
Ar   40  0.3774188E+02  0.7597654E+01  0.1367575E+02  0.2779980E+03
Ar   41  0.3478935E-02  0.4925084E+01  0.1614367E+02  0.5169687E+02
Ar   42  0.2471564E+01  0.7500398E+01  0.1640607E+02  0.2508142E+03
Ar   43  0.2248813E+01  0.5046301E+01  0.1909144E+02  0.4564537E+02
Ar   44  0.3754586E+02  0.7562231E+01  0.1902186E+02  0.1708981E+03
Ar   45  0.3723552E+02  0.5032531E+01  0.2183544E+02  0.5645541E+02
Ar   46  0.2680639E+01  0.7721268E+01  0.2152591E+02  0.3451946E+02
Ar   47  0.2772412E+01  0.5466051E+01  0.2393904E+02  0.1323375E+03
Ar   48  0.8229009E+00  0.8350963E+01  0.2486434E+02  0.9878161E+02
Ar   49  0.3745436E+02  0.5080122E+01  0.2723181E+02  0.5492419E+02
Ar   50  0.2456376E+01  0.7950314E+01  0.2747162E+02  0.2714730E+03
Ar   51  0.2500747E+01  0.5124556E+01  0.2979611E+02  0.3251750E+03
Ar   52  0.3773994E+02  0.7744200E+01  0.2998143E+02  0.1972038E+02
Ar   53  0.3769546E+02  0.5264824E+01  0.3260016E+02  0.7294319E+02
Ar   54  0.2773093E+01  0.8298100E+01  0.3224359E+02  0.5491986E+02
Ar   55  0.2764619E+01  0.4831647E+01  0.3443796E+02  0.4280177E+02
Ar   56  0.4922682E+00  0.8093361E+01  0.3487681E+02  0.1351032E+03
Ar   57  0.3759796E+02  0.1082182E+02  0.3755588E+02  0.3975348E+02
Ar   58  0.2816658E+01  0.1346840E+02  0.1907249E+00  0.6178830E+03
Ar   59  0.2841463E+01  0.1040840E+02  0.2331900E+01  0.1421839E+03
Ar   60  0.2810815E+00  0.1317292E+02  0.2612453E+01  0.2679840E+03
Ar   61  0.3754775E+02  0.1034782E+02  0.5169422E+01  0.3023562E+03
Ar   62  0.2983788E+01  0.1303034E+02  0.5353216E+01  0.1388625E+03
Ar   63  0.1946323E+01  0.1050720E+02  0.8085221E+01  0.1324958E+03
Ar   64  0.3776035E+02  0.1345159E+02  0.7456391E+01  0.6438019E+02
Ar   65  0.7523070E-01  0.1062569E+02  0.1128946E+02  0.3959070E+03
Ar   66  0.2352497E+01  0.1296086E+02  0.1092401E+02  0.1649807E+03
Ar   67  0.2723225E+01  0.1076321E+02  0.1364376E+02  0.8347176E+02
Ar   68  0.3758390E+02  0.1377415E+02  0.1355173E+02  0.6827157E+02
Ar   69  0.3777019E+02  0.1027206E+02  0.1601760E+02  0.4488710E+02
Ar   70  0.2137005E+01  0.1314857E+02  0.1588347E+02  0.1804465E+03
Ar   71  0.2700500E+01  0.1014024E+02  0.1891565E+02  0.3314193E+03
Ar   72  0.2364418E+00  0.1344309E+02  0.1882807E+02  0.4734109E+01
Ar   73  0.3773439E+02  0.9964513E+01  0.2174541E+02  0.1424252E+03
Ar   74  0.2859271E+01  0.1374032E+02  0.2212661E+02  0.1876522E+03
Ar   75  0.2920773E+01  0.1114692E+02  0.2500702E+02  0.1190305E+03
Ar   76  0.3743697E+02  0.1343663E+02  0.2432207E+02  0.8110766E+02
Ar   77  0.3757691E+02  0.1094780E+02  0.2710032E+02  0.3549039E+02
Ar   78  0.2495348E+01  0.1380279E+02  0.2704472E+02  0.5107855E+03
Ar   79  0.2849400E+01  0.1051519E+02  0.2962527E+02  0.2219317E+03
Ar   80  0.6975167E-01  0.1352694E+02  0.2976005E+02  0.7361967E+02
Ar   81  0.2673194E+00  0.1058757E+02  0.3205181E+02  0.2059208E+03
Ar   82  0.2623493E+01  0.1344765E+02  0.3247747E+02  0.1074683E+03
Ar   83  0.2535326E+01  0.1085572E+02  0.3538596E+02  0.4474891E+02
Ar   84  0.3754822E+02  0.1353466E+02  0.3508292E+02  0.1393942E+03
Ar   85  0.5111760E-01  0.1655267E+02  0.1765949E+00  0.3519277E+03
Ar   86  0.2512920E+01  0.1935164E+02  0.3755813E+02  0.1096861E+03
Ar   87  0.2743021E+01  0.1584155E+02  0.3017153E+01  0.7605162E+03
Ar   88  0.1067958E+00  0.1937085E+02  0.2507826E+01  0.5943875E+02
Ar   89  0.4276491E+00  0.1651509E+02  0.5539443E+01  0.2345288E+02
Ar   90  0.2740969E+01  0.1904278E+02  0.5231982E+01  0.4864927E+02
Ar   91  0.2846476E+01  0.1611366E+02  0.8127932E+01  0.5553568E+03
Ar   92  0.2020214E-01  0.1943041E+02  0.7925251E+01  0.1432220E+03
Ar   93  0.3743439E+02  0.1648923E+02  0.1039695E+02  0.1888214E+03
Ar   94  0.2808206E+01  0.1924427E+02  0.1080095E+02  0.2129186E+03
Ar   95  0.2481672E+01  0.1607593E+02  0.1339708E+02  0.8410855E+02
Ar   96  0.3755914E+02  0.1876228E+02  0.1325314E+02  0.4899000E+02
Ar   97  0.4384539E+00  0.1649124E+02  0.1654434E+02  0.4062405E+02
Ar   98  0.3033591E+01  0.1914466E+02  0.1600102E+02  0.3265646E+02
Ar   99  0.2917179E+01  0.1635650E+02  0.1917937E+02  0.1329851E+03
Ar  100  0.2614018E+00  0.1889173E+02  0.1905792E+02  0.2864522E+03
Ar  101  0.1556377E-01  0.1634608E+02  0.2153613E+02  0.2813346E+03
Ar  102  0.3250543E+01  0.1916196E+02  0.2190976E+02  0.5139628E+02
Ar  103  0.2826753E+01  0.1646605E+02  0.2456734E+02  0.3677024E+03
Ar  104  0.2767349E+00  0.1895558E+02  0.2398253E+02  0.1033467E+03
Ar  105  0.3770055E+02  0.1620615E+02  0.2737929E+02  0.5114086E+02
Ar  106  0.3253681E+01  0.1918665E+02  0.2706250E+02  0.1658121E+03
Ar  107  0.2800775E+01  0.1640844E+02  0.3016088E+02  0.2670187E+03
Ar  108  0.1935211E+00  0.1890054E+02  0.2934845E+02  0.2732279E+03
Ar  109  0.1383254E+00  0.1635316E+02  0.3273942E+02  0.9189151E+02
Ar  110  0.2644337E+01  0.1912069E+02  0.3226721E+02  0.2431947E+03
Ar  111  0.2845999E+01  0.1579014E+02  0.3503472E+02  0.7836500E+02
Ar  112  0.3763341E+02  0.1877246E+02  0.3527037E+02  0.2591535E+03
Ar  113  0.2191222E+00  0.2182230E+02  0.3777705E+02  0.3869624E+03
Ar  114  0.2357649E+01  0.2457832E+02  0.3732431E+02  0.1274758E+03
Ar  115  0.2491265E+01  0.2173333E+02  0.2819371E+01  0.2917349E+03
Ar  116  0.3754543E+02  0.2452964E+02  0.2483223E+01  0.8084239E+02
Ar  117  0.3771580E+02  0.2197257E+02  0.5038826E+01  0.1719301E+03
Ar  118  0.2739056E+01  0.2416078E+02  0.5289520E+01  0.1342295E+03
Ar  119  0.2719616E+01  0.2181402E+02  0.7722563E+01  0.2532418E+03
Ar  120  0.2649714E+00  0.2455707E+02  0.7953747E+01  0.2204278E+03
Ar  121  0.2081536E+00  0.2192954E+02  0.1059930E+02  0.2312067E+03
Ar  122  0.2769066E+01  0.2426375E+02  0.1080445E+02  0.2232115E+03
Ar  123  0.2822485E+01  0.2172216E+02  0.1348495E+02  0.2097338E+02
Ar  124  0.1445412E+00  0.2426800E+02  0.1321427E+02  0.1259547E+02
Ar  125  0.3680704E+02  0.2160048E+02  0.1630968E+02  0.2941037E+03
Ar  126  0.2748443E+01  0.2409611E+02  0.1643149E+02  0.9696213E+02
Ar  127  0.2244207E+01  0.2162309E+02  0.1869929E+02  0.7209441E+02
Ar  128  0.3770825E+02  0.2424466E+02  0.1855945E+02  0.1116223E+03
Ar  129  0.3737365E+02  0.2212326E+02  0.2105969E+02  0.9325457E+02
Ar  130  0.2544479E+01  0.2370897E+02  0.2153482E+02  0.4299068E+03
Ar  131  0.2509432E+01  0.2176350E+02  0.2428490E+02  0.1220836E+03
Ar  132  0.3767483E+02  0.2440540E+02  0.2445201E+02  0.2283051E+03
Ar  133  0.3766209E+02  0.2175017E+02  0.2701163E+02  0.6788512E+02
Ar  134  0.2549889E+01  0.2437758E+02  0.2703528E+02  0.5247785E+02
Ar  135  0.3112126E+01  0.2205187E+02  0.2979392E+02  0.5410678E+02
Ar  136  0.1157962E+00  0.2462408E+02  0.2965144E+02  0.1429292E+03
Ar  137  0.5868848E-01  0.2135290E+02  0.3219238E+02  0.3684625E+03
Ar  138  0.2682811E+01  0.2428634E+02  0.3221128E+02  0.3083977E+03
Ar  139  0.2247685E+01  0.2175430E+02  0.3450483E+02  0.1008774E+03
Ar  140  0.3738197E+02  0.2421387E+02  0.3503143E+02  0.8121177E+02
Ar  141  0.1496642E-01  0.2736752E+02  0.3706858E+02  0.2593887E+03
Ar  142  0.3095992E+01  0.2967820E+02  0.3749359E+02  0.2018468E+03
Ar  143  0.2805153E+01  0.2709399E+02  0.2680105E+01  0.2856166E+03
Ar  144  0.2003852E+00  0.2957386E+02  0.2689749E+01  0.3016529E+03
Ar  145  0.2013653E+00  0.2700842E+02  0.5438806E+01  0.3192877E+03
Ar  146  0.2912851E+01  0.2991674E+02  0.5238738E+01  0.1509569E+03
Ar  147  0.2815466E+01  0.2704984E+02  0.8548847E+01  0.2796393E+03
Ar  148  0.6447964E+00  0.2942154E+02  0.8260638E+01  0.1611062E+03
Ar  149  0.7712403E-01  0.2660905E+02  0.1108992E+02  0.3823280E+03
Ar  150  0.2719098E+01  0.2985032E+02  0.1084213E+02  0.2952501E+03
Ar  151  0.2622897E+01  0.2697608E+02  0.1373819E+02  0.2507027E+02
Ar  152  0.4111192E+00  0.2992884E+02  0.1355065E+02  0.1542517E+03
Ar  153  0.1094729E+00  0.2678638E+02  0.1633075E+02  0.9012877E+02
Ar  154  0.2622137E+01  0.2968343E+02  0.1643794E+02  0.1202525E+03
Ar  155  0.2957314E+01  0.2700453E+02  0.1915072E+02  0.1502019E+03
Ar  156  0.4328037E+00  0.2929765E+02  0.1942080E+02  0.8055666E+02
Ar  157  0.3775239E+02  0.2652214E+02  0.2150115E+02  0.8910531E+02
Ar  158  0.3089856E+01  0.2975736E+02  0.2142327E+02  0.2865761E+03
Ar  159  0.2475345E+01  0.2685511E+02  0.2364889E+02  0.4223783E+03
Ar  160  0.3763183E+02  0.2986335E+02  0.2377463E+02  0.3013509E+03
Ar  161  0.3747182E+02  0.2702443E+02  0.2678165E+02  0.5169679E+02
Ar  162  0.2225280E+01  0.2956619E+02  0.2646786E+02  0.1038301E+03
Ar  163  0.2896384E+01  0.2711950E+02  0.2930802E+02  0.1206927E+03
Ar  164  0.3776189E+02  0.2929435E+02  0.2926603E+02  0.2700719E+03
Ar  165  0.3769897E+02  0.2676852E+02  0.3261768E+02  0.1399042E+03
Ar  166  0.2851000E+01  0.2970519E+02  0.3233490E+02  0.5086675E+02
Ar  167  0.2807509E+01  0.2727852E+02  0.3463544E+02  0.4281780E+03
Ar  168  0.1686441E-01  0.2977971E+02  0.3490882E+02  0.1915975E+03
Ar  169  0.2427234E+00  0.3200660E+02  0.3729930E+02  0.5739011E+03
Ar  170  0.2133242E+01  0.3539069E+02  0.3747450E+02  0.2787399E+03
Ar  171  0.2994331E+01  0.3227966E+02  0.1964734E+01  0.2762811E+03
Ar  172  0.3728613E+02  0.3454119E+02  0.2543995E+01  0.4595656E+02
Ar  173  0.1128114E+00  0.3209870E+02  0.5584236E+01  0.3448706E+02
Ar  174  0.2548539E+01  0.3479226E+02  0.4605332E+01  0.2405107E+02
Ar  175  0.2634574E+01  0.3238785E+02  0.8151485E+01  0.6745019E+01
Ar  176  0.3734814E+02  0.3463232E+02  0.8013665E+01  0.1710038E+03
Ar  177  0.2818702E-01  0.3191213E+02  0.1051698E+02  0.6450258E+02
Ar  178  0.2542702E+01  0.3485569E+02  0.1074869E+02  0.1094745E+03
Ar  179  0.2625865E+01  0.3270847E+02  0.1334391E+02  0.2683223E+02
Ar  180  0.3729725E+02  0.3486119E+02  0.1361310E+02  0.1266068E+02
Ar  181  0.2437581E+00  0.3233832E+02  0.1623538E+02  0.8067282E+02
Ar  182  0.3123962E+01  0.3534633E+02  0.1631866E+02  0.1096451E+03
Ar  183  0.3113948E+01  0.3230217E+02  0.1880068E+02  0.7930272E+02
Ar  184  0.3763919E+02  0.3522615E+02  0.1897972E+02  0.2223874E+03
Ar  185  0.9531128E-01  0.3274933E+02  0.2143290E+02  0.1106326E+03
Ar  186  0.2130351E+01  0.3546371E+02  0.2182560E+02  0.6751477E+02
Ar  187  0.2724370E+01  0.3234996E+02  0.2417284E+02  0.3381668E+03
Ar  188  0.3764325E+02  0.3503391E+02  0.2476751E+02  0.3364107E+03
Ar  189  0.8906551E-01  0.3206736E+02  0.2667546E+02  0.1230660E+03
Ar  190  0.2404077E+01  0.3509537E+02  0.2758339E+02  0.1670471E+03
Ar  191  0.2370166E+01  0.3213898E+02  0.2946837E+02  0.8748264E+02
Ar  192  0.3761461E+02  0.3464747E+02  0.2950952E+02  0.1749303E+03
Ar  193  0.3601437E+00  0.3220501E+02  0.3233320E+02  0.7001889E+02
Ar  194  0.3018402E+01  0.3514840E+02  0.3211772E+02  0.6834157E+02
Ar  195  0.2985426E+01  0.3232425E+02  0.3478616E+02  0.4577441E+02
Ar  196  0.3731672E+02  0.3457617E+02  0.3503476E+02  0.1431557E+03
Ar  197  0.4895695E+01  0.6629104E-01  0.1911358E+00  0.1395518E+03
Ar  198  0.8317450E+01  0.2779736E+01  0.3445630E-01  0.6460759E+02
Ar  199  0.8112606E+01  0.5843504E+00  0.2663670E+01  0.2530166E+03
Ar  200  0.5612539E+01  0.2814330E+01  0.2036065E+01  0.5611100E+03
Ar  201  0.5191021E+01  0.7638791E-01  0.4934376E+01  0.5141784E+03
Ar  202  0.7802372E+01  0.2787814E+01  0.5455252E+01  0.5339720E+02
Ar  203  0.7727208E+01  0.1981866E+00  0.7696940E+01  0.1544350E+03
Ar  204  0.5063046E+01  0.2451731E+01  0.7552058E+01  0.4280272E+03
Ar  205  0.5445614E+01  0.4354043E+00  0.1064250E+02  0.3642689E+02
Ar  206  0.8089267E+01  0.2812978E+01  0.1070354E+02  0.2680879E+03
Ar  207  0.8146747E+01  0.1679456E+00  0.1362215E+02  0.5569480E+02
Ar  208  0.5633012E+01  0.2755069E+01  0.1324590E+02  0.3744447E+01
Ar  209  0.5452821E+01  0.2655049E+00  0.1631768E+02  0.2042396E+03
Ar  210  0.7869038E+01  0.2456906E+01  0.1602590E+02  0.9509610E+02
Ar  211  0.7985909E+01  0.6186080E-01  0.1936258E+02  0.3159077E+03
Ar  212  0.4931364E+01  0.2424415E+01  0.1902317E+02  0.5397010E+02
Ar  213  0.5381630E+01  0.3771004E+02  0.2220808E+02  0.2419157E+02
Ar  214  0.8232448E+01  0.3012972E+01  0.2181831E+02  0.5696296E+01
Ar  215  0.8857214E+01  0.6981166E+00  0.2467543E+02  0.1380453E+03
Ar  216  0.5330691E+01  0.2648314E+01  0.2430156E+02  0.1251414E+03
Ar  217  0.4867784E+01  0.3741620E+02  0.2676877E+02  0.2294469E+03
Ar  218  0.8275924E+01  0.2854921E+01  0.2731146E+02  0.5294441E+02
Ar  219  0.7922557E+01  0.1361799E+00  0.2954525E+02  0.2775326E+03
Ar  220  0.5191466E+01  0.2798213E+01  0.2965578E+02  0.3390411E+03
Ar  221  0.5100660E+01  0.2131185E+00  0.3193793E+02  0.2082065E+03
Ar  222  0.7939031E+01  0.2679580E+01  0.3222567E+02  0.1136395E+03
Ar  223  0.7751485E+01  0.2041658E+00  0.3538492E+02  0.4360230E+02
Ar  224  0.5335359E+01  0.2332615E+01  0.3464725E+02  0.1149013E+03
Ar  225  0.5426400E+01  0.5473297E+01  0.3747761E+02  0.6578151E+03
Ar  226  0.8352947E+01  0.8024212E+01  0.1388815E+00  0.1093231E+03
Ar  227  0.8012632E+01  0.5449244E+01  0.2903306E+01  0.9691912E+02
Ar  228  0.5556595E+01  0.7690854E+01  0.2622763E+01  0.1013404E+03
Ar  229  0.4776626E+01  0.4895529E+01  0.5274522E+01  0.2736216E+03
Ar  230  0.8218913E+01  0.8085836E+01  0.5375645E+01  0.3316997E+02
Ar  231  0.8198548E+01  0.5294141E+01  0.7970751E+01  0.1784774E+03
Ar  232  0.5302961E+01  0.7838355E+01  0.7279109E+01  0.1606799E+03
Ar  233  0.5440696E+01  0.5499082E+01  0.1064606E+02  0.2400469E+03
Ar  234  0.8099714E+01  0.7839397E+01  0.1068363E+02  0.4893772E+02
Ar  235  0.8031691E+01  0.5425088E+01  0.1376064E+02  0.2091470E+03
Ar  236  0.5093973E+01  0.8038072E+01  0.1392736E+02  0.3609311E+03
Ar  237  0.5001065E+01  0.5128418E+01  0.1620162E+02  0.5514137E+03
Ar  238  0.8388280E+01  0.8260488E+01  0.1624146E+02  0.1639311E+03
Ar  239  0.8276502E+01  0.4961422E+01  0.1873435E+02  0.1037833E+03
Ar  240  0.5406025E+01  0.7808837E+01  0.1888484E+02  0.1761868E+03
Ar  241  0.5200901E+01  0.4921016E+01  0.2108060E+02  0.2635545E+03
Ar  242  0.8073919E+01  0.8143348E+01  0.2210860E+02  0.2019911E+03
Ar  243  0.8399514E+01  0.5091243E+01  0.2455565E+02  0.2919070E+02
Ar  244  0.5202862E+01  0.8604399E+01  0.2421461E+02  0.1047638E+03
Ar  245  0.5665558E+01  0.5172726E+01  0.2663456E+02  0.4235068E+02
Ar  246  0.8347154E+01  0.8351769E+01  0.2668113E+02  0.4157811E+02
Ar  247  0.8075505E+01  0.5925653E+01  0.2938683E+02  0.6068654E+03
Ar  248  0.5574217E+01  0.8369564E+01  0.2960731E+02  0.5091326E+03
Ar  249  0.5502236E+01  0.5572867E+01  0.3214110E+02  0.6542888E+02
Ar  250  0.8081641E+01  0.8757429E+01  0.3235652E+02  0.3577720E+03
Ar  251  0.8161721E+01  0.5295785E+01  0.3509429E+02  0.1749579E+03
Ar  252  0.5034697E+01  0.8013585E+01  0.3523798E+02  0.9633187E+02
Ar  253  0.5578153E+01  0.1063536E+02  0.9289406E-01  0.1195433E+03
Ar  254  0.7952182E+01  0.1325575E+02  0.2803120E+00  0.1704047E+02
Ar  255  0.8026616E+01  0.1084316E+02  0.2705973E+01  0.3311284E+03
Ar  256  0.5278956E+01  0.1339658E+02  0.2774939E+01  0.8515049E+02
Ar  257  0.5185087E+01  0.1056657E+02  0.4818870E+01  0.1760033E+02
Ar  258  0.7711665E+01  0.1308677E+02  0.5728435E+01  0.5759988E+02
Ar  259  0.7720064E+01  0.1029020E+02  0.8410821E+01  0.1505462E+03
Ar  260  0.5356267E+01  0.1318931E+02  0.8421890E+01  0.2596483E+03
Ar  261  0.5267683E+01  0.1052917E+02  0.1108551E+02  0.2450592E+03
Ar  262  0.8156419E+01  0.1370096E+02  0.1049873E+02  0.8898210E+02
Ar  263  0.8147253E+01  0.1066779E+02  0.1324866E+02  0.1814592E+03
Ar  264  0.5755701E+01  0.1350835E+02  0.1328896E+02  0.1432397E+03
Ar  265  0.5149448E+01  0.1092343E+02  0.1623411E+02  0.8349068E+02
Ar  266  0.8127311E+01  0.1326558E+02  0.1650506E+02  0.7356117E+02
Ar  267  0.7760318E+01  0.1084446E+02  0.1961211E+02  0.1626559E+03
Ar  268  0.5716674E+01  0.1378148E+02  0.1928771E+02  0.1329401E+03
Ar  269  0.5148554E+01  0.1090685E+02  0.2162906E+02  0.1315280E+03
Ar  270  0.8294321E+01  0.1350369E+02  0.2189249E+02  0.1414084E+03
Ar  271  0.8309391E+01  0.1120007E+02  0.2453134E+02  0.2590966E+03
Ar  272  0.5522373E+01  0.1393459E+02  0.2456183E+02  0.5208084E+02
Ar  273  0.5566899E+01  0.1098984E+02  0.2749125E+02  0.1890638E+03
Ar  274  0.8212258E+01  0.1359571E+02  0.2694896E+02  0.1746972E+03
Ar  275  0.8479732E+01  0.1139791E+02  0.3006018E+02  0.3702553E+03
Ar  276  0.5024340E+01  0.1345681E+02  0.2987120E+02  0.1073769E+03
Ar  277  0.4926232E+01  0.1083798E+02  0.3258086E+02  0.2272428E+03
Ar  278  0.7740147E+01  0.1339429E+02  0.3275871E+02  0.1156902E+03
Ar  279  0.7726013E+01  0.1071855E+02  0.3502151E+02  0.6613145E+02
Ar  280  0.5012819E+01  0.1330441E+02  0.3489061E+02  0.1510077E+03
Ar  281  0.5431674E+01  0.1619294E+02  0.3761809E+02  0.2614945E+03
Ar  282  0.7656399E+01  0.1914953E+02  0.3423829E+00  0.3600201E+02
Ar  283  0.7797751E+01  0.1605257E+02  0.2679499E+01  0.2466024E+03
Ar  284  0.4956116E+01  0.1858345E+02  0.2441245E+01  0.3820591E+03
Ar  285  0.5403825E+01  0.1650843E+02  0.5217022E+01  0.1011213E+03
Ar  286  0.8064485E+01  0.1882482E+02  0.4691470E+01  0.4273755E+02
Ar  287  0.8035429E+01  0.1621156E+02  0.7915675E+01  0.2901402E+03
Ar  288  0.5518674E+01  0.1901141E+02  0.7934661E+01  0.1882111E+03
Ar  289  0.5104077E+01  0.1602980E+02  0.1048520E+02  0.1066530E+03
Ar  290  0.7609641E+01  0.1885685E+02  0.1070137E+02  0.1816729E+03
Ar  291  0.7977697E+01  0.1623569E+02  0.1352180E+02  0.2787740E+03
Ar  292  0.5239739E+01  0.1819825E+02  0.1314568E+02  0.3980533E+03
Ar  293  0.5253198E+01  0.1614644E+02  0.1609012E+02  0.3343664E+03
Ar  294  0.7748123E+01  0.1883703E+02  0.1620967E+02  0.1143998E+03
Ar  295  0.8231776E+01  0.1632399E+02  0.1900207E+02  0.2536164E+02
Ar  296  0.5330936E+01  0.1859325E+02  0.1904128E+02  0.1867269E+03
Ar  297  0.5600855E+01  0.1627782E+02  0.2170590E+02  0.1197289E+03
Ar  298  0.8169088E+01  0.1903882E+02  0.2158641E+02  0.2206028E+03
Ar  299  0.8556567E+01  0.1590269E+02  0.2441706E+02  0.1198364E+03
Ar  300  0.5579037E+01  0.1860493E+02  0.2443218E+02  0.1003237E+03
Ar  301  0.5256610E+01  0.1624131E+02  0.2738874E+02  0.4167746E+03
Ar  302  0.7826028E+01  0.1884494E+02  0.2720026E+02  0.3777022E+02
Ar  303  0.8301628E+01  0.1530007E+02  0.2984904E+02  0.1545712E+03
Ar  304  0.5342415E+01  0.1888817E+02  0.3000221E+02  0.1829212E+03
Ar  305  0.5690923E+01  0.1627728E+02  0.3246857E+02  0.4535507E+03
Ar  306  0.8604113E+01  0.1876505E+02  0.3257552E+02  0.3346880E+03
Ar  307  0.7708725E+01  0.1599793E+02  0.3526491E+02  0.5911492E+02
Ar  308  0.5457196E+01  0.1889805E+02  0.3477373E+02  0.1568531E+03
Ar  309  0.5369553E+01  0.2153775E+02  0.3750826E+02  0.1480145E+02
Ar  310  0.8198005E+01  0.2449658E+02  0.1265543E-01  0.3627367E+03
Ar  311  0.7767822E+01  0.2159147E+02  0.2837752E+01  0.2925996E+03
Ar  312  0.5578768E+01  0.2445500E+02  0.2739747E+01  0.4359132E+02
Ar  313  0.5534441E+01  0.2160566E+02  0.5403405E+01  0.2225082E+02
Ar  314  0.8385922E+01  0.2470498E+02  0.5215837E+01  0.3158234E+03
Ar  315  0.7926397E+01  0.2214796E+02  0.7573784E+01  0.1209794E+03
Ar  316  0.5348430E+01  0.2449993E+02  0.7928543E+01  0.1410715E+03
Ar  317  0.5528628E+01  0.2140787E+02  0.1027350E+02  0.7071599E+02
Ar  318  0.8100619E+01  0.2441798E+02  0.1061846E+02  0.2819492E+03
Ar  319  0.7770428E+01  0.2137851E+02  0.1341115E+02  0.8897721E+02
Ar  320  0.5442475E+01  0.2436000E+02  0.1310627E+02  0.1995687E+03
Ar  321  0.5380223E+01  0.2167320E+02  0.1612238E+02  0.9212605E+02
Ar  322  0.7596699E+01  0.2439530E+02  0.1653460E+02  0.1547083E+03
Ar  323  0.8016078E+01  0.2153624E+02  0.1899925E+02  0.5180911E+03
Ar  324  0.5237793E+01  0.2381025E+02  0.1920588E+02  0.2155549E+03
Ar  325  0.5758380E+01  0.2176984E+02  0.2198106E+02  0.4307367E+02
Ar  326  0.8141621E+01  0.2466335E+02  0.2152585E+02  0.1034230E+03
Ar  327  0.8245975E+01  0.2135798E+02  0.2443508E+02  0.7827833E+02
Ar  328  0.5243590E+01  0.2423720E+02  0.2388306E+02  0.2465801E+03
Ar  329  0.5796949E+01  0.2186575E+02  0.2703930E+02  0.1147679E+02
Ar  330  0.8236612E+01  0.2468016E+02  0.2650904E+02  0.2202696E+03
Ar  331  0.8238920E+01  0.2142251E+02  0.2941394E+02  0.7872093E+02
Ar  332  0.5827287E+01  0.2479190E+02  0.2900467E+02  0.2983879E+02
Ar  333  0.5821012E+01  0.2166501E+02  0.3244728E+02  0.2520367E+03
Ar  334  0.8147706E+01  0.2445304E+02  0.3194426E+02  0.1692508E+03
Ar  335  0.8185422E+01  0.2176062E+02  0.3527645E+02  0.5214335E+02
Ar  336  0.5175864E+01  0.2428820E+02  0.3518851E+02  0.5732822E+02
Ar  337  0.5482014E+01  0.2683037E+02  0.2205729E+00  0.2452490E+03
Ar  338  0.7992158E+01  0.2985982E+02  0.7150468E-01  0.8545340E+01
Ar  339  0.8573533E+01  0.2710509E+02  0.2983766E+01  0.2208834E+03
Ar  340  0.5439003E+01  0.2945206E+02  0.2653482E+01  0.1091624E+02
Ar  341  0.5564077E+01  0.2739315E+02  0.5588123E+01  0.1123467E+03
Ar  342  0.8169538E+01  0.3017810E+02  0.5552110E+01  0.3538270E+03
Ar  343  0.8514092E+01  0.2726157E+02  0.8107803E+01  0.2385256E+03
Ar  344  0.5846561E+01  0.2972253E+02  0.8383284E+01  0.2082572E+03
Ar  345  0.5736523E+01  0.2713047E+02  0.1047153E+02  0.7974721E+02
Ar  346  0.8316696E+01  0.2981550E+02  0.1070019E+02  0.2122711E+03
Ar  347  0.7998421E+01  0.2700076E+02  0.1326796E+02  0.1007590E+03
Ar  348  0.5773330E+01  0.2976423E+02  0.1374201E+02  0.4466028E+03
Ar  349  0.5154707E+01  0.2727859E+02  0.1630271E+02  0.2458175E+03
Ar  350  0.8537635E+01  0.3012069E+02  0.1598892E+02  0.2040489E+03
Ar  351  0.8050480E+01  0.2682680E+02  0.1893836E+02  0.1073430E+03
Ar  352  0.5294884E+01  0.2985062E+02  0.1896399E+02  0.2976881E+03
Ar  353  0.5660279E+01  0.2737529E+02  0.2196521E+02  0.1347569E+03
Ar  354  0.7911197E+01  0.3005098E+02  0.2196618E+02  0.2400303E+03
Ar  355  0.8225077E+01  0.2713333E+02  0.2445974E+02  0.1859873E+02
Ar  356  0.5372681E+01  0.3016889E+02  0.2431429E+02  0.2422571E+03
Ar  357  0.5082903E+01  0.2709253E+02  0.2650387E+02  0.5402872E+03
Ar  358  0.7717117E+01  0.2979300E+02  0.2695100E+02  0.4871008E+03
Ar  359  0.8420964E+01  0.2705886E+02  0.2998529E+02  0.2205750E+03
Ar  360  0.5440050E+01  0.2985975E+02  0.2966423E+02  0.1518669E+03
Ar  361  0.5159579E+01  0.2670326E+02  0.3180155E+02  0.9191159E+02
Ar  362  0.8396478E+01  0.2972188E+02  0.3192656E+02  0.2688835E+03
Ar  363  0.8020956E+01  0.2667510E+02  0.3455335E+02  0.1054469E+03
Ar  364  0.5699319E+01  0.2950979E+02  0.3469847E+02  0.1675225E+03
Ar  365  0.5944486E+01  0.3265296E+02  0.3741095E+02  0.2208729E+02
Ar  366  0.8596425E+01  0.3534056E+02  0.2162385E+00  0.9657613E+02
Ar  367  0.7948693E+01  0.3253216E+02  0.2567412E+01  0.2302916E+03
Ar  368  0.5558405E+01  0.3506895E+02  0.2576288E+01  0.9201126E+02
Ar  369  0.5147591E+01  0.3242264E+02  0.5460563E+01  0.5507142E+03
Ar  370  0.8070388E+01  0.3494901E+02  0.5487322E+01  0.3390224E+03
Ar  371  0.8562575E+01  0.3281240E+02  0.8663817E+01  0.1722405E+03
Ar  372  0.5031188E+01  0.3485526E+02  0.7638192E+01  0.1589809E+02
Ar  373  0.5244502E+01  0.3243638E+02  0.1060662E+02  0.1002029E+03
Ar  374  0.8374962E+01  0.3576335E+02  0.1057782E+02  0.3361649E+03
Ar  375  0.8061890E+01  0.3235739E+02  0.1317715E+02  0.8695632E+03
Ar  376  0.5422497E+01  0.3557395E+02  0.1311420E+02  0.1340001E+03
Ar  377  0.5190128E+01  0.3238768E+02  0.1616337E+02  0.8003936E+02
Ar  378  0.7904365E+01  0.3550758E+02  0.1658674E+02  0.9615959E+02
Ar  379  0.7875244E+01  0.3277532E+02  0.1911363E+02  0.1324495E+03
Ar  380  0.4881850E+01  0.3509157E+02  0.1966030E+02  0.2133971E+03
Ar  381  0.5534418E+01  0.3249503E+02  0.2182718E+02  0.3370473E+03
Ar  382  0.8299294E+01  0.3527801E+02  0.2209335E+02  0.1182837E+03
Ar  383  0.8201482E+01  0.3267683E+02  0.2461239E+02  0.1397103E+03
Ar  384  0.5288992E+01  0.3487660E+02  0.2419965E+02  0.1243977E+03
Ar  385  0.5208766E+01  0.3243000E+02  0.2677753E+02  0.1928415E+03
Ar  386  0.7919648E+01  0.3573796E+02  0.2649277E+02  0.8609283E+02
Ar  387  0.8034478E+01  0.3239540E+02  0.2937065E+02  0.2982039E+03
Ar  388  0.5713231E+01  0.3508788E+02  0.2943060E+02  0.5213530E+02
Ar  389  0.5656244E+01  0.3250402E+02  0.3234996E+02  0.5112652E+03
Ar  390  0.7787820E+01  0.3567778E+02  0.3252796E+02  0.6774922E+02
Ar  391  0.8268321E+01  0.3293171E+02  0.3468354E+02  0.5144256E+02
Ar  392  0.5198540E+01  0.3527346E+02  0.3518605E+02  0.2814186E+03
Ar  393  0.1098445E+02  0.1837030E+00  0.2627573E-01  0.1349538E+03
Ar  394  0.1321616E+02  0.2670875E+01  0.3744431E+02  0.1168097E+03
Ar  395  0.1305614E+02  0.2562242E+00  0.2853402E+01  0.4369353E+03
Ar  396  0.1037937E+02  0.3120750E+01  0.2588356E+01  0.5713095E+03
Ar  397  0.1041333E+02  0.3448571E-02  0.5538268E+01  0.1092181E+03
Ar  398  0.1330512E+02  0.2543768E+01  0.5329798E+01  0.1431843E+03
Ar  399  0.1382312E+02  0.1949229E+00  0.8002810E+01  0.1008073E+03
Ar  400  0.1069240E+02  0.2248474E+01  0.8092181E+01  0.2440072E+02
Ar  401  0.1083794E+02  0.5018823E-01  0.1145650E+02  0.2765720E+03
Ar  402  0.1315528E+02  0.2284671E+01  0.1066432E+02  0.8915787E+02
Ar  403  0.1387253E+02  0.3771112E+02  0.1381683E+02  0.6196797E+02
Ar  404  0.1058688E+02  0.2680019E+01  0.1353113E+02  0.2049594E+03
Ar  405  0.1044502E+02  0.1146306E+00  0.1636116E+02  0.2914561E+03
Ar  406  0.1365919E+02  0.3213614E+01  0.1646417E+02  0.7451046E+03
Ar  407  0.1321033E+02  0.5277107E+00  0.1889586E+02  0.1245504E+03
Ar  408  0.1071720E+02  0.2873842E+01  0.1897374E+02  0.6035542E+03
Ar  409  0.1082996E+02  0.6231762E-01  0.2184566E+02  0.2444471E+03
Ar  410  0.1356275E+02  0.2727161E+01  0.2170542E+02  0.2148346E+03
Ar  411  0.1341953E+02  0.3132704E+00  0.2440596E+02  0.1399949E+03
Ar  412  0.1152942E+02  0.3120110E+01  0.2492305E+02  0.6829335E+02
Ar  413  0.1124347E+02  0.1826131E+00  0.2710600E+02  0.3549994E+03
Ar  414  0.1378004E+02  0.3054854E+01  0.2736262E+02  0.3964109E+03
Ar  415  0.1344950E+02  0.3766724E+02  0.2997350E+02  0.8751148E+02
Ar  416  0.1068980E+02  0.2372344E+01  0.2952060E+02  0.7380478E+02
Ar  417  0.1064512E+02  0.1929921E+00  0.3226570E+02  0.1273539E+03
Ar  418  0.1359845E+02  0.3057401E+01  0.3244058E+02  0.1611839E+03
Ar  419  0.1336335E+02  0.2426153E+00  0.3486697E+02  0.2248105E+03
Ar  420  0.1094463E+02  0.2543177E+01  0.3497262E+02  0.2736375E+03
Ar  421  0.1090226E+02  0.5612168E+01  0.3723684E+02  0.1578407E+03
Ar  422  0.1374229E+02  0.8070326E+01  0.2392111E+00  0.6372944E+02
Ar  423  0.1364867E+02  0.5301816E+01  0.2793457E+01  0.1108800E+03
Ar  424  0.1092947E+02  0.7402765E+01  0.2693072E+01  0.1614841E+03
Ar  425  0.1094749E+02  0.5404337E+01  0.5275191E+01  0.1861780E+01
Ar  426  0.1361597E+02  0.8188252E+01  0.5028676E+01  0.6688370E+02
Ar  427  0.1352113E+02  0.5085685E+01  0.8210201E+01  0.8210395E+02
Ar  428  0.1090285E+02  0.8238168E+01  0.8114816E+01  0.3623728E+02
Ar  429  0.1091775E+02  0.5385130E+01  0.1049805E+02  0.7756290E+02
Ar  430  0.1374869E+02  0.8134490E+01  0.1079610E+02  0.2100751E+03
Ar  431  0.1375090E+02  0.5356637E+01  0.1330610E+02  0.1652388E+03
Ar  432  0.1097508E+02  0.8195540E+01  0.1381366E+02  0.9452897E+02
Ar  433  0.1078411E+02  0.5269319E+01  0.1599016E+02  0.3166232E+02
Ar  434  0.1378704E+02  0.7741377E+01  0.1639629E+02  0.2452346E+03
Ar  435  0.1360571E+02  0.5272650E+01  0.1920035E+02  0.1520550E+03
Ar  436  0.1092676E+02  0.8150059E+01  0.1906282E+02  0.7873405E+02
Ar  437  0.1063442E+02  0.5835338E+01  0.2153943E+02  0.6806328E+02
Ar  438  0.1375942E+02  0.7822101E+01  0.2206612E+02  0.2135839E+03
Ar  439  0.1391329E+02  0.5547152E+01  0.2486669E+02  0.4987911E+01
Ar  440  0.1091595E+02  0.8496166E+01  0.2416584E+02  0.6439903E+03
Ar  441  0.1052888E+02  0.5751919E+01  0.2735271E+02  0.9022271E+02
Ar  442  0.1316699E+02  0.8379060E+01  0.2698969E+02  0.1452604E+03
Ar  443  0.1344989E+02  0.5584270E+01  0.2965538E+02  0.3536311E+03
Ar  444  0.1065594E+02  0.8465089E+01  0.2987694E+02  0.1156160E+03
Ar  445  0.1030461E+02  0.5312600E+01  0.3188953E+02  0.2762566E+03
Ar  446  0.1312461E+02  0.7702866E+01  0.3242719E+02  0.8865271E+02
Ar  447  0.1348597E+02  0.5257628E+01  0.3484347E+02  0.1022652E+03
Ar  448  0.1075286E+02  0.8379361E+01  0.3499681E+02  0.5232941E+03
Ar  449  0.1074053E+02  0.1080434E+02  0.3761269E+02  0.1611090E+03
Ar  450  0.1343407E+02  0.1392517E+02  0.3774101E+02  0.1335831E+03
Ar  451  0.1333678E+02  0.1098692E+02  0.2438158E+01  0.6629217E+03
Ar  452  0.1066432E+02  0.1338517E+02  0.2782381E+01  0.1334927E+03
Ar  453  0.1050668E+02  0.1091876E+02  0.5344470E+01  0.1483470E+03
Ar  454  0.1351796E+02  0.1339331E+02  0.5502206E+01  0.4295785E+03
Ar  455  0.1417237E+02  0.1082999E+02  0.8051413E+01  0.4278887E+02
Ar  456  0.1106052E+02  0.1310053E+02  0.8291364E+01  0.1786203E+03
Ar  457  0.1080251E+02  0.1029523E+02  0.1103905E+02  0.2383408E+03
Ar  458  0.1403293E+02  0.1362719E+02  0.1006577E+02  0.2875510E+03
Ar  459  0.1320477E+02  0.1096813E+02  0.1318398E+02  0.2872192E+02
Ar  460  0.1046176E+02  0.1379735E+02  0.1325086E+02  0.7335158E+02
Ar  461  0.1076257E+02  0.1116047E+02  0.1655815E+02  0.7425542E+03
Ar  462  0.1335769E+02  0.1353835E+02  0.1570034E+02  0.3534911E+03
Ar  463  0.1334310E+02  0.1122915E+02  0.1873228E+02  0.2017277E+03
Ar  464  0.1058333E+02  0.1355406E+02  0.1897752E+02  0.2481862E+03
Ar  465  0.1097267E+02  0.1082832E+02  0.2164650E+02  0.9465233E+02
Ar  466  0.1363629E+02  0.1356990E+02  0.2176819E+02  0.3790293E+03
Ar  467  0.1360536E+02  0.1080111E+02  0.2400990E+02  0.3210084E+03
Ar  468  0.1109997E+02  0.1359864E+02  0.2394830E+02  0.1769106E+03
Ar  469  0.1050898E+02  0.1079499E+02  0.2712726E+02  0.4559905E+03
Ar  470  0.1346893E+02  0.1355132E+02  0.2669070E+02  0.8819636E+02
Ar  471  0.1369641E+02  0.1033903E+02  0.2992117E+02  0.2976950E+02
Ar  472  0.1131947E+02  0.1342446E+02  0.2933744E+02  0.8996690E+02
Ar  473  0.1124003E+02  0.1123733E+02  0.3245286E+02  0.3652720E+03
Ar  474  0.1344349E+02  0.1384007E+02  0.3222432E+02  0.1942782E+03
Ar  475  0.1352594E+02  0.1032921E+02  0.3525138E+02  0.2392734E+02
Ar  476  0.1067397E+02  0.1352383E+02  0.3516344E+02  0.2114434E+03
Ar  477  0.1054910E+02  0.1610876E+02  0.2611287E+00  0.9471520E+02
Ar  478  0.1353831E+02  0.1879996E+02  0.3722842E+02  0.1770988E+03
Ar  479  0.1340934E+02  0.1629907E+02  0.2224031E+01  0.9668948E+02
Ar  480  0.1075772E+02  0.1897458E+02  0.2563048E+01  0.7074595E+02
Ar  481  0.1059335E+02  0.1576998E+02  0.5736554E+01  0.1401655E+03
Ar  482  0.1320232E+02  0.1901683E+02  0.5318631E+01  0.1143861E+02
Ar  483  0.1369667E+02  0.1587627E+02  0.7765663E+01  0.8031986E+02
Ar  484  0.1049079E+02  0.1891378E+02  0.7426533E+01  0.3227987E+03
Ar  485  0.1064784E+02  0.1641334E+02  0.1029373E+02  0.8081566E+02
Ar  486  0.1340217E+02  0.1879450E+02  0.1089505E+02  0.2462855E+03
Ar  487  0.1324399E+02  0.1570652E+02  0.1297404E+02  0.3755614E+03
Ar  488  0.1032712E+02  0.1884271E+02  0.1353064E+02  0.3065589E+02
Ar  489  0.1058817E+02  0.1585867E+02  0.1603451E+02  0.7592740E+02
Ar  490  0.1288704E+02  0.1885984E+02  0.1599446E+02  0.1890051E+03
Ar  491  0.1315440E+02  0.1623847E+02  0.1898909E+02  0.1887928E+03
Ar  492  0.1077771E+02  0.1902729E+02  0.1881277E+02  0.2139720E+03
Ar  493  0.1092522E+02  0.1619066E+02  0.2147046E+02  0.2332105E+03
Ar  494  0.1322415E+02  0.1904348E+02  0.2153822E+02  0.1229855E+03
Ar  495  0.1349506E+02  0.1618644E+02  0.2422456E+02  0.1328554E+03
Ar  496  0.1066321E+02  0.1869368E+02  0.2428167E+02  0.2449195E+03
Ar  497  0.1084049E+02  0.1627193E+02  0.2692961E+02  0.4954156E+03
Ar  498  0.1372074E+02  0.1870742E+02  0.2685609E+02  0.1242133E+03
Ar  499  0.1381719E+02  0.1586992E+02  0.2941849E+02  0.6514407E+03
Ar  500  0.1041376E+02  0.1865926E+02  0.2965725E+02  0.1769003E+03
Ar  501  0.1086482E+02  0.1599017E+02  0.3233011E+02  0.4445145E+03
Ar  502  0.1309699E+02  0.1916856E+02  0.3217384E+02  0.8876963E+02
Ar  503  0.1299599E+02  0.1629786E+02  0.3491537E+02  0.1553176E+03
Ar  504  0.1022387E+02  0.1906857E+02  0.3545720E+02  0.7196126E+01
Ar  505  0.1090715E+02  0.2159710E+02  0.9013710E-01  0.1202185E+03
Ar  506  0.1322236E+02  0.2432744E+02  0.3751127E+02  0.6766013E+03
Ar  507  0.1377057E+02  0.2198722E+02  0.3312690E+01  0.4125487E+03
Ar  508  0.1113889E+02  0.2456794E+02  0.2771193E+01  0.1770748E+03
Ar  509  0.1062337E+02  0.2197392E+02  0.5111248E+01  0.9263837E+02
Ar  510  0.1365008E+02  0.2464477E+02  0.5453030E+01  0.1137819E+02
Ar  511  0.1342492E+02  0.2186755E+02  0.7708204E+01  0.1332047E+03
Ar  512  0.1081753E+02  0.2416107E+02  0.7894415E+01  0.4129598E+03
Ar  513  0.1010828E+02  0.2137444E+02  0.1033973E+02  0.1599393E+03
Ar  514  0.1385500E+02  0.2415895E+02  0.1085998E+02  0.1366097E+02
Ar  515  0.1317460E+02  0.2140357E+02  0.1320771E+02  0.5012635E+02
Ar  516  0.1097404E+02  0.2442704E+02  0.1365565E+02  0.1026947E+03
Ar  517  0.1035094E+02  0.2156384E+02  0.1620478E+02  0.1892192E+03
Ar  518  0.1357611E+02  0.2464865E+02  0.1667629E+02  0.1102065E+03
Ar  519  0.1371940E+02  0.2206680E+02  0.1887150E+02  0.7925197E+02
Ar  520  0.1056899E+02  0.2410592E+02  0.1895274E+02  0.2435729E+03
Ar  521  0.1074142E+02  0.2154399E+02  0.2187932E+02  0.1562465E+03
Ar  522  0.1343400E+02  0.2436452E+02  0.2153281E+02  0.7529319E+02
Ar  523  0.1385801E+02  0.2187554E+02  0.2397452E+02  0.1090121E+03
Ar  524  0.1094469E+02  0.2434569E+02  0.2401224E+02  0.7102740E+02
Ar  525  0.1130802E+02  0.2182694E+02  0.2650966E+02  0.2295635E+02
Ar  526  0.1321777E+02  0.2474615E+02  0.2696145E+02  0.2455732E+03
Ar  527  0.1333017E+02  0.2158777E+02  0.2937095E+02  0.1893322E+03
Ar  528  0.1096793E+02  0.2418099E+02  0.2975293E+02  0.2900447E+03
Ar  529  0.1066003E+02  0.2186354E+02  0.3248954E+02  0.3310996E+02
Ar  530  0.1367722E+02  0.2401712E+02  0.3277949E+02  0.1571842E+03
Ar  531  0.1309481E+02  0.2150045E+02  0.3488116E+02  0.1247421E+03
Ar  532  0.1073626E+02  0.2442346E+02  0.3511990E+02  0.3288959E+03
Ar  533  0.1034479E+02  0.2723460E+02  0.3767127E+02  0.2380131E+03
Ar  534  0.1301130E+02  0.2940757E+02  0.3745054E+02  0.9711458E+02
Ar  535  0.1383804E+02  0.2697719E+02  0.2296992E+01  0.6751401E+02
Ar  536  0.1036686E+02  0.2964242E+02  0.2374646E+01  0.4847020E+03
Ar  537  0.1102790E+02  0.2730976E+02  0.5566477E+01  0.1145942E+03
Ar  538  0.1376715E+02  0.2995400E+02  0.5011058E+01  0.6732713E+02
Ar  539  0.1339933E+02  0.2727064E+02  0.8302720E+01  0.7059041E+02
Ar  540  0.1080967E+02  0.3010241E+02  0.7954292E+01  0.1693202E+03
Ar  541  0.1074199E+02  0.2676025E+02  0.1061573E+02  0.2567636E+03
Ar  542  0.1329803E+02  0.2940145E+02  0.1086428E+02  0.1235336E+03
Ar  543  0.1364814E+02  0.2685149E+02  0.1396501E+02  0.3765704E+02
Ar  544  0.1094857E+02  0.2980935E+02  0.1332168E+02  0.1765520E+02
Ar  545  0.1053993E+02  0.2700958E+02  0.1613249E+02  0.4581496E+02
Ar  546  0.1321812E+02  0.2945705E+02  0.1609042E+02  0.1944265E+03
Ar  547  0.1365797E+02  0.2730659E+02  0.1892679E+02  0.3546725E+03
Ar  548  0.1031397E+02  0.2953004E+02  0.1880558E+02  0.1329748E+03
Ar  549  0.1068692E+02  0.2694939E+02  0.2146686E+02  0.1833218E+03
Ar  550  0.1334657E+02  0.2934544E+02  0.2165876E+02  0.4454367E+03
Ar  551  0.1311470E+02  0.2698148E+02  0.2441650E+02  0.9854137E+02
Ar  552  0.1051479E+02  0.2973536E+02  0.2480265E+02  0.4673059E+03
Ar  553  0.1052601E+02  0.2700982E+02  0.2709843E+02  0.5836813E+02
Ar  554  0.1371755E+02  0.2984572E+02  0.2696686E+02  0.2476962E+03
Ar  555  0.1360918E+02  0.2687060E+02  0.3004327E+02  0.1207630E+03
Ar  556  0.1104106E+02  0.2973797E+02  0.2946573E+02  0.2913923E+03
Ar  557  0.1114529E+02  0.2662505E+02  0.3251929E+02  0.2115491E+03
Ar  558  0.1309371E+02  0.2946394E+02  0.3268012E+02  0.1535073E+03
Ar  559  0.1339050E+02  0.2671269E+02  0.3536910E+02  0.1039865E+03
Ar  560  0.1038575E+02  0.2952032E+02  0.3512323E+02  0.2803443E+03
Ar  561  0.1027411E+02  0.3243960E+02  0.3763308E+02  0.2463549E+03
Ar  562  0.1278764E+02  0.3516764E+02  0.3731972E+02  0.1843797E+03
Ar  563  0.1301275E+02  0.3303597E+02  0.2774461E+01  0.4369243E+02
Ar  564  0.1061875E+02  0.3546405E+02  0.2844851E+01  0.6881954E+03
Ar  565  0.1107196E+02  0.3244729E+02  0.5717063E+01  0.4308868E+02
Ar  566  0.1308771E+02  0.3566140E+02  0.5546167E+01  0.1449240E+03
Ar  567  0.1358617E+02  0.3241047E+02  0.8506534E+01  0.3621247E+03
Ar  568  0.1044375E+02  0.3556422E+02  0.8120258E+01  0.1776479E+03
Ar  569  0.1081357E+02  0.3258857E+02  0.1115653E+02  0.1117060E+03
Ar  570  0.1331141E+02  0.3505397E+02  0.1106530E+02  0.1603036E+03
Ar  571  0.1329390E+02  0.3219481E+02  0.1396710E+02  0.1248580E+03
Ar  572  0.1075806E+02  0.3511531E+02  0.1354365E+02  0.1613734E+03
Ar  573  0.1082025E+02  0.3274510E+02  0.1643385E+02  0.1479698E+03
Ar  574  0.1334234E+02  0.3521141E+02  0.1617694E+02  0.1604384E+03
Ar  575  0.1334354E+02  0.3261923E+02  0.1899800E+02  0.1816882E+03
Ar  576  0.1024778E+02  0.3533716E+02  0.1939309E+02  0.1520683E+03
Ar  577  0.1053728E+02  0.3266651E+02  0.2203028E+02  0.9605561E+02
Ar  578  0.1336071E+02  0.3529652E+02  0.2116190E+02  0.7383444E+02
Ar  579  0.1308044E+02  0.3245955E+02  0.2462907E+02  0.1312856E+03
Ar  580  0.1103735E+02  0.3535149E+02  0.2458219E+02  0.2195551E+03
Ar  581  0.1098738E+02  0.3260407E+02  0.2743640E+02  0.2030737E+02
Ar  582  0.1377806E+02  0.3537955E+02  0.2666383E+02  0.1775288E+03
Ar  583  0.1358134E+02  0.3252163E+02  0.2979326E+02  0.3051323E+02
Ar  584  0.1083447E+02  0.3557692E+02  0.2941924E+02  0.1777467E+02
Ar  585  0.1056319E+02  0.3275205E+02  0.3185552E+02  0.7619750E+02
Ar  586  0.1339730E+02  0.3503373E+02  0.3260885E+02  0.1118741E+03
Ar  587  0.1282580E+02  0.3252430E+02  0.3509987E+02  0.9185424E+02
Ar  588  0.1051545E+02  0.3536176E+02  0.3465713E+02  0.3122240E+02
Ar  589  0.1575176E+02  0.1592654E+00  0.3762091E+02  0.4185334E+03
Ar  590  0.1898862E+02  0.2189103E+01  0.3740011E+02  0.7950098E+02
Ar  591  0.1908055E+02  0.9598089E-01  0.2761775E+01  0.6689873E+03
Ar  592  0.1562862E+02  0.2505305E+01  0.2926991E+01  0.1207374E+03
Ar  593  0.1642805E+02  0.6362738E-01  0.5221140E+01  0.2296536E+02
Ar  594  0.1908761E+02  0.2553479E+01  0.5375310E+01  0.1154892E+03
Ar  595  0.1930497E+02  0.2700572E+00  0.8011707E+01  0.2889939E+03
Ar  596  0.1650788E+02  0.2215781E+01  0.7749147E+01  0.5155675E+03
Ar  597  0.1636931E+02  0.3767064E+02  0.1039602E+02  0.2019218E+03
Ar  598  0.1891754E+02  0.2270697E+01  0.1075142E+02  0.1925354E+03
Ar  599  0.1873559E+02  0.3758134E+02  0.1339303E+02  0.2316619E+03
Ar  600  0.1624309E+02  0.2448170E+01  0.1341453E+02  0.3890546E+02
Ar  601  0.1637566E+02  0.4293505E+00  0.1670182E+02  0.4499499E+02
Ar  602  0.1924245E+02  0.2806353E+01  0.1654350E+02  0.1793471E+03
Ar  603  0.1881903E+02  0.3325134E+00  0.1928258E+02  0.3598935E+03
Ar  604  0.1604884E+02  0.2713044E+01  0.1929213E+02  0.8804509E+02
Ar  605  0.1589756E+02  0.3771621E+02  0.2183873E+02  0.1403763E+03
Ar  606  0.1891036E+02  0.2605363E+01  0.2193548E+02  0.1328675E+03
Ar  607  0.1894866E+02  0.1508981E-01  0.2433720E+02  0.3726475E+03
Ar  608  0.1635666E+02  0.2804142E+01  0.2447293E+02  0.5734711E+02
Ar  609  0.1610430E+02  0.6942104E-01  0.2731118E+02  0.1265286E+03
Ar  610  0.1880518E+02  0.2818948E+01  0.2720946E+02  0.1676539E+02
Ar  611  0.1875289E+02  0.3100291E-01  0.2983265E+02  0.8580178E+02
Ar  612  0.1605807E+02  0.2917340E+01  0.2979969E+02  0.1314567E+03
Ar  613  0.1590678E+02  0.5218001E-01  0.3232528E+02  0.4267638E+02
Ar  614  0.1888017E+02  0.2860307E+01  0.3215910E+02  0.1645090E+03
Ar  615  0.1879108E+02  0.3730119E+02  0.3482323E+02  0.1406145E+02
Ar  616  0.1651916E+02  0.2511551E+01  0.3494782E+02  0.4684905E+03
Ar  617  0.1611787E+02  0.4842671E+01  0.2437225E+00  0.7040891E+02
Ar  618  0.1887458E+02  0.7912036E+01  0.1571682E+00  0.2654108E+02
Ar  619  0.1877592E+02  0.4634600E+01  0.2767750E+01  0.1338765E+03
Ar  620  0.1664009E+02  0.7666943E+01  0.3013418E+01  0.1593148E+03
Ar  621  0.1590532E+02  0.5120227E+01  0.5481137E+01  0.2721314E+02
Ar  622  0.1908542E+02  0.7964280E+01  0.5254956E+01  0.6504079E+03
Ar  623  0.1918271E+02  0.5164873E+01  0.7529431E+01  0.1667894E+03
Ar  624  0.1630665E+02  0.8052331E+01  0.8297537E+01  0.8716656E+02
Ar  625  0.1635335E+02  0.4889749E+01  0.1054026E+02  0.3269415E+02
Ar  626  0.1937069E+02  0.7575782E+01  0.1039391E+02  0.1173430E+03
Ar  627  0.1881257E+02  0.4927532E+01  0.1334786E+02  0.2383050E+03
Ar  628  0.1634335E+02  0.7732503E+01  0.1348566E+02  0.1786889E+03
Ar  629  0.1649560E+02  0.5033414E+01  0.1647765E+02  0.2234665E+03
Ar  630  0.1873493E+02  0.7765607E+01  0.1622112E+02  0.2971164E+03
Ar  631  0.1835172E+02  0.5660507E+01  0.1931756E+02  0.5006075E+03
Ar  632  0.1607036E+02  0.8332604E+01  0.1914428E+02  0.9250782E+02
Ar  633  0.1650840E+02  0.5669880E+01  0.2218135E+02  0.2831179E+03
Ar  634  0.1903380E+02  0.8637074E+01  0.2148017E+02  0.9428540E+02
Ar  635  0.1932009E+02  0.5463355E+01  0.2465808E+02  0.6084779E+02
Ar  636  0.1640006E+02  0.8739774E+01  0.2444533E+02  0.1173867E+03
Ar  637  0.1652696E+02  0.5231700E+01  0.2752954E+02  0.2287219E+03
Ar  638  0.1906862E+02  0.8226785E+01  0.2679455E+02  0.5061121E+03
Ar  639  0.1900558E+02  0.5448204E+01  0.2985299E+02  0.7858531E+02
Ar  640  0.1639715E+02  0.7995134E+01  0.2965218E+02  0.2207019E+03
Ar  641  0.1665632E+02  0.5559212E+01  0.3255234E+02  0.7385579E+02
Ar  642  0.1918307E+02  0.8220090E+01  0.3235785E+02  0.1047950E+03
Ar  643  0.1907264E+02  0.5094080E+01  0.3525085E+02  0.2644256E+03
Ar  644  0.1633843E+02  0.7917298E+01  0.3536259E+02  0.1918457E+03
Ar  645  0.1590162E+02  0.1100331E+02  0.3767731E+02  0.2468239E+03
Ar  646  0.1886413E+02  0.1314221E+02  0.3766431E+02  0.8924504E+02
Ar  647  0.1863929E+02  0.1099029E+02  0.2768081E+01  0.1299167E+03
Ar  648  0.1623867E+02  0.1359507E+02  0.2481964E+01  0.6570279E+01
Ar  649  0.1615094E+02  0.1061766E+02  0.4979095E+01  0.1010626E+01
Ar  650  0.1897358E+02  0.1340893E+02  0.4783198E+01  0.3691931E+03
Ar  651  0.1896656E+02  0.1065541E+02  0.7165842E+01  0.3511910E+03
Ar  652  0.1673366E+02  0.1370707E+02  0.7556091E+01  0.1808083E+03
Ar  653  0.1625874E+02  0.1058588E+02  0.1118864E+02  0.2600250E+03
Ar  654  0.1838699E+02  0.1324095E+02  0.1075854E+02  0.9160749E+02
Ar  655  0.1882235E+02  0.1028971E+02  0.1327573E+02  0.1230045E+03
Ar  656  0.1653229E+02  0.1317811E+02  0.1364994E+02  0.4209452E+03
Ar  657  0.1619808E+02  0.1042003E+02  0.1602653E+02  0.2432684E+03
Ar  658  0.1905810E+02  0.1316906E+02  0.1618311E+02  0.2552737E+03
Ar  659  0.1890038E+02  0.1089828E+02  0.1869252E+02  0.1924660E+03
Ar  660  0.1641791E+02  0.1314808E+02  0.1860195E+02  0.1611977E+03
Ar  661  0.1643131E+02  0.1099015E+02  0.2126708E+02  0.1808456E+02
Ar  662  0.1890019E+02  0.1336781E+02  0.2132445E+02  0.3287358E+03
Ar  663  0.1894497E+02  0.1125945E+02  0.2432246E+02  0.2444548E+03
Ar  664  0.1625755E+02  0.1375542E+02  0.2397690E+02  0.1386839E+03
Ar  665  0.1611002E+02  0.1112500E+02  0.2685549E+02  0.3727034E+02
Ar  666  0.1899760E+02  0.1397493E+02  0.2676886E+02  0.5811712E+03
Ar  667  0.1897214E+02  0.1081398E+02  0.2947889E+02  0.7246639E+02
Ar  668  0.1599792E+02  0.1302569E+02  0.2973940E+02  0.5189351E+03
Ar  669  0.1599730E+02  0.1029838E+02  0.3297997E+02  0.5003696E+02
Ar  670  0.1845683E+02  0.1332892E+02  0.3250426E+02  0.2512265E+03
Ar  671  0.1883386E+02  0.1043392E+02  0.3526427E+02  0.2391146E+03
Ar  672  0.1589610E+02  0.1356995E+02  0.3511759E+02  0.2140929E+03
Ar  673  0.1653288E+02  0.1630825E+02  0.4063897E+00  0.4644744E+02
Ar  674  0.1916025E+02  0.1902165E+02  0.2476275E+00  0.1562149E+03
Ar  675  0.1933687E+02  0.1569977E+02  0.2414053E+01  0.1867502E+02
Ar  676  0.1619716E+02  0.1904587E+02  0.2607823E+01  0.1900870E+02
Ar  677  0.1632059E+02  0.1665996E+02  0.4860572E+01  0.4005965E+02
Ar  678  0.1912268E+02  0.1893280E+02  0.5910469E+01  0.8109808E+02
Ar  679  0.1898095E+02  0.1627104E+02  0.8637031E+01  0.1907927E+03
Ar  680  0.1638702E+02  0.1894606E+02  0.8310732E+01  0.1685271E+02
Ar  681  0.1630339E+02  0.1630690E+02  0.1074192E+02  0.1038610E+02
Ar  682  0.1879587E+02  0.1915484E+02  0.1093703E+02  0.8758856E+02
Ar  683  0.1892069E+02  0.1618279E+02  0.1284053E+02  0.5614083E+02
Ar  684  0.1606351E+02  0.1850262E+02  0.1330579E+02  0.7626385E+02
Ar  685  0.1620260E+02  0.1585065E+02  0.1630287E+02  0.1043751E+03
Ar  686  0.1865855E+02  0.1886085E+02  0.1720145E+02  0.1860387E+03
Ar  687  0.1901919E+02  0.1602392E+02  0.1878376E+02  0.3892562E+03
Ar  688  0.1536823E+02  0.1897268E+02  0.1880927E+02  0.1544803E+03
Ar  689  0.1647223E+02  0.1617402E+02  0.2098861E+02  0.5395215E+03
Ar  690  0.1918579E+02  0.1894959E+02  0.2178132E+02  0.2134617E+03
Ar  691  0.1912533E+02  0.1630819E+02  0.2403816E+02  0.3439980E+03
Ar  692  0.1608836E+02  0.1868944E+02  0.2384115E+02  0.1897764E+03
Ar  693  0.1660028E+02  0.1662339E+02  0.2642950E+02  0.6135104E+02
Ar  694  0.1924018E+02  0.1940738E+02  0.2576571E+02  0.3519635E+03
Ar  695  0.1836547E+02  0.1600940E+02  0.2968531E+02  0.2810661E+03
Ar  696  0.1620848E+02  0.1860404E+02  0.2956342E+02  0.1414927E+03
Ar  697  0.1600996E+02  0.1653498E+02  0.3247360E+02  0.5810500E+02
Ar  698  0.1844683E+02  0.1860634E+02  0.3242368E+02  0.8807922E+02
Ar  699  0.1854219E+02  0.1621219E+02  0.3537887E+02  0.2287701E+02
Ar  700  0.1636680E+02  0.1884599E+02  0.3519993E+02  0.5464950E+02
Ar  701  0.1579969E+02  0.2176754E+02  0.4840633E-01  0.1087862E+03
Ar  702  0.1871972E+02  0.2476603E+02  0.5145681E-01  0.4593719E+02
Ar  703  0.1877023E+02  0.2174914E+02  0.2670499E+01  0.4590315E+02
Ar  704  0.1618665E+02  0.2448001E+02  0.2945831E+01  0.1151715E+03
Ar  705  0.1650022E+02  0.2096797E+02  0.5482844E+01  0.2174372E+03
Ar  706  0.1915463E+02  0.2410221E+02  0.5791881E+01  0.5686407E+02
Ar  707  0.1926761E+02  0.2175289E+02  0.8095333E+01  0.3056817E+03
Ar  708  0.1636109E+02  0.2427077E+02  0.8541800E+01  0.2134675E+03
Ar  709  0.1605075E+02  0.2161130E+02  0.1055003E+02  0.7647809E+02
Ar  710  0.1904524E+02  0.2449504E+02  0.1089280E+02  0.2870297E+03
Ar  711  0.1820193E+02  0.2197822E+02  0.1319348E+02  0.7606785E+02
Ar  712  0.1596907E+02  0.2428973E+02  0.1350714E+02  0.1273119E+03
Ar  713  0.1576958E+02  0.2163406E+02  0.1573093E+02  0.7827514E+02
Ar  714  0.1872549E+02  0.2371505E+02  0.1638779E+02  0.1554586E+03
Ar  715  0.1916343E+02  0.2133365E+02  0.1930257E+02  0.5364529E+02
Ar  716  0.1640952E+02  0.2419620E+02  0.1879585E+02  0.1358260E+03
Ar  717  0.1627794E+02  0.2203604E+02  0.2149927E+02  0.2730606E+03
Ar  718  0.1956671E+02  0.2475912E+02  0.2136189E+02  0.1685003E+03
Ar  719  0.1888442E+02  0.2235173E+02  0.2407421E+02  0.7241439E+02
Ar  720  0.1596667E+02  0.2482411E+02  0.2465116E+02  0.3257968E+03
Ar  721  0.1629977E+02  0.2214628E+02  0.2717718E+02  0.1669799E+03
Ar  722  0.1881770E+02  0.2482531E+02  0.2731879E+02  0.1656409E+03
Ar  723  0.1864998E+02  0.2103668E+02  0.2951198E+02  0.4468936E+02
Ar  724  0.1590033E+02  0.2393350E+02  0.3014998E+02  0.3867824E+02
Ar  725  0.1602352E+02  0.2096273E+02  0.3224522E+02  0.4357698E+02
Ar  726  0.1872357E+02  0.2370332E+02  0.3229549E+02  0.2732197E+02
Ar  727  0.1866810E+02  0.2208142E+02  0.3544433E+02  0.3237100E+03
Ar  728  0.1584377E+02  0.2363070E+02  0.3509454E+02  0.1498760E+02
Ar  729  0.1594692E+02  0.2662405E+02  0.3772965E+02  0.2263357E+03
Ar  730  0.1874088E+02  0.2914769E+02  0.3775938E+02  0.1972890E+03
Ar  731  0.1883560E+02  0.2678856E+02  0.3133972E+01  0.9247040E+02
Ar  732  0.1629494E+02  0.2984446E+02  0.2654163E+01  0.2058756E+02
Ar  733  0.1605095E+02  0.2725797E+02  0.5410060E+01  0.2305830E+03
Ar  734  0.1895821E+02  0.2975714E+02  0.5777421E+01  0.2532642E+03
Ar  735  0.1883865E+02  0.2695606E+02  0.8268723E+01  0.5703801E+02
Ar  736  0.1613767E+02  0.2979433E+02  0.8524085E+01  0.2251416E+03
Ar  737  0.1615876E+02  0.2710379E+02  0.1115949E+02  0.1178547E+03
Ar  738  0.1959287E+02  0.2968172E+02  0.1103730E+02  0.4127776E+02
Ar  739  0.1887703E+02  0.2688626E+02  0.1388002E+02  0.3311370E+03
Ar  740  0.1675280E+02  0.2970872E+02  0.1384817E+02  0.1200987E+03
Ar  741  0.1622183E+02  0.2657095E+02  0.1625747E+02  0.3273166E+03
Ar  742  0.1848912E+02  0.2985314E+02  0.1661184E+02  0.1174084E+03
Ar  743  0.1875659E+02  0.2726472E+02  0.1884807E+02  0.1114849E+03
Ar  744  0.1581764E+02  0.2973968E+02  0.1858905E+02  0.3986752E+02
Ar  745  0.1626062E+02  0.2669486E+02  0.2166020E+02  0.1014953E+03
Ar  746  0.1854282E+02  0.2964577E+02  0.2146445E+02  0.7161677E+02
Ar  747  0.1909366E+02  0.2703572E+02  0.2439984E+02  0.5607138E+02
Ar  748  0.1610434E+02  0.2944972E+02  0.2413869E+02  0.2842555E+03
Ar  749  0.1617314E+02  0.2698112E+02  0.2753753E+02  0.1933347E+03
Ar  750  0.1876395E+02  0.2911679E+02  0.2800661E+02  0.3030012E+03
Ar  751  0.1843967E+02  0.2672959E+02  0.3042442E+02  0.1483281E+03
Ar  752  0.1584194E+02  0.2969607E+02  0.3026545E+02  0.7311405E+02
Ar  753  0.1590592E+02  0.2702934E+02  0.3330430E+02  0.1251682E+03
Ar  754  0.1880067E+02  0.2941240E+02  0.3290563E+02  0.1674807E+03
Ar  755  0.1912950E+02  0.2633733E+02  0.3505372E+02  0.6400650E+01
Ar  756  0.1579445E+02  0.3033433E+02  0.3512405E+02  0.1301942E+03
Ar  757  0.1556599E+02  0.3273206E+02  0.1115640E+00  0.2680722E+02
Ar  758  0.1892768E+02  0.3485223E+02  0.4732553E-01  0.3301914E+03
Ar  759  0.1908742E+02  0.3214619E+02  0.2405228E+01  0.3491416E+02
Ar  760  0.1591397E+02  0.3525064E+02  0.2828837E+01  0.1682805E+03
Ar  761  0.1656932E+02  0.3208044E+02  0.5411704E+01  0.9679187E+02
Ar  762  0.1888594E+02  0.3480893E+02  0.5182700E+01  0.4165831E+02
Ar  763  0.1942356E+02  0.3225919E+02  0.8153975E+01  0.3471915E+01
Ar  764  0.1647114E+02  0.3468981E+02  0.7609662E+01  0.8859156E+01
Ar  765  0.1630545E+02  0.3258453E+02  0.1116589E+02  0.2191161E+02
Ar  766  0.1937542E+02  0.3496514E+02  0.1084537E+02  0.1594002E+03
Ar  767  0.1924030E+02  0.3231725E+02  0.1359861E+02  0.6337678E+02
Ar  768  0.1624060E+02  0.3534777E+02  0.1407466E+02  0.1415115E+03
Ar  769  0.1588911E+02  0.3252381E+02  0.1620792E+02  0.6491922E+03
Ar  770  0.1871173E+02  0.3469282E+02  0.1619466E+02  0.3107711E+03
Ar  771  0.1820872E+02  0.3197939E+02  0.1913581E+02  0.3006894E+03
Ar  772  0.1601768E+02  0.3495062E+02  0.1887441E+02  0.1078928E+03
Ar  773  0.1625652E+02  0.3229509E+02  0.2220478E+02  0.1062400E+03
Ar  774  0.1910515E+02  0.3521154E+02  0.2152989E+02  0.2372082E+03
Ar  775  0.1885159E+02  0.3178774E+02  0.2474879E+02  0.1229352E+03
Ar  776  0.1625657E+02  0.3469881E+02  0.2425084E+02  0.5337359E+02
Ar  777  0.1633851E+02  0.3199307E+02  0.2732265E+02  0.7607775E+02
Ar  778  0.1884942E+02  0.3495805E+02  0.2713003E+02  0.1004823E+03
Ar  779  0.1875260E+02  0.3232652E+02  0.2974401E+02  0.1681712E+03
Ar  780  0.1593493E+02  0.3501086E+02  0.2976567E+02  0.8091351E+02
Ar  781  0.1652870E+02  0.3235882E+02  0.3251862E+02  0.1132615E+03
Ar  782  0.1944935E+02  0.3491456E+02  0.3201705E+02  0.3104965E+03
Ar  783  0.1869123E+02  0.3242768E+02  0.3516724E+02  0.8371613E+02
Ar  784  0.1600783E+02  0.3517186E+02  0.3506953E+02  0.2326780E+03
Ar  785  0.2164550E+02  0.3722465E+02  0.1695414E-02  0.1070977E+03
Ar  786  0.2460471E+02  0.2969215E+01  0.3744946E+02  0.1972610E+03
Ar  787  0.2490336E+02  0.3764425E+02  0.1845732E+01  0.5182084E+02
Ar  788  0.2231041E+02  0.2148583E+01  0.2642555E+01  0.2655849E+03
Ar  789  0.2182677E+02  0.9525273E-01  0.5330165E+01  0.6786423E+02
Ar  790  0.2435353E+02  0.2807403E+01  0.5539109E+01  0.2751833E+03
Ar  791  0.2511304E+02  0.4502669E+00  0.8206139E+01  0.2316715E+03
Ar  792  0.2164961E+02  0.2476449E+01  0.7882484E+01  0.8815418E+02
Ar  793  0.2180542E+02  0.8718281E-01  0.1115951E+02  0.4327515E+02
Ar  794  0.2472260E+02  0.2956976E+01  0.1099548E+02  0.2554155E+02
Ar  795  0.2433221E+02  0.1581810E+00  0.1368975E+02  0.1912415E+02
Ar  796  0.2181729E+02  0.2802901E+01  0.1360099E+02  0.3229758E+03
Ar  797  0.2147854E+02  0.3759808E+02  0.1627943E+02  0.1510919E+03
Ar  798  0.2412788E+02  0.3163974E+01  0.1657910E+02  0.1914502E+03
Ar  799  0.2419554E+02  0.2053479E+00  0.1881630E+02  0.2952738E+03
Ar  800  0.2164292E+02  0.2966737E+01  0.1896413E+02  0.4044749E+03
Ar  801  0.2171732E+02  0.3759832E+02  0.2176711E+02  0.1787936E+03
Ar  802  0.2396712E+02  0.2789942E+01  0.2192939E+02  0.2135567E+03
Ar  803  0.2407503E+02  0.3772077E+02  0.2441896E+02  0.2974177E+03
Ar  804  0.2150070E+02  0.2678850E+01  0.2439220E+02  0.2650497E+03
Ar  805  0.2169322E+02  0.1469651E+00  0.2680397E+02  0.1403395E+02
Ar  806  0.2437545E+02  0.2579957E+01  0.2669178E+02  0.1245052E+03
Ar  807  0.2479787E+02  0.9859416E-01  0.2946218E+02  0.8811487E+02
Ar  808  0.2191839E+02  0.2827387E+01  0.2918747E+02  0.1201269E+03
Ar  809  0.2161290E+02  0.3759807E+02  0.3266370E+02  0.3076507E+02
Ar  810  0.2476322E+02  0.2488622E+01  0.3187278E+02  0.7878102E+02
Ar  811  0.2452548E+02  0.2884020E+00  0.3513013E+02  0.3729738E+03
Ar  812  0.2174100E+02  0.2620387E+01  0.3535096E+02  0.3220018E+03
Ar  813  0.2164116E+02  0.5284042E+01  0.3735668E+02  0.5804435E+03
Ar  814  0.2446736E+02  0.8464076E+01  0.3209690E+00  0.6554352E+02
Ar  815  0.2444211E+02  0.5781034E+01  0.2551913E+01  0.1453557E+03
Ar  816  0.2123244E+02  0.8219100E+01  0.2541967E+01  0.1133798E+03
Ar  817  0.2174285E+02  0.5099546E+01  0.5041785E+01  0.5586616E+02
Ar  818  0.2415391E+02  0.8144221E+01  0.5604939E+01  0.2300330E+03
Ar  819  0.2447657E+02  0.5654920E+01  0.8127708E+01  0.7200162E+02
Ar  820  0.2163848E+02  0.8225450E+01  0.7658375E+01  0.2493611E+02
Ar  821  0.2203914E+02  0.5312195E+01  0.1038379E+02  0.1223833E+03
Ar  822  0.2436702E+02  0.8557409E+01  0.1056825E+02  0.2233058E+03
Ar  823  0.2422946E+02  0.5237468E+01  0.1354673E+02  0.2275806E+02
Ar  824  0.2141843E+02  0.7671322E+01  0.1327610E+02  0.3327507E+02
Ar  825  0.2152102E+02  0.5638100E+01  0.1622606E+02  0.1523340E+03
Ar  826  0.2423614E+02  0.8010707E+01  0.1643006E+02  0.8370995E+02
Ar  827  0.2405859E+02  0.5748735E+01  0.1920621E+02  0.2957567E+03
Ar  828  0.2137894E+02  0.8241256E+01  0.1876536E+02  0.3748853E+02
Ar  829  0.2151169E+02  0.6305812E+01  0.2198651E+02  0.1306947E+03
Ar  830  0.2430970E+02  0.8477545E+01  0.2148912E+02  0.7176501E+02
Ar  831  0.2404879E+02  0.5733386E+01  0.2422938E+02  0.2077938E+03
Ar  832  0.2168158E+02  0.8659797E+01  0.2415999E+02  0.8244650E+02
Ar  833  0.2212823E+02  0.5583161E+01  0.2704620E+02  0.1692666E+03
Ar  834  0.2457088E+02  0.8308417E+01  0.2707576E+02  0.1642435E+03
Ar  835  0.2472864E+02  0.5591590E+01  0.2956725E+02  0.1128449E+03
Ar  836  0.2162046E+02  0.8368400E+01  0.2958576E+02  0.1281419E+03
Ar  837  0.2206664E+02  0.5734588E+01  0.3190266E+02  0.2543743E+03
Ar  838  0.2453282E+02  0.8233901E+01  0.3225428E+02  0.1524212E+03
Ar  839  0.2426662E+02  0.5258062E+01  0.3466368E+02  0.3700477E+03
Ar  840  0.2185554E+02  0.7802743E+01  0.3500154E+02  0.5773028E+02
Ar  841  0.2189919E+02  0.1078238E+02  0.3750776E+02  0.2481108E+03
Ar  842  0.2439689E+02  0.1386933E+02  0.3757528E+02  0.5390511E+02
Ar  843  0.2474782E+02  0.1080647E+02  0.2924848E+01  0.1112307E+03
Ar  844  0.2243319E+02  0.1329726E+02  0.2573015E+01  0.1896635E+03
Ar  845  0.2159403E+02  0.1076142E+02  0.5132238E+01  0.1584112E+03
Ar  846  0.2468498E+02  0.1337602E+02  0.5267765E+01  0.1437077E+03
Ar  847  0.2456658E+02  0.1111386E+02  0.8371143E+01  0.5710230E+02
Ar  848  0.2124813E+02  0.1331204E+02  0.7960941E+01  0.2055426E+03
Ar  849  0.2129734E+02  0.1073612E+02  0.1055009E+02  0.2731153E+03
Ar  850  0.2420007E+02  0.1315083E+02  0.1122304E+02  0.6610128E+02
Ar  851  0.2417437E+02  0.1047866E+02  0.1389664E+02  0.3825464E+02
Ar  852  0.2129196E+02  0.1368492E+02  0.1353099E+02  0.2867917E+03
Ar  853  0.2150276E+02  0.1058679E+02  0.1620813E+02  0.6015085E+01
Ar  854  0.2411333E+02  0.1338131E+02  0.1597933E+02  0.2104644E+03
Ar  855  0.2448515E+02  0.1112239E+02  0.1924095E+02  0.3167379E+02
Ar  856  0.2184274E+02  0.1332073E+02  0.1867305E+02  0.1199580E+03
Ar  857  0.2151724E+02  0.1123206E+02  0.2158970E+02  0.2431005E+03
Ar  858  0.2435446E+02  0.1358329E+02  0.2179784E+02  0.7401833E+02
Ar  859  0.2469246E+02  0.1137317E+02  0.2459046E+02  0.2719904E+02
Ar  860  0.2198590E+02  0.1336829E+02  0.2431420E+02  0.6005872E+02
Ar  861  0.2174099E+02  0.1077037E+02  0.2685117E+02  0.1125441E+03
Ar  862  0.2471252E+02  0.1378726E+02  0.2699508E+02  0.8464309E+02
Ar  863  0.2432547E+02  0.1097538E+02  0.2981843E+02  0.1219941E+03
Ar  864  0.2145202E+02  0.1392217E+02  0.2982456E+02  0.3885772E+03
Ar  865  0.2153743E+02  0.1128110E+02  0.3217903E+02  0.5228782E+03
Ar  866  0.2410373E+02  0.1404699E+02  0.3236660E+02  0.5272870E+02
Ar  867  0.2439177E+02  0.1092428E+02  0.3473075E+02  0.3678639E+03
Ar  868  0.2160835E+02  0.1318776E+02  0.3496338E+02  0.8245460E+02
Ar  869  0.2152686E+02  0.1660768E+02  0.3768654E+02  0.1967070E+03
Ar  870  0.2417053E+02  0.1842951E+02  0.3765770E+02  0.7473114E+02
Ar  871  0.2411779E+02  0.1613615E+02  0.2813024E+01  0.9732216E+02
Ar  872  0.2159734E+02  0.1871630E+02  0.3080461E+01  0.2899261E+03
Ar  873  0.2158737E+02  0.1596046E+02  0.6055006E+01  0.1080733E+03
Ar  874  0.2415145E+02  0.1868246E+02  0.5458395E+01  0.3042068E+02
Ar  875  0.2463399E+02  0.1601432E+02  0.8185133E+01  0.3101338E+03
Ar  876  0.2192567E+02  0.1868772E+02  0.8450207E+01  0.7994970E+02
Ar  877  0.2206502E+02  0.1584353E+02  0.1031812E+02  0.4171429E+03
Ar  878  0.2434081E+02  0.1896312E+02  0.1108899E+02  0.1815748E+03
Ar  879  0.2392567E+02  0.1620743E+02  0.1342453E+02  0.4935988E+02
Ar  880  0.2150141E+02  0.1883335E+02  0.1310704E+02  0.8353332E+02
Ar  881  0.2118483E+02  0.1622847E+02  0.1548080E+02  0.1324127E+03
Ar  882  0.2417640E+02  0.1904764E+02  0.1638933E+02  0.9247153E+02
Ar  883  0.2401041E+02  0.1606422E+02  0.1868582E+02  0.1420101E+03
Ar  884  0.2231755E+02  0.1892018E+02  0.1961639E+02  0.4136437E+02
Ar  885  0.2162521E+02  0.1600291E+02  0.2140168E+02  0.1742192E+03
Ar  886  0.2529182E+02  0.1995046E+02  0.2170184E+02  0.1701190E+03
Ar  887  0.2458746E+02  0.1656366E+02  0.2405576E+02  0.2617397E+03
Ar  888  0.2211166E+02  0.1903240E+02  0.2397215E+02  0.9995715E+02
Ar  889  0.2137352E+02  0.1659464E+02  0.2668600E+02  0.2450867E+02
Ar  890  0.2405746E+02  0.1914875E+02  0.2721366E+02  0.2599864E+02
Ar  891  0.2431814E+02  0.1611879E+02  0.2926657E+02  0.7089224E+03
Ar  892  0.2130743E+02  0.1881512E+02  0.2934733E+02  0.2575827E+02
Ar  893  0.2135146E+02  0.1654274E+02  0.3232274E+02  0.1264322E+03
Ar  894  0.2437881E+02  0.1870574E+02  0.3201409E+02  0.1485843E+02
Ar  895  0.2409301E+02  0.1624998E+02  0.3501150E+02  0.5745043E+02
Ar  896  0.2181703E+02  0.1889221E+02  0.3485407E+02  0.3480799E+03
Ar  897  0.2203394E+02  0.2136768E+02  0.3774043E+02  0.4260414E+03
Ar  898  0.2435020E+02  0.2407431E+02  0.3736676E+02  0.1054861E+03
Ar  899  0.2432492E+02  0.2153124E+02  0.2356352E+01  0.1302130E+03
Ar  900  0.2140604E+02  0.2390574E+02  0.2304587E+01  0.1257727E+03
Ar  901  0.2185725E+02  0.2182453E+02  0.5320459E+01  0.7277992E+03
Ar  902  0.2403397E+02  0.2427523E+02  0.5639264E+01  0.1412806E+03
Ar  903  0.2416448E+02  0.2167962E+02  0.8705757E+01  0.1335527E+03
Ar  904  0.2158871E+02  0.2451657E+02  0.8337486E+01  0.2089184E+03
Ar  905  0.2139273E+02  0.2180281E+02  0.1089131E+02  0.1801236E+03
Ar  906  0.2385632E+02  0.2410131E+02  0.1152117E+02  0.2521268E+03
Ar  907  0.2397827E+02  0.2175808E+02  0.1389258E+02  0.2787968E+02
Ar  908  0.2143180E+02  0.2375078E+02  0.1382086E+02  0.5189700E+02
Ar  909  0.2146661E+02  0.2108627E+02  0.1632194E+02  0.2369294E+03
Ar  910  0.2473567E+02  0.2485349E+02  0.1633413E+02  0.4113106E+03
Ar  911  0.2486744E+02  0.2171761E+02  0.1831672E+02  0.7321284E+02
Ar  912  0.2213924E+02  0.2380944E+02  0.1884131E+02  0.2502653E+02
Ar  913  0.2155829E+02  0.2158859E+02  0.2154154E+02  0.4910347E+03
Ar  914  0.2480769E+02  0.2427033E+02  0.2167513E+02  0.1382367E+03
Ar  915  0.2420884E+02  0.2237991E+02  0.2425194E+02  0.5657070E+02
Ar  916  0.2182632E+02  0.2488697E+02  0.2465744E+02  0.2027497E+03
Ar  917  0.2177367E+02  0.2209140E+02  0.2697976E+02  0.4308119E+02
Ar  918  0.2446185E+02  0.2459433E+02  0.2757825E+02  0.9686720E+02
Ar  919  0.2434118E+02  0.2179546E+02  0.2989058E+02  0.8370238E+02
Ar  920  0.2120181E+02  0.2455945E+02  0.2941647E+02  0.8058101E+02
Ar  921  0.2171436E+02  0.2124785E+02  0.3244951E+02  0.9464350E+02
Ar  922  0.2447552E+02  0.2431377E+02  0.3252793E+02  0.1665656E+03
Ar  923  0.2455139E+02  0.2132444E+02  0.3490077E+02  0.1446298E+03
Ar  924  0.2185792E+02  0.2392061E+02  0.3497577E+02  0.1091906E+03
Ar  925  0.2193419E+02  0.2666746E+02  0.3764313E+02  0.3266400E+02
Ar  926  0.2428114E+02  0.2950781E+02  0.3776518E+02  0.3646172E+02
Ar  927  0.2415362E+02  0.2670255E+02  0.2311404E+01  0.3558667E+03
Ar  928  0.2135470E+02  0.2933347E+02  0.2718141E+01  0.3965821E+03
Ar  929  0.2158485E+02  0.2714568E+02  0.5668513E+01  0.7506418E+02
Ar  930  0.2409136E+02  0.2974684E+02  0.5569516E+01  0.5446302E+03
Ar  931  0.2426447E+02  0.2673782E+02  0.8356794E+01  0.3796048E+02
Ar  932  0.2173275E+02  0.2934470E+02  0.8401989E+01  0.1827451E+03
Ar  933  0.2155254E+02  0.2671385E+02  0.1169264E+02  0.4993780E+02
Ar  934  0.2418835E+02  0.2957961E+02  0.1087562E+02  0.5819891E+03
Ar  935  0.2472112E+02  0.2718755E+02  0.1352432E+02  0.3675326E+02
Ar  936  0.2178842E+02  0.2964700E+02  0.1384723E+02  0.3399069E+03
Ar  937  0.2170297E+02  0.2642263E+02  0.1630115E+02  0.8075886E+02
Ar  938  0.2459673E+02  0.3017591E+02  0.1626894E+02  0.2463124E+03
Ar  939  0.2476725E+02  0.2702715E+02  0.1923913E+02  0.2657832E+03
Ar  940  0.2186351E+02  0.2937910E+02  0.1823407E+02  0.5323933E+02
Ar  941  0.2208430E+02  0.2725106E+02  0.2198032E+02  0.3850106E+03
Ar  942  0.2447312E+02  0.2973125E+02  0.2185927E+02  0.8634824E+02
Ar  943  0.2470855E+02  0.2707425E+02  0.2453086E+02  0.2506545E+03
Ar  944  0.2208905E+02  0.2991304E+02  0.2450718E+02  0.4308412E+02
Ar  945  0.2200628E+02  0.2738519E+02  0.2722194E+02  0.2079854E+03
Ar  946  0.2459714E+02  0.2953305E+02  0.2707902E+02  0.2970887E+03
Ar  947  0.2436251E+02  0.2713782E+02  0.3003868E+02  0.1986471E+02
Ar  948  0.2176429E+02  0.3000500E+02  0.2961456E+02  0.3874290E+02
Ar  949  0.2165864E+02  0.2745428E+02  0.3221796E+02  0.4864622E+02
Ar  950  0.2450457E+02  0.2962065E+02  0.3227257E+02  0.1122455E+03
Ar  951  0.2474418E+02  0.2715771E+02  0.3468421E+02  0.1366678E+02
Ar  952  0.2153101E+02  0.2945077E+02  0.3504776E+02  0.2044571E+03
Ar  953  0.2187494E+02  0.3221727E+02  0.3773337E+02  0.9830698E+02
Ar  954  0.2479709E+02  0.3463610E+02  0.3765761E+02  0.2730729E+03
Ar  955  0.2408367E+02  0.3220550E+02  0.3067484E+01  0.2390983E+03
Ar  956  0.2176850E+02  0.3495964E+02  0.2354265E+01  0.8075695E+02
Ar  957  0.2123482E+02  0.3231504E+02  0.5121579E+01  0.4599847E+02
Ar  958  0.2374955E+02  0.3496994E+02  0.5277750E+01  0.1790639E+03
Ar  959  0.2400722E+02  0.3257847E+02  0.7919037E+01  0.1965947E+03
Ar  960  0.2158470E+02  0.3524994E+02  0.8015272E+01  0.1839025E+03
Ar  961  0.2190380E+02  0.3256238E+02  0.1100784E+02  0.3376257E+03
Ar  962  0.2461467E+02  0.3537347E+02  0.1098964E+02  0.2615010E+03
Ar  963  0.2458751E+02  0.3260762E+02  0.1327107E+02  0.1453233E+02
Ar  964  0.2142620E+02  0.3482601E+02  0.1362041E+02  0.1093035E+03
Ar  965  0.2141500E+02  0.3239667E+02  0.1629089E+02  0.1241813E+03
Ar  966  0.2449829E+02  0.3491343E+02  0.1586607E+02  0.2059583E+03
Ar  967  0.2410760E+02  0.3240026E+02  0.1893000E+02  0.6513846E+02
Ar  968  0.2206357E+02  0.3501797E+02  0.1918058E+02  0.1211429E+03
Ar  969  0.2112529E+02  0.3208898E+02  0.2175208E+02  0.3505139E+02
Ar  970  0.2475036E+02  0.3479775E+02  0.2155670E+02  0.2662530E+03
Ar  971  0.2390629E+02  0.3284435E+02  0.2396873E+02  0.3842430E+03
Ar  972  0.2142893E+02  0.3524771E+02  0.2435397E+02  0.1515452E+03
Ar  973  0.2172027E+02  0.3266545E+02  0.2690510E+02  0.1015020E+03
Ar  974  0.2436960E+02  0.3544126E+02  0.2709810E+02  0.3700362E+03
Ar  975  0.2430554E+02  0.3220361E+02  0.2955086E+02  0.1783769E+03
Ar  976  0.2155540E+02  0.3517055E+02  0.2932636E+02  0.5460728E+03
Ar  977  0.2106826E+02  0.3198844E+02  0.3246668E+02  0.7075709E+02
Ar  978  0.2390213E+02  0.3439638E+02  0.3215202E+02  0.5869610E+02
Ar  979  0.2394355E+02  0.3235804E+02  0.3484717E+02  0.3525360E+03
Ar  980  0.2165563E+02  0.3472300E+02  0.3523057E+02  0.3124811E+03
Ar  981  0.2744313E+02  0.4021465E-01  0.3735426E+02  0.2033022E+01
Ar  982  0.2933638E+02  0.2807508E+01  0.1121231E+00  0.2416911E+03
Ar  983  0.2946137E+02  0.4991314E+00  0.2911300E+01  0.1692792E+03
Ar  984  0.2693216E+02  0.2866635E+01  0.3185270E+01  0.1606904E+03
Ar  985  0.2667096E+02  0.3767544E+02  0.5225213E+01  0.8618824E+02
Ar  986  0.2978415E+02  0.3139275E+01  0.5416640E+01  0.3451984E+03
Ar  987  0.3012454E+02  0.1377208E-01  0.7922952E+01  0.1002068E+03
Ar  988  0.2765205E+02  0.2507340E+01  0.7852602E+01  0.1398977E+03
Ar  989  0.2765156E+02  0.5758105E-02  0.1127429E+02  0.9041671E+02
Ar  990  0.2928172E+02  0.3244621E+01  0.1094639E+02  0.1982638E+01
Ar  991  0.2977096E+02  0.3768981E+02  0.1412165E+02  0.1025341E+03
Ar  992  0.2678340E+02  0.2813350E+01  0.1377717E+02  0.3293286E+03
Ar  993  0.2684870E+02  0.1395185E+00  0.1636067E+02  0.6119487E+03
Ar  994  0.2983788E+02  0.2866277E+01  0.1627861E+02  0.5752197E+03
Ar  995  0.3011756E+02  0.3759247E+02  0.1863612E+02  0.3749087E+03
Ar  996  0.2681011E+02  0.2776607E+01  0.1909263E+02  0.2690799E+03
Ar  997  0.2639398E+02  0.3178821E+00  0.2178458E+02  0.1515742E+03
Ar  998  0.2922363E+02  0.2494113E+01  0.2177332E+02  0.7822198E+02
Ar  999  0.2983304E+02  0.3778196E+00  0.2448329E+02  0.1402473E+03
Ar 1000  0.2686747E+02  0.3251150E+01  0.2441615E+02  0.3240320E+03
Ar 1001  0.2713577E+02  0.3714481E+02  0.2696763E+02  0.5502149E+02
Ar 1002  0.2950877E+02  0.2981698E+01  0.2660779E+02  0.2859648E+02
Ar 1003  0.2971102E+02  0.3734065E+02  0.2947048E+02  0.2131607E+03
Ar 1004  0.2675704E+02  0.2720866E+01  0.2914610E+02  0.1591844E+03
Ar 1005  0.2698157E+02  0.3742210E+02  0.3182320E+02  0.4978641E+02
Ar 1006  0.2931244E+02  0.2793384E+01  0.3197303E+02  0.2649385E+03
Ar 1007  0.2909535E+02  0.1409453E+00  0.3438234E+02  0.6893759E+02
Ar 1008  0.2689712E+02  0.2737214E+01  0.3508175E+02  0.1347885E+03
Ar 1009  0.2721517E+02  0.5303434E+01  0.4842215E+00  0.5318513E+03
Ar 1010  0.2989107E+02  0.8143575E+01  0.1907848E+00  0.1551646E+03
Ar 1011  0.2998549E+02  0.5276343E+01  0.2617425E+01  0.1937004E+03
Ar 1012  0.2721856E+02  0.8201809E+01  0.2388557E+01  0.5470633E+01
Ar 1013  0.2716658E+02  0.5635203E+01  0.5396710E+01  0.1234837E+03
Ar 1014  0.2986052E+02  0.7924960E+01  0.5292222E+01  0.2137394E+03
Ar 1015  0.2992957E+02  0.5524561E+01  0.8370113E+01  0.2752032E+02
Ar 1016  0.2694356E+02  0.8452956E+01  0.8196893E+01  0.2698821E+03
Ar 1017  0.2696606E+02  0.5943724E+01  0.1098469E+02  0.3850817E+03
Ar 1018  0.2970028E+02  0.8068171E+01  0.1108084E+02  0.6196792E+03
Ar 1019  0.2935778E+02  0.5236240E+01  0.1359144E+02  0.4343074E+02
Ar 1020  0.2710463E+02  0.8219503E+01  0.1355321E+02  0.1353319E+03
Ar 1021  0.2700756E+02  0.5490023E+01  0.1645758E+02  0.2032022E+03
Ar 1022  0.2981112E+02  0.7597649E+01  0.1640891E+02  0.6806209E+02
Ar 1023  0.2951853E+02  0.4943243E+01  0.1942869E+02  0.6236385E+02
Ar 1024  0.2675894E+02  0.8183433E+01  0.1908550E+02  0.1422442E+03
Ar 1025  0.2681653E+02  0.5462942E+01  0.2153717E+02  0.6252938E+02
Ar 1026  0.2968304E+02  0.8392023E+01  0.2192311E+02  0.6116249E+03
Ar 1027  0.2986625E+02  0.5483483E+01  0.2429519E+02  0.1540004E+03
Ar 1028  0.2680572E+02  0.7958300E+01  0.2440123E+02  0.7621473E+02
Ar 1029  0.2730307E+02  0.5476824E+01  0.2680626E+02  0.1991277E+03
Ar 1030  0.2992588E+02  0.8146069E+01  0.2756241E+02  0.4677815E+03
Ar 1031  0.2931182E+02  0.5498572E+01  0.2985161E+02  0.3282270E+03
Ar 1032  0.2704841E+02  0.8126241E+01  0.2987712E+02  0.9779413E+02
Ar 1033  0.2680070E+02  0.5438412E+01  0.3231087E+02  0.2382262E+03
Ar 1034  0.2932532E+02  0.8013643E+01  0.3263349E+02  0.1282079E+02
Ar 1035  0.2963415E+02  0.5195419E+01  0.3502858E+02  0.1776395E+03
Ar 1036  0.2706898E+02  0.7888278E+01  0.3529030E+02  0.6836381E+02
Ar 1037  0.2716237E+02  0.1118365E+02  0.3728607E+02  0.2870192E+03
Ar 1038  0.2982751E+02  0.1345306E+02  0.3745135E+02  0.2260326E+03
Ar 1039  0.2962762E+02  0.1110378E+02  0.2369485E+01  0.1762194E+03
Ar 1040  0.2680525E+02  0.1378727E+02  0.2537062E+01  0.3036180E+02
Ar 1041  0.2714949E+02  0.1122927E+02  0.5715901E+01  0.4019759E+03
Ar 1042  0.2996572E+02  0.1337594E+02  0.4972945E+01  0.1222377E+03
Ar 1043  0.3002679E+02  0.1106496E+02  0.8419016E+01  0.4104315E+02
Ar 1044  0.2715912E+02  0.1351222E+02  0.8409743E+01  0.2532011E+03
Ar 1045  0.2739458E+02  0.1088339E+02  0.1097004E+02  0.5628890E+03
Ar 1046  0.2986486E+02  0.1361908E+02  0.1145927E+02  0.1047880E+03
Ar 1047  0.2972357E+02  0.1072766E+02  0.1378393E+02  0.5962421E+02
Ar 1048  0.2702367E+02  0.1368296E+02  0.1361242E+02  0.2437854E+03
Ar 1049  0.2729946E+02  0.1097868E+02  0.1598889E+02  0.8330830E+02
Ar 1050  0.2964091E+02  0.1368257E+02  0.1583909E+02  0.9809400E+02
Ar 1051  0.2956450E+02  0.1040366E+02  0.1872897E+02  0.1069546E+03
Ar 1052  0.2697863E+02  0.1384365E+02  0.1838999E+02  0.2329768E+03
Ar 1053  0.2693537E+02  0.1101200E+02  0.2119325E+02  0.8227170E+02
Ar 1054  0.2952725E+02  0.1345954E+02  0.2072077E+02  0.1826007E+03
Ar 1055  0.2940266E+02  0.1119349E+02  0.2451424E+02  0.3530965E+03
Ar 1056  0.2715601E+02  0.1385693E+02  0.2394206E+02  0.8122150E+02
Ar 1057  0.2709176E+02  0.1086740E+02  0.2752399E+02  0.5510372E+02
Ar 1058  0.2941331E+02  0.1379355E+02  0.2700045E+02  0.2293755E+03
Ar 1059  0.2967769E+02  0.1084583E+02  0.3014892E+02  0.8122324E+02
Ar 1060  0.2690451E+02  0.1378238E+02  0.2999790E+02  0.1244035E+03
Ar 1061  0.2713727E+02  0.1128909E+02  0.3268804E+02  0.1497086E+03
Ar 1062  0.3015602E+02  0.1364343E+02  0.3270604E+02  0.2075992E+03
Ar 1063  0.3032995E+02  0.1089345E+02  0.3487139E+02  0.2179179E+03
Ar 1064  0.2681839E+02  0.1402971E+02  0.3486378E+02  0.2307998E+03
Ar 1065  0.2751605E+02  0.1598489E+02  0.3761700E+02  0.5206229E+01
Ar 1066  0.2971357E+02  0.1904121E+02  0.3777976E+02  0.7280045E+02
Ar 1067  0.2958282E+02  0.1635340E+02  0.2616102E+01  0.2097428E+03
Ar 1068  0.2668021E+02  0.1878363E+02  0.2184643E+01  0.1453659E+02
Ar 1069  0.2731092E+02  0.1586943E+02  0.5103189E+01  0.8490473E+02
Ar 1070  0.2966492E+02  0.1881768E+02  0.5609336E+01  0.2979545E+03
Ar 1071  0.2934883E+02  0.1604087E+02  0.8400145E+01  0.2656608E+03
Ar 1072  0.2700101E+02  0.1858067E+02  0.7884213E+01  0.2791850E+02
Ar 1073  0.2688284E+02  0.1620596E+02  0.1131013E+02  0.2490690E+03
Ar 1074  0.2960749E+02  0.1889185E+02  0.1071170E+02  0.8487805E+02
Ar 1075  0.2982442E+02  0.1636009E+02  0.1350751E+02  0.7797362E+02
Ar 1076  0.2734619E+02  0.1882152E+02  0.1335488E+02  0.1987981E+03
Ar 1077  0.2665425E+02  0.1640873E+02  0.1608721E+02  0.1728028E+03
Ar 1078  0.2994121E+02  0.1853399E+02  0.1619936E+02  0.1424026E+03
Ar 1079  0.2971880E+02  0.1639085E+02  0.1878448E+02  0.1552157E+03
Ar 1080  0.2686895E+02  0.1883651E+02  0.1876502E+02  0.2995928E+02
Ar 1081  0.2708353E+02  0.1692878E+02  0.2163613E+02  0.2186964E+03
Ar 1082  0.2988124E+02  0.1885878E+02  0.2131292E+02  0.5799787E+02
Ar 1083  0.2974058E+02  0.1628593E+02  0.2385839E+02  0.4560561E+03
Ar 1084  0.2748130E+02  0.1925244E+02  0.2497135E+02  0.1574505E+03
Ar 1085  0.2729179E+02  0.1641994E+02  0.2661392E+02  0.4781784E+03
Ar 1086  0.3012962E+02  0.1866593E+02  0.2755555E+02  0.3004269E+03
Ar 1087  0.2981756E+02  0.1606342E+02  0.2983651E+02  0.5840359E+02
Ar 1088  0.2713236E+02  0.1899436E+02  0.2978208E+02  0.2293417E+03
Ar 1089  0.2703919E+02  0.1631575E+02  0.3233409E+02  0.3869246E+02
Ar 1090  0.2962907E+02  0.1900741E+02  0.3216826E+02  0.1508147E+03
Ar 1091  0.3009806E+02  0.1640146E+02  0.3499284E+02  0.4665272E+03
Ar 1092  0.2707753E+02  0.1889447E+02  0.3507367E+02  0.2163894E+03
Ar 1093  0.2731031E+02  0.2173692E+02  0.3776076E+02  0.1202782E+03
Ar 1094  0.2972622E+02  0.2448491E+02  0.3760552E+02  0.3433247E+03
Ar 1095  0.2896287E+02  0.2119976E+02  0.2878201E+01  0.2289368E+02
Ar 1096  0.2675535E+02  0.2406141E+02  0.2685359E+01  0.2011776E+03
Ar 1097  0.2611682E+02  0.2163689E+02  0.5340231E+01  0.7975660E+02
Ar 1098  0.2943156E+02  0.2386106E+02  0.5001561E+01  0.4391296E+02
Ar 1099  0.2911053E+02  0.2221028E+02  0.7998489E+01  0.3571806E+02
Ar 1100  0.2659069E+02  0.2458069E+02  0.8679844E+01  0.7208946E+01
Ar 1101  0.2692970E+02  0.2178588E+02  0.1118602E+02  0.5419412E+03
Ar 1102  0.2945285E+02  0.2452434E+02  0.1100614E+02  0.8452013E+03
Ar 1103  0.2989386E+02  0.2143253E+02  0.1373306E+02  0.2404105E+03
Ar 1104  0.2727122E+02  0.2470045E+02  0.1372830E+02  0.1302706E+03
Ar 1105  0.2749712E+02  0.2195188E+02  0.1618533E+02  0.1131938E+03
Ar 1106  0.3004068E+02  0.2447469E+02  0.1591125E+02  0.8092638E+02
Ar 1107  0.2964759E+02  0.2102735E+02  0.1865529E+02  0.1467678E+03
Ar 1108  0.2741341E+02  0.2480225E+02  0.1882982E+02  0.1378979E+03
Ar 1109  0.2812988E+02  0.2174950E+02  0.2184347E+02  0.2716013E+02
Ar 1110  0.3030949E+02  0.2447459E+02  0.2131935E+02  0.2041129E+03
Ar 1111  0.3020235E+02  0.2131786E+02  0.2475445E+02  0.6094027E+02
Ar 1112  0.2723036E+02  0.2439999E+02  0.2432229E+02  0.6201807E+02
Ar 1113  0.2675578E+02  0.2194941E+02  0.2734561E+02  0.2949248E+03
Ar 1114  0.2992073E+02  0.2401875E+02  0.2712863E+02  0.4469605E+03
Ar 1115  0.2973043E+02  0.2189710E+02  0.2964912E+02  0.2144855E+03
Ar 1116  0.2716379E+02  0.2461236E+02  0.2961692E+02  0.2217926E+03
Ar 1117  0.2679838E+02  0.2142321E+02  0.3239863E+02  0.1101124E+03
Ar 1118  0.2981660E+02  0.2446572E+02  0.3240729E+02  0.2022280E+03
Ar 1119  0.2950299E+02  0.2138828E+02  0.3543313E+02  0.9067633E+02
Ar 1120  0.2731105E+02  0.2421964E+02  0.3478612E+02  0.1833515E+03
Ar 1121  0.2700522E+02  0.2662262E+02  0.2909259E+00  0.3049177E+03
Ar 1122  0.2934088E+02  0.2943474E+02  0.3768594E+02  0.3981998E+02
Ar 1123  0.2913555E+02  0.2668437E+02  0.2844410E+01  0.2244732E+03
Ar 1124  0.2631897E+02  0.2953980E+02  0.3155722E+01  0.4185392E+03
Ar 1125  0.2686176E+02  0.2673388E+02  0.5570753E+01  0.1589545E+03
Ar 1126  0.2925916E+02  0.2978489E+02  0.5635123E+01  0.1506462E+03
Ar 1127  0.2943287E+02  0.2698474E+02  0.8324093E+01  0.4044675E+03
Ar 1128  0.2662724E+02  0.2978421E+02  0.8130159E+01  0.3567816E+03
Ar 1129  0.2705291E+02  0.2749357E+02  0.1080765E+02  0.1055993E+03
Ar 1130  0.2994969E+02  0.2972756E+02  0.1081524E+02  0.9271132E+02
Ar 1131  0.2997705E+02  0.2701334E+02  0.1390314E+02  0.3112755E+03
Ar 1132  0.2700931E+02  0.2964485E+02  0.1379641E+02  0.1705835E+03
Ar 1133  0.2687174E+02  0.2767385E+02  0.1657186E+02  0.1628764E+03
Ar 1134  0.2993713E+02  0.3017229E+02  0.1629957E+02  0.5685714E+02
Ar 1135  0.3028536E+02  0.2745253E+02  0.1874003E+02  0.3177635E+02
Ar 1136  0.2740417E+02  0.2977784E+02  0.1898944E+02  0.1583701E+03
Ar 1137  0.2729208E+02  0.2719849E+02  0.2151257E+02  0.9577942E+02
Ar 1138  0.2990667E+02  0.2981300E+02  0.2136435E+02  0.6548191E+02
Ar 1139  0.2993344E+02  0.2672175E+02  0.2398349E+02  0.4356960E+02
Ar 1140  0.2754888E+02  0.2917612E+02  0.2453088E+02  0.9618423E+02
Ar 1141  0.2737068E+02  0.2690953E+02  0.2697573E+02  0.3588162E+02
Ar 1142  0.2946268E+02  0.2981358E+02  0.2723791E+02  0.3949484E+03
Ar 1143  0.2974285E+02  0.2696956E+02  0.2950342E+02  0.2224003E+03
Ar 1144  0.2712785E+02  0.2981169E+02  0.2996008E+02  0.1094955E+04
Ar 1145  0.2705475E+02  0.2710045E+02  0.3225895E+02  0.1394912E+03
Ar 1146  0.2974628E+02  0.2941312E+02  0.3214281E+02  0.3537519E+02
Ar 1147  0.2991471E+02  0.2683785E+02  0.3478387E+02  0.2114325E+03
Ar 1148  0.2737137E+02  0.2949838E+02  0.3469393E+02  0.8388266E+02
Ar 1149  0.2703111E+02  0.3214047E+02  0.3690513E+02  0.9924559E+02
Ar 1150  0.2916124E+02  0.3444366E+02  0.3665694E+02  0.1043993E+03
Ar 1151  0.2861563E+02  0.3165882E+02  0.2345713E+01  0.1444026E+03
Ar 1152  0.2704212E+02  0.3458154E+02  0.2493642E+01  0.2112537E+03
Ar 1153  0.2648490E+02  0.3253442E+02  0.5233300E+01  0.4922839E+02
Ar 1154  0.2905686E+02  0.3498256E+02  0.5874674E+01  0.1281344E+03
Ar 1155  0.2932481E+02  0.3222139E+02  0.8040087E+01  0.2511558E+03
Ar 1156  0.2704971E+02  0.3523678E+02  0.8856026E+01  0.6559654E+02
Ar 1157  0.2712043E+02  0.3243094E+02  0.1094611E+02  0.2027038E+02
Ar 1158  0.2992064E+02  0.3459559E+02  0.1078229E+02  0.1765042E+03
Ar 1159  0.2986428E+02  0.3220854E+02  0.1365479E+02  0.3760591E+03
Ar 1160  0.2701076E+02  0.3492166E+02  0.1371640E+02  0.3900065E+03
Ar 1161  0.2715831E+02  0.3251956E+02  0.1636350E+02  0.2309342E+03
Ar 1162  0.2993525E+02  0.3482572E+02  0.1619512E+02  0.9470795E+02
Ar 1163  0.2999324E+02  0.3261622E+02  0.1888734E+02  0.2564324E+03
Ar 1164  0.2709344E+02  0.3528921E+02  0.1876572E+02  0.1969869E+02
Ar 1165  0.2722586E+02  0.3193877E+02  0.2204298E+02  0.3295129E+03
Ar 1166  0.3005465E+02  0.3526402E+02  0.2197615E+02  0.1721687E+03
Ar 1167  0.2949600E+02  0.3209138E+02  0.2477966E+02  0.1578028E+03
Ar 1168  0.2771012E+02  0.3520867E+02  0.2416326E+02  0.7559809E+02
Ar 1169  0.2679367E+02  0.3276377E+02  0.2660930E+02  0.3521016E+03
Ar 1170  0.3001530E+02  0.3496997E+02  0.2653012E+02  0.1571421E+03
Ar 1171  0.3018143E+02  0.3207060E+02  0.3021868E+02  0.1203167E+03
Ar 1172  0.2693551E+02  0.3451004E+02  0.2972306E+02  0.4903247E+02
Ar 1173  0.2648642E+02  0.3236825E+02  0.3230383E+02  0.6374470E+03
Ar 1174  0.2952601E+02  0.3518645E+02  0.3219174E+02  0.1610340E+03
Ar 1175  0.3012476E+02  0.3213723E+02  0.3408838E+02  0.2402120E+03
Ar 1176  0.2653201E+02  0.3504803E+02  0.3436589E+02  0.4474432E+03
Ar 1177  0.3182519E+02  0.3714782E+02  0.3744706E+02  0.1318636E+03
Ar 1178  0.3464195E+02  0.2457461E+01  0.3692803E+02  0.1001250E+03
Ar 1179  0.3592057E+02  0.8556830E-01  0.2611248E+01  0.1812429E+03
Ar 1180  0.3288367E+02  0.1995499E+01  0.2101835E+01  0.2285936E+03
Ar 1181  0.3267450E+02  0.3730716E+02  0.4799615E+01  0.6325945E+02
Ar 1182  0.3490751E+02  0.2678494E+01  0.5166117E+01  0.1756186E+03
Ar 1183  0.3430953E+02  0.1918371E+00  0.8024114E+01  0.3044033E+03
Ar 1184  0.3211580E+02  0.2597527E+01  0.7598913E+01  0.1676929E+03
Ar 1185  0.3179353E+02  0.3765683E+02  0.1101387E+02  0.2782010E+03
Ar 1186  0.3502327E+02  0.2082514E+01  0.1076226E+02  0.1405111E+03
Ar 1187  0.3540099E+02  0.3777492E+02  0.1376528E+02  0.6515902E+02
Ar 1188  0.3208618E+02  0.2506405E+01  0.1359969E+02  0.4166456E+02
Ar 1189  0.3269550E+02  0.3754440E+02  0.1620455E+02  0.6724465E+02
Ar 1190  0.3509091E+02  0.2874003E+01  0.1586626E+02  0.1469222E+03
Ar 1191  0.3478576E+02  0.3762982E+02  0.1951366E+02  0.1835617E+03
Ar 1192  0.3207823E+02  0.2639524E+01  0.1943042E+02  0.9186506E+02
Ar 1193  0.3256630E+02  0.3767548E+02  0.2185400E+02  0.1145904E+03
Ar 1194  0.3481854E+02  0.2403814E+01  0.2181212E+02  0.4158277E+03
Ar 1195  0.3481822E+02  0.3764431E+02  0.2471974E+02  0.1440174E+03
Ar 1196  0.3245625E+02  0.2715179E+01  0.2424234E+02  0.3896654E+02
Ar 1197  0.3212387E+02  0.2433894E+00  0.2693767E+02  0.7304071E+02
Ar 1198  0.3471211E+02  0.2784641E+01  0.2744163E+02  0.1940581E+03
Ar 1199  0.3541020E+02  0.4500190E-01  0.2942468E+02  0.1750452E+03
Ar 1200  0.3199310E+02  0.2550687E+01  0.2948118E+02  0.1834113E+03
Ar 1201  0.3247592E+02  0.3740664E+02  0.3163475E+02  0.3036767E+03
Ar 1202  0.3495996E+02  0.2525047E+01  0.3254134E+02  0.1330211E+02
Ar 1203  0.3441220E+02  0.3753823E+02  0.3451594E+02  0.1048871E+03
Ar 1204  0.3226538E+02  0.2623475E+01  0.3451214E+02  0.7114146E+03
Ar 1205  0.3219062E+02  0.5408683E+01  0.3769770E+02  0.1392775E+02
Ar 1206  0.3522699E+02  0.8243573E+01  0.3767544E+02  0.2521000E+03
Ar 1207  0.3462270E+02  0.4787203E+01  0.2485826E+01  0.3315135E+03
Ar 1208  0.3224175E+02  0.8733172E+01  0.2734380E+01  0.1704733E+03
Ar 1209  0.3263903E+02  0.5421486E+01  0.5025107E+01  0.9667690E+02
Ar 1210  0.3480119E+02  0.7786662E+01  0.4912785E+01  0.2240188E+02
Ar 1211  0.3496661E+02  0.4587888E+01  0.8384143E+01  0.1108371E+03
Ar 1212  0.3247251E+02  0.7848990E+01  0.8132514E+01  0.4449659E+03
Ar 1213  0.3234912E+02  0.4730301E+01  0.1061667E+02  0.1141878E+03
Ar 1214  0.3475095E+02  0.8135468E+01  0.1061155E+02  0.1606590E+03
Ar 1215  0.3516670E+02  0.4912541E+01  0.1282083E+02  0.3464817E+03
Ar 1216  0.3213040E+02  0.7975759E+01  0.1382066E+02  0.2477197E+03
Ar 1217  0.3245761E+02  0.5142845E+01  0.1612235E+02  0.1308516E+03
Ar 1218  0.3532680E+02  0.7650258E+01  0.1591592E+02  0.3142499E+03
Ar 1219  0.3477564E+02  0.5469473E+01  0.1960649E+02  0.4988194E+02
Ar 1220  0.3242759E+02  0.7945160E+01  0.1925003E+02  0.2940291E+03
Ar 1221  0.3235011E+02  0.5545275E+01  0.2209464E+02  0.4370790E+03
Ar 1222  0.3491116E+02  0.8376404E+01  0.2228490E+02  0.9434866E+02
Ar 1223  0.3497386E+02  0.5075790E+01  0.2445689E+02  0.1337438E+03
Ar 1224  0.3199527E+02  0.8170798E+01  0.2439991E+02  0.2742433E+03
Ar 1225  0.3206397E+02  0.5380480E+01  0.2731191E+02  0.3918102E+03
Ar 1226  0.3485653E+02  0.7910142E+01  0.2614479E+02  0.2413648E+02
Ar 1227  0.3532505E+02  0.5333042E+01  0.2967968E+02  0.2531825E+03
Ar 1228  0.3291721E+02  0.7940736E+01  0.2954004E+02  0.3245069E+03
Ar 1229  0.3240496E+02  0.5386305E+01  0.3207044E+02  0.1277846E+03
Ar 1230  0.3540392E+02  0.8086004E+01  0.3277103E+02  0.1412031E+03
Ar 1231  0.3495201E+02  0.5226279E+01  0.3494716E+02  0.2244619E+03
Ar 1232  0.3247326E+02  0.7871387E+01  0.3503246E+02  0.5591701E+02
Ar 1233  0.3259783E+02  0.1089297E+02  0.3751454E+02  0.2748703E+03
Ar 1234  0.3534616E+02  0.1355363E+02  0.3774635E+02  0.2080277E+03
Ar 1235  0.3535456E+02  0.1042065E+02  0.2504850E+01  0.4630058E+03
Ar 1236  0.3227172E+02  0.1348927E+02  0.2340639E+01  0.3422255E+03
Ar 1237  0.3250255E+02  0.1047855E+02  0.5933952E+01  0.4349949E+03
Ar 1238  0.3489170E+02  0.1308595E+02  0.4868193E+01  0.5032284E+01
Ar 1239  0.3538013E+02  0.1096931E+02  0.8141176E+01  0.8466684E+02
Ar 1240  0.3238321E+02  0.1373485E+02  0.7825850E+01  0.1798430E+03
Ar 1241  0.3217162E+02  0.1077898E+02  0.1120144E+02  0.1370434E+03
Ar 1242  0.3536057E+02  0.1367859E+02  0.1106601E+02  0.2629764E+03
Ar 1243  0.3499376E+02  0.1074240E+02  0.1334169E+02  0.3394513E+03
Ar 1244  0.3234158E+02  0.1322275E+02  0.1416165E+02  0.1885597E+03
Ar 1245  0.3244702E+02  0.1027142E+02  0.1661710E+02  0.3186029E+02
Ar 1246  0.3560166E+02  0.1308142E+02  0.1655460E+02  0.3204606E+03
Ar 1247  0.3528315E+02  0.1009031E+02  0.1896058E+02  0.2160068E+03
Ar 1248  0.3243959E+02  0.1314611E+02  0.1854083E+02  0.2360128E+03
Ar 1249  0.3224200E+02  0.1112258E+02  0.2210215E+02  0.1148573E+03
Ar 1250  0.3553613E+02  0.1263609E+02  0.2125749E+02  0.1381298E+03
Ar 1251  0.3463062E+02  0.1146462E+02  0.2453017E+02  0.3365775E+03
Ar 1252  0.3207651E+02  0.1393928E+02  0.2482836E+02  0.2973230E+03
Ar 1253  0.3223665E+02  0.1114239E+02  0.2699723E+02  0.6493929E+02
Ar 1254  0.3506557E+02  0.1358106E+02  0.2722181E+02  0.2697418E+03
Ar 1255  0.3525444E+02  0.1077208E+02  0.2963496E+02  0.3440064E+03
Ar 1256  0.3247056E+02  0.1354462E+02  0.2966495E+02  0.1788201E+03
Ar 1257  0.3237268E+02  0.9961536E+01  0.3222344E+02  0.2107855E+03
Ar 1258  0.3516783E+02  0.1317581E+02  0.3253395E+02  0.1144829E+03
Ar 1259  0.3513513E+02  0.1062429E+02  0.3510007E+02  0.1523673E+03
Ar 1260  0.3282573E+02  0.1394503E+02  0.3490698E+02  0.1248625E+03
Ar 1261  0.3215259E+02  0.1632769E+02  0.2193183E+00  0.1234544E+03
Ar 1262  0.3438721E+02  0.1918540E+02  0.3774946E+02  0.6048943E+02
Ar 1263  0.3536593E+02  0.1559336E+02  0.2652734E+01  0.1206214E+03
Ar 1264  0.3240410E+02  0.1942762E+02  0.2680078E+01  0.1616143E+03
Ar 1265  0.3201247E+02  0.1671214E+02  0.5281324E+01  0.1821704E+03
Ar 1266  0.3477790E+02  0.1895498E+02  0.5163176E+01  0.1034627E+03
Ar 1267  0.3547640E+02  0.1634793E+02  0.7648613E+01  0.2472872E+02
Ar 1268  0.3254292E+02  0.1879755E+02  0.7946512E+01  0.3631028E+02
Ar 1269  0.3238544E+02  0.1641934E+02  0.1085273E+02  0.4106754E+03
Ar 1270  0.3496011E+02  0.1929591E+02  0.1063021E+02  0.1471574E+03
Ar 1271  0.3508561E+02  0.1612969E+02  0.1358998E+02  0.1425579E+03
Ar 1272  0.3235463E+02  0.1898522E+02  0.1354675E+02  0.3917894E+03
Ar 1273  0.3228828E+02  0.1619748E+02  0.1642778E+02  0.2778501E+03
Ar 1274  0.3508236E+02  0.1848828E+02  0.1601034E+02  0.1770277E+03
Ar 1275  0.3472811E+02  0.1575840E+02  0.1895626E+02  0.3163804E+03
Ar 1276  0.3283625E+02  0.1877037E+02  0.1886027E+02  0.8527027E+02
Ar 1277  0.3238499E+02  0.1643785E+02  0.2137711E+02  0.1239137E+03
Ar 1278  0.3513723E+02  0.1863689E+02  0.2157907E+02  0.7132047E+02
Ar 1279  0.3491366E+02  0.1581915E+02  0.2405140E+02  0.5172479E+03
Ar 1280  0.3225471E+02  0.1855129E+02  0.2421118E+02  0.2181290E+03
Ar 1281  0.3296127E+02  0.1634768E+02  0.2757772E+02  0.1296846E+03
Ar 1282  0.3515340E+02  0.1884192E+02  0.2656058E+02  0.8688825E+03
Ar 1283  0.3548417E+02  0.1597782E+02  0.3007378E+02  0.8556629E+03
Ar 1284  0.3239289E+02  0.1905529E+02  0.2994179E+02  0.1358649E+03
Ar 1285  0.3283876E+02  0.1649283E+02  0.3274312E+02  0.5245402E+03
Ar 1286  0.3512595E+02  0.1904237E+02  0.3255582E+02  0.2206783E+03
Ar 1287  0.3524951E+02  0.1625379E+02  0.3583089E+02  0.5068725E+02
Ar 1288  0.3213927E+02  0.1898567E+02  0.3505069E+02  0.9777137E+02
Ar 1289  0.3247925E+02  0.2203537E+02  0.3744425E+02  0.4910552E+02
Ar 1290  0.3496694E+02  0.2469520E+02  0.3770239E+02  0.1357166E+03
Ar 1291  0.3505526E+02  0.2177599E+02  0.2153898E+01  0.2274363E+03
Ar 1292  0.3250438E+02  0.2436017E+02  0.3137142E+01  0.3274460E+03
Ar 1293  0.3210510E+02  0.2178344E+02  0.5319125E+01  0.6338745E+02
Ar 1294  0.3537457E+02  0.2454494E+02  0.5507923E+01  0.1946373E+03
Ar 1295  0.3485370E+02  0.2154050E+02  0.7451283E+01  0.3723655E+03
Ar 1296  0.3183059E+02  0.2434248E+02  0.8285191E+01  0.6685811E+02
Ar 1297  0.3231516E+02  0.2170837E+02  0.1050786E+02  0.7707975E+02
Ar 1298  0.3501026E+02  0.2381567E+02  0.1057137E+02  0.1970862E+02
Ar 1299  0.3502891E+02  0.2133323E+02  0.1344774E+02  0.3799421E+03
Ar 1300  0.3263347E+02  0.2412982E+02  0.1374845E+02  0.1256198E+03
Ar 1301  0.3294997E+02  0.2111773E+02  0.1613710E+02  0.1488230E+03
Ar 1302  0.3487672E+02  0.2459129E+02  0.1617560E+02  0.1513914E+03
Ar 1303  0.3492072E+02  0.2158571E+02  0.1891638E+02  0.2544659E+03
Ar 1304  0.3234175E+02  0.2413986E+02  0.1862226E+02  0.9066972E+02
Ar 1305  0.3245558E+02  0.2130574E+02  0.2149361E+02  0.9267524E+01
Ar 1306  0.3454597E+02  0.2428750E+02  0.2195334E+02  0.3301941E+02
Ar 1307  0.3522300E+02  0.2145056E+02  0.2405448E+02  0.1003006E+03
Ar 1308  0.3267457E+02  0.2476362E+02  0.2467265E+02  0.2525654E+02
Ar 1309  0.3255251E+02  0.2141934E+02  0.2715329E+02  0.1400440E+03
Ar 1310  0.3495471E+02  0.2430401E+02  0.2767257E+02  0.1496809E+03
Ar 1311  0.3513038E+02  0.2126376E+02  0.2966782E+02  0.8035129E+02
Ar 1312  0.3216600E+02  0.2442123E+02  0.2969218E+02  0.9348528E+02
Ar 1313  0.3241007E+02  0.2168519E+02  0.3226349E+02  0.1008379E+03
Ar 1314  0.3512299E+02  0.2414385E+02  0.3178243E+02  0.7337911E+02
Ar 1315  0.3533294E+02  0.2157675E+02  0.3465631E+02  0.2640634E+03
Ar 1316  0.3250373E+02  0.2431468E+02  0.3469587E+02  0.7083962E+02
Ar 1317  0.3176668E+02  0.2719379E+02  0.8207284E-01  0.2784539E+03
Ar 1318  0.3463114E+02  0.2954115E+02  0.2285367E+00  0.8196321E+03
Ar 1319  0.3540035E+02  0.2707730E+02  0.2994108E+01  0.9094416E+02
Ar 1320  0.3116736E+02  0.2940841E+02  0.2625607E+01  0.2252568E+03
Ar 1321  0.3183637E+02  0.2703919E+02  0.5539225E+01  0.1852611E+03
Ar 1322  0.3489817E+02  0.2917308E+02  0.6150652E+01  0.1392459E+03
Ar 1323  0.3494680E+02  0.2647558E+02  0.8462369E+01  0.1560886E+03
Ar 1324  0.3216432E+02  0.2930014E+02  0.8208045E+01  0.1058276E+03
Ar 1325  0.3215166E+02  0.2689538E+02  0.1111666E+02  0.1022372E+03
Ar 1326  0.3503690E+02  0.2933706E+02  0.1016836E+02  0.3786547E+03
Ar 1327  0.3507542E+02  0.2639426E+02  0.1301757E+02  0.8473573E+02
Ar 1328  0.3258248E+02  0.2969705E+02  0.1303609E+02  0.4248716E+03
Ar 1329  0.3267220E+02  0.2709492E+02  0.1638951E+02  0.8656238E+02
Ar 1330  0.3512929E+02  0.2921923E+02  0.1559318E+02  0.6218131E+03
Ar 1331  0.3525677E+02  0.2694093E+02  0.1903355E+02  0.1516776E+03
Ar 1332  0.3284747E+02  0.3022524E+02  0.1859578E+02  0.4187860E+03
Ar 1333  0.3266105E+02  0.2712390E+02  0.2122205E+02  0.1577164E+03
Ar 1334  0.3507364E+02  0.2992282E+02  0.2125295E+02  0.2781180E+03
Ar 1335  0.3490035E+02  0.2753036E+02  0.2425785E+02  0.5196205E+02
Ar 1336  0.3202462E+02  0.2979152E+02  0.2403355E+02  0.2566924E+03
Ar 1337  0.3177907E+02  0.2734556E+02  0.2677083E+02  0.1812116E+03
Ar 1338  0.3499304E+02  0.2964583E+02  0.2707283E+02  0.7012680E+02
Ar 1339  0.3512877E+02  0.2718029E+02  0.2965488E+02  0.2910093E+03
Ar 1340  0.3233788E+02  0.2943019E+02  0.2976134E+02  0.2549647E+03
Ar 1341  0.3281872E+02  0.2651059E+02  0.3244277E+02  0.1462199E+03
Ar 1342  0.3543377E+02  0.2929705E+02  0.3238604E+02  0.1653279E+03
Ar 1343  0.3495423E+02  0.2681895E+02  0.3514473E+02  0.2201296E+03
Ar 1344  0.3252044E+02  0.2940927E+02  0.3508836E+02  0.4902635E+02
Ar 1345  0.3191539E+02  0.3208255E+02  0.3696223E+02  0.5796486E+02
Ar 1346  0.3339624E+02  0.3416695E+02  0.2344601E+01  0.2890601E+03
Ar 1347  0.3510543E+02  0.3153945E+02  0.3164894E+01  0.2272479E+03
Ar 1348  0.3032775E+02  0.3495595E+02  0.2560504E+01  0.1065115E+03
Ar 1349  0.3242492E+02  0.3150835E+02  0.5796718E+01  0.1019749E+03
Ar 1350  0.3490553E+02  0.3457223E+02  0.5272654E+01  0.2594836E+03
Ar 1351  0.3501454E+02  0.3231787E+02  0.7984214E+01  0.1707076E+03
Ar 1352  0.3218479E+02  0.3501934E+02  0.7358781E+01  0.9564770E+01
Ar 1353  0.3231825E+02  0.3223922E+02  0.1039992E+02  0.6519891E+02
Ar 1354  0.3460208E+02  0.3468383E+02  0.1046911E+02  0.7014563E+02
Ar 1355  0.3501781E+02  0.3223991E+02  0.1346441E+02  0.8281018E+02
Ar 1356  0.3292655E+02  0.3515621E+02  0.1359530E+02  0.1685586E+03
Ar 1357  0.3242184E+02  0.3233034E+02  0.1571683E+02  0.5256810E+02
Ar 1358  0.3538624E+02  0.3544687E+02  0.1653197E+02  0.3583887E+03
Ar 1359  0.3551388E+02  0.3267072E+02  0.1857923E+02  0.2067788E+03
Ar 1360  0.3275500E+02  0.3508510E+02  0.1849051E+02  0.1860733E+03
Ar 1361  0.3240013E+02  0.3273491E+02  0.2128239E+02  0.5368422E+02
Ar 1362  0.3536981E+02  0.3529287E+02  0.2212037E+02  0.2350298E+03
Ar 1363  0.3507854E+02  0.3216531E+02  0.2401454E+02  0.2078392E+02
Ar 1364  0.3273191E+02  0.3437180E+02  0.2427070E+02  0.9408935E+02
Ar 1365  0.3241196E+02  0.3225539E+02  0.2701795E+02  0.4733160E+03
Ar 1366  0.3482424E+02  0.3485828E+02  0.2727055E+02  0.6710400E+03
Ar 1367  0.3471642E+02  0.3205504E+02  0.2957389E+02  0.1021656E+03
Ar 1368  0.3242056E+02  0.3472241E+02  0.2966761E+02  0.5948154E+02
Ar 1369  0.3444963E+02  0.3478707E+02  0.3728166E+02  0.2663846E+03
Ar 1370  0.3483727E+02  0.3491868E+02  0.3213769E+02  0.1193098E+03
Ar 1371  0.3453928E+02  0.3208976E+02  0.3455852E+02  0.2297451E+02
Ar 1372  0.3221747E+02  0.3496864E+02  0.3460384E+02  0.1002284E+03
