        1372
Lattice="  0.3778015E+02  0.0000000E+00  0.0000000E+00  0.0000000E+00  0.3778015E+02  0.0000000E+00  0.0000000E+00  0.0000000E+00  0.3778015E+02" Properties=species:S:1:id:I:1:pos:R:3:tempK:R:1
Ar    1  0.1137570E-01  0.1248111E-01  0.9646102E-02  0.1405408E+03
Ar    2  0.2514106E+01  0.2513928E+01  0.3707822E+02  0.1949137E+03
Ar    3  0.2510248E+01  0.3707469E+02  0.2512135E+01  0.1982679E+03
Ar    4  0.3707679E+02  0.2510793E+01  0.2514021E+01  0.1965063E+03
Ar    5  0.3760629E+02  0.3760570E+02  0.5002825E+01  0.1091050E+04
Ar    6  0.2587614E+01  0.2586852E+01  0.5400223E+01  0.3083319E+03
Ar    7  0.2750599E+01  0.3775880E+02  0.7912662E+01  0.4249739E+03
Ar    8  0.3775729E+02  0.2748224E+01  0.7912679E+01  0.4257542E+03
Ar    9  0.3771019E+02  0.3771122E+02  0.1124057E+02  0.5443656E+02
Ar   10  0.2819291E+01  0.2818620E+01  0.1111538E+02  0.4125305E+02
Ar   11  0.3140169E+01  0.2321186E+00  0.1400330E+02  0.1849071E+03
Ar   12  0.2327091E+00  0.3140716E+01  0.1400314E+02  0.1851540E+03
Ar   13  0.9706981E-01  0.9657366E-01  0.1645062E+02  0.7027060E+03
Ar   14  0.2777658E+01  0.2779023E+01  0.1707020E+02  0.1150708E+03
Ar   15  0.3043383E+01  0.3725129E+02  0.1911228E+02  0.7323174E+01
Ar   16  0.3725121E+02  0.3043332E+01  0.1911163E+02  0.7266093E+01
Ar   17  0.3774061E+02  0.3774035E+02  0.2181617E+02  0.8131765E+02
Ar   18  0.2625876E+01  0.2625426E+01  0.2073572E+02  0.1931291E+03
Ar   19  0.2736204E+01  0.3774632E+02  0.2335744E+02  0.8903957E+02
Ar   20  0.3774616E+02  0.2736431E+01  0.2335717E+02  0.8922889E+02
Ar   21  0.1453422E+00  0.1463173E+00  0.2643595E+02  0.2425304E+03
Ar   22  0.2501063E+01  0.2500778E+01  0.2749859E+02  0.9655067E+02
Ar   23  0.2880522E+01  0.3745076E+02  0.2934539E+02  0.1935007E+03
Ar   24  0.3745067E+02  0.2880359E+01  0.2934525E+02  0.1934640E+03
Ar   25  0.1587203E+00  0.1589169E+00  0.3235519E+02  0.9699940E+01
Ar   26  0.2733787E+01  0.2732616E+01  0.3188472E+02  0.9917967E+02
Ar   27  0.2191403E+01  0.3741200E+02  0.3496789E+02  0.2296481E+03
Ar   28  0.3741392E+02  0.2192070E+01  0.3496658E+02  0.2297293E+03
Ar   29  0.3760617E+02  0.5003432E+01  0.3760766E+02  0.1097471E+04
Ar   30  0.2747595E+01  0.7910117E+01  0.3775868E+02  0.4279629E+03
Ar   31  0.2585938E+01  0.5394085E+01  0.2583545E+01  0.3056978E+03
Ar   32  0.3776048E+02  0.7909150E+01  0.2748212E+01  0.4277223E+03
Ar   33  0.1025612E+00  0.5702815E+01  0.5702547E+01  0.7610691E+01
Ar   34  0.2715977E+01  0.8021966E+01  0.5166849E+01  0.2295474E+03
Ar   35  0.2713931E+01  0.5166343E+01  0.8022065E+01  0.2323392E+03
Ar   36  0.9000649E-01  0.8064513E+01  0.8062735E+01  0.2413622E+03
Ar   37  0.2928211E+00  0.5795002E+01  0.1105372E+02  0.1397245E+03
Ar   38  0.2899249E+01  0.7921480E+01  0.1072657E+02  0.1373976E+03
Ar   39  0.2733911E+01  0.5732452E+01  0.1408784E+02  0.4338479E+02
Ar   40  0.3748928E+02  0.7969351E+01  0.1379827E+02  0.2654965E+03
Ar   41  0.3743301E+02  0.5569206E+01  0.1656997E+02  0.2272938E+03
Ar   42  0.2364847E+01  0.8295938E+01  0.1656857E+02  0.4682965E+02
Ar   43  0.2679328E+01  0.5642207E+01  0.1926848E+02  0.2150183E+03
Ar   44  0.3750933E+02  0.8149904E+01  0.1922941E+02  0.5231096E+03
Ar   45  0.3771923E+02  0.5771494E+01  0.2154683E+02  0.2900812E+03
Ar   46  0.2678926E+01  0.7989640E+01  0.2148360E+02  0.5875039E+02
Ar   47  0.2406548E+01  0.5134736E+01  0.2417885E+02  0.2518286E+03
Ar   48  0.1951230E+00  0.8788578E+01  0.2398968E+02  0.8002508E+02
Ar   49  0.3772355E+02  0.5503702E+01  0.2712123E+02  0.1481317E+03
Ar   50  0.2628418E+01  0.7874115E+01  0.2669048E+02  0.3970768E+03
Ar   51  0.2485750E+01  0.5656321E+01  0.2988315E+02  0.1341131E+03
Ar   52  0.1397196E+00  0.8404403E+01  0.2966106E+02  0.8771165E+02
Ar   53  0.3771670E+02  0.5222351E+01  0.3254905E+02  0.2370783E+03
Ar   54  0.2909164E+01  0.7993234E+01  0.3264184E+02  0.1243332E+03
Ar   55  0.2807041E+01  0.5271736E+01  0.3472504E+02  0.9739276E+03
Ar   56  0.1198174E+00  0.7992611E+01  0.3515436E+02  0.5567706E+02
Ar   57  0.3771147E+02  0.1124035E+02  0.3771199E+02  0.5406684E+02
Ar   58  0.3140870E+01  0.1400325E+02  0.2332764E+00  0.1842925E+03
Ar   59  0.2822328E+01  0.1111227E+02  0.2821721E+01  0.4152390E+02
Ar   60  0.2329125E+00  0.1400348E+02  0.3139667E+01  0.1840919E+03
Ar   61  0.2915871E+00  0.1105395E+02  0.5795220E+01  0.1397968E+03
Ar   62  0.2733995E+01  0.1408436E+02  0.5731708E+01  0.4347246E+02
Ar   63  0.2899548E+01  0.1072473E+02  0.7922594E+01  0.1366871E+03
Ar   64  0.3748927E+02  0.1379826E+02  0.7969253E+01  0.2657123E+03
Ar   65  0.2803823E+00  0.1073613E+02  0.1073418E+02  0.2700939E+03
Ar   66  0.2250692E+01  0.1390070E+02  0.1086690E+02  0.8871900E+02
Ar   67  0.2251219E+01  0.1086423E+02  0.1390217E+02  0.8693197E+02
Ar   68  0.3776182E+02  0.1346461E+02  0.1346498E+02  0.4515829E+03
Ar   69  0.3754081E+02  0.1080066E+02  0.1628400E+02  0.1138577E+03
Ar   70  0.2529520E+01  0.1318106E+02  0.1634086E+02  0.2929394E+03
Ar   71  0.2296787E+01  0.1074810E+02  0.1884195E+02  0.1356202E+02
Ar   72  0.3755877E+02  0.1363860E+02  0.1851182E+02  0.6200239E+02
Ar   73  0.1138342E+00  0.1142100E+02  0.2146423E+02  0.2500135E+03
Ar   74  0.2856500E+01  0.1380510E+02  0.2194686E+02  0.1091543E+03
Ar   75  0.2799346E+01  0.1083956E+02  0.2391451E+02  0.4167155E+02
Ar   76  0.3283624E+00  0.1346289E+02  0.2437668E+02  0.2216090E+03
Ar   77  0.3158937E+00  0.1074318E+02  0.2681201E+02  0.5689811E+02
Ar   78  0.3155529E+01  0.1365534E+02  0.2677062E+02  0.4271369E+02
Ar   79  0.3027020E+01  0.1087728E+02  0.2956684E+02  0.1457455E+03
Ar   80  0.1852294E+00  0.1361038E+02  0.2933085E+02  0.9950815E+02
Ar   81  0.1069865E+00  0.1127861E+02  0.3211515E+02  0.1981893E+02
Ar   82  0.3102947E+01  0.1347865E+02  0.3222241E+02  0.1620864E+03
Ar   83  0.2473905E+01  0.1106586E+02  0.3467676E+02  0.3031119E+02
Ar   84  0.3775189E+02  0.1359875E+02  0.3489908E+02  0.1029980E+03
Ar   85  0.9631890E-01  0.1645106E+02  0.9655929E-01  0.7026205E+03
Ar   86  0.3043652E+01  0.1911149E+02  0.3725177E+02  0.7444707E+01
Ar   87  0.2778511E+01  0.1707169E+02  0.2778359E+01  0.1150118E+03
Ar   88  0.3725133E+02  0.1911114E+02  0.3043981E+01  0.7479430E+01
Ar   89  0.3743314E+02  0.1656877E+02  0.5569776E+01  0.2281787E+03
Ar   90  0.2680024E+01  0.1926660E+02  0.5642799E+01  0.2144677E+03
Ar   91  0.2366318E+01  0.1656684E+02  0.8296312E+01  0.4640748E+02
Ar   92  0.3751054E+02  0.1922725E+02  0.8150456E+01  0.5256546E+03
Ar   93  0.3754192E+02  0.1628430E+02  0.1080011E+02  0.1136016E+03
Ar   94  0.2296887E+01  0.1884139E+02  0.1074808E+02  0.1391445E+02
Ar   95  0.2529252E+01  0.1634221E+02  0.1318324E+02  0.2951411E+03
Ar   96  0.3755821E+02  0.1851197E+02  0.1363907E+02  0.6198482E+02
Ar   97  0.3756172E+02  0.1574874E+02  0.1574866E+02  0.1530606E+03
Ar   98  0.3137382E+01  0.1893287E+02  0.1610414E+02  0.2664530E+03
Ar   99  0.3136890E+01  0.1610562E+02  0.1893185E+02  0.2661600E+03
Ar  100  0.7126026E+00  0.1884074E+02  0.1883977E+02  0.1889434E+03
Ar  101  0.1272107E+00  0.1626335E+02  0.2158284E+02  0.4623229E+03
Ar  102  0.2858774E+01  0.1871171E+02  0.2152096E+02  0.3950601E+02
Ar  103  0.3211841E+01  0.1616155E+02  0.2448751E+02  0.4802705E+02
Ar  104  0.3762818E+02  0.1898703E+02  0.2392292E+02  0.4368845E+02
Ar  105  0.7074297E-01  0.1613688E+02  0.2669871E+02  0.2499829E+03
Ar  106  0.2372418E+01  0.1861747E+02  0.2683568E+02  0.1366947E+03
Ar  107  0.2851832E+01  0.1600785E+02  0.2943689E+02  0.4449314E+03
Ar  108  0.3540132E+00  0.1879970E+02  0.2961182E+02  0.3257240E+02
Ar  109  0.3465348E+00  0.1654838E+02  0.3248820E+02  0.1287975E+03
Ar  110  0.2746286E+01  0.1899769E+02  0.3208556E+02  0.1015819E+03
Ar  111  0.2897514E+01  0.1617868E+02  0.3518904E+02  0.1390499E+02
Ar  112  0.1043458E+00  0.1938284E+02  0.3494441E+02  0.2082571E+03
Ar  113  0.3774121E+02  0.2181647E+02  0.3774078E+02  0.8076696E+02
Ar  114  0.2736900E+01  0.2335740E+02  0.3774626E+02  0.8885336E+02
Ar  115  0.2625226E+01  0.2073499E+02  0.2625945E+01  0.1926451E+03
Ar  116  0.3774616E+02  0.2335707E+02  0.2736788E+01  0.8875979E+02
Ar  117  0.3771947E+02  0.2154536E+02  0.5772502E+01  0.2900042E+03
Ar  118  0.2406353E+01  0.2417687E+02  0.5134943E+01  0.2510502E+03
Ar  119  0.2679512E+01  0.2148381E+02  0.7988313E+01  0.5898202E+02
Ar  120  0.1951644E+00  0.2399043E+02  0.8788028E+01  0.7992593E+02
Ar  121  0.1140240E+00  0.2146406E+02  0.1142057E+02  0.2499207E+03
Ar  122  0.2799088E+01  0.2391429E+02  0.1083922E+02  0.4124761E+02
Ar  123  0.2856848E+01  0.2194697E+02  0.1380454E+02  0.1083634E+03
Ar  124  0.3284511E+00  0.2437700E+02  0.1346251E+02  0.2208163E+03
Ar  125  0.1273654E+00  0.2158429E+02  0.1626380E+02  0.4630711E+03
Ar  126  0.3212105E+01  0.2448770E+02  0.1616129E+02  0.4806353E+02
Ar  127  0.2859135E+01  0.2152111E+02  0.1871157E+02  0.3975293E+02
Ar  128  0.3762809E+02  0.2392269E+02  0.1898765E+02  0.4350924E+02
Ar  129  0.3776690E+02  0.2173148E+02  0.2173210E+02  0.2052599E+03
Ar  130  0.3004821E+01  0.2427795E+02  0.2142204E+02  0.1385194E+03
Ar  131  0.3004895E+01  0.2142318E+02  0.2427995E+02  0.1394360E+03
Ar  132  0.4011151E+00  0.2413099E+02  0.2413102E+02  0.3835799E+03
Ar  133  0.3760406E+02  0.2155788E+02  0.2702415E+02  0.2373309E+02
Ar  134  0.3396895E+01  0.2392571E+02  0.2690456E+02  0.1068873E+03
Ar  135  0.3206614E+01  0.2138291E+02  0.2949388E+02  0.2026728E+03
Ar  136  0.1816779E+00  0.2432496E+02  0.2949994E+02  0.9769226E+02
Ar  137  0.1275891E+00  0.2163519E+02  0.3201755E+02  0.4673947E+02
Ar  138  0.3217668E+01  0.2418445E+02  0.3232955E+02  0.1436891E+03
Ar  139  0.2906356E+01  0.2126827E+02  0.3462170E+02  0.1213361E+03
Ar  140  0.3763151E+02  0.2385351E+02  0.3495425E+02  0.1389513E+03
Ar  141  0.1461185E+00  0.2643534E+02  0.1456935E+00  0.2427457E+03
Ar  142  0.2880760E+01  0.2934593E+02  0.3745014E+02  0.1962058E+03
Ar  143  0.2501715E+01  0.2750083E+02  0.2500953E+01  0.9609344E+02
Ar  144  0.3745130E+02  0.2934499E+02  0.2880705E+01  0.1960305E+03
Ar  145  0.3772274E+02  0.2712041E+02  0.5504731E+01  0.1454094E+03
Ar  146  0.2482571E+01  0.2988345E+02  0.5657779E+01  0.1340671E+03
Ar  147  0.2628692E+01  0.2669121E+02  0.7874628E+01  0.3983894E+03
Ar  148  0.1397842E+00  0.2965776E+02  0.8406578E+01  0.8759608E+02
Ar  149  0.3162202E+00  0.2681136E+02  0.1074357E+02  0.5595451E+02
Ar  150  0.3026367E+01  0.2956601E+02  0.1087887E+02  0.1451594E+03
Ar  151  0.3155208E+01  0.2677053E+02  0.1365567E+02  0.4277806E+02
Ar  152  0.1854105E+00  0.2933277E+02  0.1361028E+02  0.9948486E+02
Ar  153  0.7112805E-01  0.2669842E+02  0.1613668E+02  0.2504232E+03
Ar  154  0.2852369E+01  0.2943791E+02  0.1600810E+02  0.4441815E+03
Ar  155  0.2372838E+01  0.2683601E+02  0.1861756E+02  0.1364561E+03
Ar  156  0.3541065E+00  0.2961196E+02  0.1879835E+02  0.3254197E+02
Ar  157  0.3760376E+02  0.2702397E+02  0.2155837E+02  0.2361865E+02
Ar  158  0.3206479E+01  0.2949390E+02  0.2138305E+02  0.2031027E+03
Ar  159  0.3395608E+01  0.2690488E+02  0.2392553E+02  0.1046703E+03
Ar  160  0.1828082E+00  0.2950009E+02  0.2432609E+02  0.9745865E+02
Ar  161  0.1410249E+00  0.2680610E+02  0.2680590E+02  0.2945297E+02
Ar  162  0.3036734E+01  0.3003815E+02  0.2682937E+02  0.8392487E+02
Ar  163  0.3036134E+01  0.2682754E+02  0.3003846E+02  0.8434297E+02
Ar  164  0.1222478E+00  0.2950163E+02  0.2949730E+02  0.1814328E+03
Ar  165  0.3752486E+02  0.2654599E+02  0.3217259E+02  0.1136828E+03
Ar  166  0.3211633E+01  0.2957733E+02  0.3221890E+02  0.2652469E+03
Ar  167  0.2936110E+01  0.2655686E+02  0.3507152E+02  0.1472779E+03
Ar  168  0.1036155E+00  0.2877193E+02  0.3521639E+02  0.2992378E+03
Ar  169  0.1609638E+00  0.3235185E+02  0.1614539E+00  0.9965631E+01
Ar  170  0.2190430E+01  0.3496664E+02  0.3741475E+02  0.2298858E+03
Ar  171  0.2732494E+01  0.3188410E+02  0.2732826E+01  0.9860516E+02
Ar  172  0.3741165E+02  0.3496638E+02  0.2188939E+01  0.2286287E+03
Ar  173  0.3771383E+02  0.3254592E+02  0.5225681E+01  0.2385425E+03
Ar  174  0.2809221E+01  0.3472749E+02  0.5269040E+01  0.9697430E+03
Ar  175  0.2907060E+01  0.3264571E+02  0.7989739E+01  0.1187918E+03
Ar  176  0.1210845E+00  0.3515500E+02  0.7993131E+01  0.5676306E+02
Ar  177  0.1056198E+00  0.3211667E+02  0.1127731E+02  0.1980818E+02
Ar  178  0.2473665E+01  0.3467785E+02  0.1106672E+02  0.3022106E+02
Ar  179  0.3103867E+01  0.3222183E+02  0.1347697E+02  0.1619143E+03
Ar  180  0.3775273E+02  0.3489844E+02  0.1359978E+02  0.1024766E+03
Ar  181  0.3467998E+00  0.3248888E+02  0.1654902E+02  0.1283460E+03
Ar  182  0.2898367E+01  0.3518835E+02  0.1617880E+02  0.1391789E+02
Ar  183  0.2745955E+01  0.3208493E+02  0.1899794E+02  0.1018237E+03
Ar  184  0.1033443E+00  0.3494329E+02  0.1938472E+02  0.2093750E+03
Ar  185  0.1282076E+00  0.3201711E+02  0.2163595E+02  0.4660712E+02
Ar  186  0.2907356E+01  0.3462106E+02  0.2126791E+02  0.1226325E+03
Ar  187  0.3217779E+01  0.3233068E+02  0.2418671E+02  0.1449965E+03
Ar  188  0.3763088E+02  0.3495465E+02  0.2385394E+02  0.1384285E+03
Ar  189  0.3752621E+02  0.3217158E+02  0.2654731E+02  0.1143082E+03
Ar  190  0.2935082E+01  0.3507332E+02  0.2655567E+02  0.1465783E+03
Ar  191  0.3213297E+01  0.3221575E+02  0.2957630E+02  0.2655093E+03
Ar  192  0.1031223E+00  0.3521687E+02  0.2877058E+02  0.3000095E+03
Ar  193  0.3151970E-01  0.3231320E+02  0.3231925E+02  0.1250958E+02
Ar  194  0.2672947E+01  0.3513694E+02  0.3208274E+02  0.6677354E+02
Ar  195  0.2672028E+01  0.3208456E+02  0.3513322E+02  0.6767246E+02
Ar  196  0.3741625E+02  0.3494026E+02  0.3494242E+02  0.8111967E+03
Ar  197  0.5002316E+01  0.3760596E+02  0.3760719E+02  0.1093507E+04
Ar  198  0.7911283E+01  0.2747886E+01  0.3775744E+02  0.4278304E+03
Ar  199  0.7912492E+01  0.3776041E+02  0.2749284E+01  0.4260823E+03
Ar  200  0.5397228E+01  0.2585403E+01  0.2586132E+01  0.3067661E+03
Ar  201  0.5705796E+01  0.1030329E+00  0.5704985E+01  0.7688039E+01
Ar  202  0.8023166E+01  0.2716883E+01  0.5167576E+01  0.2297923E+03
Ar  203  0.8065540E+01  0.9123837E-01  0.8064992E+01  0.2447354E+03
Ar  204  0.5168297E+01  0.2715983E+01  0.8023196E+01  0.2309480E+03
Ar  205  0.5795137E+01  0.2913526E+00  0.1105355E+02  0.1395264E+03
Ar  206  0.7922314E+01  0.2898597E+01  0.1072640E+02  0.1360173E+03
Ar  207  0.7969554E+01  0.3748952E+02  0.1379824E+02  0.2656020E+03
Ar  208  0.5731954E+01  0.2734318E+01  0.1408702E+02  0.4340398E+02
Ar  209  0.5568997E+01  0.3743316E+02  0.1656994E+02  0.2279114E+03
Ar  210  0.8295587E+01  0.2365274E+01  0.1656882E+02  0.4669321E+02
Ar  211  0.8149886E+01  0.3750995E+02  0.1922868E+02  0.5242207E+03
Ar  212  0.5642647E+01  0.2679848E+01  0.1926835E+02  0.2154013E+03
Ar  213  0.5771584E+01  0.3771910E+02  0.2154627E+02  0.2897714E+03
Ar  214  0.7989538E+01  0.2679692E+01  0.2148395E+02  0.5873640E+02
Ar  215  0.8788571E+01  0.1954506E+00  0.2398999E+02  0.7978842E+02
Ar  216  0.5135706E+01  0.2406737E+01  0.2417729E+02  0.2512494E+03
Ar  217  0.5504389E+01  0.3772291E+02  0.2712221E+02  0.1478895E+03
Ar  218  0.7874212E+01  0.2628537E+01  0.2669111E+02  0.3977953E+03
Ar  219  0.8403799E+01  0.1397800E+00  0.2966292E+02  0.8821306E+02
Ar  220  0.5656445E+01  0.2486944E+01  0.2988250E+02  0.1339691E+03
Ar  221  0.5223114E+01  0.3771506E+02  0.3254813E+02  0.2378203E+03
Ar  222  0.7993167E+01  0.2909278E+01  0.3264291E+02  0.1228341E+03
Ar  223  0.7994711E+01  0.1206745E+00  0.3515375E+02  0.5547823E+02
Ar  224  0.5270835E+01  0.2807619E+01  0.3472511E+02  0.9744560E+03
Ar  225  0.5701247E+01  0.5701337E+01  0.1011848E+00  0.7321376E+01
Ar  226  0.8062393E+01  0.8062724E+01  0.8957865E-01  0.2397812E+03
Ar  227  0.8021989E+01  0.5165364E+01  0.2713145E+01  0.2322705E+03
Ar  228  0.5166107E+01  0.8022217E+01  0.2714372E+01  0.2305353E+03
Ar  229  0.5628863E+01  0.5629638E+01  0.5628815E+01  0.9076717E+02
Ar  230  0.8132955E+01  0.8131148E+01  0.5034005E+01  0.3338468E+03
Ar  231  0.8130900E+01  0.5032380E+01  0.8131705E+01  0.3348898E+03
Ar  232  0.5034725E+01  0.8131043E+01  0.8133496E+01  0.3335910E+03
Ar  233  0.5499815E+01  0.5499137E+01  0.1124223E+02  0.1240969E+03
Ar  234  0.7957451E+01  0.7959773E+01  0.1101275E+02  0.2176486E+02
Ar  235  0.7909686E+01  0.5444639E+01  0.1368627E+02  0.1044030E+03
Ar  236  0.5444953E+01  0.7908882E+01  0.1368638E+02  0.1044126E+03
Ar  237  0.5397053E+01  0.5396550E+01  0.1678714E+02  0.1279209E+03
Ar  238  0.8081470E+01  0.8081891E+01  0.1657552E+02  0.2227894E+03
Ar  239  0.8375739E+01  0.5219280E+01  0.1879985E+02  0.4104254E+03
Ar  240  0.5218580E+01  0.8374539E+01  0.1880005E+02  0.4099611E+03
Ar  241  0.5208265E+01  0.5209571E+01  0.2192519E+02  0.5284661E+03
Ar  242  0.7898682E+01  0.7899520E+01  0.2213306E+02  0.7805868E+01
Ar  243  0.7825666E+01  0.5405841E+01  0.2429337E+02  0.1986995E+03
Ar  244  0.5406067E+01  0.7825938E+01  0.2429415E+02  0.1983089E+03
Ar  245  0.5375869E+01  0.5375528E+01  0.2700329E+02  0.1639089E+03
Ar  246  0.7805854E+01  0.7805986E+01  0.2680958E+02  0.1451878E+03
Ar  247  0.7978059E+01  0.5390056E+01  0.2975937E+02  0.7575518E+02
Ar  248  0.5389984E+01  0.7977480E+01  0.2975935E+02  0.7564618E+02
Ar  249  0.5267287E+01  0.5267652E+01  0.3213441E+02  0.3254188E+03
Ar  250  0.8108772E+01  0.8108887E+01  0.3210904E+02  0.5860347E+02
Ar  251  0.8342734E+01  0.5340853E+01  0.3552829E+02  0.2805653E+03
Ar  252  0.5340113E+01  0.8341353E+01  0.3552715E+02  0.2823071E+03
Ar  253  0.5796466E+01  0.1105430E+02  0.2925193E+00  0.1403164E+03
Ar  254  0.7969672E+01  0.1379861E+02  0.3748940E+02  0.2656326E+03
Ar  255  0.7922258E+01  0.1072558E+02  0.2900686E+01  0.1368297E+03
Ar  256  0.5732119E+01  0.1408502E+02  0.2734155E+01  0.4344202E+02
Ar  257  0.5496653E+01  0.1124041E+02  0.5498093E+01  0.1264282E+03
Ar  258  0.7908286E+01  0.1368609E+02  0.5444460E+01  0.1035449E+03
Ar  259  0.7959180E+01  0.1101542E+02  0.7958427E+01  0.2318818E+02
Ar  260  0.5444312E+01  0.1368656E+02  0.7909009E+01  0.1037196E+03
Ar  261  0.5490544E+01  0.1082166E+02  0.1081977E+02  0.5137934E+02
Ar  262  0.7820435E+01  0.1342176E+02  0.1040726E+02  0.6324187E+02
Ar  263  0.7818960E+01  0.1040558E+02  0.1342080E+02  0.6315794E+02
Ar  264  0.6062717E+01  0.1344217E+02  0.1344398E+02  0.4874338E+03
Ar  265  0.5312982E+01  0.1097975E+02  0.1612343E+02  0.1471384E+03
Ar  266  0.7817828E+01  0.1347028E+02  0.1630667E+02  0.1577075E+03
Ar  267  0.7951793E+01  0.1102012E+02  0.1928967E+02  0.8786158E+03
Ar  268  0.5206680E+01  0.1333841E+02  0.1932010E+02  0.1008608E+03
Ar  269  0.5373416E+01  0.1090223E+02  0.2179647E+02  0.9926664E+02
Ar  270  0.7957587E+01  0.1364850E+02  0.2144522E+02  0.8980431E+02
Ar  271  0.7745989E+01  0.1056082E+02  0.2428659E+02  0.2867066E+03
Ar  272  0.5511730E+01  0.1364030E+02  0.2414839E+02  0.8660624E+02
Ar  273  0.5131034E+01  0.1042667E+02  0.2701660E+02  0.1209922E+03
Ar  274  0.7953324E+01  0.1323708E+02  0.2699284E+02  0.6818096E+02
Ar  275  0.7503672E+01  0.1048717E+02  0.2936797E+02  0.1052867E+02
Ar  276  0.5648490E+01  0.1372494E+02  0.2939347E+02  0.2122229E+03
Ar  277  0.5715235E+01  0.1058625E+02  0.3286125E+02  0.1302840E+03
Ar  278  0.7761668E+01  0.1316428E+02  0.3218056E+02  0.3458358E+03
Ar  279  0.8377428E+01  0.1093803E+02  0.3547782E+02  0.4605369E+02
Ar  280  0.5543815E+01  0.1336196E+02  0.3494965E+02  0.3979316E+01
Ar  281  0.5569730E+01  0.1656930E+02  0.3743252E+02  0.2277149E+03
Ar  282  0.8149839E+01  0.1922764E+02  0.3751002E+02  0.5249866E+03
Ar  283  0.8296219E+01  0.1656700E+02  0.2365997E+01  0.4637503E+02
Ar  284  0.5642476E+01  0.1926723E+02  0.2680058E+01  0.2143268E+03
Ar  285  0.5398113E+01  0.1678682E+02  0.5397908E+01  0.1274797E+03
Ar  286  0.8375932E+01  0.1880042E+02  0.5219713E+01  0.4093270E+03
Ar  287  0.8082415E+01  0.1657564E+02  0.8081508E+01  0.2233878E+03
Ar  288  0.5220064E+01  0.1880062E+02  0.8376738E+01  0.4095271E+03
Ar  289  0.5312011E+01  0.1612266E+02  0.1098147E+02  0.1463000E+03
Ar  290  0.7954958E+01  0.1928515E+02  0.1101888E+02  0.8794832E+03
Ar  291  0.7818503E+01  0.1630205E+02  0.1347226E+02  0.1582269E+03
Ar  292  0.5206757E+01  0.1932035E+02  0.1333711E+02  0.1006940E+03
Ar  293  0.4817926E+01  0.1557223E+02  0.1557228E+02  0.4029235E+03
Ar  294  0.7832827E+01  0.1872414E+02  0.1628622E+02  0.3469857E+03
Ar  295  0.7832293E+01  0.1628700E+02  0.1872412E+02  0.3476071E+03
Ar  296  0.5167393E+01  0.1896052E+02  0.1895990E+02  0.2818162E+03
Ar  297  0.5703161E+01  0.1666873E+02  0.2152394E+02  0.3335171E+03
Ar  298  0.8419327E+01  0.1853141E+02  0.2133674E+02  0.8318184E+02
Ar  299  0.8012662E+01  0.1629994E+02  0.2422778E+02  0.3220494E+03
Ar  300  0.5364560E+01  0.1908675E+02  0.2421165E+02  0.1676835E+02
Ar  301  0.5619492E+01  0.1653113E+02  0.2706572E+02  0.3155489E+03
Ar  302  0.8335061E+01  0.1898344E+02  0.2706216E+02  0.5793454E+02
Ar  303  0.8349884E+01  0.1620488E+02  0.3018254E+02  0.2226415E+02
Ar  304  0.5831505E+01  0.1890590E+02  0.2995186E+02  0.1004573E+03
Ar  305  0.5626939E+01  0.1615463E+02  0.3257805E+02  0.1383303E+03
Ar  306  0.8441046E+01  0.1889558E+02  0.3230752E+02  0.1353471E+03
Ar  307  0.8347752E+01  0.1638027E+02  0.3489057E+02  0.1353462E+03
Ar  308  0.5410866E+01  0.1920610E+02  0.3468066E+02  0.1676656E+03
Ar  309  0.5772276E+01  0.2154547E+02  0.3771958E+02  0.2894919E+03
Ar  310  0.8787850E+01  0.2399070E+02  0.1948053E+00  0.8014911E+02
Ar  311  0.7988792E+01  0.2148355E+02  0.2679075E+01  0.5926114E+02
Ar  312  0.5135484E+01  0.2417634E+02  0.2406074E+01  0.2514408E+03
Ar  313  0.5210515E+01  0.2192366E+02  0.5210119E+01  0.5297756E+03
Ar  314  0.7826093E+01  0.2429403E+02  0.5405981E+01  0.1978540E+03
Ar  315  0.7898946E+01  0.2213350E+02  0.7898454E+01  0.8089807E+01
Ar  316  0.5406171E+01  0.2429392E+02  0.7825775E+01  0.1978314E+03
Ar  317  0.5373108E+01  0.2179767E+02  0.1090167E+02  0.1000488E+03
Ar  318  0.7746191E+01  0.2428597E+02  0.1056058E+02  0.2862177E+03
Ar  319  0.7958384E+01  0.2144494E+02  0.1364758E+02  0.8933253E+02
Ar  320  0.5511463E+01  0.2414876E+02  0.1363928E+02  0.8652633E+02
Ar  321  0.5703403E+01  0.2152382E+02  0.1666784E+02  0.3327146E+03
Ar  322  0.8011358E+01  0.2422838E+02  0.1629982E+02  0.3219442E+03
Ar  323  0.8418479E+01  0.2133601E+02  0.1853157E+02  0.8321190E+02
Ar  324  0.5364955E+01  0.2421122E+02  0.1908679E+02  0.1656745E+02
Ar  325  0.5596865E+01  0.2146774E+02  0.2146820E+02  0.4448051E+02
Ar  326  0.7995352E+01  0.2409922E+02  0.2150655E+02  0.3885900E+03
Ar  327  0.7995354E+01  0.2150643E+02  0.2409920E+02  0.3883957E+03
Ar  328  0.5268129E+01  0.2370287E+02  0.2370332E+02  0.5333792E+03
Ar  329  0.5702629E+01  0.2146507E+02  0.2705139E+02  0.1878598E+03
Ar  330  0.8107055E+01  0.2435119E+02  0.2717864E+02  0.2986533E+03
Ar  331  0.7855554E+01  0.2180306E+02  0.2976288E+02  0.2357450E+03
Ar  332  0.5584530E+01  0.2437503E+02  0.2954234E+02  0.2022821E+03
Ar  333  0.5511804E+01  0.2187629E+02  0.3243163E+02  0.2256875E+02
Ar  334  0.8068057E+01  0.2416832E+02  0.3242445E+02  0.3249344E+03
Ar  335  0.8275775E+01  0.2166266E+02  0.3508226E+02  0.6091001E+02
Ar  336  0.5892390E+01  0.2409120E+02  0.3538861E+02  0.1527043E+03
Ar  337  0.5504186E+01  0.2711996E+02  0.3772223E+02  0.1460316E+03
Ar  338  0.8407115E+01  0.2965639E+02  0.1394417E+00  0.8770087E+02
Ar  339  0.7873426E+01  0.2669091E+02  0.2628655E+01  0.3979993E+03
Ar  340  0.5657614E+01  0.2988396E+02  0.2481920E+01  0.1342417E+03
Ar  341  0.5375425E+01  0.2700357E+02  0.5376012E+01  0.1639351E+03
Ar  342  0.7975931E+01  0.2976060E+02  0.5388330E+01  0.7581022E+02
Ar  343  0.7805534E+01  0.2681007E+02  0.7805579E+01  0.1447085E+03
Ar  344  0.5388170E+01  0.2976097E+02  0.7976890E+01  0.7572683E+02
Ar  345  0.5131172E+01  0.2701700E+02  0.1042652E+02  0.1208541E+03
Ar  346  0.7503806E+01  0.2936895E+02  0.1048516E+02  0.1076885E+02
Ar  347  0.7953030E+01  0.2699334E+02  0.1323548E+02  0.6781890E+02
Ar  348  0.5647344E+01  0.2939308E+02  0.1372484E+02  0.2127401E+03
Ar  349  0.5619238E+01  0.2706646E+02  0.1653047E+02  0.3152597E+03
Ar  350  0.8349135E+01  0.3018222E+02  0.1620546E+02  0.2221294E+02
Ar  351  0.8335522E+01  0.2706215E+02  0.1898310E+02  0.5778124E+02
Ar  352  0.5831220E+01  0.2995170E+02  0.1890511E+02  0.1004821E+03
Ar  353  0.5702866E+01  0.2705162E+02  0.2146534E+02  0.1879758E+03
Ar  354  0.7855811E+01  0.2976320E+02  0.2180410E+02  0.2348288E+03
Ar  355  0.8106840E+01  0.2717857E+02  0.2435203E+02  0.2991788E+03
Ar  356  0.5584094E+01  0.2954127E+02  0.2437519E+02  0.2013722E+03
Ar  357  0.5309985E+01  0.2689396E+02  0.2689314E+02  0.3278737E+03
Ar  358  0.8050021E+01  0.2945625E+02  0.2695786E+02  0.1973702E+03
Ar  359  0.8049896E+01  0.2695735E+02  0.2945595E+02  0.1979440E+03
Ar  360  0.5797731E+01  0.2932678E+02  0.2932674E+02  0.1225700E+03
Ar  361  0.5754176E+01  0.2691251E+02  0.3240473E+02  0.2510513E+02
Ar  362  0.7837550E+01  0.2922219E+02  0.3271847E+02  0.1292651E+03
Ar  363  0.8624711E+01  0.2687397E+02  0.3525846E+02  0.1033481E+03
Ar  364  0.5666157E+01  0.2970513E+02  0.3530812E+02  0.1925647E+03
Ar  365  0.5222223E+01  0.3254677E+02  0.3771347E+02  0.2375641E+03
Ar  366  0.7992054E+01  0.3515390E+02  0.1203077E+00  0.5654277E+02
Ar  367  0.7989214E+01  0.3264523E+02  0.2906569E+01  0.1193806E+03
Ar  368  0.5268519E+01  0.3472622E+02  0.2808299E+01  0.9677084E+03
Ar  369  0.5267484E+01  0.3213182E+02  0.5267815E+01  0.3250625E+03
Ar  370  0.8341137E+01  0.3552727E+02  0.5341192E+01  0.2809865E+03
Ar  371  0.8107589E+01  0.3211159E+02  0.8107185E+01  0.5835456E+02
Ar  372  0.5342129E+01  0.3552781E+02  0.8341087E+01  0.2800961E+03
Ar  373  0.5715009E+01  0.3286230E+02  0.1058673E+02  0.1311293E+03
Ar  374  0.8376732E+01  0.3547837E+02  0.1093693E+02  0.4613313E+02
Ar  375  0.7761764E+01  0.3217965E+02  0.1316411E+02  0.3466337E+03
Ar  376  0.5544371E+01  0.3494966E+02  0.1336333E+02  0.3952539E+01
Ar  377  0.5626526E+01  0.3257789E+02  0.1615457E+02  0.1383556E+03
Ar  378  0.8347349E+01  0.3489083E+02  0.1638089E+02  0.1349731E+03
Ar  379  0.8440896E+01  0.3230780E+02  0.1889570E+02  0.1353420E+03
Ar  380  0.5411042E+01  0.3468058E+02  0.1920571E+02  0.1674383E+03
Ar  381  0.5510767E+01  0.3243133E+02  0.2187666E+02  0.2255761E+02
Ar  382  0.8275196E+01  0.3508220E+02  0.2166357E+02  0.5975966E+02
Ar  383  0.8068090E+01  0.3242424E+02  0.2416828E+02  0.3258852E+03
Ar  384  0.5892755E+01  0.3538936E+02  0.2409304E+02  0.1520659E+03
Ar  385  0.5755530E+01  0.3240468E+02  0.2691433E+02  0.2620532E+02
Ar  386  0.8624919E+01  0.3525745E+02  0.2687319E+02  0.1027146E+03
Ar  387  0.7842106E+01  0.3271591E+02  0.2922514E+02  0.1333511E+03
Ar  388  0.5663947E+01  0.3530475E+02  0.2970023E+02  0.1973090E+03
Ar  389  0.5590209E+01  0.3243332E+02  0.3243492E+02  0.5126935E+02
Ar  390  0.7947691E+01  0.3508397E+02  0.3253709E+02  0.3683237E+03
Ar  391  0.7947371E+01  0.3253841E+02  0.3508345E+02  0.3670774E+03
Ar  392  0.5003750E+01  0.3484918E+02  0.3484668E+02  0.6736085E+02
Ar  393  0.1124083E+02  0.3771078E+02  0.3771142E+02  0.5433126E+02
Ar  394  0.1400308E+02  0.3141412E+01  0.2328546E+00  0.1852766E+03
Ar  395  0.1400333E+02  0.2321552E+00  0.3140117E+01  0.1847190E+03
Ar  396  0.1111537E+02  0.2819758E+01  0.2819518E+01  0.4132497E+02
Ar  397  0.1105344E+02  0.2914087E+00  0.5794654E+01  0.1393686E+03
Ar  398  0.1408573E+02  0.2734155E+01  0.5732163E+01  0.4344459E+02
Ar  399  0.1379815E+02  0.3748972E+02  0.7968929E+01  0.2651115E+03
Ar  400  0.1072458E+02  0.2897758E+01  0.7922091E+01  0.1351798E+03
Ar  401  0.1073618E+02  0.2794499E+00  0.1073572E+02  0.2696244E+03
Ar  402  0.1390167E+02  0.2250914E+01  0.1086531E+02  0.8859116E+02
Ar  403  0.1346512E+02  0.3776185E+02  0.1346511E+02  0.4523302E+03
Ar  404  0.1086403E+02  0.2251280E+01  0.1390177E+02  0.8768344E+02
Ar  405  0.1080084E+02  0.3754147E+02  0.1628381E+02  0.1134552E+03
Ar  406  0.1318149E+02  0.2529339E+01  0.1634082E+02  0.2940251E+03
Ar  407  0.1363867E+02  0.3755918E+02  0.1851154E+02  0.6179026E+02
Ar  408  0.1074822E+02  0.2296597E+01  0.1884167E+02  0.1362509E+02
Ar  409  0.1142050E+02  0.1138266E+00  0.2146378E+02  0.2498265E+03
Ar  410  0.1380575E+02  0.2857241E+01  0.2194664E+02  0.1087607E+03
Ar  411  0.1346280E+02  0.3279272E+00  0.2437653E+02  0.2214057E+03
Ar  412  0.1084007E+02  0.2798919E+01  0.2391498E+02  0.4158084E+02
Ar  413  0.1074295E+02  0.3156363E+00  0.2681200E+02  0.5697131E+02
Ar  414  0.1365509E+02  0.3156252E+01  0.2677049E+02  0.4307020E+02
Ar  415  0.1361034E+02  0.1855729E+00  0.2933063E+02  0.9956737E+02
Ar  416  0.1087652E+02  0.3025500E+01  0.2956629E+02  0.1444310E+03
Ar  417  0.1128005E+02  0.1078821E+00  0.3211629E+02  0.1990051E+02
Ar  418  0.1347731E+02  0.3104021E+01  0.3222189E+02  0.1622373E+03
Ar  419  0.1360002E+02  0.3775249E+02  0.3489921E+02  0.1025069E+03
Ar  420  0.1106777E+02  0.2474259E+01  0.3467837E+02  0.2976193E+02
Ar  421  0.1105384E+02  0.5795457E+01  0.2931334E+00  0.1401794E+03
Ar  422  0.1379845E+02  0.7969741E+01  0.3748966E+02  0.2651245E+03
Ar  423  0.1408744E+02  0.5732587E+01  0.2733886E+01  0.4357656E+02
Ar  424  0.1072586E+02  0.7921143E+01  0.2900022E+01  0.1372572E+03
Ar  425  0.1124076E+02  0.5498606E+01  0.5500333E+01  0.1236507E+03
Ar  426  0.1368589E+02  0.7908846E+01  0.5444745E+01  0.1042111E+03
Ar  427  0.1368551E+02  0.5444885E+01  0.7910014E+01  0.1044068E+03
Ar  428  0.1101313E+02  0.7961150E+01  0.7957538E+01  0.2185833E+02
Ar  429  0.1082117E+02  0.5489307E+01  0.1081963E+02  0.5185021E+02
Ar  430  0.1342032E+02  0.7821311E+01  0.1040679E+02  0.6385848E+02
Ar  431  0.1344211E+02  0.6062487E+01  0.1344282E+02  0.4856587E+03
Ar  432  0.1040598E+02  0.7820694E+01  0.1341954E+02  0.6380384E+02
Ar  433  0.1098008E+02  0.5312537E+01  0.1612239E+02  0.1477885E+03
Ar  434  0.1346814E+02  0.7815966E+01  0.1630543E+02  0.1558727E+03
Ar  435  0.1333721E+02  0.5206711E+01  0.1932007E+02  0.1009449E+03
Ar  436  0.1101788E+02  0.7953884E+01  0.1928922E+02  0.8800710E+03
Ar  437  0.1090261E+02  0.5373242E+01  0.2179592E+02  0.9944991E+02
Ar  438  0.1364857E+02  0.7957788E+01  0.2144461E+02  0.8952540E+02
Ar  439  0.1364002E+02  0.5512388E+01  0.2414812E+02  0.8633456E+02
Ar  440  0.1056086E+02  0.7745966E+01  0.2428577E+02  0.2868542E+03
Ar  441  0.1042640E+02  0.5130815E+01  0.2701681E+02  0.1210707E+03
Ar  442  0.1323682E+02  0.7952999E+01  0.2699332E+02  0.6913300E+02
Ar  443  0.1372578E+02  0.5648329E+01  0.2939410E+02  0.2132087E+03
Ar  444  0.1048667E+02  0.7504347E+01  0.2936765E+02  0.1049837E+02
Ar  445  0.1058691E+02  0.5716849E+01  0.3286180E+02  0.1307127E+03
Ar  446  0.1316482E+02  0.7761933E+01  0.3218007E+02  0.3443414E+03
Ar  447  0.1336301E+02  0.5544594E+01  0.3494930E+02  0.4042570E+01
Ar  448  0.1093841E+02  0.8377973E+01  0.3547820E+02  0.4588601E+02
Ar  449  0.1073503E+02  0.1073554E+02  0.2812930E+00  0.2696725E+03
Ar  450  0.1346445E+02  0.1346444E+02  0.3776168E+02  0.4510708E+03
Ar  451  0.1390173E+02  0.1086499E+02  0.2251772E+01  0.8821036E+02
Ar  452  0.1086680E+02  0.1390057E+02  0.2251200E+01  0.8938989E+02
Ar  453  0.1082056E+02  0.1082095E+02  0.5490943E+01  0.5150017E+02
Ar  454  0.1344438E+02  0.1344373E+02  0.6063469E+01  0.4865703E+03
Ar  455  0.1342225E+02  0.1040612E+02  0.7819135E+01  0.6331889E+02
Ar  456  0.1040672E+02  0.1342272E+02  0.7819944E+01  0.6348201E+02
Ar  457  0.1085375E+02  0.1084947E+02  0.1085506E+02  0.9600587E+03
Ar  458  0.1327096E+02  0.1326914E+02  0.9994789E+01  0.5260675E+03
Ar  459  0.1326913E+02  0.9994569E+01  0.1327013E+02  0.5233229E+03
Ar  460  0.9994371E+01  0.1326862E+02  0.1327138E+02  0.5249238E+03
Ar  461  0.1053437E+02  0.1053588E+02  0.1564339E+02  0.8805289E+02
Ar  462  0.1325751E+02  0.1325968E+02  0.1582009E+02  0.3751718E+03
Ar  463  0.1361437E+02  0.1087155E+02  0.1850430E+02  0.6174821E+02
Ar  464  0.1087342E+02  0.1361569E+02  0.1850625E+02  0.6160711E+02
Ar  465  0.1082140E+02  0.1082159E+02  0.2212542E+02  0.2331138E+03
Ar  466  0.1359640E+02  0.1359685E+02  0.2143528E+02  0.4534478E+03
Ar  467  0.1335284E+02  0.1026404E+02  0.2461369E+02  0.1724584E+03
Ar  468  0.1026439E+02  0.1335271E+02  0.2461422E+02  0.1728180E+03
Ar  469  0.1053108E+02  0.1053114E+02  0.2716580E+02  0.2656479E+03
Ar  470  0.1363163E+02  0.1363209E+02  0.2685859E+02  0.1793505E+03
Ar  471  0.1345054E+02  0.1080648E+02  0.2956611E+02  0.1945103E+02
Ar  472  0.1080625E+02  0.1345104E+02  0.2956656E+02  0.1937583E+02
Ar  473  0.1096090E+02  0.1096038E+02  0.3238503E+02  0.8275792E+02
Ar  474  0.1347597E+02  0.1347501E+02  0.3214687E+02  0.3113449E+03
Ar  475  0.1373060E+02  0.1068392E+02  0.3485093E+02  0.1310834E+03
Ar  476  0.1068408E+02  0.1373073E+02  0.3485096E+02  0.1308665E+03
Ar  477  0.1079994E+02  0.1628426E+02  0.3754171E+02  0.1138632E+03
Ar  478  0.1363897E+02  0.1851186E+02  0.3755784E+02  0.6218580E+02
Ar  479  0.1318383E+02  0.1634273E+02  0.2529468E+01  0.2953890E+03
Ar  480  0.1074779E+02  0.1884098E+02  0.2296675E+01  0.1399474E+02
Ar  481  0.1098129E+02  0.1612371E+02  0.5311970E+01  0.1463127E+03
Ar  482  0.1333745E+02  0.1932010E+02  0.5207221E+01  0.1007156E+03
Ar  483  0.1347251E+02  0.1630326E+02  0.7818650E+01  0.1581954E+03
Ar  484  0.1101990E+02  0.1928576E+02  0.7954314E+01  0.8789493E+03
Ar  485  0.1053555E+02  0.1564182E+02  0.1053501E+02  0.8545500E+02
Ar  486  0.1361475E+02  0.1850438E+02  0.1087411E+02  0.6173580E+02
Ar  487  0.1325919E+02  0.1581991E+02  0.1325841E+02  0.3744941E+03
Ar  488  0.1087420E+02  0.1850380E+02  0.1361404E+02  0.6181819E+02
Ar  489  0.1044703E+02  0.1646359E+02  0.1646339E+02  0.4757656E+02
Ar  490  0.1363471E+02  0.1863008E+02  0.1597252E+02  0.4124030E+02
Ar  491  0.1363425E+02  0.1597304E+02  0.1863091E+02  0.4149762E+02
Ar  492  0.1156776E+02  0.1896271E+02  0.1896244E+02  0.1359531E+03
Ar  493  0.1095433E+02  0.1574601E+02  0.2126177E+02  0.1861299E+03
Ar  494  0.1346728E+02  0.1851975E+02  0.2162717E+02  0.3404126E+02
Ar  495  0.1369374E+02  0.1626051E+02  0.2423407E+02  0.6367677E+02
Ar  496  0.1096179E+02  0.1889112E+02  0.2451823E+02  0.3853433E+02
Ar  497  0.1059810E+02  0.1612970E+02  0.2688197E+02  0.2328507E+03
Ar  498  0.1355033E+02  0.1860529E+02  0.2684037E+02  0.3288814E+03
Ar  499  0.1333998E+02  0.1634922E+02  0.2953048E+02  0.1316961E+03
Ar  500  0.1083371E+02  0.1915360E+02  0.2957398E+02  0.2748141E+03
Ar  501  0.1104231E+02  0.1671340E+02  0.3234797E+02  0.2504695E+03
Ar  502  0.1375890E+02  0.1926705E+02  0.3220669E+02  0.1622451E+03
Ar  503  0.1357551E+02  0.1610813E+02  0.3482659E+02  0.1681252E+02
Ar  504  0.1096179E+02  0.1906492E+02  0.3534416E+02  0.4907103E+02
Ar  505  0.1142052E+02  0.2146421E+02  0.1141480E+00  0.2493883E+03
Ar  506  0.1346273E+02  0.2437631E+02  0.3285930E+00  0.2208595E+03
Ar  507  0.1380440E+02  0.2194750E+02  0.2856701E+01  0.1086288E+03
Ar  508  0.1083929E+02  0.2391460E+02  0.2799151E+01  0.4130853E+02
Ar  509  0.1090211E+02  0.2179786E+02  0.5372963E+01  0.9975433E+02
Ar  510  0.1363947E+02  0.2414878E+02  0.5511585E+01  0.8681134E+02
Ar  511  0.1364786E+02  0.2144497E+02  0.7958211E+01  0.8929172E+02
Ar  512  0.1056085E+02  0.2428624E+02  0.7745950E+01  0.2861471E+03
Ar  513  0.1082095E+02  0.2212435E+02  0.1082097E+02  0.2344419E+03
Ar  514  0.1335189E+02  0.2461479E+02  0.1026434E+02  0.1719254E+03
Ar  515  0.1359676E+02  0.2143451E+02  0.1359682E+02  0.4517264E+03
Ar  516  0.1026443E+02  0.2461453E+02  0.1335188E+02  0.1718796E+03
Ar  517  0.1095431E+02  0.2126177E+02  0.1574640E+02  0.1873317E+03
Ar  518  0.1369376E+02  0.2423439E+02  0.1625978E+02  0.6426122E+02
Ar  519  0.1346700E+02  0.2162786E+02  0.1851995E+02  0.3388776E+02
Ar  520  0.1096076E+02  0.2451874E+02  0.1889147E+02  0.3817847E+02
Ar  521  0.1122453E+02  0.2132035E+02  0.2132074E+02  0.7631273E+03
Ar  522  0.1359753E+02  0.2396581E+02  0.2147320E+02  0.2157520E+03
Ar  523  0.1359781E+02  0.2147342E+02  0.2396563E+02  0.2160404E+03
Ar  524  0.1100974E+02  0.2379988E+02  0.2379958E+02  0.5778987E+02
Ar  525  0.1049005E+02  0.2177088E+02  0.2694429E+02  0.2559514E+03
Ar  526  0.1359361E+02  0.2404137E+02  0.2722004E+02  0.1079880E+03
Ar  527  0.1339772E+02  0.2112542E+02  0.2922974E+02  0.2291555E+01
Ar  528  0.1075480E+02  0.2418988E+02  0.2980175E+02  0.1021861E+03
Ar  529  0.1065680E+02  0.2179247E+02  0.3261396E+02  0.6741099E+02
Ar  530  0.1360904E+02  0.2361945E+02  0.3219811E+02  0.5766562E+01
Ar  531  0.1392426E+02  0.2119089E+02  0.3511172E+02  0.2426115E+03
Ar  532  0.1088030E+02  0.2407719E+02  0.3505500E+02  0.1480595E+03
Ar  533  0.1074381E+02  0.2681136E+02  0.3162238E+00  0.5586620E+02
Ar  534  0.1360995E+02  0.2933228E+02  0.1851593E+00  0.9931738E+02
Ar  535  0.1365502E+02  0.2677085E+02  0.3155953E+01  0.4265560E+02
Ar  536  0.1087922E+02  0.2956672E+02  0.3026912E+01  0.1457799E+03
Ar  537  0.1042557E+02  0.2701755E+02  0.5131350E+01  0.1210610E+03
Ar  538  0.1372526E+02  0.2939384E+02  0.5647673E+01  0.2127448E+03
Ar  539  0.1323525E+02  0.2699279E+02  0.7952815E+01  0.6745107E+02
Ar  540  0.1048497E+02  0.2936933E+02  0.7504251E+01  0.1097561E+02
Ar  541  0.1053083E+02  0.2716652E+02  0.1053062E+02  0.2663342E+03
Ar  542  0.1345042E+02  0.2956582E+02  0.1080611E+02  0.1953831E+02
Ar  543  0.1363255E+02  0.2685881E+02  0.1363282E+02  0.1791209E+03
Ar  544  0.1080590E+02  0.2956568E+02  0.1345050E+02  0.1955068E+02
Ar  545  0.1059813E+02  0.2688177E+02  0.1612910E+02  0.2333009E+03
Ar  546  0.1334018E+02  0.2952997E+02  0.1634978E+02  0.1314699E+03
Ar  547  0.1355009E+02  0.2684030E+02  0.1860571E+02  0.3302574E+03
Ar  548  0.1083353E+02  0.2957462E+02  0.1915336E+02  0.2742637E+03
Ar  549  0.1049008E+02  0.2694477E+02  0.2177122E+02  0.2559608E+03
Ar  550  0.1339754E+02  0.2923029E+02  0.2112546E+02  0.2379346E+01
Ar  551  0.1359342E+02  0.2722017E+02  0.2404118E+02  0.1080424E+03
Ar  552  0.1075508E+02  0.2980209E+02  0.2419026E+02  0.1020561E+03
Ar  553  0.1074291E+02  0.2627733E+02  0.2627723E+02  0.2622366E+02
Ar  554  0.1333095E+02  0.2965780E+02  0.2660472E+02  0.3664924E+03
Ar  555  0.1333200E+02  0.2660537E+02  0.2965669E+02  0.3656610E+03
Ar  556  0.1059191E+02  0.2939093E+02  0.2939094E+02  0.3820719E+01
Ar  557  0.1081739E+02  0.2663404E+02  0.3219720E+02  0.2444770E+02
Ar  558  0.1345389E+02  0.2892403E+02  0.3250074E+02  0.6983398E+02
Ar  559  0.1321485E+02  0.2697192E+02  0.3518074E+02  0.5787770E+02
Ar  560  0.1078739E+02  0.2946405E+02  0.3478243E+02  0.1442873E+02
Ar  561  0.1127716E+02  0.3211631E+02  0.1050834E+00  0.1981538E+02
Ar  562  0.1359941E+02  0.3489793E+02  0.3775219E+02  0.1022823E+03
Ar  563  0.1347809E+02  0.3222201E+02  0.3102553E+01  0.1617146E+03
Ar  564  0.1106614E+02  0.3467706E+02  0.2473336E+01  0.3021412E+02
Ar  565  0.1058647E+02  0.3286237E+02  0.5713941E+01  0.1307489E+03
Ar  566  0.1336338E+02  0.3494932E+02  0.5544656E+01  0.3956742E+01
Ar  567  0.1316432E+02  0.3217967E+02  0.7761610E+01  0.3472597E+03
Ar  568  0.1093650E+02  0.3547839E+02  0.8375943E+01  0.4642714E+02
Ar  569  0.1095992E+02  0.3238375E+02  0.1095974E+02  0.8360902E+02
Ar  570  0.1373104E+02  0.3485055E+02  0.1068355E+02  0.1308810E+03
Ar  571  0.1347438E+02  0.3214789E+02  0.1347507E+02  0.3099977E+03
Ar  572  0.1068383E+02  0.3485069E+02  0.1373045E+02  0.1308136E+03
Ar  573  0.1104259E+02  0.3234827E+02  0.1671370E+02  0.2507513E+03
Ar  574  0.1357524E+02  0.3482717E+02  0.1610765E+02  0.1684654E+02
Ar  575  0.1375866E+02  0.3220728E+02  0.1926746E+02  0.1621111E+03
Ar  576  0.1096168E+02  0.3534462E+02  0.1906532E+02  0.4907416E+02
Ar  577  0.1065669E+02  0.3261385E+02  0.2179214E+02  0.6738256E+02
Ar  578  0.1392482E+02  0.3511207E+02  0.2119084E+02  0.2428549E+03
Ar  579  0.1360838E+02  0.3219856E+02  0.2362015E+02  0.5876658E+01
Ar  580  0.1088102E+02  0.3505494E+02  0.2407673E+02  0.1477192E+03
Ar  581  0.1081726E+02  0.3219793E+02  0.2663423E+02  0.2403413E+02
Ar  582  0.1321584E+02  0.3517941E+02  0.2697135E+02  0.5787637E+02
Ar  583  0.1345364E+02  0.3250062E+02  0.2892461E+02  0.7004983E+02
Ar  584  0.1078742E+02  0.3478499E+02  0.2946281E+02  0.1496394E+02
Ar  585  0.1073486E+02  0.3226471E+02  0.3226441E+02  0.2874746E+03
Ar  586  0.1425622E+02  0.3512234E+02  0.3223883E+02  0.9874398E+02
Ar  587  0.1425838E+02  0.3223773E+02  0.3512314E+02  0.9888337E+02
Ar  588  0.1059474E+02  0.3521272E+02  0.3521296E+02  0.4546519E+02
Ar  589  0.1645059E+02  0.9588718E-01  0.9703453E-01  0.7024876E+03
Ar  590  0.1911202E+02  0.3043012E+01  0.3725180E+02  0.7420946E+01
Ar  591  0.1911112E+02  0.3725026E+02  0.3042996E+01  0.7523301E+01
Ar  592  0.1707054E+02  0.2778944E+01  0.2777682E+01  0.1149864E+03
Ar  593  0.1656952E+02  0.3743267E+02  0.5569471E+01  0.2279965E+03
Ar  594  0.1926803E+02  0.2679950E+01  0.5642315E+01  0.2137468E+03
Ar  595  0.1922760E+02  0.3751059E+02  0.8150099E+01  0.5255595E+03
Ar  596  0.1656820E+02  0.2365987E+01  0.8295699E+01  0.4642489E+02
Ar  597  0.1628457E+02  0.3754179E+02  0.1080032E+02  0.1135439E+03
Ar  598  0.1884177E+02  0.2296293E+01  0.1074792E+02  0.1379901E+02
Ar  599  0.1851163E+02  0.3755885E+02  0.1363912E+02  0.6173345E+02
Ar  600  0.1634169E+02  0.2529248E+01  0.1318258E+02  0.2946997E+03
Ar  601  0.1574895E+02  0.3756163E+02  0.1574900E+02  0.1535856E+03
Ar  602  0.1893275E+02  0.3137147E+01  0.1610493E+02  0.2657218E+03
Ar  603  0.1884045E+02  0.7129406E+00  0.1884018E+02  0.1886491E+03
Ar  604  0.1610510E+02  0.3136913E+01  0.1893149E+02  0.2658379E+03
Ar  605  0.1626412E+02  0.1273543E+00  0.2158353E+02  0.4628727E+03
Ar  606  0.1871120E+02  0.2858421E+01  0.2152074E+02  0.3963976E+02
Ar  607  0.1898771E+02  0.3762774E+02  0.2392314E+02  0.4378302E+02
Ar  608  0.1616143E+02  0.3212511E+01  0.2448775E+02  0.4816658E+02
Ar  609  0.1613627E+02  0.7070275E-01  0.2669857E+02  0.2502313E+03
Ar  610  0.1861733E+02  0.2372414E+01  0.2683621E+02  0.1367770E+03
Ar  611  0.1879867E+02  0.3538128E+00  0.2961202E+02  0.3270324E+02
Ar  612  0.1600753E+02  0.2852398E+01  0.2943705E+02  0.4442662E+03
Ar  613  0.1654839E+02  0.3470319E+00  0.3248854E+02  0.1286952E+03
Ar  614  0.1899840E+02  0.2746507E+01  0.3208508E+02  0.1014488E+03
Ar  615  0.1938372E+02  0.1037114E+00  0.3494375E+02  0.2088125E+03
Ar  616  0.1617896E+02  0.2898315E+01  0.3518852E+02  0.1389509E+02
Ar  617  0.1657007E+02  0.5569800E+01  0.3743241E+02  0.2272929E+03
Ar  618  0.1922846E+02  0.8150345E+01  0.3750905E+02  0.5249964E+03
Ar  619  0.1926830E+02  0.5642289E+01  0.2679294E+01  0.2153731E+03
Ar  620  0.1656795E+02  0.8296247E+01  0.2365096E+01  0.4679263E+02
Ar  621  0.1678660E+02  0.5397103E+01  0.5397322E+01  0.1276679E+03
Ar  622  0.1879969E+02  0.8374820E+01  0.5218590E+01  0.4091056E+03
Ar  623  0.1880051E+02  0.5219648E+01  0.8376281E+01  0.4104952E+03
Ar  624  0.1657613E+02  0.8081930E+01  0.8081566E+01  0.2230958E+03
Ar  625  0.1612191E+02  0.5312103E+01  0.1098010E+02  0.1471909E+03
Ar  626  0.1928862E+02  0.7954729E+01  0.1101788E+02  0.8804884E+03
Ar  627  0.1932023E+02  0.5206656E+01  0.1333740E+02  0.1005952E+03
Ar  628  0.1630357E+02  0.7816477E+01  0.1346852E+02  0.1562471E+03
Ar  629  0.1557160E+02  0.4818370E+01  0.1557098E+02  0.4028172E+03
Ar  630  0.1872186E+02  0.7834731E+01  0.1628582E+02  0.3447121E+03
Ar  631  0.1896026E+02  0.5168088E+01  0.1896029E+02  0.2822031E+03
Ar  632  0.1628628E+02  0.7834750E+01  0.1872162E+02  0.3451713E+03
Ar  633  0.1666848E+02  0.5704069E+01  0.2152253E+02  0.3317672E+03
Ar  634  0.1853003E+02  0.8419809E+01  0.2133475E+02  0.8316704E+02
Ar  635  0.1908666E+02  0.5364298E+01  0.2421025E+02  0.1656725E+02
Ar  636  0.1630012E+02  0.8011726E+01  0.2422804E+02  0.3214929E+03
Ar  637  0.1653043E+02  0.5619846E+01  0.2706606E+02  0.3148033E+03
Ar  638  0.1898300E+02  0.8335065E+01  0.2706158E+02  0.5808309E+02
Ar  639  0.1890555E+02  0.5830420E+01  0.2995147E+02  0.1000228E+03
Ar  640  0.1620528E+02  0.8349568E+01  0.3018248E+02  0.2227683E+02
Ar  641  0.1615474E+02  0.5627011E+01  0.3257792E+02  0.1379321E+03
Ar  642  0.1889513E+02  0.8440348E+01  0.3230747E+02  0.1352299E+03
Ar  643  0.1920651E+02  0.5410924E+01  0.3468036E+02  0.1674006E+03
Ar  644  0.1638093E+02  0.8347784E+01  0.3489053E+02  0.1352464E+03
Ar  645  0.1628400E+02  0.1080072E+02  0.3754082E+02  0.1138973E+03
Ar  646  0.1851230E+02  0.1363848E+02  0.3755841E+02  0.6236689E+02
Ar  647  0.1884183E+02  0.1074787E+02  0.2296981E+01  0.1371507E+02
Ar  648  0.1634194E+02  0.1318249E+02  0.2528984E+01  0.2940938E+03
Ar  649  0.1612388E+02  0.1098046E+02  0.5312704E+01  0.1467572E+03
Ar  650  0.1931982E+02  0.1333889E+02  0.5206938E+01  0.1005916E+03
Ar  651  0.1928855E+02  0.1102062E+02  0.7951725E+01  0.8783673E+03
Ar  652  0.1630594E+02  0.1347139E+02  0.7818926E+01  0.1580695E+03
Ar  653  0.1564301E+02  0.1053617E+02  0.1053418E+02  0.8704560E+02
Ar  654  0.1850606E+02  0.1361546E+02  0.1087408E+02  0.6168273E+02
Ar  655  0.1850337E+02  0.1087202E+02  0.1361345E+02  0.6204794E+02
Ar  656  0.1582007E+02  0.1326039E+02  0.1325771E+02  0.3748047E+03
Ar  657  0.1646489E+02  0.1045348E+02  0.1646443E+02  0.4655050E+02
Ar  658  0.1863011E+02  0.1363552E+02  0.1597064E+02  0.4046488E+02
Ar  659  0.1896288E+02  0.1156415E+02  0.1896317E+02  0.1269119E+03
Ar  660  0.1597059E+02  0.1363555E+02  0.1863036E+02  0.4042479E+02
Ar  661  0.1574651E+02  0.1095411E+02  0.2126127E+02  0.1868269E+03
Ar  662  0.1852011E+02  0.1346549E+02  0.2162570E+02  0.3383007E+02
Ar  663  0.1889124E+02  0.1096195E+02  0.2451859E+02  0.3830483E+02
Ar  664  0.1626065E+02  0.1369462E+02  0.2423418E+02  0.6395022E+02
Ar  665  0.1612944E+02  0.1059835E+02  0.2688123E+02  0.2331256E+03
Ar  666  0.1860581E+02  0.1355048E+02  0.2683992E+02  0.3299207E+03
Ar  667  0.1915308E+02  0.1083356E+02  0.2957388E+02  0.2748312E+03
Ar  668  0.1634967E+02  0.1334051E+02  0.2952981E+02  0.1316031E+03
Ar  669  0.1671387E+02  0.1104296E+02  0.3234777E+02  0.2504843E+03
Ar  670  0.1926760E+02  0.1375861E+02  0.3220633E+02  0.1625063E+03
Ar  671  0.1906489E+02  0.1096169E+02  0.3534352E+02  0.4896173E+02
Ar  672  0.1610787E+02  0.1357519E+02  0.3482709E+02  0.1690373E+02
Ar  673  0.1574846E+02  0.1574793E+02  0.3756115E+02  0.1531756E+03
Ar  674  0.1883984E+02  0.1884067E+02  0.7131846E+00  0.1891928E+03
Ar  675  0.1893193E+02  0.1610551E+02  0.3136461E+01  0.2663325E+03
Ar  676  0.1610434E+02  0.1893230E+02  0.3136729E+01  0.2665133E+03
Ar  677  0.1557317E+02  0.1557242E+02  0.4818188E+01  0.4036828E+03
Ar  678  0.1896022E+02  0.1896087E+02  0.5166960E+01  0.2821121E+03
Ar  679  0.1872473E+02  0.1628754E+02  0.7832070E+01  0.3478092E+03
Ar  680  0.1628688E+02  0.1872489E+02  0.7832425E+01  0.3477423E+03
Ar  681  0.1646313E+02  0.1646288E+02  0.1044532E+02  0.4810476E+02
Ar  682  0.1896285E+02  0.1896279E+02  0.1156836E+02  0.1382656E+03
Ar  683  0.1863068E+02  0.1597391E+02  0.1363423E+02  0.4165168E+02
Ar  684  0.1597317E+02  0.1863024E+02  0.1363448E+02  0.4151489E+02
Ar  685  0.1636695E+02  0.1636685E+02  0.1636722E+02  0.2816712E+03
Ar  686  0.1888741E+02  0.1888760E+02  0.1599078E+02  0.3601869E+02
Ar  687  0.1888725E+02  0.1598936E+02  0.1888698E+02  0.3565436E+02
Ar  688  0.1599051E+02  0.1888778E+02  0.1888773E+02  0.3590085E+02
Ar  689  0.1599398E+02  0.1599202E+02  0.2149859E+02  0.1532524E+03
Ar  690  0.1829219E+02  0.1829261E+02  0.2155140E+02  0.5581061E+03
Ar  691  0.1921025E+02  0.1632358E+02  0.2470600E+02  0.1572674E+03
Ar  692  0.1632291E+02  0.1920977E+02  0.2470607E+02  0.1571741E+03
Ar  693  0.1614440E+02  0.1614453E+02  0.2696771E+02  0.2957085E+01
Ar  694  0.1892697E+02  0.1892733E+02  0.2733365E+02  0.3181260E+02
Ar  695  0.1923133E+02  0.1639813E+02  0.2980233E+02  0.2173079E+03
Ar  696  0.1639789E+02  0.1923130E+02  0.2980283E+02  0.2173047E+03
Ar  697  0.1620656E+02  0.1620585E+02  0.3225742E+02  0.3082439E+03
Ar  698  0.1910206E+02  0.1910250E+02  0.3211195E+02  0.1473607E+03
Ar  699  0.1852303E+02  0.1609597E+02  0.3484257E+02  0.5345653E+02
Ar  700  0.1609632E+02  0.1852260E+02  0.3484306E+02  0.5340285E+02
Ar  701  0.1626423E+02  0.2158301E+02  0.1268222E+00  0.4629418E+03
Ar  702  0.1898751E+02  0.2392303E+02  0.3762804E+02  0.4350231E+02
Ar  703  0.1871107E+02  0.2152158E+02  0.2859128E+01  0.3971440E+02
Ar  704  0.1616100E+02  0.2448821E+02  0.3211860E+01  0.4808516E+02
Ar  705  0.1666791E+02  0.2152399E+02  0.5702887E+01  0.3331491E+03
Ar  706  0.1908637E+02  0.2421159E+02  0.5365137E+01  0.1665048E+02
Ar  707  0.1853235E+02  0.2133689E+02  0.8418175E+01  0.8328147E+02
Ar  708  0.1629971E+02  0.2422849E+02  0.8011995E+01  0.3217528E+03
Ar  709  0.1574621E+02  0.2126135E+02  0.1095429E+02  0.1870455E+03
Ar  710  0.1889126E+02  0.2451861E+02  0.1096115E+02  0.3831899E+02
Ar  711  0.1851943E+02  0.2162789E+02  0.1346743E+02  0.3408207E+02
Ar  712  0.1625995E+02  0.2423404E+02  0.1369373E+02  0.6428010E+02
Ar  713  0.1599288E+02  0.2150041E+02  0.1599353E+02  0.1523342E+03
Ar  714  0.1920972E+02  0.2470582E+02  0.1632293E+02  0.1575654E+03
Ar  715  0.1829291E+02  0.2155186E+02  0.1829301E+02  0.5587731E+03
Ar  716  0.1632301E+02  0.2470628E+02  0.1920982E+02  0.1577042E+03
Ar  717  0.1699158E+02  0.2156653E+02  0.2156701E+02  0.2808195E+03
Ar  718  0.1911579E+02  0.2462481E+02  0.2147283E+02  0.3243922E+02
Ar  719  0.1911552E+02  0.2147284E+02  0.2462612E+02  0.3225446E+02
Ar  720  0.1644583E+02  0.2414332E+02  0.2414313E+02  0.7965377E+01
Ar  721  0.1659462E+02  0.2190666E+02  0.2686521E+02  0.9725815E+02
Ar  722  0.1919206E+02  0.2417681E+02  0.2683746E+02  0.9348833E+03
Ar  723  0.1896075E+02  0.2184911E+02  0.2928716E+02  0.4803395E+02
Ar  724  0.1633774E+02  0.2436926E+02  0.2945424E+02  0.1997753E+03
Ar  725  0.1652439E+02  0.2135012E+02  0.3269438E+02  0.1832743E+03
Ar  726  0.1860220E+02  0.2441303E+02  0.3263515E+02  0.8331773E+02
Ar  727  0.1899015E+02  0.2143091E+02  0.3536078E+02  0.3804163E+02
Ar  728  0.1578142E+02  0.2435162E+02  0.3487774E+02  0.2577920E+03
Ar  729  0.1613678E+02  0.2669809E+02  0.7157063E-01  0.2504480E+03
Ar  730  0.1879886E+02  0.2961163E+02  0.3542329E+00  0.3258493E+02
Ar  731  0.1861798E+02  0.2683585E+02  0.2373219E+01  0.1366284E+03
Ar  732  0.1600747E+02  0.2943688E+02  0.2851680E+01  0.4446005E+03
Ar  733  0.1652966E+02  0.2706689E+02  0.5619236E+01  0.3151227E+03
Ar  734  0.1890465E+02  0.2995134E+02  0.5831301E+01  0.1004481E+03
Ar  735  0.1898315E+02  0.2706216E+02  0.8335379E+01  0.5801058E+02
Ar  736  0.1620509E+02  0.3018196E+02  0.8349302E+01  0.2222185E+02
Ar  737  0.1612926E+02  0.2688170E+02  0.1059793E+02  0.2329374E+03
Ar  738  0.1915339E+02  0.2957466E+02  0.1083393E+02  0.2739478E+03
Ar  739  0.1860589E+02  0.2684022E+02  0.1354998E+02  0.3303079E+03
Ar  740  0.1634986E+02  0.2953016E+02  0.1334007E+02  0.1314342E+03
Ar  741  0.1614470E+02  0.2696715E+02  0.1614432E+02  0.3069200E+01
Ar  742  0.1923009E+02  0.2980273E+02  0.1639795E+02  0.2166751E+03
Ar  743  0.1892716E+02  0.2733407E+02  0.1892659E+02  0.3173046E+02
Ar  744  0.1639809E+02  0.2980240E+02  0.1923012E+02  0.2167187E+03
Ar  745  0.1659542E+02  0.2686515E+02  0.2190573E+02  0.9754164E+02
Ar  746  0.1896156E+02  0.2928679E+02  0.2184912E+02  0.4791609E+02
Ar  747  0.1919158E+02  0.2683776E+02  0.2417656E+02  0.9344957E+03
Ar  748  0.1633823E+02  0.2945283E+02  0.2436926E+02  0.1988044E+03
Ar  749  0.1682884E+02  0.2669271E+02  0.2669341E+02  0.3241770E+03
Ar  750  0.1876113E+02  0.2952273E+02  0.2701697E+02  0.1342152E+03
Ar  751  0.1876105E+02  0.2701745E+02  0.2952314E+02  0.1336350E+03
Ar  752  0.1601682E+02  0.3010636E+02  0.3010750E+02  0.1279842E+03
Ar  753  0.1647648E+02  0.2706069E+02  0.3227833E+02  0.2170229E+03
Ar  754  0.1894925E+02  0.2954854E+02  0.3268890E+02  0.4040284E+02
Ar  755  0.1911511E+02  0.2678963E+02  0.3484385E+02  0.9132364E+02
Ar  756  0.1632665E+02  0.2943000E+02  0.3551817E+02  0.2437267E+03
Ar  757  0.1654871E+02  0.3248818E+02  0.3465034E+00  0.1281430E+03
Ar  758  0.1938460E+02  0.3494343E+02  0.1028998E+00  0.2092999E+03
Ar  759  0.1899716E+02  0.3208497E+02  0.2746438E+01  0.1017428E+03
Ar  760  0.1617871E+02  0.3518829E+02  0.2897558E+01  0.1368021E+02
Ar  761  0.1615445E+02  0.3257746E+02  0.5625838E+01  0.1385297E+03
Ar  762  0.1920525E+02  0.3468062E+02  0.5411342E+01  0.1682996E+03
Ar  763  0.1889540E+02  0.3230743E+02  0.8440464E+01  0.1350771E+03
Ar  764  0.1638064E+02  0.3489055E+02  0.8347228E+01  0.1353104E+03
Ar  765  0.1671396E+02  0.3234821E+02  0.1104224E+02  0.2508655E+03
Ar  766  0.1906520E+02  0.3534466E+02  0.1096145E+02  0.4913238E+02
Ar  767  0.1926740E+02  0.3220715E+02  0.1375851E+02  0.1618818E+03
Ar  768  0.1610811E+02  0.3482692E+02  0.1357514E+02  0.1669303E+02
Ar  769  0.1620553E+02  0.3225802E+02  0.1620582E+02  0.3097365E+03
Ar  770  0.1852288E+02  0.3484357E+02  0.1609651E+02  0.5328313E+02
Ar  771  0.1910236E+02  0.3211192E+02  0.1910244E+02  0.1478439E+03
Ar  772  0.1609638E+02  0.3484338E+02  0.1852308E+02  0.5341151E+02
Ar  773  0.1652449E+02  0.3269418E+02  0.2134986E+02  0.1840232E+03
Ar  774  0.1898963E+02  0.3536094E+02  0.2143060E+02  0.3816927E+02
Ar  775  0.1860239E+02  0.3263474E+02  0.2441292E+02  0.8317080E+02
Ar  776  0.1578235E+02  0.3487749E+02  0.2435092E+02  0.2579954E+03
Ar  777  0.1647695E+02  0.3227656E+02  0.2706061E+02  0.2169644E+03
Ar  778  0.1911523E+02  0.3484340E+02  0.2678974E+02  0.9165199E+02
Ar  779  0.1894948E+02  0.3268815E+02  0.2954842E+02  0.4057321E+02
Ar  780  0.1632648E+02  0.3551771E+02  0.2943146E+02  0.2431921E+03
Ar  781  0.1677504E+02  0.3237383E+02  0.3237381E+02  0.6459856E+03
Ar  782  0.1856411E+02  0.3543762E+02  0.3216097E+02  0.1906062E+03
Ar  783  0.1856515E+02  0.3216211E+02  0.3543720E+02  0.1902338E+03
Ar  784  0.1655595E+02  0.3523508E+02  0.3523511E+02  0.2891854E+03
Ar  785  0.2181596E+02  0.3774060E+02  0.3774032E+02  0.8068475E+02
Ar  786  0.2335646E+02  0.2736165E+01  0.3774624E+02  0.8882016E+02
Ar  787  0.2335690E+02  0.3774689E+02  0.2736065E+01  0.8917382E+02
Ar  788  0.2073514E+02  0.2624802E+01  0.2626045E+01  0.1935176E+03
Ar  789  0.2154592E+02  0.3771844E+02  0.5771227E+01  0.2897144E+03
Ar  790  0.2417725E+02  0.2406749E+01  0.5135968E+01  0.2509385E+03
Ar  791  0.2399009E+02  0.1955428E+00  0.8787805E+01  0.7971221E+02
Ar  792  0.2148419E+02  0.2680149E+01  0.7988592E+01  0.5883715E+02
Ar  793  0.2146412E+02  0.1136963E+00  0.1142030E+02  0.2502052E+03
Ar  794  0.2391480E+02  0.2798464E+01  0.1083991E+02  0.4135567E+02
Ar  795  0.2437674E+02  0.3280044E+00  0.1346282E+02  0.2216280E+03
Ar  796  0.2194672E+02  0.2856963E+01  0.1380522E+02  0.1087826E+03
Ar  797  0.2158388E+02  0.1277740E+00  0.1626427E+02  0.4628376E+03
Ar  798  0.2448774E+02  0.3212810E+01  0.1616155E+02  0.4801812E+02
Ar  799  0.2392315E+02  0.3762762E+02  0.1898757E+02  0.4381599E+02
Ar  800  0.2152092E+02  0.2858847E+01  0.1871070E+02  0.3976125E+02
Ar  801  0.2173105E+02  0.3776650E+02  0.2173102E+02  0.2051237E+03
Ar  802  0.2427834E+02  0.3004366E+01  0.2142229E+02  0.1396596E+03
Ar  803  0.2413052E+02  0.4015698E+00  0.2413078E+02  0.3849957E+03
Ar  804  0.2142254E+02  0.3004336E+01  0.2427928E+02  0.1397169E+03
Ar  805  0.2155816E+02  0.3760312E+02  0.2702455E+02  0.2364384E+02
Ar  806  0.2392558E+02  0.3396876E+01  0.2690389E+02  0.1060860E+03
Ar  807  0.2432561E+02  0.1817262E+00  0.2949929E+02  0.9745470E+02
Ar  808  0.2138322E+02  0.3206218E+01  0.2949326E+02  0.2025720E+03
Ar  809  0.2163577E+02  0.1275509E+00  0.3201715E+02  0.4658327E+02
Ar  810  0.2418529E+02  0.3217820E+01  0.3232990E+02  0.1438240E+03
Ar  811  0.2385391E+02  0.3763156E+02  0.3495487E+02  0.1385898E+03
Ar  812  0.2126793E+02  0.2906757E+01  0.3462088E+02  0.1220039E+03
Ar  813  0.2154604E+02  0.5771845E+01  0.3771956E+02  0.2897676E+03
Ar  814  0.2399004E+02  0.8788601E+01  0.1948076E+00  0.8029418E+02
Ar  815  0.2417706E+02  0.5134573E+01  0.2406013E+01  0.2515432E+03
Ar  816  0.2148320E+02  0.7989890E+01  0.2678876E+01  0.5929006E+02
Ar  817  0.2192468E+02  0.5210632E+01  0.5208934E+01  0.5288474E+03
Ar  818  0.2429431E+02  0.7826168E+01  0.5405610E+01  0.1987775E+03
Ar  819  0.2429378E+02  0.5406003E+01  0.7825550E+01  0.1992406E+03
Ar  820  0.2213346E+02  0.7899234E+01  0.7898568E+01  0.7839371E+01
Ar  821  0.2179645E+02  0.5373026E+01  0.1090258E+02  0.1000995E+03
Ar  822  0.2428532E+02  0.7746227E+01  0.1056099E+02  0.2864863E+03
Ar  823  0.2414852E+02  0.5512090E+01  0.1363967E+02  0.8649770E+02
Ar  824  0.2144485E+02  0.7958469E+01  0.1364836E+02  0.8967866E+02
Ar  825  0.2152287E+02  0.5704544E+01  0.1666834E+02  0.3313647E+03
Ar  826  0.2422862E+02  0.8011455E+01  0.1630033E+02  0.3216125E+03
Ar  827  0.2421046E+02  0.5364659E+01  0.1908675E+02  0.1645491E+02
Ar  828  0.2133457E+02  0.8419670E+01  0.1853024E+02  0.8295643E+02
Ar  829  0.2146717E+02  0.5597259E+01  0.2146725E+02  0.4449565E+02
Ar  830  0.2409822E+02  0.7995475E+01  0.2150593E+02  0.3891732E+03
Ar  831  0.2370207E+02  0.5267770E+01  0.2370225E+02  0.5324193E+03
Ar  832  0.2150593E+02  0.7995337E+01  0.2409806E+02  0.3888232E+03
Ar  833  0.2146448E+02  0.5702574E+01  0.2705103E+02  0.1871451E+03
Ar  834  0.2435054E+02  0.8108706E+01  0.2717774E+02  0.2993894E+03
Ar  835  0.2437490E+02  0.5584529E+01  0.2954098E+02  0.2027028E+03
Ar  836  0.2180266E+02  0.7855438E+01  0.2976310E+02  0.2366070E+03
Ar  837  0.2187718E+02  0.5512064E+01  0.3243113E+02  0.2253789E+02
Ar  838  0.2416835E+02  0.8068167E+01  0.3242413E+02  0.3246565E+03
Ar  839  0.2409138E+02  0.5892177E+01  0.3538893E+02  0.1523574E+03
Ar  840  0.2166347E+02  0.8275772E+01  0.3508167E+02  0.6057265E+02
Ar  841  0.2146422E+02  0.1142059E+02  0.1140239E+00  0.2492854E+03
Ar  842  0.2437643E+02  0.1346287E+02  0.3287689E+00  0.2215622E+03
Ar  843  0.2391420E+02  0.1083938E+02  0.2799894E+01  0.4180375E+02
Ar  844  0.2194710E+02  0.1380464E+02  0.2856683E+01  0.1090239E+03
Ar  845  0.2179683E+02  0.1090229E+02  0.5373404E+01  0.9915276E+02
Ar  846  0.2414857E+02  0.1363993E+02  0.5511845E+01  0.8645783E+02
Ar  847  0.2428630E+02  0.1056104E+02  0.7745569E+01  0.2863985E+03
Ar  848  0.2144554E+02  0.1364851E+02  0.7957635E+01  0.8961366E+02
Ar  849  0.2212478E+02  0.1082150E+02  0.1082108E+02  0.2336683E+03
Ar  850  0.2461435E+02  0.1335256E+02  0.1026432E+02  0.1725199E+03
Ar  851  0.2461420E+02  0.1026454E+02  0.1335249E+02  0.1723389E+03
Ar  852  0.2143446E+02  0.1359653E+02  0.1359607E+02  0.4533223E+03
Ar  853  0.2126150E+02  0.1095418E+02  0.1574654E+02  0.1869133E+03
Ar  854  0.2423475E+02  0.1369385E+02  0.1626027E+02  0.6405625E+02
Ar  855  0.2451869E+02  0.1096161E+02  0.1889106E+02  0.3822770E+02
Ar  856  0.2162558E+02  0.1346521E+02  0.1852015E+02  0.3369702E+02
Ar  857  0.2131711E+02  0.1122415E+02  0.2131737E+02  0.7608357E+03
Ar  858  0.2396556E+02  0.1359772E+02  0.2147339E+02  0.2163722E+03
Ar  859  0.2380016E+02  0.1101023E+02  0.2379989E+02  0.5714307E+02
Ar  860  0.2147386E+02  0.1359810E+02  0.2396546E+02  0.2166587E+03
Ar  861  0.2176974E+02  0.1049113E+02  0.2694465E+02  0.2556827E+03
Ar  862  0.2404121E+02  0.1359334E+02  0.2722053E+02  0.1083389E+03
Ar  863  0.2419069E+02  0.1075456E+02  0.2980183E+02  0.1019034E+03
Ar  864  0.2112534E+02  0.1339730E+02  0.2923000E+02  0.2361579E+01
Ar  865  0.2179241E+02  0.1065700E+02  0.3261423E+02  0.6716004E+02
Ar  866  0.2361998E+02  0.1360891E+02  0.3219827E+02  0.5713742E+01
Ar  867  0.2407662E+02  0.1088078E+02  0.3505523E+02  0.1476895E+03
Ar  868  0.2119092E+02  0.1392478E+02  0.3511157E+02  0.2432705E+03
Ar  869  0.2158260E+02  0.1626364E+02  0.1271303E+00  0.4623603E+03
Ar  870  0.2392294E+02  0.1898729E+02  0.3762835E+02  0.4375267E+02
Ar  871  0.2448776E+02  0.1616119E+02  0.3211838E+01  0.4814296E+02
Ar  872  0.2152140E+02  0.1871141E+02  0.2859306E+01  0.3954709E+02
Ar  873  0.2152425E+02  0.1666845E+02  0.5703048E+01  0.3337369E+03
Ar  874  0.2421184E+02  0.1908665E+02  0.5364665E+01  0.1675858E+02
Ar  875  0.2422824E+02  0.1629983E+02  0.8012808E+01  0.3217722E+03
Ar  876  0.2133710E+02  0.1853222E+02  0.8418897E+01  0.8328715E+02
Ar  877  0.2126161E+02  0.1574606E+02  0.1095459E+02  0.1863238E+03
Ar  878  0.2451826E+02  0.1889122E+02  0.1096154E+02  0.3861231E+02
Ar  879  0.2423387E+02  0.1626022E+02  0.1369426E+02  0.6395247E+02
Ar  880  0.2162778E+02  0.1852007E+02  0.1346763E+02  0.3418934E+02
Ar  881  0.2149954E+02  0.1599158E+02  0.1599451E+02  0.1528702E+03
Ar  882  0.2470627E+02  0.1920956E+02  0.1632306E+02  0.1571111E+03
Ar  883  0.2470587E+02  0.1632337E+02  0.1921004E+02  0.1573756E+03
Ar  884  0.2155135E+02  0.1829297E+02  0.1829225E+02  0.5586811E+03
Ar  885  0.2156671E+02  0.1699226E+02  0.2156670E+02  0.2804035E+03
Ar  886  0.2462541E+02  0.1911588E+02  0.2147296E+02  0.3229014E+02
Ar  887  0.2414339E+02  0.1644598E+02  0.2414343E+02  0.7990413E+01
Ar  888  0.2147308E+02  0.1911561E+02  0.2462615E+02  0.3226710E+02
Ar  889  0.2190677E+02  0.1659504E+02  0.2686535E+02  0.9690786E+02
Ar  890  0.2417689E+02  0.1919238E+02  0.2683768E+02  0.9357564E+03
Ar  891  0.2436900E+02  0.1633792E+02  0.2945388E+02  0.1999626E+03
Ar  892  0.2184928E+02  0.1896077E+02  0.2928720E+02  0.4811852E+02
Ar  893  0.2135001E+02  0.1652444E+02  0.3269366E+02  0.1833752E+03
Ar  894  0.2441312E+02  0.1860194E+02  0.3263496E+02  0.8337990E+02
Ar  895  0.2435158E+02  0.1578211E+02  0.3487770E+02  0.2581692E+03
Ar  896  0.2143093E+02  0.1898964E+02  0.3536077E+02  0.3843892E+02
Ar  897  0.2173168E+02  0.2173178E+02  0.3776739E+02  0.2052762E+03
Ar  898  0.2413085E+02  0.2413058E+02  0.4005307E+00  0.3830035E+03
Ar  899  0.2427916E+02  0.2142281E+02  0.3005077E+01  0.1400422E+03
Ar  900  0.2142128E+02  0.2427795E+02  0.3004812E+01  0.1390220E+03
Ar  901  0.2146807E+02  0.2146783E+02  0.5596722E+01  0.4386188E+02
Ar  902  0.2370269E+02  0.2370326E+02  0.5267612E+01  0.5326547E+03
Ar  903  0.2409941E+02  0.2150612E+02  0.7995900E+01  0.3891502E+03
Ar  904  0.2150575E+02  0.2409876E+02  0.7995899E+01  0.3890853E+03
Ar  905  0.2132175E+02  0.2132203E+02  0.1122493E+02  0.7626890E+03
Ar  906  0.2380010E+02  0.2380047E+02  0.1101004E+02  0.5837491E+02
Ar  907  0.2396601E+02  0.2147348E+02  0.1359780E+02  0.2161587E+03
Ar  908  0.2147326E+02  0.2396583E+02  0.1359779E+02  0.2159094E+03
Ar  909  0.2156672E+02  0.2156688E+02  0.1699187E+02  0.2805670E+03
Ar  910  0.2414337E+02  0.2414317E+02  0.1644594E+02  0.8031149E+01
Ar  911  0.2462582E+02  0.2147311E+02  0.1911566E+02  0.3229329E+02
Ar  912  0.2147343E+02  0.2462588E+02  0.1911574E+02  0.3235328E+02
Ar  913  0.2227768E+02  0.2227729E+02  0.2227780E+02  0.1354369E+03
Ar  914  0.2460447E+02  0.2460396E+02  0.2159221E+02  0.2622988E+03
Ar  915  0.2460516E+02  0.2159255E+02  0.2460469E+02  0.2612286E+03
Ar  916  0.2159212E+02  0.2460513E+02  0.2460474E+02  0.2617301E+03
Ar  917  0.2175638E+02  0.2175648E+02  0.2674291E+02  0.3085231E+03
Ar  918  0.2457231E+02  0.2457178E+02  0.2718658E+02  0.8003842E+02
Ar  919  0.2465188E+02  0.2182622E+02  0.2968022E+02  0.5736583E+02
Ar  920  0.2182595E+02  0.2465239E+02  0.2967963E+02  0.5758741E+02
Ar  921  0.2185706E+02  0.2185718E+02  0.3291903E+02  0.2259394E+03
Ar  922  0.2436934E+02  0.2436950E+02  0.3269072E+02  0.1931611E+02
Ar  923  0.2401365E+02  0.2160098E+02  0.3537515E+02  0.1552190E+03
Ar  924  0.2160141E+02  0.2401343E+02  0.3537532E+02  0.1542310E+03
Ar  925  0.2155867E+02  0.2702412E+02  0.3760367E+02  0.2359571E+02
Ar  926  0.2432580E+02  0.2949999E+02  0.1833594E+00  0.9722858E+02
Ar  927  0.2392537E+02  0.2690471E+02  0.3396824E+01  0.1039748E+03
Ar  928  0.2138310E+02  0.2949403E+02  0.3206937E+01  0.2033250E+03
Ar  929  0.2146496E+02  0.2705174E+02  0.5703385E+01  0.1878606E+03
Ar  930  0.2437558E+02  0.2954201E+02  0.5584303E+01  0.2020030E+03
Ar  931  0.2435107E+02  0.2717854E+02  0.8106673E+01  0.2989242E+03
Ar  932  0.2180456E+02  0.2976369E+02  0.7855312E+01  0.2347353E+03
Ar  933  0.2177096E+02  0.2694542E+02  0.1049028E+02  0.2556725E+03
Ar  934  0.2419089E+02  0.2980236E+02  0.1075467E+02  0.1018203E+03
Ar  935  0.2404141E+02  0.2721998E+02  0.1359304E+02  0.1079443E+03
Ar  936  0.2112541E+02  0.2923015E+02  0.1339748E+02  0.2356462E+01
Ar  937  0.2190615E+02  0.2686527E+02  0.1659478E+02  0.9746448E+02
Ar  938  0.2436930E+02  0.2945309E+02  0.1633747E+02  0.1990871E+03
Ar  939  0.2417726E+02  0.2683772E+02  0.1919192E+02  0.9349747E+03
Ar  940  0.2184938E+02  0.2928703E+02  0.1896085E+02  0.4784416E+02
Ar  941  0.2175637E+02  0.2674210E+02  0.2175618E+02  0.3086644E+03
Ar  942  0.2465184E+02  0.2968061E+02  0.2182656E+02  0.5743670E+02
Ar  943  0.2457241E+02  0.2718720E+02  0.2457183E+02  0.8047412E+02
Ar  944  0.2182689E+02  0.2968025E+02  0.2465183E+02  0.5734035E+02
Ar  945  0.2185723E+02  0.2747192E+02  0.2747090E+02  0.1275611E+03
Ar  946  0.2469187E+02  0.2978889E+02  0.2738764E+02  0.8610645E+02
Ar  947  0.2469235E+02  0.2738844E+02  0.2978840E+02  0.8623698E+02
Ar  948  0.2104238E+02  0.2961145E+02  0.2961285E+02  0.2064119E+02
Ar  949  0.2129595E+02  0.2684217E+02  0.3223299E+02  0.1879292E+03
Ar  950  0.2372923E+02  0.2956512E+02  0.3213923E+02  0.1032415E+03
Ar  951  0.2419855E+02  0.2695413E+02  0.3529033E+02  0.2894601E+03
Ar  952  0.2183331E+02  0.2950203E+02  0.3501651E+02  0.1164267E+03
Ar  953  0.2163569E+02  0.3201659E+02  0.1284785E+00  0.4692910E+02
Ar  954  0.2385288E+02  0.3495395E+02  0.3763195E+02  0.1394306E+03
Ar  955  0.2418699E+02  0.3233126E+02  0.3218751E+01  0.1452910E+03
Ar  956  0.2126758E+02  0.3462090E+02  0.2907335E+01  0.1224856E+03
Ar  957  0.2187603E+02  0.3243164E+02  0.5511346E+01  0.2235279E+02
Ar  958  0.2409278E+02  0.3538874E+02  0.5892596E+01  0.1525657E+03
Ar  959  0.2416812E+02  0.3242456E+02  0.8068075E+01  0.3250684E+03
Ar  960  0.2166304E+02  0.3508241E+02  0.8275585E+01  0.5981248E+02
Ar  961  0.2179181E+02  0.3261383E+02  0.1065688E+02  0.6722832E+02
Ar  962  0.2407736E+02  0.3505427E+02  0.1088047E+02  0.1480168E+03
Ar  963  0.2361903E+02  0.3219804E+02  0.1360903E+02  0.5898838E+01
Ar  964  0.2119071E+02  0.3511227E+02  0.1392496E+02  0.2426863E+03
Ar  965  0.2134937E+02  0.3269429E+02  0.1652462E+02  0.1842473E+03
Ar  966  0.2435095E+02  0.3487755E+02  0.1578201E+02  0.2581874E+03
Ar  967  0.2441301E+02  0.3263475E+02  0.1860166E+02  0.8321488E+02
Ar  968  0.2143022E+02  0.3536119E+02  0.1898968E+02  0.3828885E+02
Ar  969  0.2185627E+02  0.3291970E+02  0.2185653E+02  0.2267716E+03
Ar  970  0.2401372E+02  0.3537529E+02  0.2160213E+02  0.1544310E+03
Ar  971  0.2436978E+02  0.3269092E+02  0.2436975E+02  0.1934895E+02
Ar  972  0.2160202E+02  0.3537519E+02  0.2401390E+02  0.1543853E+03
Ar  973  0.2129741E+02  0.3223286E+02  0.2684271E+02  0.1883155E+03
Ar  974  0.2419820E+02  0.3528975E+02  0.2695376E+02  0.2888003E+03
Ar  975  0.2372914E+02  0.3213795E+02  0.2956694E+02  0.1033198E+03
Ar  976  0.2183439E+02  0.3501618E+02  0.2950249E+02  0.1161633E+03
Ar  977  0.2068352E+02  0.3237674E+02  0.3237647E+02  0.1659477E+03
Ar  978  0.2413705E+02  0.3490730E+02  0.3206278E+02  0.2702494E+03
Ar  979  0.2413638E+02  0.3206243E+02  0.3490849E+02  0.2706847E+03
Ar  980  0.2174397E+02  0.3494297E+02  0.3494312E+02  0.2584545E+03
Ar  981  0.2643459E+02  0.1469447E+00  0.1454937E+00  0.2429454E+03
Ar  982  0.2934644E+02  0.2880322E+01  0.3745037E+02  0.1943314E+03
Ar  983  0.2934554E+02  0.3745135E+02  0.2880785E+01  0.1946070E+03
Ar  984  0.2749929E+02  0.2500925E+01  0.2500790E+01  0.9640405E+02
Ar  985  0.2712086E+02  0.3772254E+02  0.5504684E+01  0.1462705E+03
Ar  986  0.2988281E+02  0.2485987E+01  0.5655873E+01  0.1341194E+03
Ar  987  0.2966085E+02  0.1401189E+00  0.8404118E+01  0.8775274E+02
Ar  988  0.2669186E+02  0.2628996E+01  0.7874677E+01  0.3981404E+03
Ar  989  0.2681158E+02  0.3156433E+00  0.1074284E+02  0.5661940E+02
Ar  990  0.2956637E+02  0.3025687E+01  0.1087704E+02  0.1442326E+03
Ar  991  0.2933175E+02  0.1851757E+00  0.1361046E+02  0.9961056E+02
Ar  992  0.2677051E+02  0.3155996E+01  0.1365574E+02  0.4305458E+02
Ar  993  0.2669881E+02  0.7083089E-01  0.1613648E+02  0.2505223E+03
Ar  994  0.2943768E+02  0.2851902E+01  0.1600755E+02  0.4448263E+03
Ar  995  0.2961187E+02  0.3537671E+00  0.1879849E+02  0.3263479E+02
Ar  996  0.2683646E+02  0.2372593E+01  0.1861741E+02  0.1366929E+03
Ar  997  0.2702432E+02  0.3760330E+02  0.2155839E+02  0.2359237E+02
Ar  998  0.2949381E+02  0.3206321E+01  0.2138331E+02  0.2024328E+03
Ar  999  0.2949983E+02  0.1827187E+00  0.2432576E+02  0.9736717E+02
Ar 1000  0.2690401E+02  0.3397516E+01  0.2392579E+02  0.1052387E+03
Ar 1001  0.2680569E+02  0.1396890E+00  0.2680534E+02  0.2944150E+02
Ar 1002  0.3003798E+02  0.3036402E+01  0.2682873E+02  0.8408265E+02
Ar 1003  0.2950244E+02  0.1231728E+00  0.2950099E+02  0.1802335E+03
Ar 1004  0.2682838E+02  0.3036413E+01  0.3003827E+02  0.8422404E+02
Ar 1005  0.2654617E+02  0.3752591E+02  0.3217201E+02  0.1141325E+03
Ar 1006  0.2957735E+02  0.3213104E+01  0.3221657E+02  0.2649620E+03
Ar 1007  0.2877170E+02  0.1051188E+00  0.3521647E+02  0.2988959E+03
Ar 1008  0.2655605E+02  0.2935564E+01  0.3507193E+02  0.1465919E+03
Ar 1009  0.2712128E+02  0.5502997E+01  0.3772292E+02  0.1480379E+03
Ar 1010  0.2965842E+02  0.8405417E+01  0.1392780E+00  0.8731932E+02
Ar 1011  0.2988400E+02  0.5656890E+01  0.2483651E+01  0.1339512E+03
Ar 1012  0.2669095E+02  0.7873373E+01  0.2628266E+01  0.3972939E+03
Ar 1013  0.2700357E+02  0.5375178E+01  0.5376434E+01  0.1642286E+03
Ar 1014  0.2976006E+02  0.7976081E+01  0.5389053E+01  0.7559974E+02
Ar 1015  0.2976013E+02  0.5389362E+01  0.7977801E+01  0.7574387E+02
Ar 1016  0.2680989E+02  0.7806092E+01  0.7805889E+01  0.1454478E+03
Ar 1017  0.2701653E+02  0.5131114E+01  0.1042670E+02  0.1213120E+03
Ar 1018  0.2936802E+02  0.7504138E+01  0.1048581E+02  0.1049543E+02
Ar 1019  0.2939390E+02  0.5647643E+01  0.1372570E+02  0.2132812E+03
Ar 1020  0.2699318E+02  0.7953080E+01  0.1323637E+02  0.6840164E+02
Ar 1021  0.2706660E+02  0.5619832E+01  0.1653038E+02  0.3149820E+03
Ar 1022  0.3018212E+02  0.8349362E+01  0.1620574E+02  0.2216784E+02
Ar 1023  0.2995204E+02  0.5830041E+01  0.1890486E+02  0.1001957E+03
Ar 1024  0.2706175E+02  0.8335041E+01  0.1898321E+02  0.5787791E+02
Ar 1025  0.2705143E+02  0.5702924E+01  0.2146473E+02  0.1871726E+03
Ar 1026  0.2976287E+02  0.7855719E+01  0.2180340E+02  0.2361109E+03
Ar 1027  0.2954116E+02  0.5584515E+01  0.2437497E+02  0.2024342E+03
Ar 1028  0.2717798E+02  0.8108125E+01  0.2435127E+02  0.2995846E+03
Ar 1029  0.2689259E+02  0.5312432E+01  0.2689310E+02  0.3290831E+03
Ar 1030  0.2945686E+02  0.8049056E+01  0.2695729E+02  0.1979975E+03
Ar 1031  0.2932628E+02  0.5796804E+01  0.2932630E+02  0.1219940E+03
Ar 1032  0.2695771E+02  0.8049746E+01  0.2945626E+02  0.1985539E+03
Ar 1033  0.2691287E+02  0.5754394E+01  0.3240499E+02  0.2609233E+02
Ar 1034  0.2922230E+02  0.7840987E+01  0.3271604E+02  0.1323530E+03
Ar 1035  0.2970161E+02  0.5666430E+01  0.3530579E+02  0.1944733E+03
Ar 1036  0.2687320E+02  0.8624882E+01  0.3525820E+02  0.1031502E+03
Ar 1037  0.2681176E+02  0.1074318E+02  0.3163337E+00  0.5630053E+02
Ar 1038  0.2933150E+02  0.1360999E+02  0.1854367E+00  0.9940200E+02
Ar 1039  0.2956668E+02  0.1087866E+02  0.3027178E+01  0.1459685E+03
Ar 1040  0.2677056E+02  0.1365522E+02  0.3155269E+01  0.4270069E+02
Ar 1041  0.2701677E+02  0.1042568E+02  0.5131410E+01  0.1212327E+03
Ar 1042  0.2939342E+02  0.1372492E+02  0.5648007E+01  0.2125876E+03
Ar 1043  0.2936854E+02  0.1048602E+02  0.7503513E+01  0.1088024E+02
Ar 1044  0.2699257E+02  0.1323635E+02  0.7953165E+01  0.6759780E+02
Ar 1045  0.2716628E+02  0.1053108E+02  0.1053059E+02  0.2656918E+03
Ar 1046  0.2956733E+02  0.1345105E+02  0.1080577E+02  0.1956331E+02
Ar 1047  0.2956555E+02  0.1080610E+02  0.1345056E+02  0.1957028E+02
Ar 1048  0.2685936E+02  0.1363300E+02  0.1363130E+02  0.1791163E+03
Ar 1049  0.2688133E+02  0.1059824E+02  0.1612973E+02  0.2333792E+03
Ar 1050  0.2952985E+02  0.1334009E+02  0.1634967E+02  0.1314571E+03
Ar 1051  0.2957416E+02  0.1083355E+02  0.1915388E+02  0.2743057E+03
Ar 1052  0.2684022E+02  0.1355057E+02  0.1860614E+02  0.3305091E+03
Ar 1053  0.2694468E+02  0.1049057E+02  0.2176966E+02  0.2561981E+03
Ar 1054  0.2923016E+02  0.1339762E+02  0.2112573E+02  0.2380516E+01
Ar 1055  0.2980172E+02  0.1075463E+02  0.2419070E+02  0.1018446E+03
Ar 1056  0.2721996E+02  0.1359409E+02  0.2404135E+02  0.1082920E+03
Ar 1057  0.2627816E+02  0.1074377E+02  0.2627827E+02  0.2615936E+02
Ar 1058  0.2965776E+02  0.1333181E+02  0.2660479E+02  0.3665169E+03
Ar 1059  0.2939098E+02  0.1059258E+02  0.2938943E+02  0.3756255E+01
Ar 1060  0.2660631E+02  0.1333248E+02  0.2965741E+02  0.3658619E+03
Ar 1061  0.2663433E+02  0.1081803E+02  0.3219734E+02  0.2433556E+02
Ar 1062  0.2892521E+02  0.1345385E+02  0.3250065E+02  0.6987488E+02
Ar 1063  0.2946369E+02  0.1078735E+02  0.3478447E+02  0.1456401E+02
Ar 1064  0.2697161E+02  0.1321499E+02  0.3517962E+02  0.5796343E+02
Ar 1065  0.2669842E+02  0.1613668E+02  0.7082931E-01  0.2502744E+03
Ar 1066  0.2961152E+02  0.1879959E+02  0.3536638E+00  0.3261800E+02
Ar 1067  0.2943629E+02  0.1600790E+02  0.2851340E+01  0.4454495E+03
Ar 1068  0.2683527E+02  0.1861778E+02  0.2372258E+01  0.1370616E+03
Ar 1069  0.2706572E+02  0.1653064E+02  0.5619515E+01  0.3154153E+03
Ar 1070  0.2995148E+02  0.1890520E+02  0.5831920E+01  0.1004473E+03
Ar 1071  0.3018246E+02  0.1620493E+02  0.8349452E+01  0.2227150E+02
Ar 1072  0.2706231E+02  0.1898352E+02  0.8335588E+01  0.5780931E+02
Ar 1073  0.2688196E+02  0.1612936E+02  0.1059826E+02  0.2328928E+03
Ar 1074  0.2957430E+02  0.1915330E+02  0.1083406E+02  0.2736853E+03
Ar 1075  0.2953062E+02  0.1634954E+02  0.1333987E+02  0.1316162E+03
Ar 1076  0.2684032E+02  0.1860534E+02  0.1355020E+02  0.3293539E+03
Ar 1077  0.2696772E+02  0.1614427E+02  0.1614396E+02  0.3021921E+01
Ar 1078  0.2980254E+02  0.1923077E+02  0.1639768E+02  0.2170141E+03
Ar 1079  0.2980202E+02  0.1639819E+02  0.1923106E+02  0.2170233E+03
Ar 1080  0.2733407E+02  0.1892758E+02  0.1892722E+02  0.3182207E+02
Ar 1081  0.2686506E+02  0.1659538E+02  0.2190597E+02  0.9715399E+02
Ar 1082  0.2928721E+02  0.1896159E+02  0.2184952E+02  0.4801462E+02
Ar 1083  0.2945321E+02  0.1633887E+02  0.2436888E+02  0.1997534E+03
Ar 1084  0.2683784E+02  0.1919188E+02  0.2417666E+02  0.9346067E+03
Ar 1085  0.2669298E+02  0.1682895E+02  0.2669313E+02  0.3228209E+03
Ar 1086  0.2952268E+02  0.1876080E+02  0.2701739E+02  0.1331844E+03
Ar 1087  0.3010675E+02  0.1601783E+02  0.3010772E+02  0.1278696E+03
Ar 1088  0.2701718E+02  0.1876102E+02  0.2952338E+02  0.1333955E+03
Ar 1089  0.2706052E+02  0.1647643E+02  0.3227646E+02  0.2167180E+03
Ar 1090  0.2954881E+02  0.1894882E+02  0.3268943E+02  0.4042288E+02
Ar 1091  0.2943045E+02  0.1632678E+02  0.3551785E+02  0.2439030E+03
Ar 1092  0.2679023E+02  0.1911452E+02  0.3484344E+02  0.9164553E+02
Ar 1093  0.2702413E+02  0.2155784E+02  0.3760278E+02  0.2362832E+02
Ar 1094  0.2949942E+02  0.2432516E+02  0.1827824E+00  0.9743842E+02
Ar 1095  0.2949348E+02  0.2138290E+02  0.3206873E+01  0.2027956E+03
Ar 1096  0.2690454E+02  0.2392609E+02  0.3398035E+01  0.1054264E+03
Ar 1097  0.2705176E+02  0.2146476E+02  0.5703042E+01  0.1880845E+03
Ar 1098  0.2954266E+02  0.2437595E+02  0.5584508E+01  0.2019299E+03
Ar 1099  0.2976335E+02  0.2180398E+02  0.7855210E+01  0.2356213E+03
Ar 1100  0.2717851E+02  0.2435091E+02  0.8106724E+01  0.2987738E+03
Ar 1101  0.2694489E+02  0.2177121E+02  0.1049043E+02  0.2556755E+03
Ar 1102  0.2980201E+02  0.2419065E+02  0.1075458E+02  0.1018735E+03
Ar 1103  0.2922992E+02  0.2112569E+02  0.1339741E+02  0.2375923E+01
Ar 1104  0.2722010E+02  0.2404159E+02  0.1359330E+02  0.1077902E+03
Ar 1105  0.2686521E+02  0.2190644E+02  0.1659460E+02  0.9756959E+02
Ar 1106  0.2945398E+02  0.2436974E+02  0.1633754E+02  0.1992961E+03
Ar 1107  0.2928721E+02  0.2184974E+02  0.1896048E+02  0.4773498E+02
Ar 1108  0.2683734E+02  0.2417663E+02  0.1919184E+02  0.9346377E+03
Ar 1109  0.2674251E+02  0.2175608E+02  0.2175611E+02  0.3084965E+03
Ar 1110  0.2968029E+02  0.2465208E+02  0.2182647E+02  0.5746430E+02
Ar 1111  0.2968056E+02  0.2182670E+02  0.2465206E+02  0.5748895E+02
Ar 1112  0.2718725E+02  0.2457238E+02  0.2457198E+02  0.8035044E+02
Ar 1113  0.2747205E+02  0.2185635E+02  0.2747183E+02  0.1278256E+03
Ar 1114  0.2978852E+02  0.2469235E+02  0.2738762E+02  0.8593832E+02
Ar 1115  0.2961209E+02  0.2104127E+02  0.2961262E+02  0.2072616E+02
Ar 1116  0.2738790E+02  0.2469180E+02  0.2978855E+02  0.8626329E+02
Ar 1117  0.2684257E+02  0.2129580E+02  0.3223280E+02  0.1882764E+03
Ar 1118  0.2956552E+02  0.2372884E+02  0.3213831E+02  0.1031049E+03
Ar 1119  0.2950217E+02  0.2183314E+02  0.3501619E+02  0.1169416E+03
Ar 1120  0.2695443E+02  0.2419813E+02  0.3528993E+02  0.2890323E+03
Ar 1121  0.2680600E+02  0.2680612E+02  0.1424623E+00  0.2951794E+02
Ar 1122  0.2949576E+02  0.2949832E+02  0.1218394E+00  0.1831121E+03
Ar 1123  0.3003779E+02  0.2682789E+02  0.3035867E+01  0.8442493E+02
Ar 1124  0.2682897E+02  0.3003806E+02  0.3036039E+01  0.8406451E+02
Ar 1125  0.2689314E+02  0.2689442E+02  0.5310753E+01  0.3293252E+03
Ar 1126  0.2932649E+02  0.2932678E+02  0.5798329E+01  0.1230183E+03
Ar 1127  0.2945614E+02  0.2695718E+02  0.8050926E+01  0.1974963E+03
Ar 1128  0.2695734E+02  0.2945617E+02  0.8051083E+01  0.1966958E+03
Ar 1129  0.2627820E+02  0.2627788E+02  0.1074229E+02  0.2612692E+02
Ar 1130  0.2939162E+02  0.2939175E+02  0.1059185E+02  0.3833096E+01
Ar 1131  0.2965786E+02  0.2660519E+02  0.1333186E+02  0.3663847E+03
Ar 1132  0.2660521E+02  0.2965853E+02  0.1333137E+02  0.3666445E+03
Ar 1133  0.2669315E+02  0.2669292E+02  0.1682928E+02  0.3248794E+03
Ar 1134  0.3010659E+02  0.3010620E+02  0.1601610E+02  0.1280874E+03
Ar 1135  0.2952348E+02  0.2701658E+02  0.1876082E+02  0.1339594E+03
Ar 1136  0.2701640E+02  0.2952318E+02  0.1876125E+02  0.1339954E+03
Ar 1137  0.2747108E+02  0.2747085E+02  0.2185643E+02  0.1273712E+03
Ar 1138  0.2961188E+02  0.2961184E+02  0.2104279E+02  0.2083343E+02
Ar 1139  0.2978856E+02  0.2738808E+02  0.2469254E+02  0.8639302E+02
Ar 1140  0.2738747E+02  0.2978870E+02  0.2469243E+02  0.8630820E+02
Ar 1141  0.2685202E+02  0.2685198E+02  0.2685187E+02  0.9867431E+01
Ar 1142  0.2978337E+02  0.2978368E+02  0.2734286E+02  0.1208666E+03
Ar 1143  0.2978352E+02  0.2734193E+02  0.2978369E+02  0.1217007E+03
Ar 1144  0.2734227E+02  0.2978401E+02  0.2978344E+02  0.1216527E+03
Ar 1145  0.2723564E+02  0.2723561E+02  0.3256335E+02  0.1534237E+03
Ar 1146  0.2953562E+02  0.2953588E+02  0.3250661E+02  0.2251957E+03
Ar 1147  0.2964009E+02  0.2679663E+02  0.3502864E+02  0.7492930E+02
Ar 1148  0.2679703E+02  0.2964048E+02  0.3502976E+02  0.7524240E+02
Ar 1149  0.2654740E+02  0.3217146E+02  0.3752558E+02  0.1144917E+03
Ar 1150  0.2877245E+02  0.3521681E+02  0.1036948E+00  0.2996978E+03
Ar 1151  0.2957702E+02  0.3221605E+02  0.3212087E+01  0.2655967E+03
Ar 1152  0.2655482E+02  0.3507477E+02  0.2934950E+01  0.1468174E+03
Ar 1153  0.2691426E+02  0.3240347E+02  0.5755906E+01  0.2530134E+02
Ar 1154  0.2970177E+02  0.3530563E+02  0.5663543E+01  0.1947104E+03
Ar 1155  0.2922491E+02  0.3271727E+02  0.7840093E+01  0.1300803E+03
Ar 1156  0.2687436E+02  0.3525804E+02  0.8624278E+01  0.1029043E+03
Ar 1157  0.2663490E+02  0.3219735E+02  0.1081701E+02  0.2384788E+02
Ar 1158  0.2946353E+02  0.3478313E+02  0.1078736E+02  0.1463678E+02
Ar 1159  0.2892516E+02  0.3250086E+02  0.1345316E+02  0.7023102E+02
Ar 1160  0.2697158E+02  0.3517981E+02  0.1321538E+02  0.5792687E+02
Ar 1161  0.2706070E+02  0.3227681E+02  0.1647645E+02  0.2170158E+03
Ar 1162  0.2943118E+02  0.3551762E+02  0.1632652E+02  0.2427693E+03
Ar 1163  0.2954815E+02  0.3268854E+02  0.1894935E+02  0.4046461E+02
Ar 1164  0.2678963E+02  0.3484344E+02  0.1911546E+02  0.9164217E+02
Ar 1165  0.2684276E+02  0.3223316E+02  0.2129768E+02  0.1881340E+03
Ar 1166  0.2950220E+02  0.3501668E+02  0.2183455E+02  0.1164850E+03
Ar 1167  0.2956642E+02  0.3213818E+02  0.2372955E+02  0.1034542E+03
Ar 1168  0.2695371E+02  0.3529030E+02  0.2419854E+02  0.2887855E+03
Ar 1169  0.2723371E+02  0.3256396E+02  0.2723391E+02  0.1545646E+03
Ar 1170  0.2964157E+02  0.3502893E+02  0.2679663E+02  0.7557310E+02
Ar 1171  0.2953517E+02  0.3250880E+02  0.2953428E+02  0.2260666E+03
Ar 1172  0.2679626E+02  0.3502844E+02  0.2964150E+02  0.7523492E+02
Ar 1173  0.2691352E+02  0.3234630E+02  0.3234788E+02  0.5447283E+03
Ar 1174  0.2950875E+02  0.3514107E+02  0.3278802E+02  0.4217420E+03
Ar 1175  0.2950770E+02  0.3278752E+02  0.3513890E+02  0.4226205E+03
Ar 1176  0.2627276E+02  0.3490234E+02  0.3490271E+02  0.1476780E+02
Ar 1177  0.3235430E+02  0.1592738E+00  0.1585808E+00  0.9797823E+01
Ar 1178  0.3496648E+02  0.2191756E+01  0.3741548E+02  0.2296575E+03
Ar 1179  0.3496679E+02  0.3741052E+02  0.2190631E+01  0.2297734E+03
Ar 1180  0.3188510E+02  0.2732688E+01  0.2733523E+01  0.9889769E+02
Ar 1181  0.3254616E+02  0.3771311E+02  0.5226347E+01  0.2391798E+03
Ar 1182  0.3472594E+02  0.2808458E+01  0.5269797E+01  0.9733796E+03
Ar 1183  0.3515440E+02  0.1211357E+00  0.7994335E+01  0.5597791E+02
Ar 1184  0.3264380E+02  0.2908254E+01  0.7991993E+01  0.1214624E+03
Ar 1185  0.3211647E+02  0.1063812E+00  0.1127876E+02  0.1989063E+02
Ar 1186  0.3467773E+02  0.2473957E+01  0.1106725E+02  0.2966145E+02
Ar 1187  0.3489838E+02  0.3775298E+02  0.1359998E+02  0.1020268E+03
Ar 1188  0.3222189E+02  0.3104342E+01  0.1347641E+02  0.1620258E+03
Ar 1189  0.3248883E+02  0.3468890E+00  0.1654815E+02  0.1284831E+03
Ar 1190  0.3518860E+02  0.2898210E+01  0.1617876E+02  0.1383664E+02
Ar 1191  0.3494345E+02  0.1033937E+00  0.1938422E+02  0.2090543E+03
Ar 1192  0.3208510E+02  0.2745885E+01  0.1899799E+02  0.1012826E+03
Ar 1193  0.3201713E+02  0.1274180E+00  0.2163560E+02  0.4659578E+02
Ar 1194  0.3462081E+02  0.2907114E+01  0.2126754E+02  0.1223331E+03
Ar 1195  0.3495434E+02  0.3763085E+02  0.2385386E+02  0.1384609E+03
Ar 1196  0.3232973E+02  0.3218031E+01  0.2418593E+02  0.1443021E+03
Ar 1197  0.3217182E+02  0.3752646E+02  0.2654679E+02  0.1142182E+03
Ar 1198  0.3507207E+02  0.2934898E+01  0.2655543E+02  0.1466716E+03
Ar 1199  0.3521810E+02  0.1039719E+00  0.2876952E+02  0.2984218E+03
Ar 1200  0.3221657E+02  0.3213671E+01  0.2957604E+02  0.2656511E+03
Ar 1201  0.3231594E+02  0.3154619E-01  0.3231716E+02  0.1230829E+02
Ar 1202  0.3513616E+02  0.2673234E+01  0.3208367E+02  0.6656447E+02
Ar 1203  0.3494100E+02  0.3741513E+02  0.3494301E+02  0.8130061E+03
Ar 1204  0.3208544E+02  0.2672651E+01  0.3513415E+02  0.6659009E+02
Ar 1205  0.3254963E+02  0.5220225E+01  0.3771518E+02  0.2363280E+03
Ar 1206  0.3515386E+02  0.7991480E+01  0.1196947E+00  0.5614634E+02
Ar 1207  0.3472541E+02  0.5270280E+01  0.2807139E+01  0.9709081E+03
Ar 1208  0.3264335E+02  0.7990912E+01  0.2907898E+01  0.1220509E+03
Ar 1209  0.3213379E+02  0.5267575E+01  0.5267198E+01  0.3246585E+03
Ar 1210  0.3552596E+02  0.8340115E+01  0.5339983E+01  0.2828367E+03
Ar 1211  0.3552909E+02  0.5341421E+01  0.8341758E+01  0.2796179E+03
Ar 1212  0.3210995E+02  0.8108817E+01  0.8108035E+01  0.5851555E+02
Ar 1213  0.3286224E+02  0.5717068E+01  0.1058649E+02  0.1307360E+03
Ar 1214  0.3547890E+02  0.8377523E+01  0.1093791E+02  0.4599520E+02
Ar 1215  0.3494925E+02  0.5544392E+01  0.1336324E+02  0.4042918E+01
Ar 1216  0.3217982E+02  0.7761716E+01  0.1316463E+02  0.3455948E+03
Ar 1217  0.3257833E+02  0.5626877E+01  0.1615449E+02  0.1378165E+03
Ar 1218  0.3489101E+02  0.8347314E+01  0.1638218E+02  0.1352373E+03
Ar 1219  0.3467990E+02  0.5411328E+01  0.1920645E+02  0.1673539E+03
Ar 1220  0.3230720E+02  0.8440536E+01  0.1889538E+02  0.1348885E+03
Ar 1221  0.3243076E+02  0.5511664E+01  0.2187724E+02  0.2257378E+02
Ar 1222  0.3508137E+02  0.8275074E+01  0.2166351E+02  0.6000881E+02
Ar 1223  0.3538802E+02  0.5892301E+01  0.2409225E+02  0.1525603E+03
Ar 1224  0.3242413E+02  0.8068253E+01  0.2416848E+02  0.3252037E+03
Ar 1225  0.3240427E+02  0.5755651E+01  0.2691392E+02  0.2588723E+02
Ar 1226  0.3525848E+02  0.8624642E+01  0.2687335E+02  0.1028351E+03
Ar 1227  0.3530440E+02  0.5665147E+01  0.2969975E+02  0.1957244E+03
Ar 1228  0.3271584E+02  0.7842683E+01  0.2922325E+02  0.1319864E+03
Ar 1229  0.3243386E+02  0.5589061E+01  0.3243415E+02  0.5057990E+02
Ar 1230  0.3508384E+02  0.7947282E+01  0.3253871E+02  0.3680880E+03
Ar 1231  0.3484884E+02  0.5004480E+01  0.3484776E+02  0.6809002E+02
Ar 1232  0.3253831E+02  0.7947388E+01  0.3508368E+02  0.3674403E+03
Ar 1233  0.3211552E+02  0.1127807E+02  0.1055356E+00  0.1980174E+02
Ar 1234  0.3489887E+02  0.1359966E+02  0.3775215E+02  0.1027529E+03
Ar 1235  0.3467642E+02  0.1106573E+02  0.2473181E+01  0.3037334E+02
Ar 1236  0.3222237E+02  0.1347922E+02  0.3102419E+01  0.1619401E+03
Ar 1237  0.3286126E+02  0.1058592E+02  0.5713307E+01  0.1303600E+03
Ar 1238  0.3494949E+02  0.1336249E+02  0.5543446E+01  0.3963834E+01
Ar 1239  0.3547755E+02  0.1093662E+02  0.8375648E+01  0.4658510E+02
Ar 1240  0.3218027E+02  0.1316410E+02  0.7761411E+01  0.3479205E+03
Ar 1241  0.3238501E+02  0.1095962E+02  0.1096064E+02  0.8280842E+02
Ar 1242  0.3485082E+02  0.1373078E+02  0.1068329E+02  0.1308891E+03
Ar 1243  0.3485079E+02  0.1068332E+02  0.1373124E+02  0.1309014E+03
Ar 1244  0.3214858E+02  0.1347376E+02  0.1347577E+02  0.3110878E+03
Ar 1245  0.3234824E+02  0.1104320E+02  0.1671408E+02  0.2505188E+03
Ar 1246  0.3482765E+02  0.1357505E+02  0.1610727E+02  0.1697511E+02
Ar 1247  0.3534394E+02  0.1096184E+02  0.1906520E+02  0.4889945E+02
Ar 1248  0.3220609E+02  0.1375920E+02  0.1926714E+02  0.1630076E+03
Ar 1249  0.3261447E+02  0.1065706E+02  0.2179239E+02  0.6702490E+02
Ar 1250  0.3511134E+02  0.1392435E+02  0.2119134E+02  0.2428959E+03
Ar 1251  0.3505460E+02  0.1088115E+02  0.2407690E+02  0.1477545E+03
Ar 1252  0.3219813E+02  0.1360865E+02  0.2362083E+02  0.5739803E+01
Ar 1253  0.3219787E+02  0.1081810E+02  0.2663389E+02  0.2407072E+02
Ar 1254  0.3517895E+02  0.1321588E+02  0.2697158E+02  0.5791068E+02
Ar 1255  0.3478528E+02  0.1078779E+02  0.2946330E+02  0.1487755E+02
Ar 1256  0.3250019E+02  0.1345417E+02  0.2892488E+02  0.6983915E+02
Ar 1257  0.3226538E+02  0.1073474E+02  0.3226529E+02  0.2871880E+03
Ar 1258  0.3512293E+02  0.1425666E+02  0.3223886E+02  0.9896063E+02
Ar 1259  0.3521268E+02  0.1059277E+02  0.3521318E+02  0.4553841E+02
Ar 1260  0.3223864E+02  0.1425790E+02  0.3512260E+02  0.9882472E+02
Ar 1261  0.3248779E+02  0.1654874E+02  0.3463052E+00  0.1282700E+03
Ar 1262  0.3494462E+02  0.1938370E+02  0.1042210E+00  0.2085457E+03
Ar 1263  0.3518900E+02  0.1617880E+02  0.2897654E+01  0.1379924E+02
Ar 1264  0.3208497E+02  0.1899721E+02  0.2746562E+01  0.1011550E+03
Ar 1265  0.3257752E+02  0.1615474E+02  0.5626556E+01  0.1385120E+03
Ar 1266  0.3468079E+02  0.1920564E+02  0.5411601E+01  0.1680612E+03
Ar 1267  0.3489076E+02  0.1638049E+02  0.8347632E+01  0.1354725E+03
Ar 1268  0.3230735E+02  0.1889571E+02  0.8441198E+01  0.1352475E+03
Ar 1269  0.3234846E+02  0.1671371E+02  0.1104260E+02  0.2508848E+03
Ar 1270  0.3534444E+02  0.1906501E+02  0.1096189E+02  0.4913472E+02
Ar 1271  0.3482742E+02  0.1610708E+02  0.1357515E+02  0.1691683E+02
Ar 1272  0.3220705E+02  0.1926725E+02  0.1375821E+02  0.1620746E+03
Ar 1273  0.3225763E+02  0.1620549E+02  0.1620599E+02  0.3080098E+03
Ar 1274  0.3484293E+02  0.1852231E+02  0.1609595E+02  0.5336100E+02
Ar 1275  0.3484283E+02  0.1609607E+02  0.1852273E+02  0.5354670E+02
Ar 1276  0.3211181E+02  0.1910234E+02  0.1910196E+02  0.1476425E+03
Ar 1277  0.3269407E+02  0.1652464E+02  0.2134970E+02  0.1838433E+03
Ar 1278  0.3536100E+02  0.1898978E+02  0.2143043E+02  0.3839760E+02
Ar 1279  0.3487742E+02  0.1578207E+02  0.2435096E+02  0.2581861E+03
Ar 1280  0.3263503E+02  0.1860278E+02  0.2441279E+02  0.8372265E+02
Ar 1281  0.3227648E+02  0.1647702E+02  0.2706032E+02  0.2167502E+03
Ar 1282  0.3484439E+02  0.1911518E+02  0.2679002E+02  0.9183420E+02
Ar 1283  0.3551731E+02  0.1632727E+02  0.2943077E+02  0.2441399E+03
Ar 1284  0.3268914E+02  0.1894943E+02  0.2954861E+02  0.4056887E+02
Ar 1285  0.3237433E+02  0.1677488E+02  0.3237426E+02  0.6489552E+03
Ar 1286  0.3543742E+02  0.1856534E+02  0.3216143E+02  0.1907632E+03
Ar 1287  0.3523561E+02  0.1655582E+02  0.3523569E+02  0.2889900E+03
Ar 1288  0.3216203E+02  0.1856529E+02  0.3543709E+02  0.1901395E+03
Ar 1289  0.3201619E+02  0.2163532E+02  0.1281479E+00  0.4696844E+02
Ar 1290  0.3495361E+02  0.2385281E+02  0.3763207E+02  0.1393388E+03
Ar 1291  0.3462129E+02  0.2126762E+02  0.2907265E+01  0.1213308E+03
Ar 1292  0.3233048E+02  0.2418564E+02  0.3218051E+01  0.1444573E+03
Ar 1293  0.3243145E+02  0.2187592E+02  0.5511602E+01  0.2232560E+02
Ar 1294  0.3538805E+02  0.2409203E+02  0.5892214E+01  0.1529303E+03
Ar 1295  0.3508246E+02  0.2166270E+02  0.8275675E+01  0.6082331E+02
Ar 1296  0.3242473E+02  0.2416838E+02  0.8068315E+01  0.3253309E+03
Ar 1297  0.3261350E+02  0.2179161E+02  0.1065657E+02  0.6744107E+02
Ar 1298  0.3505404E+02  0.2407769E+02  0.1088020E+02  0.1483604E+03
Ar 1299  0.3511193E+02  0.2119099E+02  0.1392440E+02  0.2425437E+03
Ar 1300  0.3219791E+02  0.2361865E+02  0.1360868E+02  0.5835307E+01
Ar 1301  0.3269408E+02  0.2134942E+02  0.1652447E+02  0.1834802E+03
Ar 1302  0.3487728E+02  0.2435147E+02  0.1578125E+02  0.2581957E+03
Ar 1303  0.3536097E+02  0.2143065E+02  0.1898981E+02  0.3817353E+02
Ar 1304  0.3263512E+02  0.2441292E+02  0.1860205E+02  0.8303607E+02
Ar 1305  0.3291969E+02  0.2185683E+02  0.2185707E+02  0.2262638E+03
Ar 1306  0.3537528E+02  0.2401391E+02  0.2160207E+02  0.1548675E+03
Ar 1307  0.3537543E+02  0.2160144E+02  0.2401405E+02  0.1545777E+03
Ar 1308  0.3269134E+02  0.2436929E+02  0.2436988E+02  0.1946022E+02
Ar 1309  0.3223320E+02  0.2129635E+02  0.2684297E+02  0.1885308E+03
Ar 1310  0.3529031E+02  0.2419767E+02  0.2695404E+02  0.2888907E+03
Ar 1311  0.3501649E+02  0.2183366E+02  0.2950257E+02  0.1168268E+03
Ar 1312  0.3213799E+02  0.2372837E+02  0.2956614E+02  0.1035940E+03
Ar 1313  0.3237717E+02  0.2068263E+02  0.3237725E+02  0.1664981E+03
Ar 1314  0.3490672E+02  0.2413600E+02  0.3206268E+02  0.2697377E+03
Ar 1315  0.3494291E+02  0.2174380E+02  0.3494332E+02  0.2599276E+03
Ar 1316  0.3206223E+02  0.2413587E+02  0.3490687E+02  0.2698906E+03
Ar 1317  0.3217176E+02  0.2654602E+02  0.3752486E+02  0.1139627E+03
Ar 1318  0.3521613E+02  0.2877137E+02  0.1038757E+00  0.2996857E+03
Ar 1319  0.3507353E+02  0.2655572E+02  0.2935758E+01  0.1474966E+03
Ar 1320  0.3221796E+02  0.2957712E+02  0.3211319E+01  0.2661846E+03
Ar 1321  0.3240329E+02  0.2691353E+02  0.5755713E+01  0.2486829E+02
Ar 1322  0.3530777E+02  0.2970467E+02  0.5664839E+01  0.1922487E+03
Ar 1323  0.3525924E+02  0.2687472E+02  0.8624194E+01  0.1034095E+03
Ar 1324  0.3271942E+02  0.2922360E+02  0.7838241E+01  0.1285466E+03
Ar 1325  0.3219727E+02  0.2663411E+02  0.1081756E+02  0.2401742E+02
Ar 1326  0.3478245E+02  0.2946394E+02  0.1078818E+02  0.1440373E+02
Ar 1327  0.3518062E+02  0.2697204E+02  0.1321498E+02  0.5773055E+02
Ar 1328  0.3250079E+02  0.2892422E+02  0.1345411E+02  0.6978836E+02
Ar 1329  0.3227732E+02  0.2706071E+02  0.1647680E+02  0.2171007E+03
Ar 1330  0.3551782E+02  0.2943047E+02  0.1632622E+02  0.2431353E+03
Ar 1331  0.3484354E+02  0.2678956E+02  0.1911494E+02  0.9124245E+02
Ar 1332  0.3268806E+02  0.2954823E+02  0.1894925E+02  0.4030205E+02
Ar 1333  0.3223312E+02  0.2684229E+02  0.2129706E+02  0.1876746E+03
Ar 1334  0.3501672E+02  0.2950248E+02  0.2183364E+02  0.1163212E+03
Ar 1335  0.3529032E+02  0.2695390E+02  0.2419843E+02  0.2896330E+03
Ar 1336  0.3213881E+02  0.2956604E+02  0.2372886E+02  0.1032753E+03
Ar 1337  0.3256381E+02  0.2723466E+02  0.2723491E+02  0.1540062E+03
Ar 1338  0.3502936E+02  0.2964108E+02  0.2679719E+02  0.7523548E+02
Ar 1339  0.3502791E+02  0.2679645E+02  0.2964076E+02  0.7458110E+02
Ar 1340  0.3250691E+02  0.2953568E+02  0.2953508E+02  0.2260125E+03
Ar 1341  0.3234664E+02  0.2691383E+02  0.3234704E+02  0.5455403E+03
Ar 1342  0.3514017E+02  0.2950910E+02  0.3278678E+02  0.4239304E+03
Ar 1343  0.3490241E+02  0.2627233E+02  0.3490296E+02  0.1502725E+02
Ar 1344  0.3278735E+02  0.2950849E+02  0.3513935E+02  0.4241752E+03
Ar 1345  0.3231780E+02  0.3231397E+02  0.3123354E-01  0.1284427E+02
Ar 1346  0.3494106E+02  0.3493980E+02  0.3741647E+02  0.8085881E+03
Ar 1347  0.3513403E+02  0.3208312E+02  0.2673363E+01  0.6837381E+02
Ar 1348  0.3208280E+02  0.3513651E+02  0.2674077E+01  0.6736063E+02
Ar 1349  0.3243496E+02  0.3243403E+02  0.5590504E+01  0.5112953E+02
Ar 1350  0.3484749E+02  0.3484870E+02  0.5004849E+01  0.6742632E+02
Ar 1351  0.3508344E+02  0.3253766E+02  0.7947336E+01  0.3668317E+03
Ar 1352  0.3253683E+02  0.3508296E+02  0.7948298E+01  0.3667616E+03
Ar 1353  0.3226418E+02  0.3226412E+02  0.1073450E+02  0.2882375E+03
Ar 1354  0.3521256E+02  0.3521301E+02  0.1059452E+02  0.4566402E+02
Ar 1355  0.3512362E+02  0.3223759E+02  0.1425725E+02  0.9898555E+02
Ar 1356  0.3223798E+02  0.3512252E+02  0.1425669E+02  0.9884008E+02
Ar 1357  0.3237304E+02  0.3237325E+02  0.1677490E+02  0.6429190E+03
Ar 1358  0.3523500E+02  0.3523482E+02  0.1655603E+02  0.2895420E+03
Ar 1359  0.3543740E+02  0.3216137E+02  0.1856461E+02  0.1908595E+03
Ar 1360  0.3216117E+02  0.3543749E+02  0.1856418E+02  0.1906593E+03
Ar 1361  0.3237621E+02  0.3237650E+02  0.2068293E+02  0.1657601E+03
Ar 1362  0.3494274E+02  0.3494249E+02  0.2174402E+02  0.2582147E+03
Ar 1363  0.3490828E+02  0.3206212E+02  0.2413670E+02  0.2713038E+03
Ar 1364  0.3206197E+02  0.3490735E+02  0.2413738E+02  0.2707338E+03
Ar 1365  0.3234761E+02  0.3234662E+02  0.2691343E+02  0.5440688E+03
Ar 1366  0.3490159E+02  0.3490210E+02  0.2627459E+02  0.1500318E+02
Ar 1367  0.3513939E+02  0.3278794E+02  0.2950923E+02  0.4202181E+03
Ar 1368  0.3278816E+02  0.3514025E+02  0.2950872E+02  0.4208849E+03
Ar 1369  0.3248055E+02  0.3248037E+02  0.3248132E+02  0.5004688E+03
Ar 1370  0.3497179E+02  0.3497242E+02  0.3222364E+02  0.7564345E+03
Ar 1371  0.3497262E+02  0.3222170E+02  0.3497128E+02  0.7597800E+03
Ar 1372  0.3222277E+02  0.3497180E+02  0.3497104E+02  0.7580222E+03
