        1372
Lattice="  0.3778015E+02  0.0000000E+00  0.0000000E+00  0.0000000E+00  0.3778015E+02  0.0000000E+00  0.0000000E+00  0.0000000E+00  0.3778015E+02" Properties=species:S:1:id:I:1:pos:R:3:tempK:R:1
Ar    1  0.2696443E+01  0.3475276E+02  0.3956164E+00  0.1493252E+03
Ar    2  0.2234849E+01  0.3899026E+01  0.4628057E+00  0.6065187E+02
Ar    3  0.1591286E+01  0.1897182E+01  0.3395612E+01  0.3258712E+03
Ar    4  0.3765058E+02  0.4995564E+01  0.3111579E+01  0.1867826E+03
Ar    5  0.3693112E+02  0.3746777E+02  0.6189722E+01  0.2104366E+03
Ar    6  0.4293686E+01  0.3395793E+01  0.6507923E+01  0.2609768E+03
Ar    7  0.2345225E+01  0.3689809E+02  0.8014546E+01  0.6191161E+02
Ar    8  0.1309102E+01  0.2526268E+01  0.7757487E+01  0.7143949E+03
Ar    9  0.3072265E+02  0.3645045E+02  0.1478262E+02  0.1735437E+03
Ar   10  0.7497352E+01  0.4540728E+01  0.7002738E+01  0.5838910E+03
Ar   11  0.3227629E+01  0.1687680E+01  0.1282391E+02  0.3028500E+03
Ar   12  0.6291097E+00  0.2575913E+00  0.1062046E+02  0.3393500E+02
Ar   13  0.1106316E+01  0.2968535E+00  0.1473189E+02  0.1478751E+04
Ar   14  0.8252003E+01  0.3533661E+01  0.1035073E+02  0.3751834E+03
Ar   15  0.6037767E+01  0.3643594E+01  0.1454602E+02  0.1907192E+03
Ar   16  0.1690178E+01  0.3591933E+01  0.1996215E+02  0.3819138E+03
Ar   17  0.3151501E+01  0.4430764E+00  0.1988336E+02  0.1063022E+04
Ar   18  0.4061064E+01  0.5092117E+00  0.1669716E+02  0.2999630E+03
Ar   19  0.4291593E+01  0.4715464E+00  0.2426987E+02  0.8770581E+03
Ar   20  0.4310048E+00  0.8370974E+00  0.2193945E+02  0.4990828E+03
Ar   21  0.1747306E+01  0.2520196E+01  0.2653647E+02  0.1961004E+03
Ar   22  0.6492236E+01  0.4942488E+00  0.2745490E+02  0.6194744E+03
Ar   23  0.2759111E+01  0.3745566E+02  0.2804397E+02  0.5243490E+02
Ar   24  0.2362973E+01  0.2858867E+01  0.2991356E+02  0.2055415E+03
Ar   25  0.3734795E+02  0.2559802E+00  0.3251995E+02  0.1915135E+03
Ar   26  0.5067236E+01  0.3831574E+01  0.3329182E+02  0.6156298E+03
Ar   27  0.4138191E+01  0.2588685E+00  0.3475601E+02  0.1680575E+03
Ar   28  0.1859178E+01  0.2556559E+01  0.3375956E+02  0.4759376E+03
Ar   29  0.3734062E+02  0.4441709E+01  0.3564555E+02  0.1836072E+04
Ar   30  0.5688069E+00  0.7344836E+01  0.3749311E+02  0.4558987E+03
Ar   31  0.3398860E+01  0.5503632E+01  0.3680016E+01  0.3141173E+03
Ar   32  0.1891623E+01  0.9170538E+01  0.1930414E+01  0.7994655E+03
Ar   33  0.3732214E+02  0.5656818E+01  0.6697793E+01  0.3961493E+03
Ar   34  0.1385063E+01  0.8563067E+01  0.5657122E+01  0.5437946E+03
Ar   35  0.3535439E+01  0.5593467E+01  0.1084533E+02  0.1966488E+03
Ar   36  0.5523806E+00  0.5567894E+01  0.1005825E+02  0.2131922E+03
Ar   37  0.3765504E+02  0.4954852E+01  0.1380330E+02  0.9297011E+03
Ar   38  0.2051599E+01  0.8677556E+01  0.9659823E+01  0.7141646E+03
Ar   39  0.3279806E+01  0.6591587E+01  0.1393787E+02  0.3463744E+03
Ar   40  0.3484395E+02  0.9853137E+01  0.1223205E+02  0.6327270E+03
Ar   41  0.2335046E+01  0.3485454E+01  0.1617003E+02  0.3601024E+03
Ar   42  0.6028778E+01  0.9242068E+01  0.1964349E+02  0.1321811E+03
Ar   43  0.4593889E+01  0.5875214E+01  0.2064639E+02  0.5903527E+02
Ar   44  0.2160113E+01  0.8330003E+01  0.1967139E+02  0.2890771E+03
Ar   45  0.2767770E+01  0.3503796E+01  0.2301430E+02  0.2726542E+03
Ar   46  0.2192981E+01  0.6698984E+01  0.2363883E+02  0.6164666E+03
Ar   47  0.5102054E+01  0.4456765E+01  0.2500189E+02  0.2276142E+03
Ar   48  0.3643220E+02  0.7243991E+01  0.2468276E+02  0.5451474E+03
Ar   49  0.3742811E+02  0.4144911E+01  0.2392713E+02  0.3416886E+03
Ar   50  0.5096977E+01  0.6992755E+01  0.2717541E+02  0.4683437E+03
Ar   51  0.1898087E+01  0.5634209E+01  0.2692796E+02  0.4081500E+03
Ar   52  0.3531610E+02  0.8015471E+01  0.2866818E+02  0.8043457E+03
Ar   53  0.1769024E+01  0.6170280E+01  0.3337161E+02  0.1075559E+03
Ar   54  0.1540281E+01  0.1243830E+02  0.3186858E+02  0.3567431E+03
Ar   55  0.4195096E+01  0.6156447E+01  0.3558406E+02  0.2668831E+03
Ar   56  0.1075905E+01  0.9238801E+01  0.3400034E+02  0.5075344E+02
Ar   57  0.3242869E+01  0.9343265E+01  0.3663551E+02  0.5576696E+03
Ar   58  0.5753821E-01  0.1195054E+02  0.3394447E+01  0.5168468E+03
Ar   59  0.4874023E+00  0.1197517E+02  0.3708646E+02  0.2151544E+03
Ar   60  0.8958811E+00  0.1397765E+02  0.6308209E+01  0.4434252E+03
Ar   61  0.3660779E+02  0.1103922E+02  0.6510184E+01  0.2234586E+03
Ar   62  0.2926768E+01  0.1143610E+02  0.5134832E+01  0.3563025E+03
Ar   63  0.3755854E+02  0.1139934E+02  0.1020747E+02  0.1636783E+04
Ar   64  0.3519577E+02  0.1472987E+02  0.6207037E+01  0.6540599E+03
Ar   65  0.3440237E+02  0.1147320E+02  0.8982460E+01  0.1040264E+03
Ar   66  0.2298213E+01  0.1164571E+02  0.1274958E+02  0.2792233E+03
Ar   67  0.1678799E+00  0.8480165E+01  0.1239704E+02  0.9523401E+03
Ar   68  0.3530460E+02  0.1310314E+02  0.1193002E+02  0.5621074E+03
Ar   69  0.1426547E+01  0.9272301E+01  0.1553405E+02  0.2179118E+03
Ar   70  0.7216331E+00  0.1421387E+02  0.1418869E+02  0.4012825E+03
Ar   71  0.3507921E+01  0.1111697E+02  0.1795994E+02  0.1776866E+03
Ar   72  0.3105275E+00  0.1242889E+02  0.1718588E+02  0.8394317E+02
Ar   73  0.3556745E+02  0.1126882E+02  0.2066396E+02  0.9190761E+02
Ar   74  0.9387585E+00  0.1052472E+02  0.2176797E+02  0.2412330E+03
Ar   75  0.2494329E+01  0.1335172E+02  0.2520449E+02  0.4259411E+03
Ar   76  0.3720004E+02  0.1471838E+02  0.2374949E+02  0.4412484E+03
Ar   77  0.3750497E+02  0.1075774E+02  0.2759811E+02  0.1944346E+03
Ar   78  0.5514069E+01  0.1428625E+02  0.2439443E+02  0.1005255E+04
Ar   79  0.4157956E+01  0.1593860E+02  0.2715156E+02  0.5725236E+03
Ar   80  0.1298957E+01  0.1590129E+02  0.2941915E+02  0.1233582E+04
Ar   81  0.3640282E+02  0.1222269E+02  0.3414077E+02  0.3357803E+03
Ar   82  0.6308130E-01  0.1504592E+02  0.3491990E+02  0.3199383E+03
Ar   83  0.3487624E+01  0.1288957E+02  0.3611489E+02  0.6137108E+03
Ar   84  0.3511737E+02  0.1030218E+02  0.3776366E+02  0.1330136E+03
Ar   85  0.3373032E+02  0.1537816E+02  0.3192234E+02  0.5922424E+03
Ar   86  0.2439794E+01  0.1878902E+02  0.3511101E+01  0.1262058E+04
Ar   87  0.3709339E+02  0.1588957E+02  0.3578597E+01  0.3827321E+03
Ar   88  0.3755961E+02  0.2068620E+02  0.1982239E+01  0.1829130E+03
Ar   89  0.7563756E+00  0.1705531E+02  0.6833450E+01  0.7819744E+02
Ar   90  0.4369655E+00  0.2036537E+02  0.6064693E+01  0.4737806E+03
Ar   91  0.4508922E+01  0.1567532E+02  0.1057694E+02  0.1716949E+03
Ar   92  0.3627820E+02  0.1825340E+02  0.9521617E+01  0.5680337E+03
Ar   93  0.3677475E+02  0.1468612E+02  0.9090661E+01  0.1878946E+03
Ar   94  0.1959874E+01  0.1902261E+02  0.9126918E+01  0.2956628E+03
Ar   95  0.3084351E+01  0.1681687E+02  0.1475610E+02  0.6771012E+03
Ar   96  0.3692096E+02  0.1925304E+02  0.1266215E+02  0.3871034E+02
Ar   97  0.3610232E+02  0.1591863E+02  0.1351447E+02  0.5592060E+02
Ar   98  0.1541118E+01  0.1853933E+02  0.1724199E+02  0.6396655E+03
Ar   99  0.2656641E+01  0.1437624E+02  0.1788318E+02  0.6437715E+03
Ar  100  0.3521290E+02  0.1888502E+02  0.1561289E+02  0.1749588E+03
Ar  101  0.3728497E+02  0.1574358E+02  0.1703252E+02  0.3250138E+03
Ar  102  0.6079700E+00  0.1695497E+02  0.2016389E+02  0.5769051E+03
Ar  103  0.2744275E+01  0.1622367E+02  0.2329562E+02  0.3371444E+03
Ar  104  0.3115025E+02  0.1348834E+02  0.2617923E+02  0.5431152E+03
Ar  105  0.3747036E+02  0.1686609E+02  0.2659944E+02  0.2802135E+03
Ar  106  0.5250190E+01  0.2021231E+02  0.3221917E+02  0.4223246E+03
Ar  107  0.2503525E+01  0.1799365E+02  0.3195901E+02  0.1805756E+03
Ar  108  0.4914693E+01  0.2107552E+02  0.2752117E+02  0.4033796E+03
Ar  109  0.3726994E+02  0.1751492E+02  0.3265738E+02  0.2643482E+03
Ar  110  0.3746372E+02  0.1932220E+02  0.2975221E+02  0.3176771E+03
Ar  111  0.3673263E-01  0.1670687E+02  0.3772505E+02  0.1425378E+03
Ar  112  0.3466139E+02  0.1656728E+02  0.3581454E+02  0.2123972E+03
Ar  113  0.2848844E+00  0.2378568E+02  0.2095058E+00  0.3886982E+03
Ar  114  0.3700509E+01  0.2429684E+02  0.3115757E+00  0.2057781E+02
Ar  115  0.2409679E+01  0.2327100E+02  0.3615884E+01  0.5753733E+03
Ar  116  0.1080782E+00  0.2618050E+02  0.3540712E+01  0.5028123E+03
Ar  117  0.3725007E+02  0.2299063E+02  0.4721579E+01  0.2913623E+03
Ar  118  0.4844669E+01  0.2455397E+02  0.6533519E+01  0.5832103E+03
Ar  119  0.1952726E+01  0.2340069E+02  0.7744114E+01  0.1053445E+03
Ar  120  0.3713875E+02  0.2528471E+02  0.8930480E+01  0.3417588E+03
Ar  121  0.3755614E+02  0.2167251E+02  0.9323059E+01  0.3830827E+02
Ar  122  0.4489596E+01  0.2168459E+02  0.9414775E+01  0.3763782E+03
Ar  123  0.2432219E+01  0.2006769E+02  0.1310338E+02  0.1318673E+03
Ar  124  0.8167517E+00  0.2331366E+02  0.1206094E+02  0.1252547E+04
Ar  125  0.3775626E+02  0.2167250E+02  0.1556500E+02  0.6094476E+02
Ar  126  0.3560567E+02  0.2402391E+02  0.1869941E+02  0.2437596E+03
Ar  127  0.3649036E+02  0.1968754E+02  0.1924597E+02  0.3101210E+03
Ar  128  0.3231982E+02  0.2582820E+02  0.1952757E+02  0.6287530E+03
Ar  129  0.3550443E+02  0.2202118E+02  0.2374163E+02  0.1874259E+03
Ar  130  0.1040823E+01  0.2139328E+02  0.2123890E+02  0.1225584E+03
Ar  131  0.3369363E+01  0.1973970E+02  0.2326892E+02  0.1471703E+03
Ar  132  0.1124484E+01  0.2216183E+02  0.2423698E+02  0.1066119E+03
Ar  133  0.3726814E+02  0.1869598E+02  0.2348883E+02  0.3497479E+03
Ar  134  0.4979145E+01  0.2419589E+02  0.2715705E+02  0.2329169E+03
Ar  135  0.3523933E+02  0.2606758E+02  0.3029370E+02  0.7663475E+03
Ar  136  0.2663281E+01  0.2108777E+02  0.3053046E+02  0.1478857E+03
Ar  137  0.1204727E-01  0.2113019E+02  0.3264115E+02  0.3793816E+03
Ar  138  0.4543393E+00  0.2478518E+02  0.3139308E+02  0.9730511E+02
Ar  139  0.2776764E+01  0.2081252E+02  0.5799281E+00  0.6682032E+03
Ar  140  0.8368496E+00  0.2413878E+02  0.3459744E+02  0.2308324E+03
Ar  141  0.7889508E+00  0.2856502E+02  0.8071056E+00  0.3441509E+03
Ar  142  0.2112200E+01  0.3172853E+02  0.8847857E+00  0.3206340E+03
Ar  143  0.3904941E+01  0.2705150E+02  0.2973918E+01  0.9838767E+02
Ar  144  0.5468709E+00  0.2972562E+02  0.4292635E+01  0.2220961E+03
Ar  145  0.1584687E+01  0.2656492E+02  0.6674325E+01  0.7790758E+03
Ar  146  0.3815015E+01  0.2893546E+02  0.5540438E+01  0.3101683E+02
Ar  147  0.3354740E+01  0.2503057E+02  0.1037177E+02  0.1841772E+03
Ar  148  0.3750667E+02  0.3069910E+02  0.7520726E+01  0.9817570E+02
Ar  149  0.3378241E+02  0.2867951E+02  0.1290665E+02  0.1695279E+03
Ar  150  0.6871141E+00  0.2809599E+02  0.1051398E+02  0.4067448E+03
Ar  151  0.1008766E+01  0.2370382E+02  0.1808455E+02  0.3502539E+03
Ar  152  0.3704735E+02  0.2839955E+02  0.1354646E+02  0.3980175E+03
Ar  153  0.3423235E+02  0.2578396E+02  0.1096636E+02  0.2926096E+03
Ar  154  0.3769711E+02  0.2572195E+02  0.1526370E+02  0.3410805E+03
Ar  155  0.6989002E+01  0.2542833E+02  0.1890666E+02  0.1855449E+03
Ar  156  0.3433317E+02  0.2665118E+02  0.1633328E+02  0.2591631E+03
Ar  157  0.4898743E+00  0.2468238E+02  0.2174320E+02  0.1655298E+03
Ar  158  0.3511122E+01  0.2441284E+02  0.2010030E+02  0.3329959E+03
Ar  159  0.1928870E+01  0.2546260E+02  0.2460304E+02  0.5661093E+03
Ar  160  0.2276525E+01  0.2818801E+02  0.2283570E+02  0.1935623E+03
Ar  161  0.3757071E+02  0.2704139E+02  0.2795263E+02  0.1002648E+03
Ar  162  0.6437845E+00  0.3280547E+02  0.2691471E+02  0.4550202E+03
Ar  163  0.2735607E+01  0.2887720E+02  0.2624223E+02  0.1464619E+03
Ar  164  0.7143192E+00  0.3043254E+02  0.2922329E+02  0.1325052E+03
Ar  165  0.1286466E+01  0.2815823E+02  0.3190572E+02  0.9731971E+02
Ar  166  0.2981292E+01  0.2624627E+02  0.2884753E+02  0.1834305E+03
Ar  167  0.1247382E+01  0.3138185E+02  0.3508073E+02  0.4672635E+03
Ar  168  0.2228559E+01  0.3503127E+02  0.3438375E+02  0.3157007E+03
Ar  169  0.3716173E+02  0.3283633E+02  0.2875446E+01  0.3381316E+03
Ar  170  0.6323369E+01  0.3335903E+02  0.2906782E+01  0.4044210E+03
Ar  171  0.2894326E+01  0.3225832E+02  0.4377735E+01  0.3734628E+03
Ar  172  0.3730379E+02  0.3452208E+02  0.3721840E+02  0.9538183E+02
Ar  173  0.8042136E+00  0.3415405E+02  0.6902042E+01  0.1033440E+03
Ar  174  0.4088016E+01  0.3417808E+02  0.6926281E+01  0.4546546E+03
Ar  175  0.3582812E+01  0.3128197E+02  0.8066738E+01  0.3160278E+03
Ar  176  0.3729588E+02  0.3487738E+02  0.1026061E+02  0.3294524E+03
Ar  177  0.3718870E+02  0.3262640E+02  0.1323228E+02  0.9980308E+03
Ar  178  0.1419509E+01  0.3176928E+02  0.1047741E+02  0.1895280E+03
Ar  179  0.3068679E+01  0.3197619E+02  0.1391726E+02  0.7865288E+03
Ar  180  0.3563317E+02  0.3685883E+02  0.1319508E+02  0.1271448E+04
Ar  181  0.3609692E+02  0.3008452E+02  0.1632166E+02  0.6186642E+03
Ar  182  0.4621007E+01  0.3109994E+02  0.1667905E+02  0.4516611E+02
Ar  183  0.8472165E+00  0.2742071E+02  0.1891498E+02  0.1064021E+03
Ar  184  0.3231953E+01  0.3497134E+02  0.1636081E+02  0.1099548E+03
Ar  185  0.1141640E+01  0.3127334E+02  0.1759501E+02  0.2135055E+03
Ar  186  0.4168713E+01  0.3365750E+02  0.1917368E+02  0.9267009E+03
Ar  187  0.2056640E+01  0.3189775E+02  0.2360525E+02  0.4162927E+03
Ar  188  0.1689880E+00  0.3686967E+02  0.2599853E+02  0.1566184E+04
Ar  189  0.3490377E+02  0.3496224E+02  0.2674691E+02  0.3100131E+03
Ar  190  0.3461464E+01  0.3481024E+02  0.2606851E+02  0.2718184E+03
Ar  191  0.2340600E+01  0.3371759E+02  0.2993946E+02  0.1470268E+03
Ar  192  0.3689096E+02  0.3589256E+02  0.2937889E+02  0.3687752E+02
Ar  193  0.3167207E+01  0.3684256E+02  0.3144066E+02  0.6249855E+03
Ar  194  0.6015554E+01  0.3567683E+02  0.3324925E+02  0.3787319E+03
Ar  195  0.3475044E+01  0.3269499E+02  0.3284544E+02  0.1194495E+03
Ar  196  0.3520379E+02  0.3614012E+02  0.3496608E+02  0.1998419E+03
Ar  197  0.3041178E+01  0.5086374E+00  0.2682873E+00  0.4740731E+03
Ar  198  0.8254644E+01  0.3865692E+00  0.1130130E+01  0.7170372E+03
Ar  199  0.1022517E+02  0.3708795E+02  0.5055657E+01  0.1858678E+03
Ar  200  0.5132987E+01  0.2288808E+01  0.2933150E+01  0.1733145E+03
Ar  201  0.5064367E+01  0.3733595E+02  0.6418925E+01  0.2926048E+03
Ar  202  0.7576940E+01  0.7851860E+01  0.6622852E+01  0.9376077E+03
Ar  203  0.1050747E+02  0.3557649E+02  0.8065847E+01  0.1965921E+03
Ar  204  0.8958336E+01  0.1630149E+01  0.7376837E+01  0.1744704E+03
Ar  205  0.4646291E+01  0.2072383E+01  0.9801993E+01  0.2104494E+03
Ar  206  0.1115655E+02  0.4222919E+01  0.7883149E+01  0.5836795E+03
Ar  207  0.1074439E+02  0.3690712E+02  0.1429659E+02  0.3868831E+02
Ar  208  0.6921000E+01  0.1042952E+01  0.1204352E+02  0.4564182E+03
Ar  209  0.2334236E+01  0.3534930E+02  0.1287302E+02  0.6578462E+01
Ar  210  0.7975986E+01  0.1036511E+01  0.1607909E+02  0.4468356E+02
Ar  211  0.6123190E+01  0.3572790E+02  0.1433337E+02  0.2243432E+03
Ar  212  0.3873523E+01  0.6801937E+01  0.1740209E+02  0.2884187E+02
Ar  213  0.6406506E+01  0.3682138E+02  0.1958536E+02  0.3520605E+03
Ar  214  0.5757547E+01  0.3465018E+01  0.1817700E+02  0.3140537E+03
Ar  215  0.7330016E+01  0.3739956E+02  0.2333896E+02  0.1681489E+03
Ar  216  0.6289170E+01  0.2757491E+01  0.2187743E+02  0.1667224E+03
Ar  217  0.1013979E+02  0.2181958E+00  0.2623324E+02  0.4409009E+03
Ar  218  0.8174537E+01  0.4627770E+01  0.3136229E+02  0.3207929E+03
Ar  219  0.9784090E+01  0.1207443E+01  0.3025585E+02  0.1418562E+03
Ar  220  0.5032783E+01  0.5168142E+01  0.3024148E+02  0.3071406E+03
Ar  221  0.5653762E+01  0.8893529E+00  0.3048608E+02  0.5454056E+03
Ar  222  0.7928712E+01  0.4703843E+01  0.3494329E+02  0.1609015E+03
Ar  223  0.8403068E+01  0.2393941E+01  0.3957394E+01  0.4136575E+03
Ar  224  0.7868905E+01  0.1216260E+01  0.3318761E+02  0.1141944E+03
Ar  225  0.6038831E+01  0.2333264E+01  0.3673785E+02  0.8358467E+03
Ar  226  0.4987339E+01  0.6232714E+01  0.1078343E+01  0.2652516E+03
Ar  227  0.7006332E+01  0.5534994E+01  0.3901909E+01  0.1730121E+03
Ar  228  0.4931533E+01  0.8499666E+01  0.4863652E+01  0.8628785E+03
Ar  229  0.3700554E+01  0.6424373E+01  0.7463810E+01  0.1697216E+03
Ar  230  0.9406090E+01  0.8657117E+01  0.2629721E+01  0.2246239E+03
Ar  231  0.6483657E+01  0.6756040E+01  0.9727419E+01  0.8968443E+02
Ar  232  0.5109949E+01  0.9710646E+01  0.8318713E+01  0.3963366E+03
Ar  233  0.8069072E+01  0.9789937E+01  0.1078400E+02  0.9944620E+03
Ar  234  0.1315057E+02  0.7989174E+01  0.1163631E+02  0.2455073E+03
Ar  235  0.9134540E+01  0.6705437E+01  0.1251366E+02  0.2537725E+03
Ar  236  0.8183919E+01  0.1345141E+02  0.1385555E+02  0.4708122E+03
Ar  237  0.4754283E+01  0.9015691E+01  0.1207806E+02  0.9425025E+03
Ar  238  0.8532129E+01  0.9942193E+01  0.1496592E+02  0.1562560E+03
Ar  239  0.8313258E+01  0.9173440E+01  0.2198303E+02  0.2881117E+03
Ar  240  0.7873309E+01  0.6746409E+01  0.1898579E+02  0.4157702E+03
Ar  241  0.5301226E+01  0.8228602E+01  0.2380686E+02  0.6687467E+03
Ar  242  0.7494113E+01  0.9987550E+01  0.2517444E+02  0.4664881E+03
Ar  243  0.8206437E+01  0.5480627E+01  0.2442213E+02  0.6041485E+03
Ar  244  0.2322857E+01  0.9440408E+01  0.2584679E+02  0.8315558E+02
Ar  245  0.7503658E+01  0.4045991E+01  0.2805597E+02  0.1255801E+04
Ar  246  0.8207928E+01  0.1200453E+02  0.2868210E+02  0.4308085E+03
Ar  247  0.8726943E+01  0.7411979E+01  0.2841167E+02  0.9259178E+03
Ar  248  0.5390074E+01  0.9761398E+01  0.2914446E+02  0.1583702E+03
Ar  249  0.4500115E+01  0.7660493E+01  0.3233619E+02  0.2703501E+03
Ar  250  0.9168794E+01  0.9983288E+01  0.3586906E+02  0.6081337E+02
Ar  251  0.7756101E+01  0.7416058E+01  0.3773482E+02  0.3578800E+03
Ar  252  0.6660354E+01  0.8710685E+01  0.3479413E+02  0.3913763E+03
Ar  253  0.5772885E+01  0.9643053E+01  0.8839690E+00  0.4975652E+03
Ar  254  0.9020390E+01  0.1493794E+02  0.3228007E+01  0.9910979E+01
Ar  255  0.6408197E+01  0.1396750E+02  0.6814379E+00  0.4611779E+03
Ar  256  0.3070751E+01  0.1240111E+02  0.1615013E+01  0.7515847E+03
Ar  257  0.7428507E+01  0.1075768E+02  0.4460078E+01  0.8211952E+03
Ar  258  0.5681763E+01  0.1364099E+02  0.3860377E+01  0.3030955E+03
Ar  259  0.1031285E+02  0.9702337E+01  0.6155190E+01  0.5167647E+03
Ar  260  0.8095319E+01  0.1173126E+02  0.7538154E+01  0.2299704E+03
Ar  261  0.5575268E+01  0.1255153E+02  0.1109340E+02  0.3998918E+03
Ar  262  0.7668681E+01  0.1496442E+02  0.9481497E+01  0.3238069E+03
Ar  263  0.9183282E+01  0.1623306E+02  0.1553325E+02  0.3918603E+03
Ar  264  0.5137933E+01  0.1439529E+02  0.1410303E+02  0.5123610E+03
Ar  265  0.5177562E+01  0.1013791E+02  0.1538976E+02  0.1135435E+03
Ar  266  0.7314920E+01  0.1255554E+02  0.1702286E+02  0.2040319E+03
Ar  267  0.8173729E+01  0.1240675E+02  0.2100481E+02  0.3678172E+03
Ar  268  0.1742785E+01  0.1346863E+02  0.2068179E+02  0.2176859E+03
Ar  269  0.4958694E+01  0.1178662E+02  0.2247918E+02  0.8376326E+03
Ar  270  0.5406410E+01  0.1386480E+02  0.2011983E+02  0.1174817E+03
Ar  271  0.5195958E+01  0.1225066E+02  0.2718435E+02  0.2960051E+03
Ar  272  0.5030105E+01  0.1321741E+02  0.3066926E+02  0.5771691E+03
Ar  273  0.2385029E+01  0.1197933E+02  0.2878959E+02  0.1685491E+03
Ar  274  0.8629308E+01  0.1363524E+02  0.2583419E+02  0.6459148E+03
Ar  275  0.8484040E+01  0.9920629E+01  0.3156768E+02  0.5419411E+03
Ar  276  0.3429682E+01  0.1485010E+02  0.3352227E+02  0.2447451E+03
Ar  277  0.4396030E+01  0.1091884E+02  0.3317089E+02  0.2819770E+03
Ar  278  0.8085129E+01  0.1350774E+02  0.3201570E+02  0.3564685E+03
Ar  279  0.7260793E+01  0.1252681E+02  0.3527610E+02  0.7192585E+03
Ar  280  0.3280898E+01  0.1561259E+02  0.3062290E+00  0.2034010E+03
Ar  281  0.2594388E+01  0.1564753E+02  0.3858459E+01  0.5912777E+03
Ar  282  0.9675525E+01  0.1829206E+02  0.1565674E+01  0.4080213E+03
Ar  283  0.5878623E+01  0.1750224E+02  0.2436280E+01  0.5290207E+03
Ar  284  0.5378318E+01  0.2185017E+02  0.2224357E+01  0.1034819E+04
Ar  285  0.4907738E+01  0.1411975E+02  0.7456945E+01  0.3689153E+03
Ar  286  0.7788890E+01  0.1923281E+02  0.4802089E+01  0.8739083E+01
Ar  287  0.4000549E+01  0.1741454E+02  0.6425408E+01  0.1428654E+04
Ar  288  0.6009736E+01  0.1853919E+02  0.9363369E+01  0.4591439E+03
Ar  289  0.2620475E+01  0.1222603E+02  0.8678677E+01  0.2454723E+03
Ar  290  0.9147280E+01  0.1786417E+02  0.8244067E+01  0.4059542E+03
Ar  291  0.1069156E+02  0.1614793E+02  0.1193062E+02  0.5475295E+03
Ar  292  0.5601219E+01  0.1822489E+02  0.1264658E+02  0.3067509E+02
Ar  293  0.5056213E+01  0.1950525E+02  0.1583327E+02  0.2228683E+03
Ar  294  0.8219189E+01  0.1974201E+02  0.1591022E+02  0.4955324E+02
Ar  295  0.7128758E+01  0.1715177E+02  0.1973523E+02  0.7077111E+02
Ar  296  0.3766987E+01  0.1775109E+02  0.2036914E+02  0.4230613E+03
Ar  297  0.6442537E+01  0.1818218E+02  0.2312789E+02  0.5931114E+02
Ar  298  0.9387184E+01  0.2034838E+02  0.2241213E+02  0.1127675E+03
Ar  299  0.1053571E+02  0.1713782E+02  0.2467988E+02  0.6178463E+03
Ar  300  0.7578410E+01  0.2213091E+02  0.2512586E+02  0.5457821E+03
Ar  301  0.6621403E+01  0.1816475E+02  0.2637927E+02  0.6279937E+03
Ar  302  0.9522075E+01  0.1899779E+02  0.2733813E+02  0.9311004E+03
Ar  303  0.6784659E+01  0.1576699E+02  0.3523460E+02  0.3418489E+03
Ar  304  0.5586805E+01  0.1628483E+02  0.3075904E+02  0.4524250E+03
Ar  305  0.2211660E+01  0.1806850E+02  0.3542439E+02  0.4163010E+03
Ar  306  0.8279932E+01  0.2047280E+02  0.2995035E+02  0.2391528E+03
Ar  307  0.9109578E+01  0.1789665E+02  0.3582529E+02  0.2338198E+02
Ar  308  0.5577060E+01  0.1892936E+02  0.3566755E+02  0.1925507E+03
Ar  309  0.8512411E+01  0.2183499E+02  0.4637217E-01  0.4680255E+03
Ar  310  0.8609482E+01  0.2523011E+02  0.3689994E+02  0.3368809E+03
Ar  311  0.1003143E+02  0.2133448E+02  0.3998738E+01  0.1240114E+04
Ar  312  0.6489722E+01  0.2506259E+02  0.2211369E+01  0.7231124E+02
Ar  313  0.3958867E+01  0.2095948E+02  0.6053575E+01  0.4271396E+03
Ar  314  0.7196783E+01  0.2335205E+02  0.5049646E+01  0.1902477E+03
Ar  315  0.7626285E+01  0.2117061E+02  0.7552440E+01  0.1982885E+03
Ar  316  0.7076308E+01  0.2421037E+02  0.9743444E+01  0.3663978E+03
Ar  317  0.5286746E+01  0.2392399E+02  0.1294141E+02  0.4235987E+03
Ar  318  0.9622296E+01  0.2441786E+02  0.1210306E+02  0.1256877E+03
Ar  319  0.6920512E+01  0.2108263E+02  0.1262315E+02  0.2568671E+03
Ar  320  0.2920164E+01  0.2269684E+02  0.1520316E+02  0.4161156E+03
Ar  321  0.6197632E+01  0.2291256E+02  0.1646475E+02  0.2822606E+03
Ar  322  0.1030212E+02  0.2210212E+02  0.1475331E+02  0.3812292E+03
Ar  323  0.9626203E+01  0.2140527E+02  0.1850347E+02  0.1042489E+04
Ar  324  0.9023873E+01  0.2486063E+02  0.1552562E+02  0.7616516E+03
Ar  325  0.3226776E+01  0.2100637E+02  0.1854200E+02  0.3748025E+01
Ar  326  0.8118082E+01  0.2349161E+02  0.2136172E+02  0.3368813E+03
Ar  327  0.6058207E+01  0.2072790E+02  0.2065160E+02  0.2542828E+03
Ar  328  0.4778918E+01  0.2315278E+02  0.2379827E+02  0.5254697E+02
Ar  329  0.8560652E+01  0.2357466E+02  0.2774779E+02  0.5259633E+03
Ar  330  0.8231711E+01  0.2546974E+02  0.2495440E+02  0.2859183E+02
Ar  331  0.6189445E+01  0.2308023E+02  0.3029906E+02  0.7192737E+02
Ar  332  0.1389217E+01  0.2289589E+02  0.2794322E+02  0.5825646E+03
Ar  333  0.3147532E+01  0.2188531E+02  0.3492838E+02  0.2260100E+03
Ar  334  0.3897403E+01  0.2522935E+02  0.3275610E+02  0.2345001E+03
Ar  335  0.8189521E+01  0.2165175E+02  0.3305690E+02  0.1181868E+04
Ar  336  0.6209481E+01  0.2354633E+02  0.3539291E+02  0.3366540E+03
Ar  337  0.5666448E+01  0.2703598E+02  0.3747053E+02  0.1023598E+03
Ar  338  0.1068292E+02  0.3330212E+02  0.6692320E+00  0.3103469E+03
Ar  339  0.8817292E+01  0.2788979E+02  0.1256985E+01  0.4597697E+03
Ar  340  0.8495833E+01  0.3121034E+02  0.2887819E+01  0.6211255E+03
Ar  341  0.6917112E+01  0.2803007E+02  0.5061846E+01  0.4397050E+03
Ar  342  0.8810399E+01  0.2978135E+02  0.6943588E+01  0.1301656E+03
Ar  343  0.9269683E+01  0.2574124E+02  0.7106656E+01  0.2750904E+03
Ar  344  0.3931118E+01  0.2790330E+02  0.9164313E+01  0.1563579E+03
Ar  345  0.3059766E+01  0.2618511E+02  0.1370020E+02  0.6155757E+03
Ar  346  0.7064582E+01  0.2734319E+02  0.1140244E+02  0.2295633E+03
Ar  347  0.6142731E+01  0.2704096E+02  0.1504133E+02  0.5789376E+02
Ar  348  0.2116258E+01  0.2851859E+02  0.1557729E+02  0.3486848E+03
Ar  349  0.3880333E+01  0.2598610E+02  0.1721483E+02  0.1106672E+03
Ar  350  0.9499070E+01  0.2755500E+02  0.1742062E+02  0.3476388E+03
Ar  351  0.5183888E+01  0.2657568E+02  0.2194916E+02  0.1637456E+03
Ar  352  0.5743026E+01  0.2829356E+02  0.1806629E+02  0.1052619E+03
Ar  353  0.4933149E+01  0.2688096E+02  0.2524333E+02  0.6606667E+03
Ar  354  0.7725329E+01  0.2869425E+02  0.2056399E+02  0.7684615E+03
Ar  355  0.8891950E+01  0.2885295E+02  0.2351052E+02  0.1554898E+03
Ar  356  0.5032951E+01  0.2984789E+02  0.2380335E+02  0.1427973E+03
Ar  357  0.6546828E+01  0.2961697E+02  0.2692490E+02  0.2000976E+03
Ar  358  0.8678404E+01  0.3183412E+02  0.2851579E+02  0.5043950E+03
Ar  359  0.4050627E+01  0.2921152E+02  0.3346738E+02  0.9324098E+02
Ar  360  0.3860574E+01  0.3080547E+02  0.2982140E+02  0.1932355E+03
Ar  361  0.2452319E+01  0.2703449E+02  0.3597494E+02  0.1013612E+03
Ar  362  0.7400700E+01  0.2932537E+02  0.3084197E+02  0.1651066E+03
Ar  363  0.7673150E+01  0.2515797E+02  0.3284738E+02  0.5260271E+02
Ar  364  0.4055527E+01  0.2987520E+02  0.3679959E+02  0.8981100E+03
Ar  365  0.5035862E+01  0.3308612E+02  0.3580937E+02  0.3695892E+03
Ar  366  0.8729713E+01  0.3546001E+02  0.2617439E+01  0.1140932E+04
Ar  367  0.8830419E+01  0.3380805E+02  0.5680890E+01  0.3937611E+03
Ar  368  0.5274733E+01  0.3665681E+02  0.2526648E+01  0.4522408E+03
Ar  369  0.6396051E+01  0.3121233E+02  0.5773331E+01  0.2686035E+03
Ar  370  0.8130087E+01  0.3310019E+02  0.8639667E+01  0.5829761E+02
Ar  371  0.6460391E+01  0.3038041E+02  0.9394005E+01  0.2488035E+03
Ar  372  0.4912408E+01  0.3452773E+02  0.1007686E+02  0.7305357E+03
Ar  373  0.4283598E+01  0.2897421E+02  0.1253342E+02  0.2142841E+03
Ar  374  0.7272657E+01  0.3717388E+02  0.9401959E+01  0.4976724E+03
Ar  375  0.9718357E+01  0.3115105E+02  0.1155145E+02  0.7911859E+03
Ar  376  0.5992614E+01  0.3258839E+02  0.1245458E+02  0.4857884E+03
Ar  377  0.7620398E+01  0.3011458E+02  0.1468867E+02  0.3177298E+03
Ar  378  0.9188593E+01  0.3354967E+02  0.1472390E+02  0.3389443E+03
Ar  379  0.9407459E+01  0.3580121E+02  0.1798266E+02  0.8961271E+03
Ar  380  0.6761420E+01  0.3382272E+02  0.1706862E+02  0.1418103E+03
Ar  381  0.3162820E+01  0.3027147E+02  0.2002966E+02  0.6116533E+03
Ar  382  0.6263667E+01  0.3172763E+02  0.2144964E+02  0.4194304E+02
Ar  383  0.7465406E+01  0.3236648E+02  0.2504851E+02  0.6287462E+03
Ar  384  0.4918949E+01  0.3497968E+02  0.2299151E+02  0.4083734E+03
Ar  385  0.4300699E+01  0.3184289E+02  0.2669965E+02  0.1616550E+03
Ar  386  0.7868455E+01  0.3543745E+02  0.2660445E+02  0.7599931E+02
Ar  387  0.6665555E+01  0.3267347E+02  0.3145910E+02  0.4431424E+03
Ar  388  0.5775697E+01  0.3542215E+02  0.2942606E+02  0.3738308E+02
Ar  389  0.7772698E+01  0.3090835E+02  0.3408964E+02  0.2264549E+03
Ar  390  0.1082947E+02  0.3698401E+02  0.3709433E+02  0.2949264E+03
Ar  391  0.5757420E+01  0.2955697E+02  0.2070722E+01  0.3628161E+02
Ar  392  0.6760644E+01  0.3648665E+02  0.3660822E+02  0.1380670E+04
Ar  393  0.1253407E+02  0.2018599E+01  0.5445339E+01  0.4312131E+03
Ar  394  0.1315256E+02  0.4847640E+01  0.3881797E+00  0.1069456E+02
Ar  395  0.1292870E+02  0.3527695E+02  0.1913669E+01  0.5028094E+03
Ar  396  0.8786646E+01  0.4326522E+01  0.6387122E+00  0.2600917E+02
Ar  397  0.1386706E+02  0.1488874E+01  0.9431682E+01  0.5143275E+03
Ar  398  0.1469857E+02  0.3697305E+02  0.6311992E+01  0.6477206E+03
Ar  399  0.1752584E+02  0.3404176E+02  0.1075757E+02  0.5027704E+02
Ar  400  0.1435862E+02  0.5171314E+01  0.9358247E+01  0.1977268E+03
Ar  401  0.1060532E+02  0.7389507E+00  0.1071208E+02  0.1103831E+03
Ar  402  0.1155441E+02  0.4946465E+01  0.1144492E+02  0.1228192E+03
Ar  403  0.1295582E+02  0.1383996E+01  0.1301691E+02  0.3304105E+03
Ar  404  0.9820030E+01  0.2714560E+01  0.1328037E+02  0.2715888E+03
Ar  405  0.1107094E+02  0.2566309E+01  0.1696263E+02  0.2724076E+03
Ar  406  0.1434699E+02  0.2173255E+01  0.1792474E+02  0.1946240E+03
Ar  407  0.1204813E+02  0.3745886E+02  0.1935412E+02  0.4244477E+03
Ar  408  0.8397153E+01  0.4863785E+01  0.1652562E+02  0.1605672E+03
Ar  409  0.8592963E+01  0.1765086E+01  0.1971670E+02  0.3428485E+03
Ar  410  0.1204777E+02  0.3356783E+01  0.2056091E+02  0.3953262E+03
Ar  411  0.1345303E+02  0.3774769E+02  0.2334681E+02  0.1589689E+03
Ar  412  0.9420160E+01  0.2509987E+01  0.2307409E+02  0.2552454E+03
Ar  413  0.1031638E+02  0.3681573E+02  0.2292561E+02  0.2385445E+03
Ar  414  0.1433329E+02  0.2026832E+00  0.2711543E+02  0.4288491E+03
Ar  415  0.1268110E+02  0.3667132E+02  0.3005461E+02  0.1039674E+03
Ar  416  0.1118199E+02  0.3188534E+01  0.3304113E+02  0.7200067E+03
Ar  417  0.1151536E+02  0.2876009E-01  0.3290881E+02  0.9357003E+02
Ar  418  0.1591720E+02  0.1367187E+01  0.3461037E+02  0.3389700E+03
Ar  419  0.1393342E+02  0.4232455E+01  0.3439915E+02  0.1076405E+04
Ar  420  0.9658080E+01  0.2111864E+01  0.3588444E+02  0.4415534E+03
Ar  421  0.1049766E+02  0.4978271E+01  0.3724647E+01  0.4234085E+03
Ar  422  0.1475206E+02  0.7205869E+01  0.3576516E+02  0.1094806E+04
Ar  423  0.1508423E+02  0.4129087E+01  0.3682165E+01  0.6138316E+03
Ar  424  0.9359240E+01  0.1216758E+02  0.1506223E+01  0.9936170E+02
Ar  425  0.1275256E+02  0.7014665E+01  0.6920277E+01  0.4734448E+02
Ar  426  0.1647522E+02  0.6156697E+01  0.7285027E+01  0.5093943E+03
Ar  427  0.1585287E+02  0.2717392E+01  0.6694924E+01  0.1887408E+03
Ar  428  0.1044238E+02  0.7745794E+01  0.9270527E+01  0.1804989E+03
Ar  429  0.1134012E+02  0.7464841E+01  0.1508967E+02  0.3390099E+03
Ar  430  0.1568334E+02  0.4946064E+01  0.1331377E+02  0.2241883E+04
Ar  431  0.1144119E+02  0.6092390E+01  0.1821536E+02  0.3185465E+03
Ar  432  0.1136946E+02  0.1297314E+02  0.1606715E+02  0.1008017E+04
Ar  433  0.6486664E+01  0.7394141E+01  0.1477648E+02  0.2321652E+03
Ar  434  0.1426272E+02  0.9002721E+01  0.1443774E+02  0.3198319E+03
Ar  435  0.9592966E+01  0.1003950E+02  0.1844169E+02  0.2072668E+03
Ar  436  0.1138206E+02  0.1158693E+02  0.2081331E+02  0.3206715E+03
Ar  437  0.1017467E+02  0.5916313E+01  0.2175158E+02  0.5632110E+03
Ar  438  0.1061479E+02  0.8071917E+01  0.2453628E+02  0.6077573E+03
Ar  439  0.1061604E+02  0.5168271E+01  0.2642327E+02  0.2421520E+03
Ar  440  0.1097817E+02  0.9887167E+01  0.2732718E+02  0.8710315E+03
Ar  441  0.1201842E+02  0.2517783E+01  0.2851360E+02  0.8996354E+02
Ar  442  0.1148513E+02  0.5346239E+01  0.3042139E+02  0.2722596E+03
Ar  443  0.1494799E+02  0.3839189E+01  0.2797593E+02  0.1616867E+03
Ar  444  0.1159666E+02  0.1217091E+02  0.3100147E+02  0.4845355E+03
Ar  445  0.1000170E+02  0.7024358E+01  0.3341228E+02  0.1014126E+03
Ar  446  0.1319484E+02  0.9738726E+01  0.3459830E+02  0.5565804E+03
Ar  447  0.1085929E+02  0.7256632E+01  0.3693004E+02  0.3747045E+03
Ar  448  0.1192442E+02  0.1001273E+02  0.6817571E+00  0.1098859E+03
Ar  449  0.1213091E+02  0.1319016E+02  0.4265849E-01  0.4965310E+03
Ar  450  0.1512831E+02  0.1355623E+02  0.1572191E+01  0.4269413E+03
Ar  451  0.1240995E+02  0.7672202E+01  0.3595186E+01  0.2141042E+03
Ar  452  0.1017433E+02  0.1445017E+02  0.6437323E+01  0.3622487E+03
Ar  453  0.1188456E+02  0.1215914E+02  0.4055391E+01  0.3858954E+03
Ar  454  0.1008988E+02  0.1266963E+02  0.1055300E+02  0.8760002E+02
Ar  455  0.1282935E+02  0.1211029E+02  0.8589155E+01  0.4982851E+03
Ar  456  0.7163168E+01  0.1595974E+02  0.5577057E+01  0.3464528E+03
Ar  457  0.1112170E+02  0.1059311E+02  0.1302974E+02  0.7141949E+03
Ar  458  0.1498478E+02  0.1447343E+02  0.9987054E+01  0.7361120E+03
Ar  459  0.1500521E+02  0.1116532E+02  0.1205901E+02  0.5271248E+03
Ar  460  0.1262429E+02  0.1375155E+02  0.1313969E+02  0.3250438E+03
Ar  461  0.5445716E+01  0.1624546E+02  0.1717381E+02  0.2885582E+03
Ar  462  0.9721584E+01  0.1457043E+02  0.1867549E+02  0.5467755E+03
Ar  463  0.1026840E+02  0.1158483E+02  0.2399005E+02  0.3010770E+03
Ar  464  0.1039448E+02  0.1788258E+02  0.1793501E+02  0.3533887E+03
Ar  465  0.1289771E+02  0.1485787E+02  0.1833334E+02  0.7583930E+03
Ar  466  0.1464838E+02  0.1325543E+02  0.2208773E+02  0.1295323E+03
Ar  467  0.1377525E+02  0.1003660E+02  0.2418521E+02  0.1553542E+03
Ar  468  0.1168785E+02  0.1676276E+02  0.2120880E+02  0.4395597E+03
Ar  469  0.8772192E+01  0.1502646E+02  0.2290822E+02  0.4112650E+03
Ar  470  0.1243848E+02  0.1392802E+02  0.2473947E+02  0.1714905E+03
Ar  471  0.1114000E+02  0.1560024E+02  0.3153478E+02  0.3816085E+03
Ar  472  0.7738386E+01  0.1563551E+02  0.2850578E+02  0.2773210E+02
Ar  473  0.1078782E+02  0.1273209E+02  0.3448297E+02  0.9758790E+02
Ar  474  0.1460579E+02  0.1333978E+02  0.3247342E+02  0.1492677E+03
Ar  475  0.1455287E+02  0.1294347E+02  0.3585645E+02  0.2757730E+03
Ar  476  0.9557400E+01  0.1472265E+02  0.3679632E+02  0.2156626E+04
Ar  477  0.1272476E+02  0.1545886E+02  0.3443825E+02  0.1427555E+04
Ar  478  0.1491795E+02  0.1989788E+02  0.3586759E+02  0.5961318E+03
Ar  479  0.1771920E+02  0.1464527E+02  0.3747989E+02  0.1457540E+04
Ar  480  0.1245034E+02  0.1506208E+02  0.3134157E+01  0.7698633E+03
Ar  481  0.1110059E+02  0.1750914E+02  0.5048460E+01  0.3477405E+03
Ar  482  0.1380125E+02  0.1860720E+02  0.6673642E+01  0.1885546E+03
Ar  483  0.1208305E+02  0.1592500E+02  0.8901052E+01  0.3991363E+03
Ar  484  0.1110480E+02  0.2088476E+02  0.7426710E+01  0.6597692E+02
Ar  485  0.1256613E+02  0.1908475E+02  0.1001992E+02  0.5831393E+03
Ar  486  0.1588625E+02  0.1778487E+02  0.1065180E+02  0.1270502E+02
Ar  487  0.1721678E+02  0.1530209E+02  0.1252912E+02  0.1622277E+03
Ar  488  0.9333202E+01  0.2081620E+02  0.1072610E+02  0.1734438E+03
Ar  489  0.1040991E+02  0.1887863E+02  0.1353413E+02  0.8551071E+02
Ar  490  0.1580515E+02  0.1693579E+02  0.1542207E+02  0.1826897E+03
Ar  491  0.1270752E+02  0.1674483E+02  0.1500199E+02  0.1254861E+03
Ar  492  0.1320120E+02  0.2055671E+02  0.1619259E+02  0.2613161E+03
Ar  493  0.1405874E+02  0.1817082E+02  0.1867646E+02  0.2433424E+03
Ar  494  0.1225498E+02  0.2027257E+02  0.2109640E+02  0.5712079E+03
Ar  495  0.1589127E+02  0.1570483E+02  0.2436180E+02  0.5364636E+03
Ar  496  0.1370886E+02  0.1796720E+02  0.2322134E+02  0.4821266E+02
Ar  497  0.1269157E+02  0.1997549E+02  0.2632206E+02  0.6773673E+02
Ar  498  0.1499493E+02  0.1742802E+02  0.2683540E+02  0.6987481E+02
Ar  499  0.1260361E+02  0.1858562E+02  0.3386712E+02  0.6873530E+03
Ar  500  0.1234955E+02  0.1734144E+02  0.2886518E+02  0.1145004E+04
Ar  501  0.8572935E+01  0.1813045E+02  0.3265739E+02  0.1092272E+03
Ar  502  0.1475523E+02  0.1718266E+02  0.3181429E+02  0.1569392E+03
Ar  503  0.1700541E+02  0.1083822E+02  0.3636618E+02  0.7920312E+01
Ar  504  0.1261401E+02  0.1707135E+02  0.3718569E+02  0.4061648E+03
Ar  505  0.1150023E+02  0.2357877E+02  0.1021305E+01  0.5299546E+03
Ar  506  0.1454417E+02  0.2389165E+02  0.3674948E+02  0.6269041E+03
Ar  507  0.1583949E+02  0.1741160E+02  0.1286722E+01  0.2297402E+03
Ar  508  0.1252586E+02  0.2661053E+02  0.3770647E+02  0.6267043E+03
Ar  509  0.1271107E+02  0.1909646E+02  0.2492532E+01  0.5681566E+03
Ar  510  0.1451414E+02  0.2492229E+02  0.2112525E+01  0.2552169E+03
Ar  511  0.1423130E+02  0.2227871E+02  0.8257750E+01  0.3158402E+03
Ar  512  0.1172769E+02  0.2458828E+02  0.3990778E+01  0.6863612E+02
Ar  513  0.1183610E+02  0.2445361E+02  0.8571461E+01  0.9364180E+02
Ar  514  0.1544777E+02  0.2496935E+02  0.1043239E+02  0.4861900E+03
Ar  515  0.1406468E+02  0.1927539E+02  0.1326747E+02  0.5843725E+03
Ar  516  0.1225991E+02  0.2533769E+02  0.1341954E+02  0.7300963E+01
Ar  517  0.1256094E+02  0.2207475E+02  0.1168418E+02  0.1564078E+03
Ar  518  0.1518257E+02  0.2339635E+02  0.1392949E+02  0.9421348E+01
Ar  519  0.1681801E+02  0.2064845E+02  0.1686678E+02  0.7886877E+03
Ar  520  0.1102743E+02  0.2417657E+02  0.1901148E+02  0.1395775E+03
Ar  521  0.1091822E+02  0.2320870E+02  0.2421661E+02  0.1211413E+03
Ar  522  0.1413452E+02  0.2151689E+02  0.2339422E+02  0.1217342E+03
Ar  523  0.1441228E+02  0.2326892E+02  0.2703527E+02  0.3422072E+03
Ar  524  0.1183239E+02  0.2559326E+02  0.2751752E+02  0.3994997E+03
Ar  525  0.1106344E+02  0.2201175E+02  0.2832595E+02  0.6614187E+02
Ar  526  0.1393450E+02  0.2359062E+02  0.3026284E+02  0.1116280E+03
Ar  527  0.1108978E+02  0.2035042E+02  0.3141417E+02  0.3913221E+03
Ar  528  0.6222157E+01  0.2630627E+02  0.2944835E+02  0.2353529E+03
Ar  529  0.1091968E+02  0.2465294E+02  0.3102666E+02  0.9862342E+02
Ar  530  0.1358877E+02  0.2660650E+02  0.3423645E+02  0.1448298E+03
Ar  531  0.1136785E+02  0.2054566E+02  0.3637530E+02  0.8398136E+03
Ar  532  0.1071001E+02  0.2462983E+02  0.3458564E+02  0.9019303E+02
Ar  533  0.7717195E+01  0.3052920E+02  0.3744348E+02  0.4421510E+03
Ar  534  0.1068373E+02  0.2835691E+02  0.3556849E+02  0.2314769E+03
Ar  535  0.1616711E+02  0.2680237E+02  0.3635564E+02  0.2182888E+03
Ar  536  0.1203125E+02  0.3004553E+02  0.1413309E+01  0.2038278E+03
Ar  537  0.1019579E+02  0.2820407E+02  0.4751609E+01  0.4437381E+03
Ar  538  0.1575252E+02  0.2761997E+02  0.7239610E+01  0.8156342E+03
Ar  539  0.1430504E+02  0.2478350E+02  0.6070682E+01  0.9773383E+02
Ar  540  0.1246093E+02  0.2749145E+02  0.7535810E+01  0.5771881E+03
Ar  541  0.1031210E+02  0.2806002E+02  0.1001357E+02  0.1089679E+03
Ar  542  0.1363392E+02  0.2785231E+02  0.1069972E+02  0.4272077E+03
Ar  543  0.1555439E+02  0.2672323E+02  0.1325444E+02  0.4043927E+03
Ar  544  0.1025578E+02  0.2814639E+02  0.1369959E+02  0.1024764E+03
Ar  545  0.1303368E+02  0.2421939E+02  0.1648709E+02  0.3546200E+03
Ar  546  0.1317258E+02  0.2749659E+02  0.1585854E+02  0.1444428E+03
Ar  547  0.1532856E+02  0.2580037E+02  0.1835486E+02  0.4887825E+02
Ar  548  0.1010569E+02  0.2645043E+02  0.2163335E+02  0.5026060E+03
Ar  549  0.1179888E+02  0.2748944E+02  0.2456286E+02  0.5055154E+02
Ar  550  0.8650239E+01  0.3141978E+02  0.1814665E+02  0.5257791E+03
Ar  551  0.1376817E+02  0.2871132E+02  0.2741405E+02  0.4052370E+03
Ar  552  0.1090726E+02  0.3126718E+02  0.2109620E+02  0.1969108E+03
Ar  553  0.9165236E+01  0.2753736E+02  0.2816531E+02  0.1377754E+03
Ar  554  0.1132847E+02  0.2955765E+02  0.2963686E+02  0.7893992E+02
Ar  555  0.1007562E+02  0.2775761E+02  0.3232797E+02  0.6775798E+03
Ar  556  0.1046298E+02  0.3210312E+02  0.3213501E+02  0.2842196E+02
Ar  557  0.7256713E+01  0.2773745E+02  0.3475483E+02  0.2464790E+03
Ar  558  0.1295599E+02  0.2961456E+02  0.3285798E+02  0.1825193E+03
Ar  559  0.1403252E+02  0.2973062E+02  0.3591351E+02  0.5915968E+03
Ar  560  0.1100979E+02  0.3147908E+02  0.3544515E+02  0.7063262E+03
Ar  561  0.8479247E+01  0.3406527E+02  0.3531114E+02  0.1524815E+03
Ar  562  0.1418563E+02  0.1556912E+01  0.3745441E+02  0.2071123E+03
Ar  563  0.1356334E+02  0.3647912E+02  0.3540243E+02  0.4380282E+03
Ar  564  0.1241420E+02  0.3438823E+02  0.5200025E+01  0.1549786E+03
Ar  565  0.1170676E+02  0.3134232E+02  0.8185251E+01  0.1663647E+03
Ar  566  0.1373858E+02  0.3414414E+02  0.8714345E+01  0.1947976E+03
Ar  567  0.1583727E+02  0.3377583E+02  0.5440084E+01  0.9009392E+03
Ar  568  0.1449081E+02  0.3034034E+02  0.6079170E+01  0.3793884E+03
Ar  569  0.1195785E+02  0.3396790E+02  0.1155877E+02  0.3612612E+03
Ar  570  0.1470595E+02  0.3083638E+02  0.9988821E+01  0.1320370E+04
Ar  571  0.1295824E+02  0.3081479E+02  0.1292658E+02  0.3124203E+03
Ar  572  0.8892188E+01  0.3471085E+02  0.1170224E+02  0.3632988E+03
Ar  573  0.1137237E+02  0.3034051E+02  0.1637875E+02  0.4545681E+02
Ar  574  0.1450261E+02  0.3683652E+02  0.1538800E+02  0.1110269E+03
Ar  575  0.1184484E+02  0.3393068E+02  0.1878906E+02  0.6287936E+03
Ar  576  0.8260607E+01  0.3429565E+02  0.2128873E+02  0.1074094E+03
Ar  577  0.1300367E+02  0.3371642E+02  0.1560265E+02  0.2456196E+03
Ar  578  0.1794223E+02  0.3320095E+02  0.2532353E+02  0.6707072E+03
Ar  579  0.1378065E+02  0.3418413E+02  0.2131218E+02  0.1635898E+03
Ar  580  0.1077780E+02  0.3343899E+02  0.2338194E+02  0.2995221E+03
Ar  581  0.1084176E+02  0.3042370E+02  0.2607349E+02  0.2015711E+03
Ar  582  0.1205624E+02  0.3487976E+02  0.2614437E+02  0.9375265E+02
Ar  583  0.1205740E+02  0.3261806E+02  0.2880662E+02  0.9111106E+02
Ar  584  0.9721144E+01  0.3547891E+02  0.2909493E+02  0.9511940E+02
Ar  585  0.9092127E+01  0.3542914E+02  0.3245123E+02  0.4621263E+03
Ar  586  0.1657303E+02  0.3520693E+02  0.3609340E+02  0.3852554E+03
Ar  587  0.1315259E+02  0.3384202E+02  0.3309803E+02  0.3248780E+03
Ar  588  0.1128665E+02  0.2212824E+01  0.1865236E+01  0.1537246E+03
Ar  589  0.1766080E+02  0.3621639E+01  0.2753735E+00  0.5391269E+03
Ar  590  0.2439243E+02  0.7104663E+01  0.6698992E+00  0.1507941E+03
Ar  591  0.2044520E+02  0.6979601E+00  0.3715028E+02  0.2019275E+03
Ar  592  0.1779531E+02  0.2153549E+01  0.3359235E+01  0.1651800E+03
Ar  593  0.1450052E+02  0.3380414E+00  0.3303484E+01  0.1328333E+03
Ar  594  0.1762683E+02  0.3718265E+02  0.5171401E+01  0.8306758E+03
Ar  595  0.2140008E+02  0.6859736E-01  0.6420365E+01  0.5076258E+03
Ar  596  0.1689334E+02  0.3699836E+02  0.8727737E+01  0.2715853E+03
Ar  597  0.1772963E+02  0.3704398E+02  0.1409577E+02  0.1379537E+04
Ar  598  0.1882412E+02  0.1781208E+01  0.8302366E+01  0.1870557E+03
Ar  599  0.1967970E+02  0.3667773E+02  0.1091000E+02  0.1778422E+03
Ar  600  0.1258634E+02  0.4257165E+01  0.1466166E+02  0.2131455E+03
Ar  601  0.1709679E+02  0.3765592E+02  0.1735058E+02  0.2335417E+03
Ar  602  0.1768009E+02  0.3439907E+01  0.1598422E+02  0.2927889E+03
Ar  603  0.1810732E+02  0.2206238E+01  0.1930084E+02  0.1802666E+02
Ar  604  0.1598820E+02  0.2449982E+01  0.2166624E+02  0.5855002E+03
Ar  605  0.1576485E+02  0.3696711E+02  0.2034967E+02  0.8705715E+02
Ar  606  0.1982705E+02  0.2865023E+01  0.2609691E+02  0.5464725E+03
Ar  607  0.2162857E+02  0.3753956E+02  0.2599661E+02  0.6968402E+03
Ar  608  0.1263488E+02  0.2732545E+01  0.2501412E+02  0.3338953E+02
Ar  609  0.1679306E+02  0.1508249E+01  0.2501947E+02  0.6240356E+03
Ar  610  0.1723523E+02  0.1558692E+01  0.2901818E+02  0.3801860E+02
Ar  611  0.2108190E+02  0.9779639E+00  0.2902644E+02  0.7471706E+03
Ar  612  0.1483565E+02  0.2186334E+01  0.3113631E+02  0.2838831E+03
Ar  613  0.1866886E+02  0.1865588E+01  0.3193243E+02  0.8755620E+02
Ar  614  0.1632270E+02  0.4970961E+01  0.3196692E+02  0.7491855E+03
Ar  615  0.2191838E+02  0.3763813E+02  0.3324573E+02  0.3570720E+03
Ar  616  0.2052716E+02  0.3240246E+01  0.3433006E+02  0.1122522E+03
Ar  617  0.1825338E+02  0.5643644E+01  0.3500233E+02  0.2484615E+03
Ar  618  0.2137050E+02  0.8874383E+01  0.3441831E+01  0.4007319E+03
Ar  619  0.2119620E+02  0.5354290E+01  0.3752460E+02  0.3870776E+03
Ar  620  0.1610336E+02  0.6689244E+01  0.1656060E+01  0.1219567E+03
Ar  621  0.1931194E+02  0.5746044E+01  0.2359716E+01  0.1677021E+03
Ar  622  0.1787591E+02  0.8759225E+01  0.3191647E+01  0.8021440E+03
Ar  623  0.1986074E+02  0.7304570E+01  0.6116278E+01  0.1516785E+03
Ar  624  0.1411305E+02  0.8984598E+01  0.8836586E+01  0.4010808E+02
Ar  625  0.1753048E+02  0.5036762E+01  0.1023556E+02  0.9717353E+03
Ar  626  0.2094988E+02  0.4860090E+01  0.8760055E+01  0.2739325E+03
Ar  627  0.1638768E+02  0.1198055E+01  0.1165555E+02  0.2599537E+03
Ar  628  0.1785341E+02  0.7151382E+01  0.1452572E+02  0.6581700E+03
Ar  629  0.1516588E+02  0.6008890E+01  0.1637439E+02  0.9342369E+02
Ar  630  0.1655678E+02  0.8006073E+01  0.1892432E+02  0.9791622E+03
Ar  631  0.2040851E+02  0.4288924E+01  0.2173146E+02  0.6699633E+02
Ar  632  0.1458873E+02  0.5263590E+01  0.1996254E+02  0.1281250E+03
Ar  633  0.1278159E+02  0.8133971E+01  0.2164988E+02  0.4899853E+03
Ar  634  0.1975726E+02  0.9165307E+01  0.2048941E+02  0.4258870E+03
Ar  635  0.1608879E+02  0.8981321E+01  0.2623815E+02  0.3703468E+03
Ar  636  0.1384660E+02  0.6206563E+01  0.2414375E+02  0.2623532E+03
Ar  637  0.1704292E+02  0.5193504E+01  0.2552246E+02  0.4141257E+03
Ar  638  0.1330140E+02  0.7910706E+01  0.2755553E+02  0.7258611E+03
Ar  639  0.1931169E+02  0.4162553E+01  0.2892579E+02  0.5922220E+03
Ar  640  0.1149344E+02  0.8695535E+01  0.3054152E+02  0.4149286E+03
Ar  641  0.1350901E+02  0.6976333E+01  0.3251879E+02  0.4233041E+03
Ar  642  0.1438540E+02  0.9999366E+01  0.3057323E+02  0.3533620E+03
Ar  643  0.1918468E+02  0.8203967E+01  0.3776854E+02  0.3961579E+03
Ar  644  0.1705316E+02  0.8255261E+01  0.3264166E+02  0.5319507E+02
Ar  645  0.1520088E+02  0.9988869E+01  0.1776388E+01  0.4747346E+03
Ar  646  0.1737234E+02  0.1197996E+02  0.4277394E+01  0.1934623E+03
Ar  647  0.1820419E+02  0.9929359E+01  0.6955412E+01  0.1916911E+03
Ar  648  0.1703790E+02  0.1510835E+02  0.3890596E+01  0.1309712E+03
Ar  649  0.1445676E+02  0.9768746E+01  0.5551006E+01  0.3987863E+03
Ar  650  0.1993432E+02  0.1636299E+02  0.4999879E+01  0.2290273E+03
Ar  651  0.2214504E+02  0.9541264E+01  0.8528153E+01  0.4326078E+02
Ar  652  0.1366504E+02  0.1498536E+02  0.6300393E+01  0.3485145E+02
Ar  653  0.1674643E+02  0.1302614E+02  0.7094338E+01  0.4215709E+03
Ar  654  0.1927585E+02  0.1193941E+02  0.9997634E+01  0.6859048E+03
Ar  655  0.1958115E+02  0.8540626E+01  0.1044936E+02  0.8960068E+03
Ar  656  0.1968153E+02  0.1025715E+02  0.1359856E+02  0.4277412E+03
Ar  657  0.1625202E+02  0.7990600E+01  0.1125361E+02  0.6733727E+03
Ar  658  0.1653184E+02  0.1060021E+02  0.1546952E+02  0.2527683E+03
Ar  659  0.1354700E+02  0.8868183E+01  0.1780796E+02  0.1108464E+03
Ar  660  0.1640608E+02  0.1495179E+02  0.1804268E+02  0.1970337E+03
Ar  661  0.1656066E+02  0.9495507E+01  0.2204504E+02  0.8514573E+03
Ar  662  0.1871678E+02  0.8969796E+01  0.2419502E+02  0.4022057E+03
Ar  663  0.1628411E+02  0.1240076E+02  0.2469833E+02  0.7702578E+03
Ar  664  0.1853184E+02  0.1351803E+02  0.2246813E+02  0.6110353E+03
Ar  665  0.1390099E+02  0.1174358E+02  0.2726622E+02  0.2145285E+03
Ar  666  0.1712395E+02  0.1068516E+02  0.2872606E+02  0.9536481E+03
Ar  667  0.1617788E+02  0.6712052E+01  0.2907876E+02  0.1830643E+03
Ar  668  0.1399953E+02  0.1457176E+02  0.2930557E+02  0.4763636E+03
Ar  669  0.1739042E+02  0.1146863E+02  0.3199665E+02  0.7062014E+03
Ar  670  0.2033182E+02  0.9699212E+01  0.3053684E+02  0.5142675E+03
Ar  671  0.1998864E+02  0.9654096E+01  0.3432665E+02  0.6252722E+02
Ar  672  0.2105879E+02  0.1295511E+02  0.3721733E+02  0.1488095E+03
Ar  673  0.1589270E+02  0.1587391E+02  0.3529707E+02  0.3940789E+03
Ar  674  0.2149113E+02  0.2069196E+02  0.3461453E+02  0.1242294E+03
Ar  675  0.2073251E+02  0.1405408E+02  0.2646981E+01  0.5440867E+03
Ar  676  0.1632911E+02  0.1862798E+02  0.4404332E+01  0.8698015E+03
Ar  677  0.1670390E+02  0.1665778E+02  0.6962964E+01  0.1876538E+03
Ar  678  0.1998573E+02  0.1926712E+02  0.3061369E+01  0.5194674E+03
Ar  679  0.1990095E+02  0.1871246E+02  0.7284006E+01  0.1056046E+04
Ar  680  0.1687547E+02  0.2039224E+02  0.7540592E+01  0.2712210E+02
Ar  681  0.1923822E+02  0.1552040E+02  0.9549941E+01  0.3307422E+03
Ar  682  0.2018867E+02  0.1867717E+02  0.1073849E+02  0.4285179E+03
Ar  683  0.2141763E+02  0.1685995E+02  0.1359712E+02  0.4449515E+03
Ar  684  0.1867693E+02  0.1901247E+02  0.1368496E+02  0.2117394E+03
Ar  685  0.1505290E+02  0.1324849E+02  0.1566880E+02  0.4361716E+03
Ar  686  0.1898253E+02  0.1710853E+02  0.1812076E+02  0.8855696E+03
Ar  687  0.1881878E+02  0.1421641E+02  0.1561913E+02  0.4521128E+03
Ar  688  0.1571977E+02  0.1988848E+02  0.2116785E+02  0.9036281E+02
Ar  689  0.1520064E+02  0.1620975E+02  0.2081087E+02  0.3247955E+03
Ar  690  0.1840994E+02  0.1761479E+02  0.2172715E+02  0.9336986E+03
Ar  691  0.1720473E+02  0.1373869E+02  0.2735814E+02  0.4179079E+03
Ar  692  0.1685950E+02  0.1935526E+02  0.2435911E+02  0.5671965E+03
Ar  693  0.1074488E+02  0.1405009E+02  0.2847312E+02  0.2956245E+02
Ar  694  0.1975717E+02  0.1704789E+02  0.2801166E+02  0.4137552E+03
Ar  695  0.1693494E+02  0.1793069E+02  0.2960656E+02  0.2442892E+03
Ar  696  0.1391799E+02  0.2044686E+02  0.2957744E+02  0.4448209E+02
Ar  697  0.1780948E+02  0.1480870E+02  0.3065919E+02  0.6747911E+02
Ar  698  0.2159810E+02  0.2322043E+02  0.3741858E+02  0.7580308E+03
Ar  699  0.1868988E+02  0.1467581E+02  0.3414544E+02  0.9570026E+03
Ar  700  0.1670796E+02  0.2227559E+02  0.3429826E+02  0.3368765E+02
Ar  701  0.1809380E+02  0.2112711E+02  0.3696372E+02  0.1514104E+03
Ar  702  0.1604759E+02  0.2468342E+02  0.3212413E+02  0.3179290E+03
Ar  703  0.1788234E+02  0.2195121E+02  0.3647943E+01  0.3204251E+03
Ar  704  0.1517509E+02  0.2143029E+02  0.1167117E+01  0.8821040E+03
Ar  705  0.1474605E+02  0.2145041E+02  0.5034097E+01  0.2786205E+03
Ar  706  0.1855157E+02  0.2483943E+02  0.4758323E+01  0.9555058E+02
Ar  707  0.2005153E+02  0.2234430E+02  0.6653488E+01  0.9835235E+03
Ar  708  0.1727863E+02  0.2414456E+02  0.7667000E+01  0.3568792E+03
Ar  709  0.1921236E+02  0.2176699E+02  0.9734095E+01  0.1206127E+03
Ar  710  0.1766189E+02  0.2809316E+02  0.1009289E+02  0.2444778E+03
Ar  711  0.1836544E+02  0.2508089E+02  0.1327387E+02  0.2467283E+03
Ar  712  0.1609729E+02  0.2129662E+02  0.1088015E+02  0.6993816E+02
Ar  713  0.1934733E+02  0.2317669E+02  0.1597774E+02  0.3007011E+03
Ar  714  0.2157655E+02  0.2347136E+02  0.1849442E+02  0.1548598E+03
Ar  715  0.1834718E+02  0.2247903E+02  0.1936181E+02  0.7491020E+03
Ar  716  0.1425095E+02  0.2193512E+02  0.1890159E+02  0.5845876E+03
Ar  717  0.1718151E+02  0.2304410E+02  0.2467040E+02  0.2813328E+03
Ar  718  0.1629044E+02  0.2411268E+02  0.2121213E+02  0.4468792E+03
Ar  719  0.1949855E+02  0.2084211E+02  0.2244241E+02  0.2097463E+03
Ar  720  0.1527959E+02  0.2604979E+02  0.2505032E+02  0.7313854E+03
Ar  721  0.1681720E+02  0.2081048E+02  0.3131778E+02  0.1180728E+03
Ar  722  0.1771057E+02  0.2203366E+02  0.2851395E+02  0.3737631E+03
Ar  723  0.2179300E+02  0.2306005E+02  0.2865925E+02  0.6494790E+03
Ar  724  0.1450290E+02  0.3108887E+02  0.3015523E+02  0.5396404E+03
Ar  725  0.1933389E+02  0.2362044E+02  0.3156600E+02  0.4083023E+03
Ar  726  0.2035260E+02  0.2683553E+02  0.3149526E+02  0.9293750E+03
Ar  727  0.1902921E+02  0.2585429E+02  0.3499686E+02  0.4981167E+02
Ar  728  0.1336650E+02  0.2241595E+02  0.3369990E+02  0.4734152E+02
Ar  729  0.1387529E+02  0.3337331E+02  0.3721767E+02  0.1957457E+03
Ar  730  0.1565535E+02  0.2981420E+02  0.1310575E+01  0.6565945E+03
Ar  731  0.1828086E+02  0.2420481E+02  0.4540724E+00  0.1961687E+03
Ar  732  0.1150304E+02  0.3122204E+02  0.4673791E+01  0.5062720E+03
Ar  733  0.1345867E+02  0.2790237E+02  0.3470889E+01  0.2124304E+03
Ar  734  0.1764689E+02  0.2978427E+02  0.4699871E+01  0.4445196E+03
Ar  735  0.2350279E+02  0.3049619E+02  0.7860855E+01  0.1209147E+03
Ar  736  0.1989665E+02  0.2760757E+02  0.7479572E+01  0.1831762E+03
Ar  737  0.2028516E+02  0.2787539E+02  0.1284954E+02  0.3337437E+03
Ar  738  0.2291475E+02  0.2845008E+02  0.1042141E+02  0.6865320E+02
Ar  739  0.2031136E+02  0.2629830E+02  0.1613808E+02  0.3411761E+03
Ar  740  0.1690430E+02  0.2771096E+02  0.1589581E+02  0.3400158E+03
Ar  741  0.1908778E+02  0.2596328E+02  0.1916078E+02  0.2616826E+03
Ar  742  0.2218519E+02  0.2938773E+02  0.1556263E+02  0.1127675E+03
Ar  743  0.1473193E+02  0.2775271E+02  0.2143664E+02  0.1354163E+03
Ar  744  0.1225330E+02  0.2827028E+02  0.1937716E+02  0.9838140E+03
Ar  745  0.1327283E+02  0.2462716E+02  0.2213612E+02  0.2123509E+03
Ar  746  0.2044628E+02  0.3289628E+02  0.2276792E+02  0.2709192E+03
Ar  747  0.1777223E+02  0.3069911E+02  0.2727373E+02  0.1800513E+03
Ar  748  0.1314439E+02  0.3098618E+02  0.2332108E+02  0.3829000E+03
Ar  749  0.1445617E+02  0.3231772E+02  0.2609770E+02  0.5468515E+03
Ar  750  0.2006569E+02  0.2796677E+02  0.2796435E+02  0.1074829E+04
Ar  751  0.1818064E+02  0.2508221E+02  0.2728615E+02  0.1243738E+03
Ar  752  0.1335218E+02  0.2707068E+02  0.3090778E+02  0.2237075E+03
Ar  753  0.1621995E+02  0.2774486E+02  0.2953929E+02  0.7334009E+02
Ar  754  0.1855342E+02  0.3082406E+02  0.3091606E+02  0.1336349E+03
Ar  755  0.2020293E+02  0.2953593E+02  0.3448462E+02  0.2485196E+03
Ar  756  0.1660841E+02  0.2859979E+02  0.3281249E+02  0.1281355E+04
Ar  757  0.1658575E+02  0.3159361E+02  0.3548123E+02  0.5431727E+03
Ar  758  0.1732951E+02  0.7583925E-01  0.3761934E+02  0.4375455E+03
Ar  759  0.1945870E+02  0.3509700E+02  0.3755094E+02  0.9487752E+03
Ar  760  0.1654754E+02  0.3533990E+02  0.1930420E+01  0.9559510E+03
Ar  761  0.1421559E+02  0.3233633E+02  0.3094819E+01  0.8842932E+02
Ar  762  0.2037069E+02  0.3696987E+02  0.3125794E+01  0.2004079E+03
Ar  763  0.1755095E+02  0.3113457E+02  0.8206137E+01  0.1019917E+04
Ar  764  0.1882330E+02  0.3428221E+02  0.7001133E+01  0.3862962E+03
Ar  765  0.1670888E+02  0.3007680E+02  0.1256330E+02  0.5857540E+02
Ar  766  0.1982291E+02  0.3208433E+02  0.1289331E+02  0.1530640E+03
Ar  767  0.1912852E+02  0.3120062E+02  0.1586775E+02  0.3205811E+03
Ar  768  0.1468598E+02  0.3603528E+02  0.1197819E+02  0.1631302E+03
Ar  769  0.1570927E+02  0.3102766E+02  0.1711549E+02  0.1114542E+03
Ar  770  0.1889235E+02  0.3540587E+02  0.2045179E+02  0.4723009E+03
Ar  771  0.1525791E+02  0.3485908E+02  0.1799169E+02  0.1108579E+03
Ar  772  0.1644037E+02  0.3360612E+02  0.1431033E+02  0.3395900E+03
Ar  773  0.1407623E+02  0.3117912E+02  0.1968961E+02  0.3664496E+03
Ar  774  0.2349864E+02  0.3362404E+02  0.2417364E+02  0.1079348E+03
Ar  775  0.1611420E+02  0.2938781E+02  0.2416560E+02  0.2050146E+03
Ar  776  0.1545845E+02  0.3576315E+02  0.2492973E+02  0.3729789E+03
Ar  777  0.1512413E+02  0.3485498E+02  0.2850161E+02  0.1620548E+03
Ar  778  0.2110126E+02  0.3410020E+02  0.2644578E+02  0.3651992E+03
Ar  779  0.1813561E+02  0.3360893E+02  0.2904838E+02  0.1288347E+03
Ar  780  0.1886174E+02  0.3657793E+02  0.2766849E+02  0.5181397E+03
Ar  781  0.1636364E+02  0.3327636E+02  0.3219793E+02  0.4329137E+03
Ar  782  0.1875241E+02  0.3638141E+02  0.3098925E+02  0.9331701E+03
Ar  783  0.2070126E+02  0.3153034E+02  0.2865556E+02  0.7140613E+03
Ar  784  0.1517281E+02  0.3638581E+02  0.3194602E+02  0.6650941E+03
Ar  785  0.2118290E+02  0.2667162E+01  0.3367033E+01  0.5042071E+03
Ar  786  0.2907543E+02  0.3666908E+01  0.3028106E+01  0.1344178E+03
Ar  787  0.2338772E+02  0.3752648E+02  0.1238063E+01  0.5075651E+03
Ar  788  0.1887583E+02  0.4181713E+01  0.5786645E+01  0.3450059E+03
Ar  789  0.2044059E+02  0.3244197E+02  0.4727290E+01  0.2669253E+02
Ar  790  0.2387428E+02  0.3094337E+01  0.5562215E+01  0.1468405E+03
Ar  791  0.2379101E+02  0.3672070E+02  0.1173432E+02  0.1092527E+03
Ar  792  0.2371193E+02  0.3614518E+02  0.4219248E+01  0.2116399E+03
Ar  793  0.2234411E+02  0.1502239E+01  0.1374884E+02  0.1765565E+03
Ar  794  0.2235209E+02  0.1532669E+01  0.1021832E+02  0.4274302E+03
Ar  795  0.2487848E+02  0.3620197E+02  0.1527282E+02  0.1990253E+03
Ar  796  0.2089642E+02  0.4312767E+01  0.1545961E+02  0.1783467E+03
Ar  797  0.1854236E+02  0.3446269E+02  0.1687097E+02  0.1141300E+01
Ar  798  0.2311988E+02  0.2694144E+01  0.1961982E+02  0.1525965E+03
Ar  799  0.1860692E+02  0.5787703E+01  0.1796015E+02  0.1810806E+03
Ar  800  0.1922659E+02  0.1557442E+01  0.2262429E+02  0.1046755E+03
Ar  801  0.1673933E+02  0.3215176E+02  0.2202888E+02  0.5796745E+03
Ar  802  0.2539453E+02  0.2205271E+01  0.2228545E+02  0.1110010E+03
Ar  803  0.2575333E+02  0.1119289E+01  0.2598183E+02  0.7909750E+02
Ar  804  0.2259801E+02  0.1991385E+01  0.2357305E+02  0.1028120E+03
Ar  805  0.2445858E+02  0.3614951E+02  0.2729403E+02  0.1982157E+03
Ar  806  0.2872979E+02  0.2785961E+01  0.2686514E+02  0.4385678E+03
Ar  807  0.2704009E+02  0.3659730E+02  0.3134595E+02  0.2219757E+02
Ar  808  0.2205112E+02  0.3764829E+01  0.3135554E+02  0.7240679E+02
Ar  809  0.2405616E+02  0.8164191E+00  0.3621833E+02  0.3535978E+03
Ar  810  0.1893022E+02  0.3583864E+02  0.3434559E+02  0.1308923E+04
Ar  811  0.2680287E+02  0.3323704E+02  0.3283547E+02  0.5748012E+03
Ar  812  0.2456216E+02  0.3340663E+01  0.1346144E+01  0.7458261E+03
Ar  813  0.2667324E+02  0.5869686E+01  0.3183377E+01  0.4574599E+03
Ar  814  0.2892748E+02  0.8566181E+01  0.3867351E+01  0.7375713E+02
Ar  815  0.2789878E+02  0.6473153E+01  0.3720926E+02  0.3720547E+03
Ar  816  0.2579004E+02  0.9443388E+01  0.3278875E+01  0.5344139E+03
Ar  817  0.2283872E+02  0.5849681E+01  0.3095411E+01  0.3157702E+03
Ar  818  0.2434059E+02  0.1110974E+02  0.6747612E+01  0.3891768E+03
Ar  819  0.2673829E+02  0.7281397E+01  0.6471603E+01  0.4117885E+03
Ar  820  0.2335970E+02  0.6557470E+01  0.6363355E+01  0.3013212E+03
Ar  821  0.2550177E+02  0.4045122E+01  0.8273647E+01  0.7277513E+03
Ar  822  0.2408392E+02  0.6378184E+01  0.9981640E+01  0.9403503E+02
Ar  823  0.2442093E+02  0.4906113E+01  0.1544042E+02  0.3059264E+03
Ar  824  0.1922370E+02  0.2220765E+01  0.1302356E+02  0.2271391E+02
Ar  825  0.2248435E+02  0.5903401E+01  0.1805006E+02  0.4353826E+03
Ar  826  0.2531324E+02  0.9081022E+01  0.1583713E+02  0.3823632E+03
Ar  827  0.2350475E+02  0.4968197E+01  0.2214902E+02  0.3316410E+03
Ar  828  0.2309298E+02  0.8972346E+01  0.1903975E+02  0.9762939E+02
Ar  829  0.1931117E+02  0.3597890E+02  0.2365933E+02  0.2299317E+03
Ar  830  0.2517102E+02  0.8795007E+01  0.2284455E+02  0.3352563E+02
Ar  831  0.2690871E+02  0.4763513E+01  0.2477458E+02  0.2717134E+02
Ar  832  0.2054343E+02  0.5799080E+01  0.2480463E+02  0.1703642E+04
Ar  833  0.2310123E+02  0.3112141E+01  0.2749755E+02  0.4970266E+03
Ar  834  0.2539939E+02  0.5370502E+01  0.2895839E+02  0.5108186E+03
Ar  835  0.2625938E+02  0.1958291E+01  0.2913917E+02  0.1319326E+03
Ar  836  0.1993858E+02  0.6782269E+01  0.3186747E+02  0.3863754E+02
Ar  837  0.2421287E+02  0.4755472E+01  0.3515503E+02  0.1502722E+03
Ar  838  0.2322703E+02  0.6769640E+01  0.3174730E+02  0.8263248E+03
Ar  839  0.2458567E+02  0.1916964E+01  0.3313394E+02  0.4261517E+03
Ar  840  0.2237201E+02  0.7774187E+01  0.3544870E+02  0.3358523E+03
Ar  841  0.1840466E+02  0.1157961E+02  0.1349966E+01  0.2124067E+02
Ar  842  0.2433274E+02  0.1308820E+02  0.3596803E+02  0.3339553E+03
Ar  843  0.2576503E+02  0.1056986E+02  0.3771676E+02  0.5225190E+03
Ar  844  0.2379217E+02  0.1223107E+02  0.1880890E+01  0.1855408E+03
Ar  845  0.2029964E+02  0.1153857E+02  0.5193479E+01  0.1702660E+03
Ar  846  0.2414792E+02  0.1405332E+02  0.4905436E+01  0.2507585E+03
Ar  847  0.2159821E+02  0.1364523E+02  0.7676950E+01  0.7641874E+03
Ar  848  0.2278760E+02  0.1615751E+02  0.1026856E+02  0.3556720E+03
Ar  849  0.2521926E+02  0.9483821E+01  0.9396231E+01  0.1736795E+03
Ar  850  0.2222324E+02  0.7552909E+01  0.1464013E+02  0.1517559E+03
Ar  851  0.2005844E+02  0.5447638E+01  0.1183964E+02  0.4067772E+03
Ar  852  0.2257835E+02  0.1186179E+02  0.1453645E+02  0.1254360E+03
Ar  853  0.2017239E+02  0.1023923E+02  0.1694255E+02  0.2523203E+03
Ar  854  0.2185481E+02  0.1527565E+02  0.1657901E+02  0.1584732E+03
Ar  855  0.2634973E+02  0.1032154E+02  0.1940543E+02  0.1105881E+03
Ar  856  0.1678601E+02  0.1185082E+02  0.1886579E+02  0.1114215E+03
Ar  857  0.1766824E+02  0.6385988E+01  0.2189938E+02  0.3838788E+03
Ar  858  0.2163770E+02  0.1195973E+02  0.2269801E+02  0.1144161E+04
Ar  859  0.2211067E+02  0.8521006E+01  0.2330293E+02  0.4794494E+03
Ar  860  0.1940760E+02  0.1194416E+02  0.2546961E+02  0.2913119E+03
Ar  861  0.2233880E+02  0.6084619E+01  0.2866956E+02  0.4688692E+03
Ar  862  0.2249410E+02  0.1065227E+02  0.2704467E+02  0.6459553E+03
Ar  863  0.2450770E+02  0.8785073E+01  0.2961963E+02  0.6317804E+03
Ar  864  0.2315422E+02  0.1246738E+02  0.3008412E+02  0.5088521E+03
Ar  865  0.2334064E+02  0.1052644E+02  0.3335361E+02  0.5515146E+03
Ar  866  0.2231468E+02  0.9715223E+01  0.3480280E+00  0.9590623E+02
Ar  867  0.2597908E+02  0.8190788E+01  0.3510181E+02  0.7962335E+03
Ar  868  0.2068401E+02  0.1277145E+02  0.3245461E+02  0.3978852E+03
Ar  869  0.2198224E+02  0.1519013E+02  0.3445988E+02  0.6752614E+03
Ar  870  0.1895408E+02  0.1769639E+02  0.3777294E+02  0.3016904E+03
Ar  871  0.2423774E+02  0.1610100E+02  0.3727107E+02  0.5536719E+03
Ar  872  0.2088922E+02  0.2269376E+02  0.2937465E+01  0.7295759E+03
Ar  873  0.2280780E+02  0.1698222E+02  0.2332765E+01  0.2130567E+03
Ar  874  0.2289285E+02  0.2096706E+02  0.6179278E+01  0.2574499E+03
Ar  875  0.2296080E+02  0.1764020E+02  0.6209700E+01  0.5054172E+03
Ar  876  0.2222090E+02  0.2110786E+02  0.9524883E+01  0.2930237E+03
Ar  877  0.2026173E+02  0.1374457E+02  0.1240708E+02  0.5686189E+03
Ar  878  0.2493640E+02  0.1867589E+02  0.9261877E+01  0.2372013E+03
Ar  879  0.2382775E+02  0.1932339E+02  0.1250192E+02  0.5330422E+03
Ar  880  0.2046407E+02  0.2170332E+02  0.1292452E+02  0.4496532E+03
Ar  881  0.1991392E+02  0.1424586E+02  0.1966607E+02  0.3075815E+02
Ar  882  0.2404186E+02  0.1837476E+02  0.1641213E+02  0.6041581E+03
Ar  883  0.2591269E+02  0.1288106E+02  0.2125324E+02  0.4062574E+03
Ar  884  0.2170256E+02  0.1871761E+02  0.2014879E+02  0.9740042E+02
Ar  885  0.2205096E+02  0.1517257E+02  0.2189612E+02  0.1108614E+03
Ar  886  0.2294346E+02  0.1263508E+02  0.1901674E+02  0.1071045E+03
Ar  887  0.2259818E+02  0.1408795E+02  0.2621465E+02  0.5575850E+03
Ar  888  0.1995352E+02  0.1523068E+02  0.2478804E+02  0.3045104E+03
Ar  889  0.2002761E+02  0.1320308E+02  0.2885999E+02  0.8258664E+03
Ar  890  0.2380388E+02  0.1799760E+02  0.2731346E+02  0.1209939E+03
Ar  891  0.2228228E+02  0.1561388E+02  0.2939030E+02  0.1040168E+04
Ar  892  0.1776535E+02  0.1813655E+02  0.3419858E+02  0.8976705E+02
Ar  893  0.1956382E+02  0.1770830E+02  0.3151283E+02  0.3135184E+03
Ar  894  0.2715646E+02  0.1737716E+02  0.3237309E+02  0.7270099E+03
Ar  895  0.2427411E+02  0.1467419E+02  0.3207325E+02  0.2786837E+03
Ar  896  0.2345752E+02  0.1816323E+02  0.3199229E+02  0.2420920E+03
Ar  897  0.2458964E+02  0.2209048E+02  0.3586608E+02  0.6957077E+02
Ar  898  0.2386300E+02  0.2020299E+02  0.2954755E+01  0.9964891E+02
Ar  899  0.2601590E+02  0.1891213E+02  0.7749231E+00  0.6530619E+03
Ar  900  0.2246396E+02  0.2602678E+02  0.2052944E+01  0.2927750E+03
Ar  901  0.2197999E+02  0.2470337E+02  0.5610360E+01  0.4071419E+03
Ar  902  0.2507182E+02  0.2714624E+02  0.3987028E+01  0.7019568E+03
Ar  903  0.2350349E+02  0.2389899E+02  0.8448903E+01  0.8438726E+02
Ar  904  0.2415803E+02  0.2764497E+02  0.7044001E+01  0.3876334E+03
Ar  905  0.1952809E+02  0.2504843E+02  0.9867845E+01  0.5451281E+02
Ar  906  0.2544053E+02  0.2644745E+02  0.1055261E+02  0.1314180E+03
Ar  907  0.2265153E+02  0.2213912E+02  0.1568691E+02  0.5008218E+03
Ar  908  0.2398749E+02  0.2673713E+02  0.1680428E+02  0.1665844E+03
Ar  909  0.1998528E+02  0.2032919E+02  0.1713277E+02  0.7273782E+03
Ar  910  0.2439657E+02  0.2070784E+02  0.1892160E+02  0.1548944E+03
Ar  911  0.2628725E+02  0.1885607E+02  0.2072979E+02  0.9200212E+03
Ar  912  0.2309552E+02  0.2260942E+02  0.2125405E+02  0.2230480E+02
Ar  913  0.2157461E+02  0.1804573E+02  0.2387075E+02  0.4429951E+03
Ar  914  0.2344173E+02  0.2433328E+02  0.2397520E+02  0.4579683E+03
Ar  915  0.2292146E+02  0.2100829E+02  0.2492794E+02  0.1509343E+03
Ar  916  0.2058521E+02  0.2334523E+02  0.2517624E+02  0.1157989E+04
Ar  917  0.2062715E+02  0.2014441E+02  0.2700318E+02  0.5840668E+02
Ar  918  0.2487238E+02  0.2312054E+02  0.2710406E+02  0.3525019E+03
Ar  919  0.2281583E+02  0.2250708E+02  0.3181996E+02  0.1691888E+03
Ar  920  0.2247985E+02  0.2616730E+02  0.2715258E+02  0.1741058E+03
Ar  921  0.2112359E+02  0.2028673E+02  0.3044777E+02  0.5829916E+03
Ar  922  0.2854602E+02  0.2673622E+02  0.2063400E+00  0.6202346E+03
Ar  923  0.2200916E+02  0.2487110E+02  0.3424973E+02  0.8616910E+02
Ar  924  0.2221734E+02  0.1983910E+02  0.1477176E+00  0.3129931E+03
Ar  925  0.2215714E+02  0.2788911E+02  0.3659302E+02  0.1050323E+03
Ar  926  0.2123556E+02  0.3066247E+02  0.1875127E+01  0.1109606E+04
Ar  927  0.2441285E+02  0.2339482E+02  0.3169983E+01  0.1900036E+02
Ar  928  0.1810200E+02  0.2749624E+02  0.2096480E+01  0.4632997E+03
Ar  929  0.2171436E+02  0.2845378E+02  0.4585721E+01  0.7917026E+03
Ar  930  0.2474320E+02  0.3287732E+02  0.2549640E+01  0.4226946E+03
Ar  931  0.2553824E+02  0.3042375E+02  0.4460555E+01  0.5131066E+03
Ar  932  0.2302419E+02  0.3225660E+02  0.1227682E+02  0.5174174E+03
Ar  933  0.2185477E+02  0.2493596E+02  0.1372784E+02  0.5118238E+03
Ar  934  0.2668082E+02  0.2935209E+02  0.1046209E+02  0.6760033E+03
Ar  935  0.2460412E+02  0.2905293E+02  0.1307110E+02  0.7980020E+03
Ar  936  0.2438055E+02  0.3190567E+02  0.1561811E+02  0.2187115E+03
Ar  937  0.2156286E+02  0.2842438E+02  0.1904855E+02  0.1856327E+03
Ar  938  0.2485972E+02  0.2977544E+02  0.1851218E+02  0.2004654E+03
Ar  939  0.2015880E+02  0.2500382E+02  0.2227331E+02  0.1180088E+03
Ar  940  0.1812119E+02  0.2917332E+02  0.1860747E+02  0.3865908E+03
Ar  941  0.1942153E+02  0.2950592E+02  0.2175608E+02  0.4021167E+03
Ar  942  0.2328909E+02  0.3115360E+02  0.2124315E+02  0.5703607E+03
Ar  943  0.2228826E+02  0.2741380E+02  0.2300840E+02  0.2312783E+03
Ar  944  0.2119031E+02  0.3034007E+02  0.2508041E+02  0.6541245E+02
Ar  945  0.1864760E+02  0.2767935E+02  0.2512894E+02  0.1085216E+03
Ar  946  0.2737923E+02  0.2813573E+02  0.2523537E+02  0.1545119E+03
Ar  947  0.2725106E+02  0.2252123E+02  0.3040411E+02  0.5238897E+02
Ar  948  0.2417651E+02  0.2872116E+02  0.2539815E+02  0.2442246E+03
Ar  949  0.2370608E+02  0.2583681E+02  0.3039487E+02  0.1585745E+04
Ar  950  0.2296223E+02  0.2828323E+02  0.3286573E+02  0.3081542E+03
Ar  951  0.2484467E+02  0.2509126E+02  0.3705366E+02  0.1826561E+03
Ar  952  0.1876918E+02  0.2997023E+02  0.3756453E+02  0.2720769E+02
Ar  953  0.2171732E+02  0.3176275E+02  0.3681535E+02  0.3415696E+03
Ar  954  0.2284712E+02  0.3543485E+02  0.3635080E+02  0.1871828E+03
Ar  955  0.2523071E+02  0.3348711E+02  0.3699603E+02  0.3374583E+02
Ar  956  0.2156156E+02  0.3375053E+02  0.1791570E+01  0.2397345E+03
Ar  957  0.1774163E+02  0.3214044E+02  0.2302466E+01  0.6604862E+03
Ar  958  0.2381820E+02  0.3325943E+02  0.5975572E+01  0.1255889E+03
Ar  959  0.2640579E+02  0.3186283E+02  0.7423906E+01  0.2513196E+03
Ar  960  0.2247254E+02  0.3467517E+02  0.9213834E+01  0.1759036E+03
Ar  961  0.2079372E+02  0.3080238E+02  0.9581469E+01  0.6761075E+02
Ar  962  0.2601634E+02  0.3388524E+02  0.1277209E+02  0.1129578E+03
Ar  963  0.2766082E+02  0.3412245E+02  0.1573910E+02  0.4598379E+03
Ar  964  0.2062626E+02  0.3546704E+02  0.1390578E+02  0.1014574E+04
Ar  965  0.2095512E+02  0.3254118E+02  0.1932260E+02  0.1337829E+03
Ar  966  0.2034269E+02  0.1063197E+01  0.1659409E+02  0.4059453E+03
Ar  967  0.2267811E+02  0.3670235E+02  0.1768692E+02  0.9744286E+02
Ar  968  0.2672232E+02  0.3574779E+02  0.2193835E+02  0.3150066E+03
Ar  969  0.2382063E+02  0.3472743E+02  0.2064785E+02  0.6343243E+03
Ar  970  0.2425746E+02  0.3712042E+02  0.2361373E+02  0.7020479E+03
Ar  971  0.2674747E+02  0.3208194E+02  0.2120001E+02  0.4647900E+03
Ar  972  0.2356738E+02  0.3176837E+02  0.2718922E+02  0.2342030E+02
Ar  973  0.2622779E+02  0.3163334E+02  0.2473645E+02  0.9326420E+03
Ar  974  0.2903429E+02  0.3372733E+02  0.2883253E+02  0.1437999E+03
Ar  975  0.2562522E+02  0.3374900E+02  0.2882052E+02  0.2755857E+03
Ar  976  0.2389045E+02  0.3721670E+02  0.3051219E+02  0.9997241E+02
Ar  977  0.2204641E+02  0.3476280E+02  0.2949255E+02  0.2108859E+03
Ar  978  0.2669411E+02  0.3022694E+02  0.2799290E+02  0.1830160E+02
Ar  979  0.2348358E+02  0.2902568E+02  0.2922678E+02  0.2761600E+03
Ar  980  0.1934486E+02  0.3284459E+02  0.3462016E+02  0.3525699E+03
Ar  981  0.2653363E+02  0.3634196E+02  0.7650677E+00  0.1857780E+04
Ar  982  0.3177438E+02  0.2175394E+01  0.1492549E+01  0.5807260E+03
Ar  983  0.3335609E+02  0.3728357E-01  0.3698593E+02  0.3833428E+03
Ar  984  0.2952548E+02  0.3761242E+02  0.5194999E+01  0.6429318E+03
Ar  985  0.2601466E+02  0.4388212E+00  0.6405779E+01  0.2073811E+03
Ar  986  0.3230410E+02  0.2595450E+01  0.5597708E+01  0.1577895E+03
Ar  987  0.2884778E+02  0.3736386E+02  0.8732580E+01  0.2217002E+03
Ar  988  0.2768621E+02  0.6691515E+01  0.9496266E+01  0.2251041E+03
Ar  989  0.2576083E+02  0.7028279E+00  0.9550006E+01  0.2133770E+03
Ar  990  0.2829098E+02  0.3284684E+01  0.9855798E+01  0.4993029E+03
Ar  991  0.2621669E+02  0.1314534E+01  0.1349181E+02  0.3265030E+02
Ar  992  0.2458224E+02  0.4002726E+01  0.1247176E+02  0.3035227E+03
Ar  993  0.2444497E+02  0.1777020E+01  0.1619042E+02  0.7819398E+02
Ar  994  0.2742394E+02  0.3505583E+01  0.1616021E+02  0.2032774E+03
Ar  995  0.2865420E+02  0.2608619E+00  0.2031748E+02  0.2073731E+03
Ar  996  0.2712396E+02  0.3354418E+01  0.1953431E+02  0.4744068E+03
Ar  997  0.2151788E+02  0.3757650E+02  0.2113581E+02  0.4435750E+03
Ar  998  0.3039581E+02  0.5084302E+01  0.2139886E+02  0.9437017E+03
Ar  999  0.2940816E+02  0.3739132E+02  0.2350124E+02  0.1930812E+04
Ar 1000  0.3087029E+02  0.3563938E+02  0.2623469E+02  0.3017797E+03
Ar 1001  0.2848375E+02  0.3696852E+02  0.2851285E+02  0.3582827E+03
Ar 1002  0.3149302E+02  0.5724614E+01  0.2454596E+02  0.3736249E+03
Ar 1003  0.3308693E+02  0.3764862E+02  0.2810536E+02  0.4356493E+03
Ar 1004  0.2805957E+02  0.6152046E+01  0.2753233E+02  0.8345369E+03
Ar 1005  0.2866818E+02  0.1781573E+01  0.3341970E+02  0.1853243E+03
Ar 1006  0.3450673E+02  0.1633175E+01  0.3078357E+02  0.1134418E+03
Ar 1007  0.2955688E+02  0.5235086E+00  0.3702234E+02  0.7644438E+03
Ar 1008  0.2672979E+02  0.2364005E+01  0.3654797E+02  0.6900307E+03
Ar 1009  0.3087435E+02  0.4017063E+01  0.3619250E+02  0.4666536E+03
Ar 1010  0.3242495E+02  0.7731488E+01  0.3666613E+02  0.3291579E+03
Ar 1011  0.3099722E+02  0.5711496E+01  0.4975755E+01  0.8569444E+02
Ar 1012  0.2879910E+02  0.5682400E+01  0.3340738E+02  0.2935122E+03
Ar 1013  0.2839818E+02  0.4185709E+01  0.6905622E+01  0.1858654E+03
Ar 1014  0.3114331E+02  0.6406295E+01  0.1516729E+01  0.2560764E+03
Ar 1015  0.3123573E+02  0.5380677E+01  0.8207590E+01  0.9365745E+02
Ar 1016  0.3291450E+02  0.9051501E+01  0.2602079E+01  0.6367929E+02
Ar 1017  0.2550658E+02  0.7758523E+01  0.1263140E+02  0.1771755E+03
Ar 1018  0.2948674E+02  0.9507558E+01  0.9900680E+01  0.7468275E+03
Ar 1019  0.2764507E+02  0.5085178E+01  0.1257924E+02  0.1424498E+03
Ar 1020  0.2866997E+02  0.7559007E+01  0.1528005E+02  0.2657131E+03
Ar 1021  0.3097278E+02  0.5271428E+01  0.1803800E+02  0.2825939E+02
Ar 1022  0.3028292E+02  0.4970159E+01  0.1452247E+02  0.2495897E+03
Ar 1023  0.3396434E+02  0.4310933E+01  0.1534319E+02  0.5814490E+03
Ar 1024  0.2581244E+02  0.7174888E+01  0.1859257E+02  0.2130536E+03
Ar 1025  0.2695700E+02  0.5974446E+01  0.2189118E+02  0.5928308E+03
Ar 1026  0.2916392E+02  0.7708645E+01  0.1934066E+02  0.7919861E+03
Ar 1027  0.2565043E+02  0.9221762E+01  0.2634147E+02  0.4379626E+03
Ar 1028  0.1947602E+02  0.7969448E+01  0.2777406E+02  0.2818631E+03
Ar 1029  0.2417459E+02  0.6369235E+01  0.2573735E+02  0.8290343E+02
Ar 1030  0.3143010E+02  0.7368470E+01  0.2796974E+02  0.3440715E+03
Ar 1031  0.3185366E+02  0.3482185E+01  0.3298644E+02  0.4093600E+03
Ar 1032  0.2907197E+02  0.5087220E+01  0.3024453E+02  0.5867075E+03
Ar 1033  0.3075807E+02  0.1006082E+01  0.3050591E+02  0.1298822E+03
Ar 1034  0.3152145E+02  0.7195132E+01  0.3231458E+02  0.7542485E+03
Ar 1035  0.3158078E+02  0.3742110E+02  0.3360306E+02  0.1556708E+03
Ar 1036  0.2591528E+02  0.4736350E+01  0.3253060E+02  0.1205331E+04
Ar 1037  0.2959774E+02  0.9453747E+01  0.5056149E+00  0.1157606E+03
Ar 1038  0.2814268E+02  0.1339592E+02  0.3770104E+02  0.2126120E+03
Ar 1039  0.3167415E+02  0.1208058E+02  0.6030040E+00  0.1342355E+03
Ar 1040  0.2622271E+02  0.1483778E+02  0.2273227E+01  0.2889223E+03
Ar 1041  0.2816944E+02  0.1170271E+02  0.3288500E+01  0.3456850E+03
Ar 1042  0.3125107E+02  0.1192332E+02  0.4186113E+01  0.3146529E+03
Ar 1043  0.2777181E+02  0.1102949E+02  0.6417730E+01  0.2311732E+03
Ar 1044  0.2806107E+02  0.1415284E+02  0.6159327E+01  0.1958012E+03
Ar 1045  0.2293523E+02  0.9701631E+01  0.1174437E+02  0.4314743E+03
Ar 1046  0.2495984E+02  0.1479151E+02  0.7944864E+01  0.2283996E+03
Ar 1047  0.2569395E+02  0.1160675E+02  0.1295373E+02  0.2421989E+03
Ar 1048  0.2664456E+02  0.1502888E+02  0.1698386E+02  0.8950555E+03
Ar 1049  0.2692634E+02  0.1184396E+02  0.1621207E+02  0.9256813E+02
Ar 1050  0.2803411E+02  0.1390414E+02  0.1361499E+02  0.3147254E+03
Ar 1051  0.2992964E+02  0.1339103E+02  0.1700409E+02  0.4459284E+03
Ar 1052  0.2477217E+02  0.1592832E+02  0.1955826E+02  0.1833231E+03
Ar 1053  0.2456764E+02  0.1168328E+02  0.2403662E+02  0.2941498E+03
Ar 1054  0.2836257E+02  0.1034632E+02  0.2236600E+02  0.3500700E+03
Ar 1055  0.2807391E+02  0.1020956E+02  0.2838125E+02  0.6283943E+02
Ar 1056  0.2814508E+02  0.1189315E+02  0.2558452E+02  0.2000934E+03
Ar 1057  0.2651307E+02  0.1122244E+02  0.3130535E+02  0.1512260E+03
Ar 1058  0.2910490E+02  0.1366518E+02  0.2924569E+02  0.3210092E+03
Ar 1059  0.2981468E+02  0.1006433E+02  0.3114672E+02  0.3971720E+02
Ar 1060  0.2562893E+02  0.1304115E+02  0.2796469E+02  0.9086819E+02
Ar 1061  0.2720972E+02  0.7357209E+01  0.3107209E+02  0.1129958E+04
Ar 1062  0.3271851E+02  0.1458935E+02  0.2896484E+02  0.3131381E+03
Ar 1063  0.2970289E+02  0.1017840E+02  0.3475135E+02  0.5495343E+02
Ar 1064  0.2702247E+02  0.1169565E+02  0.3468262E+02  0.1583097E+03
Ar 1065  0.2720866E+02  0.1508687E+02  0.3513806E+02  0.2876861E+03
Ar 1066  0.2923875E+02  0.1755115E+02  0.1460129E+01  0.2268524E+03
Ar 1067  0.2934506E+02  0.1485505E+02  0.3161642E+01  0.6386444E+03
Ar 1068  0.2924464E+02  0.2110018E+02  0.2674826E+01  0.1653224E+03
Ar 1069  0.2586547E+02  0.1732194E+02  0.4741611E+01  0.4015136E+03
Ar 1070  0.2900491E+02  0.1848110E+02  0.5072735E+01  0.1551264E+03
Ar 1071  0.2768030E+02  0.1694042E+02  0.8110886E+01  0.7197523E+02
Ar 1072  0.2706521E+02  0.2245017E+02  0.8949667E+01  0.4845714E+02
Ar 1073  0.2353134E+02  0.1283709E+02  0.1025718E+02  0.1093872E+03
Ar 1074  0.2773492E+02  0.1948437E+02  0.1049584E+02  0.6448168E+03
Ar 1075  0.2615901E+02  0.1513453E+02  0.1116212E+02  0.2138359E+03
Ar 1076  0.2710545E+02  0.1784962E+02  0.1412524E+02  0.5975034E+03
Ar 1077  0.2433748E+02  0.1476883E+02  0.1421429E+02  0.1454853E+03
Ar 1078  0.2806718E+02  0.1780664E+02  0.1727055E+02  0.3618501E+03
Ar 1079  0.3346523E+02  0.1373309E+02  0.1584637E+02  0.2517994E+03
Ar 1080  0.2854304E+02  0.1500807E+02  0.1980731E+02  0.6645031E+03
Ar 1081  0.3202161E+02  0.1415204E+02  0.1967174E+02  0.4662539E+03
Ar 1082  0.2827248E+02  0.1680986E+02  0.2267579E+02  0.3038611E+03
Ar 1083  0.2816720E+02  0.1576698E+02  0.2629684E+02  0.3237834E+03
Ar 1084  0.2564115E+02  0.1822912E+02  0.2427831E+02  0.1040012E+03
Ar 1085  0.2505160E+02  0.1479230E+02  0.2374974E+02  0.4308457E+03
Ar 1086  0.2845502E+02  0.1889738E+02  0.2893157E+02  0.2802142E+03
Ar 1087  0.2582375E+02  0.1625474E+02  0.2927847E+02  0.5221372E+02
Ar 1088  0.2464102E+02  0.2075021E+02  0.2953389E+02  0.3057836E+03
Ar 1089  0.3028997E+02  0.1515425E+02  0.3214014E+02  0.2871866E+03
Ar 1090  0.3094394E+02  0.2151404E+02  0.2907042E+02  0.6880444E+03
Ar 1091  0.2921776E+02  0.1766543E+02  0.3516174E+02  0.2412797E+03
Ar 1092  0.2458368E+02  0.1865745E+02  0.3530850E+02  0.4974883E+01
Ar 1093  0.2661210E+02  0.2236979E+02  0.7848830E+00  0.3687471E+03
Ar 1094  0.3182325E+02  0.2652474E+02  0.3712747E+02  0.8473023E+02
Ar 1095  0.3228232E+02  0.2213181E+02  0.3831289E+01  0.3897823E+03
Ar 1096  0.3075572E+02  0.2310110E+02  0.6244771E+00  0.9968475E+03
Ar 1097  0.2663753E+02  0.2027717E+02  0.6291788E+01  0.2255277E+03
Ar 1098  0.2739569E+02  0.2484808E+02  0.3437499E+01  0.5993731E+02
Ar 1099  0.2986774E+02  0.2184681E+02  0.6389755E+01  0.1714479E+03
Ar 1100  0.2661649E+02  0.2544749E+02  0.6567827E+01  0.3824599E+03
Ar 1101  0.2447521E+02  0.2261633E+02  0.1158353E+02  0.1100134E+04
Ar 1102  0.2806551E+02  0.2310278E+02  0.1194712E+02  0.5668847E+03
Ar 1103  0.2597343E+02  0.2180488E+02  0.1455846E+02  0.1014139E+03
Ar 1104  0.2617841E+02  0.2558546E+02  0.1391117E+02  0.3213388E+03
Ar 1105  0.2751980E+02  0.2110208E+02  0.1765928E+02  0.6450780E+03
Ar 1106  0.2514331E+02  0.2377091E+02  0.1715083E+02  0.2734750E+03
Ar 1107  0.3092520E+02  0.1759666E+02  0.2015608E+02  0.1684337E+02
Ar 1108  0.2668187E+02  0.2339896E+02  0.2054782E+02  0.1127028E+03
Ar 1109  0.2577753E+02  0.2189296E+02  0.2355951E+02  0.1981509E+03
Ar 1110  0.2919778E+02  0.2063840E+02  0.2113968E+02  0.4568593E+03
Ar 1111  0.2937927E+02  0.1960885E+02  0.2501532E+02  0.1985762E+02
Ar 1112  0.3132306E+02  0.2283560E+02  0.2515152E+02  0.4940575E+03
Ar 1113  0.2683269E+02  0.2047379E+02  0.2666465E+02  0.6394338E+03
Ar 1114  0.2838379E+02  0.2448383E+02  0.2569378E+02  0.6206604E+03
Ar 1115  0.2941385E+02  0.2033244E+02  0.3214346E+02  0.9595666E+02
Ar 1116  0.2807038E+02  0.2378845E+02  0.3566398E+02  0.2179839E+03
Ar 1117  0.2570434E+02  0.2074564E+02  0.3264753E+02  0.5909969E+03
Ar 1118  0.3267400E+02  0.2626156E+02  0.3392768E+02  0.2110994E+03
Ar 1119  0.3132882E+02  0.2242415E+02  0.3421010E+02  0.3528589E+03
Ar 1120  0.2961757E+02  0.2403972E+02  0.3220381E+02  0.4587274E+03
Ar 1121  0.2839637E+02  0.3029505E+02  0.4493563E+00  0.7560686E+03
Ar 1122  0.2201075E+02  0.3399504E+02  0.3341782E+02  0.2414442E+03
Ar 1123  0.3128280E+02  0.2548020E+02  0.3111531E+01  0.1653237E+03
Ar 1124  0.2469941E+02  0.2940070E+02  0.1311324E+01  0.3100285E+03
Ar 1125  0.2901346E+02  0.2812442E+02  0.3454976E+01  0.2992086E+03
Ar 1126  0.3096949E+02  0.3094975E+02  0.2774711E+01  0.1285836E+03
Ar 1127  0.2783720E+02  0.2853714E+02  0.6774574E+01  0.3803281E+03
Ar 1128  0.2859257E+02  0.3178228E+02  0.4868228E+01  0.8183615E+02
Ar 1129  0.2863400E+02  0.2607439E+02  0.9123731E+01  0.2003015E+03
Ar 1130  0.2993707E+02  0.3073295E+02  0.8502199E+01  0.4046279E+03
Ar 1131  0.2886806E+02  0.2645807E+02  0.1233313E+02  0.2223100E+03
Ar 1132  0.2782391E+02  0.3107667E+02  0.1366627E+02  0.2410507E+03
Ar 1133  0.2767650E+02  0.2783595E+02  0.1573565E+02  0.1625168E+03
Ar 1134  0.2825035E+02  0.3113782E+02  0.1713181E+02  0.5023192E+03
Ar 1135  0.2858610E+02  0.2552202E+02  0.1880105E+02  0.4564589E+03
Ar 1136  0.2366537E+02  0.2582622E+02  0.2024065E+02  0.2639351E+03
Ar 1137  0.2706395E+02  0.2592671E+02  0.2279056E+02  0.8712138E+02
Ar 1138  0.3082622E+02  0.2745622E+02  0.2176009E+02  0.1520635E+03
Ar 1139  0.2998693E+02  0.2386958E+02  0.2212857E+02  0.1781143E+03
Ar 1140  0.2555336E+02  0.2905819E+02  0.2256711E+02  0.1355962E+03
Ar 1141  0.3246133E+02  0.2618529E+02  0.2471574E+02  0.1082598E+03
Ar 1142  0.2999510E+02  0.2805600E+02  0.2703760E+02  0.3490288E+03
Ar 1143  0.3030287E+02  0.2914498E+02  0.3246290E+02  0.4026034E+03
Ar 1144  0.2894292E+02  0.2724197E+02  0.3037095E+02  0.1291399E+03
Ar 1145  0.2521000E+02  0.2463566E+02  0.3334433E+02  0.2477891E+03
Ar 1146  0.2619182E+02  0.2624524E+02  0.2869039E+02  0.1306967E+03
Ar 1147  0.2924273E+02  0.2718352E+02  0.3467395E+02  0.2833626E+03
Ar 1148  0.2568460E+02  0.2816660E+02  0.3612009E+02  0.5132967E+03
Ar 1149  0.2498812E+02  0.3595798E+02  0.3383069E+02  0.2431113E+03
Ar 1150  0.2850306E+02  0.3290676E+02  0.3617858E+02  0.5939243E+02
Ar 1151  0.2797196E+02  0.3359222E+02  0.1890875E+01  0.7117549E+02
Ar 1152  0.2634691E+02  0.1159496E+01  0.3260935E+01  0.6709015E+03
Ar 1153  0.2684033E+02  0.3546610E+02  0.4538101E+01  0.2756241E+03
Ar 1154  0.2952059E+02  0.3452461E+02  0.6722446E+01  0.1061207E+04
Ar 1155  0.2572921E+02  0.3534049E+02  0.8306249E+01  0.1511073E+03
Ar 1156  0.2819439E+02  0.3648320E+02  0.1208268E+02  0.6015232E+03
Ar 1157  0.3029347E+02  0.3325172E+02  0.1357348E+02  0.3785228E+03
Ar 1158  0.3359420E+02  0.3391022E+02  0.1215042E+02  0.4290047E+03
Ar 1159  0.3164303E+02  0.3322493E+02  0.1765616E+02  0.3009586E+03
Ar 1160  0.2778747E+02  0.3760602E+02  0.1694335E+02  0.3639715E+03
Ar 1161  0.2893021E+02  0.3484244E+02  0.1900473E+02  0.4525939E+03
Ar 1162  0.3114159E+02  0.3679987E+02  0.1844722E+02  0.1363117E+03
Ar 1163  0.2798733E+02  0.2896753E+02  0.2059771E+02  0.3890030E+02
Ar 1164  0.2534136E+02  0.3757994E+02  0.1934416E+02  0.8612061E+03
Ar 1165  0.2532137E+02  0.3338320E+02  0.1831545E+02  0.5606884E+03
Ar 1166  0.2941258E+02  0.3371771E+02  0.2250175E+02  0.2493691E+03
Ar 1167  0.2977751E+02  0.3242479E+02  0.2606554E+02  0.3303470E+03
Ar 1168  0.2704674E+02  0.3534904E+02  0.2580344E+02  0.1593351E+03
Ar 1169  0.2977702E+02  0.3011670E+02  0.2337956E+02  0.3757825E+03
Ar 1170  0.3245243E+02  0.3353028E+02  0.2899451E+02  0.2590413E+03
Ar 1171  0.3407941E+02  0.3462675E+02  0.3184328E+02  0.1422879E+03
Ar 1172  0.2723269E+02  0.3080344E+02  0.3092827E+02  0.1627138E+03
Ar 1173  0.2388239E+02  0.3204586E+02  0.3120491E+02  0.1266693E+03
Ar 1174  0.3047758E+02  0.3337392E+02  0.3360377E+02  0.3785389E+03
Ar 1175  0.3263080E+02  0.3145070E+02  0.3181147E+02  0.9230829E+02
Ar 1176  0.2441003E+02  0.3109858E+02  0.3479200E+02  0.1949576E+03
Ar 1177  0.3157611E+02  0.3498422E+02  0.3678960E+02  0.9773980E+03
Ar 1178  0.2224797E+00  0.1922376E+00  0.3586189E+02  0.2398733E+03
Ar 1179  0.3580018E+02  0.3737882E+02  0.1504695E+01  0.1946096E+03
Ar 1180  0.3709526E+02  0.2292904E+01  0.7302340E+00  0.4333405E+03
Ar 1181  0.3290242E+02  0.3659716E+02  0.6782245E+01  0.6622055E+03
Ar 1182  0.3523107E+02  0.1976362E+01  0.7654983E+01  0.3813755E+03
Ar 1183  0.3548728E+02  0.2452106E+01  0.1227418E+02  0.1394134E+03
Ar 1184  0.3162357E+02  0.1897232E+01  0.8828349E+01  0.3976389E+03
Ar 1185  0.3165825E+02  0.3747946E+02  0.1154530E+02  0.1509529E+03
Ar 1186  0.3454853E+02  0.6374992E+01  0.1244882E+02  0.3274661E+03
Ar 1187  0.3756947E+02  0.3491891E+02  0.1574078E+02  0.3834404E+03
Ar 1188  0.2961004E+02  0.1812215E+01  0.1279907E+02  0.1401423E+03
Ar 1189  0.3405604E+02  0.3761764E+02  0.1638995E+02  0.4218534E+03
Ar 1190  0.3268992E+02  0.1514524E+01  0.1411876E+02  0.1349048E+03
Ar 1191  0.8473779E+00  0.3573078E+02  0.1945969E+02  0.3887661E+03
Ar 1192  0.3038213E+02  0.1983418E+01  0.1664941E+02  0.9804382E+03
Ar 1193  0.3497484E+02  0.3733852E+02  0.1994958E+02  0.2294811E+03
Ar 1194  0.3507668E+02  0.2102860E+01  0.2317358E+02  0.1868693E+03
Ar 1195  0.3573354E+02  0.3673481E+02  0.2355441E+02  0.3004834E+03
Ar 1196  0.2878193E+02  0.2790627E+01  0.2304338E+02  0.5401738E+03
Ar 1197  0.3146085E+02  0.1422212E+01  0.2517627E+02  0.1678697E+03
Ar 1198  0.3228183E+02  0.4435458E+00  0.2178971E+02  0.7643616E+02
Ar 1199  0.3601745E+02  0.1969712E+01  0.2623042E+02  0.4657341E+03
Ar 1200  0.3227786E+02  0.3383764E+01  0.2810737E+02  0.1883800E+03
Ar 1201  0.2835888E+02  0.3606577E+02  0.3485765E+02  0.6974222E+03
Ar 1202  0.3669921E+02  0.4136976E+01  0.3265012E+02  0.6441133E+02
Ar 1203  0.3438787E+02  0.1717213E+01  0.3402599E+02  0.4894355E+03
Ar 1204  0.3416885E+02  0.3405146E+01  0.3715551E+02  0.5235122E+02
Ar 1205  0.3488227E+02  0.2748741E+01  0.3438629E+01  0.5188456E+03
Ar 1206  0.3553310E+02  0.8922385E+01  0.3476748E+02  0.2106835E+03
Ar 1207  0.3627812E+02  0.8483162E+01  0.8505397E+01  0.1251937E+04
Ar 1208  0.3581845E+02  0.7611340E+01  0.4007907E+01  0.4368853E+03
Ar 1209  0.3409778E+02  0.5439450E+01  0.5914586E+01  0.3620666E+03
Ar 1210  0.3385236E+02  0.9094444E+01  0.6331979E+01  0.1232105E+03
Ar 1211  0.3506806E+02  0.4801191E+01  0.9806155E+01  0.7486982E+03
Ar 1212  0.3036229E+02  0.8524500E+01  0.7004080E+01  0.1117416E+03
Ar 1213  0.3191999E+02  0.4228663E+01  0.1172566E+02  0.4102490E+03
Ar 1214  0.3310437E+02  0.8447632E+01  0.9517915E+01  0.3376911E+03
Ar 1215  0.3140689E+02  0.7426291E+01  0.1209405E+02  0.4402894E+01
Ar 1216  0.3603374E+02  0.7596429E+01  0.1549452E+02  0.4966264E+02
Ar 1217  0.3651568E+02  0.2440807E+01  0.1677684E+02  0.6457274E+03
Ar 1218  0.3770121E+02  0.5793002E+01  0.1783691E+02  0.2448030E+03
Ar 1219  0.3672627E+02  0.9432968E+01  0.1828470E+02  0.4324118E+03
Ar 1220  0.3134416E+02  0.8757408E+01  0.1736625E+02  0.3002330E+03
Ar 1221  0.3276596E+02  0.3115925E+01  0.1984382E+02  0.1242832E+03
Ar 1222  0.3742874E+02  0.6990362E+01  0.2146658E+02  0.3307632E+03
Ar 1223  0.3594730E+02  0.3461833E+01  0.1992006E+02  0.5114226E+03
Ar 1224  0.3065001E+02  0.8121400E+01  0.2216546E+02  0.2213813E+03
Ar 1225  0.3461273E+02  0.5181998E+01  0.2261763E+02  0.1105233E+03
Ar 1226  0.3453389E+02  0.5282727E+01  0.2676952E+02  0.8957906E+03
Ar 1227  0.3717559E+02  0.4600976E+01  0.2936777E+02  0.1248874E+03
Ar 1228  0.3389035E+02  0.9191170E+01  0.3134488E+02  0.2704694E+03
Ar 1229  0.3397868E+02  0.5314152E+01  0.3089841E+02  0.5587492E+03
Ar 1230  0.1572693E+01  0.8146027E+01  0.2919718E+02  0.7179964E+02
Ar 1231  0.3434219E+02  0.5625284E+01  0.3442220E+02  0.2761812E+03
Ar 1232  0.3660603E+02  0.7309532E+01  0.3202495E+02  0.4097261E+02
Ar 1233  0.3080578E+02  0.1389264E+02  0.3526617E+02  0.6687215E+03
Ar 1234  0.3498116E+02  0.1352230E+02  0.3770359E+02  0.3683939E+03
Ar 1235  0.3537469E+02  0.6782666E+01  0.4302366E+00  0.4271860E+03
Ar 1236  0.3147792E+02  0.1529902E+02  0.2058523E+00  0.7060269E+03
Ar 1237  0.3439830E+02  0.1199178E+02  0.3474556E+01  0.2958785E+02
Ar 1238  0.3375496E+02  0.1531434E+02  0.2698883E+01  0.1340389E+03
Ar 1239  0.3142988E+02  0.1212482E+02  0.7447244E+01  0.1294523E+04
Ar 1240  0.3011666E+02  0.1470664E+02  0.9269551E+01  0.2510554E+03
Ar 1241  0.2829973E+02  0.1243751E+02  0.1073456E+02  0.4658129E+03
Ar 1242  0.3355390E+02  0.1497905E+02  0.9901051E+01  0.4873473E+02
Ar 1243  0.3193335E+02  0.1116252E+02  0.1136491E+02  0.1417390E+04
Ar 1244  0.3155630E+02  0.1429294E+02  0.1282527E+02  0.7395692E+03
Ar 1245  0.2971558E+02  0.1117881E+02  0.1405947E+02  0.4291843E+03
Ar 1246  0.3276166E+02  0.9629634E+01  0.1468178E+02  0.3914098E+03
Ar 1247  0.3643350E+02  0.1119916E+02  0.1457611E+02  0.6031880E+03
Ar 1248  0.3410502E+02  0.1122109E+02  0.1761871E+02  0.3593575E+03
Ar 1249  0.3382432E+02  0.6530161E+01  0.1946455E+02  0.8665398E+02
Ar 1250  0.2939921E+02  0.1141983E+02  0.1960197E+02  0.4340213E+02
Ar 1251  0.3415147E+02  0.8599560E+01  0.2215771E+02  0.4148387E+02
Ar 1252  0.2988048E+02  0.9145635E+01  0.2548977E+02  0.6229426E+03
Ar 1253  0.3285949E+02  0.1087962E+02  0.2847184E+02  0.3804533E+03
Ar 1254  0.3681300E+02  0.1072528E+02  0.2455711E+02  0.3098189E+03
Ar 1255  0.3321214E+02  0.8855246E+01  0.2567193E+02  0.5782052E+02
Ar 1256  0.3504379E+02  0.1342409E+02  0.2643715E+02  0.5171862E+03
Ar 1257  0.3196214E+02  0.1228906E+02  0.3141219E+02  0.3219851E+03
Ar 1258  0.3662278E+02  0.1088822E+02  0.3069695E+02  0.2833430E+03
Ar 1259  0.3286236E+02  0.1140621E+02  0.3438927E+02  0.5294984E+03
Ar 1260  0.3600208E+02  0.1411486E+02  0.2951827E+02  0.4103124E+03
Ar 1261  0.3152369E+02  0.1912911E+02  0.3736366E+02  0.7024059E+02
Ar 1262  0.3737053E+02  0.2050870E+02  0.3631642E+02  0.2345283E+03
Ar 1263  0.3517693E+02  0.1840568E+02  0.9529374E+00  0.8038532E+02
Ar 1264  0.3226140E+02  0.1860801E+02  0.3590173E+01  0.3703977E+03
Ar 1265  0.3184682E+02  0.1508563E+02  0.5766347E+01  0.4864234E+02
Ar 1266  0.3520204E+02  0.2035367E+02  0.4389618E+01  0.3208066E+03
Ar 1267  0.3418368E+02  0.1768920E+02  0.6722091E+01  0.4028437E+03
Ar 1268  0.3078712E+02  0.1892476E+02  0.8171823E+01  0.9748276E+03
Ar 1269  0.3330375E+02  0.1860161E+02  0.1080588E+02  0.2549256E+03
Ar 1270  0.1196256E+01  0.1640308E+02  0.1150248E+02  0.2271993E+03
Ar 1271  0.3276369E+02  0.1741320E+02  0.1393404E+02  0.2071696E+03
Ar 1272  0.2997213E+02  0.1741465E+02  0.1160635E+02  0.4693438E+03
Ar 1273  0.3134039E+02  0.1610143E+02  0.1687541E+02  0.1430831E+04
Ar 1274  0.3278018E+02  0.2074568E+02  0.1413539E+02  0.3199239E+03
Ar 1275  0.3631309E+02  0.1431293E+02  0.2031403E+02  0.5630051E+03
Ar 1276  0.3434152E+02  0.1677270E+02  0.1853262E+02  0.5385823E+03
Ar 1277  0.2956686E+02  0.1352739E+02  0.2281598E+02  0.1635170E+03
Ar 1278  0.3412105E+02  0.1737663E+02  0.2152923E+02  0.8709624E+03
Ar 1279  0.3205045E+02  0.1098758E+02  0.2265244E+02  0.3981667E+03
Ar 1280  0.3409260E+02  0.1350584E+02  0.2313507E+02  0.1233194E+03
Ar 1281  0.3142584E+02  0.1708130E+02  0.2722036E+02  0.2645714E+02
Ar 1282  0.3450859E+02  0.1668385E+02  0.2533892E+02  0.6693837E+03
Ar 1283  0.3239077E+02  0.1835709E+02  0.3340807E+02  0.1758371E+03
Ar 1284  0.3356927E+02  0.2066774E+02  0.2682479E+02  0.8009299E+02
Ar 1285  0.3448184E+02  0.2040845E+02  0.3178994E+02  0.7583373E+03
Ar 1286  0.3476570E+02  0.1760031E+02  0.2871258E+02  0.1963381E+03
Ar 1287  0.3411292E+02  0.2037405E+02  0.3529722E+02  0.6593481E+03
Ar 1288  0.3155958E+02  0.1820601E+02  0.3021065E+02  0.2289627E+03
Ar 1289  0.2799873E+02  0.2055089E+02  0.3633397E+02  0.7892114E+03
Ar 1290  0.3480555E+02  0.2331607E+02  0.3615015E+02  0.2447927E+02
Ar 1291  0.3387516E+02  0.2109484E+02  0.7450010E+00  0.3911347E+03
Ar 1292  0.3473463E+02  0.2454820E+02  0.2085916E+01  0.2121815E+03
Ar 1293  0.3006352E+02  0.2547955E+02  0.6085555E+01  0.1266668E+03
Ar 1294  0.3510223E+02  0.2488145E+02  0.6157232E+01  0.4672370E+03
Ar 1295  0.3337708E+02  0.2156815E+02  0.7214715E+01  0.1544148E+04
Ar 1296  0.3214579E+02  0.2486064E+02  0.8611264E+01  0.8055177E+03
Ar 1297  0.3067331E+02  0.2242095E+02  0.9641252E+01  0.1496902E+03
Ar 1298  0.3445815E+02  0.2241509E+02  0.1077187E+02  0.3223896E+03
Ar 1299  0.2922368E+02  0.2069200E+02  0.1397790E+02  0.1002022E+04
Ar 1300  0.3152527E+02  0.2372296E+02  0.1237648E+02  0.3517616E+03
Ar 1301  0.3097608E+02  0.1951479E+02  0.1705762E+02  0.2789270E+03
Ar 1302  0.3529508E+02  0.2380936E+02  0.1393985E+02  0.7990101E+03
Ar 1303  0.3371667E+02  0.2173008E+02  0.1731272E+02  0.5391468E+03
Ar 1304  0.3063727E+02  0.2258478E+02  0.1817217E+02  0.4707647E+03
Ar 1305  0.3269359E+02  0.2079446E+02  0.2018147E+02  0.3535407E+03
Ar 1306  0.3343260E+02  0.2360436E+02  0.2145621E+02  0.6804205E+02
Ar 1307  0.2418639E+01  0.1883907E+02  0.2799911E+02  0.4319386E+03
Ar 1308  0.3128597E+02  0.2531174E+02  0.2821426E+02  0.3178396E+03
Ar 1309  0.3160965E+02  0.1635325E+02  0.2377528E+02  0.1376451E+03
Ar 1310  0.3447267E+02  0.2393837E+02  0.2691309E+02  0.1171150E+04
Ar 1311  0.3616321E+02  0.2244477E+02  0.2978257E+02  0.6886203E+03
Ar 1312  0.3249264E+02  0.2012464E+02  0.2378818E+02  0.7136946E+03
Ar 1313  0.3258492E+02  0.2343042E+02  0.3097280E+02  0.4708201E+03
Ar 1314  0.3683595E+02  0.2671432E+02  0.3392451E+02  0.1016617E+03
Ar 1315  0.3520664E+02  0.2358263E+02  0.3281482E+02  0.1539737E+03
Ar 1316  0.3298329E+02  0.2923796E+02  0.3528866E+02  0.4694421E+03
Ar 1317  0.3350946E+02  0.2919188E+02  0.7945298E+00  0.1669414E+03
Ar 1318  0.3594769E+02  0.3030406E+02  0.3689711E+02  0.2831217E+03
Ar 1319  0.3377417E+02  0.2727245E+02  0.3663589E+01  0.9325123E+03
Ar 1320  0.3374187E+02  0.3353757E+02  0.1431466E+01  0.3274834E+03
Ar 1321  0.3153655E+02  0.2902995E+02  0.5716459E+01  0.2320093E+03
Ar 1322  0.3585590E+02  0.2833182E+02  0.5991808E+01  0.9332009E+03
Ar 1323  0.3480636E+02  0.2855464E+02  0.9197167E+01  0.1841970E+03
Ar 1324  0.3345197E+02  0.3144648E+02  0.7198357E+01  0.5156839E+03
Ar 1325  0.3156368E+02  0.2790971E+02  0.9757641E+01  0.2025525E+03
Ar 1326  0.3548603E+02  0.3156760E+02  0.1043372E+02  0.7425119E+03
Ar 1327  0.3152921E+02  0.2406126E+02  0.1558217E+02  0.5395827E+03
Ar 1328  0.3081423E+02  0.2803158E+02  0.1439704E+02  0.3703235E+03
Ar 1329  0.2824327E+02  0.2437144E+02  0.1588339E+02  0.1078337E+03
Ar 1330  0.3274143E+02  0.3147539E+02  0.1502075E+02  0.1485026E+03
Ar 1331  0.3539024E+02  0.2714998E+02  0.1985787E+02  0.4802747E+02
Ar 1332  0.3059468E+02  0.2836848E+02  0.1759253E+02  0.5453840E+03
Ar 1333  0.3725003E+02  0.2033264E+02  0.2682750E+02  0.1053776E+04
Ar 1334  0.3751159E+02  0.2946092E+02  0.2146058E+02  0.3613171E+03
Ar 1335  0.3665234E+02  0.2643931E+02  0.2462023E+02  0.1083998E+02
Ar 1336  0.3367848E+02  0.2955849E+02  0.2397540E+02  0.1397354E+03
Ar 1337  0.3348871E+02  0.2859716E+02  0.2728673E+02  0.3920252E+03
Ar 1338  0.3680710E+02  0.2991070E+02  0.2518152E+02  0.3238021E+03
Ar 1339  0.3322981E+02  0.2841039E+02  0.3076369E+02  0.1281042E+03
Ar 1340  0.3030034E+02  0.3057579E+02  0.2939031E+02  0.7309621E+01
Ar 1341  0.2611431E+02  0.2788214E+02  0.3220545E+02  0.7574336E+03
Ar 1342  0.3614221E+02  0.3045527E+02  0.3266765E+02  0.1204541E+03
Ar 1343  0.3613022E+02  0.2672922E+02  0.3762348E+02  0.6890443E+03
Ar 1344  0.3445855E+02  0.3272060E+02  0.3480172E+02  0.6256401E+03
Ar 1345  0.2784043E+02  0.3050767E+02  0.3436616E+02  0.3645207E+03
Ar 1346  0.1366531E+01  0.3568925E+02  0.3848338E+01  0.2529316E+03
Ar 1347  0.3439946E+02  0.3095723E+02  0.4028142E+01  0.1515188E+03
Ar 1348  0.3268871E+02  0.3738952E+02  0.3690028E+01  0.3680261E+03
Ar 1349  0.3209061E+02  0.3351171E+02  0.4295911E+01  0.4404619E+02
Ar 1350  0.3511991E+02  0.3535653E+02  0.4299961E+01  0.3513705E+03
Ar 1351  0.3516412E+02  0.3439551E+02  0.7963702E+01  0.2975921E+03
Ar 1352  0.3145354E+02  0.3394878E+02  0.9263360E+01  0.5449929E+02
Ar 1353  0.2812939E+02  0.3324721E+02  0.9943795E+01  0.1645613E+02
Ar 1354  0.3495340E+02  0.3740113E+02  0.9889494E+01  0.1357848E+03
Ar 1355  0.3163787E+02  0.3090443E+02  0.1135785E+02  0.3040183E+03
Ar 1356  0.3432673E+02  0.3420071E+02  0.1525440E+02  0.3869068E+03
Ar 1357  0.3481169E+02  0.3412296E+02  0.1849290E+02  0.1568120E+03
Ar 1358  0.1607883E+00  0.3265713E+02  0.2095569E+02  0.1493339E+03
Ar 1359  0.3359625E+02  0.3032395E+02  0.1867298E+02  0.2191209E+03
Ar 1360  0.3204609E+02  0.3440682E+02  0.2050629E+02  0.1781794E+03
Ar 1361  0.3078076E+02  0.3135104E+02  0.2044462E+02  0.9408411E+02
Ar 1362  0.1219940E+01  0.3532505E+02  0.2305040E+02  0.3986150E+03
Ar 1363  0.3649338E+02  0.3340496E+02  0.2376293E+02  0.4948454E+03
Ar 1364  0.3448347E+02  0.3192079E+02  0.2173160E+02  0.1420411E+03
Ar 1365  0.3297186E+02  0.3232223E+02  0.2578849E+02  0.5745464E+03
Ar 1366  0.3261737E+02  0.3538963E+02  0.2364524E+02  0.2321908E+03
Ar 1367  0.3498290E+02  0.3148077E+02  0.2809315E+02  0.3278441E+03
Ar 1368  0.3029792E+02  0.3547976E+02  0.3107635E+02  0.6157026E+02
Ar 1369  0.3148387E+02  0.3177553E+02  0.3635842E+02  0.3261869E+03
Ar 1370  0.3737606E+02  0.1338854E+01  0.2939227E+02  0.8081249E+03
Ar 1371  0.3717874E+02  0.3410564E+02  0.3231182E+02  0.6821711E+03
Ar 1372  0.2969649E+02  0.3648452E+02  0.2190793E+01  0.2541765E+03
