        1372
Lattice="  0.3778015E+02  0.0000000E+00  0.0000000E+00  0.0000000E+00  0.3778015E+02  0.0000000E+00  0.0000000E+00  0.0000000E+00  0.3778015E+02" Properties=species:S:1:id:I:1:pos:R:3:tempK:R:1
Ar    1  0.3865775E+00  0.1077025E+00  0.3262670E+00  0.2506781E+03
Ar    2  0.2994575E+01  0.2772778E+01  0.3750075E+02  0.6259937E+03
Ar    3  0.3133980E+01  0.3773656E+02  0.2051615E+01  0.4307708E+03
Ar    4  0.3752297E+02  0.2934141E+01  0.2672508E+01  0.1293652E+03
Ar    5  0.3753994E+02  0.2608479E+00  0.5153663E+01  0.9995849E+01
Ar    6  0.2345530E+01  0.2580119E+01  0.4980695E+01  0.1809452E+03
Ar    7  0.3127542E+01  0.3764434E+02  0.7881344E+01  0.6553542E+02
Ar    8  0.3726601E+02  0.2735138E+01  0.8278400E+01  0.4164620E+03
Ar    9  0.3603801E+00  0.3757933E+02  0.1016484E+02  0.5822858E+03
Ar   10  0.2859141E+01  0.2403774E+01  0.1010636E+02  0.7063398E+02
Ar   11  0.2859657E+01  0.1105449E+00  0.1361658E+02  0.2561578E+03
Ar   12  0.5422415E+00  0.2827288E+01  0.1349567E+02  0.6020572E+02
Ar   13  0.3952422E-01  0.1375817E+00  0.1611465E+02  0.4581553E+03
Ar   14  0.2974929E+01  0.2420484E+01  0.1614992E+02  0.1226460E+03
Ar   15  0.2682707E+01  0.3742583E+02  0.1909177E+02  0.4065151E+03
Ar   16  0.3042472E+00  0.2443360E+01  0.1880026E+02  0.1917569E+03
Ar   17  0.2419844E+00  0.3276332E+00  0.2149252E+02  0.6446942E+03
Ar   18  0.2735562E+01  0.2917375E+01  0.2205318E+02  0.2588676E+03
Ar   19  0.3299834E+01  0.3712147E+02  0.2422716E+02  0.3819505E+03
Ar   20  0.3734609E+02  0.2432056E+01  0.2428052E+02  0.2189568E+03
Ar   21  0.4698675E-01  0.1775769E+00  0.2713189E+02  0.3438717E+03
Ar   22  0.2765919E+01  0.2247510E+01  0.2677411E+02  0.4767187E+01
Ar   23  0.2100381E+01  0.3738268E+02  0.2969553E+02  0.2280534E+02
Ar   24  0.1087520E+00  0.2308219E+01  0.3087399E+02  0.7331346E+02
Ar   25  0.1577077E+00  0.3726378E+02  0.3315280E+02  0.5270341E+02
Ar   26  0.3334495E+01  0.2933505E+01  0.3195514E+02  0.9757654E+02
Ar   27  0.3179289E+01  0.4432196E+00  0.3480452E+02  0.5277056E+03
Ar   28  0.4165235E-01  0.2868558E+01  0.3500317E+02  0.1066842E+03
Ar   29  0.3761980E+02  0.5381624E+01  0.3755904E+02  0.1938100E+03
Ar   30  0.2886940E+01  0.8443818E+01  0.3734336E+02  0.2843385E+03
Ar   31  0.2757999E+01  0.5698004E+01  0.2170759E+01  0.2319305E+03
Ar   32  0.3661912E+02  0.8083846E+01  0.2570223E+01  0.5892445E+02
Ar   33  0.2296767E+00  0.5352961E+01  0.5780589E+01  0.4492970E+02
Ar   34  0.1987625E+01  0.8704347E+01  0.4378005E+01  0.4510110E+02
Ar   35  0.2975974E+01  0.5290416E+01  0.7827537E+01  0.6036093E+02
Ar   36  0.7077408E+00  0.8306491E+01  0.7826027E+01  0.5439113E+02
Ar   37  0.5576172E+00  0.5729127E+01  0.1083976E+02  0.6338334E+03
Ar   38  0.2669822E+01  0.8554775E+01  0.1066747E+02  0.1070589E+03
Ar   39  0.2745633E+01  0.6229746E+01  0.1388014E+02  0.2853802E+03
Ar   40  0.1424516E+00  0.8107474E+01  0.1325403E+02  0.1098465E+03
Ar   41  0.2307859E+00  0.5781052E+01  0.1599663E+02  0.5421958E+02
Ar   42  0.2440091E+01  0.8537929E+01  0.1609660E+02  0.3984171E+03
Ar   43  0.2659962E+01  0.5072912E+01  0.1881703E+02  0.1206549E+03
Ar   44  0.3893060E+00  0.8113732E+01  0.1936947E+02  0.4089771E+03
Ar   45  0.9120346E-01  0.5303964E+01  0.2221404E+02  0.2514321E+03
Ar   46  0.3056270E+01  0.7532568E+01  0.2211977E+02  0.3001680E+03
Ar   47  0.3563398E+01  0.5211966E+01  0.2494296E+02  0.6745721E+02
Ar   48  0.3739441E+02  0.7636299E+01  0.2484516E+02  0.4134089E+02
Ar   49  0.3767222E+02  0.4994361E+01  0.2679022E+02  0.3274962E+03
Ar   50  0.2906389E+01  0.8025535E+01  0.2721802E+02  0.1878403E+03
Ar   51  0.2682304E+01  0.5148750E+01  0.2943915E+02  0.3300441E+03
Ar   52  0.3776498E+02  0.8090445E+01  0.2971002E+02  0.6682371E+03
Ar   53  0.1671580E+00  0.5403616E+01  0.3218854E+02  0.5557907E+02
Ar   54  0.3158547E+01  0.7839196E+01  0.3188379E+02  0.1593584E+03
Ar   55  0.3060278E+01  0.5331085E+01  0.3422826E+02  0.1679271E+03
Ar   56  0.3827503E-01  0.7707177E+01  0.3451706E+02  0.2982056E+03
Ar   57  0.3700410E+02  0.1023899E+02  0.3701719E+02  0.8343393E+02
Ar   58  0.2562615E+01  0.1362232E+02  0.3743419E+02  0.2545845E+03
Ar   59  0.1530680E+01  0.1110268E+02  0.1840095E+01  0.1698949E+03
Ar   60  0.3717584E+02  0.1370643E+02  0.2286073E+01  0.2915109E+03
Ar   61  0.3774109E+02  0.1132687E+02  0.5102890E+01  0.2369921E+03
Ar   62  0.2728205E+01  0.1373360E+02  0.5368827E+01  0.4203603E+03
Ar   63  0.2775780E+01  0.1133715E+02  0.7716320E+01  0.2869931E+02
Ar   64  0.3772145E+02  0.1309374E+02  0.8430295E+01  0.5249138E+01
Ar   65  0.1499725E-01  0.1090772E+02  0.1066536E+02  0.2107307E+03
Ar   66  0.2547463E+01  0.1358671E+02  0.1094781E+02  0.1163384E+03
Ar   67  0.2742824E+01  0.1098018E+02  0.1347066E+02  0.3220475E+03
Ar   68  0.1164943E+00  0.1348171E+02  0.1366545E+02  0.1977109E+03
Ar   69  0.3766846E+02  0.1094002E+02  0.1622693E+02  0.4981861E+03
Ar   70  0.3106305E+01  0.1305283E+02  0.1636872E+02  0.2531853E+03
Ar   71  0.2699360E+01  0.1053569E+02  0.1898153E+02  0.1055661E+03
Ar   72  0.6051174E+00  0.1336323E+02  0.1879067E+02  0.5077507E+03
Ar   73  0.1228130E+00  0.1049805E+02  0.2158310E+02  0.2044460E+02
Ar   74  0.3108400E+01  0.1306713E+02  0.2187707E+02  0.3584474E+03
Ar   75  0.1907737E+01  0.1010586E+02  0.2413286E+02  0.9737271E+02
Ar   76  0.3548172E+00  0.1303828E+02  0.2442016E+02  0.1552215E+02
Ar   77  0.1606625E+00  0.1056761E+02  0.2692991E+02  0.5280439E+02
Ar   78  0.3159069E+01  0.1353319E+02  0.2705366E+02  0.2496475E+03
Ar   79  0.3034993E+01  0.1095637E+02  0.2970583E+02  0.3696057E+03
Ar   80  0.3317024E+00  0.1378029E+02  0.2945106E+02  0.4977847E+02
Ar   81  0.3548471E+00  0.1123284E+02  0.3213085E+02  0.9117113E+02
Ar   82  0.2999510E+01  0.1322193E+02  0.3232493E+02  0.1445653E+03
Ar   83  0.2715211E+01  0.1041291E+02  0.3467405E+02  0.6077212E+02
Ar   84  0.3750523E+02  0.1342628E+02  0.3516330E+02  0.2442387E+03
Ar   85  0.3743241E+02  0.1664921E+02  0.3762913E+02  0.4315659E+03
Ar   86  0.2806438E+01  0.1889157E+02  0.3773822E+02  0.2362624E+03
Ar   87  0.2568167E+01  0.1613643E+02  0.2753312E+01  0.2851790E+02
Ar   88  0.2070405E-01  0.1909358E+02  0.2881145E+01  0.1776302E+03
Ar   89  0.3625109E-01  0.1616399E+02  0.5223414E+01  0.2766734E+03
Ar   90  0.2552242E+01  0.1842620E+02  0.5544032E+01  0.2119679E+03
Ar   91  0.2379981E+01  0.1583273E+02  0.8216399E+01  0.1380830E+03
Ar   92  0.2642633E+00  0.1871941E+02  0.8778067E+01  0.1948662E+03
Ar   93  0.3769497E+02  0.1640429E+02  0.1119599E+02  0.1122937E+03
Ar   94  0.2966882E+01  0.1893317E+02  0.1105008E+02  0.3823790E+03
Ar   95  0.2582972E+01  0.1585335E+02  0.1350821E+02  0.2469166E+02
Ar   96  0.3746441E+02  0.1870821E+02  0.1379374E+02  0.5525643E+03
Ar   97  0.2649871E+00  0.1605247E+02  0.1641914E+02  0.3086760E+03
Ar   98  0.2576242E+01  0.1872430E+02  0.1610992E+02  0.2562375E+03
Ar   99  0.2902909E+01  0.1627543E+02  0.1959601E+02  0.5360851E+02
Ar  100  0.1056960E+01  0.1930256E+02  0.1918610E+02  0.4327832E+02
Ar  101  0.3777383E+02  0.1599330E+02  0.2158406E+02  0.1037873E+03
Ar  102  0.3078224E+01  0.1953753E+02  0.2181941E+02  0.3084226E+02
Ar  103  0.3430182E+01  0.1626361E+02  0.2347211E+02  0.5309461E+01
Ar  104  0.3761345E+02  0.1895195E+02  0.2460064E+02  0.3310814E+03
Ar  105  0.9083319E+00  0.1592317E+02  0.2629900E+02  0.2082309E+03
Ar  106  0.3340178E+01  0.1857659E+02  0.2628558E+02  0.3936728E+02
Ar  107  0.2740904E+01  0.1617697E+02  0.2968828E+02  0.1468997E+03
Ar  108  0.3745493E+00  0.1827025E+02  0.2893473E+02  0.4244165E+03
Ar  109  0.1289174E+00  0.1576793E+02  0.3237859E+02  0.4801995E+03
Ar  110  0.2414290E+01  0.1902410E+02  0.3245516E+02  0.1026370E+04
Ar  111  0.2647112E+01  0.1610796E+02  0.3493535E+02  0.8616274E+02
Ar  112  0.3745374E+02  0.1871389E+02  0.3510562E+02  0.2743192E+03
Ar  113  0.3764624E+02  0.2124771E+02  0.3761421E+02  0.2221528E+03
Ar  114  0.2789187E+01  0.2427239E+02  0.2009844E+00  0.1741392E+03
Ar  115  0.2604272E+01  0.2147254E+02  0.2291591E+01  0.5626387E+03
Ar  116  0.3748561E+02  0.2392407E+02  0.2553334E+01  0.1716718E+03
Ar  117  0.3772133E+02  0.2097217E+02  0.5771239E+01  0.2048347E+03
Ar  118  0.2328337E+01  0.2372047E+02  0.5164616E+01  0.3876527E+02
Ar  119  0.2867572E+01  0.2110599E+02  0.8553901E+01  0.5797002E+02
Ar  120  0.4847341E+00  0.2367449E+02  0.8314447E+01  0.4217624E+03
Ar  121  0.8487033E-01  0.2108561E+02  0.1112814E+02  0.9099073E+03
Ar  122  0.2856242E+01  0.2431793E+02  0.1135666E+02  0.1877283E+03
Ar  123  0.2758570E+01  0.2195810E+02  0.1369118E+02  0.4902876E+02
Ar  124  0.3769793E+02  0.2411310E+02  0.1342263E+02  0.7299338E+03
Ar  125  0.1380320E+00  0.2191554E+02  0.1662236E+02  0.1042479E+03
Ar  126  0.3036845E+01  0.2459058E+02  0.1673800E+02  0.8728685E+02
Ar  127  0.3028627E+01  0.2224497E+02  0.1904629E+02  0.1223273E+03
Ar  128  0.1567144E+00  0.2461846E+02  0.1908664E+02  0.2096276E+03
Ar  129  0.7923868E-01  0.2254418E+02  0.2186841E+02  0.2056182E+03
Ar  130  0.3396956E+01  0.2463661E+02  0.2189578E+02  0.1639429E+03
Ar  131  0.2805162E+01  0.2190701E+02  0.2427575E+02  0.2045955E+02
Ar  132  0.3308602E+00  0.2483823E+02  0.2419918E+02  0.4349610E+03
Ar  133  0.4894809E-02  0.2211889E+02  0.2697105E+02  0.9980096E+02
Ar  134  0.3233730E+01  0.2484404E+02  0.2657846E+02  0.1247246E+03
Ar  135  0.2900236E+01  0.2188485E+02  0.2911093E+02  0.1404915E+03
Ar  136  0.3877564E+00  0.2492146E+02  0.3017183E+02  0.3964885E+03
Ar  137  0.2787759E+00  0.2180535E+02  0.3279024E+02  0.4354799E+03
Ar  138  0.2824465E+01  0.2459303E+02  0.3288156E+02  0.3393357E+03
Ar  139  0.2569869E+01  0.2140581E+02  0.3524584E+02  0.3122748E+02
Ar  140  0.3669930E-02  0.2424447E+02  0.3553794E+02  0.3165346E+03
Ar  141  0.3768642E+02  0.2684743E+02  0.2998874E+00  0.2574036E+03
Ar  142  0.2447637E+01  0.2928075E+02  0.6558700E+00  0.6077995E+03
Ar  143  0.2785373E+01  0.2604050E+02  0.3032634E+01  0.1634484E+03
Ar  144  0.3732704E+00  0.2963379E+02  0.3218432E+01  0.3431973E+03
Ar  145  0.1043262E+00  0.2651249E+02  0.5700668E+01  0.7020526E+02
Ar  146  0.3302803E+01  0.2870734E+02  0.5059306E+01  0.1887829E+03
Ar  147  0.3053890E+01  0.2650971E+02  0.7898130E+01  0.3056629E+03
Ar  148  0.4337864E+00  0.3017845E+02  0.7877051E+01  0.2991163E+03
Ar  149  0.2467985E+00  0.2689902E+02  0.1026595E+02  0.2354122E+03
Ar  150  0.2575857E+01  0.2919465E+02  0.1074003E+02  0.1319465E+03
Ar  151  0.2626972E+01  0.2677760E+02  0.1342580E+02  0.4476065E+02
Ar  152  0.1305478E+00  0.2939376E+02  0.1300479E+02  0.4088279E+03
Ar  153  0.3760791E+02  0.2697641E+02  0.1578992E+02  0.5887326E+03
Ar  154  0.2289800E+01  0.3049997E+02  0.1614478E+02  0.6942796E+03
Ar  155  0.2678558E+01  0.2736525E+02  0.1959061E+02  0.6454442E+02
Ar  156  0.3734601E+02  0.2964965E+02  0.1874619E+02  0.1661310E+03
Ar  157  0.3761588E+02  0.2721980E+02  0.2214915E+02  0.1805152E+02
Ar  158  0.1984625E+01  0.2994587E+02  0.2144942E+02  0.2676887E+03
Ar  159  0.2774440E+01  0.2769669E+02  0.2399687E+02  0.7365033E+02
Ar  160  0.3748026E+02  0.3038295E+02  0.2442910E+02  0.2179733E+03
Ar  161  0.1841624E+00  0.2722571E+02  0.2686323E+02  0.1952134E+03
Ar  162  0.2820757E+01  0.2998429E+02  0.2665128E+02  0.4508751E+03
Ar  163  0.3052719E+01  0.2680993E+02  0.2968049E+02  0.4865144E+03
Ar  164  0.9443928E-01  0.2969322E+02  0.2959089E+02  0.1671787E+03
Ar  165  0.3770842E+02  0.2754972E+02  0.3262030E+02  0.1513272E+03
Ar  166  0.2433496E+01  0.2974380E+02  0.3286009E+02  0.1696484E+03
Ar  167  0.2938941E+01  0.2690950E+02  0.3528543E+02  0.1229244E+03
Ar  168  0.9024805E-01  0.2956442E+02  0.3539572E+02  0.4658605E+02
Ar  169  0.6133215E+00  0.3270509E+02  0.3147665E+00  0.4685408E+02
Ar  170  0.2295873E+01  0.3563395E+02  0.3658623E+02  0.8442039E+03
Ar  171  0.2888126E+01  0.3200488E+02  0.2891733E+01  0.2999440E+03
Ar  172  0.3564182E+02  0.3476135E+02  0.5611443E-01  0.3421859E+03
Ar  173  0.8151380E+00  0.3237003E+02  0.5707023E+01  0.2253775E+03
Ar  174  0.2954812E+01  0.3475304E+02  0.5859367E+01  0.2718585E+03
Ar  175  0.3618291E+01  0.3204817E+02  0.8024440E+01  0.3000622E+03
Ar  176  0.5314613E-01  0.3534133E+02  0.7963123E+01  0.3210269E+03
Ar  177  0.3415755E-01  0.3246484E+02  0.1101519E+02  0.1529541E+03
Ar  178  0.3038095E+01  0.3519546E+02  0.1049037E+02  0.3248541E+03
Ar  179  0.2750410E+01  0.3207533E+02  0.1305025E+02  0.1587515E+03
Ar  180  0.3019437E+00  0.3504743E+02  0.1343056E+02  0.1680096E+03
Ar  181  0.3722079E+02  0.3223753E+02  0.1507427E+02  0.1607835E+03
Ar  182  0.2472434E+01  0.3469346E+02  0.1601452E+02  0.4146567E+03
Ar  183  0.2610567E+01  0.3230595E+02  0.1925340E+02  0.2842020E+02
Ar  184  0.9610560E-01  0.3492963E+02  0.1831130E+02  0.6532478E+03
Ar  185  0.3764020E+02  0.3244738E+02  0.2125142E+02  0.2744922E+02
Ar  186  0.2092249E+01  0.3492478E+02  0.2153237E+02  0.4927920E+03
Ar  187  0.2756870E+01  0.3253046E+02  0.2413589E+02  0.1640641E+03
Ar  188  0.3749750E+02  0.3509082E+02  0.2419959E+02  0.4446016E+03
Ar  189  0.3759990E+02  0.3268919E+02  0.2726397E+02  0.9852740E+02
Ar  190  0.2276017E+01  0.3512229E+02  0.2687110E+02  0.1833616E+03
Ar  191  0.2230246E+01  0.3286059E+02  0.3027524E+02  0.3123897E+02
Ar  192  0.3748478E+02  0.3488110E+02  0.2999310E+02  0.3214892E+03
Ar  193  0.3679293E+02  0.3199752E+02  0.3211403E+02  0.1100260E+03
Ar  194  0.2746786E+01  0.3512160E+02  0.3276837E+02  0.1590486E+03
Ar  195  0.2693237E+01  0.3273082E+02  0.3491323E+02  0.1114310E+03
Ar  196  0.3719740E+02  0.3438347E+02  0.3479462E+02  0.2350007E+03
Ar  197  0.5949340E+01  0.3776485E+02  0.3773240E+02  0.4609833E+03
Ar  198  0.7359165E+01  0.2817769E+01  0.3767977E+02  0.5947582E+02
Ar  199  0.8231408E+01  0.3735080E+02  0.2484160E+01  0.3759294E+03
Ar  200  0.4866133E+01  0.2848401E+01  0.2689045E+01  0.8502393E+02
Ar  201  0.5240379E+01  0.3755415E+02  0.4780344E+01  0.3801597E+02
Ar  202  0.8095823E+01  0.2421060E+01  0.5164993E+01  0.2592789E+03
Ar  203  0.8610801E+01  0.3725818E+02  0.8218344E+01  0.5255640E+02
Ar  204  0.5672821E+01  0.2256083E+01  0.7529564E+01  0.5219996E+03
Ar  205  0.5605135E+01  0.3767154E+02  0.1073255E+02  0.4008422E+02
Ar  206  0.7685115E+01  0.2872685E+01  0.1017575E+02  0.7399313E+03
Ar  207  0.7464804E+01  0.3749823E+02  0.1350341E+02  0.2122705E+03
Ar  208  0.4884149E+01  0.3485080E+01  0.1283774E+02  0.4847304E+02
Ar  209  0.5088835E+01  0.3688834E+02  0.1653851E+02  0.3599976E+03
Ar  210  0.7335073E+01  0.2398482E+01  0.1562473E+02  0.2075210E+03
Ar  211  0.8458774E+01  0.3744045E+02  0.1905767E+02  0.4945285E+03
Ar  212  0.5429979E+01  0.1900508E+01  0.1852390E+02  0.2743361E+03
Ar  213  0.5531104E+01  0.2600856E+00  0.2159334E+02  0.7114017E+02
Ar  214  0.7796830E+01  0.2612005E+01  0.2181003E+02  0.1725060E+03
Ar  215  0.8440974E+01  0.3019540E+00  0.2404495E+02  0.2473322E+03
Ar  216  0.5628823E+01  0.2182227E+01  0.2461255E+02  0.3051609E+03
Ar  217  0.5289328E+01  0.3716612E+02  0.2733599E+02  0.2433226E+03
Ar  218  0.8371229E+01  0.2356979E+01  0.2661933E+02  0.2374650E+03
Ar  219  0.8231930E+01  0.3727726E+02  0.2956076E+02  0.1891641E+03
Ar  220  0.5884452E+01  0.2314883E+01  0.2952599E+02  0.1275047E+03
Ar  221  0.5498295E+01  0.3770973E+02  0.3211420E+02  0.2861654E+03
Ar  222  0.8368999E+01  0.2436734E+01  0.3254709E+02  0.1359955E+03
Ar  223  0.8158807E+01  0.3768649E+02  0.3522460E+02  0.1517474E+03
Ar  224  0.6027691E+01  0.2652323E+01  0.3462704E+02  0.8451112E+02
Ar  225  0.5268727E+01  0.5746637E+01  0.3735830E+02  0.2322846E+03
Ar  226  0.8140922E+01  0.7779994E+01  0.3725107E+00  0.3917332E+03
Ar  227  0.7873961E+01  0.4944907E+01  0.2746518E+01  0.2580532E+03
Ar  228  0.4990084E+01  0.8500568E+01  0.2224186E+01  0.1251483E+03
Ar  229  0.4801327E+01  0.5737444E+01  0.4854496E+01  0.2373701E+03
Ar  230  0.7723966E+01  0.7962956E+01  0.5006241E+01  0.5286723E+02
Ar  231  0.7054394E+01  0.5487563E+01  0.7262209E+01  0.1226706E+03
Ar  232  0.4842970E+01  0.8474291E+01  0.7617416E+01  0.2996672E+03
Ar  233  0.4853043E+01  0.5941538E+01  0.1029351E+02  0.1129182E+03
Ar  234  0.8186347E+01  0.7581995E+01  0.1087866E+02  0.3198507E+03
Ar  235  0.7997357E+01  0.5063517E+01  0.1356980E+02  0.5502124E+02
Ar  236  0.5525474E+01  0.8426250E+01  0.1297594E+02  0.7819775E+03
Ar  237  0.5502342E+01  0.5555585E+01  0.1635867E+02  0.4622682E+03
Ar  238  0.7873696E+01  0.8471991E+01  0.1530868E+02  0.3998390E+03
Ar  239  0.8163719E+01  0.4827697E+01  0.1874818E+02  0.2292669E+03
Ar  240  0.5169199E+01  0.7945108E+01  0.1882337E+02  0.4533823E+03
Ar  241  0.5322903E+01  0.5428057E+01  0.2154709E+02  0.6509094E+02
Ar  242  0.8824202E+01  0.7819864E+01  0.2118135E+02  0.8969894E+02
Ar  243  0.8753966E+01  0.4887205E+01  0.2426841E+02  0.1245762E+03
Ar  244  0.5882948E+01  0.7602462E+01  0.2483674E+02  0.2882168E+03
Ar  245  0.5433447E+01  0.5291161E+01  0.2789859E+02  0.4710055E+03
Ar  246  0.8593751E+01  0.7788807E+01  0.2691920E+02  0.2511796E+03
Ar  247  0.8422409E+01  0.5062659E+01  0.2963210E+02  0.1306594E+03
Ar  248  0.5971427E+01  0.8208225E+01  0.2954863E+02  0.7284921E+02
Ar  249  0.5997275E+01  0.5564600E+01  0.3225897E+02  0.1474824E+02
Ar  250  0.8798334E+01  0.8406562E+01  0.3224534E+02  0.2777538E+03
Ar  251  0.8274521E+01  0.5354210E+01  0.3522104E+02  0.7466262E+02
Ar  252  0.5617567E+01  0.8103321E+01  0.3468550E+02  0.1078200E+03
Ar  253  0.5876657E+01  0.1066877E+02  0.3720529E+02  0.1171147E+03
Ar  254  0.8413046E+01  0.1287014E+02  0.3747786E+02  0.1086566E+03
Ar  255  0.8522244E+01  0.1044911E+02  0.2767748E+01  0.3324396E+03
Ar  256  0.5776183E+01  0.1303893E+02  0.2361716E+01  0.5901451E+02
Ar  257  0.4578860E+01  0.1087547E+02  0.4635592E+01  0.1133133E+03
Ar  258  0.8071744E+01  0.1315648E+02  0.5617816E+01  0.1220221E+03
Ar  259  0.8135969E+01  0.1023420E+02  0.7720078E+01  0.3016796E+03
Ar  260  0.5401673E+01  0.1366711E+02  0.8266555E+01  0.2982870E+03
Ar  261  0.5755033E+01  0.1033870E+02  0.1016296E+02  0.4920083E+02
Ar  262  0.8097441E+01  0.1330750E+02  0.1056262E+02  0.7418520E+01
Ar  263  0.7875635E+01  0.1125000E+02  0.1328786E+02  0.3631856E+03
Ar  264  0.5394713E+01  0.1384467E+02  0.1386889E+02  0.6232666E+03
Ar  265  0.5536983E+01  0.1055037E+02  0.1604840E+02  0.2978091E+03
Ar  266  0.7994427E+01  0.1297926E+02  0.1635268E+02  0.1605457E+03
Ar  267  0.8201736E+01  0.1033827E+02  0.1875175E+02  0.2689330E+03
Ar  268  0.5607293E+01  0.1281686E+02  0.1876404E+02  0.1678997E+03
Ar  269  0.5709875E+01  0.9747286E+01  0.2154617E+02  0.2520581E+03
Ar  270  0.8372258E+01  0.1295875E+02  0.2196884E+02  0.6783113E+01
Ar  271  0.8303700E+01  0.1044624E+02  0.2439806E+02  0.6926386E+02
Ar  272  0.5666984E+01  0.1322594E+02  0.2436295E+02  0.8022464E+02
Ar  273  0.5088631E+01  0.1054759E+02  0.2688319E+02  0.3621090E+02
Ar  274  0.8177641E+01  0.1393386E+02  0.2698857E+02  0.4434638E+03
Ar  275  0.8230666E+01  0.1078350E+02  0.2972225E+02  0.1847991E+03
Ar  276  0.5524109E+01  0.1333589E+02  0.2935514E+02  0.5399756E+03
Ar  277  0.5793252E+01  0.1060579E+02  0.3210271E+02  0.7370496E+03
Ar  278  0.8364800E+01  0.1311621E+02  0.3294323E+02  0.1580741E+03
Ar  279  0.8579933E+01  0.1042460E+02  0.3512539E+02  0.2317948E+03
Ar  280  0.5638420E+01  0.1320546E+02  0.3504770E+02  0.3296436E+03
Ar  281  0.5140229E+01  0.1605645E+02  0.1522837E+00  0.2365774E+03
Ar  282  0.8259480E+01  0.1828455E+02  0.7056526E+00  0.1495565E+03
Ar  283  0.8885916E+01  0.1524762E+02  0.2610757E+01  0.1210975E+03
Ar  284  0.5328764E+01  0.1851612E+02  0.2763678E+01  0.3002420E+03
Ar  285  0.5508522E+01  0.1599935E+02  0.5526938E+01  0.1056712E+02
Ar  286  0.8042795E+01  0.1849417E+02  0.5311862E+01  0.1368184E+03
Ar  287  0.7765683E+01  0.1599035E+02  0.7876576E+01  0.1145556E+03
Ar  288  0.5002504E+01  0.1816294E+02  0.8300726E+01  0.5486982E+03
Ar  289  0.5701094E+01  0.1662254E+02  0.1107375E+02  0.6509240E+03
Ar  290  0.8164569E+01  0.1897249E+02  0.1159478E+02  0.8395862E+02
Ar  291  0.8173684E+01  0.1614087E+02  0.1435308E+02  0.1960003E+03
Ar  292  0.5296191E+01  0.1879560E+02  0.1360961E+02  0.3011378E+03
Ar  293  0.5352777E+01  0.1618553E+02  0.1666423E+02  0.1466729E+03
Ar  294  0.8376362E+01  0.1887020E+02  0.1631852E+02  0.2633911E+03
Ar  295  0.8366473E+01  0.1577525E+02  0.1853181E+02  0.1220888E+03
Ar  296  0.5058506E+01  0.1884627E+02  0.1896361E+02  0.4607058E+03
Ar  297  0.6009387E+01  0.1565461E+02  0.2114003E+02  0.1042813E+03
Ar  298  0.7906635E+01  0.1928753E+02  0.2130520E+02  0.3636350E+01
Ar  299  0.7975347E+01  0.1647397E+02  0.2399005E+02  0.5309912E+03
Ar  300  0.5985726E+01  0.1940563E+02  0.2389843E+02  0.4958627E+03
Ar  301  0.5517946E+01  0.1614619E+02  0.2738085E+02  0.6273917E+02
Ar  302  0.7829912E+01  0.1907734E+02  0.2691814E+02  0.8355214E+02
Ar  303  0.8209946E+01  0.1566735E+02  0.3003830E+02  0.1904987E+03
Ar  304  0.5263542E+01  0.1918626E+02  0.2948206E+02  0.4944288E+03
Ar  305  0.5142836E+01  0.1613862E+02  0.3236165E+02  0.4941341E+03
Ar  306  0.7979749E+01  0.1857142E+02  0.3269087E+02  0.8330926E+02
Ar  307  0.8285153E+01  0.1607745E+02  0.3492847E+02  0.9206351E+02
Ar  308  0.5627949E+01  0.1857656E+02  0.3506000E+02  0.6598447E+03
Ar  309  0.5561391E+01  0.2131178E+02  0.3760812E+02  0.1112967E+03
Ar  310  0.8003315E+01  0.2431361E+02  0.2002760E+00  0.1629609E+03
Ar  311  0.8128635E+01  0.2115214E+02  0.2729345E+01  0.1489748E+03
Ar  312  0.5872458E+01  0.2371498E+02  0.2725211E+01  0.4207426E+03
Ar  313  0.5387828E+01  0.2088084E+02  0.5530529E+01  0.2963341E+03
Ar  314  0.7937822E+01  0.2396929E+02  0.5707335E+01  0.3286780E+03
Ar  315  0.8205071E+01  0.2097197E+02  0.8022411E+01  0.2184554E+03
Ar  316  0.5336857E+01  0.2357295E+02  0.8138299E+01  0.5760015E+03
Ar  317  0.5181839E+01  0.2163114E+02  0.1101637E+02  0.9939527E+02
Ar  318  0.8250260E+01  0.2385194E+02  0.1075246E+02  0.3930526E+03
Ar  319  0.8493458E+01  0.2135387E+02  0.1377692E+02  0.5384182E+03
Ar  320  0.5269515E+01  0.2469416E+02  0.1344334E+02  0.2529274E+03
Ar  321  0.5304149E+01  0.2137948E+02  0.1642799E+02  0.1161846E+03
Ar  322  0.8245158E+01  0.2419083E+02  0.1569399E+02  0.1187472E+03
Ar  323  0.8035260E+01  0.2236753E+02  0.1833811E+02  0.5172103E+03
Ar  324  0.5765578E+01  0.2512090E+02  0.1930303E+02  0.5365068E+03
Ar  325  0.5782119E+01  0.2201718E+02  0.2142837E+02  0.9386258E+01
Ar  326  0.8421744E+01  0.2483894E+02  0.2151816E+02  0.9402819E+02
Ar  327  0.8571606E+01  0.2163852E+02  0.2407313E+02  0.2463665E+03
Ar  328  0.6153536E+01  0.2461352E+02  0.2388047E+02  0.3829548E+02
Ar  329  0.5418168E+01  0.2176879E+02  0.2665762E+02  0.2933018E+03
Ar  330  0.8043186E+01  0.2391785E+02  0.2700494E+02  0.1218281E+03
Ar  331  0.8128396E+01  0.2139603E+02  0.3013281E+02  0.2271384E+02
Ar  332  0.5684854E+01  0.2394512E+02  0.2940845E+02  0.2198528E+03
Ar  333  0.5508897E+01  0.2183989E+02  0.3223091E+02  0.3114420E+03
Ar  334  0.8923489E+01  0.2432005E+02  0.3214960E+02  0.1498389E+03
Ar  335  0.8707520E+01  0.2208759E+02  0.3478504E+02  0.8584927E+02
Ar  336  0.5375067E+01  0.2436787E+02  0.3537593E+02  0.2479505E+03
Ar  337  0.5517901E+01  0.2680993E+02  0.2794078E+00  0.2966607E+03
Ar  338  0.8107712E+01  0.2965514E+02  0.2072658E-01  0.2289535E+03
Ar  339  0.8116532E+01  0.2695935E+02  0.2697852E+01  0.1626203E+03
Ar  340  0.5769211E+01  0.2914506E+02  0.2616736E+01  0.1609959E+03
Ar  341  0.5661243E+01  0.2637256E+02  0.5673307E+01  0.1481516E+03
Ar  342  0.8529099E+01  0.2964283E+02  0.5410590E+01  0.3008024E+03
Ar  343  0.8012715E+01  0.2693441E+02  0.8133604E+01  0.5031427E+03
Ar  344  0.5388749E+01  0.2916364E+02  0.8176850E+01  0.2392985E+03
Ar  345  0.5457445E+01  0.2669408E+02  0.1086329E+02  0.1356759E+03
Ar  346  0.8003673E+01  0.3034798E+02  0.1057475E+02  0.1852755E+03
Ar  347  0.7846079E+01  0.2690471E+02  0.1365345E+02  0.7135084E+02
Ar  348  0.5113645E+01  0.2954480E+02  0.1324453E+02  0.3039482E+03
Ar  349  0.5514249E+01  0.2674660E+02  0.1619146E+02  0.5928271E+02
Ar  350  0.8066379E+01  0.3028712E+02  0.1633203E+02  0.5560425E+03
Ar  351  0.8134204E+01  0.2749108E+02  0.1872175E+02  0.8704983E+02
Ar  352  0.5353019E+01  0.2957084E+02  0.1842882E+02  0.1369952E+03
Ar  353  0.5796741E+01  0.2767804E+02  0.2144757E+02  0.4396766E+03
Ar  354  0.8863817E+01  0.2955749E+02  0.2180213E+02  0.2865233E+03
Ar  355  0.8774867E+01  0.2740017E+02  0.2421770E+02  0.8522406E+02
Ar  356  0.5727671E+01  0.2994747E+02  0.2460049E+02  0.6147065E+02
Ar  357  0.5904222E+01  0.2715258E+02  0.2669089E+02  0.5020795E+03
Ar  358  0.8980603E+01  0.3002735E+02  0.2683965E+02  0.2254442E+03
Ar  359  0.8453896E+01  0.2701892E+02  0.2939967E+02  0.1171995E+03
Ar  360  0.5106539E+01  0.2999237E+02  0.2991336E+02  0.3712683E+03
Ar  361  0.5488615E+01  0.2748814E+02  0.3239372E+02  0.6072027E+03
Ar  362  0.8459969E+01  0.2967411E+02  0.3219133E+02  0.8189710E+02
Ar  363  0.8366019E+01  0.2686643E+02  0.3522752E+02  0.1243886E+03
Ar  364  0.5475257E+01  0.2985951E+02  0.3538011E+02  0.3342746E+03
Ar  365  0.4997100E+01  0.3264152E+02  0.2995029E-01  0.2340606E+03
Ar  366  0.8156861E+01  0.3519991E+02  0.3769409E+02  0.1670904E+03
Ar  367  0.8265710E+01  0.3235545E+02  0.2600040E+01  0.1177947E+03
Ar  368  0.5221978E+01  0.3483947E+02  0.2281756E+01  0.5016327E+03
Ar  369  0.5715126E+01  0.3181476E+02  0.5373447E+01  0.2528714E+02
Ar  370  0.7947419E+01  0.3530805E+02  0.5226315E+01  0.8399444E+02
Ar  371  0.8030709E+01  0.3233977E+02  0.7619953E+01  0.7180008E+03
Ar  372  0.5785759E+01  0.3515081E+02  0.7882301E+01  0.1900483E+03
Ar  373  0.5530772E+01  0.3279529E+02  0.1081883E+02  0.1310541E+03
Ar  374  0.8332788E+01  0.3512765E+02  0.1077639E+02  0.5672977E+03
Ar  375  0.8455844E+01  0.3313345E+02  0.1369302E+02  0.8151075E+02
Ar  376  0.5710980E+01  0.3448752E+02  0.1369541E+02  0.4877215E+02
Ar  377  0.5222857E+01  0.3243506E+02  0.1657898E+02  0.7390366E+02
Ar  378  0.7801959E+01  0.3496532E+02  0.1675754E+02  0.2122306E+03
Ar  379  0.8131630E+01  0.3181301E+02  0.1925686E+02  0.2218830E+03
Ar  380  0.5512648E+01  0.3437376E+02  0.1990151E+02  0.5265970E+03
Ar  381  0.5484734E+01  0.3155623E+02  0.2168549E+02  0.1180974E+03
Ar  382  0.9109380E+01  0.3458734E+02  0.2151837E+02  0.7594112E+03
Ar  383  0.8720690E+01  0.3238668E+02  0.2387847E+02  0.1047230E+03
Ar  384  0.6221694E+01  0.3468755E+02  0.2371179E+02  0.1100599E+03
Ar  385  0.5661413E+01  0.3221019E+02  0.2707638E+02  0.5090898E+03
Ar  386  0.8609217E+01  0.3490180E+02  0.2623172E+02  0.3484336E+03
Ar  387  0.8210593E+01  0.3220646E+02  0.2934211E+02  0.1213032E+03
Ar  388  0.5077106E+01  0.3431924E+02  0.2940505E+02  0.2930779E+03
Ar  389  0.5060525E+01  0.3252550E+02  0.3237433E+02  0.1486883E+03
Ar  390  0.8076777E+01  0.3535560E+02  0.3260225E+02  0.3399020E+03
Ar  391  0.7893352E+01  0.3225441E+02  0.3461391E+02  0.1621392E+03
Ar  392  0.5454742E+01  0.3485040E+02  0.3494218E+02  0.2100638E+03
Ar  393  0.1139975E+02  0.3713416E+02  0.3746916E+02  0.8090420E+02
Ar  394  0.1393749E+02  0.2465029E+01  0.3763656E+02  0.2281426E+03
Ar  395  0.1356584E+02  0.1240550E+00  0.2298937E+01  0.1090990E+03
Ar  396  0.1043804E+02  0.2504477E+01  0.2779951E+01  0.8186583E+01
Ar  397  0.1044485E+02  0.3763763E+02  0.5329399E+01  0.2412147E+03
Ar  398  0.1378033E+02  0.2455614E+01  0.5226606E+01  0.3911020E+03
Ar  399  0.1283060E+02  0.1411967E+00  0.8306836E+01  0.1002448E+03
Ar  400  0.1023289E+02  0.2578402E+01  0.8032244E+01  0.5681670E+03
Ar  401  0.1044590E+02  0.1452490E-01  0.1098947E+02  0.8931874E+02
Ar  402  0.1318021E+02  0.2440017E+01  0.1092230E+02  0.6823719E+03
Ar  403  0.1432199E+02  0.2730795E+00  0.1327019E+02  0.2185039E+03
Ar  404  0.1070183E+02  0.2368989E+01  0.1355241E+02  0.8844762E+02
Ar  405  0.1030122E+02  0.3760745E+02  0.1553808E+02  0.1054074E+03
Ar  406  0.1268835E+02  0.2767604E+01  0.1637729E+02  0.3052343E+02
Ar  407  0.1327445E+02  0.3770570E+02  0.1851304E+02  0.3808966E+03
Ar  408  0.1071590E+02  0.2390121E+01  0.1909267E+02  0.1106067E+03
Ar  409  0.1119767E+02  0.3775810E+02  0.2133803E+02  0.6263082E+02
Ar  410  0.1346488E+02  0.2853710E+01  0.2140146E+02  0.1702823E+03
Ar  411  0.1380626E+02  0.3757241E+02  0.2412348E+02  0.1386896E+03
Ar  412  0.1154767E+02  0.2585563E+01  0.2430310E+02  0.5297340E+02
Ar  413  0.1087356E+02  0.5468352E-01  0.2739528E+02  0.5867572E+03
Ar  414  0.1357220E+02  0.2722578E+01  0.2725971E+02  0.1480787E+03
Ar  415  0.1362310E+02  0.8866424E-02  0.2966656E+02  0.2262519E+03
Ar  416  0.1060688E+02  0.1905407E+01  0.3001230E+02  0.1566087E+03
Ar  417  0.1082966E+02  0.3735088E+02  0.3243859E+02  0.3703642E+03
Ar  418  0.1340225E+02  0.2172998E+01  0.3248392E+02  0.2440279E+03
Ar  419  0.1370365E+02  0.3734576E+02  0.3485647E+02  0.8295096E+02
Ar  420  0.1084037E+02  0.2044169E+01  0.3532619E+02  0.2106141E+03
Ar  421  0.1041806E+02  0.4983519E+01  0.1297024E+00  0.1575729E+01
Ar  422  0.1339021E+02  0.7635925E+01  0.3734987E+02  0.2883137E+03
Ar  423  0.1343705E+02  0.4791579E+01  0.2838894E+01  0.2718858E+03
Ar  424  0.1110000E+02  0.7636185E+01  0.2672048E+01  0.2036766E+03
Ar  425  0.1054989E+02  0.5056704E+01  0.5089002E+01  0.2297155E+03
Ar  426  0.1354773E+02  0.7302318E+01  0.5513282E+01  0.1726358E+03
Ar  427  0.1306537E+02  0.4939876E+01  0.8231206E+01  0.7880531E+02
Ar  428  0.1060768E+02  0.7734463E+01  0.8368581E+01  0.6311340E+03
Ar  429  0.1068558E+02  0.5083485E+01  0.1080054E+02  0.8104520E+02
Ar  430  0.1337622E+02  0.7700669E+01  0.1066108E+02  0.8845973E+02
Ar  431  0.1347669E+02  0.5268067E+01  0.1348099E+02  0.5248913E+02
Ar  432  0.1095016E+02  0.7750083E+01  0.1321655E+02  0.5049797E+03
Ar  433  0.1032832E+02  0.5461392E+01  0.1617836E+02  0.3451442E+03
Ar  434  0.1332534E+02  0.7542677E+01  0.1616064E+02  0.6815405E+02
Ar  435  0.1265108E+02  0.5136894E+01  0.1898859E+02  0.7800968E+02
Ar  436  0.1071395E+02  0.7765157E+01  0.1837972E+02  0.2227807E+02
Ar  437  0.1069622E+02  0.4977661E+01  0.2174838E+02  0.4039930E+02
Ar  438  0.1301726E+02  0.7579742E+01  0.2107906E+02  0.2946441E+03
Ar  439  0.1352648E+02  0.5363691E+01  0.2386454E+02  0.4143399E+03
Ar  440  0.1124718E+02  0.7865397E+01  0.2420119E+02  0.1264393E+03
Ar  441  0.1124118E+02  0.5419639E+01  0.2719773E+02  0.7552048E+02
Ar  442  0.1365847E+02  0.8304416E+01  0.2681972E+02  0.3210895E+03
Ar  443  0.1353958E+02  0.4817640E+01  0.3020740E+02  0.2222353E+03
Ar  444  0.1099824E+02  0.7614930E+01  0.2976439E+02  0.2839386E+03
Ar  445  0.1069401E+02  0.4743331E+01  0.3218382E+02  0.3052802E+03
Ar  446  0.1359244E+02  0.7677344E+01  0.3248474E+02  0.6429207E+02
Ar  447  0.1294090E+02  0.4856548E+01  0.3501400E+02  0.2436606E+03
Ar  448  0.1088628E+02  0.7807896E+01  0.3493761E+02  0.2940051E+02
Ar  449  0.1085162E+02  0.9972100E+01  0.2092253E+00  0.1466933E+03
Ar  450  0.1336845E+02  0.1325539E+02  0.4813356E+00  0.2709955E+03
Ar  451  0.1335910E+02  0.1017468E+02  0.3064065E+01  0.4859784E+02
Ar  452  0.1094389E+02  0.1274579E+02  0.2929681E+01  0.5251574E+02
Ar  453  0.1091148E+02  0.9877979E+01  0.5356360E+01  0.1622179E+02
Ar  454  0.1338204E+02  0.1279421E+02  0.5985764E+01  0.2039426E+03
Ar  455  0.1348190E+02  0.1034172E+02  0.8319427E+01  0.1077227E+03
Ar  456  0.1068508E+02  0.1303312E+02  0.8327770E+01  0.1085644E+03
Ar  457  0.1055503E+02  0.1053870E+02  0.1093248E+02  0.2518435E+03
Ar  458  0.1301278E+02  0.1385682E+02  0.1098705E+02  0.2062293E+03
Ar  459  0.1326921E+02  0.1092775E+02  0.1325655E+02  0.1205115E+03
Ar  460  0.1024712E+02  0.1381472E+02  0.1343764E+02  0.9569084E+02
Ar  461  0.1077371E+02  0.1094724E+02  0.1557255E+02  0.5790415E+02
Ar  462  0.1382849E+02  0.1371409E+02  0.1604035E+02  0.4706454E+02
Ar  463  0.1346972E+02  0.1058770E+02  0.1914487E+02  0.4168715E+02
Ar  464  0.1113811E+02  0.1325465E+02  0.1899258E+02  0.6255483E+03
Ar  465  0.1102050E+02  0.1063900E+02  0.2220345E+02  0.7813453E+02
Ar  466  0.1331831E+02  0.1366468E+02  0.2192725E+02  0.5435264E+03
Ar  467  0.1424515E+02  0.1073596E+02  0.2430673E+02  0.7176993E+02
Ar  468  0.1096180E+02  0.1343268E+02  0.2426016E+02  0.1545288E+03
Ar  469  0.1104163E+02  0.1073132E+02  0.2687106E+02  0.1622074E+03
Ar  470  0.1336803E+02  0.1383264E+02  0.2671070E+02  0.1715931E+03
Ar  471  0.1349310E+02  0.1041250E+02  0.2961361E+02  0.1626842E+03
Ar  472  0.1094116E+02  0.1373132E+02  0.2938335E+02  0.7725556E+02
Ar  473  0.1152516E+02  0.1130168E+02  0.3243736E+02  0.5647912E+02
Ar  474  0.1367351E+02  0.1425305E+02  0.3265523E+02  0.3827612E+03
Ar  475  0.1340418E+02  0.1040432E+02  0.3504757E+02  0.2404468E+03
Ar  476  0.1126202E+02  0.1334459E+02  0.3492582E+02  0.1763003E+03
Ar  477  0.1098995E+02  0.1598639E+02  0.3767134E+02  0.1352887E+03
Ar  478  0.1374769E+02  0.1972408E+02  0.3776277E+02  0.3010855E+02
Ar  479  0.1346868E+02  0.1541926E+02  0.3407061E+01  0.3605511E+03
Ar  480  0.1130776E+02  0.1899266E+02  0.2563959E+01  0.9541853E+02
Ar  481  0.1042693E+02  0.1586242E+02  0.5560046E+01  0.4012348E+03
Ar  482  0.1330719E+02  0.1816500E+02  0.5446869E+01  0.1746545E+02
Ar  483  0.1334083E+02  0.1608218E+02  0.8517183E+01  0.7585598E+03
Ar  484  0.1060472E+02  0.1843892E+02  0.8090703E+01  0.9244936E+02
Ar  485  0.1031948E+02  0.1627773E+02  0.1102005E+02  0.7419257E+03
Ar  486  0.1348928E+02  0.1901518E+02  0.1120085E+02  0.6198194E+03
Ar  487  0.1334603E+02  0.1629002E+02  0.1352453E+02  0.2362392E+03
Ar  488  0.1140368E+02  0.1896024E+02  0.1400860E+02  0.6637306E+03
Ar  489  0.1117154E+02  0.1597798E+02  0.1652902E+02  0.5683939E+02
Ar  490  0.1347169E+02  0.1910741E+02  0.1653767E+02  0.3893367E+03
Ar  491  0.1340004E+02  0.1605512E+02  0.1932127E+02  0.2539377E+03
Ar  492  0.1068644E+02  0.1917988E+02  0.1867041E+02  0.2253604E+03
Ar  493  0.1093505E+02  0.1605238E+02  0.2132273E+02  0.7868210E+03
Ar  494  0.1324005E+02  0.1943912E+02  0.2121750E+02  0.4075548E+02
Ar  495  0.1384977E+02  0.1626547E+02  0.2435404E+02  0.7142974E+02
Ar  496  0.1091197E+02  0.1895716E+02  0.2408317E+02  0.1556462E+03
Ar  497  0.1098734E+02  0.1678036E+02  0.2689826E+02  0.5372453E+02
Ar  498  0.1360415E+02  0.1868009E+02  0.2711015E+02  0.1299651E+03
Ar  499  0.1343846E+02  0.1618289E+02  0.2940737E+02  0.6403798E+02
Ar  500  0.1023320E+02  0.1872324E+02  0.2963203E+02  0.2431251E+03
Ar  501  0.1068163E+02  0.1582995E+02  0.3250100E+02  0.2086841E+03
Ar  502  0.1325933E+02  0.1822699E+02  0.3214415E+02  0.3215613E+03
Ar  503  0.1324879E+02  0.1643758E+02  0.3543796E+02  0.1018561E+04
Ar  504  0.1030532E+02  0.1886507E+02  0.3552738E+02  0.5264284E+02
Ar  505  0.1081490E+02  0.2140673E+02  0.2574452E+00  0.4935274E+03
Ar  506  0.1346735E+02  0.2397058E+02  0.2869792E-01  0.1927284E+03
Ar  507  0.1349718E+02  0.2165266E+02  0.2793717E+01  0.4317962E+02
Ar  508  0.1052544E+02  0.2377592E+02  0.3314777E+01  0.3404917E+03
Ar  509  0.1041910E+02  0.2077384E+02  0.5444685E+01  0.1005861E+03
Ar  510  0.1357797E+02  0.2384755E+02  0.5274568E+01  0.1702827E+03
Ar  511  0.1322834E+02  0.2107936E+02  0.8451172E+01  0.1523399E+03
Ar  512  0.1072360E+02  0.2374834E+02  0.7758900E+01  0.1141507E+02
Ar  513  0.1075340E+02  0.2124742E+02  0.1091149E+02  0.2457361E+03
Ar  514  0.1305863E+02  0.2440631E+02  0.1094749E+02  0.9896147E+03
Ar  515  0.1381062E+02  0.2172196E+02  0.1326959E+02  0.3992626E+02
Ar  516  0.1066540E+02  0.2420914E+02  0.1335491E+02  0.3700725E+03
Ar  517  0.1156089E+02  0.2217558E+02  0.1612334E+02  0.5769793E+03
Ar  518  0.1381854E+02  0.2473345E+02  0.1613279E+02  0.3629264E+03
Ar  519  0.1387067E+02  0.2174999E+02  0.1888329E+02  0.6521364E+02
Ar  520  0.1047119E+02  0.2492505E+02  0.1824909E+02  0.1528783E+03
Ar  521  0.1092466E+02  0.2230003E+02  0.2105642E+02  0.2935241E+03
Ar  522  0.1391790E+02  0.2456158E+02  0.2111072E+02  0.4120244E+03
Ar  523  0.1345492E+02  0.2135961E+02  0.2416944E+02  0.9405384E+02
Ar  524  0.1100681E+02  0.2417038E+02  0.2418114E+02  0.8240775E+01
Ar  525  0.1116363E+02  0.2139972E+02  0.2711125E+02  0.3067732E+02
Ar  526  0.1322316E+02  0.2433549E+02  0.2660451E+02  0.1508757E+03
Ar  527  0.1360605E+02  0.2044228E+02  0.2998765E+02  0.8948631E+03
Ar  528  0.1095622E+02  0.2404712E+02  0.2922298E+02  0.1601906E+03
Ar  529  0.1098125E+02  0.2061382E+02  0.3266272E+02  0.5134427E+03
Ar  530  0.1360305E+02  0.2433415E+02  0.3224521E+02  0.2804679E+02
Ar  531  0.1378943E+02  0.2159950E+02  0.3450060E+02  0.7718726E+01
Ar  532  0.1112330E+02  0.2449852E+02  0.3504963E+02  0.3195901E+03
Ar  533  0.1106741E+02  0.2662768E+02  0.3776547E+02  0.9803934E+02
Ar  534  0.1341235E+02  0.2976719E+02  0.3753687E+02  0.7204607E+03
Ar  535  0.1303774E+02  0.2635281E+02  0.2870216E+01  0.4249756E+03
Ar  536  0.1109938E+02  0.2951644E+02  0.2830923E+01  0.1308569E+02
Ar  537  0.1052635E+02  0.2696511E+02  0.5416493E+01  0.4794592E+03
Ar  538  0.1341652E+02  0.2981570E+02  0.5363792E+01  0.2662787E+03
Ar  539  0.1302500E+02  0.2671682E+02  0.8082262E+01  0.1036650E+03
Ar  540  0.1031672E+02  0.2970413E+02  0.8191859E+01  0.3185664E+03
Ar  541  0.1029276E+02  0.2727500E+02  0.1060658E+02  0.2172797E+03
Ar  542  0.1300275E+02  0.2959533E+02  0.1035049E+02  0.6048569E+03
Ar  543  0.1304195E+02  0.2709930E+02  0.1340229E+02  0.1575690E+03
Ar  544  0.1081575E+02  0.3001435E+02  0.1357825E+02  0.1157338E+03
Ar  545  0.1072913E+02  0.2727037E+02  0.1573626E+02  0.2468361E+03
Ar  546  0.1382719E+02  0.2957112E+02  0.1591313E+02  0.6063778E+03
Ar  547  0.1338664E+02  0.2727886E+02  0.1850001E+02  0.1243862E+03
Ar  548  0.1119877E+02  0.2990672E+02  0.1818296E+02  0.1931482E+02
Ar  549  0.1124709E+02  0.2695479E+02  0.2163105E+02  0.4249589E+03
Ar  550  0.1392232E+02  0.2925718E+02  0.2120127E+02  0.2926414E+03
Ar  551  0.1414007E+02  0.2690729E+02  0.2403890E+02  0.9953591E+02
Ar  552  0.1148550E+02  0.2960887E+02  0.2402362E+02  0.4632229E+03
Ar  553  0.1109294E+02  0.2716674E+02  0.2714099E+02  0.7087457E+03
Ar  554  0.1388686E+02  0.2949136E+02  0.2743652E+02  0.3954542E+03
Ar  555  0.1348691E+02  0.2681755E+02  0.2965503E+02  0.3706301E+03
Ar  556  0.1126066E+02  0.3010577E+02  0.2958747E+02  0.2496947E+03
Ar  557  0.1109032E+02  0.2724099E+02  0.3224274E+02  0.1742082E+02
Ar  558  0.1380329E+02  0.2996762E+02  0.3155727E+02  0.6510669E+02
Ar  559  0.1348605E+02  0.2747009E+02  0.3459635E+02  0.7805099E+02
Ar  560  0.1126456E+02  0.3018099E+02  0.3445652E+02  0.2992499E+02
Ar  561  0.1078148E+02  0.3272712E+02  0.3764140E+02  0.1045978E+03
Ar  562  0.1370158E+02  0.3442297E+02  0.3770087E+02  0.2345874E+03
Ar  563  0.1328583E+02  0.3224705E+02  0.2813113E+01  0.1240324E+03
Ar  564  0.1132070E+02  0.3506487E+02  0.2498857E+01  0.1847836E+03
Ar  565  0.1067600E+02  0.3289206E+02  0.5398118E+01  0.2269206E+03
Ar  566  0.1362338E+02  0.3498822E+02  0.5790260E+01  0.2017437E+03
Ar  567  0.1337608E+02  0.3245534E+02  0.7876613E+01  0.7732434E+02
Ar  568  0.1090506E+02  0.3493317E+02  0.8120452E+01  0.2184729E+03
Ar  569  0.1084570E+02  0.3243906E+02  0.1085917E+02  0.7133131E+03
Ar  570  0.1372258E+02  0.3498658E+02  0.1057011E+02  0.1061848E+02
Ar  571  0.1432152E+02  0.3263505E+02  0.1376878E+02  0.9014769E+02
Ar  572  0.1099132E+02  0.3505197E+02  0.1323971E+02  0.4996860E+03
Ar  573  0.1159752E+02  0.3248887E+02  0.1567950E+02  0.1759207E+03
Ar  574  0.1367491E+02  0.3561561E+02  0.1583899E+02  0.2459701E+03
Ar  575  0.1361051E+02  0.3265744E+02  0.1846344E+02  0.9004756E+03
Ar  576  0.1091183E+02  0.3474162E+02  0.1809867E+02  0.5784979E+03
Ar  577  0.1147979E+02  0.3204708E+02  0.2119449E+02  0.2637501E+03
Ar  578  0.1354068E+02  0.3511786E+02  0.2136727E+02  0.5479747E+03
Ar  579  0.1400955E+02  0.3209821E+02  0.2424428E+02  0.1874142E+03
Ar  580  0.1159361E+02  0.3492578E+02  0.2433278E+02  0.1138778E+03
Ar  581  0.1109752E+02  0.3263960E+02  0.2677367E+02  0.1950723E+02
Ar  582  0.1356132E+02  0.3532087E+02  0.2709241E+02  0.8489599E+02
Ar  583  0.1380394E+02  0.3234216E+02  0.2911808E+02  0.1460832E+03
Ar  584  0.1112563E+02  0.3486025E+02  0.2958032E+02  0.6444391E+03
Ar  585  0.1041166E+02  0.3234526E+02  0.3181007E+02  0.2020913E+03
Ar  586  0.1372687E+02  0.3508554E+02  0.3174026E+02  0.3550273E+03
Ar  587  0.1380613E+02  0.3271375E+02  0.3489156E+02  0.9797435E+02
Ar  588  0.1120998E+02  0.3458686E+02  0.3451175E+02  0.4124692E+02
Ar  589  0.1673541E+02  0.3776613E+02  0.3718013E+02  0.1066315E+03
Ar  590  0.1896733E+02  0.2958867E+01  0.3359534E-01  0.2208054E+03
Ar  591  0.1902014E+02  0.3759703E+02  0.3055624E+01  0.4480776E+03
Ar  592  0.1648345E+02  0.2733914E+01  0.2341218E+01  0.1537077E+03
Ar  593  0.1613638E+02  0.3774651E+02  0.5689255E+01  0.1697676E+03
Ar  594  0.1891182E+02  0.2435375E+01  0.4989928E+01  0.1358220E+03
Ar  595  0.1923480E+02  0.4768407E+00  0.7837223E+01  0.3040547E+03
Ar  596  0.1581055E+02  0.2651595E+01  0.8089126E+01  0.1074492E+03
Ar  597  0.1631361E+02  0.3753458E+02  0.1041541E+02  0.1245732E+03
Ar  598  0.1887665E+02  0.2652135E+01  0.1055376E+02  0.6640597E+02
Ar  599  0.1885270E+02  0.2360720E+00  0.1324069E+02  0.1043579E+03
Ar  600  0.1679252E+02  0.2998734E+01  0.1329489E+02  0.3480148E+03
Ar  601  0.1625729E+02  0.5244871E+00  0.1621304E+02  0.3475860E+03
Ar  602  0.1894315E+02  0.3090215E+01  0.1624557E+02  0.9505137E+02
Ar  603  0.1867329E+02  0.9574598E+00  0.1907713E+02  0.2146230E+03
Ar  604  0.1580711E+02  0.2761429E+01  0.1866832E+02  0.2214691E+03
Ar  605  0.1598328E+02  0.5396455E+00  0.2164748E+02  0.6301821E+01
Ar  606  0.1887387E+02  0.2648862E+01  0.2213860E+02  0.2905755E+03
Ar  607  0.1877843E+02  0.3774402E+02  0.2444634E+02  0.2309016E+03
Ar  608  0.1608609E+02  0.2892293E+01  0.2421973E+02  0.3681147E+03
Ar  609  0.1633017E+02  0.3772163E+02  0.2684735E+02  0.2127224E+03
Ar  610  0.1925490E+02  0.3197608E+01  0.2623717E+02  0.6091901E+03
Ar  611  0.1903712E+02  0.3732154E+02  0.2973670E+02  0.1799753E+03
Ar  612  0.1675438E+02  0.2491729E+01  0.2933521E+02  0.5298813E+03
Ar  613  0.1620245E+02  0.3755853E+02  0.3231435E+02  0.1704767E+03
Ar  614  0.1961692E+02  0.2625583E+01  0.3269068E+02  0.7009254E+02
Ar  615  0.1894716E+02  0.3745320E+02  0.3440763E+02  0.4271701E+02
Ar  616  0.1646638E+02  0.2238657E+01  0.3477663E+02  0.5397380E+03
Ar  617  0.1606548E+02  0.4878958E+01  0.3732398E+02  0.4667213E+03
Ar  618  0.1948325E+02  0.8554571E+01  0.1661416E-01  0.4461276E+02
Ar  619  0.1878150E+02  0.5308897E+01  0.2575938E+01  0.3298250E+03
Ar  620  0.1593741E+02  0.8273837E+01  0.2449630E+01  0.8792881E+02
Ar  621  0.1636994E+02  0.5353874E+01  0.5085369E+01  0.4127431E+02
Ar  622  0.1852508E+02  0.8020021E+01  0.5436787E+01  0.2489694E+03
Ar  623  0.1850458E+02  0.4884707E+01  0.7877683E+01  0.2487544E+03
Ar  624  0.1601507E+02  0.7498584E+01  0.8012490E+01  0.2039006E+03
Ar  625  0.1591146E+02  0.5232079E+01  0.1080882E+02  0.3048272E+03
Ar  626  0.1859455E+02  0.7345472E+01  0.1096770E+02  0.7362107E+03
Ar  627  0.1848852E+02  0.5775790E+01  0.1401019E+02  0.2546607E+03
Ar  628  0.1587482E+02  0.7997124E+01  0.1291194E+02  0.3163040E+02
Ar  629  0.1559348E+02  0.5516040E+01  0.1652995E+02  0.3440624E+03
Ar  630  0.1882797E+02  0.8845972E+01  0.1658829E+02  0.1662095E+03
Ar  631  0.1858012E+02  0.4689395E+01  0.1925517E+02  0.1682207E+03
Ar  632  0.1588517E+02  0.7996315E+01  0.1878428E+02  0.3287024E+03
Ar  633  0.1576224E+02  0.5753581E+01  0.2133589E+02  0.1090795E+03
Ar  634  0.1846381E+02  0.8024199E+01  0.2106686E+02  0.3921761E+03
Ar  635  0.1850614E+02  0.5632021E+01  0.2354034E+02  0.2874015E+03
Ar  636  0.1657578E+02  0.8124876E+01  0.2401030E+02  0.3480397E+03
Ar  637  0.1613384E+02  0.5219646E+01  0.2712124E+02  0.6331041E+02
Ar  638  0.1893224E+02  0.7630960E+01  0.2671609E+02  0.3877238E+03
Ar  639  0.1905277E+02  0.5115425E+01  0.2995884E+02  0.1078302E+03
Ar  640  0.1626464E+02  0.8018942E+01  0.2937135E+02  0.7065442E+02
Ar  641  0.1613808E+02  0.5353691E+01  0.3240635E+02  0.1454743E+03
Ar  642  0.1889047E+02  0.8510821E+01  0.3218387E+02  0.7529242E+03
Ar  643  0.1948334E+02  0.5815367E+01  0.3483373E+02  0.3600563E+02
Ar  644  0.1625580E+02  0.8130543E+01  0.3490782E+02  0.2540092E+03
Ar  645  0.1698373E+02  0.1193582E+02  0.2803764E+00  0.2659410E+03
Ar  646  0.1876852E+02  0.1516112E+02  0.5739207E+00  0.4609891E+02
Ar  647  0.1872445E+02  0.1059778E+02  0.3247548E+01  0.2330985E+03
Ar  648  0.1596265E+02  0.1314273E+02  0.3376283E+01  0.4131498E+02
Ar  649  0.1610753E+02  0.1057125E+02  0.6040148E+01  0.3867943E+03
Ar  650  0.1853973E+02  0.1293202E+02  0.6267850E+01  0.2831451E+03
Ar  651  0.1846362E+02  0.9871175E+01  0.8414168E+01  0.1130024E+03
Ar  652  0.1579100E+02  0.1318516E+02  0.8545842E+01  0.8436894E+02
Ar  653  0.1580153E+02  0.1066643E+02  0.1072702E+02  0.2756825E+03
Ar  654  0.1890331E+02  0.1295535E+02  0.1050351E+02  0.2252859E+03
Ar  655  0.1850209E+02  0.1027980E+02  0.1314354E+02  0.3709942E+02
Ar  656  0.1599425E+02  0.1355979E+02  0.1293755E+02  0.7794590E+02
Ar  657  0.1562712E+02  0.1036346E+02  0.1574801E+02  0.1903192E+03
Ar  658  0.1806499E+02  0.1314419E+02  0.1564872E+02  0.8820661E+02
Ar  659  0.1886044E+02  0.1188461E+02  0.1848130E+02  0.1502323E+03
Ar  660  0.1579383E+02  0.1347862E+02  0.1907744E+02  0.2608990E+03
Ar  661  0.1611460E+02  0.1067125E+02  0.2159270E+02  0.1958030E+03
Ar  662  0.1893005E+02  0.1347623E+02  0.2175726E+02  0.1063126E+03
Ar  663  0.1863414E+02  0.1077551E+02  0.2444654E+02  0.2204417E+03
Ar  664  0.1627818E+02  0.1356711E+02  0.2396207E+02  0.2640616E+03
Ar  665  0.1636804E+02  0.1085161E+02  0.2716101E+02  0.3104478E+02
Ar  666  0.1842905E+02  0.1349056E+02  0.2684896E+02  0.2283452E+03
Ar  667  0.1908367E+02  0.1071808E+02  0.2955373E+02  0.7157353E+02
Ar  668  0.1669839E+02  0.1357749E+02  0.2977430E+02  0.2815203E+03
Ar  669  0.1606568E+02  0.1105398E+02  0.3223279E+02  0.6003547E+03
Ar  670  0.1930115E+02  0.1337658E+02  0.3272180E+02  0.2933552E+03
Ar  671  0.1907891E+02  0.1086552E+02  0.3527671E+02  0.6673651E+03
Ar  672  0.1611281E+02  0.1330264E+02  0.3518546E+02  0.2205823E+03
Ar  673  0.1552667E+02  0.1609817E+02  0.7488141E-01  0.2559902E+03
Ar  674  0.1858944E+02  0.1929940E+02  0.4457760E+00  0.4465689E+03
Ar  675  0.1895088E+02  0.1645330E+02  0.3633587E+01  0.5357313E+03
Ar  676  0.1601559E+02  0.1861250E+02  0.3338026E+01  0.1260818E+03
Ar  677  0.1584176E+02  0.1584843E+02  0.6099212E+01  0.9758157E+02
Ar  678  0.1915899E+02  0.1911355E+02  0.5807874E+01  0.3933905E+03
Ar  679  0.1903277E+02  0.1618669E+02  0.8020130E+01  0.4355933E+03
Ar  680  0.1614620E+02  0.1894016E+02  0.7779247E+01  0.3448820E+03
Ar  681  0.1603780E+02  0.1679748E+02  0.1097821E+02  0.2973921E+03
Ar  682  0.1888983E+02  0.1854517E+02  0.1085899E+02  0.2274591E+03
Ar  683  0.1849015E+02  0.1609552E+02  0.1333011E+02  0.8624034E+02
Ar  684  0.1606672E+02  0.1900853E+02  0.1364434E+02  0.2719920E+03
Ar  685  0.1601993E+02  0.1621170E+02  0.1578836E+02  0.2196703E+03
Ar  686  0.1911131E+02  0.1836502E+02  0.1635133E+02  0.1544728E+03
Ar  687  0.1915658E+02  0.1598269E+02  0.1959222E+02  0.5343530E+02
Ar  688  0.1675892E+02  0.1837329E+02  0.1851413E+02  0.1585748E+03
Ar  689  0.1634262E+02  0.1592967E+02  0.2165421E+02  0.5067554E+01
Ar  690  0.1881916E+02  0.1933169E+02  0.2160485E+02  0.4145696E+03
Ar  691  0.1904957E+02  0.1598943E+02  0.2433343E+02  0.1415894E+03
Ar  692  0.1614288E+02  0.1885593E+02  0.2397922E+02  0.1660760E+02
Ar  693  0.1621818E+02  0.1657888E+02  0.2708044E+02  0.1355452E+03
Ar  694  0.1895707E+02  0.1908059E+02  0.2706229E+02  0.1567891E+03
Ar  695  0.1909226E+02  0.1605242E+02  0.2967261E+02  0.1335589E+03
Ar  696  0.1652921E+02  0.1886997E+02  0.3027049E+02  0.5609802E+03
Ar  697  0.1661286E+02  0.1583515E+02  0.3305419E+02  0.1723457E+03
Ar  698  0.1932257E+02  0.1891855E+02  0.3280250E+02  0.1120435E+04
Ar  699  0.1898746E+02  0.1639250E+02  0.3537764E+02  0.4010578E+03
Ar  700  0.1609826E+02  0.1866011E+02  0.3515698E+02  0.3371171E+03
Ar  701  0.1674006E+02  0.2198064E+02  0.3717988E+02  0.1274718E+03
Ar  702  0.1921420E+02  0.2447613E+02  0.1124644E+00  0.6047255E+03
Ar  703  0.1930720E+02  0.2204405E+02  0.2901376E+01  0.3232892E+03
Ar  704  0.1587850E+02  0.2424402E+02  0.2405800E+01  0.1640380E+03
Ar  705  0.1659884E+02  0.2148248E+02  0.5544581E+01  0.3632582E+03
Ar  706  0.1808080E+02  0.2452521E+02  0.5630551E+01  0.2852079E+03
Ar  707  0.1863807E+02  0.2126865E+02  0.8694044E+01  0.3793273E+03
Ar  708  0.1586349E+02  0.2384286E+02  0.8149986E+01  0.2036850E+03
Ar  709  0.1594257E+02  0.2118491E+02  0.1057143E+02  0.7482230E+03
Ar  710  0.1842322E+02  0.2469203E+02  0.1071156E+02  0.3713199E+02
Ar  711  0.1856267E+02  0.2168709E+02  0.1268751E+02  0.3302840E+03
Ar  712  0.1570975E+02  0.2461174E+02  0.1337795E+02  0.1090943E+02
Ar  713  0.1608340E+02  0.2138079E+02  0.1619728E+02  0.7229946E+02
Ar  714  0.1847348E+02  0.2392944E+02  0.1564297E+02  0.5718499E+03
Ar  715  0.1914567E+02  0.2166270E+02  0.1903688E+02  0.1223112E+03
Ar  716  0.1659484E+02  0.2410232E+02  0.1839106E+02  0.5122452E+02
Ar  717  0.1596231E+02  0.2162719E+02  0.2143426E+02  0.1192433E+04
Ar  718  0.1886726E+02  0.2413547E+02  0.2149664E+02  0.7307497E+02
Ar  719  0.1912591E+02  0.2125697E+02  0.2425018E+02  0.1036437E+03
Ar  720  0.1641012E+02  0.2416398E+02  0.2416191E+02  0.8515779E+02
Ar  721  0.1589781E+02  0.2139016E+02  0.2712844E+02  0.2809176E+03
Ar  722  0.1877992E+02  0.2392881E+02  0.2701473E+02  0.5500132E+03
Ar  723  0.1913046E+02  0.2168795E+02  0.3014662E+02  0.1658678E+03
Ar  724  0.1616514E+02  0.2417829E+02  0.2977389E+02  0.2606624E+02
Ar  725  0.1653101E+02  0.2161398E+02  0.3237924E+02  0.4780895E+03
Ar  726  0.1882419E+02  0.2428321E+02  0.3225481E+02  0.2769278E+03
Ar  727  0.1936778E+02  0.2161936E+02  0.3526848E+02  0.6676595E+02
Ar  728  0.1654553E+02  0.2528173E+02  0.3476814E+02  0.5157611E+03
Ar  729  0.1558616E+02  0.2723245E+02  0.6188502E-01  0.5993886E+03
Ar  730  0.1879324E+02  0.2854152E+02  0.3773181E+02  0.2672838E+03
Ar  731  0.1851034E+02  0.2706249E+02  0.3000277E+01  0.1284433E+03
Ar  732  0.1570087E+02  0.2936899E+02  0.2570103E+01  0.9573772E+03
Ar  733  0.1574968E+02  0.2695423E+02  0.5459867E+01  0.6065224E+01
Ar  734  0.1853021E+02  0.2936618E+02  0.5685353E+01  0.4512639E+03
Ar  735  0.1875316E+02  0.2683121E+02  0.8218749E+01  0.8470120E+02
Ar  736  0.1603263E+02  0.2932299E+02  0.8116684E+01  0.1625049E+03
Ar  737  0.1597227E+02  0.2696355E+02  0.1061725E+02  0.2417656E+03
Ar  738  0.1899779E+02  0.2966332E+02  0.1084327E+02  0.3101417E+03
Ar  739  0.1868166E+02  0.2748824E+02  0.1394375E+02  0.1560663E+03
Ar  740  0.1570437E+02  0.2943394E+02  0.1315391E+02  0.1797362E+03
Ar  741  0.1627585E+02  0.2701466E+02  0.1653435E+02  0.5462911E+03
Ar  742  0.1933786E+02  0.2961111E+02  0.1636106E+02  0.3435228E+03
Ar  743  0.1889925E+02  0.2683144E+02  0.1857951E+02  0.6910837E+02
Ar  744  0.1601811E+02  0.3005499E+02  0.1834911E+02  0.7726867E+02
Ar  745  0.1693824E+02  0.2718211E+02  0.2177612E+02  0.3832540E+02
Ar  746  0.1907758E+02  0.2998013E+02  0.2156696E+02  0.4731477E+03
Ar  747  0.1932035E+02  0.2693530E+02  0.2487740E+02  0.1433615E+03
Ar  748  0.1681566E+02  0.2959272E+02  0.2474947E+02  0.1003066E+03
Ar  749  0.1671566E+02  0.2645190E+02  0.2698448E+02  0.3204802E+03
Ar  750  0.1963611E+02  0.2973102E+02  0.2703986E+02  0.1533997E+03
Ar  751  0.1955329E+02  0.2715884E+02  0.2986873E+02  0.7343368E+02
Ar  752  0.1683014E+02  0.2902864E+02  0.2869960E+02  0.3071663E+03
Ar  753  0.1629522E+02  0.2761058E+02  0.3209729E+02  0.3317339E+03
Ar  754  0.1892010E+02  0.3007338E+02  0.3194912E+02  0.9683578E+02
Ar  755  0.1930662E+02  0.2714352E+02  0.3425833E+02  0.1530308E+03
Ar  756  0.1659008E+02  0.2899601E+02  0.3523928E+02  0.1680696E+03
Ar  757  0.1648488E+02  0.3259085E+02  0.3728448E+02  0.3512625E+03
Ar  758  0.1917711E+02  0.3513355E+02  0.1322776E+00  0.1104213E+02
Ar  759  0.1826183E+02  0.3235969E+02  0.2582128E+01  0.1930843E+03
Ar  760  0.1575911E+02  0.3517200E+02  0.2649071E+01  0.6858050E+03
Ar  761  0.1613218E+02  0.3258804E+02  0.5857181E+01  0.4653614E+03
Ar  762  0.1872063E+02  0.3498717E+02  0.5685386E+01  0.3808638E+02
Ar  763  0.1899114E+02  0.3173470E+02  0.8265511E+01  0.5863665E+03
Ar  764  0.1640607E+02  0.3505792E+02  0.8099030E+01  0.7235092E+02
Ar  765  0.1646219E+02  0.3234285E+02  0.1031774E+02  0.5511694E+03
Ar  766  0.1902991E+02  0.3503711E+02  0.1059958E+02  0.5488089E+02
Ar  767  0.1887248E+02  0.3225109E+02  0.1326982E+02  0.8473821E+02
Ar  768  0.1668062E+02  0.3485181E+02  0.1341890E+02  0.3188287E+03
Ar  769  0.1665011E+02  0.3252787E+02  0.1595437E+02  0.1240687E+03
Ar  770  0.1927827E+02  0.3539912E+02  0.1620097E+02  0.4051349E+03
Ar  771  0.1968751E+02  0.3245397E+02  0.1850948E+02  0.2556147E+03
Ar  772  0.1627433E+02  0.3584659E+02  0.1890637E+02  0.3030661E+03
Ar  773  0.1646069E+02  0.3247945E+02  0.2079231E+02  0.4756210E+03
Ar  774  0.1887460E+02  0.3568068E+02  0.2140944E+02  0.7671572E+02
Ar  775  0.1869530E+02  0.3261361E+02  0.2425564E+02  0.3087576E+03
Ar  776  0.1612737E+02  0.3481727E+02  0.2495537E+02  0.5981925E+02
Ar  777  0.1685345E+02  0.3228511E+02  0.2724049E+02  0.2461814E+03
Ar  778  0.1881506E+02  0.3536933E+02  0.2701975E+02  0.4767583E+02
Ar  779  0.1919169E+02  0.3200915E+02  0.2935646E+02  0.2991530E+02
Ar  780  0.1649569E+02  0.3503320E+02  0.2941346E+02  0.3920984E+02
Ar  781  0.1638044E+02  0.3232079E+02  0.3154511E+02  0.3763847E+03
Ar  782  0.1933525E+02  0.3489297E+02  0.3227028E+02  0.4047898E+03
Ar  783  0.1909060E+02  0.3237549E+02  0.3543290E+02  0.4681487E+02
Ar  784  0.1663613E+02  0.3515610E+02  0.3477550E+02  0.1101147E+03
Ar  785  0.2172163E+02  0.3766583E+02  0.2999442E+00  0.5773022E+02
Ar  786  0.2409326E+02  0.2132823E+01  0.3768598E+02  0.2513076E+03
Ar  787  0.2430518E+02  0.2653120E+00  0.2764362E+01  0.1455310E+03
Ar  788  0.2180890E+02  0.2659702E+01  0.2465384E+01  0.3188488E+02
Ar  789  0.2188585E+02  0.3759796E+02  0.5147768E+01  0.7730161E+02
Ar  790  0.2419093E+02  0.3012706E+01  0.4721541E+01  0.4754503E+03
Ar  791  0.2430386E+02  0.3742104E+02  0.7975677E+01  0.3126800E+03
Ar  792  0.2193143E+02  0.2457611E+01  0.8151181E+01  0.5854093E+02
Ar  793  0.2159809E+02  0.3738655E+02  0.1025562E+02  0.9738124E+02
Ar  794  0.2413960E+02  0.2548151E+01  0.1152298E+02  0.2161243E+03
Ar  795  0.2401686E+02  0.3773892E+02  0.1379205E+02  0.1447408E+03
Ar  796  0.2089030E+02  0.3410709E+01  0.1330319E+02  0.1475164E+03
Ar  797  0.2170507E+02  0.5402698E+00  0.1666194E+02  0.5755195E+03
Ar  798  0.2399856E+02  0.2971546E+01  0.1568998E+02  0.2235167E+03
Ar  799  0.2445209E+02  0.5865954E+00  0.1887498E+02  0.1511077E+02
Ar  800  0.2198203E+02  0.3134247E+01  0.1906039E+02  0.1819407E+03
Ar  801  0.2146362E+02  0.8066554E+00  0.2147686E+02  0.4046329E+02
Ar  802  0.2408642E+02  0.3319897E+01  0.2141169E+02  0.2232952E+03
Ar  803  0.2424044E+02  0.9114729E-01  0.2458338E+02  0.6346520E+03
Ar  804  0.2179644E+02  0.3033165E+01  0.2400177E+02  0.2465341E+02
Ar  805  0.2130484E+02  0.4308336E+00  0.2706835E+02  0.1166099E+03
Ar  806  0.2432513E+02  0.2910227E+01  0.2732522E+02  0.8459757E+02
Ar  807  0.2409497E+02  0.3768497E+02  0.2952902E+02  0.1040189E+03
Ar  808  0.2190429E+02  0.2702703E+01  0.2970743E+02  0.6274812E+02
Ar  809  0.2172188E+02  0.3747803E+02  0.3211510E+02  0.4067174E+02
Ar  810  0.2419005E+02  0.2595137E+01  0.3264170E+02  0.5918591E+03
Ar  811  0.2411143E+02  0.3768598E+02  0.3487373E+02  0.9190936E+03
Ar  812  0.2124195E+02  0.2373327E+01  0.3538699E+02  0.2162194E+03
Ar  813  0.2154677E+02  0.5253672E+01  0.3726618E+02  0.3738221E+03
Ar  814  0.2434157E+02  0.8734449E+01  0.3510335E+00  0.2125727E+03
Ar  815  0.2368698E+02  0.5841821E+01  0.2136353E+01  0.4669162E+03
Ar  816  0.2130856E+02  0.8646143E+01  0.2685410E+01  0.1913348E+03
Ar  817  0.2128696E+02  0.5006615E+01  0.5030337E+01  0.1990935E+03
Ar  818  0.2400066E+02  0.7637401E+01  0.5233466E+01  0.2754018E+03
Ar  819  0.2393067E+02  0.5231232E+01  0.7608684E+01  0.9082025E+03
Ar  820  0.2121379E+02  0.7709970E+01  0.8024116E+01  0.3736340E+03
Ar  821  0.2133654E+02  0.5028291E+01  0.1044309E+02  0.1931522E+03
Ar  822  0.2415326E+02  0.7805136E+01  0.1090629E+02  0.1517174E+03
Ar  823  0.2463676E+02  0.5738590E+01  0.1347206E+02  0.1207562E+04
Ar  824  0.2142278E+02  0.7371397E+01  0.1309333E+02  0.8519936E+02
Ar  825  0.2113127E+02  0.5840325E+01  0.1610523E+02  0.1560561E+03
Ar  826  0.2423097E+02  0.8179404E+01  0.1639524E+02  0.1324633E+03
Ar  827  0.2446348E+02  0.5778697E+01  0.1855886E+02  0.9843950E+02
Ar  828  0.2139994E+02  0.7973821E+01  0.1920957E+02  0.1113908E+03
Ar  829  0.2137815E+02  0.5820588E+01  0.2146789E+02  0.2379345E+03
Ar  830  0.2446457E+02  0.8069837E+01  0.2134423E+02  0.4763775E+02
Ar  831  0.2469334E+02  0.5753759E+01  0.2409607E+02  0.8771194E+02
Ar  832  0.2122685E+02  0.7980499E+01  0.2449562E+02  0.2146264E+03
Ar  833  0.2175861E+02  0.5155630E+01  0.2711774E+02  0.6930325E+03
Ar  834  0.2412142E+02  0.8412006E+01  0.2699101E+02  0.3059897E+03
Ar  835  0.2420181E+02  0.5637193E+01  0.2990314E+02  0.3723941E+03
Ar  836  0.2151424E+02  0.8218405E+01  0.2961293E+02  0.7583928E+02
Ar  837  0.2172513E+02  0.5555800E+01  0.3202096E+02  0.1090578E+03
Ar  838  0.2400293E+02  0.8101784E+01  0.3252083E+02  0.1743439E+03
Ar  839  0.2392321E+02  0.5467332E+01  0.3496406E+02  0.1155585E+03
Ar  840  0.2188033E+02  0.8519849E+01  0.3523675E+02  0.1547964E+03
Ar  841  0.2173911E+02  0.1113335E+02  0.3769725E+02  0.1483108E+03
Ar  842  0.2454081E+02  0.1387675E+02  0.7244101E+00  0.1143148E+03
Ar  843  0.2443664E+02  0.1136076E+02  0.2939325E+01  0.1457067E+03
Ar  844  0.2089074E+02  0.1286052E+02  0.2565191E+01  0.4605723E+03
Ar  845  0.2216061E+02  0.1082808E+02  0.5335327E+01  0.6401264E+03
Ar  846  0.2393473E+02  0.1388999E+02  0.5648227E+01  0.5413501E+02
Ar  847  0.2424230E+02  0.1042694E+02  0.8337269E+01  0.2142085E+03
Ar  848  0.2140457E+02  0.1257442E+02  0.8511136E+01  0.2111341E+03
Ar  849  0.2153638E+02  0.1033152E+02  0.1099624E+02  0.1966631E+03
Ar  850  0.2424185E+02  0.1307089E+02  0.1035562E+02  0.6676988E+03
Ar  851  0.2449740E+02  0.1041228E+02  0.1384089E+02  0.3009398E+02
Ar  852  0.2116824E+02  0.1276349E+02  0.1369017E+02  0.4243445E+03
Ar  853  0.2142320E+02  0.1097214E+02  0.1626544E+02  0.6814664E+03
Ar  854  0.2420654E+02  0.1329202E+02  0.1623490E+02  0.5175728E+02
Ar  855  0.2394516E+02  0.1079463E+02  0.1908045E+02  0.4734938E+02
Ar  856  0.2213550E+02  0.1358328E+02  0.1944468E+02  0.1106766E+03
Ar  857  0.2211521E+02  0.1034743E+02  0.2200976E+02  0.1434470E+03
Ar  858  0.2391893E+02  0.1354473E+02  0.2217465E+02  0.2221944E+03
Ar  859  0.2507815E+02  0.1064323E+02  0.2408286E+02  0.5025225E+03
Ar  860  0.2170216E+02  0.1356256E+02  0.2469935E+02  0.2193680E+03
Ar  861  0.2125896E+02  0.1055904E+02  0.2680065E+02  0.2355549E+03
Ar  862  0.2423929E+02  0.1377241E+02  0.2690331E+02  0.8923616E+03
Ar  863  0.2393105E+02  0.1096573E+02  0.2974635E+02  0.4339388E+03
Ar  864  0.2141816E+02  0.1369380E+02  0.2967103E+02  0.3214948E+03
Ar  865  0.2183197E+02  0.1116254E+02  0.3274527E+02  0.4097309E+03
Ar  866  0.2441971E+02  0.1357060E+02  0.3275594E+02  0.1213317E+03
Ar  867  0.2452354E+02  0.1125461E+02  0.3580388E+02  0.1004200E+03
Ar  868  0.2149439E+02  0.1382147E+02  0.3538562E+02  0.4233982E+02
Ar  869  0.2211596E+02  0.1624297E+02  0.2970093E+00  0.9114256E+02
Ar  870  0.2466420E+02  0.1895841E+02  0.6181467E+00  0.1832470E+03
Ar  871  0.2459505E+02  0.1654182E+02  0.3238000E+01  0.1528145E+03
Ar  872  0.2169877E+02  0.1905662E+02  0.2955954E+01  0.3406151E+03
Ar  873  0.2149993E+02  0.1611263E+02  0.5865964E+01  0.3485957E+03
Ar  874  0.2383131E+02  0.1923708E+02  0.5562440E+01  0.4874959E+03
Ar  875  0.2410653E+02  0.1655977E+02  0.8407714E+01  0.2632903E+03
Ar  876  0.2144185E+02  0.1900523E+02  0.8304103E+01  0.7936627E+03
Ar  877  0.2131604E+02  0.1582954E+02  0.1061437E+02  0.1739751E+03
Ar  878  0.2417825E+02  0.1867375E+02  0.1103194E+02  0.2210558E+03
Ar  879  0.2407464E+02  0.1596547E+02  0.1349231E+02  0.3181241E+03
Ar  880  0.2122521E+02  0.1878938E+02  0.1330714E+02  0.8383910E+02
Ar  881  0.2105270E+02  0.1534969E+02  0.1622994E+02  0.1630157E+03
Ar  882  0.2412872E+02  0.1893403E+02  0.1622410E+02  0.1942626E+03
Ar  883  0.2428866E+02  0.1632439E+02  0.1893703E+02  0.2561493E+03
Ar  884  0.2150806E+02  0.1905211E+02  0.1861150E+02  0.1361984E+03
Ar  885  0.2149792E+02  0.1616060E+02  0.2204557E+02  0.3416640E+03
Ar  886  0.2441978E+02  0.1902315E+02  0.2185969E+02  0.3123242E+02
Ar  887  0.2408137E+02  0.1632534E+02  0.2468031E+02  0.1956002E+03
Ar  888  0.2153750E+02  0.1890690E+02  0.2481049E+02  0.3097838E+03
Ar  889  0.2154055E+02  0.1628811E+02  0.2700728E+02  0.6085545E+02
Ar  890  0.2424623E+02  0.1880310E+02  0.2780794E+02  0.5494125E+02
Ar  891  0.2369472E+02  0.1606207E+02  0.3009709E+02  0.1262600E+03
Ar  892  0.2126765E+02  0.1871499E+02  0.2961799E+02  0.1761306E+03
Ar  893  0.2125042E+02  0.1602332E+02  0.3242433E+02  0.3291688E+03
Ar  894  0.2361277E+02  0.1851304E+02  0.3252882E+02  0.2835000E+03
Ar  895  0.2395019E+02  0.1601939E+02  0.3526222E+02  0.6056095E+02
Ar  896  0.2205371E+02  0.1899173E+02  0.3564238E+02  0.4690596E+03
Ar  897  0.2180410E+02  0.2149588E+02  0.8426172E+00  0.1808849E+03
Ar  898  0.2440344E+02  0.2380973E+02  0.8772695E+00  0.1018898E+03
Ar  899  0.2451554E+02  0.2142108E+02  0.3291639E+01  0.1261074E+03
Ar  900  0.2153865E+02  0.2466099E+02  0.2617036E+01  0.8395513E+02
Ar  901  0.2152309E+02  0.2180200E+02  0.5744700E+01  0.8585163E+02
Ar  902  0.2397889E+02  0.2445641E+02  0.5441866E+01  0.1802462E+03
Ar  903  0.2419974E+02  0.2157701E+02  0.7936993E+01  0.4378674E+03
Ar  904  0.2152128E+02  0.2435558E+02  0.8312213E+01  0.1964712E+03
Ar  905  0.2185252E+02  0.2183673E+02  0.1062172E+02  0.9770356E+02
Ar  906  0.2438832E+02  0.2431428E+02  0.1072423E+02  0.3938564E+01
Ar  907  0.2405851E+02  0.2156685E+02  0.1326289E+02  0.4496741E+03
Ar  908  0.2111738E+02  0.2420576E+02  0.1365238E+02  0.2620790E+03
Ar  909  0.2122938E+02  0.2163355E+02  0.1616590E+02  0.3561472E+03
Ar  910  0.2386220E+02  0.2405657E+02  0.1566978E+02  0.1745878E+03
Ar  911  0.2417738E+02  0.2151583E+02  0.1869712E+02  0.2026469E+02
Ar  912  0.2180198E+02  0.2412931E+02  0.1855910E+02  0.2434604E+03
Ar  913  0.2168158E+02  0.2159894E+02  0.2138427E+02  0.7724727E+03
Ar  914  0.2366975E+02  0.2440854E+02  0.2196087E+02  0.6564394E+02
Ar  915  0.2420077E+02  0.2159670E+02  0.2478572E+02  0.2050607E+03
Ar  916  0.2152119E+02  0.2414310E+02  0.2473068E+02  0.3303100E+03
Ar  917  0.2166238E+02  0.2178339E+02  0.2762344E+02  0.7915036E+02
Ar  918  0.2443538E+02  0.2464729E+02  0.2669434E+02  0.3261347E+03
Ar  919  0.2437949E+02  0.2175722E+02  0.2986491E+02  0.2243136E+03
Ar  920  0.2172189E+02  0.2434724E+02  0.3017383E+02  0.7660148E+03
Ar  921  0.2180837E+02  0.2160341E+02  0.3232842E+02  0.5284661E+03
Ar  922  0.2428513E+02  0.2435434E+02  0.3237175E+02  0.4994372E+03
Ar  923  0.2393164E+02  0.2175641E+02  0.3581600E+02  0.2605731E+03
Ar  924  0.2190353E+02  0.2462427E+02  0.3524800E+02  0.1295829E+02
Ar  925  0.2199508E+02  0.2686671E+02  0.3748494E+02  0.2085695E+03
Ar  926  0.2366667E+02  0.3006746E+02  0.3764290E+02  0.9307590E+02
Ar  927  0.2402257E+02  0.2745865E+02  0.2618392E+01  0.4473809E+01
Ar  928  0.2131673E+02  0.2951489E+02  0.2400753E+01  0.7599890E+02
Ar  929  0.2129657E+02  0.2694511E+02  0.5435910E+01  0.4077797E+03
Ar  930  0.2381208E+02  0.2979988E+02  0.5269471E+01  0.1667411E+03
Ar  931  0.2400050E+02  0.2658064E+02  0.8053177E+01  0.5417168E+02
Ar  932  0.2168986E+02  0.2937704E+02  0.7975511E+01  0.1317191E+02
Ar  933  0.2162800E+02  0.2692781E+02  0.1084138E+02  0.1620386E+03
Ar  934  0.2397948E+02  0.2939968E+02  0.1079663E+02  0.2437988E+03
Ar  935  0.2436438E+02  0.2707584E+02  0.1298124E+02  0.2587873E+02
Ar  936  0.2154011E+02  0.2934547E+02  0.1342283E+02  0.2489224E+03
Ar  937  0.2189119E+02  0.2673805E+02  0.1581857E+02  0.5546714E+02
Ar  938  0.2460237E+02  0.2954961E+02  0.1532217E+02  0.2887372E+03
Ar  939  0.2452536E+02  0.2692033E+02  0.1860359E+02  0.1713990E+03
Ar  940  0.2168246E+02  0.2931575E+02  0.1906773E+02  0.4839910E+03
Ar  941  0.2131132E+02  0.2677350E+02  0.2155289E+02  0.1748632E+03
Ar  942  0.2446448E+02  0.2971105E+02  0.2143624E+02  0.2689777E+03
Ar  943  0.2393783E+02  0.2713302E+02  0.2424191E+02  0.1648811E+03
Ar  944  0.2140743E+02  0.2943912E+02  0.2415423E+02  0.9583529E+02
Ar  945  0.2188889E+02  0.2712975E+02  0.2700674E+02  0.1988200E+03
Ar  946  0.2474308E+02  0.2985038E+02  0.2704132E+02  0.2991352E+03
Ar  947  0.2458632E+02  0.2709953E+02  0.2983813E+02  0.3796029E+03
Ar  948  0.2223255E+02  0.3002858E+02  0.2983719E+02  0.3395152E+03
Ar  949  0.2216624E+02  0.2710925E+02  0.3224236E+02  0.1541581E+03
Ar  950  0.2452324E+02  0.2983722E+02  0.3249464E+02  0.3175903E+03
Ar  951  0.2437916E+02  0.2747266E+02  0.3505170E+02  0.4379804E+03
Ar  952  0.2137482E+02  0.2983268E+02  0.3481945E+02  0.7920827E+03
Ar  953  0.2130855E+02  0.3264127E+02  0.3029183E+00  0.5560597E+03
Ar  954  0.2410700E+02  0.3501713E+02  0.2202135E+00  0.6095458E+02
Ar  955  0.2365283E+02  0.3206025E+02  0.2512061E+01  0.8470773E+03
Ar  956  0.2119673E+02  0.3492239E+02  0.2873150E+01  0.1519243E+03
Ar  957  0.2079602E+02  0.3221706E+02  0.5050651E+01  0.1010146E+03
Ar  958  0.2428045E+02  0.3493146E+02  0.5815320E+01  0.3823842E+03
Ar  959  0.2416556E+02  0.3230816E+02  0.7864015E+01  0.9706648E+02
Ar  960  0.2161841E+02  0.3498628E+02  0.7765035E+01  0.3241501E+03
Ar  961  0.2178627E+02  0.3223399E+02  0.1070561E+02  0.3778753E+03
Ar  962  0.2449016E+02  0.3521777E+02  0.1056720E+02  0.6833620E+03
Ar  963  0.2430891E+02  0.3259763E+02  0.1324775E+02  0.1105651E+03
Ar  964  0.2175717E+02  0.3543343E+02  0.1308040E+02  0.7423310E+02
Ar  965  0.2147959E+02  0.3246383E+02  0.1559305E+02  0.5159291E+02
Ar  966  0.2424482E+02  0.3535367E+02  0.1632669E+02  0.3083333E+03
Ar  967  0.2347636E+02  0.3241895E+02  0.1888846E+02  0.9583901E+02
Ar  968  0.2172843E+02  0.3564277E+02  0.1873930E+02  0.3419593E+02
Ar  969  0.2162262E+02  0.3249863E+02  0.2214588E+02  0.4481066E+03
Ar  970  0.2419797E+02  0.3568106E+02  0.2148142E+02  0.2560194E+03
Ar  971  0.2393931E+02  0.3229484E+02  0.2479542E+02  0.1775357E+03
Ar  972  0.2186534E+02  0.3526406E+02  0.2423736E+02  0.5348535E+02
Ar  973  0.2114459E+02  0.3313307E+02  0.2670841E+02  0.3147822E+03
Ar  974  0.2420349E+02  0.3499188E+02  0.2648976E+02  0.1703979E+03
Ar  975  0.2479288E+02  0.3280725E+02  0.2939961E+02  0.2896253E+03
Ar  976  0.2184685E+02  0.3523966E+02  0.2977436E+02  0.2281679E+03
Ar  977  0.2166346E+02  0.3236440E+02  0.3233401E+02  0.9553974E+02
Ar  978  0.2454512E+02  0.3483494E+02  0.3214292E+02  0.1296697E+03
Ar  979  0.2398205E+02  0.3238021E+02  0.3468875E+02  0.2011045E+03
Ar  980  0.2190550E+02  0.3517132E+02  0.3460326E+02  0.2565243E+03
Ar  981  0.2679931E+02  0.3450116E-01  0.3738396E+02  0.8178645E+01
Ar  982  0.2931047E+02  0.2619622E+01  0.2806995E+00  0.1422719E+03
Ar  983  0.2951950E+02  0.3762795E+02  0.2829678E+01  0.9577211E+02
Ar  984  0.2702528E+02  0.2739497E+01  0.2744380E+01  0.7973328E+02
Ar  985  0.2730353E+02  0.3772729E+02  0.5107976E+01  0.5851167E+02
Ar  986  0.2968420E+02  0.2590003E+01  0.5873231E+01  0.1271280E+03
Ar  987  0.2984053E+02  0.3758636E+02  0.7773230E+01  0.3527172E+03
Ar  988  0.2689248E+02  0.2990465E+01  0.8269162E+01  0.5950217E+03
Ar  989  0.2676940E+02  0.7255698E-01  0.1047108E+02  0.8171062E+03
Ar  990  0.2968085E+02  0.2215371E+01  0.1060110E+02  0.4914953E+03
Ar  991  0.2973896E+02  0.1315093E+00  0.1342718E+02  0.4191568E+03
Ar  992  0.2701755E+02  0.2340356E+01  0.1369303E+02  0.4090497E+03
Ar  993  0.2685929E+02  0.4914724E+00  0.1639551E+02  0.6688284E+03
Ar  994  0.2963939E+02  0.2555807E+01  0.1599783E+02  0.3579843E+03
Ar  995  0.2950044E+02  0.3263540E+00  0.1878969E+02  0.1929247E+03
Ar  996  0.2712398E+02  0.3052355E+01  0.1873761E+02  0.1050184E+03
Ar  997  0.2647637E+02  0.4189371E+00  0.2169964E+02  0.1078633E+03
Ar  998  0.2963512E+02  0.2562871E+01  0.2131721E+02  0.2830312E+03
Ar  999  0.3012665E+02  0.3738466E+00  0.2438600E+02  0.2089538E+03
Ar 1000  0.2644379E+02  0.2732310E+01  0.2420940E+02  0.1413308E+03
Ar 1001  0.2716351E+02  0.3806014E+00  0.2658320E+02  0.5369649E+03
Ar 1002  0.2958593E+02  0.2957148E+01  0.2705483E+02  0.4466162E+02
Ar 1003  0.2919392E+02  0.2401702E+00  0.2929155E+02  0.2800554E+03
Ar 1004  0.2654212E+02  0.3089414E+01  0.2991390E+02  0.1019530E+03
Ar 1005  0.2701074E+02  0.5195229E+00  0.3245278E+02  0.1210926E+03
Ar 1006  0.2976523E+02  0.3156881E+01  0.3235116E+02  0.4491588E+02
Ar 1007  0.2943003E+02  0.1357558E+00  0.3494994E+02  0.3445026E+03
Ar 1008  0.2729065E+02  0.2855742E+01  0.3533819E+02  0.2032785E+03
Ar 1009  0.2681589E+02  0.5397384E+01  0.1410978E+00  0.2101879E+03
Ar 1010  0.2965942E+02  0.8010980E+01  0.4209165E+00  0.2575018E+03
Ar 1011  0.2937728E+02  0.5392364E+01  0.2810795E+01  0.2675572E+03
Ar 1012  0.2655935E+02  0.8093097E+01  0.2955015E+01  0.4715401E+03
Ar 1013  0.2667172E+02  0.5207312E+01  0.5560513E+01  0.8608472E+02
Ar 1014  0.2961994E+02  0.8099104E+01  0.5608505E+01  0.1901727E+03
Ar 1015  0.2940310E+02  0.4990944E+01  0.8258651E+01  0.2300296E+03
Ar 1016  0.2673173E+02  0.8112611E+01  0.8062930E+01  0.3297473E+02
Ar 1017  0.2686690E+02  0.5145328E+01  0.1096919E+02  0.1312205E+03
Ar 1018  0.2961586E+02  0.8138529E+01  0.1150825E+02  0.2181174E+03
Ar 1019  0.2973047E+02  0.5184271E+01  0.1307683E+02  0.7417862E+02
Ar 1020  0.2710295E+02  0.8003542E+01  0.1404409E+02  0.1471525E+03
Ar 1021  0.2706781E+02  0.5114332E+01  0.1605020E+02  0.1605576E+03
Ar 1022  0.3005110E+02  0.7609783E+01  0.1615294E+02  0.1873189E+03
Ar 1023  0.2999140E+02  0.5267583E+01  0.1917009E+02  0.1106140E+03
Ar 1024  0.2749582E+02  0.7716618E+01  0.1869762E+02  0.8464193E+02
Ar 1025  0.2741718E+02  0.5429595E+01  0.2181560E+02  0.1178844E+03
Ar 1026  0.2990667E+02  0.8078794E+01  0.2169343E+02  0.1565842E+03
Ar 1027  0.3003854E+02  0.5784671E+01  0.2467864E+02  0.8792961E+02
Ar 1028  0.2731872E+02  0.8080724E+01  0.2418990E+02  0.3744842E+03
Ar 1029  0.2670206E+02  0.5466177E+01  0.2700044E+02  0.4705366E+03
Ar 1030  0.2956399E+02  0.8351611E+01  0.2765814E+02  0.5215164E+03
Ar 1031  0.2908915E+02  0.5725433E+01  0.2997742E+02  0.6893119E+03
Ar 1032  0.2648247E+02  0.8387716E+01  0.2974528E+02  0.1590744E+02
Ar 1033  0.2674895E+02  0.5543032E+01  0.3301333E+02  0.6765492E+02
Ar 1034  0.2930419E+02  0.8405972E+01  0.3254833E+02  0.7442340E+03
Ar 1035  0.2944624E+02  0.5920450E+01  0.3522409E+02  0.9233825E+02
Ar 1036  0.2640256E+02  0.8512462E+01  0.3532970E+02  0.1319296E+03
Ar 1037  0.2694087E+02  0.1108137E+02  0.2631246E+00  0.1018100E+03
Ar 1038  0.3002365E+02  0.1332189E+02  0.5148160E+00  0.2553789E+03
Ar 1039  0.2951077E+02  0.1053490E+02  0.2986414E+01  0.2465450E+03
Ar 1040  0.2700251E+02  0.1387605E+02  0.3023549E+01  0.6877397E+01
Ar 1041  0.2720010E+02  0.1052435E+02  0.5550904E+01  0.9152952E+02
Ar 1042  0.2949511E+02  0.1327151E+02  0.5521244E+01  0.2903194E+03
Ar 1043  0.2960411E+02  0.1051802E+02  0.8052014E+01  0.4841753E+03
Ar 1044  0.2709697E+02  0.1333129E+02  0.8397639E+01  0.7397090E+02
Ar 1045  0.2725242E+02  0.1063555E+02  0.1136080E+02  0.1527766E+03
Ar 1046  0.2970663E+02  0.1333716E+02  0.1108265E+02  0.9710714E+02
Ar 1047  0.2958041E+02  0.1079831E+02  0.1436380E+02  0.3443093E+03
Ar 1048  0.2646228E+02  0.1329163E+02  0.1303392E+02  0.9766351E+02
Ar 1049  0.2690283E+02  0.1095723E+02  0.1677805E+02  0.1157737E+04
Ar 1050  0.2932823E+02  0.1374654E+02  0.1698644E+02  0.1626428E+03
Ar 1051  0.3024754E+02  0.1062353E+02  0.1903148E+02  0.1146260E+03
Ar 1052  0.2644913E+02  0.1374282E+02  0.1925065E+02  0.1041989E+03
Ar 1053  0.2736041E+02  0.1049519E+02  0.2113605E+02  0.1000196E+03
Ar 1054  0.2973741E+02  0.1371941E+02  0.2159332E+02  0.1045296E+03
Ar 1055  0.2943873E+02  0.1142856E+02  0.2408029E+02  0.1128860E+03
Ar 1056  0.2672836E+02  0.1395368E+02  0.2466235E+02  0.8638553E+02
Ar 1057  0.2687539E+02  0.1118276E+02  0.2736548E+02  0.1210718E+03
Ar 1058  0.2974435E+02  0.1376909E+02  0.2713978E+02  0.1010522E+03
Ar 1059  0.2910236E+02  0.1172737E+02  0.3012014E+02  0.8306615E+02
Ar 1060  0.2641165E+02  0.1399491E+02  0.2974402E+02  0.2673375E+02
Ar 1061  0.2645198E+02  0.1058625E+02  0.3238389E+02  0.1871019E+03
Ar 1062  0.2930165E+02  0.1431945E+02  0.3284069E+02  0.5795324E+03
Ar 1063  0.2971390E+02  0.1064400E+02  0.3574482E+02  0.4389461E+03
Ar 1064  0.2714904E+02  0.1365721E+02  0.3550886E+02  0.1735397E+03
Ar 1065  0.2703128E+02  0.1639574E+02  0.4471276E+00  0.7276937E+02
Ar 1066  0.2973608E+02  0.1891092E+02  0.2286073E+00  0.7275368E+02
Ar 1067  0.3008842E+02  0.1633465E+02  0.2480167E+01  0.7824384E+02
Ar 1068  0.2725322E+02  0.1944042E+02  0.2962108E+01  0.6787874E+02
Ar 1069  0.2747778E+02  0.1675661E+02  0.5033777E+01  0.5722818E+03
Ar 1070  0.2975207E+02  0.1967949E+02  0.5885163E+01  0.5651127E+03
Ar 1071  0.2935510E+02  0.1640538E+02  0.8162975E+01  0.2422611E+03
Ar 1072  0.2650326E+02  0.1907690E+02  0.7713997E+01  0.2361704E+03
Ar 1073  0.2696923E+02  0.1592750E+02  0.1077568E+02  0.7061295E+02
Ar 1074  0.2897532E+02  0.1889281E+02  0.1123683E+02  0.1084432E+03
Ar 1075  0.2887140E+02  0.1595761E+02  0.1379810E+02  0.1764360E+03
Ar 1076  0.2661928E+02  0.1830109E+02  0.1368523E+02  0.1357435E+03
Ar 1077  0.2641880E+02  0.1606976E+02  0.1642847E+02  0.2913936E+03
Ar 1078  0.2956116E+02  0.1883123E+02  0.1641613E+02  0.5767962E+03
Ar 1079  0.2907267E+02  0.1655748E+02  0.1936911E+02  0.2792502E+03
Ar 1080  0.2651532E+02  0.1879942E+02  0.1872397E+02  0.8005963E+02
Ar 1081  0.2627843E+02  0.1645756E+02  0.2181448E+02  0.2291183E+03
Ar 1082  0.2911523E+02  0.1858420E+02  0.2225868E+02  0.3130243E+03
Ar 1083  0.2999112E+02  0.1582293E+02  0.2465116E+02  0.5027408E+02
Ar 1084  0.2679070E+02  0.1871256E+02  0.2456293E+02  0.2138137E+03
Ar 1085  0.2739531E+02  0.1651467E+02  0.2715030E+02  0.5558353E+02
Ar 1086  0.2997900E+02  0.1950693E+02  0.2695578E+02  0.2770116E+03
Ar 1087  0.2974257E+02  0.1603861E+02  0.2986366E+02  0.2329950E+03
Ar 1088  0.2738941E+02  0.1908781E+02  0.2965673E+02  0.6179952E+02
Ar 1089  0.2679051E+02  0.1679648E+02  0.3219546E+02  0.1650160E+03
Ar 1090  0.2938641E+02  0.1923469E+02  0.3250276E+02  0.4381756E+03
Ar 1091  0.2941840E+02  0.1701132E+02  0.3522083E+02  0.9281066E+03
Ar 1092  0.2643550E+02  0.1883584E+02  0.3489662E+02  0.5073101E+03
Ar 1093  0.2721163E+02  0.2169700E+02  0.1825439E+00  0.2734288E+02
Ar 1094  0.2994284E+02  0.2405837E+02  0.3758901E+02  0.7958634E+01
Ar 1095  0.2991998E+02  0.2205320E+02  0.3122401E+01  0.2294851E+03
Ar 1096  0.2730930E+02  0.2472538E+02  0.2903440E+01  0.8823298E+02
Ar 1097  0.2717977E+02  0.2240783E+02  0.5318218E+01  0.5842915E+03
Ar 1098  0.3030319E+02  0.2406206E+02  0.5938105E+01  0.7356865E+03
Ar 1099  0.2954533E+02  0.2172240E+02  0.8516364E+01  0.1506758E+03
Ar 1100  0.2683591E+02  0.2392038E+02  0.8281589E+01  0.1142242E+03
Ar 1101  0.2649802E+02  0.2154974E+02  0.1055980E+02  0.1626511E+03
Ar 1102  0.2916269E+02  0.2463594E+02  0.1075940E+02  0.1097171E+04
Ar 1103  0.2945809E+02  0.2182480E+02  0.1320699E+02  0.1519549E+03
Ar 1104  0.2712940E+02  0.2417857E+02  0.1362440E+02  0.5170012E+02
Ar 1105  0.2718108E+02  0.2115534E+02  0.1560489E+02  0.2273839E+03
Ar 1106  0.2941445E+02  0.2407832E+02  0.1613646E+02  0.2930250E+03
Ar 1107  0.2893591E+02  0.2150777E+02  0.1885439E+02  0.2682583E+03
Ar 1108  0.2677717E+02  0.2428896E+02  0.1856104E+02  0.3888667E+02
Ar 1109  0.2706273E+02  0.2221575E+02  0.2176866E+02  0.2382175E+03
Ar 1110  0.2995570E+02  0.2459791E+02  0.2209305E+02  0.1872317E+03
Ar 1111  0.2997875E+02  0.2206309E+02  0.2431321E+02  0.1077678E+03
Ar 1112  0.2711050E+02  0.2473155E+02  0.2452807E+02  0.2799855E+03
Ar 1113  0.2718599E+02  0.2207656E+02  0.2700704E+02  0.1054218E+04
Ar 1114  0.2981541E+02  0.2438604E+02  0.2722723E+02  0.1120340E+03
Ar 1115  0.2999735E+02  0.2171569E+02  0.3003877E+02  0.5856693E+02
Ar 1116  0.2731085E+02  0.2446545E+02  0.2974528E+02  0.3705548E+03
Ar 1117  0.2674350E+02  0.2212392E+02  0.3238211E+02  0.1395067E+03
Ar 1118  0.2963178E+02  0.2424219E+02  0.3252068E+02  0.3024372E+03
Ar 1119  0.2906432E+02  0.2169027E+02  0.3481998E+02  0.7407052E+02
Ar 1120  0.2649697E+02  0.2427435E+02  0.3528711E+02  0.6643970E+02
Ar 1121  0.2734745E+02  0.2712052E+02  0.3749824E+02  0.7311435E+02
Ar 1122  0.2936186E+02  0.2987567E+02  0.2092249E+00  0.5509694E+03
Ar 1123  0.3000583E+02  0.2692648E+02  0.2724905E+01  0.3730603E+02
Ar 1124  0.2668140E+02  0.2942254E+02  0.2710069E+01  0.2080886E+03
Ar 1125  0.2642427E+02  0.2720367E+02  0.5146130E+01  0.5445240E+03
Ar 1126  0.2944296E+02  0.2984303E+02  0.4790249E+01  0.3867145E+03
Ar 1127  0.2972270E+02  0.2765041E+02  0.7866982E+01  0.3785636E+03
Ar 1128  0.2612891E+02  0.2946430E+02  0.8279094E+01  0.2838553E+03
Ar 1129  0.2687059E+02  0.2701738E+02  0.1035804E+02  0.2047969E+03
Ar 1130  0.2976225E+02  0.3034868E+02  0.1020918E+02  0.1837204E+03
Ar 1131  0.2900049E+02  0.2693569E+02  0.1320731E+02  0.1520903E+03
Ar 1132  0.2669229E+02  0.2978957E+02  0.1252737E+02  0.2977730E+03
Ar 1133  0.2674256E+02  0.2673393E+02  0.1580641E+02  0.1135206E+03
Ar 1134  0.2909493E+02  0.2940157E+02  0.1615146E+02  0.1098403E+03
Ar 1135  0.2943958E+02  0.2661121E+02  0.1906162E+02  0.1714790E+03
Ar 1136  0.2702226E+02  0.2982881E+02  0.1895503E+02  0.2277992E+03
Ar 1137  0.2673926E+02  0.2650928E+02  0.2153606E+02  0.1047645E+04
Ar 1138  0.2969395E+02  0.2969260E+02  0.2165107E+02  0.5918532E+02
Ar 1139  0.3019092E+02  0.2700186E+02  0.2445269E+02  0.5981073E+02
Ar 1140  0.2694447E+02  0.2985318E+02  0.2409796E+02  0.6591918E+03
Ar 1141  0.2724620E+02  0.2736103E+02  0.2668133E+02  0.3332065E+03
Ar 1142  0.2916375E+02  0.3036519E+02  0.2648388E+02  0.4908562E+03
Ar 1143  0.2931186E+02  0.2707202E+02  0.2978112E+02  0.6835462E+03
Ar 1144  0.2710272E+02  0.2971271E+02  0.2965375E+02  0.2308092E+03
Ar 1145  0.2736412E+02  0.2684065E+02  0.3276686E+02  0.1904991E+03
Ar 1146  0.2969645E+02  0.2944963E+02  0.3256572E+02  0.6066284E+02
Ar 1147  0.3006502E+02  0.2674479E+02  0.3489573E+02  0.1368148E+03
Ar 1148  0.2687445E+02  0.2986540E+02  0.3492437E+02  0.4048354E+02
Ar 1149  0.2685618E+02  0.3258172E+02  0.3729501E+02  0.6931015E+03
Ar 1150  0.2968778E+02  0.3550187E+02  0.1964000E+00  0.8854605E+02
Ar 1151  0.2946945E+02  0.3280055E+02  0.2408513E+01  0.6758267E+02
Ar 1152  0.2633527E+02  0.3478780E+02  0.2490677E+01  0.8288158E+02
Ar 1153  0.2684385E+02  0.3217022E+02  0.4657176E+01  0.4798449E+03
Ar 1154  0.2999323E+02  0.3511007E+02  0.4724897E+01  0.2640493E+03
Ar 1155  0.2900545E+02  0.3243802E+02  0.7163759E+01  0.1532041E+03
Ar 1156  0.2710010E+02  0.3520574E+02  0.8072479E+01  0.1936679E+03
Ar 1157  0.2727388E+02  0.3260939E+02  0.1057233E+02  0.6787981E+03
Ar 1158  0.2955830E+02  0.3549488E+02  0.1088010E+02  0.4076734E+03
Ar 1159  0.2952836E+02  0.3252517E+02  0.1350021E+02  0.1976474E+02
Ar 1160  0.2663470E+02  0.3568623E+02  0.1361526E+02  0.1562059E+03
Ar 1161  0.2618845E+02  0.3256971E+02  0.1649226E+02  0.8121821E+03
Ar 1162  0.2919132E+02  0.3537727E+02  0.1617049E+02  0.2341987E+03
Ar 1163  0.2937665E+02  0.3249436E+02  0.1894546E+02  0.2422652E+03
Ar 1164  0.2704246E+02  0.3560469E+02  0.1891185E+02  0.2017440E+03
Ar 1165  0.2634221E+02  0.3268233E+02  0.2079719E+02  0.9666490E+02
Ar 1166  0.2928615E+02  0.3627753E+02  0.2149823E+02  0.1222384E+03
Ar 1167  0.2991972E+02  0.3332494E+02  0.2343767E+02  0.2970955E+03
Ar 1168  0.2665304E+02  0.3520473E+02  0.2355627E+02  0.5734374E+02
Ar 1169  0.2712668E+02  0.3299274E+02  0.2623203E+02  0.7347339E+02
Ar 1170  0.2958223E+02  0.3534732E+02  0.2662592E+02  0.1887302E+03
Ar 1171  0.2926104E+02  0.3289667E+02  0.2963762E+02  0.1196427E+03
Ar 1172  0.2681129E+02  0.3546196E+02  0.2907604E+02  0.9165061E+02
Ar 1173  0.2672227E+02  0.3227337E+02  0.3238472E+02  0.7447608E+02
Ar 1174  0.2901197E+02  0.3554022E+02  0.3210362E+02  0.2027598E+03
Ar 1175  0.3182935E+02  0.3238265E+02  0.3255185E+02  0.1899105E+03
Ar 1176  0.2694857E+02  0.3529338E+02  0.3505613E+02  0.2922725E+03
Ar 1177  0.3204200E+02  0.3703637E+00  0.5405056E+00  0.4318679E+03
Ar 1178  0.3535635E+02  0.2844217E+01  0.3767628E+02  0.2113861E+03
Ar 1179  0.3482371E+02  0.3702899E+00  0.2940230E+01  0.1135844E+03
Ar 1180  0.3184699E+02  0.2606864E+01  0.3027866E+01  0.5140413E+03
Ar 1181  0.3240247E+02  0.1217940E+00  0.5357173E+01  0.1204815E+03
Ar 1182  0.3455694E+02  0.3372277E+01  0.5161633E+01  0.2961784E+02
Ar 1183  0.3510846E+02  0.3773789E+02  0.7688724E+01  0.2544887E+03
Ar 1184  0.3260307E+02  0.2938362E+01  0.8113400E+01  0.3343787E+03
Ar 1185  0.3300566E+02  0.2862496E+00  0.1066083E+02  0.3724017E+03
Ar 1186  0.3553393E+02  0.2647154E+01  0.1125275E+02  0.5413304E+03
Ar 1187  0.3485843E+02  0.3775861E+02  0.1349150E+02  0.4390970E+02
Ar 1188  0.3241016E+02  0.2530467E+01  0.1387421E+02  0.9037162E+03
Ar 1189  0.3234394E+02  0.3756948E+02  0.1655082E+02  0.1322802E+03
Ar 1190  0.3493549E+02  0.2164980E+01  0.1618810E+02  0.3792092E+03
Ar 1191  0.3539373E+02  0.3764894E+02  0.1864886E+02  0.2955586E+03
Ar 1192  0.3237180E+02  0.2791447E+01  0.1888156E+02  0.2119157E+03
Ar 1193  0.3283619E+02  0.3773777E+02  0.2104970E+02  0.1732811E+03
Ar 1194  0.3464806E+02  0.3002336E+01  0.2139233E+02  0.5313050E+02
Ar 1195  0.3480718E+02  0.3765575E+02  0.2428201E+02  0.3114542E+03
Ar 1196  0.3250365E+02  0.2377120E+01  0.2394969E+02  0.6018658E+02
Ar 1197  0.3219219E+02  0.1389299E+00  0.2713469E+02  0.2736687E+03
Ar 1198  0.3485902E+02  0.2441107E+01  0.2717615E+02  0.9452625E+02
Ar 1199  0.3508956E+02  0.5178570E+00  0.2998106E+02  0.3809146E+02
Ar 1200  0.3225971E+02  0.3123940E+01  0.2960317E+02  0.1948671E+03
Ar 1201  0.3225583E+02  0.9253342E-01  0.3251875E+02  0.1751047E+03
Ar 1202  0.3466683E+02  0.2282697E+01  0.3327166E+02  0.2565730E+03
Ar 1203  0.3550728E+02  0.3727219E+02  0.3564154E+02  0.1695750E+02
Ar 1204  0.3210413E+02  0.2010447E+01  0.3547388E+02  0.2270815E+03
Ar 1205  0.3171919E+02  0.5241712E+01  0.1962280E+00  0.9428983E+02
Ar 1206  0.3398115E+02  0.7882131E+01  0.3731878E+02  0.1445822E+03
Ar 1207  0.3429773E+02  0.5392514E+01  0.2217124E+01  0.4421162E+03
Ar 1208  0.3231378E+02  0.8528613E+01  0.2652477E+01  0.1222828E+02
Ar 1209  0.3205745E+02  0.5579021E+01  0.5679110E+01  0.2011745E+03
Ar 1210  0.3509803E+02  0.7930920E+01  0.5607998E+01  0.1227117E+03
Ar 1211  0.3543046E+02  0.5492756E+01  0.8122836E+01  0.1662279E+03
Ar 1212  0.3186807E+02  0.7803932E+01  0.8188550E+01  0.1501274E+02
Ar 1213  0.3277466E+02  0.4757060E+01  0.1122404E+02  0.2430973E+03
Ar 1214  0.3489540E+02  0.8210843E+01  0.1114283E+02  0.1458311E+03
Ar 1215  0.3515961E+02  0.5481526E+01  0.1401782E+02  0.7353944E+02
Ar 1216  0.3237530E+02  0.8026479E+01  0.1341440E+02  0.1113216E+03
Ar 1217  0.3247371E+02  0.5677255E+01  0.1681080E+02  0.3386832E+03
Ar 1218  0.3573133E+02  0.7907346E+01  0.1687105E+02  0.7504815E+02
Ar 1219  0.3528710E+02  0.5145369E+01  0.1899100E+02  0.5525355E+03
Ar 1220  0.3218344E+02  0.7938745E+01  0.1941985E+02  0.8780487E+02
Ar 1221  0.3246079E+02  0.5387178E+01  0.2185898E+02  0.2566845E+02
Ar 1222  0.3577776E+02  0.7951812E+01  0.2154547E+02  0.3802913E+03
Ar 1223  0.3500222E+02  0.5156012E+01  0.2438338E+02  0.2277650E+03
Ar 1224  0.3290873E+02  0.8009035E+01  0.2427247E+02  0.3146924E+03
Ar 1225  0.3191778E+02  0.5677425E+01  0.2761746E+02  0.3783408E+03
Ar 1226  0.3499411E+02  0.8289964E+01  0.2744546E+02  0.1096124E+03
Ar 1227  0.3528859E+02  0.4845942E+01  0.2929514E+02  0.5576873E+03
Ar 1228  0.3167587E+02  0.8405124E+01  0.3026161E+02  0.4514553E+03
Ar 1229  0.3237775E+02  0.5333587E+01  0.3228255E+02  0.8115156E+02
Ar 1230  0.3499731E+02  0.8261903E+01  0.3230619E+02  0.3387271E+02
Ar 1231  0.3513084E+02  0.5335365E+01  0.3498898E+02  0.8909089E+02
Ar 1232  0.3207785E+02  0.8228891E+01  0.3465223E+02  0.7311807E+02
Ar 1233  0.3251901E+02  0.1109285E+02  0.3134097E+00  0.1977427E+03
Ar 1234  0.3487217E+02  0.1402367E+02  0.3753296E+02  0.1891629E+03
Ar 1235  0.3495186E+02  0.1137443E+02  0.2931853E+01  0.5510778E+03
Ar 1236  0.3243348E+02  0.1402978E+02  0.3225218E+01  0.3034856E+02
Ar 1237  0.3252412E+02  0.1112595E+02  0.5803659E+01  0.4712146E+02
Ar 1238  0.3506811E+02  0.1405134E+02  0.5456436E+01  0.4739328E+03
Ar 1239  0.3479199E+02  0.1115350E+02  0.8726702E+01  0.2111469E+03
Ar 1240  0.3182075E+02  0.1343969E+02  0.8488555E+01  0.3057111E+03
Ar 1241  0.3193917E+02  0.1091461E+02  0.1137270E+02  0.3502052E+02
Ar 1242  0.3493391E+02  0.1395401E+02  0.1119293E+02  0.8992489E+02
Ar 1243  0.3458606E+02  0.1105776E+02  0.1379261E+02  0.1849451E+02
Ar 1244  0.3185131E+02  0.1357890E+02  0.1414825E+02  0.2523577E+03
Ar 1245  0.3255749E+02  0.1002368E+02  0.1629024E+02  0.1107006E+04
Ar 1246  0.3480315E+02  0.1330721E+02  0.1621472E+02  0.5096042E+02
Ar 1247  0.3512913E+02  0.1072323E+02  0.1877170E+02  0.5212177E+02
Ar 1248  0.3213013E+02  0.1345416E+02  0.1906747E+02  0.1928567E+03
Ar 1249  0.3236806E+02  0.1105427E+02  0.2173972E+02  0.3695748E+03
Ar 1250  0.3586733E+02  0.1326469E+02  0.2188977E+02  0.5711835E+03
Ar 1251  0.3517986E+02  0.1087750E+02  0.2498643E+02  0.1543996E+03
Ar 1252  0.3267354E+02  0.1329245E+02  0.2494101E+02  0.3215718E+02
Ar 1253  0.3219118E+02  0.1041403E+02  0.2691842E+02  0.2035140E+03
Ar 1254  0.3532128E+02  0.1382551E+02  0.2735761E+02  0.3893104E+03
Ar 1255  0.3519325E+02  0.1092504E+02  0.2969249E+02  0.2948514E+03
Ar 1256  0.3230010E+02  0.1330587E+02  0.2973761E+02  0.5496816E+03
Ar 1257  0.3206750E+02  0.1110731E+02  0.3222837E+02  0.1026798E+04
Ar 1258  0.3549045E+02  0.1358652E+02  0.3183963E+02  0.1436075E+03
Ar 1259  0.3463917E+02  0.1125626E+02  0.3480768E+02  0.4220689E+02
Ar 1260  0.3171565E+02  0.1397434E+02  0.3512335E+02  0.3147539E+02
Ar 1261  0.3221684E+02  0.1648661E+02  0.3731424E+02  0.1283164E+03
Ar 1262  0.3486003E+02  0.1958232E+02  0.1804201E+00  0.1937261E+02
Ar 1263  0.3458008E+02  0.1648237E+02  0.2467660E+01  0.1028212E+03
Ar 1264  0.3213943E+02  0.1914899E+02  0.2916360E+01  0.3713770E+03
Ar 1265  0.3198292E+02  0.1694377E+02  0.5443239E+01  0.2417083E+03
Ar 1266  0.3479013E+02  0.1864634E+02  0.5554291E+01  0.8525226E+02
Ar 1267  0.3487491E+02  0.1594287E+02  0.8275280E+01  0.3959398E+03
Ar 1268  0.3202441E+02  0.1865538E+02  0.8453649E+01  0.9044998E+02
Ar 1269  0.3232590E+02  0.1628594E+02  0.1088413E+02  0.4960358E+02
Ar 1270  0.3493430E+02  0.1900931E+02  0.1048726E+02  0.1866921E+03
Ar 1271  0.3514097E+02  0.1625322E+02  0.1419308E+02  0.1660926E+02
Ar 1272  0.3216593E+02  0.1950047E+02  0.1311945E+02  0.2379883E+03
Ar 1273  0.3220305E+02  0.1699980E+02  0.1590016E+02  0.1338687E+03
Ar 1274  0.3591687E+02  0.1901869E+02  0.1705222E+02  0.1284638E+03
Ar 1275  0.3491648E+02  0.1595317E+02  0.1897835E+02  0.3352471E+03
Ar 1276  0.3239962E+02  0.1915889E+02  0.1875066E+02  0.2481146E+03
Ar 1277  0.3261469E+02  0.1607570E+02  0.2160921E+02  0.2350907E+03
Ar 1278  0.3601311E+02  0.1948931E+02  0.2150262E+02  0.6015963E+03
Ar 1279  0.3482503E+02  0.1596067E+02  0.2467020E+02  0.1656112E+03
Ar 1280  0.3256337E+02  0.1900123E+02  0.2356520E+02  0.2092864E+03
Ar 1281  0.3227451E+02  0.1622023E+02  0.2738062E+02  0.4737944E+02
Ar 1282  0.3485407E+02  0.1896566E+02  0.2675739E+02  0.4269096E+03
Ar 1283  0.3493791E+02  0.1645428E+02  0.2971406E+02  0.1056732E+03
Ar 1284  0.3239074E+02  0.1872774E+02  0.2959474E+02  0.3716235E+03
Ar 1285  0.3215653E+02  0.1676319E+02  0.3263456E+02  0.1197088E+03
Ar 1286  0.3500737E+02  0.1901463E+02  0.3226789E+02  0.3892790E+02
Ar 1287  0.3503676E+02  0.1626879E+02  0.3435418E+02  0.4064906E+03
Ar 1288  0.3205737E+02  0.1975514E+02  0.3503015E+02  0.1001422E+03
Ar 1289  0.3236496E+02  0.2189266E+02  0.3404479E+00  0.1662436E+03
Ar 1290  0.3497485E+02  0.2404570E+02  0.3771801E+02  0.1792582E+03
Ar 1291  0.3502241E+02  0.2112973E+02  0.3236777E+01  0.2429163E+03
Ar 1292  0.3300003E+02  0.2388199E+02  0.3443835E+01  0.4054720E+02
Ar 1293  0.3282100E+02  0.2156873E+02  0.5948715E+01  0.1294163E+03
Ar 1294  0.3547809E+02  0.2407268E+02  0.6113977E+01  0.3565950E+03
Ar 1295  0.3514274E+02  0.2218463E+02  0.8907376E+01  0.8810708E+02
Ar 1296  0.3276182E+02  0.2496763E+02  0.8465851E+01  0.3384671E+03
Ar 1297  0.3224671E+02  0.2191877E+02  0.1060782E+02  0.2416647E+03
Ar 1298  0.3498355E+02  0.2480046E+02  0.1129681E+02  0.1769489E+03
Ar 1299  0.3499153E+02  0.2191695E+02  0.1311430E+02  0.7560265E+02
Ar 1300  0.3171025E+02  0.2458467E+02  0.1291484E+02  0.4027496E+02
Ar 1301  0.3236947E+02  0.2145018E+02  0.1612517E+02  0.6020131E+03
Ar 1302  0.3474043E+02  0.2393194E+02  0.1581067E+02  0.8459657E+02
Ar 1303  0.3557192E+02  0.2194006E+02  0.1916475E+02  0.1376232E+03
Ar 1304  0.3249456E+02  0.2446741E+02  0.1840060E+02  0.3139274E+03
Ar 1305  0.3247725E+02  0.2172522E+02  0.2101130E+02  0.1314332E+03
Ar 1306  0.3498075E+02  0.2494185E+02  0.2163050E+02  0.1626486E+03
Ar 1307  0.3473775E+02  0.2188676E+02  0.2457224E+02  0.1033319E+02
Ar 1308  0.3251948E+02  0.2455711E+02  0.2470089E+02  0.3473681E+03
Ar 1309  0.3241765E+02  0.2187534E+02  0.2731715E+02  0.1034265E+03
Ar 1310  0.3552128E+02  0.2454484E+02  0.2704124E+02  0.2200359E+03
Ar 1311  0.3499552E+02  0.2230158E+02  0.2967616E+02  0.7260196E+02
Ar 1312  0.3212109E+02  0.2439935E+02  0.2991242E+02  0.1360316E+03
Ar 1313  0.3202804E+02  0.2216240E+02  0.3284427E+02  0.5313406E+02
Ar 1314  0.3527238E+02  0.2465068E+02  0.3253401E+02  0.1298439E+03
Ar 1315  0.3495958E+02  0.2184156E+02  0.3484683E+02  0.3547274E+03
Ar 1316  0.3272354E+02  0.2451242E+02  0.3520819E+02  0.9861077E+03
Ar 1317  0.3300972E+02  0.2679838E+02  0.6549598E+00  0.6134366E+02
Ar 1318  0.3508265E+02  0.2941743E+02  0.3757336E+02  0.3890717E+03
Ar 1319  0.3545676E+02  0.2704593E+02  0.3254426E+01  0.1789430E+03
Ar 1320  0.3219167E+02  0.2937798E+02  0.2432604E+01  0.7305022E+02
Ar 1321  0.3215610E+02  0.2685097E+02  0.5294908E+01  0.2461407E+03
Ar 1322  0.3550193E+02  0.3039126E+02  0.5317267E+01  0.5160754E+03
Ar 1323  0.3506462E+02  0.2711910E+02  0.7280719E+01  0.1244994E+03
Ar 1324  0.3236173E+02  0.2968612E+02  0.7577802E+01  0.6453533E+02
Ar 1325  0.3217632E+02  0.2735239E+02  0.1058030E+02  0.3407871E+03
Ar 1326  0.3533255E+02  0.2905400E+02  0.1044628E+02  0.3236926E+02
Ar 1327  0.3506272E+02  0.2737777E+02  0.1351419E+02  0.1805179E+03
Ar 1328  0.3203243E+02  0.2956862E+02  0.1339124E+02  0.6190907E+03
Ar 1329  0.3213162E+02  0.2671131E+02  0.1578849E+02  0.4311658E+03
Ar 1330  0.3473848E+02  0.2970512E+02  0.1618387E+02  0.1237309E+03
Ar 1331  0.3503248E+02  0.2656690E+02  0.1882015E+02  0.6336225E+02
Ar 1332  0.3210245E+02  0.2952880E+02  0.1911990E+02  0.3275279E+03
Ar 1333  0.3227335E+02  0.2724539E+02  0.2178037E+02  0.1437747E+03
Ar 1334  0.3477116E+02  0.3007918E+02  0.2192061E+02  0.4865792E+03
Ar 1335  0.3498716E+02  0.2709939E+02  0.2453070E+02  0.6585207E+01
Ar 1336  0.3202763E+02  0.3013796E+02  0.2430389E+02  0.1586949E+02
Ar 1337  0.3261900E+02  0.2704110E+02  0.2736420E+02  0.3143059E+03
Ar 1338  0.3483453E+02  0.2968258E+02  0.2742218E+02  0.1994660E+03
Ar 1339  0.3498051E+02  0.2737876E+02  0.2987031E+02  0.1276591E+03
Ar 1340  0.3132287E+02  0.2977479E+02  0.2925117E+02  0.1132479E+03
Ar 1341  0.3231521E+02  0.2714884E+02  0.3259993E+02  0.2297669E+03
Ar 1342  0.3412943E+02  0.2989223E+02  0.3201617E+02  0.1119749E+03
Ar 1343  0.3492250E+02  0.2716113E+02  0.3514146E+02  0.8684275E+02
Ar 1344  0.3219908E+02  0.2972144E+02  0.3509631E+02  0.3643048E+02
Ar 1345  0.2990952E+02  0.3263871E+02  0.3549402E+02  0.1633881E+03
Ar 1346  0.1191508E+01  0.3517299E+02  0.2840687E+01  0.3573907E+03
Ar 1347  0.3568414E+02  0.3185940E+02  0.2207373E+01  0.1575899E+03
Ar 1348  0.3289806E+02  0.3499377E+02  0.2152062E+01  0.5618640E+02
Ar 1349  0.3259903E+02  0.3247728E+02  0.4708490E+01  0.5262935E+02
Ar 1350  0.3522560E+02  0.3465692E+02  0.4457402E+01  0.3079906E+03
Ar 1351  0.3476065E+02  0.3296007E+02  0.7676673E+01  0.2359801E+03
Ar 1352  0.3206590E+02  0.3456670E+02  0.7564516E+01  0.4038710E+03
Ar 1353  0.3222362E+02  0.3272089E+02  0.1072905E+02  0.4981920E+02
Ar 1354  0.3492690E+02  0.3518807E+02  0.1069213E+02  0.2813597E+03
Ar 1355  0.3454300E+02  0.3212208E+02  0.1308796E+02  0.9224565E+02
Ar 1356  0.3246332E+02  0.3494239E+02  0.1415718E+02  0.4667880E+03
Ar 1357  0.3173516E+02  0.3211398E+02  0.1629598E+02  0.2276746E+03
Ar 1358  0.3544027E+02  0.3500465E+02  0.1565965E+02  0.2299828E+03
Ar 1359  0.3475229E+02  0.3258204E+02  0.1862188E+02  0.5810828E+03
Ar 1360  0.3229634E+02  0.3503829E+02  0.1886637E+02  0.3932153E+03
Ar 1361  0.3258857E+02  0.3244270E+02  0.2124949E+02  0.2596517E+03
Ar 1362  0.3491327E+02  0.3519941E+02  0.2163778E+02  0.3040282E+03
Ar 1363  0.3470612E+02  0.3289894E+02  0.2479612E+02  0.8791235E+02
Ar 1364  0.3219493E+02  0.3528355E+02  0.2418399E+02  0.3420562E+03
Ar 1365  0.3188968E+02  0.3247915E+02  0.2680835E+02  0.4951601E+03
Ar 1366  0.3495069E+02  0.3534129E+02  0.2748313E+02  0.8849381E+02
Ar 1367  0.3428159E+02  0.3239975E+02  0.2962003E+02  0.2757270E+02
Ar 1368  0.3195143E+02  0.3504113E+02  0.2931920E+02  0.3866809E+03
Ar 1369  0.3244452E+02  0.3227897E+02  0.3769426E+02  0.1752222E+03
Ar 1370  0.3458547E+02  0.3505281E+02  0.3245247E+02  0.1078573E+03
Ar 1371  0.3466133E+02  0.3208196E+02  0.3498200E+02  0.1333196E+03
Ar 1372  0.3186286E+02  0.3574396E+02  0.3539888E+02  0.1946511E+03
