        1372
Lattice="  0.3778015E+02  0.0000000E+00  0.0000000E+00  0.0000000E+00  0.3778015E+02  0.0000000E+00  0.0000000E+00  0.0000000E+00  0.3778015E+02" Properties=species:S:1:id:I:1:pos:R:3:tempK:R:1
Ar    1  0.3767242E+02  0.3776086E+02  0.2886921E-01  0.1685411E+02
Ar    2  0.2527296E+01  0.2744637E+01  0.3749421E+02  0.5690245E+03
Ar    3  0.3124338E+01  0.3735329E+02  0.3183295E+01  0.1092044E+03
Ar    4  0.1674450E-01  0.2647122E+01  0.2603718E+01  0.2257015E+03
Ar    5  0.3776308E+02  0.6995586E-01  0.5567517E+01  0.3379133E+02
Ar    6  0.2770485E+01  0.2857220E+01  0.5362894E+01  0.3749020E+03
Ar    7  0.2615580E+01  0.3765483E+02  0.7948183E+01  0.6636774E+02
Ar    8  0.7499952E-01  0.3089398E+01  0.8125678E+01  0.2974227E+03
Ar    9  0.3765966E+02  0.3762727E+02  0.1101317E+02  0.1727113E+03
Ar   10  0.2928085E+01  0.2958387E+01  0.1076828E+02  0.5150247E+02
Ar   11  0.2604455E+01  0.3766869E+02  0.1304649E+02  0.2065131E+02
Ar   12  0.3748578E+02  0.2496130E+01  0.1388984E+02  0.7945938E+03
Ar   13  0.4293607E+00  0.3762910E+02  0.1621241E+02  0.5156851E+02
Ar   14  0.2805109E+01  0.2458216E+01  0.1672206E+02  0.2758831E+03
Ar   15  0.2978708E+01  0.3683754E+02  0.1947515E+02  0.5585353E+02
Ar   16  0.1209348E-01  0.2132176E+01  0.1955192E+02  0.3526032E+03
Ar   17  0.3790543E+00  0.3746236E+02  0.2180145E+02  0.3168180E+03
Ar   18  0.2544199E+01  0.2678687E+01  0.2187464E+02  0.3125074E+02
Ar   19  0.2750314E+01  0.1480588E+00  0.2424733E+02  0.8338692E+02
Ar   20  0.3763475E+02  0.2691694E+01  0.2390673E+02  0.9616869E+02
Ar   21  0.3772731E+02  0.3744007E+02  0.2659014E+02  0.1034180E+03
Ar   22  0.2450251E+01  0.2586284E+01  0.2671436E+02  0.3065557E+03
Ar   23  0.3022863E+01  0.3774931E+02  0.2918763E+02  0.1356390E+03
Ar   24  0.3006488E+00  0.2834546E+01  0.3002203E+02  0.3787240E+03
Ar   25  0.2616795E+00  0.2800566E+00  0.3206860E+02  0.2522994E+03
Ar   26  0.2700445E+01  0.2702934E+01  0.3276525E+02  0.2493290E+02
Ar   27  0.2663648E+01  0.3711492E+02  0.3494595E+02  0.2503231E+03
Ar   28  0.3769569E+02  0.2823272E+01  0.3470806E+02  0.2290261E+03
Ar   29  0.3761238E+02  0.5121767E+01  0.3777560E+02  0.5166941E+03
Ar   30  0.2198182E+01  0.7869136E+01  0.3774365E+02  0.3474157E+03
Ar   31  0.2670686E+01  0.5444148E+01  0.2631481E+01  0.2575434E+03
Ar   32  0.3726912E+02  0.7923906E+01  0.2254142E+01  0.3000529E+02
Ar   33  0.1659212E+00  0.5074219E+01  0.5087354E+01  0.3829658E+02
Ar   34  0.2413259E+01  0.8328326E+01  0.5194565E+01  0.1917931E+02
Ar   35  0.2800063E+01  0.5682432E+01  0.8292402E+01  0.3300580E+02
Ar   36  0.2611301E+00  0.7705954E+01  0.7750115E+01  0.2901662E+03
Ar   37  0.3742245E+02  0.5666342E+01  0.1041365E+02  0.2742528E+03
Ar   38  0.2366061E+01  0.8021994E+01  0.1115847E+02  0.6976086E+02
Ar   39  0.2040520E+01  0.5295979E+01  0.1422768E+02  0.3231807E+03
Ar   40  0.2941384E-01  0.8561390E+01  0.1389103E+02  0.1113602E+03
Ar   41  0.3696036E+02  0.5232129E+01  0.1607064E+02  0.2497230E+03
Ar   42  0.2722776E+01  0.8509906E+01  0.1699916E+02  0.7396787E+02
Ar   43  0.2374877E+01  0.5069376E+01  0.1875642E+02  0.2930661E+03
Ar   44  0.3767565E+02  0.8519946E+01  0.1894635E+02  0.7102624E+03
Ar   45  0.3475392E+00  0.5389915E+01  0.2154033E+02  0.1914769E+03
Ar   46  0.2791829E+01  0.7948519E+01  0.2208759E+02  0.4958531E+03
Ar   47  0.2430206E+01  0.4965689E+01  0.2450903E+02  0.6424929E+03
Ar   48  0.2310336E-01  0.8221791E+01  0.2458315E+02  0.3929131E+02
Ar   49  0.1884686E+00  0.5693845E+01  0.2710573E+02  0.4536493E+03
Ar   50  0.2518905E+01  0.8055984E+01  0.2685656E+02  0.1992561E+03
Ar   51  0.2862642E+01  0.5510591E+01  0.2933511E+02  0.1430139E+03
Ar   52  0.3167553E-01  0.7707136E+01  0.2989412E+02  0.2892943E+03
Ar   53  0.3746550E+02  0.5333074E+01  0.3231221E+02  0.1280456E+03
Ar   54  0.2742261E+01  0.7595802E+01  0.3211610E+02  0.3220001E+03
Ar   55  0.2394186E+01  0.5652174E+01  0.3497456E+02  0.1034471E+03
Ar   56  0.3697350E+02  0.7594412E+01  0.3544331E+02  0.2115081E+03
Ar   57  0.4166418E-01  0.1125513E+02  0.2205686E+00  0.4179384E+03
Ar   58  0.2771988E+01  0.1349298E+02  0.3735978E+02  0.3621840E+02
Ar   59  0.2505334E+01  0.1111332E+02  0.2961938E+01  0.3227083E+03
Ar   60  0.3749052E+02  0.1339937E+02  0.2677808E+01  0.1861666E+03
Ar   61  0.1449105E-01  0.1075037E+02  0.5203599E+01  0.4569039E+03
Ar   62  0.2163348E+01  0.1360347E+02  0.5562458E+01  0.3531684E+03
Ar   63  0.2951916E+01  0.1078393E+02  0.7962906E+01  0.2462443E+02
Ar   64  0.1255055E+00  0.1316632E+02  0.8513115E+01  0.8441742E+02
Ar   65  0.4991428E-01  0.1061028E+02  0.1068528E+02  0.1954238E+03
Ar   66  0.3024155E+01  0.1345912E+02  0.1064185E+02  0.7015230E+03
Ar   67  0.3043378E+01  0.1071761E+02  0.1398493E+02  0.3796002E+03
Ar   68  0.6035299E+00  0.1338104E+02  0.1340185E+02  0.1033616E+03
Ar   69  0.8067644E+00  0.1117248E+02  0.1633687E+02  0.8781787E+02
Ar   70  0.2986225E+01  0.1358858E+02  0.1685551E+02  0.2459783E+03
Ar   71  0.2941076E+01  0.1119626E+02  0.1952371E+02  0.3099543E+02
Ar   72  0.4665225E+00  0.1334499E+02  0.1901380E+02  0.1133891E+03
Ar   73  0.1255325E+00  0.1094707E+02  0.2161999E+02  0.3906930E+03
Ar   74  0.2740485E+01  0.1394559E+02  0.2242681E+02  0.4195142E+03
Ar   75  0.2614779E+01  0.1102437E+02  0.2480488E+02  0.1207152E+02
Ar   76  0.3771747E+02  0.1344321E+02  0.2521496E+02  0.1295575E+03
Ar   77  0.3742361E+02  0.1044259E+02  0.2794424E+02  0.1234130E+03
Ar   78  0.2225559E+01  0.1291148E+02  0.2775681E+02  0.9960233E+01
Ar   79  0.2687331E+01  0.1039794E+02  0.3001891E+02  0.4159257E+03
Ar   80  0.3743565E+02  0.1342854E+02  0.2997853E+02  0.3545421E+03
Ar   81  0.3766252E+02  0.1043323E+02  0.3296780E+02  0.5197133E+03
Ar   82  0.2805734E+01  0.1318871E+02  0.3226577E+02  0.8260969E+02
Ar   83  0.2331843E+01  0.1023623E+02  0.3537396E+02  0.4837864E+03
Ar   84  0.2414443E+00  0.1310806E+02  0.3472557E+02  0.9089168E+02
Ar   85  0.5038618E+00  0.1603984E+02  0.3126995E+00  0.5018040E+03
Ar   86  0.2608797E+01  0.1882688E+02  0.3740172E+02  0.5782491E+02
Ar   87  0.2646383E+01  0.1638713E+02  0.3087723E+01  0.1193910E+04
Ar   88  0.2341983E+00  0.1906881E+02  0.2825565E+01  0.6163917E+02
Ar   89  0.3755414E+02  0.1617559E+02  0.5367118E+01  0.5795834E+03
Ar   90  0.2750223E+01  0.1950573E+02  0.4809266E+01  0.1073161E+03
Ar   91  0.2498781E+01  0.1638777E+02  0.8100728E+01  0.1553196E+04
Ar   92  0.2777105E+00  0.1922633E+02  0.8051996E+01  0.3965208E+03
Ar   93  0.2081674E+00  0.1621525E+02  0.1144971E+02  0.3857940E+03
Ar   94  0.2726797E+01  0.1855586E+02  0.1071794E+02  0.5122711E+03
Ar   95  0.2974977E+01  0.1609022E+02  0.1387933E+02  0.4835876E+03
Ar   96  0.5271133E+00  0.1909306E+02  0.1320507E+02  0.1109137E+03
Ar   97  0.5251550E+00  0.1642427E+02  0.1629163E+02  0.3815587E+03
Ar   98  0.2935767E+01  0.1887936E+02  0.1602089E+02  0.8002813E+02
Ar   99  0.2595747E+01  0.1690063E+02  0.1929276E+02  0.4280645E+03
Ar  100  0.3737265E+02  0.1895959E+02  0.1918528E+02  0.5178710E+02
Ar  101  0.3773316E+02  0.1588761E+02  0.2183793E+02  0.9777217E+02
Ar  102  0.3253808E+01  0.1957572E+02  0.2208584E+02  0.4546896E+03
Ar  103  0.2254943E+01  0.1678656E+02  0.2458269E+02  0.8885938E+02
Ar  104  0.3757706E+02  0.1938229E+02  0.2502589E+02  0.6414994E+02
Ar  105  0.5543145E-01  0.1612451E+02  0.2800227E+02  0.2489484E+03
Ar  106  0.2804286E+01  0.1924336E+02  0.2721336E+02  0.5862082E+02
Ar  107  0.2997763E+01  0.1590012E+02  0.2974920E+02  0.2871519E+03
Ar  108  0.1073357E+00  0.1878282E+02  0.3021544E+02  0.8080196E+02
Ar  109  0.1383489E+00  0.1594364E+02  0.3235091E+02  0.8581852E+02
Ar  110  0.3125893E+01  0.1877890E+02  0.3202950E+02  0.1727642E+03
Ar  111  0.2816554E+01  0.1607370E+02  0.3482094E+02  0.3073650E+03
Ar  112  0.3958621E-01  0.1863302E+02  0.3465432E+02  0.6472714E+03
Ar  113  0.5286726E+00  0.2199440E+02  0.2054448E+00  0.4532150E+03
Ar  114  0.3305452E+01  0.2498109E+02  0.1101999E+00  0.4179190E+03
Ar  115  0.3511504E+01  0.2208703E+02  0.2503673E+01  0.5256385E+02
Ar  116  0.7626205E+00  0.2465353E+02  0.2667868E+01  0.1748864E+03
Ar  117  0.6611480E+00  0.2199053E+02  0.5321078E+01  0.9749657E+02
Ar  118  0.3033292E+01  0.2528993E+02  0.5366872E+01  0.1067816E+03
Ar  119  0.2731634E+01  0.2262909E+02  0.7989122E+01  0.2347853E+03
Ar  120  0.3763280E+02  0.2461678E+02  0.8519083E+01  0.1240596E+03
Ar  121  0.1163419E+01  0.2194747E+02  0.1112778E+02  0.2926271E+03
Ar  122  0.2884249E+01  0.2496994E+02  0.1071426E+02  0.2631555E+03
Ar  123  0.2895845E+01  0.2255039E+02  0.1400756E+02  0.1760475E+03
Ar  124  0.3661660E+02  0.2393575E+02  0.1314718E+02  0.8012797E+02
Ar  125  0.1227383E+00  0.2129220E+02  0.1600913E+02  0.3474281E+03
Ar  126  0.2125606E+01  0.2512551E+02  0.1623725E+02  0.2357370E+03
Ar  127  0.2708386E+01  0.2133970E+02  0.1855212E+02  0.3803911E+03
Ar  128  0.3729711E+02  0.2472604E+02  0.1901848E+02  0.3414550E+03
Ar  129  0.5094102E+00  0.2134233E+02  0.2153608E+02  0.1782184E+03
Ar  130  0.3279400E+01  0.2339753E+02  0.2159042E+02  0.2224545E+03
Ar  131  0.2533289E+01  0.2156702E+02  0.2472326E+02  0.2920868E+03
Ar  132  0.3400860E+00  0.2417918E+02  0.2391955E+02  0.2203418E+03
Ar  133  0.3768284E+02  0.2157543E+02  0.2791101E+02  0.2308728E+03
Ar  134  0.2881515E+01  0.2418835E+02  0.2727626E+02  0.1659527E+02
Ar  135  0.3128616E+01  0.2179430E+02  0.2989925E+02  0.3754040E+03
Ar  136  0.3181388E+00  0.2401924E+02  0.3053712E+02  0.4137010E+02
Ar  137  0.3559046E+00  0.2129904E+02  0.3276943E+02  0.1228724E+03
Ar  138  0.2830773E+01  0.2375095E+02  0.3273207E+02  0.6515403E+02
Ar  139  0.3419781E+01  0.2199927E+02  0.3534121E+02  0.4185967E+02
Ar  140  0.3033890E+00  0.2461755E+02  0.3493508E+02  0.3861886E+03
Ar  141  0.3735591E+02  0.2727016E+02  0.5275997E+00  0.1411745E+03
Ar  142  0.1487032E+01  0.3033163E+02  0.3761935E+02  0.5031236E+02
Ar  143  0.2369117E+01  0.2761215E+02  0.2329900E+01  0.1868768E+03
Ar  144  0.3707230E+02  0.3026614E+02  0.2765038E+01  0.1617568E+03
Ar  145  0.3764541E+02  0.2682511E+02  0.5761713E+01  0.2619974E+03
Ar  146  0.2253284E+01  0.2954800E+02  0.5270563E+01  0.3852940E+03
Ar  147  0.2027377E+01  0.2774575E+02  0.8448091E+01  0.4480877E+03
Ar  148  0.3771983E+02  0.3031050E+02  0.8287256E+01  0.2186817E+03
Ar  149  0.3766645E+02  0.2738781E+02  0.1085630E+02  0.4803272E+02
Ar  150  0.2655669E+01  0.3042590E+02  0.1096873E+02  0.5851538E+03
Ar  151  0.2545946E+01  0.2745781E+02  0.1336354E+02  0.2390323E+03
Ar  152  0.3747538E+02  0.3007499E+02  0.1329926E+02  0.1770159E+03
Ar  153  0.3726410E+02  0.2693894E+02  0.1602377E+02  0.1765576E+02
Ar  154  0.2148085E+01  0.2904397E+02  0.1614576E+02  0.2607035E+03
Ar  155  0.2502438E+01  0.2710237E+02  0.1933254E+02  0.8045924E+03
Ar  156  0.3756462E+02  0.2876294E+02  0.1870759E+02  0.1082648E+03
Ar  157  0.1839035E+00  0.2689394E+02  0.2214399E+02  0.1976374E+02
Ar  158  0.2382815E+01  0.3000423E+02  0.2216243E+02  0.3419676E+03
Ar  159  0.2762670E+01  0.2626679E+02  0.2448755E+02  0.2324629E+03
Ar  160  0.3775397E+02  0.2970247E+02  0.2456944E+02  0.7343411E+02
Ar  161  0.3776002E+02  0.2701942E+02  0.2767952E+02  0.7971179E+03
Ar  162  0.2954967E+01  0.2999626E+02  0.2715151E+02  0.2548181E+02
Ar  163  0.2966107E+01  0.2779745E+02  0.2986257E+02  0.5410499E+03
Ar  164  0.3770762E+02  0.3001475E+02  0.2965864E+02  0.2426951E+03
Ar  165  0.4812131E+00  0.2718931E+02  0.3170347E+02  0.1576575E+03
Ar  166  0.2697432E+01  0.3047162E+02  0.3214009E+02  0.6317906E+02
Ar  167  0.3261695E+01  0.2662722E+02  0.3456364E+02  0.9920687E+02
Ar  168  0.1500790E+00  0.2927916E+02  0.3469017E+02  0.1335642E+02
Ar  169  0.3711792E+02  0.3309672E+02  0.5856719E+00  0.9828391E+03
Ar  170  0.2661079E+01  0.3503524E+02  0.5749275E+00  0.3492872E+03
Ar  171  0.2479523E+01  0.3204712E+02  0.2769642E+01  0.3141143E+03
Ar  172  0.3471626E+02  0.3558290E+02  0.9867657E-01  0.1587448E+02
Ar  173  0.7336331E-01  0.3233847E+02  0.5663853E+01  0.8615645E+02
Ar  174  0.2790602E+01  0.3479520E+02  0.5631838E+01  0.4660261E+03
Ar  175  0.3018027E+01  0.3242896E+02  0.7927235E+01  0.1983075E+03
Ar  176  0.1613768E+00  0.3483876E+02  0.7866543E+01  0.4236127E+03
Ar  177  0.3763400E+02  0.3328587E+02  0.1089225E+02  0.6324687E+02
Ar  178  0.2884781E+01  0.3495060E+02  0.1014086E+02  0.6773608E+02
Ar  179  0.2574226E+01  0.3301151E+02  0.1357334E+02  0.1234163E+03
Ar  180  0.3747717E+02  0.3532959E+02  0.1377436E+02  0.8847756E+02
Ar  181  0.3734984E+02  0.3231887E+02  0.1620808E+02  0.2258620E+03
Ar  182  0.2784491E+01  0.3473524E+02  0.1668311E+02  0.2379291E+03
Ar  183  0.2593907E+01  0.3201790E+02  0.1929215E+02  0.6108994E+03
Ar  184  0.1479240E+00  0.3501097E+02  0.1906548E+02  0.3359585E+03
Ar  185  0.3747591E+02  0.3186957E+02  0.2175532E+02  0.1021213E+03
Ar  186  0.2146954E+01  0.3445573E+02  0.2241375E+02  0.1799756E+03
Ar  187  0.3027566E+01  0.3215154E+02  0.2474293E+02  0.3811103E+02
Ar  188  0.3705223E+02  0.3482330E+02  0.2461127E+02  0.1284986E+03
Ar  189  0.3752793E+02  0.3209456E+02  0.2689178E+02  0.4385766E+03
Ar  190  0.2279787E+01  0.3505631E+02  0.2662970E+02  0.3784412E+03
Ar  191  0.3212518E+01  0.3238146E+02  0.2923269E+02  0.4478057E+03
Ar  192  0.1230673E+00  0.3494211E+02  0.2994110E+02  0.1638778E+03
Ar  193  0.9460596E-01  0.3230969E+02  0.3258284E+02  0.5746362E+03
Ar  194  0.2984330E+01  0.3490063E+02  0.3226744E+02  0.2180613E+03
Ar  195  0.2742333E+01  0.3276481E+02  0.3510660E+02  0.1853710E+03
Ar  196  0.3731540E+02  0.3466480E+02  0.3544206E+02  0.1481141E+03
Ar  197  0.5233440E+01  0.3770315E+02  0.3697838E+02  0.7189446E+03
Ar  198  0.7671742E+01  0.2550902E+01  0.3775599E+02  0.6664907E+02
Ar  199  0.7797871E+01  0.3770559E+02  0.3088318E+01  0.2265727E+02
Ar  200  0.5059252E+01  0.2365772E+01  0.3000222E+01  0.1153361E+03
Ar  201  0.5810820E+01  0.1744150E+00  0.5847820E+01  0.5187547E+03
Ar  202  0.7817500E+01  0.2923693E+01  0.5743257E+01  0.1840088E+03
Ar  203  0.8418803E+01  0.3761583E+02  0.8272268E+01  0.2587699E+02
Ar  204  0.5230287E+01  0.2863535E+01  0.8373147E+01  0.1060584E+03
Ar  205  0.5505112E+01  0.1733828E-02  0.1043959E+02  0.6900504E+03
Ar  206  0.7608878E+01  0.2881491E+01  0.1092638E+02  0.5458371E+03
Ar  207  0.8108573E+01  0.3698962E+00  0.1335511E+02  0.2145373E+03
Ar  208  0.5015408E+01  0.2789972E+01  0.1383610E+02  0.6475004E+03
Ar  209  0.5201162E+01  0.3760036E+02  0.1584431E+02  0.1670398E+03
Ar  210  0.7585145E+01  0.2435682E+01  0.1616987E+02  0.2641684E+03
Ar  211  0.8160635E+01  0.3734490E+02  0.1797748E+02  0.6093314E+02
Ar  212  0.5381182E+01  0.1559274E+01  0.1883633E+02  0.1523080E+03
Ar  213  0.5296333E+01  0.3763421E+02  0.2198722E+02  0.3312384E+03
Ar  214  0.8276401E+01  0.2637668E+01  0.2118277E+02  0.1061133E+03
Ar  215  0.8009342E+01  0.3774323E+02  0.2444385E+02  0.3499128E+03
Ar  216  0.5380941E+01  0.2690858E+01  0.2409205E+02  0.6035085E+02
Ar  217  0.5833596E+01  0.7128270E+00  0.2706035E+02  0.6425805E+03
Ar  218  0.8141667E+01  0.3323561E+01  0.2720872E+02  0.1372116E+02
Ar  219  0.8290738E+01  0.3765252E+02  0.2975526E+02  0.6146842E+02
Ar  220  0.5575019E+01  0.2827869E+01  0.2984647E+02  0.2960765E+03
Ar  221  0.5565383E+01  0.3745995E+02  0.3230014E+02  0.7639503E+02
Ar  222  0.8182165E+01  0.2836505E+01  0.3260509E+02  0.3274190E+03
Ar  223  0.8048284E+01  0.3761930E+02  0.3489048E+02  0.3431191E+03
Ar  224  0.5339219E+01  0.2737111E+01  0.3492930E+02  0.1496469E+03
Ar  225  0.5214193E+01  0.5504844E+01  0.3745642E+02  0.2732863E+03
Ar  226  0.8029956E+01  0.8619572E+01  0.3759630E+02  0.4767288E+03
Ar  227  0.7266628E+01  0.5226123E+01  0.2325265E+01  0.6323755E+03
Ar  228  0.5152932E+01  0.8346732E+01  0.2363370E+01  0.7887080E+02
Ar  229  0.5059251E+01  0.5753432E+01  0.5237524E+01  0.2202487E+03
Ar  230  0.7870565E+01  0.7909801E+01  0.4869206E+01  0.1515454E+03
Ar  231  0.7674225E+01  0.5562151E+01  0.7999749E+01  0.1812588E+03
Ar  232  0.5182749E+01  0.8232640E+01  0.7541959E+01  0.5694421E+02
Ar  233  0.5316012E+01  0.5786884E+01  0.1089803E+02  0.1247651E+03
Ar  234  0.7550628E+01  0.8317382E+01  0.1070873E+02  0.1444214E+03
Ar  235  0.7447122E+01  0.5034689E+01  0.1369314E+02  0.5120885E+01
Ar  236  0.5578109E+01  0.8347478E+01  0.1382132E+02  0.7253318E+02
Ar  237  0.5353305E+01  0.6078057E+01  0.1625829E+02  0.1441191E+03
Ar  238  0.8275999E+01  0.7952815E+01  0.1613758E+02  0.5531703E+03
Ar  239  0.8038452E+01  0.4750025E+01  0.1869819E+02  0.9951996E+03
Ar  240  0.5558494E+01  0.7808930E+01  0.1922773E+02  0.1964878E+03
Ar  241  0.4755573E+01  0.5144207E+01  0.2158791E+02  0.4077427E+02
Ar  242  0.8337420E+01  0.7831961E+01  0.2146051E+02  0.6258378E+02
Ar  243  0.8535145E+01  0.4836208E+01  0.2418298E+02  0.5465433E+03
Ar  244  0.5512847E+01  0.8241019E+01  0.2438134E+02  0.7592161E+02
Ar  245  0.5345266E+01  0.5605401E+01  0.2679778E+02  0.5431226E+03
Ar  246  0.8459878E+01  0.7558402E+01  0.2691463E+02  0.4335074E+02
Ar  247  0.8108756E+01  0.5756379E+01  0.2996399E+02  0.4472775E+03
Ar  248  0.5284407E+01  0.8081261E+01  0.2985013E+02  0.4068842E+03
Ar  249  0.5477205E+01  0.5547508E+01  0.3229673E+02  0.3561374E+03
Ar  250  0.8028063E+01  0.8111354E+01  0.3237800E+02  0.2638636E+03
Ar  251  0.8112013E+01  0.5435150E+01  0.3545439E+02  0.4091244E+03
Ar  252  0.5126108E+01  0.8132872E+01  0.3537713E+02  0.1885845E+03
Ar  253  0.5373906E+01  0.1096299E+02  0.3747112E+02  0.8339883E+02
Ar  254  0.7819276E+01  0.1347555E+02  0.3757015E+02  0.7913747E+02
Ar  255  0.7876846E+01  0.1087182E+02  0.2341247E+01  0.1280646E+03
Ar  256  0.5323201E+01  0.1355325E+02  0.2247441E+01  0.2319894E+03
Ar  257  0.5226667E+01  0.1127777E+02  0.4850225E+01  0.3352691E+03
Ar  258  0.7719667E+01  0.1372771E+02  0.5354987E+01  0.3138827E+03
Ar  259  0.7593031E+01  0.1075374E+02  0.7404069E+01  0.2873764E+03
Ar  260  0.5249581E+01  0.1336853E+02  0.7874021E+01  0.1234198E+03
Ar  261  0.5506831E+01  0.1078322E+02  0.1078666E+02  0.2349038E+03
Ar  262  0.7581589E+01  0.1386004E+02  0.1035858E+02  0.3033891E+03
Ar  263  0.7951651E+01  0.1066411E+02  0.1418411E+02  0.1466543E+03
Ar  264  0.5588548E+01  0.1326714E+02  0.1359245E+02  0.1770987E+03
Ar  265  0.5683677E+01  0.1066135E+02  0.1688012E+02  0.4416855E+03
Ar  266  0.8490554E+01  0.1338842E+02  0.1645441E+02  0.8952401E+02
Ar  267  0.8516220E+01  0.1080434E+02  0.1910904E+02  0.3755965E+03
Ar  268  0.5540172E+01  0.1335806E+02  0.1906854E+02  0.4408873E+02
Ar  269  0.5900701E+01  0.1069428E+02  0.2142797E+02  0.1283285E+03
Ar  270  0.8098865E+01  0.1357549E+02  0.2139174E+02  0.7441668E+02
Ar  271  0.8205507E+01  0.1055121E+02  0.2433804E+02  0.5226903E+03
Ar  272  0.5840347E+01  0.1303748E+02  0.2423084E+02  0.1625699E+03
Ar  273  0.5677264E+01  0.1037205E+02  0.2718674E+02  0.3076100E+03
Ar  274  0.8080343E+01  0.1328194E+02  0.2695325E+02  0.3125044E+03
Ar  275  0.8445673E+01  0.1079455E+02  0.2929452E+02  0.9714616E+02
Ar  276  0.5708558E+01  0.1351850E+02  0.3006610E+02  0.2561325E+03
Ar  277  0.5218306E+01  0.1049456E+02  0.3241153E+02  0.4373668E+03
Ar  278  0.8379723E+01  0.1367287E+02  0.3198832E+02  0.2717262E+03
Ar  279  0.8076366E+01  0.1080643E+02  0.3476820E+02  0.6894595E+02
Ar  280  0.5209850E+01  0.1347463E+02  0.3460445E+02  0.1126583E+03
Ar  281  0.5406023E+01  0.1610373E+02  0.3766811E+02  0.1402988E+03
Ar  282  0.8241816E+01  0.1899878E+02  0.3770126E+02  0.1189342E+03
Ar  283  0.7902069E+01  0.1617800E+02  0.2398648E+01  0.2336058E+03
Ar  284  0.5689845E+01  0.1889029E+02  0.2299002E+01  0.4805027E+03
Ar  285  0.5224866E+01  0.1639510E+02  0.5797048E+01  0.2767797E+03
Ar  286  0.7414107E+01  0.1878578E+02  0.5368264E+01  0.3427225E+03
Ar  287  0.8089570E+01  0.1645996E+02  0.7976948E+01  0.2585191E+02
Ar  288  0.4884581E+01  0.1925824E+02  0.7836816E+01  0.2607283E+02
Ar  289  0.5321473E+01  0.1640091E+02  0.1007552E+02  0.1664522E+03
Ar  290  0.7717316E+01  0.1939075E+02  0.1052186E+02  0.4986764E+03
Ar  291  0.7625628E+01  0.1661443E+02  0.1322095E+02  0.7839930E+02
Ar  292  0.5130974E+01  0.1939094E+02  0.1355949E+02  0.2449893E+03
Ar  293  0.5621249E+01  0.1611598E+02  0.1598546E+02  0.2696350E+03
Ar  294  0.7657935E+01  0.1896976E+02  0.1620108E+02  0.3790681E+03
Ar  295  0.7990553E+01  0.1601541E+02  0.1853297E+02  0.4762111E+02
Ar  296  0.6183319E+01  0.1933482E+02  0.1920855E+02  0.2545346E+03
Ar  297  0.5685589E+01  0.1616112E+02  0.2138405E+02  0.1063660E+03
Ar  298  0.7795997E+01  0.1841889E+02  0.2209029E+02  0.1384868E+03
Ar  299  0.7999182E+01  0.1603367E+02  0.2423293E+02  0.1061342E+03
Ar  300  0.5574333E+01  0.1837379E+02  0.2508788E+02  0.4229279E+03
Ar  301  0.5434302E+01  0.1556547E+02  0.2680538E+02  0.6144768E+02
Ar  302  0.8278968E+01  0.1849889E+02  0.2716873E+02  0.3142894E+02
Ar  303  0.8713186E+01  0.1614602E+02  0.2942383E+02  0.1837729E+03
Ar  304  0.5754854E+01  0.1827381E+02  0.2943894E+02  0.1244378E+03
Ar  305  0.6016151E+01  0.1605419E+02  0.3242139E+02  0.1589689E+03
Ar  306  0.8095589E+01  0.1860934E+02  0.3194953E+02  0.2538037E+03
Ar  307  0.7979961E+01  0.1673686E+02  0.3522004E+02  0.1138075E+03
Ar  308  0.5252056E+01  0.1887064E+02  0.3535951E+02  0.8362863E+01
Ar  309  0.6016529E+01  0.2186457E+02  0.3773083E+02  0.3267290E+02
Ar  310  0.8721882E+01  0.2438911E+02  0.3743929E+02  0.2556324E+02
Ar  311  0.7880375E+01  0.2223205E+02  0.2655888E+01  0.7088709E+03
Ar  312  0.5797304E+01  0.2486326E+02  0.2943922E+01  0.3836801E+03
Ar  313  0.5354017E+01  0.2231246E+02  0.5409869E+01  0.3035216E+03
Ar  314  0.8309624E+01  0.2458067E+02  0.5874030E+01  0.3761169E+03
Ar  315  0.7706161E+01  0.2227444E+02  0.9011633E+01  0.1087730E+04
Ar  316  0.5241300E+01  0.2599494E+02  0.7871428E+01  0.3458051E+02
Ar  317  0.4815291E+01  0.2169161E+02  0.1093074E+02  0.3080114E+03
Ar  318  0.8173198E+01  0.2495921E+02  0.1077896E+02  0.6270330E+02
Ar  319  0.7711478E+01  0.2217743E+02  0.1297528E+02  0.1193664E+03
Ar  320  0.5525369E+01  0.2507981E+02  0.1311999E+02  0.1262960E+03
Ar  321  0.5505333E+01  0.2207248E+02  0.1664608E+02  0.4510614E+03
Ar  322  0.8236505E+01  0.2471735E+02  0.1586385E+02  0.8233469E+03
Ar  323  0.8976556E+01  0.2186860E+02  0.1781512E+02  0.5098441E+02
Ar  324  0.6144586E+01  0.2504880E+02  0.1874050E+02  0.7821963E+03
Ar  325  0.6533478E+01  0.2189500E+02  0.2153905E+02  0.1372076E+03
Ar  326  0.8148829E+01  0.2519787E+02  0.2166421E+02  0.1303632E+03
Ar  327  0.8638960E+01  0.2116360E+02  0.2495902E+02  0.5216160E+03
Ar  328  0.5762553E+01  0.2467061E+02  0.2443438E+02  0.8974682E+02
Ar  329  0.5600714E+01  0.2183867E+02  0.2719015E+02  0.5363281E+03
Ar  330  0.7961754E+01  0.2445912E+02  0.2700697E+02  0.4320114E+03
Ar  331  0.8064150E+01  0.2132130E+02  0.2949717E+02  0.8730845E+02
Ar  332  0.5142147E+01  0.2493335E+02  0.3016401E+02  0.6161646E+02
Ar  333  0.5594550E+01  0.2111918E+02  0.3246385E+02  0.8333727E+02
Ar  334  0.8695592E+01  0.2454212E+02  0.3239659E+02  0.5291078E+03
Ar  335  0.8350563E+01  0.2096470E+02  0.3452399E+02  0.1246402E+03
Ar  336  0.6355868E+01  0.2401554E+02  0.3476188E+02  0.2282299E+03
Ar  337  0.5976150E+01  0.2696596E+02  0.3742497E+02  0.9101680E+03
Ar  338  0.8397906E+01  0.2957081E+02  0.6450185E-01  0.3863934E+03
Ar  339  0.9267292E+01  0.2699459E+02  0.1902448E+01  0.1671269E+03
Ar  340  0.5469594E+01  0.2996082E+02  0.2568227E+01  0.2320724E+03
Ar  341  0.6246185E+01  0.2776936E+02  0.5178224E+01  0.2021346E+03
Ar  342  0.8440010E+01  0.2994771E+02  0.5329344E+01  0.1063958E+03
Ar  343  0.8305012E+01  0.2753887E+02  0.8107005E+01  0.8272256E+02
Ar  344  0.5510594E+01  0.3005533E+02  0.7666937E+01  0.2679722E+02
Ar  345  0.5638727E+01  0.2793055E+02  0.1101028E+02  0.1967290E+03
Ar  346  0.7888479E+01  0.3003013E+02  0.1036339E+02  0.1790831E+03
Ar  347  0.8140899E+01  0.2761801E+02  0.1352908E+02  0.1027484E+04
Ar  348  0.5118396E+01  0.2990518E+02  0.1360356E+02  0.2771007E+02
Ar  349  0.5201779E+01  0.2706433E+02  0.1609446E+02  0.5443367E+03
Ar  350  0.8449585E+01  0.3010111E+02  0.1622297E+02  0.5750295E+03
Ar  351  0.8106915E+01  0.2774904E+02  0.1890902E+02  0.2225711E+03
Ar  352  0.5418370E+01  0.2947160E+02  0.1904075E+02  0.4909672E+02
Ar  353  0.5008613E+01  0.2657925E+02  0.2166815E+02  0.2291167E+03
Ar  354  0.8590332E+01  0.2970389E+02  0.2159301E+02  0.1222842E+03
Ar  355  0.8603257E+01  0.2752254E+02  0.2398488E+02  0.3188690E+03
Ar  356  0.5782588E+01  0.2928314E+02  0.2374267E+02  0.4910752E+02
Ar  357  0.5055244E+01  0.2668666E+02  0.2708717E+02  0.1867528E+03
Ar  358  0.8466673E+01  0.2957373E+02  0.2703362E+02  0.2506472E+02
Ar  359  0.8159816E+01  0.2730194E+02  0.2937893E+02  0.2415729E+03
Ar  360  0.5676687E+01  0.2993683E+02  0.2944246E+02  0.6978115E+03
Ar  361  0.5759767E+01  0.2738676E+02  0.3237704E+02  0.9753285E+02
Ar  362  0.8249718E+01  0.2999513E+02  0.3237521E+02  0.1516360E+03
Ar  363  0.8744608E+01  0.2755392E+02  0.3442279E+02  0.2592325E+02
Ar  364  0.5304146E+01  0.2974644E+02  0.3498950E+02  0.3128927E+03
Ar  365  0.4661215E+01  0.3217047E+02  0.3770873E+02  0.1702944E+03
Ar  366  0.7761772E+01  0.3509674E+02  0.4944653E+00  0.1832294E+03
Ar  367  0.8355149E+01  0.3221758E+02  0.2708041E+01  0.2157677E+03
Ar  368  0.5527854E+01  0.3515053E+02  0.2730326E+01  0.2160413E+03
Ar  369  0.5780730E+01  0.3246725E+02  0.5017109E+01  0.6256489E+03
Ar  370  0.8103031E+01  0.3513346E+02  0.5584675E+01  0.5735709E+03
Ar  371  0.8515927E+01  0.3227552E+02  0.7815996E+01  0.1178244E+03
Ar  372  0.5644526E+01  0.3495432E+02  0.7839512E+01  0.3755189E+03
Ar  373  0.5398711E+01  0.3236315E+02  0.1023526E+02  0.1698973E+03
Ar  374  0.8522730E+01  0.3488524E+02  0.1067601E+02  0.2797245E+03
Ar  375  0.7786085E+01  0.3235355E+02  0.1322744E+02  0.1695530E+03
Ar  376  0.5819185E+01  0.3538821E+02  0.1320406E+02  0.8041444E+02
Ar  377  0.4463709E+01  0.3213159E+02  0.1629472E+02  0.7661644E+01
Ar  378  0.8061373E+01  0.3411342E+02  0.1614701E+02  0.6255003E+02
Ar  379  0.8300537E+01  0.3253047E+02  0.1913292E+02  0.3480586E+03
Ar  380  0.5667304E+01  0.3513498E+02  0.1855113E+02  0.4973551E+03
Ar  381  0.5412912E+01  0.3238860E+02  0.2185855E+02  0.3293025E+03
Ar  382  0.7949820E+01  0.3499276E+02  0.2122371E+02  0.8290026E+02
Ar  383  0.8037687E+01  0.3228635E+02  0.2461305E+02  0.2734940E+03
Ar  384  0.5370945E+01  0.3500946E+02  0.2474091E+02  0.3002078E+02
Ar  385  0.5779817E+01  0.3277839E+02  0.2724343E+02  0.9640859E+02
Ar  386  0.8594819E+01  0.3506549E+02  0.2728219E+02  0.4801680E+03
Ar  387  0.8455657E+01  0.3252796E+02  0.2973978E+02  0.2131077E+03
Ar  388  0.5615473E+01  0.3526882E+02  0.2953722E+02  0.6114883E+02
Ar  389  0.5783972E+01  0.3263624E+02  0.3201682E+02  0.5836075E+03
Ar  390  0.8344813E+01  0.3500226E+02  0.3277620E+02  0.6383113E+03
Ar  391  0.7749413E+01  0.3214116E+02  0.3515452E+02  0.1962670E+03
Ar  392  0.5486139E+01  0.3477507E+02  0.3503571E+02  0.3280475E+03
Ar  393  0.1112774E+02  0.3705588E+02  0.3727359E+02  0.9705643E+02
Ar  394  0.1311236E+02  0.2323807E+01  0.8812187E+00  0.3713222E+03
Ar  395  0.1350442E+02  0.3688635E+02  0.2255223E+01  0.3634805E+03
Ar  396  0.1025817E+02  0.3245037E+01  0.3507440E+01  0.1550706E+03
Ar  397  0.1057275E+02  0.1211244E+00  0.5131144E+01  0.2684447E+03
Ar  398  0.1330409E+02  0.2425568E+01  0.5778267E+01  0.6687993E+02
Ar  399  0.1347575E+02  0.3712619E+02  0.7995202E+01  0.9047493E+02
Ar  400  0.1036656E+02  0.2393203E+01  0.7928642E+01  0.4547619E+03
Ar  401  0.1052345E+02  0.3770269E+02  0.1103837E+02  0.7850521E+02
Ar  402  0.1343917E+02  0.2168067E+01  0.1025767E+02  0.2454246E+03
Ar  403  0.1364304E+02  0.1744972E+00  0.1335781E+02  0.3091590E+03
Ar  404  0.1087076E+02  0.2766852E+01  0.1284852E+02  0.1917233E+03
Ar  405  0.1098417E+02  0.3760652E+02  0.1573783E+02  0.8712110E+02
Ar  406  0.1343077E+02  0.2554302E+01  0.1590333E+02  0.1435401E+03
Ar  407  0.1352511E+02  0.3739506E+02  0.1814899E+02  0.3660522E+03
Ar  408  0.1051763E+02  0.2119327E+01  0.1829730E+02  0.1427204E+03
Ar  409  0.1024910E+02  0.3774761E+02  0.2092816E+02  0.4646527E+03
Ar  410  0.1358713E+02  0.1939350E+01  0.2137320E+02  0.2077757E+03
Ar  411  0.1308851E+02  0.3738132E+02  0.2441851E+02  0.2806278E+02
Ar  412  0.1060343E+02  0.2288638E+01  0.2426416E+02  0.2242710E+03
Ar  413  0.1078731E+02  0.3750988E+02  0.2714086E+02  0.5410740E+03
Ar  414  0.1381469E+02  0.2064570E+01  0.2681950E+02  0.4814489E+03
Ar  415  0.1377394E+02  0.4940893E-02  0.2997723E+02  0.2918950E+03
Ar  416  0.1104749E+02  0.2379886E+01  0.2945509E+02  0.4779110E+03
Ar  417  0.1064071E+02  0.3745373E+02  0.3227564E+02  0.4719410E+03
Ar  418  0.1330720E+02  0.2560665E+01  0.3217681E+02  0.3310577E+03
Ar  419  0.1355665E+02  0.3769171E+02  0.3461914E+02  0.6694869E+02
Ar  420  0.1055734E+02  0.2601955E+01  0.3537411E+02  0.3874195E+03
Ar  421  0.1062486E+02  0.4916305E+01  0.4250571E+00  0.6657963E+03
Ar  422  0.1354156E+02  0.7778722E+01  0.2264055E+00  0.1406699E+03
Ar  423  0.1378860E+02  0.5653465E+01  0.3385770E+01  0.1329861E+03
Ar  424  0.1107669E+02  0.7943692E+01  0.2977348E+01  0.5775510E+02
Ar  425  0.1073858E+02  0.5328068E+01  0.6049427E+01  0.2137611E+03
Ar  426  0.1367053E+02  0.8676721E+01  0.5369063E+01  0.1491276E+03
Ar  427  0.1325238E+02  0.5258109E+01  0.8204840E+01  0.2458382E+03
Ar  428  0.1032306E+02  0.8511204E+01  0.7855740E+01  0.1381233E+03
Ar  429  0.1007976E+02  0.5406801E+01  0.1019890E+02  0.2165177E+02
Ar  430  0.1296827E+02  0.7980776E+01  0.1095801E+02  0.3633811E+03
Ar  431  0.1326666E+02  0.4921179E+01  0.1282525E+02  0.4519087E+01
Ar  432  0.1041782E+02  0.7558930E+01  0.1333258E+02  0.1912563E+03
Ar  433  0.1079288E+02  0.4944343E+01  0.1546838E+02  0.2321348E+03
Ar  434  0.1361774E+02  0.7637749E+01  0.1575187E+02  0.2434192E+03
Ar  435  0.1345274E+02  0.5051327E+01  0.1841184E+02  0.1922259E+03
Ar  436  0.1101527E+02  0.7728009E+01  0.1897193E+02  0.2368700E+03
Ar  437  0.1082059E+02  0.4795104E+01  0.2109202E+02  0.1767641E+03
Ar  438  0.1359312E+02  0.7964899E+01  0.2112216E+02  0.4022934E+03
Ar  439  0.1341432E+02  0.5319435E+01  0.2383501E+02  0.3590672E+03
Ar  440  0.1083353E+02  0.7812537E+01  0.2394594E+02  0.2395229E+03
Ar  441  0.1091616E+02  0.5076834E+01  0.2696041E+02  0.4803725E+03
Ar  442  0.1295606E+02  0.7486488E+01  0.2640985E+02  0.3851803E+03
Ar  443  0.1384992E+02  0.5135569E+01  0.2955051E+02  0.2286658E+03
Ar  444  0.1078064E+02  0.7863985E+01  0.3026510E+02  0.3011902E+03
Ar  445  0.1138107E+02  0.5655956E+01  0.3293298E+02  0.5242577E+03
Ar  446  0.1405106E+02  0.8199469E+01  0.3249364E+02  0.4567606E+02
Ar  447  0.1398157E+02  0.5220494E+01  0.3500898E+02  0.3193513E+03
Ar  448  0.1080754E+02  0.7801856E+01  0.3565312E+02  0.1656927E+03
Ar  449  0.1096020E+02  0.1076544E+02  0.3758453E+02  0.1303007E+03
Ar  450  0.1321042E+02  0.1350841E+02  0.4968523E-01  0.3389589E+03
Ar  451  0.1305651E+02  0.1080961E+02  0.2159368E+01  0.1364562E+03
Ar  452  0.1015884E+02  0.1332768E+02  0.2735474E+01  0.7122104E+02
Ar  453  0.1030328E+02  0.1058370E+02  0.5145267E+01  0.3452126E+03
Ar  454  0.1326255E+02  0.1302589E+02  0.5957618E+01  0.3087343E+03
Ar  455  0.1301739E+02  0.1041382E+02  0.8660936E+01  0.3263390E+03
Ar  456  0.1018659E+02  0.1285835E+02  0.8203941E+01  0.3823032E+03
Ar  457  0.1019204E+02  0.1066985E+02  0.1088491E+02  0.3172498E+03
Ar  458  0.1300934E+02  0.1366084E+02  0.1095530E+02  0.2205556E+03
Ar  459  0.1376570E+02  0.1050974E+02  0.1274961E+02  0.5908752E+03
Ar  460  0.1003565E+02  0.1335930E+02  0.1341871E+02  0.1376425E+03
Ar  461  0.1128383E+02  0.9980202E+01  0.1575878E+02  0.3022755E+03
Ar  462  0.1338958E+02  0.1350118E+02  0.1667593E+02  0.7104245E+02
Ar  463  0.1302455E+02  0.1060333E+02  0.1863092E+02  0.2621876E+03
Ar  464  0.1114929E+02  0.1382679E+02  0.1956381E+02  0.2161695E+02
Ar  465  0.1088146E+02  0.1091022E+02  0.2172719E+02  0.3386112E+03
Ar  466  0.1366939E+02  0.1292213E+02  0.2218568E+02  0.2137063E+02
Ar  467  0.1329447E+02  0.1050645E+02  0.2431901E+02  0.1069576E+03
Ar  468  0.1044904E+02  0.1307399E+02  0.2423884E+02  0.3097304E+03
Ar  469  0.1102991E+02  0.1079879E+02  0.2700291E+02  0.2004392E+03
Ar  470  0.1356018E+02  0.1290760E+02  0.2667452E+02  0.2889731E+03
Ar  471  0.1323217E+02  0.1018736E+02  0.2966691E+02  0.2986988E+03
Ar  472  0.1126642E+02  0.1272821E+02  0.2955275E+02  0.5801036E+02
Ar  473  0.1095253E+02  0.9997703E+01  0.3290723E+02  0.1713229E+03
Ar  474  0.1380143E+02  0.1289193E+02  0.3284822E+02  0.1666572E+03
Ar  475  0.1374213E+02  0.1032639E+02  0.3523209E+02  0.1534822E+03
Ar  476  0.1074634E+02  0.1312411E+02  0.3494650E+02  0.8651867E+02
Ar  477  0.1079995E+02  0.1633597E+02  0.4699023E+00  0.5799132E+03
Ar  478  0.1325402E+02  0.1893959E+02  0.3751325E+02  0.5825883E+03
Ar  479  0.1358111E+02  0.1589520E+02  0.2585795E+01  0.3878266E+03
Ar  480  0.1071058E+02  0.1918775E+02  0.2895348E+01  0.1029264E+03
Ar  481  0.1033081E+02  0.1608772E+02  0.4730581E+01  0.9582392E+02
Ar  482  0.1293544E+02  0.1901949E+02  0.5455831E+01  0.1396020E+03
Ar  483  0.1246921E+02  0.1606114E+02  0.8170081E+01  0.5742469E+03
Ar  484  0.1039939E+02  0.1930033E+02  0.8389025E+01  0.8569435E+02
Ar  485  0.1064536E+02  0.1645559E+02  0.1124857E+02  0.5178508E+02
Ar  486  0.1276136E+02  0.1940613E+02  0.1087639E+02  0.4915156E+03
Ar  487  0.1307561E+02  0.1587608E+02  0.1391009E+02  0.4216637E+02
Ar  488  0.9849598E+01  0.1955100E+02  0.1349320E+02  0.4811920E+03
Ar  489  0.1052423E+02  0.1651289E+02  0.1624717E+02  0.3583969E+03
Ar  490  0.1339312E+02  0.1890085E+02  0.1563225E+02  0.1680998E+03
Ar  491  0.1330037E+02  0.1635946E+02  0.1870748E+02  0.3813791E+03
Ar  492  0.1037676E+02  0.1861693E+02  0.1924219E+02  0.3062167E+03
Ar  493  0.1053593E+02  0.1585820E+02  0.2186464E+02  0.1040364E+03
Ar  494  0.1362328E+02  0.1869020E+02  0.2145419E+02  0.1822652E+03
Ar  495  0.1301978E+02  0.1567352E+02  0.2435809E+02  0.2577604E+03
Ar  496  0.1037635E+02  0.1835358E+02  0.2447098E+02  0.1655953E+03
Ar  497  0.1107476E+02  0.1595654E+02  0.2699424E+02  0.1200968E+03
Ar  498  0.1346441E+02  0.1842939E+02  0.2648954E+02  0.1184051E+03
Ar  499  0.1317059E+02  0.1609194E+02  0.2965465E+02  0.2156705E+03
Ar  500  0.1114189E+02  0.1904919E+02  0.2971927E+02  0.2112798E+03
Ar  501  0.1104972E+02  0.1570730E+02  0.3218811E+02  0.2412786E+03
Ar  502  0.1365773E+02  0.1902220E+02  0.3246392E+02  0.2675789E+03
Ar  503  0.1357324E+02  0.1588395E+02  0.3471042E+02  0.2063358E+03
Ar  504  0.1142795E+02  0.1885969E+02  0.3472086E+02  0.8741617E+02
Ar  505  0.1087481E+02  0.2163978E+02  0.3670883E+02  0.1233745E+03
Ar  506  0.1348304E+02  0.2362694E+02  0.3776115E+02  0.1172752E+03
Ar  507  0.1369672E+02  0.2150927E+02  0.2982790E+01  0.1744075E+03
Ar  508  0.1106858E+02  0.2387151E+02  0.2655607E+01  0.7212425E+01
Ar  509  0.1056016E+02  0.2193387E+02  0.5625185E+01  0.6509410E+03
Ar  510  0.1347476E+02  0.2458510E+02  0.5332785E+01  0.1299897E+03
Ar  511  0.1356926E+02  0.2166050E+02  0.7916941E+01  0.1021493E+03
Ar  512  0.1124131E+02  0.2436342E+02  0.8698178E+01  0.3259048E+03
Ar  513  0.1074309E+02  0.2202665E+02  0.1066735E+02  0.2514823E+03
Ar  514  0.1331434E+02  0.2437135E+02  0.1090027E+02  0.3921696E+03
Ar  515  0.1349292E+02  0.2190649E+02  0.1308552E+02  0.2813284E+03
Ar  516  0.1087375E+02  0.2476025E+02  0.1321859E+02  0.1530479E+03
Ar  517  0.1122073E+02  0.2196264E+02  0.1549757E+02  0.1023427E+03
Ar  518  0.1407565E+02  0.2488736E+02  0.1583297E+02  0.5054485E+03
Ar  519  0.1248304E+02  0.2111578E+02  0.1872133E+02  0.1759230E+03
Ar  520  0.1042754E+02  0.2493788E+02  0.1845321E+02  0.4978193E+03
Ar  521  0.1029940E+02  0.2099310E+02  0.2219950E+02  0.2940068E+03
Ar  522  0.1278613E+02  0.2378012E+02  0.2144243E+02  0.1470237E+03
Ar  523  0.1378388E+02  0.2151680E+02  0.2410104E+02  0.6004204E+03
Ar  524  0.1072098E+02  0.2437192E+02  0.2466487E+02  0.6889828E+02
Ar  525  0.1176328E+02  0.2152763E+02  0.2718208E+02  0.1739553E+03
Ar  526  0.1412178E+02  0.2503453E+02  0.2674914E+02  0.1614149E+03
Ar  527  0.1378427E+02  0.2161072E+02  0.3003749E+02  0.6255720E+02
Ar  528  0.1082954E+02  0.2389826E+02  0.2970177E+02  0.1414826E+03
Ar  529  0.1067580E+02  0.2143610E+02  0.3196587E+02  0.3450313E+03
Ar  530  0.1387099E+02  0.2408521E+02  0.3245617E+02  0.2292206E+03
Ar  531  0.1443167E+02  0.2172355E+02  0.3492176E+02  0.4542788E+03
Ar  532  0.1137065E+02  0.2440366E+02  0.3458291E+02  0.6370928E+02
Ar  533  0.1146984E+02  0.2686868E+02  0.3700646E+02  0.8027101E+02
Ar  534  0.1389070E+02  0.3018328E+02  0.3776552E+02  0.3622000E+03
Ar  535  0.1345339E+02  0.2694164E+02  0.2200323E+01  0.7898982E+02
Ar  536  0.1115385E+02  0.3001851E+02  0.2922955E+01  0.3217543E+02
Ar  537  0.1128779E+02  0.2722562E+02  0.5328705E+01  0.6550448E+02
Ar  538  0.1376430E+02  0.2996406E+02  0.5412786E+01  0.8315290E+02
Ar  539  0.1320204E+02  0.2713514E+02  0.8197246E+01  0.1206802E+03
Ar  540  0.1118906E+02  0.2968459E+02  0.8300745E+01  0.2140156E+03
Ar  541  0.1065587E+02  0.2748216E+02  0.1048233E+02  0.1243205E+03
Ar  542  0.1368961E+02  0.2989356E+02  0.1106928E+02  0.6045906E+03
Ar  543  0.1320754E+02  0.2736574E+02  0.1363805E+02  0.1649520E+03
Ar  544  0.1058201E+02  0.2999054E+02  0.1324935E+02  0.4956509E+02
Ar  545  0.1082970E+02  0.2744814E+02  0.1596033E+02  0.3222677E+03
Ar  546  0.1394743E+02  0.3010193E+02  0.1635257E+02  0.3360026E+03
Ar  547  0.1339235E+02  0.2707845E+02  0.1903926E+02  0.1521589E+03
Ar  548  0.1097506E+02  0.2981462E+02  0.1894667E+02  0.8351012E+02
Ar  549  0.1122540E+02  0.2771604E+02  0.2170236E+02  0.3072872E+03
Ar  550  0.1428094E+02  0.3039781E+02  0.2216780E+02  0.1750468E+03
Ar  551  0.1397964E+02  0.2702764E+02  0.2385881E+02  0.1280851E+03
Ar  552  0.1099507E+02  0.2989782E+02  0.2448721E+02  0.8509016E+02
Ar  553  0.1103779E+02  0.2710407E+02  0.2705129E+02  0.4638049E+03
Ar  554  0.1402177E+02  0.2942063E+02  0.2757088E+02  0.7384447E+03
Ar  555  0.1370183E+02  0.2669009E+02  0.2961269E+02  0.2357938E+03
Ar  556  0.1097500E+02  0.2980559E+02  0.2965608E+02  0.3374894E+02
Ar  557  0.1138809E+02  0.2678108E+02  0.3196818E+02  0.4809755E+03
Ar  558  0.1379889E+02  0.2988587E+02  0.3167929E+02  0.2660465E+03
Ar  559  0.1386792E+02  0.2671572E+02  0.3454705E+02  0.4390563E+03
Ar  560  0.1138038E+02  0.2970680E+02  0.3506047E+02  0.3242060E+03
Ar  561  0.1088200E+02  0.3214294E+02  0.2651944E+00  0.4459603E+02
Ar  562  0.1370594E+02  0.3477361E+02  0.3694113E+02  0.1747659E+03
Ar  563  0.1395382E+02  0.3276264E+02  0.2833681E+01  0.3601589E+02
Ar  564  0.1070404E+02  0.3513608E+02  0.2477996E+01  0.2013902E+03
Ar  565  0.1096509E+02  0.3272044E+02  0.5093429E+01  0.2963072E+03
Ar  566  0.1343580E+02  0.3550954E+02  0.5151149E+01  0.4491313E+03
Ar  567  0.1420350E+02  0.3207794E+02  0.8182831E+01  0.3369453E+03
Ar  568  0.1086562E+02  0.3494998E+02  0.8227259E+01  0.3870549E+03
Ar  569  0.1108952E+02  0.3235870E+02  0.1124651E+02  0.1119741E+03
Ar  570  0.1349477E+02  0.3528923E+02  0.1090801E+02  0.3892798E+02
Ar  571  0.1369470E+02  0.3272323E+02  0.1330397E+02  0.2195714E+03
Ar  572  0.1066580E+02  0.3457271E+02  0.1378867E+02  0.2541971E+03
Ar  573  0.1111143E+02  0.3208715E+02  0.1607046E+02  0.1691637E+03
Ar  574  0.1359842E+02  0.3476688E+02  0.1597726E+02  0.1912836E+03
Ar  575  0.1344368E+02  0.3255682E+02  0.1918604E+02  0.7198150E+02
Ar  576  0.1120248E+02  0.3519818E+02  0.1900721E+02  0.3498022E+02
Ar  577  0.1081434E+02  0.3250247E+02  0.2167046E+02  0.5043150E+03
Ar  578  0.1358917E+02  0.3564115E+02  0.2139749E+02  0.3972798E+03
Ar  579  0.1337776E+02  0.3285750E+02  0.2395116E+02  0.1675221E+03
Ar  580  0.1063781E+02  0.3483178E+02  0.2425745E+02  0.2807660E+03
Ar  581  0.1078650E+02  0.3235415E+02  0.2691859E+02  0.2316715E+03
Ar  582  0.1380237E+02  0.3536466E+02  0.2696461E+02  0.6950322E+02
Ar  583  0.1366093E+02  0.3285679E+02  0.2955463E+02  0.1134082E+03
Ar  584  0.1100509E+02  0.3480952E+02  0.2974555E+02  0.8378617E+02
Ar  585  0.1103705E+02  0.3240924E+02  0.3212473E+02  0.1345865E+03
Ar  586  0.1396363E+02  0.3489324E+02  0.3244716E+02  0.3715179E+03
Ar  587  0.1386147E+02  0.3210581E+02  0.3463841E+02  0.5607229E+03
Ar  588  0.1083839E+02  0.3402323E+02  0.3508711E+02  0.1255899E+03
Ar  589  0.1592930E+02  0.2847679E+00  0.3764209E+02  0.1426899E+03
Ar  590  0.1909195E+02  0.2779759E+01  0.1470928E-01  0.1742712E+03
Ar  591  0.1949666E+02  0.3763922E+02  0.2650257E+01  0.6859686E+03
Ar  592  0.1603287E+02  0.3032384E+01  0.3275993E+01  0.2007409E+02
Ar  593  0.1625012E+02  0.2519137E+00  0.5053903E+01  0.2704795E+03
Ar  594  0.1876099E+02  0.2392418E+01  0.5277408E+01  0.9840993E+02
Ar  595  0.1891364E+02  0.3765494E+02  0.7994061E+01  0.6220343E+03
Ar  596  0.1618963E+02  0.2326546E+01  0.7833659E+01  0.2825754E+03
Ar  597  0.1635155E+02  0.3769347E+02  0.1071190E+02  0.1241430E+02
Ar  598  0.1857764E+02  0.3152994E+01  0.1023274E+02  0.2884372E+03
Ar  599  0.1924507E+02  0.3367938E+00  0.1335324E+02  0.2782801E+03
Ar  600  0.1637730E+02  0.2774037E+01  0.1340605E+02  0.5364380E+03
Ar  601  0.1661364E+02  0.3405585E+00  0.1600868E+02  0.4570429E+03
Ar  602  0.1904962E+02  0.2863843E+01  0.1576404E+02  0.3253717E+03
Ar  603  0.1916652E+02  0.2321769E+00  0.1878060E+02  0.4424851E+03
Ar  604  0.1597692E+02  0.2487817E+01  0.1851514E+02  0.1871438E+03
Ar  605  0.1656867E+02  0.3698666E+02  0.2110126E+02  0.3878233E+03
Ar  606  0.1938443E+02  0.2201431E+01  0.2168228E+02  0.3867899E+03
Ar  607  0.1871474E+02  0.3754853E+02  0.2412645E+02  0.2371177E+03
Ar  608  0.1613362E+02  0.2845405E+01  0.2371498E+02  0.4431255E+02
Ar  609  0.1635609E+02  0.3761058E+02  0.2677846E+02  0.7217241E+03
Ar  610  0.1851831E+02  0.2178152E+01  0.2694802E+02  0.2717674E+03
Ar  611  0.1880352E+02  0.3765177E+02  0.2956505E+02  0.7552409E+03
Ar  612  0.1631656E+02  0.2241513E+01  0.2944864E+02  0.2077092E+02
Ar  613  0.1655228E+02  0.1150438E+00  0.3249332E+02  0.2332548E+03
Ar  614  0.1868497E+02  0.2678271E+01  0.3178377E+02  0.7781004E+03
Ar  615  0.1982124E+02  0.4715809E+00  0.3536111E+02  0.1714960E+03
Ar  616  0.1629633E+02  0.2596266E+01  0.3491256E+02  0.2087628E+03
Ar  617  0.1625945E+02  0.4647954E+01  0.2155667E+00  0.1882331E+03
Ar  618  0.1829553E+02  0.7751217E+01  0.4249760E+00  0.2655598E+03
Ar  619  0.1915985E+02  0.4997127E+01  0.2824347E+01  0.1117154E+03
Ar  620  0.1677593E+02  0.7788942E+01  0.3591543E+01  0.1350425E+03
Ar  621  0.1619449E+02  0.5516083E+01  0.6017791E+01  0.1263999E+03
Ar  622  0.1938286E+02  0.8954025E+01  0.6298492E+01  0.2988893E+03
Ar  623  0.1934751E+02  0.6141994E+01  0.7570963E+01  0.6384276E+03
Ar  624  0.1552536E+02  0.8135462E+01  0.8291032E+01  0.5100038E+03
Ar  625  0.1601871E+02  0.5743378E+01  0.1101283E+02  0.3935631E+03
Ar  626  0.1911997E+02  0.7902900E+01  0.1035159E+02  0.5905315E+03
Ar  627  0.1906135E+02  0.5770669E+01  0.1293506E+02  0.2923325E+03
Ar  628  0.1623962E+02  0.7550635E+01  0.1355049E+02  0.1075023E+03
Ar  629  0.1631611E+02  0.5241527E+01  0.1607407E+02  0.2988581E+03
Ar  630  0.1884359E+02  0.8426485E+01  0.1584007E+02  0.2141527E+03
Ar  631  0.1871538E+02  0.4706941E+01  0.1881370E+02  0.5175671E+03
Ar  632  0.1592796E+02  0.7802475E+01  0.1842832E+02  0.1097563E+04
Ar  633  0.1586545E+02  0.5135830E+01  0.2073682E+02  0.2198201E+03
Ar  634  0.1884939E+02  0.7530455E+01  0.2216690E+02  0.1537545E+03
Ar  635  0.1910854E+02  0.4781359E+01  0.2414303E+02  0.2410330E+03
Ar  636  0.1605590E+02  0.7677433E+01  0.2385304E+02  0.1684344E+03
Ar  637  0.1619366E+02  0.5225905E+01  0.2657133E+02  0.3509812E+03
Ar  638  0.1864832E+02  0.7580615E+01  0.2678231E+02  0.3300951E+03
Ar  639  0.1845170E+02  0.4837726E+01  0.2919147E+02  0.2132036E+03
Ar  640  0.1615397E+02  0.7910226E+01  0.2938660E+02  0.4897732E+01
Ar  641  0.1620620E+02  0.5182004E+01  0.3211309E+02  0.7914176E+01
Ar  642  0.1892589E+02  0.7995486E+01  0.3153949E+02  0.9383293E+02
Ar  643  0.1903368E+02  0.5479486E+01  0.3462516E+02  0.2891289E+03
Ar  644  0.1665399E+02  0.8184644E+01  0.3455264E+02  0.2095612E+03
Ar  645  0.1625599E+02  0.1051485E+02  0.3773344E+02  0.3213663E+03
Ar  646  0.1865646E+02  0.1345134E+02  0.3744171E+00  0.2189074E+03
Ar  647  0.1900702E+02  0.1082189E+02  0.3170377E+01  0.2694592E+03
Ar  648  0.1603040E+02  0.1268624E+02  0.2838515E+01  0.9329825E+02
Ar  649  0.1629083E+02  0.1044137E+02  0.5696871E+01  0.2279671E+03
Ar  650  0.1900526E+02  0.1369295E+02  0.5258581E+01  0.6600387E+03
Ar  651  0.1825138E+02  0.1163816E+02  0.8015849E+01  0.2619825E+03
Ar  652  0.1568828E+02  0.1417984E+02  0.8230249E+01  0.1640182E+03
Ar  653  0.1657102E+02  0.1066716E+02  0.1115589E+02  0.6481176E+02
Ar  654  0.1845812E+02  0.1397922E+02  0.1075391E+02  0.1602082E+03
Ar  655  0.1879483E+02  0.1122238E+02  0.1374175E+02  0.4313425E+02
Ar  656  0.1612151E+02  0.1355825E+02  0.1337181E+02  0.6423501E+02
Ar  657  0.1596326E+02  0.1100788E+02  0.1629044E+02  0.1355622E+03
Ar  658  0.1882724E+02  0.1360529E+02  0.1694393E+02  0.2661472E+02
Ar  659  0.1928568E+02  0.1052498E+02  0.1911338E+02  0.2708913E+03
Ar  660  0.1583303E+02  0.1295316E+02  0.1909943E+02  0.4264869E+03
Ar  661  0.1629390E+02  0.9988542E+01  0.2101106E+02  0.1791589E+03
Ar  662  0.1822578E+02  0.1351851E+02  0.2119530E+02  0.3339646E+03
Ar  663  0.1888697E+02  0.1049900E+02  0.2362613E+02  0.3365138E+03
Ar  664  0.1656701E+02  0.1315539E+02  0.2405949E+02  0.3454129E+03
Ar  665  0.1615769E+02  0.1044878E+02  0.2640817E+02  0.5436820E+03
Ar  666  0.1858276E+02  0.1340043E+02  0.2647831E+02  0.1313349E+03
Ar  667  0.1875739E+02  0.1034534E+02  0.2923004E+02  0.4826985E+02
Ar  668  0.1659798E+02  0.1307607E+02  0.2920737E+02  0.7645930E+03
Ar  669  0.1629286E+02  0.1106154E+02  0.3195941E+02  0.1436470E+03
Ar  670  0.1907639E+02  0.1337520E+02  0.3210258E+02  0.1685197E+03
Ar  671  0.1887690E+02  0.1114606E+02  0.3492037E+02  0.9690176E+02
Ar  672  0.1631395E+02  0.1329340E+02  0.3518303E+02  0.6471558E+03
Ar  673  0.1593525E+02  0.1611344E+02  0.1450523E+00  0.1776379E+03
Ar  674  0.1862685E+02  0.1851518E+02  0.3759377E+02  0.7426543E+02
Ar  675  0.1874081E+02  0.1607445E+02  0.2419760E+01  0.2085034E+03
Ar  676  0.1598623E+02  0.1876390E+02  0.2941695E+01  0.7424306E+02
Ar  677  0.1586159E+02  0.1593065E+02  0.5118599E+01  0.2303295E+03
Ar  678  0.1874709E+02  0.1847734E+02  0.5121197E+01  0.5643354E+03
Ar  679  0.1883837E+02  0.1620812E+02  0.7962914E+01  0.5952078E+02
Ar  680  0.1574165E+02  0.1874000E+02  0.8557690E+01  0.1594335E+03
Ar  681  0.1500687E+02  0.1650036E+02  0.1088118E+02  0.5271695E+02
Ar  682  0.1841052E+02  0.1901015E+02  0.1069451E+02  0.5594046E+03
Ar  683  0.1895005E+02  0.1677712E+02  0.1352956E+02  0.6311965E+03
Ar  684  0.1583659E+02  0.1926606E+02  0.1305921E+02  0.8084963E+03
Ar  685  0.1622912E+02  0.1634744E+02  0.1564148E+02  0.4693085E+03
Ar  686  0.1846350E+02  0.1931089E+02  0.1600230E+02  0.3731590E+02
Ar  687  0.1825462E+02  0.1665669E+02  0.1882549E+02  0.1363611E+03
Ar  688  0.1578887E+02  0.1908217E+02  0.1846992E+02  0.1004330E+03
Ar  689  0.1575265E+02  0.1581288E+02  0.2200288E+02  0.1367177E+03
Ar  690  0.1840330E+02  0.1929135E+02  0.2143780E+02  0.4531944E+03
Ar  691  0.1874101E+02  0.1599154E+02  0.2399645E+02  0.3583570E+03
Ar  692  0.1608872E+02  0.1867300E+02  0.2459972E+02  0.2458353E+03
Ar  693  0.1604775E+02  0.1591339E+02  0.2704677E+02  0.7412831E+03
Ar  694  0.1829439E+02  0.1907799E+02  0.2714148E+02  0.9400773E+02
Ar  695  0.1919367E+02  0.1568919E+02  0.2964967E+02  0.3088761E+03
Ar  696  0.1567721E+02  0.1878814E+02  0.2989171E+02  0.2296218E+03
Ar  697  0.1635074E+02  0.1604383E+02  0.3240491E+02  0.3335116E+03
Ar  698  0.1924745E+02  0.1853487E+02  0.3184690E+02  0.4558988E+03
Ar  699  0.1881796E+02  0.1576171E+02  0.3510780E+02  0.1942476E+03
Ar  700  0.1644959E+02  0.1856345E+02  0.3456605E+02  0.3482164E+03
Ar  701  0.1668061E+02  0.2120640E+02  0.3055299E+00  0.9348089E+02
Ar  702  0.1928418E+02  0.2390510E+02  0.1293921E+00  0.3808605E+02
Ar  703  0.1820420E+02  0.2177956E+02  0.3160022E+01  0.4300722E+03
Ar  704  0.1617450E+02  0.2423066E+02  0.2768389E+01  0.5163001E+03
Ar  705  0.1644663E+02  0.2130694E+02  0.5861552E+01  0.3763801E+03
Ar  706  0.1834168E+02  0.2447657E+02  0.5690959E+01  0.2736338E+03
Ar  707  0.1870626E+02  0.2197310E+02  0.8318375E+01  0.5096842E+03
Ar  708  0.1591019E+02  0.2430922E+02  0.8666560E+01  0.2523684E+03
Ar  709  0.1593945E+02  0.2175408E+02  0.1066886E+02  0.1153593E+04
Ar  710  0.1903601E+02  0.2429759E+02  0.1064428E+02  0.2814654E+03
Ar  711  0.1837590E+02  0.2191985E+02  0.1384024E+02  0.1101055E+03
Ar  712  0.1604258E+02  0.2427475E+02  0.1302952E+02  0.5344595E+03
Ar  713  0.1580064E+02  0.2170496E+02  0.1577516E+02  0.6711605E+02
Ar  714  0.1911586E+02  0.2456247E+02  0.1600260E+02  0.1419447E+03
Ar  715  0.1841269E+02  0.2145660E+02  0.1877433E+02  0.1534389E+03
Ar  716  0.1632796E+02  0.2398612E+02  0.1816185E+02  0.6408386E+02
Ar  717  0.1574820E+02  0.2136157E+02  0.2079151E+02  0.1928737E+03
Ar  718  0.1896199E+02  0.2377500E+02  0.2142904E+02  0.9503282E+02
Ar  719  0.1807477E+02  0.2147854E+02  0.2383694E+02  0.8486692E+02
Ar  720  0.1617294E+02  0.2444497E+02  0.2417438E+02  0.3021255E+03
Ar  721  0.1570523E+02  0.2171748E+02  0.2724154E+02  0.2461779E+02
Ar  722  0.1856690E+02  0.2423514E+02  0.2726781E+02  0.4017165E+02
Ar  723  0.1930337E+02  0.2148758E+02  0.2985991E+02  0.2091478E+03
Ar  724  0.1610275E+02  0.2429056E+02  0.2965618E+02  0.1476631E+03
Ar  725  0.1697435E+02  0.2124709E+02  0.3222492E+02  0.3495359E+03
Ar  726  0.1967095E+02  0.2446381E+02  0.3221302E+02  0.9605193E+02
Ar  727  0.1908704E+02  0.2164891E+02  0.3525972E+02  0.1777107E+03
Ar  728  0.1654381E+02  0.2415576E+02  0.3561586E+02  0.1405731E+03
Ar  729  0.1639306E+02  0.2705703E+02  0.3699571E+02  0.1233416E+03
Ar  730  0.1861027E+02  0.2924939E+02  0.1371558E+00  0.2102946E+03
Ar  731  0.1862192E+02  0.2641033E+02  0.2797901E+01  0.1212355E+03
Ar  732  0.1594342E+02  0.3021225E+02  0.2837188E+01  0.2339465E+03
Ar  733  0.1574682E+02  0.2729485E+02  0.5242465E+01  0.7864597E+03
Ar  734  0.1860568E+02  0.2901272E+02  0.4927889E+01  0.2574968E+03
Ar  735  0.1886131E+02  0.2712324E+02  0.8370019E+01  0.4184399E+03
Ar  736  0.1595067E+02  0.2920919E+02  0.8366065E+01  0.1574989E+03
Ar  737  0.1578003E+02  0.2688690E+02  0.1072747E+02  0.4252869E+03
Ar  738  0.1900342E+02  0.3004144E+02  0.1047377E+02  0.4931199E+01
Ar  739  0.1880753E+02  0.2721856E+02  0.1301405E+02  0.2291237E+02
Ar  740  0.1595640E+02  0.2960479E+02  0.1368533E+02  0.1305634E+02
Ar  741  0.1646171E+02  0.2726804E+02  0.1630382E+02  0.2764583E+03
Ar  742  0.1884486E+02  0.2991139E+02  0.1580001E+02  0.2240811E+03
Ar  743  0.1934618E+02  0.2659845E+02  0.1888350E+02  0.2748571E+03
Ar  744  0.1634238E+02  0.3044255E+02  0.1916469E+02  0.2523409E+03
Ar  745  0.1669418E+02  0.2694631E+02  0.2155920E+02  0.7321904E+03
Ar  746  0.1891534E+02  0.3037787E+02  0.2147474E+02  0.3175487E+03
Ar  747  0.1937209E+02  0.2622373E+02  0.2425472E+02  0.6998880E+02
Ar  748  0.1722542E+02  0.2944947E+02  0.2401520E+02  0.2170604E+03
Ar  749  0.1640116E+02  0.2722309E+02  0.2640442E+02  0.3305841E+03
Ar  750  0.1883468E+02  0.3022554E+02  0.2703320E+02  0.1188937E+03
Ar  751  0.1891212E+02  0.2668882E+02  0.2954298E+02  0.2355712E+02
Ar  752  0.1694203E+02  0.2953347E+02  0.3018041E+02  0.5315200E+03
Ar  753  0.1662123E+02  0.2668454E+02  0.3218494E+02  0.7234775E+02
Ar  754  0.1927304E+02  0.2928076E+02  0.3263643E+02  0.4820684E+03
Ar  755  0.1906366E+02  0.2684431E+02  0.3508408E+02  0.8914212E+03
Ar  756  0.1646103E+02  0.2912387E+02  0.3459883E+02  0.9661415E+03
Ar  757  0.1626175E+02  0.3275197E+02  0.3700817E+02  0.7789984E+02
Ar  758  0.1910644E+02  0.3494474E+02  0.3764965E+02  0.1798782E+03
Ar  759  0.1899190E+02  0.3215619E+02  0.2383413E+01  0.1755100E+03
Ar  760  0.1660315E+02  0.3519926E+02  0.2558667E+01  0.3977953E+02
Ar  761  0.1639797E+02  0.3241243E+02  0.5440706E+01  0.7209993E+02
Ar  762  0.1917730E+02  0.3506725E+02  0.5125221E+01  0.1313353E+03
Ar  763  0.1840513E+02  0.3237846E+02  0.8268008E+01  0.1792039E+03
Ar  764  0.1619717E+02  0.3523123E+02  0.7984450E+01  0.1392974E+03
Ar  765  0.1632438E+02  0.3276464E+02  0.1115141E+02  0.3083600E+03
Ar  766  0.1853418E+02  0.3525915E+02  0.1046089E+02  0.9237846E+02
Ar  767  0.1919920E+02  0.3210578E+02  0.1313193E+02  0.2499220E+03
Ar  768  0.1598533E+02  0.3574033E+02  0.1362722E+02  0.1979714E+03
Ar  769  0.1660054E+02  0.3261113E+02  0.1607154E+02  0.5491083E+03
Ar  770  0.1916876E+02  0.3521165E+02  0.1588412E+02  0.3414831E+03
Ar  771  0.1888917E+02  0.3258103E+02  0.1856892E+02  0.1708796E+03
Ar  772  0.1584151E+02  0.3481492E+02  0.1850475E+02  0.8710997E+03
Ar  773  0.1638196E+02  0.3294793E+02  0.2168109E+02  0.7862411E+03
Ar  774  0.1932192E+02  0.3461769E+02  0.2113035E+02  0.4222904E+03
Ar  775  0.1897174E+02  0.3233879E+02  0.2412570E+02  0.2105510E+03
Ar  776  0.1612401E+02  0.3507714E+02  0.2425730E+02  0.1452337E+03
Ar  777  0.1643683E+02  0.3284597E+02  0.2728983E+02  0.3742019E+03
Ar  778  0.1870056E+02  0.3490974E+02  0.2642125E+02  0.8941127E+01
Ar  779  0.1910217E+02  0.3269738E+02  0.2940000E+02  0.2981123E+03
Ar  780  0.1642396E+02  0.3469158E+02  0.3008271E+02  0.1353202E+03
Ar  781  0.1686730E+02  0.3249660E+02  0.3239134E+02  0.1533451E+03
Ar  782  0.1877109E+02  0.3569111E+02  0.3254434E+02  0.2725170E+03
Ar  783  0.1926948E+02  0.3223030E+02  0.3478629E+02  0.9782174E+02
Ar  784  0.1638604E+02  0.3547776E+02  0.3503359E+02  0.3640783E+03
Ar  785  0.2219530E+02  0.6754948E+00  0.3664184E+00  0.3618393E+03
Ar  786  0.2510454E+02  0.3052863E+01  0.3485066E-01  0.2864745E+03
Ar  787  0.2424263E+02  0.3770004E+02  0.2882186E+01  0.9109155E+02
Ar  788  0.2213231E+02  0.2735239E+01  0.2962358E+01  0.4813171E+03
Ar  789  0.2155897E+02  0.3768962E+02  0.5335232E+01  0.1102625E+04
Ar  790  0.2427589E+02  0.2848119E+01  0.5523143E+01  0.1211191E+03
Ar  791  0.2433410E+02  0.3717915E+02  0.8082806E+01  0.1434632E+03
Ar  792  0.2184283E+02  0.2747086E+01  0.8040908E+01  0.1629676E+03
Ar  793  0.2194013E+02  0.3015965E+00  0.1074274E+02  0.4815463E+02
Ar  794  0.2479574E+02  0.2471626E+01  0.1041612E+02  0.4283822E+03
Ar  795  0.2436165E+02  0.9012802E-02  0.1338814E+02  0.1886131E+03
Ar  796  0.2196152E+02  0.3229492E+01  0.1305140E+02  0.1819656E+03
Ar  797  0.2190122E+02  0.4579942E-01  0.1578064E+02  0.1214587E+03
Ar  798  0.2399410E+02  0.2585602E+01  0.1590005E+02  0.5281836E+03
Ar  799  0.2406063E+02  0.3225870E+00  0.1882217E+02  0.3590770E+03
Ar  800  0.2143910E+02  0.2606859E+01  0.1892253E+02  0.6778891E+03
Ar  801  0.2170052E+02  0.3741216E+02  0.2191672E+02  0.1974931E+03
Ar  802  0.2438895E+02  0.2569600E+01  0.2128905E+02  0.3436040E+02
Ar  803  0.2423337E+02  0.3766987E+02  0.2410208E+02  0.4320584E+03
Ar  804  0.2211010E+02  0.2325963E+01  0.2411112E+02  0.5744870E+02
Ar  805  0.2180828E+02  0.3742523E+02  0.2656806E+02  0.8849697E+02
Ar  806  0.2434935E+02  0.2987996E+01  0.2703541E+02  0.1738235E+03
Ar  807  0.2431941E+02  0.4506940E+00  0.2960564E+02  0.7527923E+02
Ar  808  0.2129841E+02  0.2139505E+01  0.2922746E+02  0.1352263E+03
Ar  809  0.2171132E+02  0.2985980E+00  0.3197832E+02  0.1737505E+03
Ar  810  0.2414787E+02  0.2839590E+01  0.3223541E+02  0.3772453E+03
Ar  811  0.2401384E+02  0.7748387E-01  0.3543960E+02  0.2684175E+03
Ar  812  0.2204702E+02  0.3269966E+01  0.3588725E+02  0.2069956E+03
Ar  813  0.2144906E+02  0.5664724E+01  0.6116762E+00  0.5226442E+03
Ar  814  0.2416131E+02  0.8256292E+01  0.4973530E-01  0.6094488E+03
Ar  815  0.2450708E+02  0.5597987E+01  0.2437117E+01  0.1105191E+04
Ar  816  0.2168160E+02  0.7959652E+01  0.3129789E+01  0.6055433E+03
Ar  817  0.2222585E+02  0.5407336E+01  0.5252985E+01  0.4200781E+02
Ar  818  0.2409162E+02  0.8453958E+01  0.5585528E+01  0.4664083E+03
Ar  819  0.2491340E+02  0.5550251E+01  0.9181295E+01  0.4823050E+02
Ar  820  0.2206781E+02  0.8002551E+01  0.8137705E+01  0.1030168E+04
Ar  821  0.2156377E+02  0.5127376E+01  0.1046536E+02  0.1071817E+03
Ar  822  0.2396149E+02  0.8488521E+01  0.1118173E+02  0.2658708E+02
Ar  823  0.2412061E+02  0.6040324E+01  0.1397707E+02  0.9876413E+02
Ar  824  0.2145402E+02  0.8350641E+01  0.1346225E+02  0.2583078E+03
Ar  825  0.2123242E+02  0.5250903E+01  0.1630372E+02  0.4210597E+03
Ar  826  0.2385243E+02  0.7921198E+01  0.1679775E+02  0.3984647E+03
Ar  827  0.2410615E+02  0.4900798E+01  0.1890899E+02  0.4874471E+03
Ar  828  0.2083154E+02  0.7448750E+01  0.1896780E+02  0.1653080E+03
Ar  829  0.2172192E+02  0.4934221E+01  0.2141720E+02  0.3865947E+03
Ar  830  0.2395456E+02  0.7838926E+01  0.2095577E+02  0.1227935E+03
Ar  831  0.2419213E+02  0.5790965E+01  0.2383997E+02  0.2319231E+03
Ar  832  0.2118821E+02  0.7769652E+01  0.2462535E+02  0.7182940E+02
Ar  833  0.2189446E+02  0.4829871E+01  0.2664221E+02  0.3938204E+03
Ar  834  0.2408070E+02  0.8064586E+01  0.2720710E+02  0.1132438E+03
Ar  835  0.2463181E+02  0.5604563E+01  0.2969401E+02  0.1264217E+03
Ar  836  0.2154256E+02  0.7177968E+01  0.2903344E+02  0.5193664E+03
Ar  837  0.2129896E+02  0.4861253E+01  0.3170408E+02  0.6862996E+02
Ar  838  0.2433151E+02  0.8515263E+01  0.3203965E+02  0.1568865E+03
Ar  839  0.2413106E+02  0.6044799E+01  0.3461061E+02  0.6217138E+02
Ar  840  0.2134928E+02  0.7721293E+01  0.3512265E+02  0.5083139E+03
Ar  841  0.2164945E+02  0.1045220E+02  0.2420487E+00  0.1027940E+03
Ar  842  0.2394927E+02  0.1379758E+02  0.1072353E+00  0.7875842E+02
Ar  843  0.2399887E+02  0.1046758E+02  0.2858436E+01  0.5343609E+02
Ar  844  0.2145609E+02  0.1385818E+02  0.2891186E+01  0.1444764E+03
Ar  845  0.2166339E+02  0.1113906E+02  0.5879163E+01  0.1555305E+03
Ar  846  0.2480319E+02  0.1380963E+02  0.5580050E+01  0.1270298E+03
Ar  847  0.2517756E+02  0.1024568E+02  0.8136685E+01  0.2347830E+03
Ar  848  0.2184466E+02  0.1381507E+02  0.8320072E+01  0.7193252E+02
Ar  849  0.2153586E+02  0.1100942E+02  0.1118853E+02  0.2499033E+03
Ar  850  0.2411267E+02  0.1307256E+02  0.1133863E+02  0.3275836E+03
Ar  851  0.2451217E+02  0.1066538E+02  0.1387258E+02  0.7742320E+03
Ar  852  0.2121996E+02  0.1355325E+02  0.1352845E+02  0.6787820E+03
Ar  853  0.2158188E+02  0.1124113E+02  0.1600249E+02  0.1254283E+03
Ar  854  0.2393617E+02  0.1391597E+02  0.1627016E+02  0.9007846E+02
Ar  855  0.2397239E+02  0.1101506E+02  0.1866642E+02  0.2549849E+03
Ar  856  0.2138149E+02  0.1415152E+02  0.1920232E+02  0.4662670E+03
Ar  857  0.2176161E+02  0.1099702E+02  0.2127721E+02  0.6822502E+03
Ar  858  0.2414977E+02  0.1418170E+02  0.2134316E+02  0.4274560E+03
Ar  859  0.2360962E+02  0.1011832E+02  0.2451759E+02  0.1882989E+03
Ar  860  0.2140180E+02  0.1312156E+02  0.2384297E+02  0.1903890E+03
Ar  861  0.2149336E+02  0.9981803E+01  0.2733001E+02  0.4710125E+03
Ar  862  0.2422477E+02  0.1359991E+02  0.2693930E+02  0.1008785E+03
Ar  863  0.2417963E+02  0.1072532E+02  0.2943760E+02  0.4735741E+03
Ar  864  0.2175426E+02  0.1283712E+02  0.2921232E+02  0.2181407E+03
Ar  865  0.2124635E+02  0.1034886E+02  0.3272021E+02  0.1551580E+03
Ar  866  0.2417699E+02  0.1281225E+02  0.3287050E+02  0.4804239E+03
Ar  867  0.2433946E+02  0.1025009E+02  0.3516235E+02  0.2751452E+01
Ar  868  0.2172868E+02  0.1304631E+02  0.3555152E+02  0.3186961E+03
Ar  869  0.2164773E+02  0.1637690E+02  0.4637711E-01  0.7635431E+02
Ar  870  0.2396049E+02  0.1860118E+02  0.3764153E+02  0.1079943E+03
Ar  871  0.2401395E+02  0.1652609E+02  0.3018937E+01  0.3647433E+03
Ar  872  0.2130340E+02  0.1892814E+02  0.2619277E+01  0.6183396E+02
Ar  873  0.2165849E+02  0.1618070E+02  0.5737632E+01  0.6188249E+03
Ar  874  0.2357979E+02  0.1906694E+02  0.5148465E+01  0.2698860E+03
Ar  875  0.2420517E+02  0.1702222E+02  0.8519175E+01  0.2002674E+03
Ar  876  0.2135810E+02  0.1935836E+02  0.8350006E+01  0.2868970E+03
Ar  877  0.2162352E+02  0.1608475E+02  0.1091817E+02  0.4448628E+03
Ar  878  0.2444818E+02  0.1980101E+02  0.1040335E+02  0.2570475E+03
Ar  879  0.2437384E+02  0.1658026E+02  0.1320622E+02  0.6507194E+02
Ar  880  0.2161413E+02  0.1896092E+02  0.1279174E+02  0.1979725E+03
Ar  881  0.2141101E+02  0.1615466E+02  0.1615410E+02  0.3669712E+02
Ar  882  0.2410096E+02  0.1911246E+02  0.1597627E+02  0.2176515E+02
Ar  883  0.2382383E+02  0.1653657E+02  0.1861447E+02  0.1268088E+03
Ar  884  0.2116205E+02  0.1885728E+02  0.1819738E+02  0.1629108E+03
Ar  885  0.2164847E+02  0.1685304E+02  0.2170767E+02  0.2551832E+03
Ar  886  0.2458770E+02  0.1890947E+02  0.2199550E+02  0.1349801E+03
Ar  887  0.2418898E+02  0.1638190E+02  0.2469971E+02  0.3442937E+03
Ar  888  0.2137895E+02  0.1845037E+02  0.2452057E+02  0.7971511E+02
Ar  889  0.2135272E+02  0.1578511E+02  0.2702114E+02  0.3383316E+03
Ar  890  0.2404277E+02  0.1911220E+02  0.2735877E+02  0.5313441E+03
Ar  891  0.2380486E+02  0.1540044E+02  0.3053205E+02  0.3902895E+03
Ar  892  0.2187935E+02  0.1865884E+02  0.2970211E+02  0.1182835E+03
Ar  893  0.2141575E+02  0.1549712E+02  0.3320291E+02  0.1469621E+03
Ar  894  0.2458671E+02  0.1873454E+02  0.3245227E+02  0.3358129E+03
Ar  895  0.2399640E+02  0.1582473E+02  0.3512493E+02  0.1362827E+03
Ar  896  0.2141494E+02  0.1908608E+02  0.3509633E+02  0.2736943E+03
Ar  897  0.2213587E+02  0.2145575E+02  0.3734116E+02  0.4011768E+01
Ar  898  0.2429691E+02  0.2387425E+02  0.2433203E+00  0.1772579E+02
Ar  899  0.2437993E+02  0.2151229E+02  0.2361417E+01  0.6885509E+03
Ar  900  0.2205395E+02  0.2442050E+02  0.2829184E+01  0.8926512E+02
Ar  901  0.2142251E+02  0.2190273E+02  0.4801177E+01  0.1001394E+03
Ar  902  0.2437519E+02  0.2437898E+02  0.5365665E+01  0.2593499E+03
Ar  903  0.2415780E+02  0.2220773E+02  0.7959458E+01  0.2907559E+03
Ar  904  0.2155663E+02  0.2444203E+02  0.8144622E+01  0.1974441E+03
Ar  905  0.2175696E+02  0.2198917E+02  0.1065595E+02  0.2145445E+03
Ar  906  0.2474278E+02  0.2437910E+02  0.1092006E+02  0.7769792E+02
Ar  907  0.2390870E+02  0.2185938E+02  0.1343041E+02  0.2791510E+03
Ar  908  0.2131655E+02  0.2468823E+02  0.1282922E+02  0.4965641E+03
Ar  909  0.2096703E+02  0.2136484E+02  0.1563495E+02  0.3786600E+03
Ar  910  0.2405578E+02  0.2371019E+02  0.1669894E+02  0.9596891E+02
Ar  911  0.2434857E+02  0.2123977E+02  0.1902197E+02  0.3440660E+03
Ar  912  0.2165583E+02  0.2338106E+02  0.1948377E+02  0.2206587E+03
Ar  913  0.2104209E+02  0.2086507E+02  0.2180048E+02  0.5747507E+03
Ar  914  0.2462413E+02  0.2438005E+02  0.2163588E+02  0.1625549E+03
Ar  915  0.2340421E+02  0.2099886E+02  0.2448783E+02  0.1014767E+03
Ar  916  0.2168335E+02  0.2370919E+02  0.2357110E+02  0.6234038E+02
Ar  917  0.2068620E+02  0.2118560E+02  0.2673834E+02  0.9579448E+02
Ar  918  0.2426284E+02  0.2387476E+02  0.2672207E+02  0.1776897E+03
Ar  919  0.2360203E+02  0.2206771E+02  0.2995886E+02  0.4923312E+03
Ar  920  0.2168377E+02  0.2459082E+02  0.2909532E+02  0.3945770E+03
Ar  921  0.2165304E+02  0.2154924E+02  0.3270637E+02  0.3998627E+03
Ar  922  0.2454174E+02  0.2490353E+02  0.3228925E+02  0.5015774E+03
Ar  923  0.2444889E+02  0.2217920E+02  0.3497488E+02  0.6347971E+02
Ar  924  0.2153384E+02  0.2431782E+02  0.3528446E+02  0.7135606E+03
Ar  925  0.2217767E+02  0.2659457E+02  0.4974953E+00  0.4118583E+03
Ar  926  0.2473498E+02  0.2962899E+02  0.3719886E+02  0.8164378E+02
Ar  927  0.2441966E+02  0.2753672E+02  0.3701648E+01  0.3274715E+03
Ar  928  0.2152619E+02  0.2943611E+02  0.2483619E+01  0.3619339E+03
Ar  929  0.2172013E+02  0.2742610E+02  0.5930027E+01  0.1876109E+03
Ar  930  0.2458100E+02  0.3016048E+02  0.5471632E+01  0.1440928E+03
Ar  931  0.2447168E+02  0.2693313E+02  0.8315383E+01  0.4670491E+02
Ar  932  0.2154042E+02  0.2986110E+02  0.7961864E+01  0.1736737E+03
Ar  933  0.2131366E+02  0.2774368E+02  0.1088968E+02  0.2216928E+03
Ar  934  0.2431700E+02  0.2994152E+02  0.1078692E+02  0.1191218E+03
Ar  935  0.2431071E+02  0.2747517E+02  0.1354960E+02  0.1458523E+03
Ar  936  0.2178945E+02  0.3017432E+02  0.1342310E+02  0.1255538E+03
Ar  937  0.2184612E+02  0.2695229E+02  0.1603311E+02  0.2778748E+03
Ar  938  0.2392446E+02  0.2976912E+02  0.1592475E+02  0.4356225E+03
Ar  939  0.2396129E+02  0.2721372E+02  0.1913194E+02  0.9912544E+02
Ar  940  0.2121101E+02  0.2959260E+02  0.1881902E+02  0.3167346E+02
Ar  941  0.2164259E+02  0.2663814E+02  0.2109551E+02  0.8552370E+02
Ar  942  0.2437351E+02  0.2941538E+02  0.2214100E+02  0.6495560E+03
Ar  943  0.2320507E+02  0.2653481E+02  0.2425075E+02  0.9393989E+02
Ar  944  0.2110908E+02  0.2959218E+02  0.2367066E+02  0.1350453E+03
Ar  945  0.2101926E+02  0.2708834E+02  0.2705954E+02  0.1916445E+03
Ar  946  0.2437871E+02  0.2973123E+02  0.2654763E+02  0.1899840E+03
Ar  947  0.2411739E+02  0.2763586E+02  0.2943345E+02  0.2554739E+03
Ar  948  0.2129769E+02  0.2935294E+02  0.2982555E+02  0.1181978E+03
Ar  949  0.2179011E+02  0.2696521E+02  0.3269719E+02  0.1805832E+02
Ar  950  0.2471792E+02  0.2941561E+02  0.3301792E+02  0.1263179E+03
Ar  951  0.2423082E+02  0.2656157E+02  0.3525595E+02  0.1007301E+03
Ar  952  0.2151974E+02  0.2950998E+02  0.3549937E+02  0.2069988E+03
Ar  953  0.2152445E+02  0.3235788E+02  0.3725755E+02  0.5564531E+03
Ar  954  0.2391874E+02  0.3470875E+02  0.1271448E+00  0.5018110E+03
Ar  955  0.2429926E+02  0.3200588E+02  0.2278915E+01  0.3511371E+03
Ar  956  0.2154492E+02  0.3458756E+02  0.2511685E+01  0.2381184E+03
Ar  957  0.2075970E+02  0.3209865E+02  0.5311457E+01  0.2499729E+03
Ar  958  0.2366073E+02  0.3473297E+02  0.5308169E+01  0.2324150E+03
Ar  959  0.2448622E+02  0.3253097E+02  0.8451903E+01  0.4758746E+02
Ar  960  0.2135399E+02  0.3489401E+02  0.8044552E+01  0.3330101E+03
Ar  961  0.2196323E+02  0.3227301E+02  0.1051160E+02  0.2552155E+03
Ar  962  0.2513475E+02  0.3514447E+02  0.1111717E+02  0.5284102E+03
Ar  963  0.2435389E+02  0.3269887E+02  0.1373601E+02  0.1777085E+03
Ar  964  0.2155382E+02  0.3529297E+02  0.1278721E+02  0.2781446E+03
Ar  965  0.2145867E+02  0.3231104E+02  0.1597158E+02  0.1511628E+03
Ar  966  0.2422447E+02  0.3435615E+02  0.1659440E+02  0.1225340E+03
Ar  967  0.2476456E+02  0.3173263E+02  0.1912633E+02  0.2420834E+03
Ar  968  0.2177007E+02  0.3501134E+02  0.1846911E+02  0.5128302E+03
Ar  969  0.2221374E+02  0.3239925E+02  0.2167050E+02  0.3333484E+03
Ar  970  0.2414717E+02  0.3499817E+02  0.2149490E+02  0.4068821E+03
Ar  971  0.2535101E+02  0.3228456E+02  0.2431047E+02  0.1176785E+03
Ar  972  0.2161930E+02  0.3483414E+02  0.2432463E+02  0.2739862E+03
Ar  973  0.2209864E+02  0.3246550E+02  0.2677389E+02  0.1687611E+03
Ar  974  0.2440996E+02  0.3544133E+02  0.2702892E+02  0.4969392E+02
Ar  975  0.2463240E+02  0.3203101E+02  0.2963292E+02  0.7470194E+02
Ar  976  0.2133632E+02  0.3537601E+02  0.2941267E+02  0.2645844E+02
Ar  977  0.2202808E+02  0.3198407E+02  0.3214102E+02  0.4973795E+02
Ar  978  0.2377123E+02  0.3493074E+02  0.3194639E+02  0.4876720E+02
Ar  979  0.2435078E+02  0.3239414E+02  0.3507785E+02  0.2743345E+02
Ar  980  0.2212336E+02  0.3511784E+02  0.3473048E+02  0.3223538E+02
Ar  981  0.2672371E+02  0.3711877E+02  0.3176737E+00  0.5673339E+03
Ar  982  0.2862995E+02  0.2389794E+01  0.6672234E-01  0.2185889E+03
Ar  983  0.2932849E+02  0.8910227E-01  0.2473551E+01  0.1527520E+03
Ar  984  0.2653238E+02  0.2602318E+01  0.2851429E+01  0.8970393E+02
Ar  985  0.2656715E+02  0.2347645E+00  0.5459611E+01  0.4191787E+03
Ar  986  0.2904451E+02  0.2814065E+01  0.5073708E+01  0.2989727E+03
Ar  987  0.2957847E+02  0.3930880E+00  0.8198287E+01  0.1517373E+03
Ar  988  0.2692499E+02  0.2627084E+01  0.7952514E+01  0.6533096E+02
Ar  989  0.2715629E+02  0.4249380E+00  0.1105309E+02  0.3788736E+02
Ar  990  0.2970697E+02  0.2741847E+01  0.1070289E+02  0.1255982E+03
Ar  991  0.2963916E+02  0.3761411E+02  0.1362909E+02  0.3145070E+03
Ar  992  0.2650174E+02  0.2946510E+01  0.1321867E+02  0.1305321E+03
Ar  993  0.2617482E+02  0.7524144E-01  0.1612926E+02  0.3249429E+03
Ar  994  0.2974922E+02  0.2152045E+01  0.1619331E+02  0.1340611E+03
Ar  995  0.2960741E+02  0.3725831E+02  0.1884667E+02  0.6365373E+03
Ar  996  0.2691249E+02  0.2560399E+01  0.1859666E+02  0.2516666E+03
Ar  997  0.2676152E+02  0.3729301E+02  0.2129547E+02  0.1213885E+03
Ar  998  0.2955870E+02  0.2180819E+01  0.2102817E+02  0.2942737E+03
Ar  999  0.2959447E+02  0.3766825E+02  0.2373766E+02  0.1776410E+03
Ar 1000  0.2684112E+02  0.3161063E+01  0.2478484E+02  0.2514815E+03
Ar 1001  0.2690865E+02  0.6675117E-01  0.2636489E+02  0.1488944E+03
Ar 1002  0.2956025E+02  0.2869303E+01  0.2756434E+02  0.1202776E+03
Ar 1003  0.2900683E+02  0.3777972E+02  0.2930819E+02  0.1043296E+03
Ar 1004  0.2685677E+02  0.3148530E+01  0.2969583E+02  0.2738751E+03
Ar 1005  0.2717401E+02  0.3766777E+00  0.3221697E+02  0.5709825E+03
Ar 1006  0.2983249E+02  0.2534121E+01  0.3206844E+02  0.2337636E+03
Ar 1007  0.2942609E+02  0.3755841E+02  0.3534088E+02  0.1247672E+03
Ar 1008  0.2683531E+02  0.2987094E+01  0.3456501E+02  0.5731298E+02
Ar 1009  0.2703437E+02  0.5901132E+01  0.3718669E+02  0.2587395E+03
Ar 1010  0.2940644E+02  0.8566197E+01  0.3308375E+00  0.6873527E+03
Ar 1011  0.2912756E+02  0.5233392E+01  0.2542812E+01  0.6957592E+02
Ar 1012  0.2704144E+02  0.7873699E+01  0.3086171E+01  0.8589613E+02
Ar 1013  0.2630284E+02  0.5426848E+01  0.5745203E+01  0.1728303E+02
Ar 1014  0.3005762E+02  0.7285874E+01  0.5433493E+01  0.1097817E+04
Ar 1015  0.3062921E+02  0.5030380E+01  0.8040225E+01  0.4191552E+03
Ar 1016  0.2744482E+02  0.7527958E+01  0.8245052E+01  0.1042263E+03
Ar 1017  0.2761441E+02  0.5510161E+01  0.1106030E+02  0.6290133E+02
Ar 1018  0.3031551E+02  0.7527710E+01  0.1060148E+02  0.1261372E+03
Ar 1019  0.2985565E+02  0.5340213E+01  0.1466827E+02  0.4189789E+03
Ar 1020  0.2721019E+02  0.7800983E+01  0.1410027E+02  0.2986174E+02
Ar 1021  0.2667721E+02  0.5424570E+01  0.1668777E+02  0.2220641E+02
Ar 1022  0.2991732E+02  0.8751712E+01  0.1606508E+02  0.1985763E+03
Ar 1023  0.3023589E+02  0.6125402E+01  0.1891771E+02  0.1209147E+03
Ar 1024  0.2695935E+02  0.8466984E+01  0.1873768E+02  0.6974632E+02
Ar 1025  0.2716116E+02  0.5057749E+01  0.2110140E+02  0.4514022E+02
Ar 1026  0.2988563E+02  0.8822603E+01  0.2147864E+02  0.1117757E+03
Ar 1027  0.2958932E+02  0.5614156E+01  0.2446103E+02  0.4065087E+03
Ar 1028  0.2691288E+02  0.8448402E+01  0.2374499E+02  0.9344055E+03
Ar 1029  0.2677336E+02  0.5805057E+01  0.2688539E+02  0.9613295E+02
Ar 1030  0.2955442E+02  0.8234835E+01  0.2693523E+02  0.1863706E+03
Ar 1031  0.2997106E+02  0.5709419E+01  0.2970611E+02  0.1408883E+03
Ar 1032  0.2701057E+02  0.7935911E+01  0.2993097E+02  0.5890285E+03
Ar 1033  0.2710403E+02  0.5389505E+01  0.3236741E+02  0.1079570E+03
Ar 1034  0.2984802E+02  0.8062539E+01  0.3260679E+02  0.2456590E+03
Ar 1035  0.2977731E+02  0.4991576E+01  0.3509590E+02  0.1233989E+03
Ar 1036  0.2710350E+02  0.8064422E+01  0.3469564E+02  0.9014355E+02
Ar 1037  0.2656259E+02  0.1103257E+02  0.1260955E+00  0.4987847E+03
Ar 1038  0.2940861E+02  0.1352814E+02  0.3120392E-01  0.5619680E+02
Ar 1039  0.2974124E+02  0.1104309E+02  0.2655593E+01  0.2110091E+03
Ar 1040  0.2666011E+02  0.1391918E+02  0.2469972E+01  0.4015675E+03
Ar 1041  0.2683235E+02  0.1060567E+02  0.4929127E+01  0.7637588E+02
Ar 1042  0.2921926E+02  0.1382055E+02  0.4862390E+01  0.4264986E+03
Ar 1043  0.2994179E+02  0.1048146E+02  0.8682453E+01  0.1999354E+02
Ar 1044  0.2754990E+02  0.1308006E+02  0.8072669E+01  0.1728623E+03
Ar 1045  0.2704021E+02  0.1070288E+02  0.1137496E+02  0.5051378E+02
Ar 1046  0.2976800E+02  0.1392492E+02  0.1058170E+02  0.1770277E+03
Ar 1047  0.2987786E+02  0.1031929E+02  0.1308658E+02  0.2992729E+03
Ar 1048  0.2649256E+02  0.1372473E+02  0.1362074E+02  0.8874188E+03
Ar 1049  0.2716722E+02  0.1137883E+02  0.1652999E+02  0.5934142E+03
Ar 1050  0.2951478E+02  0.1400670E+02  0.1655835E+02  0.4832957E+02
Ar 1051  0.2997013E+02  0.1129310E+02  0.1922130E+02  0.6248837E+02
Ar 1052  0.2665408E+02  0.1417888E+02  0.1911518E+02  0.2247949E+03
Ar 1053  0.2690101E+02  0.1097060E+02  0.2174912E+02  0.2730058E+03
Ar 1054  0.2939463E+02  0.1378602E+02  0.2220294E+02  0.5914542E+02
Ar 1055  0.2982736E+02  0.1120913E+02  0.2438010E+02  0.1168154E+03
Ar 1056  0.2685077E+02  0.1386082E+02  0.2453405E+02  0.4961005E+03
Ar 1057  0.2688062E+02  0.1043359E+02  0.2715906E+02  0.3864532E+03
Ar 1058  0.3018517E+02  0.1348799E+02  0.2793135E+02  0.1119140E+03
Ar 1059  0.2942506E+02  0.1055035E+02  0.3016630E+02  0.3261601E+03
Ar 1060  0.2652931E+02  0.1331997E+02  0.2942672E+02  0.4471400E+03
Ar 1061  0.2695472E+02  0.1083669E+02  0.3274294E+02  0.3723030E+03
Ar 1062  0.2944396E+02  0.1338306E+02  0.3263827E+02  0.2723744E+03
Ar 1063  0.2942219E+02  0.1058968E+02  0.3551804E+02  0.2872650E+03
Ar 1064  0.2697422E+02  0.1328581E+02  0.3530003E+02  0.9747304E+02
Ar 1065  0.2706777E+02  0.1633025E+02  0.3736526E+02  0.2811756E+03
Ar 1066  0.2944026E+02  0.1893641E+02  0.1824151E+00  0.8449779E+03
Ar 1067  0.2963429E+02  0.1604181E+02  0.2164262E+01  0.4409403E+03
Ar 1068  0.2670071E+02  0.1838486E+02  0.2189910E+01  0.5174438E+02
Ar 1069  0.2658615E+02  0.1689323E+02  0.5562779E+01  0.1071288E+03
Ar 1070  0.3001949E+02  0.1866462E+02  0.5089880E+01  0.2160428E+03
Ar 1071  0.2998837E+02  0.1633501E+02  0.7595146E+01  0.1404786E+03
Ar 1072  0.2723523E+02  0.1928306E+02  0.7963861E+01  0.2846658E+03
Ar 1073  0.2706235E+02  0.1601214E+02  0.1054736E+02  0.9264174E+03
Ar 1074  0.2970381E+02  0.1882180E+02  0.1005985E+02  0.4237070E+03
Ar 1075  0.2949936E+02  0.1638399E+02  0.1360616E+02  0.1155199E+03
Ar 1076  0.2703559E+02  0.1926497E+02  0.1308715E+02  0.2299918E+03
Ar 1077  0.2681386E+02  0.1692801E+02  0.1586687E+02  0.3108720E+03
Ar 1078  0.2973158E+02  0.1934342E+02  0.1666050E+02  0.1522403E+03
Ar 1079  0.2950273E+02  0.1643778E+02  0.1913561E+02  0.2068665E+03
Ar 1080  0.2718566E+02  0.1917923E+02  0.1945393E+02  0.9015989E+02
Ar 1081  0.2714181E+02  0.1665689E+02  0.2190331E+02  0.6460383E+03
Ar 1082  0.2989978E+02  0.1930043E+02  0.2219537E+02  0.1715122E+03
Ar 1083  0.2953643E+02  0.1674439E+02  0.2515201E+02  0.2555369E+02
Ar 1084  0.2710884E+02  0.1956029E+02  0.2406295E+02  0.1980356E+03
Ar 1085  0.2672170E+02  0.1581864E+02  0.2720355E+02  0.1102056E+03
Ar 1086  0.2957291E+02  0.1892823E+02  0.2755760E+02  0.3936218E+02
Ar 1087  0.2942745E+02  0.1633913E+02  0.3022941E+02  0.5535595E+03
Ar 1088  0.2664625E+02  0.1834382E+02  0.2955553E+02  0.2660237E+03
Ar 1089  0.2673536E+02  0.1546442E+02  0.3234464E+02  0.1078160E+03
Ar 1090  0.2834490E+02  0.1881847E+02  0.3252454E+02  0.2275092E+03
Ar 1091  0.2913526E+02  0.1620512E+02  0.3494060E+02  0.4621813E+02
Ar 1092  0.2659900E+02  0.1896255E+02  0.3538970E+02  0.9921927E+02
Ar 1093  0.2719815E+02  0.2172537E+02  0.3756126E+02  0.5774469E+02
Ar 1094  0.2947290E+02  0.2426869E+02  0.3768004E+02  0.1666475E+03
Ar 1095  0.2980115E+02  0.2191505E+02  0.2449579E+01  0.7921528E+02
Ar 1096  0.2702719E+02  0.2433100E+02  0.3071611E+01  0.8320939E+03
Ar 1097  0.2683797E+02  0.2123527E+02  0.4847536E+01  0.1571716E+03
Ar 1098  0.2971991E+02  0.2465889E+02  0.5164004E+01  0.9838754E+03
Ar 1099  0.3022908E+02  0.2164722E+02  0.7715484E+01  0.6521312E+02
Ar 1100  0.2698836E+02  0.2403517E+02  0.7867087E+01  0.1133663E+03
Ar 1101  0.2758462E+02  0.2164863E+02  0.1024874E+02  0.2107003E+03
Ar 1102  0.2944571E+02  0.2445079E+02  0.1109579E+02  0.8067272E+03
Ar 1103  0.2985138E+02  0.2173593E+02  0.1321143E+02  0.1375302E+03
Ar 1104  0.2639161E+02  0.2475712E+02  0.1386609E+02  0.9800565E+02
Ar 1105  0.2702260E+02  0.2131615E+02  0.1615234E+02  0.3245626E+03
Ar 1106  0.2950815E+02  0.2397888E+02  0.1589084E+02  0.2213732E+03
Ar 1107  0.2954360E+02  0.2182429E+02  0.1899741E+02  0.5374615E+03
Ar 1108  0.2688147E+02  0.2400828E+02  0.1875201E+02  0.2815134E+03
Ar 1109  0.2735716E+02  0.2210186E+02  0.2188968E+02  0.2922510E+03
Ar 1110  0.2966408E+02  0.2469187E+02  0.2170521E+02  0.4297807E+03
Ar 1111  0.3037386E+02  0.2199480E+02  0.2473218E+02  0.1151372E+04
Ar 1112  0.2655763E+02  0.2516248E+02  0.2404204E+02  0.4362105E+03
Ar 1113  0.2714500E+02  0.2159135E+02  0.2789498E+02  0.1521606E+03
Ar 1114  0.2975555E+02  0.2400514E+02  0.2751646E+02  0.2047892E+03
Ar 1115  0.3001909E+02  0.2175567E+02  0.3005874E+02  0.1161096E+03
Ar 1116  0.2764023E+02  0.2430133E+02  0.3041812E+02  0.4537624E+03
Ar 1117  0.2651388E+02  0.2184152E+02  0.3226006E+02  0.2745966E+03
Ar 1118  0.3066336E+02  0.2390116E+02  0.3273496E+02  0.1393131E+03
Ar 1119  0.2931279E+02  0.2144644E+02  0.3473736E+02  0.3603566E+03
Ar 1120  0.2706771E+02  0.2456108E+02  0.3518769E+02  0.1306127E+03
Ar 1121  0.2619181E+02  0.2681722E+02  0.8797974E+00  0.2501426E+03
Ar 1122  0.2915669E+02  0.3022687E+02  0.3760202E+02  0.1839197E+03
Ar 1123  0.2975759E+02  0.2742110E+02  0.2012551E+01  0.2830906E+03
Ar 1124  0.2746415E+02  0.2975551E+02  0.2968445E+01  0.3280284E+03
Ar 1125  0.2727992E+02  0.2705671E+02  0.5803313E+01  0.3256118E+03
Ar 1126  0.2962949E+02  0.2975586E+02  0.5544749E+01  0.2961858E+03
Ar 1127  0.2997710E+02  0.2626014E+02  0.8202345E+01  0.2814533E+03
Ar 1128  0.2698402E+02  0.2963833E+02  0.8544296E+01  0.7841557E+02
Ar 1129  0.2710420E+02  0.2682863E+02  0.1123896E+02  0.1651659E+03
Ar 1130  0.3027791E+02  0.2976430E+02  0.1073525E+02  0.3171148E+03
Ar 1131  0.2931798E+02  0.2696528E+02  0.1388175E+02  0.7314233E+02
Ar 1132  0.2712379E+02  0.2982674E+02  0.1315683E+02  0.1903603E+03
Ar 1133  0.2616124E+02  0.2688138E+02  0.1627482E+02  0.3250233E+03
Ar 1134  0.2965092E+02  0.2940890E+02  0.1616030E+02  0.1392017E+02
Ar 1135  0.3038133E+02  0.2683762E+02  0.1836901E+02  0.2374048E+03
Ar 1136  0.2743014E+02  0.2988213E+02  0.1868412E+02  0.4685338E+03
Ar 1137  0.2708150E+02  0.2717588E+02  0.2091068E+02  0.7368651E+01
Ar 1138  0.2962404E+02  0.2903149E+02  0.2166805E+02  0.4455693E+03
Ar 1139  0.2988291E+02  0.2661093E+02  0.2473963E+02  0.2013102E+03
Ar 1140  0.2695422E+02  0.2867897E+02  0.2432065E+02  0.1326947E+03
Ar 1141  0.2706938E+02  0.2616025E+02  0.2757167E+02  0.3498462E+03
Ar 1142  0.2884986E+02  0.2919541E+02  0.2706237E+02  0.7670282E+02
Ar 1143  0.2956612E+02  0.2699254E+02  0.2987881E+02  0.5192616E+01
Ar 1144  0.2687686E+02  0.2922952E+02  0.2969948E+02  0.3998313E+03
Ar 1145  0.2731682E+02  0.2693232E+02  0.3262485E+02  0.2030418E+03
Ar 1146  0.2980584E+02  0.2997345E+02  0.3189951E+02  0.3902422E+02
Ar 1147  0.2984081E+02  0.2684902E+02  0.3502977E+02  0.1051696E+03
Ar 1148  0.2772526E+02  0.2996685E+02  0.3458737E+02  0.4817218E+02
Ar 1149  0.2687648E+02  0.3275048E+02  0.3756878E+02  0.6222261E+02
Ar 1150  0.2945948E+02  0.3482291E+02  0.1980438E+00  0.8856216E+03
Ar 1151  0.2975346E+02  0.3259707E+02  0.2881473E+01  0.6123130E+02
Ar 1152  0.2691059E+02  0.3528292E+02  0.3499486E+01  0.1218119E+03
Ar 1153  0.2719566E+02  0.3201573E+02  0.5323848E+01  0.3470553E+03
Ar 1154  0.2950611E+02  0.3547130E+02  0.5942708E+01  0.1758147E+03
Ar 1155  0.2961264E+02  0.3285309E+02  0.7846349E+01  0.3814165E+03
Ar 1156  0.2691118E+02  0.3468131E+02  0.8006308E+01  0.7934746E+02
Ar 1157  0.2720503E+02  0.3212057E+02  0.1091552E+02  0.2072553E+03
Ar 1158  0.2953903E+02  0.3523455E+02  0.1048419E+02  0.2755531E+03
Ar 1159  0.2987424E+02  0.3204656E+02  0.1320223E+02  0.5370205E+03
Ar 1160  0.2702216E+02  0.3533295E+02  0.1367339E+02  0.8381368E+02
Ar 1161  0.2696113E+02  0.3209632E+02  0.1633779E+02  0.3504697E+03
Ar 1162  0.2964460E+02  0.3517057E+02  0.1616301E+02  0.3114686E+03
Ar 1163  0.2990339E+02  0.3223076E+02  0.1894115E+02  0.6936864E+02
Ar 1164  0.2666426E+02  0.3508385E+02  0.1870028E+02  0.4635930E+02
Ar 1165  0.2755995E+02  0.3211646E+02  0.2190851E+02  0.4771085E+02
Ar 1166  0.2921586E+02  0.3518057E+02  0.2146638E+02  0.2633176E+03
Ar 1167  0.2964464E+02  0.3165963E+02  0.2453354E+02  0.5630359E+02
Ar 1168  0.2727363E+02  0.3500392E+02  0.2432728E+02  0.2497221E+03
Ar 1169  0.2736721E+02  0.3248516E+02  0.2743166E+02  0.1389673E+03
Ar 1170  0.3002768E+02  0.3541344E+02  0.2661944E+02  0.2064152E+03
Ar 1171  0.2998914E+02  0.3257475E+02  0.2953226E+02  0.1927411E+03
Ar 1172  0.2649772E+02  0.3564751E+02  0.2999081E+02  0.8695936E+02
Ar 1173  0.2687714E+02  0.3304675E+02  0.3240831E+02  0.2376041E+03
Ar 1174  0.2924367E+02  0.3550283E+02  0.3254372E+02  0.6096764E+02
Ar 1175  0.3188476E+02  0.3269092E+02  0.3229351E+02  0.1928923E+03
Ar 1176  0.2643351E+02  0.3517028E+02  0.3503937E+02  0.1367954E+03
Ar 1177  0.3212013E+02  0.1375790E-01  0.1487538E-02  0.5014876E+03
Ar 1178  0.3504685E+02  0.3086969E+01  0.3745697E+02  0.1191941E+03
Ar 1179  0.3510226E+02  0.6181354E-01  0.2871009E+01  0.2498510E+03
Ar 1180  0.3216611E+02  0.2626426E+01  0.2459640E+01  0.6765442E+02
Ar 1181  0.3247066E+02  0.3770115E+02  0.5510324E+01  0.2072208E+03
Ar 1182  0.3542366E+02  0.2796456E+01  0.5722875E+01  0.2291533E+03
Ar 1183  0.3498128E+02  0.3763139E+02  0.8092044E+01  0.2198487E+03
Ar 1184  0.3246568E+02  0.2550407E+01  0.8424768E+01  0.4160324E+03
Ar 1185  0.3217180E+02  0.3730661E+02  0.1055622E+02  0.1441674E+02
Ar 1186  0.3528351E+02  0.2359337E+01  0.1120044E+02  0.3014885E+03
Ar 1187  0.3450264E+02  0.3767141E+02  0.1367589E+02  0.1306212E+03
Ar 1188  0.3270173E+02  0.2725227E+01  0.1344330E+02  0.4405549E+03
Ar 1189  0.3211367E+02  0.3742599E+02  0.1636557E+02  0.1244642E+03
Ar 1190  0.3490423E+02  0.2330236E+01  0.1672734E+02  0.8934254E+02
Ar 1191  0.3530104E+02  0.3772073E+02  0.1931307E+02  0.1894761E+03
Ar 1192  0.3249084E+02  0.3110935E+01  0.1889267E+02  0.1407597E+03
Ar 1193  0.3243294E+02  0.3732946E+02  0.2158976E+02  0.3035382E+03
Ar 1194  0.3487226E+02  0.2677190E+01  0.2159030E+02  0.3729262E+03
Ar 1195  0.3510123E+02  0.2482466E+00  0.2397450E+02  0.1413134E+03
Ar 1196  0.3149659E+02  0.2733885E+01  0.2388731E+02  0.2604073E+03
Ar 1197  0.3251315E+02  0.3373452E+00  0.2629782E+02  0.1988030E+03
Ar 1198  0.3542737E+02  0.2752487E+01  0.2669665E+02  0.1374342E+02
Ar 1199  0.3529984E+02  0.3106342E+00  0.2941565E+02  0.5667627E+03
Ar 1200  0.3242127E+02  0.2671564E+01  0.2927077E+02  0.1373517E+03
Ar 1201  0.3202589E+02  0.3773545E+02  0.3197233E+02  0.6899885E+03
Ar 1202  0.3454913E+02  0.2421902E+01  0.3229856E+02  0.3985110E+03
Ar 1203  0.3553553E+02  0.3332884E-01  0.3451355E+02  0.2083427E+03
Ar 1204  0.3205670E+02  0.2393246E+01  0.3483221E+02  0.1402426E+03
Ar 1205  0.3224047E+02  0.4805985E+01  0.3752442E+02  0.2354798E+03
Ar 1206  0.3452620E+02  0.7610785E+01  0.2096712E+00  0.1636392E+03
Ar 1207  0.3505583E+02  0.5409397E+01  0.3010542E+01  0.2776610E+03
Ar 1208  0.3193289E+02  0.7711222E+01  0.2553182E+01  0.8471808E+02
Ar 1209  0.3293298E+02  0.4761252E+01  0.5219475E+01  0.2209993E+03
Ar 1210  0.3541782E+02  0.7791426E+01  0.5531661E+01  0.5341139E+02
Ar 1211  0.3510065E+02  0.5382447E+01  0.8081797E+01  0.2491730E+03
Ar 1212  0.3254760E+02  0.8116751E+01  0.8046920E+01  0.1475685E+03
Ar 1213  0.3268586E+02  0.4966733E+01  0.1080386E+02  0.2143642E+03
Ar 1214  0.3483444E+02  0.7933384E+01  0.1061810E+02  0.8724844E+02
Ar 1215  0.3509402E+02  0.5824050E+01  0.1323475E+02  0.1812613E+03
Ar 1216  0.3216668E+02  0.8205263E+01  0.1331047E+02  0.7432323E+02
Ar 1217  0.3309442E+02  0.5498675E+01  0.1641920E+02  0.1769616E+03
Ar 1218  0.3445102E+02  0.8947726E+01  0.1573737E+02  0.5693370E+03
Ar 1219  0.3544086E+02  0.5123081E+01  0.1925563E+02  0.1740389E+03
Ar 1220  0.3260747E+02  0.8772976E+01  0.1887195E+02  0.2044949E+03
Ar 1221  0.3284327E+02  0.5545210E+01  0.2220600E+02  0.1415564E+03
Ar 1222  0.3540951E+02  0.7887243E+01  0.2191905E+02  0.3199662E+03
Ar 1223  0.3545216E+02  0.5573538E+01  0.2505449E+02  0.4199502E+03
Ar 1224  0.3184587E+02  0.8369810E+01  0.2438818E+02  0.2478895E+02
Ar 1225  0.3259580E+02  0.5174689E+01  0.2657205E+02  0.2333605E+03
Ar 1226  0.3512315E+02  0.8163727E+01  0.2716636E+02  0.1413712E+02
Ar 1227  0.3479384E+02  0.4766429E+01  0.2945974E+02  0.5045556E+03
Ar 1228  0.3241175E+02  0.7790819E+01  0.2946501E+02  0.2438770E+03
Ar 1229  0.3199758E+02  0.5220761E+01  0.3229107E+02  0.8095360E+02
Ar 1230  0.3426374E+02  0.7988275E+01  0.3279426E+02  0.1347321E+03
Ar 1231  0.3441298E+02  0.4901208E+01  0.3473747E+02  0.2424750E+03
Ar 1232  0.3230981E+02  0.7635127E+01  0.3543477E+02  0.1533624E+03
Ar 1233  0.3236860E+02  0.1061501E+02  0.3656346E+00  0.1434282E+03
Ar 1234  0.3502111E+02  0.1341616E+02  0.3729180E+02  0.7794605E+02
Ar 1235  0.3510763E+02  0.1057430E+02  0.2581326E+01  0.1514068E+02
Ar 1236  0.3231103E+02  0.1365869E+02  0.2774179E+01  0.4814603E+03
Ar 1237  0.3220484E+02  0.1076027E+02  0.5422035E+01  0.1306693E+03
Ar 1238  0.3511232E+02  0.1328901E+02  0.5851107E+01  0.1944688E+03
Ar 1239  0.3493269E+02  0.1040932E+02  0.7866383E+01  0.7667068E+02
Ar 1240  0.3231234E+02  0.1372568E+02  0.8192658E+01  0.4092479E+03
Ar 1241  0.3274755E+02  0.1088661E+02  0.1121467E+02  0.6377796E+03
Ar 1242  0.3512593E+02  0.1368199E+02  0.1043088E+02  0.1641232E+03
Ar 1243  0.3495982E+02  0.1162383E+02  0.1356615E+02  0.1510232E+03
Ar 1244  0.3216913E+02  0.1353700E+02  0.1317299E+02  0.6634614E+02
Ar 1245  0.3233304E+02  0.1151686E+02  0.1637663E+02  0.3109554E+03
Ar 1246  0.3582047E+02  0.1378874E+02  0.1719415E+02  0.3058631E+03
Ar 1247  0.3531864E+02  0.1092473E+02  0.1966964E+02  0.3165923E+02
Ar 1248  0.3207283E+02  0.1376915E+02  0.1953583E+02  0.2231600E+03
Ar 1249  0.3276000E+02  0.1100734E+02  0.2206304E+02  0.4974829E+03
Ar 1250  0.3472779E+02  0.1367870E+02  0.2191556E+02  0.2866099E+03
Ar 1251  0.3496970E+02  0.1091706E+02  0.2468477E+02  0.3489134E+02
Ar 1252  0.3253150E+02  0.1384666E+02  0.2450573E+02  0.2633946E+03
Ar 1253  0.3201324E+02  0.1071163E+02  0.2707477E+02  0.5164432E+03
Ar 1254  0.3505852E+02  0.1328552E+02  0.2744048E+02  0.3941341E+03
Ar 1255  0.3457544E+02  0.1085103E+02  0.2996416E+02  0.7518157E+03
Ar 1256  0.3218758E+02  0.1344498E+02  0.3085712E+02  0.4532229E+03
Ar 1257  0.3197798E+02  0.1069116E+02  0.3303047E+02  0.1680142E+03
Ar 1258  0.3487732E+02  0.1280421E+02  0.3300103E+02  0.2183218E+03
Ar 1259  0.3513469E+02  0.1040907E+02  0.3559735E+02  0.1484944E+03
Ar 1260  0.3181619E+02  0.1310443E+02  0.3557082E+02  0.4686091E+02
Ar 1261  0.3198281E+02  0.1628158E+02  0.3764318E+02  0.3524944E+03
Ar 1262  0.3552394E+02  0.1839636E+02  0.3734257E+02  0.3828166E+03
Ar 1263  0.3533364E+02  0.1640127E+02  0.2366477E+01  0.1561005E+03
Ar 1264  0.3285486E+02  0.1908218E+02  0.2299849E+01  0.3080543E+03
Ar 1265  0.3277253E+02  0.1693604E+02  0.5218824E+01  0.2324420E+03
Ar 1266  0.3564772E+02  0.1970634E+02  0.5408980E+01  0.2320495E+03
Ar 1267  0.3547745E+02  0.1621080E+02  0.7833565E+01  0.1165223E+03
Ar 1268  0.3342549E+02  0.1898503E+02  0.8274317E+01  0.1588009E+03
Ar 1269  0.3238850E+02  0.1645687E+02  0.1030485E+02  0.7239845E+02
Ar 1270  0.3574881E+02  0.1881106E+02  0.1055627E+02  0.8562812E+02
Ar 1271  0.3512776E+02  0.1574353E+02  0.1394937E+02  0.4093846E+03
Ar 1272  0.3197737E+02  0.1866825E+02  0.1313818E+02  0.2479174E+02
Ar 1273  0.3252154E+02  0.1683982E+02  0.1682163E+02  0.1384412E+03
Ar 1274  0.3536324E+02  0.1858496E+02  0.1581703E+02  0.4460388E+03
Ar 1275  0.3491425E+02  0.1624968E+02  0.1901617E+02  0.1027205E+03
Ar 1276  0.3173843E+02  0.1928187E+02  0.1920716E+02  0.1395418E+03
Ar 1277  0.3204684E+02  0.1637631E+02  0.2180605E+02  0.1057211E+03
Ar 1278  0.3502678E+02  0.1857784E+02  0.2192468E+02  0.5551118E+03
Ar 1279  0.3540309E+02  0.1643838E+02  0.2459145E+02  0.3866804E+03
Ar 1280  0.3250651E+02  0.1818318E+02  0.2509376E+02  0.3059911E+03
Ar 1281  0.3262501E+02  0.1584665E+02  0.2748741E+02  0.1378237E+02
Ar 1282  0.3513402E+02  0.1836748E+02  0.2784089E+02  0.2677631E+03
Ar 1283  0.3460677E+02  0.1589272E+02  0.3046794E+02  0.1164298E+03
Ar 1284  0.3230999E+02  0.1926173E+02  0.2989779E+02  0.5335813E+02
Ar 1285  0.3185322E+02  0.1683735E+02  0.3263607E+02  0.1574407E+03
Ar 1286  0.3499580E+02  0.1869287E+02  0.3271172E+02  0.4217240E+02
Ar 1287  0.3561047E+02  0.1577084E+02  0.3503389E+02  0.6145801E+01
Ar 1288  0.3208139E+02  0.1904006E+02  0.3556852E+02  0.5477764E+03
Ar 1289  0.3266419E+02  0.2177093E+02  0.3750432E+02  0.8952863E+03
Ar 1290  0.3556769E+02  0.2428182E+02  0.3751522E+02  0.3358431E+03
Ar 1291  0.3578831E+02  0.2230385E+02  0.2605188E+01  0.4131905E+03
Ar 1292  0.3211861E+02  0.2451474E+02  0.2446759E+01  0.1323022E+03
Ar 1293  0.3233803E+02  0.2159899E+02  0.4624437E+01  0.2611487E+02
Ar 1294  0.3541898E+02  0.2417416E+02  0.5310438E+01  0.6766324E+02
Ar 1295  0.3601019E+02  0.2170187E+02  0.8527145E+01  0.2495846E+03
Ar 1296  0.3250294E+02  0.2401218E+02  0.7406743E+01  0.2215260E+03
Ar 1297  0.3251288E+02  0.2162337E+02  0.1038285E+02  0.4588993E+02
Ar 1298  0.3480057E+02  0.2454776E+02  0.1036496E+02  0.3986639E+03
Ar 1299  0.3461074E+02  0.2051002E+02  0.1302021E+02  0.4090924E+03
Ar 1300  0.3277190E+02  0.2401035E+02  0.1307092E+02  0.1967261E+03
Ar 1301  0.3253639E+02  0.2111478E+02  0.1650856E+02  0.9051509E+02
Ar 1302  0.3535775E+02  0.2418768E+02  0.1611130E+02  0.2318933E+03
Ar 1303  0.3488730E+02  0.2144594E+02  0.1864909E+02  0.3062809E+03
Ar 1304  0.3217968E+02  0.2380840E+02  0.1885912E+02  0.1187024E+03
Ar 1305  0.3230419E+02  0.2174284E+02  0.2157219E+02  0.4708829E+02
Ar 1306  0.3509431E+02  0.2369674E+02  0.2142406E+02  0.1100349E+03
Ar 1307  0.3468229E+02  0.2143720E+02  0.2404356E+02  0.3664542E+03
Ar 1308  0.3283738E+02  0.2415911E+02  0.2473033E+02  0.1752127E+03
Ar 1309  0.3303395E+02  0.2181601E+02  0.2739792E+02  0.5290390E+02
Ar 1310  0.3601279E+02  0.2421918E+02  0.2719309E+02  0.2883016E+03
Ar 1311  0.3522835E+02  0.2132673E+02  0.3004491E+02  0.4146739E+03
Ar 1312  0.3217983E+02  0.2439794E+02  0.3002644E+02  0.2038287E+03
Ar 1313  0.3250589E+02  0.2098495E+02  0.3286946E+02  0.3934971E+03
Ar 1314  0.3491548E+02  0.2430194E+02  0.3240051E+02  0.3894302E+03
Ar 1315  0.3546995E+02  0.2183302E+02  0.3525081E+02  0.1391315E+02
Ar 1316  0.3287724E+02  0.2450434E+02  0.3510500E+02  0.1315939E+03
Ar 1317  0.3256240E+02  0.2664254E+02  0.3766509E+02  0.3562583E+02
Ar 1318  0.3538297E+02  0.3016025E+02  0.3751877E+02  0.1735510E+03
Ar 1319  0.3460039E+02  0.2763845E+02  0.3138783E+01  0.7828829E+02
Ar 1320  0.3233665E+02  0.3009661E+02  0.2957436E+01  0.5263466E+02
Ar 1321  0.3210399E+02  0.2693572E+02  0.5075701E+01  0.1367757E+04
Ar 1322  0.3485687E+02  0.3008602E+02  0.5205079E+01  0.3752726E+03
Ar 1323  0.3480246E+02  0.2736429E+02  0.7706701E+01  0.3797500E+03
Ar 1324  0.3211016E+02  0.3020096E+02  0.8021666E+01  0.4335124E+03
Ar 1325  0.3267533E+02  0.2699452E+02  0.1052103E+02  0.4688809E+03
Ar 1326  0.3498600E+02  0.3002159E+02  0.1038936E+02  0.3845581E+03
Ar 1327  0.3528710E+02  0.2719709E+02  0.1309313E+02  0.3974037E+03
Ar 1328  0.3245964E+02  0.2903558E+02  0.1366360E+02  0.2421395E+03
Ar 1329  0.3222469E+02  0.2629265E+02  0.1562363E+02  0.3454035E+03
Ar 1330  0.3524158E+02  0.2971815E+02  0.1571933E+02  0.4745342E+02
Ar 1331  0.3441237E+02  0.2692340E+02  0.1846115E+02  0.1943919E+03
Ar 1332  0.3196786E+02  0.2961020E+02  0.1915924E+02  0.3113282E+03
Ar 1333  0.3229919E+02  0.2665758E+02  0.2189602E+02  0.2254030E+03
Ar 1334  0.3507621E+02  0.2892673E+02  0.2130079E+02  0.1710333E+03
Ar 1335  0.3527009E+02  0.2712888E+02  0.2431016E+02  0.1607562E+03
Ar 1336  0.3228398E+02  0.2891008E+02  0.2442629E+02  0.1853916E+03
Ar 1337  0.3261472E+02  0.2659969E+02  0.2726503E+02  0.1739594E+03
Ar 1338  0.3493460E+02  0.2973565E+02  0.2716792E+02  0.4193453E+02
Ar 1339  0.3489590E+02  0.2764077E+02  0.2995441E+02  0.6193766E+02
Ar 1340  0.3201041E+02  0.2999824E+02  0.2904998E+02  0.2523792E+03
Ar 1341  0.3205313E+02  0.2718517E+02  0.3226018E+02  0.2334316E+03
Ar 1342  0.3442759E+02  0.3034588E+02  0.3260616E+02  0.3826272E+03
Ar 1343  0.3509110E+02  0.2714323E+02  0.3481564E+02  0.2683788E+02
Ar 1344  0.3206996E+02  0.2953556E+02  0.3534395E+02  0.1155676E+03
Ar 1345  0.2949469E+02  0.3295772E+02  0.3496585E+02  0.2580453E+03
Ar 1346  0.1200178E+00  0.3559042E+02  0.2913578E+01  0.4259183E+02
Ar 1347  0.3463274E+02  0.3256339E+02  0.2776451E+01  0.1726205E+03
Ar 1348  0.3170548E+02  0.3527431E+02  0.3161026E+01  0.3333453E+03
Ar 1349  0.3198202E+02  0.3254975E+02  0.5241080E+01  0.1854636E+03
Ar 1350  0.3517215E+02  0.3516688E+02  0.5317257E+01  0.2085358E+03
Ar 1351  0.3488089E+02  0.3272083E+02  0.7953838E+01  0.2144764E+03
Ar 1352  0.3228672E+02  0.3499317E+02  0.7990565E+01  0.6048197E+02
Ar 1353  0.3289064E+02  0.3266239E+02  0.1074012E+02  0.5487815E+03
Ar 1354  0.3503225E+02  0.3535051E+02  0.1123939E+02  0.7004122E+02
Ar 1355  0.3505431E+02  0.3256664E+02  0.1359224E+02  0.1409245E+02
Ar 1356  0.3210015E+02  0.3504034E+02  0.1330074E+02  0.8946859E+03
Ar 1357  0.3224080E+02  0.3180084E+02  0.1632393E+02  0.3694394E+03
Ar 1358  0.3529325E+02  0.3592962E+02  0.1634105E+02  0.8411072E+02
Ar 1359  0.3468383E+02  0.3169107E+02  0.1919741E+02  0.4623537E+03
Ar 1360  0.3280728E+02  0.3458055E+02  0.1876714E+02  0.1473373E+03
Ar 1361  0.3181566E+02  0.3230984E+02  0.2190704E+02  0.4647015E+02
Ar 1362  0.3517410E+02  0.3473956E+02  0.2137945E+02  0.4908715E+03
Ar 1363  0.3490239E+02  0.3182789E+02  0.2409984E+02  0.5195415E+02
Ar 1364  0.3234863E+02  0.3471050E+02  0.2415827E+02  0.1730622E+03
Ar 1365  0.3228995E+02  0.3258442E+02  0.2699601E+02  0.2440941E+03
Ar 1366  0.3522548E+02  0.3517785E+02  0.2756396E+02  0.2988418E+02
Ar 1367  0.3516386E+02  0.3220036E+02  0.2941294E+02  0.3786691E+03
Ar 1368  0.3211425E+02  0.3552019E+02  0.2932913E+02  0.8809117E+02
Ar 1369  0.3257828E+02  0.3239763E+02  0.3763588E+02  0.2310373E+03
Ar 1370  0.3439495E+02  0.3511104E+02  0.3202834E+02  0.3725067E+03
Ar 1371  0.3405291E+02  0.3284315E+02  0.3462836E+02  0.2470928E+03
Ar 1372  0.3227860E+02  0.3583745E+02  0.3480304E+02  0.4701962E+02
