        1372
Lattice="  0.3778015E+02  0.0000000E+00  0.0000000E+00  0.0000000E+00  0.3778015E+02  0.0000000E+00  0.0000000E+00  0.0000000E+00  0.3778015E+02" Properties=species:S:1:id:I:1:pos:R:3:tempK:R:1
Ar    1  0.3759735E+02  0.3763564E+02  0.1943074E+00  0.9726212E+02
Ar    2  0.2878553E+01  0.2661516E+01  0.1112470E+01  0.9194307E+02
Ar    3  0.2215319E+01  0.3729083E+02  0.2689427E+01  0.1491835E+03
Ar    4  0.3751193E+02  0.2597601E+01  0.3188452E+01  0.5508315E+02
Ar    5  0.3747368E+02  0.3723827E+02  0.5607147E+01  0.1366542E+03
Ar    6  0.2714259E+01  0.2480124E+01  0.5517738E+01  0.4592153E+03
Ar    7  0.2568637E+01  0.3767332E+02  0.7845665E+01  0.1685148E+02
Ar    8  0.3747724E+02  0.2504860E+01  0.7556244E+01  0.3118986E+03
Ar    9  0.3757960E+02  0.1736586E+00  0.1094678E+02  0.1702849E+03
Ar   10  0.3003067E+01  0.2312427E+01  0.1059956E+02  0.1134332E+03
Ar   11  0.2553099E+01  0.3744429E+02  0.1354920E+02  0.3546552E+03
Ar   12  0.9218252E-01  0.2913312E+01  0.1335145E+02  0.6048121E+03
Ar   13  0.3764457E+02  0.3518176E+00  0.1611818E+02  0.1662867E+02
Ar   14  0.2758104E+01  0.2532243E+01  0.1631699E+02  0.7412554E+02
Ar   15  0.2793049E+01  0.3764193E+02  0.1904067E+02  0.7006636E+03
Ar   16  0.3766457E+02  0.2871571E+01  0.1867862E+02  0.5985251E+03
Ar   17  0.3752128E+02  0.6058889E+00  0.2124994E+02  0.5102186E+03
Ar   18  0.2528222E+01  0.2946503E+01  0.2126090E+02  0.2055733E+03
Ar   19  0.3129899E+01  0.3763124E+02  0.2406702E+02  0.4395090E+03
Ar   20  0.2297641E+00  0.2518463E+01  0.2436466E+02  0.7317765E+02
Ar   21  0.3777465E+02  0.4583238E+00  0.2725073E+02  0.2450594E+03
Ar   22  0.3102068E+01  0.2172380E+01  0.2660942E+02  0.1499569E+03
Ar   23  0.2966162E+01  0.6953887E-02  0.2926333E+02  0.1982859E+03
Ar   24  0.6031745E+00  0.2596811E+01  0.3020474E+02  0.4604429E+03
Ar   25  0.3766528E+02  0.3222342E-01  0.3200211E+02  0.3042789E+03
Ar   26  0.2950090E+01  0.2375991E+01  0.3237008E+02  0.4790406E+01
Ar   27  0.2228607E+01  0.3769960E+02  0.3569748E+02  0.6295418E+03
Ar   28  0.5966174E+00  0.2623124E+01  0.3495014E+02  0.3846280E+03
Ar   29  0.3764685E+02  0.5212154E+01  0.3763773E+02  0.9607721E+02
Ar   30  0.2563808E+01  0.7844583E+01  0.5129712E+00  0.1219050E+03
Ar   31  0.2880032E+01  0.5729242E+01  0.3073837E+01  0.3023173E+02
Ar   32  0.3762274E+02  0.8388569E+01  0.3277845E+01  0.3884205E+03
Ar   33  0.3854895E+00  0.5128344E+01  0.5426445E+01  0.5231603E+03
Ar   34  0.2488601E+01  0.8058374E+01  0.5867839E+01  0.9622182E+02
Ar   35  0.2712235E+01  0.5067393E+01  0.7687614E+01  0.1602807E+03
Ar   36  0.3746028E+02  0.7667395E+01  0.7946213E+01  0.3208149E+03
Ar   37  0.1454847E+00  0.4772061E+01  0.1040880E+02  0.3445558E+03
Ar   38  0.2684559E+01  0.7586321E+01  0.1071234E+02  0.6238836E+02
Ar   39  0.2723276E+01  0.5189273E+01  0.1320503E+02  0.7580531E+02
Ar   40  0.3770662E+02  0.6980155E+01  0.1309387E+02  0.4790258E+01
Ar   41  0.1544036E+00  0.5216517E+01  0.1590747E+02  0.2783274E+03
Ar   42  0.3038880E+01  0.7776311E+01  0.1647539E+02  0.1629110E+02
Ar   43  0.2727626E+01  0.5131387E+01  0.1873855E+02  0.6584253E+02
Ar   44  0.2853999E+00  0.8771714E+01  0.1872220E+02  0.5390212E+03
Ar   45  0.5882489E-02  0.5898753E+01  0.2099733E+02  0.3948896E+03
Ar   46  0.3177347E+01  0.7611273E+01  0.2249136E+02  0.2239582E+03
Ar   47  0.2887461E+01  0.4701137E+01  0.2416880E+02  0.3534088E+03
Ar   48  0.3764200E+02  0.8244075E+01  0.2412430E+02  0.1807490E+03
Ar   49  0.3969727E+00  0.5609538E+01  0.2683940E+02  0.7025991E+03
Ar   50  0.3192786E+01  0.7411517E+01  0.2668665E+02  0.1780169E+02
Ar   51  0.2996274E+01  0.5448644E+01  0.2946775E+02  0.1534612E+03
Ar   52  0.1175523E+00  0.7869844E+01  0.3019280E+02  0.7009094E+03
Ar   53  0.3735201E+02  0.5128673E+01  0.3273878E+02  0.1838486E+03
Ar   54  0.2708642E+01  0.7845341E+01  0.3244619E+02  0.8062305E+02
Ar   55  0.2469288E+01  0.5434483E+01  0.3519230E+02  0.1543838E+03
Ar   56  0.1747887E+00  0.8363237E+01  0.3497405E+02  0.1942077E+03
Ar   57  0.1861253E+00  0.1040296E+02  0.5040225E-01  0.1828036E+03
Ar   58  0.2724075E+01  0.1398568E+02  0.3767236E+02  0.2918038E+02
Ar   59  0.2374533E+01  0.1062665E+02  0.3005352E+01  0.2395299E+03
Ar   60  0.4168715E+00  0.1353342E+02  0.2671702E+01  0.3217498E+03
Ar   61  0.3745019E+02  0.1116681E+02  0.5494175E+01  0.1736854E+03
Ar   62  0.2456910E+01  0.1305306E+02  0.5727409E+01  0.7534535E+02
Ar   63  0.2431487E+01  0.1062852E+02  0.8360715E+01  0.1732673E+03
Ar   64  0.1362751E+00  0.1321458E+02  0.8249722E+01  0.5076960E+03
Ar   65  0.3851908E-01  0.1052843E+02  0.1075521E+02  0.1356841E+03
Ar   66  0.2044363E+01  0.1374348E+02  0.1105657E+02  0.1894112E+03
Ar   67  0.2264916E+01  0.1067453E+02  0.1367788E+02  0.3447432E+03
Ar   68  0.6717126E-01  0.1354946E+02  0.1352095E+02  0.2103877E+03
Ar   69  0.3752128E+02  0.1081064E+02  0.1571974E+02  0.1460892E+03
Ar   70  0.2605509E+01  0.1380434E+02  0.1646082E+02  0.1516226E+03
Ar   71  0.2772264E+01  0.1128461E+02  0.1909935E+02  0.4899762E+02
Ar   72  0.3775953E+02  0.1327595E+02  0.1949897E+02  0.6913189E+03
Ar   73  0.1678986E+00  0.1082030E+02  0.2186970E+02  0.4662155E+03
Ar   74  0.2593716E+01  0.1342523E+02  0.2232820E+02  0.3384689E+03
Ar   75  0.2720126E+01  0.1061835E+02  0.2431427E+02  0.4098376E+03
Ar   76  0.3766982E+02  0.1302754E+02  0.2457950E+02  0.8341986E+02
Ar   77  0.1626464E+00  0.1028404E+02  0.2719254E+02  0.3319007E+03
Ar   78  0.2610727E+01  0.1299941E+02  0.2664760E+02  0.4282856E+03
Ar   79  0.2667390E+01  0.1034586E+02  0.2933443E+02  0.4504974E+03
Ar   80  0.3901633E+00  0.1325196E+02  0.2947832E+02  0.1331531E+03
Ar   81  0.4574135E+00  0.1090193E+02  0.3212004E+02  0.1375147E+03
Ar   82  0.2593624E+01  0.1343933E+02  0.3321540E+02  0.4987318E+03
Ar   83  0.2946197E+01  0.1058651E+02  0.3583673E+02  0.1073796E+03
Ar   84  0.8025637E-01  0.1331926E+02  0.3556513E+02  0.9206462E+02
Ar   85  0.3762508E+02  0.1620733E+02  0.3754392E+02  0.1815643E+03
Ar   86  0.2271994E+01  0.1881726E+02  0.3131313E-01  0.9057540E+02
Ar   87  0.2720261E+01  0.1635362E+02  0.2762079E+01  0.9848846E+03
Ar   88  0.3720481E-01  0.1858276E+02  0.3168555E+01  0.3756892E+02
Ar   89  0.2108145E+00  0.1601835E+02  0.5617132E+01  0.1628711E+03
Ar   90  0.2788376E+01  0.1894317E+02  0.5403046E+01  0.4827900E+03
Ar   91  0.2824576E+01  0.1623605E+02  0.8458021E+01  0.4360249E+03
Ar   92  0.3770547E+02  0.1894190E+02  0.7625329E+01  0.8934211E+03
Ar   93  0.3773703E+02  0.1619087E+02  0.1072021E+02  0.4836719E+02
Ar   94  0.2724419E+01  0.1891025E+02  0.1027511E+02  0.9660238E+02
Ar   95  0.2686475E+01  0.1616897E+02  0.1410011E+02  0.1095596E+03
Ar   96  0.2351311E+00  0.1869329E+02  0.1388452E+02  0.6686000E+03
Ar   97  0.2099147E+00  0.1625591E+02  0.1740197E+02  0.9681850E+02
Ar   98  0.2011565E+01  0.1910429E+02  0.1677841E+02  0.7933309E+03
Ar   99  0.2562141E+01  0.1607157E+02  0.2013949E+02  0.1877944E+03
Ar  100  0.1445810E+00  0.1938457E+02  0.1959571E+02  0.1208225E+03
Ar  101  0.3767123E+02  0.1612946E+02  0.2217066E+02  0.2650566E+03
Ar  102  0.3316379E+01  0.1898286E+02  0.2241172E+02  0.1915962E+03
Ar  103  0.3033007E+01  0.1620459E+02  0.2466279E+02  0.1237174E+04
Ar  104  0.3070014E+00  0.1898278E+02  0.2529276E+02  0.2329221E+03
Ar  105  0.4057985E+00  0.1585784E+02  0.2715511E+02  0.1091495E+03
Ar  106  0.3001102E+01  0.1892957E+02  0.2776132E+02  0.3108331E+03
Ar  107  0.2627416E+01  0.1595202E+02  0.2989086E+02  0.2232628E+03
Ar  108  0.3768488E+02  0.1948027E+02  0.2924128E+02  0.1036048E+03
Ar  109  0.4964983E+00  0.1589411E+02  0.3229021E+02  0.1826577E+03
Ar  110  0.2407527E+01  0.1873124E+02  0.3216734E+02  0.4957843E+02
Ar  111  0.2524707E+01  0.1627486E+02  0.3519947E+02  0.4612810E+03
Ar  112  0.3735205E+02  0.1875206E+02  0.3511396E+02  0.3588176E+03
Ar  113  0.3706425E+02  0.2169996E+02  0.5598284E+00  0.1908713E+03
Ar  114  0.2714688E+01  0.2375200E+02  0.3755524E+02  0.7876390E+02
Ar  115  0.2566455E+01  0.2169961E+02  0.2564073E+01  0.5381376E+03
Ar  116  0.1414505E-01  0.2448200E+02  0.2538392E+01  0.4166635E+02
Ar  117  0.1039876E+00  0.2159992E+02  0.5067561E+01  0.3209753E+03
Ar  118  0.2461582E+01  0.2396148E+02  0.5531372E+01  0.1253007E+03
Ar  119  0.2827021E+01  0.2139456E+02  0.7982377E+01  0.1794550E+03
Ar  120  0.3699029E+02  0.2441298E+02  0.8124700E+01  0.1416369E+03
Ar  121  0.3698722E+02  0.2138424E+02  0.1048142E+02  0.1204298E+03
Ar  122  0.1992338E+01  0.2371868E+02  0.1026921E+02  0.4370755E+03
Ar  123  0.2061068E+01  0.2139351E+02  0.1297054E+02  0.1760497E+03
Ar  124  0.3770124E+02  0.2433262E+02  0.1346001E+02  0.2192206E+03
Ar  125  0.3747783E+02  0.2179735E+02  0.1676757E+02  0.1041288E+03
Ar  126  0.3121970E+01  0.2390526E+02  0.1555086E+02  0.6469781E+03
Ar  127  0.2398360E+01  0.2174766E+02  0.1925911E+02  0.2781663E+03
Ar  128  0.3758470E+02  0.2418667E+02  0.2011636E+02  0.1169175E+03
Ar  129  0.4928313E-01  0.2144898E+02  0.2286263E+02  0.6993098E+03
Ar  130  0.2765675E+01  0.2358899E+02  0.2245200E+02  0.5017530E+03
Ar  131  0.3093993E+01  0.2162454E+02  0.2504704E+02  0.5464250E+02
Ar  132  0.3694188E+02  0.2441579E+02  0.2427385E+02  0.5177824E+03
Ar  133  0.3744050E+02  0.2222287E+02  0.2693856E+02  0.1374723E+03
Ar  134  0.2457781E+01  0.2474128E+02  0.2701378E+02  0.4083041E+03
Ar  135  0.2692659E+01  0.2149666E+02  0.2963179E+02  0.1391856E+03
Ar  136  0.3741308E+02  0.2465209E+02  0.2957006E+02  0.8813072E+02
Ar  137  0.1808129E+00  0.2127103E+02  0.3220730E+02  0.1942052E+03
Ar  138  0.2370805E+01  0.2435081E+02  0.3193284E+02  0.8290428E+03
Ar  139  0.2258451E+01  0.2124057E+02  0.3501844E+02  0.2502031E+03
Ar  140  0.6630418E-02  0.2354349E+02  0.3481936E+02  0.7553955E+02
Ar  141  0.7494891E-01  0.2725147E+02  0.3726970E+02  0.8887028E+02
Ar  142  0.2472494E+01  0.2942606E+02  0.3692567E+02  0.5622887E+03
Ar  143  0.2839289E+01  0.2675444E+02  0.1609517E+01  0.3210790E+03
Ar  144  0.2861734E+00  0.2942796E+02  0.2449224E+01  0.1596539E+03
Ar  145  0.3774642E+02  0.2713323E+02  0.4901955E+01  0.1075330E+04
Ar  146  0.2471183E+01  0.2934429E+02  0.5381809E+01  0.2273766E+03
Ar  147  0.1752438E+01  0.2664859E+02  0.7799931E+01  0.3119252E+03
Ar  148  0.3739603E+02  0.2954206E+02  0.7730302E+01  0.1398920E+03
Ar  149  0.3743185E+02  0.2687473E+02  0.1087707E+02  0.1943048E+03
Ar  150  0.1893025E+01  0.2929603E+02  0.1058915E+02  0.9009412E+03
Ar  151  0.3006163E+01  0.2630052E+02  0.1293735E+02  0.5019803E+03
Ar  152  0.3763271E+02  0.2971316E+02  0.1305029E+02  0.5974666E+02
Ar  153  0.9740908E+00  0.2655752E+02  0.1674198E+02  0.5367975E+03
Ar  154  0.2789486E+01  0.2961537E+02  0.1590981E+02  0.2311798E+03
Ar  155  0.3027083E+01  0.2648149E+02  0.1933365E+02  0.1284659E+03
Ar  156  0.1296570E+00  0.2894640E+02  0.1923603E+02  0.4166629E+02
Ar  157  0.1939820E+00  0.2684163E+02  0.2214106E+02  0.2679547E+03
Ar  158  0.3027430E+01  0.3000795E+02  0.2177341E+02  0.2145497E+03
Ar  159  0.3350251E+01  0.2697040E+02  0.2420319E+02  0.1675956E+03
Ar  160  0.2811604E+00  0.2946374E+02  0.2416423E+02  0.1046966E+03
Ar  161  0.1001224E+00  0.2726041E+02  0.2660988E+02  0.3648491E+03
Ar  162  0.2785739E+01  0.3013579E+02  0.2669365E+02  0.4903294E+03
Ar  163  0.2347146E+01  0.2717655E+02  0.2957494E+02  0.5712453E+02
Ar  164  0.3756053E+02  0.2996179E+02  0.2955896E+02  0.3633116E+03
Ar  165  0.3737851E+02  0.2678315E+02  0.3237826E+02  0.8858202E+02
Ar  166  0.2460574E+01  0.2950903E+02  0.3197829E+02  0.3421365E+03
Ar  167  0.3214563E+01  0.2682479E+02  0.3511760E+02  0.1376218E+03
Ar  168  0.5463620E-01  0.2935055E+02  0.3469121E+02  0.1155868E+03
Ar  169  0.2036570E+00  0.3196950E+02  0.1323708E+00  0.1770244E+03
Ar  170  0.2470171E+01  0.3467383E+02  0.2558295E-01  0.3377325E+03
Ar  171  0.2897165E+01  0.3180133E+02  0.2403494E+01  0.2254460E+03
Ar  172  0.3571663E+02  0.3456234E+02  0.3777366E+02  0.4521821E+03
Ar  173  0.2226720E+00  0.3243003E+02  0.5133247E+01  0.5645618E+03
Ar  174  0.2359675E+01  0.3506267E+02  0.5220388E+01  0.6899674E+02
Ar  175  0.2447495E+01  0.3217839E+02  0.8137028E+01  0.1792969E+03
Ar  176  0.3745311E+02  0.3501324E+02  0.8218918E+01  0.2939733E+03
Ar  177  0.3766240E+02  0.3209078E+02  0.1073164E+02  0.4186277E+03
Ar  178  0.2205865E+01  0.3523721E+02  0.1045399E+02  0.3905871E+02
Ar  179  0.2884040E+01  0.3202241E+02  0.1284652E+02  0.2223238E+03
Ar  180  0.3845445E-01  0.3468389E+02  0.1359629E+02  0.2542121E+02
Ar  181  0.3202191E+00  0.3238166E+02  0.1659543E+02  0.4536701E+03
Ar  182  0.2311640E+01  0.3511428E+02  0.1650530E+02  0.2270882E+03
Ar  183  0.3249272E+01  0.3173673E+02  0.1894860E+02  0.2730572E+03
Ar  184  0.3733531E+02  0.3573339E+02  0.1889174E+02  0.3730721E+03
Ar  185  0.3777136E+02  0.3265358E+02  0.2108612E+02  0.7131369E+02
Ar  186  0.2806092E+01  0.3442844E+02  0.2115645E+02  0.3292912E+02
Ar  187  0.2251194E+01  0.3233392E+02  0.2412951E+02  0.1346414E+02
Ar  188  0.3739918E+00  0.3538163E+02  0.2352541E+02  0.3170375E+03
Ar  189  0.4752198E-01  0.3258794E+02  0.2682803E+02  0.2135938E+03
Ar  190  0.2472899E+01  0.3505663E+02  0.2673973E+02  0.1069791E+03
Ar  191  0.2512475E+01  0.3195172E+02  0.2947973E+02  0.2112292E+03
Ar  192  0.4691288E-01  0.3510861E+02  0.2952216E+02  0.9385763E+01
Ar  193  0.1376194E+00  0.3245886E+02  0.3255425E+02  0.1126819E+03
Ar  194  0.2621787E+01  0.3493308E+02  0.3158228E+02  0.9541176E+03
Ar  195  0.2693711E+01  0.3229158E+02  0.3465431E+02  0.2708871E+03
Ar  196  0.2803503E-01  0.3515287E+02  0.3482449E+02  0.1255468E+03
Ar  197  0.4985712E+01  0.3736218E+02  0.6723713E+00  0.9671965E+02
Ar  198  0.7812176E+01  0.3064629E+01  0.3831310E+00  0.1553570E+03
Ar  199  0.8563608E+01  0.3765967E+02  0.3065243E+01  0.2799162E+02
Ar  200  0.5784090E+01  0.2414938E+01  0.3309845E+01  0.6529976E+03
Ar  201  0.5060957E+01  0.3705094E+02  0.4932857E+01  0.1201792E+02
Ar  202  0.8525647E+01  0.2498971E+01  0.5320777E+01  0.4001424E+03
Ar  203  0.7794390E+01  0.3775603E+02  0.7761587E+01  0.5482644E+02
Ar  204  0.5556995E+01  0.2430662E+01  0.7822034E+01  0.7630632E+02
Ar  205  0.5642450E+01  0.3750482E+02  0.1062753E+02  0.6020283E+02
Ar  206  0.7843267E+01  0.2772281E+01  0.1054848E+02  0.4856687E+03
Ar  207  0.7861582E+01  0.3760344E+02  0.1331742E+02  0.1273122E+03
Ar  208  0.5348494E+01  0.2013836E+01  0.1323469E+02  0.2741762E+03
Ar  209  0.5535062E+01  0.3737274E+02  0.1605807E+02  0.5365057E+03
Ar  210  0.8649370E+01  0.2792798E+01  0.1659004E+02  0.1560456E+03
Ar  211  0.8092217E+01  0.3724935E+02  0.1871270E+02  0.8191690E+02
Ar  212  0.5562550E+01  0.2257582E+01  0.1894373E+02  0.2729750E+03
Ar  213  0.5132216E+01  0.3708640E+02  0.2114721E+02  0.4620770E+03
Ar  214  0.8357156E+01  0.3100859E+01  0.2135617E+02  0.1421626E+03
Ar  215  0.7639345E+01  0.3693903E+02  0.2370218E+02  0.5511863E+02
Ar  216  0.5521880E+01  0.2346933E+01  0.2394178E+02  0.1708392E+03
Ar  217  0.5608766E+01  0.3724484E+02  0.2637016E+02  0.1344418E+03
Ar  218  0.8341263E+01  0.2096178E+01  0.2598194E+02  0.3094985E+03
Ar  219  0.7567007E+01  0.9914534E-01  0.2888698E+02  0.1665545E+03
Ar  220  0.5267394E+01  0.2684831E+01  0.2959097E+02  0.2904485E+03
Ar  221  0.5245495E+01  0.3772569E+02  0.3223185E+02  0.1779511E+03
Ar  222  0.7635343E+01  0.2759908E+01  0.3228192E+02  0.4128083E+03
Ar  223  0.7747654E+01  0.3716501E+00  0.3557112E+02  0.2927688E+03
Ar  224  0.4824268E+01  0.2349183E+01  0.3532296E+02  0.6292828E+02
Ar  225  0.5072432E+01  0.5369693E+01  0.3749864E+02  0.2624232E+03
Ar  226  0.7681889E+01  0.7752389E+01  0.3744115E+02  0.3422106E+03
Ar  227  0.7970857E+01  0.5016101E+01  0.3407185E+01  0.5831305E+02
Ar  228  0.5647761E+01  0.7923292E+01  0.2752359E+01  0.1421363E+03
Ar  229  0.5379210E+01  0.5214982E+01  0.5573951E+01  0.4793431E+02
Ar  230  0.8242024E+01  0.7929255E+01  0.5299054E+01  0.4117988E+03
Ar  231  0.8228295E+01  0.4818111E+01  0.7885603E+01  0.8938291E+02
Ar  232  0.5438213E+01  0.8037412E+01  0.7850107E+01  0.1124441E+03
Ar  233  0.5593069E+01  0.5358631E+01  0.1058970E+02  0.9422944E+02
Ar  234  0.8246289E+01  0.8191294E+01  0.1080752E+02  0.1552785E+03
Ar  235  0.8081727E+01  0.5438978E+01  0.1320622E+02  0.5761460E+03
Ar  236  0.5130497E+01  0.8423181E+01  0.1369960E+02  0.2878536E+03
Ar  237  0.5226480E+01  0.4975164E+01  0.1611163E+02  0.7243798E+02
Ar  238  0.7455359E+01  0.8549700E+01  0.1665972E+02  0.2629845E+03
Ar  239  0.8647870E+01  0.5500835E+01  0.1880989E+02  0.1156228E+03
Ar  240  0.4935248E+01  0.8256788E+01  0.1940469E+02  0.2208093E+03
Ar  241  0.5960147E+01  0.5587743E+01  0.2164985E+02  0.1802162E+03
Ar  242  0.8113476E+01  0.8417329E+01  0.2152446E+02  0.6106333E+02
Ar  243  0.8352158E+01  0.5993903E+01  0.2413649E+02  0.1739859E+03
Ar  244  0.5658595E+01  0.8006474E+01  0.2466763E+02  0.2200537E+03
Ar  245  0.5690046E+01  0.4560939E+01  0.2673652E+02  0.4992792E+01
Ar  246  0.8180276E+01  0.8347900E+01  0.2688450E+02  0.3084231E+03
Ar  247  0.7441367E+01  0.5863325E+01  0.2957166E+02  0.9364482E+02
Ar  248  0.5086425E+01  0.8273365E+01  0.2970452E+02  0.2747011E+03
Ar  249  0.5253165E+01  0.5468773E+01  0.3279695E+02  0.2630816E+03
Ar  250  0.7886586E+01  0.7636722E+01  0.3246467E+02  0.2752373E+03
Ar  251  0.8131107E+01  0.5190966E+01  0.3499449E+02  0.1397900E+03
Ar  252  0.5367851E+01  0.8099800E+01  0.3503540E+02  0.1627980E+03
Ar  253  0.5396636E+01  0.1044660E+02  0.7615146E+00  0.1201854E+03
Ar  254  0.7812673E+01  0.1308721E+02  0.2702822E+00  0.2907864E+03
Ar  255  0.8354000E+01  0.1016502E+02  0.2721237E+01  0.1548569E+03
Ar  256  0.5084729E+01  0.1330253E+02  0.2664258E+01  0.3000742E+03
Ar  257  0.5085878E+01  0.1066863E+02  0.5570804E+01  0.2382624E+02
Ar  258  0.7985000E+01  0.1298129E+02  0.5718212E+01  0.2803889E+03
Ar  259  0.7523420E+01  0.1064882E+02  0.8180342E+01  0.1424379E+03
Ar  260  0.4434758E+01  0.1314007E+02  0.8167898E+01  0.1625563E+03
Ar  261  0.4961632E+01  0.1056961E+02  0.1091210E+02  0.3340135E+02
Ar  262  0.7827296E+01  0.1280268E+02  0.1133452E+02  0.2888356E+03
Ar  263  0.7762570E+01  0.1072680E+02  0.1425381E+02  0.9621135E+02
Ar  264  0.4764582E+01  0.1345542E+02  0.1407307E+02  0.3985054E+03
Ar  265  0.4806948E+01  0.1101030E+02  0.1619280E+02  0.5261671E+03
Ar  266  0.7627867E+01  0.1386342E+02  0.1628280E+02  0.1221937E+03
Ar  267  0.7260269E+01  0.1124072E+02  0.1871305E+02  0.7351337E+02
Ar  268  0.5111598E+01  0.1391086E+02  0.1951805E+02  0.6457174E+03
Ar  269  0.5537907E+01  0.1105225E+02  0.2179200E+02  0.1832974E+03
Ar  270  0.8222285E+01  0.1358473E+02  0.2148922E+02  0.8739563E+02
Ar  271  0.7945089E+01  0.1085506E+02  0.2462416E+02  0.1926875E+03
Ar  272  0.5526805E+01  0.1334568E+02  0.2444576E+02  0.2038882E+03
Ar  273  0.5151418E+01  0.1081226E+02  0.2715640E+02  0.3250148E+03
Ar  274  0.8598430E+01  0.1360188E+02  0.2670261E+02  0.2298652E+03
Ar  275  0.7921698E+01  0.1087103E+02  0.2942895E+02  0.4539300E+02
Ar  276  0.4706847E+01  0.1322006E+02  0.3014447E+02  0.5050814E+03
Ar  277  0.4957937E+01  0.1074880E+02  0.3248140E+02  0.1031881E+02
Ar  278  0.7669779E+01  0.1308653E+02  0.3218859E+02  0.9278988E+02
Ar  279  0.7624938E+01  0.1069943E+02  0.3507697E+02  0.5281517E+03
Ar  280  0.5414104E+01  0.1328882E+02  0.3485642E+02  0.1919664E+02
Ar  281  0.5558123E+01  0.1588704E+02  0.3201714E-01  0.2601488E+02
Ar  282  0.8072179E+01  0.1864808E+02  0.3770736E+02  0.3509983E+03
Ar  283  0.7920341E+01  0.1579393E+02  0.2990743E+01  0.1013983E+03
Ar  284  0.5613428E+01  0.1861762E+02  0.2912790E+01  0.2480377E+03
Ar  285  0.5244091E+01  0.1576097E+02  0.5287411E+01  0.1400091E+03
Ar  286  0.7934731E+01  0.1873428E+02  0.5480174E+01  0.3274668E+03
Ar  287  0.7479907E+01  0.1588588E+02  0.8526984E+01  0.3757659E+03
Ar  288  0.5428712E+01  0.1851762E+02  0.7821774E+01  0.1255800E+03
Ar  289  0.5430775E+01  0.1628159E+02  0.1152003E+02  0.4989711E+03
Ar  290  0.7970755E+01  0.1860040E+02  0.1032271E+02  0.2866567E+03
Ar  291  0.8317635E+01  0.1629139E+02  0.1317987E+02  0.3262681E+03
Ar  292  0.4491008E+01  0.1955018E+02  0.1383332E+02  0.2435244E+03
Ar  293  0.4834829E+01  0.1629449E+02  0.1686994E+02  0.1895130E+03
Ar  294  0.7678870E+01  0.1844257E+02  0.1578644E+02  0.5097351E+03
Ar  295  0.7886515E+01  0.1667800E+02  0.1877229E+02  0.3594411E+03
Ar  296  0.5435923E+01  0.1922610E+02  0.1914908E+02  0.2768823E+02
Ar  297  0.5784467E+01  0.1599881E+02  0.2188889E+02  0.1546436E+03
Ar  298  0.7899686E+01  0.1884060E+02  0.2193452E+02  0.1276249E+03
Ar  299  0.8429922E+01  0.1640004E+02  0.2436634E+02  0.3773441E+03
Ar  300  0.5455542E+01  0.1885636E+02  0.2503450E+02  0.1717501E+03
Ar  301  0.5103586E+01  0.1584923E+02  0.2733455E+02  0.9862993E+02
Ar  302  0.8535977E+01  0.1857744E+02  0.2686589E+02  0.3796641E+03
Ar  303  0.8026892E+01  0.1570346E+02  0.2965636E+02  0.4423470E+03
Ar  304  0.5188472E+01  0.1857062E+02  0.2997682E+02  0.1995428E+03
Ar  305  0.5215123E+01  0.1593403E+02  0.3249334E+02  0.6829062E+02
Ar  306  0.7792340E+01  0.1835572E+02  0.3248264E+02  0.1026228E+03
Ar  307  0.8108541E+01  0.1573705E+02  0.3539108E+02  0.1204799E+03
Ar  308  0.4941059E+01  0.1869542E+02  0.3536675E+02  0.1312219E+03
Ar  309  0.5489217E+01  0.2134284E+02  0.3747980E+02  0.6639536E+02
Ar  310  0.8053478E+01  0.2372486E+02  0.3737453E+02  0.3450200E+03
Ar  311  0.7708478E+01  0.2168528E+02  0.2363746E+01  0.4838219E+03
Ar  312  0.5211372E+01  0.2417947E+02  0.2970503E+01  0.3204434E+02
Ar  313  0.5326506E+01  0.2106380E+02  0.5033607E+01  0.5945168E+02
Ar  314  0.7895033E+01  0.2405705E+02  0.5089106E+01  0.3100313E+03
Ar  315  0.8148163E+01  0.2129937E+02  0.8133898E+01  0.5548089E+02
Ar  316  0.5720065E+01  0.2399965E+02  0.7424962E+01  0.5377329E+02
Ar  317  0.5534660E+01  0.2105675E+02  0.1051571E+02  0.5307273E+02
Ar  318  0.8226298E+01  0.2368331E+02  0.1034031E+02  0.4425866E+02
Ar  319  0.8092281E+01  0.2117551E+02  0.1375415E+02  0.4835510E+03
Ar  320  0.5625097E+01  0.2367118E+02  0.1326982E+02  0.8845721E+03
Ar  321  0.5538769E+01  0.2145112E+02  0.1637542E+02  0.2530245E+03
Ar  322  0.8500865E+01  0.2395882E+02  0.1628297E+02  0.2362118E+03
Ar  323  0.8491040E+01  0.2162698E+02  0.2004916E+02  0.1593630E+03
Ar  324  0.5994930E+01  0.2379574E+02  0.1872759E+02  0.2718211E+03
Ar  325  0.5337984E+01  0.2147234E+02  0.2240579E+02  0.1598193E+03
Ar  326  0.8880396E+01  0.2423463E+02  0.2255165E+02  0.2886785E+03
Ar  327  0.8574879E+01  0.2164999E+02  0.2461756E+02  0.1083374E+03
Ar  328  0.5692673E+01  0.2414556E+02  0.2512067E+02  0.3578789E+03
Ar  329  0.6046771E+01  0.2144379E+02  0.2727230E+02  0.2983083E+03
Ar  330  0.8569189E+01  0.2385017E+02  0.2777374E+02  0.3321345E+03
Ar  331  0.7973350E+01  0.2074372E+02  0.2996623E+02  0.1693132E+03
Ar  332  0.5165905E+01  0.2383870E+02  0.2956280E+02  0.1048226E+04
Ar  333  0.4508963E+01  0.2126303E+02  0.3226349E+02  0.1444471E+03
Ar  334  0.7960978E+01  0.2405370E+02  0.3243987E+02  0.3832753E+03
Ar  335  0.8212042E+01  0.2122433E+02  0.3444803E+02  0.5479249E+03
Ar  336  0.5183611E+01  0.2423623E+02  0.3465456E+02  0.2205775E+03
Ar  337  0.5773084E+01  0.2706885E+02  0.3743690E+02  0.1670619E+03
Ar  338  0.7472650E+01  0.2982351E+02  0.3751097E+02  0.5216996E+02
Ar  339  0.7933612E+01  0.2692702E+02  0.2462389E+01  0.3810255E+03
Ar  340  0.5271607E+01  0.2921410E+02  0.2399556E+01  0.1663493E+03
Ar  341  0.5055880E+01  0.2692286E+02  0.5384786E+01  0.2072030E+03
Ar  342  0.8205354E+01  0.2949734E+02  0.4647720E+01  0.6293525E+03
Ar  343  0.7702079E+01  0.2694109E+02  0.7696689E+01  0.1112093E+04
Ar  344  0.4811527E+01  0.2878233E+02  0.8224453E+01  0.8288177E+03
Ar  345  0.5375631E+01  0.2568172E+02  0.1022491E+02  0.4026435E+03
Ar  346  0.7581730E+01  0.2946079E+02  0.1064398E+02  0.3081913E+02
Ar  347  0.7948848E+01  0.2655397E+02  0.1265870E+02  0.7406719E+02
Ar  348  0.5140060E+01  0.2904659E+02  0.1319922E+02  0.1701312E+03
Ar  349  0.5227160E+01  0.2669047E+02  0.1651407E+02  0.2296777E+03
Ar  350  0.7743526E+01  0.2923376E+02  0.1604278E+02  0.6784139E+03
Ar  351  0.8302414E+01  0.2672759E+02  0.1908148E+02  0.2507745E+03
Ar  352  0.5654363E+01  0.2909305E+02  0.1901365E+02  0.9810933E+02
Ar  353  0.5635574E+01  0.2560560E+02  0.2181852E+02  0.8145682E+02
Ar  354  0.8352800E+01  0.2959870E+02  0.2130898E+02  0.7482769E+03
Ar  355  0.8626723E+01  0.2656448E+02  0.2508747E+02  0.2032200E+03
Ar  356  0.5918462E+01  0.2958579E+02  0.2384450E+02  0.1420619E+03
Ar  357  0.4939805E+01  0.2725378E+02  0.2696674E+02  0.2894526E+03
Ar  358  0.8002058E+01  0.2970441E+02  0.2721688E+02  0.9940875E+02
Ar  359  0.7819915E+01  0.2651659E+02  0.2968210E+02  0.3131890E+03
Ar  360  0.5267372E+01  0.2974925E+02  0.2951317E+02  0.3409871E+01
Ar  361  0.5235228E+01  0.2690281E+02  0.3207475E+02  0.4254299E+03
Ar  362  0.8049368E+01  0.2909160E+02  0.3243463E+02  0.4463734E+02
Ar  363  0.7842519E+01  0.2637818E+02  0.3469898E+02  0.1002575E+03
Ar  364  0.5087649E+01  0.2955477E+02  0.3447787E+02  0.5380772E+03
Ar  365  0.5181599E+01  0.3236150E+02  0.3762387E+02  0.1081718E+03
Ar  366  0.8184053E+01  0.3556699E+02  0.3756645E+02  0.1359662E+03
Ar  367  0.7834940E+01  0.3227431E+02  0.2337677E+01  0.5527798E+02
Ar  368  0.5678821E+01  0.3473056E+02  0.2822020E+01  0.1551371E+03
Ar  369  0.5009445E+01  0.3194150E+02  0.5492916E+01  0.4174274E+03
Ar  370  0.7991688E+01  0.3475638E+02  0.5255795E+01  0.2080093E+03
Ar  371  0.7847529E+01  0.3143449E+02  0.7334886E+01  0.2013309E+03
Ar  372  0.5256360E+01  0.3492802E+02  0.7929340E+01  0.3340262E+03
Ar  373  0.5176348E+01  0.3211725E+02  0.1030005E+02  0.2173060E+03
Ar  374  0.7764629E+01  0.3485894E+02  0.1056512E+02  0.4395931E+03
Ar  375  0.7144503E+01  0.3232831E+02  0.1305515E+02  0.1929254E+03
Ar  376  0.5125713E+01  0.3494904E+02  0.1345138E+02  0.2312167E+03
Ar  377  0.5281494E+01  0.3178892E+02  0.1582871E+02  0.3560552E+03
Ar  378  0.7841506E+01  0.3489202E+02  0.1597378E+02  0.3013346E+03
Ar  379  0.7493365E+01  0.3204896E+02  0.1865591E+02  0.8770958E+03
Ar  380  0.5552337E+01  0.3497001E+02  0.1862788E+02  0.1504433E+03
Ar  381  0.5758156E+01  0.3249524E+02  0.2142054E+02  0.6485967E+02
Ar  382  0.9027156E+01  0.3448967E+02  0.2133084E+02  0.2926755E+03
Ar  383  0.7721603E+01  0.3287333E+02  0.2440140E+02  0.3835735E+02
Ar  384  0.4837744E+01  0.3482832E+02  0.2387705E+02  0.3051258E+03
Ar  385  0.5593329E+01  0.3199760E+02  0.2671931E+02  0.2537704E+03
Ar  386  0.7821730E+01  0.3474962E+02  0.2727790E+02  0.3226651E+03
Ar  387  0.8134760E+01  0.3198659E+02  0.2974148E+02  0.6090802E+03
Ar  388  0.5175949E+01  0.3419406E+02  0.2936813E+02  0.5002578E+03
Ar  389  0.5440533E+01  0.3219557E+02  0.3224529E+02  0.1684040E+03
Ar  390  0.8494089E+01  0.3537852E+02  0.3173404E+02  0.6505992E+02
Ar  391  0.7894961E+01  0.3251549E+02  0.3527823E+02  0.1831816E+03
Ar  392  0.5124419E+01  0.3501664E+02  0.3478335E+02  0.1586732E+03
Ar  393  0.1091818E+02  0.7619073E-01  0.1508657E+00  0.1407268E+02
Ar  394  0.1370054E+02  0.3065105E+01  0.3765922E+02  0.3194569E+03
Ar  395  0.1334890E+02  0.3725787E+02  0.2618650E+01  0.4156163E+02
Ar  396  0.1080345E+02  0.2587578E+01  0.2508821E+01  0.7968704E+02
Ar  397  0.1121356E+02  0.3726136E+02  0.5336594E+01  0.1465075E+03
Ar  398  0.1339569E+02  0.2579944E+01  0.5279155E+01  0.4491605E+02
Ar  399  0.1348581E+02  0.3761818E+02  0.7902510E+01  0.7709752E+02
Ar  400  0.1078498E+02  0.2285484E+01  0.7971245E+01  0.2326363E+03
Ar  401  0.1051405E+02  0.3733786E+02  0.1025277E+02  0.2667805E+03
Ar  402  0.1355045E+02  0.2425413E+01  0.1063490E+02  0.4914317E+03
Ar  403  0.1338560E+02  0.2049605E+00  0.1323654E+02  0.1431878E+03
Ar  404  0.1028623E+02  0.2474551E+01  0.1305279E+02  0.1431085E+03
Ar  405  0.1093708E+02  0.3744913E+02  0.1577348E+02  0.1738461E+03
Ar  406  0.1315500E+02  0.2462607E+01  0.1574924E+02  0.2935976E+03
Ar  407  0.1326577E+02  0.3741916E+02  0.1874556E+02  0.2242362E+03
Ar  408  0.1138349E+02  0.2561043E+01  0.1876763E+02  0.2805072E+03
Ar  409  0.1064844E+02  0.3727602E+02  0.2156584E+02  0.2657293E+03
Ar  410  0.1358884E+02  0.2524546E+01  0.2167923E+02  0.3322567E+03
Ar  411  0.1396965E+02  0.2008143E+00  0.2419413E+02  0.2510242E+03
Ar  412  0.1082949E+02  0.2431312E+01  0.2387427E+02  0.3563982E+03
Ar  413  0.1055899E+02  0.3726304E+02  0.2618560E+02  0.5347547E+03
Ar  414  0.1313852E+02  0.2789707E+01  0.2690899E+02  0.2891294E+02
Ar  415  0.1372232E+02  0.2035112E+00  0.2967641E+02  0.3490573E+02
Ar  416  0.1021804E+02  0.2361684E+01  0.2932994E+02  0.2771374E+03
Ar  417  0.1066474E+02  0.1306106E+00  0.3196432E+02  0.1135753E+03
Ar  418  0.1325105E+02  0.2502374E+01  0.3224857E+02  0.8372550E+02
Ar  419  0.1340555E+02  0.3740714E+02  0.3459921E+02  0.3936384E+03
Ar  420  0.1043314E+02  0.2829080E+01  0.3509409E+02  0.7296453E+03
Ar  421  0.1037937E+02  0.5330867E+01  0.3867000E+00  0.3396570E+03
Ar  422  0.1317796E+02  0.8335495E+01  0.6860542E+00  0.1076926E+03
Ar  423  0.1351981E+02  0.5545302E+01  0.2896860E+01  0.2377163E+03
Ar  424  0.1043645E+02  0.7671759E+01  0.2511778E+01  0.2488547E+03
Ar  425  0.1074950E+02  0.5512632E+01  0.5202885E+01  0.1008554E+02
Ar  426  0.1352533E+02  0.8150448E+01  0.5677422E+01  0.1035801E+03
Ar  427  0.1338012E+02  0.5217337E+01  0.7733371E+01  0.4382498E+03
Ar  428  0.1068568E+02  0.7907959E+01  0.8464205E+01  0.2482147E+03
Ar  429  0.1090548E+02  0.5141461E+01  0.1070711E+02  0.5237903E+01
Ar  430  0.1355059E+02  0.8858621E+01  0.1048754E+02  0.2766575E+03
Ar  431  0.1317522E+02  0.5372546E+01  0.1318139E+02  0.3092262E+03
Ar  432  0.1080401E+02  0.8271880E+01  0.1300945E+02  0.2072636E+03
Ar  433  0.1050895E+02  0.5273725E+01  0.1567498E+02  0.1078484E+03
Ar  434  0.1286590E+02  0.8304210E+01  0.1596504E+02  0.3055921E+03
Ar  435  0.1250588E+02  0.5802225E+01  0.1818604E+02  0.2258577E+03
Ar  436  0.1044895E+02  0.8500185E+01  0.1898757E+02  0.5801584E+03
Ar  437  0.1113558E+02  0.5574263E+01  0.2198018E+02  0.1036375E+03
Ar  438  0.1354000E+02  0.8663133E+01  0.2144341E+02  0.1080016E+03
Ar  439  0.1355087E+02  0.5139271E+01  0.2480397E+02  0.7137881E+02
Ar  440  0.1070184E+02  0.8405024E+01  0.2407856E+02  0.1009487E+03
Ar  441  0.1051521E+02  0.5294636E+01  0.2735837E+02  0.2343083E+03
Ar  442  0.1303414E+02  0.7846218E+01  0.2748756E+02  0.4609779E+02
Ar  443  0.1356764E+02  0.5040579E+01  0.2960422E+02  0.6697554E+03
Ar  444  0.1068104E+02  0.7915960E+01  0.3006356E+02  0.4833908E+03
Ar  445  0.1123973E+02  0.5417092E+01  0.3254401E+02  0.5305613E+03
Ar  446  0.1338596E+02  0.8176675E+01  0.3295953E+02  0.5411679E+03
Ar  447  0.1273451E+02  0.5917293E+01  0.3575862E+02  0.2067435E+03
Ar  448  0.1019746E+02  0.8301274E+01  0.3501855E+02  0.1709421E+03
Ar  449  0.1067093E+02  0.1100492E+02  0.2532681E+00  0.2129147E+03
Ar  450  0.1374584E+02  0.1374730E+02  0.3014644E-01  0.4136648E+03
Ar  451  0.1316667E+02  0.1078050E+02  0.2752386E+01  0.3612267E+03
Ar  452  0.1016973E+02  0.1333090E+02  0.3225344E+01  0.2724529E+03
Ar  453  0.1101849E+02  0.1051862E+02  0.5310430E+01  0.5055095E+02
Ar  454  0.1368945E+02  0.1335192E+02  0.5350489E+01  0.1452790E+03
Ar  455  0.1360765E+02  0.1084074E+02  0.7605205E+01  0.3636950E+02
Ar  456  0.1022826E+02  0.1326208E+02  0.8258032E+01  0.1707167E+02
Ar  457  0.1063752E+02  0.1082485E+02  0.1070209E+02  0.3812548E+03
Ar  458  0.1358149E+02  0.1315794E+02  0.1048854E+02  0.2552625E+03
Ar  459  0.1303625E+02  0.1112889E+02  0.1319299E+02  0.6339258E+02
Ar  460  0.1079215E+02  0.1377287E+02  0.1335157E+02  0.5516857E+03
Ar  461  0.1080492E+02  0.1158774E+02  0.1634005E+02  0.4742425E+03
Ar  462  0.1375820E+02  0.1360350E+02  0.1587488E+02  0.1869327E+03
Ar  463  0.1338246E+02  0.1156285E+02  0.1871250E+02  0.1730318E+03
Ar  464  0.1062704E+02  0.1374462E+02  0.1879667E+02  0.2973509E+02
Ar  465  0.1078112E+02  0.1116622E+02  0.2129070E+02  0.1871296E+03
Ar  466  0.1431142E+02  0.1374944E+02  0.2186639E+02  0.1364882E+03
Ar  467  0.1338006E+02  0.1080259E+02  0.2461893E+02  0.7727988E+02
Ar  468  0.1053842E+02  0.1328321E+02  0.2404604E+02  0.2901508E+03
Ar  469  0.1078802E+02  0.1073888E+02  0.2660329E+02  0.1153241E+03
Ar  470  0.1330977E+02  0.1316903E+02  0.2715113E+02  0.7290836E+02
Ar  471  0.1379211E+02  0.1071205E+02  0.2946727E+02  0.3630154E+03
Ar  472  0.1083984E+02  0.1292318E+02  0.2988446E+02  0.2679528E+03
Ar  473  0.1028500E+02  0.1034017E+02  0.3226216E+02  0.2860330E+03
Ar  474  0.1391979E+02  0.1318488E+02  0.3284341E+02  0.4623319E+03
Ar  475  0.1316621E+02  0.1067978E+02  0.3516573E+02  0.3510089E+03
Ar  476  0.1089946E+02  0.1321856E+02  0.3511002E+02  0.1839833E+02
Ar  477  0.1090464E+02  0.1539732E+02  0.3751670E+02  0.6040387E+03
Ar  478  0.1319633E+02  0.1862272E+02  0.3656745E+00  0.3133069E+02
Ar  479  0.1321049E+02  0.1645691E+02  0.2951479E+01  0.3737594E+03
Ar  480  0.1031409E+02  0.1849919E+02  0.2342427E+01  0.5148161E+03
Ar  481  0.1011517E+02  0.1595326E+02  0.6089889E+01  0.8440024E+02
Ar  482  0.1317206E+02  0.1865039E+02  0.5586667E+01  0.3551612E+03
Ar  483  0.1327578E+02  0.1569439E+02  0.7617396E+01  0.2003148E+03
Ar  484  0.1068740E+02  0.1906742E+02  0.7762232E+01  0.8869200E+03
Ar  485  0.1062321E+02  0.1635217E+02  0.1058048E+02  0.1420480E+03
Ar  486  0.1326284E+02  0.1855791E+02  0.1022849E+02  0.4963721E+03
Ar  487  0.1327939E+02  0.1617025E+02  0.1342560E+02  0.9306944E+01
Ar  488  0.1098456E+02  0.1892388E+02  0.1377989E+02  0.2484476E+03
Ar  489  0.1131370E+02  0.1629477E+02  0.1619523E+02  0.2715577E+03
Ar  490  0.1343955E+02  0.1884542E+02  0.1627967E+02  0.4143884E+03
Ar  491  0.1338457E+02  0.1564779E+02  0.1879702E+02  0.5609391E+02
Ar  492  0.1105119E+02  0.1858009E+02  0.1908763E+02  0.5413124E+02
Ar  493  0.1141313E+02  0.1573314E+02  0.2161949E+02  0.2023915E+03
Ar  494  0.1330828E+02  0.1889435E+02  0.2161364E+02  0.1681329E+03
Ar  495  0.1382747E+02  0.1650554E+02  0.2436948E+02  0.4029460E+03
Ar  496  0.1130483E+02  0.1919203E+02  0.2397509E+02  0.5376417E+02
Ar  497  0.1111469E+02  0.1623431E+02  0.2644740E+02  0.1194313E+03
Ar  498  0.1369208E+02  0.1865584E+02  0.2712084E+02  0.1333875E+03
Ar  499  0.1382128E+02  0.1586313E+02  0.2952220E+02  0.6841793E+02
Ar  500  0.1099153E+02  0.1847502E+02  0.2995494E+02  0.8411687E+02
Ar  501  0.1113427E+02  0.1532069E+02  0.3257919E+02  0.1683832E+03
Ar  502  0.1326253E+02  0.1850347E+02  0.3244006E+02  0.5798023E+03
Ar  503  0.1372088E+02  0.1607483E+02  0.3511241E+02  0.1947794E+03
Ar  504  0.1092104E+02  0.1877264E+02  0.3569020E+02  0.4372402E+03
Ar  505  0.1088644E+02  0.2171573E+02  0.2304001E+00  0.4535536E+03
Ar  506  0.1366422E+02  0.2416119E+02  0.3762036E+02  0.3499109E+03
Ar  507  0.1330450E+02  0.2139354E+02  0.2712926E+01  0.3277823E+03
Ar  508  0.1068582E+02  0.2436413E+02  0.2388239E+01  0.1503411E+03
Ar  509  0.1034817E+02  0.2151514E+02  0.4954519E+01  0.7724359E+02
Ar  510  0.1322851E+02  0.2433393E+02  0.5265300E+01  0.2041658E+03
Ar  511  0.1329519E+02  0.2205721E+02  0.8015204E+01  0.4653066E+03
Ar  512  0.1068684E+02  0.2416492E+02  0.7656858E+01  0.1071493E+03
Ar  513  0.1095589E+02  0.2114657E+02  0.1056142E+02  0.2885687E+03
Ar  514  0.1347582E+02  0.2483267E+02  0.1048095E+02  0.3745281E+03
Ar  515  0.1332272E+02  0.2138427E+02  0.1281536E+02  0.6055287E+03
Ar  516  0.1080020E+02  0.2429900E+02  0.1255577E+02  0.2989251E+03
Ar  517  0.1081919E+02  0.2117213E+02  0.1651368E+02  0.1169442E+03
Ar  518  0.1347110E+02  0.2424425E+02  0.1609529E+02  0.4270957E+03
Ar  519  0.1390488E+02  0.2189143E+02  0.1874876E+02  0.3681868E+02
Ar  520  0.1117473E+02  0.2424630E+02  0.1901672E+02  0.2610225E+03
Ar  521  0.1173079E+02  0.2191526E+02  0.2153289E+02  0.1747802E+03
Ar  522  0.1350555E+02  0.2477260E+02  0.2174303E+02  0.3992623E+03
Ar  523  0.1423719E+02  0.2163026E+02  0.2438549E+02  0.3449608E+02
Ar  524  0.1130774E+02  0.2393483E+02  0.2491607E+02  0.2631297E+03
Ar  525  0.1132118E+02  0.2131456E+02  0.2732681E+02  0.4683641E+02
Ar  526  0.1404771E+02  0.2445782E+02  0.2694365E+02  0.1339223E+03
Ar  527  0.1391948E+02  0.2156269E+02  0.2930998E+02  0.7663426E+02
Ar  528  0.1163003E+02  0.2408944E+02  0.2926038E+02  0.4141183E+03
Ar  529  0.1109023E+02  0.2140527E+02  0.3175489E+02  0.2292100E+03
Ar  530  0.1369536E+02  0.2419407E+02  0.3210929E+02  0.1419410E+03
Ar  531  0.1318661E+02  0.2162095E+02  0.3532544E+02  0.9048191E+02
Ar  532  0.1097415E+02  0.2399071E+02  0.3443813E+02  0.1637709E+03
Ar  533  0.1072020E+02  0.2615489E+02  0.3718679E+02  0.2555218E+03
Ar  534  0.1314657E+02  0.2940500E+02  0.3700224E+02  0.6092132E+02
Ar  535  0.1372983E+02  0.2723938E+02  0.2236762E+01  0.9353523E+02
Ar  536  0.1049847E+02  0.2978825E+02  0.1778391E+01  0.5259808E+03
Ar  537  0.1047132E+02  0.2687563E+02  0.4939103E+01  0.4913446E+03
Ar  538  0.1300606E+02  0.2970299E+02  0.4735833E+01  0.2416071E+03
Ar  539  0.1310011E+02  0.2743216E+02  0.7186766E+01  0.2289459E+03
Ar  540  0.1096164E+02  0.2983194E+02  0.8744827E+01  0.1566522E+03
Ar  541  0.1078821E+02  0.2692819E+02  0.1051074E+02  0.4595426E+03
Ar  542  0.1351167E+02  0.2918230E+02  0.1089439E+02  0.3101218E+03
Ar  543  0.1365392E+02  0.2694444E+02  0.1342463E+02  0.3360404E+03
Ar  544  0.1076242E+02  0.2918218E+02  0.1391917E+02  0.3085192E+03
Ar  545  0.1097477E+02  0.2665669E+02  0.1637302E+02  0.9176658E+02
Ar  546  0.1328613E+02  0.2970456E+02  0.1637362E+02  0.2867827E+03
Ar  547  0.1344776E+02  0.2710692E+02  0.1871499E+02  0.4020990E+03
Ar  548  0.1070678E+02  0.2968065E+02  0.1838643E+02  0.1027872E+03
Ar  549  0.1078178E+02  0.2704651E+02  0.2140514E+02  0.3903078E+03
Ar  550  0.1359409E+02  0.2952238E+02  0.2182541E+02  0.3501101E+03
Ar  551  0.1349066E+02  0.2758053E+02  0.2455401E+02  0.2937021E+03
Ar  552  0.1067615E+02  0.2963632E+02  0.2515025E+02  0.2739040E+03
Ar  553  0.1095717E+02  0.2733869E+02  0.2781578E+02  0.2494964E+03
Ar  554  0.1337978E+02  0.2980096E+02  0.2727518E+02  0.1607274E+03
Ar  555  0.1373524E+02  0.2720601E+02  0.2981147E+02  0.7604896E+03
Ar  556  0.1099625E+02  0.3007949E+02  0.2981155E+02  0.6614687E+02
Ar  557  0.1093188E+02  0.2672522E+02  0.3226661E+02  0.1079097E+03
Ar  558  0.1370314E+02  0.2972078E+02  0.3250415E+02  0.4404444E+03
Ar  559  0.1346473E+02  0.2619281E+02  0.3485739E+02  0.8959374E+02
Ar  560  0.1041467E+02  0.2912949E+02  0.3513176E+02  0.1614597E+03
Ar  561  0.1059535E+02  0.3206977E+02  0.3720104E+02  0.8489558E+02
Ar  562  0.1354369E+02  0.3486912E+02  0.3767726E+02  0.1335419E+03
Ar  563  0.1370844E+02  0.3186045E+02  0.1726561E+01  0.6339167E+02
Ar  564  0.1069730E+02  0.3452936E+02  0.2452599E+01  0.3836078E+02
Ar  565  0.1094439E+02  0.3242339E+02  0.5353812E+01  0.2159572E+03
Ar  566  0.1362019E+02  0.3462092E+02  0.4677118E+01  0.4078783E+03
Ar  567  0.1381630E+02  0.3195571E+02  0.7452122E+01  0.1572141E+03
Ar  568  0.1031624E+02  0.3399573E+02  0.8599775E+01  0.8699111E+02
Ar  569  0.1003642E+02  0.3208529E+02  0.1118395E+02  0.2571698E+03
Ar  570  0.1294251E+02  0.3495957E+02  0.1081861E+02  0.1485036E+03
Ar  571  0.1332813E+02  0.3203625E+02  0.1316210E+02  0.1392644E+02
Ar  572  0.1061508E+02  0.3491328E+02  0.1320294E+02  0.2930207E+03
Ar  573  0.9991550E+01  0.3224716E+02  0.1583878E+02  0.1117659E+03
Ar  574  0.1309181E+02  0.3451315E+02  0.1574744E+02  0.2137485E+03
Ar  575  0.1361229E+02  0.3244774E+02  0.1850276E+02  0.3297672E+02
Ar  576  0.1057034E+02  0.3500608E+02  0.1858765E+02  0.7062551E+02
Ar  577  0.1100658E+02  0.3160876E+02  0.2213387E+02  0.5041948E+02
Ar  578  0.1405873E+02  0.3540142E+02  0.2178159E+02  0.2333003E+03
Ar  579  0.1322651E+02  0.3221962E+02  0.2453344E+02  0.1707497E+03
Ar  580  0.1085270E+02  0.3479460E+02  0.2400643E+02  0.9524510E+02
Ar  581  0.1077341E+02  0.3283921E+02  0.2698948E+02  0.1187501E+03
Ar  582  0.1315107E+02  0.3538798E+02  0.2652168E+02  0.1062426E+03
Ar  583  0.1311715E+02  0.3269799E+02  0.2990103E+02  0.2831757E+03
Ar  584  0.1070920E+02  0.3584679E+02  0.2928803E+02  0.3689373E+03
Ar  585  0.9887966E+01  0.3199060E+02  0.3275515E+02  0.1880401E+02
Ar  586  0.1308745E+02  0.3541491E+02  0.3191098E+02  0.2581932E+03
Ar  587  0.1328691E+02  0.3236795E+02  0.3475508E+02  0.3435846E+03
Ar  588  0.1037426E+02  0.3529794E+02  0.3440366E+02  0.3468976E+03
Ar  589  0.1595329E+02  0.4524558E+00  0.3747880E+02  0.9687294E+03
Ar  590  0.1880423E+02  0.2593002E+01  0.3755650E+02  0.6996194E+03
Ar  591  0.1901641E+02  0.2172864E+00  0.2422842E+01  0.7781848E+03
Ar  592  0.1613482E+02  0.2228636E+01  0.3134072E+01  0.5204759E+03
Ar  593  0.1644605E+02  0.3738741E+02  0.5673780E+01  0.2704495E+03
Ar  594  0.1863169E+02  0.2873708E+01  0.5746323E+01  0.4254883E+03
Ar  595  0.1867758E+02  0.3772785E+02  0.8298721E+01  0.7417496E+02
Ar  596  0.1569949E+02  0.2455219E+01  0.8319470E+01  0.2168609E+02
Ar  597  0.1639955E+02  0.3774689E+02  0.1105758E+02  0.8048257E+02
Ar  598  0.1851343E+02  0.2600535E+01  0.1055231E+02  0.1872538E+03
Ar  599  0.1877524E+02  0.3725965E+02  0.1375229E+02  0.2355309E+03
Ar  600  0.1661466E+02  0.2966962E+01  0.1362148E+02  0.1355746E+03
Ar  601  0.1606142E+02  0.2570371E+00  0.1562892E+02  0.3520129E+03
Ar  602  0.1861037E+02  0.4047622E+01  0.1629732E+02  0.2252585E+03
Ar  603  0.1800642E+02  0.1063391E+01  0.1855309E+02  0.2394160E+03
Ar  604  0.1531508E+02  0.3269062E+01  0.1830580E+02  0.2036449E+03
Ar  605  0.1639654E+02  0.1877918E+00  0.2154729E+02  0.7264555E+02
Ar  606  0.1857094E+02  0.3208345E+01  0.2147305E+02  0.4305777E+03
Ar  607  0.1920315E+02  0.3347847E+00  0.2406800E+02  0.1140987E+03
Ar  608  0.1642129E+02  0.3135132E+01  0.2385011E+02  0.2139520E+03
Ar  609  0.1641750E+02  0.1219858E+00  0.2695797E+02  0.2362029E+03
Ar  610  0.1921302E+02  0.2936491E+01  0.2665378E+02  0.6964650E+02
Ar  611  0.1880995E+02  0.1758952E+00  0.2957251E+02  0.6106566E+02
Ar  612  0.1620997E+02  0.2796148E+01  0.2954712E+02  0.7981052E+02
Ar  613  0.1613806E+02  0.7713101E-02  0.3201547E+02  0.9848564E+02
Ar  614  0.1862995E+02  0.3666965E+01  0.3276603E+02  0.2667480E+03
Ar  615  0.1911311E+02  0.9313980E-01  0.3446712E+02  0.7258366E+03
Ar  616  0.1620986E+02  0.3132337E+01  0.3505185E+02  0.5606017E+03
Ar  617  0.1642402E+02  0.5397335E+01  0.3777708E+02  0.2593017E+03
Ar  618  0.1862189E+02  0.8626150E+01  0.5291064E+00  0.8495349E+03
Ar  619  0.1958908E+02  0.6227148E+01  0.2716124E+01  0.1645833E+03
Ar  620  0.1607635E+02  0.7661430E+01  0.2601092E+01  0.8021758E+03
Ar  621  0.1598152E+02  0.5600027E+01  0.5485959E+01  0.1692781E+03
Ar  622  0.1903961E+02  0.8245902E+01  0.5740776E+01  0.1745886E+03
Ar  623  0.1817994E+02  0.5580753E+01  0.8551105E+01  0.2243076E+03
Ar  624  0.1624162E+02  0.8495857E+01  0.8316432E+01  0.1215737E+03
Ar  625  0.1528921E+02  0.5365807E+01  0.1054853E+02  0.5007023E+03
Ar  626  0.1955930E+02  0.8451083E+01  0.1065243E+02  0.1397259E+03
Ar  627  0.1872731E+02  0.5769766E+01  0.1262881E+02  0.2390224E+03
Ar  628  0.1561613E+02  0.8362401E+01  0.1331156E+02  0.2230873E+03
Ar  629  0.1594772E+02  0.5928080E+01  0.1584281E+02  0.4198178E+03
Ar  630  0.1895062E+02  0.8423836E+01  0.1544997E+02  0.1916321E+03
Ar  631  0.1924468E+02  0.6389013E+01  0.1891383E+02  0.1361973E+02
Ar  632  0.1571721E+02  0.7913481E+01  0.1859500E+02  0.1871807E+03
Ar  633  0.1639139E+02  0.5760702E+01  0.2120107E+02  0.6828098E+02
Ar  634  0.1870804E+02  0.8565553E+01  0.2136357E+02  0.1776051E+03
Ar  635  0.1899747E+02  0.5759077E+01  0.2383318E+02  0.4273393E+03
Ar  636  0.1585713E+02  0.8350788E+01  0.2418207E+02  0.1114540E+03
Ar  637  0.1656624E+02  0.5220348E+01  0.2703245E+02  0.3497231E+03
Ar  638  0.1870780E+02  0.8053225E+01  0.2652626E+02  0.4206819E+03
Ar  639  0.1856882E+02  0.5775236E+01  0.2996026E+02  0.5389640E+03
Ar  640  0.1552938E+02  0.7719512E+01  0.3006199E+02  0.2195620E+03
Ar  641  0.1559979E+02  0.5710462E+01  0.3321201E+02  0.2764948E+03
Ar  642  0.1845507E+02  0.7997800E+01  0.3270787E+02  0.4598733E+03
Ar  643  0.1919263E+02  0.5928130E+01  0.3588878E+02  0.8358564E+02
Ar  644  0.1570776E+02  0.7955308E+01  0.3560476E+02  0.1866612E+03
Ar  645  0.1570948E+02  0.1063481E+02  0.8099232E+00  0.2653822E+03
Ar  646  0.1895778E+02  0.1407705E+02  0.3716337E+02  0.1408182E+03
Ar  647  0.1909581E+02  0.1134240E+02  0.2264211E+01  0.4405047E+03
Ar  648  0.1628974E+02  0.1327811E+02  0.2700624E+01  0.5143253E+03
Ar  649  0.1629248E+02  0.1036881E+02  0.5011256E+01  0.3008529E+03
Ar  650  0.1894633E+02  0.1319264E+02  0.5769432E+01  0.1297190E+03
Ar  651  0.1943178E+02  0.1080112E+02  0.7870461E+01  0.7442101E+02
Ar  652  0.1636365E+02  0.1341430E+02  0.8239694E+01  0.2173419E+03
Ar  653  0.1619559E+02  0.1087901E+02  0.1081956E+02  0.3222275E+03
Ar  654  0.1916109E+02  0.1354849E+02  0.1018886E+02  0.2408298E+03
Ar  655  0.1861185E+02  0.1141024E+02  0.1311048E+02  0.3064380E+03
Ar  656  0.1593170E+02  0.1365223E+02  0.1303662E+02  0.1711867E+03
Ar  657  0.1629735E+02  0.1073037E+02  0.1568151E+02  0.2236193E+03
Ar  658  0.1849349E+02  0.1361545E+02  0.1590765E+02  0.2205160E+03
Ar  659  0.1897448E+02  0.1041864E+02  0.1803550E+02  0.5047343E+03
Ar  660  0.1653424E+02  0.1360628E+02  0.1834562E+02  0.2733375E+03
Ar  661  0.1629857E+02  0.1085803E+02  0.2050610E+02  0.2039477E+03
Ar  662  0.1798498E+02  0.1346269E+02  0.2151695E+02  0.1421783E+03
Ar  663  0.1852867E+02  0.1070771E+02  0.2456071E+02  0.2395777E+02
Ar  664  0.1596007E+02  0.1344877E+02  0.2496166E+02  0.2167745E+02
Ar  665  0.1586818E+02  0.1054436E+02  0.2709867E+02  0.2014935E+03
Ar  666  0.1847956E+02  0.1315152E+02  0.2705075E+02  0.6298420E+03
Ar  667  0.1925113E+02  0.1055731E+02  0.2990392E+02  0.9163109E+03
Ar  668  0.1618973E+02  0.1316175E+02  0.2973611E+02  0.3197760E+03
Ar  669  0.1599129E+02  0.1060604E+02  0.3236255E+02  0.1804260E+03
Ar  670  0.1887589E+02  0.1299346E+02  0.3228314E+02  0.6676429E+03
Ar  671  0.1861393E+02  0.1060030E+02  0.3530430E+02  0.3536646E+03
Ar  672  0.1592649E+02  0.1249029E+02  0.3561530E+02  0.9187887E+02
Ar  673  0.1609652E+02  0.1621298E+02  0.1562032E+00  0.1849544E+03
Ar  674  0.1832380E+02  0.1958531E+02  0.5995025E+00  0.1062002E+03
Ar  675  0.1879274E+02  0.1588966E+02  0.2348742E+01  0.2527940E+03
Ar  676  0.1573064E+02  0.1868550E+02  0.2986786E+01  0.2583799E+03
Ar  677  0.1712365E+02  0.1587427E+02  0.5258775E+01  0.5935580E+02
Ar  678  0.1888841E+02  0.1930353E+02  0.5075534E+01  0.2688577E+03
Ar  679  0.1931603E+02  0.1668225E+02  0.8410447E+01  0.8007358E+02
Ar  680  0.1613048E+02  0.1858434E+02  0.7868659E+01  0.3757791E+03
Ar  681  0.1652749E+02  0.1577170E+02  0.1060990E+02  0.3142967E+03
Ar  682  0.1824859E+02  0.1871589E+02  0.1091197E+02  0.2290960E+03
Ar  683  0.1877478E+02  0.1637902E+02  0.1377752E+02  0.7583344E+03
Ar  684  0.1558117E+02  0.1864834E+02  0.1359679E+02  0.1448580E+03
Ar  685  0.1606841E+02  0.1610693E+02  0.1577213E+02  0.3108163E+03
Ar  686  0.1907818E+02  0.1909418E+02  0.1644880E+02  0.3982301E+02
Ar  687  0.1886308E+02  0.1623646E+02  0.1849360E+02  0.2906816E+02
Ar  688  0.1631659E+02  0.1846027E+02  0.1856897E+02  0.3219153E+03
Ar  689  0.1625217E+02  0.1651844E+02  0.2168885E+02  0.9345295E+02
Ar  690  0.1903164E+02  0.1879322E+02  0.2110089E+02  0.7509936E+02
Ar  691  0.1878347E+02  0.1591984E+02  0.2404672E+02  0.2729065E+03
Ar  692  0.1672856E+02  0.1911434E+02  0.2425126E+02  0.1777901E+03
Ar  693  0.1648804E+02  0.1634912E+02  0.2690133E+02  0.5051802E+02
Ar  694  0.1917207E+02  0.1940928E+02  0.2684819E+02  0.2275849E+03
Ar  695  0.1836603E+02  0.1581365E+02  0.2999822E+02  0.1930669E+03
Ar  696  0.1589504E+02  0.1847029E+02  0.3010404E+02  0.9522281E+03
Ar  697  0.1647884E+02  0.1575585E+02  0.3313394E+02  0.3822164E+02
Ar  698  0.1850307E+02  0.1870244E+02  0.3250946E+02  0.4545046E+03
Ar  699  0.1891020E+02  0.1721167E+02  0.3541881E+02  0.3678000E+03
Ar  700  0.1545529E+02  0.1905288E+02  0.3549796E+02  0.1760317E+03
Ar  701  0.1623256E+02  0.2219010E+02  0.2552004E+00  0.2683615E+02
Ar  702  0.1923261E+02  0.2432301E+02  0.3753148E+02  0.3126465E+03
Ar  703  0.1920378E+02  0.2242282E+02  0.2762368E+01  0.7539529E+03
Ar  704  0.1591286E+02  0.2429493E+02  0.2964985E+01  0.1988958E+03
Ar  705  0.1667393E+02  0.2165637E+02  0.5285779E+01  0.1597208E+03
Ar  706  0.1814939E+02  0.2476084E+02  0.5428180E+01  0.2634394E+03
Ar  707  0.1904158E+02  0.2167395E+02  0.8573846E+01  0.3517760E+03
Ar  708  0.1628886E+02  0.2440297E+02  0.8421336E+01  0.1714130E+03
Ar  709  0.1579294E+02  0.2154194E+02  0.1014039E+02  0.5112379E+02
Ar  710  0.1848337E+02  0.2397024E+02  0.1110235E+02  0.2886358E+03
Ar  711  0.1881390E+02  0.2139469E+02  0.1352302E+02  0.4837537E+03
Ar  712  0.1593330E+02  0.2462710E+02  0.1355675E+02  0.3659394E+02
Ar  713  0.1620694E+02  0.2136273E+02  0.1614928E+02  0.1976183E+03
Ar  714  0.1860636E+02  0.2449697E+02  0.1639010E+02  0.6440124E+02
Ar  715  0.1848343E+02  0.2204163E+02  0.1940427E+02  0.1743196E+03
Ar  716  0.1578976E+02  0.2486651E+02  0.1932396E+02  0.1989615E+03
Ar  717  0.1573943E+02  0.2133725E+02  0.2140065E+02  0.2300633E+03
Ar  718  0.1942422E+02  0.2502228E+02  0.2173038E+02  0.3687614E+03
Ar  719  0.1947692E+02  0.2218804E+02  0.2436720E+02  0.1761152E+03
Ar  720  0.1637967E+02  0.2430302E+02  0.2436111E+02  0.4633000E+03
Ar  721  0.1669546E+02  0.2198664E+02  0.2703472E+02  0.1504147E+03
Ar  722  0.1899061E+02  0.2464538E+02  0.2706894E+02  0.1387908E+03
Ar  723  0.1858704E+02  0.2151878E+02  0.2970495E+02  0.2357739E+03
Ar  724  0.1640327E+02  0.2397847E+02  0.3022990E+02  0.1839589E+03
Ar  725  0.1607824E+02  0.2162716E+02  0.3274834E+02  0.2021886E+03
Ar  726  0.1904440E+02  0.2450990E+02  0.3298998E+02  0.2532775E+03
Ar  727  0.1853744E+02  0.2118753E+02  0.3554680E+02  0.3202774E+03
Ar  728  0.1656536E+02  0.2445817E+02  0.3496170E+02  0.2097018E+03
Ar  729  0.1625997E+02  0.2663115E+02  0.3770557E+02  0.1680280E+03
Ar  730  0.1975793E+02  0.3022488E+02  0.7588196E-01  0.2500396E+03
Ar  731  0.1883526E+02  0.2744666E+02  0.2082661E+01  0.3470369E+03
Ar  732  0.1652392E+02  0.2965149E+02  0.1350573E+01  0.2299464E+03
Ar  733  0.1595158E+02  0.2755490E+02  0.4805007E+01  0.3653995E+03
Ar  734  0.1900750E+02  0.2983291E+02  0.4927048E+01  0.3798466E+02
Ar  735  0.1893774E+02  0.2727332E+02  0.7777989E+01  0.4218261E+02
Ar  736  0.1628077E+02  0.2983324E+02  0.7400522E+01  0.9760063E+03
Ar  737  0.1632170E+02  0.2752707E+02  0.1042106E+02  0.3225516E+03
Ar  738  0.1886593E+02  0.3000917E+02  0.1128278E+02  0.3847095E+03
Ar  739  0.1844516E+02  0.2712925E+02  0.1339111E+02  0.4237530E+03
Ar  740  0.1622619E+02  0.2989195E+02  0.1385100E+02  0.3504302E+03
Ar  741  0.1625428E+02  0.2670209E+02  0.1633996E+02  0.4423612E+03
Ar  742  0.1904692E+02  0.2960255E+02  0.1617937E+02  0.6379818E+03
Ar  743  0.1922583E+02  0.2762526E+02  0.1908164E+02  0.2249808E+03
Ar  744  0.1619734E+02  0.2894149E+02  0.1879318E+02  0.1482504E+03
Ar  745  0.1623415E+02  0.2747988E+02  0.2263202E+02  0.8211799E+02
Ar  746  0.1918765E+02  0.2969692E+02  0.2185036E+02  0.3640969E+03
Ar  747  0.1911493E+02  0.2710066E+02  0.2458820E+02  0.8254764E+02
Ar  748  0.1656435E+02  0.3078322E+02  0.2478562E+02  0.2716214E+03
Ar  749  0.1643250E+02  0.2712955E+02  0.2708134E+02  0.1461661E+03
Ar  750  0.1950773E+02  0.2984552E+02  0.2651563E+02  0.4763111E+02
Ar  751  0.1849891E+02  0.2695798E+02  0.2987811E+02  0.3704004E+03
Ar  752  0.1613126E+02  0.2964535E+02  0.2959880E+02  0.2424147E+03
Ar  753  0.1596867E+02  0.2715806E+02  0.3242445E+02  0.3025836E+03
Ar  754  0.1916349E+02  0.2995032E+02  0.3221348E+02  0.3617452E+03
Ar  755  0.1909600E+02  0.2710382E+02  0.3510727E+02  0.5219933E+03
Ar  756  0.1621216E+02  0.2927503E+02  0.3520482E+02  0.4928879E+03
Ar  757  0.1672507E+02  0.3237447E+02  0.3743939E+02  0.1341083E+03
Ar  758  0.1887514E+02  0.3503636E+02  0.3699383E+02  0.5225483E+02
Ar  759  0.1896150E+02  0.3330477E+02  0.2358170E+01  0.3332330E+03
Ar  760  0.1642949E+02  0.3539604E+02  0.2642671E+01  0.1179445E+03
Ar  761  0.1615125E+02  0.3175860E+02  0.4047543E+01  0.1129669E+03
Ar  762  0.1843943E+02  0.3470443E+02  0.5577006E+01  0.4810578E+03
Ar  763  0.1950087E+02  0.3204291E+02  0.8086154E+01  0.2129533E+02
Ar  764  0.1579863E+02  0.3470117E+02  0.8152134E+01  0.1253699E+03
Ar  765  0.1569630E+02  0.3198613E+02  0.1052104E+02  0.2469748E+03
Ar  766  0.1873907E+02  0.3488110E+02  0.1040724E+02  0.1324078E+03
Ar  767  0.1855925E+02  0.3225763E+02  0.1421620E+02  0.1145904E+03
Ar  768  0.1585563E+02  0.3541709E+02  0.1371391E+02  0.5509467E+02
Ar  769  0.1633103E+02  0.3215157E+02  0.1672837E+02  0.6793911E+02
Ar  770  0.1897328E+02  0.3488453E+02  0.1635047E+02  0.5486395E+03
Ar  771  0.1875656E+02  0.3160403E+02  0.1936379E+02  0.3333619E+02
Ar  772  0.1618363E+02  0.3569294E+02  0.1870980E+02  0.3428241E+03
Ar  773  0.1599038E+02  0.3236937E+02  0.2139768E+02  0.3925529E+03
Ar  774  0.1846736E+02  0.3526335E+02  0.2157215E+02  0.1575478E+03
Ar  775  0.1911005E+02  0.3297553E+02  0.2502176E+02  0.4014965E+03
Ar  776  0.1633865E+02  0.3548542E+02  0.2415555E+02  0.2236772E+03
Ar  777  0.1562815E+02  0.3271887E+02  0.2752861E+02  0.3551662E+02
Ar  778  0.1865077E+02  0.3548752E+02  0.2713628E+02  0.1839149E+03
Ar  779  0.1885981E+02  0.3296583E+02  0.2940711E+02  0.1316783E+03
Ar  780  0.1611896E+02  0.3548519E+02  0.2956281E+02  0.2436132E+03
Ar  781  0.1591060E+02  0.3229223E+02  0.3177168E+02  0.8206797E+02
Ar  782  0.1859610E+02  0.3493947E+02  0.3230446E+02  0.3026264E+03
Ar  783  0.1841839E+02  0.3227692E+02  0.3434445E+02  0.3545875E+02
Ar  784  0.1570775E+02  0.3499132E+02  0.3507643E+02  0.3834369E+03
Ar  785  0.2150278E+02  0.3772969E+02  0.3723851E+02  0.3544137E+03
Ar  786  0.2422593E+02  0.2123514E+01  0.3733965E+02  0.4091189E+02
Ar  787  0.2438145E+02  0.3574634E+00  0.2695986E+01  0.7838737E+02
Ar  788  0.2138377E+02  0.2728583E+01  0.3182672E+01  0.6041126E+03
Ar  789  0.2096263E+02  0.3772770E+02  0.5467555E+01  0.1271065E+03
Ar  790  0.2401466E+02  0.2320738E+01  0.5695601E+01  0.1907102E+03
Ar  791  0.2348783E+02  0.3355828E+00  0.8775794E+01  0.1993188E+02
Ar  792  0.2099445E+02  0.3010421E+01  0.8098001E+01  0.2495155E+03
Ar  793  0.2122682E+02  0.3742667E+02  0.1119008E+02  0.5474845E+03
Ar  794  0.2348698E+02  0.3130118E+01  0.1045443E+02  0.3381020E+02
Ar  795  0.2427675E+02  0.3733702E+02  0.1386489E+02  0.3113001E+03
Ar  796  0.2122909E+02  0.2394642E+01  0.1370620E+02  0.1260403E+03
Ar  797  0.2124024E+02  0.3937642E-01  0.1688123E+02  0.4173778E+03
Ar  798  0.2390205E+02  0.2767831E+01  0.1683221E+02  0.2349566E+03
Ar  799  0.2442485E+02  0.3774013E+02  0.1929614E+02  0.1245650E+03
Ar  800  0.2088558E+02  0.3232805E+01  0.1866532E+02  0.2023427E+03
Ar  801  0.2110455E+02  0.2242532E+00  0.2111526E+02  0.6300616E+02
Ar  802  0.2377943E+02  0.3378728E+01  0.2095821E+02  0.4899316E+03
Ar  803  0.2348193E+02  0.3173758E+00  0.2316049E+02  0.5635753E+03
Ar  804  0.2156176E+02  0.3356815E+01  0.2376241E+02  0.2810787E+03
Ar  805  0.2161819E+02  0.5440884E+00  0.2681306E+02  0.1891759E+03
Ar  806  0.2371005E+02  0.2958284E+01  0.2750753E+02  0.1014698E+04
Ar  807  0.2453465E+02  0.3776332E+02  0.2968871E+02  0.1416039E+03
Ar  808  0.2156130E+02  0.3633100E+01  0.3018118E+02  0.1471636E+03
Ar  809  0.2116548E+02  0.6288558E+00  0.3206691E+02  0.5057140E+03
Ar  810  0.2428689E+02  0.2390396E+01  0.3223355E+02  0.2130141E+03
Ar  811  0.2451735E+02  0.3016162E+00  0.3474047E+02  0.3487414E+03
Ar  812  0.2149860E+02  0.2911259E+01  0.3476798E+02  0.1596951E+03
Ar  813  0.2194771E+02  0.4712434E+01  0.4340936E+00  0.2085965E+03
Ar  814  0.2511349E+02  0.7724371E+01  0.7784625E-01  0.5442820E+03
Ar  815  0.2482491E+02  0.4733850E+01  0.2915835E+01  0.3359794E+03
Ar  816  0.2263144E+02  0.7800743E+01  0.2560773E+01  0.1898994E+03
Ar  817  0.2184621E+02  0.5349510E+01  0.5194909E+01  0.7106687E+02
Ar  818  0.2450287E+02  0.8692121E+01  0.5495871E+01  0.2495924E+03
Ar  819  0.2424737E+02  0.5943239E+01  0.7959500E+01  0.2290466E+03
Ar  820  0.2209523E+02  0.8469550E+01  0.8173621E+01  0.2478670E+02
Ar  821  0.2162687E+02  0.5941643E+01  0.1088668E+02  0.4889809E+03
Ar  822  0.2451187E+02  0.8037354E+01  0.1102245E+02  0.4844030E+03
Ar  823  0.2373974E+02  0.4925055E+01  0.1360420E+02  0.9261674E+01
Ar  824  0.2230819E+02  0.7958178E+01  0.1339803E+02  0.2728991E+03
Ar  825  0.2159748E+02  0.6342383E+01  0.1659485E+02  0.2519211E+03
Ar  826  0.2415285E+02  0.8538416E+01  0.1625234E+02  0.6730550E+02
Ar  827  0.2417372E+02  0.5666272E+01  0.1859886E+02  0.3295089E+03
Ar  828  0.2229240E+02  0.9112936E+01  0.1873222E+02  0.3636052E+03
Ar  829  0.2166189E+02  0.6097367E+01  0.2120962E+02  0.1602908E+03
Ar  830  0.2450058E+02  0.8905742E+01  0.2159733E+02  0.9915734E+02
Ar  831  0.2378046E+02  0.5956360E+01  0.2447167E+02  0.1923400E+03
Ar  832  0.2112132E+02  0.8415404E+01  0.2387608E+02  0.8298372E+02
Ar  833  0.2113937E+02  0.6112975E+01  0.2694142E+02  0.3527318E+02
Ar  834  0.2427649E+02  0.8412891E+01  0.2705522E+02  0.3179619E+03
Ar  835  0.2480788E+02  0.5543792E+01  0.2982945E+02  0.5193413E+01
Ar  836  0.2175456E+02  0.7986108E+01  0.3008301E+02  0.6510080E+02
Ar  837  0.2158927E+02  0.5723835E+01  0.3299859E+02  0.2477887E+03
Ar  838  0.2449320E+02  0.7994043E+01  0.3274907E+02  0.1855266E+03
Ar  839  0.2415055E+02  0.5212816E+01  0.3524402E+02  0.2887878E+03
Ar  840  0.2190408E+02  0.7715522E+01  0.3613849E+02  0.4753155E+03
Ar  841  0.2211193E+02  0.1108518E+02  0.3383702E-01  0.4053561E+03
Ar  842  0.2471625E+02  0.1354333E+02  0.5385489E-01  0.4750309E+03
Ar  843  0.2423068E+02  0.1116576E+02  0.2720405E+01  0.1254480E+03
Ar  844  0.2180810E+02  0.1339336E+02  0.2444310E+01  0.2760740E+02
Ar  845  0.2198003E+02  0.1051957E+02  0.5197071E+01  0.1311251E+03
Ar  846  0.2432722E+02  0.1384833E+02  0.5294273E+01  0.2073981E+03
Ar  847  0.2412655E+02  0.1148209E+02  0.8197227E+01  0.5038431E+03
Ar  848  0.2188029E+02  0.1394442E+02  0.8038527E+01  0.1199878E+03
Ar  849  0.2215973E+02  0.1060008E+02  0.1099130E+02  0.3421145E+03
Ar  850  0.2428388E+02  0.1401124E+02  0.1089224E+02  0.2134213E+03
Ar  851  0.2496887E+02  0.1079259E+02  0.1306491E+02  0.1611823E+03
Ar  852  0.2150927E+02  0.1348321E+02  0.1298247E+02  0.3064698E+03
Ar  853  0.2168283E+02  0.1084643E+02  0.1563474E+02  0.4255207E+02
Ar  854  0.2402420E+02  0.1342077E+02  0.1591022E+02  0.5215163E+03
Ar  855  0.2461992E+02  0.1133120E+02  0.1875997E+02  0.1124733E+03
Ar  856  0.2127482E+02  0.1315276E+02  0.1843896E+02  0.9201179E+02
Ar  857  0.2092679E+02  0.1101167E+02  0.2174720E+02  0.1671946E+03
Ar  858  0.2440038E+02  0.1323386E+02  0.2182853E+02  0.4174093E+03
Ar  859  0.2397451E+02  0.1103441E+02  0.2446161E+02  0.3321862E+03
Ar  860  0.2095804E+02  0.1345243E+02  0.2462232E+02  0.5259281E+02
Ar  861  0.2159742E+02  0.1051845E+02  0.2722260E+02  0.4017674E+03
Ar  862  0.2439358E+02  0.1395562E+02  0.2729267E+02  0.1848730E+03
Ar  863  0.2439976E+02  0.1070571E+02  0.2981619E+02  0.4821023E+03
Ar  864  0.2180375E+02  0.1341544E+02  0.2940506E+02  0.1349356E+03
Ar  865  0.2126558E+02  0.1025044E+02  0.3278074E+02  0.6914033E+02
Ar  866  0.2406057E+02  0.1394395E+02  0.3241515E+02  0.1058040E+03
Ar  867  0.2470771E+02  0.1077646E+02  0.3524583E+02  0.3639928E+01
Ar  868  0.2151889E+02  0.1338254E+02  0.3480230E+02  0.1966174E+03
Ar  869  0.2181756E+02  0.1620570E+02  0.2171947E+00  0.4723371E+02
Ar  870  0.2489103E+02  0.1896753E+02  0.4481313E+00  0.4340678E+03
Ar  871  0.2475512E+02  0.1619690E+02  0.2568287E+01  0.2801165E+03
Ar  872  0.2130471E+02  0.1968771E+02  0.2988863E+01  0.1434966E+03
Ar  873  0.2137239E+02  0.1645720E+02  0.5040313E+01  0.6111274E+03
Ar  874  0.2430542E+02  0.1858650E+02  0.5162210E+01  0.7866610E+01
Ar  875  0.2364763E+02  0.1715167E+02  0.8530332E+01  0.9180387E+03
Ar  876  0.2136962E+02  0.1951668E+02  0.8381289E+01  0.3354289E+03
Ar  877  0.2159017E+02  0.1652471E+02  0.1145642E+02  0.6117406E+02
Ar  878  0.2381744E+02  0.1898725E+02  0.1160091E+02  0.1010788E+03
Ar  879  0.2425418E+02  0.1600210E+02  0.1389480E+02  0.1035005E+03
Ar  880  0.2147427E+02  0.1900455E+02  0.1408271E+02  0.7080016E+03
Ar  881  0.2146745E+02  0.1600349E+02  0.1630868E+02  0.2106563E+03
Ar  882  0.2422849E+02  0.1893909E+02  0.1624376E+02  0.7206935E+02
Ar  883  0.2409862E+02  0.1581176E+02  0.1883811E+02  0.8681483E+03
Ar  884  0.2176125E+02  0.1868633E+02  0.1898866E+02  0.3161174E+03
Ar  885  0.2103104E+02  0.1524643E+02  0.2101899E+02  0.4079035E+03
Ar  886  0.2401763E+02  0.1823022E+02  0.2108957E+02  0.3439905E+03
Ar  887  0.2375360E+02  0.1563575E+02  0.2439010E+02  0.2604894E+03
Ar  888  0.2162575E+02  0.1836943E+02  0.2335134E+02  0.3431442E+03
Ar  889  0.2055662E+02  0.1649610E+02  0.2716792E+02  0.4314964E+02
Ar  890  0.2356782E+02  0.1837400E+02  0.2662415E+02  0.3201646E+03
Ar  891  0.2441436E+02  0.1652866E+02  0.3030868E+02  0.6453331E+02
Ar  892  0.2141504E+02  0.1901170E+02  0.2921803E+02  0.1201012E+03
Ar  893  0.2136312E+02  0.1687185E+02  0.3283288E+02  0.2559698E+03
Ar  894  0.2433315E+02  0.1901937E+02  0.3284825E+02  0.1263414E+03
Ar  895  0.2379392E+02  0.1598038E+02  0.3536445E+02  0.8191198E+03
Ar  896  0.2193434E+02  0.1895096E+02  0.3568226E+02  0.1061508E+03
Ar  897  0.2126491E+02  0.2166899E+02  0.8097639E-01  0.1706809E+03
Ar  898  0.2431612E+02  0.2378010E+02  0.1381003E+00  0.6559700E+03
Ar  899  0.2494281E+02  0.2120792E+02  0.2640289E+01  0.1706245E+03
Ar  900  0.2181245E+02  0.2467497E+02  0.2519349E+01  0.3798837E+03
Ar  901  0.2147360E+02  0.2218324E+02  0.5668378E+01  0.1510822E+03
Ar  902  0.2455217E+02  0.2393215E+02  0.4615813E+01  0.2535301E+03
Ar  903  0.2423694E+02  0.2169198E+02  0.7889845E+01  0.8101067E+02
Ar  904  0.2136633E+02  0.2460564E+02  0.8199713E+01  0.1106514E+03
Ar  905  0.2147849E+02  0.2169003E+02  0.1109600E+02  0.1303972E+03
Ar  906  0.2375819E+02  0.2439153E+02  0.1117558E+02  0.5726753E+03
Ar  907  0.2438215E+02  0.2166364E+02  0.1379048E+02  0.1913366E+03
Ar  908  0.2093019E+02  0.2432521E+02  0.1373375E+02  0.1824777E+03
Ar  909  0.2157532E+02  0.2192683E+02  0.1619864E+02  0.7579454E+03
Ar  910  0.2445643E+02  0.2438496E+02  0.1650860E+02  0.8042513E+03
Ar  911  0.2412886E+02  0.2137708E+02  0.1868942E+02  0.4435668E+03
Ar  912  0.2182782E+02  0.2406985E+02  0.1883082E+02  0.3058119E+03
Ar  913  0.2177107E+02  0.2203097E+02  0.2173886E+02  0.2088765E+02
Ar  914  0.2504396E+02  0.2453213E+02  0.2153255E+02  0.4779758E+03
Ar  915  0.2338250E+02  0.2168880E+02  0.2453355E+02  0.8103513E+02
Ar  916  0.2202412E+02  0.2475012E+02  0.2419629E+02  0.2175260E+03
Ar  917  0.2164581E+02  0.2228097E+02  0.2780828E+02  0.5681937E+03
Ar  918  0.2485871E+02  0.2396897E+02  0.2723185E+02  0.3651656E+02
Ar  919  0.2423696E+02  0.2079228E+02  0.2994630E+02  0.5726956E+03
Ar  920  0.2122628E+02  0.2482855E+02  0.3040007E+02  0.3923945E+02
Ar  921  0.2157293E+02  0.2113544E+02  0.3247361E+02  0.1319452E+03
Ar  922  0.2447927E+02  0.2352447E+02  0.3241657E+02  0.8916240E+02
Ar  923  0.2460570E+02  0.2130306E+02  0.3539700E+02  0.1676918E+03
Ar  924  0.2190928E+02  0.2424718E+02  0.3504538E+02  0.7213002E+02
Ar  925  0.2196737E+02  0.2688268E+02  0.3777350E+02  0.2878397E+03
Ar  926  0.2419726E+02  0.3023724E+02  0.4154791E-01  0.1137375E+03
Ar  927  0.2461801E+02  0.2735051E+02  0.2820499E+01  0.7391917E+02
Ar  928  0.2182762E+02  0.2954388E+02  0.3234173E+01  0.2418650E+02
Ar  929  0.2093915E+02  0.2662185E+02  0.5036305E+01  0.1756905E+03
Ar  930  0.2506319E+02  0.3005853E+02  0.5351936E+01  0.1017414E+02
Ar  931  0.2427426E+02  0.2676068E+02  0.7742858E+01  0.2432368E+03
Ar  932  0.2239703E+02  0.2967670E+02  0.7093205E+01  0.1045150E+02
Ar  933  0.2133757E+02  0.2686474E+02  0.1082065E+02  0.6302848E+02
Ar  934  0.2368753E+02  0.2909095E+02  0.1018012E+02  0.2971098E+02
Ar  935  0.2440261E+02  0.2672204E+02  0.1361027E+02  0.2368772E+03
Ar  936  0.2182928E+02  0.2960671E+02  0.1347701E+02  0.1617616E+03
Ar  937  0.2132058E+02  0.2671074E+02  0.1621351E+02  0.6506569E+02
Ar  938  0.2459331E+02  0.2940691E+02  0.1575758E+02  0.5962923E+02
Ar  939  0.2506456E+02  0.2717813E+02  0.1880909E+02  0.4875289E+02
Ar  940  0.2230736E+02  0.2925784E+02  0.1864516E+02  0.1668292E+03
Ar  941  0.2238282E+02  0.2703783E+02  0.2164175E+02  0.2399090E+03
Ar  942  0.2497720E+02  0.2990825E+02  0.2180824E+02  0.1137847E+03
Ar  943  0.2512571E+02  0.2664850E+02  0.2429178E+02  0.1241482E+03
Ar  944  0.2214014E+02  0.2924731E+02  0.2448818E+02  0.9637442E+02
Ar  945  0.2203217E+02  0.2678217E+02  0.2696665E+02  0.1271921E+03
Ar  946  0.2457991E+02  0.2954689E+02  0.2663760E+02  0.1011306E+03
Ar  947  0.2433788E+02  0.2652731E+02  0.2966847E+02  0.3698638E+03
Ar  948  0.2184124E+02  0.2926363E+02  0.2948248E+02  0.3547598E+03
Ar  949  0.2160185E+02  0.2758460E+02  0.3255688E+02  0.2019897E+03
Ar  950  0.2466742E+02  0.2947192E+02  0.3172110E+02  0.9064196E+01
Ar  951  0.2429768E+02  0.2727761E+02  0.3478246E+02  0.3224185E+02
Ar  952  0.2168088E+02  0.3062405E+02  0.3478390E+02  0.5971887E+03
Ar  953  0.2242011E+02  0.3328048E+02  0.3752413E+02  0.9272027E+02
Ar  954  0.2479984E+02  0.3549300E+02  0.3696504E+02  0.1680834E+03
Ar  955  0.2501110E+02  0.3266465E+02  0.2647358E+01  0.2896883E+02
Ar  956  0.2199219E+02  0.3546375E+02  0.2495571E+01  0.2153720E+03
Ar  957  0.2227401E+02  0.3250004E+02  0.4969456E+01  0.2808326E+03
Ar  958  0.2439236E+02  0.3602994E+02  0.6024025E+01  0.2174804E+03
Ar  959  0.2452552E+02  0.3247871E+02  0.8176300E+01  0.1418926E+03
Ar  960  0.2157737E+02  0.3489235E+02  0.8069898E+01  0.1037348E+03
Ar  961  0.2175078E+02  0.3217869E+02  0.1081582E+02  0.4535999E+03
Ar  962  0.2426891E+02  0.3467725E+02  0.1101250E+02  0.3202326E+03
Ar  963  0.2469598E+02  0.3238834E+02  0.1387430E+02  0.6459532E+03
Ar  964  0.2187584E+02  0.3455360E+02  0.1344416E+02  0.1758042E+02
Ar  965  0.2133569E+02  0.3204641E+02  0.1590880E+02  0.5126493E+03
Ar  966  0.2403048E+02  0.3451673E+02  0.1669333E+02  0.5197506E+03
Ar  967  0.2438757E+02  0.3186153E+02  0.1908953E+02  0.7725960E+02
Ar  968  0.2145859E+02  0.3425946E+02  0.1906293E+02  0.4532549E+03
Ar  969  0.2191366E+02  0.3185240E+02  0.2175839E+02  0.5030878E+02
Ar  970  0.2406645E+02  0.3471431E+02  0.2120030E+02  0.1342984E+02
Ar  971  0.2447136E+02  0.3261036E+02  0.2420935E+02  0.9339222E+02
Ar  972  0.2180085E+02  0.3514572E+02  0.2448745E+02  0.2633198E+03
Ar  973  0.2188354E+02  0.3204301E+02  0.2681195E+02  0.6299556E+03
Ar  974  0.2461346E+02  0.3530249E+02  0.2705390E+02  0.2002102E+03
Ar  975  0.2450370E+02  0.3218715E+02  0.2906085E+02  0.2019576E+03
Ar  976  0.2172744E+02  0.3516679E+02  0.2876244E+02  0.1500980E+03
Ar  977  0.2167900E+02  0.3247073E+02  0.3173704E+02  0.3106055E+03
Ar  978  0.2440758E+02  0.3537906E+02  0.3266511E+02  0.2640113E+03
Ar  979  0.2449837E+02  0.3255390E+02  0.3453990E+02  0.1150510E+03
Ar  980  0.2140182E+02  0.3472269E+02  0.3442656E+02  0.6502756E+03
Ar  981  0.2735035E+02  0.4592948E+00  0.3758806E+02  0.1610959E+03
Ar  982  0.3022670E+02  0.2633649E+01  0.3826931E+00  0.6566079E+02
Ar  983  0.3027836E+02  0.3751754E+02  0.2912921E+01  0.6644561E+03
Ar  984  0.2727779E+02  0.2017221E+01  0.2888754E+01  0.1051417E+03
Ar  985  0.2765929E+02  0.3745871E+02  0.5573411E+01  0.4450426E+03
Ar  986  0.2963804E+02  0.2443456E+01  0.5338084E+01  0.4086485E+03
Ar  987  0.2976902E+02  0.1930167E+00  0.8425150E+01  0.5536967E+03
Ar  988  0.2671759E+02  0.2633242E+01  0.8424582E+01  0.1593258E+03
Ar  989  0.2685161E+02  0.2936250E+00  0.1061506E+02  0.2327733E+03
Ar  990  0.2978217E+02  0.3159322E+01  0.1105767E+02  0.4571873E+03
Ar  991  0.2908470E+02  0.3639167E+00  0.1390793E+02  0.1364855E+03
Ar  992  0.2639646E+02  0.2839556E+01  0.1353316E+02  0.2958419E+03
Ar  993  0.2656886E+02  0.3750535E+02  0.1643753E+02  0.2839821E+03
Ar  994  0.2992009E+02  0.2687890E+01  0.1628981E+02  0.6958656E+02
Ar  995  0.3017383E+02  0.3765371E+02  0.1860337E+02  0.7513895E+03
Ar  996  0.2715840E+02  0.3089253E+01  0.1912995E+02  0.2278185E+03
Ar  997  0.2670545E+02  0.3772759E+02  0.2189697E+02  0.4781911E+03
Ar  998  0.3004044E+02  0.3307731E+01  0.2180439E+02  0.4587126E+03
Ar  999  0.2982881E+02  0.2494368E+00  0.2443200E+02  0.1124748E+03
Ar 1000  0.2583808E+02  0.2959158E+01  0.2357209E+02  0.8201365E+02
Ar 1001  0.2635058E+02  0.4498006E+00  0.2625159E+02  0.3262512E+03
Ar 1002  0.3037277E+02  0.3239990E+01  0.2713632E+02  0.4844960E+03
Ar 1003  0.2970025E+02  0.1714202E+00  0.2930010E+02  0.7522331E+02
Ar 1004  0.2727711E+02  0.2968994E+01  0.2964333E+02  0.1617801E+03
Ar 1005  0.2767254E+02  0.2912274E+00  0.3223378E+02  0.1834909E+03
Ar 1006  0.3056738E+02  0.3001336E+01  0.3237129E+02  0.3658877E+03
Ar 1007  0.2998147E+02  0.4793453E+00  0.3492009E+02  0.1433810E+03
Ar 1008  0.2731709E+02  0.2788823E+01  0.3455672E+02  0.3599788E+03
Ar 1009  0.2731059E+02  0.4571828E+01  0.5973757E+00  0.2845464E+03
Ar 1010  0.2968953E+02  0.7778980E+01  0.5985820E+00  0.5345284E+03
Ar 1011  0.2964434E+02  0.5003097E+01  0.3119312E+01  0.6095707E+02
Ar 1012  0.2691141E+02  0.8601459E+01  0.3115517E+01  0.4094915E+03
Ar 1013  0.2708732E+02  0.5324273E+01  0.5823487E+01  0.8003222E+03
Ar 1014  0.2987161E+02  0.8801719E+01  0.5548645E+01  0.1405752E+03
Ar 1015  0.2959494E+02  0.5450065E+01  0.8229058E+01  0.3223143E+03
Ar 1016  0.2671677E+02  0.9045959E+01  0.8444806E+01  0.3544877E+03
Ar 1017  0.2640107E+02  0.5271276E+01  0.1069999E+02  0.2102154E+03
Ar 1018  0.2851079E+02  0.8240734E+01  0.1085773E+02  0.4145695E+03
Ar 1019  0.2914128E+02  0.5190731E+01  0.1359193E+02  0.2009961E+03
Ar 1020  0.2692805E+02  0.8263488E+01  0.1429070E+02  0.2365945E+03
Ar 1021  0.2715647E+02  0.5235471E+01  0.1636397E+02  0.4495013E+03
Ar 1022  0.3012005E+02  0.8009493E+01  0.1660052E+02  0.2489315E+03
Ar 1023  0.2936671E+02  0.5688271E+01  0.1910197E+02  0.4080616E+03
Ar 1024  0.2690309E+02  0.8057219E+01  0.1864807E+02  0.2258963E+03
Ar 1025  0.2704697E+02  0.5762637E+01  0.2167854E+02  0.1939812E+03
Ar 1026  0.2982656E+02  0.7861460E+01  0.2181942E+02  0.3858627E+03
Ar 1027  0.2961158E+02  0.5288985E+01  0.2438015E+02  0.8066237E+03
Ar 1028  0.2684807E+02  0.8264657E+01  0.2420983E+02  0.2520288E+03
Ar 1029  0.2679034E+02  0.4830177E+01  0.2679725E+02  0.3219500E+03
Ar 1030  0.2963521E+02  0.8289294E+01  0.2741730E+02  0.6343055E+02
Ar 1031  0.2984374E+02  0.5767914E+01  0.3028306E+02  0.2092726E+03
Ar 1032  0.2671192E+02  0.8133777E+01  0.2957371E+02  0.2871951E+03
Ar 1033  0.2708169E+02  0.5673832E+01  0.3249441E+02  0.2972200E+03
Ar 1034  0.2980289E+02  0.8295110E+01  0.3267894E+02  0.1053708E+02
Ar 1035  0.2975021E+02  0.5870789E+01  0.3562983E+02  0.1431292E+03
Ar 1036  0.2713641E+02  0.7911790E+01  0.3509720E+02  0.6337214E+03
Ar 1037  0.2723404E+02  0.1069638E+02  0.1967283E+00  0.5965389E+03
Ar 1038  0.3033781E+02  0.1348499E+02  0.3750656E+02  0.6641501E+02
Ar 1039  0.2987406E+02  0.1096422E+02  0.2587057E+01  0.4253209E+02
Ar 1040  0.2703982E+02  0.1328365E+02  0.2456366E+01  0.3149784E+02
Ar 1041  0.2718640E+02  0.1129528E+02  0.5383498E+01  0.8091330E+02
Ar 1042  0.2992939E+02  0.1391974E+02  0.5544385E+01  0.7710174E+02
Ar 1043  0.2954799E+02  0.1088864E+02  0.8286659E+01  0.5800449E+03
Ar 1044  0.2647555E+02  0.1426057E+02  0.8063767E+01  0.1143321E+03
Ar 1045  0.2757966E+02  0.1160037E+02  0.1097970E+02  0.2955944E+03
Ar 1046  0.2978801E+02  0.1459241E+02  0.1120428E+02  0.1967701E+03
Ar 1047  0.2940070E+02  0.1124517E+02  0.1415175E+02  0.6008135E+03
Ar 1048  0.2725521E+02  0.1390853E+02  0.1390782E+02  0.5201520E+03
Ar 1049  0.2719364E+02  0.1150509E+02  0.1642400E+02  0.2535231E+03
Ar 1050  0.2982039E+02  0.1385124E+02  0.1661248E+02  0.9602807E+02
Ar 1051  0.2942307E+02  0.1039195E+02  0.1886451E+02  0.1044770E+04
Ar 1052  0.2737682E+02  0.1337117E+02  0.1942155E+02  0.1235064E+03
Ar 1053  0.2753715E+02  0.1059533E+02  0.2179357E+02  0.1516465E+03
Ar 1054  0.2981248E+02  0.1371749E+02  0.2186715E+02  0.1818589E+03
Ar 1055  0.2953990E+02  0.1142303E+02  0.2456107E+02  0.2051361E+03
Ar 1056  0.2689133E+02  0.1338953E+02  0.2426889E+02  0.1671822E+01
Ar 1057  0.2706193E+02  0.1148599E+02  0.2722522E+02  0.1153080E+03
Ar 1058  0.2951469E+02  0.1420131E+02  0.2726507E+02  0.5859871E+03
Ar 1059  0.2954411E+02  0.1047966E+02  0.2965139E+02  0.3940084E+03
Ar 1060  0.2660281E+02  0.1370469E+02  0.2988611E+02  0.7403240E+02
Ar 1061  0.2682989E+02  0.1113414E+02  0.3257837E+02  0.1389685E+03
Ar 1062  0.2963752E+02  0.1347096E+02  0.3206633E+02  0.5134109E+03
Ar 1063  0.2978716E+02  0.9739008E+01  0.3578505E+02  0.2124740E+03
Ar 1064  0.2773119E+02  0.1381246E+02  0.3520157E+02  0.1724782E+03
Ar 1065  0.2706134E+02  0.1619645E+02  0.3747188E+02  0.8365924E+03
Ar 1066  0.2999367E+02  0.1917544E+02  0.3757620E+02  0.1049627E+03
Ar 1067  0.3026827E+02  0.1661397E+02  0.2220246E+01  0.5539231E+02
Ar 1068  0.2757256E+02  0.1864592E+02  0.2699109E+01  0.4584307E+02
Ar 1069  0.2721005E+02  0.1574765E+02  0.4786925E+01  0.7210450E+02
Ar 1070  0.3001515E+02  0.1867977E+02  0.5181456E+01  0.6598952E+02
Ar 1071  0.3067851E+02  0.1685928E+02  0.8398913E+01  0.2513518E+03
Ar 1072  0.2735186E+02  0.1881902E+02  0.7808333E+01  0.2438587E+03
Ar 1073  0.2718784E+02  0.1678584E+02  0.1085622E+02  0.4174446E+03
Ar 1074  0.2976204E+02  0.1918673E+02  0.1080533E+02  0.1682961E+03
Ar 1075  0.2947181E+02  0.1661756E+02  0.1421334E+02  0.3261468E+03
Ar 1076  0.2734628E+02  0.1932539E+02  0.1340224E+02  0.2746608E+02
Ar 1077  0.2730561E+02  0.1597329E+02  0.1667989E+02  0.1505245E+03
Ar 1078  0.3021573E+02  0.1918621E+02  0.1671601E+02  0.1053349E+03
Ar 1079  0.2988006E+02  0.1647787E+02  0.1931835E+02  0.2686155E+03
Ar 1080  0.2707806E+02  0.1917274E+02  0.1897071E+02  0.3825017E+03
Ar 1081  0.2702873E+02  0.1621983E+02  0.2181721E+02  0.1531855E+03
Ar 1082  0.2967420E+02  0.1908190E+02  0.2147731E+02  0.4535495E+03
Ar 1083  0.3020349E+02  0.1625501E+02  0.2419553E+02  0.4056106E+02
Ar 1084  0.2613250E+02  0.1911868E+02  0.2379098E+02  0.6634653E+03
Ar 1085  0.2680585E+02  0.1687697E+02  0.2747779E+02  0.3739046E+03
Ar 1086  0.2988612E+02  0.1927281E+02  0.2700915E+02  0.2936206E+03
Ar 1087  0.2932744E+02  0.1639735E+02  0.2962956E+02  0.8964621E+02
Ar 1088  0.2695153E+02  0.1922316E+02  0.2990966E+02  0.4584652E+03
Ar 1089  0.2704570E+02  0.1651349E+02  0.3277530E+02  0.2690471E+02
Ar 1090  0.2963206E+02  0.1877179E+02  0.3281105E+02  0.1621044E+03
Ar 1091  0.3018885E+02  0.1602148E+02  0.3504586E+02  0.2510485E+03
Ar 1092  0.2677247E+02  0.1884071E+02  0.3559257E+02  0.5440817E+03
Ar 1093  0.2687604E+02  0.2173095E+02  0.3770023E+02  0.1099951E+03
Ar 1094  0.2977103E+02  0.2519008E+02  0.3714009E+02  0.4309849E+03
Ar 1095  0.2956928E+02  0.2176336E+02  0.2189957E+01  0.3036892E+02
Ar 1096  0.2738510E+02  0.2474930E+02  0.2185736E+01  0.9914444E+02
Ar 1097  0.2829473E+02  0.2166972E+02  0.5298463E+01  0.8034899E+02
Ar 1098  0.2996208E+02  0.2489807E+02  0.5400574E+01  0.4781705E+02
Ar 1099  0.3049029E+02  0.2114325E+02  0.8299361E+01  0.7362390E+02
Ar 1100  0.2705853E+02  0.2404020E+02  0.7692829E+01  0.2988357E+03
Ar 1101  0.2740116E+02  0.2181698E+02  0.1037908E+02  0.3734964E+03
Ar 1102  0.3014351E+02  0.2391190E+02  0.1171483E+02  0.4346775E+03
Ar 1103  0.2988883E+02  0.2127562E+02  0.1380949E+02  0.2995607E+03
Ar 1104  0.2714354E+02  0.2428580E+02  0.1337649E+02  0.4110644E+03
Ar 1105  0.2693249E+02  0.2167578E+02  0.1658641E+02  0.8295651E+02
Ar 1106  0.3006519E+02  0.2370324E+02  0.1636517E+02  0.3882576E+02
Ar 1107  0.3023819E+02  0.2147501E+02  0.1901618E+02  0.2793612E+03
Ar 1108  0.2748472E+02  0.2422519E+02  0.1890316E+02  0.2267544E+03
Ar 1109  0.2669469E+02  0.2137773E+02  0.2159473E+02  0.3439817E+03
Ar 1110  0.2975216E+02  0.2400488E+02  0.2184034E+02  0.1608621E+03
Ar 1111  0.2930480E+02  0.2092526E+02  0.2422497E+02  0.7246964E+03
Ar 1112  0.2688027E+02  0.2370332E+02  0.2454902E+02  0.4674394E+03
Ar 1113  0.2647380E+02  0.2061853E+02  0.2681154E+02  0.1484739E+02
Ar 1114  0.2963561E+02  0.2423857E+02  0.2675031E+02  0.3560310E+03
Ar 1115  0.2946978E+02  0.2170326E+02  0.2971871E+02  0.3789424E+02
Ar 1116  0.2677791E+02  0.2389253E+02  0.2998710E+02  0.1617326E+03
Ar 1117  0.2733197E+02  0.2167483E+02  0.3287896E+02  0.2741301E+03
Ar 1118  0.3027515E+02  0.2444156E+02  0.3219865E+02  0.2066015E+03
Ar 1119  0.3011029E+02  0.2195355E+02  0.3588536E+02  0.5505749E+03
Ar 1120  0.2686174E+02  0.2431970E+02  0.3502888E+02  0.1421316E+03
Ar 1121  0.2664107E+02  0.2726701E+02  0.3730057E+02  0.2225911E+03
Ar 1122  0.2959441E+02  0.2967232E+02  0.5851426E-01  0.9563800E+02
Ar 1123  0.2971677E+02  0.2700234E+02  0.2391793E+01  0.2067293E+03
Ar 1124  0.2720826E+02  0.2994448E+02  0.2612555E+01  0.2619351E+03
Ar 1125  0.2727480E+02  0.2685434E+02  0.5433359E+01  0.2345334E+03
Ar 1126  0.2967536E+02  0.2995881E+02  0.5811721E+01  0.7098787E+03
Ar 1127  0.2985889E+02  0.2727549E+02  0.7945723E+01  0.2317431E+03
Ar 1128  0.2710156E+02  0.2962268E+02  0.8325998E+01  0.1263743E+03
Ar 1129  0.2795990E+02  0.2666881E+02  0.1056747E+02  0.4113418E+03
Ar 1130  0.3018229E+02  0.2960290E+02  0.1034725E+02  0.2148763E+03
Ar 1131  0.2986288E+02  0.2666362E+02  0.1360934E+02  0.4660860E+03
Ar 1132  0.2771007E+02  0.2953567E+02  0.1314017E+02  0.2479408E+03
Ar 1133  0.2713125E+02  0.2695783E+02  0.1603750E+02  0.5058097E+01
Ar 1134  0.2963965E+02  0.2957886E+02  0.1598055E+02  0.2769533E+02
Ar 1135  0.2965617E+02  0.2692398E+02  0.1885439E+02  0.1945137E+03
Ar 1136  0.2737161E+02  0.2986681E+02  0.1869045E+02  0.4806725E+03
Ar 1137  0.2714281E+02  0.2732244E+02  0.2136472E+02  0.7129500E+02
Ar 1138  0.2963235E+02  0.2996009E+02  0.2193019E+02  0.1871478E+03
Ar 1139  0.2979180E+02  0.2705866E+02  0.2417448E+02  0.9143398E+02
Ar 1140  0.2723889E+02  0.2998874E+02  0.2444920E+02  0.1245981E+03
Ar 1141  0.2716475E+02  0.2679123E+02  0.2712090E+02  0.3664814E+03
Ar 1142  0.3009662E+02  0.2976606E+02  0.2651728E+02  0.4660954E+03
Ar 1143  0.2917757E+02  0.2695686E+02  0.2977736E+02  0.1188536E+03
Ar 1144  0.2700127E+02  0.2981407E+02  0.2902796E+02  0.1945060E+03
Ar 1145  0.2732363E+02  0.2670915E+02  0.3271532E+02  0.2135573E+03
Ar 1146  0.2952902E+02  0.3001247E+02  0.3209794E+02  0.2027449E+02
Ar 1147  0.2957023E+02  0.2781853E+02  0.3506656E+02  0.2342904E+02
Ar 1148  0.2688724E+02  0.3022741E+02  0.3511598E+02  0.3432691E+03
Ar 1149  0.2677150E+02  0.3249281E+02  0.3765800E+02  0.5683786E+03
Ar 1150  0.2950900E+02  0.3530502E+02  0.3763489E+02  0.2465033E+03
Ar 1151  0.2952390E+02  0.3281465E+02  0.2669536E+01  0.3854555E+03
Ar 1152  0.2718909E+02  0.3551089E+02  0.2480873E+01  0.1293701E+02
Ar 1153  0.2758842E+02  0.3274608E+02  0.5512226E+01  0.2152868E+03
Ar 1154  0.3010992E+02  0.3518189E+02  0.5339705E+01  0.1799120E+03
Ar 1155  0.3012879E+02  0.3267142E+02  0.8117021E+01  0.1841423E+03
Ar 1156  0.2690316E+02  0.3526427E+02  0.8728455E+01  0.3366018E+03
Ar 1157  0.2729743E+02  0.3208244E+02  0.1081443E+02  0.9769688E+03
Ar 1158  0.2979816E+02  0.3544224E+02  0.1069675E+02  0.1382107E+03
Ar 1159  0.3018878E+02  0.3245181E+02  0.1319521E+02  0.4917625E+03
Ar 1160  0.2736314E+02  0.3512356E+02  0.1313760E+02  0.1795320E+03
Ar 1161  0.2735822E+02  0.3253050E+02  0.1587956E+02  0.3822815E+03
Ar 1162  0.2990740E+02  0.3501242E+02  0.1639900E+02  0.6250438E+03
Ar 1163  0.2989272E+02  0.3228264E+02  0.1848494E+02  0.8655103E+02
Ar 1164  0.2700302E+02  0.3513981E+02  0.1905499E+02  0.1788736E+03
Ar 1165  0.2738124E+02  0.3255747E+02  0.2132996E+02  0.3871378E+02
Ar 1166  0.3003418E+02  0.3529659E+02  0.2223994E+02  0.2228501E+03
Ar 1167  0.2978176E+02  0.3252851E+02  0.2430405E+02  0.5012490E+03
Ar 1168  0.2695895E+02  0.3491658E+02  0.2438216E+02  0.1331416E+03
Ar 1169  0.2784187E+02  0.3224003E+02  0.2700456E+02  0.1166084E+03
Ar 1170  0.2983812E+02  0.3517040E+02  0.2677399E+02  0.2207525E+03
Ar 1171  0.3009829E+02  0.3261527E+02  0.2941066E+02  0.4813212E+03
Ar 1172  0.2762515E+02  0.3520131E+02  0.2971467E+02  0.6856312E+02
Ar 1173  0.2658705E+02  0.3219531E+02  0.3224090E+02  0.8764542E+02
Ar 1174  0.3012756E+02  0.3489831E+02  0.3212142E+02  0.1777217E+03
Ar 1175  0.3260986E+02  0.3224990E+02  0.3246539E+02  0.1504147E+03
Ar 1176  0.2752871E+02  0.3591412E+02  0.3480073E+02  0.3070741E+01
Ar 1177  0.3246383E+02  0.3727081E+02  0.3753581E+02  0.1640522E+03
Ar 1178  0.3542997E+02  0.3028432E+01  0.1694675E+00  0.3713637E+03
Ar 1179  0.3523360E+02  0.3745953E+02  0.3085102E+01  0.4284830E+03
Ar 1180  0.3261022E+02  0.2664084E+01  0.2706425E+01  0.3606643E+03
Ar 1181  0.3208290E+02  0.1791207E+00  0.5858322E+01  0.1238209E+04
Ar 1182  0.3420225E+02  0.2975152E+01  0.5756728E+01  0.1286497E+03
Ar 1183  0.3500855E+02  0.7874355E-01  0.8303145E+01  0.2680779E+02
Ar 1184  0.3227968E+02  0.2611322E+01  0.8695301E+01  0.2445644E+03
Ar 1185  0.3225476E+02  0.3771272E+02  0.1083911E+02  0.1469525E+03
Ar 1186  0.3500756E+02  0.3086480E+01  0.1114068E+02  0.1157612E+03
Ar 1187  0.3506864E+02  0.1284032E-01  0.1345880E+02  0.1101285E+03
Ar 1188  0.3243719E+02  0.2727953E+01  0.1356321E+02  0.4967824E+03
Ar 1189  0.3233217E+02  0.3775468E+02  0.1569596E+02  0.2320286E+03
Ar 1190  0.3482719E+02  0.2572001E+01  0.1600524E+02  0.3984059E+03
Ar 1191  0.3476565E+02  0.3530786E+00  0.1866304E+02  0.7717161E+02
Ar 1192  0.3196050E+02  0.3700719E+01  0.1896888E+02  0.1425876E+03
Ar 1193  0.3243033E+02  0.1124622E+01  0.2138833E+02  0.6079786E+02
Ar 1194  0.3524112E+02  0.3321642E+01  0.2142055E+02  0.6164553E+01
Ar 1195  0.3511602E+02  0.6031996E+00  0.2366778E+02  0.6375055E+03
Ar 1196  0.3304159E+02  0.3404341E+01  0.2459080E+02  0.5766290E+02
Ar 1197  0.3241254E+02  0.1190876E+00  0.2696897E+02  0.1042607E+03
Ar 1198  0.3556189E+02  0.2938020E+01  0.2668042E+02  0.3955303E+03
Ar 1199  0.3535461E+02  0.3250211E+00  0.2937919E+02  0.5065122E+03
Ar 1200  0.3272882E+02  0.2786431E+01  0.2960749E+02  0.3683583E+03
Ar 1201  0.3245952E+02  0.3777912E+02  0.3187540E+02  0.3604347E+03
Ar 1202  0.3484724E+02  0.2724770E+01  0.3259417E+02  0.1309802E+03
Ar 1203  0.3532359E+02  0.3766434E+02  0.3504471E+02  0.1824049E+03
Ar 1204  0.3283026E+02  0.2851841E+01  0.3534924E+02  0.1385962E+03
Ar 1205  0.3243696E+02  0.5656895E+01  0.3336053E-01  0.8538648E+02
Ar 1206  0.3538965E+02  0.8068812E+01  0.3723648E+02  0.3057864E+03
Ar 1207  0.3527339E+02  0.5752418E+01  0.2896108E+01  0.3532361E+03
Ar 1208  0.3246130E+02  0.8566166E+01  0.2882561E+01  0.1120658E+03
Ar 1209  0.3180532E+02  0.5476794E+01  0.5767891E+01  0.6427573E+03
Ar 1210  0.3448626E+02  0.8218152E+01  0.5625461E+01  0.2425513E+02
Ar 1211  0.3399943E+02  0.6016586E+01  0.8290803E+01  0.4553578E+02
Ar 1212  0.3226536E+02  0.8650315E+01  0.9242934E+01  0.3402792E+02
Ar 1213  0.3220095E+02  0.5524622E+01  0.1148082E+02  0.1427561E+03
Ar 1214  0.3473815E+02  0.7768754E+01  0.1116197E+02  0.1284317E+03
Ar 1215  0.3499300E+02  0.5389532E+01  0.1367506E+02  0.2256404E+03
Ar 1216  0.3145254E+02  0.8728617E+01  0.1329759E+02  0.6568507E+03
Ar 1217  0.3260871E+02  0.5305263E+01  0.1608945E+02  0.3807705E+02
Ar 1218  0.3489463E+02  0.8238893E+01  0.1569342E+02  0.2604320E+03
Ar 1219  0.3525875E+02  0.5857424E+01  0.1862860E+02  0.2155288E+03
Ar 1220  0.3274071E+02  0.8047996E+01  0.1927428E+02  0.4397877E+03
Ar 1221  0.3251564E+02  0.5460702E+01  0.2178974E+02  0.3118422E+03
Ar 1222  0.3453878E+02  0.8322276E+01  0.2236015E+02  0.2208263E+03
Ar 1223  0.3559020E+02  0.5452869E+01  0.2425723E+02  0.1891193E+03
Ar 1224  0.3197381E+02  0.8227201E+01  0.2440791E+02  0.5397058E+03
Ar 1225  0.3276742E+02  0.5681719E+01  0.2696856E+02  0.1539477E+03
Ar 1226  0.3498543E+02  0.8325859E+01  0.2690212E+02  0.4599612E+03
Ar 1227  0.3500335E+02  0.5732553E+01  0.2976664E+02  0.2865313E+03
Ar 1228  0.3231949E+02  0.7996563E+01  0.2996835E+02  0.2240273E+03
Ar 1229  0.3239061E+02  0.5724937E+01  0.3243443E+02  0.4659207E+03
Ar 1230  0.3515539E+02  0.8313618E+01  0.3193671E+02  0.2216701E+03
Ar 1231  0.3490500E+02  0.5958760E+01  0.3484999E+02  0.3867285E+03
Ar 1232  0.3250906E+02  0.7972539E+01  0.3489207E+02  0.2969726E+01
Ar 1233  0.3265147E+02  0.1037491E+02  0.3761574E+02  0.1852081E+03
Ar 1234  0.3483319E+02  0.1377525E+02  0.3743536E+02  0.1645570E+03
Ar 1235  0.3501493E+02  0.1137193E+02  0.2252183E+01  0.6570282E+03
Ar 1236  0.3242658E+02  0.1388877E+02  0.2589427E+01  0.1925313E+03
Ar 1237  0.3248355E+02  0.1122098E+02  0.5301624E+01  0.6236084E+03
Ar 1238  0.3520833E+02  0.1381459E+02  0.4762130E+01  0.2302115E+03
Ar 1239  0.3512815E+02  0.1087781E+02  0.8639206E+01  0.1194389E+03
Ar 1240  0.3290042E+02  0.1363414E+02  0.7619421E+01  0.1304187E+04
Ar 1241  0.3175339E+02  0.1163793E+02  0.1148576E+02  0.4508966E+03
Ar 1242  0.3495762E+02  0.1362850E+02  0.1116542E+02  0.3147499E+03
Ar 1243  0.3469994E+02  0.1101254E+02  0.1370114E+02  0.9798831E+02
Ar 1244  0.3269722E+02  0.1361319E+02  0.1403093E+02  0.2418010E+03
Ar 1245  0.3244730E+02  0.1138611E+02  0.1651181E+02  0.6243163E+03
Ar 1246  0.3503719E+02  0.1383103E+02  0.1662317E+02  0.4268677E+03
Ar 1247  0.3529986E+02  0.1063223E+02  0.1876689E+02  0.3441091E+03
Ar 1248  0.3233145E+02  0.1401268E+02  0.1937051E+02  0.1785637E+03
Ar 1249  0.3172159E+02  0.1126327E+02  0.2174819E+02  0.3878804E+03
Ar 1250  0.3498611E+02  0.1322140E+02  0.2161445E+02  0.8734987E+02
Ar 1251  0.3524984E+02  0.1083007E+02  0.2464327E+02  0.5000251E+03
Ar 1252  0.3291636E+02  0.1365248E+02  0.2473801E+02  0.3840405E+03
Ar 1253  0.3262579E+02  0.1073288E+02  0.2700938E+02  0.1902092E+03
Ar 1254  0.3533611E+02  0.1382365E+02  0.2698590E+02  0.3387491E+03
Ar 1255  0.3557123E+02  0.1068029E+02  0.2938152E+02  0.2025499E+01
Ar 1256  0.3232039E+02  0.1304140E+02  0.2973896E+02  0.6393098E+02
Ar 1257  0.3291292E+02  0.1062853E+02  0.3239916E+02  0.1909092E+03
Ar 1258  0.3526109E+02  0.1347189E+02  0.3260168E+02  0.4070311E+03
Ar 1259  0.3548591E+02  0.1075183E+02  0.3492855E+02  0.3105612E+03
Ar 1260  0.3216016E+02  0.1270603E+02  0.3482703E+02  0.3601427E+02
Ar 1261  0.3240410E+02  0.1615104E+02  0.3736306E+02  0.9040133E+02
Ar 1262  0.3485312E+02  0.1910507E+02  0.3770221E+02  0.1139244E+03
Ar 1263  0.3528361E+02  0.1594977E+02  0.2298908E+01  0.1326735E+03
Ar 1264  0.3229275E+02  0.1917241E+02  0.2614957E+01  0.1133977E+03
Ar 1265  0.3245128E+02  0.1650056E+02  0.5685737E+01  0.9283238E+03
Ar 1266  0.3507704E+02  0.1877097E+02  0.5097382E+01  0.2572155E+03
Ar 1267  0.3549567E+02  0.1636803E+02  0.7811004E+01  0.5523478E+02
Ar 1268  0.3334301E+02  0.1903296E+02  0.7854055E+01  0.7659153E+03
Ar 1269  0.3280160E+02  0.1674558E+02  0.1080996E+02  0.1322966E+03
Ar 1270  0.3550549E+02  0.1835837E+02  0.1087532E+02  0.1471579E+03
Ar 1271  0.3523484E+02  0.1616455E+02  0.1372869E+02  0.6377688E+03
Ar 1272  0.3289692E+02  0.1920032E+02  0.1355223E+02  0.9736731E+03
Ar 1273  0.3224030E+02  0.1615501E+02  0.1646711E+02  0.5780062E+02
Ar 1274  0.3548776E+02  0.1850161E+02  0.1646309E+02  0.1733325E+03
Ar 1275  0.3546251E+02  0.1625494E+02  0.1973013E+02  0.3986698E+03
Ar 1276  0.3255922E+02  0.1880331E+02  0.1916682E+02  0.6729726E+03
Ar 1277  0.3309238E+02  0.1679472E+02  0.2201989E+02  0.2851494E+03
Ar 1278  0.3552636E+02  0.1901636E+02  0.2206715E+02  0.1254302E+03
Ar 1279  0.3550575E+02  0.1643613E+02  0.2451631E+02  0.2223339E+03
Ar 1280  0.3255053E+02  0.1882092E+02  0.2478035E+02  0.1540083E+03
Ar 1281  0.3253724E+02  0.1593735E+02  0.2744262E+02  0.3099030E+03
Ar 1282  0.3497461E+02  0.1804294E+02  0.2746275E+02  0.9946881E+02
Ar 1283  0.3512531E+02  0.1562523E+02  0.2998709E+02  0.1089060E+03
Ar 1284  0.3176413E+02  0.1911506E+02  0.2988071E+02  0.2444162E+03
Ar 1285  0.3235216E+02  0.1626375E+02  0.3239879E+02  0.1396141E+03
Ar 1286  0.3476698E+02  0.1883852E+02  0.3232290E+02  0.2081444E+03
Ar 1287  0.3550816E+02  0.1613990E+02  0.3525541E+02  0.4840377E+03
Ar 1288  0.3228668E+02  0.1862712E+02  0.3485983E+02  0.1733112E+03
Ar 1289  0.3274108E+02  0.2195327E+02  0.1072808E+00  0.1299330E+03
Ar 1290  0.3492312E+02  0.2446506E+02  0.1407074E+00  0.1344012E+03
Ar 1291  0.3489107E+02  0.2215614E+02  0.2989934E+01  0.1817686E+03
Ar 1292  0.3189901E+02  0.2437395E+02  0.2531486E+01  0.3094662E+03
Ar 1293  0.3218337E+02  0.2214746E+02  0.5309419E+01  0.7244403E+02
Ar 1294  0.3491486E+02  0.2496784E+02  0.5324289E+01  0.1800493E+03
Ar 1295  0.3484026E+02  0.2192773E+02  0.7049100E+01  0.5721274E+02
Ar 1296  0.3226971E+02  0.2456402E+02  0.7956254E+01  0.4106031E+03
Ar 1297  0.3327055E+02  0.2123625E+02  0.1094772E+02  0.8889519E+02
Ar 1298  0.3477482E+02  0.2430716E+02  0.1090092E+02  0.1150258E+03
Ar 1299  0.3561255E+02  0.2129216E+02  0.1359724E+02  0.6808745E+02
Ar 1300  0.3279583E+02  0.2357849E+02  0.1378325E+02  0.1729142E+03
Ar 1301  0.3350234E+02  0.2154753E+02  0.1665254E+02  0.1953374E+03
Ar 1302  0.3556917E+02  0.2488331E+02  0.1686751E+02  0.2504360E+03
Ar 1303  0.3562327E+02  0.2139869E+02  0.1954544E+02  0.8664663E+02
Ar 1304  0.3250864E+02  0.2385894E+02  0.1957805E+02  0.5461553E+03
Ar 1305  0.3246166E+02  0.2137744E+02  0.2201118E+02  0.2241566E+03
Ar 1306  0.3456183E+02  0.2390025E+02  0.2209578E+02  0.2776148E+03
Ar 1307  0.3477923E+02  0.2128705E+02  0.2522582E+02  0.1476925E+03
Ar 1308  0.3227147E+02  0.2409399E+02  0.2455080E+02  0.2653542E+03
Ar 1309  0.3187773E+02  0.2180823E+02  0.2707638E+02  0.1529398E+03
Ar 1310  0.3475100E+02  0.2463597E+02  0.2693586E+02  0.3079826E+02
Ar 1311  0.3433533E+02  0.2181568E+02  0.2936977E+02  0.1060202E+03
Ar 1312  0.3195857E+02  0.2481437E+02  0.2917046E+02  0.2180873E+03
Ar 1313  0.3201513E+02  0.2175271E+02  0.3279240E+02  0.5736053E+03
Ar 1314  0.3447037E+02  0.2429886E+02  0.3196236E+02  0.1014864E+03
Ar 1315  0.3474618E+02  0.2187229E+02  0.3511891E+02  0.1036362E+03
Ar 1316  0.3245734E+02  0.2459414E+02  0.3494619E+02  0.5806615E+02
Ar 1317  0.3212626E+02  0.2733648E+02  0.3755108E+02  0.5116057E+03
Ar 1318  0.3507303E+02  0.3036735E+02  0.3694887E+02  0.2095557E+03
Ar 1319  0.3505149E+02  0.2687245E+02  0.2069924E+01  0.8193841E+03
Ar 1320  0.3234808E+02  0.3023877E+02  0.2392528E+01  0.1290606E+03
Ar 1321  0.3208940E+02  0.2750953E+02  0.4679766E+01  0.1029804E+04
Ar 1322  0.3508454E+02  0.2919411E+02  0.5438377E+01  0.3375009E+03
Ar 1323  0.3465535E+02  0.2697706E+02  0.8457435E+01  0.1462607E+03
Ar 1324  0.3273871E+02  0.3009373E+02  0.7765082E+01  0.3546829E+03
Ar 1325  0.3204839E+02  0.2639650E+02  0.1094645E+02  0.3766899E+03
Ar 1326  0.3486774E+02  0.2942888E+02  0.1088361E+02  0.4096901E+02
Ar 1327  0.3498349E+02  0.2696477E+02  0.1389558E+02  0.4858782E+03
Ar 1328  0.3257594E+02  0.2919143E+02  0.1394691E+02  0.1520330E+03
Ar 1329  0.3221227E+02  0.2628880E+02  0.1663260E+02  0.4679563E+01
Ar 1330  0.3599933E+02  0.2979699E+02  0.1610356E+02  0.3560731E+03
Ar 1331  0.3462153E+02  0.2688044E+02  0.1948435E+02  0.8297068E+02
Ar 1332  0.3262438E+02  0.2973530E+02  0.1829818E+02  0.2703652E+03
Ar 1333  0.3224312E+02  0.2640035E+02  0.2190000E+02  0.2012276E+03
Ar 1334  0.3524725E+02  0.2958386E+02  0.2115774E+02  0.4067962E+03
Ar 1335  0.3505718E+02  0.2739244E+02  0.2437231E+02  0.7952199E+02
Ar 1336  0.3272966E+02  0.2960660E+02  0.2333918E+02  0.1341361E+03
Ar 1337  0.3250337E+02  0.2720748E+02  0.2658662E+02  0.1091507E+03
Ar 1338  0.3490003E+02  0.2954895E+02  0.2694423E+02  0.5159528E+02
Ar 1339  0.3522983E+02  0.2702019E+02  0.2920740E+02  0.1509310E+03
Ar 1340  0.3231709E+02  0.2925661E+02  0.2947960E+02  0.2856684E+03
Ar 1341  0.3184248E+02  0.2753070E+02  0.3272029E+02  0.5166058E+02
Ar 1342  0.3525978E+02  0.2973232E+02  0.3246683E+02  0.7816434E+02
Ar 1343  0.3482210E+02  0.2673934E+02  0.3471163E+02  0.1659024E+02
Ar 1344  0.3242685E+02  0.3008972E+02  0.3499396E+02  0.7310816E+02
Ar 1345  0.2947066E+02  0.3261833E+02  0.3481366E+02  0.1110655E+03
Ar 1346  0.3777455E+02  0.3505403E+02  0.2604777E+01  0.1005305E+03
Ar 1347  0.3551976E+02  0.3178791E+02  0.2990737E+01  0.5936501E+03
Ar 1348  0.3244419E+02  0.3500530E+02  0.2464793E+01  0.3037547E+03
Ar 1349  0.3256562E+02  0.3269677E+02  0.5040584E+01  0.2028887E+03
Ar 1350  0.3491269E+02  0.3513912E+02  0.5533047E+01  0.4891897E+02
Ar 1351  0.3528148E+02  0.3259662E+02  0.7699701E+01  0.3379586E+03
Ar 1352  0.3257872E+02  0.3506185E+02  0.8207294E+01  0.1607631E+03
Ar 1353  0.3282652E+02  0.3238322E+02  0.1064160E+02  0.3092235E+03
Ar 1354  0.3567625E+02  0.3484397E+02  0.1102823E+02  0.3295550E+02
Ar 1355  0.3494762E+02  0.3218797E+02  0.1341703E+02  0.1461739E+03
Ar 1356  0.3285536E+02  0.3520308E+02  0.1354660E+02  0.1023284E+03
Ar 1357  0.3256460E+02  0.3269632E+02  0.1603657E+02  0.2111457E+03
Ar 1358  0.3535153E+02  0.3500257E+02  0.1581680E+02  0.3187967E+03
Ar 1359  0.3504535E+02  0.3262396E+02  0.1864803E+02  0.9204484E+02
Ar 1360  0.3233914E+02  0.3506895E+02  0.1872790E+02  0.3013112E+03
Ar 1361  0.3263267E+02  0.3283608E+02  0.2190375E+02  0.1355724E+03
Ar 1362  0.3453655E+02  0.3569709E+02  0.2161722E+02  0.1075196E+03
Ar 1363  0.3572916E+02  0.3223909E+02  0.2413656E+02  0.4497690E+03
Ar 1364  0.3257054E+02  0.3531572E+02  0.2470988E+02  0.6401160E+03
Ar 1365  0.3262821E+02  0.3250465E+02  0.2666660E+02  0.5450378E+03
Ar 1366  0.3617704E+02  0.3545058E+02  0.2654106E+02  0.1393299E+03
Ar 1367  0.3520067E+02  0.3265297E+02  0.2927799E+02  0.4754028E+03
Ar 1368  0.3272415E+02  0.3530475E+02  0.2959675E+02  0.8692227E+02
Ar 1369  0.3195129E+02  0.3286714E+02  0.7907489E-01  0.1479427E+03
Ar 1370  0.3513961E+02  0.3517381E+02  0.3197269E+02  0.8848362E+02
Ar 1371  0.3524238E+02  0.3293013E+02  0.3485125E+02  0.2372288E+03
Ar 1372  0.3262919E+02  0.3494744E+02  0.3480268E+02  0.5496079E+02
