        1372
Lattice="  0.3778015E+02  0.0000000E+00  0.0000000E+00  0.0000000E+00  0.3778015E+02  0.0000000E+00  0.0000000E+00  0.0000000E+00  0.3778015E+02" Properties=species:S:1:id:I:1:pos:R:3:tempK:R:1
Ar    1  0.3695293E+02  0.3030545E+00  0.3767643E-01  0.8762439E+03
Ar    2  0.2975929E+01  0.2392333E+01  0.3748017E+02  0.1605644E+02
Ar    3  0.2794795E+01  0.5032789E+00  0.2844772E+01  0.9894072E+02
Ar    4  0.3776992E+02  0.2659421E+01  0.2404126E+01  0.4285682E+03
Ar    5  0.3815007E+00  0.7140973E+00  0.5646762E+01  0.7749445E+03
Ar    6  0.2647313E+01  0.3101496E+01  0.5393388E+01  0.1351420E+03
Ar    7  0.3441402E+01  0.2450504E+00  0.8301603E+01  0.5540488E+03
Ar    8  0.1856539E+00  0.3746528E+01  0.7803619E+01  0.4118503E+03
Ar    9  0.3714155E+02  0.1353135E+01  0.1073052E+02  0.3381691E+02
Ar   10  0.2743326E+01  0.2793643E+01  0.1066228E+02  0.3768859E+03
Ar   11  0.2241284E+01  0.4127518E+00  0.1348081E+02  0.6695229E+03
Ar   12  0.1386607E-03  0.3370938E+01  0.1361909E+02  0.3205434E+03
Ar   13  0.6492742E-01  0.4329811E-01  0.1590772E+02  0.5143711E+03
Ar   14  0.3163446E+01  0.3271447E+01  0.1543348E+02  0.4747607E+03
Ar   15  0.2419361E+01  0.3737928E+02  0.1836801E+02  0.2757254E+03
Ar   16  0.3532078E+00  0.3094597E+01  0.1792888E+02  0.4573423E+03
Ar   17  0.3756830E+02  0.1818646E+00  0.2229622E+02  0.6073891E+02
Ar   18  0.2681066E+01  0.2523249E+01  0.2235651E+02  0.3862521E+03
Ar   19  0.3470865E+01  0.5535608E-01  0.2443570E+02  0.2499043E+03
Ar   20  0.3820996E+00  0.2779687E+01  0.2448467E+02  0.3220502E+03
Ar   21  0.1162855E+00  0.3754426E+02  0.2729203E+02  0.1601122E+03
Ar   22  0.2979169E+01  0.2923539E+01  0.2703383E+02  0.1165343E+03
Ar   23  0.3117923E+01  0.1671313E+00  0.2915380E+02  0.4352920E+03
Ar   24  0.3765588E+02  0.2724767E+01  0.2908185E+02  0.6702412E+03
Ar   25  0.1712946E+00  0.3731991E+02  0.3249035E+02  0.3080672E+03
Ar   26  0.2493862E+01  0.2228147E+01  0.3242280E+02  0.4311922E+03
Ar   27  0.3144633E+01  0.3746915E+02  0.3455639E+02  0.4459855E+03
Ar   28  0.3774778E+02  0.2761176E+01  0.3476225E+02  0.7650642E+02
Ar   29  0.3775998E+02  0.5371813E+01  0.3744196E+02  0.9917214E+02
Ar   30  0.3076056E+01  0.7998317E+01  0.3759952E+02  0.3648432E+03
Ar   31  0.2339554E+01  0.4969247E+01  0.2260601E+01  0.5359953E+03
Ar   32  0.3732953E+02  0.8137480E+01  0.1946019E+01  0.1451679E+03
Ar   33  0.3752765E+02  0.5930716E+01  0.4655434E+01  0.1118877E+03
Ar   34  0.2477235E+01  0.8643239E+01  0.5279254E+01  0.5088357E+03
Ar   35  0.2592080E+01  0.5965509E+01  0.7822476E+01  0.2482238E+03
Ar   36  0.3759328E+02  0.7802192E+01  0.7457249E+01  0.2225798E+03
Ar   37  0.3741558E+02  0.5102603E+01  0.1077405E+02  0.9503326E+02
Ar   38  0.2067044E+01  0.8432122E+01  0.1030261E+02  0.6135964E+03
Ar   39  0.2300005E+01  0.6259729E+01  0.1359624E+02  0.4886911E+03
Ar   40  0.3716215E+02  0.8453195E+01  0.1337407E+02  0.1578855E+03
Ar   41  0.3772569E+02  0.6031720E+01  0.1645224E+02  0.4220244E+03
Ar   42  0.2275864E+01  0.8829967E+01  0.1574619E+02  0.8183624E+03
Ar   43  0.2382326E+01  0.6727698E+01  0.1866042E+02  0.2666534E+03
Ar   44  0.3710099E+02  0.8317225E+01  0.1896523E+02  0.1022240E+04
Ar   45  0.3357015E-01  0.4896163E+01  0.2119857E+02  0.3637658E+03
Ar   46  0.2576925E+01  0.8894510E+01  0.2155715E+02  0.7233122E+03
Ar   47  0.2916893E+01  0.5563275E+01  0.2476693E+02  0.1487611E+03
Ar   48  0.2575005E+00  0.7670736E+01  0.2397126E+02  0.2589233E+03
Ar   49  0.1878959E+00  0.5690136E+01  0.2660643E+02  0.1070950E+03
Ar   50  0.2544477E+01  0.8782822E+01  0.2613671E+02  0.4683424E+03
Ar   51  0.2861705E+01  0.5406879E+01  0.3003521E+02  0.6847589E+02
Ar   52  0.4781479E-01  0.8068287E+01  0.2910684E+02  0.3939845E+03
Ar   53  0.3941203E+00  0.5322250E+01  0.3286454E+02  0.4187001E+03
Ar   54  0.2054472E+01  0.8157285E+01  0.3219541E+02  0.1714458E+03
Ar   55  0.2712012E+01  0.4781771E+01  0.3538660E+02  0.1082180E+04
Ar   56  0.4661364E+00  0.8061600E+01  0.3521843E+02  0.2443755E+03
Ar   57  0.3760132E+02  0.1081728E+02  0.3756465E+02  0.1034341E+03
Ar   58  0.2601907E+01  0.1364384E+02  0.9391065E-01  0.8174410E+02
Ar   59  0.2781269E+01  0.1047231E+02  0.2462957E+01  0.1553469E+03
Ar   60  0.3715270E+02  0.1381066E+02  0.2692493E+01  0.1504226E+03
Ar   61  0.2885357E-02  0.1088178E+02  0.4888857E+01  0.5767125E+03
Ar   62  0.3184113E+01  0.1331221E+02  0.5199208E+01  0.7469199E+03
Ar   63  0.2670712E+01  0.1103082E+02  0.8187735E+01  0.7935920E+03
Ar   64  0.5041474E+00  0.1355595E+02  0.7655380E+01  0.4313491E+03
Ar   65  0.3724615E+02  0.1132468E+02  0.1087041E+02  0.2943826E+02
Ar   66  0.2675015E+01  0.1315506E+02  0.1079613E+02  0.2722039E+03
Ar   67  0.2770548E+01  0.1115196E+02  0.1322935E+02  0.3491829E+03
Ar   68  0.3747456E+02  0.1372508E+02  0.1346789E+02  0.4729153E+03
Ar   69  0.3721345E+02  0.1053057E+02  0.1596777E+02  0.2453631E+03
Ar   70  0.2484783E+01  0.1354893E+02  0.1576067E+02  0.8539406E+02
Ar   71  0.2336439E+01  0.1113559E+02  0.1848413E+02  0.3513118E+03
Ar   72  0.3772633E+02  0.1357830E+02  0.1827387E+02  0.3460385E+03
Ar   73  0.2801042E+00  0.1133707E+02  0.2140716E+02  0.3470790E+03
Ar   74  0.2391959E+01  0.1425069E+02  0.2160079E+02  0.2746279E+03
Ar   75  0.2990790E+01  0.1146244E+02  0.2397043E+02  0.2332688E+03
Ar   76  0.3745673E+02  0.1395271E+02  0.2370790E+02  0.9609501E+02
Ar   77  0.3751582E+02  0.1095091E+02  0.2581897E+02  0.8620354E+02
Ar   78  0.2038808E+01  0.1288984E+02  0.2750210E+02  0.4337258E+03
Ar   79  0.2706920E+01  0.1027683E+02  0.2938331E+02  0.1061562E+03
Ar   80  0.3767664E+02  0.1341202E+02  0.3004366E+02  0.9671888E+02
Ar   81  0.1947414E+00  0.1076559E+02  0.3207810E+02  0.5915286E+02
Ar   82  0.2817733E+01  0.1369906E+02  0.3243581E+02  0.7276489E+03
Ar   83  0.2427115E+01  0.1094384E+02  0.3572212E+02  0.2392933E+03
Ar   84  0.3742752E+02  0.1325310E+02  0.3496012E+02  0.7226807E+03
Ar   85  0.3759674E+02  0.1584180E+02  0.3739778E+02  0.1909527E+03
Ar   86  0.2569237E+01  0.1864379E+02  0.3776021E+02  0.4759700E+03
Ar   87  0.2509495E+01  0.1596866E+02  0.2938948E+01  0.6214673E+03
Ar   88  0.9163979E-01  0.1861911E+02  0.3032671E+01  0.1375908E+03
Ar   89  0.3748143E+02  0.1604361E+02  0.5459556E+01  0.4244423E+03
Ar   90  0.2963797E+01  0.1870672E+02  0.5729422E+01  0.2228085E+03
Ar   91  0.2885433E+01  0.1622615E+02  0.7523550E+01  0.5528021E+03
Ar   92  0.3738295E+02  0.1904865E+02  0.7753433E+01  0.8082471E+03
Ar   93  0.5879828E-01  0.1619617E+02  0.1039921E+02  0.6048409E+02
Ar   94  0.2133253E+01  0.1887189E+02  0.1010747E+02  0.3763217E+03
Ar   95  0.2532566E+01  0.1572745E+02  0.1319392E+02  0.5067402E+02
Ar   96  0.3767602E+02  0.1870537E+02  0.1304481E+02  0.2609586E+02
Ar   97  0.3720287E+02  0.1695704E+02  0.1607967E+02  0.2955277E+02
Ar   98  0.2891822E+01  0.1882115E+02  0.1524020E+02  0.7517849E+02
Ar   99  0.2543925E+01  0.1616804E+02  0.1821694E+02  0.2110127E+03
Ar  100  0.3720681E+02  0.1880990E+02  0.1906175E+02  0.2276317E+03
Ar  101  0.3743628E+02  0.1594188E+02  0.2058194E+02  0.2100352E+03
Ar  102  0.2485759E+01  0.1818110E+02  0.2132112E+02  0.2242001E+03
Ar  103  0.3252914E+01  0.1586662E+02  0.2435640E+02  0.4479652E+02
Ar  104  0.1136464E+00  0.1896340E+02  0.2387364E+02  0.2161987E+03
Ar  105  0.1725165E+00  0.1626145E+02  0.2622111E+02  0.2596886E+03
Ar  106  0.2569096E+01  0.1837399E+02  0.2646848E+02  0.4128449E+03
Ar  107  0.2294758E+01  0.1573544E+02  0.2901669E+02  0.2261950E+03
Ar  108  0.3713743E+02  0.1833041E+02  0.2963389E+02  0.2277739E+03
Ar  109  0.1627670E+00  0.1591007E+02  0.3268597E+02  0.2007995E+03
Ar  110  0.2491988E+01  0.1809218E+02  0.3189487E+02  0.8947479E+02
Ar  111  0.2686702E+01  0.1574200E+02  0.3508625E+02  0.1312755E+03
Ar  112  0.2290012E-01  0.1827305E+02  0.3508811E+02  0.6921917E+02
Ar  113  0.3739245E+02  0.2167006E+02  0.6732749E+00  0.4457989E+03
Ar  114  0.2734503E+01  0.2410225E+02  0.3748165E+02  0.1566802E+03
Ar  115  0.3229569E+01  0.2119682E+02  0.2361993E+01  0.2938797E+03
Ar  116  0.5016242E+00  0.2426859E+02  0.2993379E+01  0.1838041E+03
Ar  117  0.9182301E+00  0.2167450E+02  0.5334725E+01  0.1710166E+03
Ar  118  0.3100569E+01  0.2423750E+02  0.5710486E+01  0.1423925E+03
Ar  119  0.2928527E+01  0.2134661E+02  0.8065224E+01  0.2087744E+03
Ar  120  0.6012328E-01  0.2398590E+02  0.7611019E+01  0.1541638E+03
Ar  121  0.3773182E+02  0.2141291E+02  0.1027884E+02  0.4578512E+03
Ar  122  0.2288222E+01  0.2415843E+02  0.1058749E+02  0.7321740E+03
Ar  123  0.2087350E+01  0.2152367E+02  0.1346959E+02  0.1519719E+03
Ar  124  0.3757873E+02  0.2445540E+02  0.1409556E+02  0.2652626E+03
Ar  125  0.1574238E+00  0.2062123E+02  0.1614121E+02  0.4876961E+03
Ar  126  0.2309055E+01  0.2445470E+02  0.1686027E+02  0.4516065E+03
Ar  127  0.2968064E+01  0.2108666E+02  0.1862703E+02  0.5478470E+01
Ar  128  0.3764005E+02  0.2442278E+02  0.1920931E+02  0.2443697E+02
Ar  129  0.3741484E+02  0.2156678E+02  0.2146957E+02  0.3708290E+03
Ar  130  0.2758238E+01  0.2441797E+02  0.2249505E+02  0.1399944E+03
Ar  131  0.2749358E+01  0.2126339E+02  0.2420704E+02  0.1315847E+03
Ar  132  0.3703554E+02  0.2367125E+02  0.2456073E+02  0.3946417E+03
Ar  133  0.9861793E-01  0.2092485E+02  0.2652444E+02  0.3469784E+03
Ar  134  0.2411051E+01  0.2401899E+02  0.2653080E+02  0.9688533E+01
Ar  135  0.1632252E+01  0.2106040E+02  0.2958926E+02  0.2868737E+03
Ar  136  0.1017129E+00  0.2448386E+02  0.2901823E+02  0.5526508E+03
Ar  137  0.3731146E+02  0.2138489E+02  0.3276134E+02  0.2052108E+03
Ar  138  0.2587328E+01  0.2385702E+02  0.3246520E+02  0.4056862E+03
Ar  139  0.1958672E+01  0.2112275E+02  0.3556752E+02  0.3983249E+03
Ar  140  0.1970348E+00  0.2430399E+02  0.3483183E+02  0.1801385E+03
Ar  141  0.3776883E+02  0.2657109E+02  0.3759077E+02  0.8696369E+03
Ar  142  0.2533449E+01  0.3029738E+02  0.3774985E+02  0.3820523E+03
Ar  143  0.3126025E+01  0.2710365E+02  0.2436973E+01  0.8176097E+02
Ar  144  0.7956598E+00  0.2973341E+02  0.2918068E+01  0.5144179E+02
Ar  145  0.1170805E+00  0.2709661E+02  0.5424546E+01  0.2166032E+03
Ar  146  0.2870428E+01  0.2949809E+02  0.5981845E+01  0.2087304E+03
Ar  147  0.2204933E+01  0.2673132E+02  0.8266309E+01  0.4566133E+03
Ar  148  0.2417557E-01  0.2978823E+02  0.8571704E+01  0.2049499E+03
Ar  149  0.3763426E+02  0.2682556E+02  0.1120553E+02  0.1143172E+03
Ar  150  0.2372192E+01  0.3007273E+02  0.1104260E+02  0.5542297E+02
Ar  151  0.2351289E+01  0.2676035E+02  0.1383582E+02  0.8865722E+02
Ar  152  0.3758118E+02  0.2997370E+02  0.1356775E+02  0.2735185E+02
Ar  153  0.3759726E+02  0.2737910E+02  0.1625369E+02  0.4067040E+03
Ar  154  0.2696397E+01  0.2983934E+02  0.1631269E+02  0.1522344E+03
Ar  155  0.3054782E+01  0.2704699E+02  0.1860214E+02  0.5661414E+02
Ar  156  0.1806841E+00  0.2993300E+02  0.1908245E+02  0.1658680E+03
Ar  157  0.3754463E+02  0.2640811E+02  0.2178374E+02  0.2016178E+03
Ar  158  0.2514109E+01  0.2903768E+02  0.2156411E+02  0.1494495E+03
Ar  159  0.3190097E+01  0.2802040E+02  0.2492052E+02  0.1009045E+03
Ar  160  0.1428740E+00  0.2936688E+02  0.2383729E+02  0.8769056E+03
Ar  161  0.1459391E+00  0.2683680E+02  0.2653758E+02  0.6062412E+02
Ar  162  0.2792236E+01  0.3058564E+02  0.2775137E+02  0.3090493E+03
Ar  163  0.2199541E+01  0.2765365E+02  0.2927183E+02  0.8402132E+03
Ar  164  0.1728875E+00  0.3021686E+02  0.2995240E+02  0.4168140E+03
Ar  165  0.4819324E+00  0.2688923E+02  0.3222202E+02  0.4525665E+02
Ar  166  0.2501520E+01  0.3012035E+02  0.3226746E+02  0.3774296E+02
Ar  167  0.2769769E+01  0.2721666E+02  0.3504905E+02  0.1448605E+03
Ar  168  0.5180786E+00  0.2980787E+02  0.3505621E+02  0.4654739E+02
Ar  169  0.2924091E+00  0.3249371E+02  0.3776104E+02  0.3941805E+02
Ar  170  0.2828515E+01  0.3550288E+02  0.2387549E+00  0.1236358E+03
Ar  171  0.2738857E+01  0.3266374E+02  0.2438438E+01  0.4336669E+03
Ar  172  0.3453342E+02  0.3550093E+02  0.3731278E+02  0.1197702E+03
Ar  173  0.1810306E+00  0.3182081E+02  0.5783985E+01  0.5622780E+03
Ar  174  0.3037849E+01  0.3566308E+02  0.5419488E+01  0.2485584E+03
Ar  175  0.3165670E+01  0.3259290E+02  0.8101851E+01  0.3164102E+02
Ar  176  0.1726958E+00  0.3497317E+02  0.7644930E+01  0.2003866E+03
Ar  177  0.3756805E+02  0.3301334E+02  0.1019744E+02  0.2644623E+03
Ar  178  0.1587374E+01  0.3652515E+02  0.1082993E+02  0.2348671E+03
Ar  179  0.2413318E+01  0.3266719E+02  0.1324751E+02  0.3602682E+03
Ar  180  0.3720311E+02  0.3506526E+02  0.1377727E+02  0.6517688E+02
Ar  181  0.3705813E+02  0.3230577E+02  0.1598958E+02  0.1128113E+03
Ar  182  0.2533160E+01  0.3537316E+02  0.1560210E+02  0.1551543E+03
Ar  183  0.2247445E+01  0.3258975E+02  0.1883499E+02  0.5365065E+03
Ar  184  0.3754666E+02  0.3489662E+02  0.1872789E+02  0.9111348E+02
Ar  185  0.4904636E+00  0.3272704E+02  0.2188387E+02  0.1060650E+03
Ar  186  0.2545526E+01  0.3537741E+02  0.2211703E+02  0.6581996E+03
Ar  187  0.2523416E+01  0.3197896E+02  0.2413954E+02  0.7649743E+02
Ar  188  0.3714978E+02  0.3501728E+02  0.2415929E+02  0.1212867E+03
Ar  189  0.5888419E-01  0.3254784E+02  0.2670351E+02  0.4937380E+03
Ar  190  0.2377797E+01  0.3506156E+02  0.2691591E+02  0.3243539E+03
Ar  191  0.3161525E+01  0.3313498E+02  0.2965372E+02  0.1469479E+03
Ar  192  0.3746207E+02  0.3550257E+02  0.2952579E+02  0.2728427E+03
Ar  193  0.3747057E+02  0.3332064E+02  0.3242449E+02  0.7109180E+02
Ar  194  0.2957504E+01  0.3533529E+02  0.3199814E+02  0.4916828E+03
Ar  195  0.2767787E+01  0.3282972E+02  0.3507058E+02  0.1929170E+03
Ar  196  0.3774667E+02  0.3546931E+02  0.3545727E+02  0.5199107E+03
Ar  197  0.5584637E+01  0.3768560E+02  0.3764794E+02  0.1650120E+03
Ar  198  0.8348196E+01  0.2478460E+01  0.3763064E+02  0.7035812E+03
Ar  199  0.9567584E+01  0.5330302E-01  0.3911620E+01  0.4865584E+03
Ar  200  0.5532524E+01  0.3057040E+01  0.2970618E+01  0.6453655E+03
Ar  201  0.5618101E+01  0.3534223E+00  0.5306903E+01  0.1000327E+03
Ar  202  0.8577363E+01  0.2913104E+01  0.5120119E+01  0.4884225E+02
Ar  203  0.8225503E+01  0.6835603E-01  0.7611249E+01  0.4064171E+03
Ar  204  0.5016946E+01  0.3561696E+01  0.8169617E+01  0.4445855E+03
Ar  205  0.6194823E+01  0.5045260E+00  0.1016360E+02  0.3441905E+03
Ar  206  0.7715427E+01  0.3289225E+01  0.1040099E+02  0.2153123E+03
Ar  207  0.8282683E+01  0.1173543E+00  0.1381570E+02  0.5720805E+03
Ar  208  0.5616932E+01  0.2538715E+01  0.1317162E+02  0.2573874E+03
Ar  209  0.5224637E+01  0.3724974E+02  0.1663230E+02  0.1621457E+03
Ar  210  0.7101023E+01  0.2377754E+01  0.1642344E+02  0.3933669E+02
Ar  211  0.8198564E+01  0.3727138E+02  0.1849522E+02  0.8963832E+02
Ar  212  0.4007783E+01  0.2688686E+01  0.1900407E+02  0.1705778E+03
Ar  213  0.5940872E+01  0.1458049E+00  0.2103423E+02  0.3501186E+03
Ar  214  0.7509714E+01  0.3134337E+01  0.2042873E+02  0.3477719E+02
Ar  215  0.8867510E+01  0.1013101E+00  0.2355522E+02  0.7433215E+02
Ar  216  0.5855223E+01  0.2672468E+01  0.2401797E+02  0.2002912E+03
Ar  217  0.5797343E+01  0.6212397E+00  0.2660175E+02  0.4814738E+03
Ar  218  0.8318998E+01  0.3513043E+01  0.2708752E+02  0.2435184E+03
Ar  219  0.8335542E+01  0.6312049E+00  0.2985538E+02  0.4152918E+02
Ar  220  0.5865206E+01  0.3319559E+01  0.2921131E+02  0.1375049E+02
Ar  221  0.6052959E+01  0.1748018E+00  0.3269925E+02  0.2537510E+03
Ar  222  0.8342045E+01  0.3115890E+01  0.3302691E+02  0.1036904E+03
Ar  223  0.8868910E+01  0.9495795E-01  0.3523581E+02  0.2649077E+02
Ar  224  0.5564902E+01  0.2529046E+01  0.3529204E+02  0.6822052E+03
Ar  225  0.5369357E+01  0.5337899E+01  0.3760910E+02  0.1976859E+03
Ar  226  0.8286258E+01  0.8269627E+01  0.3712686E+02  0.8800706E+03
Ar  227  0.8569552E+01  0.5207268E+01  0.2177359E+01  0.1893096E+03
Ar  228  0.5981829E+01  0.8009746E+01  0.2056507E+01  0.2100798E+03
Ar  229  0.5011372E+01  0.6102830E+01  0.5078724E+01  0.6335909E+03
Ar  230  0.8628249E+01  0.8015811E+01  0.5855495E+01  0.6509944E+03
Ar  231  0.8193227E+01  0.5341767E+01  0.7729774E+01  0.1585232E+03
Ar  232  0.5469190E+01  0.8714358E+01  0.7957410E+01  0.2810221E+03
Ar  233  0.4742603E+01  0.5882547E+01  0.1124904E+02  0.6511828E+03
Ar  234  0.8062027E+01  0.7662242E+01  0.1067643E+02  0.2276698E+03
Ar  235  0.8726218E+01  0.5182628E+01  0.1363633E+02  0.1040497E+03
Ar  236  0.5783260E+01  0.7886936E+01  0.1396985E+02  0.1764163E+03
Ar  237  0.5444551E+01  0.5600668E+01  0.1645042E+02  0.3032545E+03
Ar  238  0.8558425E+01  0.7670963E+01  0.1616158E+02  0.2081493E+03
Ar  239  0.7962065E+01  0.6388018E+01  0.1939884E+02  0.1828541E+03
Ar  240  0.5281996E+01  0.8910428E+01  0.1838157E+02  0.4774046E+03
Ar  241  0.5072940E+01  0.5228171E+01  0.2134223E+02  0.2658936E+03
Ar  242  0.8222202E+01  0.8516622E+01  0.2203945E+02  0.9849763E+02
Ar  243  0.8113431E+01  0.5914766E+01  0.2434091E+02  0.2151489E+02
Ar  244  0.5419206E+01  0.8304787E+01  0.2389360E+02  0.7004798E+03
Ar  245  0.5166435E+01  0.6222146E+01  0.2729227E+02  0.1683335E+03
Ar  246  0.9212113E+01  0.7554214E+01  0.2737284E+02  0.7742357E+02
Ar  247  0.8874507E+01  0.5433250E+01  0.3033899E+02  0.1610231E+03
Ar  248  0.5938915E+01  0.7812932E+01  0.3072815E+02  0.9433251E+02
Ar  249  0.5310922E+01  0.4627299E+01  0.3252854E+02  0.1083979E+03
Ar  250  0.8673996E+01  0.7447800E+01  0.3310788E+02  0.3257577E+03
Ar  251  0.7986416E+01  0.5400477E+01  0.3532694E+02  0.2991910E+03
Ar  252  0.5244505E+01  0.8357897E+01  0.3422094E+02  0.1669635E+03
Ar  253  0.5247064E+01  0.1097904E+02  0.3777855E+02  0.5723674E+02
Ar  254  0.7941725E+01  0.1347810E+02  0.4389633E+00  0.8013622E+03
Ar  255  0.8469716E+01  0.9977871E+01  0.3068036E+01  0.1993709E+03
Ar  256  0.5212820E+01  0.1372942E+02  0.2641684E+01  0.2144148E+03
Ar  257  0.5177248E+01  0.1071337E+02  0.4910518E+01  0.1862728E+03
Ar  258  0.7826048E+01  0.1337951E+02  0.5463527E+01  0.4928379E+02
Ar  259  0.8045838E+01  0.1065384E+02  0.7759796E+01  0.2146818E+03
Ar  260  0.5417970E+01  0.1369791E+02  0.7736976E+01  0.1452695E+03
Ar  261  0.5367212E+01  0.1067379E+02  0.1123995E+02  0.1305604E+03
Ar  262  0.8132682E+01  0.1323977E+02  0.1020245E+02  0.1624125E+03
Ar  263  0.8369457E+01  0.1076396E+02  0.1317292E+02  0.2501756E+03
Ar  264  0.5693666E+01  0.1379677E+02  0.1295098E+02  0.3486760E+03
Ar  265  0.5535583E+01  0.1105509E+02  0.1568367E+02  0.1067171E+03
Ar  266  0.8121880E+01  0.1343969E+02  0.1604573E+02  0.2805672E+03
Ar  267  0.8072628E+01  0.1037496E+02  0.1927020E+02  0.3050990E+03
Ar  268  0.5940667E+01  0.1391785E+02  0.1840085E+02  0.4570439E+03
Ar  269  0.4944279E+01  0.1139297E+02  0.2100784E+02  0.1608834E+03
Ar  270  0.7580925E+01  0.1385811E+02  0.2228520E+02  0.8393452E+02
Ar  271  0.7627040E+01  0.1076692E+02  0.2437878E+02  0.1230163E+03
Ar  272  0.5464478E+01  0.1346611E+02  0.2486598E+02  0.7353451E+03
Ar  273  0.5668712E+01  0.1016797E+02  0.2764311E+02  0.6939544E+02
Ar  274  0.7725783E+01  0.1280208E+02  0.2749320E+02  0.2619194E+03
Ar  275  0.8393079E+01  0.1040886E+02  0.3000054E+02  0.6273107E+03
Ar  276  0.4591829E+01  0.1311248E+02  0.2974299E+02  0.7577224E+03
Ar  277  0.5238415E+01  0.1082205E+02  0.3162022E+02  0.2016451E+03
Ar  278  0.8256808E+01  0.1380006E+02  0.3179715E+02  0.4161223E+03
Ar  279  0.8071132E+01  0.1119924E+02  0.3461681E+02  0.4983434E+03
Ar  280  0.5609116E+01  0.1348371E+02  0.3502146E+02  0.6084583E+03
Ar  281  0.6015727E+01  0.1625586E+02  0.5013346E+00  0.5370833E+03
Ar  282  0.8374212E+01  0.1912038E+02  0.3763364E+02  0.4208669E+03
Ar  283  0.8302121E+01  0.1608754E+02  0.2817803E+01  0.5024221E+03
Ar  284  0.6446201E+01  0.1974927E+02  0.2822984E+01  0.9730785E+03
Ar  285  0.5430771E+01  0.1640201E+02  0.5021578E+01  0.5019648E+00
Ar  286  0.8036171E+01  0.1871204E+02  0.5450647E+01  0.2740195E+03
Ar  287  0.8348649E+01  0.1619507E+02  0.8378704E+01  0.2526951E+03
Ar  288  0.5722372E+01  0.1856818E+02  0.7852652E+01  0.8405080E+03
Ar  289  0.5077105E+01  0.1588295E+02  0.1000334E+02  0.2226627E+03
Ar  290  0.8286065E+01  0.1876320E+02  0.1030281E+02  0.4789770E+03
Ar  291  0.8134661E+01  0.1618472E+02  0.1279763E+02  0.2680875E+02
Ar  292  0.5431974E+01  0.1853177E+02  0.1286040E+02  0.3063477E+03
Ar  293  0.5735916E+01  0.1641365E+02  0.1618240E+02  0.3509867E+03
Ar  294  0.7891534E+01  0.1908903E+02  0.1548698E+02  0.3403112E+03
Ar  295  0.8147929E+01  0.1616172E+02  0.1956413E+02  0.8896412E+02
Ar  296  0.5690197E+01  0.1867024E+02  0.1889586E+02  0.1501233E+03
Ar  297  0.5329966E+01  0.1605188E+02  0.2145154E+02  0.2895638E+03
Ar  298  0.7953173E+01  0.1907853E+02  0.2183015E+02  0.3388078E+03
Ar  299  0.7621251E+01  0.1625518E+02  0.2503082E+02  0.1424328E+03
Ar  300  0.5125991E+01  0.1857094E+02  0.2412507E+02  0.1664404E+03
Ar  301  0.5039510E+01  0.1562678E+02  0.2728307E+02  0.2202419E+03
Ar  302  0.8242508E+01  0.1882615E+02  0.2700305E+02  0.4813200E+03
Ar  303  0.8150010E+01  0.1597885E+02  0.2935879E+02  0.1601882E+03
Ar  304  0.5590934E+01  0.1833713E+02  0.2973916E+02  0.6450255E+03
Ar  305  0.5347750E+01  0.1590151E+02  0.3219775E+02  0.2928061E+03
Ar  306  0.8296359E+01  0.1813291E+02  0.3216209E+02  0.1024391E+03
Ar  307  0.8345600E+01  0.1614182E+02  0.3534287E+02  0.2829178E+03
Ar  308  0.4404456E+01  0.1870541E+02  0.3448394E+02  0.3443351E+03
Ar  309  0.5401994E+01  0.2157884E+02  0.3737307E+02  0.3868038E+03
Ar  310  0.7781424E+01  0.2505909E+02  0.3770902E+02  0.3079085E+03
Ar  311  0.9213386E+01  0.2223017E+02  0.2629520E+01  0.8940989E+02
Ar  312  0.5506403E+01  0.2448255E+02  0.2419786E+01  0.1863628E+03
Ar  313  0.5367149E+01  0.2113745E+02  0.5826125E+01  0.6068661E+03
Ar  314  0.7802472E+01  0.2446090E+02  0.5493406E+01  0.9164543E+02
Ar  315  0.8411466E+01  0.2154636E+02  0.8127649E+01  0.1851124E+03
Ar  316  0.5624395E+01  0.2389832E+02  0.8132017E+01  0.4669501E+02
Ar  317  0.5334895E+01  0.2116396E+02  0.1053333E+02  0.1814272E+02
Ar  318  0.7908765E+01  0.2418157E+02  0.1030611E+02  0.2537831E+02
Ar  319  0.7745659E+01  0.2186409E+02  0.1336781E+02  0.2129005E+03
Ar  320  0.5191848E+01  0.2462453E+02  0.1321952E+02  0.1330798E+03
Ar  321  0.5213339E+01  0.2208621E+02  0.1587768E+02  0.9738290E+03
Ar  322  0.8373064E+01  0.2443945E+02  0.1579564E+02  0.8022619E+03
Ar  323  0.7383972E+01  0.2175107E+02  0.1869140E+02  0.9715182E+02
Ar  324  0.4093042E+01  0.2399086E+02  0.1957456E+02  0.7978609E+02
Ar  325  0.5204149E+01  0.2129454E+02  0.2139406E+02  0.4768863E+03
Ar  326  0.7869071E+01  0.2430120E+02  0.2164678E+02  0.4308893E+03
Ar  327  0.7662849E+01  0.2188784E+02  0.2385354E+02  0.2171315E+03
Ar  328  0.5820864E+01  0.2424322E+02  0.2574964E+02  0.1547468E+03
Ar  329  0.5096512E+01  0.2086494E+02  0.2714643E+02  0.7350850E+02
Ar  330  0.7996143E+01  0.2353778E+02  0.2788643E+02  0.2007689E+03
Ar  331  0.7766692E+01  0.2095986E+02  0.3007666E+02  0.4622132E+03
Ar  332  0.5230769E+01  0.2424565E+02  0.2999500E+02  0.2646481E+03
Ar  333  0.4708658E+01  0.2100232E+02  0.3182538E+02  0.2886521E+03
Ar  334  0.7893675E+01  0.2423177E+02  0.3234767E+02  0.2675073E+03
Ar  335  0.7125560E+01  0.2087989E+02  0.3435735E+02  0.2153963E+02
Ar  336  0.5100429E+01  0.2444660E+02  0.3530070E+02  0.3849401E+03
Ar  337  0.5022404E+01  0.2732243E+02  0.3763667E+02  0.1175722E+03
Ar  338  0.8704135E+01  0.2997106E+02  0.4896995E+00  0.5306140E+02
Ar  339  0.7893269E+01  0.2731115E+02  0.3060234E+01  0.3542145E+03
Ar  340  0.5176067E+01  0.2998358E+02  0.2887183E+01  0.2055780E+03
Ar  341  0.5267229E+01  0.2687664E+02  0.6005142E+01  0.1370593E+03
Ar  342  0.7978302E+01  0.2957793E+02  0.5419883E+01  0.3583872E+03
Ar  343  0.7764412E+01  0.2752858E+02  0.8514317E+01  0.1604131E+03
Ar  344  0.5244567E+01  0.2999027E+02  0.8462627E+01  0.1183571E+03
Ar  345  0.4770079E+01  0.2750500E+02  0.1082077E+02  0.1946269E+03
Ar  346  0.7719389E+01  0.2985461E+02  0.1123026E+02  0.2019190E+04
Ar  347  0.7458922E+01  0.2727940E+02  0.1331331E+02  0.3326901E+03
Ar  348  0.4618555E+01  0.2981938E+02  0.1336460E+02  0.7509568E+03
Ar  349  0.5146809E+01  0.2690719E+02  0.1599601E+02  0.4380071E+02
Ar  350  0.7470266E+01  0.2945180E+02  0.1625371E+02  0.6890557E+03
Ar  351  0.7619414E+01  0.2660754E+02  0.1904849E+02  0.2395339E+03
Ar  352  0.4914355E+01  0.3002568E+02  0.1914952E+02  0.4924648E+02
Ar  353  0.5208232E+01  0.2685716E+02  0.2218347E+02  0.1218269E+03
Ar  354  0.7623706E+01  0.3054758E+02  0.2178083E+02  0.6738772E+03
Ar  355  0.8464793E+01  0.2787877E+02  0.2388138E+02  0.5527239E+03
Ar  356  0.5537831E+01  0.3001766E+02  0.2501758E+02  0.4640267E+03
Ar  357  0.5444089E+01  0.2672326E+02  0.2773770E+02  0.1445878E+04
Ar  358  0.7812709E+01  0.2910232E+02  0.2713270E+02  0.2927873E+03
Ar  359  0.8179521E+01  0.2760051E+02  0.2985625E+02  0.1567724E+03
Ar  360  0.5367653E+01  0.2994293E+02  0.2958320E+02  0.3588662E+03
Ar  361  0.4920477E+01  0.2710080E+02  0.3183825E+02  0.3050372E+03
Ar  362  0.7212980E+01  0.2978164E+02  0.3242047E+02  0.8101509E+03
Ar  363  0.7661677E+01  0.2703565E+02  0.3475594E+02  0.2948101E+03
Ar  364  0.5194098E+01  0.3003194E+02  0.3518239E+02  0.7389834E+03
Ar  365  0.5746651E+01  0.3246206E+02  0.4465802E+00  0.1327283E+03
Ar  366  0.8442125E+01  0.3443254E+02  0.3776390E+02  0.2805453E+03
Ar  367  0.8136695E+01  0.3225992E+02  0.3065984E+01  0.1960405E+03
Ar  368  0.5762503E+01  0.3572646E+02  0.3120494E+01  0.1137414E+04
Ar  369  0.5329495E+01  0.3253638E+02  0.5028281E+01  0.2275704E+03
Ar  370  0.7942540E+01  0.3500075E+02  0.5826980E+01  0.5383156E+03
Ar  371  0.8202419E+01  0.3154254E+02  0.8266159E+01  0.9633446E+02
Ar  372  0.5486400E+01  0.3514339E+02  0.8301313E+01  0.1288855E+03
Ar  373  0.5700856E+01  0.3294317E+02  0.1081522E+02  0.6790160E+02
Ar  374  0.8741961E+01  0.3503614E+02  0.1090572E+02  0.2931398E+03
Ar  375  0.7782402E+01  0.3198005E+02  0.1384250E+02  0.7314107E+03
Ar  376  0.5494596E+01  0.3608853E+02  0.1281017E+02  0.3878218E+03
Ar  377  0.5307088E+01  0.3300409E+02  0.1623387E+02  0.1378769E+02
Ar  378  0.8305692E+01  0.3490164E+02  0.1556120E+02  0.4535132E+03
Ar  379  0.7820861E+01  0.3225027E+02  0.1843778E+02  0.2438096E+03
Ar  380  0.4830703E+01  0.3471291E+02  0.1935534E+02  0.2234229E+03
Ar  381  0.4538062E+01  0.3217172E+02  0.2165855E+02  0.2815405E+03
Ar  382  0.8091996E+01  0.3445342E+02  0.2124125E+02  0.1772722E+02
Ar  383  0.8185155E+01  0.3262341E+02  0.2457305E+02  0.5507132E+03
Ar  384  0.5604159E+01  0.3513849E+02  0.2357758E+02  0.5357117E+02
Ar  385  0.5470968E+01  0.3329153E+02  0.2674145E+02  0.6418333E+03
Ar  386  0.8051000E+01  0.3542512E+02  0.2701976E+02  0.1333282E+03
Ar  387  0.7534298E+01  0.3285184E+02  0.2970602E+02  0.3960137E+03
Ar  388  0.5737719E+01  0.3567431E+02  0.2974863E+02  0.3865660E+02
Ar  389  0.5395678E+01  0.3275230E+02  0.3277440E+02  0.4872123E+02
Ar  390  0.8365387E+01  0.3536402E+02  0.3252180E+02  0.2345566E+03
Ar  391  0.8253844E+01  0.3201585E+02  0.3535012E+02  0.2424530E+02
Ar  392  0.5935256E+01  0.3439687E+02  0.3574658E+02  0.3818763E+03
Ar  393  0.1083785E+02  0.2287134E+00  0.8951363E+00  0.1112915E+03
Ar  394  0.1385615E+02  0.2462078E+01  0.2700348E+00  0.2587284E+03
Ar  395  0.1359508E+02  0.3670967E+02  0.2590574E+01  0.9731298E+02
Ar  396  0.1098575E+02  0.2837996E+01  0.2505730E+01  0.4774550E+03
Ar  397  0.1203639E+02  0.3748711E+02  0.5811840E+01  0.4065006E+03
Ar  398  0.1360932E+02  0.2336797E+01  0.4871164E+01  0.2761266E+03
Ar  399  0.1393886E+02  0.3762400E+02  0.8784349E+01  0.1135546E+04
Ar  400  0.1085319E+02  0.2498158E+01  0.8272143E+01  0.1795480E+03
Ar  401  0.1032689E+02  0.3929967E+00  0.1077757E+02  0.2576360E+03
Ar  402  0.1331369E+02  0.2405872E+01  0.1104463E+02  0.6927087E+03
Ar  403  0.1308983E+02  0.3765927E+02  0.1377170E+02  0.6097821E+02
Ar  404  0.1082649E+02  0.2203046E+01  0.1358293E+02  0.2643036E+03
Ar  405  0.1109970E+02  0.1522932E+00  0.1694101E+02  0.5455023E+03
Ar  406  0.1355885E+02  0.3003601E+01  0.1592317E+02  0.2631344E+03
Ar  407  0.1376062E+02  0.5706176E-01  0.1896290E+02  0.5306191E+03
Ar  408  0.1126566E+02  0.2150866E+01  0.1983776E+02  0.2733725E+03
Ar  409  0.1070665E+02  0.3696988E+02  0.2081093E+02  0.2669203E+03
Ar  410  0.1410712E+02  0.1868803E+01  0.2218030E+02  0.1397912E+03
Ar  411  0.1390235E+02  0.3687231E+02  0.2503356E+02  0.1716977E+03
Ar  412  0.1111687E+02  0.2632583E+01  0.2438211E+02  0.2543072E+03
Ar  413  0.1065298E+02  0.3757531E+02  0.2705607E+02  0.6584253E+03
Ar  414  0.1382747E+02  0.2095288E+01  0.2701408E+02  0.9772498E+02
Ar  415  0.1337711E+02  0.2074045E+00  0.2991031E+02  0.2785918E+03
Ar  416  0.1116742E+02  0.2762679E+01  0.2962075E+02  0.3104898E+03
Ar  417  0.1116609E+02  0.3754325E+02  0.3240144E+02  0.2691639E+03
Ar  418  0.1388875E+02  0.2668091E+01  0.3247367E+02  0.2820335E+03
Ar  419  0.1321888E+02  0.3889260E+00  0.3522496E+02  0.9531759E+02
Ar  420  0.1108302E+02  0.2971677E+01  0.3554390E+02  0.3082228E+03
Ar  421  0.1106736E+02  0.6013224E+01  0.1765809E+00  0.9012297E+02
Ar  422  0.1364680E+02  0.8215181E+01  0.8539752E+00  0.2856281E+03
Ar  423  0.1389045E+02  0.5458062E+01  0.2414700E+01  0.4540055E+03
Ar  424  0.1117444E+02  0.7659214E+01  0.3013735E+01  0.1981414E+03
Ar  425  0.1113206E+02  0.4910308E+01  0.5427431E+01  0.4376556E+01
Ar  426  0.1354919E+02  0.7934964E+01  0.5595123E+01  0.5097013E+03
Ar  427  0.1376018E+02  0.4802408E+01  0.8814993E+01  0.1518294E+03
Ar  428  0.1135613E+02  0.7992880E+01  0.8492093E+01  0.7777072E+02
Ar  429  0.1132912E+02  0.5115673E+01  0.1089035E+02  0.4454316E+03
Ar  430  0.1429123E+02  0.7876999E+01  0.1067259E+02  0.2405081E+03
Ar  431  0.1384355E+02  0.5400244E+01  0.1343565E+02  0.1067369E+03
Ar  432  0.1130324E+02  0.7801990E+01  0.1379952E+02  0.1711815E+03
Ar  433  0.1049346E+02  0.4588159E+01  0.1780869E+02  0.4163913E+02
Ar  434  0.1257322E+02  0.7642660E+01  0.1686930E+02  0.2636289E+03
Ar  435  0.1355809E+02  0.4850276E+01  0.1968714E+02  0.3785013E+03
Ar  436  0.1171981E+02  0.9543529E+01  0.1949181E+02  0.2862672E+03
Ar  437  0.1104247E+02  0.6299227E+01  0.2082806E+02  0.1091849E+03
Ar  438  0.1354242E+02  0.8323112E+01  0.2199514E+02  0.5880589E+03
Ar  439  0.1338678E+02  0.5564180E+01  0.2373235E+02  0.6220763E+02
Ar  440  0.1072476E+02  0.8323263E+01  0.2416820E+02  0.1414798E+03
Ar  441  0.1207220E+02  0.4911949E+01  0.2698895E+02  0.3112717E+03
Ar  442  0.1369557E+02  0.7996013E+01  0.2719898E+02  0.8271900E+02
Ar  443  0.1399788E+02  0.5359151E+01  0.3002499E+02  0.1281623E+03
Ar  444  0.1117290E+02  0.7925263E+01  0.2989953E+02  0.4215762E+03
Ar  445  0.1178144E+02  0.5239126E+01  0.3255340E+02  0.3140383E+02
Ar  446  0.1381662E+02  0.8081453E+01  0.3266593E+02  0.5745388E+02
Ar  447  0.1384269E+02  0.5157013E+01  0.3530806E+02  0.4472951E+02
Ar  448  0.1179432E+02  0.8072293E+01  0.3538663E+02  0.1775303E+03
Ar  449  0.1115268E+02  0.1060452E+02  0.5907875E+00  0.1690182E+03
Ar  450  0.1361998E+02  0.1296179E+02  0.8311349E-01  0.9051885E+03
Ar  451  0.1388209E+02  0.1101381E+02  0.3049291E+01  0.4428054E+03
Ar  452  0.1046469E+02  0.1335819E+02  0.2841967E+01  0.4181085E+03
Ar  453  0.1081716E+02  0.1095755E+02  0.5463749E+01  0.5231287E+03
Ar  454  0.1355491E+02  0.1352403E+02  0.5737221E+01  0.1250867E+03
Ar  455  0.1401267E+02  0.1045315E+02  0.8251758E+01  0.8827840E+02
Ar  456  0.1084225E+02  0.1327520E+02  0.8188244E+01  0.6851946E+03
Ar  457  0.1042792E+02  0.1025215E+02  0.1072805E+02  0.2971923E+03
Ar  458  0.1371650E+02  0.1372001E+02  0.1091695E+02  0.2665249E+03
Ar  459  0.1322962E+02  0.1066658E+02  0.1280829E+02  0.7851781E+03
Ar  460  0.1074118E+02  0.1326260E+02  0.1298674E+02  0.1250956E+03
Ar  461  0.1040254E+02  0.1067130E+02  0.1596008E+02  0.2884425E+03
Ar  462  0.1350044E+02  0.1272278E+02  0.1561715E+02  0.5926683E+03
Ar  463  0.1483850E+02  0.1069327E+02  0.1844975E+02  0.9552621E+03
Ar  464  0.1041158E+02  0.1326184E+02  0.1926448E+02  0.4825586E+03
Ar  465  0.1052112E+02  0.1120422E+02  0.2232537E+02  0.2758961E+02
Ar  466  0.1386071E+02  0.1338580E+02  0.2140490E+02  0.1458106E+03
Ar  467  0.1317413E+02  0.1131068E+02  0.2462182E+02  0.3124274E+03
Ar  468  0.1037151E+02  0.1368863E+02  0.2470102E+02  0.3131176E+03
Ar  469  0.1085708E+02  0.1087219E+02  0.2741221E+02  0.1046214E+04
Ar  470  0.1314083E+02  0.1360949E+02  0.2736355E+02  0.1887826E+03
Ar  471  0.1350220E+02  0.1078437E+02  0.2920437E+02  0.8277270E+02
Ar  472  0.1148178E+02  0.1372993E+02  0.3007528E+02  0.1046361E+03
Ar  473  0.1126575E+02  0.1085159E+02  0.3261426E+02  0.1120259E+03
Ar  474  0.1363301E+02  0.1395313E+02  0.3284858E+02  0.4760591E+03
Ar  475  0.1418277E+02  0.1083088E+02  0.3498315E+02  0.8015630E+02
Ar  476  0.1104679E+02  0.1278466E+02  0.3545626E+02  0.6311364E+03
Ar  477  0.1092119E+02  0.1573652E+02  0.6461943E-01  0.2843629E+03
Ar  478  0.1386013E+02  0.1877438E+02  0.7257870E+00  0.8600154E+02
Ar  479  0.1301642E+02  0.1587160E+02  0.2839157E+01  0.2462395E+03
Ar  480  0.1065389E+02  0.1914291E+02  0.3374745E+01  0.5826617E+03
Ar  481  0.1070512E+02  0.1616583E+02  0.5729975E+01  0.4190355E+03
Ar  482  0.1321680E+02  0.1939160E+02  0.5383951E+01  0.1105393E+03
Ar  483  0.1353360E+02  0.1630618E+02  0.8142487E+01  0.1879522E+03
Ar  484  0.1091131E+02  0.1874558E+02  0.8014657E+01  0.2635235E+03
Ar  485  0.1111055E+02  0.1616724E+02  0.1087660E+02  0.1877451E+02
Ar  486  0.1357674E+02  0.1896927E+02  0.1077174E+02  0.5779200E+03
Ar  487  0.1361429E+02  0.1603927E+02  0.1350790E+02  0.5391746E+03
Ar  488  0.1019115E+02  0.1902064E+02  0.1316353E+02  0.2316466E+03
Ar  489  0.1023342E+02  0.1612882E+02  0.1645234E+02  0.7860757E+02
Ar  490  0.1253875E+02  0.1868844E+02  0.1576582E+02  0.2755350E+03
Ar  491  0.1306188E+02  0.1584364E+02  0.1838213E+02  0.1747183E+03
Ar  492  0.1041640E+02  0.1898655E+02  0.1888255E+02  0.2843143E+03
Ar  493  0.1128171E+02  0.1690408E+02  0.2108690E+02  0.4609640E+03
Ar  494  0.1299112E+02  0.1999418E+02  0.2136605E+02  0.1996932E+03
Ar  495  0.1297785E+02  0.1589541E+02  0.2403619E+02  0.2285405E+03
Ar  496  0.1082651E+02  0.1910156E+02  0.2457902E+02  0.6494257E+02
Ar  497  0.1069456E+02  0.1634043E+02  0.2746326E+02  0.1523559E+03
Ar  498  0.1368058E+02  0.1904345E+02  0.2642030E+02  0.1543999E+03
Ar  499  0.1344419E+02  0.1685979E+02  0.2977018E+02  0.5010871E+03
Ar  500  0.1077266E+02  0.1899974E+02  0.3005129E+02  0.8900281E+03
Ar  501  0.1115489E+02  0.1613283E+02  0.3254451E+02  0.2535170E+03
Ar  502  0.1351986E+02  0.1908027E+02  0.3266844E+02  0.7361470E+02
Ar  503  0.1352324E+02  0.1629229E+02  0.3542094E+02  0.1784421E+03
Ar  504  0.1084912E+02  0.1844380E+02  0.3499684E+02  0.1473450E+03
Ar  505  0.1094890E+02  0.2147697E+02  0.3749797E+02  0.1008051E+04
Ar  506  0.1337328E+02  0.2448121E+02  0.1580357E+00  0.6303647E+02
Ar  507  0.1299402E+02  0.2209451E+02  0.2735490E+01  0.2185336E+03
Ar  508  0.1059690E+02  0.2514350E+02  0.3611710E+01  0.1899740E+03
Ar  509  0.1077778E+02  0.2205780E+02  0.5456291E+01  0.4579599E+02
Ar  510  0.1340678E+02  0.2461082E+02  0.5232242E+01  0.1643294E+03
Ar  511  0.1324790E+02  0.2182817E+02  0.8397121E+01  0.1598338E+03
Ar  512  0.1039205E+02  0.2447020E+02  0.8313028E+01  0.2371642E+02
Ar  513  0.1041190E+02  0.2199980E+02  0.1114400E+02  0.1561763E+03
Ar  514  0.1289048E+02  0.2432748E+02  0.1109098E+02  0.1399689E+03
Ar  515  0.1252221E+02  0.2158290E+02  0.1387981E+02  0.4921350E+03
Ar  516  0.1126462E+02  0.2456209E+02  0.1415180E+02  0.2401457E+03
Ar  517  0.1021620E+02  0.2156511E+02  0.1631477E+02  0.2938549E+02
Ar  518  0.1395246E+02  0.2466149E+02  0.1625278E+02  0.4067459E+03
Ar  519  0.1307834E+02  0.2182058E+02  0.1816982E+02  0.4237120E+03
Ar  520  0.1063263E+02  0.2465152E+02  0.1799772E+02  0.7564691E+02
Ar  521  0.9810558E+01  0.2171866E+02  0.2095166E+02  0.1573305E+03
Ar  522  0.1282531E+02  0.2457281E+02  0.2076145E+02  0.2549415E+03
Ar  523  0.1260104E+02  0.2257162E+02  0.2369686E+02  0.2197189E+03
Ar  524  0.9732278E+01  0.2480502E+02  0.2520914E+02  0.2435764E+03
Ar  525  0.1087356E+02  0.2119276E+02  0.2707317E+02  0.1168996E+03
Ar  526  0.1295728E+02  0.2432652E+02  0.2760657E+02  0.2272493E+03
Ar  527  0.1345576E+02  0.2103046E+02  0.2961012E+02  0.1494325E+03
Ar  528  0.1085995E+02  0.2374774E+02  0.3040987E+02  0.2884735E+03
Ar  529  0.1058825E+02  0.2122949E+02  0.3256724E+02  0.9332053E+02
Ar  530  0.1349748E+02  0.2344140E+02  0.3220772E+02  0.8994483E+03
Ar  531  0.1335018E+02  0.2168331E+02  0.3512822E+02  0.2893973E+03
Ar  532  0.9947469E+01  0.2419623E+02  0.3504956E+02  0.1384780E+03
Ar  533  0.1059893E+02  0.2699021E+02  0.7260715E-01  0.2917953E+02
Ar  534  0.1360235E+02  0.2899169E+02  0.3754427E+02  0.5614601E+03
Ar  535  0.1341324E+02  0.2728202E+02  0.3002185E+01  0.8071571E+03
Ar  536  0.1097892E+02  0.2993360E+02  0.3454257E+01  0.7627045E+02
Ar  537  0.1045142E+02  0.2737359E+02  0.6627990E+01  0.1889217E+03
Ar  538  0.1402397E+02  0.2962657E+02  0.5927004E+01  0.1869881E+03
Ar  539  0.1385455E+02  0.2705968E+02  0.8074467E+01  0.3783274E+02
Ar  540  0.1122661E+02  0.2969966E+02  0.8696404E+01  0.1331007E+03
Ar  541  0.1026962E+02  0.2730125E+02  0.1109623E+02  0.1568775E+03
Ar  542  0.1381578E+02  0.2984801E+02  0.1070191E+02  0.7969452E+03
Ar  543  0.1347412E+02  0.2714992E+02  0.1302102E+02  0.3697032E+03
Ar  544  0.1116014E+02  0.3031888E+02  0.1292724E+02  0.3970949E+03
Ar  545  0.1035885E+02  0.2731513E+02  0.1533650E+02  0.4945662E+03
Ar  546  0.1358592E+02  0.2996898E+02  0.1514778E+02  0.3101020E+02
Ar  547  0.1342518E+02  0.2732691E+02  0.1814173E+02  0.1973826E+03
Ar  548  0.1085125E+02  0.3003972E+02  0.1858180E+02  0.2275288E+03
Ar  549  0.1074012E+02  0.2766535E+02  0.2058193E+02  0.1101501E+03
Ar  550  0.1330379E+02  0.2950021E+02  0.2130875E+02  0.2819919E+03
Ar  551  0.1292123E+02  0.2635233E+02  0.2413578E+02  0.4671040E+02
Ar  552  0.1094555E+02  0.3007025E+02  0.2393084E+02  0.5469977E+03
Ar  553  0.1058812E+02  0.2656114E+02  0.2782491E+02  0.9749065E+02
Ar  554  0.1304383E+02  0.2929750E+02  0.2678086E+02  0.4122110E+02
Ar  555  0.1386599E+02  0.2687735E+02  0.2955467E+02  0.6922445E+03
Ar  556  0.1051194E+02  0.3045197E+02  0.3006702E+02  0.1639307E+03
Ar  557  0.1170445E+02  0.2663139E+02  0.3205958E+02  0.4732959E+03
Ar  558  0.1305734E+02  0.2981510E+02  0.3204181E+02  0.1446562E+03
Ar  559  0.1369583E+02  0.2657186E+02  0.3530452E+02  0.3628755E+03
Ar  560  0.1075146E+02  0.2932684E+02  0.3426702E+02  0.1332169E+03
Ar  561  0.1142839E+02  0.3184481E+02  0.3776894E+02  0.3656505E+03
Ar  562  0.1292540E+02  0.3529316E+02  0.3741657E+02  0.1897589E+02
Ar  563  0.1387584E+02  0.3236556E+02  0.2560850E+01  0.5118931E+03
Ar  564  0.1132280E+02  0.3468771E+02  0.3121812E+01  0.2803430E+03
Ar  565  0.1107152E+02  0.3215864E+02  0.6024957E+01  0.1086023E+03
Ar  566  0.1420902E+02  0.3457884E+02  0.5703471E+01  0.2163808E+03
Ar  567  0.1407536E+02  0.3237700E+02  0.8436792E+01  0.1308763E+03
Ar  568  0.1093469E+02  0.3504637E+02  0.7939808E+01  0.1462178E+03
Ar  569  0.1136341E+02  0.3285510E+02  0.1065058E+02  0.7023251E+02
Ar  570  0.1428920E+02  0.3491122E+02  0.1067980E+02  0.1848104E+03
Ar  571  0.1396913E+02  0.3324242E+02  0.1360946E+02  0.2311519E+03
Ar  572  0.1097686E+02  0.3508802E+02  0.1323404E+02  0.4400544E+03
Ar  573  0.1062186E+02  0.3214422E+02  0.1571977E+02  0.6572704E+03
Ar  574  0.1355214E+02  0.3502617E+02  0.1631133E+02  0.1362136E+03
Ar  575  0.1390908E+02  0.3182846E+02  0.1867012E+02  0.3795868E+03
Ar  576  0.1035736E+02  0.3473561E+02  0.1815067E+02  0.2029184E+03
Ar  577  0.1106838E+02  0.3250426E+02  0.2137089E+02  0.6086348E+03
Ar  578  0.1348541E+02  0.3463307E+02  0.2155392E+02  0.1096898E+03
Ar  579  0.1351073E+02  0.3213580E+02  0.2460440E+02  0.5117954E+03
Ar  580  0.1098656E+02  0.3516704E+02  0.2384163E+02  0.9439546E+02
Ar  581  0.1016036E+02  0.3209941E+02  0.2721789E+02  0.2893182E+03
Ar  582  0.1313008E+02  0.3482851E+02  0.2753789E+02  0.6796522E+02
Ar  583  0.1409281E+02  0.3197022E+02  0.2954437E+02  0.1396139E+03
Ar  584  0.1077018E+02  0.3492203E+02  0.3015676E+02  0.1658252E+03
Ar  585  0.1070899E+02  0.3260783E+02  0.3280379E+02  0.1778688E+03
Ar  586  0.1383864E+02  0.3540544E+02  0.3283500E+02  0.1169636E+03
Ar  587  0.1332922E+02  0.3198011E+02  0.3529920E+02  0.2041855E+03
Ar  588  0.1037781E+02  0.3505825E+02  0.3498742E+02  0.6689017E+02
Ar  589  0.1634982E+02  0.3752081E+02  0.5544429E+00  0.1538190E+03
Ar  590  0.1908782E+02  0.2935723E+01  0.3723929E+02  0.4369283E+03
Ar  591  0.1916298E+02  0.3742096E+02  0.2997566E+01  0.2205377E+03
Ar  592  0.1662360E+02  0.2676097E+01  0.2442040E+01  0.4149491E+03
Ar  593  0.1595644E+02  0.3762517E+02  0.5351321E+01  0.5525003E+03
Ar  594  0.1886972E+02  0.2479674E+01  0.5145123E+01  0.2074972E+03
Ar  595  0.1927665E+02  0.3733170E+02  0.7888035E+01  0.2279565E+03
Ar  596  0.1614545E+02  0.2139648E+01  0.8112746E+01  0.1359190E+03
Ar  597  0.1620282E+02  0.2359396E+00  0.1121123E+02  0.5928372E+03
Ar  598  0.1899141E+02  0.1860993E+01  0.1082292E+02  0.9081538E+02
Ar  599  0.1888638E+02  0.3771118E+02  0.1368431E+02  0.7134778E+02
Ar  600  0.1600755E+02  0.2792608E+01  0.1357487E+02  0.1009951E+03
Ar  601  0.1578462E+02  0.3748563E+02  0.1601862E+02  0.2454125E+03
Ar  602  0.1872667E+02  0.2915946E+01  0.1591182E+02  0.9216349E+02
Ar  603  0.1827984E+02  0.1133013E+00  0.1838993E+02  0.2742623E+03
Ar  604  0.1630585E+02  0.2642918E+01  0.1893519E+02  0.9104900E+02
Ar  605  0.1666978E+02  0.3710326E+02  0.2287614E+02  0.2162356E+02
Ar  606  0.1852399E+02  0.2186507E+01  0.2151562E+02  0.1356318E+03
Ar  607  0.1940703E+02  0.2168494E+00  0.2481910E+02  0.7276237E+03
Ar  608  0.1638896E+02  0.2811064E+01  0.2476581E+02  0.7364871E+02
Ar  609  0.1648506E+02  0.3753060E+02  0.2710708E+02  0.4460661E+03
Ar  610  0.1886541E+02  0.2795205E+01  0.2749666E+02  0.2963837E+03
Ar  611  0.1901308E+02  0.3736801E+00  0.2976004E+02  0.5634319E+03
Ar  612  0.1631259E+02  0.2709361E+01  0.2923683E+02  0.3479108E+03
Ar  613  0.1661586E+02  0.7572559E+00  0.3256016E+02  0.1911338E+03
Ar  614  0.1952461E+02  0.2431209E+01  0.3288235E+02  0.1516386E+03
Ar  615  0.1874084E+02  0.3745371E+02  0.3587169E+02  0.3363246E+03
Ar  616  0.1614216E+02  0.2795451E+01  0.3545524E+02  0.5685225E+02
Ar  617  0.1659670E+02  0.5283953E+01  0.3770353E+02  0.3587250E+02
Ar  618  0.1903820E+02  0.8031241E+01  0.3750866E+02  0.1376354E+03
Ar  619  0.1922002E+02  0.5238828E+01  0.3029264E+01  0.9126422E+02
Ar  620  0.1685460E+02  0.7724042E+01  0.2946491E+01  0.8337142E+03
Ar  621  0.1592142E+02  0.5057032E+01  0.5801255E+01  0.1807210E+03
Ar  622  0.1931460E+02  0.7653004E+01  0.5382803E+01  0.6124064E+03
Ar  623  0.1853792E+02  0.5101162E+01  0.7906354E+01  0.7856329E+03
Ar  624  0.1628393E+02  0.7805094E+01  0.7988278E+01  0.7663530E+03
Ar  625  0.1656576E+02  0.5017214E+01  0.1092769E+02  0.1291501E+04
Ar  626  0.1906241E+02  0.7994157E+01  0.1082714E+02  0.1231517E+03
Ar  627  0.1918658E+02  0.5645695E+01  0.1389029E+02  0.4426507E+03
Ar  628  0.1558818E+02  0.8512758E+01  0.1507270E+02  0.2493157E+03
Ar  629  0.1609171E+02  0.5422662E+01  0.1618152E+02  0.2746055E+03
Ar  630  0.1872101E+02  0.8198076E+01  0.1690614E+02  0.3231002E+03
Ar  631  0.1845058E+02  0.5447818E+01  0.1884107E+02  0.4347395E+02
Ar  632  0.1566229E+02  0.7305744E+01  0.1909187E+02  0.8639288E+02
Ar  633  0.1642769E+02  0.5142595E+01  0.2161900E+02  0.6661491E+02
Ar  634  0.1804952E+02  0.7890508E+01  0.2181993E+02  0.4987909E+03
Ar  635  0.1845667E+02  0.5322482E+01  0.2443965E+02  0.2006503E+03
Ar  636  0.1603752E+02  0.7825346E+01  0.2449056E+02  0.3361287E+02
Ar  637  0.1605610E+02  0.5114830E+01  0.2711552E+02  0.1490216E+03
Ar  638  0.1911414E+02  0.8251559E+01  0.2714941E+02  0.7927008E+02
Ar  639  0.1943888E+02  0.4698156E+01  0.3030497E+02  0.6886680E+02
Ar  640  0.1648201E+02  0.8069200E+01  0.2942759E+02  0.7614160E+02
Ar  641  0.1666451E+02  0.5112486E+01  0.3262832E+02  0.1506028E+03
Ar  642  0.1841543E+02  0.8328281E+01  0.3228291E+02  0.2392075E+03
Ar  643  0.1904885E+02  0.6092341E+01  0.3488533E+02  0.6881043E+03
Ar  644  0.1572969E+02  0.7974241E+01  0.3529429E+02  0.9023954E+03
Ar  645  0.1650014E+02  0.1040235E+02  0.7210474E-02  0.1025756E+03
Ar  646  0.1885609E+02  0.1345473E+02  0.3759960E+02  0.1987028E+03
Ar  647  0.1905875E+02  0.1096363E+02  0.2822334E+01  0.8902553E+03
Ar  648  0.1656283E+02  0.1300058E+02  0.2558818E+01  0.3018816E+03
Ar  649  0.1651027E+02  0.1055616E+02  0.5210012E+01  0.1125992E+03
Ar  650  0.1860269E+02  0.1323899E+02  0.5889196E+01  0.3414726E+03
Ar  651  0.1889919E+02  0.1081765E+02  0.8534337E+01  0.3276046E+03
Ar  652  0.1598308E+02  0.1373139E+02  0.8216284E+01  0.7268653E+02
Ar  653  0.1721788E+02  0.1015063E+02  0.1235568E+02  0.6563736E+03
Ar  654  0.1810657E+02  0.1377232E+02  0.1099038E+02  0.3858176E+02
Ar  655  0.2007356E+02  0.9500975E+01  0.1376684E+02  0.5821466E+02
Ar  656  0.1630776E+02  0.1419517E+02  0.1381417E+02  0.2356007E+02
Ar  657  0.1706707E+02  0.1136071E+02  0.1633302E+02  0.7630743E+02
Ar  658  0.1897712E+02  0.1480559E+02  0.1640729E+02  0.4174590E+03
Ar  659  0.1848073E+02  0.1102777E+02  0.1958021E+02  0.2900936E+03
Ar  660  0.1596038E+02  0.1427004E+02  0.1836240E+02  0.3129743E+02
Ar  661  0.1586891E+02  0.1071418E+02  0.2211076E+02  0.2683252E+03
Ar  662  0.1880328E+02  0.1356707E+02  0.2163707E+02  0.1787030E+03
Ar  663  0.1883909E+02  0.1106637E+02  0.2465361E+02  0.2894811E+03
Ar  664  0.1599313E+02  0.1389610E+02  0.2409835E+02  0.3409888E+03
Ar  665  0.1615696E+02  0.1069109E+02  0.2679943E+02  0.1822469E+03
Ar  666  0.1849314E+02  0.1386040E+02  0.2652585E+02  0.5150766E+03
Ar  667  0.1858036E+02  0.1135306E+02  0.2919707E+02  0.8348463E+03
Ar  668  0.1591485E+02  0.1394507E+02  0.2948809E+02  0.1092430E+03
Ar  669  0.1578878E+02  0.1113209E+02  0.3182416E+02  0.1785502E+03
Ar  670  0.1863829E+02  0.1337731E+02  0.3234943E+02  0.5270234E+03
Ar  671  0.1885146E+02  0.1085302E+02  0.3483803E+02  0.2992117E+03
Ar  672  0.1659401E+02  0.1375265E+02  0.3494370E+02  0.3313735E+03
Ar  673  0.1601850E+02  0.1579008E+02  0.1293791E-01  0.1985088E+02
Ar  674  0.1910019E+02  0.1891840E+02  0.3773269E+02  0.3682117E+03
Ar  675  0.1881644E+02  0.1585472E+02  0.2767465E+01  0.3459956E+03
Ar  676  0.1657802E+02  0.1896353E+02  0.3038411E+01  0.1439976E+03
Ar  677  0.1634618E+02  0.1602552E+02  0.5100697E+01  0.2708511E+03
Ar  678  0.1942119E+02  0.1850268E+02  0.4856072E+01  0.2471433E+03
Ar  679  0.1847079E+02  0.1613648E+02  0.8083037E+01  0.2458384E+02
Ar  680  0.1559759E+02  0.1918114E+02  0.7870909E+01  0.3315572E+03
Ar  681  0.1582554E+02  0.1643476E+02  0.1069747E+02  0.2576258E+03
Ar  682  0.1840861E+02  0.1899114E+02  0.1100957E+02  0.1263027E+03
Ar  683  0.1838926E+02  0.1643257E+02  0.1327039E+02  0.6439781E+03
Ar  684  0.1599510E+02  0.1920168E+02  0.1338316E+02  0.3469618E+03
Ar  685  0.1575758E+02  0.1679267E+02  0.1594861E+02  0.7961676E+03
Ar  686  0.1922517E+02  0.1887748E+02  0.1637117E+02  0.2720078E+03
Ar  687  0.1909801E+02  0.1696939E+02  0.1919629E+02  0.6478350E+03
Ar  688  0.1594513E+02  0.1930266E+02  0.1822638E+02  0.1187981E+04
Ar  689  0.1553240E+02  0.1641227E+02  0.2111358E+02  0.6187228E+02
Ar  690  0.1813097E+02  0.1905556E+02  0.2161828E+02  0.7913271E+03
Ar  691  0.1837304E+02  0.1632702E+02  0.2353311E+02  0.5101636E+02
Ar  692  0.1568963E+02  0.1936924E+02  0.2374988E+02  0.1468865E+03
Ar  693  0.1589570E+02  0.1665194E+02  0.2652765E+02  0.2584111E+03
Ar  694  0.1898890E+02  0.1801486E+02  0.2679494E+02  0.1714171E+03
Ar  695  0.1865559E+02  0.1592023E+02  0.2961300E+02  0.1831902E+03
Ar  696  0.1618515E+02  0.1886641E+02  0.2973270E+02  0.2540224E+03
Ar  697  0.1609500E+02  0.1670304E+02  0.3232511E+02  0.4408718E+03
Ar  698  0.1901495E+02  0.1894992E+02  0.3177581E+02  0.8967850E+03
Ar  699  0.1887200E+02  0.1666204E+02  0.3494519E+02  0.9256269E+02
Ar  700  0.1565972E+02  0.1905199E+02  0.3514130E+02  0.2683587E+03
Ar  701  0.1604664E+02  0.2158187E+02  0.2447231E+00  0.3641548E+03
Ar  702  0.1900549E+02  0.2369885E+02  0.1930403E+00  0.1180221E+03
Ar  703  0.1914283E+02  0.2127202E+02  0.2599164E+01  0.1318233E+03
Ar  704  0.1598959E+02  0.2383137E+02  0.2877981E+01  0.1020976E+03
Ar  705  0.1580963E+02  0.2188826E+02  0.5304062E+01  0.3807926E+03
Ar  706  0.1881792E+02  0.2433009E+02  0.4792358E+01  0.5165711E+03
Ar  707  0.1793148E+02  0.2139310E+02  0.7913605E+01  0.5216207E+03
Ar  708  0.1631832E+02  0.2465787E+02  0.7968089E+01  0.7418178E+03
Ar  709  0.1571595E+02  0.2166210E+02  0.1063271E+02  0.1238767E+04
Ar  710  0.1847336E+02  0.2417810E+02  0.1066773E+02  0.2987540E+03
Ar  711  0.1862248E+02  0.2167124E+02  0.1323365E+02  0.2438548E+03
Ar  712  0.1591741E+02  0.2409066E+02  0.1334809E+02  0.3175925E+03
Ar  713  0.1641171E+02  0.2176476E+02  0.1614700E+02  0.5108133E+03
Ar  714  0.1896881E+02  0.2459003E+02  0.1571330E+02  0.1107556E+03
Ar  715  0.1887197E+02  0.2211697E+02  0.1932212E+02  0.3537784E+03
Ar  716  0.1563103E+02  0.2445760E+02  0.1926109E+02  0.3538412E+03
Ar  717  0.1613355E+02  0.2218944E+02  0.2156650E+02  0.2177881E+03
Ar  718  0.1859845E+02  0.2465939E+02  0.2218113E+02  0.3071123E+03
Ar  719  0.1944012E+02  0.2214211E+02  0.2483565E+02  0.3461745E+03
Ar  720  0.1529557E+02  0.2424050E+02  0.2483747E+02  0.4055767E+03
Ar  721  0.1639347E+02  0.2134812E+02  0.2647004E+02  0.2303801E+03
Ar  722  0.1841029E+02  0.2476168E+02  0.2654238E+02  0.2037849E+03
Ar  723  0.1879613E+02  0.2169912E+02  0.2909073E+02  0.1198398E+03
Ar  724  0.1573181E+02  0.2335779E+02  0.2971010E+02  0.7037735E+03
Ar  725  0.1634289E+02  0.2116169E+02  0.3255813E+02  0.2299357E+03
Ar  726  0.1882489E+02  0.2366648E+02  0.3255164E+02  0.1865221E+03
Ar  727  0.1961195E+02  0.2089618E+02  0.3441676E+02  0.9705132E+02
Ar  728  0.1624276E+02  0.2351812E+02  0.3498480E+02  0.7227138E+03
Ar  729  0.1654581E+02  0.2579977E+02  0.9548689E-01  0.1642488E+03
Ar  730  0.1865352E+02  0.2905550E+02  0.3704284E+02  0.1517592E+03
Ar  731  0.1893373E+02  0.2683650E+02  0.2126089E+01  0.6927505E+02
Ar  732  0.1622287E+02  0.2956179E+02  0.2863897E+01  0.1475183E+03
Ar  733  0.1623824E+02  0.2686488E+02  0.5007462E+01  0.1540776E+03
Ar  734  0.1954471E+02  0.2898969E+02  0.5109922E+01  0.8218204E+02
Ar  735  0.1913749E+02  0.2635019E+02  0.7599206E+01  0.1473925E+03
Ar  736  0.1654898E+02  0.2944796E+02  0.8500632E+01  0.4624637E+03
Ar  737  0.1578849E+02  0.2641020E+02  0.1091835E+02  0.7925359E+03
Ar  738  0.1930555E+02  0.2935530E+02  0.1105891E+02  0.9858092E+02
Ar  739  0.1850799E+02  0.2642473E+02  0.1316649E+02  0.6894312E+03
Ar  740  0.1633435E+02  0.2911636E+02  0.1296892E+02  0.1347033E+03
Ar  741  0.1617024E+02  0.2747717E+02  0.1636384E+02  0.3034572E+03
Ar  742  0.1927931E+02  0.2912886E+02  0.1708170E+02  0.4205140E+03
Ar  743  0.1845945E+02  0.2631464E+02  0.1893367E+02  0.1481092E+03
Ar  744  0.1654210E+02  0.2973564E+02  0.1880067E+02  0.3241435E+03
Ar  745  0.1539882E+02  0.2640981E+02  0.2208286E+02  0.1104147E+03
Ar  746  0.1882070E+02  0.2909323E+02  0.2117788E+02  0.1742865E+03
Ar  747  0.1908285E+02  0.2737258E+02  0.2392156E+02  0.2526161E+03
Ar  748  0.1524249E+02  0.2913446E+02  0.2402851E+02  0.1085727E+03
Ar  749  0.1610639E+02  0.2723892E+02  0.2686381E+02  0.4674145E+03
Ar  750  0.1962292E+02  0.2923790E+02  0.2733163E+02  0.2966213E+03
Ar  751  0.1841624E+02  0.2622111E+02  0.2958744E+02  0.9400183E+02
Ar  752  0.1696674E+02  0.2906705E+02  0.2955909E+02  0.2420463E+03
Ar  753  0.1567999E+02  0.2639294E+02  0.3221293E+02  0.4594556E+03
Ar  754  0.1882391E+02  0.2971140E+02  0.3326577E+02  0.5405312E+03
Ar  755  0.1892747E+02  0.2647511E+02  0.3432344E+02  0.6443263E+03
Ar  756  0.1546400E+02  0.2911795E+02  0.3435483E+02  0.6210046E+02
Ar  757  0.1677973E+02  0.3168718E+02  0.4179862E+00  0.4196099E+03
Ar  758  0.1865126E+02  0.3456730E+02  0.3216508E+00  0.8963951E+03
Ar  759  0.1922572E+02  0.3211697E+02  0.2711798E+01  0.5084761E+03
Ar  760  0.1670959E+02  0.3469033E+02  0.3377808E+01  0.1923290E+03
Ar  761  0.1663845E+02  0.3185835E+02  0.5252940E+01  0.5063963E+02
Ar  762  0.1938679E+02  0.3461029E+02  0.5586755E+01  0.6874551E+03
Ar  763  0.1906440E+02  0.3236781E+02  0.8352659E+01  0.2680605E+03
Ar  764  0.1692053E+02  0.3479947E+02  0.8091963E+01  0.1483908E+03
Ar  765  0.1644140E+02  0.3228022E+02  0.1115105E+02  0.7583724E+03
Ar  766  0.1886345E+02  0.3523264E+02  0.1095950E+02  0.5528292E+03
Ar  767  0.1928696E+02  0.3244383E+02  0.1371123E+02  0.2113143E+03
Ar  768  0.1669830E+02  0.3522877E+02  0.1361503E+02  0.1111767E+04
Ar  769  0.1591363E+02  0.3252842E+02  0.1604006E+02  0.4534059E+03
Ar  770  0.1930582E+02  0.3509417E+02  0.1584267E+02  0.9305970E+02
Ar  771  0.1870663E+02  0.3229306E+02  0.1933771E+02  0.6459141E+03
Ar  772  0.1654920E+02  0.3518502E+02  0.1966088E+02  0.8454270E+02
Ar  773  0.1581764E+02  0.3190751E+02  0.2142702E+02  0.4888270E+02
Ar  774  0.1881367E+02  0.3449655E+02  0.2222380E+02  0.2621706E+03
Ar  775  0.1808924E+02  0.3097932E+02  0.2407521E+02  0.3426670E+03
Ar  776  0.1609189E+02  0.3383342E+02  0.2509002E+02  0.2074680E+03
Ar  777  0.1663630E+02  0.3097605E+02  0.2695524E+02  0.4180672E+03
Ar  778  0.1883563E+02  0.3404603E+02  0.2736624E+02  0.9491929E+03
Ar  779  0.1872709E+02  0.3191381E+02  0.3001132E+02  0.1438897E+04
Ar  780  0.1677615E+02  0.3532475E+02  0.3047019E+02  0.3649245E+03
Ar  781  0.1617216E+02  0.3215043E+02  0.3264839E+02  0.2046627E+02
Ar  782  0.1989952E+02  0.3518607E+02  0.3241170E+02  0.1699137E+03
Ar  783  0.1883523E+02  0.3308432E+02  0.3502920E+02  0.1745912E+03
Ar  784  0.1620361E+02  0.3523170E+02  0.3520658E+02  0.1167567E+03
Ar  785  0.2180614E+02  0.3747097E+02  0.2190348E+00  0.1306088E+03
Ar  786  0.2417834E+02  0.2143748E+01  0.3772281E+02  0.2615092E+02
Ar  787  0.2422642E+02  0.3716189E+02  0.2910217E+01  0.9455679E+03
Ar  788  0.2200655E+02  0.2544049E+01  0.2946673E+01  0.1842063E+02
Ar  789  0.2198581E+02  0.3750618E+02  0.5411938E+01  0.4350226E+02
Ar  790  0.2421927E+02  0.2619009E+01  0.5780867E+01  0.2331621E+03
Ar  791  0.2403574E+02  0.3720924E+02  0.8041780E+01  0.3197064E+03
Ar  792  0.2131765E+02  0.2328413E+01  0.8334746E+01  0.1541848E+03
Ar  793  0.2158247E+02  0.3742606E+02  0.1082390E+02  0.3423975E+02
Ar  794  0.2441656E+02  0.2301179E+01  0.1106341E+02  0.1741502E+03
Ar  795  0.2424402E+02  0.3762869E+02  0.1342246E+02  0.1139064E+03
Ar  796  0.2169446E+02  0.2434365E+01  0.1333512E+02  0.5347854E+02
Ar  797  0.2129099E+02  0.5356655E+00  0.1651653E+02  0.2317087E+03
Ar  798  0.2449669E+02  0.2526646E+01  0.1590678E+02  0.1811952E+03
Ar  799  0.2448890E+02  0.3669921E+02  0.1889301E+02  0.9450685E+02
Ar  800  0.2140442E+02  0.2507961E+01  0.1938325E+02  0.3796009E+02
Ar  801  0.2142157E+02  0.3760369E+02  0.2165874E+02  0.4033716E+02
Ar  802  0.2433792E+02  0.1626447E+01  0.2175419E+02  0.5193748E+03
Ar  803  0.2335581E+02  0.3768032E+02  0.2497950E+02  0.6742884E+03
Ar  804  0.2176318E+02  0.3246298E+01  0.2525870E+02  0.2219900E+03
Ar  805  0.2148762E+02  0.3722404E+02  0.2755099E+02  0.6437310E+02
Ar  806  0.2459258E+02  0.3597246E+01  0.2699363E+02  0.4331690E+03
Ar  807  0.2429799E+02  0.3748606E+02  0.2951171E+02  0.7074387E+03
Ar  808  0.2201565E+02  0.2622444E+01  0.2909639E+02  0.6002220E+02
Ar  809  0.2178319E+02  0.1371367E+00  0.3182027E+02  0.8987962E+02
Ar  810  0.2442407E+02  0.2668568E+01  0.3250904E+02  0.6988127E+02
Ar  811  0.2440509E+02  0.3761013E+02  0.3486612E+02  0.2130869E+03
Ar  812  0.2185023E+02  0.1784980E+01  0.3505216E+02  0.1265251E+03
Ar  813  0.2101943E+02  0.5487975E+01  0.2638026E+00  0.8258148E+02
Ar  814  0.2465632E+02  0.8447471E+01  0.3747919E+02  0.1382930E+03
Ar  815  0.2420129E+02  0.5218338E+01  0.2385176E+01  0.2867322E+02
Ar  816  0.2161710E+02  0.8491399E+01  0.2365693E+01  0.1312923E+03
Ar  817  0.2128460E+02  0.4758725E+01  0.5737501E+01  0.3307461E+03
Ar  818  0.2346546E+02  0.7609689E+01  0.5472853E+01  0.8721670E+03
Ar  819  0.2366738E+02  0.5062236E+01  0.8283290E+01  0.1831788E+03
Ar  820  0.2163205E+02  0.7930840E+01  0.8490015E+01  0.2226519E+03
Ar  821  0.2041556E+02  0.4939753E+01  0.1074294E+02  0.1347668E+03
Ar  822  0.2351597E+02  0.7857949E+01  0.1176360E+02  0.1244043E+03
Ar  823  0.2484543E+02  0.4858225E+01  0.1336208E+02  0.5941347E+03
Ar  824  0.2239430E+02  0.7526621E+01  0.1526397E+02  0.2328997E+03
Ar  825  0.2150580E+02  0.5019819E+01  0.1677849E+02  0.4391796E+03
Ar  826  0.2384102E+02  0.8302480E+01  0.1781321E+02  0.9021994E+03
Ar  827  0.2379584E+02  0.5395918E+01  0.1925757E+02  0.2715324E+03
Ar  828  0.2099245E+02  0.8267191E+01  0.1928957E+02  0.3808361E+03
Ar  829  0.2086903E+02  0.5192835E+01  0.2193579E+02  0.2663909E+03
Ar  830  0.2381271E+02  0.8144274E+01  0.2202114E+02  0.1649460E+03
Ar  831  0.2468073E+02  0.4926515E+01  0.2370861E+02  0.6184365E+03
Ar  832  0.2154150E+02  0.7734324E+01  0.2450521E+02  0.2649051E+03
Ar  833  0.2147557E+02  0.5761706E+01  0.2757374E+02  0.5798963E+02
Ar  834  0.2417192E+02  0.7763254E+01  0.2704687E+02  0.4545159E+03
Ar  835  0.2421677E+02  0.5449296E+01  0.2996269E+02  0.2935925E+03
Ar  836  0.2134932E+02  0.7601499E+01  0.3064885E+02  0.3348411E+03
Ar  837  0.2164621E+02  0.4812894E+01  0.3277138E+02  0.1446850E+03
Ar  838  0.2456590E+02  0.7821665E+01  0.3299045E+02  0.3779567E+03
Ar  839  0.2332811E+02  0.5737241E+01  0.3563189E+02  0.1053337E+03
Ar  840  0.2131294E+02  0.8590172E+01  0.3481188E+02  0.8527419E+02
Ar  841  0.2154822E+02  0.1137971E+02  0.3019858E+00  0.2280899E+03
Ar  842  0.2481158E+02  0.1339165E+02  0.3773961E+02  0.2186487E+03
Ar  843  0.2465984E+02  0.1107892E+02  0.2549816E+01  0.2708037E+03
Ar  844  0.2147270E+02  0.1346896E+02  0.3272005E+01  0.8283675E+03
Ar  845  0.2175448E+02  0.1046775E+02  0.5403176E+01  0.8418681E+02
Ar  846  0.2449460E+02  0.1336227E+02  0.5421143E+01  0.8127529E+02
Ar  847  0.2366982E+02  0.1149821E+02  0.8068251E+01  0.3292526E+03
Ar  848  0.2121943E+02  0.1371038E+02  0.8235731E+01  0.9920050E+01
Ar  849  0.2106629E+02  0.1153459E+02  0.1146361E+02  0.2670433E+03
Ar  850  0.2353966E+02  0.1382348E+02  0.1081902E+02  0.6613492E+03
Ar  851  0.2349153E+02  0.1097171E+02  0.1485146E+02  0.7177169E+02
Ar  852  0.2127963E+02  0.1374974E+02  0.1396543E+02  0.3950505E+02
Ar  853  0.2062629E+02  0.1147675E+02  0.1689573E+02  0.2426970E+03
Ar  854  0.2500257E+02  0.1378096E+02  0.1605620E+02  0.4049033E+03
Ar  855  0.2381397E+02  0.1193011E+02  0.1911254E+02  0.3373777E+03
Ar  856  0.2092040E+02  0.1400323E+02  0.1904015E+02  0.1968897E+03
Ar  857  0.2107211E+02  0.1065316E+02  0.2199208E+02  0.3908483E+02
Ar  858  0.2394547E+02  0.1342189E+02  0.2202163E+02  0.1617252E+03
Ar  859  0.2424772E+02  0.1084035E+02  0.2438522E+02  0.3627169E+03
Ar  860  0.2142815E+02  0.1343242E+02  0.2468243E+02  0.3731274E+03
Ar  861  0.2155306E+02  0.1101393E+02  0.2751569E+02  0.5097232E+02
Ar  862  0.2385622E+02  0.1338301E+02  0.2673122E+02  0.1520902E+03
Ar  863  0.2431199E+02  0.1000320E+02  0.2968762E+02  0.1168627E+03
Ar  864  0.2159418E+02  0.1351917E+02  0.2970617E+02  0.4545986E+03
Ar  865  0.2113511E+02  0.1094168E+02  0.3178092E+02  0.6911419E+02
Ar  866  0.2450576E+02  0.1344556E+02  0.3184630E+02  0.2002617E+03
Ar  867  0.2501267E+02  0.1072630E+02  0.3444157E+02  0.4897511E+03
Ar  868  0.2225956E+02  0.1311931E+02  0.3509805E+02  0.1684756E+03
Ar  869  0.2145148E+02  0.1598915E+02  0.3770357E+02  0.1414496E+02
Ar  870  0.2432256E+02  0.1842196E+02  0.3691663E+02  0.1875931E+03
Ar  871  0.2403119E+02  0.1584334E+02  0.2695261E+01  0.3191507E+03
Ar  872  0.2212453E+02  0.1918661E+02  0.2282974E+01  0.2191409E+03
Ar  873  0.2157622E+02  0.1624083E+02  0.5412457E+01  0.3783465E+03
Ar  874  0.2415208E+02  0.1861578E+02  0.5456101E+01  0.4675666E+03
Ar  875  0.2404467E+02  0.1693105E+02  0.8750360E+01  0.3192373E+03
Ar  876  0.2047313E+02  0.1875416E+02  0.8443671E+01  0.3778308E+03
Ar  877  0.2122649E+02  0.1649987E+02  0.1121396E+02  0.1609736E+03
Ar  878  0.2395495E+02  0.1895009E+02  0.1119654E+02  0.2444523E+03
Ar  879  0.2414775E+02  0.1623688E+02  0.1380730E+02  0.4038746E+03
Ar  880  0.2152915E+02  0.1863661E+02  0.1372191E+02  0.2800542E+03
Ar  881  0.2239936E+02  0.1609580E+02  0.1637903E+02  0.3883355E+03
Ar  882  0.2408221E+02  0.1941006E+02  0.1591598E+02  0.1511611E+03
Ar  883  0.2401613E+02  0.1736670E+02  0.1905345E+02  0.3189458E+03
Ar  884  0.2118507E+02  0.1953391E+02  0.1950667E+02  0.6725382E+03
Ar  885  0.2142848E+02  0.1631617E+02  0.2192882E+02  0.1125979E+03
Ar  886  0.2382453E+02  0.1971167E+02  0.2153237E+02  0.1354711E+03
Ar  887  0.2387504E+02  0.1615981E+02  0.2444969E+02  0.1763710E+03
Ar  888  0.2171761E+02  0.1876855E+02  0.2410349E+02  0.9214356E+03
Ar  889  0.2146130E+02  0.1586707E+02  0.2713348E+02  0.1323424E+03
Ar  890  0.2404272E+02  0.1853600E+02  0.2738291E+02  0.1061509E+03
Ar  891  0.2428261E+02  0.1594012E+02  0.2956905E+02  0.2667013E+03
Ar  892  0.2157257E+02  0.1892148E+02  0.2958670E+02  0.1479002E+03
Ar  893  0.2177412E+02  0.1566218E+02  0.3233822E+02  0.6215204E+02
Ar  894  0.2480423E+02  0.1860617E+02  0.3194225E+02  0.3852689E+03
Ar  895  0.2433405E+02  0.1568351E+02  0.3464519E+02  0.6391939E+02
Ar  896  0.2200679E+02  0.1871557E+02  0.3401825E+02  0.2771247E+03
Ar  897  0.2127590E+02  0.2108751E+02  0.3719788E+02  0.2211238E+03
Ar  898  0.2392807E+02  0.2443046E+02  0.2229446E-01  0.2795674E+03
Ar  899  0.2407965E+02  0.2187424E+02  0.3219115E+01  0.7958057E+02
Ar  900  0.2176649E+02  0.2431127E+02  0.2774813E+01  0.8486888E+02
Ar  901  0.2181537E+02  0.2161550E+02  0.5442402E+01  0.3199666E+03
Ar  902  0.2468390E+02  0.2388587E+02  0.5770323E+01  0.2517966E+03
Ar  903  0.2409242E+02  0.2144929E+02  0.8493086E+01  0.2463849E+03
Ar  904  0.2134671E+02  0.2374891E+02  0.8231585E+01  0.5042114E+03
Ar  905  0.2100167E+02  0.2118373E+02  0.1076153E+02  0.1339949E+02
Ar  906  0.2419752E+02  0.2429018E+02  0.1112468E+02  0.2086440E+03
Ar  907  0.2378574E+02  0.2206642E+02  0.1387447E+02  0.1491302E+03
Ar  908  0.2101225E+02  0.2412466E+02  0.1286685E+02  0.8313984E+02
Ar  909  0.2139848E+02  0.2183695E+02  0.1651907E+02  0.2826192E+03
Ar  910  0.2466587E+02  0.2475893E+02  0.1603626E+02  0.9226718E+02
Ar  911  0.2454457E+02  0.2202033E+02  0.1836070E+02  0.1384179E+03
Ar  912  0.2216727E+02  0.2455678E+02  0.1884768E+02  0.3040135E+03
Ar  913  0.2101031E+02  0.2248757E+02  0.2174773E+02  0.6836517E+03
Ar  914  0.2522973E+02  0.2347986E+02  0.2144419E+02  0.3189824E+03
Ar  915  0.2413119E+02  0.2192360E+02  0.2468494E+02  0.2116902E+03
Ar  916  0.2170060E+02  0.2489396E+02  0.2485474E+02  0.1508236E+03
Ar  917  0.2217828E+02  0.2157292E+02  0.2765852E+02  0.1511830E+03
Ar  918  0.2463266E+02  0.2464326E+02  0.2705027E+02  0.4080259E+03
Ar  919  0.2462852E+02  0.2151488E+02  0.3012262E+02  0.2206166E+03
Ar  920  0.2161349E+02  0.2487068E+02  0.2940378E+02  0.1984471E+03
Ar  921  0.2180666E+02  0.2179598E+02  0.3161999E+02  0.3331789E+03
Ar  922  0.2431235E+02  0.2452150E+02  0.3220624E+02  0.1265108E+03
Ar  923  0.2417816E+02  0.2214341E+02  0.3512543E+02  0.2559984E+02
Ar  924  0.2148344E+02  0.2394541E+02  0.3473503E+02  0.2229183E+02
Ar  925  0.2174544E+02  0.2701525E+02  0.3689902E+02  0.9428479E+02
Ar  926  0.2491288E+02  0.2867208E+02  0.3774620E+02  0.2480925E+03
Ar  927  0.2437165E+02  0.2687671E+02  0.3153121E+01  0.1216598E+03
Ar  928  0.2151273E+02  0.2951092E+02  0.1941484E+01  0.5931440E+03
Ar  929  0.2195562E+02  0.2651126E+02  0.5547177E+01  0.1761641E+03
Ar  930  0.2455339E+02  0.2929783E+02  0.5706301E+01  0.2767385E+03
Ar  931  0.2489380E+02  0.2676804E+02  0.8081446E+01  0.2435720E+03
Ar  932  0.2188991E+02  0.2912736E+02  0.8157309E+01  0.2879791E+03
Ar  933  0.2177512E+02  0.2700076E+02  0.1073223E+02  0.8760959E+03
Ar  934  0.2440335E+02  0.2973556E+02  0.1044667E+02  0.2326204E+03
Ar  935  0.2448971E+02  0.2703286E+02  0.1318378E+02  0.2803457E+03
Ar  936  0.2082492E+02  0.2933935E+02  0.1399989E+02  0.7704936E+02
Ar  937  0.2169185E+02  0.2686747E+02  0.1595500E+02  0.1108111E+03
Ar  938  0.2408534E+02  0.2931733E+02  0.1633618E+02  0.6017574E+03
Ar  939  0.2448567E+02  0.2681486E+02  0.1919495E+02  0.1750050E+04
Ar  940  0.2185262E+02  0.2970316E+02  0.1908657E+02  0.3671310E+03
Ar  941  0.2178971E+02  0.2686596E+02  0.2149816E+02  0.3883583E+03
Ar  942  0.2427279E+02  0.2935654E+02  0.2137662E+02  0.1438996E+03
Ar  943  0.2434188E+02  0.2655211E+02  0.2365622E+02  0.6567854E+03
Ar  944  0.2212177E+02  0.2978805E+02  0.2393649E+02  0.6460235E+03
Ar  945  0.2258849E+02  0.2774945E+02  0.2686801E+02  0.6912113E+03
Ar  946  0.2522314E+02  0.2942380E+02  0.2559580E+02  0.1510075E+02
Ar  947  0.2458504E+02  0.2708233E+02  0.3001160E+02  0.3287019E+03
Ar  948  0.2050881E+02  0.2835666E+02  0.3089114E+02  0.2361212E+03
Ar  949  0.2208429E+02  0.2733406E+02  0.3370823E+02  0.2617954E+03
Ar  950  0.2436032E+02  0.2966466E+02  0.3237041E+02  0.2352238E+03
Ar  951  0.2502308E+02  0.2695653E+02  0.3469130E+02  0.8296372E+02
Ar  952  0.2165494E+02  0.3042507E+02  0.3507952E+02  0.6639111E+03
Ar  953  0.2146909E+02  0.3255504E+02  0.1779524E+00  0.3812862E+03
Ar  954  0.2465838E+02  0.3491789E+02  0.3758710E+02  0.1566689E+03
Ar  955  0.2417602E+02  0.3184962E+02  0.2852990E+01  0.1643155E+03
Ar  956  0.2174631E+02  0.3445461E+02  0.2887666E+01  0.2679579E+03
Ar  957  0.2170189E+02  0.3171475E+02  0.5807226E+01  0.3316347E+03
Ar  958  0.2442678E+02  0.3463092E+02  0.5738965E+01  0.1045442E+04
Ar  959  0.2449185E+02  0.3230569E+02  0.8065403E+01  0.5429665E+03
Ar  960  0.2191633E+02  0.3427756E+02  0.8318977E+01  0.6178143E+02
Ar  961  0.2160981E+02  0.3162442E+02  0.1066730E+02  0.4575581E+03
Ar  962  0.2445116E+02  0.3498589E+02  0.1071729E+02  0.1287008E+03
Ar  963  0.2349458E+02  0.3220677E+02  0.1345105E+02  0.2832113E+03
Ar  964  0.2164268E+02  0.3496643E+02  0.1298929E+02  0.1900618E+03
Ar  965  0.2153433E+02  0.3276878E+02  0.1662197E+02  0.6750123E+03
Ar  966  0.2490120E+02  0.3451245E+02  0.1582049E+02  0.5370660E+03
Ar  967  0.2430427E+02  0.3240279E+02  0.1855131E+02  0.2460232E+02
Ar  968  0.2093928E+02  0.3560109E+02  0.1887240E+02  0.1028989E+03
Ar  969  0.2181573E+02  0.3240119E+02  0.2109924E+02  0.2830257E+03
Ar  970  0.2501957E+02  0.3479297E+02  0.2158815E+02  0.6900614E+03
Ar  971  0.2458853E+02  0.3222913E+02  0.2351343E+02  0.2512256E+03
Ar  972  0.2221885E+02  0.3461234E+02  0.2425251E+02  0.5024348E+03
Ar  973  0.2210147E+02  0.3164645E+02  0.2638356E+02  0.3397348E+03
Ar  974  0.2541323E+02  0.3356072E+02  0.2667895E+02  0.1016667E+03
Ar  975  0.2410800E+02  0.3046772E+02  0.2884822E+02  0.6358020E+02
Ar  976  0.2345600E+02  0.3373332E+02  0.2936216E+02  0.5277453E+02
Ar  977  0.2144245E+02  0.3173471E+02  0.3190981E+02  0.3552075E+03
Ar  978  0.2454897E+02  0.3398206E+02  0.3245038E+02  0.5191355E+03
Ar  979  0.2474481E+02  0.3215165E+02  0.3550450E+02  0.1483148E+03
Ar  980  0.2207329E+02  0.3495712E+02  0.3539068E+02  0.3244489E+03
Ar  981  0.2713794E+02  0.3757644E+02  0.1027830E+00  0.1994094E+03
Ar  982  0.2913493E+02  0.2825217E+01  0.3770044E+02  0.3829279E+03
Ar  983  0.2987416E+02  0.2643480E+00  0.2926105E+01  0.1806673E+03
Ar  984  0.2618209E+02  0.2615340E+01  0.2565185E+01  0.3868806E+03
Ar  985  0.2659845E+02  0.3720500E+02  0.5899520E+01  0.3471757E+03
Ar  986  0.2911378E+02  0.2744034E+01  0.5480445E+01  0.2679677E+03
Ar  987  0.2976047E+02  0.3763228E+02  0.8520941E+01  0.1030170E+03
Ar  988  0.2755082E+02  0.2677179E+01  0.8247176E+01  0.3683979E+02
Ar  989  0.2696957E+02  0.3745309E+02  0.1120732E+02  0.4162464E+03
Ar  990  0.2991485E+02  0.3226073E+01  0.1113344E+02  0.1506097E+03
Ar  991  0.2968635E+02  0.2246016E+00  0.1325097E+02  0.3325752E+03
Ar  992  0.2776248E+02  0.3097163E+01  0.1355086E+02  0.8047686E+02
Ar  993  0.2646132E+02  0.3756476E+02  0.1609163E+02  0.1620776E+03
Ar  994  0.2889060E+02  0.4092622E+01  0.1690346E+02  0.4830325E+03
Ar  995  0.2967717E+02  0.4172258E+00  0.1800173E+02  0.3431300E+03
Ar  996  0.2635072E+02  0.2182539E+01  0.1869378E+02  0.2730021E+03
Ar  997  0.2702010E+02  0.1479308E+00  0.2115893E+02  0.1714987E+03
Ar  998  0.2956573E+02  0.2773864E+01  0.2118944E+02  0.3872485E+03
Ar  999  0.2935111E+02  0.3759075E+02  0.2390074E+02  0.2113916E+03
Ar 1000  0.2664933E+02  0.2272887E+01  0.2418563E+02  0.7535885E+03
Ar 1001  0.2591232E+02  0.3711335E+02  0.2675739E+02  0.3175641E+03
Ar 1002  0.2921446E+02  0.2114518E+01  0.2638516E+02  0.3436623E+02
Ar 1003  0.2975478E+02  0.3518747E+00  0.2987726E+02  0.2112839E+03
Ar 1004  0.2660012E+02  0.2002552E+01  0.2941261E+02  0.4021587E+03
Ar 1005  0.2685939E+02  0.3702981E+02  0.3262677E+02  0.5831820E+03
Ar 1006  0.2833131E+02  0.2243211E+01  0.3274216E+02  0.2916630E+03
Ar 1007  0.2924296E+02  0.3728668E+02  0.3480999E+02  0.5703078E+03
Ar 1008  0.2639747E+02  0.2539532E+01  0.3548074E+02  0.8380702E+03
Ar 1009  0.2625621E+02  0.5217583E+01  0.3735849E+02  0.9932524E+02
Ar 1010  0.2957220E+02  0.7059450E+01  0.3760424E+02  0.2019587E+03
Ar 1011  0.2832725E+02  0.5460852E+01  0.2875274E+01  0.2834894E+03
Ar 1012  0.2681536E+02  0.8487457E+01  0.2118037E+01  0.1083470E+03
Ar 1013  0.2648485E+02  0.5894527E+01  0.6313527E+01  0.1937012E+03
Ar 1014  0.2890278E+02  0.7969994E+01  0.4891646E+01  0.2099537E+03
Ar 1015  0.2953563E+02  0.5602674E+01  0.7900302E+01  0.1666216E+03
Ar 1016  0.2511990E+02  0.8199173E+01  0.8722979E+01  0.1363101E+03
Ar 1017  0.2733666E+02  0.5768721E+01  0.1069144E+02  0.2604826E+03
Ar 1018  0.2908809E+02  0.9236286E+01  0.1097935E+02  0.6627796E+03
Ar 1019  0.2952712E+02  0.6162665E+01  0.1366954E+02  0.3220624E+02
Ar 1020  0.2621307E+02  0.8841881E+01  0.1369619E+02  0.2546565E+03
Ar 1021  0.2605723E+02  0.6193732E+01  0.1628441E+02  0.1024120E+03
Ar 1022  0.2908941E+02  0.8237202E+01  0.1616022E+02  0.2975591E+03
Ar 1023  0.2975878E+02  0.6613110E+01  0.1912762E+02  0.2245975E+03
Ar 1024  0.2606566E+02  0.9324434E+01  0.2000545E+02  0.5191847E+03
Ar 1025  0.2700449E+02  0.5382245E+01  0.2021951E+02  0.2612039E+03
Ar 1026  0.2945037E+02  0.8678606E+01  0.2170213E+02  0.8345627E+02
Ar 1027  0.2890817E+02  0.5289823E+01  0.2324987E+02  0.3909254E+03
Ar 1028  0.2639284E+02  0.7729956E+01  0.2410643E+02  0.2774278E+03
Ar 1029  0.2784826E+02  0.5288275E+01  0.2638563E+02  0.2362475E+03
Ar 1030  0.2963423E+02  0.8427659E+01  0.2508828E+02  0.3570022E+03
Ar 1031  0.2935379E+02  0.4401877E+01  0.2952672E+02  0.4184332E+02
Ar 1032  0.2740753E+02  0.7777668E+01  0.2928563E+02  0.3207239E+03
Ar 1033  0.2688173E+02  0.5399859E+01  0.3270530E+02  0.6594486E+03
Ar 1034  0.3054374E+02  0.7507206E+01  0.3143355E+02  0.3930077E+03
Ar 1035  0.2921451E+02  0.4739997E+01  0.3512168E+02  0.5436206E+02
Ar 1036  0.2750361E+02  0.8057606E+01  0.3514085E+02  0.1949335E+03
Ar 1037  0.2758419E+02  0.1118920E+02  0.3735542E+02  0.4220205E+03
Ar 1038  0.3031894E+02  0.1314770E+02  0.4321126E+00  0.3364285E+03
Ar 1039  0.2886681E+02  0.1105296E+02  0.3421999E+01  0.2279380E+03
Ar 1040  0.2703870E+02  0.1371355E+02  0.2177046E+01  0.5251918E+03
Ar 1041  0.2648597E+02  0.1022907E+02  0.6024193E+01  0.4387371E+03
Ar 1042  0.2907348E+02  0.1381866E+02  0.5628528E+01  0.4716279E+03
Ar 1043  0.2966975E+02  0.1078278E+02  0.7799819E+01  0.1391253E+03
Ar 1044  0.2656492E+02  0.1341091E+02  0.8443234E+01  0.1073357E+03
Ar 1045  0.2527094E+02  0.1116616E+02  0.1104111E+02  0.1347177E+03
Ar 1046  0.2958628E+02  0.1326314E+02  0.1048709E+02  0.6382894E+03
Ar 1047  0.2977805E+02  0.1136083E+02  0.1394820E+02  0.7374407E+03
Ar 1048  0.2718276E+02  0.1301703E+02  0.1326641E+02  0.3961387E+03
Ar 1049  0.2646610E+02  0.1035372E+02  0.1698254E+02  0.2878841E+03
Ar 1050  0.2989834E+02  0.1413374E+02  0.1596816E+02  0.3223597E+03
Ar 1051  0.2959388E+02  0.1052812E+02  0.1896653E+02  0.9907808E+02
Ar 1052  0.2712362E+02  0.1375620E+02  0.1888863E+02  0.1562401E+02
Ar 1053  0.2767597E+02  0.1154172E+02  0.2179694E+02  0.9708206E+02
Ar 1054  0.2889123E+02  0.1452565E+02  0.2146278E+02  0.2151884E+03
Ar 1055  0.3041078E+02  0.1150884E+02  0.2377493E+02  0.6965828E+03
Ar 1056  0.2701916E+02  0.1356308E+02  0.2447105E+02  0.1498242E+03
Ar 1057  0.2672439E+02  0.1027305E+02  0.2647114E+02  0.1676818E+03
Ar 1058  0.2921394E+02  0.1352291E+02  0.2689875E+02  0.6049394E+03
Ar 1059  0.3005951E+02  0.1075026E+02  0.2893682E+02  0.1388742E+03
Ar 1060  0.2674396E+02  0.1285250E+02  0.2876664E+02  0.2109366E+03
Ar 1061  0.2772833E+02  0.1060496E+02  0.3164350E+02  0.3930795E+03
Ar 1062  0.2987395E+02  0.1348213E+02  0.3191838E+02  0.1676414E+03
Ar 1063  0.2992431E+02  0.1039960E+02  0.3482541E+02  0.2363969E+02
Ar 1064  0.2731628E+02  0.1328298E+02  0.3420434E+02  0.3916843E+03
Ar 1065  0.2720960E+02  0.1625278E+02  0.3723416E+02  0.2491602E+03
Ar 1066  0.2925133E+02  0.1935697E+02  0.3767565E+02  0.1121954E+03
Ar 1067  0.2834571E+02  0.1737188E+02  0.2633120E+01  0.1571735E+03
Ar 1068  0.2604230E+02  0.1951717E+02  0.2249080E+01  0.1024217E+03
Ar 1069  0.2687679E+02  0.1646778E+02  0.6214441E+01  0.1148530E+03
Ar 1070  0.2980669E+02  0.1922033E+02  0.5460075E+01  0.4532358E+03
Ar 1071  0.2996872E+02  0.1630678E+02  0.7983242E+01  0.6915277E+02
Ar 1072  0.2651224E+02  0.1900588E+02  0.8786989E+01  0.3195807E+03
Ar 1073  0.2708742E+02  0.1578624E+02  0.1104275E+02  0.3743344E+03
Ar 1074  0.2973069E+02  0.1897659E+02  0.1040300E+02  0.2345303E+03
Ar 1075  0.2957225E+02  0.1650907E+02  0.1341810E+02  0.5846875E+03
Ar 1076  0.2693479E+02  0.1908121E+02  0.1392478E+02  0.3470609E+02
Ar 1077  0.2692803E+02  0.1649935E+02  0.1633034E+02  0.1686424E+03
Ar 1078  0.2934537E+02  0.1885159E+02  0.1617025E+02  0.1259360E+03
Ar 1079  0.3008969E+02  0.1602026E+02  0.1871468E+02  0.8168529E+02
Ar 1080  0.2706018E+02  0.1923654E+02  0.1901260E+02  0.1997852E+03
Ar 1081  0.2613247E+02  0.1632436E+02  0.2135893E+02  0.2621393E+03
Ar 1082  0.3001027E+02  0.1826155E+02  0.2144781E+02  0.9329158E+01
Ar 1083  0.2986056E+02  0.1577160E+02  0.2462463E+02  0.2742538E+03
Ar 1084  0.2805329E+02  0.1880976E+02  0.2450341E+02  0.2395045E+02
Ar 1085  0.2644051E+02  0.1601703E+02  0.2691719E+02  0.1438982E+03
Ar 1086  0.3057461E+02  0.1927424E+02  0.2714643E+02  0.6597900E+03
Ar 1087  0.2937976E+02  0.1626935E+02  0.2901913E+02  0.4252717E+02
Ar 1088  0.2724235E+02  0.1901809E+02  0.2925490E+02  0.7172507E+02
Ar 1089  0.2715589E+02  0.1587934E+02  0.3193061E+02  0.1729944E+03
Ar 1090  0.2999235E+02  0.1837288E+02  0.3174342E+02  0.7342317E+02
Ar 1091  0.2989023E+02  0.1591338E+02  0.3506186E+02  0.6884234E+02
Ar 1092  0.2702847E+02  0.1853460E+02  0.3474422E+02  0.3699504E+02
Ar 1093  0.2665870E+02  0.2148946E+02  0.3739016E+02  0.3863919E+03
Ar 1094  0.3038766E+02  0.2367542E+02  0.3777213E+02  0.1458543E+03
Ar 1095  0.2894863E+02  0.2164597E+02  0.3152010E+01  0.1322807E+03
Ar 1096  0.2720200E+02  0.2468837E+02  0.2539479E+01  0.6027558E+02
Ar 1097  0.2646720E+02  0.2095453E+02  0.5805509E+01  0.2901940E+03
Ar 1098  0.2955570E+02  0.2416696E+02  0.5637988E+01  0.3214344E+03
Ar 1099  0.2971607E+02  0.2170787E+02  0.8140435E+01  0.1291766E+03
Ar 1100  0.2702929E+02  0.2430162E+02  0.8204217E+01  0.1199086E+03
Ar 1101  0.2647207E+02  0.2162247E+02  0.1178201E+02  0.5770383E+03
Ar 1102  0.2917421E+02  0.2443999E+02  0.1097265E+02  0.8109050E+01
Ar 1103  0.2943758E+02  0.2198096E+02  0.1327232E+02  0.5018477E+03
Ar 1104  0.2725582E+02  0.2463730E+02  0.1337703E+02  0.3469721E+03
Ar 1105  0.2681622E+02  0.2184488E+02  0.1603189E+02  0.4416494E+02
Ar 1106  0.2897526E+02  0.2442030E+02  0.1629911E+02  0.3467080E+03
Ar 1107  0.3014747E+02  0.2143281E+02  0.1937483E+02  0.2037675E+03
Ar 1108  0.2687061E+02  0.2417627E+02  0.1867710E+02  0.7682586E+02
Ar 1109  0.2739068E+02  0.2085263E+02  0.2184783E+02  0.1007470E+03
Ar 1110  0.3032626E+02  0.2395603E+02  0.2139541E+02  0.3487981E+03
Ar 1111  0.3045532E+02  0.2196113E+02  0.2515426E+02  0.1874598E+03
Ar 1112  0.2767224E+02  0.2451208E+02  0.2448592E+02  0.1852856E+03
Ar 1113  0.2741783E+02  0.2201696E+02  0.2699723E+02  0.5832038E+02
Ar 1114  0.2983317E+02  0.2403595E+02  0.2784416E+02  0.1688977E+03
Ar 1115  0.3020882E+02  0.2098701E+02  0.2996821E+02  0.9385762E+02
Ar 1116  0.2699055E+02  0.2447238E+02  0.2948874E+02  0.2661172E+03
Ar 1117  0.2733649E+02  0.2172075E+02  0.3228837E+02  0.5751842E+02
Ar 1118  0.2999897E+02  0.2401828E+02  0.3306825E+02  0.1120914E+03
Ar 1119  0.2965601E+02  0.2078091E+02  0.3467692E+02  0.1611152E+03
Ar 1120  0.2758063E+02  0.2431102E+02  0.3566950E+02  0.1682587E+03
Ar 1121  0.2796052E+02  0.2730407E+02  0.3766781E+02  0.1089038E+02
Ar 1122  0.3028131E+02  0.3010732E+02  0.4276094E+00  0.1159929E+03
Ar 1123  0.2972293E+02  0.2700245E+02  0.2610800E+01  0.1076430E+03
Ar 1124  0.2698430E+02  0.2936450E+02  0.2704467E+01  0.2654847E+03
Ar 1125  0.2718411E+02  0.2655462E+02  0.5332426E+01  0.3923770E+03
Ar 1126  0.3007295E+02  0.3013720E+02  0.5540991E+01  0.2811886E+03
Ar 1127  0.2978670E+02  0.2729524E+02  0.7800298E+01  0.2607891E+03
Ar 1128  0.2709611E+02  0.2970995E+02  0.7851058E+01  0.1236127E+02
Ar 1129  0.2782694E+02  0.2742233E+02  0.1103406E+02  0.6614213E+02
Ar 1130  0.2982738E+02  0.3029153E+02  0.1080436E+02  0.4082529E+03
Ar 1131  0.2977594E+02  0.2749812E+02  0.1370220E+02  0.2668616E+03
Ar 1132  0.2661804E+02  0.2998046E+02  0.1344686E+02  0.5920760E+03
Ar 1133  0.2710184E+02  0.2739435E+02  0.1654653E+02  0.8951002E+03
Ar 1134  0.3029551E+02  0.3015572E+02  0.1608024E+02  0.6687880E+03
Ar 1135  0.2988228E+02  0.2668242E+02  0.1902427E+02  0.1586235E+03
Ar 1136  0.2665690E+02  0.2998032E+02  0.1887941E+02  0.6710415E+03
Ar 1137  0.2693567E+02  0.2668967E+02  0.2164712E+02  0.8381446E+02
Ar 1138  0.3002530E+02  0.3003759E+02  0.2078083E+02  0.2097593E+03
Ar 1139  0.3035927E+02  0.2696735E+02  0.2409354E+02  0.2467433E+03
Ar 1140  0.2798193E+02  0.2952097E+02  0.2370323E+02  0.4612213E+03
Ar 1141  0.2758497E+02  0.2728169E+02  0.2644262E+02  0.4144664E+02
Ar 1142  0.3026350E+02  0.2979776E+02  0.2657512E+02  0.1701160E+03
Ar 1143  0.2951988E+02  0.2739253E+02  0.2938759E+02  0.5825236E+03
Ar 1144  0.2718439E+02  0.2977385E+02  0.2995472E+02  0.8552943E+03
Ar 1145  0.2747748E+02  0.2683717E+02  0.3204276E+02  0.7095846E+03
Ar 1146  0.3076970E+02  0.2962184E+02  0.3214712E+02  0.4151206E+03
Ar 1147  0.3087010E+02  0.2741031E+02  0.3545226E+02  0.1691035E+03
Ar 1148  0.2709152E+02  0.2949849E+02  0.3503628E+02  0.2965820E+03
Ar 1149  0.2658666E+02  0.3203448E+02  0.4585744E+00  0.2118400E+03
Ar 1150  0.2970045E+02  0.3469566E+02  0.3775001E+02  0.3775694E+03
Ar 1151  0.2972572E+02  0.3228564E+02  0.2901895E+01  0.3859277E+03
Ar 1152  0.2707919E+02  0.3480527E+02  0.3035640E+01  0.1487158E+03
Ar 1153  0.2741604E+02  0.3269408E+02  0.5586767E+01  0.2414569E+03
Ar 1154  0.2986673E+02  0.3517775E+02  0.5201912E+01  0.2615234E+03
Ar 1155  0.2985593E+02  0.3244309E+02  0.8071546E+01  0.1876582E+03
Ar 1156  0.2721670E+02  0.3461253E+02  0.8598888E+01  0.3934701E+03
Ar 1157  0.2661674E+02  0.3232575E+02  0.1116471E+02  0.4165599E+03
Ar 1158  0.2983761E+02  0.3513452E+02  0.1129118E+02  0.1097202E+03
Ar 1159  0.2948326E+02  0.3248123E+02  0.1366135E+02  0.5047723E+02
Ar 1160  0.2757858E+02  0.3506188E+02  0.1376659E+02  0.1156896E+03
Ar 1161  0.2714520E+02  0.3219781E+02  0.1607133E+02  0.2776242E+03
Ar 1162  0.3004059E+02  0.3534010E+02  0.1592238E+02  0.2456835E+03
Ar 1163  0.2987349E+02  0.3272266E+02  0.1857382E+02  0.1475688E+03
Ar 1164  0.2766435E+02  0.3506439E+02  0.1852588E+02  0.9574969E+02
Ar 1165  0.2762364E+02  0.3240575E+02  0.2116064E+02  0.1326766E+03
Ar 1166  0.2967799E+02  0.3540888E+02  0.2165097E+02  0.3736157E+03
Ar 1167  0.3031605E+02  0.3271185E+02  0.2359443E+02  0.8014526E+02
Ar 1168  0.2728326E+02  0.3477444E+02  0.2412057E+02  0.2323816E+03
Ar 1169  0.2816882E+02  0.3223015E+02  0.2610685E+02  0.8449379E+03
Ar 1170  0.2908487E+02  0.3535335E+02  0.2700368E+02  0.1921946E+03
Ar 1171  0.3053992E+02  0.3232680E+02  0.2917312E+02  0.2323487E+03
Ar 1172  0.2699770E+02  0.3421383E+02  0.2970279E+02  0.5095203E+02
Ar 1173  0.2736333E+02  0.3166439E+02  0.3252505E+02  0.2546587E+03
Ar 1174  0.2975033E+02  0.3506516E+02  0.3175392E+02  0.4923524E+03
Ar 1175  0.3273994E+02  0.3296139E+02  0.3206739E+02  0.8179412E+02
Ar 1176  0.2726355E+02  0.3454417E+02  0.3523254E+02  0.2095187E+03
Ar 1177  0.3175372E+02  0.8229347E+00  0.1577979E+00  0.2980787E+03
Ar 1178  0.3483783E+02  0.2742082E+01  0.3746872E+02  0.4752774E+02
Ar 1179  0.3462360E+02  0.8598407E+00  0.3432133E+01  0.1113585E+03
Ar 1180  0.3116191E+02  0.3173461E+01  0.2795101E+01  0.7396627E+02
Ar 1181  0.3219189E+02  0.3174449E+00  0.5993322E+01  0.4188688E+03
Ar 1182  0.3488688E+02  0.3188213E+01  0.5901093E+01  0.1345317E+03
Ar 1183  0.3520652E+02  0.2455260E+00  0.7801907E+01  0.5401447E+03
Ar 1184  0.3229025E+02  0.3238430E+01  0.8389545E+01  0.2224395E+03
Ar 1185  0.3248443E+02  0.5858702E+00  0.1121805E+02  0.1571724E+03
Ar 1186  0.3450955E+02  0.3162916E+01  0.1117389E+02  0.4496811E+02
Ar 1187  0.3506679E+02  0.6869040E+00  0.1369348E+02  0.6113086E+02
Ar 1188  0.3230745E+02  0.3215300E+01  0.1396164E+02  0.3882407E+03
Ar 1189  0.3250117E+02  0.3269968E+00  0.1613345E+02  0.2613579E+03
Ar 1190  0.3512116E+02  0.3297164E+01  0.1627328E+02  0.1997710E+03
Ar 1191  0.3602964E+02  0.3527174E+00  0.1863129E+02  0.3433323E+03
Ar 1192  0.3245155E+02  0.2781794E+01  0.1847869E+02  0.1768133E+02
Ar 1193  0.3242660E+02  0.2372791E+00  0.2105909E+02  0.1953402E+03
Ar 1194  0.3493288E+02  0.2694590E+01  0.2124285E+02  0.3018105E+02
Ar 1195  0.3464606E+02  0.1763703E+00  0.2396363E+02  0.7400665E+02
Ar 1196  0.3200083E+02  0.2523188E+01  0.2403650E+02  0.5640429E+03
Ar 1197  0.3196951E+02  0.3777280E+02  0.2675136E+02  0.2822885E+03
Ar 1198  0.3511535E+02  0.2463746E+01  0.2667677E+02  0.2546741E+03
Ar 1199  0.3501764E+02  0.2042598E+00  0.2916095E+02  0.3421687E+03
Ar 1200  0.3235763E+02  0.2958611E+01  0.2913302E+02  0.1221681E+03
Ar 1201  0.3282972E+02  0.6019168E+00  0.3192072E+02  0.6917781E+02
Ar 1202  0.3561624E+02  0.2374000E+01  0.3207795E+02  0.1873690E+03
Ar 1203  0.3518999E+02  0.5851089E+00  0.3495832E+02  0.1474208E+03
Ar 1204  0.3204630E+02  0.2270502E+01  0.3488823E+02  0.8146912E+03
Ar 1205  0.3249311E+02  0.4921947E+01  0.3738280E+02  0.3065985E+03
Ar 1206  0.3478819E+02  0.7821783E+01  0.3738490E+02  0.1548498E+03
Ar 1207  0.3452288E+02  0.5400030E+01  0.2492607E+01  0.7760197E+02
Ar 1208  0.3168697E+02  0.7777349E+01  0.2607185E+01  0.2684375E+02
Ar 1209  0.3165920E+02  0.5710612E+01  0.5093576E+01  0.3867345E+03
Ar 1210  0.3463877E+02  0.8014135E+01  0.5056517E+01  0.4551699E+03
Ar 1211  0.3468445E+02  0.5681544E+01  0.8168996E+01  0.1024630E+04
Ar 1212  0.3208674E+02  0.8180297E+01  0.8183956E+01  0.5789996E+03
Ar 1213  0.3175672E+02  0.6326784E+01  0.1118955E+02  0.2283234E+03
Ar 1214  0.3537475E+02  0.8052257E+01  0.1056816E+02  0.1482491E+02
Ar 1215  0.3468984E+02  0.5976656E+01  0.1380693E+02  0.2312127E+03
Ar 1216  0.3257106E+02  0.8736075E+01  0.1341197E+02  0.1528383E+03
Ar 1217  0.3232532E+02  0.5960032E+01  0.1624889E+02  0.9282408E+03
Ar 1218  0.3488289E+02  0.8624119E+01  0.1609665E+02  0.4513236E+03
Ar 1219  0.3478071E+02  0.5395261E+01  0.1898478E+02  0.4827943E+02
Ar 1220  0.3286769E+02  0.8130609E+01  0.1949678E+02  0.7753552E+02
Ar 1221  0.3199762E+02  0.5477932E+01  0.2156076E+02  0.2056904E+03
Ar 1222  0.3526693E+02  0.7847008E+01  0.2171163E+02  0.5060801E+02
Ar 1223  0.3522771E+02  0.5069580E+01  0.2422404E+02  0.7972085E+02
Ar 1224  0.3256771E+02  0.8464606E+01  0.2375779E+02  0.8862209E+03
Ar 1225  0.3204609E+02  0.5539508E+01  0.2640124E+02  0.9437258E+02
Ar 1226  0.3546435E+02  0.7926518E+01  0.2633941E+02  0.1468578E+03
Ar 1227  0.3550431E+02  0.5383615E+01  0.2982892E+02  0.7099469E+03
Ar 1228  0.3276649E+02  0.8295453E+01  0.2889973E+02  0.2853157E+03
Ar 1229  0.3290259E+02  0.4871561E+01  0.3198871E+02  0.2085581E+03
Ar 1230  0.3501310E+02  0.7866752E+01  0.3271010E+02  0.5571419E+03
Ar 1231  0.3523198E+02  0.4938639E+01  0.3493924E+02  0.4775009E+03
Ar 1232  0.3155807E+02  0.7399661E+01  0.3489114E+02  0.2219512E+02
Ar 1233  0.3253230E+02  0.1035898E+02  0.3702626E+02  0.1079361E+03
Ar 1234  0.3502657E+02  0.1351988E+02  0.9016424E-01  0.2460134E+03
Ar 1235  0.3483525E+02  0.1075114E+02  0.2551886E+01  0.4135825E+02
Ar 1236  0.3147188E+02  0.1453338E+02  0.3547228E+01  0.2950074E+03
Ar 1237  0.3187033E+02  0.1084900E+02  0.5565499E+01  0.3332670E+03
Ar 1238  0.3459104E+02  0.1340070E+02  0.5179351E+01  0.3521596E+03
Ar 1239  0.3502436E+02  0.1036836E+02  0.7155832E+01  0.3558319E+03
Ar 1240  0.3225558E+02  0.1378370E+02  0.8125804E+01  0.2018467E+03
Ar 1241  0.3342694E+02  0.1071961E+02  0.1020067E+02  0.1557225E+03
Ar 1242  0.3538651E+02  0.1352125E+02  0.9687403E+01  0.2117481E+03
Ar 1243  0.3496249E+02  0.1121946E+02  0.1349300E+02  0.1449391E+03
Ar 1244  0.3240883E+02  0.1375938E+02  0.1340816E+02  0.2288766E+03
Ar 1245  0.3258701E+02  0.1119410E+02  0.1651539E+02  0.6235045E+03
Ar 1246  0.3521458E+02  0.1437051E+02  0.1593452E+02  0.3652571E+03
Ar 1247  0.3506764E+02  0.1125266E+02  0.1884382E+02  0.4111111E+03
Ar 1248  0.3220366E+02  0.1321174E+02  0.1958344E+02  0.9407278E+02
Ar 1249  0.3302931E+02  0.1065589E+02  0.2158330E+02  0.7449161E+02
Ar 1250  0.3509185E+02  0.1367500E+02  0.2124811E+02  0.3712975E+03
Ar 1251  0.3510625E+02  0.1134384E+02  0.2376460E+02  0.2872318E+03
Ar 1252  0.3267181E+02  0.1394401E+02  0.2495409E+02  0.3863620E+03
Ar 1253  0.3269580E+02  0.1077308E+02  0.2686369E+02  0.2205103E+03
Ar 1254  0.3576917E+02  0.1341908E+02  0.2707904E+02  0.4466289E+03
Ar 1255  0.3526681E+02  0.1100345E+02  0.2906514E+02  0.5734155E+03
Ar 1256  0.3234639E+02  0.1336131E+02  0.2977262E+02  0.2178403E+03
Ar 1257  0.3274040E+02  0.1053695E+02  0.3151486E+02  0.4641402E+03
Ar 1258  0.3505986E+02  0.1327644E+02  0.3254077E+02  0.3549624E+03
Ar 1259  0.3559848E+02  0.1039049E+02  0.3511354E+02  0.4070440E+03
Ar 1260  0.3217401E+02  0.1309005E+02  0.3439661E+02  0.2397228E+03
Ar 1261  0.3223516E+02  0.1608190E+02  0.3755353E+02  0.3494849E+03
Ar 1262  0.3560596E+02  0.1841048E+02  0.2464684E-01  0.1587407E+03
Ar 1263  0.3516825E+02  0.1650736E+02  0.3201905E+01  0.3122064E+03
Ar 1264  0.3165881E+02  0.1825456E+02  0.2341206E+01  0.2429254E+03
Ar 1265  0.3228954E+02  0.1688428E+02  0.5502955E+01  0.3238098E+03
Ar 1266  0.3468510E+02  0.1940095E+02  0.5510838E+01  0.2647376E+03
Ar 1267  0.3513656E+02  0.1649103E+02  0.7785937E+01  0.2352180E+03
Ar 1268  0.3229365E+02  0.1916374E+02  0.8050910E+01  0.9071657E+02
Ar 1269  0.3240084E+02  0.1627455E+02  0.1100335E+02  0.7685246E+03
Ar 1270  0.3496259E+02  0.1893383E+02  0.1095978E+02  0.1871369E+03
Ar 1271  0.3513390E+02  0.1637327E+02  0.1334778E+02  0.1576883E+03
Ar 1272  0.3240101E+02  0.1914169E+02  0.1288457E+02  0.7179942E+03
Ar 1273  0.3229319E+02  0.1673787E+02  0.1549801E+02  0.1103990E+03
Ar 1274  0.3469154E+02  0.1953586E+02  0.1608256E+02  0.6714327E+03
Ar 1275  0.3424564E+02  0.1641902E+02  0.1828908E+02  0.1548919E+03
Ar 1276  0.3233153E+02  0.1914836E+02  0.1887552E+02  0.6083325E+03
Ar 1277  0.3194488E+02  0.1557082E+02  0.2180428E+02  0.2778822E+03
Ar 1278  0.3481327E+02  0.1878519E+02  0.2143026E+02  0.1993100E+03
Ar 1279  0.3524631E+02  0.1629999E+02  0.2428240E+02  0.3459839E+03
Ar 1280  0.3213563E+02  0.1882415E+02  0.2394709E+02  0.2788394E+03
Ar 1281  0.3224189E+02  0.1597614E+02  0.2744287E+02  0.5092404E+03
Ar 1282  0.3502311E+02  0.1879601E+02  0.2651268E+02  0.1042629E+03
Ar 1283  0.3494228E+02  0.1563729E+02  0.2927189E+02  0.2564758E+03
Ar 1284  0.3316589E+02  0.1859078E+02  0.2984373E+02  0.9224339E+02
Ar 1285  0.3222664E+02  0.1599935E+02  0.3227019E+02  0.3824513E+03
Ar 1286  0.3495641E+02  0.1853836E+02  0.3297797E+02  0.5452866E+03
Ar 1287  0.3484566E+02  0.1590723E+02  0.3476922E+02  0.7394657E+02
Ar 1288  0.3206615E+02  0.1883358E+02  0.3537041E+02  0.4258897E+03
Ar 1289  0.3281032E+02  0.2133647E+02  0.3773614E+02  0.1134310E+03
Ar 1290  0.3458800E+02  0.2411034E+02  0.6327594E-01  0.3271782E+03
Ar 1291  0.3403746E+02  0.2134058E+02  0.2962564E+01  0.3650593E+03
Ar 1292  0.3280870E+02  0.2436621E+02  0.3047705E+01  0.2068637E+02
Ar 1293  0.3214214E+02  0.2181741E+02  0.5381407E+01  0.1640294E+03
Ar 1294  0.3539585E+02  0.2371198E+02  0.4948778E+01  0.5829415E+03
Ar 1295  0.3480316E+02  0.2166165E+02  0.7917907E+01  0.2502330E+03
Ar 1296  0.3209451E+02  0.2443343E+02  0.8692788E+01  0.6125127E+02
Ar 1297  0.3250537E+02  0.2195026E+02  0.1091832E+02  0.3870018E+03
Ar 1298  0.3501536E+02  0.2428579E+02  0.1048695E+02  0.4171021E+03
Ar 1299  0.3550527E+02  0.2162690E+02  0.1335249E+02  0.4905860E+03
Ar 1300  0.3175113E+02  0.2487344E+02  0.1294024E+02  0.1493773E+03
Ar 1301  0.3199635E+02  0.2146543E+02  0.1605592E+02  0.5916700E+01
Ar 1302  0.3405327E+02  0.2393683E+02  0.1524970E+02  0.3439573E+03
Ar 1303  0.3511526E+02  0.2193194E+02  0.1856739E+02  0.2017727E+03
Ar 1304  0.3288979E+02  0.2466867E+02  0.1906310E+02  0.2411239E+03
Ar 1305  0.3240304E+02  0.2160410E+02  0.2157873E+02  0.2537157E+02
Ar 1306  0.3494416E+02  0.2391911E+02  0.2149415E+02  0.8134217E+02
Ar 1307  0.3478395E+02  0.2117825E+02  0.2371257E+02  0.3922991E+03
Ar 1308  0.3281652E+02  0.2415210E+02  0.2388731E+02  0.3961129E+02
Ar 1309  0.3268382E+02  0.2195701E+02  0.2760141E+02  0.6646160E+02
Ar 1310  0.3508178E+02  0.2471515E+02  0.2721300E+02  0.3034702E+03
Ar 1311  0.3572762E+02  0.2156245E+02  0.2972302E+02  0.2875295E+03
Ar 1312  0.3274734E+02  0.2430235E+02  0.3023218E+02  0.5060546E+02
Ar 1313  0.3285250E+02  0.2144369E+02  0.3235777E+02  0.3838553E+03
Ar 1314  0.3557691E+02  0.2422907E+02  0.3209094E+02  0.3367393E+03
Ar 1315  0.3544030E+02  0.2173201E+02  0.3534556E+02  0.3491398E+03
Ar 1316  0.3295093E+02  0.2457354E+02  0.3492033E+02  0.5752890E+03
Ar 1317  0.3287648E+02  0.2718826E+02  0.5196256E+00  0.7529452E+03
Ar 1318  0.3544586E+02  0.2986017E+02  0.4561831E+00  0.9235165E+03
Ar 1319  0.3511087E+02  0.2705395E+02  0.3422501E+01  0.5330556E+03
Ar 1320  0.3254627E+02  0.2989313E+02  0.2910122E+01  0.9056522E+03
Ar 1321  0.3220818E+02  0.2688450E+02  0.5257676E+01  0.2732006E+03
Ar 1322  0.3524091E+02  0.2982490E+02  0.5228461E+01  0.1917063E+03
Ar 1323  0.3561443E+02  0.2626206E+02  0.7947066E+01  0.2546412E+03
Ar 1324  0.3301994E+02  0.3041546E+02  0.8187398E+01  0.2496255E+03
Ar 1325  0.3231004E+02  0.2711540E+02  0.1053662E+02  0.1686405E+03
Ar 1326  0.3503994E+02  0.2891819E+02  0.1041591E+02  0.4963923E+03
Ar 1327  0.3486569E+02  0.2652570E+02  0.1303964E+02  0.2828308E+03
Ar 1328  0.3245820E+02  0.2948105E+02  0.1303544E+02  0.1890023E+02
Ar 1329  0.3244936E+02  0.2685062E+02  0.1663572E+02  0.1591927E+03
Ar 1330  0.3483602E+02  0.2955761E+02  0.1597398E+02  0.4175928E+03
Ar 1331  0.3557634E+02  0.2729149E+02  0.1885599E+02  0.1562754E+03
Ar 1332  0.3292863E+02  0.2985660E+02  0.1857328E+02  0.4154622E+03
Ar 1333  0.3281580E+02  0.2756935E+02  0.2101332E+02  0.1487999E+03
Ar 1334  0.3550740E+02  0.2931240E+02  0.2164806E+02  0.1049551E+03
Ar 1335  0.3507152E+02  0.2703180E+02  0.2435294E+02  0.7818734E+02
Ar 1336  0.3234795E+02  0.2978137E+02  0.2372069E+02  0.4929950E+03
Ar 1337  0.3246138E+02  0.2674269E+02  0.2705938E+02  0.3260960E+03
Ar 1338  0.3538727E+02  0.2956105E+02  0.2693769E+02  0.2839009E+03
Ar 1339  0.3558638E+02  0.2702709E+02  0.2982772E+02  0.5376295E+03
Ar 1340  0.3317764E+02  0.2990722E+02  0.2947121E+02  0.3697145E+03
Ar 1341  0.3311139E+02  0.2707849E+02  0.3233295E+02  0.2110886E+03
Ar 1342  0.3546028E+02  0.2959335E+02  0.3219514E+02  0.4774400E+03
Ar 1343  0.3495968E+02  0.2735735E+02  0.3561645E+02  0.1674108E+03
Ar 1344  0.3265148E+02  0.3006170E+02  0.3543611E+02  0.9001891E+03
Ar 1345  0.2988787E+02  0.3182862E+02  0.3507236E+02  0.2292730E+03
Ar 1346  0.4948306E+00  0.3545628E+02  0.3016200E+01  0.1669504E+03
Ar 1347  0.3556737E+02  0.3343184E+02  0.2485539E+01  0.3323081E+03
Ar 1348  0.3252690E+02  0.3521806E+02  0.2331304E+01  0.3705911E+03
Ar 1349  0.3253824E+02  0.3264857E+02  0.5557084E+01  0.2528619E+02
Ar 1350  0.3511336E+02  0.3517586E+02  0.5471160E+01  0.3101970E+03
Ar 1351  0.3479392E+02  0.3319299E+02  0.8112621E+01  0.4042546E+03
Ar 1352  0.3234252E+02  0.3551011E+02  0.8511609E+01  0.1919713E+03
Ar 1353  0.3256775E+02  0.3256876E+02  0.1088762E+02  0.5963115E+02
Ar 1354  0.3535591E+02  0.3611507E+02  0.1099653E+02  0.5182760E+03
Ar 1355  0.3491204E+02  0.3228346E+02  0.1340225E+02  0.1646462E+03
Ar 1356  0.3262113E+02  0.3494174E+02  0.1400461E+02  0.1072539E+03
Ar 1357  0.3257201E+02  0.3268882E+02  0.1649015E+02  0.6620571E+02
Ar 1358  0.3469239E+02  0.3538444E+02  0.1656647E+02  0.7671166E+02
Ar 1359  0.3520376E+02  0.3262481E+02  0.1907682E+02  0.4080235E+02
Ar 1360  0.3224910E+02  0.3476575E+02  0.1912769E+02  0.1181340E+03
Ar 1361  0.3285376E+02  0.3243613E+02  0.2153441E+02  0.3523411E+03
Ar 1362  0.3506513E+02  0.3543931E+02  0.2118985E+02  0.2689603E+03
Ar 1363  0.3545656E+02  0.3201286E+02  0.2362393E+02  0.5780732E+03
Ar 1364  0.3272455E+02  0.3531044E+02  0.2388381E+02  0.3701178E+03
Ar 1365  0.3248156E+02  0.3284557E+02  0.2635699E+02  0.3780577E+03
Ar 1366  0.3528505E+02  0.3514156E+02  0.2706600E+02  0.7208676E+02
Ar 1367  0.3539440E+02  0.3267443E+02  0.2948768E+02  0.4705034E+03
Ar 1368  0.3269130E+02  0.3559644E+02  0.2964179E+02  0.4761807E+03
Ar 1369  0.3307118E+02  0.3225644E+02  0.3522762E+00  0.6238253E+03
Ar 1370  0.3478746E+02  0.3554619E+02  0.3248516E+02  0.3769488E+03
Ar 1371  0.3537336E+02  0.3202759E+02  0.3494603E+02  0.1236717E+03
Ar 1372  0.3214101E+02  0.3467696E+02  0.3496823E+02  0.2338223E+03
