        1372
Lattice="  0.3778015E+02  0.0000000E+00  0.0000000E+00  0.0000000E+00  0.3778015E+02  0.0000000E+00  0.0000000E+00  0.0000000E+00  0.3778015E+02" Properties=species:S:1:id:I:1:pos:R:3:tempK:R:1
Ar    1  0.3767850E+02  0.3767850E+02  0.3767850E+02  0.2557973E+03
Ar    2  0.2994871E+01  0.2994871E+01  0.7785733E-01  0.1564289E+03
Ar    3  0.2994871E+01  0.7785697E-01  0.2994871E+01  0.1564289E+03
Ar    4  0.7785731E-01  0.2994871E+01  0.2994870E+01  0.1564289E+03
Ar    5  0.1707814E+00  0.1707815E+00  0.5080596E+01  0.6015913E+02
Ar    6  0.2835738E+01  0.2835739E+01  0.5593109E+01  0.6859932E+03
Ar    7  0.2836113E+01  0.3770930E+02  0.8109185E+01  0.1034455E+03
Ar    8  0.3770930E+02  0.2836113E+01  0.8109185E+01  0.1034455E+03
Ar    9  0.1777752E+00  0.1777751E+00  0.1070026E+02  0.2209339E+02
Ar   10  0.2983826E+01  0.2983826E+01  0.1152013E+02  0.6551091E+02
Ar   11  0.2533923E+01  0.1097634E-01  0.1361030E+02  0.2977146E+03
Ar   12  0.1097654E-01  0.2533923E+01  0.1361030E+02  0.2977148E+03
Ar   13  0.3767996E+02  0.3767996E+02  0.1639734E+02  0.7422659E+02
Ar   14  0.3247858E+01  0.3247858E+01  0.1561688E+02  0.3864581E+03
Ar   15  0.2844411E+01  0.3676400E+00  0.1856987E+02  0.2793933E+03
Ar   16  0.3676399E+00  0.2844411E+01  0.1856987E+02  0.2793933E+03
Ar   17  0.1799856E+00  0.1799858E+00  0.2114011E+02  0.1079533E+03
Ar   18  0.2691694E+01  0.2691694E+01  0.2113971E+02  0.6205254E+02
Ar   19  0.2306238E+01  0.3729387E+02  0.2423218E+02  0.2253733E+03
Ar   20  0.3729387E+02  0.2306238E+01  0.2423217E+02  0.2253734E+03
Ar   21  0.3738223E+02  0.3738223E+02  0.2666169E+02  0.2910172E+03
Ar   22  0.2176332E+01  0.2176332E+01  0.2670406E+02  0.1307362E+03
Ar   23  0.2672890E+01  0.3769529E+02  0.2949709E+02  0.7630817E+02
Ar   24  0.3769529E+02  0.2672890E+01  0.2949709E+02  0.7630815E+02
Ar   25  0.1331091E+00  0.1331092E+00  0.3217798E+02  0.8325760E+03
Ar   26  0.2849382E+01  0.2849383E+01  0.3204681E+02  0.3385472E+02
Ar   27  0.2787434E+01  0.1075670E+00  0.3510496E+02  0.3820986E+02
Ar   28  0.1075669E+00  0.2787434E+01  0.3510496E+02  0.3820981E+02
Ar   29  0.1707817E+00  0.5080596E+01  0.1707815E+00  0.6015923E+02
Ar   30  0.2836113E+01  0.8109185E+01  0.3770930E+02  0.1034456E+03
Ar   31  0.2835739E+01  0.5593109E+01  0.2835739E+01  0.6859931E+03
Ar   32  0.3770930E+02  0.8109185E+01  0.2836113E+01  0.1034454E+03
Ar   33  0.1177046E+00  0.5719736E+01  0.5719736E+01  0.4429177E+03
Ar   34  0.2877685E+01  0.8177296E+01  0.5646968E+01  0.1550302E+03
Ar   35  0.2877685E+01  0.5646967E+01  0.8177296E+01  0.1550301E+03
Ar   36  0.3765433E+02  0.8338186E+01  0.8338186E+01  0.7176020E+03
Ar   37  0.3767255E+02  0.5425898E+01  0.1085675E+02  0.5737549E+02
Ar   38  0.2872819E+01  0.8424018E+01  0.1085506E+02  0.2282833E+02
Ar   39  0.2844227E+01  0.5936618E+01  0.1321063E+02  0.2103911E+03
Ar   40  0.1215789E+00  0.8636873E+01  0.1347015E+02  0.1808994E+03
Ar   41  0.5268441E+00  0.5499448E+01  0.1609547E+02  0.7525069E+02
Ar   42  0.2720308E+01  0.7968500E+01  0.1602322E+02  0.2290805E+02
Ar   43  0.3240273E+01  0.5644193E+01  0.1865581E+02  0.4736576E+03
Ar   44  0.1702596E+00  0.8075823E+01  0.1938969E+02  0.4667628E+02
Ar   45  0.1878361E+00  0.5109529E+01  0.2186894E+02  0.1505846E+03
Ar   46  0.2785574E+01  0.8010337E+01  0.2182480E+02  0.3068563E+02
Ar   47  0.2414137E+01  0.5159755E+01  0.2449120E+02  0.2115330E+02
Ar   48  0.3762038E+02  0.7921432E+01  0.2418145E+02  0.9372505E+02
Ar   49  0.3758093E+02  0.5434296E+01  0.2709778E+02  0.3694387E+03
Ar   50  0.2617242E+01  0.8229131E+01  0.2663202E+02  0.1097674E+03
Ar   51  0.2741831E+01  0.5866510E+01  0.2969159E+02  0.2955456E+03
Ar   52  0.3770505E+02  0.8112218E+01  0.2977321E+02  0.3942372E+03
Ar   53  0.3777983E+02  0.5286308E+01  0.3208987E+02  0.1204477E+03
Ar   54  0.2454418E+01  0.8126621E+01  0.3256991E+02  0.3007425E+03
Ar   55  0.2889026E+01  0.5634234E+01  0.3527802E+02  0.3345339E+03
Ar   56  0.3762696E+02  0.8421954E+01  0.3493465E+02  0.8177745E+02
Ar   57  0.1777752E+00  0.1070026E+02  0.1777749E+00  0.2209345E+02
Ar   58  0.2533923E+01  0.1361030E+02  0.1097647E-01  0.2977145E+03
Ar   59  0.2983826E+01  0.1152013E+02  0.2983826E+01  0.6551099E+02
Ar   60  0.1097648E-01  0.1361030E+02  0.2533923E+01  0.2977148E+03
Ar   61  0.3767255E+02  0.1085675E+02  0.5425898E+01  0.5737558E+02
Ar   62  0.2844227E+01  0.1321063E+02  0.5936618E+01  0.2103908E+03
Ar   63  0.2872819E+01  0.1085506E+02  0.8424018E+01  0.2282837E+02
Ar   64  0.1215786E+00  0.1347015E+02  0.8636873E+01  0.1808994E+03
Ar   65  0.3729697E+02  0.1069462E+02  0.1069462E+02  0.3917753E+03
Ar   66  0.2406102E+01  0.1376624E+02  0.1098146E+02  0.2719269E+02
Ar   67  0.2406102E+01  0.1098146E+02  0.1376624E+02  0.2719263E+02
Ar   68  0.3763082E+02  0.1338733E+02  0.1338733E+02  0.5477465E+02
Ar   69  0.2156856E+00  0.1091512E+02  0.1639306E+02  0.3084848E+02
Ar   70  0.2347259E+01  0.1378182E+02  0.1630416E+02  0.4743292E+03
Ar   71  0.2808943E+01  0.1088435E+02  0.1901284E+02  0.5650680E+02
Ar   72  0.3776482E+02  0.1383546E+02  0.1906862E+02  0.2184237E+02
Ar   73  0.3745822E+02  0.1070034E+02  0.2162964E+02  0.2293210E+03
Ar   74  0.2509766E+01  0.1334151E+02  0.2152307E+02  0.3950537E+03
Ar   75  0.2409262E+01  0.1089716E+02  0.2454447E+02  0.8914040E+02
Ar   76  0.3740331E+02  0.1329181E+02  0.2408478E+02  0.1873252E+03
Ar   77  0.3777564E+02  0.1065150E+02  0.2685894E+02  0.4328517E+02
Ar   78  0.2938355E+01  0.1352351E+02  0.2720208E+02  0.7055813E+02
Ar   79  0.2623230E+01  0.1045910E+02  0.2960356E+02  0.8757441E+02
Ar   80  0.1194353E+00  0.1340059E+02  0.2931963E+02  0.3534488E+03
Ar   81  0.3750581E+02  0.1117605E+02  0.3207676E+02  0.4294762E+02
Ar   82  0.2556377E+01  0.1286776E+02  0.3189976E+02  0.8288376E+02
Ar   83  0.2582502E+01  0.1126320E+02  0.3491981E+02  0.1241632E+03
Ar   84  0.3007279E-01  0.1348694E+02  0.3472364E+02  0.3741681E+03
Ar   85  0.3767996E+02  0.1639734E+02  0.3767996E+02  0.7422671E+02
Ar   86  0.2844411E+01  0.1856986E+02  0.3676400E+00  0.2793933E+03
Ar   87  0.3247858E+01  0.1561688E+02  0.3247858E+01  0.3864583E+03
Ar   88  0.3676399E+00  0.1856987E+02  0.2844411E+01  0.2793935E+03
Ar   89  0.5268442E+00  0.1609547E+02  0.5499448E+01  0.7525089E+02
Ar   90  0.3240273E+01  0.1865581E+02  0.5644193E+01  0.4736577E+03
Ar   91  0.2720308E+01  0.1602322E+02  0.7968501E+01  0.2290808E+02
Ar   92  0.1702595E+00  0.1938969E+02  0.8075823E+01  0.4667628E+02
Ar   93  0.2156855E+00  0.1639306E+02  0.1091512E+02  0.3084842E+02
Ar   94  0.2808943E+01  0.1901284E+02  0.1088435E+02  0.5650704E+02
Ar   95  0.2347259E+01  0.1630416E+02  0.1378182E+02  0.4743291E+03
Ar   96  0.3776482E+02  0.1906862E+02  0.1383546E+02  0.2184226E+02
Ar   97  0.5732757E-01  0.1654479E+02  0.1654479E+02  0.6391468E+03
Ar   98  0.2644772E+01  0.1927629E+02  0.1611429E+02  0.3017710E+02
Ar   99  0.2644772E+01  0.1611429E+02  0.1927629E+02  0.3017706E+02
Ar  100  0.2202348E+00  0.1915604E+02  0.1915604E+02  0.9204236E+02
Ar  101  0.3766852E+02  0.1623878E+02  0.2168568E+02  0.3591798E+02
Ar  102  0.2500203E+01  0.1899287E+02  0.2178839E+02  0.1352333E+03
Ar  103  0.2746929E+01  0.1593461E+02  0.2420720E+02  0.6501658E+02
Ar  104  0.3763058E+02  0.1850175E+02  0.2489023E+02  0.4289647E+02
Ar  105  0.4627453E-01  0.1606192E+02  0.2715524E+02  0.1713364E+02
Ar  106  0.2684421E+01  0.1857866E+02  0.2701903E+02  0.2771299E+02
Ar  107  0.2832337E+01  0.1597790E+02  0.2996450E+02  0.1916833E+02
Ar  108  0.1087499E+00  0.1891245E+02  0.2958215E+02  0.9221969E+02
Ar  109  0.7283641E-01  0.1640552E+02  0.3235429E+02  0.3121695E+01
Ar  110  0.2805935E+01  0.1895997E+02  0.3226008E+02  0.1578070E+03
Ar  111  0.2653748E+01  0.1598926E+02  0.3476934E+02  0.1392373E+03
Ar  112  0.2845385E+00  0.1888703E+02  0.3516104E+02  0.1274212E+03
Ar  113  0.1799857E+00  0.2114011E+02  0.1799855E+00  0.1079532E+03
Ar  114  0.2306238E+01  0.2423218E+02  0.3729387E+02  0.2253734E+03
Ar  115  0.2691693E+01  0.2113971E+02  0.2691693E+01  0.6205232E+02
Ar  116  0.3729387E+02  0.2423218E+02  0.2306238E+01  0.2253733E+03
Ar  117  0.1878360E+00  0.2186894E+02  0.5109529E+01  0.1505846E+03
Ar  118  0.2414137E+01  0.2449120E+02  0.5159755E+01  0.2115331E+02
Ar  119  0.2785574E+01  0.2182480E+02  0.8010337E+01  0.3068564E+02
Ar  120  0.3762038E+02  0.2418145E+02  0.7921432E+01  0.9372508E+02
Ar  121  0.3745822E+02  0.2162964E+02  0.1070034E+02  0.2293210E+03
Ar  122  0.2409261E+01  0.2454447E+02  0.1089716E+02  0.8914038E+02
Ar  123  0.2509766E+01  0.2152307E+02  0.1334151E+02  0.3950540E+03
Ar  124  0.3740331E+02  0.2408478E+02  0.1329181E+02  0.1873251E+03
Ar  125  0.3766852E+02  0.2168568E+02  0.1623878E+02  0.3591793E+02
Ar  126  0.2746929E+01  0.2420720E+02  0.1593461E+02  0.6501658E+02
Ar  127  0.2500203E+01  0.2178839E+02  0.1899287E+02  0.1352331E+03
Ar  128  0.3763058E+02  0.2489023E+02  0.1850175E+02  0.4289648E+02
Ar  129  0.2961727E+00  0.2210954E+02  0.2210954E+02  0.3010880E+03
Ar  130  0.2508393E+01  0.2472084E+02  0.2175631E+02  0.2055383E+02
Ar  131  0.2508393E+01  0.2175631E+02  0.2472084E+02  0.2055385E+02
Ar  132  0.3767731E+02  0.2441625E+02  0.2441625E+02  0.4002526E+03
Ar  133  0.1767265E-01  0.2185502E+02  0.2716631E+02  0.4669791E+02
Ar  134  0.2938924E+01  0.2444111E+02  0.2688439E+02  0.1961512E+02
Ar  135  0.2827988E+01  0.2162256E+02  0.2953822E+02  0.4195857E+02
Ar  136  0.3775169E+02  0.2428144E+02  0.2962926E+02  0.2276845E+03
Ar  137  0.1060058E+00  0.2171752E+02  0.3209374E+02  0.6851470E+02
Ar  138  0.2689347E+01  0.2441895E+02  0.3234971E+02  0.1477518E+03
Ar  139  0.2755499E+01  0.2129346E+02  0.3539231E+02  0.8801990E+02
Ar  140  0.7144834E-01  0.2430247E+02  0.3465949E+02  0.1511617E+02
Ar  141  0.3738223E+02  0.2666169E+02  0.3738223E+02  0.2910171E+03
Ar  142  0.2672889E+01  0.2949709E+02  0.3769529E+02  0.7630807E+02
Ar  143  0.2176333E+01  0.2670406E+02  0.2176332E+01  0.1307360E+03
Ar  144  0.3769529E+02  0.2949709E+02  0.2672890E+01  0.7630817E+02
Ar  145  0.3758093E+02  0.2709778E+02  0.5434296E+01  0.3694389E+03
Ar  146  0.2741831E+01  0.2969159E+02  0.5866510E+01  0.2955456E+03
Ar  147  0.2617242E+01  0.2663202E+02  0.8229131E+01  0.1097673E+03
Ar  148  0.3770505E+02  0.2977321E+02  0.8112218E+01  0.3942374E+03
Ar  149  0.3777564E+02  0.2685894E+02  0.1065150E+02  0.4328516E+02
Ar  150  0.2623230E+01  0.2960356E+02  0.1045910E+02  0.8757432E+02
Ar  151  0.2938355E+01  0.2720208E+02  0.1352351E+02  0.7055813E+02
Ar  152  0.1194353E+00  0.2931963E+02  0.1340059E+02  0.3534488E+03
Ar  153  0.4627452E-01  0.2715524E+02  0.1606192E+02  0.1713365E+02
Ar  154  0.2832337E+01  0.2996450E+02  0.1597790E+02  0.1916832E+02
Ar  155  0.2684421E+01  0.2701903E+02  0.1857866E+02  0.2771299E+02
Ar  156  0.1087499E+00  0.2958215E+02  0.1891246E+02  0.9221966E+02
Ar  157  0.1767268E-01  0.2716631E+02  0.2185502E+02  0.4669782E+02
Ar  158  0.2827988E+01  0.2953822E+02  0.2162256E+02  0.4195858E+02
Ar  159  0.2938924E+01  0.2688439E+02  0.2444111E+02  0.1961509E+02
Ar  160  0.3775169E+02  0.2962926E+02  0.2428144E+02  0.2276845E+03
Ar  161  0.3776863E+02  0.2681665E+02  0.2681665E+02  0.8263618E+02
Ar  162  0.2449546E+01  0.2986882E+02  0.2678419E+02  0.8752823E+02
Ar  163  0.2449546E+01  0.2678419E+02  0.2986882E+02  0.8752817E+02
Ar  164  0.3765137E+02  0.2971454E+02  0.2971454E+02  0.7091690E+02
Ar  165  0.3731217E+02  0.2671526E+02  0.3228902E+02  0.8189255E+02
Ar  166  0.2469173E+01  0.2925302E+02  0.3220977E+02  0.1977662E+02
Ar  167  0.2585285E+01  0.2692695E+02  0.3500946E+02  0.9534503E+02
Ar  168  0.3757602E+02  0.2989231E+02  0.3501319E+02  0.7900015E+02
Ar  169  0.1331090E+00  0.3217798E+02  0.1331089E+00  0.8325762E+03
Ar  170  0.2787434E+01  0.3510496E+02  0.1075669E+00  0.3820987E+02
Ar  171  0.2849383E+01  0.3204681E+02  0.2849383E+01  0.3385474E+02
Ar  172  0.1075672E+00  0.3510496E+02  0.2787434E+01  0.3820991E+02
Ar  173  0.3777983E+02  0.3208987E+02  0.5286308E+01  0.1204477E+03
Ar  174  0.2889026E+01  0.3527802E+02  0.5634234E+01  0.3345341E+03
Ar  175  0.2454418E+01  0.3256991E+02  0.8126621E+01  0.3007426E+03
Ar  176  0.3762696E+02  0.3493465E+02  0.8421954E+01  0.8177747E+02
Ar  177  0.3750581E+02  0.3207676E+02  0.1117605E+02  0.4294762E+02
Ar  178  0.2582502E+01  0.3491981E+02  0.1126320E+02  0.1241633E+03
Ar  179  0.2556378E+01  0.3189976E+02  0.1286776E+02  0.8288390E+02
Ar  180  0.3007289E-01  0.3472364E+02  0.1348694E+02  0.3741681E+03
Ar  181  0.7283641E-01  0.3235429E+02  0.1640552E+02  0.3121705E+01
Ar  182  0.2653748E+01  0.3476934E+02  0.1598926E+02  0.1392372E+03
Ar  183  0.2805935E+01  0.3226008E+02  0.1895997E+02  0.1578069E+03
Ar  184  0.2845385E+00  0.3516104E+02  0.1888703E+02  0.1274210E+03
Ar  185  0.1060057E+00  0.3209374E+02  0.2171752E+02  0.6851465E+02
Ar  186  0.2755499E+01  0.3539231E+02  0.2129346E+02  0.8802007E+02
Ar  187  0.2689347E+01  0.3234971E+02  0.2441895E+02  0.1477518E+03
Ar  188  0.7144818E-01  0.3465949E+02  0.2430247E+02  0.1511618E+02
Ar  189  0.3731217E+02  0.3228902E+02  0.2671526E+02  0.8189265E+02
Ar  190  0.2585285E+01  0.3500946E+02  0.2692695E+02  0.9534497E+02
Ar  191  0.2469173E+01  0.3220977E+02  0.2925302E+02  0.1977664E+02
Ar  192  0.3757602E+02  0.3501319E+02  0.2989231E+02  0.7900004E+02
Ar  193  0.2442121E+00  0.3267637E+02  0.3267637E+02  0.7591968E+02
Ar  194  0.2700054E+01  0.3509936E+02  0.3188219E+02  0.1918725E+03
Ar  195  0.2700054E+01  0.3188219E+02  0.3509936E+02  0.1918724E+03
Ar  196  0.4207888E+00  0.3552146E+02  0.3552146E+02  0.2925151E+03
Ar  197  0.5080596E+01  0.1707816E+00  0.1707814E+00  0.6015928E+02
Ar  198  0.8109185E+01  0.2836113E+01  0.3770930E+02  0.1034455E+03
Ar  199  0.8109185E+01  0.3770930E+02  0.2836113E+01  0.1034454E+03
Ar  200  0.5593109E+01  0.2835739E+01  0.2835738E+01  0.6859929E+03
Ar  201  0.5719736E+01  0.1177045E+00  0.5719736E+01  0.4429174E+03
Ar  202  0.8177296E+01  0.2877685E+01  0.5646968E+01  0.1550301E+03
Ar  203  0.8338186E+01  0.3765433E+02  0.8338186E+01  0.7176021E+03
Ar  204  0.5646968E+01  0.2877685E+01  0.8177297E+01  0.1550301E+03
Ar  205  0.5425898E+01  0.3767255E+02  0.1085675E+02  0.5737549E+02
Ar  206  0.8424018E+01  0.2872819E+01  0.1085506E+02  0.2282831E+02
Ar  207  0.8636873E+01  0.1215788E+00  0.1347015E+02  0.1808994E+03
Ar  208  0.5936618E+01  0.2844227E+01  0.1321063E+02  0.2103910E+03
Ar  209  0.5499448E+01  0.5268442E+00  0.1609547E+02  0.7525058E+02
Ar  210  0.7968501E+01  0.2720309E+01  0.1602322E+02  0.2290813E+02
Ar  211  0.8075823E+01  0.1702597E+00  0.1938969E+02  0.4667627E+02
Ar  212  0.5644193E+01  0.3240273E+01  0.1865581E+02  0.4736578E+03
Ar  213  0.5109529E+01  0.1878361E+00  0.2186894E+02  0.1505846E+03
Ar  214  0.8010337E+01  0.2785574E+01  0.2182480E+02  0.3068563E+02
Ar  215  0.7921432E+01  0.3762038E+02  0.2418145E+02  0.9372517E+02
Ar  216  0.5159755E+01  0.2414137E+01  0.2449120E+02  0.2115328E+02
Ar  217  0.5434296E+01  0.3758093E+02  0.2709778E+02  0.3694388E+03
Ar  218  0.8229131E+01  0.2617242E+01  0.2663202E+02  0.1097673E+03
Ar  219  0.8112218E+01  0.3770505E+02  0.2977321E+02  0.3942374E+03
Ar  220  0.5866509E+01  0.2741831E+01  0.2969159E+02  0.2955455E+03
Ar  221  0.5286308E+01  0.3777983E+02  0.3208987E+02  0.1204478E+03
Ar  222  0.8126621E+01  0.2454419E+01  0.3256991E+02  0.3007422E+03
Ar  223  0.8421954E+01  0.3762696E+02  0.3493465E+02  0.8177748E+02
Ar  224  0.5634234E+01  0.2889026E+01  0.3527802E+02  0.3345345E+03
Ar  225  0.5719736E+01  0.5719736E+01  0.1177045E+00  0.4429176E+03
Ar  226  0.8338186E+01  0.8338186E+01  0.3765433E+02  0.7176019E+03
Ar  227  0.8177296E+01  0.5646968E+01  0.2877685E+01  0.1550302E+03
Ar  228  0.5646968E+01  0.8177296E+01  0.2877685E+01  0.1550302E+03
Ar  229  0.5820269E+01  0.5820269E+01  0.5820269E+01  0.1956992E+00
Ar  230  0.8358601E+01  0.8358601E+01  0.5315205E+01  0.1105775E+03
Ar  231  0.8358601E+01  0.5315204E+01  0.8358601E+01  0.1105777E+03
Ar  232  0.5315204E+01  0.8358601E+01  0.8358601E+01  0.1105778E+03
Ar  233  0.5521139E+01  0.5521139E+01  0.1107771E+02  0.1321951E+02
Ar  234  0.8593752E+01  0.8593752E+01  0.1148069E+02  0.3342286E+03
Ar  235  0.8364303E+01  0.5531829E+01  0.1340143E+02  0.8150163E+02
Ar  236  0.5531829E+01  0.8364303E+01  0.1340143E+02  0.8150138E+02
Ar  237  0.5776917E+01  0.5776917E+01  0.1601842E+02  0.9208108E+02
Ar  238  0.8363870E+01  0.8363870E+01  0.1553500E+02  0.4543517E+02
Ar  239  0.8232148E+01  0.5663565E+01  0.1914141E+02  0.3980302E+03
Ar  240  0.5663565E+01  0.8232147E+01  0.1914141E+02  0.3980302E+03
Ar  241  0.5404033E+01  0.5404033E+01  0.2178107E+02  0.8736955E+02
Ar  242  0.8389717E+01  0.8389717E+01  0.2156944E+02  0.4800896E+02
Ar  243  0.7950250E+01  0.5343833E+01  0.2407873E+02  0.1772959E+02
Ar  244  0.5343834E+01  0.7950250E+01  0.2407873E+02  0.1772957E+02
Ar  245  0.5271144E+01  0.5271144E+01  0.2710181E+02  0.2739285E+03
Ar  246  0.8348741E+01  0.8348741E+01  0.2682376E+02  0.5337661E+03
Ar  247  0.7961633E+01  0.5381562E+01  0.2913413E+02  0.7650042E+02
Ar  248  0.5381562E+01  0.7961633E+01  0.2913413E+02  0.7650030E+02
Ar  249  0.5874529E+01  0.5874529E+01  0.3199566E+02  0.2386472E+03
Ar  250  0.8232282E+01  0.8232282E+01  0.3314788E+02  0.8855354E+01
Ar  251  0.8271110E+01  0.5328731E+01  0.3514088E+02  0.1514305E+03
Ar  252  0.5328731E+01  0.8271109E+01  0.3514088E+02  0.1514305E+03
Ar  253  0.5425898E+01  0.1085675E+02  0.3767255E+02  0.5737551E+02
Ar  254  0.8636872E+01  0.1347015E+02  0.1215787E+00  0.1808994E+03
Ar  255  0.8424018E+01  0.1085506E+02  0.2872819E+01  0.2282836E+02
Ar  256  0.5936618E+01  0.1321063E+02  0.2844227E+01  0.2103908E+03
Ar  257  0.5521139E+01  0.1107771E+02  0.5521139E+01  0.1321955E+02
Ar  258  0.8364303E+01  0.1340143E+02  0.5531829E+01  0.8150121E+02
Ar  259  0.8593752E+01  0.1148069E+02  0.8593751E+01  0.3342288E+03
Ar  260  0.5531829E+01  0.1340143E+02  0.8364303E+01  0.8150122E+02
Ar  261  0.4940888E+01  0.1098376E+02  0.1098376E+02  0.2270446E+03
Ar  262  0.7866773E+01  0.1364137E+02  0.1121230E+02  0.3779428E+03
Ar  263  0.7866773E+01  0.1121230E+02  0.1364137E+02  0.3779435E+03
Ar  264  0.5133159E+01  0.1354237E+02  0.1354237E+02  0.3130731E+03
Ar  265  0.4985116E+01  0.1054832E+02  0.1660367E+02  0.6441637E+02
Ar  266  0.7667582E+01  0.1374768E+02  0.1622517E+02  0.1004593E+03
Ar  267  0.8218996E+01  0.1092814E+02  0.1856075E+02  0.4231031E+02
Ar  268  0.5281092E+01  0.1359386E+02  0.1898961E+02  0.3038691E+02
Ar  269  0.5515318E+01  0.1080401E+02  0.2168890E+02  0.3112467E+03
Ar  270  0.8355316E+01  0.1350734E+02  0.2117192E+02  0.1173433E+02
Ar  271  0.8370593E+01  0.1105734E+02  0.2391093E+02  0.2477194E+02
Ar  272  0.5413861E+01  0.1342351E+02  0.2421711E+02  0.1054306E+03
Ar  273  0.5429503E+01  0.1056946E+02  0.2656899E+02  0.2658013E+02
Ar  274  0.8023167E+01  0.1352728E+02  0.2678321E+02  0.1739974E+02
Ar  275  0.8333555E+01  0.1104796E+02  0.2994703E+02  0.1349118E+03
Ar  276  0.5492224E+01  0.1334825E+02  0.2987943E+02  0.3224904E+03
Ar  277  0.5369874E+01  0.1031837E+02  0.3218453E+02  0.2439946E+02
Ar  278  0.8172502E+01  0.1366554E+02  0.3223177E+02  0.1910219E+03
Ar  279  0.8086152E+01  0.1109000E+02  0.3506583E+02  0.2382327E+03
Ar  280  0.5298618E+01  0.1355892E+02  0.3484990E+02  0.1417045E+02
Ar  281  0.5499448E+01  0.1609547E+02  0.5268442E+00  0.7525096E+02
Ar  282  0.8075823E+01  0.1938970E+02  0.1702594E+00  0.4667619E+02
Ar  283  0.7968501E+01  0.1602322E+02  0.2720309E+01  0.2290808E+02
Ar  284  0.5644193E+01  0.1865581E+02  0.3240273E+01  0.4736574E+03
Ar  285  0.5776917E+01  0.1601842E+02  0.5776917E+01  0.9208111E+02
Ar  286  0.8232148E+01  0.1914141E+02  0.5663565E+01  0.3980302E+03
Ar  287  0.8363870E+01  0.1553500E+02  0.8363871E+01  0.4543520E+02
Ar  288  0.5663565E+01  0.1914141E+02  0.8232148E+01  0.3980300E+03
Ar  289  0.4985116E+01  0.1660367E+02  0.1054832E+02  0.6441628E+02
Ar  290  0.8218997E+01  0.1856075E+02  0.1092814E+02  0.4231030E+02
Ar  291  0.7667582E+01  0.1622517E+02  0.1374768E+02  0.1004592E+03
Ar  292  0.5281092E+01  0.1898961E+02  0.1359386E+02  0.3038697E+02
Ar  293  0.5364636E+01  0.1616642E+02  0.1616642E+02  0.4176773E+03
Ar  294  0.8015705E+01  0.1879964E+02  0.1636685E+02  0.1780411E+03
Ar  295  0.8015705E+01  0.1636685E+02  0.1879964E+02  0.1780411E+03
Ar  296  0.4921889E+01  0.1874766E+02  0.1874766E+02  0.2050746E+03
Ar  297  0.5202538E+01  0.1611020E+02  0.2141190E+02  0.1177766E+03
Ar  298  0.7816583E+01  0.1879038E+02  0.2142634E+02  0.1934161E+03
Ar  299  0.8268678E+01  0.1614494E+02  0.2416455E+02  0.2132146E+03
Ar  300  0.5175916E+01  0.1902012E+02  0.2438087E+02  0.6796413E+02
Ar  301  0.5466763E+01  0.1640558E+02  0.2673918E+02  0.3342757E+03
Ar  302  0.8396895E+01  0.1877235E+02  0.2684490E+02  0.1760971E+03
Ar  303  0.8184678E+01  0.1645485E+02  0.2956136E+02  0.7052878E+02
Ar  304  0.5266643E+01  0.1885608E+02  0.2949950E+02  0.3272812E+03
Ar  305  0.5751614E+01  0.1610002E+02  0.3262700E+02  0.7382252E+02
Ar  306  0.8261770E+01  0.1862409E+02  0.3229521E+02  0.1046259E+03
Ar  307  0.8302969E+01  0.1599735E+02  0.3486364E+02  0.2303422E+03
Ar  308  0.5286567E+01  0.1834922E+02  0.3535514E+02  0.4367888E+02
Ar  309  0.5109529E+01  0.2186894E+02  0.1878361E+00  0.1505848E+03
Ar  310  0.7921432E+01  0.2418145E+02  0.3762038E+02  0.9372499E+02
Ar  311  0.8010337E+01  0.2182480E+02  0.2785574E+01  0.3068564E+02
Ar  312  0.5159755E+01  0.2449120E+02  0.2414137E+01  0.2115336E+02
Ar  313  0.5404033E+01  0.2178107E+02  0.5404033E+01  0.8736961E+02
Ar  314  0.7950250E+01  0.2407873E+02  0.5343833E+01  0.1772954E+02
Ar  315  0.8389717E+01  0.2156944E+02  0.8389717E+01  0.4800894E+02
Ar  316  0.5343833E+01  0.2407873E+02  0.7950250E+01  0.1772955E+02
Ar  317  0.5515318E+01  0.2168890E+02  0.1080401E+02  0.3112469E+03
Ar  318  0.8370593E+01  0.2391093E+02  0.1105734E+02  0.2477192E+02
Ar  319  0.8355316E+01  0.2117192E+02  0.1350734E+02  0.1173432E+02
Ar  320  0.5413861E+01  0.2421711E+02  0.1342351E+02  0.1054306E+03
Ar  321  0.5202538E+01  0.2141190E+02  0.1611020E+02  0.1177767E+03
Ar  322  0.8268678E+01  0.2416455E+02  0.1614494E+02  0.2132147E+03
Ar  323  0.7816583E+01  0.2142634E+02  0.1879038E+02  0.1934160E+03
Ar  324  0.5175916E+01  0.2438087E+02  0.1902012E+02  0.6796420E+02
Ar  325  0.5750974E+01  0.2177123E+02  0.2177123E+02  0.1966562E+03
Ar  326  0.8215002E+01  0.2444017E+02  0.2124174E+02  0.8377421E+02
Ar  327  0.8215002E+01  0.2124174E+02  0.2444017E+02  0.8377420E+02
Ar  328  0.5512721E+01  0.2430722E+02  0.2430722E+02  0.3520730E+01
Ar  329  0.5908218E+01  0.2125735E+02  0.2703998E+02  0.1014790E+03
Ar  330  0.8268800E+01  0.2446351E+02  0.2712775E+02  0.7925680E+02
Ar  331  0.8559472E+01  0.2168167E+02  0.2956943E+02  0.8771652E+02
Ar  332  0.5701216E+01  0.2398571E+02  0.2951861E+02  0.5671495E+02
Ar  333  0.5835849E+01  0.2183500E+02  0.3229499E+02  0.8926561E+02
Ar  334  0.8367327E+01  0.2411065E+02  0.3254501E+02  0.1231438E+03
Ar  335  0.8160788E+01  0.2103451E+02  0.3486932E+02  0.3547518E+03
Ar  336  0.5650195E+01  0.2417001E+02  0.3474049E+02  0.1030746E+03
Ar  337  0.5434296E+01  0.2709778E+02  0.3758093E+02  0.3694391E+03
Ar  338  0.8112218E+01  0.2977321E+02  0.3770505E+02  0.3942373E+03
Ar  339  0.8229131E+01  0.2663202E+02  0.2617242E+01  0.1097674E+03
Ar  340  0.5866509E+01  0.2969159E+02  0.2741831E+01  0.2955458E+03
Ar  341  0.5271144E+01  0.2710181E+02  0.5271144E+01  0.2739287E+03
Ar  342  0.7961633E+01  0.2913413E+02  0.5381562E+01  0.7650036E+02
Ar  343  0.8348741E+01  0.2682376E+02  0.8348740E+01  0.5337660E+03
Ar  344  0.5381562E+01  0.2913413E+02  0.7961633E+01  0.7650048E+02
Ar  345  0.5429503E+01  0.2656899E+02  0.1056946E+02  0.2658012E+02
Ar  346  0.8333555E+01  0.2994702E+02  0.1104796E+02  0.1349118E+03
Ar  347  0.8023167E+01  0.2678321E+02  0.1352728E+02  0.1739973E+02
Ar  348  0.5492225E+01  0.2987943E+02  0.1334825E+02  0.3224902E+03
Ar  349  0.5466762E+01  0.2673918E+02  0.1640558E+02  0.3342759E+03
Ar  350  0.8184677E+01  0.2956136E+02  0.1645485E+02  0.7052874E+02
Ar  351  0.8396895E+01  0.2684490E+02  0.1877235E+02  0.1760970E+03
Ar  352  0.5266643E+01  0.2949950E+02  0.1885608E+02  0.3272809E+03
Ar  353  0.5908218E+01  0.2703998E+02  0.2125735E+02  0.1014790E+03
Ar  354  0.8559472E+01  0.2956943E+02  0.2168167E+02  0.8771646E+02
Ar  355  0.8268800E+01  0.2712775E+02  0.2446351E+02  0.7925683E+02
Ar  356  0.5701216E+01  0.2951861E+02  0.2398571E+02  0.5671500E+02
Ar  357  0.5472926E+01  0.2682747E+02  0.2682747E+02  0.1068060E+03
Ar  358  0.7947908E+01  0.2975742E+02  0.2706741E+02  0.4511344E+02
Ar  359  0.7947908E+01  0.2706741E+02  0.2975742E+02  0.4511349E+02
Ar  360  0.5125964E+01  0.2966770E+02  0.2966770E+02  0.5310065E+02
Ar  361  0.5386632E+01  0.2702763E+02  0.3210679E+02  0.3938363E+02
Ar  362  0.7928773E+01  0.2955516E+02  0.3243710E+02  0.7197611E+02
Ar  363  0.8071484E+01  0.2699515E+02  0.3504267E+02  0.4248006E+02
Ar  364  0.5238336E+01  0.2935725E+02  0.3481615E+02  0.1306315E+03
Ar  365  0.5286308E+01  0.3208987E+02  0.3777983E+02  0.1204477E+03
Ar  366  0.8421954E+01  0.3493465E+02  0.3762696E+02  0.8177751E+02
Ar  367  0.8126621E+01  0.3256991E+02  0.2454419E+01  0.3007425E+03
Ar  368  0.5634234E+01  0.3527802E+02  0.2889026E+01  0.3345340E+03
Ar  369  0.5874529E+01  0.3199566E+02  0.5874529E+01  0.2386470E+03
Ar  370  0.8271109E+01  0.3514088E+02  0.5328731E+01  0.1514304E+03
Ar  371  0.8232282E+01  0.3314788E+02  0.8232282E+01  0.8855365E+01
Ar  372  0.5328731E+01  0.3514088E+02  0.8271110E+01  0.1514305E+03
Ar  373  0.5369874E+01  0.3218453E+02  0.1031837E+02  0.2439941E+02
Ar  374  0.8086152E+01  0.3506583E+02  0.1109000E+02  0.2382327E+03
Ar  375  0.8172502E+01  0.3223177E+02  0.1366554E+02  0.1910217E+03
Ar  376  0.5298618E+01  0.3484991E+02  0.1355892E+02  0.1417049E+02
Ar  377  0.5751614E+01  0.3262700E+02  0.1610002E+02  0.7382277E+02
Ar  378  0.8302969E+01  0.3486364E+02  0.1599735E+02  0.2303421E+03
Ar  379  0.8261770E+01  0.3229521E+02  0.1862409E+02  0.1046258E+03
Ar  380  0.5286567E+01  0.3535514E+02  0.1834922E+02  0.4367887E+02
Ar  381  0.5835849E+01  0.3229499E+02  0.2183500E+02  0.8926567E+02
Ar  382  0.8160787E+01  0.3486932E+02  0.2103451E+02  0.3547520E+03
Ar  383  0.8367327E+01  0.3254501E+02  0.2411065E+02  0.1231439E+03
Ar  384  0.5650195E+01  0.3474049E+02  0.2417001E+02  0.1030745E+03
Ar  385  0.5386632E+01  0.3210679E+02  0.2702763E+02  0.3938367E+02
Ar  386  0.8071484E+01  0.3504267E+02  0.2699515E+02  0.4247992E+02
Ar  387  0.7928773E+01  0.3243710E+02  0.2955516E+02  0.7197616E+02
Ar  388  0.5238336E+01  0.3481615E+02  0.2935725E+02  0.1306315E+03
Ar  389  0.5497400E+01  0.3223052E+02  0.3223052E+02  0.2633304E+01
Ar  390  0.7911571E+01  0.3504104E+02  0.3207129E+02  0.7425695E+02
Ar  391  0.7911571E+01  0.3207129E+02  0.3504104E+02  0.7425691E+02
Ar  392  0.5072904E+01  0.3515589E+02  0.3515589E+02  0.1527432E+02
Ar  393  0.1070026E+02  0.1777752E+00  0.1777751E+00  0.2209342E+02
Ar  394  0.1361030E+02  0.2533922E+01  0.1097666E-01  0.2977147E+03
Ar  395  0.1361030E+02  0.1097652E-01  0.2533923E+01  0.2977148E+03
Ar  396  0.1152013E+02  0.2983827E+01  0.2983827E+01  0.6551093E+02
Ar  397  0.1085675E+02  0.3767255E+02  0.5425898E+01  0.5737546E+02
Ar  398  0.1321063E+02  0.2844227E+01  0.5936618E+01  0.2103907E+03
Ar  399  0.1347015E+02  0.1215787E+00  0.8636873E+01  0.1808993E+03
Ar  400  0.1085506E+02  0.2872819E+01  0.8424018E+01  0.2282835E+02
Ar  401  0.1069462E+02  0.3729697E+02  0.1069462E+02  0.3917752E+03
Ar  402  0.1376624E+02  0.2406102E+01  0.1098146E+02  0.2719269E+02
Ar  403  0.1338733E+02  0.3763082E+02  0.1338733E+02  0.5477469E+02
Ar  404  0.1098146E+02  0.2406102E+01  0.1376624E+02  0.2719263E+02
Ar  405  0.1091512E+02  0.2156855E+00  0.1639306E+02  0.3084849E+02
Ar  406  0.1378182E+02  0.2347259E+01  0.1630416E+02  0.4743292E+03
Ar  407  0.1383545E+02  0.3776482E+02  0.1906862E+02  0.2184236E+02
Ar  408  0.1088435E+02  0.2808943E+01  0.1901284E+02  0.5650703E+02
Ar  409  0.1070034E+02  0.3745822E+02  0.2162964E+02  0.2293212E+03
Ar  410  0.1334151E+02  0.2509766E+01  0.2152307E+02  0.3950538E+03
Ar  411  0.1329181E+02  0.3740331E+02  0.2408478E+02  0.1873252E+03
Ar  412  0.1089716E+02  0.2409262E+01  0.2454447E+02  0.8914041E+02
Ar  413  0.1065150E+02  0.3777564E+02  0.2685894E+02  0.4328513E+02
Ar  414  0.1352351E+02  0.2938355E+01  0.2720208E+02  0.7055812E+02
Ar  415  0.1340059E+02  0.1194354E+00  0.2931963E+02  0.3534489E+03
Ar  416  0.1045910E+02  0.2623230E+01  0.2960356E+02  0.8757441E+02
Ar  417  0.1117605E+02  0.3750581E+02  0.3207676E+02  0.4294760E+02
Ar  418  0.1286776E+02  0.2556377E+01  0.3189976E+02  0.8288375E+02
Ar  419  0.1348694E+02  0.3007286E-01  0.3472364E+02  0.3741679E+03
Ar  420  0.1126320E+02  0.2582502E+01  0.3491981E+02  0.1241633E+03
Ar  421  0.1085675E+02  0.5425898E+01  0.3767255E+02  0.5737559E+02
Ar  422  0.1347015E+02  0.8636873E+01  0.1215787E+00  0.1808995E+03
Ar  423  0.1321063E+02  0.5936618E+01  0.2844227E+01  0.2103911E+03
Ar  424  0.1085506E+02  0.8424018E+01  0.2872819E+01  0.2282832E+02
Ar  425  0.1107771E+02  0.5521139E+01  0.5521139E+01  0.1321958E+02
Ar  426  0.1340143E+02  0.8364303E+01  0.5531829E+01  0.8150129E+02
Ar  427  0.1340143E+02  0.5531829E+01  0.8364303E+01  0.8150142E+02
Ar  428  0.1148069E+02  0.8593752E+01  0.8593751E+01  0.3342287E+03
Ar  429  0.1098376E+02  0.4940888E+01  0.1098376E+02  0.2270448E+03
Ar  430  0.1364137E+02  0.7866774E+01  0.1121230E+02  0.3779428E+03
Ar  431  0.1354237E+02  0.5133159E+01  0.1354237E+02  0.3130729E+03
Ar  432  0.1121230E+02  0.7866773E+01  0.1364137E+02  0.3779435E+03
Ar  433  0.1054832E+02  0.4985116E+01  0.1660367E+02  0.6441633E+02
Ar  434  0.1374768E+02  0.7667582E+01  0.1622517E+02  0.1004591E+03
Ar  435  0.1359386E+02  0.5281091E+01  0.1898961E+02  0.3038698E+02
Ar  436  0.1092814E+02  0.8218997E+01  0.1856075E+02  0.4231037E+02
Ar  437  0.1080401E+02  0.5515318E+01  0.2168890E+02  0.3112469E+03
Ar  438  0.1350734E+02  0.8355316E+01  0.2117192E+02  0.1173440E+02
Ar  439  0.1342351E+02  0.5413861E+01  0.2421711E+02  0.1054306E+03
Ar  440  0.1105734E+02  0.8370593E+01  0.2391093E+02  0.2477192E+02
Ar  441  0.1056946E+02  0.5429504E+01  0.2656899E+02  0.2658014E+02
Ar  442  0.1352728E+02  0.8023166E+01  0.2678321E+02  0.1739975E+02
Ar  443  0.1334825E+02  0.5492224E+01  0.2987943E+02  0.3224901E+03
Ar  444  0.1104796E+02  0.8333555E+01  0.2994702E+02  0.1349117E+03
Ar  445  0.1031837E+02  0.5369874E+01  0.3218453E+02  0.2439943E+02
Ar  446  0.1366554E+02  0.8172502E+01  0.3223177E+02  0.1910219E+03
Ar  447  0.1355892E+02  0.5298618E+01  0.3484991E+02  0.1417045E+02
Ar  448  0.1109000E+02  0.8086152E+01  0.3506583E+02  0.2382326E+03
Ar  449  0.1069462E+02  0.1069462E+02  0.3729697E+02  0.3917753E+03
Ar  450  0.1338733E+02  0.1338733E+02  0.3763082E+02  0.5477458E+02
Ar  451  0.1376624E+02  0.1098146E+02  0.2406101E+01  0.2719270E+02
Ar  452  0.1098146E+02  0.1376624E+02  0.2406102E+01  0.2719268E+02
Ar  453  0.1098376E+02  0.1098376E+02  0.4940889E+01  0.2270448E+03
Ar  454  0.1354237E+02  0.1354237E+02  0.5133159E+01  0.3130731E+03
Ar  455  0.1364137E+02  0.1121230E+02  0.7866773E+01  0.3779432E+03
Ar  456  0.1121230E+02  0.1364137E+02  0.7866773E+01  0.3779432E+03
Ar  457  0.1129423E+02  0.1129423E+02  0.1129423E+02  0.3497824E+01
Ar  458  0.1373586E+02  0.1373586E+02  0.1054880E+02  0.2599630E+03
Ar  459  0.1373586E+02  0.1054880E+02  0.1373586E+02  0.2599629E+03
Ar  460  0.1054880E+02  0.1373586E+02  0.1373586E+02  0.2599629E+03
Ar  461  0.1072189E+02  0.1072189E+02  0.1581036E+02  0.3040642E+02
Ar  462  0.1352038E+02  0.1352038E+02  0.1590140E+02  0.3461788E+03
Ar  463  0.1373557E+02  0.1074476E+02  0.1856246E+02  0.8556762E+02
Ar  464  0.1074476E+02  0.1373557E+02  0.1856246E+02  0.8556752E+02
Ar  465  0.1090098E+02  0.1090098E+02  0.2123625E+02  0.9354731E+02
Ar  466  0.1376140E+02  0.1376140E+02  0.2158495E+02  0.1090270E+03
Ar  467  0.1353238E+02  0.1112980E+02  0.2411996E+02  0.1612256E+03
Ar  468  0.1112980E+02  0.1353238E+02  0.2411996E+02  0.1612256E+03
Ar  469  0.1092566E+02  0.1092566E+02  0.2705091E+02  0.8422619E+02
Ar  470  0.1369826E+02  0.1369826E+02  0.2648468E+02  0.7638597E+02
Ar  471  0.1356633E+02  0.1102952E+02  0.2965905E+02  0.2716884E+03
Ar  472  0.1102952E+02  0.1356633E+02  0.2965905E+02  0.2716885E+03
Ar  473  0.1103945E+02  0.1103945E+02  0.3269282E+02  0.2048275E+03
Ar  474  0.1363809E+02  0.1363809E+02  0.3230185E+02  0.3712467E+02
Ar  475  0.1373257E+02  0.1076673E+02  0.3499090E+02  0.1446815E+02
Ar  476  0.1076673E+02  0.1373257E+02  0.3499090E+02  0.1446816E+02
Ar  477  0.1091512E+02  0.1639306E+02  0.2156853E+00  0.3084838E+02
Ar  478  0.1383545E+02  0.1906862E+02  0.3776482E+02  0.2184229E+02
Ar  479  0.1378182E+02  0.1630416E+02  0.2347259E+01  0.4743291E+03
Ar  480  0.1088435E+02  0.1901284E+02  0.2808943E+01  0.5650688E+02
Ar  481  0.1054832E+02  0.1660367E+02  0.4985116E+01  0.6441629E+02
Ar  482  0.1359386E+02  0.1898961E+02  0.5281091E+01  0.3038700E+02
Ar  483  0.1374768E+02  0.1622517E+02  0.7667582E+01  0.1004591E+03
Ar  484  0.1092814E+02  0.1856075E+02  0.8218996E+01  0.4231031E+02
Ar  485  0.1072189E+02  0.1581036E+02  0.1072189E+02  0.3040642E+02
Ar  486  0.1373557E+02  0.1856246E+02  0.1074476E+02  0.8556721E+02
Ar  487  0.1352038E+02  0.1590140E+02  0.1352038E+02  0.3461785E+03
Ar  488  0.1074476E+02  0.1856246E+02  0.1373557E+02  0.8556720E+02
Ar  489  0.1064311E+02  0.1621383E+02  0.1621383E+02  0.2049880E+02
Ar  490  0.1333110E+02  0.1891795E+02  0.1616112E+02  0.2016524E+03
Ar  491  0.1333110E+02  0.1616112E+02  0.1891795E+02  0.2016523E+03
Ar  492  0.1074788E+02  0.1884968E+02  0.1884968E+02  0.1282909E+03
Ar  493  0.1066017E+02  0.1601788E+02  0.2178238E+02  0.3633234E+02
Ar  494  0.1359959E+02  0.1887162E+02  0.2142632E+02  0.1330645E+03
Ar  495  0.1373656E+02  0.1640185E+02  0.2384368E+02  0.2444413E+03
Ar  496  0.1108689E+02  0.1877851E+02  0.2395866E+02  0.1253879E+03
Ar  497  0.1094115E+02  0.1625084E+02  0.2725830E+02  0.1053997E+03
Ar  498  0.1345785E+02  0.1867537E+02  0.2670978E+02  0.7712195E+02
Ar  499  0.1366920E+02  0.1661602E+02  0.2957136E+02  0.9283888E+02
Ar  500  0.1103784E+02  0.1892462E+02  0.2960528E+02  0.5181045E+03
Ar  501  0.1109707E+02  0.1628320E+02  0.3237675E+02  0.1645399E+03
Ar  502  0.1388583E+02  0.1871733E+02  0.3239367E+02  0.1576426E+03
Ar  503  0.1363223E+02  0.1632182E+02  0.3517340E+02  0.2779505E+03
Ar  504  0.1097432E+02  0.1872517E+02  0.3515042E+02  0.1603699E+02
Ar  505  0.1070034E+02  0.2162964E+02  0.3745822E+02  0.2293209E+03
Ar  506  0.1329181E+02  0.2408478E+02  0.3740331E+02  0.1873252E+03
Ar  507  0.1334151E+02  0.2152307E+02  0.2509766E+01  0.3950539E+03
Ar  508  0.1089716E+02  0.2454447E+02  0.2409262E+01  0.8914051E+02
Ar  509  0.1080401E+02  0.2168890E+02  0.5515318E+01  0.3112467E+03
Ar  510  0.1342351E+02  0.2421711E+02  0.5413861E+01  0.1054306E+03
Ar  511  0.1350734E+02  0.2117192E+02  0.8355316E+01  0.1173433E+02
Ar  512  0.1105734E+02  0.2391093E+02  0.8370593E+01  0.2477192E+02
Ar  513  0.1090098E+02  0.2123625E+02  0.1090098E+02  0.9354732E+02
Ar  514  0.1353238E+02  0.2411996E+02  0.1112980E+02  0.1612256E+03
Ar  515  0.1376140E+02  0.2158495E+02  0.1376140E+02  0.1090274E+03
Ar  516  0.1112980E+02  0.2411996E+02  0.1353238E+02  0.1612255E+03
Ar  517  0.1066017E+02  0.2178238E+02  0.1601788E+02  0.3633234E+02
Ar  518  0.1373656E+02  0.2384368E+02  0.1640185E+02  0.2444414E+03
Ar  519  0.1359959E+02  0.2142632E+02  0.1887162E+02  0.1330644E+03
Ar  520  0.1108689E+02  0.2395866E+02  0.1877851E+02  0.1253879E+03
Ar  521  0.1112271E+02  0.2200703E+02  0.2200702E+02  0.7461436E+02
Ar  522  0.1375204E+02  0.2408807E+02  0.2116347E+02  0.2775156E+03
Ar  523  0.1375204E+02  0.2116347E+02  0.2408807E+02  0.2775159E+03
Ar  524  0.1051683E+02  0.2424544E+02  0.2424544E+02  0.1882707E+03
Ar  525  0.1088886E+02  0.2177779E+02  0.2697487E+02  0.8160009E+02
Ar  526  0.1377815E+02  0.2417637E+02  0.2719242E+02  0.2095548E+03
Ar  527  0.1348126E+02  0.2139924E+02  0.2970321E+02  0.5716142E+02
Ar  528  0.1098699E+02  0.2439818E+02  0.2959529E+02  0.2089025E+02
Ar  529  0.1078596E+02  0.2146243E+02  0.3222299E+02  0.1386312E+03
Ar  530  0.1303371E+02  0.2426178E+02  0.3231529E+02  0.6820453E+02
Ar  531  0.1334982E+02  0.2149455E+02  0.3484866E+02  0.8593891E+02
Ar  532  0.1058708E+02  0.2439621E+02  0.3514873E+02  0.7531208E+02
Ar  533  0.1065150E+02  0.2685894E+02  0.3777564E+02  0.4328507E+02
Ar  534  0.1340059E+02  0.2931963E+02  0.1194354E+00  0.3534490E+03
Ar  535  0.1352351E+02  0.2720208E+02  0.2938355E+01  0.7055815E+02
Ar  536  0.1045910E+02  0.2960356E+02  0.2623230E+01  0.8757421E+02
Ar  537  0.1056946E+02  0.2656899E+02  0.5429503E+01  0.2658021E+02
Ar  538  0.1334825E+02  0.2987943E+02  0.5492224E+01  0.3224901E+03
Ar  539  0.1352728E+02  0.2678321E+02  0.8023166E+01  0.1739976E+02
Ar  540  0.1104796E+02  0.2994702E+02  0.8333555E+01  0.1349118E+03
Ar  541  0.1092566E+02  0.2705091E+02  0.1092566E+02  0.8422619E+02
Ar  542  0.1356633E+02  0.2965905E+02  0.1102952E+02  0.2716884E+03
Ar  543  0.1369826E+02  0.2648468E+02  0.1369826E+02  0.7638615E+02
Ar  544  0.1102952E+02  0.2965905E+02  0.1356633E+02  0.2716886E+03
Ar  545  0.1094115E+02  0.2725830E+02  0.1625084E+02  0.1053997E+03
Ar  546  0.1366920E+02  0.2957136E+02  0.1661602E+02  0.9283881E+02
Ar  547  0.1345785E+02  0.2670978E+02  0.1867537E+02  0.7712184E+02
Ar  548  0.1103784E+02  0.2960528E+02  0.1892462E+02  0.5181047E+03
Ar  549  0.1088886E+02  0.2697487E+02  0.2177779E+02  0.8160007E+02
Ar  550  0.1348126E+02  0.2970321E+02  0.2139924E+02  0.5716136E+02
Ar  551  0.1377815E+02  0.2719242E+02  0.2417637E+02  0.2095547E+03
Ar  552  0.1098699E+02  0.2959529E+02  0.2439818E+02  0.2089025E+02
Ar  553  0.1091993E+02  0.2675600E+02  0.2675600E+02  0.1265200E+03
Ar  554  0.1373127E+02  0.2954747E+02  0.2695475E+02  0.8892836E+02
Ar  555  0.1373127E+02  0.2695475E+02  0.2954747E+02  0.8892833E+02
Ar  556  0.1101409E+02  0.2942429E+02  0.2942429E+02  0.3198755E+03
Ar  557  0.1096694E+02  0.2712085E+02  0.3196496E+02  0.5729412E+02
Ar  558  0.1356231E+02  0.2964978E+02  0.3223646E+02  0.1914098E+03
Ar  559  0.1283567E+02  0.2689108E+02  0.3487984E+02  0.3586436E+03
Ar  560  0.1054799E+02  0.2976323E+02  0.3478372E+02  0.9621638E+02
Ar  561  0.1117605E+02  0.3207676E+02  0.3750581E+02  0.4294762E+02
Ar  562  0.1348694E+02  0.3472364E+02  0.3007287E-01  0.3741679E+03
Ar  563  0.1286776E+02  0.3189976E+02  0.2556378E+01  0.8288391E+02
Ar  564  0.1126320E+02  0.3491981E+02  0.2582502E+01  0.1241636E+03
Ar  565  0.1031837E+02  0.3218453E+02  0.5369874E+01  0.2439939E+02
Ar  566  0.1355892E+02  0.3484991E+02  0.5298618E+01  0.1417049E+02
Ar  567  0.1366554E+02  0.3223177E+02  0.8172502E+01  0.1910218E+03
Ar  568  0.1109000E+02  0.3506583E+02  0.8086152E+01  0.2382328E+03
Ar  569  0.1103946E+02  0.3269282E+02  0.1103946E+02  0.2048274E+03
Ar  570  0.1373257E+02  0.3499090E+02  0.1076673E+02  0.1446818E+02
Ar  571  0.1363809E+02  0.3230185E+02  0.1363809E+02  0.3712470E+02
Ar  572  0.1076673E+02  0.3499090E+02  0.1373257E+02  0.1446818E+02
Ar  573  0.1109707E+02  0.3237675E+02  0.1628320E+02  0.1645397E+03
Ar  574  0.1363223E+02  0.3517340E+02  0.1632182E+02  0.2779506E+03
Ar  575  0.1388583E+02  0.3239367E+02  0.1871733E+02  0.1576428E+03
Ar  576  0.1097432E+02  0.3515042E+02  0.1872517E+02  0.1603695E+02
Ar  577  0.1078596E+02  0.3222299E+02  0.2146243E+02  0.1386314E+03
Ar  578  0.1334982E+02  0.3484866E+02  0.2149455E+02  0.8593894E+02
Ar  579  0.1303371E+02  0.3231529E+02  0.2426178E+02  0.6820456E+02
Ar  580  0.1058708E+02  0.3514873E+02  0.2439621E+02  0.7531192E+02
Ar  581  0.1096694E+02  0.3196496E+02  0.2712085E+02  0.5729408E+02
Ar  582  0.1283566E+02  0.3487984E+02  0.2689108E+02  0.3586435E+03
Ar  583  0.1356231E+02  0.3223646E+02  0.2964978E+02  0.1914098E+03
Ar  584  0.1054799E+02  0.3478372E+02  0.2976323E+02  0.9621637E+02
Ar  585  0.1120384E+02  0.3234675E+02  0.3234675E+02  0.1770944E+03
Ar  586  0.1366244E+02  0.3515056E+02  0.3200597E+02  0.3941393E+02
Ar  587  0.1366243E+02  0.3200597E+02  0.3515056E+02  0.3941384E+02
Ar  588  0.1153130E+02  0.3477513E+02  0.3477513E+02  0.5476037E+02
Ar  589  0.1639734E+02  0.3767996E+02  0.3767996E+02  0.7422655E+02
Ar  590  0.1856987E+02  0.2844411E+01  0.3676400E+00  0.2793933E+03
Ar  591  0.1856987E+02  0.3676398E+00  0.2844411E+01  0.2793933E+03
Ar  592  0.1561688E+02  0.3247858E+01  0.3247858E+01  0.3864582E+03
Ar  593  0.1609547E+02  0.5268442E+00  0.5499448E+01  0.7525099E+02
Ar  594  0.1865581E+02  0.3240273E+01  0.5644193E+01  0.4736575E+03
Ar  595  0.1938969E+02  0.1702594E+00  0.8075823E+01  0.4667624E+02
Ar  596  0.1602322E+02  0.2720309E+01  0.7968501E+01  0.2290813E+02
Ar  597  0.1639306E+02  0.2156853E+00  0.1091512E+02  0.3084845E+02
Ar  598  0.1901284E+02  0.2808943E+01  0.1088435E+02  0.5650703E+02
Ar  599  0.1906862E+02  0.3776482E+02  0.1383545E+02  0.2184233E+02
Ar  600  0.1630415E+02  0.2347259E+01  0.1378182E+02  0.4743292E+03
Ar  601  0.1654479E+02  0.5732757E-01  0.1654479E+02  0.6391469E+03
Ar  602  0.1927629E+02  0.2644772E+01  0.1611429E+02  0.3017710E+02
Ar  603  0.1915604E+02  0.2202348E+00  0.1915604E+02  0.9204232E+02
Ar  604  0.1611429E+02  0.2644772E+01  0.1927629E+02  0.3017707E+02
Ar  605  0.1623878E+02  0.3766852E+02  0.2168568E+02  0.3591799E+02
Ar  606  0.1899287E+02  0.2500203E+01  0.2178839E+02  0.1352332E+03
Ar  607  0.1850175E+02  0.3763058E+02  0.2489023E+02  0.4289647E+02
Ar  608  0.1593461E+02  0.2746928E+01  0.2420720E+02  0.6501656E+02
Ar  609  0.1606192E+02  0.4627458E-01  0.2715524E+02  0.1713364E+02
Ar  610  0.1857866E+02  0.2684421E+01  0.2701903E+02  0.2771296E+02
Ar  611  0.1891245E+02  0.1087500E+00  0.2958215E+02  0.9221969E+02
Ar  612  0.1597790E+02  0.2832337E+01  0.2996450E+02  0.1916830E+02
Ar  613  0.1640552E+02  0.7283653E-01  0.3235429E+02  0.3121703E+01
Ar  614  0.1895997E+02  0.2805935E+01  0.3226008E+02  0.1578069E+03
Ar  615  0.1888703E+02  0.2845385E+00  0.3516104E+02  0.1274212E+03
Ar  616  0.1598926E+02  0.2653748E+01  0.3476934E+02  0.1392373E+03
Ar  617  0.1609547E+02  0.5499448E+01  0.5268442E+00  0.7525074E+02
Ar  618  0.1938969E+02  0.8075823E+01  0.1702594E+00  0.4667622E+02
Ar  619  0.1865581E+02  0.5644193E+01  0.3240273E+01  0.4736576E+03
Ar  620  0.1602322E+02  0.7968501E+01  0.2720308E+01  0.2290794E+02
Ar  621  0.1601842E+02  0.5776917E+01  0.5776917E+01  0.9208109E+02
Ar  622  0.1914141E+02  0.8232147E+01  0.5663565E+01  0.3980300E+03
Ar  623  0.1914141E+02  0.5663565E+01  0.8232148E+01  0.3980297E+03
Ar  624  0.1553500E+02  0.8363870E+01  0.8363870E+01  0.4543530E+02
Ar  625  0.1660367E+02  0.4985116E+01  0.1054832E+02  0.6441629E+02
Ar  626  0.1856075E+02  0.8218997E+01  0.1092814E+02  0.4231028E+02
Ar  627  0.1898961E+02  0.5281091E+01  0.1359386E+02  0.3038702E+02
Ar  628  0.1622517E+02  0.7667582E+01  0.1374768E+02  0.1004593E+03
Ar  629  0.1616642E+02  0.5364635E+01  0.1616642E+02  0.4176775E+03
Ar  630  0.1879964E+02  0.8015705E+01  0.1636685E+02  0.1780411E+03
Ar  631  0.1874766E+02  0.4921889E+01  0.1874766E+02  0.2050747E+03
Ar  632  0.1636685E+02  0.8015705E+01  0.1879964E+02  0.1780413E+03
Ar  633  0.1611020E+02  0.5202538E+01  0.2141190E+02  0.1177767E+03
Ar  634  0.1879038E+02  0.7816583E+01  0.2142634E+02  0.1934162E+03
Ar  635  0.1902012E+02  0.5175916E+01  0.2438087E+02  0.6796413E+02
Ar  636  0.1614494E+02  0.8268678E+01  0.2416455E+02  0.2132146E+03
Ar  637  0.1640558E+02  0.5466762E+01  0.2673918E+02  0.3342757E+03
Ar  638  0.1877235E+02  0.8396895E+01  0.2684490E+02  0.1760971E+03
Ar  639  0.1885608E+02  0.5266643E+01  0.2949950E+02  0.3272811E+03
Ar  640  0.1645485E+02  0.8184678E+01  0.2956136E+02  0.7052882E+02
Ar  641  0.1610002E+02  0.5751614E+01  0.3262700E+02  0.7382245E+02
Ar  642  0.1862409E+02  0.8261770E+01  0.3229521E+02  0.1046259E+03
Ar  643  0.1834922E+02  0.5286568E+01  0.3535514E+02  0.4367888E+02
Ar  644  0.1599735E+02  0.8302969E+01  0.3486364E+02  0.2303423E+03
Ar  645  0.1639306E+02  0.1091512E+02  0.2156855E+00  0.3084844E+02
Ar  646  0.1906862E+02  0.1383546E+02  0.3776482E+02  0.2184237E+02
Ar  647  0.1901284E+02  0.1088435E+02  0.2808943E+01  0.5650696E+02
Ar  648  0.1630416E+02  0.1378182E+02  0.2347259E+01  0.4743293E+03
Ar  649  0.1660367E+02  0.1054832E+02  0.4985116E+01  0.6441624E+02
Ar  650  0.1898961E+02  0.1359386E+02  0.5281092E+01  0.3038697E+02
Ar  651  0.1856075E+02  0.1092814E+02  0.8218996E+01  0.4231031E+02
Ar  652  0.1622517E+02  0.1374768E+02  0.7667582E+01  0.1004594E+03
Ar  653  0.1581036E+02  0.1072189E+02  0.1072189E+02  0.3040642E+02
Ar  654  0.1856246E+02  0.1373557E+02  0.1074476E+02  0.8556749E+02
Ar  655  0.1856246E+02  0.1074476E+02  0.1373557E+02  0.8556741E+02
Ar  656  0.1590140E+02  0.1352038E+02  0.1352038E+02  0.3461787E+03
Ar  657  0.1621383E+02  0.1064311E+02  0.1621383E+02  0.2049869E+02
Ar  658  0.1891795E+02  0.1333110E+02  0.1616112E+02  0.2016523E+03
Ar  659  0.1884968E+02  0.1074788E+02  0.1884968E+02  0.1282909E+03
Ar  660  0.1616112E+02  0.1333110E+02  0.1891795E+02  0.2016525E+03
Ar  661  0.1601788E+02  0.1066017E+02  0.2178238E+02  0.3633231E+02
Ar  662  0.1887162E+02  0.1359959E+02  0.2142632E+02  0.1330644E+03
Ar  663  0.1877851E+02  0.1108689E+02  0.2395866E+02  0.1253879E+03
Ar  664  0.1640185E+02  0.1373656E+02  0.2384368E+02  0.2444413E+03
Ar  665  0.1625084E+02  0.1094115E+02  0.2725830E+02  0.1053997E+03
Ar  666  0.1867537E+02  0.1345785E+02  0.2670978E+02  0.7712196E+02
Ar  667  0.1892462E+02  0.1103784E+02  0.2960528E+02  0.5181047E+03
Ar  668  0.1661602E+02  0.1366920E+02  0.2957136E+02  0.9283885E+02
Ar  669  0.1628320E+02  0.1109707E+02  0.3237675E+02  0.1645397E+03
Ar  670  0.1871733E+02  0.1388583E+02  0.3239367E+02  0.1576426E+03
Ar  671  0.1872517E+02  0.1097432E+02  0.3515042E+02  0.1603694E+02
Ar  672  0.1632182E+02  0.1363223E+02  0.3517340E+02  0.2779506E+03
Ar  673  0.1654479E+02  0.1654479E+02  0.5732756E-01  0.6391472E+03
Ar  674  0.1915604E+02  0.1915604E+02  0.2202348E+00  0.9204227E+02
Ar  675  0.1927629E+02  0.1611429E+02  0.2644772E+01  0.3017710E+02
Ar  676  0.1611429E+02  0.1927629E+02  0.2644772E+01  0.3017705E+02
Ar  677  0.1616642E+02  0.1616642E+02  0.5364635E+01  0.4176771E+03
Ar  678  0.1874766E+02  0.1874766E+02  0.4921889E+01  0.2050748E+03
Ar  679  0.1879964E+02  0.1636685E+02  0.8015705E+01  0.1780410E+03
Ar  680  0.1636685E+02  0.1879964E+02  0.8015705E+01  0.1780410E+03
Ar  681  0.1621383E+02  0.1621383E+02  0.1064311E+02  0.2049883E+02
Ar  682  0.1884968E+02  0.1884968E+02  0.1074788E+02  0.1282909E+03
Ar  683  0.1891795E+02  0.1616112E+02  0.1333110E+02  0.2016525E+03
Ar  684  0.1616112E+02  0.1891795E+02  0.1333110E+02  0.2016523E+03
Ar  685  0.1595787E+02  0.1595787E+02  0.1595787E+02  0.3308364E+02
Ar  686  0.1867595E+02  0.1867595E+02  0.1635557E+02  0.2993912E+03
Ar  687  0.1867595E+02  0.1635557E+02  0.1867595E+02  0.2993916E+03
Ar  688  0.1635557E+02  0.1867595E+02  0.1867595E+02  0.2993914E+03
Ar  689  0.1633943E+02  0.1633943E+02  0.2146822E+02  0.1423342E+03
Ar  690  0.1874843E+02  0.1874843E+02  0.2166068E+02  0.2972817E+03
Ar  691  0.1892211E+02  0.1640892E+02  0.2402812E+02  0.2969749E+03
Ar  692  0.1640892E+02  0.1892212E+02  0.2402812E+02  0.2969750E+03
Ar  693  0.1626629E+02  0.1626629E+02  0.2717022E+02  0.2762325E+02
Ar  694  0.1871490E+02  0.1871490E+02  0.2693641E+02  0.4958932E+01
Ar  695  0.1926352E+02  0.1636563E+02  0.2958661E+02  0.3662664E+03
Ar  696  0.1636563E+02  0.1926352E+02  0.2958661E+02  0.3662664E+03
Ar  697  0.1630775E+02  0.1630775E+02  0.3243436E+02  0.1088545E+03
Ar  698  0.1921186E+02  0.1921186E+02  0.3161394E+02  0.3933639E+02
Ar  699  0.1943741E+02  0.1684312E+02  0.3492157E+02  0.1084015E+03
Ar  700  0.1684312E+02  0.1943741E+02  0.3492157E+02  0.1084015E+03
Ar  701  0.1623878E+02  0.2168568E+02  0.3766852E+02  0.3591797E+02
Ar  702  0.1850175E+02  0.2489023E+02  0.3763058E+02  0.4289651E+02
Ar  703  0.1899287E+02  0.2178839E+02  0.2500203E+01  0.1352331E+03
Ar  704  0.1593461E+02  0.2420720E+02  0.2746929E+01  0.6501661E+02
Ar  705  0.1611020E+02  0.2141190E+02  0.5202537E+01  0.1177767E+03
Ar  706  0.1902012E+02  0.2438087E+02  0.5175916E+01  0.6796419E+02
Ar  707  0.1879038E+02  0.2142634E+02  0.7816583E+01  0.1934161E+03
Ar  708  0.1614494E+02  0.2416455E+02  0.8268678E+01  0.2132145E+03
Ar  709  0.1601788E+02  0.2178238E+02  0.1066017E+02  0.3633231E+02
Ar  710  0.1877851E+02  0.2395866E+02  0.1108689E+02  0.1253879E+03
Ar  711  0.1887162E+02  0.2142632E+02  0.1359959E+02  0.1330645E+03
Ar  712  0.1640185E+02  0.2384368E+02  0.1373656E+02  0.2444414E+03
Ar  713  0.1633943E+02  0.2146822E+02  0.1633943E+02  0.1423342E+03
Ar  714  0.1892212E+02  0.2402812E+02  0.1640892E+02  0.2969748E+03
Ar  715  0.1874843E+02  0.2166068E+02  0.1874843E+02  0.2972819E+03
Ar  716  0.1640892E+02  0.2402812E+02  0.1892212E+02  0.2969750E+03
Ar  717  0.1638521E+02  0.2161660E+02  0.2161660E+02  0.1581692E+02
Ar  718  0.1908538E+02  0.2403254E+02  0.2158219E+02  0.1438531E+03
Ar  719  0.1908538E+02  0.2158219E+02  0.2403254E+02  0.1438534E+03
Ar  720  0.1630910E+02  0.2430133E+02  0.2430133E+02  0.2383232E+03
Ar  721  0.1666892E+02  0.2145328E+02  0.2650319E+02  0.4661062E+02
Ar  722  0.1918629E+02  0.2418917E+02  0.2681424E+02  0.8550814E+02
Ar  723  0.1873805E+02  0.2203393E+02  0.2973581E+02  0.4367159E+02
Ar  724  0.1623717E+02  0.2425045E+02  0.2963321E+02  0.9237153E+02
Ar  725  0.1654417E+02  0.2153172E+02  0.3243999E+02  0.1184044E+03
Ar  726  0.1899124E+02  0.2439765E+02  0.3252693E+02  0.2594188E+02
Ar  727  0.1919373E+02  0.2190493E+02  0.3595244E+02  0.3866708E+03
Ar  728  0.1605729E+02  0.2482716E+02  0.3484913E+02  0.7650795E+02
Ar  729  0.1606192E+02  0.2715524E+02  0.4627453E-01  0.1713365E+02
Ar  730  0.1891246E+02  0.2958215E+02  0.1087501E+00  0.9221968E+02
Ar  731  0.1857866E+02  0.2701903E+02  0.2684421E+01  0.2771296E+02
Ar  732  0.1597790E+02  0.2996450E+02  0.2832337E+01  0.1916832E+02
Ar  733  0.1640558E+02  0.2673918E+02  0.5466763E+01  0.3342759E+03
Ar  734  0.1885608E+02  0.2949950E+02  0.5266643E+01  0.3272808E+03
Ar  735  0.1877235E+02  0.2684490E+02  0.8396895E+01  0.1760971E+03
Ar  736  0.1645485E+02  0.2956136E+02  0.8184678E+01  0.7052877E+02
Ar  737  0.1625084E+02  0.2725830E+02  0.1094115E+02  0.1053998E+03
Ar  738  0.1892462E+02  0.2960528E+02  0.1103784E+02  0.5181046E+03
Ar  739  0.1867537E+02  0.2670978E+02  0.1345785E+02  0.7712191E+02
Ar  740  0.1661602E+02  0.2957136E+02  0.1366920E+02  0.9283899E+02
Ar  741  0.1626629E+02  0.2717022E+02  0.1626629E+02  0.2762322E+02
Ar  742  0.1926352E+02  0.2958661E+02  0.1636563E+02  0.3662664E+03
Ar  743  0.1871490E+02  0.2693641E+02  0.1871490E+02  0.4958906E+01
Ar  744  0.1636563E+02  0.2958661E+02  0.1926352E+02  0.3662661E+03
Ar  745  0.1666892E+02  0.2650319E+02  0.2145328E+02  0.4661061E+02
Ar  746  0.1873805E+02  0.2973581E+02  0.2203393E+02  0.4367158E+02
Ar  747  0.1918629E+02  0.2681424E+02  0.2418917E+02  0.8550817E+02
Ar  748  0.1623717E+02  0.2963321E+02  0.2425045E+02  0.9237154E+02
Ar  749  0.1658755E+02  0.2647869E+02  0.2647869E+02  0.5494219E+02
Ar  750  0.1872805E+02  0.2960035E+02  0.2691293E+02  0.1552337E+03
Ar  751  0.1872805E+02  0.2691293E+02  0.2960034E+02  0.1552337E+03
Ar  752  0.1607736E+02  0.2937687E+02  0.2937687E+02  0.9000055E+02
Ar  753  0.1604169E+02  0.2719162E+02  0.3245368E+02  0.1398153E+03
Ar  754  0.1875089E+02  0.2983002E+02  0.3257137E+02  0.1865795E+03
Ar  755  0.1910237E+02  0.2709205E+02  0.3493196E+02  0.8887888E+02
Ar  756  0.1619090E+02  0.2947836E+02  0.3531241E+02  0.1178812E+03
Ar  757  0.1640552E+02  0.3235429E+02  0.7283634E-01  0.3121704E+01
Ar  758  0.1888703E+02  0.3516104E+02  0.2845384E+00  0.1274211E+03
Ar  759  0.1895997E+02  0.3226008E+02  0.2805935E+01  0.1578070E+03
Ar  760  0.1598926E+02  0.3476934E+02  0.2653748E+01  0.1392373E+03
Ar  761  0.1610002E+02  0.3262700E+02  0.5751614E+01  0.7382259E+02
Ar  762  0.1834922E+02  0.3535514E+02  0.5286567E+01  0.4367889E+02
Ar  763  0.1862409E+02  0.3229521E+02  0.8261770E+01  0.1046260E+03
Ar  764  0.1599735E+02  0.3486364E+02  0.8302969E+01  0.2303420E+03
Ar  765  0.1628320E+02  0.3237675E+02  0.1109707E+02  0.1645396E+03
Ar  766  0.1872517E+02  0.3515042E+02  0.1097432E+02  0.1603700E+02
Ar  767  0.1871733E+02  0.3239367E+02  0.1388583E+02  0.1576426E+03
Ar  768  0.1632182E+02  0.3517340E+02  0.1363223E+02  0.2779508E+03
Ar  769  0.1630775E+02  0.3243436E+02  0.1630775E+02  0.1088544E+03
Ar  770  0.1943741E+02  0.3492157E+02  0.1684312E+02  0.1084016E+03
Ar  771  0.1921186E+02  0.3161394E+02  0.1921186E+02  0.3933638E+02
Ar  772  0.1684312E+02  0.3492157E+02  0.1943741E+02  0.1084016E+03
Ar  773  0.1654417E+02  0.3243999E+02  0.2153172E+02  0.1184042E+03
Ar  774  0.1919373E+02  0.3595244E+02  0.2190493E+02  0.3866711E+03
Ar  775  0.1899124E+02  0.3252693E+02  0.2439765E+02  0.2594188E+02
Ar  776  0.1605729E+02  0.3484913E+02  0.2482716E+02  0.7650799E+02
Ar  777  0.1604169E+02  0.3245368E+02  0.2719162E+02  0.1398151E+03
Ar  778  0.1910237E+02  0.3493196E+02  0.2709205E+02  0.8887887E+02
Ar  779  0.1875089E+02  0.3257137E+02  0.2983002E+02  0.1865795E+03
Ar  780  0.1619090E+02  0.3531241E+02  0.2947836E+02  0.1178811E+03
Ar  781  0.1595703E+02  0.3220614E+02  0.3220614E+02  0.7908965E+01
Ar  782  0.1908964E+02  0.3538772E+02  0.3267570E+02  0.1238677E+03
Ar  783  0.1908964E+02  0.3267570E+02  0.3538772E+02  0.1238677E+03
Ar  784  0.1601808E+02  0.3529310E+02  0.3529310E+02  0.3061599E+03
Ar  785  0.2114011E+02  0.1799856E+00  0.1799858E+00  0.1079532E+03
Ar  786  0.2423218E+02  0.2306238E+01  0.3729387E+02  0.2253734E+03
Ar  787  0.2423218E+02  0.3729387E+02  0.2306238E+01  0.2253735E+03
Ar  788  0.2113971E+02  0.2691693E+01  0.2691694E+01  0.6205243E+02
Ar  789  0.2186894E+02  0.1878361E+00  0.5109529E+01  0.1505845E+03
Ar  790  0.2449120E+02  0.2414137E+01  0.5159755E+01  0.2115327E+02
Ar  791  0.2418145E+02  0.3762038E+02  0.7921432E+01  0.9372505E+02
Ar  792  0.2182480E+02  0.2785574E+01  0.8010337E+01  0.3068566E+02
Ar  793  0.2162964E+02  0.3745822E+02  0.1070034E+02  0.2293211E+03
Ar  794  0.2454447E+02  0.2409262E+01  0.1089716E+02  0.8914034E+02
Ar  795  0.2408478E+02  0.3740331E+02  0.1329181E+02  0.1873252E+03
Ar  796  0.2152307E+02  0.2509766E+01  0.1334151E+02  0.3950540E+03
Ar  797  0.2168568E+02  0.3766852E+02  0.1623878E+02  0.3591803E+02
Ar  798  0.2420720E+02  0.2746929E+01  0.1593461E+02  0.6501660E+02
Ar  799  0.2489023E+02  0.3763058E+02  0.1850175E+02  0.4289648E+02
Ar  800  0.2178839E+02  0.2500203E+01  0.1899287E+02  0.1352332E+03
Ar  801  0.2210954E+02  0.2961727E+00  0.2210954E+02  0.3010882E+03
Ar  802  0.2472084E+02  0.2508393E+01  0.2175631E+02  0.2055386E+02
Ar  803  0.2441625E+02  0.3767731E+02  0.2441625E+02  0.4002526E+03
Ar  804  0.2175631E+02  0.2508393E+01  0.2472084E+02  0.2055388E+02
Ar  805  0.2185502E+02  0.1767268E-01  0.2716631E+02  0.4669787E+02
Ar  806  0.2444111E+02  0.2938924E+01  0.2688439E+02  0.1961506E+02
Ar  807  0.2428144E+02  0.3775169E+02  0.2962926E+02  0.2276845E+03
Ar  808  0.2162256E+02  0.2827988E+01  0.2953822E+02  0.4195855E+02
Ar  809  0.2171752E+02  0.1060058E+00  0.3209374E+02  0.6851470E+02
Ar  810  0.2441895E+02  0.2689347E+01  0.3234971E+02  0.1477519E+03
Ar  811  0.2430247E+02  0.7144828E-01  0.3465949E+02  0.1511611E+02
Ar  812  0.2129346E+02  0.2755499E+01  0.3539231E+02  0.8801995E+02
Ar  813  0.2186894E+02  0.5109529E+01  0.1878362E+00  0.1505847E+03
Ar  814  0.2418145E+02  0.7921432E+01  0.3762038E+02  0.9372497E+02
Ar  815  0.2449120E+02  0.5159755E+01  0.2414137E+01  0.2115335E+02
Ar  816  0.2182480E+02  0.8010337E+01  0.2785574E+01  0.3068560E+02
Ar  817  0.2178107E+02  0.5404033E+01  0.5404033E+01  0.8736962E+02
Ar  818  0.2407873E+02  0.7950250E+01  0.5343833E+01  0.1772961E+02
Ar  819  0.2407873E+02  0.5343833E+01  0.7950250E+01  0.1772961E+02
Ar  820  0.2156944E+02  0.8389717E+01  0.8389717E+01  0.4800899E+02
Ar  821  0.2168890E+02  0.5515318E+01  0.1080401E+02  0.3112469E+03
Ar  822  0.2391093E+02  0.8370593E+01  0.1105734E+02  0.2477188E+02
Ar  823  0.2421711E+02  0.5413861E+01  0.1342351E+02  0.1054305E+03
Ar  824  0.2117192E+02  0.8355316E+01  0.1350734E+02  0.1173437E+02
Ar  825  0.2141190E+02  0.5202538E+01  0.1611020E+02  0.1177766E+03
Ar  826  0.2416455E+02  0.8268678E+01  0.1614494E+02  0.2132146E+03
Ar  827  0.2438087E+02  0.5175916E+01  0.1902012E+02  0.6796410E+02
Ar  828  0.2142634E+02  0.7816583E+01  0.1879038E+02  0.1934162E+03
Ar  829  0.2177123E+02  0.5750974E+01  0.2177123E+02  0.1966562E+03
Ar  830  0.2444017E+02  0.8215002E+01  0.2124174E+02  0.8377414E+02
Ar  831  0.2430722E+02  0.5512722E+01  0.2430722E+02  0.3520714E+01
Ar  832  0.2124174E+02  0.8215003E+01  0.2444017E+02  0.8377423E+02
Ar  833  0.2125735E+02  0.5908218E+01  0.2703998E+02  0.1014789E+03
Ar  834  0.2446351E+02  0.8268800E+01  0.2712775E+02  0.7925677E+02
Ar  835  0.2398571E+02  0.5701217E+01  0.2951861E+02  0.5671495E+02
Ar  836  0.2168167E+02  0.8559472E+01  0.2956943E+02  0.8771656E+02
Ar  837  0.2183500E+02  0.5835849E+01  0.3229499E+02  0.8926542E+02
Ar  838  0.2411065E+02  0.8367327E+01  0.3254501E+02  0.1231439E+03
Ar  839  0.2417001E+02  0.5650195E+01  0.3474049E+02  0.1030745E+03
Ar  840  0.2103451E+02  0.8160788E+01  0.3486932E+02  0.3547518E+03
Ar  841  0.2162964E+02  0.1070034E+02  0.3745822E+02  0.2293211E+03
Ar  842  0.2408478E+02  0.1329181E+02  0.3740331E+02  0.1873251E+03
Ar  843  0.2454447E+02  0.1089716E+02  0.2409262E+01  0.8914048E+02
Ar  844  0.2152307E+02  0.1334151E+02  0.2509766E+01  0.3950539E+03
Ar  845  0.2168890E+02  0.1080401E+02  0.5515318E+01  0.3112467E+03
Ar  846  0.2421711E+02  0.1342351E+02  0.5413861E+01  0.1054306E+03
Ar  847  0.2391093E+02  0.1105734E+02  0.8370593E+01  0.2477193E+02
Ar  848  0.2117192E+02  0.1350734E+02  0.8355316E+01  0.1173434E+02
Ar  849  0.2123625E+02  0.1090098E+02  0.1090098E+02  0.9354730E+02
Ar  850  0.2411996E+02  0.1353238E+02  0.1112980E+02  0.1612256E+03
Ar  851  0.2411996E+02  0.1112980E+02  0.1353238E+02  0.1612254E+03
Ar  852  0.2158495E+02  0.1376140E+02  0.1376140E+02  0.1090273E+03
Ar  853  0.2178238E+02  0.1066017E+02  0.1601788E+02  0.3633222E+02
Ar  854  0.2384368E+02  0.1373656E+02  0.1640185E+02  0.2444414E+03
Ar  855  0.2395866E+02  0.1108689E+02  0.1877851E+02  0.1253879E+03
Ar  856  0.2142632E+02  0.1359959E+02  0.1887162E+02  0.1330644E+03
Ar  857  0.2200702E+02  0.1112271E+02  0.2200702E+02  0.7461422E+02
Ar  858  0.2408807E+02  0.1375204E+02  0.2116347E+02  0.2775155E+03
Ar  859  0.2424544E+02  0.1051683E+02  0.2424544E+02  0.1882707E+03
Ar  860  0.2116347E+02  0.1375204E+02  0.2408807E+02  0.2775157E+03
Ar  861  0.2177779E+02  0.1088886E+02  0.2697488E+02  0.8160008E+02
Ar  862  0.2417637E+02  0.1377815E+02  0.2719242E+02  0.2095547E+03
Ar  863  0.2439818E+02  0.1098699E+02  0.2959529E+02  0.2089023E+02
Ar  864  0.2139924E+02  0.1348126E+02  0.2970321E+02  0.5716135E+02
Ar  865  0.2146243E+02  0.1078596E+02  0.3222299E+02  0.1386313E+03
Ar  866  0.2426178E+02  0.1303371E+02  0.3231529E+02  0.6820454E+02
Ar  867  0.2439621E+02  0.1058708E+02  0.3514873E+02  0.7531210E+02
Ar  868  0.2149455E+02  0.1334982E+02  0.3484866E+02  0.8593882E+02
Ar  869  0.2168568E+02  0.1623878E+02  0.3766852E+02  0.3591799E+02
Ar  870  0.2489023E+02  0.1850175E+02  0.3763058E+02  0.4289652E+02
Ar  871  0.2420720E+02  0.1593461E+02  0.2746929E+01  0.6501653E+02
Ar  872  0.2178839E+02  0.1899287E+02  0.2500203E+01  0.1352333E+03
Ar  873  0.2141190E+02  0.1611020E+02  0.5202537E+01  0.1177766E+03
Ar  874  0.2438087E+02  0.1902012E+02  0.5175916E+01  0.6796418E+02
Ar  875  0.2416455E+02  0.1614494E+02  0.8268678E+01  0.2132147E+03
Ar  876  0.2142634E+02  0.1879038E+02  0.7816583E+01  0.1934162E+03
Ar  877  0.2178238E+02  0.1601788E+02  0.1066017E+02  0.3633228E+02
Ar  878  0.2395866E+02  0.1877851E+02  0.1108689E+02  0.1253881E+03
Ar  879  0.2384368E+02  0.1640185E+02  0.1373656E+02  0.2444413E+03
Ar  880  0.2142632E+02  0.1887162E+02  0.1359959E+02  0.1330645E+03
Ar  881  0.2146822E+02  0.1633943E+02  0.1633943E+02  0.1423341E+03
Ar  882  0.2402812E+02  0.1892212E+02  0.1640892E+02  0.2969747E+03
Ar  883  0.2402812E+02  0.1640892E+02  0.1892212E+02  0.2969751E+03
Ar  884  0.2166068E+02  0.1874843E+02  0.1874843E+02  0.2972819E+03
Ar  885  0.2161660E+02  0.1638521E+02  0.2161660E+02  0.1581693E+02
Ar  886  0.2403254E+02  0.1908538E+02  0.2158219E+02  0.1438533E+03
Ar  887  0.2430133E+02  0.1630910E+02  0.2430133E+02  0.2383231E+03
Ar  888  0.2158219E+02  0.1908538E+02  0.2403254E+02  0.1438534E+03
Ar  889  0.2145328E+02  0.1666892E+02  0.2650319E+02  0.4661063E+02
Ar  890  0.2418917E+02  0.1918629E+02  0.2681424E+02  0.8550815E+02
Ar  891  0.2425045E+02  0.1623717E+02  0.2963321E+02  0.9237158E+02
Ar  892  0.2203393E+02  0.1873805E+02  0.2973581E+02  0.4367155E+02
Ar  893  0.2153172E+02  0.1654417E+02  0.3243999E+02  0.1184043E+03
Ar  894  0.2439765E+02  0.1899124E+02  0.3252693E+02  0.2594186E+02
Ar  895  0.2482716E+02  0.1605729E+02  0.3484913E+02  0.7650799E+02
Ar  896  0.2190493E+02  0.1919373E+02  0.3595244E+02  0.3866708E+03
Ar  897  0.2210954E+02  0.2210954E+02  0.2961729E+00  0.3010879E+03
Ar  898  0.2441625E+02  0.2441625E+02  0.3767731E+02  0.4002527E+03
Ar  899  0.2472084E+02  0.2175631E+02  0.2508393E+01  0.2055383E+02
Ar  900  0.2175631E+02  0.2472084E+02  0.2508393E+01  0.2055384E+02
Ar  901  0.2177123E+02  0.2177123E+02  0.5750974E+01  0.1966562E+03
Ar  902  0.2430722E+02  0.2430722E+02  0.5512722E+01  0.3520721E+01
Ar  903  0.2444017E+02  0.2124174E+02  0.8215002E+01  0.8377422E+02
Ar  904  0.2124174E+02  0.2444017E+02  0.8215003E+01  0.8377413E+02
Ar  905  0.2200702E+02  0.2200702E+02  0.1112271E+02  0.7461434E+02
Ar  906  0.2424544E+02  0.2424544E+02  0.1051683E+02  0.1882707E+03
Ar  907  0.2408807E+02  0.2116347E+02  0.1375204E+02  0.2775161E+03
Ar  908  0.2116347E+02  0.2408807E+02  0.1375204E+02  0.2775160E+03
Ar  909  0.2161660E+02  0.2161660E+02  0.1638521E+02  0.1581694E+02
Ar  910  0.2430133E+02  0.2430133E+02  0.1630910E+02  0.2383234E+03
Ar  911  0.2403254E+02  0.2158219E+02  0.1908538E+02  0.1438533E+03
Ar  912  0.2158219E+02  0.2403254E+02  0.1908538E+02  0.1438532E+03
Ar  913  0.2141099E+02  0.2141099E+02  0.2141099E+02  0.1066444E+03
Ar  914  0.2395736E+02  0.2395736E+02  0.2158485E+02  0.1345857E+03
Ar  915  0.2395736E+02  0.2158485E+02  0.2395736E+02  0.1345855E+03
Ar  916  0.2158485E+02  0.2395736E+02  0.2395736E+02  0.1345855E+03
Ar  917  0.2144334E+02  0.2144334E+02  0.2666008E+02  0.1865249E+03
Ar  918  0.2406061E+02  0.2406061E+02  0.2658667E+02  0.4181021E+03
Ar  919  0.2448377E+02  0.2154376E+02  0.2948809E+02  0.2781798E+02
Ar  920  0.2154376E+02  0.2448377E+02  0.2948809E+02  0.2781798E+02
Ar  921  0.2151747E+02  0.2151747E+02  0.3308663E+02  0.1376785E+03
Ar  922  0.2391757E+02  0.2391757E+02  0.3178896E+02  0.9103252E+02
Ar  923  0.2440421E+02  0.2171219E+02  0.3522944E+02  0.2466545E+03
Ar  924  0.2171219E+02  0.2440421E+02  0.3522944E+02  0.2466546E+03
Ar  925  0.2185502E+02  0.2716631E+02  0.1767277E-01  0.4669786E+02
Ar  926  0.2428144E+02  0.2962926E+02  0.3775169E+02  0.2276846E+03
Ar  927  0.2444111E+02  0.2688439E+02  0.2938924E+01  0.1961505E+02
Ar  928  0.2162256E+02  0.2953822E+02  0.2827988E+01  0.4195854E+02
Ar  929  0.2125735E+02  0.2703998E+02  0.5908219E+01  0.1014790E+03
Ar  930  0.2398571E+02  0.2951861E+02  0.5701216E+01  0.5671501E+02
Ar  931  0.2446351E+02  0.2712775E+02  0.8268800E+01  0.7925675E+02
Ar  932  0.2168167E+02  0.2956943E+02  0.8559472E+01  0.8771655E+02
Ar  933  0.2177779E+02  0.2697488E+02  0.1088886E+02  0.8160000E+02
Ar  934  0.2439818E+02  0.2959529E+02  0.1098699E+02  0.2089027E+02
Ar  935  0.2417637E+02  0.2719242E+02  0.1377815E+02  0.2095548E+03
Ar  936  0.2139924E+02  0.2970321E+02  0.1348126E+02  0.5716137E+02
Ar  937  0.2145328E+02  0.2650319E+02  0.1666892E+02  0.4661069E+02
Ar  938  0.2425045E+02  0.2963321E+02  0.1623717E+02  0.9237145E+02
Ar  939  0.2418917E+02  0.2681424E+02  0.1918629E+02  0.8550814E+02
Ar  940  0.2203393E+02  0.2973581E+02  0.1873805E+02  0.4367153E+02
Ar  941  0.2144334E+02  0.2666008E+02  0.2144334E+02  0.1865248E+03
Ar  942  0.2448377E+02  0.2948809E+02  0.2154376E+02  0.2781798E+02
Ar  943  0.2406061E+02  0.2658668E+02  0.2406061E+02  0.4181019E+03
Ar  944  0.2154376E+02  0.2948809E+02  0.2448377E+02  0.2781801E+02
Ar  945  0.2160649E+02  0.2683162E+02  0.2683162E+02  0.2192661E+01
Ar  946  0.2403418E+02  0.2955132E+02  0.2707002E+02  0.6793196E+02
Ar  947  0.2403418E+02  0.2707002E+02  0.2955132E+02  0.6793203E+02
Ar  948  0.2123835E+02  0.2937594E+02  0.2937594E+02  0.1567048E+03
Ar  949  0.2166516E+02  0.2688989E+02  0.3216722E+02  0.1913599E+03
Ar  950  0.2389048E+02  0.2952286E+02  0.3236914E+02  0.1942323E+03
Ar  951  0.2421046E+02  0.2682321E+02  0.3483214E+02  0.1540661E+03
Ar  952  0.2146846E+02  0.2946220E+02  0.3504557E+02  0.3442325E+02
Ar  953  0.2171752E+02  0.3209374E+02  0.1060057E+00  0.6851473E+02
Ar  954  0.2430247E+02  0.3465949E+02  0.7144825E-01  0.1511616E+02
Ar  955  0.2441895E+02  0.3234971E+02  0.2689347E+01  0.1477519E+03
Ar  956  0.2129346E+02  0.3539230E+02  0.2755499E+01  0.8801988E+02
Ar  957  0.2183500E+02  0.3229499E+02  0.5835849E+01  0.8926574E+02
Ar  958  0.2417001E+02  0.3474049E+02  0.5650195E+01  0.1030745E+03
Ar  959  0.2411065E+02  0.3254501E+02  0.8367327E+01  0.1231438E+03
Ar  960  0.2103451E+02  0.3486932E+02  0.8160788E+01  0.3547519E+03
Ar  961  0.2146244E+02  0.3222299E+02  0.1078596E+02  0.1386313E+03
Ar  962  0.2439621E+02  0.3514873E+02  0.1058708E+02  0.7531207E+02
Ar  963  0.2426178E+02  0.3231529E+02  0.1303371E+02  0.6820458E+02
Ar  964  0.2149455E+02  0.3484866E+02  0.1334982E+02  0.8593880E+02
Ar  965  0.2153172E+02  0.3243999E+02  0.1654417E+02  0.1184043E+03
Ar  966  0.2482716E+02  0.3484913E+02  0.1605729E+02  0.7650800E+02
Ar  967  0.2439765E+02  0.3252693E+02  0.1899124E+02  0.2594183E+02
Ar  968  0.2190493E+02  0.3595244E+02  0.1919373E+02  0.3866708E+03
Ar  969  0.2151746E+02  0.3308663E+02  0.2151746E+02  0.1376784E+03
Ar  970  0.2440421E+02  0.3522944E+02  0.2171219E+02  0.2466545E+03
Ar  971  0.2391757E+02  0.3178896E+02  0.2391757E+02  0.9103265E+02
Ar  972  0.2171219E+02  0.3522944E+02  0.2440421E+02  0.2466546E+03
Ar  973  0.2166516E+02  0.3216722E+02  0.2688989E+02  0.1913600E+03
Ar  974  0.2421046E+02  0.3483214E+02  0.2682321E+02  0.1540660E+03
Ar  975  0.2389048E+02  0.3236914E+02  0.2952286E+02  0.1942324E+03
Ar  976  0.2146846E+02  0.3504557E+02  0.2946220E+02  0.3442332E+02
Ar  977  0.2138116E+02  0.3203053E+02  0.3203053E+02  0.8678604E+01
Ar  978  0.2440216E+02  0.3467710E+02  0.3212679E+02  0.1575727E+03
Ar  979  0.2440216E+02  0.3212679E+02  0.3467710E+02  0.1575727E+03
Ar  980  0.2198426E+02  0.3478533E+02  0.3478533E+02  0.9965986E+02
Ar  981  0.2666169E+02  0.3738223E+02  0.3738223E+02  0.2910170E+03
Ar  982  0.2949709E+02  0.2672890E+01  0.3769529E+02  0.7630819E+02
Ar  983  0.2949709E+02  0.3769529E+02  0.2672890E+01  0.7630815E+02
Ar  984  0.2670406E+02  0.2176332E+01  0.2176332E+01  0.1307362E+03
Ar  985  0.2709778E+02  0.3758093E+02  0.5434296E+01  0.3694389E+03
Ar  986  0.2969159E+02  0.2741831E+01  0.5866510E+01  0.2955456E+03
Ar  987  0.2977321E+02  0.3770505E+02  0.8112218E+01  0.3942374E+03
Ar  988  0.2663202E+02  0.2617242E+01  0.8229131E+01  0.1097673E+03
Ar  989  0.2685894E+02  0.3777564E+02  0.1065150E+02  0.4328523E+02
Ar  990  0.2960356E+02  0.2623230E+01  0.1045910E+02  0.8757429E+02
Ar  991  0.2931963E+02  0.1194353E+00  0.1340059E+02  0.3534487E+03
Ar  992  0.2720208E+02  0.2938355E+01  0.1352351E+02  0.7055818E+02
Ar  993  0.2715524E+02  0.4627473E-01  0.1606192E+02  0.1713370E+02
Ar  994  0.2996450E+02  0.2832338E+01  0.1597790E+02  0.1916831E+02
Ar  995  0.2958215E+02  0.1087502E+00  0.1891246E+02  0.9221971E+02
Ar  996  0.2701903E+02  0.2684421E+01  0.1857866E+02  0.2771299E+02
Ar  997  0.2716631E+02  0.1767265E-01  0.2185502E+02  0.4669783E+02
Ar  998  0.2953822E+02  0.2827988E+01  0.2162256E+02  0.4195865E+02
Ar  999  0.2962926E+02  0.3775169E+02  0.2428144E+02  0.2276845E+03
Ar 1000  0.2688439E+02  0.2938924E+01  0.2444111E+02  0.1961511E+02
Ar 1001  0.2681665E+02  0.3776863E+02  0.2681665E+02  0.8263614E+02
Ar 1002  0.2986882E+02  0.2449546E+01  0.2678419E+02  0.8752813E+02
Ar 1003  0.2971454E+02  0.3765137E+02  0.2971454E+02  0.7091684E+02
Ar 1004  0.2678419E+02  0.2449546E+01  0.2986882E+02  0.8752818E+02
Ar 1005  0.2671526E+02  0.3731217E+02  0.3228902E+02  0.8189270E+02
Ar 1006  0.2925301E+02  0.2469173E+01  0.3220977E+02  0.1977663E+02
Ar 1007  0.2989231E+02  0.3757602E+02  0.3501319E+02  0.7900008E+02
Ar 1008  0.2692695E+02  0.2585285E+01  0.3500946E+02  0.9534509E+02
Ar 1009  0.2709778E+02  0.5434296E+01  0.3758093E+02  0.3694389E+03
Ar 1010  0.2977321E+02  0.8112218E+01  0.3770505E+02  0.3942373E+03
Ar 1011  0.2969159E+02  0.5866509E+01  0.2741832E+01  0.2955457E+03
Ar 1012  0.2663202E+02  0.8229131E+01  0.2617242E+01  0.1097673E+03
Ar 1013  0.2710181E+02  0.5271144E+01  0.5271144E+01  0.2739284E+03
Ar 1014  0.2913413E+02  0.7961633E+01  0.5381562E+01  0.7650039E+02
Ar 1015  0.2913413E+02  0.5381562E+01  0.7961633E+01  0.7650047E+02
Ar 1016  0.2682376E+02  0.8348741E+01  0.8348741E+01  0.5337660E+03
Ar 1017  0.2656899E+02  0.5429503E+01  0.1056946E+02  0.2658013E+02
Ar 1018  0.2994702E+02  0.8333555E+01  0.1104796E+02  0.1349118E+03
Ar 1019  0.2987943E+02  0.5492224E+01  0.1334825E+02  0.3224900E+03
Ar 1020  0.2678321E+02  0.8023166E+01  0.1352728E+02  0.1739974E+02
Ar 1021  0.2673918E+02  0.5466763E+01  0.1640558E+02  0.3342757E+03
Ar 1022  0.2956136E+02  0.8184677E+01  0.1645485E+02  0.7052875E+02
Ar 1023  0.2949950E+02  0.5266643E+01  0.1885608E+02  0.3272807E+03
Ar 1024  0.2684490E+02  0.8396895E+01  0.1877235E+02  0.1760970E+03
Ar 1025  0.2703998E+02  0.5908218E+01  0.2125735E+02  0.1014790E+03
Ar 1026  0.2956943E+02  0.8559472E+01  0.2168167E+02  0.8771648E+02
Ar 1027  0.2951861E+02  0.5701217E+01  0.2398571E+02  0.5671493E+02
Ar 1028  0.2712775E+02  0.8268800E+01  0.2446351E+02  0.7925678E+02
Ar 1029  0.2682747E+02  0.5472926E+01  0.2682747E+02  0.1068060E+03
Ar 1030  0.2975742E+02  0.7947908E+01  0.2706741E+02  0.4511344E+02
Ar 1031  0.2966770E+02  0.5125964E+01  0.2966770E+02  0.5310072E+02
Ar 1032  0.2706741E+02  0.7947908E+01  0.2975742E+02  0.4511342E+02
Ar 1033  0.2702763E+02  0.5386632E+01  0.3210679E+02  0.3938364E+02
Ar 1034  0.2955516E+02  0.7928773E+01  0.3243710E+02  0.7197608E+02
Ar 1035  0.2935725E+02  0.5238336E+01  0.3481615E+02  0.1306315E+03
Ar 1036  0.2699515E+02  0.8071484E+01  0.3504267E+02  0.4247997E+02
Ar 1037  0.2685894E+02  0.1065150E+02  0.3777564E+02  0.4328515E+02
Ar 1038  0.2931963E+02  0.1340059E+02  0.1194355E+00  0.3534488E+03
Ar 1039  0.2960356E+02  0.1045910E+02  0.2623230E+01  0.8757427E+02
Ar 1040  0.2720208E+02  0.1352351E+02  0.2938355E+01  0.7055815E+02
Ar 1041  0.2656899E+02  0.1056946E+02  0.5429503E+01  0.2658014E+02
Ar 1042  0.2987943E+02  0.1334825E+02  0.5492224E+01  0.3224901E+03
Ar 1043  0.2994702E+02  0.1104796E+02  0.8333555E+01  0.1349118E+03
Ar 1044  0.2678321E+02  0.1352728E+02  0.8023167E+01  0.1739974E+02
Ar 1045  0.2705091E+02  0.1092566E+02  0.1092566E+02  0.8422622E+02
Ar 1046  0.2965905E+02  0.1356633E+02  0.1102952E+02  0.2716885E+03
Ar 1047  0.2965905E+02  0.1102952E+02  0.1356633E+02  0.2716886E+03
Ar 1048  0.2648468E+02  0.1369826E+02  0.1369826E+02  0.7638606E+02
Ar 1049  0.2725830E+02  0.1094115E+02  0.1625084E+02  0.1053997E+03
Ar 1050  0.2957136E+02  0.1366920E+02  0.1661602E+02  0.9283876E+02
Ar 1051  0.2960528E+02  0.1103784E+02  0.1892462E+02  0.5181046E+03
Ar 1052  0.2670978E+02  0.1345785E+02  0.1867537E+02  0.7712187E+02
Ar 1053  0.2697488E+02  0.1088886E+02  0.2177779E+02  0.8160006E+02
Ar 1054  0.2970321E+02  0.1348126E+02  0.2139924E+02  0.5716140E+02
Ar 1055  0.2959529E+02  0.1098699E+02  0.2439818E+02  0.2089025E+02
Ar 1056  0.2719242E+02  0.1377815E+02  0.2417637E+02  0.2095547E+03
Ar 1057  0.2675600E+02  0.1091993E+02  0.2675600E+02  0.1265200E+03
Ar 1058  0.2954747E+02  0.1373127E+02  0.2695475E+02  0.8892827E+02
Ar 1059  0.2942429E+02  0.1101409E+02  0.2942429E+02  0.3198755E+03
Ar 1060  0.2695475E+02  0.1373127E+02  0.2954747E+02  0.8892829E+02
Ar 1061  0.2712085E+02  0.1096694E+02  0.3196496E+02  0.5729411E+02
Ar 1062  0.2964978E+02  0.1356231E+02  0.3223646E+02  0.1914099E+03
Ar 1063  0.2976323E+02  0.1054799E+02  0.3478372E+02  0.9621641E+02
Ar 1064  0.2689108E+02  0.1283566E+02  0.3487984E+02  0.3586437E+03
Ar 1065  0.2715524E+02  0.1606192E+02  0.4627452E-01  0.1713368E+02
Ar 1066  0.2958215E+02  0.1891246E+02  0.1087498E+00  0.9221966E+02
Ar 1067  0.2996450E+02  0.1597790E+02  0.2832337E+01  0.1916832E+02
Ar 1068  0.2701903E+02  0.1857866E+02  0.2684421E+01  0.2771294E+02
Ar 1069  0.2673918E+02  0.1640558E+02  0.5466763E+01  0.3342757E+03
Ar 1070  0.2949950E+02  0.1885608E+02  0.5266643E+01  0.3272811E+03
Ar 1071  0.2956136E+02  0.1645485E+02  0.8184678E+01  0.7052876E+02
Ar 1072  0.2684490E+02  0.1877235E+02  0.8396895E+01  0.1760969E+03
Ar 1073  0.2725830E+02  0.1625084E+02  0.1094115E+02  0.1053997E+03
Ar 1074  0.2960528E+02  0.1892462E+02  0.1103784E+02  0.5181047E+03
Ar 1075  0.2957136E+02  0.1661602E+02  0.1366920E+02  0.9283891E+02
Ar 1076  0.2670978E+02  0.1867537E+02  0.1345785E+02  0.7712200E+02
Ar 1077  0.2717022E+02  0.1626629E+02  0.1626629E+02  0.2762324E+02
Ar 1078  0.2958661E+02  0.1926352E+02  0.1636563E+02  0.3662662E+03
Ar 1079  0.2958661E+02  0.1636563E+02  0.1926352E+02  0.3662662E+03
Ar 1080  0.2693641E+02  0.1871490E+02  0.1871490E+02  0.4958913E+01
Ar 1081  0.2650319E+02  0.1666892E+02  0.2145328E+02  0.4661058E+02
Ar 1082  0.2973581E+02  0.1873805E+02  0.2203393E+02  0.4367155E+02
Ar 1083  0.2963321E+02  0.1623717E+02  0.2425045E+02  0.9237151E+02
Ar 1084  0.2681424E+02  0.1918629E+02  0.2418917E+02  0.8550814E+02
Ar 1085  0.2647869E+02  0.1658755E+02  0.2647869E+02  0.5494218E+02
Ar 1086  0.2960034E+02  0.1872805E+02  0.2691293E+02  0.1552337E+03
Ar 1087  0.2937687E+02  0.1607736E+02  0.2937687E+02  0.9000054E+02
Ar 1088  0.2691293E+02  0.1872805E+02  0.2960034E+02  0.1552337E+03
Ar 1089  0.2719162E+02  0.1604169E+02  0.3245368E+02  0.1398152E+03
Ar 1090  0.2983002E+02  0.1875089E+02  0.3257137E+02  0.1865795E+03
Ar 1091  0.2947836E+02  0.1619090E+02  0.3531241E+02  0.1178811E+03
Ar 1092  0.2709205E+02  0.1910237E+02  0.3493196E+02  0.8887881E+02
Ar 1093  0.2716631E+02  0.2185502E+02  0.1767279E-01  0.4669784E+02
Ar 1094  0.2962926E+02  0.2428144E+02  0.3775169E+02  0.2276846E+03
Ar 1095  0.2953823E+02  0.2162256E+02  0.2827988E+01  0.4195858E+02
Ar 1096  0.2688439E+02  0.2444111E+02  0.2938924E+01  0.1961508E+02
Ar 1097  0.2703998E+02  0.2125735E+02  0.5908218E+01  0.1014790E+03
Ar 1098  0.2951861E+02  0.2398571E+02  0.5701217E+01  0.5671498E+02
Ar 1099  0.2956943E+02  0.2168167E+02  0.8559472E+01  0.8771652E+02
Ar 1100  0.2712775E+02  0.2446351E+02  0.8268800E+01  0.7925674E+02
Ar 1101  0.2697488E+02  0.2177779E+02  0.1088886E+02  0.8160004E+02
Ar 1102  0.2959529E+02  0.2439818E+02  0.1098699E+02  0.2089028E+02
Ar 1103  0.2970321E+02  0.2139924E+02  0.1348126E+02  0.5716137E+02
Ar 1104  0.2719242E+02  0.2417637E+02  0.1377815E+02  0.2095549E+03
Ar 1105  0.2650319E+02  0.2145328E+02  0.1666892E+02  0.4661071E+02
Ar 1106  0.2963321E+02  0.2425045E+02  0.1623717E+02  0.9237156E+02
Ar 1107  0.2973581E+02  0.2203393E+02  0.1873805E+02  0.4367157E+02
Ar 1108  0.2681424E+02  0.2418917E+02  0.1918629E+02  0.8550811E+02
Ar 1109  0.2666008E+02  0.2144334E+02  0.2144334E+02  0.1865249E+03
Ar 1110  0.2948809E+02  0.2448377E+02  0.2154376E+02  0.2781801E+02
Ar 1111  0.2948809E+02  0.2154376E+02  0.2448377E+02  0.2781801E+02
Ar 1112  0.2658667E+02  0.2406061E+02  0.2406061E+02  0.4181022E+03
Ar 1113  0.2683162E+02  0.2160649E+02  0.2683162E+02  0.2192657E+01
Ar 1114  0.2955132E+02  0.2403418E+02  0.2707002E+02  0.6793196E+02
Ar 1115  0.2937594E+02  0.2123835E+02  0.2937594E+02  0.1567047E+03
Ar 1116  0.2707002E+02  0.2403418E+02  0.2955132E+02  0.6793201E+02
Ar 1117  0.2688989E+02  0.2166516E+02  0.3216722E+02  0.1913599E+03
Ar 1118  0.2952286E+02  0.2389048E+02  0.3236914E+02  0.1942324E+03
Ar 1119  0.2946220E+02  0.2146846E+02  0.3504557E+02  0.3442338E+02
Ar 1120  0.2682321E+02  0.2421046E+02  0.3483214E+02  0.1540660E+03
Ar 1121  0.2681665E+02  0.2681665E+02  0.3776863E+02  0.8263619E+02
Ar 1122  0.2971454E+02  0.2971454E+02  0.3765137E+02  0.7091680E+02
Ar 1123  0.2986882E+02  0.2678419E+02  0.2449546E+01  0.8752818E+02
Ar 1124  0.2678419E+02  0.2986882E+02  0.2449546E+01  0.8752827E+02
Ar 1125  0.2682747E+02  0.2682747E+02  0.5472926E+01  0.1068059E+03
Ar 1126  0.2966770E+02  0.2966770E+02  0.5125964E+01  0.5310071E+02
Ar 1127  0.2975742E+02  0.2706741E+02  0.7947908E+01  0.4511345E+02
Ar 1128  0.2706741E+02  0.2975742E+02  0.7947908E+01  0.4511347E+02
Ar 1129  0.2675600E+02  0.2675600E+02  0.1091993E+02  0.1265201E+03
Ar 1130  0.2942429E+02  0.2942429E+02  0.1101409E+02  0.3198755E+03
Ar 1131  0.2954747E+02  0.2695475E+02  0.1373127E+02  0.8892838E+02
Ar 1132  0.2695475E+02  0.2954747E+02  0.1373127E+02  0.8892828E+02
Ar 1133  0.2647869E+02  0.2647869E+02  0.1658755E+02  0.5494224E+02
Ar 1134  0.2937687E+02  0.2937687E+02  0.1607736E+02  0.9000058E+02
Ar 1135  0.2960034E+02  0.2691293E+02  0.1872805E+02  0.1552338E+03
Ar 1136  0.2691293E+02  0.2960034E+02  0.1872805E+02  0.1552338E+03
Ar 1137  0.2683162E+02  0.2683162E+02  0.2160649E+02  0.2192672E+01
Ar 1138  0.2937594E+02  0.2937594E+02  0.2123835E+02  0.1567046E+03
Ar 1139  0.2955132E+02  0.2707002E+02  0.2403418E+02  0.6793196E+02
Ar 1140  0.2707002E+02  0.2955132E+02  0.2403418E+02  0.6793199E+02
Ar 1141  0.2646021E+02  0.2646021E+02  0.2646021E+02  0.1105328E+03
Ar 1142  0.2987458E+02  0.2987458E+02  0.2655643E+02  0.3545779E+02
Ar 1143  0.2987458E+02  0.2655643E+02  0.2987458E+02  0.3545782E+02
Ar 1144  0.2655643E+02  0.2987458E+02  0.2987458E+02  0.3545782E+02
Ar 1145  0.2668882E+02  0.2668882E+02  0.3177480E+02  0.1742866E+02
Ar 1146  0.2943861E+02  0.2943861E+02  0.3199976E+02  0.1692654E+02
Ar 1147  0.2958515E+02  0.2707016E+02  0.3497338E+02  0.3713163E+02
Ar 1148  0.2707016E+02  0.2958515E+02  0.3497338E+02  0.3713162E+02
Ar 1149  0.2671526E+02  0.3228902E+02  0.3731217E+02  0.8189263E+02
Ar 1150  0.2989231E+02  0.3501319E+02  0.3757602E+02  0.7900006E+02
Ar 1151  0.2925302E+02  0.3220977E+02  0.2469173E+01  0.1977658E+02
Ar 1152  0.2692695E+02  0.3500946E+02  0.2585285E+01  0.9534507E+02
Ar 1153  0.2702763E+02  0.3210679E+02  0.5386632E+01  0.3938365E+02
Ar 1154  0.2935725E+02  0.3481615E+02  0.5238336E+01  0.1306316E+03
Ar 1155  0.2955516E+02  0.3243710E+02  0.7928773E+01  0.7197614E+02
Ar 1156  0.2699515E+02  0.3504267E+02  0.8071484E+01  0.4248001E+02
Ar 1157  0.2712085E+02  0.3196496E+02  0.1096694E+02  0.5729401E+02
Ar 1158  0.2976323E+02  0.3478372E+02  0.1054799E+02  0.9621633E+02
Ar 1159  0.2964978E+02  0.3223646E+02  0.1356231E+02  0.1914098E+03
Ar 1160  0.2689108E+02  0.3487984E+02  0.1283566E+02  0.3586434E+03
Ar 1161  0.2719162E+02  0.3245368E+02  0.1604169E+02  0.1398152E+03
Ar 1162  0.2947836E+02  0.3531241E+02  0.1619090E+02  0.1178812E+03
Ar 1163  0.2983002E+02  0.3257137E+02  0.1875089E+02  0.1865795E+03
Ar 1164  0.2709205E+02  0.3493196E+02  0.1910237E+02  0.8887884E+02
Ar 1165  0.2688989E+02  0.3216722E+02  0.2166516E+02  0.1913599E+03
Ar 1166  0.2946220E+02  0.3504557E+02  0.2146846E+02  0.3442344E+02
Ar 1167  0.2952286E+02  0.3236914E+02  0.2389048E+02  0.1942322E+03
Ar 1168  0.2682321E+02  0.3483214E+02  0.2421046E+02  0.1540661E+03
Ar 1169  0.2668882E+02  0.3177480E+02  0.2668882E+02  0.1742871E+02
Ar 1170  0.2958515E+02  0.3497338E+02  0.2707016E+02  0.3713160E+02
Ar 1171  0.2943861E+02  0.3199976E+02  0.2943861E+02  0.1692653E+02
Ar 1172  0.2707016E+02  0.3497338E+02  0.2958515E+02  0.3713157E+02
Ar 1173  0.2767672E+02  0.3235661E+02  0.3235661E+02  0.9447270E+02
Ar 1174  0.3002772E+02  0.3519741E+02  0.3243604E+02  0.1073895E+03
Ar 1175  0.3002772E+02  0.3243604E+02  0.3519741E+02  0.1073894E+03
Ar 1176  0.2720369E+02  0.3470238E+02  0.3470238E+02  0.1744526E+03
Ar 1177  0.3217798E+02  0.1331091E+00  0.1331088E+00  0.8325759E+03
Ar 1178  0.3510496E+02  0.2787434E+01  0.1075671E+00  0.3820985E+02
Ar 1179  0.3510496E+02  0.1075672E+00  0.2787434E+01  0.3820987E+02
Ar 1180  0.3204681E+02  0.2849383E+01  0.2849383E+01  0.3385473E+02
Ar 1181  0.3208987E+02  0.3777983E+02  0.5286308E+01  0.1204478E+03
Ar 1182  0.3527802E+02  0.2889026E+01  0.5634234E+01  0.3345341E+03
Ar 1183  0.3493465E+02  0.3762696E+02  0.8421954E+01  0.8177746E+02
Ar 1184  0.3256991E+02  0.2454418E+01  0.8126621E+01  0.3007424E+03
Ar 1185  0.3207676E+02  0.3750581E+02  0.1117605E+02  0.4294764E+02
Ar 1186  0.3491981E+02  0.2582502E+01  0.1126320E+02  0.1241634E+03
Ar 1187  0.3472364E+02  0.3007296E-01  0.1348694E+02  0.3741678E+03
Ar 1188  0.3189976E+02  0.2556378E+01  0.1286776E+02  0.8288382E+02
Ar 1189  0.3235429E+02  0.7283662E-01  0.1640552E+02  0.3121696E+01
Ar 1190  0.3476934E+02  0.2653748E+01  0.1598926E+02  0.1392373E+03
Ar 1191  0.3516104E+02  0.2845385E+00  0.1888703E+02  0.1274211E+03
Ar 1192  0.3226008E+02  0.2805935E+01  0.1895997E+02  0.1578068E+03
Ar 1193  0.3209374E+02  0.1060057E+00  0.2171752E+02  0.6851464E+02
Ar 1194  0.3539230E+02  0.2755499E+01  0.2129346E+02  0.8801996E+02
Ar 1195  0.3465949E+02  0.7144845E-01  0.2430247E+02  0.1511618E+02
Ar 1196  0.3234971E+02  0.2689347E+01  0.2441895E+02  0.1477519E+03
Ar 1197  0.3228902E+02  0.3731217E+02  0.2671526E+02  0.8189268E+02
Ar 1198  0.3500946E+02  0.2585285E+01  0.2692695E+02  0.9534503E+02
Ar 1199  0.3501319E+02  0.3757602E+02  0.2989231E+02  0.7900015E+02
Ar 1200  0.3220977E+02  0.2469173E+01  0.2925301E+02  0.1977662E+02
Ar 1201  0.3267637E+02  0.2442120E+00  0.3267637E+02  0.7591971E+02
Ar 1202  0.3509936E+02  0.2700054E+01  0.3188219E+02  0.1918723E+03
Ar 1203  0.3552146E+02  0.4207888E+00  0.3552146E+02  0.2925140E+03
Ar 1204  0.3188219E+02  0.2700054E+01  0.3509936E+02  0.1918725E+03
Ar 1205  0.3208987E+02  0.5286308E+01  0.3777983E+02  0.1204477E+03
Ar 1206  0.3493465E+02  0.8421954E+01  0.3762696E+02  0.8177747E+02
Ar 1207  0.3527802E+02  0.5634235E+01  0.2889026E+01  0.3345342E+03
Ar 1208  0.3256991E+02  0.8126621E+01  0.2454419E+01  0.3007425E+03
Ar 1209  0.3199566E+02  0.5874529E+01  0.5874529E+01  0.2386471E+03
Ar 1210  0.3514088E+02  0.8271110E+01  0.5328731E+01  0.1514305E+03
Ar 1211  0.3514088E+02  0.5328731E+01  0.8271110E+01  0.1514304E+03
Ar 1212  0.3314788E+02  0.8232282E+01  0.8232282E+01  0.8855383E+01
Ar 1213  0.3218453E+02  0.5369874E+01  0.1031837E+02  0.2439946E+02
Ar 1214  0.3506583E+02  0.8086152E+01  0.1109000E+02  0.2382328E+03
Ar 1215  0.3484991E+02  0.5298618E+01  0.1355892E+02  0.1417045E+02
Ar 1216  0.3223177E+02  0.8172502E+01  0.1366554E+02  0.1910219E+03
Ar 1217  0.3262700E+02  0.5751614E+01  0.1610002E+02  0.7382258E+02
Ar 1218  0.3486364E+02  0.8302969E+01  0.1599735E+02  0.2303424E+03
Ar 1219  0.3535514E+02  0.5286567E+01  0.1834922E+02  0.4367888E+02
Ar 1220  0.3229521E+02  0.8261770E+01  0.1862409E+02  0.1046259E+03
Ar 1221  0.3229499E+02  0.5835849E+01  0.2183500E+02  0.8926568E+02
Ar 1222  0.3486932E+02  0.8160788E+01  0.2103451E+02  0.3547520E+03
Ar 1223  0.3474049E+02  0.5650195E+01  0.2417001E+02  0.1030745E+03
Ar 1224  0.3254501E+02  0.8367327E+01  0.2411065E+02  0.1231437E+03
Ar 1225  0.3210679E+02  0.5386632E+01  0.2702763E+02  0.3938364E+02
Ar 1226  0.3504267E+02  0.8071484E+01  0.2699515E+02  0.4247988E+02
Ar 1227  0.3481615E+02  0.5238336E+01  0.2935725E+02  0.1306316E+03
Ar 1228  0.3243710E+02  0.7928773E+01  0.2955516E+02  0.7197611E+02
Ar 1229  0.3223052E+02  0.5497400E+01  0.3223052E+02  0.2633281E+01
Ar 1230  0.3504104E+02  0.7911571E+01  0.3207129E+02  0.7425684E+02
Ar 1231  0.3515589E+02  0.5072905E+01  0.3515589E+02  0.1527432E+02
Ar 1232  0.3207129E+02  0.7911571E+01  0.3504104E+02  0.7425684E+02
Ar 1233  0.3207676E+02  0.1117605E+02  0.3750581E+02  0.4294759E+02
Ar 1234  0.3472364E+02  0.1348694E+02  0.3007295E-01  0.3741679E+03
Ar 1235  0.3491981E+02  0.1126320E+02  0.2582502E+01  0.1241634E+03
Ar 1236  0.3189976E+02  0.1286776E+02  0.2556378E+01  0.8288394E+02
Ar 1237  0.3218453E+02  0.1031837E+02  0.5369874E+01  0.2439942E+02
Ar 1238  0.3484991E+02  0.1355892E+02  0.5298618E+01  0.1417047E+02
Ar 1239  0.3506583E+02  0.1109000E+02  0.8086152E+01  0.2382326E+03
Ar 1240  0.3223177E+02  0.1366554E+02  0.8172502E+01  0.1910218E+03
Ar 1241  0.3269282E+02  0.1103945E+02  0.1103945E+02  0.2048274E+03
Ar 1242  0.3499090E+02  0.1373257E+02  0.1076673E+02  0.1446815E+02
Ar 1243  0.3499090E+02  0.1076673E+02  0.1373257E+02  0.1446819E+02
Ar 1244  0.3230185E+02  0.1363809E+02  0.1363809E+02  0.3712470E+02
Ar 1245  0.3237675E+02  0.1109707E+02  0.1628320E+02  0.1645398E+03
Ar 1246  0.3517340E+02  0.1363223E+02  0.1632182E+02  0.2779507E+03
Ar 1247  0.3515042E+02  0.1097432E+02  0.1872517E+02  0.1603697E+02
Ar 1248  0.3239367E+02  0.1388583E+02  0.1871733E+02  0.1576427E+03
Ar 1249  0.3222299E+02  0.1078596E+02  0.2146243E+02  0.1386314E+03
Ar 1250  0.3484866E+02  0.1334982E+02  0.2149455E+02  0.8593896E+02
Ar 1251  0.3514873E+02  0.1058708E+02  0.2439621E+02  0.7531197E+02
Ar 1252  0.3231529E+02  0.1303371E+02  0.2426178E+02  0.6820448E+02
Ar 1253  0.3196496E+02  0.1096694E+02  0.2712085E+02  0.5729406E+02
Ar 1254  0.3487984E+02  0.1283566E+02  0.2689108E+02  0.3586435E+03
Ar 1255  0.3478372E+02  0.1054799E+02  0.2976323E+02  0.9621637E+02
Ar 1256  0.3223646E+02  0.1356231E+02  0.2964978E+02  0.1914100E+03
Ar 1257  0.3234675E+02  0.1120384E+02  0.3234675E+02  0.1770944E+03
Ar 1258  0.3515056E+02  0.1366244E+02  0.3200597E+02  0.3941389E+02
Ar 1259  0.3477513E+02  0.1153130E+02  0.3477513E+02  0.5476029E+02
Ar 1260  0.3200597E+02  0.1366244E+02  0.3515056E+02  0.3941387E+02
Ar 1261  0.3235429E+02  0.1640552E+02  0.7283655E-01  0.3121693E+01
Ar 1262  0.3516104E+02  0.1888703E+02  0.2845385E+00  0.1274211E+03
Ar 1263  0.3476934E+02  0.1598926E+02  0.2653748E+01  0.1392373E+03
Ar 1264  0.3226008E+02  0.1895997E+02  0.2805935E+01  0.1578069E+03
Ar 1265  0.3262700E+02  0.1610002E+02  0.5751614E+01  0.7382258E+02
Ar 1266  0.3535514E+02  0.1834922E+02  0.5286568E+01  0.4367894E+02
Ar 1267  0.3486364E+02  0.1599735E+02  0.8302969E+01  0.2303422E+03
Ar 1268  0.3229521E+02  0.1862409E+02  0.8261770E+01  0.1046259E+03
Ar 1269  0.3237675E+02  0.1628320E+02  0.1109707E+02  0.1645398E+03
Ar 1270  0.3515042E+02  0.1872517E+02  0.1097432E+02  0.1603698E+02
Ar 1271  0.3517340E+02  0.1632182E+02  0.1363223E+02  0.2779507E+03
Ar 1272  0.3239367E+02  0.1871733E+02  0.1388583E+02  0.1576424E+03
Ar 1273  0.3243436E+02  0.1630775E+02  0.1630775E+02  0.1088544E+03
Ar 1274  0.3492157E+02  0.1943741E+02  0.1684312E+02  0.1084016E+03
Ar 1275  0.3492157E+02  0.1684312E+02  0.1943741E+02  0.1084015E+03
Ar 1276  0.3161394E+02  0.1921186E+02  0.1921186E+02  0.3933637E+02
Ar 1277  0.3243999E+02  0.1654417E+02  0.2153172E+02  0.1184043E+03
Ar 1278  0.3595244E+02  0.1919373E+02  0.2190493E+02  0.3866708E+03
Ar 1279  0.3484913E+02  0.1605729E+02  0.2482716E+02  0.7650797E+02
Ar 1280  0.3252693E+02  0.1899124E+02  0.2439765E+02  0.2594188E+02
Ar 1281  0.3245368E+02  0.1604169E+02  0.2719162E+02  0.1398153E+03
Ar 1282  0.3493196E+02  0.1910237E+02  0.2709205E+02  0.8887888E+02
Ar 1283  0.3531241E+02  0.1619090E+02  0.2947836E+02  0.1178812E+03
Ar 1284  0.3257137E+02  0.1875089E+02  0.2983002E+02  0.1865796E+03
Ar 1285  0.3220614E+02  0.1595703E+02  0.3220614E+02  0.7908951E+01
Ar 1286  0.3538772E+02  0.1908964E+02  0.3267570E+02  0.1238676E+03
Ar 1287  0.3529310E+02  0.1601807E+02  0.3529310E+02  0.3061597E+03
Ar 1288  0.3267570E+02  0.1908964E+02  0.3538772E+02  0.1238677E+03
Ar 1289  0.3209374E+02  0.2171752E+02  0.1060057E+00  0.6851473E+02
Ar 1290  0.3465949E+02  0.2430247E+02  0.7144829E-01  0.1511617E+02
Ar 1291  0.3539231E+02  0.2129346E+02  0.2755499E+01  0.8801986E+02
Ar 1292  0.3234971E+02  0.2441895E+02  0.2689347E+01  0.1477519E+03
Ar 1293  0.3229499E+02  0.2183500E+02  0.5835849E+01  0.8926559E+02
Ar 1294  0.3474049E+02  0.2417001E+02  0.5650195E+01  0.1030745E+03
Ar 1295  0.3486932E+02  0.2103451E+02  0.8160788E+01  0.3547518E+03
Ar 1296  0.3254501E+02  0.2411065E+02  0.8367327E+01  0.1231437E+03
Ar 1297  0.3222299E+02  0.2146243E+02  0.1078596E+02  0.1386314E+03
Ar 1298  0.3514873E+02  0.2439621E+02  0.1058708E+02  0.7531213E+02
Ar 1299  0.3484866E+02  0.2149455E+02  0.1334982E+02  0.8593885E+02
Ar 1300  0.3231529E+02  0.2426178E+02  0.1303371E+02  0.6820453E+02
Ar 1301  0.3243999E+02  0.2153172E+02  0.1654417E+02  0.1184043E+03
Ar 1302  0.3484913E+02  0.2482716E+02  0.1605729E+02  0.7650801E+02
Ar 1303  0.3595244E+02  0.2190493E+02  0.1919373E+02  0.3866711E+03
Ar 1304  0.3252693E+02  0.2439765E+02  0.1899124E+02  0.2594187E+02
Ar 1305  0.3308663E+02  0.2151746E+02  0.2151747E+02  0.1376784E+03
Ar 1306  0.3522944E+02  0.2440421E+02  0.2171219E+02  0.2466544E+03
Ar 1307  0.3522944E+02  0.2171219E+02  0.2440421E+02  0.2466547E+03
Ar 1308  0.3178896E+02  0.2391757E+02  0.2391757E+02  0.9103260E+02
Ar 1309  0.3216722E+02  0.2166516E+02  0.2688989E+02  0.1913599E+03
Ar 1310  0.3483214E+02  0.2421046E+02  0.2682321E+02  0.1540660E+03
Ar 1311  0.3504557E+02  0.2146846E+02  0.2946220E+02  0.3442330E+02
Ar 1312  0.3236914E+02  0.2389048E+02  0.2952286E+02  0.1942324E+03
Ar 1313  0.3203053E+02  0.2138116E+02  0.3203053E+02  0.8678622E+01
Ar 1314  0.3467710E+02  0.2440216E+02  0.3212679E+02  0.1575729E+03
Ar 1315  0.3478533E+02  0.2198426E+02  0.3478533E+02  0.9965992E+02
Ar 1316  0.3212679E+02  0.2440216E+02  0.3467710E+02  0.1575727E+03
Ar 1317  0.3228902E+02  0.2671526E+02  0.3731217E+02  0.8189257E+02
Ar 1318  0.3501319E+02  0.2989231E+02  0.3757602E+02  0.7900000E+02
Ar 1319  0.3500946E+02  0.2692695E+02  0.2585285E+01  0.9534507E+02
Ar 1320  0.3220977E+02  0.2925302E+02  0.2469173E+01  0.1977660E+02
Ar 1321  0.3210679E+02  0.2702763E+02  0.5386632E+01  0.3938369E+02
Ar 1322  0.3481615E+02  0.2935725E+02  0.5238337E+01  0.1306315E+03
Ar 1323  0.3504267E+02  0.2699515E+02  0.8071484E+01  0.4248002E+02
Ar 1324  0.3243710E+02  0.2955516E+02  0.7928774E+01  0.7197618E+02
Ar 1325  0.3196496E+02  0.2712085E+02  0.1096694E+02  0.5729410E+02
Ar 1326  0.3478372E+02  0.2976323E+02  0.1054799E+02  0.9621636E+02
Ar 1327  0.3487984E+02  0.2689108E+02  0.1283566E+02  0.3586435E+03
Ar 1328  0.3223646E+02  0.2964978E+02  0.1356231E+02  0.1914098E+03
Ar 1329  0.3245368E+02  0.2719162E+02  0.1604169E+02  0.1398153E+03
Ar 1330  0.3531241E+02  0.2947836E+02  0.1619090E+02  0.1178812E+03
Ar 1331  0.3493196E+02  0.2709205E+02  0.1910237E+02  0.8887892E+02
Ar 1332  0.3257137E+02  0.2983002E+02  0.1875089E+02  0.1865794E+03
Ar 1333  0.3216722E+02  0.2688989E+02  0.2166516E+02  0.1913599E+03
Ar 1334  0.3504557E+02  0.2946220E+02  0.2146846E+02  0.3442338E+02
Ar 1335  0.3483214E+02  0.2682321E+02  0.2421046E+02  0.1540661E+03
Ar 1336  0.3236914E+02  0.2952286E+02  0.2389048E+02  0.1942322E+03
Ar 1337  0.3177480E+02  0.2668882E+02  0.2668882E+02  0.1742873E+02
Ar 1338  0.3497338E+02  0.2958515E+02  0.2707016E+02  0.3713162E+02
Ar 1339  0.3497338E+02  0.2707016E+02  0.2958515E+02  0.3713166E+02
Ar 1340  0.3199976E+02  0.2943861E+02  0.2943861E+02  0.1692656E+02
Ar 1341  0.3235661E+02  0.2767672E+02  0.3235661E+02  0.9447260E+02
Ar 1342  0.3519741E+02  0.3002772E+02  0.3243604E+02  0.1073895E+03
Ar 1343  0.3470238E+02  0.2720369E+02  0.3470238E+02  0.1744527E+03
Ar 1344  0.3243604E+02  0.3002772E+02  0.3519741E+02  0.1073895E+03
Ar 1345  0.3267637E+02  0.3267637E+02  0.2442122E+00  0.7591970E+02
Ar 1346  0.3552146E+02  0.3552146E+02  0.4207888E+00  0.2925156E+03
Ar 1347  0.3509936E+02  0.3188219E+02  0.2700054E+01  0.1918722E+03
Ar 1348  0.3188219E+02  0.3509936E+02  0.2700054E+01  0.1918722E+03
Ar 1349  0.3223052E+02  0.3223052E+02  0.5497400E+01  0.2633304E+01
Ar 1350  0.3515589E+02  0.3515589E+02  0.5072904E+01  0.1527434E+02
Ar 1351  0.3504104E+02  0.3207129E+02  0.7911571E+01  0.7425684E+02
Ar 1352  0.3207129E+02  0.3504104E+02  0.7911571E+01  0.7425685E+02
Ar 1353  0.3234675E+02  0.3234675E+02  0.1120384E+02  0.1770945E+03
Ar 1354  0.3477513E+02  0.3477513E+02  0.1153130E+02  0.5476034E+02
Ar 1355  0.3515056E+02  0.3200597E+02  0.1366244E+02  0.3941382E+02
Ar 1356  0.3200597E+02  0.3515056E+02  0.1366244E+02  0.3941386E+02
Ar 1357  0.3220614E+02  0.3220614E+02  0.1595703E+02  0.7908959E+01
Ar 1358  0.3529310E+02  0.3529310E+02  0.1601808E+02  0.3061597E+03
Ar 1359  0.3538772E+02  0.3267570E+02  0.1908964E+02  0.1238677E+03
Ar 1360  0.3267570E+02  0.3538772E+02  0.1908964E+02  0.1238677E+03
Ar 1361  0.3203053E+02  0.3203053E+02  0.2138116E+02  0.8678609E+01
Ar 1362  0.3478533E+02  0.3478533E+02  0.2198426E+02  0.9965998E+02
Ar 1363  0.3467710E+02  0.3212679E+02  0.2440216E+02  0.1575727E+03
Ar 1364  0.3212679E+02  0.3467710E+02  0.2440216E+02  0.1575727E+03
Ar 1365  0.3235661E+02  0.3235661E+02  0.2767672E+02  0.9447271E+02
Ar 1366  0.3470238E+02  0.3470238E+02  0.2720369E+02  0.1744524E+03
Ar 1367  0.3519741E+02  0.3243604E+02  0.3002772E+02  0.1073894E+03
Ar 1368  0.3243604E+02  0.3519741E+02  0.3002772E+02  0.1073895E+03
Ar 1369  0.3250766E+02  0.3250766E+02  0.3250766E+02  0.1504904E+03
Ar 1370  0.3523848E+02  0.3523848E+02  0.3234009E+02  0.2268813E+03
Ar 1371  0.3523848E+02  0.3234009E+02  0.3523848E+02  0.2268812E+03
Ar 1372  0.3234009E+02  0.3523848E+02  0.3523848E+02  0.2268811E+03
