        1372
Lattice="  0.3778015E+02  0.0000000E+00  0.0000000E+00  0.0000000E+00  0.3778015E+02  0.0000000E+00  0.0000000E+00  0.0000000E+00  0.3778015E+02" Properties=species:S:1:id:I:1:pos:R:3:tempK:R:1
Ar    1  0.3312641E+01  0.3460498E+02  0.1058896E+01  0.2405809E+03
Ar    2  0.1509683E+01  0.5806990E+01  0.1118664E+01  0.2415438E+03
Ar    3  0.1334315E+01  0.1804872E+01  0.2819228E+01  0.1067808E+04
Ar    4  0.3728364E+02  0.4456950E+01  0.4509117E+01  0.1980352E+03
Ar    5  0.2427486E-02  0.3743737E+02  0.6894726E+01  0.1991007E+03
Ar    6  0.5338161E+01  0.4355861E+01  0.6444113E+01  0.8679119E+02
Ar    7  0.3856291E+01  0.3587583E+02  0.6496271E+01  0.7243672E+02
Ar    8  0.2313640E+01  0.2933221E+01  0.6342462E+01  0.6116544E+02
Ar    9  0.3040434E+02  0.3630659E+02  0.1475352E+02  0.1386516E+03
Ar   10  0.8211392E+01  0.4026134E+01  0.8781032E+01  0.5992914E+03
Ar   11  0.3987463E+01  0.1150077E+01  0.1332531E+02  0.7408636E+03
Ar   12  0.2056940E+01  0.6588462E+00  0.9198419E+01  0.3039001E+03
Ar   13  0.3630801E+02  0.3697038E+02  0.1679514E+02  0.5221887E+02
Ar   14  0.6910034E+01  0.3599942E+01  0.1193236E+02  0.1631776E+03
Ar   15  0.7205443E+01  0.7124197E+01  0.1280666E+02  0.4214615E+02
Ar   16  0.3336794E+01  0.4275225E+01  0.1792661E+02  0.1514080E+03
Ar   17  0.1987555E+01  0.1598728E+00  0.1991589E+02  0.3582065E+03
Ar   18  0.4635118E+01  0.1145617E+01  0.1729794E+02  0.5718475E+03
Ar   19  0.5070267E+01  0.2454758E+01  0.2293097E+02  0.2424488E+03
Ar   20  0.2021466E+01  0.1025956E+01  0.2426626E+02  0.2544105E+02
Ar   21  0.1271038E+01  0.2577979E+01  0.2797762E+02  0.2427337E+03
Ar   22  0.7310906E+01  0.5488985E-01  0.2569952E+02  0.5104390E+03
Ar   23  0.4574065E+01  0.3676068E+02  0.2476699E+02  0.5250867E+03
Ar   24  0.2520248E+01  0.8835244E+00  0.3133020E+02  0.2577362E+03
Ar   25  0.3724722E+02  0.2729233E+01  0.3287458E+02  0.2179140E+03
Ar   26  0.4308645E+01  0.3676554E+01  0.3073067E+02  0.6434967E+03
Ar   27  0.2223038E+01  0.1409349E+01  0.3522672E+02  0.9935142E+03
Ar   28  0.1455961E+00  0.3822602E+01  0.3614339E+02  0.4820184E+03
Ar   29  0.3649650E+02  0.6961896E+01  0.3691124E+02  0.8340631E+03
Ar   30  0.1788599E+01  0.8316437E+01  0.3644843E+02  0.6303133E+03
Ar   31  0.2783601E+01  0.6047061E+01  0.4333935E+01  0.6468781E+02
Ar   32  0.3956720E+01  0.9523289E+01  0.1747088E+01  0.2707499E+03
Ar   33  0.3702240E+02  0.5395442E+01  0.8309370E+01  0.4455596E+03
Ar   34  0.1425714E+01  0.8958222E+01  0.6805763E+01  0.1973298E+02
Ar   35  0.3972004E+01  0.5732507E+01  0.1246951E+02  0.4579815E+03
Ar   36  0.1709130E+01  0.3877245E+01  0.9673280E+01  0.1006038E+04
Ar   37  0.1902918E+01  0.3340498E+01  0.1396996E+02  0.1554821E+03
Ar   38  0.1801592E+01  0.7126099E+01  0.9745251E+01  0.7992622E+02
Ar   39  0.1514621E+01  0.5985233E+01  0.1583796E+02  0.5601107E+03
Ar   40  0.3562356E+02  0.1238361E+02  0.9561972E+01  0.4702270E+03
Ar   41  0.6322122E+01  0.4924322E+01  0.1498455E+02  0.4785976E+03
Ar   42  0.4924567E+01  0.8013302E+01  0.1980312E+02  0.4667947E+03
Ar   43  0.6490307E+01  0.5390796E+01  0.1810669E+02  0.8828704E+03
Ar   44  0.1322877E+01  0.7103400E+01  0.1894251E+02  0.3994601E+03
Ar   45  0.6379223E+01  0.5380522E+01  0.2338327E+02  0.2666700E+03
Ar   46  0.4078496E+01  0.5266898E+01  0.2126414E+02  0.4664675E+03
Ar   47  0.4208442E+01  0.2874738E+01  0.2665717E+02  0.8242420E+03
Ar   48  0.3603380E+02  0.8200115E+01  0.2474296E+02  0.2355389E+03
Ar   49  0.3648538E+02  0.5002164E+01  0.2335900E+02  0.4400063E+03
Ar   50  0.4050479E+01  0.8325750E+01  0.2704858E+02  0.1725456E+03
Ar   51  0.2267883E+01  0.4971581E+01  0.2474615E+02  0.8443587E+03
Ar   52  0.3631959E+02  0.8814761E+01  0.2795978E+02  0.5961573E+03
Ar   53  0.8831279E+00  0.6455548E+01  0.3406114E+02  0.6662103E+03
Ar   54  0.2013767E+01  0.1252913E+02  0.3195488E+02  0.5317461E+03
Ar   55  0.3480481E+01  0.4785240E+01  0.3403659E+02  0.8582411E+02
Ar   56  0.1681701E+01  0.9765116E+01  0.3344297E+02  0.8815737E+02
Ar   57  0.3608762E+01  0.1108032E+02  0.3613168E+02  0.3729003E+03
Ar   58  0.3721055E+02  0.9944781E+01  0.3482784E+00  0.2496897E+03
Ar   59  0.2223013E+00  0.1182443E+02  0.3555210E+02  0.3519580E+02
Ar   60  0.2067755E+01  0.1360793E+02  0.6629452E+01  0.3623948E+03
Ar   61  0.3603891E+02  0.1275561E+02  0.6601292E+01  0.2397567E+02
Ar   62  0.3420365E+01  0.1057111E+02  0.4689680E+01  0.1085084E+04
Ar   63  0.2195248E+01  0.1347207E+02  0.1037365E+02  0.6519838E+03
Ar   64  0.3424563E+02  0.1528906E+02  0.6667243E+01  0.3428339E+03
Ar   65  0.3096546E+02  0.1357357E+02  0.9596393E+01  0.3177530E+03
Ar   66  0.1212731E+01  0.9891428E+01  0.1484600E+02  0.4553596E+03
Ar   67  0.4293675E+00  0.6954138E+01  0.1273901E+02  0.2326277E+04
Ar   68  0.3380180E+02  0.1077488E+02  0.1259983E+02  0.2515935E+03
Ar   69  0.5343901E+00  0.1375509E+02  0.1595411E+02  0.1124645E+04
Ar   70  0.9039854E+00  0.1043026E+02  0.1013515E+02  0.1221158E+03
Ar   71  0.2561706E+01  0.1078420E+02  0.1871771E+02  0.1012776E+03
Ar   72  0.3740203E+02  0.1382199E+02  0.1271143E+02  0.6506666E+02
Ar   73  0.3409115E+02  0.9754191E+01  0.1947708E+02  0.1096089E+04
Ar   74  0.1175929E+01  0.8743333E+01  0.2212482E+02  0.3497735E+03
Ar   75  0.1023085E+01  0.1303366E+02  0.2277406E+02  0.1976610E+03
Ar   76  0.3636246E+02  0.1525087E+02  0.2037563E+02  0.2495442E+03
Ar   77  0.3625200E+02  0.1147913E+02  0.2558267E+02  0.1553745E+03
Ar   78  0.4486701E+01  0.1324691E+02  0.2529669E+02  0.4160617E+02
Ar   79  0.3078144E+01  0.1680283E+02  0.2571567E+02  0.5285700E+03
Ar   80  0.3769238E+02  0.1699171E+02  0.2997778E+02  0.4599829E+02
Ar   81  0.3576920E+02  0.1355438E+02  0.3350912E+02  0.2971760E+03
Ar   82  0.7564167E+00  0.1544767E+02  0.3283480E+02  0.2315417E+03
Ar   83  0.3249866E+01  0.1424058E+02  0.3576976E+02  0.1661146E+03
Ar   84  0.3399859E+02  0.9454440E+01  0.3705178E+02  0.1055419E+02
Ar   85  0.3527856E+02  0.1565311E+02  0.3130913E+02  0.2517090E+03
Ar   86  0.4666109E+01  0.1596618E+02  0.4595844E+01  0.2498267E+03
Ar   87  0.2950068E+00  0.1411224E+02  0.3620542E+01  0.6344492E+02
Ar   88  0.1475583E+01  0.1741606E+02  0.2794442E+01  0.2477221E+03
Ar   89  0.3636927E+02  0.1685621E+02  0.4375396E+01  0.1529921E+03
Ar   90  0.7022112E+00  0.1941658E+02  0.5402906E+01  0.2965925E+03
Ar   91  0.4950367E+01  0.1500964E+02  0.1104144E+02  0.1737937E+03
Ar   92  0.3732743E+02  0.1700809E+02  0.1143611E+02  0.6435605E+03
Ar   93  0.3427407E+02  0.1529910E+02  0.1033619E+02  0.4408443E+03
Ar   94  0.1155528E+01  0.1958991E+02  0.8779773E+01  0.2746392E+03
Ar   95  0.4122868E+01  0.1471375E+02  0.1618484E+02  0.1759544E+03
Ar   96  0.3696105E+02  0.2047897E+02  0.1105178E+02  0.3902791E+03
Ar   97  0.3411100E+02  0.1869970E+02  0.1162368E+02  0.4781325E+02
Ar   98  0.1917044E+01  0.1699081E+02  0.1767291E+02  0.1618733E+03
Ar   99  0.1902817E+01  0.1396246E+02  0.1943997E+02  0.8553585E+03
Ar  100  0.3631937E+02  0.2024335E+02  0.1483269E+02  0.3941958E+02
Ar  101  0.3671151E+02  0.1646952E+02  0.1493411E+02  0.5777156E+03
Ar  102  0.1424258E+01  0.1759340E+02  0.2106928E+02  0.7609033E+03
Ar  103  0.3382868E+01  0.1542788E+02  0.2248233E+02  0.4745917E+03
Ar  104  0.2982581E+02  0.1277082E+02  0.2483903E+02  0.3174450E+02
Ar  105  0.4184315E+00  0.1621641E+02  0.2410884E+02  0.1191227E+03
Ar  106  0.7424670E+01  0.1976649E+02  0.3549792E+02  0.6304556E+03
Ar  107  0.5112612E+01  0.1991058E+02  0.3288496E+02  0.1608384E+03
Ar  108  0.5408038E+01  0.2234875E+02  0.2918554E+02  0.8044676E+03
Ar  109  0.3622522E+02  0.1890799E+02  0.3322095E+02  0.2089539E+03
Ar  110  0.2161104E+01  0.1942460E+02  0.3055666E+02  0.2761839E+03
Ar  111  0.3404593E+00  0.1514121E+02  0.3752019E+02  0.7893929E+03
Ar  112  0.3444790E+02  0.1643587E+02  0.3516826E+02  0.8400128E+02
Ar  113  0.8842621E+00  0.2106042E+02  0.1899537E+01  0.3185635E+03
Ar  114  0.1961254E+01  0.2420060E+02  0.6680318E+00  0.2163512E+03
Ar  115  0.2498924E+01  0.2343903E+02  0.3828544E+01  0.5272354E+03
Ar  116  0.2067454E+00  0.2638540E+02  0.3025243E+01  0.2303693E+04
Ar  117  0.3677827E+02  0.2337963E+02  0.4025347E+01  0.4309854E+02
Ar  118  0.5622959E+01  0.2466267E+02  0.5931223E+01  0.2744774E+04
Ar  119  0.2630133E+01  0.2228870E+02  0.7055317E+01  0.4861754E+03
Ar  120  0.1897534E+00  0.2364065E+02  0.9371738E+01  0.1078680E+03
Ar  121  0.3623773E+02  0.2138057E+02  0.7398911E+01  0.7636664E+03
Ar  122  0.3537897E+01  0.2064458E+02  0.1176303E+02  0.1092400E+03
Ar  123  0.2091559E+01  0.1892440E+02  0.1442555E+02  0.3516200E+03
Ar  124  0.8387095E+00  0.2288873E+02  0.1287693E+02  0.2289835E+03
Ar  125  0.1169992E+01  0.2033105E+02  0.1734728E+02  0.2603082E+03
Ar  126  0.3549892E+02  0.2378780E+02  0.1939756E+02  0.9972423E+02
Ar  127  0.3607937E+02  0.1882899E+02  0.1819941E+02  0.2883624E+03
Ar  128  0.3348192E+02  0.2812058E+02  0.1751188E+02  0.7419200E+03
Ar  129  0.3456335E+02  0.2155930E+02  0.2220219E+02  0.2248623E+03
Ar  130  0.3748798E+02  0.2176445E+02  0.2064919E+02  0.2710431E+03
Ar  131  0.2502427E+01  0.1982947E+02  0.2395315E+02  0.1121777E+03
Ar  132  0.3773462E+02  0.2256386E+02  0.2445431E+02  0.3501791E+03
Ar  133  0.3700279E+02  0.1942293E+02  0.2312562E+02  0.4662539E+03
Ar  134  0.2056917E+01  0.2268583E+02  0.2818966E+02  0.3086587E+03
Ar  135  0.3770850E+02  0.2722908E+02  0.3240094E+02  0.3787339E+03
Ar  136  0.1839976E+01  0.2282605E+02  0.3159906E+02  0.7057512E+02
Ar  137  0.3712145E+02  0.2247055E+02  0.3378483E+02  0.6478984E+03
Ar  138  0.1827378E+01  0.2460707E+02  0.3402519E+02  0.9852200E+02
Ar  139  0.1870362E+01  0.1855280E+02  0.3682778E+02  0.6329995E+03
Ar  140  0.3663628E+02  0.2355314E+02  0.4916038E+00  0.5974446E+02
Ar  141  0.3568184E+02  0.2974659E+02  0.1820107E+01  0.3526827E+03
Ar  142  0.3882636E+01  0.2911846E+02  0.3712375E+02  0.3655407E+03
Ar  143  0.4279452E+01  0.2694126E+02  0.3295290E+01  0.1271707E+03
Ar  144  0.1750397E+01  0.2995177E+02  0.3156938E+01  0.2868791E+03
Ar  145  0.2052212E+01  0.2577107E+02  0.6030468E+01  0.1260199E+03
Ar  146  0.5212132E+01  0.2849337E+02  0.5949522E+01  0.4334886E+03
Ar  147  0.5022074E+01  0.2560097E+02  0.9136641E+01  0.8527155E+03
Ar  148  0.2647324E+01  0.3009856E+02  0.7107517E+01  0.7663729E+02
Ar  149  0.3421250E+02  0.3107991E+02  0.1070390E+02  0.3530886E+03
Ar  150  0.1842485E+01  0.2714461E+02  0.9463788E+01  0.3929972E+03
Ar  151  0.6769555E+00  0.2474500E+02  0.1904881E+02  0.3362732E+03
Ar  152  0.4362436E+00  0.2855299E+02  0.1190542E+02  0.6501803E+03
Ar  153  0.3225460E+02  0.2662699E+02  0.1044424E+02  0.1689258E+03
Ar  154  0.3727439E+02  0.2678114E+02  0.1455915E+02  0.2094884E+03
Ar  155  0.6466150E+01  0.2605852E+02  0.2004392E+02  0.1121373E+03
Ar  156  0.3463945E+02  0.2839995E+02  0.1307301E+02  0.2021903E+03
Ar  157  0.3687593E+02  0.2510582E+02  0.2220536E+02  0.4445461E+03
Ar  158  0.2535527E+01  0.2349943E+02  0.2180638E+02  0.7627340E+03
Ar  159  0.1675529E+01  0.2553082E+02  0.2423572E+02  0.1582244E+03
Ar  160  0.2372147E+01  0.2913064E+02  0.2397557E+02  0.1531975E+03
Ar  161  0.8339660E+00  0.2606860E+02  0.2800597E+02  0.4518561E+03
Ar  162  0.1280758E+01  0.3222971E+02  0.2504633E+02  0.2288934E+03
Ar  163  0.4799301E+01  0.3084131E+02  0.2639110E+02  0.4044726E+03
Ar  164  0.4331924E+00  0.3055484E+02  0.3105850E+02  0.3447695E+03
Ar  165  0.4827020E+01  0.2687181E+02  0.3373063E+02  0.7948496E+03
Ar  166  0.3450629E+01  0.2545671E+02  0.3086228E+02  0.4195405E+02
Ar  167  0.2709323E+01  0.2970104E+02  0.3377198E+02  0.2810624E+03
Ar  168  0.2023201E+01  0.3623153E+02  0.3375961E+02  0.1534260E+03
Ar  169  0.1517623E+00  0.3284155E+02  0.1944083E+01  0.1428873E+03
Ar  170  0.6770890E+01  0.3514414E+02  0.3782947E+00  0.4145593E+01
Ar  171  0.4422699E+01  0.3283251E+02  0.5067230E+01  0.2818584E+03
Ar  172  0.2920389E+00  0.3521788E+02  0.3636966E+02  0.8374899E+03
Ar  173  0.1262614E+01  0.3358991E+02  0.5794972E+01  0.1078751E+04
Ar  174  0.5681837E+01  0.3563578E+02  0.3762240E+01  0.9380367E+02
Ar  175  0.5118379E+01  0.3214627E+02  0.8615769E+01  0.3886707E+03
Ar  176  0.1889842E+01  0.3367639E+02  0.9204689E+01  0.5803935E+03
Ar  177  0.6047495E+00  0.3236784E+02  0.1305007E+02  0.4442432E+03
Ar  178  0.4006396E+01  0.3340183E+02  0.1199553E+02  0.9534372E+02
Ar  179  0.3085593E+01  0.3389810E+02  0.1492721E+02  0.2102481E+03
Ar  180  0.3602976E+02  0.3527910E+02  0.1301646E+02  0.5497882E+02
Ar  181  0.3515563E+02  0.3239148E+02  0.1368352E+02  0.1423462E+03
Ar  182  0.4135422E+01  0.3222257E+02  0.1823129E+02  0.1087247E+04
Ar  183  0.2288503E+01  0.2716924E+02  0.2105276E+02  0.1050646E+03
Ar  184  0.1572819E+01  0.3750597E+02  0.1579857E+02  0.5694230E+03
Ar  185  0.3436057E-01  0.3254858E+02  0.1924804E+02  0.6342870E+03
Ar  186  0.2941585E+01  0.3516658E+02  0.1861828E+02  0.1072498E+03
Ar  187  0.2374613E+01  0.3233882E+02  0.2153917E+02  0.1235741E+03
Ar  188  0.2278432E-01  0.3602943E+02  0.2588280E+02  0.3718778E+03
Ar  189  0.3489704E+02  0.3357415E+02  0.2553945E+02  0.2834024E+03
Ar  190  0.5109506E+01  0.3341419E+02  0.2465209E+02  0.6057258E+03
Ar  191  0.3705785E+01  0.3266836E+02  0.2973019E+02  0.7010779E+03
Ar  192  0.5356889E-01  0.3330711E+02  0.2817743E+02  0.4076254E+03
Ar  193  0.1970774E+01  0.3546672E+02  0.3013777E+02  0.5333278E+03
Ar  194  0.5189787E+01  0.3662347E+02  0.3239460E+02  0.4511079E+03
Ar  195  0.3791744E+01  0.3378100E+02  0.3284134E+02  0.2544016E+03
Ar  196  0.3328286E+02  0.3519345E+02  0.3617076E+02  0.5543049E+03
Ar  197  0.1854512E+01  0.3755191E+02  0.3696665E+00  0.7204649E+03
Ar  198  0.7745814E+01  0.1711239E+01  0.3677566E+02  0.1426547E+03
Ar  199  0.1206461E+02  0.3763203E+02  0.7065368E+01  0.1964961E+03
Ar  200  0.3990757E+01  0.3679242E+01  0.2565075E+01  0.4594268E+02
Ar  201  0.4742211E+01  0.1145742E+01  0.5146979E+01  0.2603184E+03
Ar  202  0.8065522E+01  0.6416271E+01  0.5724517E+01  0.2304184E+03
Ar  203  0.9151920E+01  0.3293803E+02  0.8710052E+01  0.1131941E+03
Ar  204  0.8168712E+01  0.1590847E+01  0.6152025E+01  0.3067684E+03
Ar  205  0.5129005E+01  0.1796045E+01  0.9234532E+01  0.3428267E+03
Ar  206  0.1149930E+02  0.3435076E+01  0.1007742E+02  0.4669003E+03
Ar  207  0.1039080E+02  0.3638803E+02  0.1302690E+02  0.1024381E+03
Ar  208  0.7015007E+01  0.1089566E+00  0.1159787E+02  0.1093923E+03
Ar  209  0.1486043E+01  0.3631112E+02  0.1180719E+02  0.6224859E+03
Ar  210  0.7082760E+01  0.1329017E+01  0.1518317E+02  0.1441445E+03
Ar  211  0.5622258E+01  0.3626621E+02  0.1430211E+02  0.3108343E+03
Ar  212  0.4165664E+01  0.7621086E+01  0.1609168E+02  0.3901469E+03
Ar  213  0.7548855E+01  0.3776227E+02  0.1876455E+02  0.9899770E+02
Ar  214  0.7434395E+01  0.2837712E+01  0.2049170E+02  0.1924525E+03
Ar  215  0.9208284E+01  0.4364736E+00  0.2228930E+02  0.3584382E+03
Ar  216  0.1041946E+02  0.5786131E+01  0.2366613E+02  0.7221310E+03
Ar  217  0.1075312E+02  0.3714389E+02  0.2525295E+02  0.6629973E+03
Ar  218  0.7143443E+01  0.6588212E+01  0.3156778E+02  0.6108332E+03
Ar  219  0.7358184E+01  0.1190731E+01  0.3027508E+02  0.5573882E+03
Ar  220  0.8499599E+00  0.4675576E+01  0.3104759E+02  0.6938032E+03
Ar  221  0.4412105E+01  0.7316443E-01  0.2828443E+02  0.5865856E+03
Ar  222  0.7580677E+01  0.5135607E+01  0.3528248E+02  0.4932867E+03
Ar  223  0.7317995E+01  0.3409674E+01  0.3817313E+01  0.5688679E+02
Ar  224  0.6363256E+01  0.2314641E+01  0.3352331E+02  0.3093857E+03
Ar  225  0.4501489E+01  0.3320364E+01  0.3686498E+02  0.4810653E+03
Ar  226  0.5046008E+01  0.6754770E+01  0.3765517E+02  0.7304136E+03
Ar  227  0.6197942E+01  0.6966168E+01  0.2860025E+01  0.1102805E+04
Ar  228  0.4802403E+01  0.8003775E+01  0.6439401E+01  0.1575670E+04
Ar  229  0.4873426E+01  0.5400160E+01  0.9550641E+01  0.5444525E+03
Ar  230  0.9533350E+01  0.8449526E+01  0.1094695E+01  0.7430087E+02
Ar  231  0.7373319E+01  0.7744971E+01  0.9113979E+01  0.1173873E+04
Ar  232  0.4402135E+01  0.1054459E+02  0.9066833E+01  0.2326659E+03
Ar  233  0.9651740E+01  0.1026477E+02  0.1042590E+02  0.3038188E+03
Ar  234  0.1147303E+02  0.8450061E+01  0.1394788E+02  0.1280497E+03
Ar  235  0.1010159E+02  0.6326840E+01  0.1146868E+02  0.7905823E+03
Ar  236  0.9878836E+01  0.1304948E+02  0.1281423E+02  0.2533237E+03
Ar  237  0.4213196E+01  0.9292115E+01  0.1292251E+02  0.3617782E+03
Ar  238  0.8334104E+01  0.1067619E+02  0.1416660E+02  0.2750023E+03
Ar  239  0.8586537E+01  0.8324978E+01  0.2227895E+02  0.2734572E+03
Ar  240  0.9177350E+01  0.6808623E+01  0.1919018E+02  0.9979703E+02
Ar  241  0.5069224E+01  0.8445073E+01  0.2350901E+02  0.8653880E+02
Ar  242  0.6839179E+01  0.1111882E+02  0.2551234E+02  0.2982849E+03
Ar  243  0.7477264E+01  0.7519665E+01  0.2605835E+02  0.7236430E+02
Ar  244  0.2339918E+01  0.1005238E+02  0.2473772E+02  0.6284869E+03
Ar  245  0.5346263E+01  0.5741338E+01  0.2814024E+02  0.9078664E+03
Ar  246  0.9903409E+01  0.1193123E+02  0.2814414E+02  0.7213269E+03
Ar  247  0.7521340E+01  0.8893009E+01  0.2906577E+02  0.1134008E+03
Ar  248  0.1928397E+01  0.1094065E+02  0.2904361E+02  0.1184436E+03
Ar  249  0.3289555E+01  0.7260010E+01  0.3070929E+02  0.6350356E+03
Ar  250  0.9712857E+01  0.1110569E+02  0.3578641E+02  0.2293991E+03
Ar  251  0.6854997E+01  0.9905099E+01  0.3742991E+02  0.2654759E+03
Ar  252  0.5476077E+01  0.7639517E+01  0.3423014E+02  0.2926762E+02
Ar  253  0.7763291E+01  0.9710955E+01  0.3926590E+01  0.4716379E+03
Ar  254  0.7629011E+01  0.1598954E+02  0.1861277E+01  0.1051232E+04
Ar  255  0.6522915E+01  0.1367229E+02  0.3732163E+02  0.5896573E+03
Ar  256  0.2338037E+01  0.1250711E+02  0.1400467E+01  0.8865309E+02
Ar  257  0.9452457E+01  0.1464123E+02  0.5394400E+01  0.4486647E+02
Ar  258  0.5480448E+01  0.1291067E+02  0.3360625E+01  0.1219920E+04
Ar  259  0.1034631E+02  0.9198170E+01  0.5611080E+01  0.4771810E+03
Ar  260  0.8172266E+01  0.1198037E+02  0.6809583E+01  0.1530284E+03
Ar  261  0.6559942E+01  0.1176810E+02  0.1136521E+02  0.1743240E+03
Ar  262  0.9196231E+01  0.1365886E+02  0.9716656E+01  0.5494499E+03
Ar  263  0.1031992E+02  0.1549397E+02  0.1476547E+02  0.8567869E+02
Ar  264  0.6960488E+01  0.1397180E+02  0.1420952E+02  0.1335517E+03
Ar  265  0.4670235E+01  0.1126655E+02  0.1596190E+02  0.3317347E+03
Ar  266  0.9654365E+01  0.1249504E+02  0.1716514E+02  0.1046679E+04
Ar  267  0.7879887E+01  0.1157263E+02  0.2243097E+02  0.1860318E+03
Ar  268  0.3681482E+02  0.1159907E+02  0.1881407E+02  0.1775773E+04
Ar  269  0.4387386E+01  0.1133020E+02  0.2171904E+02  0.3455946E+03
Ar  270  0.5698043E+01  0.1299309E+02  0.1850081E+02  0.1682308E+03
Ar  271  0.4898920E+01  0.1281348E+02  0.2902901E+02  0.1005228E+03
Ar  272  0.3471611E+01  0.1567093E+02  0.2867927E+02  0.1441618E+04
Ar  273  0.1267904E+01  0.1353905E+02  0.2725467E+02  0.1601058E+03
Ar  274  0.9219832E+01  0.1422165E+02  0.2425250E+02  0.9757332E+03
Ar  275  0.5603667E+01  0.1028992E+02  0.3129036E+02  0.7401042E+03
Ar  276  0.3753098E+01  0.1689901E+02  0.3176881E+02  0.2694586E+03
Ar  277  0.5163371E+01  0.1448865E+02  0.3315150E+02  0.7494397E+03
Ar  278  0.7734500E+01  0.1366645E+02  0.3037368E+02  0.5223991E+03
Ar  279  0.6710079E+01  0.1146642E+02  0.3442247E+02  0.8565550E+03
Ar  280  0.3533995E+01  0.1547960E+02  0.1368346E+01  0.3359904E+03
Ar  281  0.3729707E+02  0.1571408E+02  0.7686911E+01  0.2348900E+03
Ar  282  0.9473521E+01  0.1860536E+02  0.6404695E+00  0.6592281E+02
Ar  283  0.5230198E+01  0.1899469E+02  0.6061698E+00  0.3989523E+03
Ar  284  0.3861365E+01  0.2001015E+02  0.3778741E+01  0.2247934E+03
Ar  285  0.5495282E+01  0.1389628E+02  0.7551676E+01  0.1144729E+03
Ar  286  0.7010990E+01  0.1878432E+02  0.3515436E+01  0.4442631E+03
Ar  287  0.2682747E+01  0.1650187E+02  0.8857118E+01  0.2195496E+03
Ar  288  0.5865147E+01  0.1776193E+02  0.9563881E+01  0.4363695E+03
Ar  289  0.2913227E+01  0.1232912E+02  0.1316880E+02  0.4420568E+03
Ar  290  0.1140244E+02  0.1688056E+02  0.7945545E+01  0.6024078E+02
Ar  291  0.8064051E+01  0.1627431E+02  0.1213892E+02  0.7908327E+03
Ar  292  0.5580596E+01  0.1713586E+02  0.1400982E+02  0.6413237E+03
Ar  293  0.5084113E+01  0.2145597E+02  0.1532664E+02  0.3701489E+02
Ar  294  0.8857556E+01  0.1920199E+02  0.1586834E+02  0.5172695E+03
Ar  295  0.8784008E+01  0.1852342E+02  0.1931904E+02  0.6049806E+03
Ar  296  0.4626653E+01  0.1723682E+02  0.1991134E+02  0.3057667E+03
Ar  297  0.5637829E+01  0.1782030E+02  0.2363642E+02  0.2162015E+03
Ar  298  0.8943982E+01  0.1757791E+02  0.2571115E+02  0.5600259E+03
Ar  299  0.1282194E+02  0.1419781E+02  0.2155353E+02  0.2162415E+03
Ar  300  0.4827356E+01  0.1983820E+02  0.2685412E+02  0.9865891E+02
Ar  301  0.7087605E+01  0.1452164E+02  0.2670166E+02  0.8053752E+02
Ar  302  0.8089781E+01  0.2025846E+02  0.2701117E+02  0.2557014E+03
Ar  303  0.7158080E+01  0.1685151E+02  0.3195311E+02  0.3463359E+03
Ar  304  0.7017830E+01  0.1769561E+02  0.2851772E+02  0.5134219E+02
Ar  305  0.1777653E+01  0.2009714E+02  0.3390996E+02  0.7972560E+02
Ar  306  0.8007491E+01  0.2004522E+02  0.3107831E+02  0.5400896E+03
Ar  307  0.9903193E+01  0.2185890E+02  0.3688464E+02  0.5147467E+03
Ar  308  0.4140193E+01  0.1732159E+02  0.3503299E+02  0.1625974E+03
Ar  309  0.8811800E+01  0.2157284E+02  0.2338049E+01  0.6019525E+03
Ar  310  0.8631350E+01  0.2485241E+02  0.1111092E+01  0.1538789E+03
Ar  311  0.1112336E+02  0.2151170E+02  0.5350068E+01  0.8684447E+02
Ar  312  0.8686770E+01  0.2439843E+02  0.4475842E+01  0.3770948E+03
Ar  313  0.4318727E+01  0.1856724E+02  0.6607841E+01  0.4001906E+03
Ar  314  0.7124521E+01  0.2159274E+02  0.5372021E+01  0.3797467E+03
Ar  315  0.9535061E+01  0.2089650E+02  0.8380908E+01  0.2380834E+03
Ar  316  0.5920918E+01  0.2149316E+02  0.8625976E+01  0.7046753E+02
Ar  317  0.5690411E+01  0.2393060E+02  0.1205518E+02  0.7074896E+03
Ar  318  0.9081071E+01  0.2344439E+02  0.1108470E+02  0.5128123E+02
Ar  319  0.7542886E+01  0.2117524E+02  0.1244826E+02  0.2120994E+03
Ar  320  0.1970103E+01  0.2466618E+02  0.1589384E+02  0.1831879E+03
Ar  321  0.3406624E+01  0.2290384E+02  0.1819334E+02  0.9355198E+03
Ar  322  0.9840840E+01  0.2268363E+02  0.1524880E+02  0.1985178E+02
Ar  323  0.9309676E+01  0.2205291E+02  0.1872727E+02  0.4063821E+03
Ar  324  0.8649660E+01  0.2578575E+02  0.1707786E+02  0.7250669E+03
Ar  325  0.2807147E+01  0.2047040E+02  0.2046534E+02  0.2358127E+03
Ar  326  0.5795178E+01  0.2232546E+02  0.2237761E+02  0.1640327E+03
Ar  327  0.5903656E+01  0.2125308E+02  0.1906987E+02  0.4951329E+03
Ar  328  0.3700717E+01  0.2294167E+02  0.2524205E+02  0.1208564E+03
Ar  329  0.9804421E+01  0.2229708E+02  0.2903783E+02  0.3804004E+03
Ar  330  0.7994590E+01  0.2360643E+02  0.2555445E+02  0.3360777E+03
Ar  331  0.5045973E+01  0.2330638E+02  0.3337027E+02  0.7292157E+03
Ar  332  0.3651493E+02  0.2322514E+02  0.2786911E+02  0.9062858E+03
Ar  333  0.2840998E+01  0.2172497E+02  0.3622307E+02  0.2116538E+03
Ar  334  0.4284697E+01  0.2560000E+02  0.3667189E+02  0.1382193E+03
Ar  335  0.1288795E+02  0.1993346E+02  0.3117448E+02  0.2181605E+03
Ar  336  0.6001935E+01  0.2286451E+02  0.3684143E+02  0.2277553E+03
Ar  337  0.5455837E+01  0.2367025E+02  0.2592466E+01  0.1328306E+04
Ar  338  0.9839551E+01  0.3498790E+02  0.8166380E+00  0.4476087E+03
Ar  339  0.9795475E+01  0.2743846E+02  0.3745545E+02  0.3186794E+03
Ar  340  0.8647737E+01  0.3114626E+02  0.2779730E+01  0.1452388E+02
Ar  341  0.7078854E+01  0.2874989E+02  0.8138142E+00  0.3298482E+03
Ar  342  0.7994349E+01  0.2723438E+02  0.7395127E+01  0.7675072E+03
Ar  343  0.8732418E+01  0.2385895E+02  0.7770185E+01  0.5857541E+03
Ar  344  0.5530994E+01  0.2879990E+02  0.9659316E+01  0.1393325E+03
Ar  345  0.2627204E+01  0.2518197E+02  0.1172373E+02  0.4678880E+02
Ar  346  0.4958639E+01  0.2709005E+02  0.1282355E+02  0.6164909E+03
Ar  347  0.5699231E+01  0.2478019E+02  0.1581061E+02  0.3653904E+03
Ar  348  0.3751019E+02  0.3024448E+02  0.1568825E+02  0.2839995E+03
Ar  349  0.3808907E+01  0.2738292E+02  0.1797810E+02  0.1149940E+04
Ar  350  0.5832361E+01  0.2884105E+02  0.1596255E+02  0.1091063E+04
Ar  351  0.5360161E+01  0.2578899E+02  0.2321881E+02  0.3556793E+03
Ar  352  0.5611334E+01  0.2945708E+02  0.1978448E+02  0.4016997E+03
Ar  353  0.3619216E+01  0.2689279E+02  0.2645075E+02  0.3609395E+03
Ar  354  0.8323047E+01  0.2858439E+02  0.2286936E+02  0.1687766E+03
Ar  355  0.7260061E+01  0.2688656E+02  0.2567771E+02  0.1665163E+03
Ar  356  0.5391698E+01  0.3036096E+02  0.2333740E+02  0.1065034E+03
Ar  357  0.5831298E+01  0.2805985E+02  0.2869160E+02  0.3471427E+03
Ar  358  0.9198795E+01  0.3401520E+02  0.2602087E+02  0.2404418E+02
Ar  359  0.7759009E+01  0.2562756E+02  0.3492125E+02  0.9646451E+02
Ar  360  0.3026140E+01  0.2863243E+02  0.3035779E+02  0.3690013E+03
Ar  361  0.8288349E+00  0.2683935E+02  0.3709116E+02  0.2258360E+03
Ar  362  0.7672629E+01  0.2804026E+02  0.3222012E+02  0.5003670E+03
Ar  363  0.8854331E+01  0.2262848E+02  0.3323862E+02  0.3225882E+03
Ar  364  0.7244587E+01  0.2910998E+02  0.3510867E+02  0.1367010E+03
Ar  365  0.3055664E+01  0.3296413E+02  0.3602222E+02  0.2821036E+03
Ar  366  0.8695557E+01  0.3774507E+02  0.2400816E+01  0.1839986E+03
Ar  367  0.8297383E+01  0.3410609E+02  0.5398708E+01  0.3143534E+03
Ar  368  0.5203454E+01  0.3941548E+00  0.1628261E+01  0.9269326E+03
Ar  369  0.8096233E+01  0.3094265E+02  0.6420071E+01  0.1822205E+03
Ar  370  0.9149446E+01  0.2954535E+02  0.9897790E+01  0.4146425E+03
Ar  371  0.6475809E+01  0.3016065E+02  0.1255575E+02  0.1360255E+03
Ar  372  0.4436696E+01  0.3628742E+02  0.1033897E+02  0.6697599E+03
Ar  373  0.2547293E+01  0.3082172E+02  0.1069177E+02  0.8722732E+02
Ar  374  0.6952795E+01  0.3611588E+02  0.7863745E+01  0.1660291E+03
Ar  375  0.1180345E+02  0.3181771E+02  0.1044012E+02  0.3265723E+03
Ar  376  0.6395542E+01  0.3244454E+02  0.1548104E+02  0.8662002E+03
Ar  377  0.2927728E+01  0.2949768E+02  0.1462709E+02  0.8747545E+03
Ar  378  0.9902175E+01  0.3258597E+02  0.1356826E+02  0.6536525E+03
Ar  379  0.8339271E+01  0.3529138E+02  0.1508634E+02  0.3961612E+02
Ar  380  0.6211669E+01  0.3486334E+02  0.1769236E+02  0.1509248E+03
Ar  381  0.1225612E+01  0.2971056E+02  0.1910127E+02  0.4000674E+03
Ar  382  0.6820365E+01  0.3244428E+02  0.2136273E+02  0.2158124E+03
Ar  383  0.9460085E+01  0.3259115E+02  0.2301707E+02  0.1224014E+03
Ar  384  0.4441019E+01  0.3566315E+02  0.2156896E+02  0.1138439E+03
Ar  385  0.7923826E+01  0.3075487E+02  0.2532111E+02  0.3613616E+03
Ar  386  0.7362801E+01  0.3535095E+02  0.2334374E+02  0.1795348E+03
Ar  387  0.7366748E+01  0.3106439E+02  0.2955514E+02  0.2835002E+03
Ar  388  0.5852564E+01  0.3483815E+02  0.2786776E+02  0.3000791E+03
Ar  389  0.6676623E+01  0.3219223E+02  0.3314831E+02  0.4711041E+03
Ar  390  0.1101542E+02  0.1248736E+00  0.3717041E+02  0.2393769E+03
Ar  391  0.4952944E+01  0.3180849E+02  0.1231191E+01  0.2957172E+03
Ar  392  0.4814184E+01  0.3742020E+02  0.3582404E+02  0.4039565E+03
Ar  393  0.1099669E+02  0.3798663E+01  0.6092663E+01  0.2528648E+03
Ar  394  0.1391074E+02  0.5448139E+01  0.3765480E+02  0.1044387E+04
Ar  395  0.1131175E+02  0.3654504E+02  0.3724019E+01  0.2509192E+03
Ar  396  0.8551573E+01  0.4786838E+01  0.9501293E+00  0.9318301E+02
Ar  397  0.1236243E+02  0.4616638E+00  0.1110122E+02  0.1781496E+03
Ar  398  0.1477782E+02  0.1582547E+01  0.4474308E+01  0.1720329E+03
Ar  399  0.1643681E+02  0.3452797E+02  0.1255666E+02  0.5821377E+03
Ar  400  0.1491544E+02  0.5823076E+01  0.9976501E+01  0.3699704E+03
Ar  401  0.9359660E+01  0.3772869E+02  0.8970784E+01  0.1379841E+03
Ar  402  0.1300810E+02  0.2038057E+01  0.1409958E+02  0.1158931E+03
Ar  403  0.1653502E+02  0.3094258E+01  0.1436813E+02  0.4259388E+03
Ar  404  0.9665695E+01  0.1685611E+01  0.1294001E+02  0.3499435E+03
Ar  405  0.1059482E+02  0.2793982E+00  0.1620496E+02  0.2443156E+03
Ar  406  0.1777495E+02  0.2841757E+01  0.2002473E+02  0.1659488E+03
Ar  407  0.1319666E+02  0.3566401E+02  0.1853863E+02  0.2158165E+03
Ar  408  0.8661964E+01  0.3525817E+01  0.1715250E+02  0.1516621E+03
Ar  409  0.1037819E+02  0.3918537E+01  0.2055413E+02  0.1619949E+03
Ar  410  0.1093249E+02  0.3332947E+00  0.1947761E+02  0.6404993E+02
Ar  411  0.1485838E+02  0.3713721E+02  0.2459220E+02  0.2844289E+03
Ar  412  0.7539058E+01  0.3635850E+01  0.2583589E+02  0.2043724E+03
Ar  413  0.1221449E+02  0.3598044E+02  0.2203516E+02  0.2544538E+03
Ar  414  0.1341297E+02  0.3546708E+02  0.2727295E+02  0.1163601E+03
Ar  415  0.1032428E+02  0.6525034E+00  0.3144868E+02  0.8451081E+03
Ar  416  0.9545366E+01  0.4004200E+01  0.3273350E+02  0.1411947E+03
Ar  417  0.1347405E+02  0.2041071E+01  0.3273239E+02  0.1032379E+03
Ar  418  0.1664011E+02  0.1851998E+01  0.3408251E+02  0.2596613E+03
Ar  419  0.1328640E+02  0.5292950E+01  0.3382680E+02  0.4856694E+03
Ar  420  0.1077382E+02  0.3435964E+01  0.3648690E+02  0.6053960E+03
Ar  421  0.1059843E+02  0.6113152E+01  0.3474881E+01  0.6396066E+03
Ar  422  0.1599021E+02  0.9002093E+01  0.3669274E+02  0.4556340E+03
Ar  423  0.1379505E+02  0.4393646E+01  0.3585209E+01  0.4638298E+02
Ar  424  0.9252625E+01  0.1225741E+02  0.2158017E+01  0.8424967E+02
Ar  425  0.1389223E+02  0.6542288E+01  0.5700832E+01  0.4454500E+03
Ar  426  0.1728592E+02  0.4641422E+01  0.4468837E+01  0.5228678E+02
Ar  427  0.1426495E+02  0.3469694E+01  0.7148691E+01  0.2549690E+03
Ar  428  0.1109506E+02  0.7084060E+01  0.8266191E+01  0.1201027E+03
Ar  429  0.1204489E+02  0.6339346E+01  0.1734528E+02  0.4890677E+03
Ar  430  0.1424727E+02  0.5636399E+01  0.1404411E+02  0.2330131E+03
Ar  431  0.1175959E+02  0.3104605E+01  0.1719917E+02  0.6729921E+02
Ar  432  0.1268972E+02  0.1171859E+02  0.1500846E+02  0.4194415E+03
Ar  433  0.8558333E+01  0.7705980E+01  0.1588258E+02  0.1964670E+03
Ar  434  0.1467672E+02  0.8756328E+01  0.1681687E+02  0.4034252E+03
Ar  435  0.7700407E+01  0.9945017E+01  0.1870502E+02  0.1879362E+03
Ar  436  0.1134437E+02  0.9831296E+01  0.1852824E+02  0.1233893E+04
Ar  437  0.1050961E+02  0.2736735E+01  0.2497266E+02  0.2458059E+03
Ar  438  0.9971803E+01  0.1006228E+02  0.2465482E+02  0.4855654E+03
Ar  439  0.1066527E+02  0.5578183E+01  0.2734404E+02  0.1072973E+04
Ar  440  0.1207795E+02  0.1231567E+02  0.2520781E+02  0.1219567E+03
Ar  441  0.9804970E+01  0.1085395E+01  0.2808445E+02  0.2134152E+03
Ar  442  0.8468811E+01  0.4319860E+01  0.2941917E+02  0.3756141E+03
Ar  443  0.1400542E+02  0.6401024E+01  0.2765902E+02  0.3742455E+03
Ar  444  0.1197548E+02  0.1414863E+02  0.3218796E+02  0.3732583E+03
Ar  445  0.8813055E+01  0.8248227E+01  0.3372285E+02  0.2332984E+02
Ar  446  0.1202029E+02  0.1079615E+02  0.3352538E+02  0.1406889E+03
Ar  447  0.1170407E+02  0.7983693E+01  0.3546320E+02  0.1313619E+02
Ar  448  0.1234660E+02  0.1094372E+02  0.7843272E-01  0.2095237E+03
Ar  449  0.1166952E+02  0.1406555E+02  0.3617420E+02  0.4813261E+03
Ar  450  0.1516283E+02  0.1344162E+02  0.7981468E+00  0.2148346E+03
Ar  451  0.1288052E+02  0.7860952E+01  0.1965399E+01  0.2645938E+03
Ar  452  0.1333060E+02  0.1542025E+02  0.4829619E+01  0.2525828E+03
Ar  453  0.1298396E+02  0.1249714E+02  0.3061530E+01  0.2475804E+03
Ar  454  0.1259752E+02  0.1149720E+02  0.1072267E+02  0.6014810E+03
Ar  455  0.1150458E+02  0.1209414E+02  0.6456410E+01  0.2657922E+03
Ar  456  0.7789151E+01  0.1770054E+02  0.6514430E+01  0.1005638E+04
Ar  457  0.1546673E+02  0.1108742E+02  0.1234667E+02  0.1130929E+03
Ar  458  0.1694653E+02  0.1204158E+02  0.9131515E+01  0.2179813E+03
Ar  459  0.1927267E+02  0.1103685E+02  0.1138885E+02  0.3873237E+03
Ar  460  0.1421975E+02  0.1413826E+02  0.1288118E+02  0.6219609E+03
Ar  461  0.5517001E+01  0.1869249E+02  0.1690225E+02  0.1271429E+03
Ar  462  0.7816066E+01  0.1590050E+02  0.1744271E+02  0.1847501E+03
Ar  463  0.1131978E+02  0.1096161E+02  0.2178401E+02  0.2684175E+03
Ar  464  0.1303754E+02  0.1670584E+02  0.1684155E+02  0.5431166E+03
Ar  465  0.1344047E+02  0.1297700E+02  0.1854214E+02  0.4854109E+03
Ar  466  0.1645481E+02  0.1346122E+02  0.2127965E+02  0.2507387E+03
Ar  467  0.1558216E+02  0.1073104E+02  0.2413336E+02  0.5567069E+02
Ar  468  0.9514014E+01  0.1394263E+02  0.2034090E+02  0.2800990E+03
Ar  469  0.6456899E+01  0.1474606E+02  0.2175053E+02  0.4806995E+03
Ar  470  0.1532915E+02  0.1407100E+02  0.2482464E+02  0.1712772E+03
Ar  471  0.1361605E+02  0.1673453E+02  0.3015562E+02  0.2824490E+03
Ar  472  0.1039724E+02  0.1547227E+02  0.2802924E+02  0.4402564E+03
Ar  473  0.8584150E+01  0.1408972E+02  0.3366250E+02  0.1530137E+03
Ar  474  0.1527858E+02  0.1053789E+02  0.3276638E+02  0.4954341E+03
Ar  475  0.1459087E+02  0.1301730E+02  0.3517213E+02  0.3573417E+03
Ar  476  0.9105713E+01  0.1683900E+02  0.3593342E+02  0.3524829E+03
Ar  477  0.1253844E+02  0.1694135E+02  0.3362090E+02  0.1636456E+03
Ar  478  0.1356337E+02  0.1949298E+02  0.3532542E+02  0.1453083E+04
Ar  479  0.1600306E+02  0.1602456E+02  0.3659254E+02  0.9198039E+02
Ar  480  0.1101608E+02  0.1515173E+02  0.1816803E+01  0.1391467E+03
Ar  481  0.1033787E+02  0.1850621E+02  0.4053702E+01  0.1064266E+03
Ar  482  0.1441131E+02  0.1808196E+02  0.6906943E+01  0.3795404E+02
Ar  483  0.1387975E+02  0.1454874E+02  0.8750357E+01  0.2309880E+03
Ar  484  0.1264996E+02  0.1988289E+02  0.8992032E+01  0.2914879E+03
Ar  485  0.1397887E+02  0.1780238E+02  0.1112474E+02  0.2212665E+03
Ar  486  0.1667997E+02  0.1614790E+02  0.9882992E+01  0.1146797E+04
Ar  487  0.1964022E+02  0.1497773E+02  0.1159129E+02  0.7520645E+03
Ar  488  0.9724677E+01  0.1863168E+02  0.1066656E+02  0.2150705E+03
Ar  489  0.1145923E+02  0.1874702E+02  0.1392106E+02  0.6219939E+02
Ar  490  0.1638214E+02  0.1702446E+02  0.1411531E+02  0.4554259E+03
Ar  491  0.1135451E+02  0.1585053E+02  0.1142786E+02  0.7097695E+03
Ar  492  0.1171057E+02  0.1998613E+02  0.1829987E+02  0.1582747E+03
Ar  493  0.1618992E+02  0.1752636E+02  0.1785537E+02  0.2191640E+03
Ar  494  0.1039639E+02  0.1722673E+02  0.2265106E+02  0.3719653E+03
Ar  495  0.1810236E+02  0.1586820E+02  0.2454433E+02  0.1027129E+03
Ar  496  0.1497793E+02  0.1755336E+02  0.2271342E+02  0.3818994E+03
Ar  497  0.1292689E+02  0.1998483E+02  0.2438996E+02  0.5324543E+02
Ar  498  0.1510579E+02  0.1670820E+02  0.2697071E+02  0.4094560E+03
Ar  499  0.1066198E+02  0.1953975E+02  0.3375941E+02  0.1741397E+03
Ar  500  0.1235244E+02  0.1565593E+02  0.2468877E+02  0.4369324E+03
Ar  501  0.1048002E+02  0.1753070E+02  0.3080923E+02  0.1680157E+03
Ar  502  0.1643478E+02  0.1882390E+02  0.3134922E+02  0.1259120E+03
Ar  503  0.1833321E+02  0.1065869E+02  0.3450737E+02  0.2832451E+03
Ar  504  0.1305640E+02  0.1665497E+02  0.3738437E+02  0.1532966E+03
Ar  505  0.1166085E+02  0.2421875E+02  0.2179065E+01  0.2730376E+03
Ar  506  0.1442269E+02  0.2517964E+02  0.1519617E+00  0.4959824E+02
Ar  507  0.1579612E+02  0.1953896E+02  0.4486687E+00  0.1060698E+04
Ar  508  0.1287936E+02  0.2946387E+02  0.2714806E+01  0.1849144E+03
Ar  509  0.1280423E+02  0.2029581E+02  0.2877662E+01  0.2220777E+03
Ar  510  0.1525487E+02  0.2632011E+02  0.3894631E+01  0.3491783E+03
Ar  511  0.1498610E+02  0.2293044E+02  0.9142457E+01  0.2017363E+03
Ar  512  0.1174647E+02  0.2552147E+02  0.5269302E+01  0.6669525E+02
Ar  513  0.1188796E+02  0.2360239E+02  0.8679701E+01  0.3183828E+03
Ar  514  0.1471675E+02  0.2627104E+02  0.9804725E+01  0.3356982E+03
Ar  515  0.1446540E+02  0.1978890E+02  0.1588977E+02  0.1786968E+03
Ar  516  0.1208199E+02  0.2525462E+02  0.1159946E+02  0.1776785E+03
Ar  517  0.1303444E+02  0.2158270E+02  0.1183177E+02  0.1170708E+03
Ar  518  0.1663171E+02  0.2415126E+02  0.1267457E+02  0.5949670E+03
Ar  519  0.1407451E+02  0.2191260E+02  0.1927980E+02  0.1221611E+03
Ar  520  0.1061959E+02  0.2628282E+02  0.2133030E+02  0.1764319E+03
Ar  521  0.7991928E+01  0.2011252E+02  0.2372049E+02  0.5333372E+03
Ar  522  0.1598064E+02  0.2250101E+02  0.2329273E+02  0.2165163E+01
Ar  523  0.1301047E+02  0.2358946E+02  0.2595989E+02  0.2323314E+03
Ar  524  0.1075743E+02  0.2655169E+02  0.2505506E+02  0.6341738E+03
Ar  525  0.1056239E+02  0.2184713E+02  0.2537105E+02  0.3085514E+03
Ar  526  0.1525776E+02  0.2509604E+02  0.3101906E+02  0.1157647E+03
Ar  527  0.1157594E+02  0.1877602E+02  0.2758385E+02  0.7100123E+03
Ar  528  0.7063164E+01  0.2472306E+02  0.3104008E+02  0.6562600E+02
Ar  529  0.1310635E+02  0.2308308E+02  0.2971040E+02  0.2432133E+03
Ar  530  0.1417817E+02  0.2653348E+02  0.3373955E+02  0.9154171E+02
Ar  531  0.1343740E+02  0.2203730E+02  0.3757200E+02  0.3179536E+03
Ar  532  0.1167310E+02  0.2485372E+02  0.3573309E+02  0.1453807E+03
Ar  533  0.7222312E+01  0.3203493E+02  0.3677617E+02  0.4070005E+03
Ar  534  0.1327392E+02  0.2900415E+02  0.3609744E+02  0.4324450E+03
Ar  535  0.1560441E+02  0.2830328E+02  0.4566090E+00  0.5333285E+03
Ar  536  0.1076155E+02  0.3134581E+02  0.3729757E+02  0.5726603E+03
Ar  537  0.9300015E+01  0.2760224E+02  0.3648784E+01  0.2871126E+02
Ar  538  0.1699758E+02  0.2853552E+02  0.7469765E+01  0.3309670E+03
Ar  539  0.1613186E+02  0.2473631E+02  0.6921465E+01  0.7100314E+02
Ar  540  0.1149008E+02  0.2715745E+02  0.9011074E+01  0.2065686E+03
Ar  541  0.8366006E+01  0.2653824E+02  0.1045239E+02  0.1081207E+04
Ar  542  0.1123533E+02  0.2840302E+02  0.1228847E+02  0.2208167E+03
Ar  543  0.1499031E+02  0.2727992E+02  0.1340401E+02  0.3782536E+03
Ar  544  0.8433494E+01  0.2566983E+02  0.1371949E+02  0.6563338E+03
Ar  545  0.1316885E+02  0.2362604E+02  0.1483099E+02  0.6874443E+02
Ar  546  0.1169540E+02  0.2654498E+02  0.1507469E+02  0.2127682E+03
Ar  547  0.1481133E+02  0.2540554E+02  0.1757113E+02  0.3406425E+03
Ar  548  0.8974438E+01  0.2361802E+02  0.2214266E+02  0.2644185E+03
Ar  549  0.1159113E+02  0.2912422E+02  0.2149285E+02  0.4031460E+03
Ar  550  0.8891299E+01  0.3273104E+02  0.1793435E+02  0.1694196E+03
Ar  551  0.1440591E+02  0.2932006E+02  0.2405756E+02  0.1887544E+03
Ar  552  0.9255765E+01  0.2935569E+02  0.1915952E+02  0.5547645E+03
Ar  553  0.1124942E+02  0.2568021E+02  0.2831418E+02  0.1152857E+04
Ar  554  0.9356340E+01  0.2875903E+02  0.2786708E+02  0.1366768E+03
Ar  555  0.1080661E+02  0.2530504E+02  0.3235551E+02  0.6226742E+03
Ar  556  0.8397363E+01  0.3449699E+02  0.3160640E+02  0.3846788E+03
Ar  557  0.1067248E+02  0.2833599E+02  0.3422642E+02  0.3843675E+03
Ar  558  0.9690478E+01  0.3094954E+02  0.3235972E+02  0.5152136E+03
Ar  559  0.1355807E+02  0.3148090E+02  0.3209961E+02  0.5805856E+03
Ar  560  0.1213613E+02  0.3274790E+02  0.3488599E+02  0.7126944E+03
Ar  561  0.8040730E+01  0.3556759E+02  0.3501432E+02  0.1124555E+04
Ar  562  0.1400376E+02  0.1748035E+01  0.3651419E+02  0.2602971E+03
Ar  563  0.1482412E+02  0.3684155E+02  0.3349491E+02  0.2133876E+03
Ar  564  0.1176044E+02  0.3407231E+02  0.6153419E+01  0.6218529E+03
Ar  565  0.1486904E+02  0.3342857E+02  0.9789358E+01  0.6115892E+03
Ar  566  0.1506497E+02  0.3625412E+02  0.7408763E+01  0.3347749E+03
Ar  567  0.1454777E+02  0.3492195E+02  0.4125768E+01  0.1464813E+03
Ar  568  0.1419518E+02  0.3174836E+02  0.5447479E+01  0.2774030E+03
Ar  569  0.1168204E+02  0.3516402E+02  0.9671108E+01  0.6568364E+03
Ar  570  0.1445100E+02  0.2969386E+02  0.9002009E+01  0.5187652E+03
Ar  571  0.1223635E+02  0.3008520E+02  0.1474407E+02  0.7548735E+03
Ar  572  0.7564321E+01  0.3432158E+02  0.1159290E+02  0.4850284E+03
Ar  573  0.8825048E+01  0.2951377E+02  0.1447802E+02  0.1789373E+03
Ar  574  0.1439046E+02  0.3564909E+00  0.1656889E+02  0.2539019E+03
Ar  575  0.1250840E+02  0.3225890E+02  0.1769637E+02  0.1850892E+02
Ar  576  0.9070624E+01  0.3481521E+02  0.2048634E+02  0.6260518E+02
Ar  577  0.1171590E+02  0.3459766E+02  0.1545792E+02  0.1042437E+04
Ar  578  0.1962418E+02  0.3289174E+02  0.2488521E+02  0.1494862E+03
Ar  579  0.1590763E+02  0.3547372E+02  0.2156399E+02  0.5633755E+03
Ar  580  0.1210573E+02  0.3227130E+02  0.2075835E+02  0.1889006E+03
Ar  581  0.1105779E+02  0.3002648E+02  0.2504331E+02  0.4195694E+03
Ar  582  0.1262818E+02  0.3378389E+02  0.2470535E+02  0.1881460E+03
Ar  583  0.1078029E+02  0.3153679E+02  0.2924515E+02  0.8913789E+01
Ar  584  0.9920406E+01  0.3559219E+02  0.2876620E+02  0.4745668E+03
Ar  585  0.1096361E+02  0.3570883E+02  0.3424224E+02  0.1827492E+03
Ar  586  0.1655702E+02  0.3581173E+02  0.3736462E+02  0.8220996E+02
Ar  587  0.1306852E+02  0.3475189E+02  0.3137178E+02  0.1917711E+03
Ar  588  0.1107590E+02  0.2493142E+01  0.1948476E+01  0.6773002E+03
Ar  589  0.1633044E+02  0.4471193E+01  0.3603991E+02  0.8644886E+02
Ar  590  0.2505313E+02  0.5866746E+01  0.1923366E+01  0.1358657E+03
Ar  591  0.1958503E+02  0.3936656E+01  0.3453365E+02  0.1083280E+04
Ar  592  0.1951873E+02  0.2135536E+01  0.3670801E+01  0.8633313E+02
Ar  593  0.1381707E+02  0.3719828E+02  0.1466479E+01  0.3751361E+03
Ar  594  0.1770751E+02  0.3721067E+00  0.6154039E+01  0.9737759E+02
Ar  595  0.2013848E+02  0.7016920E+00  0.9371003E+01  0.2419619E+03
Ar  596  0.1707000E+02  0.3770287E+02  0.1075573E+02  0.6277748E+03
Ar  597  0.1735366E+02  0.3695809E+02  0.1575363E+02  0.8503789E+03
Ar  598  0.1771721E+02  0.2630328E+01  0.8692949E+01  0.1952700E+03
Ar  599  0.1948220E+02  0.3607187E+02  0.1207883E+02  0.1689618E+03
Ar  600  0.1031642E+02  0.4863416E+01  0.1437982E+02  0.4389057E+03
Ar  601  0.1880211E+02  0.3719587E+02  0.1953875E+02  0.6470116E+02
Ar  602  0.1883572E+02  0.2022319E+01  0.1698849E+02  0.3046017E+03
Ar  603  0.2112472E+02  0.1880131E+01  0.1984821E+02  0.2707962E+03
Ar  604  0.1275407E+02  0.1659388E+01  0.2257408E+02  0.7637951E+03
Ar  605  0.1540130E+02  0.7149024E+00  0.1990451E+02  0.2780163E+02
Ar  606  0.2008191E+02  0.1167861E+01  0.2714954E+02  0.1505493E+03
Ar  607  0.2285420E+02  0.2516599E+01  0.2580036E+02  0.1543862E+03
Ar  608  0.1413714E+02  0.2530585E+01  0.2641962E+02  0.2770290E+03
Ar  609  0.1621093E+02  0.1155910E+00  0.2800576E+02  0.2853800E+03
Ar  610  0.1517318E+02  0.3161520E+01  0.2975861E+02  0.5836671E+03
Ar  611  0.2100925E+02  0.1735193E+00  0.3024177E+02  0.4792605E+03
Ar  612  0.1210877E+02  0.4544098E+01  0.3035677E+02  0.3783081E+03
Ar  613  0.1780580E+02  0.9999190E+00  0.3067260E+02  0.5500112E+03
Ar  614  0.1755685E+02  0.6536077E+01  0.2874011E+02  0.1791942E+03
Ar  615  0.2167748E+02  0.3578853E+02  0.3463972E+02  0.7215872E+03
Ar  616  0.2011660E+02  0.6171992E+00  0.3326625E+02  0.1394845E+02
Ar  617  0.1686849E+02  0.5215032E+01  0.3148315E+02  0.7337150E+02
Ar  618  0.2259213E+02  0.1003977E+02  0.4333643E+01  0.4952413E+03
Ar  619  0.2210701E+02  0.6294015E+01  0.3606627E+02  0.5076628E+03
Ar  620  0.1624269E+02  0.7136815E+01  0.2532201E+01  0.8574446E+03
Ar  621  0.2228781E+02  0.8362093E+01  0.1278694E+01  0.8404831E+02
Ar  622  0.1977346E+02  0.6740546E+01  0.3324946E+01  0.1201189E+04
Ar  623  0.2036183E+02  0.5315783E+01  0.6621092E+01  0.5214126E+03
Ar  624  0.1463224E+02  0.9451059E+01  0.8987795E+01  0.7747008E+03
Ar  625  0.1813761E+02  0.5120074E+01  0.1204542E+02  0.7114252E+03
Ar  626  0.2060937E+02  0.4065370E+01  0.1000384E+02  0.6053381E+03
Ar  627  0.1482093E+02  0.2585438E+01  0.1030755E+02  0.1495736E+03
Ar  628  0.1731808E+02  0.6230160E+01  0.1538357E+02  0.3656913E+02
Ar  629  0.1535084E+02  0.4340061E+01  0.1760894E+02  0.1065140E+04
Ar  630  0.1720079E+02  0.7139618E+01  0.1878470E+02  0.2586906E+03
Ar  631  0.1885376E+02  0.5319319E+01  0.2183875E+02  0.8098798E+02
Ar  632  0.1367911E+02  0.4181687E+01  0.2058477E+02  0.5078016E+03
Ar  633  0.1212691E+02  0.7429741E+01  0.2146963E+02  0.1786644E+03
Ar  634  0.1767345E+02  0.9397656E+01  0.2213393E+02  0.5094285E+03
Ar  635  0.1314817E+02  0.8214329E+01  0.2476922E+02  0.2652233E+03
Ar  636  0.1334872E+02  0.4854267E+01  0.2427996E+02  0.2620413E+03
Ar  637  0.1824528E+02  0.3899504E+01  0.2567915E+02  0.8394390E+02
Ar  638  0.1101040E+02  0.8812939E+01  0.2772119E+02  0.6531775E+02
Ar  639  0.2032902E+02  0.3965656E+01  0.2968695E+02  0.1586501E+03
Ar  640  0.9225236E+01  0.1057336E+02  0.3140932E+02  0.3593474E+03
Ar  641  0.1054239E+02  0.7422161E+01  0.3090540E+02  0.3029910E+03
Ar  642  0.1257713E+02  0.1061149E+02  0.3032691E+02  0.4411174E+03
Ar  643  0.1960946E+02  0.8182147E+01  0.3731047E+02  0.6541632E+02
Ar  644  0.1679436E+02  0.7826584E+01  0.3354543E+02  0.1462999E+03
Ar  645  0.1660906E+02  0.1051510E+02  0.2662720E+01  0.4018776E+03
Ar  646  0.1792274E+02  0.1459560E+02  0.2741511E+01  0.2200731E+03
Ar  647  0.1687885E+02  0.6184886E+01  0.7311523E+01  0.3951815E+03
Ar  648  0.1564923E+02  0.1660494E+02  0.2412832E+01  0.1702650E+03
Ar  649  0.1395825E+02  0.9796406E+01  0.5556177E+01  0.3613608E+02
Ar  650  0.1986888E+02  0.1720447E+02  0.4533027E+01  0.8246459E+02
Ar  651  0.2030518E+02  0.9750774E+01  0.7410365E+01  0.3330951E+03
Ar  652  0.1535275E+02  0.1292375E+02  0.6166505E+01  0.2441057E+03
Ar  653  0.1739548E+02  0.8822930E+01  0.5724366E+01  0.5161672E+02
Ar  654  0.2133257E+02  0.1269048E+02  0.9417458E+01  0.1827000E+03
Ar  655  0.1946771E+02  0.7558975E+01  0.9779878E+01  0.2011703E+03
Ar  656  0.1974017E+02  0.7669818E+01  0.1369565E+02  0.7334936E+03
Ar  657  0.1699233E+02  0.8157295E+01  0.1173686E+02  0.9740462E+02
Ar  658  0.1748895E+02  0.1010490E+02  0.1460676E+02  0.5289519E+03
Ar  659  0.1475672E+02  0.1018047E+02  0.2020471E+02  0.6252790E+03
Ar  660  0.1828700E+02  0.1416706E+02  0.1864808E+02  0.1997707E+03
Ar  661  0.1549028E+02  0.6722722E+01  0.2159824E+02  0.9207030E+02
Ar  662  0.1613092E+02  0.6449563E+01  0.2486893E+02  0.5561187E+03
Ar  663  0.1865346E+02  0.1226309E+02  0.2394106E+02  0.1785707E+03
Ar  664  0.2051226E+02  0.1454650E+02  0.2137674E+02  0.2026579E+03
Ar  665  0.1481599E+02  0.1020423E+02  0.2768165E+02  0.1999655E+03
Ar  666  0.1721041E+02  0.9809711E+01  0.2986433E+02  0.1681776E+03
Ar  667  0.1438595E+02  0.7572392E+01  0.3097641E+02  0.1387050E+03
Ar  668  0.1483642E+02  0.1311927E+02  0.3079555E+02  0.1554647E+03
Ar  669  0.1890343E+02  0.1276827E+02  0.3188383E+02  0.6954263E+03
Ar  670  0.2162454E+02  0.1069653E+02  0.3111435E+02  0.4542558E+03
Ar  671  0.2176087E+02  0.9788982E+01  0.3460385E+02  0.4818529E+03
Ar  672  0.2081776E+02  0.1304067E+02  0.3482329E+02  0.8650115E+03
Ar  673  0.1597217E+02  0.1593440E+02  0.3304695E+02  0.1038783E+03
Ar  674  0.2056284E+02  0.2075985E+02  0.3673978E+02  0.6454085E+03
Ar  675  0.2444294E+02  0.1308067E+02  0.8727896E+00  0.3858952E+02
Ar  676  0.1636587E+02  0.1943363E+02  0.3980610E+01  0.3644685E+03
Ar  677  0.1684277E+02  0.1597004E+02  0.6019737E+01  0.2894302E+03
Ar  678  0.1908761E+02  0.1835693E+02  0.1425919E+01  0.5462222E+03
Ar  679  0.1849427E+02  0.2007210E+02  0.6411506E+01  0.2545272E+03
Ar  680  0.1646077E+02  0.1968028E+02  0.9097165E+01  0.1283115E+03
Ar  681  0.1892163E+02  0.1239967E+02  0.6208558E+01  0.5539199E+03
Ar  682  0.1936636E+02  0.1849659E+02  0.1089548E+02  0.1038633E+03
Ar  683  0.2160620E+02  0.1559480E+02  0.1465437E+02  0.5899483E+02
Ar  684  0.1823379E+02  0.1942455E+02  0.1544030E+02  0.6281215E+03
Ar  685  0.1536424E+02  0.1432751E+02  0.1623432E+02  0.2497722E+03
Ar  686  0.2006734E+02  0.1686965E+02  0.1706273E+02  0.5711081E+03
Ar  687  0.1915940E+02  0.1338760E+02  0.1485151E+02  0.5194963E+02
Ar  688  0.1094899E+02  0.2046562E+02  0.2181453E+02  0.6737358E+03
Ar  689  0.1310491E+02  0.1810412E+02  0.2004784E+02  0.1712635E+03
Ar  690  0.1787605E+02  0.1666578E+02  0.2103746E+02  0.7982891E+03
Ar  691  0.1845092E+02  0.1225836E+02  0.2770766E+02  0.4373396E+03
Ar  692  0.1750240E+02  0.1919724E+02  0.2495360E+02  0.5620726E+02
Ar  693  0.1356340E+02  0.1373350E+02  0.2789308E+02  0.3401696E+03
Ar  694  0.2150653E+02  0.1776153E+02  0.2707303E+02  0.2320769E+03
Ar  695  0.1853861E+02  0.1854968E+02  0.2874344E+02  0.1686356E+03
Ar  696  0.1478185E+02  0.2064301E+02  0.2769429E+02  0.4223111E+03
Ar  697  0.1703341E+02  0.1555953E+02  0.2993600E+02  0.4222223E+03
Ar  698  0.2029670E+02  0.2579160E+02  0.7323170E-01  0.1088288E+03
Ar  699  0.1981450E+02  0.1622338E+02  0.3327517E+02  0.6215776E+03
Ar  700  0.1663716E+02  0.2306876E+02  0.3689576E+02  0.1032506E+03
Ar  701  0.1934678E+02  0.2261655E+02  0.1525019E+01  0.5500270E+03
Ar  702  0.1729679E+02  0.2530444E+02  0.3421583E+02  0.1116544E+03
Ar  703  0.1817815E+02  0.2345129E+02  0.4659848E+01  0.7938051E+03
Ar  704  0.1530116E+02  0.2230563E+02  0.2495614E+01  0.9308602E+03
Ar  705  0.1464975E+02  0.2173610E+02  0.5894098E+01  0.2406566E+02
Ar  706  0.1931892E+02  0.2791658E+02  0.4767805E+01  0.2773750E+03
Ar  707  0.2143309E+02  0.2322350E+02  0.6521460E+01  0.3212083E+03
Ar  708  0.1837196E+02  0.2278822E+02  0.9848395E+01  0.1684081E+03
Ar  709  0.2109816E+02  0.2080851E+02  0.8686413E+01  0.2544012E+03
Ar  710  0.1717239E+02  0.2889627E+02  0.1089328E+02  0.8417553E+02
Ar  711  0.1988215E+02  0.2456110E+02  0.1231636E+02  0.1234444E+03
Ar  712  0.1623989E+02  0.2009710E+02  0.1228173E+02  0.2816520E+03
Ar  713  0.1653912E+02  0.2257219E+02  0.1654155E+02  0.2346934E+03
Ar  714  0.2205488E+02  0.2157875E+02  0.1850114E+02  0.3818866E+03
Ar  715  0.1707185E+02  0.2348053E+02  0.1979064E+02  0.5097320E+02
Ar  716  0.1168505E+02  0.2433838E+02  0.1808627E+02  0.2167075E+03
Ar  717  0.1711399E+02  0.2388488E+02  0.2719943E+02  0.4440773E+03
Ar  718  0.1631304E+02  0.2583168E+02  0.2168415E+02  0.5884688E+03
Ar  719  0.1907615E+02  0.2113073E+02  0.2171959E+02  0.4474849E+03
Ar  720  0.1375052E+02  0.2605495E+02  0.2395263E+02  0.8141983E+02
Ar  721  0.1593072E+02  0.2222737E+02  0.3350841E+02  0.2843211E+03
Ar  722  0.1626963E+02  0.2227547E+02  0.3020452E+02  0.5226297E+03
Ar  723  0.1943515E+02  0.2237240E+02  0.2950566E+02  0.4452087E+03
Ar  724  0.1329567E+02  0.2942963E+02  0.2784961E+02  0.5084739E+03
Ar  725  0.1922069E+02  0.2286520E+02  0.3441292E+02  0.5207683E+03
Ar  726  0.1836466E+02  0.2803416E+02  0.3290972E+02  0.1120345E+03
Ar  727  0.1856036E+02  0.2864023E+02  0.3625009E+02  0.4802615E+03
Ar  728  0.1247526E+02  0.2261520E+02  0.3317529E+02  0.9377714E+02
Ar  729  0.1284694E+02  0.3510015E+02  0.3702291E+02  0.7346851E+03
Ar  730  0.1392829E+02  0.3166955E+02  0.4955117E+00  0.3337648E+02
Ar  731  0.1732239E+02  0.2531808E+02  0.1598190E+01  0.6827005E+02
Ar  732  0.1136423E+02  0.3045968E+02  0.6774727E+01  0.5017505E+03
Ar  733  0.1340677E+02  0.2834188E+02  0.6107254E+01  0.7675060E+03
Ar  734  0.1895219E+02  0.3143184E+02  0.4833289E+01  0.2827672E+03
Ar  735  0.2308220E+02  0.3058805E+02  0.1071892E+02  0.6898821E+03
Ar  736  0.2023384E+02  0.2940222E+02  0.7926936E+01  0.8246318E+03
Ar  737  0.1824116E+02  0.2997513E+02  0.1441860E+02  0.7902597E+03
Ar  738  0.2115269E+02  0.2772988E+02  0.1120653E+02  0.1821818E+03
Ar  739  0.2121386E+02  0.2788783E+02  0.1478012E+02  0.2214900E+03
Ar  740  0.1765710E+02  0.2600314E+02  0.1576692E+02  0.1924377E+03
Ar  741  0.2004798E+02  0.2491686E+02  0.1905402E+02  0.2977947E+03
Ar  742  0.2131116E+02  0.3140714E+02  0.1563443E+02  0.3204039E+03
Ar  743  0.1414338E+02  0.2772952E+02  0.2022883E+02  0.2171313E+02
Ar  744  0.1176903E+02  0.2801668E+02  0.1794952E+02  0.2129400E+03
Ar  745  0.1247411E+02  0.2350599E+02  0.2146465E+02  0.3022038E+03
Ar  746  0.2213876E+02  0.3377628E+02  0.2226837E+02  0.2491641E+03
Ar  747  0.1638630E+02  0.3000615E+02  0.2678022E+02  0.8632129E+03
Ar  748  0.1666060E+02  0.3264918E+02  0.2366463E+02  0.3859578E+03
Ar  749  0.1406061E+02  0.3244796E+02  0.2913938E+02  0.3844312E+03
Ar  750  0.2003221E+02  0.2886391E+02  0.2757639E+02  0.7676978E+02
Ar  751  0.1830446E+02  0.2622366E+02  0.2961488E+02  0.2552348E+03
Ar  752  0.1216085E+02  0.2857350E+02  0.3086322E+02  0.2435445E+03
Ar  753  0.1500066E+02  0.2624266E+02  0.2778158E+02  0.2728914E+03
Ar  754  0.1951666E+02  0.3038724E+02  0.3092756E+02  0.1575644E+03
Ar  755  0.1575822E+02  0.3001518E+02  0.3425795E+02  0.3724869E+03
Ar  756  0.1587556E+02  0.2862418E+02  0.3073201E+02  0.8464399E+03
Ar  757  0.1556615E+02  0.3320859E+02  0.3506831E+02  0.9099903E+02
Ar  758  0.1648398E+02  0.2106607E+01  0.1023556E+01  0.5213278E+03
Ar  759  0.1987107E+02  0.3463320E+02  0.3733216E+02  0.1430702E+02
Ar  760  0.1673235E+02  0.3693443E+02  0.2876114E+01  0.4435916E+03
Ar  761  0.1182190E+02  0.3318335E+02  0.2608918E+01  0.4250716E+03
Ar  762  0.2007743E+02  0.3678777E+02  0.2714538E+01  0.1068900E+03
Ar  763  0.1731349E+02  0.3196838E+02  0.7795978E+01  0.1414638E+03
Ar  764  0.1838921E+02  0.3504500E+02  0.8574539E+01  0.3151454E+03
Ar  765  0.1452202E+02  0.3067888E+02  0.1216245E+02  0.9618695E+03
Ar  766  0.1884901E+02  0.3404545E+02  0.1522713E+02  0.1967397E+03
Ar  767  0.1784283E+02  0.3158318E+02  0.1766862E+02  0.9920429E+02
Ar  768  0.1437107E+02  0.3677266E+02  0.1346647E+02  0.2006229E+03
Ar  769  0.1528461E+02  0.2869820E+02  0.1665278E+02  0.1462001E+03
Ar  770  0.1946319E+02  0.3585651E+02  0.2231379E+02  0.5015464E+03
Ar  771  0.1551873E+02  0.3241296E+02  0.1522765E+02  0.7153450E+03
Ar  772  0.1282804E+02  0.3382550E+02  0.1259385E+02  0.2278961E+03
Ar  773  0.1548094E+02  0.3161781E+02  0.2029616E+02  0.8727733E+02
Ar  774  0.2532314E+02  0.3365610E+02  0.2646896E+02  0.8849487E+03
Ar  775  0.1705566E+02  0.2930561E+02  0.2214221E+02  0.5466868E+03
Ar  776  0.1646365E+02  0.3408609E+02  0.2700527E+02  0.8348897E+02
Ar  777  0.1699088E+02  0.3542540E+02  0.3030756E+02  0.1868475E+03
Ar  778  0.2184642E+02  0.3516744E+02  0.2566939E+02  0.4412933E+01
Ar  779  0.1866524E+02  0.3204004E+02  0.2830308E+02  0.7355639E+03
Ar  780  0.1933910E+02  0.3580013E+02  0.2816906E+02  0.5858957E+03
Ar  781  0.1681573E+02  0.3216022E+02  0.3123228E+02  0.3503189E+03
Ar  782  0.2044447E+02  0.3364549E+02  0.3098552E+02  0.3359113E+03
Ar  783  0.2271807E+02  0.3053109E+02  0.2971129E+02  0.4622588E+03
Ar  784  0.1356331E+02  0.1206412E+00  0.2933860E+02  0.5460834E+03
Ar  785  0.1840811E+02  0.5107816E+01  0.9620911E+00  0.8292152E+03
Ar  786  0.2832783E+02  0.3639427E+01  0.2977277E+01  0.1859247E+03
Ar  787  0.2287374E+02  0.3686027E+02  0.8436466E+00  0.4586130E+03
Ar  788  0.2122000E+02  0.3727341E+02  0.6326303E+01  0.5057909E+03
Ar  789  0.1745070E+02  0.3461343E+02  0.5252668E+01  0.1166561E+03
Ar  790  0.2120437E+02  0.2040772E+01  0.4422481E+00  0.2151738E+03
Ar  791  0.2422306E+02  0.3669265E+02  0.1236013E+02  0.1399993E+03
Ar  792  0.2201954E+02  0.3422499E+02  0.5497321E+01  0.5767361E+03
Ar  793  0.2123788E+02  0.3697531E+02  0.1524871E+02  0.5511447E+03
Ar  794  0.2251815E+02  0.2502258E+01  0.1286019E+02  0.2353629E+03
Ar  795  0.2562996E+02  0.3733991E+02  0.1562288E+02  0.6019011E+02
Ar  796  0.2024896E+02  0.4256096E+01  0.1467651E+02  0.2471610E+03
Ar  797  0.2017467E+02  0.3416876E+02  0.1833809E+02  0.3355501E+03
Ar  798  0.2180554E+02  0.4293038E+01  0.2336636E+02  0.9713407E+02
Ar  799  0.1980177E+02  0.4934047E+01  0.1792783E+02  0.4076791E+03
Ar  800  0.1928955E+02  0.1680388E+01  0.2301292E+02  0.2556343E+03
Ar  801  0.1656916E+02  0.3472711E+02  0.1819533E+02  0.4267781E+03
Ar  802  0.2459837E+02  0.1916641E+01  0.2226174E+02  0.1068914E+03
Ar  803  0.2615429E+02  0.4980760E+01  0.2707543E+02  0.6190646E+03
Ar  804  0.2546429E+02  0.5520794E+01  0.2274199E+02  0.3760487E+03
Ar  805  0.2356607E+02  0.3740351E+02  0.2734276E+02  0.6284294E+02
Ar  806  0.2866213E+02  0.1748231E+01  0.2691041E+02  0.9635993E+03
Ar  807  0.2746060E+02  0.3680535E+02  0.3355445E+02  0.2023786E+03
Ar  808  0.2202883E+02  0.3272308E+01  0.3230369E+02  0.1496103E+03
Ar  809  0.2273043E+02  0.1872325E+01  0.3525213E+02  0.6679905E+03
Ar  810  0.1839320E+02  0.3568048E+02  0.3371174E+02  0.9547860E+02
Ar  811  0.2597502E+02  0.3387292E+02  0.3467143E+02  0.3037219E+03
Ar  812  0.2455050E+02  0.3074800E+01  0.3113913E+00  0.7562196E+03
Ar  813  0.2549900E+02  0.2883414E+01  0.4091152E+01  0.1152973E+03
Ar  814  0.3123549E+02  0.5160233E+01  0.3750594E+01  0.3982561E+03
Ar  815  0.2738420E+02  0.4925937E+01  0.3709876E+02  0.1888242E+03
Ar  816  0.2812580E+02  0.6611906E+01  0.2081928E+01  0.6211085E+03
Ar  817  0.2207257E+02  0.4474904E+01  0.2745022E+01  0.7748465E+03
Ar  818  0.2535754E+02  0.1227455E+02  0.3818968E+01  0.3412996E+03
Ar  819  0.2973024E+02  0.7778495E+01  0.5403389E+01  0.1208526E+03
Ar  820  0.2335708E+02  0.6928174E+01  0.4941595E+01  0.1036647E+03
Ar  821  0.2314959E+02  0.2904600E+01  0.6231436E+01  0.7456432E+02
Ar  822  0.2314962E+02  0.7010417E+01  0.8830289E+01  0.5125961E+03
Ar  823  0.2232276E+02  0.7052724E+01  0.1560060E+02  0.3655284E+03
Ar  824  0.1926124E+02  0.1888155E+01  0.1257821E+02  0.3104635E+03
Ar  825  0.2283017E+02  0.5042911E+01  0.2014963E+02  0.1135992E+01
Ar  826  0.2565003E+02  0.9426641E+01  0.1707192E+02  0.1866770E+03
Ar  827  0.2110144E+02  0.7608503E+01  0.2135846E+02  0.4655026E+03
Ar  828  0.2267054E+02  0.9005141E+01  0.1828426E+02  0.6773729E+02
Ar  829  0.1821929E+02  0.3697166E+02  0.2509208E+02  0.2680798E+03
Ar  830  0.2395250E+02  0.9085643E+01  0.2164221E+02  0.6812685E+03
Ar  831  0.2765738E+02  0.7216529E+01  0.2419171E+02  0.7627655E+03
Ar  832  0.2135458E+02  0.5523880E+01  0.2680870E+02  0.7355049E+02
Ar  833  0.2373611E+02  0.3826515E+01  0.2940827E+02  0.2415000E+03
Ar  834  0.2656475E+02  0.8315458E+01  0.2685412E+02  0.1483138E+03
Ar  835  0.2453570E+02  0.7560629E+00  0.3051114E+02  0.5007745E+03
Ar  836  0.1977223E+02  0.7090295E+01  0.3311674E+02  0.7767557E+02
Ar  837  0.2666095E+02  0.6129297E+01  0.3361135E+02  0.1147529E+04
Ar  838  0.2264678E+02  0.6634704E+01  0.3232147E+02  0.3436265E+03
Ar  839  0.2559220E+02  0.2347097E+01  0.3322356E+02  0.1704556E+03
Ar  840  0.2493468E+02  0.7915569E+01  0.3649351E+02  0.4047288E+03
Ar  841  0.1849085E+02  0.1132449E+02  0.1716866E+00  0.1407921E+02
Ar  842  0.2624527E+02  0.1160740E+02  0.3612584E+02  0.4794032E+03
Ar  843  0.2803494E+02  0.8737551E+01  0.3707353E+02  0.1268185E+03
Ar  844  0.2513411E+02  0.9652118E+01  0.1565635E+01  0.1708094E+03
Ar  845  0.2059758E+02  0.1196013E+02  0.2735031E+01  0.2969382E+02
Ar  846  0.2291183E+02  0.1511639E+02  0.3430736E+01  0.3253750E+03
Ar  847  0.2272391E+02  0.1306007E+02  0.6110472E+01  0.9924508E+03
Ar  848  0.2040408E+02  0.1596721E+02  0.8622492E+01  0.4021624E+03
Ar  849  0.2413834E+02  0.1060516E+02  0.7848863E+01  0.3025021E+03
Ar  850  0.2461430E+02  0.8635777E+01  0.1387352E+02  0.1255512E+04
Ar  851  0.2263784E+02  0.5736800E+01  0.1239699E+02  0.1538689E+04
Ar  852  0.2123079E+02  0.1074127E+02  0.1534468E+02  0.2638631E+03
Ar  853  0.1949920E+02  0.8689081E+01  0.1718724E+02  0.4144871E+03
Ar  854  0.2143942E+02  0.1357009E+02  0.1764536E+02  0.1668693E+03
Ar  855  0.2693206E+02  0.1026628E+02  0.2011600E+02  0.2263590E+03
Ar  856  0.1723758E+02  0.1094604E+02  0.1795167E+02  0.3544007E+03
Ar  857  0.1588718E+02  0.2804483E+01  0.2337802E+02  0.2662415E+03
Ar  858  0.2114546E+02  0.1051225E+02  0.2342188E+02  0.1816232E+03
Ar  859  0.1977787E+02  0.7550856E+01  0.2433621E+02  0.9313807E+03
Ar  860  0.1808656E+02  0.9196916E+01  0.2634096E+02  0.1989132E+03
Ar  861  0.2374091E+02  0.8338760E+01  0.2866813E+02  0.2030677E+03
Ar  862  0.2179957E+02  0.1087127E+02  0.2740827E+02  0.2664235E+03
Ar  863  0.2773263E+02  0.1075626E+02  0.3029416E+02  0.4605174E+03
Ar  864  0.2413827E+02  0.1185686E+02  0.2944260E+02  0.5364322E+03
Ar  865  0.2445983E+02  0.9292741E+01  0.3299149E+02  0.8124041E+03
Ar  866  0.2211287E+02  0.1120512E+02  0.3740476E+02  0.3009076E+03
Ar  867  0.2965286E+02  0.5285198E+01  0.3165415E+02  0.4819780E+03
Ar  868  0.2283744E+02  0.1411646E+02  0.3208866E+02  0.3787753E+03
Ar  869  0.2336148E+02  0.1561231E+02  0.3582086E+02  0.2077011E+03
Ar  870  0.2097723E+02  0.1465550E+02  0.4969409E+00  0.3920913E+03
Ar  871  0.2663908E+02  0.1524770E+02  0.3551456E+02  0.8352426E+03
Ar  872  0.2097331E+02  0.2483945E+02  0.3517497E+01  0.1733250E+03
Ar  873  0.2253284E+02  0.1822509E+02  0.1572205E+01  0.1005622E+03
Ar  874  0.2107935E+02  0.2096756E+02  0.4286261E+01  0.8998237E+02
Ar  875  0.2329093E+02  0.1759801E+02  0.5734673E+01  0.1974188E+03
Ar  876  0.2434111E+02  0.2124782E+02  0.8070415E+01  0.3355038E+03
Ar  877  0.2238489E+02  0.1326022E+02  0.1258140E+02  0.5504337E+03
Ar  878  0.2607153E+02  0.1845938E+02  0.7334764E+01  0.1902502E+03
Ar  879  0.2302256E+02  0.1908818E+02  0.1224739E+02  0.5065281E+03
Ar  880  0.1980440E+02  0.2123959E+02  0.1276489E+02  0.1438327E+03
Ar  881  0.2067837E+02  0.1090216E+02  0.1992921E+02  0.4221541E+03
Ar  882  0.2185907E+02  0.1920551E+02  0.1567558E+02  0.7347799E+03
Ar  883  0.2498149E+02  0.1268962E+02  0.2193222E+02  0.6604795E+03
Ar  884  0.2126092E+02  0.1853860E+02  0.1981962E+02  0.8437551E+03
Ar  885  0.2392349E+02  0.1570624E+02  0.2361992E+02  0.9422449E+03
Ar  886  0.2411761E+02  0.1252018E+02  0.1861276E+02  0.8951796E+03
Ar  887  0.2385324E+02  0.1407109E+02  0.2697530E+02  0.2123188E+03
Ar  888  0.2089387E+02  0.1469676E+02  0.2524135E+02  0.2977122E+03
Ar  889  0.2077385E+02  0.1450541E+02  0.2886126E+02  0.2530408E+03
Ar  890  0.2128657E+02  0.1790019E+02  0.3047359E+02  0.2521366E+03
Ar  891  0.2381115E+02  0.1608404E+02  0.2934780E+02  0.5412267E+03
Ar  892  0.2048365E+02  0.1716580E+02  0.3634178E+02  0.1994036E+03
Ar  893  0.1691762E+02  0.1915257E+02  0.3489403E+02  0.1453529E+03
Ar  894  0.2734421E+02  0.2097356E+02  0.3062411E+02  0.7657438E+02
Ar  895  0.2533316E+02  0.1669627E+02  0.3264507E+02  0.6552645E+03
Ar  896  0.2288680E+02  0.2021672E+02  0.3230804E+02  0.1810613E+02
Ar  897  0.2216499E+02  0.2356436E+02  0.3604148E+02  0.9687114E+03
Ar  898  0.2266818E+02  0.2163010E+02  0.1406787E+01  0.5615219E+03
Ar  899  0.2622622E+02  0.1804033E+02  0.2989800E+00  0.7573992E+02
Ar  900  0.1988329E+02  0.2942920E+02  0.1430804E+01  0.3081458E+03
Ar  901  0.2284333E+02  0.2724573E+02  0.4712572E+01  0.4967678E+03
Ar  902  0.2587140E+02  0.2703024E+02  0.2151977E+01  0.8731401E+03
Ar  903  0.2312035E+02  0.2695361E+02  0.8163576E+01  0.2061799E+03
Ar  904  0.2422517E+02  0.3112666E+02  0.7651994E+01  0.1411483E+03
Ar  905  0.1924666E+02  0.2587977E+02  0.7741754E+01  0.2645033E+03
Ar  906  0.2559394E+02  0.2648459E+02  0.1075993E+02  0.4451451E+03
Ar  907  0.2046207E+02  0.2403031E+02  0.1559968E+02  0.4795214E+03
Ar  908  0.2267311E+02  0.2580813E+02  0.1722446E+02  0.9050438E+03
Ar  909  0.1818955E+02  0.2003501E+02  0.1870815E+02  0.3832227E+03
Ar  910  0.2472498E+02  0.1950562E+02  0.1799565E+02  0.9912065E+02
Ar  911  0.2427204E+02  0.1900469E+02  0.2163640E+02  0.3568216E+03
Ar  912  0.2296834E+02  0.2267884E+02  0.2260789E+02  0.1188436E+04
Ar  913  0.2086942E+02  0.1814325E+02  0.2327815E+02  0.1417333E+03
Ar  914  0.2416688E+02  0.2376474E+02  0.2598128E+02  0.1714636E+04
Ar  915  0.2393055E+02  0.2015744E+02  0.2528297E+02  0.1798936E+03
Ar  916  0.2083723E+02  0.2476056E+02  0.2729026E+02  0.4033338E+03
Ar  917  0.1970257E+02  0.2197184E+02  0.2589894E+02  0.3377111E+03
Ar  918  0.2413083E+02  0.2452693E+02  0.2923054E+02  0.2642106E+03
Ar  919  0.2219145E+02  0.2386275E+02  0.3198672E+02  0.3462955E+03
Ar  920  0.2198706E+02  0.2696609E+02  0.2392308E+02  0.2221880E+03
Ar  921  0.1963237E+02  0.2006797E+02  0.3270909E+02  0.6055352E+03
Ar  922  0.2898907E+02  0.2596380E+02  0.3503053E+00  0.3432032E+03
Ar  923  0.2064400E+02  0.2630777E+02  0.3434802E+02  0.6292399E+03
Ar  924  0.2421955E+02  0.1915500E+02  0.3539276E+02  0.1578378E+04
Ar  925  0.2268894E+02  0.2790129E+02  0.3640237E+02  0.7783547E+02
Ar  926  0.2045597E+02  0.3272700E+02  0.2075246E+01  0.1797730E+03
Ar  927  0.2407917E+02  0.2432992E+02  0.4815695E+01  0.9683442E+03
Ar  928  0.1679554E+02  0.2942577E+02  0.3122080E+01  0.5814979E+03
Ar  929  0.2208100E+02  0.3067832E+02  0.5121589E+01  0.7806771E+03
Ar  930  0.2615485E+02  0.3174542E+02  0.1551094E+01  0.2436786E+03
Ar  931  0.2542612E+02  0.2983822E+02  0.3981365E+01  0.5614187E+03
Ar  932  0.2180559E+02  0.3335665E+02  0.1257393E+02  0.3879757E+03
Ar  933  0.2286301E+02  0.2406824E+02  0.1044751E+02  0.3888023E+03
Ar  934  0.2621190E+02  0.2966571E+02  0.1171308E+02  0.2324349E+03
Ar  935  0.2385889E+02  0.2960256E+02  0.1385088E+02  0.1723973E+03
Ar  936  0.2602203E+02  0.3196084E+02  0.1513858E+02  0.1985711E+03
Ar  937  0.2079274E+02  0.2923641E+02  0.1805465E+02  0.2624204E+02
Ar  938  0.2427022E+02  0.2942466E+02  0.1802369E+02  0.1216826E+03
Ar  939  0.1954916E+02  0.2448050E+02  0.2367358E+02  0.2838409E+03
Ar  940  0.1736728E+02  0.2818862E+02  0.1919254E+02  0.1765968E+03
Ar  941  0.1884429E+02  0.3204580E+02  0.2106629E+02  0.2020425E+03
Ar  942  0.2381043E+02  0.3118744E+02  0.2385632E+02  0.2014096E+03
Ar  943  0.1964792E+02  0.2730990E+02  0.2151216E+02  0.1644540E+03
Ar  944  0.1991962E+02  0.2964955E+02  0.2427696E+02  0.2657205E+03
Ar  945  0.1761624E+02  0.2696624E+02  0.2515851E+02  0.2141727E+03
Ar  946  0.2808156E+02  0.2706958E+02  0.2294169E+02  0.1290393E+02
Ar  947  0.2688838E+02  0.2418539E+02  0.3155116E+02  0.3971351E+03
Ar  948  0.2521641E+02  0.2745733E+02  0.2504590E+02  0.1082041E+04
Ar  949  0.2128053E+02  0.2677481E+02  0.3072396E+02  0.7853917E+02
Ar  950  0.2222240E+02  0.2916520E+02  0.3316989E+02  0.1799817E+03
Ar  951  0.2373183E+02  0.2475459E+02  0.1210322E+01  0.4920349E+03
Ar  952  0.1763660E+02  0.3190462E+02  0.3717397E+02  0.4323650E+03
Ar  953  0.2094436E+02  0.3073079E+02  0.3636945E+02  0.2445449E+03
Ar  954  0.1878972E+02  0.2398007E+00  0.3639293E+02  0.2879720E+03
Ar  955  0.2323040E+02  0.3361469E+02  0.3765700E+02  0.3007171E+03
Ar  956  0.2430853E+02  0.3436315E+02  0.2901928E+01  0.4542049E+03
Ar  957  0.1731504E+02  0.3362006E+02  0.2033705E+01  0.7890408E+02
Ar  958  0.2129639E+02  0.3254246E+02  0.8873364E+01  0.4996366E+03
Ar  959  0.2470024E+02  0.3429950E+02  0.8076612E+01  0.1340992E+03
Ar  960  0.2220850E+02  0.3571112E+02  0.9622461E+01  0.4599181E+03
Ar  961  0.1872652E+02  0.3192347E+02  0.1121248E+02  0.1286685E+03
Ar  962  0.2565488E+02  0.3337825E+02  0.1130115E+02  0.2160061E+03
Ar  963  0.2736916E+02  0.3528072E+02  0.1307237E+02  0.7970541E+03
Ar  964  0.2347697E+02  0.3463815E+02  0.1642486E+02  0.4727213E+03
Ar  965  0.2248766E+02  0.3211714E+02  0.1941943E+02  0.1546244E+03
Ar  966  0.2210725E+02  0.2174468E+01  0.1659878E+02  0.1118413E+03
Ar  967  0.2298183E+02  0.3593385E+02  0.1962026E+02  0.9118274E+03
Ar  968  0.2890661E+02  0.3336988E+02  0.2398201E+02  0.1828160E+03
Ar  969  0.2502352E+02  0.3597004E+02  0.2288985E+02  0.4958208E+03
Ar  970  0.2637500E+02  0.3761983E+02  0.2517284E+02  0.4535503E+03
Ar  971  0.2593633E+02  0.3188812E+02  0.2150907E+02  0.3632134E+03
Ar  972  0.2173928E+02  0.3165574E+02  0.2686508E+02  0.5023323E+03
Ar  973  0.2692217E+02  0.3030300E+02  0.2472103E+02  0.2789732E+03
Ar  974  0.2938272E+02  0.3433854E+02  0.3018972E+02  0.2872344E+02
Ar  975  0.2632575E+02  0.3262302E+02  0.2993529E+02  0.6974593E+03
Ar  976  0.2377075E+02  0.3538646E+02  0.3204539E+02  0.5408108E+02
Ar  977  0.2294755E+02  0.3465164E+02  0.2898201E+02  0.9765956E+03
Ar  978  0.2519978E+02  0.3044385E+02  0.2757327E+02  0.3014779E+03
Ar  979  0.2291465E+02  0.2739814E+02  0.2733486E+02  0.1771401E+03
Ar  980  0.1913652E+02  0.3215740E+02  0.3374588E+02  0.1235340E+03
Ar  981  0.2654069E+02  0.3483961E+02  0.1311203E+00  0.3480891E+03
Ar  982  0.3169690E+02  0.2219731E+01  0.2180065E+01  0.3719111E+03
Ar  983  0.3390525E+02  0.6828885E+00  0.7065435E-01  0.3214922E+03
Ar  984  0.2815170E+02  0.8412459E+00  0.4826172E+01  0.2243101E+03
Ar  985  0.2467674E+02  0.3671430E+02  0.5623431E+01  0.2508421E+03
Ar  986  0.3228581E+02  0.5479198E+00  0.5044476E+01  0.3093388E+03
Ar  987  0.2960218E+02  0.3717501E+02  0.1130261E+02  0.3001983E+03
Ar  988  0.2687592E+02  0.5720885E+01  0.5626087E+01  0.1238585E+04
Ar  989  0.2375303E+02  0.5162840E+00  0.9143885E+01  0.5208278E+03
Ar  990  0.2698377E+02  0.2965648E+01  0.7539841E+01  0.2007000E+03
Ar  991  0.2511909E+02  0.3285825E+01  0.1521114E+02  0.4135461E+03
Ar  992  0.2416515E+02  0.3881872E+01  0.9854571E+01  0.1990316E+03
Ar  993  0.2484552E+02  0.2883328E+01  0.1879805E+02  0.4425715E+03
Ar  994  0.2792822E+02  0.5054465E+01  0.1833261E+02  0.7423485E+02
Ar  995  0.2858349E+02  0.3677560E+02  0.2227683E+02  0.1751569E+02
Ar  996  0.2769875E+02  0.2131259E+01  0.2061455E+02  0.4483842E+03
Ar  997  0.2209690E+02  0.9585247E-01  0.2361619E+02  0.2154143E+03
Ar  998  0.3140967E+02  0.1154567E+01  0.2099481E+02  0.2198110E+03
Ar  999  0.2868047E+02  0.3577265E+02  0.2717303E+02  0.2786334E+03
Ar 1000  0.3198339E+02  0.3592305E+02  0.2807916E+02  0.6260792E+03
Ar 1001  0.2661429E+02  0.3587987E+02  0.3041283E+02  0.5983224E+03
Ar 1002  0.3126519E+02  0.5488999E+01  0.2284772E+02  0.4860556E+03
Ar 1003  0.3506528E+02  0.3497080E+02  0.2964367E+02  0.8176086E+02
Ar 1004  0.2977141E+02  0.5215063E+01  0.2590663E+02  0.8572970E+02
Ar 1005  0.3084632E+02  0.3756538E+02  0.3645251E+02  0.1814766E+03
Ar 1006  0.3366045E+02  0.1203560E+01  0.3029955E+02  0.5500173E+03
Ar 1007  0.2991274E+02  0.3728101E+02  0.2057792E+01  0.2256410E+03
Ar 1008  0.2746764E+02  0.1173138E+01  0.3651737E+02  0.3104316E+03
Ar 1009  0.3250738E+02  0.4138995E+01  0.3294872E+02  0.6385441E+03
Ar 1010  0.3342300E+02  0.4856918E+01  0.1059180E+01  0.4280955E+03
Ar 1011  0.3351226E+02  0.3796303E+01  0.5662782E+01  0.4776183E+03
Ar 1012  0.2943673E+02  0.2226103E+01  0.3406971E+02  0.4232711E+03
Ar 1013  0.3012835E+02  0.3264034E+01  0.6374714E+01  0.5632733E+03
Ar 1014  0.3060596E+02  0.3087729E+01  0.3688833E+02  0.3525905E+03
Ar 1015  0.2918959E+02  0.6366505E+01  0.9137597E+01  0.3356986E+03
Ar 1016  0.3300983E+02  0.8303042E+01  0.2950499E+01  0.2800485E+02
Ar 1017  0.2599350E+02  0.6828222E+01  0.1126780E+02  0.2328190E+03
Ar 1018  0.2725466E+02  0.9311032E+01  0.8579265E+01  0.2441410E+03
Ar 1019  0.2820120E+02  0.4021834E+01  0.1103569E+02  0.3632718E+03
Ar 1020  0.2659887E+02  0.6571393E+01  0.1519462E+02  0.3053958E+03
Ar 1021  0.3078687E+02  0.2042570E+01  0.1747461E+02  0.3646229E+03
Ar 1022  0.2951689E+02  0.4058845E+01  0.1422501E+02  0.4068850E+03
Ar 1023  0.3567858E+02  0.4972435E+01  0.1403699E+02  0.3493488E+03
Ar 1024  0.2526300E+02  0.7034822E+01  0.1894550E+02  0.1010678E+04
Ar 1025  0.2816423E+02  0.7300265E+01  0.2097068E+02  0.1236733E+03
Ar 1026  0.2919110E+02  0.7927868E+01  0.1707630E+02  0.3283119E+03
Ar 1027  0.2712527E+02  0.1025559E+02  0.2352513E+02  0.3800949E+03
Ar 1028  0.2058799E+02  0.7963521E+01  0.2879949E+02  0.3696856E+03
Ar 1029  0.2337551E+02  0.7287269E+01  0.2480563E+02  0.9931887E+03
Ar 1030  0.3323788E+02  0.9377163E+01  0.2962538E+02  0.5782094E+03
Ar 1031  0.3078477E+02  0.3181569E+01  0.2924776E+02  0.8419694E+03
Ar 1032  0.2746333E+02  0.3212728E+01  0.3031321E+02  0.8887988E+03
Ar 1033  0.2901701E+02  0.4710050E+00  0.3059120E+02  0.1639340E+03
Ar 1034  0.3143938E+02  0.7997834E+01  0.3220875E+02  0.4617850E+01
Ar 1035  0.3245725E+02  0.5878096E+00  0.3351761E+02  0.2982258E+03
Ar 1036  0.2656936E+02  0.6550118E+01  0.3031016E+02  0.5448025E+02
Ar 1037  0.3087634E+02  0.7105012E+01  0.5947407E+00  0.7236515E+03
Ar 1038  0.2879614E+02  0.1228512E+02  0.3763209E+02  0.4335383E+03
Ar 1039  0.3169149E+02  0.1151837E+02  0.1910748E+01  0.2106291E+03
Ar 1040  0.2714808E+02  0.1472627E+02  0.1634990E+01  0.6717413E+02
Ar 1041  0.2824570E+02  0.1017917E+02  0.2749198E+01  0.1238210E+03
Ar 1042  0.3350779E+02  0.1081084E+02  0.5970931E+01  0.5814969E+02
Ar 1043  0.2574523E+02  0.9218021E+01  0.5148017E+01  0.3238656E+03
Ar 1044  0.2793610E+02  0.1360776E+02  0.5229825E+01  0.3887455E+03
Ar 1045  0.2235401E+02  0.9297779E+01  0.1126401E+02  0.1615264E+03
Ar 1046  0.2546691E+02  0.1515157E+02  0.7073128E+01  0.1786175E+03
Ar 1047  0.2544374E+02  0.1104919E+02  0.1121356E+02  0.2966547E+03
Ar 1048  0.2458609E+02  0.1555444E+02  0.1623856E+02  0.1264414E+03
Ar 1049  0.2771267E+02  0.1375099E+02  0.1542349E+02  0.9825993E+02
Ar 1050  0.2817415E+02  0.1548554E+02  0.1289573E+02  0.9273764E+03
Ar 1051  0.3077798E+02  0.1270210E+02  0.1399011E+02  0.7076690E+03
Ar 1052  0.2376520E+02  0.1636608E+02  0.1926310E+02  0.1558033E+03
Ar 1053  0.2416724E+02  0.1126251E+02  0.2488848E+02  0.7527880E+02
Ar 1054  0.2930309E+02  0.1247770E+02  0.2172501E+02  0.7157665E+03
Ar 1055  0.2957435E+02  0.9680033E+01  0.2739461E+02  0.1403061E+03
Ar 1056  0.2667466E+02  0.1374939E+02  0.2502297E+02  0.1168243E+03
Ar 1057  0.2574055E+02  0.1260552E+02  0.3305475E+02  0.9498978E+03
Ar 1058  0.3018186E+02  0.1314888E+02  0.2888378E+02  0.1677241E+03
Ar 1059  0.3059471E+02  0.1119922E+02  0.3119409E+02  0.1812348E+03
Ar 1060  0.2663456E+02  0.1143947E+02  0.2702769E+02  0.1108470E+04
Ar 1061  0.3013647E+02  0.7054598E+01  0.2890961E+02  0.6802167E+03
Ar 1062  0.3233001E+02  0.1497303E+02  0.2657367E+02  0.2402155E+03
Ar 1063  0.2997157E+02  0.5600584E+01  0.3506310E+02  0.7644067E+03
Ar 1064  0.2851549E+02  0.9433269E+01  0.3351275E+02  0.6717219E+03
Ar 1065  0.2956455E+02  0.1269739E+02  0.3395092E+02  0.1001271E+04
Ar 1066  0.2908452E+02  0.1786616E+02  0.2393397E+01  0.6682499E+02
Ar 1067  0.3048918E+02  0.1445243E+02  0.2633954E+01  0.1123954E+03
Ar 1068  0.2787274E+02  0.2037185E+02  0.4167119E+01  0.6212758E+03
Ar 1069  0.2603120E+02  0.1742718E+02  0.3921155E+01  0.7280069E+03
Ar 1070  0.2912780E+02  0.1690054E+02  0.5545580E+01  0.9818136E+02
Ar 1071  0.2636517E+02  0.1864931E+02  0.1122322E+02  0.2719925E+03
Ar 1072  0.2931326E+02  0.1969185E+02  0.8067996E+01  0.4714132E+03
Ar 1073  0.2532811E+02  0.1519350E+02  0.1148153E+02  0.2986279E+03
Ar 1074  0.2821929E+02  0.2069473E+02  0.1294365E+02  0.4707219E+03
Ar 1075  0.2319077E+02  0.1792868E+02  0.9341258E+01  0.3353978E+03
Ar 1076  0.2572078E+02  0.1859122E+02  0.1453600E+02  0.3159656E+03
Ar 1077  0.2431865E+02  0.1187411E+02  0.1463362E+02  0.7463688E+03
Ar 1078  0.2715952E+02  0.1745247E+02  0.1775158E+02  0.2771221E+03
Ar 1079  0.3420037E+02  0.1437362E+02  0.1371870E+02  0.1138644E+03
Ar 1080  0.2725787E+02  0.1360267E+02  0.1919570E+02  0.6364680E+03
Ar 1081  0.3128212E+02  0.1523711E+02  0.1650270E+02  0.1010444E+04
Ar 1082  0.2664064E+02  0.1576627E+02  0.2151150E+02  0.1151011E+03
Ar 1083  0.2893491E+02  0.1663605E+02  0.2726637E+02  0.3220246E+03
Ar 1084  0.2483390E+02  0.1902795E+02  0.2837523E+02  0.2174746E+03
Ar 1085  0.2630696E+02  0.1769394E+02  0.2539060E+02  0.1763501E+03
Ar 1086  0.2974789E+02  0.2011256E+02  0.2849968E+02  0.2686536E+03
Ar 1087  0.2703776E+02  0.1440064E+02  0.2997506E+02  0.5932698E+02
Ar 1088  0.2268048E+02  0.2145728E+02  0.2891358E+02  0.2028205E+03
Ar 1089  0.2798749E+02  0.1789036E+02  0.3045006E+02  0.9804555E+03
Ar 1090  0.2999664E+02  0.2350512E+02  0.2810238E+02  0.3790577E+03
Ar 1091  0.2957857E+02  0.1556696E+02  0.3675659E+02  0.9817343E+03
Ar 1092  0.2803093E+02  0.1807950E+02  0.3393827E+02  0.3547941E+03
Ar 1093  0.2588257E+02  0.2125686E+02  0.1360645E+01  0.1096825E+03
Ar 1094  0.3248050E+02  0.2760038E+02  0.1744863E+01  0.1478981E+03
Ar 1095  0.3191856E+02  0.2045325E+02  0.2937789E+01  0.7886567E+03
Ar 1096  0.2953088E+02  0.2217149E+02  0.1017841E+01  0.4364727E+03
Ar 1097  0.2445019E+02  0.2064417E+02  0.4277048E+01  0.1717510E+03
Ar 1098  0.2724229E+02  0.2411629E+02  0.3229864E+01  0.5246671E+03
Ar 1099  0.3054908E+02  0.2214087E+02  0.5484690E+01  0.8267687E+03
Ar 1100  0.2711173E+02  0.2259611E+02  0.7007730E+01  0.3858434E+03
Ar 1101  0.2543750E+02  0.2204231E+02  0.1109547E+02  0.3458280E+03
Ar 1102  0.2766525E+02  0.2390577E+02  0.1287926E+02  0.3252522E+02
Ar 1103  0.2378117E+02  0.2181931E+02  0.1454670E+02  0.1517602E+02
Ar 1104  0.2406874E+02  0.2503317E+02  0.1375860E+02  0.3712826E+03
Ar 1105  0.2756099E+02  0.2105033E+02  0.1641420E+02  0.2798842E+03
Ar 1106  0.2498116E+02  0.2365697E+02  0.1686665E+02  0.2818092E+03
Ar 1107  0.3054374E+02  0.1676913E+02  0.2051111E+02  0.7585295E+03
Ar 1108  0.2748098E+02  0.2221417E+02  0.1955092E+02  0.3700080E+03
Ar 1109  0.2658157E+02  0.2158168E+02  0.2337012E+02  0.4124156E+03
Ar 1110  0.2819267E+02  0.1903889E+02  0.2135586E+02  0.4992500E+03
Ar 1111  0.2931308E+02  0.1941136E+02  0.2529245E+02  0.7581030E+03
Ar 1112  0.3186620E+02  0.2253963E+02  0.2556430E+02  0.5778963E+03
Ar 1113  0.2692248E+02  0.2169933E+02  0.2749094E+02  0.6982116E+03
Ar 1114  0.2749178E+02  0.2453557E+02  0.2500554E+02  0.6659584E+03
Ar 1115  0.3001243E+02  0.2028929E+02  0.3264336E+02  0.5272851E+03
Ar 1116  0.2644328E+02  0.2392255E+02  0.3654988E+02  0.3384023E+03
Ar 1117  0.2495169E+02  0.2274726E+02  0.3394609E+02  0.1816817E+03
Ar 1118  0.3323518E+02  0.2659046E+02  0.3220377E+02  0.3344688E+03
Ar 1119  0.3024533E+02  0.2205725E+02  0.3572139E+02  0.1227315E+03
Ar 1120  0.2941142E+02  0.2517399E+02  0.3475585E+02  0.1430687E+04
Ar 1121  0.2937884E+02  0.2932250E+02  0.1190942E+01  0.8319627E+02
Ar 1122  0.2246288E+02  0.3267562E+02  0.3330244E+02  0.5275018E+03
Ar 1123  0.3077050E+02  0.2538195E+02  0.3833013E+01  0.8357473E+03
Ar 1124  0.2346885E+02  0.3002090E+02  0.1306070E+01  0.4082774E+03
Ar 1125  0.2862421E+02  0.2827568E+02  0.4656917E+01  0.1388911E+04
Ar 1126  0.3347891E+02  0.3041698E+02  0.3806580E+01  0.2796408E+03
Ar 1127  0.2631610E+02  0.2621109E+02  0.6371590E+01  0.1690622E+03
Ar 1128  0.3047304E+02  0.3151970E+02  0.6688923E+01  0.4824847E+03
Ar 1129  0.2918067E+02  0.2278423E+02  0.9856437E+01  0.2941928E+03
Ar 1130  0.2725576E+02  0.2993172E+02  0.8438804E+01  0.2091592E+03
Ar 1131  0.2896501E+02  0.2716047E+02  0.1209184E+02  0.3078299E+03
Ar 1132  0.2940964E+02  0.3096477E+02  0.1564327E+02  0.5847289E+02
Ar 1133  0.2720624E+02  0.2739617E+02  0.1521505E+02  0.8146456E+03
Ar 1134  0.2775875E+02  0.3052897E+02  0.1829197E+02  0.1293593E+03
Ar 1135  0.2629315E+02  0.2646031E+02  0.1835169E+02  0.9707260E+02
Ar 1136  0.2269764E+02  0.2567517E+02  0.2093780E+02  0.1691021E+03
Ar 1137  0.2614138E+02  0.2472979E+02  0.2181484E+02  0.4217601E+03
Ar 1138  0.3092792E+02  0.2631003E+02  0.1982810E+02  0.8646732E+03
Ar 1139  0.2974056E+02  0.2302348E+02  0.2269494E+02  0.4587755E+03
Ar 1140  0.2251886E+02  0.2911494E+02  0.2128753E+02  0.2255503E+03
Ar 1141  0.3120823E+02  0.2584840E+02  0.2520025E+02  0.6155257E+03
Ar 1142  0.2984858E+02  0.2906082E+02  0.2611238E+02  0.6090246E+03
Ar 1143  0.3101406E+02  0.2892404E+02  0.3268166E+02  0.7148806E+02
Ar 1144  0.2942887E+02  0.2628615E+02  0.3087471E+02  0.3127378E+03
Ar 1145  0.2441014E+02  0.2582639E+02  0.3431873E+02  0.3396354E+03
Ar 1146  0.2781699E+02  0.2672628E+02  0.2789716E+02  0.8082535E+03
Ar 1147  0.2979128E+02  0.2875287E+02  0.3570168E+02  0.5419396E+03
Ar 1148  0.2624458E+02  0.2813419E+02  0.3680864E+02  0.2383337E+03
Ar 1149  0.2461259E+02  0.3697781E+02  0.3581508E+02  0.2725786E+03
Ar 1150  0.2814480E+02  0.3154410E+02  0.3626480E+02  0.8201590E+03
Ar 1151  0.2924110E+02  0.3193578E+02  0.3465602E+01  0.4253463E+03
Ar 1152  0.2577876E+02  0.2474254E+00  0.1505772E+01  0.9364704E+03
Ar 1153  0.2691418E+02  0.3217373E+02  0.5791672E+01  0.3915948E+03
Ar 1154  0.2998453E+02  0.3518751E+02  0.6540000E+01  0.7550096E+03
Ar 1155  0.2676983E+02  0.3682728E+02  0.8371560E+01  0.6310757E+03
Ar 1156  0.2597185E+02  0.1339781E+01  0.1152846E+02  0.1113760E+02
Ar 1157  0.2877974E+02  0.3236718E+02  0.1282259E+02  0.4374792E+02
Ar 1158  0.3200631E+02  0.3348497E+02  0.1286240E+02  0.7739188E+02
Ar 1159  0.2797426E+02  0.3468182E+02  0.1674406E+02  0.1893409E+03
Ar 1160  0.2749255E+02  0.1789538E+01  0.1711100E+02  0.5405833E+03
Ar 1161  0.2893234E+02  0.3344538E+02  0.2044838E+02  0.6384235E+02
Ar 1162  0.2989960E+02  0.3688574E+02  0.1839519E+02  0.1925380E+03
Ar 1163  0.2568882E+02  0.2845570E+02  0.2110554E+02  0.9990261E+02
Ar 1164  0.2651887E+02  0.3706609E+02  0.1932535E+02  0.1459000E+03
Ar 1165  0.2559848E+02  0.3394826E+02  0.1915281E+02  0.2104546E+03
Ar 1166  0.3262323E+02  0.3076625E+02  0.2491812E+02  0.2898098E+03
Ar 1167  0.3262476E+02  0.3254499E+02  0.2820634E+02  0.2452915E+03
Ar 1168  0.2847003E+02  0.3208507E+02  0.2711400E+02  0.3661789E+03
Ar 1169  0.3254225E+02  0.2805313E+02  0.2297666E+02  0.4899448E+03
Ar 1170  0.3457338E+02  0.3050176E+02  0.3068032E+02  0.8914712E+03
Ar 1171  0.3604104E+02  0.3690224E+02  0.3316340E+02  0.2869216E+03
Ar 1172  0.2846333E+02  0.2976913E+02  0.3030649E+02  0.6620267E+02
Ar 1173  0.2519688E+02  0.2983383E+02  0.3208279E+02  0.2835855E+03
Ar 1174  0.2845401E+02  0.3211626E+02  0.3289938E+02  0.3369924E+03
Ar 1175  0.3166347E+02  0.3236667E+02  0.3188931E+02  0.2400527E+03
Ar 1176  0.2447854E+02  0.3103952E+02  0.3600926E+02  0.3964692E+03
Ar 1177  0.3054308E+02  0.3389485E+02  0.2811187E+00  0.6643431E+02
Ar 1178  0.3658728E+02  0.5572030E+00  0.3622733E+02  0.3083217E+03
Ar 1179  0.3629739E+02  0.3612796E+02  0.1460317E+01  0.6618000E+03
Ar 1180  0.3676466E+02  0.3050452E+01  0.1162775E+01  0.2137379E+03
Ar 1181  0.3445103E+02  0.3612642E+02  0.7268840E+01  0.3290533E+03
Ar 1182  0.3424462E+02  0.1647101E+01  0.8351217E+01  0.6945241E+03
Ar 1183  0.3543826E+02  0.3107956E+01  0.1122829E+02  0.5926956E+03
Ar 1184  0.3088975E+02  0.4501908E+00  0.8317788E+01  0.1832313E+02
Ar 1185  0.3335793E+02  0.3635980E+02  0.1045865E+02  0.7923299E+02
Ar 1186  0.3262212E+02  0.6699198E+01  0.1285296E+02  0.7176195E+03
Ar 1187  0.3699976E+02  0.3372870E+02  0.1607526E+02  0.7656000E+02
Ar 1188  0.2832468E+02  0.9308877E+00  0.1420374E+02  0.3945106E+03
Ar 1189  0.3340880E+02  0.3723615E+02  0.1886642E+02  0.1685169E+03
Ar 1190  0.3686902E+02  0.9731085E+00  0.1344187E+02  0.3621544E+03
Ar 1191  0.3710561E+02  0.3592203E+02  0.2004657E+02  0.8990235E+03
Ar 1192  0.3388695E+02  0.1674331E+01  0.1597381E+02  0.3903872E+03
Ar 1193  0.3452976E+02  0.3690195E+02  0.2263959E+02  0.1377321E+03
Ar 1194  0.3705144E+02  0.1380794E+01  0.2219689E+02  0.6029047E+03
Ar 1195  0.3639848E+02  0.3364201E+02  0.2247346E+02  0.2810884E+03
Ar 1196  0.2771286E+02  0.2889081E+01  0.2398010E+02  0.5578735E+03
Ar 1197  0.3502363E+02  0.3745507E+02  0.2633680E+02  0.2690918E+02
Ar 1198  0.3122909E+02  0.8859505E-01  0.2476263E+02  0.1456660E+03
Ar 1199  0.3678821E+02  0.2363200E+01  0.2544404E+02  0.6634927E+02
Ar 1200  0.3228464E+02  0.2842044E+01  0.2636548E+02  0.3431125E+03
Ar 1201  0.3023197E+02  0.3499252E+02  0.3422119E+02  0.1455631E+03
Ar 1202  0.3589541E+02  0.3521433E+01  0.2885063E+02  0.2467014E+02
Ar 1203  0.3569643E+02  0.5474895E+01  0.3291196E+02  0.2742986E+03
Ar 1204  0.3443306E+02  0.3586545E+01  0.3553819E+02  0.4189493E+03
Ar 1205  0.3561173E+02  0.1008034E+01  0.3851346E+01  0.5016728E+03
Ar 1206  0.3629856E+02  0.9039438E+01  0.3398594E+02  0.4857121E+03
Ar 1207  0.3471607E+02  0.7521245E+01  0.1041542E+02  0.2962070E+03
Ar 1208  0.7526456E+00  0.9036952E+01  0.3049979E+01  0.4947758E+02
Ar 1209  0.3599373E+02  0.7628244E+01  0.5573302E+01  0.2824410E+03
Ar 1210  0.3605598E+02  0.9622011E+01  0.8001954E+01  0.2336952E+03
Ar 1211  0.3202612E+02  0.4025702E+01  0.1004074E+02  0.4527609E+02
Ar 1212  0.3321163E+02  0.7342389E+01  0.6757889E+01  0.3870672E+03
Ar 1213  0.3311520E+02  0.1648843E+01  0.1290798E+02  0.6029480E+03
Ar 1214  0.3187221E+02  0.1000704E+02  0.9314087E+01  0.3046711E+03
Ar 1215  0.2907776E+02  0.7453356E+01  0.1222272E+02  0.1774205E+03
Ar 1216  0.3241436E+02  0.4674486E+01  0.1547498E+02  0.2128442E+03
Ar 1217  0.3761413E+02  0.1934702E+01  0.1824532E+02  0.7745970E+02
Ar 1218  0.3557988E+02  0.4764219E+01  0.1729862E+02  0.3063107E+03
Ar 1219  0.3646810E+02  0.8327084E+01  0.1762904E+02  0.8184541E+02
Ar 1220  0.3266582E+02  0.7918416E+01  0.1737572E+02  0.1250319E+03
Ar 1221  0.3467301E+02  0.2301208E+01  0.1954427E+02  0.6678311E+02
Ar 1222  0.3613977E+02  0.7019375E+01  0.2054040E+02  0.6146007E+03
Ar 1223  0.9034750E+00  0.3943187E+01  0.2104013E+02  0.1309606E+03
Ar 1224  0.3086105E+02  0.9690042E+01  0.2055320E+02  0.7386814E+03
Ar 1225  0.3408248E+02  0.2325882E+01  0.2329065E+02  0.7439853E+03
Ar 1226  0.3267062E+02  0.7147861E+01  0.2637021E+02  0.3038008E+03
Ar 1227  0.3485783E+02  0.4969519E+01  0.2613489E+02  0.1112304E+03
Ar 1228  0.3318091E+02  0.1085731E+02  0.3335084E+02  0.8048944E+03
Ar 1229  0.3344703E+02  0.5647555E+01  0.2948819E+02  0.1227787E+03
Ar 1230  0.1150019E+01  0.6387212E+01  0.2757055E+02  0.7065724E+02
Ar 1231  0.3309613E+02  0.6570977E+01  0.3537990E+02  0.5753088E+03
Ar 1232  0.3736280E+02  0.8300392E+01  0.3087775E+02  0.2384942E+03
Ar 1233  0.3208360E+02  0.1343440E+02  0.3692216E+02  0.5390313E+03
Ar 1234  0.3530866E+02  0.1299971E+02  0.3742350E+02  0.1490616E+03
Ar 1235  0.3596713E+02  0.6958029E+01  0.2374294E+01  0.1058012E+03
Ar 1236  0.3297381E+02  0.1693903E+02  0.1077287E+01  0.5286766E+03
Ar 1237  0.3571751E+02  0.1137706E+02  0.3117292E+01  0.3717118E+03
Ar 1238  0.3394697E+02  0.1434729E+02  0.3047733E+01  0.5470786E+03
Ar 1239  0.2962443E+02  0.1087944E+02  0.6255927E+01  0.6059873E+03
Ar 1240  0.2806060E+02  0.1615199E+02  0.9332226E+01  0.1609467E+04
Ar 1241  0.2682401E+02  0.1283494E+02  0.8741231E+01  0.1408528E+02
Ar 1242  0.3138666E+02  0.1679977E+02  0.8923347E+01  0.2915446E+03
Ar 1243  0.2901328E+02  0.1105655E+02  0.1088127E+02  0.6062800E+02
Ar 1244  0.3170483E+02  0.1627180E+02  0.1258985E+02  0.3085529E+03
Ar 1245  0.2776771E+02  0.1015567E+02  0.1426314E+02  0.1491870E+04
Ar 1246  0.3147419E+02  0.9494655E+01  0.1466958E+02  0.6716762E+03
Ar 1247  0.3565826E+02  0.8254554E+01  0.1435701E+02  0.7071464E+03
Ar 1248  0.3447008E+02  0.1140508E+02  0.1605639E+02  0.1989563E+03
Ar 1249  0.3261415E+02  0.5171404E+01  0.1952359E+02  0.2625267E+03
Ar 1250  0.3042446E+02  0.1151542E+02  0.1729912E+02  0.1235359E+04
Ar 1251  0.3355374E+02  0.7730107E+01  0.2239779E+02  0.3824287E+03
Ar 1252  0.3074128E+02  0.8804694E+01  0.2376833E+02  0.1689787E+03
Ar 1253  0.3366704E+02  0.1277708E+02  0.2889634E+02  0.1491347E+03
Ar 1254  0.3579106E+02  0.1184228E+02  0.2211370E+02  0.3833775E+03
Ar 1255  0.3327001E+02  0.1045275E+02  0.2628213E+02  0.7110575E+02
Ar 1256  0.3504572E+02  0.1420491E+02  0.2464354E+02  0.2110822E+03
Ar 1257  0.3239830E+02  0.1372768E+02  0.3219106E+02  0.2783410E+03
Ar 1258  0.3704040E+02  0.1285460E+02  0.3022280E+02  0.9847567E+02
Ar 1259  0.3110626E+02  0.9473746E+01  0.3546985E+02  0.3903626E+02
Ar 1260  0.3557888E+02  0.1501855E+02  0.2772222E+02  0.2647935E+03
Ar 1261  0.2963999E+02  0.1884746E+02  0.3716407E+02  0.1670433E+03
Ar 1262  0.3657955E+02  0.2076912E+02  0.3616789E+02  0.4628934E+03
Ar 1263  0.3630376E+02  0.1789570E+02  0.1011865E+01  0.3892802E+02
Ar 1264  0.3230235E+02  0.1701429E+02  0.4488975E+01  0.2116397E+03
Ar 1265  0.3156135E+02  0.1387452E+02  0.5946289E+01  0.5153988E+03
Ar 1266  0.3563773E+02  0.2018434E+02  0.3715045E+01  0.1543964E+03
Ar 1267  0.3563457E+02  0.1837113E+02  0.8675969E+01  0.4641093E+03
Ar 1268  0.3297442E+02  0.1960000E+02  0.7094289E+01  0.7013832E+02
Ar 1269  0.3383213E+02  0.2145557E+02  0.1021936E+02  0.1335376E+03
Ar 1270  0.2343844E+01  0.1592060E+02  0.1360663E+02  0.1054307E+04
Ar 1271  0.3347733E+02  0.1823576E+02  0.1491854E+02  0.5372910E+03
Ar 1272  0.3157715E+02  0.2013359E+02  0.1263185E+02  0.4002225E+03
Ar 1273  0.2966789E+02  0.1803999E+02  0.1491578E+02  0.2866063E+03
Ar 1274  0.3396284E+02  0.2270089E+02  0.1392482E+02  0.4601171E+03
Ar 1275  0.3469614E+02  0.1492932E+02  0.1716017E+02  0.6476314E+03
Ar 1276  0.3279676E+02  0.1793323E+02  0.1827960E+02  0.2045176E+03
Ar 1277  0.3282647E+02  0.1358658E+02  0.1998073E+02  0.1295370E+04
Ar 1278  0.3442747E+02  0.1852146E+02  0.2103836E+02  0.6945217E+03
Ar 1279  0.3274102E+02  0.1241084E+02  0.2334575E+02  0.2405022E+03
Ar 1280  0.3284012E+02  0.1600133E+02  0.2310206E+02  0.5122125E+03
Ar 1281  0.3228957E+02  0.1831453E+02  0.2705974E+02  0.3070931E+03
Ar 1282  0.3530998E+02  0.1768139E+02  0.2545905E+02  0.2768453E+03
Ar 1283  0.3078081E+02  0.1633103E+02  0.3343000E+02  0.8152327E+02
Ar 1284  0.3301953E+02  0.2145518E+02  0.2881816E+02  0.1592357E+03
Ar 1285  0.3298018E+02  0.2034189E+02  0.3180172E+02  0.1248147E+04
Ar 1286  0.3485250E+02  0.1801648E+02  0.2918812E+02  0.6066960E+03
Ar 1287  0.3247299E+02  0.1914457E+02  0.3514301E+02  0.5027231E+03
Ar 1288  0.3145084E+02  0.1617503E+02  0.3021023E+02  0.6430233E+03
Ar 1289  0.2695736E+02  0.2069265E+02  0.3601346E+02  0.4872015E+03
Ar 1290  0.3277617E+02  0.2513676E+02  0.3672810E+02  0.1834332E+03
Ar 1291  0.3354235E+02  0.2148921E+02  0.3468106E+00  0.2751812E+03
Ar 1292  0.3385285E+02  0.2456324E+02  0.2501420E+01  0.1084055E+04
Ar 1293  0.2872485E+02  0.2603741E+02  0.8808439E+01  0.5806401E+03
Ar 1294  0.3598003E+02  0.2463873E+02  0.7415193E+01  0.9414603E+02
Ar 1295  0.3381045E+02  0.2266006E+02  0.5010897E+01  0.5319064E+03
Ar 1296  0.3209039E+02  0.2499199E+02  0.7425861E+01  0.3092941E+03
Ar 1297  0.3126952E+02  0.2406416E+02  0.1239086E+02  0.4222139E+03
Ar 1298  0.3581907E+02  0.2531978E+02  0.1181843E+02  0.2173858E+03
Ar 1299  0.3062602E+02  0.2255792E+02  0.1556291E+02  0.2697876E+03
Ar 1300  0.3099912E+02  0.2649665E+02  0.1484132E+02  0.1842890E+03
Ar 1301  0.2997473E+02  0.1969264E+02  0.1761169E+02  0.4353704E+03
Ar 1302  0.3616578E+02  0.2365027E+02  0.1584914E+02  0.5013577E+02
Ar 1303  0.3387187E+02  0.2130305E+02  0.1734630E+02  0.1019020E+03
Ar 1304  0.3051472E+02  0.2315034E+02  0.1905744E+02  0.5806496E+03
Ar 1305  0.3152123E+02  0.2044534E+02  0.2050075E+02  0.4829710E+03
Ar 1306  0.3320463E+02  0.2497831E+02  0.2208988E+02  0.8967222E+02
Ar 1307  0.2628341E+00  0.1863840E+02  0.2695296E+02  0.5057347E+03
Ar 1308  0.3310329E+02  0.2487676E+02  0.2856173E+02  0.1630431E+03
Ar 1309  0.2926219E+02  0.1599987E+02  0.2416474E+02  0.1729602E+03
Ar 1310  0.3437157E+02  0.2472219E+02  0.2492055E+02  0.2463582E+03
Ar 1311  0.3699754E+02  0.2066994E+02  0.3028559E+02  0.1199702E+03
Ar 1312  0.3216180E+02  0.1957012E+02  0.2349298E+02  0.9613465E+02
Ar 1313  0.3162053E+02  0.2359767E+02  0.3122539E+02  0.1492743E+03
Ar 1314  0.3584556E+02  0.2564729E+02  0.3474745E+02  0.5456557E+02
Ar 1315  0.3384865E+02  0.2314024E+02  0.3419853E+02  0.3299284E+03
Ar 1316  0.3311869E+02  0.2812174E+02  0.3514490E+02  0.4416960E+03
Ar 1317  0.3507818E+02  0.3185268E+02  0.3686389E+02  0.6806807E+03
Ar 1318  0.6798963E+00  0.3056501E+02  0.3711144E+02  0.2995074E+03
Ar 1319  0.3494568E+02  0.2720902E+02  0.5189716E+01  0.4131033E+03
Ar 1320  0.3467163E+02  0.3335224E+02  0.2329794E+01  0.9257766E+03
Ar 1321  0.3178679E+02  0.2813004E+02  0.6255366E+01  0.5269850E+03
Ar 1322  0.3751053E+02  0.2841204E+02  0.6569662E+01  0.3151055E+03
Ar 1323  0.3527215E+02  0.2793217E+02  0.8978321E+01  0.4668438E+03
Ar 1324  0.3397066E+02  0.3064630E+02  0.7356850E+01  0.9238933E+01
Ar 1325  0.3068111E+02  0.3029911E+02  0.9758261E+01  0.8194907E+03
Ar 1326  0.3768072E+02  0.3084127E+02  0.8459870E+01  0.1808354E+03
Ar 1327  0.3287839E+02  0.2461934E+02  0.1694840E+02  0.2203667E+03
Ar 1328  0.3276544E+02  0.3154434E+02  0.1601574E+02  0.3447744E+03
Ar 1329  0.2856352E+02  0.2476430E+02  0.1691110E+02  0.5660965E+02
Ar 1330  0.3087616E+02  0.3346063E+02  0.1789309E+02  0.1487670E+03
Ar 1331  0.3693268E+02  0.2762955E+02  0.1787075E+02  0.1956519E+02
Ar 1332  0.2959056E+02  0.2798567E+02  0.1765729E+02  0.2189806E+02
Ar 1333  0.3466673E+02  0.2095466E+02  0.2570116E+02  0.2375736E+03
Ar 1334  0.3498513E+02  0.2773584E+02  0.2046687E+02  0.2038595E+03
Ar 1335  0.3683569E+02  0.2768029E+02  0.2480635E+02  0.1272444E+04
Ar 1336  0.3150571E+02  0.3021263E+02  0.1944948E+02  0.1725633E+03
Ar 1337  0.3631738E+02  0.2433417E+02  0.3124406E+02  0.2270442E+03
Ar 1338  0.1065073E+01  0.2962310E+02  0.2759274E+02  0.2613795E+02
Ar 1339  0.3602653E+02  0.2972181E+02  0.3374534E+02  0.1235618E+03
Ar 1340  0.3173369E+02  0.2817106E+02  0.2928256E+02  0.5112246E+03
Ar 1341  0.2532997E+02  0.2716566E+02  0.3064890E+02  0.3369824E+03
Ar 1342  0.3483960E+02  0.3342764E+02  0.3357385E+02  0.6686410E+02
Ar 1343  0.3542808E+02  0.2690649E+02  0.3365414E+00  0.2333830E+03
Ar 1344  0.3164093E+02  0.3176726E+02  0.3523674E+02  0.2810472E+03
Ar 1345  0.2736478E+02  0.2750523E+02  0.3319684E+02  0.2343136E+03
Ar 1346  0.1826607E+01  0.3664988E+02  0.3797765E+01  0.1669831E+03
Ar 1347  0.3645345E+02  0.3185660E+02  0.5126447E+01  0.8179888E+02
Ar 1348  0.3311003E+02  0.3645545E+02  0.2580442E+01  0.8217658E+03
Ar 1349  0.3221380E+02  0.3351591E+02  0.4489112E+01  0.5252120E+03
Ar 1350  0.3600674E+02  0.3511779E+02  0.4660444E+01  0.7871098E+03
Ar 1351  0.3608919E+02  0.3390952E+02  0.9175821E+01  0.1897095E+03
Ar 1352  0.3181311E+02  0.3376514E+02  0.9124439E+01  0.5984601E+03
Ar 1353  0.2848137E+02  0.3374493E+02  0.9573553E+01  0.3353723E+03
Ar 1354  0.3625164E+02  0.3745907E+02  0.1041614E+02  0.9455337E+03
Ar 1355  0.3131332E+02  0.2985754E+02  0.1329645E+02  0.3094492E+03
Ar 1356  0.3372206E+02  0.3517527E+02  0.1616679E+02  0.7718849E+03
Ar 1357  0.3422081E+02  0.3332643E+02  0.1939608E+02  0.8358745E+02
Ar 1358  0.3726531E+02  0.3064791E+02  0.2181489E+02  0.2964926E+03
Ar 1359  0.3527502E+02  0.3057078E+02  0.1819691E+02  0.5508035E+03
Ar 1360  0.3201396E+02  0.3481529E+02  0.2134303E+02  0.7244090E+03
Ar 1361  0.2893682E+02  0.3021546E+02  0.2177782E+02  0.2831726E+03
Ar 1362  0.1116365E+01  0.3600714E+02  0.2258399E+02  0.3333978E+03
Ar 1363  0.3561745E+02  0.3065338E+02  0.2758288E+02  0.5436434E+03
Ar 1364  0.3397182E+02  0.3139819E+02  0.2206487E+02  0.4030565E+03
Ar 1365  0.3376254E+02  0.2766952E+02  0.2670176E+02  0.1388216E+03
Ar 1366  0.3185780E+02  0.3460849E+02  0.2472474E+02  0.7678045E+02
Ar 1367  0.3553776E+02  0.2760586E+02  0.2941780E+02  0.2552385E+03
Ar 1368  0.3267569E+02  0.3577221E+02  0.3168781E+02  0.5656550E+02
Ar 1369  0.3203524E+02  0.3076898E+02  0.6918624E+00  0.4535363E+03
Ar 1370  0.3709043E+02  0.3769687E+02  0.3018001E+02  0.8007139E+03
Ar 1371  0.5448531E+00  0.3239788E+02  0.3406263E+02  0.9607955E+03
Ar 1372  0.2740357E+02  0.3532764E+02  0.3367439E+01  0.2150151E+03
