        1372
Lattice="  0.3778015E+02  0.0000000E+00  0.0000000E+00  0.0000000E+00  0.3778015E+02  0.0000000E+00  0.0000000E+00  0.0000000E+00  0.3778015E+02" Properties=species:S:1:id:I:1:pos:R:3:tempK:R:1
Ar    1  0.3824633E+00  0.3824633E+00  0.3824633E+00  0.4978221E+03
Ar    2  0.2901103E+01  0.2901103E+01  0.3758631E+02  0.1488972E+02
Ar    3  0.2901103E+01  0.3758631E+02  0.2901103E+01  0.1488972E+02
Ar    4  0.3758631E+02  0.2901103E+01  0.2901103E+01  0.1488972E+02
Ar    5  0.3753220E+02  0.3753220E+02  0.5810849E+01  0.1006470E+03
Ar    6  0.2337821E+01  0.2337821E+01  0.5181425E+01  0.3501569E+03
Ar    7  0.2758108E+01  0.3747217E+02  0.8141407E+01  0.3328680E+02
Ar    8  0.3747217E+02  0.2758108E+01  0.8141407E+01  0.3328680E+02
Ar    9  0.2976489E-01  0.2976490E-01  0.1136106E+02  0.7838757E+02
Ar   10  0.2527155E+01  0.2527155E+01  0.1072589E+02  0.4111207E+03
Ar   11  0.2793689E+01  0.3748678E+02  0.1328682E+02  0.1680269E+03
Ar   12  0.3748678E+02  0.2793689E+01  0.1328682E+02  0.1680269E+03
Ar   13  0.3775404E+02  0.3775404E+02  0.1628629E+02  0.1168503E+03
Ar   14  0.2489511E+01  0.2489511E+01  0.1654784E+02  0.6165709E+02
Ar   15  0.2408882E+01  0.3762870E+02  0.1900859E+02  0.1552770E+02
Ar   16  0.3762870E+02  0.2408882E+01  0.1900859E+02  0.1552770E+02
Ar   17  0.3747451E+02  0.3747451E+02  0.2162607E+02  0.4641564E+02
Ar   18  0.2353582E+01  0.2353582E+01  0.2156252E+02  0.9139305E+02
Ar   19  0.2558002E+01  0.3757244E+02  0.2415596E+02  0.4138746E+02
Ar   20  0.3757244E+02  0.2558002E+01  0.2415596E+02  0.4138746E+02
Ar   21  0.1790844E+00  0.1790844E+00  0.2692792E+02  0.1815656E+02
Ar   22  0.2603089E+01  0.2603089E+01  0.2685527E+02  0.1474090E+03
Ar   23  0.2721662E+01  0.3748232E+02  0.2971605E+02  0.1936719E+03
Ar   24  0.3748232E+02  0.2721662E+01  0.2971605E+02  0.1936719E+03
Ar   25  0.2009657E+00  0.2009657E+00  0.3189027E+02  0.2035281E+03
Ar   26  0.2824219E+01  0.2824219E+01  0.3196118E+02  0.1293691E+02
Ar   27  0.3038198E+01  0.6117742E-01  0.3489872E+02  0.8119169E+02
Ar   28  0.6117742E-01  0.3038198E+01  0.3489872E+02  0.8119169E+02
Ar   29  0.3753220E+02  0.5810849E+01  0.3753220E+02  0.1006470E+03
Ar   30  0.2758108E+01  0.8141407E+01  0.3747217E+02  0.3328680E+02
Ar   31  0.2337821E+01  0.5181425E+01  0.2337821E+01  0.3501569E+03
Ar   32  0.3747217E+02  0.8141407E+01  0.2758108E+01  0.3328680E+02
Ar   33  0.3734311E+02  0.5475321E+01  0.5475321E+01  0.2484963E+03
Ar   34  0.2651478E+01  0.8222648E+01  0.5348320E+01  0.3549635E+02
Ar   35  0.2651478E+01  0.5348320E+01  0.8222648E+01  0.3549635E+02
Ar   36  0.3714510E+02  0.8258270E+01  0.8258270E+01  0.1022833E+03
Ar   37  0.3756456E+02  0.5625832E+01  0.1087474E+02  0.7768580E+02
Ar   38  0.2810382E+01  0.7959919E+01  0.1060816E+02  0.1530297E+03
Ar   39  0.2481052E+01  0.5030999E+01  0.1367652E+02  0.1573614E+02
Ar   40  0.1574500E-01  0.8330165E+01  0.1388777E+02  0.1964924E+02
Ar   41  0.3768552E+02  0.5465794E+01  0.1598521E+02  0.5482586E+02
Ar   42  0.2676417E+01  0.8233505E+01  0.1651427E+02  0.1356507E+02
Ar   43  0.2518067E+01  0.5112905E+01  0.1870057E+02  0.7948107E+02
Ar   44  0.3129000E+00  0.8090560E+01  0.1894054E+02  0.2168575E+02
Ar   45  0.3772169E+02  0.5145547E+01  0.2153837E+02  0.4586860E+02
Ar   46  0.2668351E+01  0.7961004E+01  0.2177464E+02  0.4857875E+02
Ar   47  0.2752661E+01  0.5408229E+01  0.2435502E+02  0.4140217E+02
Ar   48  0.3748066E+02  0.8220587E+01  0.2436270E+02  0.4784204E+02
Ar   49  0.2109064E+00  0.5125275E+01  0.2693494E+02  0.6506140E+02
Ar   50  0.2584286E+01  0.8322954E+01  0.2692934E+02  0.7093277E+02
Ar   51  0.2700683E+01  0.5340725E+01  0.2927129E+02  0.3405424E+02
Ar   52  0.3774862E+02  0.7928540E+01  0.2956977E+02  0.8832694E+02
Ar   53  0.2140176E+00  0.5428747E+01  0.3224976E+02  0.3671983E+02
Ar   54  0.2605194E+01  0.7924067E+01  0.3194947E+02  0.9072796E+02
Ar   55  0.2809564E+01  0.5592062E+01  0.3486792E+02  0.5082438E+02
Ar   56  0.3768249E+02  0.7832724E+01  0.3496951E+02  0.3108981E+03
Ar   57  0.2976489E-01  0.1136106E+02  0.2976489E-01  0.7838757E+02
Ar   58  0.2793689E+01  0.1328682E+02  0.3748678E+02  0.1680269E+03
Ar   59  0.2527155E+01  0.1072589E+02  0.2527155E+01  0.4111207E+03
Ar   60  0.3748678E+02  0.1328682E+02  0.2793689E+01  0.1680269E+03
Ar   61  0.3756456E+02  0.1087474E+02  0.5625832E+01  0.7768580E+02
Ar   62  0.2481052E+01  0.1367652E+02  0.5030999E+01  0.1573614E+02
Ar   63  0.2810382E+01  0.1060816E+02  0.7959919E+01  0.1530297E+03
Ar   64  0.1574500E-01  0.1388777E+02  0.8330165E+01  0.1964924E+02
Ar   65  0.3763833E+02  0.1073870E+02  0.1073870E+02  0.3170904E+03
Ar   66  0.2472542E+01  0.1325719E+02  0.1062572E+02  0.9959954E+02
Ar   67  0.2472542E+01  0.1062572E+02  0.1325719E+02  0.9959954E+02
Ar   68  0.3757918E+02  0.1347763E+02  0.1347763E+02  0.1700870E+03
Ar   69  0.3774066E+02  0.1097082E+02  0.1651443E+02  0.1204472E+03
Ar   70  0.2738661E+01  0.1349260E+02  0.1616380E+02  0.3417238E+02
Ar   71  0.2647500E+01  0.1128219E+02  0.1894998E+02  0.5257903E+01
Ar   72  0.2067529E+00  0.1371944E+02  0.1872794E+02  0.1664583E+03
Ar   73  0.6892811E-01  0.1070718E+02  0.2165612E+02  0.4012118E+02
Ar   74  0.2618453E+01  0.1365904E+02  0.2150066E+02  0.3112973E+02
Ar   75  0.2772604E+01  0.1075182E+02  0.2438621E+02  0.5907183E+02
Ar   76  0.2965469E+00  0.1363003E+02  0.2411095E+02  0.3999413E+01
Ar   77  0.1197665E+00  0.1074601E+02  0.2696482E+02  0.3620296E+02
Ar   78  0.2905697E+01  0.1354015E+02  0.2707059E+02  0.1001083E+03
Ar   79  0.2912050E+01  0.1101373E+02  0.2985853E+02  0.1167174E+03
Ar   80  0.1911369E+00  0.1371528E+02  0.2990020E+02  0.5295319E+02
Ar   81  0.3768864E+02  0.1055342E+02  0.3217277E+02  0.1036860E+03
Ar   82  0.2445406E+01  0.1334820E+02  0.3246120E+02  0.3044044E+02
Ar   83  0.2587241E+01  0.1042468E+02  0.3470683E+02  0.1128297E+03
Ar   84  0.3772581E+02  0.1392873E+02  0.3496399E+02  0.7502630E+02
Ar   85  0.3775404E+02  0.1628629E+02  0.3775404E+02  0.1168503E+03
Ar   86  0.2408882E+01  0.1900859E+02  0.3762870E+02  0.1552770E+02
Ar   87  0.2489511E+01  0.1654784E+02  0.2489511E+01  0.6165709E+02
Ar   88  0.3762870E+02  0.1900859E+02  0.2408882E+01  0.1552770E+02
Ar   89  0.3768552E+02  0.1598521E+02  0.5465794E+01  0.5482586E+02
Ar   90  0.2518067E+01  0.1870057E+02  0.5112905E+01  0.7948107E+02
Ar   91  0.2676417E+01  0.1651427E+02  0.8233505E+01  0.1356507E+02
Ar   92  0.3129000E+00  0.1894054E+02  0.8090560E+01  0.2168575E+02
Ar   93  0.3774066E+02  0.1651443E+02  0.1097082E+02  0.1204472E+03
Ar   94  0.2647500E+01  0.1894998E+02  0.1128219E+02  0.5257903E+01
Ar   95  0.2738661E+01  0.1616380E+02  0.1349260E+02  0.3417238E+02
Ar   96  0.2067529E+00  0.1872794E+02  0.1371944E+02  0.1664583E+03
Ar   97  0.3776792E+02  0.1647893E+02  0.1647893E+02  0.3647266E+03
Ar   98  0.2990240E+01  0.1896129E+02  0.1622508E+02  0.6019882E+02
Ar   99  0.2990240E+01  0.1622508E+02  0.1896129E+02  0.6019882E+02
Ar  100  0.3769471E+02  0.1878805E+02  0.1878805E+02  0.1830593E+03
Ar  101  0.3770047E+02  0.1604152E+02  0.2124069E+02  0.8080912E+02
Ar  102  0.2485163E+01  0.1900345E+02  0.2149237E+02  0.2251510E+02
Ar  103  0.2678840E+01  0.1648037E+02  0.2461031E+02  0.6378606E+02
Ar  104  0.1090614E+00  0.1884702E+02  0.2451811E+02  0.2517141E+03
Ar  105  0.9584339E-01  0.1590676E+02  0.2719560E+02  0.3165940E+03
Ar  106  0.2781923E+01  0.1899187E+02  0.2698180E+02  0.1178004E+03
Ar  107  0.2781289E+01  0.1615829E+02  0.2978071E+02  0.1784577E+02
Ar  108  0.1451548E+00  0.1937866E+02  0.2933009E+02  0.1914191E+02
Ar  109  0.3775828E+02  0.1639370E+02  0.3228798E+02  0.2794040E+02
Ar  110  0.2701815E+01  0.1897504E+02  0.3241070E+02  0.1405055E+03
Ar  111  0.2772671E+01  0.1650308E+02  0.3524641E+02  0.5428075E+02
Ar  112  0.3750996E+02  0.1897791E+02  0.3481545E+02  0.7346443E+02
Ar  113  0.3747451E+02  0.2162607E+02  0.3747451E+02  0.4641564E+02
Ar  114  0.2558002E+01  0.2415596E+02  0.3757244E+02  0.4138746E+02
Ar  115  0.2353582E+01  0.2156252E+02  0.2353582E+01  0.9139305E+02
Ar  116  0.3757244E+02  0.2415596E+02  0.2558002E+01  0.4138746E+02
Ar  117  0.3772169E+02  0.2153837E+02  0.5145547E+01  0.4586860E+02
Ar  118  0.2752661E+01  0.2435502E+02  0.5408229E+01  0.4140217E+02
Ar  119  0.2668351E+01  0.2177464E+02  0.7961004E+01  0.4857875E+02
Ar  120  0.3748066E+02  0.2436270E+02  0.8220587E+01  0.4784204E+02
Ar  121  0.6892811E-01  0.2165612E+02  0.1070718E+02  0.4012118E+02
Ar  122  0.2772604E+01  0.2438621E+02  0.1075182E+02  0.5907183E+02
Ar  123  0.2618453E+01  0.2150066E+02  0.1365904E+02  0.3112973E+02
Ar  124  0.2965469E+00  0.2411095E+02  0.1363003E+02  0.3999413E+01
Ar  125  0.3770047E+02  0.2124069E+02  0.1604152E+02  0.8080912E+02
Ar  126  0.2678840E+01  0.2461031E+02  0.1648037E+02  0.6378606E+02
Ar  127  0.2485163E+01  0.2149237E+02  0.1900345E+02  0.2251510E+02
Ar  128  0.1090614E+00  0.2451811E+02  0.1884702E+02  0.2517141E+03
Ar  129  0.3737207E+02  0.2164769E+02  0.2164769E+02  0.2745169E+03
Ar  130  0.2661884E+01  0.2421253E+02  0.2178572E+02  0.1410443E+03
Ar  131  0.2661884E+01  0.2178572E+02  0.2421253E+02  0.1410443E+03
Ar  132  0.3760483E+02  0.2421502E+02  0.2421502E+02  0.3612890E+02
Ar  133  0.3770578E+02  0.2156972E+02  0.2673019E+02  0.1218672E+03
Ar  134  0.2638960E+01  0.2431609E+02  0.2726297E+02  0.6064992E+02
Ar  135  0.3008484E+01  0.2183216E+02  0.2989303E+02  0.2571369E+03
Ar  136  0.3774195E+02  0.2430831E+02  0.2981539E+02  0.2549608E+02
Ar  137  0.3746938E+02  0.2171322E+02  0.3222867E+02  0.1519185E+02
Ar  138  0.2558209E+01  0.2431308E+02  0.3233947E+02  0.5379420E+02
Ar  139  0.2812682E+01  0.2156415E+02  0.3503277E+02  0.1262027E+03
Ar  140  0.3749470E+02  0.2444962E+02  0.3473757E+02  0.8333510E+02
Ar  141  0.1790844E+00  0.2692792E+02  0.1790844E+00  0.1815656E+02
Ar  142  0.2721662E+01  0.2971605E+02  0.3748232E+02  0.1936719E+03
Ar  143  0.2603089E+01  0.2685527E+02  0.2603089E+01  0.1474090E+03
Ar  144  0.3748232E+02  0.2971605E+02  0.2721662E+01  0.1936719E+03
Ar  145  0.2109064E+00  0.2693494E+02  0.5125275E+01  0.6506140E+02
Ar  146  0.2700683E+01  0.2927129E+02  0.5340725E+01  0.3405424E+02
Ar  147  0.2584286E+01  0.2692934E+02  0.8322954E+01  0.7093277E+02
Ar  148  0.3774862E+02  0.2956977E+02  0.7928540E+01  0.8832694E+02
Ar  149  0.1197665E+00  0.2696482E+02  0.1074601E+02  0.3620296E+02
Ar  150  0.2912050E+01  0.2985853E+02  0.1101373E+02  0.1167174E+03
Ar  151  0.2905697E+01  0.2707059E+02  0.1354015E+02  0.1001083E+03
Ar  152  0.1911369E+00  0.2990020E+02  0.1371528E+02  0.5295319E+02
Ar  153  0.9584339E-01  0.2719560E+02  0.1590676E+02  0.3165940E+03
Ar  154  0.2781289E+01  0.2978071E+02  0.1615829E+02  0.1784577E+02
Ar  155  0.2781923E+01  0.2698180E+02  0.1899187E+02  0.1178004E+03
Ar  156  0.1451548E+00  0.2933009E+02  0.1937866E+02  0.1914191E+02
Ar  157  0.3770578E+02  0.2673019E+02  0.2156972E+02  0.1218672E+03
Ar  158  0.3008484E+01  0.2989303E+02  0.2183216E+02  0.2571369E+03
Ar  159  0.2638960E+01  0.2726297E+02  0.2431609E+02  0.6064992E+02
Ar  160  0.3774195E+02  0.2981539E+02  0.2430831E+02  0.2549608E+02
Ar  161  0.4882802E-01  0.2694430E+02  0.2694430E+02  0.3925925E+02
Ar  162  0.2533378E+01  0.2967647E+02  0.2730858E+02  0.8000951E+02
Ar  163  0.2533378E+01  0.2730858E+02  0.2967647E+02  0.8000951E+02
Ar  164  0.3724161E+02  0.2922329E+02  0.2922329E+02  0.9592863E+02
Ar  165  0.3763900E+02  0.2694090E+02  0.3219580E+02  0.1481197E+03
Ar  166  0.2895381E+01  0.2953948E+02  0.3211418E+02  0.5688058E+02
Ar  167  0.2544393E+01  0.2687441E+02  0.3477452E+02  0.1398834E+03
Ar  168  0.3770229E+02  0.2964942E+02  0.3503532E+02  0.1800657E+03
Ar  169  0.2009657E+00  0.3189027E+02  0.2009657E+00  0.2035281E+03
Ar  170  0.3038198E+01  0.3489872E+02  0.6117742E-01  0.8119169E+02
Ar  171  0.2824219E+01  0.3196118E+02  0.2824219E+01  0.1293691E+02
Ar  172  0.6117742E-01  0.3489872E+02  0.3038198E+01  0.8119169E+02
Ar  173  0.2140176E+00  0.3224976E+02  0.5428747E+01  0.3671983E+02
Ar  174  0.2809564E+01  0.3486792E+02  0.5592062E+01  0.5082438E+02
Ar  175  0.2605194E+01  0.3194947E+02  0.7924067E+01  0.9072796E+02
Ar  176  0.3768249E+02  0.3496951E+02  0.7832724E+01  0.3108981E+03
Ar  177  0.3768864E+02  0.3217277E+02  0.1055342E+02  0.1036860E+03
Ar  178  0.2587241E+01  0.3470683E+02  0.1042468E+02  0.1128297E+03
Ar  179  0.2445406E+01  0.3246120E+02  0.1334820E+02  0.3044044E+02
Ar  180  0.3772581E+02  0.3496399E+02  0.1392873E+02  0.7502630E+02
Ar  181  0.3775828E+02  0.3228798E+02  0.1639370E+02  0.2794040E+02
Ar  182  0.2772671E+01  0.3524641E+02  0.1650308E+02  0.5428075E+02
Ar  183  0.2701815E+01  0.3241070E+02  0.1897504E+02  0.1405055E+03
Ar  184  0.3750996E+02  0.3481545E+02  0.1897791E+02  0.7346443E+02
Ar  185  0.3746938E+02  0.3222867E+02  0.2171322E+02  0.1519185E+02
Ar  186  0.2812682E+01  0.3503277E+02  0.2156415E+02  0.1262027E+03
Ar  187  0.2558209E+01  0.3233947E+02  0.2431308E+02  0.5379420E+02
Ar  188  0.3749470E+02  0.3473757E+02  0.2444962E+02  0.8333510E+02
Ar  189  0.3763900E+02  0.3219580E+02  0.2694090E+02  0.1481197E+03
Ar  190  0.2544393E+01  0.3477452E+02  0.2687441E+02  0.1398834E+03
Ar  191  0.2895381E+01  0.3211418E+02  0.2953948E+02  0.5688058E+02
Ar  192  0.3770229E+02  0.3503532E+02  0.2964942E+02  0.1800657E+03
Ar  193  0.3768623E+02  0.3242886E+02  0.3242886E+02  0.6730259E+01
Ar  194  0.2453796E+01  0.3506801E+02  0.3249236E+02  0.1622194E+03
Ar  195  0.2453796E+01  0.3249236E+02  0.3506801E+02  0.1622194E+03
Ar  196  0.3759145E+02  0.3507443E+02  0.3507443E+02  0.2481547E+03
Ar  197  0.5810849E+01  0.3753220E+02  0.3753220E+02  0.1006470E+03
Ar  198  0.8141407E+01  0.2758108E+01  0.3747217E+02  0.3328680E+02
Ar  199  0.8141407E+01  0.3747217E+02  0.2758108E+01  0.3328680E+02
Ar  200  0.5181425E+01  0.2337821E+01  0.2337821E+01  0.3501569E+03
Ar  201  0.5475321E+01  0.3734311E+02  0.5475321E+01  0.2484963E+03
Ar  202  0.8222648E+01  0.2651478E+01  0.5348320E+01  0.3549635E+02
Ar  203  0.8258270E+01  0.3714510E+02  0.8258270E+01  0.1022833E+03
Ar  204  0.5348320E+01  0.2651478E+01  0.8222648E+01  0.3549635E+02
Ar  205  0.5625832E+01  0.3756456E+02  0.1087474E+02  0.7768580E+02
Ar  206  0.7959919E+01  0.2810382E+01  0.1060816E+02  0.1530297E+03
Ar  207  0.8330165E+01  0.1574500E-01  0.1388777E+02  0.1964924E+02
Ar  208  0.5030999E+01  0.2481052E+01  0.1367652E+02  0.1573614E+02
Ar  209  0.5465794E+01  0.3768552E+02  0.1598521E+02  0.5482586E+02
Ar  210  0.8233505E+01  0.2676417E+01  0.1651427E+02  0.1356507E+02
Ar  211  0.8090560E+01  0.3129000E+00  0.1894054E+02  0.2168575E+02
Ar  212  0.5112905E+01  0.2518067E+01  0.1870057E+02  0.7948107E+02
Ar  213  0.5145547E+01  0.3772169E+02  0.2153837E+02  0.4586860E+02
Ar  214  0.7961004E+01  0.2668351E+01  0.2177464E+02  0.4857875E+02
Ar  215  0.8220587E+01  0.3748066E+02  0.2436270E+02  0.4784204E+02
Ar  216  0.5408229E+01  0.2752661E+01  0.2435502E+02  0.4140217E+02
Ar  217  0.5125275E+01  0.2109064E+00  0.2693494E+02  0.6506140E+02
Ar  218  0.8322954E+01  0.2584286E+01  0.2692934E+02  0.7093277E+02
Ar  219  0.7928540E+01  0.3774862E+02  0.2956977E+02  0.8832694E+02
Ar  220  0.5340725E+01  0.2700683E+01  0.2927129E+02  0.3405424E+02
Ar  221  0.5428747E+01  0.2140176E+00  0.3224976E+02  0.3671983E+02
Ar  222  0.7924067E+01  0.2605194E+01  0.3194947E+02  0.9072796E+02
Ar  223  0.7832724E+01  0.3768249E+02  0.3496951E+02  0.3108981E+03
Ar  224  0.5592062E+01  0.2809564E+01  0.3486792E+02  0.5082438E+02
Ar  225  0.5475321E+01  0.5475321E+01  0.3734311E+02  0.2484963E+03
Ar  226  0.8258270E+01  0.8258270E+01  0.3714510E+02  0.1022833E+03
Ar  227  0.8222648E+01  0.5348320E+01  0.2651478E+01  0.3549635E+02
Ar  228  0.5348320E+01  0.8222648E+01  0.2651478E+01  0.3549635E+02
Ar  229  0.4943788E+01  0.4943788E+01  0.4943788E+01  0.3577027E+03
Ar  230  0.7938901E+01  0.7938901E+01  0.5495923E+01  0.5330719E+02
Ar  231  0.7938901E+01  0.5495923E+01  0.7938901E+01  0.5330719E+02
Ar  232  0.5495923E+01  0.7938901E+01  0.7938901E+01  0.5330719E+02
Ar  233  0.5088120E+01  0.5088120E+01  0.1107198E+02  0.1979870E+03
Ar  234  0.7519991E+01  0.7519991E+01  0.1113594E+02  0.7199943E+02
Ar  235  0.7938565E+01  0.5139165E+01  0.1364140E+02  0.3469153E+03
Ar  236  0.5139165E+01  0.7938565E+01  0.1364140E+02  0.3469153E+03
Ar  237  0.5269080E+01  0.5269080E+01  0.1614637E+02  0.1419783E+03
Ar  238  0.8395332E+01  0.8395332E+01  0.1665471E+02  0.4037670E+03
Ar  239  0.8005877E+01  0.5450849E+01  0.1869949E+02  0.1352112E+03
Ar  240  0.5450849E+01  0.8005877E+01  0.1869949E+02  0.1352112E+03
Ar  241  0.5248417E+01  0.5248417E+01  0.2127778E+02  0.6704744E+02
Ar  242  0.7939644E+01  0.7939644E+01  0.2152494E+02  0.1092122E+03
Ar  243  0.7986462E+01  0.5494129E+01  0.2448314E+02  0.1209421E+03
Ar  244  0.5494129E+01  0.7986462E+01  0.2448314E+02  0.1209421E+03
Ar  245  0.5347183E+01  0.5347183E+01  0.2723495E+02  0.5523628E+02
Ar  246  0.8296600E+01  0.8296600E+01  0.2691482E+02  0.2589527E+02
Ar  247  0.8364791E+01  0.5292974E+01  0.2943354E+02  0.1250589E+03
Ar  248  0.5292974E+01  0.8364791E+01  0.2943354E+02  0.1250589E+03
Ar  249  0.5285274E+01  0.5285274E+01  0.3171190E+02  0.2259896E+02
Ar  250  0.8256914E+01  0.8256914E+01  0.3175773E+02  0.1397960E+03
Ar  251  0.8250547E+01  0.5511857E+01  0.3471279E+02  0.2994766E+02
Ar  252  0.5511857E+01  0.8250547E+01  0.3471279E+02  0.2994766E+02
Ar  253  0.5625832E+01  0.1087474E+02  0.3756456E+02  0.7768580E+02
Ar  254  0.8330165E+01  0.1388777E+02  0.1574500E-01  0.1964924E+02
Ar  255  0.7959919E+01  0.1060816E+02  0.2810382E+01  0.1530297E+03
Ar  256  0.5030999E+01  0.1367652E+02  0.2481052E+01  0.1573614E+02
Ar  257  0.5088120E+01  0.1107198E+02  0.5088120E+01  0.1979870E+03
Ar  258  0.7938565E+01  0.1364140E+02  0.5139165E+01  0.3469153E+03
Ar  259  0.7519991E+01  0.1113594E+02  0.7519991E+01  0.7199943E+02
Ar  260  0.5139165E+01  0.1364140E+02  0.7938565E+01  0.3469153E+03
Ar  261  0.5499962E+01  0.1052630E+02  0.1052630E+02  0.3042947E+02
Ar  262  0.8067053E+01  0.1333632E+02  0.1039880E+02  0.3340883E+02
Ar  263  0.8067053E+01  0.1039880E+02  0.1333632E+02  0.3340883E+02
Ar  264  0.5263404E+01  0.1377191E+02  0.1377191E+02  0.1336345E+03
Ar  265  0.5460500E+01  0.1077643E+02  0.1624676E+02  0.4559427E+01
Ar  266  0.8431591E+01  0.1354071E+02  0.1599678E+02  0.8174042E+02
Ar  267  0.8305436E+01  0.1090978E+02  0.1906149E+02  0.1413857E+03
Ar  268  0.5432953E+01  0.1347661E+02  0.1906819E+02  0.3758065E+03
Ar  269  0.5295739E+01  0.1096995E+02  0.2126137E+02  0.1173119E+03
Ar  270  0.8289114E+01  0.1333263E+02  0.2177658E+02  0.4238488E+03
Ar  271  0.8269215E+01  0.1079792E+02  0.2418170E+02  0.1635717E+03
Ar  272  0.5256162E+01  0.1339026E+02  0.2431424E+02  0.1814153E+03
Ar  273  0.5120172E+01  0.1084063E+02  0.2673922E+02  0.3066261E+03
Ar  274  0.8264061E+01  0.1332116E+02  0.2710854E+02  0.9649276E+02
Ar  275  0.8108880E+01  0.1068430E+02  0.2953562E+02  0.5506782E+02
Ar  276  0.5583651E+01  0.1391309E+02  0.2963405E+02  0.1682938E+03
Ar  277  0.5777661E+01  0.1093906E+02  0.3204194E+02  0.3980277E+02
Ar  278  0.8190190E+01  0.1388492E+02  0.3208262E+02  0.1172925E+03
Ar  279  0.8590660E+01  0.1103166E+02  0.3438000E+02  0.9508428E+02
Ar  280  0.5709338E+01  0.1351845E+02  0.3480106E+02  0.1176284E+03
Ar  281  0.5465794E+01  0.1598521E+02  0.3768552E+02  0.5482586E+02
Ar  282  0.8090560E+01  0.1894054E+02  0.3129000E+00  0.2168575E+02
Ar  283  0.8233505E+01  0.1651427E+02  0.2676417E+01  0.1356507E+02
Ar  284  0.5112905E+01  0.1870057E+02  0.2518067E+01  0.7948107E+02
Ar  285  0.5269080E+01  0.1614637E+02  0.5269080E+01  0.1419783E+03
Ar  286  0.8005877E+01  0.1869949E+02  0.5450849E+01  0.1352112E+03
Ar  287  0.8395332E+01  0.1665471E+02  0.8395332E+01  0.4037670E+03
Ar  288  0.5450849E+01  0.1869949E+02  0.8005877E+01  0.1352112E+03
Ar  289  0.5460500E+01  0.1624676E+02  0.1077643E+02  0.4559427E+01
Ar  290  0.8305436E+01  0.1906149E+02  0.1090978E+02  0.1413857E+03
Ar  291  0.8431591E+01  0.1599678E+02  0.1354071E+02  0.8174042E+02
Ar  292  0.5432953E+01  0.1906819E+02  0.1347661E+02  0.3758065E+03
Ar  293  0.6022753E+01  0.1608407E+02  0.1608407E+02  0.1899980E+02
Ar  294  0.8216741E+01  0.1927662E+02  0.1606025E+02  0.7967334E+02
Ar  295  0.8216741E+01  0.1606025E+02  0.1927662E+02  0.7967334E+02
Ar  296  0.5983827E+01  0.1877212E+02  0.1877212E+02  0.2094611E+03
Ar  297  0.5508525E+01  0.1627737E+02  0.2190896E+02  0.3529074E+02
Ar  298  0.8012661E+01  0.1910353E+02  0.2172575E+02  0.1572442E+03
Ar  299  0.8274344E+01  0.1612888E+02  0.2434995E+02  0.2741043E+03
Ar  300  0.5305581E+01  0.1903389E+02  0.2414982E+02  0.5807591E+02
Ar  301  0.5638559E+01  0.1669574E+02  0.2691365E+02  0.2009621E+02
Ar  302  0.8314637E+01  0.1900243E+02  0.2684245E+02  0.1604595E+03
Ar  303  0.8186254E+01  0.1655041E+02  0.2937076E+02  0.8816580E+02
Ar  304  0.5692873E+01  0.1907531E+02  0.2965787E+02  0.5376111E+02
Ar  305  0.5355880E+01  0.1619194E+02  0.3229128E+02  0.2010774E+03
Ar  306  0.8172432E+01  0.1888540E+02  0.3217458E+02  0.6399436E+02
Ar  307  0.8215124E+01  0.1589399E+02  0.3474952E+02  0.8902460E+02
Ar  308  0.6128226E+01  0.1875404E+02  0.3494133E+02  0.8924002E+02
Ar  309  0.5145547E+01  0.2153837E+02  0.3772169E+02  0.4586860E+02
Ar  310  0.8220587E+01  0.2436270E+02  0.3748066E+02  0.4784204E+02
Ar  311  0.7961004E+01  0.2177464E+02  0.2668351E+01  0.4857875E+02
Ar  312  0.5408229E+01  0.2435502E+02  0.2752661E+01  0.4140217E+02
Ar  313  0.5248417E+01  0.2127778E+02  0.5248417E+01  0.6704744E+02
Ar  314  0.7986462E+01  0.2448314E+02  0.5494129E+01  0.1209421E+03
Ar  315  0.7939644E+01  0.2152494E+02  0.7939644E+01  0.1092122E+03
Ar  316  0.5494129E+01  0.2448314E+02  0.7986462E+01  0.1209421E+03
Ar  317  0.5295739E+01  0.2126137E+02  0.1096995E+02  0.1173119E+03
Ar  318  0.8269215E+01  0.2418170E+02  0.1079792E+02  0.1635717E+03
Ar  319  0.8289114E+01  0.2177658E+02  0.1333263E+02  0.4238488E+03
Ar  320  0.5256162E+01  0.2431424E+02  0.1339026E+02  0.1814153E+03
Ar  321  0.5508525E+01  0.2190896E+02  0.1627737E+02  0.3529074E+02
Ar  322  0.8274344E+01  0.2434995E+02  0.1612888E+02  0.2741043E+03
Ar  323  0.8012661E+01  0.2172575E+02  0.1910353E+02  0.1572442E+03
Ar  324  0.5305581E+01  0.2414982E+02  0.1903389E+02  0.5807591E+02
Ar  325  0.5225440E+01  0.2135188E+02  0.2135188E+02  0.1510682E+03
Ar  326  0.7866078E+01  0.2434278E+02  0.2151312E+02  0.7531038E+02
Ar  327  0.7866078E+01  0.2151312E+02  0.2434278E+02  0.7531038E+02
Ar  328  0.5526649E+01  0.2418224E+02  0.2418224E+02  0.7621407E+02
Ar  329  0.5297286E+01  0.2163036E+02  0.2685954E+02  0.6450382E+02
Ar  330  0.8176023E+01  0.2461819E+02  0.2731392E+02  0.2140126E+02
Ar  331  0.8347966E+01  0.2177924E+02  0.2940285E+02  0.6876666E+02
Ar  332  0.5264427E+01  0.2465046E+02  0.2969718E+02  0.4832831E+02
Ar  333  0.5576766E+01  0.2201483E+02  0.3228650E+02  0.1018138E+03
Ar  334  0.8348080E+01  0.2440318E+02  0.3241789E+02  0.3104811E+02
Ar  335  0.8099673E+01  0.2186111E+02  0.3498364E+02  0.7915081E+02
Ar  336  0.5235306E+01  0.2428608E+02  0.3504571E+02  0.8069422E+02
Ar  337  0.5125275E+01  0.2693494E+02  0.2109064E+00  0.6506140E+02
Ar  338  0.7928540E+01  0.2956977E+02  0.3774862E+02  0.8832694E+02
Ar  339  0.8322954E+01  0.2692934E+02  0.2584286E+01  0.7093277E+02
Ar  340  0.5340725E+01  0.2927129E+02  0.2700683E+01  0.3405424E+02
Ar  341  0.5347183E+01  0.2723495E+02  0.5347183E+01  0.5523628E+02
Ar  342  0.8364791E+01  0.2943354E+02  0.5292974E+01  0.1250589E+03
Ar  343  0.8296600E+01  0.2691482E+02  0.8296600E+01  0.2589527E+02
Ar  344  0.5292974E+01  0.2943354E+02  0.8364791E+01  0.1250589E+03
Ar  345  0.5120172E+01  0.2673922E+02  0.1084063E+02  0.3066261E+03
Ar  346  0.8108880E+01  0.2953562E+02  0.1068430E+02  0.5506782E+02
Ar  347  0.8264061E+01  0.2710854E+02  0.1332116E+02  0.9649276E+02
Ar  348  0.5583651E+01  0.2963405E+02  0.1391309E+02  0.1682938E+03
Ar  349  0.5638559E+01  0.2691365E+02  0.1669574E+02  0.2009621E+02
Ar  350  0.8186254E+01  0.2937076E+02  0.1655041E+02  0.8816580E+02
Ar  351  0.8314637E+01  0.2684245E+02  0.1900243E+02  0.1604595E+03
Ar  352  0.5692873E+01  0.2965787E+02  0.1907531E+02  0.5376111E+02
Ar  353  0.5297286E+01  0.2685954E+02  0.2163036E+02  0.6450382E+02
Ar  354  0.8347966E+01  0.2940285E+02  0.2177924E+02  0.6876666E+02
Ar  355  0.8176023E+01  0.2731392E+02  0.2461819E+02  0.2140126E+02
Ar  356  0.5264427E+01  0.2969718E+02  0.2465046E+02  0.4832831E+02
Ar  357  0.5206224E+01  0.2700966E+02  0.2700966E+02  0.1431663E+03
Ar  358  0.8577427E+01  0.3000823E+02  0.2704779E+02  0.1084129E+03
Ar  359  0.8577427E+01  0.2704779E+02  0.3000823E+02  0.1084129E+03
Ar  360  0.5955789E+01  0.2960077E+02  0.2960077E+02  0.9356783E+02
Ar  361  0.5598105E+01  0.2706715E+02  0.3240693E+02  0.8137682E+02
Ar  362  0.8562567E+01  0.2970735E+02  0.3241001E+02  0.1897514E+03
Ar  363  0.7878466E+01  0.2720008E+02  0.3507990E+02  0.5519230E+02
Ar  364  0.5232822E+01  0.2976044E+02  0.3501528E+02  0.4465141E+02
Ar  365  0.5428747E+01  0.3224976E+02  0.2140176E+00  0.3671983E+02
Ar  366  0.7832724E+01  0.3496951E+02  0.3768249E+02  0.3108981E+03
Ar  367  0.7924067E+01  0.3194947E+02  0.2605194E+01  0.9072796E+02
Ar  368  0.5592062E+01  0.3486792E+02  0.2809564E+01  0.5082438E+02
Ar  369  0.5285274E+01  0.3171190E+02  0.5285274E+01  0.2259896E+02
Ar  370  0.8250547E+01  0.3471279E+02  0.5511857E+01  0.2994766E+02
Ar  371  0.8256914E+01  0.3175773E+02  0.8256914E+01  0.1397960E+03
Ar  372  0.5511857E+01  0.3471279E+02  0.8250547E+01  0.2994766E+02
Ar  373  0.5777661E+01  0.3204194E+02  0.1093906E+02  0.3980277E+02
Ar  374  0.8590660E+01  0.3438000E+02  0.1103166E+02  0.9508428E+02
Ar  375  0.8190190E+01  0.3208262E+02  0.1388492E+02  0.1172925E+03
Ar  376  0.5709338E+01  0.3480106E+02  0.1351845E+02  0.1176284E+03
Ar  377  0.5355880E+01  0.3229128E+02  0.1619194E+02  0.2010774E+03
Ar  378  0.8215124E+01  0.3474952E+02  0.1589399E+02  0.8902460E+02
Ar  379  0.8172432E+01  0.3217458E+02  0.1888540E+02  0.6399436E+02
Ar  380  0.6128226E+01  0.3494133E+02  0.1875404E+02  0.8924002E+02
Ar  381  0.5576766E+01  0.3228650E+02  0.2201483E+02  0.1018138E+03
Ar  382  0.8099673E+01  0.3498364E+02  0.2186111E+02  0.7915081E+02
Ar  383  0.8348080E+01  0.3241789E+02  0.2440318E+02  0.3104811E+02
Ar  384  0.5235306E+01  0.3504571E+02  0.2428608E+02  0.8069422E+02
Ar  385  0.5598105E+01  0.3240693E+02  0.2706715E+02  0.8137682E+02
Ar  386  0.7878466E+01  0.3507990E+02  0.2720008E+02  0.5519230E+02
Ar  387  0.8562567E+01  0.3241001E+02  0.2970735E+02  0.1897514E+03
Ar  388  0.5232822E+01  0.3501528E+02  0.2976044E+02  0.4465141E+02
Ar  389  0.5648866E+01  0.3234399E+02  0.3234399E+02  0.1324820E+03
Ar  390  0.8292906E+01  0.3512697E+02  0.3200741E+02  0.5055169E+02
Ar  391  0.8292906E+01  0.3200741E+02  0.3512697E+02  0.5055169E+02
Ar  392  0.5822193E+01  0.3487601E+02  0.3487601E+02  0.3211382E+03
Ar  393  0.1136106E+02  0.2976489E-01  0.2976489E-01  0.7838757E+02
Ar  394  0.1328682E+02  0.2793689E+01  0.3748678E+02  0.1680269E+03
Ar  395  0.1328682E+02  0.3748678E+02  0.2793689E+01  0.1680269E+03
Ar  396  0.1072589E+02  0.2527155E+01  0.2527155E+01  0.4111207E+03
Ar  397  0.1087474E+02  0.3756456E+02  0.5625832E+01  0.7768580E+02
Ar  398  0.1367652E+02  0.2481052E+01  0.5030999E+01  0.1573614E+02
Ar  399  0.1388777E+02  0.1574500E-01  0.8330165E+01  0.1964924E+02
Ar  400  0.1060816E+02  0.2810382E+01  0.7959919E+01  0.1530297E+03
Ar  401  0.1073870E+02  0.3763833E+02  0.1073870E+02  0.3170904E+03
Ar  402  0.1325719E+02  0.2472542E+01  0.1062572E+02  0.9959954E+02
Ar  403  0.1347763E+02  0.3757918E+02  0.1347763E+02  0.1700870E+03
Ar  404  0.1062572E+02  0.2472542E+01  0.1325719E+02  0.9959954E+02
Ar  405  0.1097082E+02  0.3774066E+02  0.1651443E+02  0.1204472E+03
Ar  406  0.1349260E+02  0.2738661E+01  0.1616380E+02  0.3417238E+02
Ar  407  0.1371944E+02  0.2067529E+00  0.1872794E+02  0.1664583E+03
Ar  408  0.1128219E+02  0.2647500E+01  0.1894998E+02  0.5257903E+01
Ar  409  0.1070718E+02  0.6892811E-01  0.2165612E+02  0.4012118E+02
Ar  410  0.1365904E+02  0.2618453E+01  0.2150066E+02  0.3112973E+02
Ar  411  0.1363003E+02  0.2965469E+00  0.2411095E+02  0.3999413E+01
Ar  412  0.1075182E+02  0.2772604E+01  0.2438621E+02  0.5907183E+02
Ar  413  0.1074601E+02  0.1197665E+00  0.2696482E+02  0.3620296E+02
Ar  414  0.1354015E+02  0.2905697E+01  0.2707059E+02  0.1001083E+03
Ar  415  0.1371528E+02  0.1911369E+00  0.2990020E+02  0.5295319E+02
Ar  416  0.1101373E+02  0.2912050E+01  0.2985853E+02  0.1167174E+03
Ar  417  0.1055342E+02  0.3768864E+02  0.3217277E+02  0.1036860E+03
Ar  418  0.1334820E+02  0.2445406E+01  0.3246120E+02  0.3044044E+02
Ar  419  0.1392873E+02  0.3772581E+02  0.3496399E+02  0.7502630E+02
Ar  420  0.1042468E+02  0.2587241E+01  0.3470683E+02  0.1128297E+03
Ar  421  0.1087474E+02  0.5625832E+01  0.3756456E+02  0.7768580E+02
Ar  422  0.1388777E+02  0.8330165E+01  0.1574500E-01  0.1964924E+02
Ar  423  0.1367652E+02  0.5030999E+01  0.2481052E+01  0.1573614E+02
Ar  424  0.1060816E+02  0.7959919E+01  0.2810382E+01  0.1530297E+03
Ar  425  0.1107198E+02  0.5088120E+01  0.5088120E+01  0.1979870E+03
Ar  426  0.1364140E+02  0.7938565E+01  0.5139165E+01  0.3469153E+03
Ar  427  0.1364140E+02  0.5139165E+01  0.7938565E+01  0.3469153E+03
Ar  428  0.1113594E+02  0.7519991E+01  0.7519991E+01  0.7199943E+02
Ar  429  0.1052630E+02  0.5499962E+01  0.1052630E+02  0.3042947E+02
Ar  430  0.1333632E+02  0.8067053E+01  0.1039880E+02  0.3340883E+02
Ar  431  0.1377191E+02  0.5263404E+01  0.1377191E+02  0.1336345E+03
Ar  432  0.1039880E+02  0.8067053E+01  0.1333632E+02  0.3340883E+02
Ar  433  0.1077643E+02  0.5460500E+01  0.1624676E+02  0.4559427E+01
Ar  434  0.1354071E+02  0.8431591E+01  0.1599678E+02  0.8174042E+02
Ar  435  0.1347661E+02  0.5432953E+01  0.1906819E+02  0.3758065E+03
Ar  436  0.1090978E+02  0.8305436E+01  0.1906149E+02  0.1413857E+03
Ar  437  0.1096995E+02  0.5295739E+01  0.2126137E+02  0.1173119E+03
Ar  438  0.1333263E+02  0.8289114E+01  0.2177658E+02  0.4238488E+03
Ar  439  0.1339026E+02  0.5256162E+01  0.2431424E+02  0.1814153E+03
Ar  440  0.1079792E+02  0.8269215E+01  0.2418170E+02  0.1635717E+03
Ar  441  0.1084063E+02  0.5120172E+01  0.2673922E+02  0.3066261E+03
Ar  442  0.1332116E+02  0.8264061E+01  0.2710854E+02  0.9649276E+02
Ar  443  0.1391309E+02  0.5583651E+01  0.2963405E+02  0.1682938E+03
Ar  444  0.1068430E+02  0.8108880E+01  0.2953562E+02  0.5506782E+02
Ar  445  0.1093906E+02  0.5777661E+01  0.3204194E+02  0.3980277E+02
Ar  446  0.1388492E+02  0.8190190E+01  0.3208262E+02  0.1172925E+03
Ar  447  0.1351845E+02  0.5709338E+01  0.3480106E+02  0.1176284E+03
Ar  448  0.1103166E+02  0.8590660E+01  0.3438000E+02  0.9508428E+02
Ar  449  0.1073870E+02  0.1073870E+02  0.3763833E+02  0.3170904E+03
Ar  450  0.1347763E+02  0.1347763E+02  0.3757918E+02  0.1700870E+03
Ar  451  0.1325719E+02  0.1062572E+02  0.2472542E+01  0.9959954E+02
Ar  452  0.1062572E+02  0.1325719E+02  0.2472542E+01  0.9959954E+02
Ar  453  0.1052630E+02  0.1052630E+02  0.5499962E+01  0.3042947E+02
Ar  454  0.1377191E+02  0.1377191E+02  0.5263404E+01  0.1336345E+03
Ar  455  0.1333632E+02  0.1039880E+02  0.8067053E+01  0.3340883E+02
Ar  456  0.1039880E+02  0.1333632E+02  0.8067053E+01  0.3340883E+02
Ar  457  0.9843444E+01  0.9843444E+01  0.9843444E+01  0.9663743E+02
Ar  458  0.1308310E+02  0.1308310E+02  0.1067074E+02  0.3492679E+03
Ar  459  0.1308310E+02  0.1067074E+02  0.1308310E+02  0.3492679E+03
Ar  460  0.1067074E+02  0.1308310E+02  0.1308310E+02  0.3492679E+03
Ar  461  0.1076071E+02  0.1076071E+02  0.1593049E+02  0.3789891E-01
Ar  462  0.1314886E+02  0.1314886E+02  0.1599592E+02  0.1133327E+03
Ar  463  0.1364214E+02  0.1119385E+02  0.1866737E+02  0.2550384E+01
Ar  464  0.1119385E+02  0.1364214E+02  0.1866737E+02  0.2550384E+01
Ar  465  0.1096374E+02  0.1096374E+02  0.2133320E+02  0.8495052E+02
Ar  466  0.1379580E+02  0.1379580E+02  0.2162010E+02  0.4446666E+01
Ar  467  0.1376591E+02  0.1096234E+02  0.2440329E+02  0.1186554E+03
Ar  468  0.1096234E+02  0.1376591E+02  0.2440329E+02  0.1186554E+03
Ar  469  0.1101100E+02  0.1101100E+02  0.2640372E+02  0.2375588E+01
Ar  470  0.1372953E+02  0.1372953E+02  0.2662266E+02  0.3142730E+03
Ar  471  0.1375873E+02  0.1103385E+02  0.2943386E+02  0.5941284E+02
Ar  472  0.1103385E+02  0.1375873E+02  0.2943386E+02  0.5941284E+02
Ar  473  0.1135478E+02  0.1135478E+02  0.3194926E+02  0.9094227E+02
Ar  474  0.1384975E+02  0.1384975E+02  0.3213014E+02  0.2461730E+03
Ar  475  0.1376739E+02  0.1109867E+02  0.3490890E+02  0.4944526E+02
Ar  476  0.1109867E+02  0.1376739E+02  0.3490890E+02  0.4944526E+02
Ar  477  0.1097082E+02  0.1651443E+02  0.3774066E+02  0.1204472E+03
Ar  478  0.1371944E+02  0.1872794E+02  0.2067529E+00  0.1664583E+03
Ar  479  0.1349260E+02  0.1616380E+02  0.2738661E+01  0.3417238E+02
Ar  480  0.1128219E+02  0.1894998E+02  0.2647500E+01  0.5257903E+01
Ar  481  0.1077643E+02  0.1624676E+02  0.5460500E+01  0.4559427E+01
Ar  482  0.1347661E+02  0.1906819E+02  0.5432953E+01  0.3758065E+03
Ar  483  0.1354071E+02  0.1599678E+02  0.8431591E+01  0.8174042E+02
Ar  484  0.1090978E+02  0.1906149E+02  0.8305436E+01  0.1413857E+03
Ar  485  0.1076071E+02  0.1593049E+02  0.1076071E+02  0.3789891E-01
Ar  486  0.1364214E+02  0.1866737E+02  0.1119385E+02  0.2550384E+01
Ar  487  0.1314886E+02  0.1599592E+02  0.1314886E+02  0.1133327E+03
Ar  488  0.1119385E+02  0.1866737E+02  0.1364214E+02  0.2550384E+01
Ar  489  0.1092545E+02  0.1615811E+02  0.1615811E+02  0.2848406E+03
Ar  490  0.1388890E+02  0.1898759E+02  0.1651969E+02  0.3372631E+01
Ar  491  0.1388890E+02  0.1651969E+02  0.1898759E+02  0.3372631E+01
Ar  492  0.1088436E+02  0.1847593E+02  0.1847593E+02  0.1946251E+03
Ar  493  0.1068846E+02  0.1622160E+02  0.2197071E+02  0.2298768E+02
Ar  494  0.1342287E+02  0.1887850E+02  0.2181293E+02  0.6771478E+02
Ar  495  0.1356304E+02  0.1626946E+02  0.2416820E+02  0.3322930E+02
Ar  496  0.1084992E+02  0.1922338E+02  0.2435233E+02  0.1586147E+03
Ar  497  0.1100127E+02  0.1641091E+02  0.2675099E+02  0.5524564E+02
Ar  498  0.1358758E+02  0.1886082E+02  0.2680297E+02  0.9430648E+02
Ar  499  0.1336479E+02  0.1626496E+02  0.2947569E+02  0.4110102E+02
Ar  500  0.1080613E+02  0.1900664E+02  0.2921605E+02  0.3621958E+02
Ar  501  0.1082930E+02  0.1642627E+02  0.3211397E+02  0.2751228E+02
Ar  502  0.1343800E+02  0.1919895E+02  0.3212008E+02  0.2205932E+03
Ar  503  0.1328846E+02  0.1662774E+02  0.3525527E+02  0.9701318E+02
Ar  504  0.1028078E+02  0.1905361E+02  0.3518307E+02  0.5475795E+02
Ar  505  0.1070718E+02  0.2165612E+02  0.6892811E-01  0.4012118E+02
Ar  506  0.1363003E+02  0.2411095E+02  0.2965469E+00  0.3999413E+01
Ar  507  0.1365904E+02  0.2150066E+02  0.2618453E+01  0.3112973E+02
Ar  508  0.1075182E+02  0.2438621E+02  0.2772604E+01  0.5907183E+02
Ar  509  0.1096995E+02  0.2126137E+02  0.5295739E+01  0.1173119E+03
Ar  510  0.1339026E+02  0.2431424E+02  0.5256162E+01  0.1814153E+03
Ar  511  0.1333263E+02  0.2177658E+02  0.8289114E+01  0.4238488E+03
Ar  512  0.1079792E+02  0.2418170E+02  0.8269215E+01  0.1635717E+03
Ar  513  0.1096374E+02  0.2133320E+02  0.1096374E+02  0.8495052E+02
Ar  514  0.1376591E+02  0.2440329E+02  0.1096234E+02  0.1186554E+03
Ar  515  0.1379580E+02  0.2162010E+02  0.1379580E+02  0.4446666E+01
Ar  516  0.1096234E+02  0.2440329E+02  0.1376591E+02  0.1186554E+03
Ar  517  0.1068846E+02  0.2197071E+02  0.1622160E+02  0.2298768E+02
Ar  518  0.1356304E+02  0.2416820E+02  0.1626946E+02  0.3322930E+02
Ar  519  0.1342287E+02  0.2181293E+02  0.1887850E+02  0.6771478E+02
Ar  520  0.1084992E+02  0.2435233E+02  0.1922338E+02  0.1586147E+03
Ar  521  0.1085025E+02  0.2121564E+02  0.2121564E+02  0.3085994E+03
Ar  522  0.1370090E+02  0.2448335E+02  0.2165227E+02  0.2636235E+03
Ar  523  0.1370090E+02  0.2165227E+02  0.2448335E+02  0.2636235E+03
Ar  524  0.1041833E+02  0.2424251E+02  0.2424251E+02  0.2675759E+03
Ar  525  0.1081668E+02  0.2203680E+02  0.2685967E+02  0.1969077E+02
Ar  526  0.1354175E+02  0.2431317E+02  0.2692955E+02  0.2619649E+02
Ar  527  0.1368388E+02  0.2156049E+02  0.2958198E+02  0.1654785E+02
Ar  528  0.1100063E+02  0.2425865E+02  0.2998272E+02  0.2171328E+03
Ar  529  0.1108393E+02  0.2164556E+02  0.3223202E+02  0.2648606E+02
Ar  530  0.1396775E+02  0.2406179E+02  0.3214760E+02  0.7089304E+02
Ar  531  0.1329998E+02  0.2136553E+02  0.3514765E+02  0.6596332E+02
Ar  532  0.1092003E+02  0.2430362E+02  0.3528388E+02  0.9359481E+02
Ar  533  0.1074601E+02  0.2696482E+02  0.1197665E+00  0.3620296E+02
Ar  534  0.1371528E+02  0.2990020E+02  0.1911369E+00  0.5295319E+02
Ar  535  0.1354015E+02  0.2707059E+02  0.2905697E+01  0.1001083E+03
Ar  536  0.1101373E+02  0.2985853E+02  0.2912050E+01  0.1167174E+03
Ar  537  0.1084063E+02  0.2673922E+02  0.5120172E+01  0.3066261E+03
Ar  538  0.1391309E+02  0.2963405E+02  0.5583651E+01  0.1682938E+03
Ar  539  0.1332116E+02  0.2710854E+02  0.8264061E+01  0.9649276E+02
Ar  540  0.1068430E+02  0.2953562E+02  0.8108880E+01  0.5506782E+02
Ar  541  0.1101100E+02  0.2640372E+02  0.1101100E+02  0.2375588E+01
Ar  542  0.1375873E+02  0.2943386E+02  0.1103385E+02  0.5941284E+02
Ar  543  0.1372953E+02  0.2662266E+02  0.1372953E+02  0.3142730E+03
Ar  544  0.1103385E+02  0.2943386E+02  0.1375873E+02  0.5941284E+02
Ar  545  0.1100127E+02  0.2675099E+02  0.1641091E+02  0.5524564E+02
Ar  546  0.1336479E+02  0.2947569E+02  0.1626496E+02  0.4110102E+02
Ar  547  0.1358758E+02  0.2680297E+02  0.1886082E+02  0.9430648E+02
Ar  548  0.1080613E+02  0.2921605E+02  0.1900664E+02  0.3621958E+02
Ar  549  0.1081668E+02  0.2685967E+02  0.2203680E+02  0.1969077E+02
Ar  550  0.1368388E+02  0.2958198E+02  0.2156049E+02  0.1654785E+02
Ar  551  0.1354175E+02  0.2692955E+02  0.2431317E+02  0.2619649E+02
Ar  552  0.1100063E+02  0.2998272E+02  0.2425865E+02  0.2171328E+03
Ar  553  0.1092503E+02  0.2686918E+02  0.2686918E+02  0.2174767E+03
Ar  554  0.1303480E+02  0.2953181E+02  0.2699001E+02  0.2228830E+03
Ar  555  0.1303480E+02  0.2699001E+02  0.2953181E+02  0.2228830E+03
Ar  556  0.1080238E+02  0.2987486E+02  0.2987486E+02  0.3030248E+02
Ar  557  0.1114490E+02  0.2684601E+02  0.3279673E+02  0.2087466E+02
Ar  558  0.1354125E+02  0.2938954E+02  0.3212081E+02  0.7053109E+02
Ar  559  0.1362978E+02  0.2714144E+02  0.3533339E+02  0.1050783E+03
Ar  560  0.1108161E+02  0.2961216E+02  0.3535512E+02  0.4324666E+02
Ar  561  0.1055342E+02  0.3217277E+02  0.3768864E+02  0.1036860E+03
Ar  562  0.1392873E+02  0.3496399E+02  0.3772581E+02  0.7502630E+02
Ar  563  0.1334820E+02  0.3246120E+02  0.2445406E+01  0.3044044E+02
Ar  564  0.1042468E+02  0.3470683E+02  0.2587241E+01  0.1128297E+03
Ar  565  0.1093906E+02  0.3204194E+02  0.5777661E+01  0.3980277E+02
Ar  566  0.1351845E+02  0.3480106E+02  0.5709338E+01  0.1176284E+03
Ar  567  0.1388492E+02  0.3208262E+02  0.8190190E+01  0.1172925E+03
Ar  568  0.1103166E+02  0.3438000E+02  0.8590660E+01  0.9508428E+02
Ar  569  0.1135478E+02  0.3194926E+02  0.1135478E+02  0.9094227E+02
Ar  570  0.1376739E+02  0.3490890E+02  0.1109867E+02  0.4944526E+02
Ar  571  0.1384975E+02  0.3213014E+02  0.1384975E+02  0.2461730E+03
Ar  572  0.1109867E+02  0.3490890E+02  0.1376739E+02  0.4944526E+02
Ar  573  0.1082930E+02  0.3211397E+02  0.1642627E+02  0.2751228E+02
Ar  574  0.1328846E+02  0.3525527E+02  0.1662774E+02  0.9701318E+02
Ar  575  0.1343800E+02  0.3212008E+02  0.1919895E+02  0.2205932E+03
Ar  576  0.1028078E+02  0.3518307E+02  0.1905361E+02  0.5475795E+02
Ar  577  0.1108393E+02  0.3223202E+02  0.2164556E+02  0.2648606E+02
Ar  578  0.1329998E+02  0.3514765E+02  0.2136553E+02  0.6596332E+02
Ar  579  0.1396775E+02  0.3214760E+02  0.2406179E+02  0.7089304E+02
Ar  580  0.1092003E+02  0.3528388E+02  0.2430362E+02  0.9359481E+02
Ar  581  0.1114490E+02  0.3279673E+02  0.2684601E+02  0.2087466E+02
Ar  582  0.1362978E+02  0.3533339E+02  0.2714144E+02  0.1050783E+03
Ar  583  0.1354125E+02  0.3212081E+02  0.2938954E+02  0.7053109E+02
Ar  584  0.1108161E+02  0.3535512E+02  0.2961216E+02  0.4324666E+02
Ar  585  0.1150719E+02  0.3219360E+02  0.3219360E+02  0.3973028E+02
Ar  586  0.1332673E+02  0.3501274E+02  0.3227687E+02  0.9424386E+02
Ar  587  0.1332673E+02  0.3227687E+02  0.3501274E+02  0.9424386E+02
Ar  588  0.1066706E+02  0.3522131E+02  0.3522131E+02  0.3375509E+02
Ar  589  0.1628629E+02  0.3775404E+02  0.3775404E+02  0.1168503E+03
Ar  590  0.1900859E+02  0.2408882E+01  0.3762870E+02  0.1552770E+02
Ar  591  0.1900859E+02  0.3762870E+02  0.2408882E+01  0.1552770E+02
Ar  592  0.1654784E+02  0.2489511E+01  0.2489511E+01  0.6165709E+02
Ar  593  0.1598521E+02  0.3768552E+02  0.5465794E+01  0.5482586E+02
Ar  594  0.1870057E+02  0.2518067E+01  0.5112905E+01  0.7948107E+02
Ar  595  0.1894054E+02  0.3129000E+00  0.8090560E+01  0.2168575E+02
Ar  596  0.1651427E+02  0.2676417E+01  0.8233505E+01  0.1356507E+02
Ar  597  0.1651443E+02  0.3774066E+02  0.1097082E+02  0.1204472E+03
Ar  598  0.1894998E+02  0.2647500E+01  0.1128219E+02  0.5257903E+01
Ar  599  0.1872794E+02  0.2067529E+00  0.1371944E+02  0.1664583E+03
Ar  600  0.1616380E+02  0.2738661E+01  0.1349260E+02  0.3417238E+02
Ar  601  0.1647893E+02  0.3776792E+02  0.1647893E+02  0.3647266E+03
Ar  602  0.1896129E+02  0.2990240E+01  0.1622508E+02  0.6019882E+02
Ar  603  0.1878805E+02  0.3769471E+02  0.1878805E+02  0.1830593E+03
Ar  604  0.1622508E+02  0.2990240E+01  0.1896129E+02  0.6019882E+02
Ar  605  0.1604152E+02  0.3770047E+02  0.2124069E+02  0.8080912E+02
Ar  606  0.1900345E+02  0.2485163E+01  0.2149237E+02  0.2251510E+02
Ar  607  0.1884702E+02  0.1090614E+00  0.2451811E+02  0.2517141E+03
Ar  608  0.1648037E+02  0.2678840E+01  0.2461031E+02  0.6378606E+02
Ar  609  0.1590676E+02  0.9584339E-01  0.2719560E+02  0.3165940E+03
Ar  610  0.1899187E+02  0.2781923E+01  0.2698180E+02  0.1178004E+03
Ar  611  0.1937866E+02  0.1451548E+00  0.2933009E+02  0.1914191E+02
Ar  612  0.1615829E+02  0.2781289E+01  0.2978071E+02  0.1784577E+02
Ar  613  0.1639370E+02  0.3775828E+02  0.3228798E+02  0.2794040E+02
Ar  614  0.1897504E+02  0.2701815E+01  0.3241070E+02  0.1405055E+03
Ar  615  0.1897791E+02  0.3750996E+02  0.3481545E+02  0.7346443E+02
Ar  616  0.1650308E+02  0.2772671E+01  0.3524641E+02  0.5428075E+02
Ar  617  0.1598521E+02  0.5465794E+01  0.3768552E+02  0.5482586E+02
Ar  618  0.1894054E+02  0.8090560E+01  0.3129000E+00  0.2168575E+02
Ar  619  0.1870057E+02  0.5112905E+01  0.2518067E+01  0.7948107E+02
Ar  620  0.1651427E+02  0.8233505E+01  0.2676417E+01  0.1356507E+02
Ar  621  0.1614637E+02  0.5269080E+01  0.5269080E+01  0.1419783E+03
Ar  622  0.1869949E+02  0.8005877E+01  0.5450849E+01  0.1352112E+03
Ar  623  0.1869949E+02  0.5450849E+01  0.8005877E+01  0.1352112E+03
Ar  624  0.1665471E+02  0.8395332E+01  0.8395332E+01  0.4037670E+03
Ar  625  0.1624676E+02  0.5460500E+01  0.1077643E+02  0.4559427E+01
Ar  626  0.1906149E+02  0.8305436E+01  0.1090978E+02  0.1413857E+03
Ar  627  0.1906819E+02  0.5432953E+01  0.1347661E+02  0.3758065E+03
Ar  628  0.1599678E+02  0.8431591E+01  0.1354071E+02  0.8174042E+02
Ar  629  0.1608407E+02  0.6022753E+01  0.1608407E+02  0.1899980E+02
Ar  630  0.1927662E+02  0.8216741E+01  0.1606025E+02  0.7967334E+02
Ar  631  0.1877212E+02  0.5983827E+01  0.1877212E+02  0.2094611E+03
Ar  632  0.1606025E+02  0.8216741E+01  0.1927662E+02  0.7967334E+02
Ar  633  0.1627737E+02  0.5508525E+01  0.2190896E+02  0.3529074E+02
Ar  634  0.1910353E+02  0.8012661E+01  0.2172575E+02  0.1572442E+03
Ar  635  0.1903389E+02  0.5305581E+01  0.2414982E+02  0.5807591E+02
Ar  636  0.1612888E+02  0.8274344E+01  0.2434995E+02  0.2741043E+03
Ar  637  0.1669574E+02  0.5638559E+01  0.2691365E+02  0.2009621E+02
Ar  638  0.1900243E+02  0.8314637E+01  0.2684245E+02  0.1604595E+03
Ar  639  0.1907531E+02  0.5692873E+01  0.2965787E+02  0.5376111E+02
Ar  640  0.1655041E+02  0.8186254E+01  0.2937076E+02  0.8816580E+02
Ar  641  0.1619194E+02  0.5355880E+01  0.3229128E+02  0.2010774E+03
Ar  642  0.1888540E+02  0.8172432E+01  0.3217458E+02  0.6399436E+02
Ar  643  0.1875404E+02  0.6128226E+01  0.3494133E+02  0.8924002E+02
Ar  644  0.1589399E+02  0.8215124E+01  0.3474952E+02  0.8902460E+02
Ar  645  0.1651443E+02  0.1097082E+02  0.3774066E+02  0.1204472E+03
Ar  646  0.1872794E+02  0.1371944E+02  0.2067529E+00  0.1664583E+03
Ar  647  0.1894998E+02  0.1128219E+02  0.2647500E+01  0.5257903E+01
Ar  648  0.1616380E+02  0.1349260E+02  0.2738661E+01  0.3417238E+02
Ar  649  0.1624676E+02  0.1077643E+02  0.5460500E+01  0.4559427E+01
Ar  650  0.1906819E+02  0.1347661E+02  0.5432953E+01  0.3758065E+03
Ar  651  0.1906149E+02  0.1090978E+02  0.8305436E+01  0.1413857E+03
Ar  652  0.1599678E+02  0.1354071E+02  0.8431591E+01  0.8174042E+02
Ar  653  0.1593049E+02  0.1076071E+02  0.1076071E+02  0.3789891E-01
Ar  654  0.1866737E+02  0.1364214E+02  0.1119385E+02  0.2550384E+01
Ar  655  0.1866737E+02  0.1119385E+02  0.1364214E+02  0.2550384E+01
Ar  656  0.1599592E+02  0.1314886E+02  0.1314886E+02  0.1133327E+03
Ar  657  0.1615811E+02  0.1092545E+02  0.1615811E+02  0.2848406E+03
Ar  658  0.1898759E+02  0.1388890E+02  0.1651969E+02  0.3372631E+01
Ar  659  0.1847593E+02  0.1088436E+02  0.1847593E+02  0.1946251E+03
Ar  660  0.1651969E+02  0.1388890E+02  0.1898759E+02  0.3372631E+01
Ar  661  0.1622160E+02  0.1068846E+02  0.2197071E+02  0.2298768E+02
Ar  662  0.1887850E+02  0.1342287E+02  0.2181293E+02  0.6771478E+02
Ar  663  0.1922338E+02  0.1084992E+02  0.2435233E+02  0.1586147E+03
Ar  664  0.1626946E+02  0.1356304E+02  0.2416820E+02  0.3322930E+02
Ar  665  0.1641091E+02  0.1100127E+02  0.2675099E+02  0.5524564E+02
Ar  666  0.1886082E+02  0.1358758E+02  0.2680297E+02  0.9430648E+02
Ar  667  0.1900664E+02  0.1080613E+02  0.2921605E+02  0.3621958E+02
Ar  668  0.1626496E+02  0.1336479E+02  0.2947569E+02  0.4110102E+02
Ar  669  0.1642627E+02  0.1082930E+02  0.3211397E+02  0.2751228E+02
Ar  670  0.1919895E+02  0.1343800E+02  0.3212008E+02  0.2205932E+03
Ar  671  0.1905361E+02  0.1028078E+02  0.3518307E+02  0.5475795E+02
Ar  672  0.1662774E+02  0.1328846E+02  0.3525527E+02  0.9701318E+02
Ar  673  0.1647893E+02  0.1647893E+02  0.3776792E+02  0.3647266E+03
Ar  674  0.1878805E+02  0.1878805E+02  0.3769471E+02  0.1830593E+03
Ar  675  0.1896129E+02  0.1622508E+02  0.2990240E+01  0.6019882E+02
Ar  676  0.1622508E+02  0.1896129E+02  0.2990240E+01  0.6019882E+02
Ar  677  0.1608407E+02  0.1608407E+02  0.6022753E+01  0.1899980E+02
Ar  678  0.1877212E+02  0.1877212E+02  0.5983827E+01  0.2094611E+03
Ar  679  0.1927662E+02  0.1606025E+02  0.8216741E+01  0.7967334E+02
Ar  680  0.1606025E+02  0.1927662E+02  0.8216741E+01  0.7967334E+02
Ar  681  0.1615811E+02  0.1615811E+02  0.1092545E+02  0.2848406E+03
Ar  682  0.1847593E+02  0.1847593E+02  0.1088436E+02  0.1946251E+03
Ar  683  0.1898759E+02  0.1651969E+02  0.1388890E+02  0.3372631E+01
Ar  684  0.1651969E+02  0.1898759E+02  0.1388890E+02  0.3372631E+01
Ar  685  0.1609931E+02  0.1609931E+02  0.1609931E+02  0.2007939E+03
Ar  686  0.1911521E+02  0.1911521E+02  0.1650227E+02  0.4215372E+02
Ar  687  0.1911521E+02  0.1650227E+02  0.1911521E+02  0.4215372E+02
Ar  688  0.1650227E+02  0.1911521E+02  0.1911521E+02  0.4215372E+02
Ar  689  0.1617115E+02  0.1617115E+02  0.2185003E+02  0.3684085E+03
Ar  690  0.1863415E+02  0.1863415E+02  0.2175870E+02  0.3652422E+03
Ar  691  0.1905824E+02  0.1597272E+02  0.2458242E+02  0.1618726E+03
Ar  692  0.1597272E+02  0.1905824E+02  0.2458242E+02  0.1618726E+03
Ar  693  0.1616279E+02  0.1616279E+02  0.2677089E+02  0.2338746E+02
Ar  694  0.1873266E+02  0.1873266E+02  0.2698197E+02  0.1253567E+03
Ar  695  0.1877168E+02  0.1612153E+02  0.2929415E+02  0.6287938E+02
Ar  696  0.1612153E+02  0.1877168E+02  0.2929415E+02  0.6287938E+02
Ar  697  0.1653053E+02  0.1653053E+02  0.3218197E+02  0.8662470E+02
Ar  698  0.1931443E+02  0.1931443E+02  0.3240585E+02  0.1490724E+02
Ar  699  0.1866172E+02  0.1627576E+02  0.3499291E+02  0.5403212E+02
Ar  700  0.1627576E+02  0.1866172E+02  0.3499291E+02  0.5403212E+02
Ar  701  0.1604152E+02  0.2124069E+02  0.3770047E+02  0.8080912E+02
Ar  702  0.1884702E+02  0.2451811E+02  0.1090614E+00  0.2517141E+03
Ar  703  0.1900345E+02  0.2149237E+02  0.2485163E+01  0.2251510E+02
Ar  704  0.1648037E+02  0.2461031E+02  0.2678840E+01  0.6378606E+02
Ar  705  0.1627737E+02  0.2190896E+02  0.5508525E+01  0.3529074E+02
Ar  706  0.1903389E+02  0.2414982E+02  0.5305581E+01  0.5807591E+02
Ar  707  0.1910353E+02  0.2172575E+02  0.8012661E+01  0.1572442E+03
Ar  708  0.1612888E+02  0.2434995E+02  0.8274344E+01  0.2741043E+03
Ar  709  0.1622160E+02  0.2197071E+02  0.1068846E+02  0.2298768E+02
Ar  710  0.1922338E+02  0.2435233E+02  0.1084992E+02  0.1586147E+03
Ar  711  0.1887850E+02  0.2181293E+02  0.1342287E+02  0.6771478E+02
Ar  712  0.1626946E+02  0.2416820E+02  0.1356304E+02  0.3322930E+02
Ar  713  0.1617115E+02  0.2185003E+02  0.1617115E+02  0.3684085E+03
Ar  714  0.1905824E+02  0.2458242E+02  0.1597272E+02  0.1618726E+03
Ar  715  0.1863415E+02  0.2175870E+02  0.1863415E+02  0.3652422E+03
Ar  716  0.1597272E+02  0.2458242E+02  0.1905824E+02  0.1618726E+03
Ar  717  0.1620287E+02  0.2144457E+02  0.2144457E+02  0.6962708E+02
Ar  718  0.1868010E+02  0.2428880E+02  0.2138609E+02  0.4102063E+02
Ar  719  0.1868010E+02  0.2138609E+02  0.2428880E+02  0.4102063E+02
Ar  720  0.1684269E+02  0.2447379E+02  0.2447379E+02  0.3534439E+03
Ar  721  0.1631287E+02  0.2169104E+02  0.2703261E+02  0.1338520E+03
Ar  722  0.1920435E+02  0.2405886E+02  0.2719118E+02  0.1107691E+03
Ar  723  0.1908477E+02  0.2158905E+02  0.2959216E+02  0.1463585E+03
Ar  724  0.1633537E+02  0.2434999E+02  0.2954261E+02  0.1055348E+03
Ar  725  0.1596301E+02  0.2130620E+02  0.3247559E+02  0.1259917E+03
Ar  726  0.1854893E+02  0.2392485E+02  0.3245643E+02  0.1602703E+03
Ar  727  0.1898685E+02  0.2159479E+02  0.3497200E+02  0.5922796E+01
Ar  728  0.1615799E+02  0.2438006E+02  0.3539229E+02  0.3016941E+02
Ar  729  0.1590676E+02  0.2719560E+02  0.9584339E-01  0.3165940E+03
Ar  730  0.1937866E+02  0.2933009E+02  0.1451548E+00  0.1914191E+02
Ar  731  0.1899187E+02  0.2698180E+02  0.2781923E+01  0.1178004E+03
Ar  732  0.1615829E+02  0.2978071E+02  0.2781289E+01  0.1784577E+02
Ar  733  0.1669574E+02  0.2691365E+02  0.5638559E+01  0.2009621E+02
Ar  734  0.1907531E+02  0.2965787E+02  0.5692873E+01  0.5376111E+02
Ar  735  0.1900243E+02  0.2684245E+02  0.8314637E+01  0.1604595E+03
Ar  736  0.1655041E+02  0.2937076E+02  0.8186254E+01  0.8816580E+02
Ar  737  0.1641091E+02  0.2675099E+02  0.1100127E+02  0.5524564E+02
Ar  738  0.1900664E+02  0.2921605E+02  0.1080613E+02  0.3621958E+02
Ar  739  0.1886082E+02  0.2680297E+02  0.1358758E+02  0.9430648E+02
Ar  740  0.1626496E+02  0.2947569E+02  0.1336479E+02  0.4110102E+02
Ar  741  0.1616279E+02  0.2677089E+02  0.1616279E+02  0.2338746E+02
Ar  742  0.1877168E+02  0.2929415E+02  0.1612153E+02  0.6287938E+02
Ar  743  0.1873266E+02  0.2698197E+02  0.1873266E+02  0.1253567E+03
Ar  744  0.1612153E+02  0.2929415E+02  0.1877168E+02  0.6287938E+02
Ar  745  0.1631287E+02  0.2703261E+02  0.2169104E+02  0.1338520E+03
Ar  746  0.1908477E+02  0.2959216E+02  0.2158905E+02  0.1463585E+03
Ar  747  0.1920435E+02  0.2719118E+02  0.2405886E+02  0.1107691E+03
Ar  748  0.1633537E+02  0.2954261E+02  0.2434999E+02  0.1055348E+03
Ar  749  0.1607826E+02  0.2710471E+02  0.2710471E+02  0.8745894E+01
Ar  750  0.1906475E+02  0.2923231E+02  0.2682736E+02  0.2216282E+03
Ar  751  0.1906475E+02  0.2682736E+02  0.2923231E+02  0.2216282E+03
Ar  752  0.1643034E+02  0.2995727E+02  0.2995727E+02  0.4848779E+02
Ar  753  0.1648581E+02  0.2676639E+02  0.3244327E+02  0.2053852E+03
Ar  754  0.1875223E+02  0.2971921E+02  0.3239366E+02  0.5003345E+02
Ar  755  0.1909244E+02  0.2698011E+02  0.3527312E+02  0.2188244E+02
Ar  756  0.1606259E+02  0.2965356E+02  0.3490766E+02  0.5465630E+02
Ar  757  0.1639370E+02  0.3228798E+02  0.3775828E+02  0.2794040E+02
Ar  758  0.1897791E+02  0.3481545E+02  0.3750996E+02  0.7346443E+02
Ar  759  0.1897504E+02  0.3241070E+02  0.2701815E+01  0.1405055E+03
Ar  760  0.1650308E+02  0.3524641E+02  0.2772671E+01  0.5428075E+02
Ar  761  0.1619194E+02  0.3229128E+02  0.5355880E+01  0.2010774E+03
Ar  762  0.1875404E+02  0.3494133E+02  0.6128226E+01  0.8924002E+02
Ar  763  0.1888540E+02  0.3217458E+02  0.8172432E+01  0.6399436E+02
Ar  764  0.1589399E+02  0.3474952E+02  0.8215124E+01  0.8902460E+02
Ar  765  0.1642627E+02  0.3211397E+02  0.1082930E+02  0.2751228E+02
Ar  766  0.1905361E+02  0.3518307E+02  0.1028078E+02  0.5475795E+02
Ar  767  0.1919895E+02  0.3212008E+02  0.1343800E+02  0.2205932E+03
Ar  768  0.1662774E+02  0.3525527E+02  0.1328846E+02  0.9701318E+02
Ar  769  0.1653053E+02  0.3218197E+02  0.1653053E+02  0.8662470E+02
Ar  770  0.1866172E+02  0.3499291E+02  0.1627576E+02  0.5403212E+02
Ar  771  0.1931443E+02  0.3240585E+02  0.1931443E+02  0.1490724E+02
Ar  772  0.1627576E+02  0.3499291E+02  0.1866172E+02  0.5403212E+02
Ar  773  0.1596301E+02  0.3247559E+02  0.2130620E+02  0.1259917E+03
Ar  774  0.1898685E+02  0.3497200E+02  0.2159479E+02  0.5922796E+01
Ar  775  0.1854893E+02  0.3245643E+02  0.2392485E+02  0.1602703E+03
Ar  776  0.1615799E+02  0.3539229E+02  0.2438006E+02  0.3016941E+02
Ar  777  0.1648581E+02  0.3244327E+02  0.2676639E+02  0.2053852E+03
Ar  778  0.1909244E+02  0.3527312E+02  0.2698011E+02  0.2188244E+02
Ar  779  0.1875223E+02  0.3239366E+02  0.2971921E+02  0.5003345E+02
Ar  780  0.1606259E+02  0.3490766E+02  0.2965356E+02  0.5465630E+02
Ar  781  0.1630081E+02  0.3255247E+02  0.3255247E+02  0.1189899E+03
Ar  782  0.1875243E+02  0.3513901E+02  0.3213650E+02  0.1410129E+03
Ar  783  0.1875243E+02  0.3213650E+02  0.3513901E+02  0.1410129E+03
Ar  784  0.1641782E+02  0.3490358E+02  0.3490358E+02  0.1416875E+03
Ar  785  0.2162607E+02  0.3747451E+02  0.3747451E+02  0.4641564E+02
Ar  786  0.2415596E+02  0.2558002E+01  0.3757244E+02  0.4138746E+02
Ar  787  0.2415596E+02  0.3757244E+02  0.2558002E+01  0.4138746E+02
Ar  788  0.2156252E+02  0.2353582E+01  0.2353582E+01  0.9139305E+02
Ar  789  0.2153837E+02  0.3772169E+02  0.5145547E+01  0.4586860E+02
Ar  790  0.2435502E+02  0.2752661E+01  0.5408229E+01  0.4140217E+02
Ar  791  0.2436270E+02  0.3748066E+02  0.8220587E+01  0.4784204E+02
Ar  792  0.2177464E+02  0.2668351E+01  0.7961004E+01  0.4857875E+02
Ar  793  0.2165612E+02  0.6892811E-01  0.1070718E+02  0.4012118E+02
Ar  794  0.2438621E+02  0.2772604E+01  0.1075182E+02  0.5907183E+02
Ar  795  0.2411095E+02  0.2965469E+00  0.1363003E+02  0.3999413E+01
Ar  796  0.2150066E+02  0.2618453E+01  0.1365904E+02  0.3112973E+02
Ar  797  0.2124069E+02  0.3770047E+02  0.1604152E+02  0.8080912E+02
Ar  798  0.2461031E+02  0.2678840E+01  0.1648037E+02  0.6378606E+02
Ar  799  0.2451811E+02  0.1090614E+00  0.1884702E+02  0.2517141E+03
Ar  800  0.2149237E+02  0.2485163E+01  0.1900345E+02  0.2251510E+02
Ar  801  0.2164769E+02  0.3737207E+02  0.2164769E+02  0.2745169E+03
Ar  802  0.2421253E+02  0.2661884E+01  0.2178572E+02  0.1410443E+03
Ar  803  0.2421502E+02  0.3760483E+02  0.2421502E+02  0.3612890E+02
Ar  804  0.2178572E+02  0.2661884E+01  0.2421253E+02  0.1410443E+03
Ar  805  0.2156972E+02  0.3770578E+02  0.2673019E+02  0.1218672E+03
Ar  806  0.2431609E+02  0.2638960E+01  0.2726297E+02  0.6064992E+02
Ar  807  0.2430831E+02  0.3774195E+02  0.2981539E+02  0.2549608E+02
Ar  808  0.2183216E+02  0.3008484E+01  0.2989303E+02  0.2571369E+03
Ar  809  0.2171322E+02  0.3746938E+02  0.3222867E+02  0.1519185E+02
Ar  810  0.2431308E+02  0.2558209E+01  0.3233947E+02  0.5379420E+02
Ar  811  0.2444962E+02  0.3749470E+02  0.3473757E+02  0.8333510E+02
Ar  812  0.2156415E+02  0.2812682E+01  0.3503277E+02  0.1262027E+03
Ar  813  0.2153837E+02  0.5145547E+01  0.3772169E+02  0.4586860E+02
Ar  814  0.2436270E+02  0.8220587E+01  0.3748066E+02  0.4784204E+02
Ar  815  0.2435502E+02  0.5408229E+01  0.2752661E+01  0.4140217E+02
Ar  816  0.2177464E+02  0.7961004E+01  0.2668351E+01  0.4857875E+02
Ar  817  0.2127778E+02  0.5248417E+01  0.5248417E+01  0.6704744E+02
Ar  818  0.2448314E+02  0.7986462E+01  0.5494129E+01  0.1209421E+03
Ar  819  0.2448314E+02  0.5494129E+01  0.7986462E+01  0.1209421E+03
Ar  820  0.2152494E+02  0.7939644E+01  0.7939644E+01  0.1092122E+03
Ar  821  0.2126137E+02  0.5295739E+01  0.1096995E+02  0.1173119E+03
Ar  822  0.2418170E+02  0.8269215E+01  0.1079792E+02  0.1635717E+03
Ar  823  0.2431424E+02  0.5256162E+01  0.1339026E+02  0.1814153E+03
Ar  824  0.2177658E+02  0.8289114E+01  0.1333263E+02  0.4238488E+03
Ar  825  0.2190896E+02  0.5508525E+01  0.1627737E+02  0.3529074E+02
Ar  826  0.2434995E+02  0.8274344E+01  0.1612888E+02  0.2741043E+03
Ar  827  0.2414982E+02  0.5305581E+01  0.1903389E+02  0.5807591E+02
Ar  828  0.2172575E+02  0.8012661E+01  0.1910353E+02  0.1572442E+03
Ar  829  0.2135188E+02  0.5225440E+01  0.2135188E+02  0.1510682E+03
Ar  830  0.2434278E+02  0.7866078E+01  0.2151312E+02  0.7531038E+02
Ar  831  0.2418224E+02  0.5526649E+01  0.2418224E+02  0.7621407E+02
Ar  832  0.2151312E+02  0.7866078E+01  0.2434278E+02  0.7531038E+02
Ar  833  0.2163036E+02  0.5297286E+01  0.2685954E+02  0.6450382E+02
Ar  834  0.2461819E+02  0.8176023E+01  0.2731392E+02  0.2140126E+02
Ar  835  0.2465046E+02  0.5264427E+01  0.2969718E+02  0.4832831E+02
Ar  836  0.2177924E+02  0.8347966E+01  0.2940285E+02  0.6876666E+02
Ar  837  0.2201483E+02  0.5576766E+01  0.3228650E+02  0.1018138E+03
Ar  838  0.2440318E+02  0.8348080E+01  0.3241789E+02  0.3104811E+02
Ar  839  0.2428608E+02  0.5235306E+01  0.3504571E+02  0.8069422E+02
Ar  840  0.2186111E+02  0.8099673E+01  0.3498364E+02  0.7915081E+02
Ar  841  0.2165612E+02  0.1070718E+02  0.6892811E-01  0.4012118E+02
Ar  842  0.2411095E+02  0.1363003E+02  0.2965469E+00  0.3999413E+01
Ar  843  0.2438621E+02  0.1075182E+02  0.2772604E+01  0.5907183E+02
Ar  844  0.2150066E+02  0.1365904E+02  0.2618453E+01  0.3112973E+02
Ar  845  0.2126137E+02  0.1096995E+02  0.5295739E+01  0.1173119E+03
Ar  846  0.2431424E+02  0.1339026E+02  0.5256162E+01  0.1814153E+03
Ar  847  0.2418170E+02  0.1079792E+02  0.8269215E+01  0.1635717E+03
Ar  848  0.2177658E+02  0.1333263E+02  0.8289114E+01  0.4238488E+03
Ar  849  0.2133320E+02  0.1096374E+02  0.1096374E+02  0.8495052E+02
Ar  850  0.2440329E+02  0.1376591E+02  0.1096234E+02  0.1186554E+03
Ar  851  0.2440329E+02  0.1096234E+02  0.1376591E+02  0.1186554E+03
Ar  852  0.2162010E+02  0.1379580E+02  0.1379580E+02  0.4446666E+01
Ar  853  0.2197071E+02  0.1068846E+02  0.1622160E+02  0.2298768E+02
Ar  854  0.2416820E+02  0.1356304E+02  0.1626946E+02  0.3322930E+02
Ar  855  0.2435233E+02  0.1084992E+02  0.1922338E+02  0.1586147E+03
Ar  856  0.2181293E+02  0.1342287E+02  0.1887850E+02  0.6771478E+02
Ar  857  0.2121564E+02  0.1085025E+02  0.2121564E+02  0.3085994E+03
Ar  858  0.2448335E+02  0.1370090E+02  0.2165227E+02  0.2636235E+03
Ar  859  0.2424251E+02  0.1041833E+02  0.2424251E+02  0.2675759E+03
Ar  860  0.2165227E+02  0.1370090E+02  0.2448335E+02  0.2636235E+03
Ar  861  0.2203680E+02  0.1081668E+02  0.2685967E+02  0.1969077E+02
Ar  862  0.2431317E+02  0.1354175E+02  0.2692955E+02  0.2619649E+02
Ar  863  0.2425865E+02  0.1100063E+02  0.2998272E+02  0.2171328E+03
Ar  864  0.2156049E+02  0.1368388E+02  0.2958198E+02  0.1654785E+02
Ar  865  0.2164556E+02  0.1108393E+02  0.3223202E+02  0.2648606E+02
Ar  866  0.2406179E+02  0.1396775E+02  0.3214760E+02  0.7089304E+02
Ar  867  0.2430362E+02  0.1092003E+02  0.3528388E+02  0.9359481E+02
Ar  868  0.2136553E+02  0.1329998E+02  0.3514765E+02  0.6596332E+02
Ar  869  0.2124069E+02  0.1604152E+02  0.3770047E+02  0.8080912E+02
Ar  870  0.2451811E+02  0.1884702E+02  0.1090614E+00  0.2517141E+03
Ar  871  0.2461031E+02  0.1648037E+02  0.2678840E+01  0.6378606E+02
Ar  872  0.2149237E+02  0.1900345E+02  0.2485163E+01  0.2251510E+02
Ar  873  0.2190896E+02  0.1627737E+02  0.5508525E+01  0.3529074E+02
Ar  874  0.2414982E+02  0.1903389E+02  0.5305581E+01  0.5807591E+02
Ar  875  0.2434995E+02  0.1612888E+02  0.8274344E+01  0.2741043E+03
Ar  876  0.2172575E+02  0.1910353E+02  0.8012661E+01  0.1572442E+03
Ar  877  0.2197071E+02  0.1622160E+02  0.1068846E+02  0.2298768E+02
Ar  878  0.2435233E+02  0.1922338E+02  0.1084992E+02  0.1586147E+03
Ar  879  0.2416820E+02  0.1626946E+02  0.1356304E+02  0.3322930E+02
Ar  880  0.2181293E+02  0.1887850E+02  0.1342287E+02  0.6771478E+02
Ar  881  0.2185003E+02  0.1617115E+02  0.1617115E+02  0.3684085E+03
Ar  882  0.2458242E+02  0.1905824E+02  0.1597272E+02  0.1618726E+03
Ar  883  0.2458242E+02  0.1597272E+02  0.1905824E+02  0.1618726E+03
Ar  884  0.2175870E+02  0.1863415E+02  0.1863415E+02  0.3652422E+03
Ar  885  0.2144457E+02  0.1620287E+02  0.2144457E+02  0.6962708E+02
Ar  886  0.2428880E+02  0.1868010E+02  0.2138609E+02  0.4102063E+02
Ar  887  0.2447379E+02  0.1684269E+02  0.2447379E+02  0.3534439E+03
Ar  888  0.2138609E+02  0.1868010E+02  0.2428880E+02  0.4102063E+02
Ar  889  0.2169104E+02  0.1631287E+02  0.2703261E+02  0.1338520E+03
Ar  890  0.2405886E+02  0.1920435E+02  0.2719118E+02  0.1107691E+03
Ar  891  0.2434999E+02  0.1633537E+02  0.2954261E+02  0.1055348E+03
Ar  892  0.2158905E+02  0.1908477E+02  0.2959216E+02  0.1463585E+03
Ar  893  0.2130620E+02  0.1596301E+02  0.3247559E+02  0.1259917E+03
Ar  894  0.2392485E+02  0.1854893E+02  0.3245643E+02  0.1602703E+03
Ar  895  0.2438006E+02  0.1615799E+02  0.3539229E+02  0.3016941E+02
Ar  896  0.2159479E+02  0.1898685E+02  0.3497200E+02  0.5922796E+01
Ar  897  0.2164769E+02  0.2164769E+02  0.3737207E+02  0.2745169E+03
Ar  898  0.2421502E+02  0.2421502E+02  0.3760483E+02  0.3612890E+02
Ar  899  0.2421253E+02  0.2178572E+02  0.2661884E+01  0.1410443E+03
Ar  900  0.2178572E+02  0.2421253E+02  0.2661884E+01  0.1410443E+03
Ar  901  0.2135188E+02  0.2135188E+02  0.5225440E+01  0.1510682E+03
Ar  902  0.2418224E+02  0.2418224E+02  0.5526649E+01  0.7621407E+02
Ar  903  0.2434278E+02  0.2151312E+02  0.7866078E+01  0.7531038E+02
Ar  904  0.2151312E+02  0.2434278E+02  0.7866078E+01  0.7531038E+02
Ar  905  0.2121564E+02  0.2121564E+02  0.1085025E+02  0.3085994E+03
Ar  906  0.2424251E+02  0.2424251E+02  0.1041833E+02  0.2675759E+03
Ar  907  0.2448335E+02  0.2165227E+02  0.1370090E+02  0.2636235E+03
Ar  908  0.2165227E+02  0.2448335E+02  0.1370090E+02  0.2636235E+03
Ar  909  0.2144457E+02  0.2144457E+02  0.1620287E+02  0.6962708E+02
Ar  910  0.2447379E+02  0.2447379E+02  0.1684269E+02  0.3534439E+03
Ar  911  0.2428880E+02  0.2138609E+02  0.1868010E+02  0.4102063E+02
Ar  912  0.2138609E+02  0.2428880E+02  0.1868010E+02  0.4102063E+02
Ar  913  0.2138084E+02  0.2138084E+02  0.2138084E+02  0.7171699E+02
Ar  914  0.2450360E+02  0.2450360E+02  0.2165397E+02  0.1791449E+03
Ar  915  0.2450360E+02  0.2165397E+02  0.2450360E+02  0.1791449E+03
Ar  916  0.2165397E+02  0.2450360E+02  0.2450360E+02  0.1791449E+03
Ar  917  0.2175500E+02  0.2175500E+02  0.2697840E+02  0.2449221E+03
Ar  918  0.2420960E+02  0.2420960E+02  0.2756633E+02  0.2141861E+03
Ar  919  0.2438624E+02  0.2157980E+02  0.2997901E+02  0.4087954E+02
Ar  920  0.2157980E+02  0.2438624E+02  0.2997901E+02  0.4087954E+02
Ar  921  0.2166891E+02  0.2166891E+02  0.3217331E+02  0.1404679E+00
Ar  922  0.2416611E+02  0.2416611E+02  0.3232781E+02  0.2559681E+03
Ar  923  0.2424836E+02  0.2147729E+02  0.3498371E+02  0.8323828E+02
Ar  924  0.2147729E+02  0.2424836E+02  0.3498371E+02  0.8323828E+02
Ar  925  0.2156972E+02  0.2673019E+02  0.3770578E+02  0.1218672E+03
Ar  926  0.2430831E+02  0.2981539E+02  0.3774195E+02  0.2549608E+02
Ar  927  0.2431609E+02  0.2726297E+02  0.2638960E+01  0.6064992E+02
Ar  928  0.2183216E+02  0.2989303E+02  0.3008484E+01  0.2571369E+03
Ar  929  0.2163036E+02  0.2685954E+02  0.5297286E+01  0.6450382E+02
Ar  930  0.2465046E+02  0.2969718E+02  0.5264427E+01  0.4832831E+02
Ar  931  0.2461819E+02  0.2731392E+02  0.8176023E+01  0.2140126E+02
Ar  932  0.2177924E+02  0.2940285E+02  0.8347966E+01  0.6876666E+02
Ar  933  0.2203680E+02  0.2685967E+02  0.1081668E+02  0.1969077E+02
Ar  934  0.2425865E+02  0.2998272E+02  0.1100063E+02  0.2171328E+03
Ar  935  0.2431317E+02  0.2692955E+02  0.1354175E+02  0.2619649E+02
Ar  936  0.2156049E+02  0.2958198E+02  0.1368388E+02  0.1654785E+02
Ar  937  0.2169104E+02  0.2703261E+02  0.1631287E+02  0.1338520E+03
Ar  938  0.2434999E+02  0.2954261E+02  0.1633537E+02  0.1055348E+03
Ar  939  0.2405886E+02  0.2719118E+02  0.1920435E+02  0.1107691E+03
Ar  940  0.2158905E+02  0.2959216E+02  0.1908477E+02  0.1463585E+03
Ar  941  0.2175500E+02  0.2697840E+02  0.2175500E+02  0.2449221E+03
Ar  942  0.2438624E+02  0.2997901E+02  0.2157980E+02  0.4087954E+02
Ar  943  0.2420960E+02  0.2756633E+02  0.2420960E+02  0.2141861E+03
Ar  944  0.2157980E+02  0.2997901E+02  0.2438624E+02  0.4087954E+02
Ar  945  0.2201955E+02  0.2726558E+02  0.2726558E+02  0.9957118E+02
Ar  946  0.2448027E+02  0.2974895E+02  0.2718784E+02  0.1801690E+03
Ar  947  0.2448027E+02  0.2718784E+02  0.2974895E+02  0.1801690E+03
Ar  948  0.2131521E+02  0.2967713E+02  0.2967713E+02  0.6118271E+02
Ar  949  0.2150534E+02  0.2698203E+02  0.3222220E+02  0.3541679E+03
Ar  950  0.2421324E+02  0.2970056E+02  0.3222403E+02  0.9950143E+02
Ar  951  0.2402370E+02  0.2698118E+02  0.3507657E+02  0.4920926E+02
Ar  952  0.2172231E+02  0.2958168E+02  0.3502055E+02  0.1626058E+02
Ar  953  0.2171322E+02  0.3222867E+02  0.3746938E+02  0.1519185E+02
Ar  954  0.2444962E+02  0.3473757E+02  0.3749470E+02  0.8333510E+02
Ar  955  0.2431308E+02  0.3233947E+02  0.2558209E+01  0.5379420E+02
Ar  956  0.2156415E+02  0.3503277E+02  0.2812682E+01  0.1262027E+03
Ar  957  0.2201483E+02  0.3228650E+02  0.5576766E+01  0.1018138E+03
Ar  958  0.2428608E+02  0.3504571E+02  0.5235306E+01  0.8069422E+02
Ar  959  0.2440318E+02  0.3241789E+02  0.8348080E+01  0.3104811E+02
Ar  960  0.2186111E+02  0.3498364E+02  0.8099673E+01  0.7915081E+02
Ar  961  0.2164556E+02  0.3223202E+02  0.1108393E+02  0.2648606E+02
Ar  962  0.2430362E+02  0.3528388E+02  0.1092003E+02  0.9359481E+02
Ar  963  0.2406179E+02  0.3214760E+02  0.1396775E+02  0.7089304E+02
Ar  964  0.2136553E+02  0.3514765E+02  0.1329998E+02  0.6596332E+02
Ar  965  0.2130620E+02  0.3247559E+02  0.1596301E+02  0.1259917E+03
Ar  966  0.2438006E+02  0.3539229E+02  0.1615799E+02  0.3016941E+02
Ar  967  0.2392485E+02  0.3245643E+02  0.1854893E+02  0.1602703E+03
Ar  968  0.2159479E+02  0.3497200E+02  0.1898685E+02  0.5922796E+01
Ar  969  0.2166891E+02  0.3217331E+02  0.2166891E+02  0.1404679E+00
Ar  970  0.2424836E+02  0.3498371E+02  0.2147729E+02  0.8323828E+02
Ar  971  0.2416611E+02  0.3232781E+02  0.2416611E+02  0.2559681E+03
Ar  972  0.2147729E+02  0.3498371E+02  0.2424836E+02  0.8323828E+02
Ar  973  0.2150534E+02  0.3222220E+02  0.2698203E+02  0.3541679E+03
Ar  974  0.2402370E+02  0.3507657E+02  0.2698118E+02  0.4920926E+02
Ar  975  0.2421324E+02  0.3222403E+02  0.2970056E+02  0.9950143E+02
Ar  976  0.2172231E+02  0.3502055E+02  0.2958168E+02  0.1626058E+02
Ar  977  0.2128617E+02  0.3205265E+02  0.3205265E+02  0.2134190E+03
Ar  978  0.2407039E+02  0.3484687E+02  0.3232608E+02  0.4479251E+02
Ar  979  0.2407039E+02  0.3232608E+02  0.3484687E+02  0.4479251E+02
Ar  980  0.2154785E+02  0.3478572E+02  0.3478572E+02  0.3543883E+02
Ar  981  0.2692792E+02  0.1790844E+00  0.1790844E+00  0.1815656E+02
Ar  982  0.2971605E+02  0.2721662E+01  0.3748232E+02  0.1936719E+03
Ar  983  0.2971605E+02  0.3748232E+02  0.2721662E+01  0.1936719E+03
Ar  984  0.2685527E+02  0.2603089E+01  0.2603089E+01  0.1474090E+03
Ar  985  0.2693494E+02  0.2109064E+00  0.5125275E+01  0.6506140E+02
Ar  986  0.2927129E+02  0.2700683E+01  0.5340725E+01  0.3405424E+02
Ar  987  0.2956977E+02  0.3774862E+02  0.7928540E+01  0.8832694E+02
Ar  988  0.2692934E+02  0.2584286E+01  0.8322954E+01  0.7093277E+02
Ar  989  0.2696482E+02  0.1197665E+00  0.1074601E+02  0.3620296E+02
Ar  990  0.2985853E+02  0.2912050E+01  0.1101373E+02  0.1167174E+03
Ar  991  0.2990020E+02  0.1911369E+00  0.1371528E+02  0.5295319E+02
Ar  992  0.2707059E+02  0.2905697E+01  0.1354015E+02  0.1001083E+03
Ar  993  0.2719560E+02  0.9584339E-01  0.1590676E+02  0.3165940E+03
Ar  994  0.2978071E+02  0.2781289E+01  0.1615829E+02  0.1784577E+02
Ar  995  0.2933009E+02  0.1451548E+00  0.1937866E+02  0.1914191E+02
Ar  996  0.2698180E+02  0.2781923E+01  0.1899187E+02  0.1178004E+03
Ar  997  0.2673019E+02  0.3770578E+02  0.2156972E+02  0.1218672E+03
Ar  998  0.2989303E+02  0.3008484E+01  0.2183216E+02  0.2571369E+03
Ar  999  0.2981539E+02  0.3774195E+02  0.2430831E+02  0.2549608E+02
Ar 1000  0.2726297E+02  0.2638960E+01  0.2431609E+02  0.6064992E+02
Ar 1001  0.2694430E+02  0.4882802E-01  0.2694430E+02  0.3925925E+02
Ar 1002  0.2967647E+02  0.2533378E+01  0.2730858E+02  0.8000951E+02
Ar 1003  0.2922329E+02  0.3724161E+02  0.2922329E+02  0.9592863E+02
Ar 1004  0.2730858E+02  0.2533378E+01  0.2967647E+02  0.8000951E+02
Ar 1005  0.2694090E+02  0.3763900E+02  0.3219580E+02  0.1481197E+03
Ar 1006  0.2953948E+02  0.2895381E+01  0.3211418E+02  0.5688058E+02
Ar 1007  0.2964942E+02  0.3770229E+02  0.3503532E+02  0.1800657E+03
Ar 1008  0.2687441E+02  0.2544393E+01  0.3477452E+02  0.1398834E+03
Ar 1009  0.2693494E+02  0.5125275E+01  0.2109064E+00  0.6506140E+02
Ar 1010  0.2956977E+02  0.7928540E+01  0.3774862E+02  0.8832694E+02
Ar 1011  0.2927129E+02  0.5340725E+01  0.2700683E+01  0.3405424E+02
Ar 1012  0.2692934E+02  0.8322954E+01  0.2584286E+01  0.7093277E+02
Ar 1013  0.2723495E+02  0.5347183E+01  0.5347183E+01  0.5523628E+02
Ar 1014  0.2943354E+02  0.8364791E+01  0.5292974E+01  0.1250589E+03
Ar 1015  0.2943354E+02  0.5292974E+01  0.8364791E+01  0.1250589E+03
Ar 1016  0.2691482E+02  0.8296600E+01  0.8296600E+01  0.2589527E+02
Ar 1017  0.2673922E+02  0.5120172E+01  0.1084063E+02  0.3066261E+03
Ar 1018  0.2953562E+02  0.8108880E+01  0.1068430E+02  0.5506782E+02
Ar 1019  0.2963405E+02  0.5583651E+01  0.1391309E+02  0.1682938E+03
Ar 1020  0.2710854E+02  0.8264061E+01  0.1332116E+02  0.9649276E+02
Ar 1021  0.2691365E+02  0.5638559E+01  0.1669574E+02  0.2009621E+02
Ar 1022  0.2937076E+02  0.8186254E+01  0.1655041E+02  0.8816580E+02
Ar 1023  0.2965787E+02  0.5692873E+01  0.1907531E+02  0.5376111E+02
Ar 1024  0.2684245E+02  0.8314637E+01  0.1900243E+02  0.1604595E+03
Ar 1025  0.2685954E+02  0.5297286E+01  0.2163036E+02  0.6450382E+02
Ar 1026  0.2940285E+02  0.8347966E+01  0.2177924E+02  0.6876666E+02
Ar 1027  0.2969718E+02  0.5264427E+01  0.2465046E+02  0.4832831E+02
Ar 1028  0.2731392E+02  0.8176023E+01  0.2461819E+02  0.2140126E+02
Ar 1029  0.2700966E+02  0.5206224E+01  0.2700966E+02  0.1431663E+03
Ar 1030  0.3000823E+02  0.8577427E+01  0.2704779E+02  0.1084129E+03
Ar 1031  0.2960077E+02  0.5955789E+01  0.2960077E+02  0.9356783E+02
Ar 1032  0.2704779E+02  0.8577427E+01  0.3000823E+02  0.1084129E+03
Ar 1033  0.2706715E+02  0.5598105E+01  0.3240693E+02  0.8137682E+02
Ar 1034  0.2970735E+02  0.8562567E+01  0.3241001E+02  0.1897514E+03
Ar 1035  0.2976044E+02  0.5232822E+01  0.3501528E+02  0.4465141E+02
Ar 1036  0.2720008E+02  0.7878466E+01  0.3507990E+02  0.5519230E+02
Ar 1037  0.2696482E+02  0.1074601E+02  0.1197665E+00  0.3620296E+02
Ar 1038  0.2990020E+02  0.1371528E+02  0.1911369E+00  0.5295319E+02
Ar 1039  0.2985853E+02  0.1101373E+02  0.2912050E+01  0.1167174E+03
Ar 1040  0.2707059E+02  0.1354015E+02  0.2905697E+01  0.1001083E+03
Ar 1041  0.2673922E+02  0.1084063E+02  0.5120172E+01  0.3066261E+03
Ar 1042  0.2963405E+02  0.1391309E+02  0.5583651E+01  0.1682938E+03
Ar 1043  0.2953562E+02  0.1068430E+02  0.8108880E+01  0.5506782E+02
Ar 1044  0.2710854E+02  0.1332116E+02  0.8264061E+01  0.9649276E+02
Ar 1045  0.2640372E+02  0.1101100E+02  0.1101100E+02  0.2375588E+01
Ar 1046  0.2943386E+02  0.1375873E+02  0.1103385E+02  0.5941284E+02
Ar 1047  0.2943386E+02  0.1103385E+02  0.1375873E+02  0.5941284E+02
Ar 1048  0.2662266E+02  0.1372953E+02  0.1372953E+02  0.3142730E+03
Ar 1049  0.2675099E+02  0.1100127E+02  0.1641091E+02  0.5524564E+02
Ar 1050  0.2947569E+02  0.1336479E+02  0.1626496E+02  0.4110102E+02
Ar 1051  0.2921605E+02  0.1080613E+02  0.1900664E+02  0.3621958E+02
Ar 1052  0.2680297E+02  0.1358758E+02  0.1886082E+02  0.9430648E+02
Ar 1053  0.2685967E+02  0.1081668E+02  0.2203680E+02  0.1969077E+02
Ar 1054  0.2958198E+02  0.1368388E+02  0.2156049E+02  0.1654785E+02
Ar 1055  0.2998272E+02  0.1100063E+02  0.2425865E+02  0.2171328E+03
Ar 1056  0.2692955E+02  0.1354175E+02  0.2431317E+02  0.2619649E+02
Ar 1057  0.2686918E+02  0.1092503E+02  0.2686918E+02  0.2174767E+03
Ar 1058  0.2953181E+02  0.1303480E+02  0.2699001E+02  0.2228830E+03
Ar 1059  0.2987486E+02  0.1080238E+02  0.2987486E+02  0.3030248E+02
Ar 1060  0.2699001E+02  0.1303480E+02  0.2953181E+02  0.2228830E+03
Ar 1061  0.2684601E+02  0.1114490E+02  0.3279673E+02  0.2087466E+02
Ar 1062  0.2938954E+02  0.1354125E+02  0.3212081E+02  0.7053109E+02
Ar 1063  0.2961216E+02  0.1108161E+02  0.3535512E+02  0.4324666E+02
Ar 1064  0.2714144E+02  0.1362978E+02  0.3533339E+02  0.1050783E+03
Ar 1065  0.2719560E+02  0.1590676E+02  0.9584339E-01  0.3165940E+03
Ar 1066  0.2933009E+02  0.1937866E+02  0.1451548E+00  0.1914191E+02
Ar 1067  0.2978071E+02  0.1615829E+02  0.2781289E+01  0.1784577E+02
Ar 1068  0.2698180E+02  0.1899187E+02  0.2781923E+01  0.1178004E+03
Ar 1069  0.2691365E+02  0.1669574E+02  0.5638559E+01  0.2009621E+02
Ar 1070  0.2965787E+02  0.1907531E+02  0.5692873E+01  0.5376111E+02
Ar 1071  0.2937076E+02  0.1655041E+02  0.8186254E+01  0.8816580E+02
Ar 1072  0.2684245E+02  0.1900243E+02  0.8314637E+01  0.1604595E+03
Ar 1073  0.2675099E+02  0.1641091E+02  0.1100127E+02  0.5524564E+02
Ar 1074  0.2921605E+02  0.1900664E+02  0.1080613E+02  0.3621958E+02
Ar 1075  0.2947569E+02  0.1626496E+02  0.1336479E+02  0.4110102E+02
Ar 1076  0.2680297E+02  0.1886082E+02  0.1358758E+02  0.9430648E+02
Ar 1077  0.2677089E+02  0.1616279E+02  0.1616279E+02  0.2338746E+02
Ar 1078  0.2929415E+02  0.1877168E+02  0.1612153E+02  0.6287938E+02
Ar 1079  0.2929415E+02  0.1612153E+02  0.1877168E+02  0.6287938E+02
Ar 1080  0.2698197E+02  0.1873266E+02  0.1873266E+02  0.1253567E+03
Ar 1081  0.2703261E+02  0.1631287E+02  0.2169104E+02  0.1338520E+03
Ar 1082  0.2959216E+02  0.1908477E+02  0.2158905E+02  0.1463585E+03
Ar 1083  0.2954261E+02  0.1633537E+02  0.2434999E+02  0.1055348E+03
Ar 1084  0.2719118E+02  0.1920435E+02  0.2405886E+02  0.1107691E+03
Ar 1085  0.2710471E+02  0.1607826E+02  0.2710471E+02  0.8745894E+01
Ar 1086  0.2923231E+02  0.1906475E+02  0.2682736E+02  0.2216282E+03
Ar 1087  0.2995727E+02  0.1643034E+02  0.2995727E+02  0.4848779E+02
Ar 1088  0.2682736E+02  0.1906475E+02  0.2923231E+02  0.2216282E+03
Ar 1089  0.2676639E+02  0.1648581E+02  0.3244327E+02  0.2053852E+03
Ar 1090  0.2971921E+02  0.1875223E+02  0.3239366E+02  0.5003345E+02
Ar 1091  0.2965356E+02  0.1606259E+02  0.3490766E+02  0.5465630E+02
Ar 1092  0.2698011E+02  0.1909244E+02  0.3527312E+02  0.2188244E+02
Ar 1093  0.2673019E+02  0.2156972E+02  0.3770578E+02  0.1218672E+03
Ar 1094  0.2981539E+02  0.2430831E+02  0.3774195E+02  0.2549608E+02
Ar 1095  0.2989303E+02  0.2183216E+02  0.3008484E+01  0.2571369E+03
Ar 1096  0.2726297E+02  0.2431609E+02  0.2638960E+01  0.6064992E+02
Ar 1097  0.2685954E+02  0.2163036E+02  0.5297286E+01  0.6450382E+02
Ar 1098  0.2969718E+02  0.2465046E+02  0.5264427E+01  0.4832831E+02
Ar 1099  0.2940285E+02  0.2177924E+02  0.8347966E+01  0.6876666E+02
Ar 1100  0.2731392E+02  0.2461819E+02  0.8176023E+01  0.2140126E+02
Ar 1101  0.2685967E+02  0.2203680E+02  0.1081668E+02  0.1969077E+02
Ar 1102  0.2998272E+02  0.2425865E+02  0.1100063E+02  0.2171328E+03
Ar 1103  0.2958198E+02  0.2156049E+02  0.1368388E+02  0.1654785E+02
Ar 1104  0.2692955E+02  0.2431317E+02  0.1354175E+02  0.2619649E+02
Ar 1105  0.2703261E+02  0.2169104E+02  0.1631287E+02  0.1338520E+03
Ar 1106  0.2954261E+02  0.2434999E+02  0.1633537E+02  0.1055348E+03
Ar 1107  0.2959216E+02  0.2158905E+02  0.1908477E+02  0.1463585E+03
Ar 1108  0.2719118E+02  0.2405886E+02  0.1920435E+02  0.1107691E+03
Ar 1109  0.2697840E+02  0.2175500E+02  0.2175500E+02  0.2449221E+03
Ar 1110  0.2997901E+02  0.2438624E+02  0.2157980E+02  0.4087954E+02
Ar 1111  0.2997901E+02  0.2157980E+02  0.2438624E+02  0.4087954E+02
Ar 1112  0.2756633E+02  0.2420960E+02  0.2420960E+02  0.2141861E+03
Ar 1113  0.2726558E+02  0.2201955E+02  0.2726558E+02  0.9957118E+02
Ar 1114  0.2974895E+02  0.2448027E+02  0.2718784E+02  0.1801690E+03
Ar 1115  0.2967713E+02  0.2131521E+02  0.2967713E+02  0.6118271E+02
Ar 1116  0.2718784E+02  0.2448027E+02  0.2974895E+02  0.1801690E+03
Ar 1117  0.2698203E+02  0.2150534E+02  0.3222220E+02  0.3541679E+03
Ar 1118  0.2970056E+02  0.2421324E+02  0.3222403E+02  0.9950143E+02
Ar 1119  0.2958168E+02  0.2172231E+02  0.3502055E+02  0.1626058E+02
Ar 1120  0.2698118E+02  0.2402370E+02  0.3507657E+02  0.4920926E+02
Ar 1121  0.2694430E+02  0.2694430E+02  0.4882802E-01  0.3925925E+02
Ar 1122  0.2922329E+02  0.2922329E+02  0.3724161E+02  0.9592863E+02
Ar 1123  0.2967647E+02  0.2730858E+02  0.2533378E+01  0.8000951E+02
Ar 1124  0.2730858E+02  0.2967647E+02  0.2533378E+01  0.8000951E+02
Ar 1125  0.2700966E+02  0.2700966E+02  0.5206224E+01  0.1431663E+03
Ar 1126  0.2960077E+02  0.2960077E+02  0.5955789E+01  0.9356783E+02
Ar 1127  0.3000823E+02  0.2704779E+02  0.8577427E+01  0.1084129E+03
Ar 1128  0.2704779E+02  0.3000823E+02  0.8577427E+01  0.1084129E+03
Ar 1129  0.2686918E+02  0.2686918E+02  0.1092503E+02  0.2174767E+03
Ar 1130  0.2987486E+02  0.2987486E+02  0.1080238E+02  0.3030248E+02
Ar 1131  0.2953181E+02  0.2699001E+02  0.1303480E+02  0.2228830E+03
Ar 1132  0.2699001E+02  0.2953181E+02  0.1303480E+02  0.2228830E+03
Ar 1133  0.2710471E+02  0.2710471E+02  0.1607826E+02  0.8745894E+01
Ar 1134  0.2995727E+02  0.2995727E+02  0.1643034E+02  0.4848779E+02
Ar 1135  0.2923231E+02  0.2682736E+02  0.1906475E+02  0.2216282E+03
Ar 1136  0.2682736E+02  0.2923231E+02  0.1906475E+02  0.2216282E+03
Ar 1137  0.2726558E+02  0.2726558E+02  0.2201955E+02  0.9957118E+02
Ar 1138  0.2967713E+02  0.2967713E+02  0.2131521E+02  0.6118271E+02
Ar 1139  0.2974895E+02  0.2718784E+02  0.2448027E+02  0.1801690E+03
Ar 1140  0.2718784E+02  0.2974895E+02  0.2448027E+02  0.1801690E+03
Ar 1141  0.2699142E+02  0.2699142E+02  0.2699142E+02  0.7416703E+02
Ar 1142  0.2974964E+02  0.2974964E+02  0.2696389E+02  0.4742822E+03
Ar 1143  0.2974964E+02  0.2696389E+02  0.2974964E+02  0.4742822E+03
Ar 1144  0.2696389E+02  0.2974964E+02  0.2974964E+02  0.4742822E+03
Ar 1145  0.2687878E+02  0.2687878E+02  0.3267355E+02  0.6228252E+02
Ar 1146  0.2930649E+02  0.2930649E+02  0.3223286E+02  0.2634438E+03
Ar 1147  0.2968714E+02  0.2663208E+02  0.3477707E+02  0.1457529E+03
Ar 1148  0.2663208E+02  0.2968714E+02  0.3477707E+02  0.1457529E+03
Ar 1149  0.2694090E+02  0.3219580E+02  0.3763900E+02  0.1481197E+03
Ar 1150  0.2964942E+02  0.3503532E+02  0.3770229E+02  0.1800657E+03
Ar 1151  0.2953948E+02  0.3211418E+02  0.2895381E+01  0.5688058E+02
Ar 1152  0.2687441E+02  0.3477452E+02  0.2544393E+01  0.1398834E+03
Ar 1153  0.2706715E+02  0.3240693E+02  0.5598105E+01  0.8137682E+02
Ar 1154  0.2976044E+02  0.3501528E+02  0.5232822E+01  0.4465141E+02
Ar 1155  0.2970735E+02  0.3241001E+02  0.8562567E+01  0.1897514E+03
Ar 1156  0.2720008E+02  0.3507990E+02  0.7878466E+01  0.5519230E+02
Ar 1157  0.2684601E+02  0.3279673E+02  0.1114490E+02  0.2087466E+02
Ar 1158  0.2961216E+02  0.3535512E+02  0.1108161E+02  0.4324666E+02
Ar 1159  0.2938954E+02  0.3212081E+02  0.1354125E+02  0.7053109E+02
Ar 1160  0.2714144E+02  0.3533339E+02  0.1362978E+02  0.1050783E+03
Ar 1161  0.2676639E+02  0.3244327E+02  0.1648581E+02  0.2053852E+03
Ar 1162  0.2965356E+02  0.3490766E+02  0.1606259E+02  0.5465630E+02
Ar 1163  0.2971921E+02  0.3239366E+02  0.1875223E+02  0.5003345E+02
Ar 1164  0.2698011E+02  0.3527312E+02  0.1909244E+02  0.2188244E+02
Ar 1165  0.2698203E+02  0.3222220E+02  0.2150534E+02  0.3541679E+03
Ar 1166  0.2958168E+02  0.3502055E+02  0.2172231E+02  0.1626058E+02
Ar 1167  0.2970056E+02  0.3222403E+02  0.2421324E+02  0.9950143E+02
Ar 1168  0.2698118E+02  0.3507657E+02  0.2402370E+02  0.4920926E+02
Ar 1169  0.2687878E+02  0.3267355E+02  0.2687878E+02  0.6228252E+02
Ar 1170  0.2968714E+02  0.3477707E+02  0.2663208E+02  0.1457529E+03
Ar 1171  0.2930649E+02  0.3223286E+02  0.2930649E+02  0.2634438E+03
Ar 1172  0.2663208E+02  0.3477707E+02  0.2968714E+02  0.1457529E+03
Ar 1173  0.2698157E+02  0.3219558E+02  0.3219558E+02  0.1117686E+03
Ar 1174  0.2963897E+02  0.3507646E+02  0.3210687E+02  0.9902691E+02
Ar 1175  0.2963897E+02  0.3210687E+02  0.3507646E+02  0.9902691E+02
Ar 1176  0.2698071E+02  0.3466680E+02  0.3466680E+02  0.2698087E+03
Ar 1177  0.3189027E+02  0.2009657E+00  0.2009657E+00  0.2035281E+03
Ar 1178  0.3489872E+02  0.3038198E+01  0.6117742E-01  0.8119169E+02
Ar 1179  0.3489872E+02  0.6117742E-01  0.3038198E+01  0.8119169E+02
Ar 1180  0.3196118E+02  0.2824219E+01  0.2824219E+01  0.1293691E+02
Ar 1181  0.3224976E+02  0.2140176E+00  0.5428747E+01  0.3671983E+02
Ar 1182  0.3486792E+02  0.2809564E+01  0.5592062E+01  0.5082438E+02
Ar 1183  0.3496951E+02  0.3768249E+02  0.7832724E+01  0.3108981E+03
Ar 1184  0.3194947E+02  0.2605194E+01  0.7924067E+01  0.9072796E+02
Ar 1185  0.3217277E+02  0.3768864E+02  0.1055342E+02  0.1036860E+03
Ar 1186  0.3470683E+02  0.2587241E+01  0.1042468E+02  0.1128297E+03
Ar 1187  0.3496399E+02  0.3772581E+02  0.1392873E+02  0.7502630E+02
Ar 1188  0.3246120E+02  0.2445406E+01  0.1334820E+02  0.3044044E+02
Ar 1189  0.3228798E+02  0.3775828E+02  0.1639370E+02  0.2794040E+02
Ar 1190  0.3524641E+02  0.2772671E+01  0.1650308E+02  0.5428075E+02
Ar 1191  0.3481545E+02  0.3750996E+02  0.1897791E+02  0.7346443E+02
Ar 1192  0.3241070E+02  0.2701815E+01  0.1897504E+02  0.1405055E+03
Ar 1193  0.3222867E+02  0.3746938E+02  0.2171322E+02  0.1519185E+02
Ar 1194  0.3503277E+02  0.2812682E+01  0.2156415E+02  0.1262027E+03
Ar 1195  0.3473757E+02  0.3749470E+02  0.2444962E+02  0.8333510E+02
Ar 1196  0.3233947E+02  0.2558209E+01  0.2431308E+02  0.5379420E+02
Ar 1197  0.3219580E+02  0.3763900E+02  0.2694090E+02  0.1481197E+03
Ar 1198  0.3477452E+02  0.2544393E+01  0.2687441E+02  0.1398834E+03
Ar 1199  0.3503532E+02  0.3770229E+02  0.2964942E+02  0.1800657E+03
Ar 1200  0.3211418E+02  0.2895381E+01  0.2953948E+02  0.5688058E+02
Ar 1201  0.3242886E+02  0.3768623E+02  0.3242886E+02  0.6730259E+01
Ar 1202  0.3506801E+02  0.2453796E+01  0.3249236E+02  0.1622194E+03
Ar 1203  0.3507443E+02  0.3759145E+02  0.3507443E+02  0.2481547E+03
Ar 1204  0.3249236E+02  0.2453796E+01  0.3506801E+02  0.1622194E+03
Ar 1205  0.3224976E+02  0.5428747E+01  0.2140176E+00  0.3671983E+02
Ar 1206  0.3496951E+02  0.7832724E+01  0.3768249E+02  0.3108981E+03
Ar 1207  0.3486792E+02  0.5592062E+01  0.2809564E+01  0.5082438E+02
Ar 1208  0.3194947E+02  0.7924067E+01  0.2605194E+01  0.9072796E+02
Ar 1209  0.3171190E+02  0.5285274E+01  0.5285274E+01  0.2259896E+02
Ar 1210  0.3471279E+02  0.8250547E+01  0.5511857E+01  0.2994766E+02
Ar 1211  0.3471279E+02  0.5511857E+01  0.8250547E+01  0.2994766E+02
Ar 1212  0.3175773E+02  0.8256914E+01  0.8256914E+01  0.1397960E+03
Ar 1213  0.3204194E+02  0.5777661E+01  0.1093906E+02  0.3980277E+02
Ar 1214  0.3438000E+02  0.8590660E+01  0.1103166E+02  0.9508428E+02
Ar 1215  0.3480106E+02  0.5709338E+01  0.1351845E+02  0.1176284E+03
Ar 1216  0.3208262E+02  0.8190190E+01  0.1388492E+02  0.1172925E+03
Ar 1217  0.3229128E+02  0.5355880E+01  0.1619194E+02  0.2010774E+03
Ar 1218  0.3474952E+02  0.8215124E+01  0.1589399E+02  0.8902460E+02
Ar 1219  0.3494133E+02  0.6128226E+01  0.1875404E+02  0.8924002E+02
Ar 1220  0.3217458E+02  0.8172432E+01  0.1888540E+02  0.6399436E+02
Ar 1221  0.3228650E+02  0.5576766E+01  0.2201483E+02  0.1018138E+03
Ar 1222  0.3498364E+02  0.8099673E+01  0.2186111E+02  0.7915081E+02
Ar 1223  0.3504571E+02  0.5235306E+01  0.2428608E+02  0.8069422E+02
Ar 1224  0.3241789E+02  0.8348080E+01  0.2440318E+02  0.3104811E+02
Ar 1225  0.3240693E+02  0.5598105E+01  0.2706715E+02  0.8137682E+02
Ar 1226  0.3507990E+02  0.7878466E+01  0.2720008E+02  0.5519230E+02
Ar 1227  0.3501528E+02  0.5232822E+01  0.2976044E+02  0.4465141E+02
Ar 1228  0.3241001E+02  0.8562567E+01  0.2970735E+02  0.1897514E+03
Ar 1229  0.3234399E+02  0.5648866E+01  0.3234399E+02  0.1324820E+03
Ar 1230  0.3512697E+02  0.8292906E+01  0.3200741E+02  0.5055169E+02
Ar 1231  0.3487601E+02  0.5822193E+01  0.3487601E+02  0.3211382E+03
Ar 1232  0.3200741E+02  0.8292906E+01  0.3512697E+02  0.5055169E+02
Ar 1233  0.3217277E+02  0.1055342E+02  0.3768864E+02  0.1036860E+03
Ar 1234  0.3496399E+02  0.1392873E+02  0.3772581E+02  0.7502630E+02
Ar 1235  0.3470683E+02  0.1042468E+02  0.2587241E+01  0.1128297E+03
Ar 1236  0.3246120E+02  0.1334820E+02  0.2445406E+01  0.3044044E+02
Ar 1237  0.3204194E+02  0.1093906E+02  0.5777661E+01  0.3980277E+02
Ar 1238  0.3480106E+02  0.1351845E+02  0.5709338E+01  0.1176284E+03
Ar 1239  0.3438000E+02  0.1103166E+02  0.8590660E+01  0.9508428E+02
Ar 1240  0.3208262E+02  0.1388492E+02  0.8190190E+01  0.1172925E+03
Ar 1241  0.3194926E+02  0.1135478E+02  0.1135478E+02  0.9094227E+02
Ar 1242  0.3490890E+02  0.1376739E+02  0.1109867E+02  0.4944526E+02
Ar 1243  0.3490890E+02  0.1109867E+02  0.1376739E+02  0.4944526E+02
Ar 1244  0.3213014E+02  0.1384975E+02  0.1384975E+02  0.2461730E+03
Ar 1245  0.3211397E+02  0.1082930E+02  0.1642627E+02  0.2751228E+02
Ar 1246  0.3525527E+02  0.1328846E+02  0.1662774E+02  0.9701318E+02
Ar 1247  0.3518307E+02  0.1028078E+02  0.1905361E+02  0.5475795E+02
Ar 1248  0.3212008E+02  0.1343800E+02  0.1919895E+02  0.2205932E+03
Ar 1249  0.3223202E+02  0.1108393E+02  0.2164556E+02  0.2648606E+02
Ar 1250  0.3514765E+02  0.1329998E+02  0.2136553E+02  0.6596332E+02
Ar 1251  0.3528388E+02  0.1092003E+02  0.2430362E+02  0.9359481E+02
Ar 1252  0.3214760E+02  0.1396775E+02  0.2406179E+02  0.7089304E+02
Ar 1253  0.3279673E+02  0.1114490E+02  0.2684601E+02  0.2087466E+02
Ar 1254  0.3533339E+02  0.1362978E+02  0.2714144E+02  0.1050783E+03
Ar 1255  0.3535512E+02  0.1108161E+02  0.2961216E+02  0.4324666E+02
Ar 1256  0.3212081E+02  0.1354125E+02  0.2938954E+02  0.7053109E+02
Ar 1257  0.3219360E+02  0.1150719E+02  0.3219360E+02  0.3973028E+02
Ar 1258  0.3501274E+02  0.1332673E+02  0.3227687E+02  0.9424386E+02
Ar 1259  0.3522131E+02  0.1066706E+02  0.3522131E+02  0.3375509E+02
Ar 1260  0.3227687E+02  0.1332673E+02  0.3501274E+02  0.9424386E+02
Ar 1261  0.3228798E+02  0.1639370E+02  0.3775828E+02  0.2794040E+02
Ar 1262  0.3481545E+02  0.1897791E+02  0.3750996E+02  0.7346443E+02
Ar 1263  0.3524641E+02  0.1650308E+02  0.2772671E+01  0.5428075E+02
Ar 1264  0.3241070E+02  0.1897504E+02  0.2701815E+01  0.1405055E+03
Ar 1265  0.3229128E+02  0.1619194E+02  0.5355880E+01  0.2010774E+03
Ar 1266  0.3494133E+02  0.1875404E+02  0.6128226E+01  0.8924002E+02
Ar 1267  0.3474952E+02  0.1589399E+02  0.8215124E+01  0.8902460E+02
Ar 1268  0.3217458E+02  0.1888540E+02  0.8172432E+01  0.6399436E+02
Ar 1269  0.3211397E+02  0.1642627E+02  0.1082930E+02  0.2751228E+02
Ar 1270  0.3518307E+02  0.1905361E+02  0.1028078E+02  0.5475795E+02
Ar 1271  0.3525527E+02  0.1662774E+02  0.1328846E+02  0.9701318E+02
Ar 1272  0.3212008E+02  0.1919895E+02  0.1343800E+02  0.2205932E+03
Ar 1273  0.3218197E+02  0.1653053E+02  0.1653053E+02  0.8662470E+02
Ar 1274  0.3499291E+02  0.1866172E+02  0.1627576E+02  0.5403212E+02
Ar 1275  0.3499291E+02  0.1627576E+02  0.1866172E+02  0.5403212E+02
Ar 1276  0.3240585E+02  0.1931443E+02  0.1931443E+02  0.1490724E+02
Ar 1277  0.3247559E+02  0.1596301E+02  0.2130620E+02  0.1259917E+03
Ar 1278  0.3497200E+02  0.1898685E+02  0.2159479E+02  0.5922796E+01
Ar 1279  0.3539229E+02  0.1615799E+02  0.2438006E+02  0.3016941E+02
Ar 1280  0.3245643E+02  0.1854893E+02  0.2392485E+02  0.1602703E+03
Ar 1281  0.3244327E+02  0.1648581E+02  0.2676639E+02  0.2053852E+03
Ar 1282  0.3527312E+02  0.1909244E+02  0.2698011E+02  0.2188244E+02
Ar 1283  0.3490766E+02  0.1606259E+02  0.2965356E+02  0.5465630E+02
Ar 1284  0.3239366E+02  0.1875223E+02  0.2971921E+02  0.5003345E+02
Ar 1285  0.3255247E+02  0.1630081E+02  0.3255247E+02  0.1189899E+03
Ar 1286  0.3513901E+02  0.1875243E+02  0.3213650E+02  0.1410129E+03
Ar 1287  0.3490358E+02  0.1641782E+02  0.3490358E+02  0.1416875E+03
Ar 1288  0.3213650E+02  0.1875243E+02  0.3513901E+02  0.1410129E+03
Ar 1289  0.3222867E+02  0.2171322E+02  0.3746938E+02  0.1519185E+02
Ar 1290  0.3473757E+02  0.2444962E+02  0.3749470E+02  0.8333510E+02
Ar 1291  0.3503277E+02  0.2156415E+02  0.2812682E+01  0.1262027E+03
Ar 1292  0.3233947E+02  0.2431308E+02  0.2558209E+01  0.5379420E+02
Ar 1293  0.3228650E+02  0.2201483E+02  0.5576766E+01  0.1018138E+03
Ar 1294  0.3504571E+02  0.2428608E+02  0.5235306E+01  0.8069422E+02
Ar 1295  0.3498364E+02  0.2186111E+02  0.8099673E+01  0.7915081E+02
Ar 1296  0.3241789E+02  0.2440318E+02  0.8348080E+01  0.3104811E+02
Ar 1297  0.3223202E+02  0.2164556E+02  0.1108393E+02  0.2648606E+02
Ar 1298  0.3528388E+02  0.2430362E+02  0.1092003E+02  0.9359481E+02
Ar 1299  0.3514765E+02  0.2136553E+02  0.1329998E+02  0.6596332E+02
Ar 1300  0.3214760E+02  0.2406179E+02  0.1396775E+02  0.7089304E+02
Ar 1301  0.3247559E+02  0.2130620E+02  0.1596301E+02  0.1259917E+03
Ar 1302  0.3539229E+02  0.2438006E+02  0.1615799E+02  0.3016941E+02
Ar 1303  0.3497200E+02  0.2159479E+02  0.1898685E+02  0.5922796E+01
Ar 1304  0.3245643E+02  0.2392485E+02  0.1854893E+02  0.1602703E+03
Ar 1305  0.3217331E+02  0.2166891E+02  0.2166891E+02  0.1404679E+00
Ar 1306  0.3498371E+02  0.2424836E+02  0.2147729E+02  0.8323828E+02
Ar 1307  0.3498371E+02  0.2147729E+02  0.2424836E+02  0.8323828E+02
Ar 1308  0.3232781E+02  0.2416611E+02  0.2416611E+02  0.2559681E+03
Ar 1309  0.3222220E+02  0.2150534E+02  0.2698203E+02  0.3541679E+03
Ar 1310  0.3507657E+02  0.2402370E+02  0.2698118E+02  0.4920926E+02
Ar 1311  0.3502055E+02  0.2172231E+02  0.2958168E+02  0.1626058E+02
Ar 1312  0.3222403E+02  0.2421324E+02  0.2970056E+02  0.9950143E+02
Ar 1313  0.3205265E+02  0.2128617E+02  0.3205265E+02  0.2134190E+03
Ar 1314  0.3484687E+02  0.2407039E+02  0.3232608E+02  0.4479251E+02
Ar 1315  0.3478572E+02  0.2154785E+02  0.3478572E+02  0.3543883E+02
Ar 1316  0.3232608E+02  0.2407039E+02  0.3484687E+02  0.4479251E+02
Ar 1317  0.3219580E+02  0.2694090E+02  0.3763900E+02  0.1481197E+03
Ar 1318  0.3503532E+02  0.2964942E+02  0.3770229E+02  0.1800657E+03
Ar 1319  0.3477452E+02  0.2687441E+02  0.2544393E+01  0.1398834E+03
Ar 1320  0.3211418E+02  0.2953948E+02  0.2895381E+01  0.5688058E+02
Ar 1321  0.3240693E+02  0.2706715E+02  0.5598105E+01  0.8137682E+02
Ar 1322  0.3501528E+02  0.2976044E+02  0.5232822E+01  0.4465141E+02
Ar 1323  0.3507990E+02  0.2720008E+02  0.7878466E+01  0.5519230E+02
Ar 1324  0.3241001E+02  0.2970735E+02  0.8562567E+01  0.1897514E+03
Ar 1325  0.3279673E+02  0.2684601E+02  0.1114490E+02  0.2087466E+02
Ar 1326  0.3535512E+02  0.2961216E+02  0.1108161E+02  0.4324666E+02
Ar 1327  0.3533339E+02  0.2714144E+02  0.1362978E+02  0.1050783E+03
Ar 1328  0.3212081E+02  0.2938954E+02  0.1354125E+02  0.7053109E+02
Ar 1329  0.3244327E+02  0.2676639E+02  0.1648581E+02  0.2053852E+03
Ar 1330  0.3490766E+02  0.2965356E+02  0.1606259E+02  0.5465630E+02
Ar 1331  0.3527312E+02  0.2698011E+02  0.1909244E+02  0.2188244E+02
Ar 1332  0.3239366E+02  0.2971921E+02  0.1875223E+02  0.5003345E+02
Ar 1333  0.3222220E+02  0.2698203E+02  0.2150534E+02  0.3541679E+03
Ar 1334  0.3502055E+02  0.2958168E+02  0.2172231E+02  0.1626058E+02
Ar 1335  0.3507657E+02  0.2698118E+02  0.2402370E+02  0.4920926E+02
Ar 1336  0.3222403E+02  0.2970056E+02  0.2421324E+02  0.9950143E+02
Ar 1337  0.3267355E+02  0.2687878E+02  0.2687878E+02  0.6228252E+02
Ar 1338  0.3477707E+02  0.2968714E+02  0.2663208E+02  0.1457529E+03
Ar 1339  0.3477707E+02  0.2663208E+02  0.2968714E+02  0.1457529E+03
Ar 1340  0.3223286E+02  0.2930649E+02  0.2930649E+02  0.2634438E+03
Ar 1341  0.3219558E+02  0.2698157E+02  0.3219558E+02  0.1117686E+03
Ar 1342  0.3507646E+02  0.2963897E+02  0.3210687E+02  0.9902691E+02
Ar 1343  0.3466680E+02  0.2698071E+02  0.3466680E+02  0.2698087E+03
Ar 1344  0.3210687E+02  0.2963897E+02  0.3507646E+02  0.9902691E+02
Ar 1345  0.3242886E+02  0.3242886E+02  0.3768623E+02  0.6730259E+01
Ar 1346  0.3507443E+02  0.3507443E+02  0.3759145E+02  0.2481547E+03
Ar 1347  0.3506801E+02  0.3249236E+02  0.2453796E+01  0.1622194E+03
Ar 1348  0.3249236E+02  0.3506801E+02  0.2453796E+01  0.1622194E+03
Ar 1349  0.3234399E+02  0.3234399E+02  0.5648866E+01  0.1324820E+03
Ar 1350  0.3487601E+02  0.3487601E+02  0.5822193E+01  0.3211382E+03
Ar 1351  0.3512697E+02  0.3200741E+02  0.8292906E+01  0.5055169E+02
Ar 1352  0.3200741E+02  0.3512697E+02  0.8292906E+01  0.5055169E+02
Ar 1353  0.3219360E+02  0.3219360E+02  0.1150719E+02  0.3973028E+02
Ar 1354  0.3522131E+02  0.3522131E+02  0.1066706E+02  0.3375509E+02
Ar 1355  0.3501274E+02  0.3227687E+02  0.1332673E+02  0.9424386E+02
Ar 1356  0.3227687E+02  0.3501274E+02  0.1332673E+02  0.9424386E+02
Ar 1357  0.3255247E+02  0.3255247E+02  0.1630081E+02  0.1189899E+03
Ar 1358  0.3490358E+02  0.3490358E+02  0.1641782E+02  0.1416875E+03
Ar 1359  0.3513901E+02  0.3213650E+02  0.1875243E+02  0.1410129E+03
Ar 1360  0.3213650E+02  0.3513901E+02  0.1875243E+02  0.1410129E+03
Ar 1361  0.3205265E+02  0.3205265E+02  0.2128617E+02  0.2134190E+03
Ar 1362  0.3478572E+02  0.3478572E+02  0.2154785E+02  0.3543883E+02
Ar 1363  0.3484687E+02  0.3232608E+02  0.2407039E+02  0.4479251E+02
Ar 1364  0.3232608E+02  0.3484687E+02  0.2407039E+02  0.4479251E+02
Ar 1365  0.3219558E+02  0.3219558E+02  0.2698157E+02  0.1117686E+03
Ar 1366  0.3466680E+02  0.3466680E+02  0.2698071E+02  0.2698087E+03
Ar 1367  0.3507646E+02  0.3210687E+02  0.2963897E+02  0.9902691E+02
Ar 1368  0.3210687E+02  0.3507646E+02  0.2963897E+02  0.9902691E+02
Ar 1369  0.3171522E+02  0.3171522E+02  0.3171522E+02  0.2092973E+02
Ar 1370  0.3500284E+02  0.3500284E+02  0.3209870E+02  0.1808834E+03
Ar 1371  0.3500284E+02  0.3209870E+02  0.3500284E+02  0.1808834E+03
Ar 1372  0.3209870E+02  0.3500284E+02  0.3500284E+02  0.1808834E+03
