        1372
Lattice="  0.3778015E+02  0.0000000E+00  0.0000000E+00  0.0000000E+00  0.3778015E+02  0.0000000E+00  0.0000000E+00  0.0000000E+00  0.3778015E+02" Properties=species:S:1:id:I:1:pos:R:3:tempK:R:1
Ar    1  0.1353525E+00  0.1353525E+00  0.1353525E+00  0.3228063E+02
Ar    2  0.2336344E+01  0.2336344E+01  0.3712714E+02  0.5780855E+02
Ar    3  0.2336344E+01  0.3712714E+02  0.2336344E+01  0.5780855E+02
Ar    4  0.3712714E+02  0.2336344E+01  0.2336344E+01  0.5780855E+02
Ar    5  0.1888009E-01  0.1888009E-01  0.5013251E+01  0.1418787E+02
Ar    6  0.2789092E+01  0.2789092E+01  0.5017294E+01  0.3797537E+03
Ar    7  0.2651250E+01  0.9485531E-01  0.7639609E+01  0.1280216E+03
Ar    8  0.9485531E-01  0.2651250E+01  0.7639609E+01  0.1280216E+03
Ar    9  0.3772624E+02  0.3772624E+02  0.1024360E+02  0.1540552E+02
Ar   10  0.2371347E+01  0.2371347E+01  0.1056507E+02  0.1686699E+03
Ar   11  0.2839351E+01  0.4777792E-01  0.1305900E+02  0.1850331E+02
Ar   12  0.4777792E-01  0.2839351E+01  0.1305900E+02  0.1850331E+02
Ar   13  0.2265615E+00  0.2265615E+00  0.1548728E+02  0.1918853E+03
Ar   14  0.2962049E+01  0.2962049E+01  0.1550868E+02  0.2492156E+03
Ar   15  0.2601795E+01  0.2304258E+00  0.1848250E+02  0.1242458E+03
Ar   16  0.2304258E+00  0.2601795E+01  0.1848250E+02  0.1242458E+03
Ar   17  0.2864231E+00  0.2864231E+00  0.2166924E+02  0.3331440E+02
Ar   18  0.2830905E+01  0.2830905E+01  0.2170098E+02  0.1506997E+03
Ar   19  0.2960819E+01  0.3747035E+02  0.2403324E+02  0.2959124E+02
Ar   20  0.3747035E+02  0.2960819E+01  0.2403324E+02  0.2959124E+02
Ar   21  0.7173867E-01  0.7173867E-01  0.2676718E+02  0.8663563E+02
Ar   22  0.2926442E+01  0.2926442E+01  0.2649353E+02  0.7420854E+02
Ar   23  0.3110811E+01  0.3777113E+02  0.2941426E+02  0.9241026E+02
Ar   24  0.3777113E+02  0.3110811E+01  0.2941426E+02  0.9241026E+02
Ar   25  0.2341179E-01  0.2341179E-01  0.3271526E+02  0.2468133E+03
Ar   26  0.2807049E+01  0.2807049E+01  0.3198422E+02  0.4171940E+03
Ar   27  0.2959675E+01  0.8272092E-01  0.3469913E+02  0.2480268E+03
Ar   28  0.8272092E-01  0.2959675E+01  0.3469913E+02  0.2480268E+03
Ar   29  0.1888009E-01  0.5013251E+01  0.1888009E-01  0.1418787E+02
Ar   30  0.2651250E+01  0.7639609E+01  0.9485531E-01  0.1280216E+03
Ar   31  0.2789092E+01  0.5017294E+01  0.2789092E+01  0.3797537E+03
Ar   32  0.9485531E-01  0.7639609E+01  0.2651250E+01  0.1280216E+03
Ar   33  0.3759599E+02  0.4951006E+01  0.4951006E+01  0.5612488E+03
Ar   34  0.2461422E+01  0.7796156E+01  0.4977296E+01  0.2585154E+03
Ar   35  0.2461422E+01  0.4977296E+01  0.7796156E+01  0.2585154E+03
Ar   36  0.2117081E+00  0.7760786E+01  0.7760786E+01  0.3390490E+02
Ar   37  0.3749020E+02  0.5479229E+01  0.1056549E+02  0.1872334E+03
Ar   38  0.2699009E+01  0.7650784E+01  0.1053235E+02  0.1655599E+03
Ar   39  0.2507909E+01  0.5654211E+01  0.1330109E+02  0.4873653E+02
Ar   40  0.3759202E+02  0.8141633E+01  0.1350932E+02  0.3571090E+03
Ar   41  0.3777709E+02  0.5465311E+01  0.1588275E+02  0.1643608E+03
Ar   42  0.2786901E+01  0.8166530E+01  0.1665092E+02  0.2743075E+03
Ar   43  0.2632272E+01  0.5418162E+01  0.1846619E+02  0.7933862E+02
Ar   44  0.3761908E+02  0.7927748E+01  0.1891105E+02  0.2880489E+03
Ar   45  0.5034083E+00  0.5519497E+01  0.2133907E+02  0.5818235E+02
Ar   46  0.2651391E+01  0.8447244E+01  0.2175213E+02  0.4999778E+02
Ar   47  0.3296592E+01  0.5726231E+01  0.2375868E+02  0.4162746E+02
Ar   48  0.1853288E+00  0.8051821E+01  0.2409756E+02  0.1684229E+03
Ar   49  0.3236640E-01  0.5306050E+01  0.2649432E+02  0.2001509E+02
Ar   50  0.2595864E+01  0.7889137E+01  0.2683595E+02  0.2057865E+03
Ar   51  0.2487421E+01  0.5167993E+01  0.2947181E+02  0.7880499E+02
Ar   52  0.3756283E+02  0.7893487E+01  0.2930881E+02  0.3595843E+03
Ar   53  0.3753605E+02  0.5770362E+01  0.3223414E+02  0.1068858E+03
Ar   54  0.2779564E+01  0.7672516E+01  0.3241955E+02  0.1918770E+03
Ar   55  0.2654045E+01  0.5259332E+01  0.3502438E+02  0.9991786E+02
Ar   56  0.1174599E+00  0.8067930E+01  0.3518579E+02  0.1574164E+03
Ar   57  0.3772624E+02  0.1024360E+02  0.3772624E+02  0.1540552E+02
Ar   58  0.2839351E+01  0.1305900E+02  0.4777792E-01  0.1850331E+02
Ar   59  0.2371347E+01  0.1056507E+02  0.2371347E+01  0.1686699E+03
Ar   60  0.4777792E-01  0.1305900E+02  0.2839351E+01  0.1850331E+02
Ar   61  0.3749020E+02  0.1056549E+02  0.5479229E+01  0.1872334E+03
Ar   62  0.2507909E+01  0.1330109E+02  0.5654211E+01  0.4873653E+02
Ar   63  0.2699009E+01  0.1053235E+02  0.7650784E+01  0.1655599E+03
Ar   64  0.3759202E+02  0.1350932E+02  0.8141633E+01  0.3571090E+03
Ar   65  0.3731217E+02  0.1068899E+02  0.1068899E+02  0.5200222E+03
Ar   66  0.2533549E+01  0.1359777E+02  0.1030647E+02  0.5258218E+02
Ar   67  0.2533549E+01  0.1030647E+02  0.1359777E+02  0.5258218E+02
Ar   68  0.3739835E+02  0.1331313E+02  0.1331313E+02  0.8267549E+02
Ar   69  0.3725465E+02  0.1045676E+02  0.1624571E+02  0.1713317E+03
Ar   70  0.2883370E+01  0.1344979E+02  0.1603706E+02  0.9234769E+02
Ar   71  0.2458805E+01  0.1089112E+02  0.1892977E+02  0.1559657E+03
Ar   72  0.1407538E+00  0.1347796E+02  0.1867567E+02  0.4951734E+02
Ar   73  0.3771964E+02  0.1070504E+02  0.2153590E+02  0.1939329E+02
Ar   74  0.2743128E+01  0.1386919E+02  0.2153445E+02  0.1783908E+03
Ar   75  0.2374350E+01  0.1062319E+02  0.2439229E+02  0.1543618E+03
Ar   76  0.1568202E+00  0.1345160E+02  0.2379322E+02  0.3101834E+03
Ar   77  0.1525041E-01  0.1077898E+02  0.2710605E+02  0.1975255E+03
Ar   78  0.2483688E+01  0.1337067E+02  0.2698124E+02  0.3021153E+02
Ar   79  0.2632639E+01  0.1064042E+02  0.2975416E+02  0.2239806E+03
Ar   80  0.1338713E+00  0.1297894E+02  0.3011882E+02  0.2262640E+03
Ar   81  0.3753633E+02  0.1062620E+02  0.3254832E+02  0.1718074E+02
Ar   82  0.2332808E+01  0.1353193E+02  0.3269419E+02  0.6587228E+02
Ar   83  0.2627091E+01  0.1031147E+02  0.3518802E+02  0.6975450E+02
Ar   84  0.3766754E+02  0.1341722E+02  0.3522192E+02  0.1264621E+03
Ar   85  0.2265615E+00  0.1548728E+02  0.2265615E+00  0.1918853E+03
Ar   86  0.2601795E+01  0.1848250E+02  0.2304258E+00  0.1242458E+03
Ar   87  0.2962049E+01  0.1550868E+02  0.2962049E+01  0.2492156E+03
Ar   88  0.2304258E+00  0.1848250E+02  0.2601795E+01  0.1242458E+03
Ar   89  0.3777709E+02  0.1588275E+02  0.5465311E+01  0.1643608E+03
Ar   90  0.2632272E+01  0.1846619E+02  0.5418162E+01  0.7933862E+02
Ar   91  0.2786901E+01  0.1665092E+02  0.8166530E+01  0.2743075E+03
Ar   92  0.3761908E+02  0.1891105E+02  0.7927748E+01  0.2880489E+03
Ar   93  0.3725465E+02  0.1624571E+02  0.1045676E+02  0.1713317E+03
Ar   94  0.2458805E+01  0.1892977E+02  0.1089112E+02  0.1559657E+03
Ar   95  0.2883370E+01  0.1603706E+02  0.1344979E+02  0.9234770E+02
Ar   96  0.1407538E+00  0.1867567E+02  0.1347796E+02  0.4951734E+02
Ar   97  0.3739862E+02  0.1624222E+02  0.1624222E+02  0.2102453E+03
Ar   98  0.2788193E+01  0.1868358E+02  0.1596120E+02  0.2360949E+03
Ar   99  0.2788193E+01  0.1596120E+02  0.1868358E+02  0.2360949E+03
Ar  100  0.2834946E+00  0.1894342E+02  0.1894342E+02  0.5611487E+01
Ar  101  0.9113296E-01  0.1604716E+02  0.2134349E+02  0.1782576E+03
Ar  102  0.2628310E+01  0.1870648E+02  0.2194333E+02  0.1477166E+03
Ar  103  0.2571128E+01  0.1597054E+02  0.2427401E+02  0.1126672E+02
Ar  104  0.3886069E-01  0.1902735E+02  0.2446880E+02  0.3023546E+03
Ar  105  0.3763647E+02  0.1627454E+02  0.2694121E+02  0.2055855E+03
Ar  106  0.2951718E+01  0.1916522E+02  0.2711643E+02  0.1619124E+03
Ar  107  0.2236159E+01  0.1605859E+02  0.2974557E+02  0.5251083E+02
Ar  108  0.3754284E+02  0.1898503E+02  0.2975423E+02  0.2859077E+02
Ar  109  0.3744694E+02  0.1664054E+02  0.3239200E+02  0.1461035E+03
Ar  110  0.2726806E+01  0.1895683E+02  0.3232744E+02  0.1377210E+03
Ar  111  0.2078901E+01  0.1628063E+02  0.3529051E+02  0.3044212E+03
Ar  112  0.3775427E+02  0.1971523E+02  0.3506529E+02  0.1193447E+03
Ar  113  0.2864231E+00  0.2166924E+02  0.2864231E+00  0.3331440E+02
Ar  114  0.2960819E+01  0.2403324E+02  0.3747035E+02  0.2959124E+02
Ar  115  0.2830905E+01  0.2170098E+02  0.2830905E+01  0.1506997E+03
Ar  116  0.3747035E+02  0.2403324E+02  0.2960819E+01  0.2959124E+02
Ar  117  0.5034083E+00  0.2133907E+02  0.5519497E+01  0.5818235E+02
Ar  118  0.3296592E+01  0.2375868E+02  0.5726231E+01  0.4162746E+02
Ar  119  0.2651391E+01  0.2175213E+02  0.8447244E+01  0.4999778E+02
Ar  120  0.1853288E+00  0.2409756E+02  0.8051821E+01  0.1684229E+03
Ar  121  0.3771964E+02  0.2153590E+02  0.1070504E+02  0.1939329E+02
Ar  122  0.2374350E+01  0.2439229E+02  0.1062319E+02  0.1543618E+03
Ar  123  0.2743128E+01  0.2153445E+02  0.1386919E+02  0.1783908E+03
Ar  124  0.1568202E+00  0.2379322E+02  0.1345160E+02  0.3101834E+03
Ar  125  0.9113296E-01  0.2134349E+02  0.1604716E+02  0.1782576E+03
Ar  126  0.2571128E+01  0.2427401E+02  0.1597054E+02  0.1126672E+02
Ar  127  0.2628310E+01  0.2194333E+02  0.1870648E+02  0.1477166E+03
Ar  128  0.3886069E-01  0.2446880E+02  0.1902735E+02  0.3023546E+03
Ar  129  0.3172148E+00  0.2161767E+02  0.2161767E+02  0.4004619E+02
Ar  130  0.2722552E+01  0.2443053E+02  0.2126988E+02  0.9358454E+02
Ar  131  0.2722552E+01  0.2126988E+02  0.2443053E+02  0.9358454E+02
Ar  132  0.2822663E+00  0.2411363E+02  0.2411363E+02  0.1785754E+03
Ar  133  0.1194672E+00  0.2169869E+02  0.2691109E+02  0.2064822E+03
Ar  134  0.2644851E+01  0.2429959E+02  0.2690700E+02  0.2415577E+02
Ar  135  0.2933769E+01  0.2157157E+02  0.2959340E+02  0.9529097E+02
Ar  136  0.3772675E+02  0.2455481E+02  0.2976460E+02  0.4041740E+01
Ar  137  0.3741489E+02  0.2203070E+02  0.3219253E+02  0.2638230E+02
Ar  138  0.2684374E+01  0.2404052E+02  0.3246922E+02  0.5947827E+02
Ar  139  0.3272209E+01  0.2142036E+02  0.3503961E+02  0.8677634E+02
Ar  140  0.1536592E+00  0.2406095E+02  0.3526252E+02  0.2548230E+03
Ar  141  0.7173867E-01  0.2676718E+02  0.7173867E-01  0.8663563E+02
Ar  142  0.3110811E+01  0.2941426E+02  0.3777113E+02  0.9241026E+02
Ar  143  0.2926442E+01  0.2649353E+02  0.2926442E+01  0.7420854E+02
Ar  144  0.3777113E+02  0.2941426E+02  0.3110811E+01  0.9241026E+02
Ar  145  0.3236640E-01  0.2649432E+02  0.5306050E+01  0.2001509E+02
Ar  146  0.2487421E+01  0.2947181E+02  0.5167993E+01  0.7880499E+02
Ar  147  0.2595864E+01  0.2683595E+02  0.7889137E+01  0.2057865E+03
Ar  148  0.3756283E+02  0.2930881E+02  0.7893487E+01  0.3595843E+03
Ar  149  0.1525041E-01  0.2710605E+02  0.1077898E+02  0.1975255E+03
Ar  150  0.2632639E+01  0.2975416E+02  0.1064042E+02  0.2239806E+03
Ar  151  0.2483688E+01  0.2698124E+02  0.1337067E+02  0.3021153E+02
Ar  152  0.1338713E+00  0.3011882E+02  0.1297894E+02  0.2262640E+03
Ar  153  0.3763647E+02  0.2694121E+02  0.1627454E+02  0.2055855E+03
Ar  154  0.2236159E+01  0.2974557E+02  0.1605859E+02  0.5251083E+02
Ar  155  0.2951718E+01  0.2711643E+02  0.1916522E+02  0.1619124E+03
Ar  156  0.3754284E+02  0.2975423E+02  0.1898503E+02  0.2859077E+02
Ar  157  0.1194672E+00  0.2691109E+02  0.2169869E+02  0.2064822E+03
Ar  158  0.2933769E+01  0.2959340E+02  0.2157157E+02  0.9529097E+02
Ar  159  0.2644851E+01  0.2690700E+02  0.2429959E+02  0.2415577E+02
Ar  160  0.3772675E+02  0.2976460E+02  0.2455481E+02  0.4041740E+01
Ar  161  0.3759668E+02  0.2706506E+02  0.2706506E+02  0.1581823E+02
Ar  162  0.2706713E+01  0.2962942E+02  0.2690450E+02  0.9697759E+02
Ar  163  0.2706713E+01  0.2690450E+02  0.2962942E+02  0.9697759E+02
Ar  164  0.2306667E-01  0.2944277E+02  0.2944277E+02  0.2496128E+03
Ar  165  0.2740696E+00  0.2709158E+02  0.3249720E+02  0.1483018E+02
Ar  166  0.2732250E+01  0.2986886E+02  0.3241265E+02  0.1723317E+03
Ar  167  0.2994298E+01  0.2686457E+02  0.3500355E+02  0.3817021E+03
Ar  168  0.4782438E+00  0.2934719E+02  0.3533322E+02  0.1989659E+02
Ar  169  0.2341179E-01  0.3271526E+02  0.2341179E-01  0.2468133E+03
Ar  170  0.2959675E+01  0.3469913E+02  0.8272092E-01  0.2480268E+03
Ar  171  0.2807049E+01  0.3198422E+02  0.2807049E+01  0.4171940E+03
Ar  172  0.8272092E-01  0.3469913E+02  0.2959675E+01  0.2480268E+03
Ar  173  0.3753605E+02  0.3223414E+02  0.5770362E+01  0.1068858E+03
Ar  174  0.2654045E+01  0.3502438E+02  0.5259332E+01  0.9991786E+02
Ar  175  0.2779564E+01  0.3241955E+02  0.7672516E+01  0.1918770E+03
Ar  176  0.1174599E+00  0.3518579E+02  0.8067930E+01  0.1574164E+03
Ar  177  0.3753633E+02  0.3254832E+02  0.1062620E+02  0.1718074E+02
Ar  178  0.2627091E+01  0.3518802E+02  0.1031147E+02  0.6975450E+02
Ar  179  0.2332808E+01  0.3269419E+02  0.1353193E+02  0.6587228E+02
Ar  180  0.3766754E+02  0.3522192E+02  0.1341722E+02  0.1264621E+03
Ar  181  0.3744694E+02  0.3239200E+02  0.1664054E+02  0.1461035E+03
Ar  182  0.2078901E+01  0.3529051E+02  0.1628063E+02  0.3044212E+03
Ar  183  0.2726806E+01  0.3232744E+02  0.1895683E+02  0.1377210E+03
Ar  184  0.3775427E+02  0.3506529E+02  0.1971523E+02  0.1193447E+03
Ar  185  0.3741489E+02  0.3219253E+02  0.2203070E+02  0.2638230E+02
Ar  186  0.3272209E+01  0.3503961E+02  0.2142036E+02  0.8677634E+02
Ar  187  0.2684374E+01  0.3246922E+02  0.2404052E+02  0.5947827E+02
Ar  188  0.1536592E+00  0.3526252E+02  0.2406095E+02  0.2548230E+03
Ar  189  0.2740696E+00  0.3249720E+02  0.2709158E+02  0.1483018E+02
Ar  190  0.2994298E+01  0.3500355E+02  0.2686457E+02  0.3817021E+03
Ar  191  0.2732250E+01  0.3241265E+02  0.2986886E+02  0.1723317E+03
Ar  192  0.4782438E+00  0.3533322E+02  0.2934719E+02  0.1989659E+02
Ar  193  0.3741778E+02  0.3253376E+02  0.3253376E+02  0.2130277E+03
Ar  194  0.2433966E+01  0.3493030E+02  0.3237846E+02  0.8420712E+02
Ar  195  0.2433966E+01  0.3237846E+02  0.3493030E+02  0.8420712E+02
Ar  196  0.3772257E+02  0.3507922E+02  0.3507922E+02  0.2982184E+03
Ar  197  0.5013251E+01  0.1888009E-01  0.1888009E-01  0.1418787E+02
Ar  198  0.7639609E+01  0.2651250E+01  0.9485531E-01  0.1280216E+03
Ar  199  0.7639609E+01  0.9485532E-01  0.2651250E+01  0.1280216E+03
Ar  200  0.5017294E+01  0.2789092E+01  0.2789092E+01  0.3797537E+03
Ar  201  0.4951006E+01  0.3759599E+02  0.4951006E+01  0.5612488E+03
Ar  202  0.7796156E+01  0.2461422E+01  0.4977296E+01  0.2585154E+03
Ar  203  0.7760786E+01  0.2117081E+00  0.7760786E+01  0.3390490E+02
Ar  204  0.4977296E+01  0.2461422E+01  0.7796156E+01  0.2585154E+03
Ar  205  0.5479229E+01  0.3749020E+02  0.1056549E+02  0.1872334E+03
Ar  206  0.7650784E+01  0.2699009E+01  0.1053235E+02  0.1655599E+03
Ar  207  0.8141633E+01  0.3759202E+02  0.1350932E+02  0.3571090E+03
Ar  208  0.5654211E+01  0.2507909E+01  0.1330109E+02  0.4873653E+02
Ar  209  0.5465311E+01  0.3777709E+02  0.1588275E+02  0.1643608E+03
Ar  210  0.8166530E+01  0.2786901E+01  0.1665092E+02  0.2743075E+03
Ar  211  0.7927748E+01  0.3761908E+02  0.1891105E+02  0.2880489E+03
Ar  212  0.5418162E+01  0.2632272E+01  0.1846619E+02  0.7933862E+02
Ar  213  0.5519497E+01  0.5034083E+00  0.2133907E+02  0.5818235E+02
Ar  214  0.8447244E+01  0.2651391E+01  0.2175213E+02  0.4999778E+02
Ar  215  0.8051821E+01  0.1853288E+00  0.2409756E+02  0.1684229E+03
Ar  216  0.5726231E+01  0.3296592E+01  0.2375868E+02  0.4162746E+02
Ar  217  0.5306050E+01  0.3236640E-01  0.2649432E+02  0.2001509E+02
Ar  218  0.7889137E+01  0.2595864E+01  0.2683595E+02  0.2057865E+03
Ar  219  0.7893487E+01  0.3756283E+02  0.2930881E+02  0.3595843E+03
Ar  220  0.5167993E+01  0.2487421E+01  0.2947181E+02  0.7880499E+02
Ar  221  0.5770362E+01  0.3753605E+02  0.3223414E+02  0.1068858E+03
Ar  222  0.7672516E+01  0.2779564E+01  0.3241955E+02  0.1918770E+03
Ar  223  0.8067930E+01  0.1174599E+00  0.3518579E+02  0.1574164E+03
Ar  224  0.5259332E+01  0.2654045E+01  0.3502438E+02  0.9991786E+02
Ar  225  0.4951006E+01  0.4951006E+01  0.3759599E+02  0.5612488E+03
Ar  226  0.7760786E+01  0.7760786E+01  0.2117081E+00  0.3390490E+02
Ar  227  0.7796156E+01  0.4977296E+01  0.2461422E+01  0.2585154E+03
Ar  228  0.4977296E+01  0.7796156E+01  0.2461422E+01  0.2585154E+03
Ar  229  0.5134155E+01  0.5134155E+01  0.5134155E+01  0.5920376E+03
Ar  230  0.7865173E+01  0.7865173E+01  0.4807924E+01  0.2723313E+03
Ar  231  0.7865173E+01  0.4807924E+01  0.7865173E+01  0.2723313E+03
Ar  232  0.4807924E+01  0.7865173E+01  0.7865173E+01  0.2723313E+03
Ar  233  0.5000404E+01  0.5000404E+01  0.1033861E+02  0.2206372E+03
Ar  234  0.7534567E+01  0.7534567E+01  0.1029616E+02  0.2148857E+03
Ar  235  0.7813138E+01  0.5150164E+01  0.1359997E+02  0.9532353E+02
Ar  236  0.5150164E+01  0.7813138E+01  0.1359997E+02  0.9532353E+02
Ar  237  0.5794695E+01  0.5794695E+01  0.1688622E+02  0.1229649E+03
Ar  238  0.8447805E+01  0.8447805E+01  0.1600903E+02  0.1048617E+02
Ar  239  0.8511474E+01  0.5381139E+01  0.1885401E+02  0.2444218E+03
Ar  240  0.5381139E+01  0.8511474E+01  0.1885401E+02  0.2444218E+03
Ar  241  0.5808204E+01  0.5808204E+01  0.2117005E+02  0.2037219E+03
Ar  242  0.8560128E+01  0.8560128E+01  0.2230959E+02  0.4330454E+03
Ar  243  0.8378944E+01  0.5552049E+01  0.2434637E+02  0.2391576E+02
Ar  244  0.5552049E+01  0.8378944E+01  0.2434637E+02  0.2391576E+02
Ar  245  0.5414435E+01  0.5414435E+01  0.2672595E+02  0.3396287E+03
Ar  246  0.8372156E+01  0.8372156E+01  0.2694704E+02  0.3982312E+01
Ar  247  0.8090648E+01  0.5186950E+01  0.2971972E+02  0.3319386E+02
Ar  248  0.5186950E+01  0.8090648E+01  0.2971972E+02  0.3319386E+02
Ar  249  0.5365832E+01  0.5365832E+01  0.3231255E+02  0.6266035E+02
Ar  250  0.7686754E+01  0.7686754E+01  0.3215257E+02  0.8190833E+02
Ar  251  0.7862137E+01  0.5385339E+01  0.3504119E+02  0.9646722E+02
Ar  252  0.5385339E+01  0.7862137E+01  0.3504119E+02  0.9646722E+02
Ar  253  0.5479229E+01  0.1056549E+02  0.3749020E+02  0.1872334E+03
Ar  254  0.8141633E+01  0.1350932E+02  0.3759202E+02  0.3571090E+03
Ar  255  0.7650784E+01  0.1053235E+02  0.2699009E+01  0.1655599E+03
Ar  256  0.5654211E+01  0.1330109E+02  0.2507909E+01  0.4873653E+02
Ar  257  0.5000404E+01  0.1033861E+02  0.5000404E+01  0.2206372E+03
Ar  258  0.7813138E+01  0.1359997E+02  0.5150164E+01  0.9532353E+02
Ar  259  0.7534567E+01  0.1029616E+02  0.7534567E+01  0.2148857E+03
Ar  260  0.5150164E+01  0.1359997E+02  0.7813138E+01  0.9532353E+02
Ar  261  0.5031286E+01  0.1049311E+02  0.1049311E+02  0.4235093E+01
Ar  262  0.7723552E+01  0.1322497E+02  0.1028308E+02  0.9933203E+02
Ar  263  0.7723552E+01  0.1028308E+02  0.1322497E+02  0.9933203E+02
Ar  264  0.6124784E+01  0.1352299E+02  0.1352299E+02  0.3237267E+03
Ar  265  0.5243180E+01  0.1084821E+02  0.1588128E+02  0.7332856E+02
Ar  266  0.8421077E+01  0.1326141E+02  0.1652823E+02  0.1067580E+03
Ar  267  0.8195393E+01  0.1079738E+02  0.1912487E+02  0.3265238E+02
Ar  268  0.5350975E+01  0.1348978E+02  0.1892366E+02  0.2315114E+03
Ar  269  0.5193867E+01  0.1108603E+02  0.2176319E+02  0.3683260E+03
Ar  270  0.8017679E+01  0.1344332E+02  0.2178249E+02  0.2048214E+02
Ar  271  0.8053437E+01  0.1132695E+02  0.2440267E+02  0.6122288E+02
Ar  272  0.5408415E+01  0.1363616E+02  0.2457284E+02  0.5876805E+02
Ar  273  0.5066174E+01  0.1081976E+02  0.2696084E+02  0.7742802E+02
Ar  274  0.8019540E+01  0.1354519E+02  0.2734588E+02  0.2095524E+02
Ar  275  0.7750651E+01  0.1067937E+02  0.2960591E+02  0.3790711E+02
Ar  276  0.5091120E+01  0.1326825E+02  0.3014669E+02  0.1291431E+03
Ar  277  0.5164880E+01  0.1053847E+02  0.3246274E+02  0.1925243E+03
Ar  278  0.7761129E+01  0.1330356E+02  0.3226882E+02  0.9362380E+02
Ar  279  0.7742805E+01  0.1082562E+02  0.3481878E+02  0.3944291E+02
Ar  280  0.5398969E+01  0.1340891E+02  0.3520606E+02  0.2083062E+02
Ar  281  0.5465311E+01  0.1588275E+02  0.3777709E+02  0.1643608E+03
Ar  282  0.7927748E+01  0.1891105E+02  0.3761908E+02  0.2880489E+03
Ar  283  0.8166530E+01  0.1665092E+02  0.2786901E+01  0.2743075E+03
Ar  284  0.5418162E+01  0.1846619E+02  0.2632272E+01  0.7933862E+02
Ar  285  0.5794695E+01  0.1688622E+02  0.5794695E+01  0.1229649E+03
Ar  286  0.8511474E+01  0.1885401E+02  0.5381139E+01  0.2444218E+03
Ar  287  0.8447805E+01  0.1600903E+02  0.8447805E+01  0.1048617E+02
Ar  288  0.5381139E+01  0.1885401E+02  0.8511474E+01  0.2444218E+03
Ar  289  0.5243180E+01  0.1588128E+02  0.1084821E+02  0.7332856E+02
Ar  290  0.8195393E+01  0.1912487E+02  0.1079738E+02  0.3265238E+02
Ar  291  0.8421077E+01  0.1652823E+02  0.1326141E+02  0.1067580E+03
Ar  292  0.5350975E+01  0.1892366E+02  0.1348978E+02  0.2315114E+03
Ar  293  0.5566306E+01  0.1617073E+02  0.1617073E+02  0.1207944E+03
Ar  294  0.8150252E+01  0.1879377E+02  0.1612890E+02  0.7211358E+02
Ar  295  0.8150252E+01  0.1612890E+02  0.1879377E+02  0.7211358E+02
Ar  296  0.4748867E+01  0.1906070E+02  0.1906070E+02  0.2828294E+03
Ar  297  0.5416983E+01  0.1606739E+02  0.2149775E+02  0.3533093E+02
Ar  298  0.8336147E+01  0.1850047E+02  0.2123867E+02  0.3862108E+02
Ar  299  0.8253004E+01  0.1583504E+02  0.2452491E+02  0.1746611E+03
Ar  300  0.5602914E+01  0.1886264E+02  0.2422161E+02  0.7175233E+02
Ar  301  0.5276031E+01  0.1624315E+02  0.2720008E+02  0.8780207E+02
Ar  302  0.8151628E+01  0.1884119E+02  0.2718845E+02  0.1655703E+03
Ar  303  0.8054315E+01  0.1600307E+02  0.2967482E+02  0.3259967E+02
Ar  304  0.5282774E+01  0.1900979E+02  0.2972745E+02  0.8954527E+02
Ar  305  0.4588324E+01  0.1614434E+02  0.3249044E+02  0.6168198E+02
Ar  306  0.7591999E+01  0.1846211E+02  0.3269362E+02  0.4275010E+02
Ar  307  0.7681689E+01  0.1579963E+02  0.3502763E+02  0.5988893E+02
Ar  308  0.5205093E+01  0.1865513E+02  0.3551762E+02  0.9626061E+02
Ar  309  0.5519497E+01  0.2133907E+02  0.5034083E+00  0.5818235E+02
Ar  310  0.8051821E+01  0.2409756E+02  0.1853288E+00  0.1684229E+03
Ar  311  0.8447244E+01  0.2175213E+02  0.2651391E+01  0.4999778E+02
Ar  312  0.5726231E+01  0.2375868E+02  0.3296592E+01  0.4162746E+02
Ar  313  0.5808204E+01  0.2117005E+02  0.5808204E+01  0.2037219E+03
Ar  314  0.8378944E+01  0.2434637E+02  0.5552049E+01  0.2391576E+02
Ar  315  0.8560128E+01  0.2230959E+02  0.8560128E+01  0.4330454E+03
Ar  316  0.5552049E+01  0.2434637E+02  0.8378944E+01  0.2391576E+02
Ar  317  0.5193867E+01  0.2176319E+02  0.1108603E+02  0.3683260E+03
Ar  318  0.8053437E+01  0.2440267E+02  0.1132695E+02  0.6122288E+02
Ar  319  0.8017679E+01  0.2178249E+02  0.1344332E+02  0.2048214E+02
Ar  320  0.5408415E+01  0.2457284E+02  0.1363616E+02  0.5876805E+02
Ar  321  0.5416983E+01  0.2149775E+02  0.1606739E+02  0.3533093E+02
Ar  322  0.8253004E+01  0.2452491E+02  0.1583504E+02  0.1746611E+03
Ar  323  0.8336147E+01  0.2123867E+02  0.1850047E+02  0.3862108E+02
Ar  324  0.5602914E+01  0.2422161E+02  0.1886264E+02  0.7175233E+02
Ar  325  0.5334286E+01  0.2167540E+02  0.2167540E+02  0.4628257E+03
Ar  326  0.8130493E+01  0.2400696E+02  0.2156708E+02  0.2983821E+03
Ar  327  0.8130493E+01  0.2156708E+02  0.2400696E+02  0.2983821E+03
Ar  328  0.5390843E+01  0.2452844E+02  0.2452844E+02  0.1924831E+03
Ar  329  0.5482231E+01  0.2137502E+02  0.2678989E+02  0.2810045E+02
Ar  330  0.8504884E+01  0.2402551E+02  0.2691339E+02  0.9032971E+02
Ar  331  0.7878485E+01  0.2163083E+02  0.3002897E+02  0.4181595E+02
Ar  332  0.5733098E+01  0.2428497E+02  0.2933694E+02  0.4185269E+02
Ar  333  0.5347118E+01  0.2166098E+02  0.3224672E+02  0.3151197E+02
Ar  334  0.8105477E+01  0.2425663E+02  0.3243894E+02  0.4748806E+02
Ar  335  0.7846363E+01  0.2135023E+02  0.3490070E+02  0.1295638E+03
Ar  336  0.5482953E+01  0.2442075E+02  0.3488707E+02  0.6785955E+02
Ar  337  0.5306050E+01  0.2649432E+02  0.3236640E-01  0.2001509E+02
Ar  338  0.7893487E+01  0.2930881E+02  0.3756283E+02  0.3595843E+03
Ar  339  0.7889137E+01  0.2683595E+02  0.2595864E+01  0.2057865E+03
Ar  340  0.5167993E+01  0.2947181E+02  0.2487421E+01  0.7880499E+02
Ar  341  0.5414435E+01  0.2672595E+02  0.5414435E+01  0.3396287E+03
Ar  342  0.8090648E+01  0.2971972E+02  0.5186950E+01  0.3319386E+02
Ar  343  0.8372156E+01  0.2694704E+02  0.8372156E+01  0.3982312E+01
Ar  344  0.5186950E+01  0.2971972E+02  0.8090648E+01  0.3319386E+02
Ar  345  0.5066174E+01  0.2696084E+02  0.1081976E+02  0.7742802E+02
Ar  346  0.7750651E+01  0.2960591E+02  0.1067937E+02  0.3790711E+02
Ar  347  0.8019540E+01  0.2734588E+02  0.1354519E+02  0.2095524E+02
Ar  348  0.5091120E+01  0.3014669E+02  0.1326825E+02  0.1291431E+03
Ar  349  0.5276031E+01  0.2720008E+02  0.1624315E+02  0.8780207E+02
Ar  350  0.8054315E+01  0.2967482E+02  0.1600307E+02  0.3259967E+02
Ar  351  0.8151628E+01  0.2718845E+02  0.1884119E+02  0.1655703E+03
Ar  352  0.5282774E+01  0.2972745E+02  0.1900979E+02  0.8954527E+02
Ar  353  0.5482231E+01  0.2678989E+02  0.2137502E+02  0.2810045E+02
Ar  354  0.7878485E+01  0.3002897E+02  0.2163083E+02  0.4181595E+02
Ar  355  0.8504884E+01  0.2691339E+02  0.2402551E+02  0.9032971E+02
Ar  356  0.5733098E+01  0.2933694E+02  0.2428497E+02  0.4185269E+02
Ar  357  0.5868470E+01  0.2690397E+02  0.2690397E+02  0.7141166E+02
Ar  358  0.7872191E+01  0.2962773E+02  0.2689688E+02  0.1635748E+03
Ar  359  0.7872191E+01  0.2689688E+02  0.2962773E+02  0.1635748E+03
Ar  360  0.5401211E+01  0.2964364E+02  0.2964364E+02  0.4869111E+03
Ar  361  0.5460385E+01  0.2698094E+02  0.3236009E+02  0.5704397E+02
Ar  362  0.8257359E+01  0.2962637E+02  0.3223783E+02  0.1474706E+03
Ar  363  0.8184820E+01  0.2657476E+02  0.3533962E+02  0.6704307E+02
Ar  364  0.5551534E+01  0.2962881E+02  0.3491021E+02  0.2534963E+03
Ar  365  0.5770362E+01  0.3223414E+02  0.3753605E+02  0.1068858E+03
Ar  366  0.8067930E+01  0.3518579E+02  0.1174599E+00  0.1574164E+03
Ar  367  0.7672516E+01  0.3241955E+02  0.2779564E+01  0.1918770E+03
Ar  368  0.5259332E+01  0.3502438E+02  0.2654045E+01  0.9991786E+02
Ar  369  0.5365832E+01  0.3231255E+02  0.5365832E+01  0.6266035E+02
Ar  370  0.7862137E+01  0.3504119E+02  0.5385339E+01  0.9646722E+02
Ar  371  0.7686754E+01  0.3215257E+02  0.7686754E+01  0.8190833E+02
Ar  372  0.5385339E+01  0.3504119E+02  0.7862137E+01  0.9646722E+02
Ar  373  0.5164880E+01  0.3246274E+02  0.1053847E+02  0.1925243E+03
Ar  374  0.7742805E+01  0.3481878E+02  0.1082562E+02  0.3944291E+02
Ar  375  0.7761129E+01  0.3226882E+02  0.1330356E+02  0.9362380E+02
Ar  376  0.5398969E+01  0.3520606E+02  0.1340891E+02  0.2083062E+02
Ar  377  0.4588324E+01  0.3249044E+02  0.1614434E+02  0.6168198E+02
Ar  378  0.7681689E+01  0.3502763E+02  0.1579963E+02  0.5988893E+02
Ar  379  0.7591999E+01  0.3269362E+02  0.1846211E+02  0.4275010E+02
Ar  380  0.5205093E+01  0.3551762E+02  0.1865513E+02  0.9626061E+02
Ar  381  0.5347118E+01  0.3224672E+02  0.2166098E+02  0.3151197E+02
Ar  382  0.7846363E+01  0.3490070E+02  0.2135023E+02  0.1295638E+03
Ar  383  0.8105477E+01  0.3243894E+02  0.2425663E+02  0.4748806E+02
Ar  384  0.5482953E+01  0.3488707E+02  0.2442075E+02  0.6785955E+02
Ar  385  0.5460385E+01  0.3236009E+02  0.2698094E+02  0.5704397E+02
Ar  386  0.8184820E+01  0.3533962E+02  0.2657476E+02  0.6704307E+02
Ar  387  0.8257359E+01  0.3223783E+02  0.2962637E+02  0.1474706E+03
Ar  388  0.5551534E+01  0.3491021E+02  0.2962881E+02  0.2534963E+03
Ar  389  0.5694128E+01  0.3272578E+02  0.3272578E+02  0.3500757E+03
Ar  390  0.8293009E+01  0.3496557E+02  0.3228297E+02  0.3131914E+02
Ar  391  0.8293009E+01  0.3228297E+02  0.3496557E+02  0.3131914E+02
Ar  392  0.6169202E+01  0.3514034E+02  0.3514034E+02  0.2579782E+03
Ar  393  0.1024360E+02  0.3772624E+02  0.3772624E+02  0.1540552E+02
Ar  394  0.1305900E+02  0.2839351E+01  0.4777792E-01  0.1850331E+02
Ar  395  0.1305900E+02  0.4777792E-01  0.2839351E+01  0.1850331E+02
Ar  396  0.1056507E+02  0.2371347E+01  0.2371347E+01  0.1686699E+03
Ar  397  0.1056549E+02  0.3749020E+02  0.5479229E+01  0.1872334E+03
Ar  398  0.1330109E+02  0.2507909E+01  0.5654211E+01  0.4873653E+02
Ar  399  0.1350932E+02  0.3759202E+02  0.8141633E+01  0.3571090E+03
Ar  400  0.1053235E+02  0.2699009E+01  0.7650784E+01  0.1655599E+03
Ar  401  0.1068899E+02  0.3731217E+02  0.1068899E+02  0.5200222E+03
Ar  402  0.1359777E+02  0.2533549E+01  0.1030647E+02  0.5258218E+02
Ar  403  0.1331313E+02  0.3739835E+02  0.1331313E+02  0.8267549E+02
Ar  404  0.1030647E+02  0.2533549E+01  0.1359777E+02  0.5258218E+02
Ar  405  0.1045676E+02  0.3725465E+02  0.1624571E+02  0.1713317E+03
Ar  406  0.1344979E+02  0.2883370E+01  0.1603706E+02  0.9234769E+02
Ar  407  0.1347796E+02  0.1407538E+00  0.1867567E+02  0.4951734E+02
Ar  408  0.1089112E+02  0.2458805E+01  0.1892977E+02  0.1559657E+03
Ar  409  0.1070504E+02  0.3771964E+02  0.2153590E+02  0.1939329E+02
Ar  410  0.1386919E+02  0.2743128E+01  0.2153445E+02  0.1783908E+03
Ar  411  0.1345160E+02  0.1568202E+00  0.2379322E+02  0.3101834E+03
Ar  412  0.1062319E+02  0.2374350E+01  0.2439229E+02  0.1543618E+03
Ar  413  0.1077898E+02  0.1525041E-01  0.2710605E+02  0.1975255E+03
Ar  414  0.1337067E+02  0.2483688E+01  0.2698124E+02  0.3021153E+02
Ar  415  0.1297894E+02  0.1338713E+00  0.3011882E+02  0.2262640E+03
Ar  416  0.1064042E+02  0.2632639E+01  0.2975416E+02  0.2239806E+03
Ar  417  0.1062620E+02  0.3753633E+02  0.3254832E+02  0.1718074E+02
Ar  418  0.1353193E+02  0.2332808E+01  0.3269419E+02  0.6587228E+02
Ar  419  0.1341722E+02  0.3766754E+02  0.3522192E+02  0.1264621E+03
Ar  420  0.1031147E+02  0.2627091E+01  0.3518802E+02  0.6975450E+02
Ar  421  0.1056549E+02  0.5479229E+01  0.3749020E+02  0.1872334E+03
Ar  422  0.1350932E+02  0.8141633E+01  0.3759202E+02  0.3571090E+03
Ar  423  0.1330109E+02  0.5654211E+01  0.2507909E+01  0.4873653E+02
Ar  424  0.1053235E+02  0.7650784E+01  0.2699009E+01  0.1655599E+03
Ar  425  0.1033861E+02  0.5000404E+01  0.5000404E+01  0.2206372E+03
Ar  426  0.1359997E+02  0.7813138E+01  0.5150164E+01  0.9532353E+02
Ar  427  0.1359997E+02  0.5150164E+01  0.7813138E+01  0.9532353E+02
Ar  428  0.1029616E+02  0.7534567E+01  0.7534567E+01  0.2148857E+03
Ar  429  0.1049311E+02  0.5031286E+01  0.1049311E+02  0.4235093E+01
Ar  430  0.1322497E+02  0.7723552E+01  0.1028308E+02  0.9933203E+02
Ar  431  0.1352299E+02  0.6124784E+01  0.1352299E+02  0.3237267E+03
Ar  432  0.1028308E+02  0.7723552E+01  0.1322497E+02  0.9933203E+02
Ar  433  0.1084821E+02  0.5243180E+01  0.1588128E+02  0.7332856E+02
Ar  434  0.1326141E+02  0.8421077E+01  0.1652823E+02  0.1067580E+03
Ar  435  0.1348978E+02  0.5350975E+01  0.1892366E+02  0.2315114E+03
Ar  436  0.1079738E+02  0.8195393E+01  0.1912487E+02  0.3265238E+02
Ar  437  0.1108603E+02  0.5193867E+01  0.2176319E+02  0.3683260E+03
Ar  438  0.1344332E+02  0.8017679E+01  0.2178249E+02  0.2048214E+02
Ar  439  0.1363616E+02  0.5408415E+01  0.2457284E+02  0.5876805E+02
Ar  440  0.1132695E+02  0.8053437E+01  0.2440267E+02  0.6122288E+02
Ar  441  0.1081976E+02  0.5066174E+01  0.2696084E+02  0.7742802E+02
Ar  442  0.1354519E+02  0.8019540E+01  0.2734588E+02  0.2095524E+02
Ar  443  0.1326825E+02  0.5091120E+01  0.3014669E+02  0.1291431E+03
Ar  444  0.1067937E+02  0.7750651E+01  0.2960591E+02  0.3790711E+02
Ar  445  0.1053847E+02  0.5164880E+01  0.3246274E+02  0.1925243E+03
Ar  446  0.1330356E+02  0.7761129E+01  0.3226882E+02  0.9362380E+02
Ar  447  0.1340891E+02  0.5398969E+01  0.3520606E+02  0.2083062E+02
Ar  448  0.1082562E+02  0.7742805E+01  0.3481878E+02  0.3944291E+02
Ar  449  0.1068899E+02  0.1068899E+02  0.3731217E+02  0.5200222E+03
Ar  450  0.1331313E+02  0.1331313E+02  0.3739835E+02  0.8267549E+02
Ar  451  0.1359777E+02  0.1030647E+02  0.2533549E+01  0.5258218E+02
Ar  452  0.1030647E+02  0.1359777E+02  0.2533549E+01  0.5258218E+02
Ar  453  0.1049311E+02  0.1049311E+02  0.5031286E+01  0.4235093E+01
Ar  454  0.1352299E+02  0.1352299E+02  0.6124784E+01  0.3237267E+03
Ar  455  0.1322497E+02  0.1028308E+02  0.7723552E+01  0.9933203E+02
Ar  456  0.1028308E+02  0.1322497E+02  0.7723552E+01  0.9933203E+02
Ar  457  0.9863754E+01  0.9863754E+01  0.9863754E+01  0.3109507E+02
Ar  458  0.1325399E+02  0.1325399E+02  0.1036083E+02  0.1357487E+03
Ar  459  0.1325399E+02  0.1036083E+02  0.1325399E+02  0.1357487E+03
Ar  460  0.1036083E+02  0.1325399E+02  0.1325399E+02  0.1357487E+03
Ar  461  0.1083482E+02  0.1083482E+02  0.1623273E+02  0.2317045E+03
Ar  462  0.1310038E+02  0.1310038E+02  0.1561696E+02  0.9924198E+02
Ar  463  0.1342860E+02  0.1071860E+02  0.1894984E+02  0.1261162E+03
Ar  464  0.1071860E+02  0.1342860E+02  0.1894984E+02  0.1261162E+03
Ar  465  0.1114932E+02  0.1114932E+02  0.2190152E+02  0.3266311E+03
Ar  466  0.1364112E+02  0.1364112E+02  0.2225451E+02  0.1442171E+02
Ar  467  0.1362721E+02  0.1085949E+02  0.2471360E+02  0.6133852E+02
Ar  468  0.1085949E+02  0.1362721E+02  0.2471360E+02  0.6133852E+02
Ar  469  0.1081507E+02  0.1081507E+02  0.2668645E+02  0.4068643E+00
Ar  470  0.1381831E+02  0.1381831E+02  0.2792442E+02  0.6162150E+02
Ar  471  0.1322584E+02  0.1074312E+02  0.2983984E+02  0.6717122E+02
Ar  472  0.1074312E+02  0.1322584E+02  0.2983984E+02  0.6717122E+02
Ar  473  0.1078409E+02  0.1078409E+02  0.3225630E+02  0.5422523E+03
Ar  474  0.1342457E+02  0.1342457E+02  0.3182612E+02  0.7600176E+02
Ar  475  0.1327023E+02  0.1035496E+02  0.3470134E+02  0.5943330E+03
Ar  476  0.1035496E+02  0.1327023E+02  0.3470134E+02  0.5943330E+03
Ar  477  0.1045676E+02  0.1624571E+02  0.3725465E+02  0.1713317E+03
Ar  478  0.1347796E+02  0.1867567E+02  0.1407538E+00  0.4951734E+02
Ar  479  0.1344979E+02  0.1603706E+02  0.2883370E+01  0.9234770E+02
Ar  480  0.1089112E+02  0.1892977E+02  0.2458805E+01  0.1559657E+03
Ar  481  0.1084821E+02  0.1588128E+02  0.5243180E+01  0.7332856E+02
Ar  482  0.1348978E+02  0.1892366E+02  0.5350975E+01  0.2315114E+03
Ar  483  0.1326141E+02  0.1652823E+02  0.8421077E+01  0.1067580E+03
Ar  484  0.1079738E+02  0.1912487E+02  0.8195393E+01  0.3265238E+02
Ar  485  0.1083482E+02  0.1623273E+02  0.1083482E+02  0.2317045E+03
Ar  486  0.1342860E+02  0.1894984E+02  0.1071860E+02  0.1261162E+03
Ar  487  0.1310038E+02  0.1561696E+02  0.1310038E+02  0.9924198E+02
Ar  488  0.1071860E+02  0.1894984E+02  0.1342860E+02  0.1261162E+03
Ar  489  0.1074684E+02  0.1602474E+02  0.1602474E+02  0.2685263E+03
Ar  490  0.1346603E+02  0.1851622E+02  0.1577834E+02  0.8332904E+02
Ar  491  0.1346603E+02  0.1577834E+02  0.1851622E+02  0.8332904E+02
Ar  492  0.1118323E+02  0.1860791E+02  0.1860791E+02  0.8471426E+02
Ar  493  0.1115446E+02  0.1617578E+02  0.2128660E+02  0.7843806E+02
Ar  494  0.1358996E+02  0.1855084E+02  0.2194715E+02  0.1129842E+03
Ar  495  0.1361517E+02  0.1631647E+02  0.2504593E+02  0.7556830E+02
Ar  496  0.1075801E+02  0.1830632E+02  0.2460050E+02  0.1822274E+03
Ar  497  0.1090694E+02  0.1636387E+02  0.2767397E+02  0.9736721E+01
Ar  498  0.1389737E+02  0.1926466E+02  0.2714394E+02  0.5791985E+02
Ar  499  0.1397756E+02  0.1675928E+02  0.2988618E+02  0.9041765E+02
Ar  500  0.1072472E+02  0.1891850E+02  0.2985558E+02  0.3742113E+02
Ar  501  0.1019002E+02  0.1628082E+02  0.3241954E+02  0.5996939E+02
Ar  502  0.1365475E+02  0.1906523E+02  0.3262983E+02  0.7837814E+02
Ar  503  0.1318628E+02  0.1628078E+02  0.3485001E+02  0.1297389E+03
Ar  504  0.1073345E+02  0.1878744E+02  0.3490213E+02  0.2910074E+02
Ar  505  0.1070504E+02  0.2153590E+02  0.3771964E+02  0.1939329E+02
Ar  506  0.1345160E+02  0.2379322E+02  0.1568202E+00  0.3101834E+03
Ar  507  0.1386919E+02  0.2153445E+02  0.2743128E+01  0.1783908E+03
Ar  508  0.1062319E+02  0.2439229E+02  0.2374350E+01  0.1543618E+03
Ar  509  0.1108603E+02  0.2176319E+02  0.5193867E+01  0.3683260E+03
Ar  510  0.1363616E+02  0.2457284E+02  0.5408415E+01  0.5876805E+02
Ar  511  0.1344332E+02  0.2178249E+02  0.8017679E+01  0.2048214E+02
Ar  512  0.1132695E+02  0.2440267E+02  0.8053437E+01  0.6122288E+02
Ar  513  0.1114932E+02  0.2190152E+02  0.1114932E+02  0.3266311E+03
Ar  514  0.1362721E+02  0.2471360E+02  0.1085949E+02  0.6133852E+02
Ar  515  0.1364112E+02  0.2225451E+02  0.1364112E+02  0.1442171E+02
Ar  516  0.1085949E+02  0.2471360E+02  0.1362721E+02  0.6133852E+02
Ar  517  0.1115446E+02  0.2128660E+02  0.1617578E+02  0.7843806E+02
Ar  518  0.1361517E+02  0.2504593E+02  0.1631647E+02  0.7556830E+02
Ar  519  0.1358996E+02  0.2194715E+02  0.1855084E+02  0.1129842E+03
Ar  520  0.1075801E+02  0.2460050E+02  0.1830632E+02  0.1822274E+03
Ar  521  0.1109719E+02  0.2138270E+02  0.2138270E+02  0.4199919E+02
Ar  522  0.1351648E+02  0.2435011E+02  0.2165756E+02  0.5600481E+01
Ar  523  0.1351648E+02  0.2165756E+02  0.2435011E+02  0.5600481E+01
Ar  524  0.1106483E+02  0.2402429E+02  0.2402429E+02  0.8687508E+02
Ar  525  0.1091957E+02  0.2126064E+02  0.2665742E+02  0.1504631E+03
Ar  526  0.1331513E+02  0.2406184E+02  0.2719473E+02  0.3003963E+03
Ar  527  0.1366379E+02  0.2152383E+02  0.2986990E+02  0.2038380E+02
Ar  528  0.1071226E+02  0.2418105E+02  0.2958908E+02  0.1554205E+03
Ar  529  0.1081785E+02  0.2117528E+02  0.3237434E+02  0.2426945E+02
Ar  530  0.1344877E+02  0.2424138E+02  0.3224111E+02  0.3332579E+02
Ar  531  0.1321379E+02  0.2150531E+02  0.3526971E+02  0.1690694E+03
Ar  532  0.1071914E+02  0.2418508E+02  0.3453716E+02  0.1487524E+03
Ar  533  0.1077898E+02  0.2710605E+02  0.1525041E-01  0.1975255E+03
Ar  534  0.1297894E+02  0.3011882E+02  0.1338713E+00  0.2262640E+03
Ar  535  0.1337067E+02  0.2698124E+02  0.2483688E+01  0.3021153E+02
Ar  536  0.1064042E+02  0.2975416E+02  0.2632639E+01  0.2239806E+03
Ar  537  0.1081976E+02  0.2696084E+02  0.5066174E+01  0.7742802E+02
Ar  538  0.1326825E+02  0.3014669E+02  0.5091120E+01  0.1291431E+03
Ar  539  0.1354519E+02  0.2734588E+02  0.8019540E+01  0.2095524E+02
Ar  540  0.1067937E+02  0.2960591E+02  0.7750651E+01  0.3790711E+02
Ar  541  0.1081507E+02  0.2668645E+02  0.1081507E+02  0.4068643E+00
Ar  542  0.1322584E+02  0.2983984E+02  0.1074312E+02  0.6717122E+02
Ar  543  0.1381831E+02  0.2792442E+02  0.1381831E+02  0.6162150E+02
Ar  544  0.1074312E+02  0.2983984E+02  0.1322584E+02  0.6717122E+02
Ar  545  0.1090694E+02  0.2767397E+02  0.1636387E+02  0.9736721E+01
Ar  546  0.1397756E+02  0.2988618E+02  0.1675928E+02  0.9041765E+02
Ar  547  0.1389737E+02  0.2714394E+02  0.1926466E+02  0.5791985E+02
Ar  548  0.1072472E+02  0.2985558E+02  0.1891850E+02  0.3742113E+02
Ar  549  0.1091957E+02  0.2665742E+02  0.2126064E+02  0.1504631E+03
Ar  550  0.1366379E+02  0.2986990E+02  0.2152383E+02  0.2038380E+02
Ar  551  0.1331513E+02  0.2719473E+02  0.2406184E+02  0.3003963E+03
Ar  552  0.1071226E+02  0.2958908E+02  0.2418105E+02  0.1554205E+03
Ar  553  0.1073290E+02  0.2691205E+02  0.2691205E+02  0.6639926E+01
Ar  554  0.1363874E+02  0.3008713E+02  0.2730975E+02  0.5877104E+02
Ar  555  0.1363874E+02  0.2730975E+02  0.3008713E+02  0.5877104E+02
Ar  556  0.1085907E+02  0.2932193E+02  0.2932193E+02  0.1698797E+03
Ar  557  0.1061127E+02  0.2701640E+02  0.3245003E+02  0.2444655E+03
Ar  558  0.1368772E+02  0.2994284E+02  0.3234751E+02  0.1139921E+03
Ar  559  0.1321498E+02  0.2678590E+02  0.3564631E+02  0.1323742E+02
Ar  560  0.1100390E+02  0.2969116E+02  0.3512856E+02  0.4071805E+02
Ar  561  0.1062620E+02  0.3254832E+02  0.3753633E+02  0.1718074E+02
Ar  562  0.1341722E+02  0.3522192E+02  0.3766754E+02  0.1264621E+03
Ar  563  0.1353193E+02  0.3269419E+02  0.2332808E+01  0.6587228E+02
Ar  564  0.1031147E+02  0.3518802E+02  0.2627091E+01  0.6975450E+02
Ar  565  0.1053847E+02  0.3246274E+02  0.5164880E+01  0.1925243E+03
Ar  566  0.1340891E+02  0.3520606E+02  0.5398969E+01  0.2083062E+02
Ar  567  0.1330356E+02  0.3226882E+02  0.7761129E+01  0.9362380E+02
Ar  568  0.1082562E+02  0.3481878E+02  0.7742805E+01  0.3944291E+02
Ar  569  0.1078409E+02  0.3225630E+02  0.1078409E+02  0.5422523E+03
Ar  570  0.1327023E+02  0.3470134E+02  0.1035496E+02  0.5943330E+03
Ar  571  0.1342457E+02  0.3182612E+02  0.1342457E+02  0.7600176E+02
Ar  572  0.1035496E+02  0.3470134E+02  0.1327023E+02  0.5943330E+03
Ar  573  0.1019002E+02  0.3241954E+02  0.1628082E+02  0.5996939E+02
Ar  574  0.1318628E+02  0.3485001E+02  0.1628078E+02  0.1297389E+03
Ar  575  0.1365475E+02  0.3262983E+02  0.1906523E+02  0.7837814E+02
Ar  576  0.1073345E+02  0.3490213E+02  0.1878744E+02  0.2910074E+02
Ar  577  0.1081785E+02  0.3237434E+02  0.2117528E+02  0.2426945E+02
Ar  578  0.1321379E+02  0.3526971E+02  0.2150531E+02  0.1690694E+03
Ar  579  0.1344877E+02  0.3224111E+02  0.2424138E+02  0.3332579E+02
Ar  580  0.1071914E+02  0.3453716E+02  0.2418508E+02  0.1487524E+03
Ar  581  0.1061127E+02  0.3245003E+02  0.2701640E+02  0.2444655E+03
Ar  582  0.1321498E+02  0.3564631E+02  0.2678590E+02  0.1323742E+02
Ar  583  0.1368772E+02  0.3234751E+02  0.2994284E+02  0.1139921E+03
Ar  584  0.1100390E+02  0.3512856E+02  0.2969116E+02  0.4071805E+02
Ar  585  0.1088207E+02  0.3271675E+02  0.3271675E+02  0.2106161E+02
Ar  586  0.1368294E+02  0.3514367E+02  0.3241832E+02  0.6572982E+02
Ar  587  0.1368294E+02  0.3241832E+02  0.3514367E+02  0.6572982E+02
Ar  588  0.1077506E+02  0.3537661E+02  0.3537661E+02  0.3590057E+02
Ar  589  0.1548728E+02  0.2265615E+00  0.2265615E+00  0.1918853E+03
Ar  590  0.1848250E+02  0.2601795E+01  0.2304258E+00  0.1242458E+03
Ar  591  0.1848250E+02  0.2304258E+00  0.2601795E+01  0.1242458E+03
Ar  592  0.1550868E+02  0.2962049E+01  0.2962049E+01  0.2492156E+03
Ar  593  0.1588275E+02  0.3777709E+02  0.5465311E+01  0.1643608E+03
Ar  594  0.1846619E+02  0.2632272E+01  0.5418162E+01  0.7933862E+02
Ar  595  0.1891105E+02  0.3761908E+02  0.7927748E+01  0.2880489E+03
Ar  596  0.1665092E+02  0.2786901E+01  0.8166530E+01  0.2743075E+03
Ar  597  0.1624571E+02  0.3725465E+02  0.1045676E+02  0.1713317E+03
Ar  598  0.1892977E+02  0.2458805E+01  0.1089112E+02  0.1559657E+03
Ar  599  0.1867567E+02  0.1407538E+00  0.1347796E+02  0.4951734E+02
Ar  600  0.1603706E+02  0.2883370E+01  0.1344979E+02  0.9234770E+02
Ar  601  0.1624222E+02  0.3739862E+02  0.1624222E+02  0.2102453E+03
Ar  602  0.1868358E+02  0.2788193E+01  0.1596120E+02  0.2360949E+03
Ar  603  0.1894342E+02  0.2834946E+00  0.1894342E+02  0.5611487E+01
Ar  604  0.1596120E+02  0.2788193E+01  0.1868358E+02  0.2360949E+03
Ar  605  0.1604716E+02  0.9113296E-01  0.2134349E+02  0.1782576E+03
Ar  606  0.1870648E+02  0.2628310E+01  0.2194333E+02  0.1477166E+03
Ar  607  0.1902735E+02  0.3886069E-01  0.2446880E+02  0.3023546E+03
Ar  608  0.1597054E+02  0.2571128E+01  0.2427401E+02  0.1126672E+02
Ar  609  0.1627454E+02  0.3763647E+02  0.2694121E+02  0.2055855E+03
Ar  610  0.1916522E+02  0.2951718E+01  0.2711643E+02  0.1619124E+03
Ar  611  0.1898503E+02  0.3754284E+02  0.2975423E+02  0.2859077E+02
Ar  612  0.1605859E+02  0.2236159E+01  0.2974557E+02  0.5251083E+02
Ar  613  0.1664054E+02  0.3744694E+02  0.3239200E+02  0.1461035E+03
Ar  614  0.1895683E+02  0.2726806E+01  0.3232744E+02  0.1377210E+03
Ar  615  0.1971523E+02  0.3775427E+02  0.3506529E+02  0.1193447E+03
Ar  616  0.1628063E+02  0.2078901E+01  0.3529051E+02  0.3044212E+03
Ar  617  0.1588275E+02  0.5465311E+01  0.3777709E+02  0.1643608E+03
Ar  618  0.1891105E+02  0.7927748E+01  0.3761908E+02  0.2880489E+03
Ar  619  0.1846619E+02  0.5418162E+01  0.2632272E+01  0.7933862E+02
Ar  620  0.1665092E+02  0.8166530E+01  0.2786901E+01  0.2743075E+03
Ar  621  0.1688622E+02  0.5794695E+01  0.5794695E+01  0.1229649E+03
Ar  622  0.1885401E+02  0.8511474E+01  0.5381139E+01  0.2444218E+03
Ar  623  0.1885401E+02  0.5381139E+01  0.8511474E+01  0.2444218E+03
Ar  624  0.1600903E+02  0.8447805E+01  0.8447805E+01  0.1048617E+02
Ar  625  0.1588128E+02  0.5243180E+01  0.1084821E+02  0.7332856E+02
Ar  626  0.1912487E+02  0.8195393E+01  0.1079738E+02  0.3265238E+02
Ar  627  0.1892366E+02  0.5350975E+01  0.1348978E+02  0.2315114E+03
Ar  628  0.1652823E+02  0.8421077E+01  0.1326141E+02  0.1067580E+03
Ar  629  0.1617073E+02  0.5566306E+01  0.1617073E+02  0.1207944E+03
Ar  630  0.1879377E+02  0.8150252E+01  0.1612890E+02  0.7211358E+02
Ar  631  0.1906070E+02  0.4748867E+01  0.1906070E+02  0.2828294E+03
Ar  632  0.1612890E+02  0.8150252E+01  0.1879377E+02  0.7211358E+02
Ar  633  0.1606739E+02  0.5416983E+01  0.2149775E+02  0.3533093E+02
Ar  634  0.1850047E+02  0.8336147E+01  0.2123867E+02  0.3862108E+02
Ar  635  0.1886264E+02  0.5602914E+01  0.2422161E+02  0.7175233E+02
Ar  636  0.1583504E+02  0.8253004E+01  0.2452491E+02  0.1746611E+03
Ar  637  0.1624315E+02  0.5276031E+01  0.2720008E+02  0.8780207E+02
Ar  638  0.1884119E+02  0.8151628E+01  0.2718845E+02  0.1655703E+03
Ar  639  0.1900979E+02  0.5282774E+01  0.2972745E+02  0.8954527E+02
Ar  640  0.1600307E+02  0.8054315E+01  0.2967482E+02  0.3259967E+02
Ar  641  0.1614434E+02  0.4588324E+01  0.3249044E+02  0.6168198E+02
Ar  642  0.1846211E+02  0.7591999E+01  0.3269362E+02  0.4275010E+02
Ar  643  0.1865513E+02  0.5205093E+01  0.3551762E+02  0.9626061E+02
Ar  644  0.1579963E+02  0.7681689E+01  0.3502763E+02  0.5988893E+02
Ar  645  0.1624571E+02  0.1045676E+02  0.3725465E+02  0.1713317E+03
Ar  646  0.1867567E+02  0.1347796E+02  0.1407538E+00  0.4951734E+02
Ar  647  0.1892977E+02  0.1089112E+02  0.2458805E+01  0.1559657E+03
Ar  648  0.1603706E+02  0.1344979E+02  0.2883370E+01  0.9234770E+02
Ar  649  0.1588128E+02  0.1084821E+02  0.5243180E+01  0.7332856E+02
Ar  650  0.1892366E+02  0.1348978E+02  0.5350975E+01  0.2315114E+03
Ar  651  0.1912487E+02  0.1079738E+02  0.8195393E+01  0.3265238E+02
Ar  652  0.1652823E+02  0.1326141E+02  0.8421077E+01  0.1067580E+03
Ar  653  0.1623273E+02  0.1083482E+02  0.1083482E+02  0.2317045E+03
Ar  654  0.1894984E+02  0.1342860E+02  0.1071860E+02  0.1261162E+03
Ar  655  0.1894984E+02  0.1071860E+02  0.1342860E+02  0.1261162E+03
Ar  656  0.1561696E+02  0.1310038E+02  0.1310038E+02  0.9924198E+02
Ar  657  0.1602474E+02  0.1074684E+02  0.1602474E+02  0.2685263E+03
Ar  658  0.1851622E+02  0.1346603E+02  0.1577834E+02  0.8332904E+02
Ar  659  0.1860791E+02  0.1118323E+02  0.1860791E+02  0.8471426E+02
Ar  660  0.1577834E+02  0.1346603E+02  0.1851622E+02  0.8332904E+02
Ar  661  0.1617578E+02  0.1115446E+02  0.2128660E+02  0.7843806E+02
Ar  662  0.1855084E+02  0.1358996E+02  0.2194715E+02  0.1129842E+03
Ar  663  0.1830632E+02  0.1075801E+02  0.2460050E+02  0.1822274E+03
Ar  664  0.1631647E+02  0.1361517E+02  0.2504593E+02  0.7556830E+02
Ar  665  0.1636387E+02  0.1090694E+02  0.2767397E+02  0.9736721E+01
Ar  666  0.1926466E+02  0.1389737E+02  0.2714394E+02  0.5791985E+02
Ar  667  0.1891850E+02  0.1072472E+02  0.2985558E+02  0.3742113E+02
Ar  668  0.1675928E+02  0.1397756E+02  0.2988618E+02  0.9041765E+02
Ar  669  0.1628082E+02  0.1019002E+02  0.3241954E+02  0.5996939E+02
Ar  670  0.1906523E+02  0.1365475E+02  0.3262983E+02  0.7837814E+02
Ar  671  0.1878744E+02  0.1073345E+02  0.3490213E+02  0.2910074E+02
Ar  672  0.1628078E+02  0.1318628E+02  0.3485001E+02  0.1297389E+03
Ar  673  0.1624222E+02  0.1624222E+02  0.3739862E+02  0.2102453E+03
Ar  674  0.1894342E+02  0.1894342E+02  0.2834946E+00  0.5611487E+01
Ar  675  0.1868358E+02  0.1596120E+02  0.2788193E+01  0.2360949E+03
Ar  676  0.1596120E+02  0.1868358E+02  0.2788193E+01  0.2360949E+03
Ar  677  0.1617073E+02  0.1617073E+02  0.5566306E+01  0.1207944E+03
Ar  678  0.1906070E+02  0.1906070E+02  0.4748867E+01  0.2828294E+03
Ar  679  0.1879377E+02  0.1612890E+02  0.8150252E+01  0.7211358E+02
Ar  680  0.1612890E+02  0.1879377E+02  0.8150252E+01  0.7211358E+02
Ar  681  0.1602474E+02  0.1602474E+02  0.1074684E+02  0.2685263E+03
Ar  682  0.1860791E+02  0.1860791E+02  0.1118323E+02  0.8471426E+02
Ar  683  0.1851622E+02  0.1577834E+02  0.1346603E+02  0.8332904E+02
Ar  684  0.1577834E+02  0.1851622E+02  0.1346603E+02  0.8332904E+02
Ar  685  0.1617104E+02  0.1617104E+02  0.1617104E+02  0.1766470E+04
Ar  686  0.1878445E+02  0.1878445E+02  0.1539657E+02  0.6639505E+02
Ar  687  0.1878445E+02  0.1539657E+02  0.1878445E+02  0.6639505E+02
Ar  688  0.1539657E+02  0.1878445E+02  0.1878445E+02  0.6639505E+02
Ar  689  0.1585483E+02  0.1585483E+02  0.2154599E+02  0.2628637E+03
Ar  690  0.1860361E+02  0.1860361E+02  0.2119478E+02  0.1105820E+03
Ar  691  0.1896185E+02  0.1635754E+02  0.2459900E+02  0.2889097E+03
Ar  692  0.1635754E+02  0.1896185E+02  0.2459900E+02  0.2889097E+03
Ar  693  0.1651554E+02  0.1651554E+02  0.2737928E+02  0.5141801E+02
Ar  694  0.1914337E+02  0.1914337E+02  0.2736578E+02  0.2771298E+02
Ar  695  0.1928264E+02  0.1667966E+02  0.2970940E+02  0.1377013E+03
Ar  696  0.1667966E+02  0.1928264E+02  0.2970940E+02  0.1377013E+03
Ar  697  0.1628170E+02  0.1628170E+02  0.3244089E+02  0.2410968E+02
Ar  698  0.1948784E+02  0.1948784E+02  0.3275065E+02  0.5424708E+02
Ar  699  0.1907403E+02  0.1599247E+02  0.3513901E+02  0.1540673E+03
Ar  700  0.1599247E+02  0.1907403E+02  0.3513901E+02  0.1540673E+03
Ar  701  0.1604716E+02  0.2134349E+02  0.9113296E-01  0.1782576E+03
Ar  702  0.1902735E+02  0.2446880E+02  0.3886069E-01  0.3023546E+03
Ar  703  0.1870648E+02  0.2194333E+02  0.2628310E+01  0.1477166E+03
Ar  704  0.1597054E+02  0.2427401E+02  0.2571128E+01  0.1126672E+02
Ar  705  0.1606739E+02  0.2149775E+02  0.5416983E+01  0.3533093E+02
Ar  706  0.1886264E+02  0.2422161E+02  0.5602914E+01  0.7175233E+02
Ar  707  0.1850047E+02  0.2123867E+02  0.8336147E+01  0.3862108E+02
Ar  708  0.1583504E+02  0.2452491E+02  0.8253004E+01  0.1746611E+03
Ar  709  0.1617578E+02  0.2128660E+02  0.1115446E+02  0.7843806E+02
Ar  710  0.1830632E+02  0.2460050E+02  0.1075801E+02  0.1822274E+03
Ar  711  0.1855084E+02  0.2194715E+02  0.1358996E+02  0.1129842E+03
Ar  712  0.1631647E+02  0.2504593E+02  0.1361517E+02  0.7556830E+02
Ar  713  0.1585483E+02  0.2154599E+02  0.1585483E+02  0.2628637E+03
Ar  714  0.1896185E+02  0.2459900E+02  0.1635754E+02  0.2889097E+03
Ar  715  0.1860361E+02  0.2119478E+02  0.1860361E+02  0.1105820E+03
Ar  716  0.1635754E+02  0.2459900E+02  0.1896185E+02  0.2889097E+03
Ar  717  0.1601028E+02  0.2140890E+02  0.2140890E+02  0.2501774E+03
Ar  718  0.1892657E+02  0.2403903E+02  0.2138493E+02  0.1246126E+03
Ar  719  0.1892657E+02  0.2138493E+02  0.2403903E+02  0.1246126E+03
Ar  720  0.1658432E+02  0.2413838E+02  0.2413838E+02  0.1304235E+02
Ar  721  0.1653284E+02  0.2147738E+02  0.2695110E+02  0.1063529E+03
Ar  722  0.1914263E+02  0.2438448E+02  0.2726887E+02  0.4505975E+02
Ar  723  0.1937317E+02  0.2181410E+02  0.2976404E+02  0.9801856E+02
Ar  724  0.1610307E+02  0.2434955E+02  0.2990014E+02  0.4655420E+02
Ar  725  0.1602488E+02  0.2177238E+02  0.3258319E+02  0.4867330E+02
Ar  726  0.1865554E+02  0.2416734E+02  0.3251231E+02  0.5184427E+02
Ar  727  0.1890255E+02  0.2155758E+02  0.3569845E+02  0.9599022E+02
Ar  728  0.1620848E+02  0.2404019E+02  0.3555842E+02  0.5689829E+02
Ar  729  0.1627454E+02  0.2694121E+02  0.3763647E+02  0.2055855E+03
Ar  730  0.1898503E+02  0.2975423E+02  0.3754284E+02  0.2859077E+02
Ar  731  0.1916522E+02  0.2711643E+02  0.2951718E+01  0.1619124E+03
Ar  732  0.1605859E+02  0.2974557E+02  0.2236159E+01  0.5251083E+02
Ar  733  0.1624315E+02  0.2720008E+02  0.5276031E+01  0.8780207E+02
Ar  734  0.1900979E+02  0.2972745E+02  0.5282774E+01  0.8954527E+02
Ar  735  0.1884119E+02  0.2718845E+02  0.8151628E+01  0.1655703E+03
Ar  736  0.1600307E+02  0.2967482E+02  0.8054315E+01  0.3259967E+02
Ar  737  0.1636387E+02  0.2767397E+02  0.1090694E+02  0.9736721E+01
Ar  738  0.1891850E+02  0.2985558E+02  0.1072472E+02  0.3742113E+02
Ar  739  0.1926466E+02  0.2714394E+02  0.1389737E+02  0.5791985E+02
Ar  740  0.1675928E+02  0.2988618E+02  0.1397756E+02  0.9041765E+02
Ar  741  0.1651554E+02  0.2737928E+02  0.1651554E+02  0.5141801E+02
Ar  742  0.1928264E+02  0.2970940E+02  0.1667966E+02  0.1377013E+03
Ar  743  0.1914337E+02  0.2736578E+02  0.1914337E+02  0.2771298E+02
Ar  744  0.1667966E+02  0.2970940E+02  0.1928264E+02  0.1377013E+03
Ar  745  0.1653284E+02  0.2695110E+02  0.2147738E+02  0.1063529E+03
Ar  746  0.1937317E+02  0.2976404E+02  0.2181410E+02  0.9801856E+02
Ar  747  0.1914263E+02  0.2726887E+02  0.2438448E+02  0.4505975E+02
Ar  748  0.1610307E+02  0.2990014E+02  0.2434955E+02  0.4655420E+02
Ar  749  0.1671903E+02  0.2706901E+02  0.2706901E+02  0.2117787E+03
Ar  750  0.1882515E+02  0.3019365E+02  0.2685530E+02  0.6156840E+02
Ar  751  0.1882515E+02  0.2685530E+02  0.3019365E+02  0.6156840E+02
Ar  752  0.1679094E+02  0.2978259E+02  0.2978259E+02  0.7030833E+02
Ar  753  0.1599756E+02  0.2683972E+02  0.3276161E+02  0.9433770E+02
Ar  754  0.1914873E+02  0.2973986E+02  0.3264555E+02  0.8772133E+02
Ar  755  0.1900056E+02  0.2706713E+02  0.3533828E+02  0.3445131E+02
Ar  756  0.1630508E+02  0.2972510E+02  0.3495084E+02  0.1495890E+03
Ar  757  0.1664054E+02  0.3239200E+02  0.3744694E+02  0.1461035E+03
Ar  758  0.1971523E+02  0.3506529E+02  0.3775427E+02  0.1193447E+03
Ar  759  0.1895683E+02  0.3232744E+02  0.2726806E+01  0.1377210E+03
Ar  760  0.1628063E+02  0.3529051E+02  0.2078901E+01  0.3044212E+03
Ar  761  0.1614434E+02  0.3249044E+02  0.4588324E+01  0.6168198E+02
Ar  762  0.1865513E+02  0.3551762E+02  0.5205093E+01  0.9626061E+02
Ar  763  0.1846211E+02  0.3269362E+02  0.7591999E+01  0.4275010E+02
Ar  764  0.1579963E+02  0.3502763E+02  0.7681689E+01  0.5988893E+02
Ar  765  0.1628082E+02  0.3241954E+02  0.1019002E+02  0.5996939E+02
Ar  766  0.1878744E+02  0.3490213E+02  0.1073345E+02  0.2910074E+02
Ar  767  0.1906523E+02  0.3262983E+02  0.1365475E+02  0.7837814E+02
Ar  768  0.1628078E+02  0.3485001E+02  0.1318628E+02  0.1297389E+03
Ar  769  0.1628170E+02  0.3244089E+02  0.1628170E+02  0.2410968E+02
Ar  770  0.1907403E+02  0.3513901E+02  0.1599247E+02  0.1540673E+03
Ar  771  0.1948784E+02  0.3275065E+02  0.1948784E+02  0.5424708E+02
Ar  772  0.1599247E+02  0.3513901E+02  0.1907403E+02  0.1540673E+03
Ar  773  0.1602488E+02  0.3258319E+02  0.2177238E+02  0.4867330E+02
Ar  774  0.1890255E+02  0.3569845E+02  0.2155758E+02  0.9599022E+02
Ar  775  0.1865554E+02  0.3251231E+02  0.2416734E+02  0.5184427E+02
Ar  776  0.1620848E+02  0.3555842E+02  0.2404019E+02  0.5689829E+02
Ar  777  0.1599756E+02  0.3276161E+02  0.2683972E+02  0.9433770E+02
Ar  778  0.1900056E+02  0.3533828E+02  0.2706713E+02  0.3445131E+02
Ar  779  0.1914873E+02  0.3264555E+02  0.2973986E+02  0.8772133E+02
Ar  780  0.1630508E+02  0.3495084E+02  0.2972510E+02  0.1495890E+03
Ar  781  0.1628429E+02  0.3280005E+02  0.3280005E+02  0.2052636E+03
Ar  782  0.1917048E+02  0.3521493E+02  0.3248084E+02  0.3577116E+03
Ar  783  0.1917048E+02  0.3248084E+02  0.3521493E+02  0.3577116E+03
Ar  784  0.1630807E+02  0.3551888E+02  0.3551888E+02  0.6813798E+02
Ar  785  0.2166924E+02  0.2864231E+00  0.2864231E+00  0.3331440E+02
Ar  786  0.2403324E+02  0.2960819E+01  0.3747035E+02  0.2959124E+02
Ar  787  0.2403324E+02  0.3747035E+02  0.2960819E+01  0.2959124E+02
Ar  788  0.2170098E+02  0.2830905E+01  0.2830905E+01  0.1506997E+03
Ar  789  0.2133907E+02  0.5034083E+00  0.5519497E+01  0.5818235E+02
Ar  790  0.2375868E+02  0.3296592E+01  0.5726231E+01  0.4162746E+02
Ar  791  0.2409756E+02  0.1853288E+00  0.8051821E+01  0.1684229E+03
Ar  792  0.2175213E+02  0.2651391E+01  0.8447244E+01  0.4999778E+02
Ar  793  0.2153590E+02  0.3771964E+02  0.1070504E+02  0.1939329E+02
Ar  794  0.2439229E+02  0.2374350E+01  0.1062319E+02  0.1543618E+03
Ar  795  0.2379322E+02  0.1568202E+00  0.1345160E+02  0.3101834E+03
Ar  796  0.2153445E+02  0.2743128E+01  0.1386919E+02  0.1783908E+03
Ar  797  0.2134349E+02  0.9113295E-01  0.1604716E+02  0.1782576E+03
Ar  798  0.2427401E+02  0.2571128E+01  0.1597054E+02  0.1126672E+02
Ar  799  0.2446880E+02  0.3886069E-01  0.1902735E+02  0.3023546E+03
Ar  800  0.2194333E+02  0.2628310E+01  0.1870648E+02  0.1477166E+03
Ar  801  0.2161767E+02  0.3172148E+00  0.2161767E+02  0.4004619E+02
Ar  802  0.2443053E+02  0.2722552E+01  0.2126988E+02  0.9358454E+02
Ar  803  0.2411363E+02  0.2822663E+00  0.2411363E+02  0.1785754E+03
Ar  804  0.2126988E+02  0.2722552E+01  0.2443053E+02  0.9358454E+02
Ar  805  0.2169869E+02  0.1194672E+00  0.2691109E+02  0.2064822E+03
Ar  806  0.2429959E+02  0.2644851E+01  0.2690700E+02  0.2415577E+02
Ar  807  0.2455481E+02  0.3772675E+02  0.2976460E+02  0.4041740E+01
Ar  808  0.2157157E+02  0.2933769E+01  0.2959340E+02  0.9529097E+02
Ar  809  0.2203070E+02  0.3741489E+02  0.3219253E+02  0.2638230E+02
Ar  810  0.2404052E+02  0.2684374E+01  0.3246922E+02  0.5947827E+02
Ar  811  0.2406095E+02  0.1536592E+00  0.3526252E+02  0.2548230E+03
Ar  812  0.2142036E+02  0.3272209E+01  0.3503961E+02  0.8677634E+02
Ar  813  0.2133907E+02  0.5519497E+01  0.5034083E+00  0.5818235E+02
Ar  814  0.2409756E+02  0.8051821E+01  0.1853288E+00  0.1684229E+03
Ar  815  0.2375868E+02  0.5726231E+01  0.3296592E+01  0.4162746E+02
Ar  816  0.2175213E+02  0.8447244E+01  0.2651391E+01  0.4999778E+02
Ar  817  0.2117005E+02  0.5808204E+01  0.5808204E+01  0.2037219E+03
Ar  818  0.2434637E+02  0.8378944E+01  0.5552049E+01  0.2391576E+02
Ar  819  0.2434637E+02  0.5552049E+01  0.8378944E+01  0.2391576E+02
Ar  820  0.2230959E+02  0.8560128E+01  0.8560128E+01  0.4330454E+03
Ar  821  0.2176319E+02  0.5193867E+01  0.1108603E+02  0.3683260E+03
Ar  822  0.2440267E+02  0.8053437E+01  0.1132695E+02  0.6122288E+02
Ar  823  0.2457284E+02  0.5408415E+01  0.1363616E+02  0.5876805E+02
Ar  824  0.2178249E+02  0.8017679E+01  0.1344332E+02  0.2048214E+02
Ar  825  0.2149775E+02  0.5416983E+01  0.1606739E+02  0.3533093E+02
Ar  826  0.2452491E+02  0.8253004E+01  0.1583504E+02  0.1746611E+03
Ar  827  0.2422161E+02  0.5602914E+01  0.1886264E+02  0.7175233E+02
Ar  828  0.2123867E+02  0.8336147E+01  0.1850047E+02  0.3862108E+02
Ar  829  0.2167540E+02  0.5334286E+01  0.2167540E+02  0.4628257E+03
Ar  830  0.2400696E+02  0.8130493E+01  0.2156708E+02  0.2983821E+03
Ar  831  0.2452844E+02  0.5390843E+01  0.2452844E+02  0.1924831E+03
Ar  832  0.2156708E+02  0.8130493E+01  0.2400696E+02  0.2983821E+03
Ar  833  0.2137502E+02  0.5482231E+01  0.2678989E+02  0.2810045E+02
Ar  834  0.2402551E+02  0.8504884E+01  0.2691339E+02  0.9032971E+02
Ar  835  0.2428497E+02  0.5733098E+01  0.2933694E+02  0.4185269E+02
Ar  836  0.2163083E+02  0.7878485E+01  0.3002897E+02  0.4181595E+02
Ar  837  0.2166098E+02  0.5347118E+01  0.3224672E+02  0.3151197E+02
Ar  838  0.2425663E+02  0.8105477E+01  0.3243894E+02  0.4748806E+02
Ar  839  0.2442075E+02  0.5482953E+01  0.3488707E+02  0.6785955E+02
Ar  840  0.2135023E+02  0.7846363E+01  0.3490070E+02  0.1295638E+03
Ar  841  0.2153590E+02  0.1070504E+02  0.3771964E+02  0.1939329E+02
Ar  842  0.2379322E+02  0.1345160E+02  0.1568202E+00  0.3101834E+03
Ar  843  0.2439229E+02  0.1062319E+02  0.2374350E+01  0.1543618E+03
Ar  844  0.2153445E+02  0.1386919E+02  0.2743128E+01  0.1783908E+03
Ar  845  0.2176319E+02  0.1108603E+02  0.5193867E+01  0.3683260E+03
Ar  846  0.2457284E+02  0.1363616E+02  0.5408415E+01  0.5876805E+02
Ar  847  0.2440267E+02  0.1132695E+02  0.8053437E+01  0.6122288E+02
Ar  848  0.2178249E+02  0.1344332E+02  0.8017679E+01  0.2048214E+02
Ar  849  0.2190152E+02  0.1114932E+02  0.1114932E+02  0.3266311E+03
Ar  850  0.2471360E+02  0.1362721E+02  0.1085949E+02  0.6133852E+02
Ar  851  0.2471360E+02  0.1085949E+02  0.1362721E+02  0.6133852E+02
Ar  852  0.2225451E+02  0.1364112E+02  0.1364112E+02  0.1442171E+02
Ar  853  0.2128660E+02  0.1115446E+02  0.1617578E+02  0.7843806E+02
Ar  854  0.2504593E+02  0.1361517E+02  0.1631647E+02  0.7556830E+02
Ar  855  0.2460050E+02  0.1075801E+02  0.1830632E+02  0.1822274E+03
Ar  856  0.2194715E+02  0.1358996E+02  0.1855084E+02  0.1129842E+03
Ar  857  0.2138270E+02  0.1109719E+02  0.2138270E+02  0.4199919E+02
Ar  858  0.2435011E+02  0.1351648E+02  0.2165756E+02  0.5600481E+01
Ar  859  0.2402429E+02  0.1106483E+02  0.2402429E+02  0.8687508E+02
Ar  860  0.2165756E+02  0.1351648E+02  0.2435011E+02  0.5600481E+01
Ar  861  0.2126064E+02  0.1091957E+02  0.2665742E+02  0.1504631E+03
Ar  862  0.2406184E+02  0.1331513E+02  0.2719473E+02  0.3003963E+03
Ar  863  0.2418105E+02  0.1071226E+02  0.2958908E+02  0.1554205E+03
Ar  864  0.2152383E+02  0.1366379E+02  0.2986990E+02  0.2038380E+02
Ar  865  0.2117528E+02  0.1081785E+02  0.3237434E+02  0.2426945E+02
Ar  866  0.2424138E+02  0.1344877E+02  0.3224111E+02  0.3332579E+02
Ar  867  0.2418508E+02  0.1071914E+02  0.3453716E+02  0.1487524E+03
Ar  868  0.2150531E+02  0.1321379E+02  0.3526971E+02  0.1690694E+03
Ar  869  0.2134349E+02  0.1604716E+02  0.9113296E-01  0.1782576E+03
Ar  870  0.2446880E+02  0.1902735E+02  0.3886069E-01  0.3023546E+03
Ar  871  0.2427401E+02  0.1597054E+02  0.2571128E+01  0.1126672E+02
Ar  872  0.2194333E+02  0.1870648E+02  0.2628310E+01  0.1477166E+03
Ar  873  0.2149775E+02  0.1606739E+02  0.5416983E+01  0.3533093E+02
Ar  874  0.2422161E+02  0.1886264E+02  0.5602914E+01  0.7175233E+02
Ar  875  0.2452491E+02  0.1583504E+02  0.8253004E+01  0.1746611E+03
Ar  876  0.2123867E+02  0.1850047E+02  0.8336147E+01  0.3862108E+02
Ar  877  0.2128660E+02  0.1617578E+02  0.1115446E+02  0.7843806E+02
Ar  878  0.2460050E+02  0.1830632E+02  0.1075801E+02  0.1822274E+03
Ar  879  0.2504593E+02  0.1631647E+02  0.1361517E+02  0.7556830E+02
Ar  880  0.2194715E+02  0.1855084E+02  0.1358996E+02  0.1129842E+03
Ar  881  0.2154599E+02  0.1585483E+02  0.1585483E+02  0.2628637E+03
Ar  882  0.2459900E+02  0.1896185E+02  0.1635754E+02  0.2889097E+03
Ar  883  0.2459900E+02  0.1635754E+02  0.1896185E+02  0.2889097E+03
Ar  884  0.2119478E+02  0.1860361E+02  0.1860361E+02  0.1105820E+03
Ar  885  0.2140890E+02  0.1601028E+02  0.2140890E+02  0.2501774E+03
Ar  886  0.2403903E+02  0.1892657E+02  0.2138493E+02  0.1246126E+03
Ar  887  0.2413838E+02  0.1658432E+02  0.2413838E+02  0.1304235E+02
Ar  888  0.2138493E+02  0.1892657E+02  0.2403903E+02  0.1246126E+03
Ar  889  0.2147738E+02  0.1653284E+02  0.2695110E+02  0.1063529E+03
Ar  890  0.2438448E+02  0.1914263E+02  0.2726887E+02  0.4505975E+02
Ar  891  0.2434955E+02  0.1610307E+02  0.2990014E+02  0.4655420E+02
Ar  892  0.2181410E+02  0.1937317E+02  0.2976404E+02  0.9801856E+02
Ar  893  0.2177238E+02  0.1602488E+02  0.3258319E+02  0.4867330E+02
Ar  894  0.2416734E+02  0.1865554E+02  0.3251231E+02  0.5184427E+02
Ar  895  0.2404019E+02  0.1620848E+02  0.3555842E+02  0.5689829E+02
Ar  896  0.2155758E+02  0.1890255E+02  0.3569845E+02  0.9599022E+02
Ar  897  0.2161767E+02  0.2161767E+02  0.3172148E+00  0.4004619E+02
Ar  898  0.2411363E+02  0.2411363E+02  0.2822663E+00  0.1785754E+03
Ar  899  0.2443053E+02  0.2126988E+02  0.2722552E+01  0.9358454E+02
Ar  900  0.2126988E+02  0.2443053E+02  0.2722552E+01  0.9358454E+02
Ar  901  0.2167540E+02  0.2167540E+02  0.5334286E+01  0.4628257E+03
Ar  902  0.2452844E+02  0.2452844E+02  0.5390843E+01  0.1924831E+03
Ar  903  0.2400696E+02  0.2156708E+02  0.8130493E+01  0.2983821E+03
Ar  904  0.2156708E+02  0.2400696E+02  0.8130493E+01  0.2983821E+03
Ar  905  0.2138270E+02  0.2138270E+02  0.1109719E+02  0.4199919E+02
Ar  906  0.2402429E+02  0.2402429E+02  0.1106483E+02  0.8687508E+02
Ar  907  0.2435011E+02  0.2165756E+02  0.1351648E+02  0.5600481E+01
Ar  908  0.2165756E+02  0.2435011E+02  0.1351648E+02  0.5600481E+01
Ar  909  0.2140890E+02  0.2140890E+02  0.1601028E+02  0.2501774E+03
Ar  910  0.2413838E+02  0.2413838E+02  0.1658432E+02  0.1304235E+02
Ar  911  0.2403903E+02  0.2138493E+02  0.1892657E+02  0.1246126E+03
Ar  912  0.2138493E+02  0.2403903E+02  0.1892657E+02  0.1246126E+03
Ar  913  0.2127526E+02  0.2127526E+02  0.2127526E+02  0.6691753E+03
Ar  914  0.2445255E+02  0.2445255E+02  0.2144210E+02  0.5925367E+02
Ar  915  0.2445255E+02  0.2144210E+02  0.2445255E+02  0.5925367E+02
Ar  916  0.2144210E+02  0.2445255E+02  0.2445255E+02  0.5925367E+02
Ar  917  0.2144293E+02  0.2144293E+02  0.2676054E+02  0.1001502E+03
Ar  918  0.2454294E+02  0.2454294E+02  0.2768606E+02  0.2332052E+03
Ar  919  0.2446460E+02  0.2163230E+02  0.3001016E+02  0.7212474E+02
Ar  920  0.2163230E+02  0.2446460E+02  0.3001016E+02  0.7212474E+02
Ar  921  0.2191912E+02  0.2191912E+02  0.3251597E+02  0.2027183E+02
Ar  922  0.2443556E+02  0.2443556E+02  0.3236951E+02  0.9721423E+02
Ar  923  0.2396592E+02  0.2155464E+02  0.3537194E+02  0.1103504E+03
Ar  924  0.2155464E+02  0.2396592E+02  0.3537194E+02  0.1103504E+03
Ar  925  0.2169869E+02  0.2691109E+02  0.1194672E+00  0.2064822E+03
Ar  926  0.2455481E+02  0.2976460E+02  0.3772675E+02  0.4041740E+01
Ar  927  0.2429959E+02  0.2690700E+02  0.2644851E+01  0.2415577E+02
Ar  928  0.2157157E+02  0.2959340E+02  0.2933769E+01  0.9529097E+02
Ar  929  0.2137502E+02  0.2678989E+02  0.5482231E+01  0.2810045E+02
Ar  930  0.2428497E+02  0.2933694E+02  0.5733098E+01  0.4185269E+02
Ar  931  0.2402551E+02  0.2691339E+02  0.8504884E+01  0.9032971E+02
Ar  932  0.2163083E+02  0.3002897E+02  0.7878485E+01  0.4181595E+02
Ar  933  0.2126064E+02  0.2665742E+02  0.1091957E+02  0.1504631E+03
Ar  934  0.2418105E+02  0.2958908E+02  0.1071226E+02  0.1554205E+03
Ar  935  0.2406184E+02  0.2719473E+02  0.1331513E+02  0.3003963E+03
Ar  936  0.2152383E+02  0.2986990E+02  0.1366379E+02  0.2038380E+02
Ar  937  0.2147738E+02  0.2695110E+02  0.1653284E+02  0.1063529E+03
Ar  938  0.2434955E+02  0.2990014E+02  0.1610307E+02  0.4655420E+02
Ar  939  0.2438448E+02  0.2726887E+02  0.1914263E+02  0.4505975E+02
Ar  940  0.2181410E+02  0.2976404E+02  0.1937317E+02  0.9801856E+02
Ar  941  0.2144293E+02  0.2676054E+02  0.2144293E+02  0.1001502E+03
Ar  942  0.2446460E+02  0.3001016E+02  0.2163230E+02  0.7212474E+02
Ar  943  0.2454294E+02  0.2768606E+02  0.2454294E+02  0.2332052E+03
Ar  944  0.2163230E+02  0.3001016E+02  0.2446460E+02  0.7212474E+02
Ar  945  0.2195349E+02  0.2715290E+02  0.2715290E+02  0.1155293E+03
Ar  946  0.2482798E+02  0.3004084E+02  0.2747423E+02  0.1822640E+02
Ar  947  0.2482798E+02  0.2747423E+02  0.3004084E+02  0.1822640E+02
Ar  948  0.2164712E+02  0.2960428E+02  0.2960428E+02  0.1561876E+02
Ar  949  0.2148267E+02  0.2676902E+02  0.3261893E+02  0.2061121E+03
Ar  950  0.2431400E+02  0.2973449E+02  0.3264659E+02  0.7348608E+02
Ar  951  0.2424532E+02  0.2685302E+02  0.3522162E+02  0.3147274E+03
Ar  952  0.2189849E+02  0.2956685E+02  0.3527969E+02  0.6207956E+02
Ar  953  0.2203070E+02  0.3219253E+02  0.3741489E+02  0.2638230E+02
Ar  954  0.2406095E+02  0.3526252E+02  0.1536592E+00  0.2548230E+03
Ar  955  0.2404052E+02  0.3246922E+02  0.2684374E+01  0.5947827E+02
Ar  956  0.2142036E+02  0.3503961E+02  0.3272209E+01  0.8677634E+02
Ar  957  0.2166098E+02  0.3224672E+02  0.5347118E+01  0.3151197E+02
Ar  958  0.2442075E+02  0.3488707E+02  0.5482953E+01  0.6785955E+02
Ar  959  0.2425663E+02  0.3243894E+02  0.8105477E+01  0.4748806E+02
Ar  960  0.2135023E+02  0.3490070E+02  0.7846363E+01  0.1295638E+03
Ar  961  0.2117528E+02  0.3237434E+02  0.1081785E+02  0.2426945E+02
Ar  962  0.2418508E+02  0.3453716E+02  0.1071914E+02  0.1487524E+03
Ar  963  0.2424138E+02  0.3224111E+02  0.1344877E+02  0.3332579E+02
Ar  964  0.2150531E+02  0.3526971E+02  0.1321379E+02  0.1690694E+03
Ar  965  0.2177238E+02  0.3258319E+02  0.1602488E+02  0.4867330E+02
Ar  966  0.2404019E+02  0.3555842E+02  0.1620848E+02  0.5689829E+02
Ar  967  0.2416734E+02  0.3251231E+02  0.1865554E+02  0.5184427E+02
Ar  968  0.2155758E+02  0.3569845E+02  0.1890255E+02  0.9599022E+02
Ar  969  0.2191912E+02  0.3251597E+02  0.2191912E+02  0.2027183E+02
Ar  970  0.2396592E+02  0.3537194E+02  0.2155464E+02  0.1103504E+03
Ar  971  0.2443556E+02  0.3236951E+02  0.2443556E+02  0.9721423E+02
Ar  972  0.2155464E+02  0.3537194E+02  0.2396592E+02  0.1103504E+03
Ar  973  0.2148267E+02  0.3261893E+02  0.2676902E+02  0.2061121E+03
Ar  974  0.2424532E+02  0.3522162E+02  0.2685302E+02  0.3147274E+03
Ar  975  0.2431400E+02  0.3264659E+02  0.2973449E+02  0.7348608E+02
Ar  976  0.2189849E+02  0.3527969E+02  0.2956685E+02  0.6207956E+02
Ar  977  0.2177769E+02  0.3215314E+02  0.3215314E+02  0.3512691E+03
Ar  978  0.2466054E+02  0.3522088E+02  0.3235699E+02  0.7753648E+02
Ar  979  0.2466054E+02  0.3235699E+02  0.3522088E+02  0.7753648E+02
Ar  980  0.2187680E+02  0.3486342E+02  0.3486342E+02  0.3691827E+03
Ar  981  0.2676718E+02  0.7173867E-01  0.7173867E-01  0.8663563E+02
Ar  982  0.2941426E+02  0.3110811E+01  0.3777113E+02  0.9241026E+02
Ar  983  0.2941426E+02  0.3777113E+02  0.3110811E+01  0.9241026E+02
Ar  984  0.2649353E+02  0.2926442E+01  0.2926442E+01  0.7420854E+02
Ar  985  0.2649432E+02  0.3236640E-01  0.5306050E+01  0.2001509E+02
Ar  986  0.2947181E+02  0.2487421E+01  0.5167993E+01  0.7880499E+02
Ar  987  0.2930881E+02  0.3756283E+02  0.7893487E+01  0.3595843E+03
Ar  988  0.2683595E+02  0.2595864E+01  0.7889137E+01  0.2057865E+03
Ar  989  0.2710605E+02  0.1525041E-01  0.1077898E+02  0.1975255E+03
Ar  990  0.2975416E+02  0.2632639E+01  0.1064042E+02  0.2239806E+03
Ar  991  0.3011882E+02  0.1338713E+00  0.1297894E+02  0.2262640E+03
Ar  992  0.2698124E+02  0.2483688E+01  0.1337067E+02  0.3021153E+02
Ar  993  0.2694121E+02  0.3763647E+02  0.1627454E+02  0.2055855E+03
Ar  994  0.2974557E+02  0.2236159E+01  0.1605859E+02  0.5251083E+02
Ar  995  0.2975423E+02  0.3754284E+02  0.1898503E+02  0.2859077E+02
Ar  996  0.2711643E+02  0.2951718E+01  0.1916522E+02  0.1619124E+03
Ar  997  0.2691109E+02  0.1194672E+00  0.2169869E+02  0.2064822E+03
Ar  998  0.2959340E+02  0.2933769E+01  0.2157157E+02  0.9529097E+02
Ar  999  0.2976460E+02  0.3772675E+02  0.2455481E+02  0.4041740E+01
Ar 1000  0.2690700E+02  0.2644851E+01  0.2429959E+02  0.2415577E+02
Ar 1001  0.2706506E+02  0.3759668E+02  0.2706506E+02  0.1581823E+02
Ar 1002  0.2962942E+02  0.2706713E+01  0.2690450E+02  0.9697759E+02
Ar 1003  0.2944277E+02  0.2306667E-01  0.2944277E+02  0.2496128E+03
Ar 1004  0.2690450E+02  0.2706713E+01  0.2962942E+02  0.9697759E+02
Ar 1005  0.2709158E+02  0.2740696E+00  0.3249720E+02  0.1483018E+02
Ar 1006  0.2986886E+02  0.2732250E+01  0.3241265E+02  0.1723317E+03
Ar 1007  0.2934719E+02  0.4782438E+00  0.3533322E+02  0.1989659E+02
Ar 1008  0.2686457E+02  0.2994298E+01  0.3500355E+02  0.3817021E+03
Ar 1009  0.2649432E+02  0.5306050E+01  0.3236640E-01  0.2001509E+02
Ar 1010  0.2930881E+02  0.7893487E+01  0.3756283E+02  0.3595843E+03
Ar 1011  0.2947181E+02  0.5167993E+01  0.2487421E+01  0.7880499E+02
Ar 1012  0.2683595E+02  0.7889137E+01  0.2595864E+01  0.2057865E+03
Ar 1013  0.2672595E+02  0.5414435E+01  0.5414435E+01  0.3396287E+03
Ar 1014  0.2971972E+02  0.8090648E+01  0.5186950E+01  0.3319386E+02
Ar 1015  0.2971972E+02  0.5186950E+01  0.8090648E+01  0.3319386E+02
Ar 1016  0.2694704E+02  0.8372156E+01  0.8372156E+01  0.3982312E+01
Ar 1017  0.2696084E+02  0.5066174E+01  0.1081976E+02  0.7742802E+02
Ar 1018  0.2960591E+02  0.7750651E+01  0.1067937E+02  0.3790711E+02
Ar 1019  0.3014669E+02  0.5091120E+01  0.1326825E+02  0.1291431E+03
Ar 1020  0.2734588E+02  0.8019540E+01  0.1354519E+02  0.2095524E+02
Ar 1021  0.2720008E+02  0.5276031E+01  0.1624315E+02  0.8780207E+02
Ar 1022  0.2967482E+02  0.8054315E+01  0.1600307E+02  0.3259967E+02
Ar 1023  0.2972745E+02  0.5282774E+01  0.1900979E+02  0.8954527E+02
Ar 1024  0.2718845E+02  0.8151628E+01  0.1884119E+02  0.1655703E+03
Ar 1025  0.2678989E+02  0.5482231E+01  0.2137502E+02  0.2810045E+02
Ar 1026  0.3002897E+02  0.7878485E+01  0.2163083E+02  0.4181595E+02
Ar 1027  0.2933694E+02  0.5733098E+01  0.2428497E+02  0.4185269E+02
Ar 1028  0.2691339E+02  0.8504884E+01  0.2402551E+02  0.9032971E+02
Ar 1029  0.2690397E+02  0.5868470E+01  0.2690397E+02  0.7141166E+02
Ar 1030  0.2962773E+02  0.7872191E+01  0.2689688E+02  0.1635748E+03
Ar 1031  0.2964364E+02  0.5401211E+01  0.2964364E+02  0.4869111E+03
Ar 1032  0.2689688E+02  0.7872191E+01  0.2962773E+02  0.1635748E+03
Ar 1033  0.2698094E+02  0.5460385E+01  0.3236009E+02  0.5704397E+02
Ar 1034  0.2962637E+02  0.8257359E+01  0.3223783E+02  0.1474706E+03
Ar 1035  0.2962881E+02  0.5551534E+01  0.3491021E+02  0.2534963E+03
Ar 1036  0.2657476E+02  0.8184820E+01  0.3533962E+02  0.6704307E+02
Ar 1037  0.2710605E+02  0.1077898E+02  0.1525041E-01  0.1975255E+03
Ar 1038  0.3011882E+02  0.1297894E+02  0.1338713E+00  0.2262640E+03
Ar 1039  0.2975416E+02  0.1064042E+02  0.2632639E+01  0.2239806E+03
Ar 1040  0.2698124E+02  0.1337067E+02  0.2483688E+01  0.3021153E+02
Ar 1041  0.2696084E+02  0.1081976E+02  0.5066174E+01  0.7742802E+02
Ar 1042  0.3014669E+02  0.1326825E+02  0.5091120E+01  0.1291431E+03
Ar 1043  0.2960591E+02  0.1067937E+02  0.7750651E+01  0.3790711E+02
Ar 1044  0.2734588E+02  0.1354519E+02  0.8019540E+01  0.2095524E+02
Ar 1045  0.2668645E+02  0.1081507E+02  0.1081507E+02  0.4068643E+00
Ar 1046  0.2983984E+02  0.1322584E+02  0.1074312E+02  0.6717122E+02
Ar 1047  0.2983984E+02  0.1074312E+02  0.1322584E+02  0.6717122E+02
Ar 1048  0.2792442E+02  0.1381831E+02  0.1381831E+02  0.6162150E+02
Ar 1049  0.2767397E+02  0.1090694E+02  0.1636387E+02  0.9736721E+01
Ar 1050  0.2988618E+02  0.1397756E+02  0.1675928E+02  0.9041765E+02
Ar 1051  0.2985558E+02  0.1072472E+02  0.1891850E+02  0.3742113E+02
Ar 1052  0.2714394E+02  0.1389737E+02  0.1926466E+02  0.5791985E+02
Ar 1053  0.2665742E+02  0.1091957E+02  0.2126064E+02  0.1504631E+03
Ar 1054  0.2986990E+02  0.1366379E+02  0.2152383E+02  0.2038380E+02
Ar 1055  0.2958908E+02  0.1071226E+02  0.2418105E+02  0.1554205E+03
Ar 1056  0.2719473E+02  0.1331513E+02  0.2406184E+02  0.3003963E+03
Ar 1057  0.2691205E+02  0.1073290E+02  0.2691205E+02  0.6639926E+01
Ar 1058  0.3008713E+02  0.1363874E+02  0.2730975E+02  0.5877104E+02
Ar 1059  0.2932193E+02  0.1085907E+02  0.2932193E+02  0.1698797E+03
Ar 1060  0.2730975E+02  0.1363874E+02  0.3008713E+02  0.5877104E+02
Ar 1061  0.2701640E+02  0.1061127E+02  0.3245003E+02  0.2444655E+03
Ar 1062  0.2994284E+02  0.1368772E+02  0.3234751E+02  0.1139921E+03
Ar 1063  0.2969116E+02  0.1100390E+02  0.3512856E+02  0.4071805E+02
Ar 1064  0.2678590E+02  0.1321498E+02  0.3564631E+02  0.1323742E+02
Ar 1065  0.2694121E+02  0.1627454E+02  0.3763647E+02  0.2055855E+03
Ar 1066  0.2975423E+02  0.1898503E+02  0.3754284E+02  0.2859077E+02
Ar 1067  0.2974557E+02  0.1605859E+02  0.2236159E+01  0.5251083E+02
Ar 1068  0.2711643E+02  0.1916522E+02  0.2951718E+01  0.1619124E+03
Ar 1069  0.2720008E+02  0.1624315E+02  0.5276031E+01  0.8780207E+02
Ar 1070  0.2972745E+02  0.1900979E+02  0.5282774E+01  0.8954527E+02
Ar 1071  0.2967482E+02  0.1600307E+02  0.8054315E+01  0.3259967E+02
Ar 1072  0.2718845E+02  0.1884119E+02  0.8151628E+01  0.1655703E+03
Ar 1073  0.2767397E+02  0.1636387E+02  0.1090694E+02  0.9736721E+01
Ar 1074  0.2985558E+02  0.1891850E+02  0.1072472E+02  0.3742113E+02
Ar 1075  0.2988618E+02  0.1675928E+02  0.1397756E+02  0.9041765E+02
Ar 1076  0.2714394E+02  0.1926466E+02  0.1389737E+02  0.5791985E+02
Ar 1077  0.2737928E+02  0.1651554E+02  0.1651554E+02  0.5141801E+02
Ar 1078  0.2970940E+02  0.1928264E+02  0.1667966E+02  0.1377013E+03
Ar 1079  0.2970940E+02  0.1667966E+02  0.1928264E+02  0.1377013E+03
Ar 1080  0.2736578E+02  0.1914337E+02  0.1914337E+02  0.2771298E+02
Ar 1081  0.2695110E+02  0.1653284E+02  0.2147738E+02  0.1063529E+03
Ar 1082  0.2976404E+02  0.1937317E+02  0.2181410E+02  0.9801856E+02
Ar 1083  0.2990014E+02  0.1610307E+02  0.2434955E+02  0.4655420E+02
Ar 1084  0.2726887E+02  0.1914263E+02  0.2438448E+02  0.4505975E+02
Ar 1085  0.2706901E+02  0.1671903E+02  0.2706901E+02  0.2117787E+03
Ar 1086  0.3019365E+02  0.1882515E+02  0.2685530E+02  0.6156840E+02
Ar 1087  0.2978259E+02  0.1679094E+02  0.2978259E+02  0.7030833E+02
Ar 1088  0.2685530E+02  0.1882515E+02  0.3019365E+02  0.6156840E+02
Ar 1089  0.2683972E+02  0.1599756E+02  0.3276161E+02  0.9433770E+02
Ar 1090  0.2973986E+02  0.1914873E+02  0.3264555E+02  0.8772133E+02
Ar 1091  0.2972510E+02  0.1630508E+02  0.3495084E+02  0.1495890E+03
Ar 1092  0.2706713E+02  0.1900056E+02  0.3533828E+02  0.3445131E+02
Ar 1093  0.2691109E+02  0.2169869E+02  0.1194672E+00  0.2064822E+03
Ar 1094  0.2976460E+02  0.2455481E+02  0.3772675E+02  0.4041740E+01
Ar 1095  0.2959340E+02  0.2157157E+02  0.2933769E+01  0.9529097E+02
Ar 1096  0.2690700E+02  0.2429959E+02  0.2644851E+01  0.2415577E+02
Ar 1097  0.2678989E+02  0.2137502E+02  0.5482231E+01  0.2810045E+02
Ar 1098  0.2933694E+02  0.2428497E+02  0.5733098E+01  0.4185269E+02
Ar 1099  0.3002897E+02  0.2163083E+02  0.7878485E+01  0.4181595E+02
Ar 1100  0.2691339E+02  0.2402551E+02  0.8504884E+01  0.9032971E+02
Ar 1101  0.2665742E+02  0.2126064E+02  0.1091957E+02  0.1504631E+03
Ar 1102  0.2958908E+02  0.2418105E+02  0.1071226E+02  0.1554205E+03
Ar 1103  0.2986990E+02  0.2152383E+02  0.1366379E+02  0.2038380E+02
Ar 1104  0.2719473E+02  0.2406184E+02  0.1331513E+02  0.3003963E+03
Ar 1105  0.2695110E+02  0.2147738E+02  0.1653284E+02  0.1063529E+03
Ar 1106  0.2990014E+02  0.2434955E+02  0.1610307E+02  0.4655420E+02
Ar 1107  0.2976404E+02  0.2181410E+02  0.1937317E+02  0.9801856E+02
Ar 1108  0.2726887E+02  0.2438448E+02  0.1914263E+02  0.4505975E+02
Ar 1109  0.2676054E+02  0.2144293E+02  0.2144293E+02  0.1001502E+03
Ar 1110  0.3001016E+02  0.2446460E+02  0.2163230E+02  0.7212474E+02
Ar 1111  0.3001016E+02  0.2163230E+02  0.2446460E+02  0.7212474E+02
Ar 1112  0.2768606E+02  0.2454294E+02  0.2454294E+02  0.2332052E+03
Ar 1113  0.2715290E+02  0.2195349E+02  0.2715290E+02  0.1155293E+03
Ar 1114  0.3004084E+02  0.2482798E+02  0.2747423E+02  0.1822640E+02
Ar 1115  0.2960428E+02  0.2164712E+02  0.2960428E+02  0.1561876E+02
Ar 1116  0.2747423E+02  0.2482798E+02  0.3004084E+02  0.1822640E+02
Ar 1117  0.2676902E+02  0.2148267E+02  0.3261893E+02  0.2061121E+03
Ar 1118  0.2973449E+02  0.2431400E+02  0.3264659E+02  0.7348608E+02
Ar 1119  0.2956685E+02  0.2189849E+02  0.3527969E+02  0.6207956E+02
Ar 1120  0.2685302E+02  0.2424532E+02  0.3522162E+02  0.3147274E+03
Ar 1121  0.2706506E+02  0.2706506E+02  0.3759668E+02  0.1581823E+02
Ar 1122  0.2944277E+02  0.2944277E+02  0.2306667E-01  0.2496128E+03
Ar 1123  0.2962942E+02  0.2690450E+02  0.2706713E+01  0.9697759E+02
Ar 1124  0.2690450E+02  0.2962942E+02  0.2706713E+01  0.9697759E+02
Ar 1125  0.2690397E+02  0.2690397E+02  0.5868470E+01  0.7141166E+02
Ar 1126  0.2964364E+02  0.2964364E+02  0.5401211E+01  0.4869111E+03
Ar 1127  0.2962773E+02  0.2689688E+02  0.7872191E+01  0.1635748E+03
Ar 1128  0.2689688E+02  0.2962773E+02  0.7872191E+01  0.1635748E+03
Ar 1129  0.2691205E+02  0.2691205E+02  0.1073290E+02  0.6639926E+01
Ar 1130  0.2932193E+02  0.2932193E+02  0.1085907E+02  0.1698797E+03
Ar 1131  0.3008713E+02  0.2730975E+02  0.1363874E+02  0.5877104E+02
Ar 1132  0.2730975E+02  0.3008713E+02  0.1363874E+02  0.5877104E+02
Ar 1133  0.2706901E+02  0.2706901E+02  0.1671903E+02  0.2117787E+03
Ar 1134  0.2978259E+02  0.2978259E+02  0.1679094E+02  0.7030833E+02
Ar 1135  0.3019365E+02  0.2685530E+02  0.1882515E+02  0.6156840E+02
Ar 1136  0.2685530E+02  0.3019365E+02  0.1882515E+02  0.6156840E+02
Ar 1137  0.2715290E+02  0.2715290E+02  0.2195349E+02  0.1155293E+03
Ar 1138  0.2960428E+02  0.2960428E+02  0.2164712E+02  0.1561876E+02
Ar 1139  0.3004084E+02  0.2747423E+02  0.2482798E+02  0.1822640E+02
Ar 1140  0.2747423E+02  0.3004084E+02  0.2482798E+02  0.1822640E+02
Ar 1141  0.2740392E+02  0.2740392E+02  0.2740392E+02  0.1183170E+03
Ar 1142  0.2993633E+02  0.2993633E+02  0.2718075E+02  0.1571180E+03
Ar 1143  0.2993633E+02  0.2718075E+02  0.2993633E+02  0.1571180E+03
Ar 1144  0.2718075E+02  0.2993633E+02  0.2993633E+02  0.1571180E+03
Ar 1145  0.2711217E+02  0.2711217E+02  0.3271007E+02  0.1701245E+03
Ar 1146  0.2994306E+02  0.2994306E+02  0.3300650E+02  0.9213025E+02
Ar 1147  0.2990153E+02  0.2708197E+02  0.3518143E+02  0.1987123E+03
Ar 1148  0.2708197E+02  0.2990153E+02  0.3518143E+02  0.1987123E+03
Ar 1149  0.2709158E+02  0.3249720E+02  0.2740696E+00  0.1483018E+02
Ar 1150  0.2934719E+02  0.3533322E+02  0.4782438E+00  0.1989659E+02
Ar 1151  0.2986886E+02  0.3241265E+02  0.2732250E+01  0.1723317E+03
Ar 1152  0.2686457E+02  0.3500355E+02  0.2994298E+01  0.3817021E+03
Ar 1153  0.2698094E+02  0.3236009E+02  0.5460385E+01  0.5704397E+02
Ar 1154  0.2962881E+02  0.3491021E+02  0.5551534E+01  0.2534963E+03
Ar 1155  0.2962637E+02  0.3223783E+02  0.8257359E+01  0.1474706E+03
Ar 1156  0.2657476E+02  0.3533962E+02  0.8184820E+01  0.6704307E+02
Ar 1157  0.2701640E+02  0.3245003E+02  0.1061127E+02  0.2444655E+03
Ar 1158  0.2969116E+02  0.3512856E+02  0.1100390E+02  0.4071805E+02
Ar 1159  0.2994284E+02  0.3234751E+02  0.1368772E+02  0.1139921E+03
Ar 1160  0.2678590E+02  0.3564631E+02  0.1321498E+02  0.1323742E+02
Ar 1161  0.2683972E+02  0.3276161E+02  0.1599756E+02  0.9433770E+02
Ar 1162  0.2972510E+02  0.3495084E+02  0.1630508E+02  0.1495890E+03
Ar 1163  0.2973986E+02  0.3264555E+02  0.1914873E+02  0.8772133E+02
Ar 1164  0.2706713E+02  0.3533828E+02  0.1900056E+02  0.3445131E+02
Ar 1165  0.2676902E+02  0.3261893E+02  0.2148267E+02  0.2061121E+03
Ar 1166  0.2956685E+02  0.3527969E+02  0.2189849E+02  0.6207956E+02
Ar 1167  0.2973449E+02  0.3264659E+02  0.2431400E+02  0.7348608E+02
Ar 1168  0.2685302E+02  0.3522162E+02  0.2424532E+02  0.3147274E+03
Ar 1169  0.2711217E+02  0.3271007E+02  0.2711217E+02  0.1701245E+03
Ar 1170  0.2990153E+02  0.3518143E+02  0.2708197E+02  0.1987123E+03
Ar 1171  0.2994306E+02  0.3300650E+02  0.2994306E+02  0.9213025E+02
Ar 1172  0.2708197E+02  0.3518143E+02  0.2990153E+02  0.1987123E+03
Ar 1173  0.2637335E+02  0.3246637E+02  0.3246637E+02  0.8900298E+02
Ar 1174  0.2952523E+02  0.3553825E+02  0.3253027E+02  0.7281980E+02
Ar 1175  0.2952523E+02  0.3253027E+02  0.3553825E+02  0.7281980E+02
Ar 1176  0.2731100E+02  0.3526820E+02  0.3526820E+02  0.3614650E+03
Ar 1177  0.3271526E+02  0.2341179E-01  0.2341179E-01  0.2468133E+03
Ar 1178  0.3469913E+02  0.2959675E+01  0.8272092E-01  0.2480268E+03
Ar 1179  0.3469913E+02  0.8272092E-01  0.2959675E+01  0.2480268E+03
Ar 1180  0.3198422E+02  0.2807049E+01  0.2807049E+01  0.4171940E+03
Ar 1181  0.3223414E+02  0.3753605E+02  0.5770362E+01  0.1068858E+03
Ar 1182  0.3502438E+02  0.2654045E+01  0.5259332E+01  0.9991786E+02
Ar 1183  0.3518579E+02  0.1174599E+00  0.8067930E+01  0.1574164E+03
Ar 1184  0.3241955E+02  0.2779564E+01  0.7672516E+01  0.1918770E+03
Ar 1185  0.3254832E+02  0.3753633E+02  0.1062620E+02  0.1718074E+02
Ar 1186  0.3518802E+02  0.2627091E+01  0.1031147E+02  0.6975450E+02
Ar 1187  0.3522192E+02  0.3766754E+02  0.1341722E+02  0.1264621E+03
Ar 1188  0.3269419E+02  0.2332808E+01  0.1353193E+02  0.6587228E+02
Ar 1189  0.3239200E+02  0.3744694E+02  0.1664054E+02  0.1461035E+03
Ar 1190  0.3529051E+02  0.2078901E+01  0.1628063E+02  0.3044212E+03
Ar 1191  0.3506529E+02  0.3775427E+02  0.1971523E+02  0.1193447E+03
Ar 1192  0.3232744E+02  0.2726806E+01  0.1895683E+02  0.1377210E+03
Ar 1193  0.3219253E+02  0.3741489E+02  0.2203070E+02  0.2638230E+02
Ar 1194  0.3503961E+02  0.3272209E+01  0.2142036E+02  0.8677634E+02
Ar 1195  0.3526252E+02  0.1536592E+00  0.2406095E+02  0.2548230E+03
Ar 1196  0.3246922E+02  0.2684374E+01  0.2404052E+02  0.5947827E+02
Ar 1197  0.3249720E+02  0.2740696E+00  0.2709158E+02  0.1483018E+02
Ar 1198  0.3500355E+02  0.2994298E+01  0.2686457E+02  0.3817021E+03
Ar 1199  0.3533322E+02  0.4782438E+00  0.2934719E+02  0.1989659E+02
Ar 1200  0.3241265E+02  0.2732250E+01  0.2986886E+02  0.1723317E+03
Ar 1201  0.3253376E+02  0.3741778E+02  0.3253376E+02  0.2130277E+03
Ar 1202  0.3493030E+02  0.2433966E+01  0.3237846E+02  0.8420712E+02
Ar 1203  0.3507922E+02  0.3772257E+02  0.3507922E+02  0.2982184E+03
Ar 1204  0.3237846E+02  0.2433966E+01  0.3493030E+02  0.8420712E+02
Ar 1205  0.3223414E+02  0.5770362E+01  0.3753605E+02  0.1068858E+03
Ar 1206  0.3518579E+02  0.8067930E+01  0.1174599E+00  0.1574164E+03
Ar 1207  0.3502438E+02  0.5259332E+01  0.2654045E+01  0.9991786E+02
Ar 1208  0.3241955E+02  0.7672516E+01  0.2779564E+01  0.1918770E+03
Ar 1209  0.3231255E+02  0.5365832E+01  0.5365832E+01  0.6266035E+02
Ar 1210  0.3504119E+02  0.7862137E+01  0.5385339E+01  0.9646722E+02
Ar 1211  0.3504119E+02  0.5385339E+01  0.7862137E+01  0.9646722E+02
Ar 1212  0.3215257E+02  0.7686754E+01  0.7686754E+01  0.8190833E+02
Ar 1213  0.3246274E+02  0.5164880E+01  0.1053847E+02  0.1925243E+03
Ar 1214  0.3481878E+02  0.7742805E+01  0.1082562E+02  0.3944291E+02
Ar 1215  0.3520606E+02  0.5398969E+01  0.1340891E+02  0.2083062E+02
Ar 1216  0.3226882E+02  0.7761129E+01  0.1330356E+02  0.9362380E+02
Ar 1217  0.3249044E+02  0.4588324E+01  0.1614434E+02  0.6168198E+02
Ar 1218  0.3502763E+02  0.7681689E+01  0.1579963E+02  0.5988893E+02
Ar 1219  0.3551762E+02  0.5205093E+01  0.1865513E+02  0.9626061E+02
Ar 1220  0.3269362E+02  0.7591999E+01  0.1846211E+02  0.4275010E+02
Ar 1221  0.3224672E+02  0.5347118E+01  0.2166098E+02  0.3151197E+02
Ar 1222  0.3490070E+02  0.7846363E+01  0.2135023E+02  0.1295638E+03
Ar 1223  0.3488707E+02  0.5482953E+01  0.2442075E+02  0.6785955E+02
Ar 1224  0.3243894E+02  0.8105477E+01  0.2425663E+02  0.4748806E+02
Ar 1225  0.3236009E+02  0.5460385E+01  0.2698094E+02  0.5704397E+02
Ar 1226  0.3533962E+02  0.8184820E+01  0.2657476E+02  0.6704307E+02
Ar 1227  0.3491021E+02  0.5551534E+01  0.2962881E+02  0.2534963E+03
Ar 1228  0.3223783E+02  0.8257359E+01  0.2962637E+02  0.1474706E+03
Ar 1229  0.3272578E+02  0.5694128E+01  0.3272578E+02  0.3500757E+03
Ar 1230  0.3496557E+02  0.8293009E+01  0.3228297E+02  0.3131914E+02
Ar 1231  0.3514034E+02  0.6169202E+01  0.3514034E+02  0.2579782E+03
Ar 1232  0.3228297E+02  0.8293009E+01  0.3496557E+02  0.3131914E+02
Ar 1233  0.3254832E+02  0.1062620E+02  0.3753633E+02  0.1718074E+02
Ar 1234  0.3522192E+02  0.1341722E+02  0.3766754E+02  0.1264621E+03
Ar 1235  0.3518802E+02  0.1031147E+02  0.2627091E+01  0.6975450E+02
Ar 1236  0.3269419E+02  0.1353193E+02  0.2332808E+01  0.6587228E+02
Ar 1237  0.3246274E+02  0.1053847E+02  0.5164880E+01  0.1925243E+03
Ar 1238  0.3520606E+02  0.1340891E+02  0.5398969E+01  0.2083062E+02
Ar 1239  0.3481878E+02  0.1082562E+02  0.7742805E+01  0.3944291E+02
Ar 1240  0.3226882E+02  0.1330356E+02  0.7761129E+01  0.9362380E+02
Ar 1241  0.3225630E+02  0.1078409E+02  0.1078409E+02  0.5422523E+03
Ar 1242  0.3470134E+02  0.1327023E+02  0.1035496E+02  0.5943330E+03
Ar 1243  0.3470134E+02  0.1035496E+02  0.1327023E+02  0.5943330E+03
Ar 1244  0.3182612E+02  0.1342457E+02  0.1342457E+02  0.7600176E+02
Ar 1245  0.3241954E+02  0.1019002E+02  0.1628082E+02  0.5996939E+02
Ar 1246  0.3485001E+02  0.1318628E+02  0.1628078E+02  0.1297389E+03
Ar 1247  0.3490213E+02  0.1073345E+02  0.1878744E+02  0.2910074E+02
Ar 1248  0.3262983E+02  0.1365475E+02  0.1906523E+02  0.7837814E+02
Ar 1249  0.3237434E+02  0.1081785E+02  0.2117528E+02  0.2426945E+02
Ar 1250  0.3526971E+02  0.1321379E+02  0.2150531E+02  0.1690694E+03
Ar 1251  0.3453716E+02  0.1071914E+02  0.2418508E+02  0.1487524E+03
Ar 1252  0.3224111E+02  0.1344877E+02  0.2424138E+02  0.3332579E+02
Ar 1253  0.3245003E+02  0.1061127E+02  0.2701640E+02  0.2444655E+03
Ar 1254  0.3564631E+02  0.1321498E+02  0.2678590E+02  0.1323742E+02
Ar 1255  0.3512856E+02  0.1100390E+02  0.2969116E+02  0.4071805E+02
Ar 1256  0.3234751E+02  0.1368772E+02  0.2994284E+02  0.1139921E+03
Ar 1257  0.3271675E+02  0.1088207E+02  0.3271675E+02  0.2106161E+02
Ar 1258  0.3514367E+02  0.1368294E+02  0.3241832E+02  0.6572982E+02
Ar 1259  0.3537661E+02  0.1077506E+02  0.3537661E+02  0.3590057E+02
Ar 1260  0.3241832E+02  0.1368294E+02  0.3514367E+02  0.6572982E+02
Ar 1261  0.3239200E+02  0.1664054E+02  0.3744694E+02  0.1461035E+03
Ar 1262  0.3506529E+02  0.1971523E+02  0.3775427E+02  0.1193447E+03
Ar 1263  0.3529051E+02  0.1628063E+02  0.2078901E+01  0.3044212E+03
Ar 1264  0.3232744E+02  0.1895683E+02  0.2726806E+01  0.1377210E+03
Ar 1265  0.3249044E+02  0.1614434E+02  0.4588324E+01  0.6168198E+02
Ar 1266  0.3551762E+02  0.1865513E+02  0.5205093E+01  0.9626061E+02
Ar 1267  0.3502763E+02  0.1579963E+02  0.7681689E+01  0.5988893E+02
Ar 1268  0.3269362E+02  0.1846211E+02  0.7591999E+01  0.4275010E+02
Ar 1269  0.3241954E+02  0.1628082E+02  0.1019002E+02  0.5996939E+02
Ar 1270  0.3490213E+02  0.1878744E+02  0.1073345E+02  0.2910074E+02
Ar 1271  0.3485001E+02  0.1628078E+02  0.1318628E+02  0.1297389E+03
Ar 1272  0.3262983E+02  0.1906523E+02  0.1365475E+02  0.7837814E+02
Ar 1273  0.3244089E+02  0.1628170E+02  0.1628170E+02  0.2410968E+02
Ar 1274  0.3513901E+02  0.1907403E+02  0.1599247E+02  0.1540673E+03
Ar 1275  0.3513901E+02  0.1599247E+02  0.1907403E+02  0.1540673E+03
Ar 1276  0.3275065E+02  0.1948784E+02  0.1948784E+02  0.5424708E+02
Ar 1277  0.3258319E+02  0.1602488E+02  0.2177238E+02  0.4867330E+02
Ar 1278  0.3569845E+02  0.1890255E+02  0.2155758E+02  0.9599022E+02
Ar 1279  0.3555842E+02  0.1620848E+02  0.2404019E+02  0.5689829E+02
Ar 1280  0.3251231E+02  0.1865554E+02  0.2416734E+02  0.5184427E+02
Ar 1281  0.3276161E+02  0.1599756E+02  0.2683972E+02  0.9433770E+02
Ar 1282  0.3533828E+02  0.1900056E+02  0.2706713E+02  0.3445131E+02
Ar 1283  0.3495084E+02  0.1630508E+02  0.2972510E+02  0.1495890E+03
Ar 1284  0.3264555E+02  0.1914873E+02  0.2973986E+02  0.8772133E+02
Ar 1285  0.3280005E+02  0.1628429E+02  0.3280005E+02  0.2052636E+03
Ar 1286  0.3521493E+02  0.1917048E+02  0.3248084E+02  0.3577116E+03
Ar 1287  0.3551888E+02  0.1630807E+02  0.3551888E+02  0.6813798E+02
Ar 1288  0.3248084E+02  0.1917048E+02  0.3521493E+02  0.3577116E+03
Ar 1289  0.3219253E+02  0.2203070E+02  0.3741489E+02  0.2638230E+02
Ar 1290  0.3526252E+02  0.2406095E+02  0.1536592E+00  0.2548230E+03
Ar 1291  0.3503961E+02  0.2142036E+02  0.3272209E+01  0.8677634E+02
Ar 1292  0.3246922E+02  0.2404052E+02  0.2684374E+01  0.5947827E+02
Ar 1293  0.3224672E+02  0.2166098E+02  0.5347118E+01  0.3151197E+02
Ar 1294  0.3488707E+02  0.2442075E+02  0.5482953E+01  0.6785955E+02
Ar 1295  0.3490070E+02  0.2135023E+02  0.7846363E+01  0.1295638E+03
Ar 1296  0.3243894E+02  0.2425663E+02  0.8105477E+01  0.4748806E+02
Ar 1297  0.3237434E+02  0.2117528E+02  0.1081785E+02  0.2426945E+02
Ar 1298  0.3453716E+02  0.2418508E+02  0.1071914E+02  0.1487524E+03
Ar 1299  0.3526971E+02  0.2150531E+02  0.1321379E+02  0.1690694E+03
Ar 1300  0.3224111E+02  0.2424138E+02  0.1344877E+02  0.3332579E+02
Ar 1301  0.3258319E+02  0.2177238E+02  0.1602488E+02  0.4867330E+02
Ar 1302  0.3555842E+02  0.2404019E+02  0.1620848E+02  0.5689829E+02
Ar 1303  0.3569845E+02  0.2155758E+02  0.1890255E+02  0.9599022E+02
Ar 1304  0.3251231E+02  0.2416734E+02  0.1865554E+02  0.5184427E+02
Ar 1305  0.3251597E+02  0.2191912E+02  0.2191912E+02  0.2027183E+02
Ar 1306  0.3537194E+02  0.2396592E+02  0.2155464E+02  0.1103504E+03
Ar 1307  0.3537194E+02  0.2155464E+02  0.2396592E+02  0.1103504E+03
Ar 1308  0.3236951E+02  0.2443556E+02  0.2443556E+02  0.9721423E+02
Ar 1309  0.3261893E+02  0.2148267E+02  0.2676902E+02  0.2061121E+03
Ar 1310  0.3522162E+02  0.2424532E+02  0.2685302E+02  0.3147274E+03
Ar 1311  0.3527969E+02  0.2189849E+02  0.2956685E+02  0.6207956E+02
Ar 1312  0.3264659E+02  0.2431400E+02  0.2973449E+02  0.7348608E+02
Ar 1313  0.3215314E+02  0.2177769E+02  0.3215314E+02  0.3512691E+03
Ar 1314  0.3522088E+02  0.2466054E+02  0.3235699E+02  0.7753648E+02
Ar 1315  0.3486342E+02  0.2187680E+02  0.3486342E+02  0.3691827E+03
Ar 1316  0.3235699E+02  0.2466054E+02  0.3522088E+02  0.7753648E+02
Ar 1317  0.3249720E+02  0.2709158E+02  0.2740696E+00  0.1483018E+02
Ar 1318  0.3533322E+02  0.2934719E+02  0.4782438E+00  0.1989659E+02
Ar 1319  0.3500355E+02  0.2686457E+02  0.2994298E+01  0.3817021E+03
Ar 1320  0.3241265E+02  0.2986886E+02  0.2732250E+01  0.1723317E+03
Ar 1321  0.3236009E+02  0.2698094E+02  0.5460385E+01  0.5704397E+02
Ar 1322  0.3491021E+02  0.2962881E+02  0.5551534E+01  0.2534963E+03
Ar 1323  0.3533962E+02  0.2657476E+02  0.8184820E+01  0.6704307E+02
Ar 1324  0.3223783E+02  0.2962637E+02  0.8257359E+01  0.1474706E+03
Ar 1325  0.3245003E+02  0.2701640E+02  0.1061127E+02  0.2444655E+03
Ar 1326  0.3512856E+02  0.2969116E+02  0.1100390E+02  0.4071805E+02
Ar 1327  0.3564631E+02  0.2678590E+02  0.1321498E+02  0.1323742E+02
Ar 1328  0.3234751E+02  0.2994284E+02  0.1368772E+02  0.1139921E+03
Ar 1329  0.3276161E+02  0.2683972E+02  0.1599756E+02  0.9433770E+02
Ar 1330  0.3495084E+02  0.2972510E+02  0.1630508E+02  0.1495890E+03
Ar 1331  0.3533828E+02  0.2706713E+02  0.1900056E+02  0.3445131E+02
Ar 1332  0.3264555E+02  0.2973986E+02  0.1914873E+02  0.8772133E+02
Ar 1333  0.3261893E+02  0.2676902E+02  0.2148267E+02  0.2061121E+03
Ar 1334  0.3527969E+02  0.2956685E+02  0.2189849E+02  0.6207956E+02
Ar 1335  0.3522162E+02  0.2685302E+02  0.2424532E+02  0.3147274E+03
Ar 1336  0.3264659E+02  0.2973449E+02  0.2431400E+02  0.7348608E+02
Ar 1337  0.3271007E+02  0.2711217E+02  0.2711217E+02  0.1701245E+03
Ar 1338  0.3518143E+02  0.2990153E+02  0.2708197E+02  0.1987123E+03
Ar 1339  0.3518143E+02  0.2708197E+02  0.2990153E+02  0.1987123E+03
Ar 1340  0.3300650E+02  0.2994306E+02  0.2994306E+02  0.9213025E+02
Ar 1341  0.3246637E+02  0.2637335E+02  0.3246637E+02  0.8900298E+02
Ar 1342  0.3553825E+02  0.2952523E+02  0.3253027E+02  0.7281980E+02
Ar 1343  0.3526820E+02  0.2731100E+02  0.3526820E+02  0.3614650E+03
Ar 1344  0.3253027E+02  0.2952523E+02  0.3553825E+02  0.7281980E+02
Ar 1345  0.3253376E+02  0.3253376E+02  0.3741778E+02  0.2130277E+03
Ar 1346  0.3507922E+02  0.3507922E+02  0.3772257E+02  0.2982184E+03
Ar 1347  0.3493030E+02  0.3237846E+02  0.2433966E+01  0.8420712E+02
Ar 1348  0.3237846E+02  0.3493030E+02  0.2433966E+01  0.8420712E+02
Ar 1349  0.3272578E+02  0.3272578E+02  0.5694128E+01  0.3500757E+03
Ar 1350  0.3514034E+02  0.3514034E+02  0.6169202E+01  0.2579782E+03
Ar 1351  0.3496557E+02  0.3228297E+02  0.8293009E+01  0.3131914E+02
Ar 1352  0.3228297E+02  0.3496557E+02  0.8293009E+01  0.3131914E+02
Ar 1353  0.3271675E+02  0.3271675E+02  0.1088207E+02  0.2106161E+02
Ar 1354  0.3537661E+02  0.3537661E+02  0.1077506E+02  0.3590057E+02
Ar 1355  0.3514367E+02  0.3241832E+02  0.1368294E+02  0.6572982E+02
Ar 1356  0.3241832E+02  0.3514367E+02  0.1368294E+02  0.6572982E+02
Ar 1357  0.3280005E+02  0.3280005E+02  0.1628429E+02  0.2052636E+03
Ar 1358  0.3551888E+02  0.3551888E+02  0.1630807E+02  0.6813798E+02
Ar 1359  0.3521493E+02  0.3248084E+02  0.1917048E+02  0.3577116E+03
Ar 1360  0.3248084E+02  0.3521493E+02  0.1917048E+02  0.3577116E+03
Ar 1361  0.3215314E+02  0.3215314E+02  0.2177769E+02  0.3512691E+03
Ar 1362  0.3486342E+02  0.3486342E+02  0.2187680E+02  0.3691827E+03
Ar 1363  0.3522088E+02  0.3235699E+02  0.2466054E+02  0.7753648E+02
Ar 1364  0.3235699E+02  0.3522088E+02  0.2466054E+02  0.7753648E+02
Ar 1365  0.3246637E+02  0.3246637E+02  0.2637335E+02  0.8900298E+02
Ar 1366  0.3526820E+02  0.3526820E+02  0.2731100E+02  0.3614650E+03
Ar 1367  0.3553825E+02  0.3253027E+02  0.2952523E+02  0.7281980E+02
Ar 1368  0.3253027E+02  0.3553825E+02  0.2952523E+02  0.7281980E+02
Ar 1369  0.3302767E+02  0.3302767E+02  0.3302767E+02  0.1578687E+01
Ar 1370  0.3548204E+02  0.3548204E+02  0.3222420E+02  0.1464277E+03
Ar 1371  0.3548204E+02  0.3222420E+02  0.3548204E+02  0.1464277E+03
Ar 1372  0.3222420E+02  0.3548204E+02  0.3548204E+02  0.1464277E+03
