        1372
Lattice="  0.3778015E+02  0.0000000E+00  0.0000000E+00  0.0000000E+00  0.3778015E+02  0.0000000E+00  0.0000000E+00  0.0000000E+00  0.3778015E+02" Properties=species:S:1:id:I:1:pos:R:3:tempK:R:1
Ar    1  0.3755528E+02  0.1206976E+01  0.3727683E+02  0.1368178E+03
Ar    2  0.2695655E+01  0.2640539E+01  0.7298430E+00  0.2900255E+03
Ar    3  0.2632938E+01  0.1347985E+00  0.2875708E+01  0.7190677E+02
Ar    4  0.3762034E+02  0.3063374E+01  0.2889859E+01  0.1844420E+03
Ar    5  0.4660610E+00  0.3758435E+02  0.5801937E+01  0.2009553E+03
Ar    6  0.2357977E+01  0.3078204E+01  0.5761797E+01  0.1064432E+03
Ar    7  0.3560836E+01  0.3712045E+02  0.8273146E+01  0.1460009E+03
Ar    8  0.1485968E+00  0.2431649E+01  0.8474353E+01  0.2750405E+02
Ar    9  0.1075123E+01  0.1497843E+00  0.1089683E+02  0.2335583E+03
Ar   10  0.3058015E+01  0.3060287E+01  0.1041344E+02  0.2820368E+03
Ar   11  0.3210163E+01  0.4747596E+00  0.1369230E+02  0.1635611E+03
Ar   12  0.1277309E+00  0.2767285E+01  0.1342100E+02  0.8886009E+02
Ar   13  0.4754971E+00  0.1343097E+00  0.1585479E+02  0.5795192E+02
Ar   14  0.2803389E+01  0.2756550E+01  0.1637719E+02  0.7333220E+02
Ar   15  0.2714217E+01  0.3746748E+02  0.1919778E+02  0.2334056E+03
Ar   16  0.3750123E+02  0.2048299E+01  0.1871339E+02  0.1433100E+03
Ar   17  0.3740224E+02  0.2752603E+00  0.2163416E+02  0.2788811E+03
Ar   18  0.2769435E+01  0.2589840E+01  0.2173269E+02  0.1392006E+03
Ar   19  0.2495156E+01  0.6966976E-01  0.2404015E+02  0.4407502E+03
Ar   20  0.3747609E+02  0.1777532E+01  0.2494320E+02  0.2250369E+02
Ar   21  0.3744322E+02  0.3734517E+02  0.2751644E+02  0.2351092E+02
Ar   22  0.2210266E+01  0.1877707E+01  0.2721928E+02  0.9365389E+02
Ar   23  0.2793242E+01  0.3747781E+02  0.2984034E+02  0.2021544E+03
Ar   24  0.3744809E+02  0.2351937E+01  0.3020192E+02  0.2638462E+03
Ar   25  0.3748697E+02  0.3748960E+02  0.3186163E+02  0.2062328E+03
Ar   26  0.2709949E+01  0.2462393E+01  0.3234354E+02  0.1216812E+03
Ar   27  0.2024651E+01  0.4895241E+00  0.3496621E+02  0.1615239E+03
Ar   28  0.3735199E+02  0.2655201E+01  0.3404119E+02  0.4772592E+03
Ar   29  0.3749707E+02  0.5423350E+01  0.2015975E+00  0.6494837E+03
Ar   30  0.2616143E+01  0.8016107E+01  0.3704469E+02  0.4717826E+02
Ar   31  0.2884045E+01  0.5408843E+01  0.2877697E+01  0.2486101E+03
Ar   32  0.2050533E-01  0.8453070E+01  0.2183273E+01  0.3972208E+02
Ar   33  0.3762443E+02  0.5907034E+01  0.5495212E+01  0.2877355E+02
Ar   34  0.2656595E+01  0.8504278E+01  0.5147973E+01  0.1496425E+03
Ar   35  0.3423405E+01  0.5908526E+01  0.8430269E+01  0.5266087E+02
Ar   36  0.3073805E+00  0.8272100E+01  0.8147407E+01  0.5037839E+03
Ar   37  0.3759955E+00  0.5321394E+01  0.1053876E+02  0.1078410E+03
Ar   38  0.2968658E+01  0.8567461E+01  0.1113870E+02  0.1451774E+03
Ar   39  0.2670524E+01  0.5163834E+01  0.1321798E+02  0.9783761E+02
Ar   40  0.3725363E+02  0.7938444E+01  0.1276893E+02  0.7254856E+02
Ar   41  0.8785181E-01  0.5681442E+01  0.1641474E+02  0.2299702E+03
Ar   42  0.2428978E+01  0.8284422E+01  0.1512622E+02  0.1422598E+03
Ar   43  0.2662345E+01  0.4663340E+01  0.1905402E+02  0.1396960E+03
Ar   44  0.4228005E+00  0.8632367E+01  0.1873138E+02  0.1165854E+03
Ar   45  0.2718819E+00  0.5566932E+01  0.2144863E+02  0.6967844E+02
Ar   46  0.2755504E+01  0.8094953E+01  0.2145084E+02  0.3405550E+03
Ar   47  0.3119276E+01  0.4756148E+01  0.2526753E+02  0.4888654E+03
Ar   48  0.7101893E+00  0.7565934E+01  0.2451847E+02  0.1518804E+03
Ar   49  0.3751334E+02  0.4665762E+01  0.2782320E+02  0.4504921E+03
Ar   50  0.2454340E+01  0.7706213E+01  0.2737233E+02  0.3360748E+03
Ar   51  0.2444253E+01  0.4874342E+01  0.2950499E+02  0.1170751E+03
Ar   52  0.4794363E-01  0.8549320E+01  0.2953827E+02  0.1349548E+03
Ar   53  0.3765521E+02  0.5399810E+01  0.3177636E+02  0.1113039E+03
Ar   54  0.2374278E+01  0.8200465E+01  0.3237590E+02  0.1616149E+03
Ar   55  0.2337755E+01  0.4869682E+01  0.3520774E+02  0.5859801E+03
Ar   56  0.3753161E+02  0.7958840E+01  0.3500306E+02  0.1773958E+03
Ar   57  0.3175110E+00  0.1076542E+02  0.3736207E+02  0.2416801E+03
Ar   58  0.2377351E+01  0.1405540E+02  0.3699793E+02  0.7313397E+02
Ar   59  0.2876802E+01  0.1102265E+02  0.2019446E+01  0.4204638E+03
Ar   60  0.1590123E+00  0.1366882E+02  0.2591632E+01  0.1111178E+03
Ar   61  0.2402026E+00  0.1104925E+02  0.5000230E+01  0.4042687E+03
Ar   62  0.2862307E+01  0.1349937E+02  0.5123790E+01  0.7086013E+02
Ar   63  0.2789288E+01  0.1083916E+02  0.7617189E+01  0.1008911E+03
Ar   64  0.6603176E+00  0.1374586E+02  0.8054207E+01  0.4111979E+02
Ar   65  0.2088496E+00  0.1100535E+02  0.1066366E+02  0.2651036E+02
Ar   66  0.2825847E+01  0.1348935E+02  0.1066055E+02  0.5698087E+03
Ar   67  0.2420969E+01  0.1119245E+02  0.1301940E+02  0.1482890E+03
Ar   68  0.6343737E-01  0.1357064E+02  0.1345918E+02  0.6158420E+02
Ar   69  0.7097002E-01  0.1071079E+02  0.1592387E+02  0.3006048E+03
Ar   70  0.2549108E+01  0.1351124E+02  0.1632179E+02  0.1368964E+03
Ar   71  0.2605677E+01  0.1123376E+02  0.1887449E+02  0.3125115E+03
Ar   72  0.2663391E-01  0.1353868E+02  0.1931663E+02  0.4987872E+03
Ar   73  0.5252933E+00  0.1086630E+02  0.2200885E+02  0.2960141E+03
Ar   74  0.2822892E+01  0.1336913E+02  0.2156468E+02  0.2353402E+01
Ar   75  0.2742702E+01  0.1044520E+02  0.2459107E+02  0.2087788E+02
Ar   76  0.3474025E+00  0.1341870E+02  0.2450429E+02  0.1315787E+03
Ar   77  0.3774349E+02  0.1092797E+02  0.2677967E+02  0.4030655E+03
Ar   78  0.2594287E+01  0.1353101E+02  0.2717750E+02  0.4282201E+03
Ar   79  0.2757031E+01  0.1042076E+02  0.2957932E+02  0.1330049E+03
Ar   80  0.3743480E+02  0.1307344E+02  0.2935087E+02  0.4743066E+02
Ar   81  0.3230970E-01  0.1079752E+02  0.3234812E+02  0.4695340E+03
Ar   82  0.2882475E+01  0.1363608E+02  0.3228905E+02  0.1162129E+03
Ar   83  0.2829785E+01  0.1075556E+02  0.3466486E+02  0.2972152E+03
Ar   84  0.1708462E-01  0.1345995E+02  0.3446956E+02  0.3355809E+03
Ar   85  0.1485857E+00  0.1646420E+02  0.9481620E-01  0.1773632E+03
Ar   86  0.3115234E+01  0.1890530E+02  0.3771893E+02  0.1405272E+03
Ar   87  0.2969874E+01  0.1642420E+02  0.2525017E+01  0.5260082E+02
Ar   88  0.2813674E+00  0.1897414E+02  0.2940449E+01  0.4151880E+02
Ar   89  0.3777871E+02  0.1602827E+02  0.5363135E+01  0.2319366E+03
Ar   90  0.2880413E+01  0.1878920E+02  0.5383233E+01  0.9337064E+02
Ar   91  0.3229130E+01  0.1652836E+02  0.8094197E+01  0.3648507E+02
Ar   92  0.3738539E+02  0.1909496E+02  0.7831917E+01  0.6295275E+03
Ar   93  0.7942972E+00  0.1641349E+02  0.1051726E+02  0.3041022E+03
Ar   94  0.2798723E+01  0.1933735E+02  0.1043633E+02  0.2079966E+03
Ar   95  0.2869523E+01  0.1603051E+02  0.1396898E+02  0.6359174E+02
Ar   96  0.3777742E+02  0.1897343E+02  0.1326867E+02  0.5416533E+03
Ar   97  0.3407309E+00  0.1659614E+02  0.1635079E+02  0.3378801E+03
Ar   98  0.2392377E+01  0.1946531E+02  0.1702920E+02  0.4622767E+03
Ar   99  0.2442071E+01  0.1650127E+02  0.1931876E+02  0.1237866E+03
Ar  100  0.3739502E+02  0.1864677E+02  0.1945853E+02  0.1783798E+03
Ar  101  0.3763396E+02  0.1608111E+02  0.2194095E+02  0.6389366E+02
Ar  102  0.2896129E+01  0.1944329E+02  0.2174139E+02  0.1622499E+03
Ar  103  0.2912770E+01  0.1644925E+02  0.2379145E+02  0.7394109E+03
Ar  104  0.1782124E+00  0.1853007E+02  0.2436340E+02  0.2694787E+03
Ar  105  0.2816296E+00  0.1601380E+02  0.2667889E+02  0.6502085E+03
Ar  106  0.2857250E+01  0.1865010E+02  0.2685541E+02  0.2586058E+03
Ar  107  0.2742741E+01  0.1602225E+02  0.2962427E+02  0.3533390E+03
Ar  108  0.2468376E+00  0.1836754E+02  0.2957444E+02  0.6373551E+02
Ar  109  0.3734048E+02  0.1653870E+02  0.3239821E+02  0.2378490E+03
Ar  110  0.2778256E+01  0.1878329E+02  0.3247673E+02  0.1956560E+03
Ar  111  0.2664148E+01  0.1684989E+02  0.3502688E+02  0.2340741E+03
Ar  112  0.3764405E+02  0.1894236E+02  0.3470830E+02  0.3377458E+02
Ar  113  0.3375056E+00  0.2178724E+02  0.1726569E-01  0.9458451E+02
Ar  114  0.2382419E+01  0.2472993E+02  0.3754967E+02  0.7703640E+02
Ar  115  0.2531908E+01  0.2171594E+02  0.3265461E+01  0.2380661E+03
Ar  116  0.1766452E+00  0.2443958E+02  0.2823311E+01  0.4239285E+03
Ar  117  0.3759808E+02  0.2185592E+02  0.5416399E+01  0.2963220E+03
Ar  118  0.2348052E+01  0.2437672E+02  0.5576299E+01  0.2082366E+03
Ar  119  0.2584154E+01  0.2194740E+02  0.7980115E+01  0.7599672E+02
Ar  120  0.4108646E-01  0.2444876E+02  0.8541511E+01  0.3279418E+03
Ar  121  0.3754668E+02  0.2126061E+02  0.1061880E+02  0.1998324E+03
Ar  122  0.2875191E+01  0.2439096E+02  0.1059310E+02  0.2728890E+02
Ar  123  0.2513507E+01  0.2175755E+02  0.1339130E+02  0.7887535E+03
Ar  124  0.5745722E-01  0.2416469E+02  0.1250049E+02  0.5117324E+03
Ar  125  0.3738696E+02  0.2163233E+02  0.1562711E+02  0.1231086E+03
Ar  126  0.2501886E+01  0.2386454E+02  0.1668365E+02  0.1518260E+03
Ar  127  0.2164876E+01  0.2178378E+02  0.1933257E+02  0.1996622E+03
Ar  128  0.3750510E+02  0.2426817E+02  0.1854218E+02  0.2176605E+03
Ar  129  0.3715748E+02  0.2110034E+02  0.2195602E+02  0.1887989E+03
Ar  130  0.2893320E+01  0.2445963E+02  0.2220859E+02  0.1024339E+03
Ar  131  0.2272925E+01  0.2157277E+02  0.2429318E+02  0.2715894E+03
Ar  132  0.3746731E+02  0.2378415E+02  0.2443990E+02  0.5997595E+03
Ar  133  0.1970031E+00  0.2177278E+02  0.2730461E+02  0.9105057E+02
Ar  134  0.2987561E+01  0.2435759E+02  0.2653055E+02  0.6056339E+02
Ar  135  0.2823276E+01  0.2144401E+02  0.2977568E+02  0.1616157E+03
Ar  136  0.3238933E+00  0.2409899E+02  0.2964089E+02  0.3085431E+02
Ar  137  0.3742315E+02  0.2111709E+02  0.3192106E+02  0.1912003E+03
Ar  138  0.2805096E+01  0.2399933E+02  0.3213676E+02  0.1608041E+03
Ar  139  0.2852294E+01  0.2151059E+02  0.3510213E+02  0.3954748E+03
Ar  140  0.3766791E+02  0.2419866E+02  0.3502518E+02  0.2697286E+03
Ar  141  0.3745166E+02  0.2764102E+02  0.3346667E+00  0.2068754E+03
Ar  142  0.2396975E+01  0.2978742E+02  0.3733433E+02  0.2203874E+03
Ar  143  0.2566449E+01  0.2715405E+02  0.2543187E+01  0.1770986E+03
Ar  144  0.3771519E+02  0.3017547E+02  0.3004580E+01  0.2341137E+03
Ar  145  0.3735878E+02  0.2761795E+02  0.5127387E+01  0.5880588E+03
Ar  146  0.2545637E+01  0.3032575E+02  0.5448247E+01  0.1283681E+03
Ar  147  0.2526076E+01  0.2697664E+02  0.8166697E+01  0.1137225E+03
Ar  148  0.3733215E+02  0.2964017E+02  0.8166756E+01  0.3749316E+03
Ar  149  0.3774385E+02  0.2747120E+02  0.1074596E+02  0.3161145E+03
Ar  150  0.2687370E+01  0.2983294E+02  0.1040128E+02  0.6362880E+02
Ar  151  0.2673489E+01  0.2657663E+02  0.1339069E+02  0.1534993E+03
Ar  152  0.3711731E+02  0.2925996E+02  0.1421159E+02  0.1302443E+03
Ar  153  0.3766142E+02  0.2616823E+02  0.1584695E+02  0.6645647E+03
Ar  154  0.2769659E+01  0.2945415E+02  0.1635437E+02  0.7408594E+02
Ar  155  0.2039964E+01  0.2675875E+02  0.1881413E+02  0.2204713E+03
Ar  156  0.3757120E+02  0.2929575E+02  0.1809012E+02  0.5060534E+03
Ar  157  0.3769022E+02  0.2626880E+02  0.2174871E+02  0.1008030E+03
Ar  158  0.2095226E+01  0.2963973E+02  0.2151758E+02  0.2160607E+03
Ar  159  0.2732822E+01  0.2718536E+02  0.2427423E+02  0.3590353E+03
Ar  160  0.3746892E+02  0.2930480E+02  0.2429978E+02  0.5768841E+03
Ar  161  0.3776280E+02  0.2662348E+02  0.2665343E+02  0.4885445E+03
Ar  162  0.3055362E+01  0.2986018E+02  0.2700483E+02  0.4476393E+02
Ar  163  0.2368852E+01  0.2669048E+02  0.2961402E+02  0.5571686E+02
Ar  164  0.3774112E+02  0.2931046E+02  0.2899488E+02  0.1862660E+03
Ar  165  0.7282035E-01  0.2705187E+02  0.3205593E+02  0.3111221E+02
Ar  166  0.2433083E+01  0.2975988E+02  0.3209198E+02  0.2060180E+03
Ar  167  0.2397923E+01  0.2674942E+02  0.3484321E+02  0.1903103E+02
Ar  168  0.3724415E+02  0.2977628E+02  0.3520275E+02  0.2437889E+03
Ar  169  0.3766134E+02  0.3236623E+02  0.3766998E+02  0.8792858E+02
Ar  170  0.2375670E+01  0.3517210E+02  0.3773390E+02  0.4194346E+03
Ar  171  0.2895096E+01  0.3249812E+02  0.2683501E+01  0.2158549E+03
Ar  172  0.3690051E+02  0.3573701E+02  0.6697340E+00  0.5332606E+03
Ar  173  0.3718714E+02  0.3260199E+02  0.6441497E+01  0.2675232E+03
Ar  174  0.3161924E+01  0.3476218E+02  0.5450956E+01  0.2813914E+02
Ar  175  0.3110875E+01  0.3237057E+02  0.8001005E+01  0.8531269E+02
Ar  176  0.3350906E+00  0.3518003E+02  0.8374454E+01  0.1797286E+03
Ar  177  0.3772278E+02  0.3239852E+02  0.1071349E+02  0.4392487E+02
Ar  178  0.3335456E+01  0.3487867E+02  0.1133230E+02  0.1192402E+03
Ar  179  0.2112513E+01  0.3180800E+02  0.1361893E+02  0.5725827E+03
Ar  180  0.2406226E+00  0.3505402E+02  0.1344722E+02  0.8176829E+02
Ar  181  0.3764746E+02  0.3203857E+02  0.1627296E+02  0.1924392E+03
Ar  182  0.3133071E+01  0.3485367E+02  0.1581692E+02  0.6088347E+02
Ar  183  0.2272253E+01  0.3219173E+02  0.1861382E+02  0.1188273E+03
Ar  184  0.3777152E+02  0.3548805E+02  0.1831601E+02  0.8416523E+03
Ar  185  0.3748079E+02  0.3230830E+02  0.2179232E+02  0.1123052E+03
Ar  186  0.1861124E+01  0.3488502E+02  0.2160138E+02  0.4435511E+03
Ar  187  0.2582744E+01  0.3227717E+02  0.2383886E+02  0.4313066E+03
Ar  188  0.3748145E+02  0.3545560E+02  0.2434687E+02  0.3085015E+03
Ar  189  0.3772568E+02  0.3230907E+02  0.2683839E+02  0.2095360E+03
Ar  190  0.2582464E+01  0.3528783E+02  0.2730166E+02  0.2064196E+02
Ar  191  0.2516209E+01  0.3252236E+02  0.2966898E+02  0.7178827E+02
Ar  192  0.3753655E+02  0.3450294E+02  0.2958400E+02  0.2821490E+03
Ar  193  0.3727696E+02  0.3183764E+02  0.3220224E+02  0.1184342E+03
Ar  194  0.2252929E+01  0.3511216E+02  0.3241180E+02  0.1181280E+04
Ar  195  0.2560510E+01  0.3284349E+02  0.3503995E+02  0.7120791E+02
Ar  196  0.3759491E+02  0.3489063E+02  0.3508975E+02  0.5084454E+02
Ar  197  0.5613009E+01  0.4121140E+00  0.3415839E+00  0.8951848E+03
Ar  198  0.8334495E+01  0.3099093E+01  0.1305541E-01  0.3116094E+03
Ar  199  0.8667557E+01  0.3736906E+02  0.2626503E+01  0.4463409E+03
Ar  200  0.5697791E+01  0.3014020E+01  0.2722254E+01  0.5822463E+02
Ar  201  0.6024624E+01  0.2212946E-01  0.5221245E+01  0.1805027E+03
Ar  202  0.8268535E+01  0.2703528E+01  0.5357809E+01  0.2182972E+03
Ar  203  0.8034093E+01  0.5308139E+00  0.8258759E+01  0.2047299E+03
Ar  204  0.5275310E+01  0.2776920E+01  0.7390011E+01  0.2531427E+02
Ar  205  0.6189022E+01  0.3733433E+02  0.1118754E+02  0.7580070E+02
Ar  206  0.8256165E+01  0.2340195E+01  0.1105377E+02  0.5580282E+03
Ar  207  0.8527061E+01  0.3742482E+02  0.1388693E+02  0.3932783E+03
Ar  208  0.5727585E+01  0.2635894E+01  0.1352998E+02  0.9992813E+02
Ar  209  0.5387108E+01  0.2008881E+00  0.1647571E+02  0.4023794E+03
Ar  210  0.8306402E+01  0.3582556E+01  0.1675202E+02  0.5867151E+02
Ar  211  0.7748139E+01  0.1191039E+00  0.1912856E+02  0.2206480E+03
Ar  212  0.5587431E+01  0.2777590E+01  0.1900337E+02  0.3215620E+03
Ar  213  0.5352562E+01  0.3769879E+02  0.2157175E+02  0.2163656E+03
Ar  214  0.7714172E+01  0.2426289E+01  0.2213981E+02  0.1557828E+03
Ar  215  0.7989768E+01  0.3718606E+02  0.2438410E+02  0.4526034E+02
Ar  216  0.5263848E+01  0.2027786E+01  0.2469379E+02  0.7621438E+02
Ar  217  0.5328581E+01  0.3736800E+02  0.2710245E+02  0.2529590E+03
Ar  218  0.8211188E+01  0.3072329E+01  0.2657241E+02  0.3150052E+03
Ar  219  0.7938778E+01  0.4813540E+00  0.2933958E+02  0.7178070E+01
Ar  220  0.5474757E+01  0.2445861E+01  0.2931400E+02  0.2882821E+03
Ar  221  0.5711772E+01  0.1005718E+00  0.3218123E+02  0.1747767E+03
Ar  222  0.8304329E+01  0.2103154E+01  0.3252660E+02  0.2214048E+03
Ar  223  0.8405319E+01  0.3721255E+02  0.3488759E+02  0.2512474E+03
Ar  224  0.5104775E+01  0.2343907E+01  0.3485122E+02  0.2019915E+03
Ar  225  0.5450366E+01  0.5204992E+01  0.3744180E+02  0.2059032E+03
Ar  226  0.8204856E+01  0.8072286E+01  0.3748073E+02  0.2636308E+03
Ar  227  0.8141301E+01  0.5961832E+01  0.2439775E+01  0.2729747E+03
Ar  228  0.5734375E+01  0.8493242E+01  0.1988518E+01  0.1649507E+03
Ar  229  0.5766379E+01  0.5740983E+01  0.5252474E+01  0.3563091E+03
Ar  230  0.8049403E+01  0.8223585E+01  0.5249745E+01  0.2144485E+03
Ar  231  0.7904640E+01  0.5129635E+01  0.8121779E+01  0.1349687E+03
Ar  232  0.5162588E+01  0.8681054E+01  0.7910661E+01  0.4171117E+03
Ar  233  0.5951737E+01  0.5409807E+01  0.1115411E+02  0.2741106E+02
Ar  234  0.8050928E+01  0.8196790E+01  0.1051717E+02  0.1602192E+03
Ar  235  0.8387195E+01  0.5086002E+01  0.1381111E+02  0.2619504E+03
Ar  236  0.5711131E+01  0.8121548E+01  0.1328123E+02  0.5045643E+02
Ar  237  0.5270264E+01  0.5354820E+01  0.1567274E+02  0.1037893E+03
Ar  238  0.8134554E+01  0.7668169E+01  0.1678728E+02  0.1670720E+03
Ar  239  0.8172370E+01  0.5414419E+01  0.1969309E+02  0.8628681E+01
Ar  240  0.4920661E+01  0.7321201E+01  0.1861232E+02  0.1906477E+03
Ar  241  0.5448632E+01  0.5149278E+01  0.2207114E+02  0.1805260E+03
Ar  242  0.8073639E+01  0.7996296E+01  0.2176123E+02  0.1299641E+02
Ar  243  0.8348974E+01  0.5386998E+01  0.2411933E+02  0.3475707E+02
Ar  244  0.5273950E+01  0.7752201E+01  0.2464372E+02  0.5268768E+02
Ar  245  0.5343658E+01  0.5507780E+01  0.2745603E+02  0.6539188E+01
Ar  246  0.8483713E+01  0.8090597E+01  0.2704063E+02  0.5421443E+02
Ar  247  0.7839925E+01  0.4897863E+01  0.3002614E+02  0.1807921E+03
Ar  248  0.5710636E+01  0.8054449E+01  0.2962671E+02  0.8427401E+02
Ar  249  0.5028564E+01  0.5224870E+01  0.3292664E+02  0.1529663E+03
Ar  250  0.8508322E+01  0.8574109E+01  0.3225504E+02  0.9836492E+02
Ar  251  0.8217572E+01  0.5436293E+01  0.3475411E+02  0.3358389E+03
Ar  252  0.5737657E+01  0.8248090E+01  0.3498811E+02  0.7591240E+02
Ar  253  0.5979940E+01  0.1101725E+02  0.3744666E+02  0.5720741E+03
Ar  254  0.8487724E+01  0.1343215E+02  0.3766617E+02  0.1677047E+03
Ar  255  0.8497245E+01  0.1071586E+02  0.2465597E+01  0.1130100E+03
Ar  256  0.5474261E+01  0.1355910E+02  0.2188736E+01  0.2780447E+03
Ar  257  0.5716305E+01  0.1106631E+02  0.4546542E+01  0.3422315E+02
Ar  258  0.7999175E+01  0.1372964E+02  0.5481855E+01  0.2844002E+03
Ar  259  0.8183943E+01  0.1104505E+02  0.8474888E+01  0.3056969E+03
Ar  260  0.5075826E+01  0.1370412E+02  0.8110039E+01  0.2745900E+03
Ar  261  0.5332578E+01  0.1101738E+02  0.1091589E+02  0.1713977E+03
Ar  262  0.7185739E+01  0.1378755E+02  0.1100376E+02  0.2879813E+03
Ar  263  0.7982467E+01  0.1066293E+02  0.1369145E+02  0.4903354E+02
Ar  264  0.5294015E+01  0.1382047E+02  0.1420726E+02  0.2422461E+03
Ar  265  0.5059440E+01  0.1031868E+02  0.1621342E+02  0.3229384E+03
Ar  266  0.8250357E+01  0.1358777E+02  0.1672077E+02  0.2649621E+02
Ar  267  0.7754633E+01  0.1070405E+02  0.1870324E+02  0.2791062E+03
Ar  268  0.5347072E+01  0.1394423E+02  0.1905357E+02  0.4011580E+03
Ar  269  0.5295050E+01  0.1090028E+02  0.2174629E+02  0.4530031E+02
Ar  270  0.7955684E+01  0.1330800E+02  0.2143153E+02  0.3212640E+03
Ar  271  0.7646367E+01  0.1026600E+02  0.2404062E+02  0.1275541E+03
Ar  272  0.5258167E+01  0.1380592E+02  0.2491790E+02  0.8686898E+02
Ar  273  0.5317310E+01  0.1137785E+02  0.2715295E+02  0.3531752E+02
Ar  274  0.8304716E+01  0.1394605E+02  0.2726302E+02  0.3376981E+03
Ar  275  0.8552949E+01  0.1102090E+02  0.2974430E+02  0.5810970E+02
Ar  276  0.5557657E+01  0.1369159E+02  0.2993515E+02  0.2164844E+03
Ar  277  0.5405651E+01  0.1083485E+02  0.3187146E+02  0.1881663E+03
Ar  278  0.8515414E+01  0.1335140E+02  0.3239283E+02  0.1574969E+01
Ar  279  0.8370968E+01  0.1093938E+02  0.3489466E+02  0.3985407E+02
Ar  280  0.5134873E+01  0.1364331E+02  0.3473023E+02  0.2736552E+03
Ar  281  0.5705595E+01  0.1596520E+02  0.3735236E+02  0.9358331E+02
Ar  282  0.7924424E+01  0.1889568E+02  0.1303147E-01  0.4167691E+03
Ar  283  0.7606631E+01  0.1650365E+02  0.2778366E+01  0.6219730E+03
Ar  284  0.5528451E+01  0.1966671E+02  0.2548403E+01  0.1598644E+03
Ar  285  0.5406484E+01  0.1600050E+02  0.5455887E+01  0.2900497E+03
Ar  286  0.7931535E+01  0.1927456E+02  0.4861535E+01  0.2522273E+03
Ar  287  0.7724003E+01  0.1630752E+02  0.8314216E+01  0.4910832E+02
Ar  288  0.5673088E+01  0.1906672E+02  0.7744273E+01  0.7105689E+02
Ar  289  0.5430492E+01  0.1676279E+02  0.1176386E+02  0.3076264E+03
Ar  290  0.7938985E+01  0.1935898E+02  0.1115378E+02  0.4985963E+02
Ar  291  0.7723205E+01  0.1609795E+02  0.1428216E+02  0.3494634E+02
Ar  292  0.4990269E+01  0.1925429E+02  0.1384237E+02  0.4231172E+03
Ar  293  0.4843961E+01  0.1649695E+02  0.1643239E+02  0.2111771E+03
Ar  294  0.7640426E+01  0.1899087E+02  0.1626084E+02  0.2113740E+03
Ar  295  0.8592589E+01  0.1643728E+02  0.1924080E+02  0.1797891E+03
Ar  296  0.5232616E+01  0.1900037E+02  0.1932638E+02  0.6623261E+02
Ar  297  0.5460180E+01  0.1639561E+02  0.2199775E+02  0.3031779E+03
Ar  298  0.8063106E+01  0.1911842E+02  0.2194846E+02  0.2999406E+03
Ar  299  0.8292140E+01  0.1658799E+02  0.2481372E+02  0.4135026E+01
Ar  300  0.5429118E+01  0.1955032E+02  0.2456805E+02  0.3215439E+03
Ar  301  0.5482626E+01  0.1628247E+02  0.2745184E+02  0.4047151E+03
Ar  302  0.7690961E+01  0.1888396E+02  0.2725647E+02  0.8323799E+03
Ar  303  0.8209279E+01  0.1587830E+02  0.3005087E+02  0.1797502E+02
Ar  304  0.5472457E+01  0.1893181E+02  0.2967067E+02  0.1760923E+03
Ar  305  0.5490339E+01  0.1613525E+02  0.3234445E+02  0.1815880E+03
Ar  306  0.8387217E+01  0.1899791E+02  0.3296092E+02  0.3113473E+03
Ar  307  0.7992762E+01  0.1611475E+02  0.3489227E+02  0.1734458E+03
Ar  308  0.5665473E+01  0.1927318E+02  0.3540568E+02  0.3246268E+03
Ar  309  0.5406816E+01  0.2175926E+02  0.3771731E+02  0.8886242E+01
Ar  310  0.7861779E+01  0.2437047E+02  0.1063965E+00  0.1205120E+03
Ar  311  0.8262832E+01  0.2168222E+02  0.2079296E+01  0.1339399E+02
Ar  312  0.5443389E+01  0.2415734E+02  0.2934663E+01  0.3215512E+03
Ar  313  0.5468929E+01  0.2210263E+02  0.5827292E+01  0.3879779E+03
Ar  314  0.8375269E+01  0.2461342E+02  0.5179518E+01  0.4259281E+03
Ar  315  0.8008884E+01  0.2194422E+02  0.8222174E+01  0.9775328E+02
Ar  316  0.5505381E+01  0.2452717E+02  0.8079281E+01  0.3467523E+03
Ar  317  0.5619729E+01  0.2187355E+02  0.1070904E+02  0.1160875E+03
Ar  318  0.8694197E+01  0.2429741E+02  0.1092697E+02  0.3988981E+03
Ar  319  0.7774131E+01  0.2188406E+02  0.1337742E+02  0.4544374E+03
Ar  320  0.5272773E+01  0.2430897E+02  0.1354287E+02  0.2289109E+03
Ar  321  0.6210953E+01  0.2202582E+02  0.1634973E+02  0.4280025E+03
Ar  322  0.8119887E+01  0.2481537E+02  0.1634866E+02  0.1449018E+03
Ar  323  0.7961017E+01  0.2163822E+02  0.1930328E+02  0.1821571E+03
Ar  324  0.4816763E+01  0.2477916E+02  0.1906823E+02  0.5737361E+03
Ar  325  0.5420618E+01  0.2187679E+02  0.2160085E+02  0.1191389E+03
Ar  326  0.8266414E+01  0.2451671E+02  0.2101115E+02  0.3546868E+03
Ar  327  0.8054142E+01  0.2191368E+02  0.2444247E+02  0.1635991E+03
Ar  328  0.5515589E+01  0.2439185E+02  0.2434531E+02  0.4177998E+03
Ar  329  0.5415008E+01  0.2192683E+02  0.2697557E+02  0.3472080E+03
Ar  330  0.8457172E+01  0.2474290E+02  0.2676071E+02  0.3240537E+03
Ar  331  0.8033980E+01  0.2169334E+02  0.2918717E+02  0.5095962E+02
Ar  332  0.5894529E+01  0.2449927E+02  0.2958273E+02  0.4095251E+02
Ar  333  0.5587148E+01  0.2178516E+02  0.3228442E+02  0.2537075E+03
Ar  334  0.8629283E+01  0.2385572E+02  0.3268164E+02  0.3895602E+03
Ar  335  0.8820208E+01  0.2180231E+02  0.3571393E+02  0.4038911E+03
Ar  336  0.5658197E+01  0.2468752E+02  0.3484226E+02  0.1310300E+03
Ar  337  0.4855359E+01  0.2722981E+02  0.3753918E+02  0.1196283E+03
Ar  338  0.8053489E+01  0.2935189E+02  0.3736135E+02  0.1486691E+03
Ar  339  0.8015017E+01  0.2675733E+02  0.2778972E+01  0.6234542E+02
Ar  340  0.4969263E+01  0.2968939E+02  0.2165688E+01  0.1926272E+03
Ar  341  0.5096892E+01  0.2659013E+02  0.5266349E+01  0.1854947E+03
Ar  342  0.7599611E+01  0.2907009E+02  0.5504511E+01  0.3832391E+03
Ar  343  0.8408106E+01  0.2671528E+02  0.8278533E+01  0.2484103E+03
Ar  344  0.5850144E+01  0.2916039E+02  0.8378933E+01  0.2700079E+03
Ar  345  0.5085635E+01  0.2691571E+02  0.1085487E+02  0.3364853E+02
Ar  346  0.7948470E+01  0.2915127E+02  0.1106898E+02  0.3478886E+03
Ar  347  0.8611570E+01  0.2682035E+02  0.1331989E+02  0.1084833E+03
Ar  348  0.4659350E+01  0.2952719E+02  0.1313119E+02  0.4827287E+02
Ar  349  0.4841275E+01  0.2660593E+02  0.1603238E+02  0.4680683E+03
Ar  350  0.7684687E+01  0.2911793E+02  0.1665028E+02  0.8520213E+02
Ar  351  0.9000257E+01  0.2745208E+02  0.1917273E+02  0.1438222E+03
Ar  352  0.4685866E+01  0.2911348E+02  0.1906609E+02  0.1149261E+03
Ar  353  0.5086287E+01  0.2718892E+02  0.2166374E+02  0.9163727E+02
Ar  354  0.7652304E+01  0.2952855E+02  0.2138099E+02  0.1929142E+03
Ar  355  0.8533962E+01  0.2691085E+02  0.2418490E+02  0.1514465E+03
Ar  356  0.5561626E+01  0.2946618E+02  0.2425492E+02  0.3699106E+02
Ar  357  0.5604401E+01  0.2730885E+02  0.2682873E+02  0.3541699E+03
Ar  358  0.7721536E+01  0.2991276E+02  0.2735336E+02  0.5832332E+02
Ar  359  0.8173434E+01  0.2678636E+02  0.2953455E+02  0.3153630E+02
Ar  360  0.5429972E+01  0.2958993E+02  0.3009478E+02  0.3943938E+02
Ar  361  0.5348997E+01  0.2704380E+02  0.3235034E+02  0.1159333E+03
Ar  362  0.7813178E+01  0.2966169E+02  0.3249487E+02  0.4495979E+02
Ar  363  0.8811840E+01  0.2657130E+02  0.3498229E+02  0.2665494E+03
Ar  364  0.5595815E+01  0.2951470E+02  0.3518062E+02  0.1103597E+03
Ar  365  0.5197139E+01  0.3254477E+02  0.3751192E+02  0.6618026E+02
Ar  366  0.8755193E+01  0.3484738E+02  0.1506187E+00  0.3190287E+03
Ar  367  0.7892633E+01  0.3140691E+02  0.2584313E+01  0.1118509E+03
Ar  368  0.5333391E+01  0.3531743E+02  0.2660931E+01  0.7524067E+02
Ar  369  0.5560960E+01  0.3178695E+02  0.5392079E+01  0.2047879E+03
Ar  370  0.8377562E+01  0.3448688E+02  0.4737307E+01  0.1797219E+03
Ar  371  0.8300413E+01  0.3180569E+02  0.7775354E+01  0.7167669E+03
Ar  372  0.5953971E+01  0.3483253E+02  0.7784583E+01  0.7670296E+02
Ar  373  0.5603446E+01  0.3204495E+02  0.1044861E+02  0.3110571E+03
Ar  374  0.8230651E+01  0.3410011E+02  0.1105817E+02  0.4166234E+03
Ar  375  0.7960406E+01  0.3183138E+02  0.1387183E+02  0.7490237E+01
Ar  376  0.5851285E+01  0.3524744E+02  0.1399885E+02  0.1578817E+03
Ar  377  0.5122397E+01  0.3242049E+02  0.1571767E+02  0.1532457E+03
Ar  378  0.7818324E+01  0.3489424E+02  0.1671300E+02  0.5010356E+03
Ar  379  0.8395319E+01  0.3209042E+02  0.1928903E+02  0.2849497E+03
Ar  380  0.4657025E+01  0.3462988E+02  0.1895541E+02  0.2499659E+03
Ar  381  0.5095056E+01  0.3179706E+02  0.2121686E+02  0.1178743E+03
Ar  382  0.7542490E+01  0.3502069E+02  0.2141033E+02  0.3378015E+03
Ar  383  0.7656128E+01  0.3225755E+02  0.2403505E+02  0.4050345E+02
Ar  384  0.5349065E+01  0.3518690E+02  0.2447777E+02  0.2314500E+03
Ar  385  0.5311448E+01  0.3238369E+02  0.2748097E+02  0.4700967E+02
Ar  386  0.8199298E+01  0.3514365E+02  0.2709333E+02  0.1518255E+03
Ar  387  0.7730770E+01  0.3252759E+02  0.2996397E+02  0.3366169E+03
Ar  388  0.5438085E+01  0.3504891E+02  0.2988888E+02  0.1245131E+03
Ar  389  0.5280730E+01  0.3282605E+02  0.3296360E+02  0.2542813E+03
Ar  390  0.8335280E+01  0.3507578E+02  0.3228150E+02  0.5471247E+02
Ar  391  0.8148585E+01  0.3243999E+02  0.3516305E+02  0.3053952E+03
Ar  392  0.4821256E+01  0.3594116E+02  0.3505177E+02  0.7307847E+02
Ar  393  0.1124141E+02  0.3705596E+02  0.3655871E+00  0.1559309E+03
Ar  394  0.1315351E+02  0.2580829E+01  0.3775143E+02  0.4140262E+03
Ar  395  0.1305157E+02  0.6355480E+00  0.3261694E+01  0.9754104E+02
Ar  396  0.1047062E+02  0.3325059E+01  0.2713983E+01  0.2195365E+03
Ar  397  0.1050335E+02  0.2507606E-02  0.5867783E+01  0.9790606E+02
Ar  398  0.1320013E+02  0.3139947E+01  0.5377504E+01  0.2776641E+03
Ar  399  0.1376381E+02  0.6735824E-01  0.7629538E+01  0.1260951E+02
Ar  400  0.1079447E+02  0.2580456E+01  0.8223044E+01  0.6464265E+02
Ar  401  0.1050378E+02  0.3752247E+02  0.1109787E+02  0.3888298E+03
Ar  402  0.1329309E+02  0.2771876E+01  0.1103644E+02  0.3642074E+03
Ar  403  0.1310669E+02  0.3736368E+02  0.1423032E+02  0.4396745E+03
Ar  404  0.1079668E+02  0.2406817E+01  0.1398463E+02  0.2298889E+03
Ar  405  0.1056761E+02  0.3732879E+02  0.1665403E+02  0.6433071E+02
Ar  406  0.1395750E+02  0.2936719E+01  0.1599752E+02  0.3340560E+03
Ar  407  0.1372748E+02  0.1834378E-01  0.1829778E+02  0.2136354E+03
Ar  408  0.1086064E+02  0.2854598E+01  0.1907965E+02  0.4747031E+03
Ar  409  0.1061730E+02  0.3737182E+02  0.2152217E+02  0.3879099E+02
Ar  410  0.1386480E+02  0.2944318E+01  0.2153021E+02  0.4548675E+02
Ar  411  0.1431004E+02  0.5621418E+00  0.2397168E+02  0.1004297E+03
Ar  412  0.1065439E+02  0.2308879E+01  0.2416513E+02  0.3769970E+02
Ar  413  0.1061754E+02  0.3772097E+02  0.2690648E+02  0.1651977E+03
Ar  414  0.1416878E+02  0.2797661E+01  0.2707035E+02  0.2010380E+03
Ar  415  0.1348751E+02  0.2852634E+00  0.2973745E+02  0.1202436E+03
Ar  416  0.1066476E+02  0.2619947E+01  0.2940582E+02  0.2994199E+03
Ar  417  0.1110903E+02  0.3748408E+02  0.3224843E+02  0.8004776E+02
Ar  418  0.1357031E+02  0.2593809E+01  0.3248069E+02  0.2151832E+02
Ar  419  0.1319659E+02  0.3729064E+02  0.3476763E+02  0.6982789E+02
Ar  420  0.1108387E+02  0.2929944E+01  0.3482624E+02  0.1534505E+03
Ar  421  0.1064893E+02  0.5678109E+01  0.3762953E+02  0.1880851E+03
Ar  422  0.1356269E+02  0.8044098E+01  0.3743920E+02  0.3798140E+03
Ar  423  0.1334767E+02  0.5406527E+01  0.2032766E+01  0.3257308E+03
Ar  424  0.1109793E+02  0.8282502E+01  0.2149382E+01  0.3098604E+03
Ar  425  0.1036455E+02  0.5406511E+01  0.5693098E+01  0.3081968E+03
Ar  426  0.1301703E+02  0.7922493E+01  0.5448295E+01  0.1822479E+03
Ar  427  0.1334456E+02  0.5754260E+01  0.8079729E+01  0.1682089E+02
Ar  428  0.1063491E+02  0.8116511E+01  0.8849364E+01  0.1643840E+03
Ar  429  0.1052732E+02  0.5502271E+01  0.1131428E+02  0.1402306E+03
Ar  430  0.1333610E+02  0.7895607E+01  0.1082628E+02  0.1052342E+03
Ar  431  0.1313744E+02  0.5596737E+01  0.1365586E+02  0.2185293E+03
Ar  432  0.1062784E+02  0.8088689E+01  0.1382665E+02  0.6315573E+02
Ar  433  0.1098756E+02  0.5626431E+01  0.1672616E+02  0.3652532E+03
Ar  434  0.1404343E+02  0.7678543E+01  0.1632859E+02  0.3671652E+02
Ar  435  0.1364918E+02  0.5844506E+01  0.1927104E+02  0.2711227E+03
Ar  436  0.1094154E+02  0.8219555E+01  0.1924173E+02  0.5577443E+03
Ar  437  0.1107242E+02  0.5383074E+01  0.2165747E+02  0.7359681E+03
Ar  438  0.1386928E+02  0.8249792E+01  0.2184603E+02  0.2229247E+03
Ar  439  0.1377626E+02  0.5061640E+01  0.2427703E+02  0.2372250E+03
Ar  440  0.1125215E+02  0.7860584E+01  0.2440897E+02  0.9283872E+02
Ar  441  0.1106277E+02  0.5329285E+01  0.2667769E+02  0.3831085E+02
Ar  442  0.1399386E+02  0.7326719E+01  0.2688062E+02  0.2264943E+03
Ar  443  0.1346697E+02  0.5251330E+01  0.2956000E+02  0.1443033E+03
Ar  444  0.1079458E+02  0.7463409E+01  0.2938106E+02  0.3086910E+03
Ar  445  0.1063876E+02  0.4963223E+01  0.3215881E+02  0.5052968E+03
Ar  446  0.1329338E+02  0.7512050E+01  0.3240087E+02  0.5480863E+03
Ar  447  0.1347389E+02  0.5302707E+01  0.3501301E+02  0.2556933E+03
Ar  448  0.1082640E+02  0.8264035E+01  0.3476293E+02  0.7327870E+02
Ar  449  0.1090887E+02  0.1084076E+02  0.3726615E+02  0.3022428E+03
Ar  450  0.1341710E+02  0.1371313E+02  0.4161145E+00  0.3769504E+03
Ar  451  0.1296032E+02  0.1104804E+02  0.2887585E+01  0.3388398E+03
Ar  452  0.1054287E+02  0.1370623E+02  0.2609579E+01  0.2524970E+03
Ar  453  0.1050186E+02  0.1045594E+02  0.5589567E+01  0.4440106E+02
Ar  454  0.1308127E+02  0.1324453E+02  0.5848193E+01  0.1859073E+03
Ar  455  0.1252224E+02  0.1108169E+02  0.8330971E+01  0.3814449E+02
Ar  456  0.1029937E+02  0.1401627E+02  0.8837974E+01  0.6295793E+03
Ar  457  0.1026216E+02  0.1133778E+02  0.1106173E+02  0.2157106E+03
Ar  458  0.1366456E+02  0.1351638E+02  0.1043806E+02  0.5648253E+02
Ar  459  0.1268499E+02  0.1111388E+02  0.1342509E+02  0.1322315E+03
Ar  460  0.1014992E+02  0.1346810E+02  0.1406732E+02  0.1331595E+02
Ar  461  0.1047744E+02  0.1047991E+02  0.1643524E+02  0.6431514E+02
Ar  462  0.1421020E+02  0.1340697E+02  0.1644382E+02  0.8259928E+02
Ar  463  0.1418216E+02  0.1024643E+02  0.1858227E+02  0.5797048E+03
Ar  464  0.1077725E+02  0.1329090E+02  0.1915017E+02  0.2949089E+03
Ar  465  0.1089811E+02  0.1090142E+02  0.2201933E+02  0.2812227E+03
Ar  466  0.1376263E+02  0.1356779E+02  0.2239528E+02  0.1503018E+03
Ar  467  0.1342663E+02  0.1046447E+02  0.2489011E+02  0.1699362E+03
Ar  468  0.1075118E+02  0.1401533E+02  0.2390075E+02  0.4062188E+03
Ar  469  0.1028122E+02  0.1134229E+02  0.2638898E+02  0.3373060E+02
Ar  470  0.1366760E+02  0.1357419E+02  0.2694816E+02  0.7978711E+02
Ar  471  0.1297586E+02  0.1022966E+02  0.2857035E+02  0.6023770E+02
Ar  472  0.1107554E+02  0.1374007E+02  0.2968794E+02  0.1092453E+04
Ar  473  0.1144810E+02  0.1082701E+02  0.3244608E+02  0.9363639E+02
Ar  474  0.1349219E+02  0.1346649E+02  0.3201105E+02  0.2730227E+03
Ar  475  0.1352124E+02  0.1101107E+02  0.3500947E+02  0.9401628E+02
Ar  476  0.1076745E+02  0.1369465E+02  0.3480782E+02  0.9944249E+02
Ar  477  0.1095785E+02  0.1614002E+02  0.2146950E+00  0.2985322E+03
Ar  478  0.1363477E+02  0.1934910E+02  0.5953369E-01  0.1586051E+03
Ar  479  0.1324699E+02  0.1582601E+02  0.3335305E+01  0.3337033E+02
Ar  480  0.1078841E+02  0.1909115E+02  0.2612385E+01  0.1549181E+03
Ar  481  0.1016966E+02  0.1698776E+02  0.5158599E+01  0.3315981E+03
Ar  482  0.1361080E+02  0.1948251E+02  0.5448635E+01  0.1123451E+03
Ar  483  0.1312584E+02  0.1643093E+02  0.7752277E+01  0.3675874E+03
Ar  484  0.1049407E+02  0.1876894E+02  0.8431346E+01  0.1398464E+03
Ar  485  0.1001638E+02  0.1636401E+02  0.1133376E+02  0.2920889E+03
Ar  486  0.1344735E+02  0.1810597E+02  0.1084369E+02  0.1312303E+03
Ar  487  0.1295656E+02  0.1581754E+02  0.1368342E+02  0.4149132E+03
Ar  488  0.1079314E+02  0.1929252E+02  0.1426302E+02  0.2895775E+03
Ar  489  0.1066548E+02  0.1621341E+02  0.1612476E+02  0.5036369E+03
Ar  490  0.1387664E+02  0.1856068E+02  0.1603922E+02  0.2017962E+02
Ar  491  0.1389303E+02  0.1591486E+02  0.1945097E+02  0.1474692E+03
Ar  492  0.1158826E+02  0.1861100E+02  0.1839216E+02  0.4405872E+02
Ar  493  0.1081366E+02  0.1656449E+02  0.2182365E+02  0.2917731E+03
Ar  494  0.1355869E+02  0.1947451E+02  0.2203411E+02  0.1666549E+03
Ar  495  0.1385815E+02  0.1665559E+02  0.2415137E+02  0.1796635E+03
Ar  496  0.1081561E+02  0.1903382E+02  0.2420484E+02  0.3771426E+03
Ar  497  0.1111946E+02  0.1621965E+02  0.2645324E+02  0.1161281E+03
Ar  498  0.1346383E+02  0.1885237E+02  0.2706471E+02  0.1368563E+03
Ar  499  0.1369876E+02  0.1633683E+02  0.2929954E+02  0.2841874E+03
Ar  500  0.1042692E+02  0.1881953E+02  0.2967792E+02  0.2339625E+02
Ar  501  0.1165365E+02  0.1642960E+02  0.3215573E+02  0.1339215E+03
Ar  502  0.1375961E+02  0.1893788E+02  0.3251389E+02  0.2338065E+03
Ar  503  0.1369143E+02  0.1590741E+02  0.3527099E+02  0.1219182E+03
Ar  504  0.1117425E+02  0.1861499E+02  0.3522544E+02  0.1980198E+03
Ar  505  0.1122019E+02  0.2171848E+02  0.3169496E+00  0.3207545E+03
Ar  506  0.1390943E+02  0.2410993E+02  0.7602741E-01  0.5047270E+03
Ar  507  0.1360519E+02  0.2158516E+02  0.2903552E+01  0.3384342E+03
Ar  508  0.1095957E+02  0.2432604E+02  0.2357931E+01  0.4059526E+02
Ar  509  0.1070067E+02  0.2187459E+02  0.4806782E+01  0.1135706E+03
Ar  510  0.1368910E+02  0.2409209E+02  0.5437457E+01  0.5345277E+02
Ar  511  0.1375603E+02  0.2163839E+02  0.8174276E+01  0.3669022E+02
Ar  512  0.1112973E+02  0.2396882E+02  0.8450124E+01  0.2473846E+03
Ar  513  0.1100969E+02  0.2111189E+02  0.1059585E+02  0.1137222E+03
Ar  514  0.1319824E+02  0.2392018E+02  0.1122820E+02  0.3260224E+03
Ar  515  0.1347566E+02  0.2144711E+02  0.1358740E+02  0.6261251E+03
Ar  516  0.1084142E+02  0.2368430E+02  0.1391515E+02  0.3974949E+03
Ar  517  0.1043064E+02  0.2166502E+02  0.1683214E+02  0.1711297E+03
Ar  518  0.1330888E+02  0.2409387E+02  0.1622050E+02  0.3401437E+03
Ar  519  0.1351262E+02  0.2156501E+02  0.1920103E+02  0.3351714E+03
Ar  520  0.1107655E+02  0.2462336E+02  0.1888533E+02  0.1208571E+03
Ar  521  0.1109657E+02  0.2201231E+02  0.2191386E+02  0.3475532E+03
Ar  522  0.1402155E+02  0.2390421E+02  0.2185552E+02  0.4087722E+03
Ar  523  0.1378783E+02  0.2163046E+02  0.2468527E+02  0.5082158E+02
Ar  524  0.1124523E+02  0.2413946E+02  0.2448235E+02  0.1213798E+03
Ar  525  0.1059714E+02  0.2151800E+02  0.2678382E+02  0.3793852E+03
Ar  526  0.1355294E+02  0.2452868E+02  0.2732516E+02  0.5087990E+03
Ar  527  0.1308384E+02  0.2153272E+02  0.2982896E+02  0.1039881E+03
Ar  528  0.1072951E+02  0.2394708E+02  0.2953867E+02  0.2513673E+03
Ar  529  0.1123436E+02  0.2137198E+02  0.3257139E+02  0.2295902E+03
Ar  530  0.1334644E+02  0.2437301E+02  0.3234051E+02  0.4103044E+03
Ar  531  0.1399854E+02  0.2138785E+02  0.3535168E+02  0.1622625E+03
Ar  532  0.1146169E+02  0.2432433E+02  0.3534836E+02  0.9378848E+02
Ar  533  0.1084555E+02  0.2714395E+02  0.3763707E+02  0.2511054E+03
Ar  534  0.1370263E+02  0.2942957E+02  0.8407537E-01  0.2504511E+03
Ar  535  0.1360082E+02  0.2704604E+02  0.2791795E+01  0.3048153E+03
Ar  536  0.1073067E+02  0.2925858E+02  0.2702410E+01  0.2365774E+03
Ar  537  0.1073617E+02  0.2669985E+02  0.5493003E+01  0.3526731E+01
Ar  538  0.1359703E+02  0.2905905E+02  0.5658503E+01  0.1787490E+03
Ar  539  0.1343935E+02  0.2648101E+02  0.7931603E+01  0.3841898E+01
Ar  540  0.1055940E+02  0.2930671E+02  0.7828477E+01  0.2268423E+03
Ar  541  0.1077783E+02  0.2692188E+02  0.1092165E+02  0.2216152E+03
Ar  542  0.1329892E+02  0.2912043E+02  0.1071006E+02  0.2033332E+03
Ar  543  0.1362789E+02  0.2672432E+02  0.1362151E+02  0.2203891E+03
Ar  544  0.1109961E+02  0.2970960E+02  0.1372570E+02  0.1688679E+03
Ar  545  0.1099420E+02  0.2709399E+02  0.1590692E+02  0.5506658E+03
Ar  546  0.1358742E+02  0.2973348E+02  0.1616446E+02  0.2191308E+03
Ar  547  0.1400788E+02  0.2643189E+02  0.1881655E+02  0.1352003E+03
Ar  548  0.1121468E+02  0.2972606E+02  0.1921012E+02  0.2477152E+03
Ar  549  0.1134021E+02  0.2655387E+02  0.2181409E+02  0.1705143E+02
Ar  550  0.1325123E+02  0.2941474E+02  0.2177591E+02  0.1108445E+03
Ar  551  0.1398677E+02  0.2682828E+02  0.2431133E+02  0.1503696E+03
Ar  552  0.1060646E+02  0.3008846E+02  0.2398571E+02  0.4698089E+03
Ar  553  0.1116219E+02  0.2704718E+02  0.2709789E+02  0.1818246E+03
Ar  554  0.1373532E+02  0.2965751E+02  0.2674275E+02  0.6885499E+02
Ar  555  0.1332626E+02  0.2701527E+02  0.2980395E+02  0.1780778E+03
Ar  556  0.1020748E+02  0.2953362E+02  0.2974711E+02  0.2543141E+03
Ar  557  0.1090900E+02  0.2681228E+02  0.3228973E+02  0.2407617E+03
Ar  558  0.1327680E+02  0.3010396E+02  0.3189297E+02  0.1676964E+03
Ar  559  0.1385435E+02  0.2755513E+02  0.3513572E+02  0.2133464E+03
Ar  560  0.1055379E+02  0.2946688E+02  0.3458921E+02  0.4569887E+02
Ar  561  0.1071700E+02  0.3165737E+02  0.1740575E+00  0.5865339E+02
Ar  562  0.1371293E+02  0.3455122E+02  0.3770578E+02  0.2316022E+03
Ar  563  0.1339479E+02  0.3176293E+02  0.2740933E+01  0.3699274E+03
Ar  564  0.1149957E+02  0.3487087E+02  0.2993219E+01  0.1495026E+03
Ar  565  0.1073160E+02  0.3193128E+02  0.4988154E+01  0.1828554E+03
Ar  566  0.1380666E+02  0.3518047E+02  0.5290681E+01  0.4005023E+03
Ar  567  0.1285588E+02  0.3227560E+02  0.7697018E+01  0.2849858E+03
Ar  568  0.9349778E+01  0.3524840E+02  0.8093328E+01  0.2093981E+03
Ar  569  0.1090807E+02  0.3142788E+02  0.1045765E+02  0.5717631E+02
Ar  570  0.1294770E+02  0.3514731E+02  0.1007071E+02  0.4092017E+02
Ar  571  0.1345357E+02  0.3267666E+02  0.1363682E+02  0.3166589E+03
Ar  572  0.1073952E+02  0.3461863E+02  0.1330847E+02  0.2199583E+03
Ar  573  0.1062827E+02  0.3252412E+02  0.1606567E+02  0.2382766E+03
Ar  574  0.1309609E+02  0.3494105E+02  0.1657278E+02  0.3688536E+03
Ar  575  0.1320307E+02  0.3249774E+02  0.1917217E+02  0.3595579E+03
Ar  576  0.1049725E+02  0.3516546E+02  0.1909808E+02  0.1724270E+03
Ar  577  0.1096776E+02  0.3262481E+02  0.2175639E+02  0.2501242E+03
Ar  578  0.1389911E+02  0.3556132E+02  0.2073226E+02  0.1420169E+02
Ar  579  0.1409381E+02  0.3260558E+02  0.2418847E+02  0.1334537E+03
Ar  580  0.1183078E+02  0.3519843E+02  0.2413721E+02  0.7929176E+01
Ar  581  0.1095879E+02  0.3268048E+02  0.2617495E+02  0.1202189E+03
Ar  582  0.1370719E+02  0.3629315E+02  0.2682905E+02  0.6938878E+03
Ar  583  0.1326676E+02  0.3211022E+02  0.2885944E+02  0.1401790E+03
Ar  584  0.1049852E+02  0.3503789E+02  0.2944608E+02  0.5764723E+02
Ar  585  0.1025175E+02  0.3195970E+02  0.3224759E+02  0.7282810E+02
Ar  586  0.1338463E+02  0.3408699E+02  0.3255270E+02  0.2516389E+03
Ar  587  0.1367887E+02  0.3187828E+02  0.3529171E+02  0.2751792E+03
Ar  588  0.1107323E+02  0.3449705E+02  0.3509164E+02  0.1830348E+03
Ar  589  0.1551513E+02  0.2483074E+00  0.3227219E+00  0.5283338E+03
Ar  590  0.1849584E+02  0.2979598E+01  0.3757673E+02  0.1996900E+03
Ar  591  0.1883612E+02  0.1589143E+00  0.2694774E+01  0.1697169E+03
Ar  592  0.1623950E+02  0.2998974E+01  0.2539758E+01  0.8999220E+02
Ar  593  0.1582130E+02  0.6232695E+00  0.5195139E+01  0.8006250E+03
Ar  594  0.1854843E+02  0.2873262E+01  0.5298618E+01  0.1038533E+03
Ar  595  0.1863185E+02  0.4766304E+00  0.7775337E+01  0.1129672E+03
Ar  596  0.1575911E+02  0.2851501E+01  0.8143174E+01  0.2108242E+03
Ar  597  0.1579752E+02  0.3714338E+02  0.1080318E+02  0.1123029E+03
Ar  598  0.1857608E+02  0.2691412E+01  0.1020626E+02  0.1165081E+03
Ar  599  0.1911466E+02  0.3777337E+02  0.1323723E+02  0.1528699E+03
Ar  600  0.1651091E+02  0.2544456E+01  0.1379462E+02  0.3701582E+03
Ar  601  0.1704554E+02  0.1659607E+00  0.1667054E+02  0.2714869E+03
Ar  602  0.1989202E+02  0.3075053E+01  0.1606090E+02  0.1070991E+03
Ar  603  0.1964789E+02  0.5466009E+00  0.1892747E+02  0.1008613E+03
Ar  604  0.1662322E+02  0.2991257E+01  0.1925349E+02  0.1603677E+03
Ar  605  0.1676341E+02  0.3725257E+02  0.2126608E+02  0.5159853E+03
Ar  606  0.1900325E+02  0.2964385E+01  0.2180226E+02  0.4696705E+02
Ar  607  0.1889290E+02  0.2279675E+00  0.2426969E+02  0.2365526E+03
Ar  608  0.1692074E+02  0.3411897E+01  0.2458146E+02  0.1758106E+03
Ar  609  0.1678696E+02  0.5843146E+00  0.2740850E+02  0.8975563E+02
Ar  610  0.1950268E+02  0.2841469E+01  0.2706057E+02  0.4474063E+03
Ar  611  0.1900506E+02  0.4651320E+00  0.3006028E+02  0.2835493E+02
Ar  612  0.1624805E+02  0.3375950E+01  0.3012909E+02  0.2423404E+03
Ar  613  0.1631083E+02  0.2376101E+00  0.3246659E+02  0.8448170E+02
Ar  614  0.1881473E+02  0.2942560E+01  0.3212299E+02  0.1682365E+03
Ar  615  0.1840061E+02  0.3774703E+02  0.3547162E+02  0.7870335E+03
Ar  616  0.1560325E+02  0.2819547E+01  0.3553423E+02  0.2382707E+03
Ar  617  0.1602790E+02  0.5554020E+01  0.3735788E+02  0.3806184E+03
Ar  618  0.1836401E+02  0.8006517E+01  0.3776647E+02  0.2168120E+03
Ar  619  0.1854855E+02  0.5724277E+01  0.2821547E+01  0.5503881E+02
Ar  620  0.1572799E+02  0.8184754E+01  0.2555989E+01  0.2086534E+03
Ar  621  0.1614435E+02  0.5527664E+01  0.5439864E+01  0.1583267E+03
Ar  622  0.1845797E+02  0.8118394E+01  0.5569173E+01  0.3953508E+03
Ar  623  0.1961334E+02  0.5644446E+01  0.7945008E+01  0.2817598E+03
Ar  624  0.1607141E+02  0.8142776E+01  0.8210385E+01  0.3872729E+02
Ar  625  0.1652119E+02  0.5321640E+01  0.1062695E+02  0.3081618E+03
Ar  626  0.1894117E+02  0.8457704E+01  0.1104914E+02  0.7421567E+02
Ar  627  0.1906295E+02  0.5661466E+01  0.1355592E+02  0.3099861E+03
Ar  628  0.1595971E+02  0.8176077E+01  0.1371459E+02  0.3125716E+03
Ar  629  0.1698917E+02  0.5804706E+01  0.1654293E+02  0.2780714E+03
Ar  630  0.1920474E+02  0.8589754E+01  0.1602680E+02  0.1712882E+03
Ar  631  0.1936152E+02  0.5218695E+01  0.1914051E+02  0.4353379E+03
Ar  632  0.1688101E+02  0.7975662E+01  0.1939190E+02  0.9067991E+02
Ar  633  0.1682316E+02  0.5691778E+01  0.2189468E+02  0.1677193E+03
Ar  634  0.1956945E+02  0.7879158E+01  0.2195662E+02  0.8328618E+02
Ar  635  0.1982506E+02  0.5202938E+01  0.2422329E+02  0.1823648E+02
Ar  636  0.1713676E+02  0.8406944E+01  0.2485969E+02  0.1740729E+03
Ar  637  0.1679638E+02  0.5602603E+01  0.2760510E+02  0.1006465E+03
Ar  638  0.1926621E+02  0.8429058E+01  0.2761198E+02  0.2480407E+03
Ar  639  0.1948426E+02  0.5669847E+01  0.2988690E+02  0.9524623E+02
Ar  640  0.1669234E+02  0.8219281E+01  0.2972538E+02  0.4530635E+02
Ar  641  0.1609570E+02  0.5346712E+01  0.3266421E+02  0.9643983E+03
Ar  642  0.1901792E+02  0.8607393E+01  0.3235629E+02  0.1720003E+03
Ar  643  0.1900937E+02  0.5799553E+01  0.3517922E+02  0.4858399E+03
Ar  644  0.1602658E+02  0.8470455E+01  0.3513382E+02  0.2013944E+03
Ar  645  0.1575896E+02  0.1062322E+02  0.1686491E-01  0.1895341E+03
Ar  646  0.1870259E+02  0.1310423E+02  0.2668711E-01  0.1652459E+03
Ar  647  0.1847848E+02  0.1066842E+02  0.2839529E+01  0.4118139E+03
Ar  648  0.1586133E+02  0.1341295E+02  0.3136576E+01  0.1173240E+03
Ar  649  0.1586426E+02  0.1062063E+02  0.5488265E+01  0.4030269E+02
Ar  650  0.1882561E+02  0.1387841E+02  0.5757587E+01  0.1943559E+03
Ar  651  0.1855752E+02  0.1058550E+02  0.8021880E+01  0.3740706E+03
Ar  652  0.1594082E+02  0.1319851E+02  0.8004404E+01  0.3663904E+03
Ar  653  0.1554345E+02  0.1030753E+02  0.1071332E+02  0.1085921E+03
Ar  654  0.1843002E+02  0.1325866E+02  0.1081109E+02  0.1467233E+03
Ar  655  0.1855529E+02  0.1107496E+02  0.1378697E+02  0.5791292E+02
Ar  656  0.1587793E+02  0.1343776E+02  0.1324539E+02  0.8669065E+02
Ar  657  0.1632507E+02  0.1069058E+02  0.1615881E+02  0.4632725E+03
Ar  658  0.1928691E+02  0.1337683E+02  0.1603642E+02  0.2449887E+03
Ar  659  0.1928429E+02  0.1061221E+02  0.1945999E+02  0.6055114E+03
Ar  660  0.1654427E+02  0.1350023E+02  0.1905928E+02  0.1357685E+03
Ar  661  0.1642191E+02  0.1054655E+02  0.2161710E+02  0.1881920E+03
Ar  662  0.1877094E+02  0.1318954E+02  0.2171662E+02  0.4464408E+03
Ar  663  0.1960245E+02  0.1101115E+02  0.2461985E+02  0.2985715E+03
Ar  664  0.1679720E+02  0.1357708E+02  0.2482471E+02  0.1007268E+03
Ar  665  0.1644728E+02  0.1079016E+02  0.2717544E+02  0.2520852E+03
Ar  666  0.1925428E+02  0.1356989E+02  0.2737613E+02  0.8506141E+02
Ar  667  0.1950730E+02  0.1077434E+02  0.2991723E+02  0.1878194E+03
Ar  668  0.1602373E+02  0.1328547E+02  0.2954179E+02  0.2360824E+03
Ar  669  0.1601909E+02  0.1073061E+02  0.3210554E+02  0.5978919E+03
Ar  670  0.1894137E+02  0.1327570E+02  0.3243318E+02  0.6716994E+02
Ar  671  0.1860368E+02  0.1052435E+02  0.3539902E+02  0.1502225E+03
Ar  672  0.1640196E+02  0.1317839E+02  0.3510502E+02  0.7986813E+02
Ar  673  0.1597132E+02  0.1616402E+02  0.1597866E+00  0.8991083E+02
Ar  674  0.1883383E+02  0.1887782E+02  0.3757342E+02  0.4857581E+03
Ar  675  0.1850399E+02  0.1609710E+02  0.2974849E+01  0.2009609E+03
Ar  676  0.1598086E+02  0.1866812E+02  0.2592537E+01  0.3035910E+02
Ar  677  0.1589476E+02  0.1582533E+02  0.5894730E+01  0.6358924E+03
Ar  678  0.1868791E+02  0.1870772E+02  0.5189866E+01  0.2687858E+03
Ar  679  0.1937165E+02  0.1625822E+02  0.8172783E+01  0.4254016E+03
Ar  680  0.1642749E+02  0.1860350E+02  0.8001203E+01  0.1081688E+02
Ar  681  0.1659045E+02  0.1610480E+02  0.1039888E+02  0.2325755E+03
Ar  682  0.1885639E+02  0.1876298E+02  0.1123107E+02  0.6850198E+02
Ar  683  0.1883116E+02  0.1564469E+02  0.1321610E+02  0.1564602E+03
Ar  684  0.1595781E+02  0.1798341E+02  0.1324550E+02  0.3205588E+03
Ar  685  0.1670439E+02  0.1594160E+02  0.1596794E+02  0.1492513E+03
Ar  686  0.1919935E+02  0.1884544E+02  0.1588315E+02  0.7653768E+02
Ar  687  0.1893574E+02  0.1663702E+02  0.1853032E+02  0.3200922E+03
Ar  688  0.1586335E+02  0.1871498E+02  0.1889163E+02  0.2150647E+03
Ar  689  0.1703859E+02  0.1644976E+02  0.2141367E+02  0.1182496E+03
Ar  690  0.1892564E+02  0.1901546E+02  0.2223138E+02  0.1907751E+03
Ar  691  0.1928164E+02  0.1610574E+02  0.2469044E+02  0.4410781E+03
Ar  692  0.1651652E+02  0.1838062E+02  0.2464783E+02  0.1213269E+03
Ar  693  0.1645534E+02  0.1632972E+02  0.2758335E+02  0.1071133E+04
Ar  694  0.1883801E+02  0.1929578E+02  0.2746962E+02  0.9250280E+02
Ar  695  0.1912744E+02  0.1628814E+02  0.3000260E+02  0.6192134E+02
Ar  696  0.1617295E+02  0.1882955E+02  0.2993090E+02  0.3796151E+03
Ar  697  0.1581339E+02  0.1625059E+02  0.3210032E+02  0.2616612E+03
Ar  698  0.1853629E+02  0.1894134E+02  0.3240528E+02  0.1078001E+03
Ar  699  0.1915345E+02  0.1636454E+02  0.3486865E+02  0.2749244E+03
Ar  700  0.1624078E+02  0.1861153E+02  0.3493380E+02  0.2128144E+03
Ar  701  0.1639191E+02  0.2185377E+02  0.1463862E-01  0.2518875E+03
Ar  702  0.1953077E+02  0.2432870E+02  0.3686472E+02  0.7886542E+02
Ar  703  0.1910202E+02  0.2201820E+02  0.2110619E+01  0.2518988E+03
Ar  704  0.1614110E+02  0.2431845E+02  0.3145895E+01  0.7006134E+03
Ar  705  0.1620667E+02  0.2136271E+02  0.5081770E+01  0.3575784E+03
Ar  706  0.1904434E+02  0.2446928E+02  0.5469185E+01  0.9324473E+02
Ar  707  0.1876332E+02  0.2164276E+02  0.7789475E+01  0.2937137E+02
Ar  708  0.1619077E+02  0.2406564E+02  0.8541171E+01  0.1817722E+03
Ar  709  0.1602937E+02  0.2107241E+02  0.1094260E+02  0.3882867E+03
Ar  710  0.1838532E+02  0.2380986E+02  0.1117184E+02  0.2628846E+03
Ar  711  0.1868072E+02  0.2129987E+02  0.1339298E+02  0.6960515E+03
Ar  712  0.1606456E+02  0.2419175E+02  0.1389732E+02  0.3736429E+03
Ar  713  0.1629532E+02  0.2142960E+02  0.1639387E+02  0.2867653E+03
Ar  714  0.1872478E+02  0.2399096E+02  0.1597462E+02  0.7071908E+02
Ar  715  0.1936120E+02  0.2086613E+02  0.1872668E+02  0.5287481E+02
Ar  716  0.1636743E+02  0.2367608E+02  0.1872157E+02  0.1972686E+03
Ar  717  0.1647088E+02  0.2144068E+02  0.2131073E+02  0.1865905E+03
Ar  718  0.1931887E+02  0.2365671E+02  0.2176031E+02  0.4460662E+03
Ar  719  0.1892731E+02  0.2156616E+02  0.2444097E+02  0.5062805E+02
Ar  720  0.1602684E+02  0.2429977E+02  0.2486899E+02  0.2832699E+03
Ar  721  0.1609474E+02  0.2208128E+02  0.2776845E+02  0.1125555E+03
Ar  722  0.1900395E+02  0.2426153E+02  0.2742138E+02  0.8025297E+02
Ar  723  0.1869818E+02  0.2157335E+02  0.2983676E+02  0.5830126E+03
Ar  724  0.1569702E+02  0.2458820E+02  0.2989342E+02  0.2595344E+03
Ar  725  0.1595801E+02  0.2182879E+02  0.3228930E+02  0.1758498E+03
Ar  726  0.1859104E+02  0.2426895E+02  0.3244115E+02  0.3776734E+03
Ar  727  0.1901872E+02  0.2146879E+02  0.3497820E+02  0.1232303E+03
Ar  728  0.1603967E+02  0.2464429E+02  0.3494881E+02  0.8782414E+02
Ar  729  0.1647980E+02  0.2636796E+02  0.2545806E+00  0.4445906E+03
Ar  730  0.1912148E+02  0.2985264E+02  0.3721118E+02  0.1857663E+03
Ar  731  0.1879557E+02  0.2699254E+02  0.3152046E+01  0.1550433E+03
Ar  732  0.1649038E+02  0.2971311E+02  0.2096266E+01  0.2577727E+03
Ar  733  0.1626132E+02  0.2701133E+02  0.5782406E+01  0.5112823E+03
Ar  734  0.1847830E+02  0.2985604E+02  0.5676492E+01  0.1285373E+03
Ar  735  0.1879647E+02  0.2693886E+02  0.7972197E+01  0.3104289E+02
Ar  736  0.1579221E+02  0.2964903E+02  0.8545216E+01  0.8932731E+02
Ar  737  0.1561470E+02  0.2654938E+02  0.1082407E+02  0.1752391E+03
Ar  738  0.1802658E+02  0.2902851E+02  0.1083039E+02  0.4142291E+03
Ar  739  0.1861029E+02  0.2686525E+02  0.1377735E+02  0.1177859E+03
Ar  740  0.1563457E+02  0.2974263E+02  0.1353462E+02  0.6621963E+02
Ar  741  0.1602735E+02  0.2692890E+02  0.1627128E+02  0.4615100E+02
Ar  742  0.1923808E+02  0.2919656E+02  0.1602862E+02  0.1438967E+03
Ar  743  0.1908417E+02  0.2676710E+02  0.1842563E+02  0.1333543E+03
Ar  744  0.1583893E+02  0.2943323E+02  0.1958742E+02  0.4787889E+03
Ar  745  0.1654206E+02  0.2633324E+02  0.2147502E+02  0.3150439E+01
Ar  746  0.1884670E+02  0.3005421E+02  0.2119678E+02  0.3761333E+03
Ar  747  0.1867354E+02  0.2726552E+02  0.2473713E+02  0.2399275E+03
Ar  748  0.1641650E+02  0.3000418E+02  0.2440284E+02  0.6623496E+02
Ar  749  0.1621685E+02  0.2689610E+02  0.2725637E+02  0.1260730E+03
Ar  750  0.1844765E+02  0.3002773E+02  0.2713941E+02  0.4027987E+03
Ar  751  0.1890207E+02  0.2675075E+02  0.2968016E+02  0.3659307E+03
Ar  752  0.1595841E+02  0.2973500E+02  0.2956830E+02  0.1531863E+03
Ar  753  0.1617969E+02  0.2698985E+02  0.3214130E+02  0.1347969E+03
Ar  754  0.1887885E+02  0.3005023E+02  0.3170096E+02  0.4396905E+03
Ar  755  0.1887557E+02  0.2714762E+02  0.3493311E+02  0.6583502E+02
Ar  756  0.1638679E+02  0.2957831E+02  0.3493884E+02  0.3120180E+03
Ar  757  0.1644494E+02  0.3249541E+02  0.9114797E-01  0.3571867E+02
Ar  758  0.1926664E+02  0.3531170E+02  0.5920318E+00  0.1355775E+03
Ar  759  0.1862617E+02  0.3315090E+02  0.2896491E+01  0.3016214E+03
Ar  760  0.1566593E+02  0.3524588E+02  0.2599909E+01  0.1607863E+03
Ar  761  0.1589409E+02  0.3220228E+02  0.5298286E+01  0.2006223E+03
Ar  762  0.1865185E+02  0.3545245E+02  0.5323379E+01  0.2757376E+03
Ar  763  0.1876144E+02  0.3281789E+02  0.8049046E+01  0.3485821E+03
Ar  764  0.1612076E+02  0.3522670E+02  0.7850125E+01  0.8472242E+02
Ar  765  0.1557311E+02  0.3209351E+02  0.1076602E+02  0.1110620E+03
Ar  766  0.1829954E+02  0.3491261E+02  0.1140055E+02  0.8274789E+02
Ar  767  0.1881238E+02  0.3190658E+02  0.1340870E+02  0.2951302E+02
Ar  768  0.1611567E+02  0.3568725E+02  0.1417443E+02  0.2224318E+03
Ar  769  0.1579901E+02  0.3219027E+02  0.1662399E+02  0.4461161E+02
Ar  770  0.1891085E+02  0.3518399E+02  0.1595420E+02  0.3329832E+03
Ar  771  0.1900004E+02  0.3247940E+02  0.1857404E+02  0.8824438E+03
Ar  772  0.1645694E+02  0.3485020E+02  0.1865881E+02  0.3926677E+02
Ar  773  0.1621368E+02  0.3301191E+02  0.2136797E+02  0.1809474E+02
Ar  774  0.1918333E+02  0.3526714E+02  0.2153598E+02  0.5500118E+02
Ar  775  0.1875542E+02  0.3257719E+02  0.2408743E+02  0.2570726E+02
Ar  776  0.1657631E+02  0.3551026E+02  0.2417229E+02  0.2403903E+03
Ar  777  0.1611905E+02  0.3313771E+02  0.2724465E+02  0.2576954E+03
Ar  778  0.1863379E+02  0.3539335E+02  0.2701910E+02  0.3638975E+02
Ar  779  0.1886890E+02  0.3318293E+02  0.3010665E+02  0.4882973E+02
Ar  780  0.1631569E+02  0.3572179E+02  0.2967580E+02  0.1297346E+03
Ar  781  0.1629740E+02  0.3244593E+02  0.3265800E+02  0.1415465E+03
Ar  782  0.1894109E+02  0.3563085E+02  0.3287266E+02  0.3216243E+03
Ar  783  0.1880031E+02  0.3293839E+02  0.3515045E+02  0.2249970E+03
Ar  784  0.1603466E+02  0.3477723E+02  0.3533731E+02  0.3774022E+03
Ar  785  0.2129649E+02  0.4627265E+00  0.2099016E-02  0.9221645E+03
Ar  786  0.2438101E+02  0.2667007E+01  0.3746598E+02  0.2276707E+03
Ar  787  0.2423437E+02  0.2714734E-01  0.2998707E+01  0.1594524E+03
Ar  788  0.2141446E+02  0.2593835E+01  0.2580465E+01  0.1438386E+03
Ar  789  0.2128180E+02  0.3777325E+02  0.5035671E+01  0.7131695E+02
Ar  790  0.2406274E+02  0.2759783E+01  0.5354877E+01  0.1536205E+03
Ar  791  0.2489024E+02  0.5366545E-01  0.7970129E+01  0.4966941E+03
Ar  792  0.2177532E+02  0.2878391E+01  0.8169259E+01  0.4581798E+02
Ar  793  0.2162165E+02  0.3739429E+02  0.1053110E+02  0.5431136E+02
Ar  794  0.2475014E+02  0.2919492E+01  0.1088823E+02  0.5431420E+03
Ar  795  0.2445498E+02  0.2231063E+00  0.1301237E+02  0.3994757E+03
Ar  796  0.2148104E+02  0.2799926E+01  0.1260168E+02  0.5515858E+02
Ar  797  0.2184051E+02  0.1797545E+00  0.1628500E+02  0.1940324E+03
Ar  798  0.2400064E+02  0.2698641E+01  0.1600507E+02  0.2166941E+03
Ar  799  0.2470543E+02  0.3722026E+02  0.1875064E+02  0.3207064E+02
Ar  800  0.2205513E+02  0.3201537E+01  0.1888887E+02  0.1741239E+03
Ar  801  0.2179849E+02  0.3760754E+02  0.2133096E+02  0.5575317E+02
Ar  802  0.2430789E+02  0.2666051E+01  0.2146932E+02  0.1846828E+03
Ar  803  0.2383787E+02  0.3750048E+02  0.2461756E+02  0.2419959E+03
Ar  804  0.2147131E+02  0.2155061E+01  0.2416746E+02  0.1672908E+03
Ar  805  0.2132129E+02  0.3772454E+02  0.2693695E+02  0.8368227E+02
Ar  806  0.2368112E+02  0.3082595E+01  0.2671288E+02  0.1707776E+03
Ar  807  0.2417668E+02  0.2716554E+00  0.2963003E+02  0.8688157E+03
Ar  808  0.2175817E+02  0.2887355E+01  0.3028188E+02  0.4077787E+02
Ar  809  0.2182164E+02  0.5541125E+00  0.3273425E+02  0.2637352E+03
Ar  810  0.2403124E+02  0.2896141E+01  0.3272178E+02  0.1978212E+03
Ar  811  0.2441699E+02  0.1580911E+00  0.3497405E+02  0.1800926E+03
Ar  812  0.2128125E+02  0.3138404E+01  0.3539363E+02  0.2296425E+03
Ar  813  0.2166833E+02  0.5785957E+01  0.2915086E+00  0.4061475E+02
Ar  814  0.2429712E+02  0.8256581E+01  0.1316048E+00  0.1785654E+03
Ar  815  0.2424256E+02  0.5862023E+01  0.2590166E+01  0.2347760E+03
Ar  816  0.2133780E+02  0.8431007E+01  0.2537829E+01  0.2312961E+03
Ar  817  0.2162913E+02  0.5167170E+01  0.4927837E+01  0.1412606E+03
Ar  818  0.2393886E+02  0.8590104E+01  0.4945168E+01  0.6990043E+03
Ar  819  0.2460598E+02  0.5929774E+01  0.7631392E+01  0.3556851E+03
Ar  820  0.2162689E+02  0.8237124E+01  0.7965783E+01  0.8672200E+02
Ar  821  0.2128165E+02  0.5921363E+01  0.1091490E+02  0.2308768E+03
Ar  822  0.2427031E+02  0.8070370E+01  0.1084290E+02  0.4151241E+03
Ar  823  0.2455608E+02  0.5463800E+01  0.1364262E+02  0.1155117E+03
Ar  824  0.2155053E+02  0.8683280E+01  0.1341007E+02  0.7319111E+01
Ar  825  0.2182021E+02  0.6363931E+01  0.1616937E+02  0.2834169E+03
Ar  826  0.2477540E+02  0.8349639E+01  0.1613019E+02  0.2210979E+03
Ar  827  0.2463864E+02  0.5925857E+01  0.1914397E+02  0.9721935E+03
Ar  828  0.2211812E+02  0.8678445E+01  0.1954804E+02  0.2692027E+03
Ar  829  0.2198110E+02  0.5120644E+01  0.2167283E+02  0.1062159E+03
Ar  830  0.2488329E+02  0.8055831E+01  0.2165347E+02  0.1955491E+03
Ar  831  0.2415979E+02  0.5940048E+01  0.2456614E+02  0.3643476E+03
Ar  832  0.2183953E+02  0.8359276E+01  0.2452184E+02  0.3380977E+03
Ar  833  0.2181281E+02  0.5716779E+01  0.2706738E+02  0.2929153E+02
Ar  834  0.2432057E+02  0.8430552E+01  0.2711326E+02  0.3210022E+02
Ar  835  0.2396849E+02  0.5563894E+01  0.3001350E+02  0.1431651E+03
Ar  836  0.2194287E+02  0.8438303E+01  0.2983346E+02  0.5766467E+02
Ar  837  0.2166128E+02  0.6221022E+01  0.3273552E+02  0.4929021E+02
Ar  838  0.2447751E+02  0.8361350E+01  0.3311229E+02  0.1460288E+03
Ar  839  0.2428134E+02  0.5579795E+01  0.3515539E+02  0.8804244E+02
Ar  840  0.2143836E+02  0.8234869E+01  0.3557409E+02  0.3397763E+03
Ar  841  0.2151193E+02  0.1077027E+02  0.4553946E-01  0.2453421E+03
Ar  842  0.2376421E+02  0.1357783E+02  0.1423832E+00  0.8810855E+02
Ar  843  0.2404482E+02  0.1094731E+02  0.2435138E+01  0.1722414E+03
Ar  844  0.2148820E+02  0.1363990E+02  0.2736086E+01  0.1486094E+03
Ar  845  0.2115080E+02  0.1062122E+02  0.5169692E+01  0.4957454E+02
Ar  846  0.2406313E+02  0.1329224E+02  0.5275623E+01  0.3212709E+03
Ar  847  0.2442580E+02  0.1062546E+02  0.7492989E+01  0.1648830E+03
Ar  848  0.2176708E+02  0.1365494E+02  0.8020830E+01  0.2823132E+02
Ar  849  0.2151182E+02  0.1101829E+02  0.1048643E+02  0.2461390E+03
Ar  850  0.2399011E+02  0.1349370E+02  0.1092052E+02  0.2814104E+03
Ar  851  0.2456661E+02  0.1073734E+02  0.1365256E+02  0.4022074E+02
Ar  852  0.2190631E+02  0.1311082E+02  0.1368587E+02  0.3173737E+03
Ar  853  0.2193401E+02  0.1090636E+02  0.1672824E+02  0.7038216E+02
Ar  854  0.2445873E+02  0.1344897E+02  0.1658613E+02  0.1700702E+03
Ar  855  0.2470911E+02  0.1053983E+02  0.1928280E+02  0.3658685E+03
Ar  856  0.2159961E+02  0.1361692E+02  0.1887990E+02  0.1013694E+04
Ar  857  0.2168625E+02  0.1099231E+02  0.2185201E+02  0.6988430E+03
Ar  858  0.2425838E+02  0.1337404E+02  0.2172805E+02  0.7702029E+03
Ar  859  0.2426832E+02  0.1060841E+02  0.2436852E+02  0.8840016E+02
Ar  860  0.2189013E+02  0.1384709E+02  0.2465854E+02  0.5842127E+02
Ar  861  0.2191330E+02  0.1095574E+02  0.2732292E+02  0.1621122E+03
Ar  862  0.2457863E+02  0.1317443E+02  0.2730054E+02  0.5902548E+02
Ar  863  0.2425422E+02  0.1089461E+02  0.2980798E+02  0.1464712E+03
Ar  864  0.2185640E+02  0.1323778E+02  0.2994458E+02  0.3163123E+02
Ar  865  0.2168273E+02  0.1064764E+02  0.3254413E+02  0.2250160E+03
Ar  866  0.2450170E+02  0.1306411E+02  0.3242666E+02  0.5434198E+02
Ar  867  0.2443432E+02  0.1113760E+02  0.3539566E+02  0.1965974E+03
Ar  868  0.2124921E+02  0.1354021E+02  0.3517879E+02  0.1969181E+02
Ar  869  0.2114040E+02  0.1597038E+02  0.1918060E+00  0.1487921E+03
Ar  870  0.2401406E+02  0.1874914E+02  0.3764133E+02  0.6012342E+01
Ar  871  0.2443741E+02  0.1614943E+02  0.2396352E+01  0.2313246E+03
Ar  872  0.2137679E+02  0.1847941E+02  0.2823543E+01  0.2040390E+03
Ar  873  0.2143219E+02  0.1636919E+02  0.5420157E+01  0.7022425E+02
Ar  874  0.2412031E+02  0.1892074E+02  0.4965547E+01  0.1964702E+03
Ar  875  0.2443395E+02  0.1663159E+02  0.8130788E+01  0.1489143E+03
Ar  876  0.2163308E+02  0.1906390E+02  0.7765976E+01  0.3883700E+03
Ar  877  0.2145661E+02  0.1622220E+02  0.1081724E+02  0.3997915E+02
Ar  878  0.2413671E+02  0.1903663E+02  0.1085676E+02  0.2073487E+03
Ar  879  0.2434667E+02  0.1622886E+02  0.1270284E+02  0.7400086E+02
Ar  880  0.2179021E+02  0.1902873E+02  0.1336511E+02  0.2841653E+02
Ar  881  0.2183560E+02  0.1599015E+02  0.1540856E+02  0.1954766E+03
Ar  882  0.2428513E+02  0.1822706E+02  0.1581726E+02  0.2004248E+03
Ar  883  0.2440180E+02  0.1625795E+02  0.1884771E+02  0.6281419E+02
Ar  884  0.2214775E+02  0.1879244E+02  0.1861821E+02  0.1428525E+03
Ar  885  0.2144014E+02  0.1642832E+02  0.2120089E+02  0.1246350E+03
Ar  886  0.2445874E+02  0.1894735E+02  0.2135462E+02  0.7239658E+03
Ar  887  0.2453199E+02  0.1631385E+02  0.2377257E+02  0.1020853E+03
Ar  888  0.2184881E+02  0.1832050E+02  0.2477019E+02  0.2756112E+02
Ar  889  0.2214397E+02  0.1591516E+02  0.2737356E+02  0.1699668E+03
Ar  890  0.2443951E+02  0.1894762E+02  0.2687238E+02  0.1092164E+03
Ar  891  0.2452293E+02  0.1627064E+02  0.2969680E+02  0.5941802E+02
Ar  892  0.2133862E+02  0.1875869E+02  0.3006799E+02  0.4499159E+03
Ar  893  0.2151061E+02  0.1576556E+02  0.3252573E+02  0.4485168E+03
Ar  894  0.2389039E+02  0.1857123E+02  0.3226697E+02  0.5187587E+02
Ar  895  0.2432718E+02  0.1589509E+02  0.3491956E+02  0.1646695E+03
Ar  896  0.2155897E+02  0.1870111E+02  0.3492441E+02  0.1404674E+03
Ar  897  0.2193759E+02  0.2126988E+02  0.3709949E+02  0.1789617E+03
Ar  898  0.2421467E+02  0.2460664E+02  0.3775071E+02  0.2020918E+03
Ar  899  0.2429221E+02  0.2141539E+02  0.2122844E+01  0.7436176E+02
Ar  900  0.2114641E+02  0.2439883E+02  0.2974429E+01  0.3015288E+03
Ar  901  0.2097058E+02  0.2132660E+02  0.4857383E+01  0.1355100E+03
Ar  902  0.2404631E+02  0.2408994E+02  0.4853390E+01  0.4735891E+02
Ar  903  0.2428767E+02  0.2154222E+02  0.8227624E+01  0.3159464E+03
Ar  904  0.2147528E+02  0.2404622E+02  0.8068224E+01  0.1679140E+03
Ar  905  0.2120565E+02  0.2146383E+02  0.1067117E+02  0.5104352E+03
Ar  906  0.2471363E+02  0.2422881E+02  0.1052993E+02  0.1214268E+03
Ar  907  0.2409321E+02  0.2168479E+02  0.1315877E+02  0.9869664E+02
Ar  908  0.2171994E+02  0.2426240E+02  0.1305540E+02  0.5750197E+03
Ar  909  0.2149893E+02  0.2150204E+02  0.1564926E+02  0.6567670E+03
Ar  910  0.2384012E+02  0.2402910E+02  0.1570485E+02  0.1125262E+03
Ar  911  0.2467319E+02  0.2099420E+02  0.1860412E+02  0.3548460E+02
Ar  912  0.2126425E+02  0.2383395E+02  0.1889017E+02  0.2446873E+03
Ar  913  0.2217218E+02  0.2148939E+02  0.2113536E+02  0.2944679E+02
Ar  914  0.2385901E+02  0.2443591E+02  0.2144400E+02  0.1137186E+03
Ar  915  0.2475769E+02  0.2161043E+02  0.2407540E+02  0.2158699E+02
Ar  916  0.2154720E+02  0.2440571E+02  0.2474619E+02  0.2334741E+03
Ar  917  0.2141300E+02  0.2131338E+02  0.2692233E+02  0.2662741E+03
Ar  918  0.2433881E+02  0.2418901E+02  0.2650369E+02  0.3425175E+03
Ar  919  0.2385664E+02  0.2100122E+02  0.2937859E+02  0.1989505E+03
Ar  920  0.2131184E+02  0.2384206E+02  0.2997458E+02  0.1415941E+03
Ar  921  0.2150230E+02  0.2135980E+02  0.3253473E+02  0.2061506E+03
Ar  922  0.2427714E+02  0.2411207E+02  0.3222713E+02  0.3606555E+03
Ar  923  0.2466115E+02  0.2163930E+02  0.3506183E+02  0.5965887E+02
Ar  924  0.2226016E+02  0.2439053E+02  0.3484228E+02  0.5695079E+02
Ar  925  0.2158298E+02  0.2714215E+02  0.3738499E+02  0.2048735E+03
Ar  926  0.2452078E+02  0.3044778E+02  0.3762546E+02  0.5033101E+02
Ar  927  0.2344363E+02  0.2710885E+02  0.2630570E+01  0.7046777E+03
Ar  928  0.2096497E+02  0.2997179E+02  0.2594730E+01  0.6180242E+02
Ar  929  0.2137453E+02  0.2709512E+02  0.5837734E+01  0.9699938E+02
Ar  930  0.2458271E+02  0.2988330E+02  0.5231119E+01  0.2062302E+03
Ar  931  0.2438464E+02  0.2631690E+02  0.7812036E+01  0.5718930E+02
Ar  932  0.2199081E+02  0.3035909E+02  0.8117370E+01  0.5123255E+03
Ar  933  0.2129988E+02  0.2689286E+02  0.1032651E+02  0.2204456E+03
Ar  934  0.2414832E+02  0.2964844E+02  0.1064123E+02  0.1799377E+03
Ar  935  0.2390986E+02  0.2672580E+02  0.1341986E+02  0.1601029E+03
Ar  936  0.2125149E+02  0.2928635E+02  0.1335094E+02  0.1058637E+03
Ar  937  0.2168367E+02  0.2641100E+02  0.1621470E+02  0.2184516E+03
Ar  938  0.2359645E+02  0.2935930E+02  0.1634669E+02  0.3022427E+03
Ar  939  0.2369667E+02  0.2707620E+02  0.1914551E+02  0.2773584E+02
Ar  940  0.2141783E+02  0.2979726E+02  0.1882488E+02  0.2298023E+03
Ar  941  0.2105399E+02  0.2657905E+02  0.2176060E+02  0.1956187E+03
Ar  942  0.2389291E+02  0.2972753E+02  0.2171943E+02  0.6757048E+02
Ar  943  0.2398810E+02  0.2689126E+02  0.2393472E+02  0.1360631E+03
Ar  944  0.2156327E+02  0.2986820E+02  0.2427133E+02  0.5429042E+03
Ar  945  0.2169139E+02  0.2697684E+02  0.2705681E+02  0.1186869E+03
Ar  946  0.2376969E+02  0.2986665E+02  0.2708465E+02  0.1922885E+03
Ar  947  0.2383262E+02  0.2690101E+02  0.3031684E+02  0.1209459E+03
Ar  948  0.2119734E+02  0.2949727E+02  0.2928010E+02  0.1007045E+03
Ar  949  0.2138862E+02  0.2733599E+02  0.3284896E+02  0.3086192E+03
Ar  950  0.2424205E+02  0.2971406E+02  0.3221430E+02  0.1812320E+03
Ar  951  0.2466567E+02  0.2727316E+02  0.3459676E+02  0.7525175E+02
Ar  952  0.2156797E+02  0.3037395E+02  0.3454916E+02  0.1725929E+03
Ar  953  0.2164404E+02  0.3268195E+02  0.3776855E+02  0.3413062E+02
Ar  954  0.2424923E+02  0.3539462E+02  0.3718244E+00  0.2701238E+03
Ar  955  0.2452212E+02  0.3271417E+02  0.2948112E+01  0.1559855E+02
Ar  956  0.2164769E+02  0.3507253E+02  0.3199816E+01  0.2117333E+03
Ar  957  0.2101068E+02  0.3225141E+02  0.5222135E+01  0.3458283E+03
Ar  958  0.2450652E+02  0.3548511E+02  0.5758324E+01  0.1122435E+03
Ar  959  0.2477081E+02  0.3255668E+02  0.8097073E+01  0.1406308E+03
Ar  960  0.2119102E+02  0.3477488E+02  0.7298111E+01  0.3307754E+03
Ar  961  0.2152398E+02  0.3249694E+02  0.1073653E+02  0.2814331E+03
Ar  962  0.2412241E+02  0.3533647E+02  0.1018746E+02  0.7737796E+02
Ar  963  0.2411114E+02  0.3214122E+02  0.1348566E+02  0.6910698E+02
Ar  964  0.2176221E+02  0.3509761E+02  0.1342121E+02  0.2907040E+03
Ar  965  0.2136678E+02  0.3256596E+02  0.1598448E+02  0.4509674E+03
Ar  966  0.2408197E+02  0.3492764E+02  0.1612673E+02  0.2055973E+03
Ar  967  0.2391681E+02  0.3192127E+02  0.1894771E+02  0.2579353E+03
Ar  968  0.2156490E+02  0.3495440E+02  0.1885845E+02  0.1324495E+03
Ar  969  0.2151829E+02  0.3225984E+02  0.2176393E+02  0.1866503E+03
Ar  970  0.2417748E+02  0.3525137E+02  0.2199797E+02  0.7244844E+02
Ar  971  0.2416613E+02  0.3264620E+02  0.2417290E+02  0.2967802E+02
Ar  972  0.2137201E+02  0.3500369E+02  0.2441268E+02  0.1725991E+03
Ar  973  0.2116208E+02  0.3224353E+02  0.2686842E+02  0.6261466E+03
Ar  974  0.2396096E+02  0.3498350E+02  0.2719600E+02  0.2944691E+03
Ar  975  0.2366159E+02  0.3275866E+02  0.2995302E+02  0.3645068E+03
Ar  976  0.2145427E+02  0.3584751E+02  0.3005441E+02  0.2695662E+03
Ar  977  0.2133532E+02  0.3335903E+02  0.3262791E+02  0.2656840E+03
Ar  978  0.2457172E+02  0.3496143E+02  0.3223614E+02  0.4519888E+03
Ar  979  0.2383236E+02  0.3266451E+02  0.3481219E+02  0.5497363E+03
Ar  980  0.2194618E+02  0.3564348E+02  0.3541097E+02  0.1660089E+03
Ar  981  0.2698231E+02  0.1372972E+00  0.3641207E+00  0.1611361E+02
Ar  982  0.3002068E+02  0.2717849E+01  0.4821977E+00  0.1675533E+03
Ar  983  0.3016896E+02  0.2259283E+00  0.2767184E+01  0.7185096E+02
Ar  984  0.2665643E+02  0.2970824E+01  0.2387594E+01  0.7566614E+03
Ar  985  0.2701270E+02  0.7188815E-01  0.5060687E+01  0.6197255E+02
Ar  986  0.2959980E+02  0.2611891E+01  0.5268018E+01  0.2033776E+03
Ar  987  0.3001920E+02  0.2172801E+00  0.8128991E+01  0.3069424E+03
Ar  988  0.2715737E+02  0.2771907E+01  0.7728236E+01  0.1544506E+03
Ar  989  0.2733086E+02  0.4439580E+00  0.1056454E+02  0.3621868E+03
Ar  990  0.2974537E+02  0.2958961E+01  0.1083158E+02  0.1928576E+03
Ar  991  0.2976196E+02  0.3736816E+02  0.1375304E+02  0.4373429E+03
Ar  992  0.2709351E+02  0.2884706E+01  0.1321912E+02  0.3591721E+03
Ar  993  0.2657174E+02  0.1815608E-01  0.1561794E+02  0.4560393E+03
Ar  994  0.2997842E+02  0.2628783E+01  0.1646944E+02  0.2028027E+03
Ar  995  0.2963933E+02  0.3754488E+02  0.1959890E+02  0.9350118E+03
Ar  996  0.2684529E+02  0.2022388E+01  0.1834594E+02  0.1678274E+03
Ar  997  0.2666472E+02  0.1331742E+00  0.2169626E+02  0.4103212E+03
Ar  998  0.2968205E+02  0.2594433E+01  0.2165691E+02  0.2605154E+03
Ar  999  0.2930209E+02  0.8554248E+00  0.2469918E+02  0.1278838E+04
Ar 1000  0.2655807E+02  0.2924127E+01  0.2438036E+02  0.5298491E+03
Ar 1001  0.2686761E+02  0.3104441E+00  0.2699040E+02  0.1618769E+03
Ar 1002  0.2974524E+02  0.3378616E+01  0.2735580E+02  0.4517334E+02
Ar 1003  0.2935282E+02  0.6535203E+00  0.2922215E+02  0.5081074E+02
Ar 1004  0.2653613E+02  0.2674778E+01  0.3005329E+02  0.1560909E+02
Ar 1005  0.2689716E+02  0.3741530E+02  0.3225356E+02  0.3857863E+03
Ar 1006  0.2933524E+02  0.1993117E+01  0.3242846E+02  0.2438287E+02
Ar 1007  0.2989638E+02  0.1687650E-01  0.3530712E+02  0.3466006E+03
Ar 1008  0.2733877E+02  0.2391698E+01  0.3503347E+02  0.3524441E+03
Ar 1009  0.2688568E+02  0.5537765E+01  0.1295445E+00  0.1913256E+03
Ar 1010  0.2992154E+02  0.8496254E+01  0.3746277E+02  0.6262633E+03
Ar 1011  0.2977846E+02  0.5882239E+01  0.2531459E+01  0.4353522E+02
Ar 1012  0.2684167E+02  0.8085313E+01  0.2635885E+01  0.1681614E+03
Ar 1013  0.2699349E+02  0.5286962E+01  0.4869877E+01  0.1484243E+03
Ar 1014  0.2908959E+02  0.7912103E+01  0.5532372E+01  0.2094129E+03
Ar 1015  0.2940546E+02  0.5408462E+01  0.7880880E+01  0.1053790E+03
Ar 1016  0.2714654E+02  0.8111479E+01  0.8150662E+01  0.2114612E+03
Ar 1017  0.2725656E+02  0.5263150E+01  0.1056486E+02  0.2664585E+03
Ar 1018  0.2931071E+02  0.8427806E+01  0.1060496E+02  0.1606316E+03
Ar 1019  0.2994339E+02  0.5644996E+01  0.1312489E+02  0.3985410E+03
Ar 1020  0.2719269E+02  0.8242938E+01  0.1320542E+02  0.1715201E+03
Ar 1021  0.2774565E+02  0.5905002E+01  0.1578988E+02  0.2274626E+03
Ar 1022  0.3019578E+02  0.8555497E+01  0.1616075E+02  0.1676107E+02
Ar 1023  0.2986061E+02  0.5228515E+01  0.1889483E+02  0.1983454E+03
Ar 1024  0.2724645E+02  0.8047490E+01  0.1947354E+02  0.2923799E+03
Ar 1025  0.2705254E+02  0.5246173E+01  0.2180471E+02  0.4188331E+03
Ar 1026  0.2999359E+02  0.7730915E+01  0.2176826E+02  0.3877377E+03
Ar 1027  0.3000130E+02  0.5366376E+01  0.2423912E+02  0.2987666E+03
Ar 1028  0.2747383E+02  0.7465036E+01  0.2436391E+02  0.2580788E+03
Ar 1029  0.2674430E+02  0.5967383E+01  0.2771783E+02  0.2445421E+03
Ar 1030  0.2978443E+02  0.8102479E+01  0.2697665E+02  0.1554882E+03
Ar 1031  0.2945277E+02  0.5579752E+01  0.3036143E+02  0.3938379E+03
Ar 1032  0.2701606E+02  0.8313687E+01  0.3052784E+02  0.1245302E+03
Ar 1033  0.2666613E+02  0.5348923E+01  0.3274020E+02  0.6446483E+02
Ar 1034  0.3005598E+02  0.8170313E+01  0.3291029E+02  0.2185529E+03
Ar 1035  0.2913600E+02  0.5026886E+01  0.3548701E+02  0.1989147E+03
Ar 1036  0.2705689E+02  0.8407051E+01  0.3544793E+02  0.6296949E+02
Ar 1037  0.2701972E+02  0.1104317E+02  0.2121730E+00  0.1247055E+03
Ar 1038  0.2998182E+02  0.1363909E+02  0.6563324E+00  0.4575164E+03
Ar 1039  0.2928371E+02  0.1066382E+02  0.2890859E+01  0.5736431E+01
Ar 1040  0.2631171E+02  0.1337252E+02  0.2556202E+01  0.3626133E+03
Ar 1041  0.2711920E+02  0.1116741E+02  0.5337399E+01  0.2060590E+03
Ar 1042  0.3005097E+02  0.1378541E+02  0.5038219E+01  0.1513884E+03
Ar 1043  0.2996558E+02  0.1126160E+02  0.7752852E+01  0.2895697E+03
Ar 1044  0.2642757E+02  0.1346953E+02  0.7983545E+01  0.3610881E+03
Ar 1045  0.2729202E+02  0.1130514E+02  0.1058443E+02  0.2987613E+03
Ar 1046  0.2927698E+02  0.1402502E+02  0.1081826E+02  0.5210832E+03
Ar 1047  0.2990220E+02  0.1068203E+02  0.1300073E+02  0.2401014E+03
Ar 1048  0.2671892E+02  0.1358834E+02  0.1408392E+02  0.1006223E+03
Ar 1049  0.2713722E+02  0.1056154E+02  0.1681181E+02  0.3106956E+03
Ar 1050  0.2969366E+02  0.1276756E+02  0.1605333E+02  0.1157087E+03
Ar 1051  0.3010434E+02  0.1059090E+02  0.1905217E+02  0.3747295E+03
Ar 1052  0.2722577E+02  0.1361646E+02  0.1877973E+02  0.2062239E+03
Ar 1053  0.2738983E+02  0.1093103E+02  0.2177992E+02  0.1663773E+03
Ar 1054  0.2948019E+02  0.1352114E+02  0.2159870E+02  0.5845764E+03
Ar 1055  0.2997588E+02  0.1066018E+02  0.2400107E+02  0.3331033E+03
Ar 1056  0.2676260E+02  0.1354693E+02  0.2425843E+02  0.5063255E+02
Ar 1057  0.2718001E+02  0.1023437E+02  0.2611873E+02  0.2968354E+03
Ar 1058  0.2987272E+02  0.1286161E+02  0.2666428E+02  0.4110354E+03
Ar 1059  0.2963125E+02  0.1070348E+02  0.2975389E+02  0.2291406E+02
Ar 1060  0.2710747E+02  0.1315818E+02  0.2975442E+02  0.1155854E+03
Ar 1061  0.2718710E+02  0.1101648E+02  0.3272879E+02  0.5385437E+03
Ar 1062  0.2985829E+02  0.1348724E+02  0.3272368E+02  0.2461536E+03
Ar 1063  0.3007193E+02  0.1090265E+02  0.3515159E+02  0.2307332E+03
Ar 1064  0.2741882E+02  0.1345972E+02  0.3578103E+02  0.1422975E+03
Ar 1065  0.2704065E+02  0.1618032E+02  0.3769688E+02  0.3006679E+03
Ar 1066  0.3010716E+02  0.1851841E+02  0.3760979E+02  0.1341439E+03
Ar 1067  0.2999247E+02  0.1648150E+02  0.2796295E+01  0.2430648E+03
Ar 1068  0.2702387E+02  0.1884345E+02  0.2608714E+01  0.2109857E+03
Ar 1069  0.2669254E+02  0.1614863E+02  0.5376948E+01  0.3035540E+03
Ar 1070  0.2997933E+02  0.1983265E+02  0.4973880E+01  0.1300200E+03
Ar 1071  0.2970335E+02  0.1639568E+02  0.7557561E+01  0.4133477E+03
Ar 1072  0.2728170E+02  0.1907551E+02  0.7499628E+01  0.1531919E+03
Ar 1073  0.2699048E+02  0.1639370E+02  0.1041447E+02  0.3019082E+02
Ar 1074  0.2977356E+02  0.1879292E+02  0.1085599E+02  0.2002200E+03
Ar 1075  0.2967318E+02  0.1576520E+02  0.1374583E+02  0.2042707E+03
Ar 1076  0.2694732E+02  0.1879320E+02  0.1334981E+02  0.7841424E+02
Ar 1077  0.2738656E+02  0.1634820E+02  0.1603574E+02  0.2564116E+03
Ar 1078  0.2999183E+02  0.1863989E+02  0.1612539E+02  0.1785848E+03
Ar 1079  0.3000127E+02  0.1570889E+02  0.1877382E+02  0.2393667E+03
Ar 1080  0.2718992E+02  0.1887164E+02  0.1828757E+02  0.3844038E+03
Ar 1081  0.2716583E+02  0.1656549E+02  0.2107642E+02  0.5735908E+03
Ar 1082  0.2997954E+02  0.1861766E+02  0.2153227E+02  0.2563148E+03
Ar 1083  0.2931526E+02  0.1584147E+02  0.2440783E+02  0.1354765E+02
Ar 1084  0.2692521E+02  0.1871584E+02  0.2415494E+02  0.1397581E+03
Ar 1085  0.2679315E+02  0.1611979E+02  0.2671823E+02  0.2263087E+03
Ar 1086  0.2945446E+02  0.1885111E+02  0.2685263E+02  0.3585131E+03
Ar 1087  0.2965287E+02  0.1542472E+02  0.2960137E+02  0.2479993E+03
Ar 1088  0.2719112E+02  0.1875247E+02  0.2953256E+02  0.2270854E+03
Ar 1089  0.2718664E+02  0.1566041E+02  0.3242462E+02  0.4197132E+02
Ar 1090  0.2982696E+02  0.1857608E+02  0.3213111E+02  0.2170245E+03
Ar 1091  0.2952828E+02  0.1626195E+02  0.3494146E+02  0.1752706E+03
Ar 1092  0.2662758E+02  0.1865357E+02  0.3477976E+02  0.2109949E+03
Ar 1093  0.2695948E+02  0.2092235E+02  0.3776206E+02  0.1882527E+03
Ar 1094  0.2899146E+02  0.2451013E+02  0.3740998E+02  0.2473124E+03
Ar 1095  0.2982292E+02  0.2149957E+02  0.1945429E+01  0.2036792E+03
Ar 1096  0.2710846E+02  0.2446771E+02  0.2712444E+01  0.4477262E+03
Ar 1097  0.2680479E+02  0.2165517E+02  0.4754756E+01  0.6209020E+03
Ar 1098  0.3005524E+02  0.2366055E+02  0.5147650E+01  0.4816853E+03
Ar 1099  0.3028097E+02  0.2132623E+02  0.8100549E+01  0.7656409E+02
Ar 1100  0.2682703E+02  0.2404108E+02  0.7637662E+01  0.1745121E+03
Ar 1101  0.2683367E+02  0.2135560E+02  0.1026595E+02  0.2342508E+03
Ar 1102  0.2931365E+02  0.2364987E+02  0.1087843E+02  0.3754942E+03
Ar 1103  0.2946093E+02  0.2114423E+02  0.1346787E+02  0.4343203E+03
Ar 1104  0.2724030E+02  0.2423271E+02  0.1372674E+02  0.5423491E+03
Ar 1105  0.2687297E+02  0.2127912E+02  0.1592882E+02  0.9527928E+03
Ar 1106  0.2968765E+02  0.2410009E+02  0.1637116E+02  0.3475942E+03
Ar 1107  0.2973537E+02  0.2123184E+02  0.1887233E+02  0.1048441E+03
Ar 1108  0.2690840E+02  0.2443936E+02  0.1823471E+02  0.3696485E+03
Ar 1109  0.2743418E+02  0.2147027E+02  0.2149633E+02  0.8139719E+02
Ar 1110  0.2941808E+02  0.2419109E+02  0.2119629E+02  0.5462150E+01
Ar 1111  0.2952102E+02  0.2144718E+02  0.2420667E+02  0.1860310E+03
Ar 1112  0.2693878E+02  0.2450188E+02  0.2385523E+02  0.3531878E+03
Ar 1113  0.2672630E+02  0.2167193E+02  0.2693071E+02  0.1380591E+02
Ar 1114  0.2977548E+02  0.2386297E+02  0.2733303E+02  0.3899041E+03
Ar 1115  0.2988285E+02  0.2142087E+02  0.2971587E+02  0.3039680E+03
Ar 1116  0.2703289E+02  0.2377888E+02  0.2975389E+02  0.1289672E+03
Ar 1117  0.2702849E+02  0.2126378E+02  0.3219892E+02  0.2876430E+03
Ar 1118  0.2931195E+02  0.2391970E+02  0.3225360E+02  0.1541092E+03
Ar 1119  0.2899265E+02  0.2188320E+02  0.3510936E+02  0.6140194E+02
Ar 1120  0.2651368E+02  0.2442283E+02  0.3496808E+02  0.4426269E+03
Ar 1121  0.2679841E+02  0.2771353E+02  0.7999684E-01  0.2319824E+03
Ar 1122  0.2980722E+02  0.2971537E+02  0.3755865E+02  0.2250465E+02
Ar 1123  0.2991885E+02  0.2645571E+02  0.2905064E+01  0.1620431E+03
Ar 1124  0.2732285E+02  0.3002032E+02  0.2904624E+01  0.3158921E+03
Ar 1125  0.2702147E+02  0.2687570E+02  0.5328492E+01  0.2824094E+03
Ar 1126  0.3009919E+02  0.2953915E+02  0.5673119E+01  0.4013891E+03
Ar 1127  0.2954410E+02  0.2745176E+02  0.8441622E+01  0.1451319E+03
Ar 1128  0.2700311E+02  0.2978403E+02  0.7760862E+01  0.1604742E+03
Ar 1129  0.2683714E+02  0.2686100E+02  0.1101053E+02  0.9049841E+02
Ar 1130  0.2915718E+02  0.2967553E+02  0.1075813E+02  0.2639785E+02
Ar 1131  0.2946703E+02  0.2691634E+02  0.1318587E+02  0.1035763E+03
Ar 1132  0.2707938E+02  0.2954814E+02  0.1360518E+02  0.1823492E+02
Ar 1133  0.2694379E+02  0.2692759E+02  0.1604156E+02  0.2505848E+03
Ar 1134  0.2950929E+02  0.2982408E+02  0.1622647E+02  0.5826818E+03
Ar 1135  0.2934189E+02  0.2704418E+02  0.1886973E+02  0.2874356E+03
Ar 1136  0.2643875E+02  0.2919095E+02  0.1912445E+02  0.5199045E+02
Ar 1137  0.2644003E+02  0.2644288E+02  0.2142219E+02  0.5615682E+03
Ar 1138  0.2946811E+02  0.2964178E+02  0.2158137E+02  0.4740555E+03
Ar 1139  0.2952943E+02  0.2723877E+02  0.2427336E+02  0.2608556E+03
Ar 1140  0.2674063E+02  0.2950179E+02  0.2433781E+02  0.3391976E+03
Ar 1141  0.2680398E+02  0.2695588E+02  0.2697995E+02  0.2196203E+03
Ar 1142  0.2965009E+02  0.2954942E+02  0.2698423E+02  0.2285538E+03
Ar 1143  0.2941032E+02  0.2668454E+02  0.2930715E+02  0.4657522E+03
Ar 1144  0.2653042E+02  0.3009125E+02  0.2923651E+02  0.1545213E+03
Ar 1145  0.2729211E+02  0.2673677E+02  0.3204804E+02  0.2248553E+03
Ar 1146  0.2898050E+02  0.2950863E+02  0.3180142E+02  0.2050692E+03
Ar 1147  0.2922732E+02  0.2752374E+02  0.3478168E+02  0.1600515E+03
Ar 1148  0.2685017E+02  0.3027759E+02  0.3513974E+02  0.3010654E+03
Ar 1149  0.2729788E+02  0.3248530E+02  0.3755763E+02  0.4220848E+02
Ar 1150  0.3000952E+02  0.3542603E+02  0.3766117E+02  0.1962481E+03
Ar 1151  0.3025334E+02  0.3290658E+02  0.2518347E+01  0.7543312E+03
Ar 1152  0.2747670E+02  0.3509142E+02  0.2811594E+01  0.1968023E+03
Ar 1153  0.2740294E+02  0.3243641E+02  0.5130866E+01  0.9415381E+02
Ar 1154  0.2959957E+02  0.3546053E+02  0.5336680E+01  0.3192548E+02
Ar 1155  0.2928611E+02  0.3219933E+02  0.8308904E+01  0.6624501E+03
Ar 1156  0.2744655E+02  0.3509150E+02  0.7818474E+01  0.1083716E+03
Ar 1157  0.2694168E+02  0.3238571E+02  0.1077954E+02  0.4357736E+03
Ar 1158  0.2945083E+02  0.3489723E+02  0.1083709E+02  0.1204749E+03
Ar 1159  0.3027867E+02  0.3252495E+02  0.1371724E+02  0.5787787E+02
Ar 1160  0.2629552E+02  0.3507631E+02  0.1336698E+02  0.1123068E+03
Ar 1161  0.2721013E+02  0.3214721E+02  0.1659004E+02  0.2672928E+03
Ar 1162  0.3009850E+02  0.3542754E+02  0.1706235E+02  0.1906287E+03
Ar 1163  0.2951462E+02  0.3201457E+02  0.1896350E+02  0.6536289E+03
Ar 1164  0.2709656E+02  0.3479925E+02  0.1876646E+02  0.3412843E+02
Ar 1165  0.2683132E+02  0.3212067E+02  0.2154689E+02  0.3825383E+03
Ar 1166  0.2923302E+02  0.3483554E+02  0.2159887E+02  0.2628393E+03
Ar 1167  0.2987599E+02  0.3228910E+02  0.2398840E+02  0.1407843E+03
Ar 1168  0.2673116E+02  0.3577629E+02  0.2461107E+02  0.1060341E+03
Ar 1169  0.2738414E+02  0.3220025E+02  0.2630788E+02  0.8506706E+03
Ar 1170  0.2954693E+02  0.3550222E+02  0.2679096E+02  0.1680181E+03
Ar 1171  0.2932158E+02  0.3253224E+02  0.2938856E+02  0.1005657E+02
Ar 1172  0.2649934E+02  0.3498601E+02  0.2938724E+02  0.2362148E+03
Ar 1173  0.2692484E+02  0.3234159E+02  0.3225655E+02  0.9304109E+02
Ar 1174  0.2920532E+02  0.3485183E+02  0.3272140E+02  0.7972198E+02
Ar 1175  0.3147661E+02  0.3223359E+02  0.3192752E+02  0.2524276E+03
Ar 1176  0.2702436E+02  0.3563384E+02  0.3531807E+02  0.1397868E+03
Ar 1177  0.3270065E+02  0.3771094E+02  0.3773408E+02  0.3264315E+03
Ar 1178  0.3497300E+02  0.3352820E+01  0.3777707E+02  0.7237060E+03
Ar 1179  0.3511297E+02  0.3760727E+02  0.2937696E+01  0.2798154E+03
Ar 1180  0.3314985E+02  0.2778701E+01  0.3062209E+01  0.1880442E+02
Ar 1181  0.3252497E+02  0.3739913E+02  0.6271324E+01  0.8053543E+02
Ar 1182  0.3545201E+02  0.2702339E+01  0.5568662E+01  0.1929027E+03
Ar 1183  0.3495362E+02  0.4774154E+00  0.8192573E+01  0.6126792E+02
Ar 1184  0.3241588E+02  0.2886086E+01  0.7697247E+01  0.4017230E+03
Ar 1185  0.3211276E+02  0.4495568E+00  0.1078419E+02  0.1362728E+03
Ar 1186  0.3481138E+02  0.3325576E+01  0.1043729E+02  0.6595114E+01
Ar 1187  0.3529333E+02  0.3766949E+02  0.1380845E+02  0.1279246E+02
Ar 1188  0.3208823E+02  0.3070282E+01  0.1325729E+02  0.1975570E+03
Ar 1189  0.3273532E+02  0.3745357E+02  0.1604597E+02  0.1754372E+03
Ar 1190  0.3533071E+02  0.3268493E+01  0.1602222E+02  0.2701062E+03
Ar 1191  0.3483153E+02  0.3760007E+02  0.1858103E+02  0.2809813E+03
Ar 1192  0.3301686E+02  0.2714745E+01  0.1863305E+02  0.2196606E+03
Ar 1193  0.3267088E+02  0.8466508E-01  0.2111652E+02  0.6729830E+03
Ar 1194  0.3506870E+02  0.2699008E+01  0.2138900E+02  0.4652815E+03
Ar 1195  0.3466264E+02  0.3756578E+02  0.2423401E+02  0.2634118E+03
Ar 1196  0.3224977E+02  0.2524503E+01  0.2373404E+02  0.7973105E+02
Ar 1197  0.3221674E+02  0.3766789E+02  0.2692032E+02  0.4060168E+02
Ar 1198  0.3439407E+02  0.2533350E+01  0.2710758E+02  0.3061155E+03
Ar 1199  0.3439118E+02  0.1024627E+00  0.2940278E+02  0.4199005E+03
Ar 1200  0.3167718E+02  0.3128372E+01  0.3017073E+02  0.1664968E+03
Ar 1201  0.3225053E+02  0.3760282E+02  0.3220057E+02  0.2922770E+03
Ar 1202  0.3457559E+02  0.2644933E+01  0.3170690E+02  0.2505008E+03
Ar 1203  0.3493430E+02  0.3766143E+02  0.3473188E+02  0.1231124E+03
Ar 1204  0.3265277E+02  0.2309365E+01  0.3507217E+02  0.4792718E+03
Ar 1205  0.3199010E+02  0.5416928E+01  0.3750835E+02  0.3808746E+03
Ar 1206  0.3511495E+02  0.7942957E+01  0.3728301E+02  0.2400545E+03
Ar 1207  0.3458254E+02  0.5893899E+01  0.2445408E+01  0.1357614E+03
Ar 1208  0.3213986E+02  0.8250316E+01  0.2666259E+01  0.1742481E+03
Ar 1209  0.3218416E+02  0.5585661E+01  0.4971466E+01  0.1346700E+03
Ar 1210  0.3481022E+02  0.8254546E+01  0.4857235E+01  0.1335227E+03
Ar 1211  0.3454540E+02  0.5663515E+01  0.7517910E+01  0.1844999E+03
Ar 1212  0.3243119E+02  0.8446565E+01  0.7798833E+01  0.3321696E+02
Ar 1213  0.3212550E+02  0.5528866E+01  0.1039836E+02  0.2850170E+03
Ar 1214  0.3487556E+02  0.8484548E+01  0.1023476E+02  0.1496883E+02
Ar 1215  0.3475778E+02  0.5562556E+01  0.1315240E+02  0.2801410E+03
Ar 1216  0.3256946E+02  0.7959713E+01  0.1330580E+02  0.1557956E+03
Ar 1217  0.3226420E+02  0.5548559E+01  0.1641374E+02  0.5590745E+02
Ar 1218  0.3558366E+02  0.8299116E+01  0.1629764E+02  0.8747364E+02
Ar 1219  0.3533833E+02  0.5575661E+01  0.1874960E+02  0.2812423E+03
Ar 1220  0.3249993E+02  0.8076375E+01  0.1935360E+02  0.4726942E+03
Ar 1221  0.3263458E+02  0.5416787E+01  0.2141739E+02  0.5664501E+02
Ar 1222  0.3556056E+02  0.7853378E+01  0.2119137E+02  0.5418095E+03
Ar 1223  0.3544403E+02  0.5589841E+01  0.2399337E+02  0.1134270E+04
Ar 1224  0.3253381E+02  0.8330076E+01  0.2393552E+02  0.2096402E+02
Ar 1225  0.3282165E+02  0.5730058E+01  0.2651693E+02  0.5695315E+03
Ar 1226  0.3552455E+02  0.8083973E+01  0.2658098E+02  0.3172174E+02
Ar 1227  0.3470642E+02  0.5049757E+01  0.2956627E+02  0.9698158E+02
Ar 1228  0.3223584E+02  0.8283061E+01  0.2954928E+02  0.9387899E+02
Ar 1229  0.3197796E+02  0.5276006E+01  0.3260733E+02  0.2122999E+03
Ar 1230  0.3527901E+02  0.7759625E+01  0.3193389E+02  0.8029931E+02
Ar 1231  0.3506015E+02  0.5175377E+01  0.3449119E+02  0.9977541E+02
Ar 1232  0.3298159E+02  0.8075098E+01  0.3490957E+02  0.2660830E+03
Ar 1233  0.3248356E+02  0.1127027E+02  0.2496560E+00  0.1320766E+03
Ar 1234  0.3562871E+02  0.1401302E+02  0.3765842E+02  0.3525522E+03
Ar 1235  0.3523564E+02  0.1092688E+02  0.2464934E+01  0.3370212E+03
Ar 1236  0.3322923E+02  0.1363982E+02  0.2676088E+01  0.1532640E+03
Ar 1237  0.3202718E+02  0.1104972E+02  0.4852091E+01  0.5022776E+02
Ar 1238  0.3541785E+02  0.1343968E+02  0.5217651E+01  0.5087267E+02
Ar 1239  0.3546738E+02  0.1133991E+02  0.7819394E+01  0.2366944E+03
Ar 1240  0.3265360E+02  0.1327375E+02  0.7373405E+01  0.1186715E+03
Ar 1241  0.3275094E+02  0.1139538E+02  0.1049659E+02  0.7982953E+03
Ar 1242  0.3564620E+02  0.1374544E+02  0.1110780E+02  0.9204854E+02
Ar 1243  0.3506164E+02  0.1082891E+02  0.1345144E+02  0.1273741E+03
Ar 1244  0.3253900E+02  0.1368809E+02  0.1362793E+02  0.1202271E+03
Ar 1245  0.3276634E+02  0.1072541E+02  0.1618444E+02  0.1605300E+03
Ar 1246  0.3551249E+02  0.1324303E+02  0.1634338E+02  0.4682178E+03
Ar 1247  0.3573761E+02  0.1085443E+02  0.1899046E+02  0.2213123E+03
Ar 1248  0.3270410E+02  0.1320495E+02  0.1945017E+02  0.1162125E+03
Ar 1249  0.3300717E+02  0.1062528E+02  0.2134373E+02  0.5093094E+02
Ar 1250  0.3512695E+02  0.1336765E+02  0.2186873E+02  0.1135431E+03
Ar 1251  0.3541646E+02  0.1042212E+02  0.2397364E+02  0.2080766E+03
Ar 1252  0.3232202E+02  0.1367139E+02  0.2431085E+02  0.5235479E+03
Ar 1253  0.3235014E+02  0.1032889E+02  0.2676884E+02  0.5704300E+02
Ar 1254  0.3507271E+02  0.1340424E+02  0.2658883E+02  0.1288077E+03
Ar 1255  0.3486592E+02  0.1072465E+02  0.2931537E+02  0.1282793E+03
Ar 1256  0.3215405E+02  0.1321939E+02  0.2980271E+02  0.1539496E+03
Ar 1257  0.3265030E+02  0.1111449E+02  0.3238333E+02  0.3209020E+03
Ar 1258  0.3484669E+02  0.1422464E+02  0.3217833E+02  0.5974389E+03
Ar 1259  0.3500989E+02  0.1090644E+02  0.3541469E+02  0.8934407E+02
Ar 1260  0.3253382E+02  0.1371953E+02  0.3531504E+02  0.6123630E+02
Ar 1261  0.3265466E+02  0.1629778E+02  0.5558542E+00  0.1788269E+03
Ar 1262  0.3520763E+02  0.1853758E+02  0.3843444E+00  0.1970941E+03
Ar 1263  0.3549634E+02  0.1626434E+02  0.3117932E+01  0.3382610E+03
Ar 1264  0.3246717E+02  0.1937091E+02  0.2647936E+01  0.2419581E+03
Ar 1265  0.3273238E+02  0.1660277E+02  0.5155564E+01  0.7944366E+02
Ar 1266  0.3522757E+02  0.1900712E+02  0.5175575E+01  0.2536028E+03
Ar 1267  0.3516034E+02  0.1561097E+02  0.8189573E+01  0.1234833E+03
Ar 1268  0.3298208E+02  0.1863689E+02  0.8493863E+01  0.2513436E+03
Ar 1269  0.3250330E+02  0.1564719E+02  0.1058830E+02  0.5592748E+03
Ar 1270  0.3550585E+02  0.1801447E+02  0.1078571E+02  0.2525189E+03
Ar 1271  0.3518697E+02  0.1589261E+02  0.1402740E+02  0.3887881E+03
Ar 1272  0.3242278E+02  0.1875439E+02  0.1336890E+02  0.2125853E+02
Ar 1273  0.3215738E+02  0.1569627E+02  0.1625513E+02  0.1736257E+03
Ar 1274  0.3512454E+02  0.1871205E+02  0.1651785E+02  0.7616725E+03
Ar 1275  0.3539162E+02  0.1572393E+02  0.1936388E+02  0.2363324E+03
Ar 1276  0.3233096E+02  0.1863389E+02  0.1852986E+02  0.1697225E+03
Ar 1277  0.3206153E+02  0.1603897E+02  0.2179446E+02  0.4033338E+03
Ar 1278  0.3421824E+02  0.1862985E+02  0.2153144E+02  0.3801947E+03
Ar 1279  0.3489096E+02  0.1670917E+02  0.2438195E+02  0.3767907E+03
Ar 1280  0.3207918E+02  0.1855205E+02  0.2446613E+02  0.5721373E+02
Ar 1281  0.3211134E+02  0.1578596E+02  0.2707192E+02  0.3366960E+03
Ar 1282  0.3566258E+02  0.1908266E+02  0.2691166E+02  0.5795330E+03
Ar 1283  0.3522331E+02  0.1589973E+02  0.2917449E+02  0.5326298E+03
Ar 1284  0.3183613E+02  0.1877038E+02  0.2901537E+02  0.3418355E+03
Ar 1285  0.3186957E+02  0.1601406E+02  0.3233741E+02  0.1534855E+03
Ar 1286  0.3440614E+02  0.1831507E+02  0.3173641E+02  0.3143116E+03
Ar 1287  0.3553137E+02  0.1648969E+02  0.3524059E+02  0.3577560E+03
Ar 1288  0.3224647E+02  0.1927568E+02  0.3471111E+02  0.1394475E+03
Ar 1289  0.3277815E+02  0.2161165E+02  0.3721826E+02  0.5290700E+01
Ar 1290  0.3527419E+02  0.2424222E+02  0.3753741E+02  0.5976497E+02
Ar 1291  0.3497754E+02  0.2205932E+02  0.2887748E+01  0.9296550E+02
Ar 1292  0.3240448E+02  0.2461593E+02  0.1643114E+01  0.3493860E+03
Ar 1293  0.3285447E+02  0.2176647E+02  0.5972923E+01  0.4010592E+03
Ar 1294  0.3534504E+02  0.2479605E+02  0.5597477E+01  0.1454570E+03
Ar 1295  0.3517661E+02  0.2209515E+02  0.8586331E+01  0.1814712E+03
Ar 1296  0.3165528E+02  0.2440582E+02  0.8228410E+01  0.1555388E+03
Ar 1297  0.3238254E+02  0.2117582E+02  0.1094136E+02  0.1379824E+03
Ar 1298  0.3475891E+02  0.2441164E+02  0.1080728E+02  0.3326479E+03
Ar 1299  0.3476297E+02  0.2157108E+02  0.1340332E+02  0.5604139E+03
Ar 1300  0.3191395E+02  0.2352601E+02  0.1383038E+02  0.1629315E+03
Ar 1301  0.3227347E+02  0.2099413E+02  0.1612962E+02  0.7854015E+03
Ar 1302  0.3407285E+02  0.2421277E+02  0.1616188E+02  0.1999186E+03
Ar 1303  0.3441657E+02  0.2137137E+02  0.1892703E+02  0.2178379E+03
Ar 1304  0.3210900E+02  0.2394552E+02  0.1898004E+02  0.1790556E+03
Ar 1305  0.3237243E+02  0.2165549E+02  0.2181529E+02  0.9293934E+02
Ar 1306  0.3532132E+02  0.2389173E+02  0.2165820E+02  0.1470803E+02
Ar 1307  0.3479047E+02  0.2121080E+02  0.2450174E+02  0.3126438E+03
Ar 1308  0.3199438E+02  0.2413733E+02  0.2419667E+02  0.2020143E+03
Ar 1309  0.3236365E+02  0.2144668E+02  0.2664091E+02  0.2083680E+03
Ar 1310  0.3518140E+02  0.2399797E+02  0.2694917E+02  0.2303755E+03
Ar 1311  0.3506343E+02  0.2136282E+02  0.2933243E+02  0.2885007E+03
Ar 1312  0.3245472E+02  0.2390599E+02  0.2943230E+02  0.2715989E+03
Ar 1313  0.3251782E+02  0.2179180E+02  0.3233627E+02  0.2208355E+03
Ar 1314  0.3544778E+02  0.2401575E+02  0.3214623E+02  0.2453930E+02
Ar 1315  0.3508533E+02  0.2161919E+02  0.3483420E+02  0.3397195E+03
Ar 1316  0.3186838E+02  0.2439327E+02  0.3507845E+02  0.2421202E+03
Ar 1317  0.3225239E+02  0.2732048E+02  0.3719138E+02  0.1818544E+03
Ar 1318  0.3473361E+02  0.2981804E+02  0.3762690E+02  0.5383342E+02
Ar 1319  0.3503641E+02  0.2728114E+02  0.2587841E+01  0.1494274E+03
Ar 1320  0.3193618E+02  0.2956981E+02  0.2732057E+01  0.1386112E+03
Ar 1321  0.3264795E+02  0.2686080E+02  0.5723888E+01  0.6821494E+02
Ar 1322  0.3470684E+02  0.3005639E+02  0.4973795E+01  0.3473333E+03
Ar 1323  0.3498755E+02  0.2672190E+02  0.8474092E+01  0.3778375E+02
Ar 1324  0.3224710E+02  0.2939517E+02  0.8253976E+01  0.9112779E+02
Ar 1325  0.3242092E+02  0.2690619E+02  0.1124784E+02  0.3867116E+02
Ar 1326  0.3487647E+02  0.2961290E+02  0.1118081E+02  0.1236243E+03
Ar 1327  0.3473533E+02  0.2658709E+02  0.1383439E+02  0.1879861E+03
Ar 1328  0.3183300E+02  0.2952484E+02  0.1329183E+02  0.3558342E+02
Ar 1329  0.3168177E+02  0.2699317E+02  0.1610936E+02  0.1802808E+03
Ar 1330  0.3452822E+02  0.2900976E+02  0.1626597E+02  0.1386524E+03
Ar 1331  0.3491694E+02  0.2670548E+02  0.1904951E+02  0.2762975E+03
Ar 1332  0.3206967E+02  0.2932090E+02  0.1901209E+02  0.2456905E+03
Ar 1333  0.3167754E+02  0.2660880E+02  0.2168772E+02  0.1931998E+03
Ar 1334  0.3546121E+02  0.2948580E+02  0.2155984E+02  0.1693595E+03
Ar 1335  0.3444718E+02  0.2665243E+02  0.2431392E+02  0.1458203E+03
Ar 1336  0.3211054E+02  0.2944766E+02  0.2403196E+02  0.1942835E+03
Ar 1337  0.3203774E+02  0.2633925E+02  0.2668604E+02  0.6288298E+02
Ar 1338  0.3464658E+02  0.2878174E+02  0.2700016E+02  0.1981098E+03
Ar 1339  0.3527250E+02  0.2636882E+02  0.2971126E+02  0.4073537E+03
Ar 1340  0.3214165E+02  0.2911146E+02  0.2967367E+02  0.9492530E+02
Ar 1341  0.3220116E+02  0.2632554E+02  0.3214360E+02  0.3095510E+02
Ar 1342  0.3501749E+02  0.2904343E+02  0.3205382E+02  0.1878772E+03
Ar 1343  0.3537575E+02  0.2692938E+02  0.3495086E+02  0.1576705E+03
Ar 1344  0.3217208E+02  0.2918777E+02  0.3431112E+02  0.1300829E+03
Ar 1345  0.3128342E+02  0.3203950E+02  0.3585589E+02  0.3754769E+02
Ar 1346  0.1388348E+00  0.3408485E+02  0.3422285E+01  0.2559418E+03
Ar 1347  0.3432294E+02  0.3245151E+02  0.2559598E+01  0.6449238E+02
Ar 1348  0.3246405E+02  0.3546104E+02  0.2949080E+01  0.2453172E+03
Ar 1349  0.3210337E+02  0.3227251E+02  0.5494650E+01  0.2168927E+03
Ar 1350  0.3497029E+02  0.3515670E+02  0.5427585E+01  0.2705267E+03
Ar 1351  0.3490252E+02  0.3220422E+02  0.8549781E+01  0.1126577E+03
Ar 1352  0.3268818E+02  0.3465055E+02  0.8500012E+01  0.1672298E+03
Ar 1353  0.3240237E+02  0.3222155E+02  0.1095861E+02  0.2350430E+03
Ar 1354  0.3555622E+02  0.3514593E+02  0.1068144E+02  0.4854684E+03
Ar 1355  0.3523640E+02  0.3292486E+02  0.1347590E+02  0.7950132E+03
Ar 1356  0.3286028E+02  0.3521140E+02  0.1297440E+02  0.1635154E+03
Ar 1357  0.3239269E+02  0.3203792E+02  0.1664487E+02  0.3479087E+01
Ar 1358  0.3512590E+02  0.3482503E+02  0.1615935E+02  0.4838559E+03
Ar 1359  0.3522740E+02  0.3220802E+02  0.1877837E+02  0.9448115E+02
Ar 1360  0.3243046E+02  0.3442236E+02  0.1963490E+02  0.4961754E+03
Ar 1361  0.3242863E+02  0.3231084E+02  0.2212034E+02  0.5351453E+03
Ar 1362  0.3514352E+02  0.3529949E+02  0.2149836E+02  0.5675371E+01
Ar 1363  0.3513499E+02  0.3193674E+02  0.2439276E+02  0.8722908E+02
Ar 1364  0.3208793E+02  0.3528588E+02  0.2406413E+02  0.4540318E+02
Ar 1365  0.3219744E+02  0.3204779E+02  0.2696056E+02  0.1864661E+02
Ar 1366  0.3461090E+02  0.3463301E+02  0.2712909E+02  0.2465140E+03
Ar 1367  0.3472577E+02  0.3201640E+02  0.2990611E+02  0.2369682E+03
Ar 1368  0.3099622E+02  0.3558942E+02  0.2986663E+02  0.7422036E+02
Ar 1369  0.3401418E+02  0.3416184E+02  0.3727282E+02  0.1045506E+03
Ar 1370  0.3498686E+02  0.3509578E+02  0.3236863E+02  0.5271967E+02
Ar 1371  0.3456106E+02  0.3188206E+02  0.3432835E+02  0.1070497E+03
Ar 1372  0.3211814E+02  0.3496769E+02  0.3432886E+02  0.9603413E+01
