        1372
Lattice="  0.3778015E+02  0.0000000E+00  0.0000000E+00  0.0000000E+00  0.3778015E+02  0.0000000E+00  0.0000000E+00  0.0000000E+00  0.3778015E+02" Properties=species:S:1:id:I:1:pos:R:3:tempK:R:1
Ar    1  0.3750490E+02  0.3742644E+02  0.2558103E+00  0.6080473E+03
Ar    2  0.2222987E+01  0.2983539E+01  0.4362354E-01  0.6384223E+03
Ar    3  0.2741394E+01  0.1435512E+00  0.2849184E+01  0.8390297E+03
Ar    4  0.3762158E+02  0.2751399E+01  0.2490768E+01  0.3306739E+03
Ar    5  0.3758677E+02  0.2630855E+00  0.5382006E+01  0.3812503E+03
Ar    6  0.2716897E+01  0.2700902E+01  0.5446736E+01  0.5006643E+01
Ar    7  0.2557891E+01  0.4002202E+00  0.7950991E+01  0.5282647E+03
Ar    8  0.3717260E+02  0.3090987E+01  0.7520013E+01  0.1045019E+03
Ar    9  0.3775530E+02  0.3671224E+00  0.1044974E+02  0.5990656E+03
Ar   10  0.2957546E+01  0.3461883E+01  0.1065978E+02  0.4441619E+03
Ar   11  0.3608803E+01  0.1337768E+00  0.1339121E+02  0.3875685E+03
Ar   12  0.3737294E+02  0.2669614E+01  0.1365406E+02  0.3043413E+03
Ar   13  0.3429082E+00  0.3776719E+02  0.1596505E+02  0.2685858E+02
Ar   14  0.2952740E+01  0.2249082E+01  0.1602264E+02  0.8856184E+02
Ar   15  0.2789992E+01  0.7914858E-01  0.1896703E+02  0.7996130E+02
Ar   16  0.4759624E+00  0.2353029E+01  0.1830557E+02  0.5209086E+02
Ar   17  0.2414225E+00  0.7037154E+00  0.2135534E+02  0.2607960E+03
Ar   18  0.3023867E+01  0.2763933E+01  0.2172372E+02  0.2699905E+02
Ar   19  0.1870095E+01  0.3746639E+02  0.2414356E+02  0.5040987E+02
Ar   20  0.2939996E+00  0.3193015E+01  0.2441574E+02  0.1444424E+03
Ar   21  0.3772534E+02  0.4624849E+00  0.2714254E+02  0.2655463E+03
Ar   22  0.2445295E+01  0.2548192E+01  0.2723243E+02  0.7505651E+02
Ar   23  0.2634774E+01  0.4290865E+00  0.2974120E+02  0.2337462E+03
Ar   24  0.3728521E+02  0.3157331E+01  0.2968348E+02  0.1582240E+03
Ar   25  0.1328440E+00  0.9153344E+00  0.3241761E+02  0.4200869E+02
Ar   26  0.2423107E+01  0.3115515E+01  0.3254943E+02  0.1062686E+03
Ar   27  0.2353058E+01  0.3774407E+02  0.3592870E+02  0.4697297E+02
Ar   28  0.3732533E+02  0.2908227E+01  0.3511559E+02  0.2735447E+03
Ar   29  0.1753759E+00  0.5715384E+01  0.3771014E+02  0.1535919E+03
Ar   30  0.2826608E+01  0.7807127E+01  0.3769798E+02  0.1576327E+03
Ar   31  0.2698281E+01  0.5423345E+01  0.2533170E+01  0.6567981E+02
Ar   32  0.3759159E+02  0.7988561E+01  0.2871929E+01  0.9366162E+02
Ar   33  0.3289582E+00  0.5150006E+01  0.4907365E+01  0.1096201E+03
Ar   34  0.3358738E+01  0.8088291E+01  0.4862920E+01  0.4869948E+03
Ar   35  0.2894118E+01  0.5748228E+01  0.7642618E+01  0.1298641E+03
Ar   36  0.3777031E+02  0.8162717E+01  0.7026866E+01  0.4458776E+03
Ar   37  0.3754701E+02  0.5532960E+01  0.1155906E+02  0.8165034E+02
Ar   38  0.2761993E+01  0.7110875E+01  0.1083648E+02  0.1013528E+03
Ar   39  0.2554272E+01  0.5074950E+01  0.1367721E+02  0.2988722E+03
Ar   40  0.2758766E+00  0.8304796E+01  0.1353134E+02  0.4585294E+03
Ar   41  0.3715919E+02  0.5552046E+01  0.1553003E+02  0.6636433E+02
Ar   42  0.2793948E+01  0.8202279E+01  0.1639549E+02  0.1927283E+03
Ar   43  0.2654467E+01  0.5124633E+01  0.1911729E+02  0.1266913E+03
Ar   44  0.2519039E+00  0.7933519E+01  0.1892750E+02  0.3449631E+03
Ar   45  0.6061635E+00  0.5648011E+01  0.2195506E+02  0.3095980E+03
Ar   46  0.3188407E+01  0.7982268E+01  0.2138682E+02  0.3372412E+03
Ar   47  0.3142820E+01  0.5461764E+01  0.2445650E+02  0.2300579E+03
Ar   48  0.5319823E+00  0.7916859E+01  0.2455259E+02  0.1226665E+03
Ar   49  0.4071334E+00  0.5238227E+01  0.2712287E+02  0.2758022E+02
Ar   50  0.3350510E+01  0.8361006E+01  0.2736790E+02  0.5315695E+03
Ar   51  0.2744792E+01  0.5726313E+01  0.3005460E+02  0.3652159E+03
Ar   52  0.4045059E+00  0.8460023E+01  0.3000114E+02  0.1958203E+03
Ar   53  0.3769929E+02  0.5343318E+01  0.3211419E+02  0.1133735E+03
Ar   54  0.3166872E+01  0.7744556E+01  0.3259787E+02  0.1360469E+03
Ar   55  0.2778487E+01  0.5112444E+01  0.3513832E+02  0.3344299E+03
Ar   56  0.2667935E+00  0.7657708E+01  0.3511192E+02  0.6708733E+03
Ar   57  0.3716308E+02  0.1054395E+02  0.1686595E+00  0.2232741E+03
Ar   58  0.2374610E+01  0.1313085E+02  0.1514148E+00  0.1308345E+03
Ar   59  0.2518553E+01  0.1073851E+02  0.2661264E+01  0.3312116E+03
Ar   60  0.3761707E+02  0.1336216E+02  0.2554621E+01  0.3946433E+03
Ar   61  0.3715376E+02  0.1096056E+02  0.5024826E+01  0.9681363E+03
Ar   62  0.2778260E+01  0.1313726E+02  0.5281598E+01  0.2115258E+03
Ar   63  0.2942663E+01  0.9906439E+01  0.7470473E+01  0.8706612E+02
Ar   64  0.3754857E+02  0.1242105E+02  0.8121365E+01  0.3749249E+03
Ar   65  0.6375270E+00  0.1039280E+02  0.1076784E+02  0.1523457E+03
Ar   66  0.3147901E+01  0.1338254E+02  0.1094542E+02  0.5403832E+02
Ar   67  0.3193978E+01  0.1055847E+02  0.1321779E+02  0.3202556E+03
Ar   68  0.1777800E+00  0.1310813E+02  0.1286050E+02  0.8817948E+02
Ar   69  0.3747869E+02  0.1087278E+02  0.1624314E+02  0.1601061E+03
Ar   70  0.2623256E+01  0.1300159E+02  0.1632210E+02  0.2790109E+03
Ar   71  0.3905398E+01  0.1062129E+02  0.1895063E+02  0.5285589E+02
Ar   72  0.3759982E+02  0.1240482E+02  0.1927836E+02  0.2569977E+03
Ar   73  0.6368670E+00  0.1058480E+02  0.2191565E+02  0.1385787E+03
Ar   74  0.3091341E+01  0.1322020E+02  0.2106330E+02  0.1703562E+03
Ar   75  0.3211843E+01  0.1089575E+02  0.2379198E+02  0.3010940E+03
Ar   76  0.4400529E+00  0.1310483E+02  0.2484165E+02  0.1302660E+03
Ar   77  0.4526741E+00  0.1051214E+02  0.2725825E+02  0.2357680E+03
Ar   78  0.2773125E+01  0.1378291E+02  0.2711475E+02  0.6506663E+03
Ar   79  0.3160886E+01  0.1052420E+02  0.3037227E+02  0.2278991E+03
Ar   80  0.1715697E+00  0.1300894E+02  0.2965854E+02  0.1670774E+03
Ar   81  0.1624700E+00  0.1145232E+02  0.3280603E+02  0.7719275E+02
Ar   82  0.3173040E+01  0.1370009E+02  0.3232950E+02  0.1379204E+03
Ar   83  0.3037626E+01  0.1050911E+02  0.3498144E+02  0.1930091E+03
Ar   84  0.3731928E+02  0.1381921E+02  0.3546081E+02  0.7656124E+03
Ar   85  0.3692744E+02  0.1604980E+02  0.2332881E+00  0.2796466E+03
Ar   86  0.2962017E+01  0.1888032E+02  0.3261219E-01  0.1861792E+03
Ar   87  0.2677266E+01  0.1550032E+02  0.2786953E+01  0.5596108E+03
Ar   88  0.3992874E+00  0.1856801E+02  0.2404459E+01  0.1836119E+03
Ar   89  0.3761956E+02  0.1604465E+02  0.5413795E+01  0.2010077E+03
Ar   90  0.2430536E+01  0.1845873E+02  0.5129035E+01  0.2128872E+02
Ar   91  0.2973691E+01  0.1584324E+02  0.7938192E+01  0.3963092E+03
Ar   92  0.3740172E+02  0.1843399E+02  0.8032409E+01  0.2844240E+03
Ar   93  0.3764402E+02  0.1551543E+02  0.1049174E+02  0.1242123E+03
Ar   94  0.2305054E+01  0.1886010E+02  0.1023154E+02  0.1947684E+03
Ar   95  0.2748689E+01  0.1556838E+02  0.1327855E+02  0.4528944E+03
Ar   96  0.5698042E+00  0.1817254E+02  0.1366449E+02  0.2634391E+03
Ar   97  0.3751033E+02  0.1484936E+02  0.1585532E+02  0.3547746E+03
Ar   98  0.3167965E+01  0.1866028E+02  0.1586769E+02  0.1611949E+03
Ar   99  0.2610340E+01  0.1594576E+02  0.1814467E+02  0.1703690E+03
Ar  100  0.3771515E+02  0.1823298E+02  0.1881499E+02  0.1983089E+03
Ar  101  0.3758782E+02  0.1593598E+02  0.2166974E+02  0.1491951E+03
Ar  102  0.2552863E+01  0.1874529E+02  0.2128716E+02  0.2764245E+03
Ar  103  0.2390190E+01  0.1592376E+02  0.2402625E+02  0.3581155E+03
Ar  104  0.3761696E+02  0.1838014E+02  0.2409309E+02  0.3984317E+03
Ar  105  0.3769027E+02  0.1613182E+02  0.2684409E+02  0.6319762E+03
Ar  106  0.2551061E+01  0.1847298E+02  0.2670462E+02  0.1323863E+03
Ar  107  0.3184861E+01  0.1631043E+02  0.2970877E+02  0.6421305E+03
Ar  108  0.9030548E-01  0.1813617E+02  0.2958224E+02  0.7762224E+03
Ar  109  0.3131387E+00  0.1655724E+02  0.3265631E+02  0.4509123E+03
Ar  110  0.2772688E+01  0.1902463E+02  0.3229809E+02  0.6178285E+02
Ar  111  0.3090448E+01  0.1574659E+02  0.3520147E+02  0.1536794E+03
Ar  112  0.6606453E-01  0.1840620E+02  0.3568240E+02  0.1422329E+03
Ar  113  0.3777134E+02  0.2151155E+02  0.6893809E-02  0.2789140E+03
Ar  114  0.2732322E+01  0.2433575E+02  0.5155418E+00  0.2209693E+03
Ar  115  0.2691561E+01  0.2153364E+02  0.2345829E+01  0.4804082E+03
Ar  116  0.3735627E+02  0.2389470E+02  0.2524086E+01  0.2562842E+03
Ar  117  0.3755572E+02  0.2101373E+02  0.5328917E+01  0.2015320E+03
Ar  118  0.2472731E+01  0.2380718E+02  0.5324268E+01  0.1367482E+03
Ar  119  0.2980726E+01  0.2128594E+02  0.7965751E+01  0.7024545E+03
Ar  120  0.3752413E+02  0.2344038E+02  0.7658373E+01  0.2946146E+03
Ar  121  0.3750437E+02  0.2067195E+02  0.1064353E+02  0.5570346E+02
Ar  122  0.2288096E+01  0.2361838E+02  0.1047350E+02  0.4434938E+03
Ar  123  0.2107680E+01  0.2119354E+02  0.1351126E+02  0.5523927E+03
Ar  124  0.3759131E+02  0.2430366E+02  0.1336365E+02  0.7428577E+03
Ar  125  0.3741828E+02  0.2139517E+02  0.1650833E+02  0.9476066E+02
Ar  126  0.2671908E+01  0.2465968E+02  0.1538542E+02  0.3786574E+03
Ar  127  0.2436710E+01  0.2086630E+02  0.1827371E+02  0.2646343E+03
Ar  128  0.1178651E+00  0.2462897E+02  0.1863438E+02  0.6167589E+02
Ar  129  0.3287753E+00  0.2145901E+02  0.2074178E+02  0.8211113E+02
Ar  130  0.2278144E+01  0.2420024E+02  0.2132232E+02  0.1720021E+03
Ar  131  0.1760786E+01  0.2153408E+02  0.2363251E+02  0.2723984E+03
Ar  132  0.3741640E+02  0.2427262E+02  0.2443941E+02  0.6060688E+02
Ar  133  0.3775658E+02  0.2141260E+02  0.2665223E+02  0.1116799E+03
Ar  134  0.2188353E+01  0.2413533E+02  0.2674616E+02  0.2256755E+03
Ar  135  0.2437269E+01  0.2117554E+02  0.2963730E+02  0.2698172E+03
Ar  136  0.3766126E+02  0.2383697E+02  0.2915381E+02  0.1681451E+03
Ar  137  0.1496882E+00  0.2146023E+02  0.3207859E+02  0.1349841E+03
Ar  138  0.2667221E+01  0.2393843E+02  0.3168061E+02  0.3965742E+03
Ar  139  0.2640208E+01  0.2157962E+02  0.3446198E+02  0.4664908E+03
Ar  140  0.3375588E-01  0.2400108E+02  0.3472146E+02  0.1250790E+03
Ar  141  0.3752616E+02  0.2675400E+02  0.1969540E+00  0.4053428E+03
Ar  142  0.2506153E+01  0.2967364E+02  0.4514175E+00  0.6616919E+03
Ar  143  0.2380429E+01  0.2700356E+02  0.3133373E+01  0.1637509E+04
Ar  144  0.3777581E+02  0.2982905E+02  0.2881705E+01  0.8892071E+03
Ar  145  0.1941631E+00  0.2612750E+02  0.5427686E+01  0.2425635E+03
Ar  146  0.2215890E+01  0.2949671E+02  0.5574797E+01  0.2313439E+03
Ar  147  0.2336753E+01  0.2598281E+02  0.8191488E+01  0.3233014E+03
Ar  148  0.3761772E+02  0.2982711E+02  0.8114304E+01  0.2362828E+03
Ar  149  0.3723354E+02  0.2721713E+02  0.1082231E+02  0.6629640E+03
Ar  150  0.2254335E+01  0.2989911E+02  0.1057208E+02  0.2007149E+03
Ar  151  0.2209386E+01  0.2763762E+02  0.1325396E+02  0.5051682E+03
Ar  152  0.3741629E+02  0.3001904E+02  0.1278321E+02  0.1839017E+03
Ar  153  0.5503601E+00  0.2747947E+02  0.1599767E+02  0.2880698E+03
Ar  154  0.3215223E+01  0.3035354E+02  0.1617528E+02  0.2413422E+03
Ar  155  0.2806967E+01  0.2699527E+02  0.1884330E+02  0.1204273E+03
Ar  156  0.1386028E+00  0.2994577E+02  0.1849798E+02  0.4937742E+03
Ar  157  0.3746797E+02  0.2790252E+02  0.2147480E+02  0.8765231E+02
Ar  158  0.3024366E+01  0.2970597E+02  0.2156437E+02  0.6293790E+02
Ar  159  0.1984818E+01  0.2678486E+02  0.2364116E+02  0.4512964E+03
Ar  160  0.1453565E-01  0.2976533E+02  0.2480143E+02  0.4296777E+02
Ar  161  0.3751835E+02  0.2709380E+02  0.2649819E+02  0.4532917E+03
Ar  162  0.2900722E+01  0.2969947E+02  0.2642460E+02  0.8293030E+02
Ar  163  0.2228956E+01  0.2656280E+02  0.2930068E+02  0.3596304E+03
Ar  164  0.9597181E+00  0.2969771E+02  0.2993934E+02  0.6659777E+02
Ar  165  0.2561212E-01  0.2685816E+02  0.3221187E+02  0.3831753E+03
Ar  166  0.3212029E+01  0.2991950E+02  0.3262305E+02  0.8029918E+03
Ar  167  0.2326887E+01  0.2699759E+02  0.3564186E+02  0.7573699E+03
Ar  168  0.9779800E-01  0.2965032E+02  0.3579830E+02  0.1838749E+03
Ar  169  0.3753303E+02  0.3252437E+02  0.6975979E+00  0.5174473E+02
Ar  170  0.2527735E+01  0.3516673E+02  0.4917000E+00  0.2127777E+03
Ar  171  0.2561576E+01  0.3284192E+02  0.3107569E+01  0.3384647E+03
Ar  172  0.3526981E+02  0.3518975E+02  0.3109397E+00  0.2572757E+03
Ar  173  0.3763203E+02  0.3234014E+02  0.5428560E+01  0.1706008E+03
Ar  174  0.2508390E+01  0.3550310E+02  0.5544793E+01  0.2284800E+03
Ar  175  0.2424307E+01  0.3294826E+02  0.7601187E+01  0.2062092E+03
Ar  176  0.3720133E+02  0.3547649E+02  0.8111197E+01  0.1453816E+03
Ar  177  0.3733482E+02  0.3259949E+02  0.1065422E+02  0.6987026E+03
Ar  178  0.2562996E+01  0.3488074E+02  0.1061620E+02  0.5476729E+03
Ar  179  0.2514808E+01  0.3264909E+02  0.1323002E+02  0.1552191E+03
Ar  180  0.4738898E+00  0.3554696E+02  0.1345012E+02  0.1240048E+03
Ar  181  0.5107234E+00  0.3296701E+02  0.1634446E+02  0.7443342E+02
Ar  182  0.3120138E+01  0.3526213E+02  0.1617382E+02  0.1018189E+03
Ar  183  0.3026337E+01  0.3285101E+02  0.1885330E+02  0.1028085E+03
Ar  184  0.2299977E+00  0.3564046E+02  0.1860576E+02  0.3092569E+03
Ar  185  0.2561916E+00  0.3180836E+02  0.2135671E+02  0.1495898E+03
Ar  186  0.2258986E+01  0.3520764E+02  0.2107945E+02  0.1352597E+02
Ar  187  0.3123246E+01  0.3296647E+02  0.2413068E+02  0.6468053E+02
Ar  188  0.3617897E+00  0.3467438E+02  0.2402658E+02  0.2238573E+03
Ar  189  0.4355075E+00  0.3313473E+02  0.2695282E+02  0.6255643E+03
Ar  190  0.3914279E+01  0.3581234E+02  0.2650836E+02  0.4038981E+03
Ar  191  0.2555754E+01  0.3331446E+02  0.2967526E+02  0.2612315E+03
Ar  192  0.3757475E+02  0.3620091E+02  0.3010156E+02  0.7469494E+02
Ar  193  0.6263790E+00  0.3280772E+02  0.3264615E+02  0.1193935E+03
Ar  194  0.2382112E+01  0.3567712E+02  0.3242597E+02  0.7267235E+03
Ar  195  0.2709131E+01  0.3206412E+02  0.3546282E+02  0.9821176E+02
Ar  196  0.3575153E+00  0.3496819E+02  0.3513227E+02  0.2915114E+03
Ar  197  0.5485584E+01  0.3716012E+02  0.1465673E+00  0.1511025E+03
Ar  198  0.8401633E+01  0.2818127E+01  0.3742450E+02  0.5884619E+03
Ar  199  0.8333726E+01  0.3769275E+02  0.2047992E+01  0.4562626E+03
Ar  200  0.5583881E+01  0.2291890E+01  0.2213231E+01  0.7535981E+03
Ar  201  0.5611106E+01  0.6211436E-01  0.4854568E+01  0.3127863E+03
Ar  202  0.8028818E+01  0.2915217E+01  0.4640348E+01  0.1635348E+03
Ar  203  0.8323804E+01  0.3754628E+02  0.8248362E+01  0.3851418E+03
Ar  204  0.5481682E+01  0.3017850E+01  0.7410010E+01  0.1611397E+03
Ar  205  0.5572623E+01  0.1137043E+01  0.1008355E+02  0.2217472E+03
Ar  206  0.8305436E+01  0.3025608E+01  0.1099246E+02  0.1602536E+03
Ar  207  0.8801548E+01  0.3763292E+02  0.1255364E+02  0.1647138E+03
Ar  208  0.5722737E+01  0.2524734E+01  0.1385598E+02  0.2644562E+03
Ar  209  0.5957954E+01  0.3061318E+00  0.1636449E+02  0.2373289E+03
Ar  210  0.8755540E+01  0.3125853E+01  0.1653930E+02  0.2740780E+02
Ar  211  0.8113109E+01  0.1403821E+00  0.1914796E+02  0.2331859E+03
Ar  212  0.5818149E+01  0.2938729E+01  0.1857666E+02  0.1740819E+03
Ar  213  0.5333450E+01  0.3741233E+02  0.2164263E+02  0.5132069E+03
Ar  214  0.7943666E+01  0.2468163E+01  0.2151171E+02  0.2837065E+03
Ar  215  0.7964333E+01  0.3771415E+02  0.2406459E+02  0.5948585E+03
Ar  216  0.5416269E+01  0.2362863E+01  0.2429110E+02  0.3367159E+03
Ar  217  0.5735265E+01  0.5422301E+00  0.2801634E+02  0.8388095E+02
Ar  218  0.7721902E+01  0.3055435E+01  0.2743820E+02  0.1871298E+03
Ar  219  0.8629506E+01  0.3726056E+02  0.3014219E+02  0.3587446E+03
Ar  220  0.5345856E+01  0.2901370E+01  0.3029412E+02  0.3320367E+03
Ar  221  0.5919045E+01  0.3751513E+02  0.3218970E+02  0.2789838E+03
Ar  222  0.8347346E+01  0.2803809E+01  0.3238414E+02  0.1844160E+03
Ar  223  0.7833699E+01  0.3750505E+02  0.3533383E+02  0.2277449E+03
Ar  224  0.5834107E+01  0.2979680E+01  0.3485138E+02  0.7023673E+02
Ar  225  0.5141128E+01  0.5430275E+01  0.2844650E+00  0.6563059E+02
Ar  226  0.8133304E+01  0.8246118E+01  0.3750654E+02  0.4706849E+03
Ar  227  0.8215844E+01  0.5857257E+01  0.2206252E+01  0.1058213E+03
Ar  228  0.5489357E+01  0.8426800E+01  0.2461709E+01  0.1270120E+03
Ar  229  0.5645260E+01  0.5603482E+01  0.5085013E+01  0.2136164E+03
Ar  230  0.8463034E+01  0.7801811E+01  0.5228428E+01  0.1897134E+03
Ar  231  0.8813639E+01  0.5115290E+01  0.7304149E+01  0.4975935E+03
Ar  232  0.6015163E+01  0.7756918E+01  0.7426981E+01  0.5897386E+02
Ar  233  0.6125444E+01  0.5785376E+01  0.1023374E+02  0.7631416E+03
Ar  234  0.8429445E+01  0.8266822E+01  0.1035172E+02  0.3927479E+03
Ar  235  0.8410118E+01  0.5547186E+01  0.1349945E+02  0.1483914E+03
Ar  236  0.5700574E+01  0.8072959E+01  0.1285615E+02  0.1178543E+03
Ar  237  0.5148919E+01  0.5269301E+01  0.1636010E+02  0.1281619E+03
Ar  238  0.8496290E+01  0.7788020E+01  0.1630743E+02  0.7752725E+03
Ar  239  0.8169127E+01  0.5571162E+01  0.1897004E+02  0.6750067E+03
Ar  240  0.5342787E+01  0.7643800E+01  0.1885893E+02  0.8791761E+02
Ar  241  0.5758104E+01  0.4945076E+01  0.2185896E+02  0.2446593E+03
Ar  242  0.8400045E+01  0.8552270E+01  0.2128305E+02  0.5086388E+02
Ar  243  0.8629139E+01  0.5741616E+01  0.2428390E+02  0.4352838E+03
Ar  244  0.5700884E+01  0.7804774E+01  0.2473831E+02  0.6460498E+02
Ar  245  0.5728139E+01  0.5987352E+01  0.2782278E+02  0.3870454E+03
Ar  246  0.9153698E+01  0.8169260E+01  0.2727099E+02  0.2427680E+02
Ar  247  0.8754422E+01  0.5622437E+01  0.2982243E+02  0.5665973E+03
Ar  248  0.5606174E+01  0.8237739E+01  0.3030462E+02  0.2751209E+03
Ar  249  0.6435943E+01  0.5537918E+01  0.3233865E+02  0.4094091E+02
Ar  250  0.8834556E+01  0.8130737E+01  0.3225725E+02  0.5824539E+03
Ar  251  0.8479279E+01  0.5484514E+01  0.3525617E+02  0.1458659E+03
Ar  252  0.5705143E+01  0.7942319E+01  0.3513579E+02  0.3013394E+03
Ar  253  0.5537935E+01  0.1091204E+02  0.3743824E+02  0.1431323E+02
Ar  254  0.8024527E+01  0.1351974E+02  0.9840244E-01  0.9421651E+02
Ar  255  0.8463482E+01  0.1054104E+02  0.2031188E+01  0.8179858E+02
Ar  256  0.5685831E+01  0.1306339E+02  0.2494892E+01  0.2823203E+03
Ar  257  0.6101057E+01  0.1071045E+02  0.5284846E+01  0.2612341E+03
Ar  258  0.8412148E+01  0.1345609E+02  0.5117764E+01  0.1498254E+03
Ar  259  0.8634050E+01  0.1043614E+02  0.7507165E+01  0.1050432E+03
Ar  260  0.5208826E+01  0.1292866E+02  0.7983170E+01  0.1578113E+03
Ar  261  0.5624174E+01  0.1039597E+02  0.1012943E+02  0.4606481E+03
Ar  262  0.8171962E+01  0.1266905E+02  0.1007505E+02  0.7341001E+02
Ar  263  0.8191999E+01  0.1038818E+02  0.1319261E+02  0.1449146E+03
Ar  264  0.5837913E+01  0.1355514E+02  0.1333272E+02  0.1875870E+03
Ar  265  0.5648162E+01  0.9828088E+01  0.1572100E+02  0.5249219E+02
Ar  266  0.8451907E+01  0.1307301E+02  0.1620776E+02  0.3298624E+03
Ar  267  0.8650587E+01  0.1079054E+02  0.1887208E+02  0.7104533E+02
Ar  268  0.6213997E+01  0.1358425E+02  0.1894100E+02  0.1512960E+03
Ar  269  0.6111807E+01  0.1095858E+02  0.2180282E+02  0.4971633E+02
Ar  270  0.8680955E+01  0.1330374E+02  0.2192950E+02  0.8037460E+02
Ar  271  0.8472937E+01  0.1085448E+02  0.2481511E+02  0.1505050E+03
Ar  272  0.5466414E+01  0.1343802E+02  0.2448717E+02  0.3294803E+03
Ar  273  0.5750770E+01  0.1130088E+02  0.2745167E+02  0.3839321E+03
Ar  274  0.8681959E+01  0.1386326E+02  0.2714964E+02  0.9966281E+03
Ar  275  0.8144238E+01  0.1118253E+02  0.2989225E+02  0.4629090E+02
Ar  276  0.6176706E+01  0.1398291E+02  0.2945865E+02  0.9456603E+03
Ar  277  0.6611764E+01  0.1044041E+02  0.3292501E+02  0.5917154E+02
Ar  278  0.8501411E+01  0.1389812E+02  0.3247658E+02  0.7640134E+03
Ar  279  0.8807734E+01  0.1088673E+02  0.3536300E+02  0.3869512E+03
Ar  280  0.5812719E+01  0.1336844E+02  0.3500026E+02  0.1514467E+03
Ar  281  0.5032337E+01  0.1605393E+02  0.3777347E+02  0.2793640E+03
Ar  282  0.7757822E+01  0.1912131E+02  0.2360080E+00  0.3308982E+03
Ar  283  0.8206521E+01  0.1594043E+02  0.2499021E+01  0.2715672E+03
Ar  284  0.4840000E+01  0.1835263E+02  0.3007577E+01  0.4679438E+03
Ar  285  0.5417656E+01  0.1573492E+02  0.5372525E+01  0.3750887E+02
Ar  286  0.7907370E+01  0.1814713E+02  0.5230891E+01  0.3471138E+03
Ar  287  0.7629692E+01  0.1561509E+02  0.7965623E+01  0.5054138E+02
Ar  288  0.4989813E+01  0.1864748E+02  0.7757874E+01  0.3618652E+03
Ar  289  0.5430505E+01  0.1609918E+02  0.1047996E+02  0.9437345E+02
Ar  290  0.7989629E+01  0.1891504E+02  0.1058007E+02  0.1557576E+02
Ar  291  0.7868070E+01  0.1604555E+02  0.1311099E+02  0.2516775E+03
Ar  292  0.4931795E+01  0.1851692E+02  0.1287757E+02  0.3833273E+03
Ar  293  0.5399876E+01  0.1582150E+02  0.1586685E+02  0.2516974E+03
Ar  294  0.7854461E+01  0.1869401E+02  0.1576185E+02  0.6871366E+03
Ar  295  0.8117886E+01  0.1652821E+02  0.1936183E+02  0.2514595E+03
Ar  296  0.5281796E+01  0.1832492E+02  0.1890279E+02  0.1565187E+03
Ar  297  0.5327259E+01  0.1563161E+02  0.2149261E+02  0.4253307E+03
Ar  298  0.7593559E+01  0.1896930E+02  0.2181729E+02  0.1340371E+03
Ar  299  0.7308648E+01  0.1619538E+02  0.2390865E+02  0.1753264E+02
Ar  300  0.4735575E+01  0.1910040E+02  0.2416992E+02  0.4934102E+03
Ar  301  0.5331157E+01  0.1656950E+02  0.2644498E+02  0.3214579E+02
Ar  302  0.8407888E+01  0.1917026E+02  0.2572735E+02  0.4350537E+02
Ar  303  0.8882499E+01  0.1665901E+02  0.2953483E+02  0.3000373E+03
Ar  304  0.5936837E+01  0.1897012E+02  0.2924422E+02  0.1122190E+03
Ar  305  0.5656960E+01  0.1641268E+02  0.3278431E+02  0.2119136E+03
Ar  306  0.8464123E+01  0.1872121E+02  0.3217928E+02  0.3430811E+03
Ar  307  0.7867524E+01  0.1593803E+02  0.3537788E+02  0.1017136E+03
Ar  308  0.5173908E+01  0.1872508E+02  0.3521363E+02  0.4176134E+03
Ar  309  0.5376094E+01  0.2182310E+02  0.2450398E+00  0.2080667E+03
Ar  310  0.8216756E+01  0.2363592E+02  0.6255258E+00  0.4203310E+03
Ar  311  0.8173034E+01  0.2120332E+02  0.3115078E+01  0.6349004E+02
Ar  312  0.5784235E+01  0.2457469E+02  0.2906709E+01  0.3023988E+03
Ar  313  0.5187829E+01  0.2105483E+02  0.4872723E+01  0.9943572E+02
Ar  314  0.8023524E+01  0.2443163E+02  0.5580859E+01  0.2626503E+02
Ar  315  0.8426950E+01  0.2129869E+02  0.7869075E+01  0.2464218E+03
Ar  316  0.5559717E+01  0.2365132E+02  0.8296977E+01  0.4391562E+02
Ar  317  0.5256387E+01  0.2118651E+02  0.1074600E+02  0.7889098E+02
Ar  318  0.8119230E+01  0.2452304E+02  0.1066831E+02  0.8454654E+02
Ar  319  0.7991048E+01  0.2118831E+02  0.1339718E+02  0.2632155E+03
Ar  320  0.5667078E+01  0.2415242E+02  0.1347222E+02  0.3126129E+03
Ar  321  0.5001216E+01  0.2174801E+02  0.1615128E+02  0.2708506E+03
Ar  322  0.8238869E+01  0.2381794E+02  0.1658777E+02  0.1445473E+03
Ar  323  0.8077783E+01  0.2115986E+02  0.1877774E+02  0.2202631E+03
Ar  324  0.5296036E+01  0.2454041E+02  0.1845743E+02  0.3987089E+03
Ar  325  0.5116605E+01  0.2148197E+02  0.2178116E+02  0.4364750E+03
Ar  326  0.7913866E+01  0.2406971E+02  0.2044326E+02  0.3566857E+03
Ar  327  0.7649084E+01  0.2214597E+02  0.2364003E+02  0.2619944E+02
Ar  328  0.5096768E+01  0.2465545E+02  0.2371747E+02  0.1177592E+02
Ar  329  0.5457781E+01  0.2173973E+02  0.2671380E+02  0.9790564E+02
Ar  330  0.8186839E+01  0.2438784E+02  0.2680954E+02  0.1735156E+03
Ar  331  0.8094672E+01  0.2205700E+02  0.2957656E+02  0.6038463E+03
Ar  332  0.5287495E+01  0.2437767E+02  0.2922735E+02  0.4193506E+03
Ar  333  0.5455649E+01  0.2129252E+02  0.3199989E+02  0.4192294E+03
Ar  334  0.7692029E+01  0.2451802E+02  0.3243231E+02  0.3428243E+03
Ar  335  0.7674600E+01  0.2183512E+02  0.3511637E+02  0.5785832E+03
Ar  336  0.4731952E+01  0.2423297E+02  0.3548992E+02  0.1812236E+03
Ar  337  0.5138870E+01  0.2664310E+02  0.3550962E+00  0.8686791E+02
Ar  338  0.7867559E+01  0.2928025E+02  0.3777952E+02  0.1289530E+03
Ar  339  0.7884448E+01  0.2711467E+02  0.2950157E+01  0.1013409E+03
Ar  340  0.5006578E+01  0.2926295E+02  0.3043023E+01  0.6126279E+02
Ar  341  0.5894384E+01  0.2699885E+02  0.5901096E+01  0.1417610E+03
Ar  342  0.8202834E+01  0.2942941E+02  0.5309776E+01  0.1740849E+03
Ar  343  0.8415774E+01  0.2690998E+02  0.8174496E+01  0.6533784E+02
Ar  344  0.5058047E+01  0.2937022E+02  0.8580465E+01  0.1599002E+03
Ar  345  0.5141180E+01  0.2639502E+02  0.1088985E+02  0.4737936E+03
Ar  346  0.8228803E+01  0.3039947E+02  0.1035645E+02  0.4336994E+03
Ar  347  0.7881964E+01  0.2691223E+02  0.1363395E+02  0.4982576E+02
Ar  348  0.5665354E+01  0.2993508E+02  0.1311964E+02  0.1641797E+03
Ar  349  0.5492265E+01  0.2745102E+02  0.1624432E+02  0.5589772E+02
Ar  350  0.8047758E+01  0.3036645E+02  0.1617771E+02  0.3598969E+03
Ar  351  0.8031567E+01  0.2703488E+02  0.1830245E+02  0.3881835E+03
Ar  352  0.5401515E+01  0.3001516E+02  0.1887225E+02  0.3838571E+03
Ar  353  0.5545449E+01  0.2732355E+02  0.2103048E+02  0.2013530E+02
Ar  354  0.8181738E+01  0.2937133E+02  0.2060666E+02  0.1594516E+03
Ar  355  0.7754972E+01  0.2716548E+02  0.2428520E+02  0.5181942E+03
Ar  356  0.5207064E+01  0.2926618E+02  0.2392644E+02  0.1417047E+03
Ar  357  0.4675858E+01  0.2686143E+02  0.2669489E+02  0.4552678E+01
Ar  358  0.7239558E+01  0.2944725E+02  0.2668547E+02  0.8364136E+03
Ar  359  0.7701084E+01  0.2733938E+02  0.2978507E+02  0.2247163E+03
Ar  360  0.4724531E+01  0.2919153E+02  0.2944944E+02  0.1813762E+03
Ar  361  0.4859098E+01  0.2686759E+02  0.3248791E+02  0.3227557E+03
Ar  362  0.7499728E+01  0.2945759E+02  0.3251765E+02  0.7024983E+01
Ar  363  0.7306101E+01  0.2662729E+02  0.3543692E+02  0.7622167E+02
Ar  364  0.5462351E+01  0.2949821E+02  0.3546060E+02  0.3712501E+02
Ar  365  0.5515661E+01  0.3200228E+02  0.6261090E+00  0.5889549E+03
Ar  366  0.8047981E+01  0.3467746E+02  0.2813721E+00  0.7014784E+03
Ar  367  0.7894731E+01  0.3221982E+02  0.3316571E+01  0.2784777E+03
Ar  368  0.5774304E+01  0.3462421E+02  0.2881998E+01  0.3846272E+03
Ar  369  0.4966637E+01  0.3217554E+02  0.5388247E+01  0.1256437E+03
Ar  370  0.8465707E+01  0.3570777E+02  0.5000088E+01  0.4175087E+02
Ar  371  0.7924354E+01  0.3266226E+02  0.7594368E+01  0.2121924E+03
Ar  372  0.5163537E+01  0.3566610E+02  0.8212325E+01  0.1069251E+03
Ar  373  0.5389422E+01  0.3247467E+02  0.1028945E+02  0.1954450E+03
Ar  374  0.9355905E+01  0.3456318E+02  0.1060917E+02  0.1311299E+03
Ar  375  0.7934530E+01  0.3299644E+02  0.1363729E+02  0.1389664E+03
Ar  376  0.5815317E+01  0.3584471E+02  0.1176309E+02  0.1272803E+03
Ar  377  0.5138373E+01  0.3298846E+02  0.1558869E+02  0.1102754E+03
Ar  378  0.8720450E+01  0.3548051E+02  0.1633691E+02  0.5722452E+02
Ar  379  0.8347159E+01  0.3239874E+02  0.1875923E+02  0.2328855E+03
Ar  380  0.5946296E+01  0.3498538E+02  0.1886130E+02  0.1298872E+03
Ar  381  0.5890732E+01  0.3225998E+02  0.2130316E+02  0.8430739E+02
Ar  382  0.8104454E+01  0.3500363E+02  0.2131724E+02  0.4571336E+02
Ar  383  0.8116722E+01  0.3138429E+02  0.2349698E+02  0.1452005E+03
Ar  384  0.5723817E+01  0.3489805E+02  0.2380361E+02  0.1001016E+03
Ar  385  0.4998939E+01  0.3261247E+02  0.2683066E+02  0.1894544E+03
Ar  386  0.7726757E+01  0.3459884E+02  0.2668285E+02  0.1269926E+03
Ar  387  0.7193638E+01  0.3251265E+02  0.2942857E+02  0.2273806E+03
Ar  388  0.5050960E+01  0.3526597E+02  0.2990589E+02  0.3607829E+03
Ar  389  0.4917748E+01  0.3303125E+02  0.3255868E+02  0.5296935E+02
Ar  390  0.8000195E+01  0.3474363E+02  0.3257471E+02  0.4781898E+03
Ar  391  0.7973849E+01  0.3226796E+02  0.3539042E+02  0.7996170E+02
Ar  392  0.5014297E+01  0.3481116E+02  0.3521965E+02  0.4777894E+02
Ar  393  0.1093562E+02  0.4669209E+00  0.3711938E+02  0.1611190E+03
Ar  394  0.1335042E+02  0.2735371E+01  0.5746875E-02  0.1087339E+02
Ar  395  0.1333513E+02  0.3775670E+02  0.2054182E+01  0.3426077E+03
Ar  396  0.1085631E+02  0.2978061E+01  0.2246062E+01  0.5563301E+03
Ar  397  0.1115926E+02  0.2282298E+00  0.5346479E+01  0.2257362E+03
Ar  398  0.1412938E+02  0.2167431E+01  0.5163743E+01  0.5071136E+03
Ar  399  0.1396040E+02  0.3762810E+02  0.8224822E+01  0.2344478E+03
Ar  400  0.1079770E+02  0.2474776E+01  0.7946672E+01  0.1737125E+03
Ar  401  0.1160619E+02  0.3776529E+02  0.1049620E+02  0.1632210E+03
Ar  402  0.1416261E+02  0.2136705E+01  0.1055089E+02  0.3172074E+03
Ar  403  0.1376030E+02  0.3723661E+02  0.1336484E+02  0.2653050E+03
Ar  404  0.1115164E+02  0.2640301E+01  0.1313727E+02  0.9382767E+02
Ar  405  0.1177753E+02  0.3763217E+02  0.1616974E+02  0.2753629E+03
Ar  406  0.1297865E+02  0.2868471E+01  0.1645633E+02  0.2178051E+03
Ar  407  0.1409234E+02  0.4501274E-01  0.1910592E+02  0.2778905E+03
Ar  408  0.1071589E+02  0.2312794E+01  0.1918286E+02  0.4645366E+03
Ar  409  0.1042290E+02  0.3765845E+02  0.2162456E+02  0.6397721E+03
Ar  410  0.1349124E+02  0.2355912E+01  0.2151217E+02  0.1056107E+04
Ar  411  0.1299479E+02  0.3755949E+02  0.2390383E+02  0.2925038E+03
Ar  412  0.1060390E+02  0.2701923E+01  0.2416499E+02  0.1699582E+03
Ar  413  0.9870779E+01  0.5440087E+00  0.2702316E+02  0.5863311E+03
Ar  414  0.1351314E+02  0.2455696E+01  0.2733070E+02  0.1566296E+03
Ar  415  0.1260378E+02  0.3741064E+02  0.3023758E+02  0.3136268E+03
Ar  416  0.1090275E+02  0.3015729E+01  0.2988156E+02  0.5606406E+02
Ar  417  0.1035909E+02  0.3750923E+02  0.3300995E+02  0.6528122E+03
Ar  418  0.1375214E+02  0.2481295E+01  0.3247899E+02  0.2978180E+03
Ar  419  0.1382790E+02  0.8421870E-03  0.3541089E+02  0.2963551E+03
Ar  420  0.1099727E+02  0.2915513E+01  0.3498538E+02  0.2110828E+03
Ar  421  0.1129407E+02  0.5748865E+01  0.3411579E+00  0.2190776E+03
Ar  422  0.1438141E+02  0.8381707E+01  0.3748622E+02  0.5577779E+03
Ar  423  0.1391495E+02  0.5897103E+01  0.2643390E+01  0.2368748E+03
Ar  424  0.1114880E+02  0.7770571E+01  0.2737475E+01  0.1564490E+03
Ar  425  0.1134234E+02  0.5158172E+01  0.5094387E+01  0.3137316E+03
Ar  426  0.1383338E+02  0.8153318E+01  0.5301065E+01  0.1716439E+03
Ar  427  0.1322427E+02  0.4995622E+01  0.8133164E+01  0.1584873E+03
Ar  428  0.1149863E+02  0.7859899E+01  0.8354407E+01  0.9901053E+02
Ar  429  0.1066514E+02  0.5339658E+01  0.1065362E+02  0.3809869E+02
Ar  430  0.1408260E+02  0.8660867E+01  0.1128399E+02  0.7588829E+02
Ar  431  0.1362279E+02  0.4787993E+01  0.1246210E+02  0.4523738E+03
Ar  432  0.1098989E+02  0.8036189E+01  0.1303988E+02  0.2052929E+03
Ar  433  0.1114837E+02  0.5654434E+01  0.1550790E+02  0.6195437E+03
Ar  434  0.1389124E+02  0.8626410E+01  0.1692079E+02  0.1549599E+03
Ar  435  0.1326817E+02  0.5008926E+01  0.1901415E+02  0.1774322E+03
Ar  436  0.1120709E+02  0.7727498E+01  0.1875774E+02  0.3970826E+03
Ar  437  0.1062784E+02  0.5018478E+01  0.2144083E+02  0.1175827E+03
Ar  438  0.1318340E+02  0.7994870E+01  0.2128019E+02  0.2917852E+03
Ar  439  0.1282462E+02  0.5261637E+01  0.2392028E+02  0.8386834E+03
Ar  440  0.1124284E+02  0.8314286E+01  0.2400069E+02  0.1128829E+03
Ar  441  0.1107276E+02  0.5119059E+01  0.2713015E+02  0.2438474E+03
Ar  442  0.1362051E+02  0.7936818E+01  0.2668740E+02  0.2590813E+03
Ar  443  0.1382740E+02  0.5327888E+01  0.2963976E+02  0.2438503E+02
Ar  444  0.1216523E+02  0.8316064E+01  0.2951760E+02  0.1156547E+03
Ar  445  0.1090713E+02  0.5427697E+01  0.3258350E+02  0.9751016E+02
Ar  446  0.1362693E+02  0.8015376E+01  0.3265149E+02  0.1245326E+03
Ar  447  0.1369541E+02  0.5335187E+01  0.3473710E+02  0.6212198E+03
Ar  448  0.1120979E+02  0.7702075E+01  0.3513444E+02  0.3817981E+03
Ar  449  0.1130234E+02  0.1000416E+02  0.3741863E+02  0.5079009E+03
Ar  450  0.1368761E+02  0.1343851E+02  0.3770324E+02  0.2542664E+03
Ar  451  0.1368350E+02  0.1068151E+02  0.2394384E+01  0.5461615E+03
Ar  452  0.1117661E+02  0.1312457E+02  0.2361425E+01  0.3906342E+03
Ar  453  0.1133988E+02  0.1048825E+02  0.5097080E+01  0.1240486E+04
Ar  454  0.1300597E+02  0.1348352E+02  0.5217743E+01  0.2116746E+03
Ar  455  0.1339103E+02  0.1072605E+02  0.7936703E+01  0.3312507E+03
Ar  456  0.1080520E+02  0.1316228E+02  0.7988246E+01  0.1157697E+03
Ar  457  0.1080726E+02  0.1079039E+02  0.1100737E+02  0.8216227E+02
Ar  458  0.1371800E+02  0.1291122E+02  0.1098734E+02  0.5133606E+03
Ar  459  0.1367223E+02  0.1106646E+02  0.1364533E+02  0.6219662E+01
Ar  460  0.1115266E+02  0.1389905E+02  0.1389393E+02  0.9589242E+02
Ar  461  0.1142950E+02  0.1059047E+02  0.1631772E+02  0.8594049E+02
Ar  462  0.1352073E+02  0.1346663E+02  0.1689570E+02  0.3359083E+03
Ar  463  0.1365281E+02  0.1091886E+02  0.1955004E+02  0.4172600E+02
Ar  464  0.1105957E+02  0.1346955E+02  0.1899609E+02  0.9413835E+02
Ar  465  0.1108399E+02  0.1068105E+02  0.2172046E+02  0.4088272E+03
Ar  466  0.1302832E+02  0.1355078E+02  0.2155914E+02  0.3711306E+03
Ar  467  0.1384412E+02  0.1105794E+02  0.2393372E+02  0.1816240E+03
Ar  468  0.1132446E+02  0.1375761E+02  0.2429948E+02  0.2497853E+03
Ar  469  0.1164436E+02  0.1072579E+02  0.2670377E+02  0.1397494E+03
Ar  470  0.1378734E+02  0.1402081E+02  0.2654453E+02  0.2073096E+03
Ar  471  0.1354487E+02  0.1188889E+02  0.2979787E+02  0.5307618E+03
Ar  472  0.1079163E+02  0.1350228E+02  0.2956196E+02  0.1019385E+04
Ar  473  0.1139628E+02  0.1070441E+02  0.3238838E+02  0.4149478E+03
Ar  474  0.1365488E+02  0.1400588E+02  0.3232403E+02  0.1256416E+03
Ar  475  0.1471410E+02  0.1145644E+02  0.3431196E+02  0.6742711E+03
Ar  476  0.1086399E+02  0.1383404E+02  0.3487969E+02  0.1660108E+03
Ar  477  0.1090017E+02  0.1600350E+02  0.3733464E+02  0.1549560E+03
Ar  478  0.1353272E+02  0.1865847E+02  0.5636038E+00  0.1980428E+03
Ar  479  0.1302166E+02  0.1642671E+02  0.3168784E+01  0.3347940E+02
Ar  480  0.1056496E+02  0.1869518E+02  0.2488215E+01  0.1592170E+03
Ar  481  0.1063788E+02  0.1609553E+02  0.6140928E+01  0.2200227E+03
Ar  482  0.1358749E+02  0.1874516E+02  0.6231421E+01  0.6542204E+02
Ar  483  0.1386221E+02  0.1574211E+02  0.8337291E+01  0.5809479E+02
Ar  484  0.1113557E+02  0.1825288E+02  0.9093847E+01  0.4674060E+02
Ar  485  0.1054388E+02  0.1519224E+02  0.1088469E+02  0.3046714E+03
Ar  486  0.1433640E+02  0.1899115E+02  0.1114925E+02  0.2683607E+03
Ar  487  0.1405304E+02  0.1610524E+02  0.1283878E+02  0.4469495E+03
Ar  488  0.1099677E+02  0.1804126E+02  0.1284690E+02  0.6798099E+03
Ar  489  0.1026492E+02  0.1630989E+02  0.1614524E+02  0.5025275E+02
Ar  490  0.1324256E+02  0.1826504E+02  0.1641263E+02  0.1677718E+03
Ar  491  0.1409760E+02  0.1624662E+02  0.1908376E+02  0.6674582E+02
Ar  492  0.1047842E+02  0.1877148E+02  0.1879926E+02  0.1469020E+03
Ar  493  0.1128037E+02  0.1657168E+02  0.2175147E+02  0.2449613E+03
Ar  494  0.1334899E+02  0.1957574E+02  0.2122719E+02  0.8029902E+03
Ar  495  0.1384675E+02  0.1710085E+02  0.2394101E+02  0.1562760E+03
Ar  496  0.1125442E+02  0.1961424E+02  0.2388609E+02  0.5302225E+03
Ar  497  0.1152771E+02  0.1643610E+02  0.2641985E+02  0.1609281E+03
Ar  498  0.1387538E+02  0.1909208E+02  0.2667070E+02  0.3870418E+03
Ar  499  0.1467464E+02  0.1612605E+02  0.2939657E+02  0.2172660E+03
Ar  500  0.1181906E+02  0.1842779E+02  0.2982811E+02  0.1641158E+03
Ar  501  0.1135902E+02  0.1688263E+02  0.3303673E+02  0.2252876E+03
Ar  502  0.1420691E+02  0.1890066E+02  0.3322488E+02  0.5156615E+03
Ar  503  0.1409138E+02  0.1564909E+02  0.3530548E+02  0.2200546E+03
Ar  504  0.1079171E+02  0.1908151E+02  0.3563295E+02  0.6464324E+02
Ar  505  0.1123820E+02  0.2152595E+02  0.7095254E-01  0.3729238E+03
Ar  506  0.1334319E+02  0.2404296E+02  0.2033110E+00  0.6899068E+02
Ar  507  0.1319441E+02  0.2117503E+02  0.3030627E+01  0.3681234E+03
Ar  508  0.1096631E+02  0.2416359E+02  0.3234668E+01  0.2032083E+03
Ar  509  0.1112546E+02  0.2174572E+02  0.5613184E+01  0.4245517E+02
Ar  510  0.1339719E+02  0.2410911E+02  0.5558356E+01  0.2067409E+03
Ar  511  0.1424353E+02  0.2122566E+02  0.8470859E+01  0.5541308E+03
Ar  512  0.1060756E+02  0.2410862E+02  0.8454228E+01  0.2640622E+03
Ar  513  0.1060505E+02  0.2112591E+02  0.1056569E+02  0.9797764E+02
Ar  514  0.1303434E+02  0.2427480E+02  0.1111688E+02  0.1208867E+03
Ar  515  0.1382367E+02  0.2099809E+02  0.1399025E+02  0.7902995E+03
Ar  516  0.1036263E+02  0.2410860E+02  0.1352414E+02  0.2228981E+03
Ar  517  0.1058591E+02  0.2131240E+02  0.1576377E+02  0.2812192E+03
Ar  518  0.1283496E+02  0.2453041E+02  0.1580941E+02  0.6256053E+03
Ar  519  0.1298242E+02  0.2184613E+02  0.1795826E+02  0.1437361E+02
Ar  520  0.1115079E+02  0.2490457E+02  0.1883120E+02  0.1787445E+03
Ar  521  0.1064602E+02  0.2159007E+02  0.2108426E+02  0.2381846E+03
Ar  522  0.1314443E+02  0.2422738E+02  0.2158378E+02  0.8089752E+02
Ar  523  0.1346195E+02  0.2195662E+02  0.2418800E+02  0.1506336E+03
Ar  524  0.1025835E+02  0.2448977E+02  0.2394387E+02  0.1055617E+04
Ar  525  0.1050127E+02  0.2180557E+02  0.2633723E+02  0.1761765E+03
Ar  526  0.1249615E+02  0.2429467E+02  0.2684266E+02  0.2200518E+03
Ar  527  0.1332302E+02  0.2168964E+02  0.2918509E+02  0.8946407E+02
Ar  528  0.1012615E+02  0.2479333E+02  0.2958602E+02  0.8505567E+02
Ar  529  0.1085439E+02  0.2147263E+02  0.3226449E+02  0.3444686E+03
Ar  530  0.1305905E+02  0.2445711E+02  0.3146659E+02  0.5211496E+03
Ar  531  0.1383582E+02  0.2192730E+02  0.3529385E+02  0.3763748E+03
Ar  532  0.1051815E+02  0.2441086E+02  0.3516397E+02  0.2605397E+03
Ar  533  0.1017274E+02  0.2671762E+02  0.4068844E+00  0.1563866E+03
Ar  534  0.1333435E+02  0.2941203E+02  0.3743628E+02  0.4312869E+03
Ar  535  0.1352787E+02  0.2636415E+02  0.2823914E+01  0.1631540E+02
Ar  536  0.1082345E+02  0.2940865E+02  0.2993697E+01  0.2358961E+03
Ar  537  0.1091792E+02  0.2711519E+02  0.5429448E+01  0.4241869E+03
Ar  538  0.1345926E+02  0.2980672E+02  0.5266921E+01  0.7804019E+03
Ar  539  0.1323671E+02  0.2700993E+02  0.8300300E+01  0.5336887E+03
Ar  540  0.1082058E+02  0.2963378E+02  0.7677587E+01  0.1448847E+03
Ar  541  0.1056935E+02  0.2715424E+02  0.1108293E+02  0.4680983E+02
Ar  542  0.1422369E+02  0.2959359E+02  0.1088605E+02  0.8341086E+01
Ar  543  0.1286328E+02  0.2724737E+02  0.1368593E+02  0.9255437E+02
Ar  544  0.1057895E+02  0.2987507E+02  0.1315214E+02  0.8201693E+03
Ar  545  0.1073168E+02  0.2719833E+02  0.1628263E+02  0.4292956E+02
Ar  546  0.1342039E+02  0.2937973E+02  0.1614810E+02  0.1607882E+03
Ar  547  0.1370061E+02  0.2726368E+02  0.1882614E+02  0.1298056E+03
Ar  548  0.1073350E+02  0.2973991E+02  0.1837004E+02  0.9993263E+03
Ar  549  0.1018057E+02  0.2665457E+02  0.2121674E+02  0.1797190E+03
Ar  550  0.1345582E+02  0.2977696E+02  0.2121991E+02  0.8245686E+02
Ar  551  0.1301072E+02  0.2693649E+02  0.2388462E+02  0.2129977E+03
Ar  552  0.1060191E+02  0.2940474E+02  0.2385925E+02  0.7205093E+03
Ar  553  0.1035622E+02  0.2720007E+02  0.2680299E+02  0.2582069E+03
Ar  554  0.1289303E+02  0.2947490E+02  0.2685747E+02  0.1887785E+03
Ar  555  0.1270276E+02  0.2715023E+02  0.2944435E+02  0.1406791E+03
Ar  556  0.1021905E+02  0.2983438E+02  0.2949865E+02  0.2878001E+03
Ar  557  0.9944730E+01  0.2720884E+02  0.3289893E+02  0.5397962E+03
Ar  558  0.1306561E+02  0.2895463E+02  0.3269003E+02  0.6226627E+02
Ar  559  0.1350517E+02  0.2622048E+02  0.3477551E+02  0.2997738E+03
Ar  560  0.1039918E+02  0.2925344E+02  0.3553779E+02  0.1692533E+03
Ar  561  0.1096942E+02  0.3239973E+02  0.3719465E+02  0.8007445E+03
Ar  562  0.1317396E+02  0.3511588E+02  0.1167206E+00  0.2797002E+02
Ar  563  0.1262861E+02  0.3208932E+02  0.2829624E+01  0.3072239E+03
Ar  564  0.1109245E+02  0.3528374E+02  0.2427565E+01  0.2017210E+03
Ar  565  0.1056023E+02  0.3285906E+02  0.5476175E+01  0.9828030E+02
Ar  566  0.1335553E+02  0.3509582E+02  0.4975060E+01  0.9111523E+02
Ar  567  0.1369623E+02  0.3194997E+02  0.7980431E+01  0.4704792E+03
Ar  568  0.1151550E+02  0.3524898E+02  0.7798969E+01  0.3221743E+02
Ar  569  0.1130758E+02  0.3204118E+02  0.1070610E+02  0.3167871E+03
Ar  570  0.1319805E+02  0.3469998E+02  0.1120666E+02  0.1314977E+03
Ar  571  0.1382482E+02  0.3218841E+02  0.1366141E+02  0.5715262E+03
Ar  572  0.1099385E+02  0.3469315E+02  0.1366519E+02  0.3131086E+03
Ar  573  0.1122358E+02  0.3246769E+02  0.1643458E+02  0.7293212E+03
Ar  574  0.1400014E+02  0.3469995E+02  0.1624719E+02  0.2304198E+02
Ar  575  0.1384183E+02  0.3257892E+02  0.1933010E+02  0.3911272E+03
Ar  576  0.1139752E+02  0.3580107E+02  0.1880887E+02  0.1008674E+04
Ar  577  0.1090819E+02  0.3222949E+02  0.2144227E+02  0.1037204E+03
Ar  578  0.1310797E+02  0.3465551E+02  0.2160457E+02  0.2022425E+03
Ar  579  0.1339223E+02  0.3217619E+02  0.2414604E+02  0.9246575E+03
Ar  580  0.1048272E+02  0.3492771E+02  0.2370763E+02  0.3900193E+03
Ar  581  0.1051248E+02  0.3193376E+02  0.2621841E+02  0.2172565E+03
Ar  582  0.1234794E+02  0.3500858E+02  0.2731288E+02  0.2202448E+03
Ar  583  0.1331479E+02  0.3131355E+02  0.2989833E+02  0.3886033E+03
Ar  584  0.1053606E+02  0.3337594E+02  0.2976995E+02  0.2474487E+03
Ar  585  0.1042626E+02  0.3176537E+02  0.3277075E+02  0.1346577E+03
Ar  586  0.1360675E+02  0.3467390E+02  0.3291803E+02  0.2336656E+03
Ar  587  0.1369867E+02  0.3219255E+02  0.3503256E+02  0.4203408E+03
Ar  588  0.1063303E+02  0.3497393E+02  0.3512542E+02  0.8142479E+02
Ar  589  0.1638072E+02  0.4262869E+00  0.3771629E+02  0.3090747E+03
Ar  590  0.1896815E+02  0.2632262E+01  0.3764935E+02  0.6875421E+02
Ar  591  0.1929547E+02  0.3237085E+00  0.2736164E+01  0.4327948E+03
Ar  592  0.1635834E+02  0.2465053E+01  0.2665612E+01  0.3156664E+03
Ar  593  0.1650088E+02  0.3772724E+02  0.5473775E+01  0.1005750E+03
Ar  594  0.1852411E+02  0.2627930E+01  0.5660328E+01  0.6895444E+02
Ar  595  0.1881132E+02  0.1435398E+00  0.8109682E+01  0.1930173E+03
Ar  596  0.1626986E+02  0.3637675E+01  0.7872400E+01  0.3003845E+03
Ar  597  0.1633232E+02  0.3705296E+02  0.1095730E+02  0.5618707E+03
Ar  598  0.1807453E+02  0.2431537E+01  0.1084911E+02  0.1907966E+03
Ar  599  0.1868273E+02  0.7519711E+00  0.1376942E+02  0.2639671E+03
Ar  600  0.1571173E+02  0.2742386E+01  0.1403980E+02  0.5819093E+02
Ar  601  0.1584443E+02  0.1206154E+00  0.1614719E+02  0.3854311E+03
Ar  602  0.1876145E+02  0.3056278E+01  0.1595430E+02  0.8199177E+02
Ar  603  0.1888483E+02  0.5523978E+00  0.1920676E+02  0.1661760E+03
Ar  604  0.1604412E+02  0.3054273E+01  0.1864420E+02  0.4403685E+03
Ar  605  0.1608797E+02  0.3719825E+02  0.2176922E+02  0.2265742E+03
Ar  606  0.1829259E+02  0.2458724E+01  0.2188462E+02  0.2283284E+03
Ar  607  0.1866945E+02  0.3729878E+02  0.2414979E+02  0.6371324E+02
Ar  608  0.1554480E+02  0.2292047E+01  0.2415881E+02  0.5456276E+02
Ar  609  0.1671075E+02  0.7077694E+00  0.2695739E+02  0.7420181E+03
Ar  610  0.1916943E+02  0.2906867E+01  0.2712715E+02  0.3974947E+03
Ar  611  0.1838108E+02  0.3676257E+02  0.2949916E+02  0.4262225E+02
Ar  612  0.1655575E+02  0.2892518E+01  0.2971221E+02  0.2911737E+03
Ar  613  0.1620322E+02  0.2090130E+00  0.3206375E+02  0.2972482E+03
Ar  614  0.1910340E+02  0.2302078E+01  0.3248354E+02  0.1781397E+03
Ar  615  0.1854489E+02  0.3759001E+02  0.3468760E+02  0.6596522E+02
Ar  616  0.1643900E+02  0.2569493E+01  0.3476276E+02  0.2839791E+03
Ar  617  0.1600125E+02  0.4736352E+01  0.3758325E+02  0.1106269E+03
Ar  618  0.1848878E+02  0.8305852E+01  0.3750224E+02  0.4295329E+03
Ar  619  0.1874704E+02  0.5794004E+01  0.2437063E+01  0.5966115E+02
Ar  620  0.1679029E+02  0.8491953E+01  0.2861900E+01  0.2349445E+03
Ar  621  0.1670940E+02  0.5917388E+01  0.5546413E+01  0.5955905E+02
Ar  622  0.1883810E+02  0.8641535E+01  0.5341109E+01  0.4148131E+03
Ar  623  0.1902267E+02  0.5618889E+01  0.8223247E+01  0.9212131E+02
Ar  624  0.1639117E+02  0.8112435E+01  0.8308187E+01  0.4036507E+02
Ar  625  0.1646343E+02  0.5564734E+01  0.1102435E+02  0.1064665E+03
Ar  626  0.2040246E+02  0.7646135E+01  0.1121518E+02  0.2539583E+03
Ar  627  0.1837689E+02  0.5398183E+01  0.1362621E+02  0.4142679E+03
Ar  628  0.1657111E+02  0.9284989E+01  0.1355880E+02  0.2312207E+03
Ar  629  0.1576381E+02  0.5780303E+01  0.1622202E+02  0.3030292E+03
Ar  630  0.1845351E+02  0.8671863E+01  0.1669465E+02  0.1980210E+03
Ar  631  0.1851043E+02  0.5219864E+01  0.1868021E+02  0.8212505E+02
Ar  632  0.1619360E+02  0.7729755E+01  0.1914070E+02  0.1439044E+03
Ar  633  0.1556478E+02  0.5352529E+01  0.2154325E+02  0.7553994E+03
Ar  634  0.1873832E+02  0.7629004E+01  0.2148352E+02  0.2547181E+03
Ar  635  0.1811695E+02  0.5056550E+01  0.2405704E+02  0.6917205E+03
Ar  636  0.1601419E+02  0.7808388E+01  0.2381610E+02  0.1289113E+03
Ar  637  0.1577279E+02  0.4958376E+01  0.2690362E+02  0.3013266E+03
Ar  638  0.1828044E+02  0.8757836E+01  0.2612266E+02  0.3521302E+03
Ar  639  0.1963747E+02  0.5166080E+01  0.2968916E+02  0.9098558E+02
Ar  640  0.1695376E+02  0.8528873E+01  0.2927395E+02  0.1175689E+03
Ar  641  0.1589018E+02  0.5307272E+01  0.3237064E+02  0.4975813E+03
Ar  642  0.1917269E+02  0.8393648E+01  0.3207957E+02  0.1354166E+03
Ar  643  0.1911779E+02  0.5198953E+01  0.3500697E+02  0.1824808E+03
Ar  644  0.1629737E+02  0.8192237E+01  0.3429760E+02  0.9147798E+03
Ar  645  0.1652115E+02  0.1152997E+02  0.1493429E-01  0.1307038E+03
Ar  646  0.1863424E+02  0.1419177E+02  0.5248603E+00  0.1256102E+03
Ar  647  0.1899449E+02  0.1107704E+02  0.2960377E+01  0.2463826E+03
Ar  648  0.1572489E+02  0.1436835E+02  0.2727553E+01  0.1675875E+03
Ar  649  0.1557764E+02  0.1131803E+02  0.5294637E+01  0.7744471E+02
Ar  650  0.1959037E+02  0.1346609E+02  0.5759622E+01  0.8916380E+02
Ar  651  0.1939103E+02  0.1102065E+02  0.7950037E+01  0.2152823E+03
Ar  652  0.1660814E+02  0.1342281E+02  0.8442071E+01  0.7124213E+02
Ar  653  0.1650576E+02  0.1075653E+02  0.1037879E+02  0.8433722E+02
Ar  654  0.1936944E+02  0.1347385E+02  0.1087767E+02  0.2678314E+02
Ar  655  0.1925485E+02  0.1134620E+02  0.1389119E+02  0.3865144E+03
Ar  656  0.1633808E+02  0.1349805E+02  0.1340818E+02  0.2352226E+03
Ar  657  0.1600884E+02  0.1117823E+02  0.1648074E+02  0.4049396E+03
Ar  658  0.1942482E+02  0.1401169E+02  0.1649026E+02  0.1309234E+03
Ar  659  0.1939833E+02  0.1090047E+02  0.1935941E+02  0.1063413E+03
Ar  660  0.1667708E+02  0.1390346E+02  0.1915714E+02  0.4260065E+03
Ar  661  0.1659506E+02  0.1031154E+02  0.2135924E+02  0.1064917E+03
Ar  662  0.1914428E+02  0.1444767E+02  0.2116544E+02  0.3458342E+02
Ar  663  0.1878639E+02  0.1167679E+02  0.2386271E+02  0.1802911E+02
Ar  664  0.1605461E+02  0.1408059E+02  0.2279292E+02  0.2539292E+03
Ar  665  0.1611253E+02  0.1125923E+02  0.2648659E+02  0.3495975E+03
Ar  666  0.1836712E+02  0.1404548E+02  0.2621080E+02  0.4459237E+03
Ar  667  0.1949608E+02  0.1085471E+02  0.2911694E+02  0.6181570E+02
Ar  668  0.1669552E+02  0.1337651E+02  0.2931152E+02  0.3195897E+03
Ar  669  0.1680318E+02  0.1105466E+02  0.3205245E+02  0.5785642E+03
Ar  670  0.1944493E+02  0.1358579E+02  0.3218315E+02  0.3298506E+03
Ar  671  0.1900222E+02  0.1123513E+02  0.3473544E+02  0.2588444E+03
Ar  672  0.1704876E+02  0.1394112E+02  0.3549195E+02  0.7229471E+02
Ar  673  0.1626744E+02  0.1712622E+02  0.7265798E+00  0.1149715E+03
Ar  674  0.1910862E+02  0.1952006E+02  0.1167590E+01  0.3520317E+03
Ar  675  0.1896592E+02  0.1636505E+02  0.3073484E+01  0.2969699E+03
Ar  676  0.1616452E+02  0.1898851E+02  0.3602695E+01  0.1191436E+03
Ar  677  0.1584394E+02  0.1585666E+02  0.5521412E+01  0.7531153E+02
Ar  678  0.1903996E+02  0.1929611E+02  0.5889819E+01  0.5795441E+02
Ar  679  0.1907924E+02  0.1624094E+02  0.7520928E+01  0.1169349E+03
Ar  680  0.1656435E+02  0.1856253E+02  0.8347625E+01  0.6653036E+02
Ar  681  0.1708271E+02  0.1624144E+02  0.1084151E+02  0.4306001E+03
Ar  682  0.1914201E+02  0.1905083E+02  0.1073925E+02  0.2436061E+03
Ar  683  0.1920632E+02  0.1596628E+02  0.1333494E+02  0.8587917E+02
Ar  684  0.1692364E+02  0.1923275E+02  0.1387244E+02  0.8390785E+02
Ar  685  0.1657027E+02  0.1588594E+02  0.1619637E+02  0.1410285E+03
Ar  686  0.1915286E+02  0.1929277E+02  0.1614761E+02  0.4565849E+03
Ar  687  0.1866014E+02  0.1691050E+02  0.1859635E+02  0.1312029E+03
Ar  688  0.1652690E+02  0.1945599E+02  0.1879998E+02  0.1294858E+03
Ar  689  0.1618878E+02  0.1747020E+02  0.2165853E+02  0.3692675E+03
Ar  690  0.1926806E+02  0.1956966E+02  0.2185547E+02  0.5016790E+03
Ar  691  0.1893863E+02  0.1677637E+02  0.2387901E+02  0.1992764E+03
Ar  692  0.1697332E+02  0.1960529E+02  0.2436660E+02  0.7169253E+02
Ar  693  0.1694363E+02  0.1693188E+02  0.2671098E+02  0.2431386E+03
Ar  694  0.1909021E+02  0.1916668E+02  0.2765855E+02  0.9075437E+02
Ar  695  0.1916889E+02  0.1634348E+02  0.3030145E+02  0.1866439E+03
Ar  696  0.1620126E+02  0.1918835E+02  0.2991919E+02  0.2064971E+03
Ar  697  0.1666667E+02  0.1590006E+02  0.3264565E+02  0.8307851E+02
Ar  698  0.1909309E+02  0.1992342E+02  0.3227407E+02  0.3337246E+03
Ar  699  0.1913644E+02  0.1694785E+02  0.3568008E+02  0.6137981E+02
Ar  700  0.1694871E+02  0.1922126E+02  0.3499873E+02  0.5043884E+03
Ar  701  0.1669435E+02  0.2164477E+02  0.1845142E+00  0.1805734E+03
Ar  702  0.1859343E+02  0.2466548E+02  0.5247610E+00  0.4883188E+02
Ar  703  0.1932904E+02  0.2177430E+02  0.3286087E+01  0.1020227E+04
Ar  704  0.1588823E+02  0.2394619E+02  0.2722905E+01  0.2980828E+03
Ar  705  0.1624255E+02  0.2172794E+02  0.5655449E+01  0.1425895E+03
Ar  706  0.1886657E+02  0.2442051E+02  0.5842288E+01  0.2526243E+03
Ar  707  0.1875880E+02  0.2147527E+02  0.8269311E+01  0.2286980E+03
Ar  708  0.1573436E+02  0.2435775E+02  0.8440014E+01  0.6424860E+02
Ar  709  0.1637973E+02  0.2162969E+02  0.1098573E+02  0.7556439E+03
Ar  710  0.1873546E+02  0.2475443E+02  0.1072744E+02  0.6696104E+03
Ar  711  0.1887843E+02  0.2192032E+02  0.1343138E+02  0.1549742E+03
Ar  712  0.1590657E+02  0.2415495E+02  0.1409989E+02  0.8541503E+03
Ar  713  0.1645855E+02  0.2258485E+02  0.1692778E+02  0.1930372E+03
Ar  714  0.1891282E+02  0.2478378E+02  0.1595341E+02  0.4254364E+03
Ar  715  0.1900296E+02  0.2184918E+02  0.1896357E+02  0.3695077E+03
Ar  716  0.1617148E+02  0.2463824E+02  0.1958474E+02  0.6741067E+03
Ar  717  0.1593940E+02  0.2194346E+02  0.2153459E+02  0.5933923E+02
Ar  718  0.1905097E+02  0.2524377E+02  0.2229382E+02  0.1326382E+03
Ar  719  0.1907845E+02  0.2260048E+02  0.2483547E+02  0.4544887E+03
Ar  720  0.1572129E+02  0.2444394E+02  0.2428544E+02  0.4331749E+03
Ar  721  0.1645177E+02  0.2134501E+02  0.2694885E+02  0.6483429E+02
Ar  722  0.1909604E+02  0.2442232E+02  0.2738092E+02  0.2470930E+03
Ar  723  0.1890104E+02  0.2231249E+02  0.2994623E+02  0.2516290E+03
Ar  724  0.1606566E+02  0.2427307E+02  0.2928946E+02  0.1542626E+03
Ar  725  0.1630032E+02  0.2243566E+02  0.3246997E+02  0.4201202E+03
Ar  726  0.1877118E+02  0.2467873E+02  0.3261193E+02  0.4853524E+03
Ar  727  0.1900424E+02  0.2189775E+02  0.3519274E+02  0.1260595E+03
Ar  728  0.1610369E+02  0.2450802E+02  0.3529944E+02  0.2313664E+02
Ar  729  0.1585847E+02  0.2670692E+02  0.3573916E+00  0.1026876E+03
Ar  730  0.1852264E+02  0.3011216E+02  0.6959011E-01  0.4143051E+03
Ar  731  0.1909557E+02  0.2663872E+02  0.3251299E+01  0.1894144E+03
Ar  732  0.1548571E+02  0.2952594E+02  0.2445465E+01  0.2639272E+03
Ar  733  0.1567838E+02  0.2668416E+02  0.5428820E+01  0.3520240E+03
Ar  734  0.1798379E+02  0.2928935E+02  0.5120681E+01  0.3614543E+02
Ar  735  0.1863910E+02  0.2687883E+02  0.7997975E+01  0.1914724E+03
Ar  736  0.1594368E+02  0.2896184E+02  0.7995445E+01  0.2822326E+03
Ar  737  0.1561841E+02  0.2666631E+02  0.1108197E+02  0.8388904E+02
Ar  738  0.1851197E+02  0.2989765E+02  0.1096441E+02  0.1110366E+03
Ar  739  0.1843551E+02  0.2691774E+02  0.1333243E+02  0.1245212E+03
Ar  740  0.1622526E+02  0.2981103E+02  0.1362836E+02  0.9184766E+02
Ar  741  0.1598955E+02  0.2724992E+02  0.1601286E+02  0.4680771E+03
Ar  742  0.1891148E+02  0.2963744E+02  0.1573243E+02  0.2543652E+03
Ar  743  0.1880043E+02  0.2730212E+02  0.1878623E+02  0.1002452E+04
Ar  744  0.1619047E+02  0.2978384E+02  0.1847544E+02  0.9236573E+02
Ar  745  0.1626990E+02  0.2745474E+02  0.2186375E+02  0.6494026E+03
Ar  746  0.1916830E+02  0.2931858E+02  0.2204266E+02  0.6940723E+02
Ar  747  0.1835616E+02  0.2703847E+02  0.2516506E+02  0.3679541E+03
Ar  748  0.1599479E+02  0.2983191E+02  0.2461621E+02  0.3841427E+03
Ar  749  0.1521100E+02  0.2664281E+02  0.2704937E+02  0.1356031E+03
Ar  750  0.1842670E+02  0.2966931E+02  0.2722919E+02  0.9657052E+02
Ar  751  0.1838283E+02  0.2695780E+02  0.2923675E+02  0.2579491E+03
Ar  752  0.1581249E+02  0.2908906E+02  0.2937782E+02  0.1452697E+03
Ar  753  0.1574754E+02  0.2673991E+02  0.3186140E+02  0.1262705E+03
Ar  754  0.1864371E+02  0.2937951E+02  0.3218786E+02  0.6314730E+02
Ar  755  0.1869488E+02  0.2732551E+02  0.3508958E+02  0.3876965E+02
Ar  756  0.1573751E+02  0.2927305E+02  0.3506585E+02  0.2201076E+03
Ar  757  0.1519829E+02  0.3241160E+02  0.4134106E+00  0.3392821E+03
Ar  758  0.1845020E+02  0.3471589E+02  0.3773442E+02  0.2663461E+02
Ar  759  0.1944631E+02  0.3257505E+02  0.2443683E+01  0.2852425E+03
Ar  760  0.1628506E+02  0.3568564E+02  0.2230158E+01  0.8354006E+03
Ar  761  0.1611446E+02  0.3246003E+02  0.4324707E+01  0.4069388E+03
Ar  762  0.1863900E+02  0.3478652E+02  0.4777348E+01  0.3976063E+03
Ar  763  0.1838386E+02  0.3226778E+02  0.7653422E+01  0.3195256E+03
Ar  764  0.1615634E+02  0.3490580E+02  0.7239357E+01  0.9037970E+02
Ar  765  0.1614445E+02  0.3264682E+02  0.1056006E+02  0.3362788E+03
Ar  766  0.1911303E+02  0.3520636E+02  0.1087472E+02  0.2893800E+03
Ar  767  0.1887237E+02  0.3230836E+02  0.1333570E+02  0.5850463E+01
Ar  768  0.1636719E+02  0.3483462E+02  0.1387040E+02  0.1446358E+03
Ar  769  0.1609621E+02  0.3212319E+02  0.1602925E+02  0.5768526E+02
Ar  770  0.1866596E+02  0.3575942E+02  0.1653654E+02  0.3620882E+03
Ar  771  0.1900268E+02  0.3210246E+02  0.1906855E+02  0.7417667E+02
Ar  772  0.1643199E+02  0.3483198E+02  0.1922729E+02  0.1744319E+03
Ar  773  0.1652641E+02  0.3185536E+02  0.2164199E+02  0.2025583E+03
Ar  774  0.1873392E+02  0.3488719E+02  0.2187924E+02  0.1510458E+03
Ar  775  0.1865288E+02  0.3214685E+02  0.2442561E+02  0.3462235E+03
Ar  776  0.1527203E+02  0.3539964E+02  0.2590617E+02  0.1600117E+03
Ar  777  0.1555082E+02  0.3215220E+02  0.2691207E+02  0.3191648E+03
Ar  778  0.1884646E+02  0.3472990E+02  0.2647816E+02  0.5042506E+03
Ar  779  0.1792340E+02  0.3269503E+02  0.2935215E+02  0.1450714E+03
Ar  780  0.1520001E+02  0.3495801E+02  0.2935469E+02  0.1160254E+03
Ar  781  0.1586759E+02  0.3179485E+02  0.3230292E+02  0.2957189E+02
Ar  782  0.1830710E+02  0.3468569E+02  0.3238727E+02  0.1847255E+03
Ar  783  0.1852153E+02  0.3175710E+02  0.3479959E+02  0.2922502E+03
Ar  784  0.1597839E+02  0.3481721E+02  0.3509805E+02  0.6106622E+03
Ar  785  0.2109426E+02  0.3726648E+02  0.3733111E+02  0.4550369E+03
Ar  786  0.2396272E+02  0.2452376E+01  0.3755662E+02  0.1347024E+03
Ar  787  0.2409921E+02  0.3742025E+02  0.2880534E+01  0.4264510E+03
Ar  788  0.2127803E+02  0.3229907E+01  0.2887289E+01  0.3819064E+03
Ar  789  0.2148929E+02  0.3750115E+02  0.5307726E+01  0.1794422E+03
Ar  790  0.2431192E+02  0.2483503E+01  0.5291205E+01  0.3052843E+03
Ar  791  0.2422566E+02  0.3718621E+02  0.8001030E+01  0.4263694E+03
Ar  792  0.2141985E+02  0.2418360E+01  0.8377135E+01  0.3883846E+03
Ar  793  0.2124150E+02  0.1591893E+00  0.1113675E+02  0.3001747E+03
Ar  794  0.2410796E+02  0.1980816E+01  0.1070449E+02  0.1893866E+03
Ar  795  0.2489289E+02  0.3700320E+02  0.1439815E+02  0.3694235E+03
Ar  796  0.2210045E+02  0.2606156E+01  0.1438031E+02  0.1167648E+03
Ar  797  0.2205439E+02  0.3753207E+02  0.1683564E+02  0.1770315E+03
Ar  798  0.2412148E+02  0.2550817E+01  0.1689517E+02  0.2928827E+03
Ar  799  0.2438065E+02  0.3740922E+02  0.1908627E+02  0.1060679E+01
Ar  800  0.2127889E+02  0.3494988E+01  0.1960361E+02  0.1718090E+03
Ar  801  0.2198901E+02  0.2706196E+00  0.2085697E+02  0.1552131E+03
Ar  802  0.2453318E+02  0.2401591E+01  0.2158009E+02  0.7774557E+03
Ar  803  0.2434355E+02  0.1949111E+00  0.2407301E+02  0.5970388E+03
Ar  804  0.2105238E+02  0.2187612E+01  0.2429387E+02  0.6671086E+03
Ar  805  0.2112908E+02  0.3726551E+02  0.2714648E+02  0.8952155E+02
Ar  806  0.2385402E+02  0.2499752E+01  0.2729468E+02  0.2637265E+02
Ar  807  0.2369876E+02  0.3753649E+02  0.2945500E+02  0.2895876E+03
Ar  808  0.2151243E+02  0.2373528E+01  0.2979033E+02  0.7146764E+02
Ar  809  0.2118229E+02  0.3711336E+02  0.3201510E+02  0.1730973E+03
Ar  810  0.2433353E+02  0.2230147E+01  0.3242366E+02  0.3728069E+03
Ar  811  0.2439478E+02  0.1916695E+00  0.3513558E+02  0.3261890E+03
Ar  812  0.2154479E+02  0.2707277E+01  0.3501461E+02  0.3958364E+02
Ar  813  0.2123359E+02  0.5582689E+01  0.3777981E+02  0.7178073E+02
Ar  814  0.2369786E+02  0.8278119E+01  0.1135380E+00  0.6279460E+02
Ar  815  0.2386183E+02  0.5233613E+01  0.2605026E+01  0.1059177E+03
Ar  816  0.2142788E+02  0.8968327E+01  0.2668077E+01  0.8840859E+03
Ar  817  0.2071156E+02  0.5792203E+01  0.5174587E+01  0.1738782E+03
Ar  818  0.2375001E+02  0.7824510E+01  0.4941713E+01  0.4478485E+03
Ar  819  0.2411971E+02  0.4649979E+01  0.8098425E+01  0.3360959E+03
Ar  820  0.2169103E+02  0.7905654E+01  0.7895637E+01  0.4338539E+03
Ar  821  0.2163639E+02  0.4622710E+01  0.1101428E+02  0.6611818E+02
Ar  822  0.2371768E+02  0.7442625E+01  0.1145211E+02  0.4279477E+03
Ar  823  0.2444467E+02  0.4856417E+01  0.1447236E+02  0.3868908E+03
Ar  824  0.2100408E+02  0.8240692E+01  0.1450840E+02  0.4295078E+03
Ar  825  0.2163608E+02  0.5677387E+01  0.1653829E+02  0.4125778E+02
Ar  826  0.2444751E+02  0.7786399E+01  0.1667314E+02  0.6613596E+03
Ar  827  0.2423229E+02  0.5257477E+01  0.1958691E+02  0.1758028E+03
Ar  828  0.2124568E+02  0.8118983E+01  0.1927863E+02  0.8386349E+03
Ar  829  0.2151027E+02  0.5594215E+01  0.2215009E+02  0.1929133E+03
Ar  830  0.2406773E+02  0.7970083E+01  0.2180435E+02  0.7120864E+02
Ar  831  0.2433276E+02  0.4805641E+01  0.2445594E+02  0.1735695E+03
Ar  832  0.2212165E+02  0.7838477E+01  0.2487772E+02  0.1273440E+03
Ar  833  0.2190774E+02  0.5188233E+01  0.2660442E+02  0.1154235E+03
Ar  834  0.2445944E+02  0.7829144E+01  0.2715182E+02  0.4497308E+03
Ar  835  0.2417078E+02  0.4904734E+01  0.2979549E+02  0.3051383E+02
Ar  836  0.2110883E+02  0.7889018E+01  0.2854321E+02  0.2061415E+03
Ar  837  0.2184689E+02  0.5039538E+01  0.3267401E+02  0.1811116E+03
Ar  838  0.2397901E+02  0.8413268E+01  0.3251841E+02  0.2028416E+03
Ar  839  0.2405102E+02  0.5977740E+01  0.3503398E+02  0.1142814E+03
Ar  840  0.2123048E+02  0.7880512E+01  0.3498184E+02  0.3522873E+03
Ar  841  0.2102690E+02  0.1106120E+02  0.3759069E+02  0.2011864E+03
Ar  842  0.2403057E+02  0.1405798E+02  0.3765354E+02  0.1035806E+03
Ar  843  0.2413902E+02  0.1121149E+02  0.1864969E+01  0.1049406E+03
Ar  844  0.2138390E+02  0.1353189E+02  0.2793662E+01  0.9569350E+02
Ar  845  0.2222819E+02  0.1126867E+02  0.5478277E+01  0.8290217E+02
Ar  846  0.2444474E+02  0.1394629E+02  0.5150973E+01  0.4507233E+03
Ar  847  0.2447919E+02  0.1017360E+02  0.8265004E+01  0.3692375E+02
Ar  848  0.2248047E+02  0.1377163E+02  0.8036707E+01  0.5062470E+03
Ar  849  0.2185065E+02  0.1072025E+02  0.1050738E+02  0.2238798E+03
Ar  850  0.2378416E+02  0.1323658E+02  0.1122285E+02  0.1202604E+03
Ar  851  0.2430451E+02  0.1110270E+02  0.1374978E+02  0.1455432E+03
Ar  852  0.2211678E+02  0.1358359E+02  0.1390692E+02  0.3220129E+03
Ar  853  0.2158368E+02  0.1105309E+02  0.1671844E+02  0.6740810E+03
Ar  854  0.2472925E+02  0.1346740E+02  0.1628182E+02  0.2255188E+03
Ar  855  0.2413118E+02  0.1025048E+02  0.1914457E+02  0.9260892E+02
Ar  856  0.2206518E+02  0.1353074E+02  0.1917973E+02  0.2245181E+03
Ar  857  0.2126994E+02  0.9904829E+01  0.2226026E+02  0.8335083E+02
Ar  858  0.2409457E+02  0.1324867E+02  0.2242304E+02  0.2919868E+03
Ar  859  0.2476668E+02  0.1053228E+02  0.2468865E+02  0.7520347E+02
Ar  860  0.2137815E+02  0.1390142E+02  0.2419678E+02  0.1401307E+03
Ar  861  0.2145170E+02  0.1086268E+02  0.2626885E+02  0.3179448E+03
Ar  862  0.2405252E+02  0.1331313E+02  0.2712360E+02  0.5429191E+03
Ar  863  0.2439944E+02  0.1054476E+02  0.2933736E+02  0.5240540E+03
Ar  864  0.2225147E+02  0.1353688E+02  0.3040777E+02  0.4823658E+02
Ar  865  0.2158582E+02  0.1093301E+02  0.3247404E+02  0.1697531E+03
Ar  866  0.2451132E+02  0.1350515E+02  0.3332274E+02  0.2784981E+03
Ar  867  0.2400134E+02  0.1068818E+02  0.3508630E+02  0.4023520E+03
Ar  868  0.2087235E+02  0.1409866E+02  0.3542023E+02  0.9345366E+02
Ar  869  0.2142479E+02  0.1665498E+02  0.6521177E+00  0.1087492E+04
Ar  870  0.2432307E+02  0.1914511E+02  0.2744589E+00  0.5118827E+03
Ar  871  0.2435695E+02  0.1656867E+02  0.2831368E+01  0.6449346E+03
Ar  872  0.2182542E+02  0.1904263E+02  0.2961859E+01  0.9854464E+02
Ar  873  0.2148365E+02  0.1621641E+02  0.5043623E+01  0.3720493E+03
Ar  874  0.2463850E+02  0.1898242E+02  0.6029981E+01  0.1711789E+03
Ar  875  0.2481405E+02  0.1612915E+02  0.8050763E+01  0.9175718E+02
Ar  876  0.2163857E+02  0.1869928E+02  0.8122783E+01  0.2941372E+03
Ar  877  0.2185101E+02  0.1619128E+02  0.1038041E+02  0.5184913E+03
Ar  878  0.2415429E+02  0.1914067E+02  0.1086581E+02  0.2815103E+03
Ar  879  0.2387396E+02  0.1639547E+02  0.1324487E+02  0.3904932E+03
Ar  880  0.2123933E+02  0.1937798E+02  0.1333477E+02  0.7251491E+02
Ar  881  0.2195495E+02  0.1688187E+02  0.1604677E+02  0.6609229E+02
Ar  882  0.2404764E+02  0.1923998E+02  0.1664372E+02  0.2460182E+03
Ar  883  0.2440227E+02  0.1614655E+02  0.1862805E+02  0.4606493E+03
Ar  884  0.2176050E+02  0.2006456E+02  0.1898140E+02  0.3704777E+02
Ar  885  0.2158873E+02  0.1682512E+02  0.2070526E+02  0.2348287E+03
Ar  886  0.2433474E+02  0.1882983E+02  0.2123978E+02  0.2056003E+03
Ar  887  0.2391721E+02  0.1590788E+02  0.2483068E+02  0.1161336E+03
Ar  888  0.2199889E+02  0.1882892E+02  0.2457835E+02  0.5014214E+02
Ar  889  0.2155052E+02  0.1603136E+02  0.2708873E+02  0.7542664E+02
Ar  890  0.2454744E+02  0.1886282E+02  0.2687810E+02  0.6251701E+03
Ar  891  0.2370911E+02  0.1669915E+02  0.2996055E+02  0.2619434E+03
Ar  892  0.2244170E+02  0.1970932E+02  0.3035318E+02  0.3108477E+03
Ar  893  0.2150137E+02  0.1722808E+02  0.3294566E+02  0.2416604E+02
Ar  894  0.2423457E+02  0.1914085E+02  0.3282036E+02  0.9844600E+02
Ar  895  0.2386060E+02  0.1705238E+02  0.3554965E+02  0.2745079E+03
Ar  896  0.2176834E+02  0.1947403E+02  0.3582871E+02  0.1195702E+02
Ar  897  0.2231923E+02  0.2208547E+02  0.6862680E+00  0.8132580E+02
Ar  898  0.2425825E+02  0.2472772E+02  0.1038127E+00  0.3588388E+03
Ar  899  0.2440645E+02  0.2202556E+02  0.3594382E+01  0.5497099E+02
Ar  900  0.2144551E+02  0.2423716E+02  0.2959655E+01  0.2038869E+03
Ar  901  0.2188141E+02  0.2195621E+02  0.5734026E+01  0.1409035E+03
Ar  902  0.2418597E+02  0.2467469E+02  0.5488588E+01  0.1324667E+03
Ar  903  0.2431452E+02  0.2176271E+02  0.8271080E+01  0.5623795E+02
Ar  904  0.2177884E+02  0.2433387E+02  0.8090341E+01  0.1436691E+03
Ar  905  0.2136606E+02  0.2190097E+02  0.1074040E+02  0.1343290E+03
Ar  906  0.2394802E+02  0.2454898E+02  0.1099982E+02  0.1779837E+03
Ar  907  0.2389572E+02  0.2159706E+02  0.1298687E+02  0.3128364E+02
Ar  908  0.2163679E+02  0.2446828E+02  0.1349649E+02  0.2446131E+03
Ar  909  0.2154195E+02  0.2157584E+02  0.1595314E+02  0.2979251E+03
Ar  910  0.2399911E+02  0.2436073E+02  0.1609429E+02  0.1592740E+03
Ar  911  0.2468135E+02  0.2156507E+02  0.1932667E+02  0.4395887E+03
Ar  912  0.2146996E+02  0.2445407E+02  0.1881916E+02  0.1069885E+03
Ar  913  0.2171982E+02  0.2210728E+02  0.2196883E+02  0.7571299E+02
Ar  914  0.2464635E+02  0.2444924E+02  0.2152996E+02  0.9712249E+03
Ar  915  0.2454113E+02  0.2168402E+02  0.2398895E+02  0.1481915E+03
Ar  916  0.2178182E+02  0.2507154E+02  0.2436705E+02  0.1956110E+03
Ar  917  0.2183529E+02  0.2156299E+02  0.2710969E+02  0.1444597E+03
Ar  918  0.2402811E+02  0.2445597E+02  0.2701499E+02  0.1982294E+03
Ar  919  0.2458240E+02  0.2222389E+02  0.2974540E+02  0.7218151E+03
Ar  920  0.2171097E+02  0.2445082E+02  0.3046622E+02  0.9178133E+02
Ar  921  0.2178988E+02  0.2183990E+02  0.3287405E+02  0.1831594E+03
Ar  922  0.2449173E+02  0.2374923E+02  0.3268089E+02  0.1591287E+03
Ar  923  0.2424208E+02  0.2187467E+02  0.3552932E+02  0.8111587E+02
Ar  924  0.2121958E+02  0.2446111E+02  0.3607320E+02  0.5601248E+02
Ar  925  0.2090076E+02  0.2742822E+02  0.1121596E+00  0.2281885E+03
Ar  926  0.2405341E+02  0.2908630E+02  0.4728730E-01  0.1203491E+03
Ar  927  0.2380762E+02  0.2718459E+02  0.3001341E+01  0.4923078E+03
Ar  928  0.2094541E+02  0.2942198E+02  0.2967115E+01  0.8575899E+02
Ar  929  0.2142550E+02  0.2666467E+02  0.5512518E+01  0.1586123E+03
Ar  930  0.2439775E+02  0.2956516E+02  0.5413417E+01  0.7419162E+03
Ar  931  0.2407398E+02  0.2704973E+02  0.7952267E+01  0.3019577E+03
Ar  932  0.2163381E+02  0.2954040E+02  0.7823064E+01  0.1702119E+03
Ar  933  0.2101892E+02  0.2709653E+02  0.1071276E+02  0.2703988E+03
Ar  934  0.2385052E+02  0.2955806E+02  0.1039670E+02  0.8591196E+03
Ar  935  0.2404659E+02  0.2709308E+02  0.1367366E+02  0.1342479E+03
Ar  936  0.2146300E+02  0.3015915E+02  0.1353706E+02  0.1047356E+03
Ar  937  0.2138445E+02  0.2719910E+02  0.1636229E+02  0.3078714E+02
Ar  938  0.2400552E+02  0.2981878E+02  0.1612527E+02  0.8531492E+03
Ar  939  0.2482833E+02  0.2793012E+02  0.1892294E+02  0.4038759E+03
Ar  940  0.2122772E+02  0.2962735E+02  0.1883807E+02  0.2014863E+03
Ar  941  0.2209498E+02  0.2724746E+02  0.2111582E+02  0.3692758E+03
Ar  942  0.2439048E+02  0.2963650E+02  0.2182514E+02  0.2452723E+03
Ar  943  0.2446412E+02  0.2717487E+02  0.2434230E+02  0.3626622E+03
Ar  944  0.2148183E+02  0.2873689E+02  0.2456585E+02  0.3150319E+03
Ar  945  0.2150671E+02  0.2692324E+02  0.2784532E+02  0.9713095E+03
Ar  946  0.2452576E+02  0.2922454E+02  0.2727430E+02  0.1268981E+03
Ar  947  0.2424627E+02  0.2727218E+02  0.3011151E+02  0.2565106E+03
Ar  948  0.2101608E+02  0.2984800E+02  0.2948479E+02  0.2976038E+03
Ar  949  0.2155112E+02  0.2714796E+02  0.3262768E+02  0.2370416E+03
Ar  950  0.2424431E+02  0.2990254E+02  0.3276348E+02  0.2345313E+03
Ar  951  0.2409434E+02  0.2705308E+02  0.3474923E+02  0.7798548E+03
Ar  952  0.2117575E+02  0.2979250E+02  0.3517691E+02  0.1080169E+03
Ar  953  0.2148441E+02  0.3250022E+02  0.3747409E+02  0.1886639E+03
Ar  954  0.2423220E+02  0.3493699E+02  0.3732690E+02  0.1031452E+03
Ar  955  0.2448111E+02  0.3222898E+02  0.2584955E+01  0.3487475E+03
Ar  956  0.2186969E+02  0.3486387E+02  0.2799439E+01  0.2331059E+03
Ar  957  0.2117613E+02  0.3206527E+02  0.5480392E+01  0.2462334E+02
Ar  958  0.2394925E+02  0.3468134E+02  0.5513553E+01  0.2551937E+03
Ar  959  0.2374901E+02  0.3235287E+02  0.8134718E+01  0.4144829E+02
Ar  960  0.2113591E+02  0.3502802E+02  0.8222878E+01  0.3173007E+03
Ar  961  0.2127939E+02  0.3208913E+02  0.1057539E+02  0.1073052E+03
Ar  962  0.2406682E+02  0.3522422E+02  0.1107420E+02  0.3235748E+03
Ar  963  0.2369498E+02  0.3257374E+02  0.1365317E+02  0.2863936E+02
Ar  964  0.2115268E+02  0.3496067E+02  0.1405266E+02  0.2169450E+03
Ar  965  0.2116350E+02  0.3228758E+02  0.1615168E+02  0.2631130E+03
Ar  966  0.2419842E+02  0.3476167E+02  0.1688650E+02  0.1388461E+03
Ar  967  0.2433256E+02  0.3185023E+02  0.1936404E+02  0.6110671E+03
Ar  968  0.2102150E+02  0.3505165E+02  0.1901800E+02  0.1238851E+03
Ar  969  0.2133947E+02  0.3186498E+02  0.2207162E+02  0.1351549E+03
Ar  970  0.2398904E+02  0.3474610E+02  0.2145508E+02  0.1987753E+03
Ar  971  0.2429871E+02  0.3176097E+02  0.2458819E+02  0.3553610E+03
Ar  972  0.2133542E+02  0.3489895E+02  0.2378245E+02  0.4146329E+03
Ar  973  0.2139858E+02  0.3185280E+02  0.2670627E+02  0.3558514E+03
Ar  974  0.2387412E+02  0.3522405E+02  0.2660929E+02  0.3497605E+03
Ar  975  0.2481934E+02  0.3214878E+02  0.2955843E+02  0.2999564E+03
Ar  976  0.2185895E+02  0.3470250E+02  0.2952264E+02  0.2818851E+03
Ar  977  0.2096357E+02  0.3246167E+02  0.3230911E+02  0.5711465E+03
Ar  978  0.2390706E+02  0.3542500E+02  0.3248121E+02  0.1812043E+03
Ar  979  0.2383692E+02  0.3244311E+02  0.3474334E+02  0.2867107E+03
Ar  980  0.2044102E+02  0.3484184E+02  0.3494026E+02  0.1573755E+03
Ar  981  0.2714731E+02  0.3759106E+02  0.5699114E-01  0.5848450E+03
Ar  982  0.2928925E+02  0.2328498E+01  0.3741378E+02  0.1782166E+03
Ar  983  0.2909899E+02  0.3731927E+02  0.2842501E+01  0.6974145E+03
Ar  984  0.2689216E+02  0.2243728E+01  0.2955764E+01  0.1234509E+03
Ar  985  0.2728517E+02  0.3760033E+02  0.5562386E+01  0.9672781E+02
Ar  986  0.2963589E+02  0.2937952E+01  0.4972048E+01  0.8287401E+02
Ar  987  0.2957322E+02  0.1290527E+00  0.8213276E+01  0.5505304E+03
Ar  988  0.2681871E+02  0.2353323E+01  0.7819350E+01  0.2443251E+03
Ar  989  0.2681922E+02  0.3738499E+02  0.1064654E+02  0.2905800E+03
Ar  990  0.2989527E+02  0.3122906E+01  0.1085591E+02  0.8563359E+02
Ar  991  0.2938063E+02  0.3726496E+02  0.1382081E+02  0.8946296E+02
Ar  992  0.2644625E+02  0.1767292E+01  0.1358379E+02  0.1191129E+03
Ar  993  0.2754000E+02  0.3740286E+02  0.1652508E+02  0.7480857E+02
Ar  994  0.2962120E+02  0.2835080E+01  0.1700511E+02  0.1657190E+03
Ar  995  0.2941566E+02  0.3743640E+02  0.1925441E+02  0.1659914E+03
Ar  996  0.2728562E+02  0.2699998E+01  0.1955719E+02  0.3816239E+03
Ar  997  0.2691800E+02  0.3729880E+02  0.2158604E+02  0.2449939E+03
Ar  998  0.2993331E+02  0.3077839E+01  0.2212345E+02  0.1926324E+03
Ar  999  0.2944165E+02  0.3346008E+00  0.2406972E+02  0.9918504E+02
Ar 1000  0.2684608E+02  0.2648645E+01  0.2486462E+02  0.3548134E+03
Ar 1001  0.2642202E+02  0.3744998E+02  0.2679046E+02  0.1132201E+04
Ar 1002  0.2939924E+02  0.2831123E+01  0.2709218E+02  0.1330347E+03
Ar 1003  0.2957038E+02  0.2435325E+00  0.2928019E+02  0.2289076E+03
Ar 1004  0.2686557E+02  0.2900861E+01  0.2964976E+02  0.8816030E+02
Ar 1005  0.2697659E+02  0.3718698E+02  0.3201846E+02  0.7428446E+03
Ar 1006  0.2965723E+02  0.2522311E+01  0.3232819E+02  0.1996702E+02
Ar 1007  0.2981786E+02  0.3743884E+02  0.3517192E+02  0.1031076E+03
Ar 1008  0.2722945E+02  0.2282239E+01  0.3493191E+02  0.1233801E+03
Ar 1009  0.2674556E+02  0.4859004E+01  0.3737245E+02  0.2667006E+03
Ar 1010  0.2986008E+02  0.8093331E+01  0.3709223E+02  0.3097628E+03
Ar 1011  0.2910339E+02  0.4790519E+01  0.2138734E+01  0.3749023E+03
Ar 1012  0.2622723E+02  0.7752090E+01  0.2390152E+01  0.2586904E+03
Ar 1013  0.2688102E+02  0.5602203E+01  0.4999710E+01  0.8493957E+02
Ar 1014  0.2945669E+02  0.8386812E+01  0.4637541E+01  0.5317899E+02
Ar 1015  0.2953662E+02  0.4721598E+01  0.7678837E+01  0.1762544E+03
Ar 1016  0.2679011E+02  0.7942956E+01  0.7258858E+01  0.1063703E+03
Ar 1017  0.2675771E+02  0.4492570E+01  0.1064383E+02  0.4151929E+03
Ar 1018  0.2942161E+02  0.7285763E+01  0.1024003E+02  0.3958846E+03
Ar 1019  0.2870540E+02  0.4404284E+01  0.1403107E+02  0.3917440E+03
Ar 1020  0.2662566E+02  0.7401705E+01  0.1364268E+02  0.1525982E+03
Ar 1021  0.2677709E+02  0.5457942E+01  0.1681368E+02  0.4766082E+03
Ar 1022  0.2971340E+02  0.8236007E+01  0.1642699E+02  0.2552462E+03
Ar 1023  0.2971451E+02  0.5635550E+01  0.1936648E+02  0.4170188E+03
Ar 1024  0.2669945E+02  0.7696022E+01  0.1945052E+02  0.2150896E+03
Ar 1025  0.2667911E+02  0.5289717E+01  0.2170539E+02  0.1127536E+03
Ar 1026  0.2961271E+02  0.8037681E+01  0.2171674E+02  0.9559249E+02
Ar 1027  0.2946819E+02  0.5336157E+01  0.2472384E+02  0.1670922E+03
Ar 1028  0.2693120E+02  0.7886708E+01  0.2404362E+02  0.4503401E+02
Ar 1029  0.2706691E+02  0.5380005E+01  0.2709205E+02  0.3576411E+03
Ar 1030  0.2984729E+02  0.8448365E+01  0.2665889E+02  0.1792904E+03
Ar 1031  0.2961347E+02  0.5107713E+01  0.2987288E+02  0.3634380E+03
Ar 1032  0.2678526E+02  0.8196409E+01  0.2970033E+02  0.4868152E+03
Ar 1033  0.2708936E+02  0.5202206E+01  0.3222745E+02  0.2606827E+03
Ar 1034  0.2990703E+02  0.7536819E+01  0.3316077E+02  0.3429268E+02
Ar 1035  0.2938426E+02  0.5037285E+01  0.3509967E+02  0.1493880E+04
Ar 1036  0.2672089E+02  0.7696937E+01  0.3459870E+02  0.8159082E+03
Ar 1037  0.2694036E+02  0.1084001E+02  0.3731470E+02  0.1750971E+03
Ar 1038  0.2988571E+02  0.1327435E+02  0.3765357E+02  0.2706884E+03
Ar 1039  0.3022391E+02  0.1069736E+02  0.2727250E+01  0.5718672E+02
Ar 1040  0.2666885E+02  0.1325076E+02  0.2056224E+01  0.1087392E+03
Ar 1041  0.2660541E+02  0.1048713E+02  0.4446566E+01  0.4986823E+03
Ar 1042  0.2881066E+02  0.1339612E+02  0.5364719E+01  0.3007662E+03
Ar 1043  0.3017887E+02  0.1060117E+02  0.8054656E+01  0.8154264E+02
Ar 1044  0.2654596E+02  0.1332573E+02  0.8102041E+01  0.7069936E+02
Ar 1045  0.2668334E+02  0.1039759E+02  0.1109677E+02  0.2362696E+03
Ar 1046  0.2934560E+02  0.1293367E+02  0.1060483E+02  0.2502150E+03
Ar 1047  0.2981748E+02  0.1077751E+02  0.1398389E+02  0.1377970E+03
Ar 1048  0.2686864E+02  0.1351405E+02  0.1315151E+02  0.2297404E+03
Ar 1049  0.2697831E+02  0.1015272E+02  0.1634064E+02  0.2809245E+02
Ar 1050  0.2933681E+02  0.1347098E+02  0.1664744E+02  0.2152782E+03
Ar 1051  0.2935099E+02  0.1024742E+02  0.1925869E+02  0.3511639E+03
Ar 1052  0.2697256E+02  0.1339335E+02  0.1930366E+02  0.5493969E+02
Ar 1053  0.2679990E+02  0.1097287E+02  0.2166883E+02  0.2495310E+02
Ar 1054  0.2959614E+02  0.1342395E+02  0.2224445E+02  0.1144035E+03
Ar 1055  0.2941256E+02  0.1056608E+02  0.2443631E+02  0.2639431E+02
Ar 1056  0.2701537E+02  0.1432521E+02  0.2473588E+02  0.1818965E+02
Ar 1057  0.2740290E+02  0.1101758E+02  0.2695060E+02  0.1583208E+03
Ar 1058  0.2979849E+02  0.1384508E+02  0.2751073E+02  0.1168646E+03
Ar 1059  0.2996032E+02  0.1119252E+02  0.2981406E+02  0.4309307E+03
Ar 1060  0.2646806E+02  0.1381476E+02  0.3057604E+02  0.4553433E+03
Ar 1061  0.2708993E+02  0.1062176E+02  0.3250123E+02  0.1927930E+03
Ar 1062  0.3001705E+02  0.1352370E+02  0.3248348E+02  0.1101990E+03
Ar 1063  0.2976007E+02  0.1102006E+02  0.3456965E+02  0.1666080E+03
Ar 1064  0.2747189E+02  0.1332279E+02  0.3495590E+02  0.1722617E+03
Ar 1065  0.2698587E+02  0.1607322E+02  0.3756458E+02  0.5834413E+02
Ar 1066  0.2902959E+02  0.1889020E+02  0.3955768E+00  0.2618975E+03
Ar 1067  0.2938942E+02  0.1597151E+02  0.2906944E+01  0.2190366E+03
Ar 1068  0.2720666E+02  0.1897502E+02  0.3204516E+01  0.1095011E+03
Ar 1069  0.2713190E+02  0.1614734E+02  0.5503212E+01  0.1988214E+03
Ar 1070  0.2937308E+02  0.1904253E+02  0.5736699E+01  0.1844799E+03
Ar 1071  0.2904349E+02  0.1571498E+02  0.8092068E+01  0.4100444E+03
Ar 1072  0.2691319E+02  0.1897904E+02  0.8395665E+01  0.5243714E+03
Ar 1073  0.2655037E+02  0.1607257E+02  0.1088135E+02  0.2352661E+03
Ar 1074  0.2918231E+02  0.1875452E+02  0.1149942E+02  0.3445056E+02
Ar 1075  0.2988870E+02  0.1583264E+02  0.1382127E+02  0.3168710E+03
Ar 1076  0.2648629E+02  0.1893804E+02  0.1362187E+02  0.7518326E+03
Ar 1077  0.2688458E+02  0.1626784E+02  0.1623293E+02  0.4939655E+03
Ar 1078  0.2967334E+02  0.1898770E+02  0.1669148E+02  0.6318249E+02
Ar 1079  0.2997064E+02  0.1606865E+02  0.1981836E+02  0.3068875E+03
Ar 1080  0.2732045E+02  0.1906420E+02  0.1918505E+02  0.2870385E+02
Ar 1081  0.2715869E+02  0.1622857E+02  0.2190272E+02  0.2034788E+03
Ar 1082  0.2995164E+02  0.1934883E+02  0.2172256E+02  0.1877846E+03
Ar 1083  0.2989466E+02  0.1631361E+02  0.2435609E+02  0.8154974E+03
Ar 1084  0.2713374E+02  0.1914006E+02  0.2442486E+02  0.2632668E+02
Ar 1085  0.2613470E+02  0.1568432E+02  0.2786713E+02  0.8624602E+02
Ar 1086  0.2999962E+02  0.1827415E+02  0.2680634E+02  0.1314274E+03
Ar 1087  0.2935146E+02  0.1632718E+02  0.3009216E+02  0.1402146E+03
Ar 1088  0.2687344E+02  0.1886773E+02  0.2937302E+02  0.4832740E+03
Ar 1089  0.2669483E+02  0.1660419E+02  0.3342992E+02  0.4943639E+03
Ar 1090  0.2950131E+02  0.1857919E+02  0.3266785E+02  0.7783190E+02
Ar 1091  0.2937701E+02  0.1652113E+02  0.3545295E+02  0.1695259E+03
Ar 1092  0.2698376E+02  0.1948696E+02  0.3506573E+02  0.4551548E+03
Ar 1093  0.2758734E+02  0.2179374E+02  0.1185293E+00  0.1168283E+03
Ar 1094  0.2922917E+02  0.2505783E+02  0.3729943E+02  0.1203700E+03
Ar 1095  0.2961460E+02  0.2229380E+02  0.3441864E+01  0.3153312E+02
Ar 1096  0.2694736E+02  0.2434855E+02  0.2319417E+01  0.2706245E+02
Ar 1097  0.2760046E+02  0.2183604E+02  0.5987695E+01  0.2210635E+03
Ar 1098  0.2957975E+02  0.2472630E+02  0.6082124E+01  0.3125060E+02
Ar 1099  0.2976367E+02  0.2162102E+02  0.8583942E+01  0.4143505E+03
Ar 1100  0.2632878E+02  0.2434338E+02  0.8388206E+01  0.4463907E+03
Ar 1101  0.2721668E+02  0.2141682E+02  0.1132900E+02  0.3687217E+03
Ar 1102  0.2945006E+02  0.2388965E+02  0.1163047E+02  0.3706981E+03
Ar 1103  0.2936749E+02  0.2115894E+02  0.1411300E+02  0.4769918E+03
Ar 1104  0.2668007E+02  0.2394997E+02  0.1415704E+02  0.1241947E+04
Ar 1105  0.2676656E+02  0.2121880E+02  0.1625877E+02  0.2109922E+02
Ar 1106  0.2944020E+02  0.2409912E+02  0.1603110E+02  0.7018683E+02
Ar 1107  0.2935838E+02  0.2190465E+02  0.1924468E+02  0.3872930E+02
Ar 1108  0.2704927E+02  0.2440193E+02  0.1916503E+02  0.6239856E+01
Ar 1109  0.2716831E+02  0.2228419E+02  0.2180524E+02  0.1120134E+03
Ar 1110  0.2985580E+02  0.2449745E+02  0.2136772E+02  0.1143945E+04
Ar 1111  0.3001144E+02  0.2099566E+02  0.2463957E+02  0.2043509E+03
Ar 1112  0.2729775E+02  0.2491473E+02  0.2382856E+02  0.1474250E+03
Ar 1113  0.2675751E+02  0.2197830E+02  0.2697520E+02  0.7827379E+02
Ar 1114  0.3011638E+02  0.2399134E+02  0.2609471E+02  0.5764110E+02
Ar 1115  0.2937992E+02  0.2200027E+02  0.2929578E+02  0.6902879E+03
Ar 1116  0.2701765E+02  0.2480294E+02  0.2978635E+02  0.1788327E+03
Ar 1117  0.2721629E+02  0.2145052E+02  0.3227816E+02  0.3282148E+03
Ar 1118  0.2999505E+02  0.2486021E+02  0.3220757E+02  0.2557329E+03
Ar 1119  0.2945677E+02  0.2208945E+02  0.3480768E+02  0.1667068E+03
Ar 1120  0.2674825E+02  0.2481426E+02  0.3515964E+02  0.3131331E+03
Ar 1121  0.2707832E+02  0.2767567E+02  0.3749056E+02  0.4360287E+03
Ar 1122  0.3001641E+02  0.2927836E+02  0.3600545E+00  0.4128835E+03
Ar 1123  0.2961984E+02  0.2649116E+02  0.3267098E+01  0.2675693E+03
Ar 1124  0.2692852E+02  0.2960804E+02  0.2651980E+01  0.2627127E+03
Ar 1125  0.2667457E+02  0.2698448E+02  0.5584136E+01  0.6763935E+02
Ar 1126  0.2943826E+02  0.2960978E+02  0.5420588E+01  0.6824555E+03
Ar 1127  0.2896947E+02  0.2710168E+02  0.8469331E+01  0.3136966E+03
Ar 1128  0.2674548E+02  0.3032246E+02  0.8187957E+01  0.1802618E+03
Ar 1129  0.2655018E+02  0.2701721E+02  0.1072067E+02  0.8049547E+01
Ar 1130  0.2964281E+02  0.3002929E+02  0.1057373E+02  0.6103113E+03
Ar 1131  0.2926295E+02  0.2737577E+02  0.1371420E+02  0.8716353E+02
Ar 1132  0.2618589E+02  0.2982754E+02  0.1320341E+02  0.1595759E+03
Ar 1133  0.2669085E+02  0.2775933E+02  0.1587015E+02  0.9291432E+02
Ar 1134  0.2959144E+02  0.3038559E+02  0.1613863E+02  0.3669122E+03
Ar 1135  0.2951707E+02  0.2725453E+02  0.1799779E+02  0.3814813E+03
Ar 1136  0.2751603E+02  0.2989348E+02  0.1908001E+02  0.3218970E+03
Ar 1137  0.2699791E+02  0.2736407E+02  0.2140292E+02  0.3063459E+03
Ar 1138  0.3007051E+02  0.2985265E+02  0.2174812E+02  0.2584175E+03
Ar 1139  0.3021286E+02  0.2679653E+02  0.2382803E+02  0.4516981E+03
Ar 1140  0.2744910E+02  0.2920701E+02  0.2448637E+02  0.3877866E+02
Ar 1141  0.2782453E+02  0.2648853E+02  0.2658904E+02  0.2491578E+03
Ar 1142  0.3020216E+02  0.2971915E+02  0.2692377E+02  0.9732166E+03
Ar 1143  0.2975136E+02  0.2749407E+02  0.2966441E+02  0.2089644E+03
Ar 1144  0.2683565E+02  0.2911412E+02  0.3002176E+02  0.1511155E+03
Ar 1145  0.2714990E+02  0.2703287E+02  0.3267062E+02  0.1393651E+03
Ar 1146  0.2994877E+02  0.2951483E+02  0.3228309E+02  0.5217965E+03
Ar 1147  0.3036896E+02  0.2703194E+02  0.3499438E+02  0.6342849E+03
Ar 1148  0.2807491E+02  0.2980037E+02  0.3477158E+02  0.6697885E+02
Ar 1149  0.2713521E+02  0.3194350E+02  0.3756232E+02  0.3397537E+03
Ar 1150  0.2986832E+02  0.3475329E+02  0.7638010E+00  0.1756475E+03
Ar 1151  0.3012609E+02  0.3159243E+02  0.2480144E+01  0.2555412E+03
Ar 1152  0.2687752E+02  0.3476247E+02  0.2035188E+01  0.3673716E+02
Ar 1153  0.2665764E+02  0.3199370E+02  0.5052100E+01  0.3754388E+03
Ar 1154  0.2913015E+02  0.3499616E+02  0.5119013E+01  0.2521113E+03
Ar 1155  0.2983458E+02  0.3230334E+02  0.7923511E+01  0.4343334E+03
Ar 1156  0.2692930E+02  0.3502897E+02  0.7689468E+01  0.2366732E+03
Ar 1157  0.2665190E+02  0.3300266E+02  0.1048214E+02  0.3312392E+03
Ar 1158  0.2912248E+02  0.3530125E+02  0.1083489E+02  0.1742204E+02
Ar 1159  0.2978172E+02  0.3260626E+02  0.1340959E+02  0.1034196E+03
Ar 1160  0.2743811E+02  0.3484040E+02  0.1370886E+02  0.1388318E+03
Ar 1161  0.2687927E+02  0.3261330E+02  0.1652064E+02  0.3040828E+03
Ar 1162  0.3007423E+02  0.3476844E+02  0.1607729E+02  0.3205745E+03
Ar 1163  0.2994279E+02  0.3249707E+02  0.1909592E+02  0.1844849E+03
Ar 1164  0.2691304E+02  0.3495293E+02  0.1937880E+02  0.1083171E+03
Ar 1165  0.2708305E+02  0.3226900E+02  0.2167473E+02  0.4800413E+03
Ar 1166  0.2987866E+02  0.3496457E+02  0.2173743E+02  0.4159615E+02
Ar 1167  0.2940526E+02  0.3222302E+02  0.2454258E+02  0.1336373E+02
Ar 1168  0.2680735E+02  0.3434980E+02  0.2462773E+02  0.4992658E+03
Ar 1169  0.2694458E+02  0.3235011E+02  0.2714825E+02  0.1237786E+03
Ar 1170  0.2935790E+02  0.3575880E+02  0.2672510E+02  0.3359927E+03
Ar 1171  0.2957149E+02  0.3221798E+02  0.2972505E+02  0.7879917E+02
Ar 1172  0.2679585E+02  0.3483325E+02  0.2965452E+02  0.3730159E+03
Ar 1173  0.2724718E+02  0.3194871E+02  0.3195575E+02  0.2796501E+03
Ar 1174  0.2987643E+02  0.3498951E+02  0.3199342E+02  0.1805750E+03
Ar 1175  0.3242673E+02  0.3277501E+02  0.3209140E+02  0.1144033E+03
Ar 1176  0.2725251E+02  0.3471544E+02  0.3546952E+02  0.3122517E+03
Ar 1177  0.3238491E+02  0.3755281E+02  0.3776322E+02  0.9584939E+02
Ar 1178  0.3467760E+02  0.2445647E+01  0.3738516E+02  0.1203886E+03
Ar 1179  0.3502208E+02  0.3002590E+00  0.2581382E+01  0.1540361E+02
Ar 1180  0.3188262E+02  0.2697419E+01  0.2309354E+01  0.9688002E+02
Ar 1181  0.3195106E+02  0.2219890E+00  0.5334452E+01  0.2013397E+03
Ar 1182  0.3422162E+02  0.3437300E+01  0.4851870E+01  0.1841587E+03
Ar 1183  0.3493720E+02  0.7065835E-01  0.8183728E+01  0.1271903E+02
Ar 1184  0.3246154E+02  0.2850330E+01  0.8194615E+01  0.9962033E+02
Ar 1185  0.3193197E+02  0.3403455E+00  0.1086798E+02  0.1520560E+03
Ar 1186  0.3498043E+02  0.3229192E+01  0.1097569E+02  0.1048714E+04
Ar 1187  0.3496807E+02  0.1253406E+00  0.1388120E+02  0.5697768E+03
Ar 1188  0.3224224E+02  0.2734662E+01  0.1381065E+02  0.1682254E+03
Ar 1189  0.3190884E+02  0.4432084E+00  0.1660297E+02  0.3267850E+03
Ar 1190  0.3517554E+02  0.2708611E+01  0.1607752E+02  0.1414745E+02
Ar 1191  0.3530225E+02  0.1063336E+00  0.1924963E+02  0.7905054E+02
Ar 1192  0.3271149E+02  0.2945289E+01  0.1909619E+02  0.7811814E+02
Ar 1193  0.3240755E+02  0.3777704E+02  0.2182940E+02  0.3042497E+03
Ar 1194  0.3552679E+02  0.3441732E+01  0.2168856E+02  0.5016767E+03
Ar 1195  0.3502921E+02  0.1981435E+00  0.2425723E+02  0.4666349E+03
Ar 1196  0.3287483E+02  0.2575187E+01  0.2434591E+02  0.4840719E+03
Ar 1197  0.3227762E+02  0.5298076E+00  0.2698684E+02  0.1409260E+03
Ar 1198  0.3556888E+02  0.3156166E+01  0.2668990E+02  0.1739313E+03
Ar 1199  0.3483601E+02  0.2484977E+00  0.2899327E+02  0.1176903E+03
Ar 1200  0.3233574E+02  0.2843605E+01  0.2981008E+02  0.2515647E+03
Ar 1201  0.3200244E+02  0.1196354E+00  0.3234257E+02  0.2544021E+03
Ar 1202  0.3496076E+02  0.2656769E+01  0.3244251E+02  0.1132916E+03
Ar 1203  0.3528355E+02  0.3761207E+02  0.3519171E+02  0.1045431E+03
Ar 1204  0.3220696E+02  0.2464185E+01  0.3509222E+02  0.4163174E+03
Ar 1205  0.3180884E+02  0.5118783E+01  0.3774342E+02  0.4839346E+03
Ar 1206  0.3518200E+02  0.7911770E+01  0.3727983E+02  0.9422050E+02
Ar 1207  0.3458397E+02  0.5582708E+01  0.2401841E+01  0.2379752E+03
Ar 1208  0.3267520E+02  0.8135762E+01  0.2357016E+01  0.4101089E+03
Ar 1209  0.3164323E+02  0.5625989E+01  0.4649203E+01  0.6785062E+02
Ar 1210  0.3422664E+02  0.7464484E+01  0.5271393E+01  0.3210250E+02
Ar 1211  0.3527580E+02  0.5500156E+01  0.8535540E+01  0.2875217E+03
Ar 1212  0.3197614E+02  0.7487573E+01  0.7713420E+01  0.3986777E+03
Ar 1213  0.3261882E+02  0.5913048E+01  0.1059072E+02  0.3778226E+03
Ar 1214  0.3566489E+02  0.8341715E+01  0.9926181E+01  0.8020387E+02
Ar 1215  0.3422523E+02  0.5535864E+01  0.1359621E+02  0.3498436E+03
Ar 1216  0.3117666E+02  0.7340859E+01  0.1361672E+02  0.1766727E+03
Ar 1217  0.3221629E+02  0.5335929E+01  0.1664231E+02  0.4602678E+03
Ar 1218  0.3505921E+02  0.8561268E+01  0.1656147E+02  0.1930065E+03
Ar 1219  0.3523702E+02  0.5228453E+01  0.1884285E+02  0.8564122E+02
Ar 1220  0.3236924E+02  0.7947117E+01  0.1896004E+02  0.2244673E+03
Ar 1221  0.3258235E+02  0.5566547E+01  0.2164747E+02  0.4262586E+03
Ar 1222  0.3563471E+02  0.7465491E+01  0.2152361E+02  0.3197573E+03
Ar 1223  0.3554737E+02  0.5591338E+01  0.2462192E+02  0.4144177E+03
Ar 1224  0.3300669E+02  0.7834189E+01  0.2458268E+02  0.6000384E+02
Ar 1225  0.3214746E+02  0.4812517E+01  0.2686531E+02  0.2330016E+03
Ar 1226  0.3541971E+02  0.8484735E+01  0.2709705E+02  0.3531888E+03
Ar 1227  0.3500380E+02  0.6113829E+01  0.2930788E+02  0.4839586E+03
Ar 1228  0.3182867E+02  0.8123197E+01  0.2965181E+02  0.1258162E+02
Ar 1229  0.3234011E+02  0.5231778E+01  0.3256601E+02  0.1764881E+03
Ar 1230  0.3538293E+02  0.7838066E+01  0.3229465E+02  0.1092355E+03
Ar 1231  0.3511750E+02  0.5321663E+01  0.3505143E+02  0.3547478E+03
Ar 1232  0.3287143E+02  0.7838565E+01  0.3471040E+02  0.2163793E+03
Ar 1233  0.3232980E+02  0.1067945E+02  0.3746417E+02  0.3117367E+03
Ar 1234  0.3432700E+02  0.1378944E+02  0.7655130E-01  0.1430938E+02
Ar 1235  0.3463599E+02  0.1124225E+02  0.2752791E+01  0.1970329E+03
Ar 1236  0.3184589E+02  0.1365783E+02  0.3204954E+01  0.1021594E+03
Ar 1237  0.3237010E+02  0.1039349E+02  0.5378351E+01  0.2841645E+01
Ar 1238  0.3494657E+02  0.1391403E+02  0.5014586E+01  0.1674269E+03
Ar 1239  0.3480395E+02  0.1049508E+02  0.7662738E+01  0.3855816E+03
Ar 1240  0.3266444E+02  0.1347849E+02  0.7823081E+01  0.8626945E+03
Ar 1241  0.3225597E+02  0.9649045E+01  0.1069374E+02  0.3242327E+03
Ar 1242  0.3480759E+02  0.1217927E+02  0.1083846E+02  0.2563830E+03
Ar 1243  0.3512598E+02  0.9770460E+01  0.1316673E+02  0.3661149E+03
Ar 1244  0.3230376E+02  0.1305931E+02  0.1297220E+02  0.1029847E+03
Ar 1245  0.3198318E+02  0.1104974E+02  0.1679687E+02  0.3768250E+03
Ar 1246  0.3451399E+02  0.1329562E+02  0.1606366E+02  0.7916341E+03
Ar 1247  0.3482557E+02  0.1074850E+02  0.1908855E+02  0.2275056E+03
Ar 1248  0.3201097E+02  0.1344668E+02  0.1876372E+02  0.6713606E+02
Ar 1249  0.3213216E+02  0.1081087E+02  0.2208565E+02  0.2072584E+03
Ar 1250  0.3530700E+02  0.1300281E+02  0.2165151E+02  0.2431018E+03
Ar 1251  0.3555059E+02  0.1071213E+02  0.2434352E+02  0.3663783E+03
Ar 1252  0.3232079E+02  0.1345018E+02  0.2427783E+02  0.1081315E+03
Ar 1253  0.3292332E+02  0.1077892E+02  0.2696101E+02  0.3748263E+02
Ar 1254  0.3555628E+02  0.1328414E+02  0.2706979E+02  0.2064147E+03
Ar 1255  0.3517303E+02  0.1093306E+02  0.3004150E+02  0.3983472E+03
Ar 1256  0.3290648E+02  0.1352411E+02  0.2942291E+02  0.1200193E+03
Ar 1257  0.3261870E+02  0.1090190E+02  0.3214475E+02  0.7041835E+01
Ar 1258  0.3512929E+02  0.1381185E+02  0.3236028E+02  0.1994073E+03
Ar 1259  0.3504994E+02  0.1106010E+02  0.3517773E+02  0.4944688E+03
Ar 1260  0.3232040E+02  0.1376545E+02  0.3498353E+02  0.1106194E+04
Ar 1261  0.3197546E+02  0.1651127E+02  0.2083600E-01  0.7767984E+02
Ar 1262  0.3466597E+02  0.1880475E+02  0.3771113E+02  0.6120297E+03
Ar 1263  0.3421407E+02  0.1623212E+02  0.2648262E+01  0.9703425E+02
Ar 1264  0.3173136E+02  0.1925843E+02  0.2621019E+01  0.2324504E+03
Ar 1265  0.3161575E+02  0.1596595E+02  0.5590790E+01  0.2439337E+03
Ar 1266  0.3442113E+02  0.1931934E+02  0.5332991E+01  0.1278729E+03
Ar 1267  0.3481496E+02  0.1613964E+02  0.7990496E+01  0.1431021E+03
Ar 1268  0.3189275E+02  0.1883281E+02  0.8689425E+01  0.5777454E+03
Ar 1269  0.3211201E+02  0.1569879E+02  0.1071745E+02  0.5798963E+02
Ar 1270  0.3505661E+02  0.1825343E+02  0.1074207E+02  0.1468718E+03
Ar 1271  0.3476369E+02  0.1566774E+02  0.1320483E+02  0.7616809E+02
Ar 1272  0.3222888E+02  0.1906075E+02  0.1382475E+02  0.1111620E+03
Ar 1273  0.3225018E+02  0.1627693E+02  0.1660901E+02  0.1931606E+03
Ar 1274  0.3495499E+02  0.1866536E+02  0.1608180E+02  0.3140858E+03
Ar 1275  0.3527239E+02  0.1566294E+02  0.1841188E+02  0.1492000E+03
Ar 1276  0.3239781E+02  0.1871774E+02  0.1908165E+02  0.3186104E+03
Ar 1277  0.3332410E+02  0.1568475E+02  0.2154439E+02  0.4592504E+02
Ar 1278  0.3561215E+02  0.1914328E+02  0.2138542E+02  0.1278529E+03
Ar 1279  0.3541095E+02  0.1554553E+02  0.2416215E+02  0.2461704E+02
Ar 1280  0.3263835E+02  0.1870866E+02  0.2373018E+02  0.1689527E+03
Ar 1281  0.3268906E+02  0.1605755E+02  0.2657646E+02  0.3764528E+01
Ar 1282  0.3513588E+02  0.1880024E+02  0.2692338E+02  0.3585326E+02
Ar 1283  0.3516431E+02  0.1603996E+02  0.2954436E+02  0.7942319E+02
Ar 1284  0.3214554E+02  0.1891116E+02  0.2943406E+02  0.2542642E+03
Ar 1285  0.3222490E+02  0.1644272E+02  0.3193451E+02  0.8521331E+02
Ar 1286  0.3478854E+02  0.1872120E+02  0.3216961E+02  0.2646741E+03
Ar 1287  0.3474430E+02  0.1598387E+02  0.3513265E+02  0.2049931E+03
Ar 1288  0.3227180E+02  0.1891765E+02  0.3511395E+02  0.4709360E+03
Ar 1289  0.3151346E+02  0.2222003E+02  0.3753742E+02  0.3184281E+03
Ar 1290  0.3536331E+02  0.2410271E+02  0.3748172E+02  0.1146705E+03
Ar 1291  0.3477288E+02  0.2143577E+02  0.2241839E+01  0.1848198E+03
Ar 1292  0.3273288E+02  0.2462215E+02  0.2796079E+01  0.1147652E+03
Ar 1293  0.3227733E+02  0.2172323E+02  0.5795945E+01  0.1142595E+04
Ar 1294  0.3485064E+02  0.2373811E+02  0.5132227E+01  0.2946993E+02
Ar 1295  0.3457496E+02  0.2169677E+02  0.7985593E+01  0.2214106E+03
Ar 1296  0.3236445E+02  0.2437732E+02  0.8277028E+01  0.6414427E+02
Ar 1297  0.3243493E+02  0.2160396E+02  0.1165187E+02  0.4940317E+03
Ar 1298  0.3541018E+02  0.2392127E+02  0.1062900E+02  0.2455512E+03
Ar 1299  0.3533130E+02  0.2059483E+02  0.1340089E+02  0.2483913E+03
Ar 1300  0.3208469E+02  0.2482764E+02  0.1384862E+02  0.2423363E+03
Ar 1301  0.3251849E+02  0.2163053E+02  0.1624163E+02  0.6308537E+03
Ar 1302  0.3459879E+02  0.2397965E+02  0.1630253E+02  0.1223193E+03
Ar 1303  0.3511666E+02  0.2168061E+02  0.1890073E+02  0.1978772E+03
Ar 1304  0.3202283E+02  0.2456754E+02  0.1854360E+02  0.3208315E+03
Ar 1305  0.3265426E+02  0.2167585E+02  0.2123259E+02  0.1674874E+03
Ar 1306  0.3516919E+02  0.2502568E+02  0.2134492E+02  0.2592500E+03
Ar 1307  0.3505914E+02  0.2156226E+02  0.2438047E+02  0.4826538E+02
Ar 1308  0.3292628E+02  0.2451612E+02  0.2364388E+02  0.2637795E+03
Ar 1309  0.3233333E+02  0.2183930E+02  0.2777679E+02  0.7099352E+02
Ar 1310  0.3488794E+02  0.2414782E+02  0.2680365E+02  0.3844525E+02
Ar 1311  0.3482803E+02  0.2150094E+02  0.2963925E+02  0.1459421E+03
Ar 1312  0.3208254E+02  0.2477959E+02  0.2945020E+02  0.2875843E+03
Ar 1313  0.3181210E+02  0.2130958E+02  0.3230605E+02  0.6403673E+03
Ar 1314  0.3514124E+02  0.2420945E+02  0.3191406E+02  0.8817518E+03
Ar 1315  0.3535714E+02  0.2121991E+02  0.3446688E+02  0.3425196E+03
Ar 1316  0.3252700E+02  0.2410553E+02  0.3451676E+02  0.2064093E+03
Ar 1317  0.3294218E+02  0.2714207E+02  0.1533149E+00  0.1866842E+03
Ar 1318  0.3533202E+02  0.3005899E+02  0.5155651E+00  0.3956741E+03
Ar 1319  0.3522186E+02  0.2666971E+02  0.3118735E+01  0.5428192E+03
Ar 1320  0.3267436E+02  0.2920248E+02  0.2983900E+01  0.2999524E+01
Ar 1321  0.3251661E+02  0.2744567E+02  0.6037098E+01  0.5715175E+02
Ar 1322  0.3559484E+02  0.2925460E+02  0.5313216E+01  0.2504628E+02
Ar 1323  0.3564152E+02  0.2622735E+02  0.7780519E+01  0.1487373E+03
Ar 1324  0.3235033E+02  0.3001365E+02  0.8235995E+01  0.1542894E+03
Ar 1325  0.3273709E+02  0.2727450E+02  0.1031318E+02  0.9617623E+02
Ar 1326  0.3502695E+02  0.2972303E+02  0.1013302E+02  0.9597310E+02
Ar 1327  0.3530982E+02  0.2724953E+02  0.1395994E+02  0.1680432E+03
Ar 1328  0.3309621E+02  0.3068381E+02  0.1314070E+02  0.3802927E+03
Ar 1329  0.3233395E+02  0.2831761E+02  0.1577135E+02  0.1034804E+03
Ar 1330  0.3517236E+02  0.3003047E+02  0.1642896E+02  0.5959993E+03
Ar 1331  0.3554843E+02  0.2736299E+02  0.1828465E+02  0.5974246E+03
Ar 1332  0.3273798E+02  0.3031550E+02  0.1872209E+02  0.2550007E+02
Ar 1333  0.3221131E+02  0.2716976E+02  0.2084382E+02  0.8905323E+02
Ar 1334  0.3459996E+02  0.2993508E+02  0.2140340E+02  0.1170172E+03
Ar 1335  0.3515386E+02  0.2720014E+02  0.2419271E+02  0.6369715E+03
Ar 1336  0.3256293E+02  0.3002232E+02  0.2422238E+02  0.3069877E+03
Ar 1337  0.3268734E+02  0.2717153E+02  0.2732602E+02  0.7401217E+02
Ar 1338  0.3562645E+02  0.3043599E+02  0.2805055E+02  0.4923874E+02
Ar 1339  0.3546724E+02  0.2723529E+02  0.2985168E+02  0.3135295E+02
Ar 1340  0.3241079E+02  0.3036155E+02  0.2974440E+02  0.4143417E+03
Ar 1341  0.3277691E+02  0.2708468E+02  0.3224409E+02  0.8623482E+03
Ar 1342  0.3493968E+02  0.3013028E+02  0.3201804E+02  0.2479645E+03
Ar 1343  0.3541714E+02  0.2694154E+02  0.3471273E+02  0.5725824E+03
Ar 1344  0.3267910E+02  0.2957137E+02  0.3502179E+02  0.1099544E+03
Ar 1345  0.3045762E+02  0.3284300E+02  0.3483975E+02  0.1517618E+03
Ar 1346  0.3767044E+02  0.3546840E+02  0.3159033E+01  0.5051112E+03
Ar 1347  0.3496765E+02  0.3238351E+02  0.3263227E+01  0.3178824E+03
Ar 1348  0.3241636E+02  0.3502501E+02  0.2903176E+01  0.5654192E+02
Ar 1349  0.3218350E+02  0.3233861E+02  0.5054955E+01  0.1006684E+03
Ar 1350  0.3511464E+02  0.3510566E+02  0.5450491E+01  0.2203711E+03
Ar 1351  0.3515241E+02  0.3257373E+02  0.7924153E+01  0.1304285E+03
Ar 1352  0.3195509E+02  0.3536901E+02  0.8390737E+01  0.1777276E+03
Ar 1353  0.3285061E+02  0.3284862E+02  0.1028601E+02  0.1554800E+03
Ar 1354  0.3548057E+02  0.3562312E+02  0.1102767E+02  0.6466386E+02
Ar 1355  0.3564484E+02  0.3261411E+02  0.1417088E+02  0.1020249E+03
Ar 1356  0.3240245E+02  0.3492089E+02  0.1303406E+02  0.3118959E+03
Ar 1357  0.3249144E+02  0.3227938E+02  0.1617823E+02  0.2682982E+03
Ar 1358  0.3469844E+02  0.3548595E+02  0.1624648E+02  0.3935242E+03
Ar 1359  0.3521389E+02  0.3265234E+02  0.1873824E+02  0.2520973E+02
Ar 1360  0.3227896E+02  0.3523526E+02  0.1889665E+02  0.9137580E+02
Ar 1361  0.3267352E+02  0.3267339E+02  0.2144477E+02  0.2255110E+02
Ar 1362  0.3550008E+02  0.3548318E+02  0.2188302E+02  0.1309139E+03
Ar 1363  0.3529629E+02  0.3240569E+02  0.2401300E+02  0.1729809E+03
Ar 1364  0.3232470E+02  0.3482888E+02  0.2445363E+02  0.1807940E+01
Ar 1365  0.3242658E+02  0.3255309E+02  0.2697416E+02  0.1916575E+03
Ar 1366  0.3500535E+02  0.3520322E+02  0.2661768E+02  0.2672026E+03
Ar 1367  0.3520981E+02  0.3314290E+02  0.2969809E+02  0.5875640E+02
Ar 1368  0.3232964E+02  0.3543387E+02  0.2936553E+02  0.4836194E+03
Ar 1369  0.3285021E+02  0.3259895E+02  0.3731546E+02  0.5071605E+03
Ar 1370  0.3533013E+02  0.3510804E+02  0.3224008E+02  0.1047272E+02
Ar 1371  0.3497913E+02  0.3247939E+02  0.3494808E+02  0.8972398E+02
Ar 1372  0.3258790E+02  0.3529739E+02  0.3494416E+02  0.1935028E+03
