        1372
Lattice="  0.3778015E+02  0.0000000E+00  0.0000000E+00  0.0000000E+00  0.3778015E+02  0.0000000E+00  0.0000000E+00  0.0000000E+00  0.3778015E+02" Properties=species:S:1:id:I:1:pos:R:3:tempK:R:1
Ar    1  0.3764538E+02  0.1860919E+00  0.5471828E-01  0.4967830E+03
Ar    2  0.2311796E+01  0.2519764E+01  0.1216611E+00  0.1826101E+03
Ar    3  0.2237761E+01  0.3737876E+02  0.2474525E+01  0.1764748E+03
Ar    4  0.3724285E+02  0.2731000E+01  0.2678015E+01  0.8934070E+03
Ar    5  0.3747157E+02  0.3742369E+02  0.5475177E+01  0.1476558E+04
Ar    6  0.2170201E+01  0.2255406E+01  0.4821587E+01  0.3095540E+03
Ar    7  0.2709419E+01  0.3762070E+02  0.7770069E+01  0.5258274E+02
Ar    8  0.3760113E+02  0.2286398E+01  0.8050989E+01  0.7724347E+03
Ar    9  0.5757993E-01  0.3765140E+02  0.1092375E+02  0.3875745E+03
Ar   10  0.2211159E+01  0.2793871E+01  0.1101017E+02  0.3898809E+03
Ar   11  0.2130418E+01  0.3777044E+02  0.1366648E+02  0.1832808E+03
Ar   12  0.3769022E+02  0.2398020E+01  0.1398206E+02  0.2692113E+03
Ar   13  0.1559814E+00  0.3723927E+02  0.1651497E+02  0.2733505E+03
Ar   14  0.2907994E+01  0.2527028E+01  0.1621000E+02  0.1743525E+03
Ar   15  0.2857819E+01  0.1204732E+00  0.1863065E+02  0.4323690E+03
Ar   16  0.3771029E+02  0.2420894E+01  0.1908305E+02  0.5809815E+03
Ar   17  0.3746977E+02  0.8938788E-02  0.2143284E+02  0.1114702E+03
Ar   18  0.2770354E+01  0.2464993E+01  0.2126898E+02  0.2357656E+03
Ar   19  0.1772621E+01  0.5079514E+00  0.2410585E+02  0.6248476E+03
Ar   20  0.3695958E+02  0.2874742E+01  0.2411055E+02  0.6519629E+03
Ar   21  0.3763425E+02  0.6014722E+00  0.2678471E+02  0.2767465E+03
Ar   22  0.3519596E+01  0.2657646E+01  0.2729870E+02  0.2326699E+03
Ar   23  0.3844209E+01  0.5338749E+00  0.3003769E+02  0.7521296E+03
Ar   24  0.3474911E+00  0.2770672E+01  0.2920720E+02  0.9277003E+02
Ar   25  0.7369526E+00  0.2861253E+00  0.3189354E+02  0.1243039E+03
Ar   26  0.2782069E+01  0.3199351E+01  0.3236516E+02  0.3256086E+02
Ar   27  0.2797601E+01  0.1456617E+00  0.3483086E+02  0.3271452E+02
Ar   28  0.1014696E+01  0.3521795E+01  0.3499961E+02  0.3986354E+03
Ar   29  0.3770901E+02  0.5263577E+01  0.3769573E+02  0.2049614E+03
Ar   30  0.1498422E+01  0.8674666E+01  0.8311159E+00  0.4890913E+03
Ar   31  0.1586504E+01  0.5304949E+01  0.2795932E+01  0.4046559E+03
Ar   32  0.3705955E+02  0.8302066E+01  0.3134192E+01  0.5160353E+03
Ar   33  0.3728726E+02  0.4527480E+01  0.5718892E+01  0.3303614E+03
Ar   34  0.2315892E+01  0.7940547E+01  0.5271374E+01  0.2612951E+03
Ar   35  0.2678114E+01  0.4575970E+01  0.7731788E+01  0.4787563E+03
Ar   36  0.3747769E+02  0.7919623E+01  0.7635407E+01  0.6938748E+02
Ar   37  0.2985990E+00  0.5141799E+01  0.1161168E+02  0.2604970E+03
Ar   38  0.2180113E+01  0.8167919E+01  0.1048233E+02  0.1133794E+04
Ar   39  0.2710026E+01  0.5424394E+01  0.1392596E+02  0.1647603E+03
Ar   40  0.1834093E+00  0.7680817E+01  0.1433246E+02  0.6091153E+03
Ar   41  0.8063226E-01  0.5226566E+01  0.1641834E+02  0.6961139E+02
Ar   42  0.2806447E+01  0.7764915E+01  0.1632858E+02  0.3254783E+03
Ar   43  0.2921536E+01  0.5659941E+01  0.1898985E+02  0.3036685E+02
Ar   44  0.1839432E+00  0.7744612E+01  0.1893626E+02  0.1373616E+03
Ar   45  0.2890658E+00  0.5438597E+01  0.2156950E+02  0.4183569E+02
Ar   46  0.2557603E+01  0.8646432E+01  0.2158892E+02  0.3973295E+02
Ar   47  0.3022090E+01  0.5654219E+01  0.2364408E+02  0.1798565E+03
Ar   48  0.1834016E+00  0.8163882E+01  0.2438641E+02  0.8352918E+02
Ar   49  0.9387071E-01  0.5499228E+01  0.2671923E+02  0.5612410E+03
Ar   50  0.2447306E+01  0.8971512E+01  0.2661393E+02  0.2374626E+03
Ar   51  0.2740037E+01  0.5499308E+01  0.2956659E+02  0.2022948E+03
Ar   52  0.3815378E+00  0.8187033E+01  0.2975551E+02  0.7998544E+02
Ar   53  0.5890551E-03  0.5371567E+01  0.3278014E+02  0.2212329E+03
Ar   54  0.2173746E+01  0.8098860E+01  0.3261249E+02  0.1432854E+03
Ar   55  0.2282846E+01  0.6459352E+01  0.3562203E+02  0.8406864E+02
Ar   56  0.3704692E+02  0.8117946E+01  0.3559154E+02  0.4475590E+02
Ar   57  0.3695702E+02  0.1133013E+02  0.5550855E+00  0.5035423E+01
Ar   58  0.1994163E+01  0.1290843E+02  0.6475836E+00  0.3752355E+03
Ar   59  0.1955274E+01  0.1126469E+02  0.3426763E+01  0.1373955E+03
Ar   60  0.3723387E+02  0.1384032E+02  0.3068497E+01  0.1494990E+03
Ar   61  0.3715820E+02  0.1102580E+02  0.5826576E+01  0.1349977E+03
Ar   62  0.2796416E+01  0.1411224E+02  0.5240593E+01  0.4980836E+03
Ar   63  0.2306829E+01  0.1056278E+02  0.7509155E+01  0.1082052E+03
Ar   64  0.1970068E+00  0.1350435E+02  0.7917202E+01  0.2921423E+02
Ar   65  0.3751444E+02  0.1030013E+02  0.1084826E+02  0.1263105E+03
Ar   66  0.2356388E+01  0.1227747E+02  0.1088246E+02  0.1498108E+04
Ar   67  0.2543244E+01  0.1027717E+02  0.1338267E+02  0.4205784E+03
Ar   68  0.3732120E+02  0.1360003E+02  0.1405370E+02  0.3378559E+03
Ar   69  0.3754060E+02  0.1062137E+02  0.1627937E+02  0.1478524E+03
Ar   70  0.2756778E+01  0.1294445E+02  0.1591097E+02  0.2125691E+03
Ar   71  0.2384358E+01  0.1055671E+02  0.1837440E+02  0.3394841E+03
Ar   72  0.3775528E+02  0.1308210E+02  0.1891377E+02  0.8732999E+02
Ar   73  0.3716591E+02  0.1075149E+02  0.2129596E+02  0.1685866E+03
Ar   74  0.2599203E+01  0.1320043E+02  0.2094434E+02  0.8721150E+03
Ar   75  0.2462675E+01  0.1132802E+02  0.2404819E+02  0.2847584E+03
Ar   76  0.2123105E+00  0.1384308E+02  0.2364372E+02  0.2881359E+03
Ar   77  0.3769717E+02  0.1089943E+02  0.2695416E+02  0.2634776E+02
Ar   78  0.2519953E+01  0.1339291E+02  0.2725033E+02  0.1189158E+03
Ar   79  0.2434386E+01  0.1084676E+02  0.2988802E+02  0.2700479E+03
Ar   80  0.2789477E+00  0.1347732E+02  0.3008311E+02  0.5444730E+02
Ar   81  0.3770332E+02  0.1092980E+02  0.3262261E+02  0.5204825E+03
Ar   82  0.3058483E+01  0.1445269E+02  0.3241097E+02  0.1134009E+03
Ar   83  0.2425455E+01  0.1071984E+02  0.3542464E+02  0.1119147E+04
Ar   84  0.3768592E+02  0.1350021E+02  0.3491601E+02  0.2079290E+03
Ar   85  0.3696108E+02  0.1628105E+02  0.3764142E+02  0.2424633E+03
Ar   86  0.2598725E+01  0.1900152E+02  0.3770405E+02  0.4550695E+02
Ar   87  0.1982695E+01  0.1619102E+02  0.2104675E+01  0.4178090E+03
Ar   88  0.3764796E+02  0.1860007E+02  0.2646149E+01  0.1751537E+03
Ar   89  0.3748579E+02  0.1615535E+02  0.5618573E+01  0.7551086E+03
Ar   90  0.2587003E+01  0.1832423E+02  0.4823912E+01  0.9798444E+02
Ar   91  0.2355903E+01  0.1626952E+02  0.8174069E+01  0.6006421E+03
Ar   92  0.2473686E+00  0.1892847E+02  0.8244836E+01  0.6594248E+03
Ar   93  0.1923398E+00  0.1619620E+02  0.1132537E+02  0.6491769E+03
Ar   94  0.2926386E+01  0.1856588E+02  0.1085921E+02  0.1003014E+04
Ar   95  0.2794077E+01  0.1554702E+02  0.1350710E+02  0.5031182E+03
Ar   96  0.8882272E+00  0.1846883E+02  0.1373730E+02  0.5310026E+03
Ar   97  0.3767562E+02  0.1605442E+02  0.1621537E+02  0.1627649E+03
Ar   98  0.3445388E+01  0.1882999E+02  0.1583147E+02  0.2900410E+03
Ar   99  0.3110935E+01  0.1591295E+02  0.1889636E+02  0.6543780E+03
Ar  100  0.1096249E+01  0.1926742E+02  0.1797151E+02  0.6940299E+02
Ar  101  0.3754754E+02  0.1612463E+02  0.2124877E+02  0.1880332E+03
Ar  102  0.2812639E+01  0.1884634E+02  0.2111470E+02  0.9691239E+03
Ar  103  0.2434494E+01  0.1626929E+02  0.2375003E+02  0.6116853E+03
Ar  104  0.3770829E+02  0.1876120E+02  0.2410388E+02  0.4263848E+03
Ar  105  0.1598895E-01  0.1575377E+02  0.2732607E+02  0.3354930E+03
Ar  106  0.2235061E+01  0.1841052E+02  0.2684183E+02  0.2239627E+03
Ar  107  0.3181749E+01  0.1595753E+02  0.2927385E+02  0.1049781E+03
Ar  108  0.3776870E+02  0.1915229E+02  0.2976457E+02  0.1842363E+03
Ar  109  0.1352010E+00  0.1655498E+02  0.3254433E+02  0.3922678E+03
Ar  110  0.2977940E+01  0.1814651E+02  0.3238994E+02  0.5560358E+02
Ar  111  0.2590122E+01  0.1566477E+02  0.3600005E+02  0.3211124E+03
Ar  112  0.3796290E+00  0.1852168E+02  0.3526895E+02  0.1284811E+03
Ar  113  0.3761868E+02  0.2142030E+02  0.4633948E+00  0.4756038E+03
Ar  114  0.2673607E+01  0.2302823E+02  0.3733052E+02  0.2043565E+03
Ar  115  0.3014763E+01  0.2123442E+02  0.2799381E+01  0.3867042E+03
Ar  116  0.7453966E-01  0.2432723E+02  0.3069793E+01  0.9122104E+02
Ar  117  0.9642285E+00  0.2120983E+02  0.5564729E+01  0.1048700E+03
Ar  118  0.2567441E+01  0.2402479E+02  0.6015256E+01  0.5678222E+03
Ar  119  0.2560036E+01  0.2134246E+02  0.8524319E+01  0.8710619E+03
Ar  120  0.3753718E+02  0.2429154E+02  0.8340827E+01  0.3239214E+03
Ar  121  0.3760245E+02  0.2190647E+02  0.1129941E+02  0.1677504E+03
Ar  122  0.2019924E+01  0.2429764E+02  0.1096013E+02  0.2960969E+03
Ar  123  0.2380237E+01  0.2161978E+02  0.1368031E+02  0.1687607E+03
Ar  124  0.3726776E+02  0.2455393E+02  0.1449786E+02  0.2227931E+03
Ar  125  0.3752453E+02  0.2176654E+02  0.1623145E+02  0.1710875E+03
Ar  126  0.2964867E+01  0.2457552E+02  0.1601846E+02  0.3691156E+03
Ar  127  0.2822728E+01  0.2241420E+02  0.1876867E+02  0.3535968E+03
Ar  128  0.3769290E+02  0.2470931E+02  0.1880343E+02  0.1732242E+03
Ar  129  0.5144708E+00  0.2135627E+02  0.2107522E+02  0.6234727E+03
Ar  130  0.2399288E+01  0.2434509E+02  0.2195500E+02  0.1029120E+03
Ar  131  0.2569228E+01  0.2136544E+02  0.2411730E+02  0.2610898E+03
Ar  132  0.1267706E-01  0.2373048E+02  0.2431037E+02  0.1717482E+03
Ar  133  0.5339806E+00  0.2153218E+02  0.2668135E+02  0.3112092E+03
Ar  134  0.2886048E+01  0.2428669E+02  0.2694271E+02  0.1007727E+03
Ar  135  0.3470304E+01  0.2176033E+02  0.2969358E+02  0.4392684E+03
Ar  136  0.8125369E+00  0.2397329E+02  0.2997260E+02  0.4145339E+02
Ar  137  0.8338662E-01  0.2141029E+02  0.3207132E+02  0.2784446E+03
Ar  138  0.2874512E+01  0.2493167E+02  0.3259475E+02  0.3034725E+03
Ar  139  0.2723332E+01  0.2117779E+02  0.3455052E+02  0.4281754E+03
Ar  140  0.3775642E+02  0.2414869E+02  0.3451663E+02  0.8227267E+02
Ar  141  0.2113967E+00  0.2640119E+02  0.2684247E+00  0.5412163E+03
Ar  142  0.1599745E+01  0.2968483E+02  0.1130885E+00  0.2085656E+03
Ar  143  0.3009729E+01  0.2679978E+02  0.3505265E+01  0.3767462E+03
Ar  144  0.2230016E+00  0.2896552E+02  0.3012104E+01  0.1310034E+03
Ar  145  0.1382513E+00  0.2686095E+02  0.6035391E+01  0.1861044E+03
Ar  146  0.3025335E+01  0.2948535E+02  0.5636068E+01  0.2500504E+02
Ar  147  0.2377167E+01  0.2687796E+02  0.8595066E+01  0.4607952E+02
Ar  148  0.1314414E+00  0.2975887E+02  0.8138055E+01  0.4909951E+03
Ar  149  0.3741526E+02  0.2650803E+02  0.1111296E+02  0.2647836E+03
Ar  150  0.3081085E+01  0.2997193E+02  0.1067616E+02  0.9802127E+03
Ar  151  0.2932098E+01  0.2729035E+02  0.1287725E+02  0.1269444E+03
Ar  152  0.4217655E+00  0.2984884E+02  0.1330257E+02  0.5264672E+03
Ar  153  0.8385531E+00  0.2717973E+02  0.1566068E+02  0.1136667E+03
Ar  154  0.3126748E+01  0.2970008E+02  0.1570673E+02  0.3506778E+03
Ar  155  0.2642900E+01  0.2691189E+02  0.1831501E+02  0.3859727E+03
Ar  156  0.5250801E+00  0.2945917E+02  0.1837281E+02  0.4460333E+02
Ar  157  0.3740553E+02  0.2759250E+02  0.2086191E+02  0.4331776E+03
Ar  158  0.3310942E+01  0.2974716E+02  0.2102876E+02  0.2644050E+03
Ar  159  0.2646541E+01  0.2699887E+02  0.2402086E+02  0.2713429E+03
Ar  160  0.3264583E+00  0.2949595E+02  0.2389458E+02  0.1764935E+03
Ar  161  0.3766941E+02  0.2633429E+02  0.2735912E+02  0.5839218E+03
Ar  162  0.2693009E+01  0.2982093E+02  0.2654162E+02  0.3737972E+03
Ar  163  0.2657803E+01  0.2736847E+02  0.2901156E+02  0.5797869E+03
Ar  164  0.3766308E+02  0.3019072E+02  0.2994220E+02  0.8281249E+03
Ar  165  0.2224981E+00  0.2678243E+02  0.3208096E+02  0.1742947E+03
Ar  166  0.2721412E+01  0.2927321E+02  0.3211598E+02  0.3471215E+03
Ar  167  0.2239311E+01  0.2701820E+02  0.3504347E+02  0.4873815E+03
Ar  168  0.3769805E+02  0.2981681E+02  0.3452276E+02  0.1790792E+03
Ar  169  0.5016422E-01  0.3281075E+02  0.3729454E+02  0.1142409E+03
Ar  170  0.2777660E+01  0.3535052E+02  0.5926305E-01  0.2171139E+03
Ar  171  0.2702126E+01  0.3239837E+02  0.2742477E+01  0.9379394E+02
Ar  172  0.3485142E+02  0.3537496E+02  0.3738775E+02  0.9069629E+03
Ar  173  0.1456044E+00  0.3207481E+02  0.5256953E+01  0.4581619E+03
Ar  174  0.2070497E+01  0.3527545E+02  0.5040170E+01  0.6137314E+03
Ar  175  0.2609683E+01  0.3235264E+02  0.7831719E+01  0.2178776E+03
Ar  176  0.1023462E+00  0.3504978E+02  0.8005895E+01  0.1087284E+03
Ar  177  0.1211081E+00  0.3207071E+02  0.1084259E+02  0.6808488E+03
Ar  178  0.2780339E+01  0.3496178E+02  0.1035206E+02  0.2018202E+03
Ar  179  0.2983344E+01  0.3269589E+02  0.1299900E+02  0.2963614E+03
Ar  180  0.9863595E-01  0.3486923E+02  0.1297713E+02  0.1764731E+03
Ar  181  0.3437370E+00  0.3260637E+02  0.1582512E+02  0.5185043E+03
Ar  182  0.3095053E+01  0.3568142E+02  0.1604218E+02  0.3374210E+03
Ar  183  0.3473667E+01  0.3301904E+02  0.1872449E+02  0.3462748E+03
Ar  184  0.2078207E+00  0.3497623E+02  0.1905913E+02  0.2235085E+03
Ar  185  0.3564643E-01  0.3165211E+02  0.2096279E+02  0.6428061E+02
Ar  186  0.2573875E+01  0.3525216E+02  0.2163068E+02  0.4015968E+02
Ar  187  0.2439318E+01  0.3238328E+02  0.2395882E+02  0.3554568E+03
Ar  188  0.4111656E-01  0.3516716E+02  0.2375847E+02  0.1289980E+02
Ar  189  0.3750607E+02  0.3290335E+02  0.2746164E+02  0.3893937E+03
Ar  190  0.2360537E+01  0.3504446E+02  0.2656454E+02  0.1667530E+03
Ar  191  0.2946726E+01  0.3329331E+02  0.2976625E+02  0.7342518E+03
Ar  192  0.3762517E+02  0.3508869E+02  0.3008900E+02  0.1477249E+04
Ar  193  0.3897308E+00  0.3260024E+02  0.3231865E+02  0.1024316E+03
Ar  194  0.3385378E+01  0.3501371E+02  0.3281768E+02  0.2991873E+03
Ar  195  0.2599100E+01  0.3227416E+02  0.3510458E+02  0.2365171E+03
Ar  196  0.2570339E+00  0.3532774E+02  0.3492540E+02  0.3658311E+03
Ar  197  0.5080792E+01  0.1889011E-01  0.9006013E-01  0.1380425E+03
Ar  198  0.8220551E+01  0.4301206E+01  0.1767326E+00  0.4022021E+03
Ar  199  0.8369134E+01  0.4905780E+00  0.2153894E+01  0.2776862E+03
Ar  200  0.5080562E+01  0.2787325E+01  0.2229319E+01  0.2225855E+03
Ar  201  0.5237514E+01  0.2518102E+00  0.5076784E+01  0.4906149E+02
Ar  202  0.8033440E+01  0.2597681E+01  0.4444301E+01  0.4091586E+03
Ar  203  0.7918049E+01  0.3756214E+02  0.8040192E+01  0.2315595E+03
Ar  204  0.5213055E+01  0.2405140E+01  0.8134738E+01  0.7722480E+02
Ar  205  0.4537071E+01  0.4655537E-01  0.1056306E+02  0.1777698E+03
Ar  206  0.7962997E+01  0.2812014E+01  0.1130651E+02  0.6747136E+03
Ar  207  0.7854938E+01  0.3775879E+02  0.1311607E+02  0.1167728E+03
Ar  208  0.4688980E+01  0.2363066E+01  0.1313033E+02  0.1549566E+03
Ar  209  0.5618787E+01  0.1459238E+00  0.1644153E+02  0.3557551E+03
Ar  210  0.8323028E+01  0.2328958E+01  0.1593794E+02  0.2914384E+03
Ar  211  0.8245020E+01  0.3762983E+02  0.1892322E+02  0.1626459E+02
Ar  212  0.5441434E+01  0.2729633E+01  0.1878576E+02  0.3066574E+03
Ar  213  0.5261912E+01  0.3777644E+02  0.2161506E+02  0.4406974E+03
Ar  214  0.7986301E+01  0.2554404E+01  0.2174470E+02  0.6701339E+03
Ar  215  0.7542002E+01  0.3758877E+02  0.2446915E+02  0.1495809E+03
Ar  216  0.4896351E+01  0.2493968E+01  0.2437399E+02  0.4434082E+03
Ar  217  0.4703059E+01  0.3739916E+02  0.2666095E+02  0.5196171E+02
Ar  218  0.7378330E+01  0.2526299E+01  0.2651269E+02  0.2194442E+03
Ar  219  0.7382163E+01  0.3769529E+02  0.2911569E+02  0.7995430E+03
Ar  220  0.5539400E+01  0.3439810E+01  0.2997141E+02  0.1701767E+03
Ar  221  0.6189878E+01  0.2806118E-01  0.3308742E+02  0.1759671E+03
Ar  222  0.8017835E+01  0.3870806E+01  0.3224493E+02  0.4060528E+03
Ar  223  0.7806715E+01  0.8673345E+00  0.3640348E+02  0.7138366E+03
Ar  224  0.5130077E+01  0.3225919E+01  0.3544915E+02  0.2921732E+03
Ar  225  0.4578545E+01  0.6095233E+01  0.7997008E+00  0.8511280E+03
Ar  226  0.7955718E+01  0.7998530E+01  0.5088136E+00  0.4819603E+03
Ar  227  0.7565087E+01  0.6045051E+01  0.3037917E+01  0.8006844E+03
Ar  228  0.4812063E+01  0.7961884E+01  0.3343441E+01  0.1633402E+03
Ar  229  0.5283530E+01  0.5097602E+01  0.5247967E+01  0.2606705E+03
Ar  230  0.7547530E+01  0.7976068E+01  0.5847416E+01  0.1874892E+03
Ar  231  0.7449260E+01  0.5129446E+01  0.7997212E+01  0.1955029E+03
Ar  232  0.5186241E+01  0.7600946E+01  0.8361384E+01  0.2554888E+03
Ar  233  0.4775894E+01  0.5261417E+01  0.1072584E+02  0.1186504E+04
Ar  234  0.7935865E+01  0.7867443E+01  0.1072987E+02  0.7599257E+02
Ar  235  0.7830034E+01  0.5659814E+01  0.1357476E+02  0.2143350E+03
Ar  236  0.5464036E+01  0.8041252E+01  0.1386293E+02  0.2414062E+03
Ar  237  0.5401660E+01  0.4963048E+01  0.1584767E+02  0.2891519E+03
Ar  238  0.8316512E+01  0.8555743E+01  0.1612998E+02  0.3489274E+03
Ar  239  0.8782816E+01  0.5901095E+01  0.1807496E+02  0.4045614E+03
Ar  240  0.5748365E+01  0.7869566E+01  0.1823744E+02  0.5307202E+02
Ar  241  0.6083854E+01  0.5896571E+01  0.2119005E+02  0.1015246E+03
Ar  242  0.8564759E+01  0.8173966E+01  0.2140495E+02  0.3027697E+03
Ar  243  0.7393329E+01  0.5978244E+01  0.2412562E+02  0.9937714E+03
Ar  244  0.5374774E+01  0.8837255E+01  0.2405005E+02  0.3522320E+03
Ar  245  0.4590986E+01  0.6200459E+01  0.2647588E+02  0.1970622E+03
Ar  246  0.7568379E+01  0.8524637E+01  0.2663007E+02  0.9329226E+01
Ar  247  0.7421124E+01  0.5929345E+01  0.2856850E+02  0.7279428E+03
Ar  248  0.4643445E+01  0.8176778E+01  0.2982490E+02  0.2543173E+02
Ar  249  0.4796013E+01  0.6150246E+01  0.3250956E+02  0.1988398E+03
Ar  250  0.7733644E+01  0.8216169E+01  0.3246479E+02  0.1572692E+03
Ar  251  0.8943538E+01  0.6077906E+01  0.3507922E+02  0.1182812E+04
Ar  252  0.5374786E+01  0.8270572E+01  0.3567604E+02  0.1125731E+03
Ar  253  0.5294908E+01  0.1080911E+02  0.6808209E+00  0.1589940E+03
Ar  254  0.7936464E+01  0.1308130E+02  0.4422468E+00  0.3195723E+03
Ar  255  0.7851099E+01  0.1054647E+02  0.3097588E+01  0.1395114E+02
Ar  256  0.5125014E+01  0.1447170E+02  0.2648892E+01  0.9308373E+02
Ar  257  0.4893467E+01  0.1129360E+02  0.5149302E+01  0.2865759E+03
Ar  258  0.8187893E+01  0.1331352E+02  0.5688722E+01  0.2222107E+03
Ar  259  0.8123883E+01  0.1039850E+02  0.8323631E+01  0.4429365E+03
Ar  260  0.5323666E+01  0.1258348E+02  0.8412649E+01  0.1125717E+03
Ar  261  0.5401248E+01  0.1035619E+02  0.1121883E+02  0.5463275E+03
Ar  262  0.8015047E+01  0.1290347E+02  0.1076998E+02  0.2235204E+03
Ar  263  0.8409517E+01  0.1066912E+02  0.1363318E+02  0.7023526E+02
Ar  264  0.5248635E+01  0.1343785E+02  0.1294286E+02  0.3813926E+03
Ar  265  0.5506003E+01  0.1051331E+02  0.1621077E+02  0.9660640E+03
Ar  266  0.8357976E+01  0.1317137E+02  0.1632206E+02  0.6484325E+02
Ar  267  0.8167895E+01  0.1037564E+02  0.1879614E+02  0.2881208E+03
Ar  268  0.5477494E+01  0.1287242E+02  0.1871241E+02  0.4936641E+03
Ar  269  0.5745313E+01  0.1055199E+02  0.2116676E+02  0.2328361E+03
Ar  270  0.8501298E+01  0.1364793E+02  0.2151374E+02  0.2794722E+03
Ar  271  0.7862679E+01  0.1107738E+02  0.2369468E+02  0.1144586E+03
Ar  272  0.5119289E+01  0.1347529E+02  0.2423779E+02  0.1668485E+03
Ar  273  0.5252783E+01  0.1118582E+02  0.2707899E+02  0.3712267E+03
Ar  274  0.8190011E+01  0.1260446E+02  0.2713024E+02  0.1856902E+03
Ar  275  0.8180715E+01  0.1028269E+02  0.2954492E+02  0.5331328E+03
Ar  276  0.5363887E+01  0.1313908E+02  0.3021984E+02  0.5689768E+03
Ar  277  0.4315328E+01  0.1080682E+02  0.3290518E+02  0.1965539E+03
Ar  278  0.7711504E+01  0.1299742E+02  0.3314858E+02  0.3402670E+03
Ar  279  0.8410325E+01  0.1026258E+02  0.3536825E+02  0.1840288E+03
Ar  280  0.5064994E+01  0.1327570E+02  0.3541711E+02  0.8016163E+02
Ar  281  0.4916188E+01  0.1653552E+02  0.3106635E+00  0.4072016E+02
Ar  282  0.8422314E+01  0.1922236E+02  0.3766571E+02  0.6075580E+03
Ar  283  0.8280948E+01  0.1604646E+02  0.2699056E+01  0.3825954E+03
Ar  284  0.5426126E+01  0.1875420E+02  0.2749508E+01  0.5193078E+03
Ar  285  0.5815947E+01  0.1613252E+02  0.5702655E+01  0.1248348E+03
Ar  286  0.7459477E+01  0.1871112E+02  0.5313609E+01  0.4944895E+03
Ar  287  0.8231630E+01  0.1621179E+02  0.8602804E+01  0.7474909E+03
Ar  288  0.5099463E+01  0.1868282E+02  0.8264330E+01  0.3091448E+03
Ar  289  0.5123653E+01  0.1569750E+02  0.1031522E+02  0.9442554E+02
Ar  290  0.7935671E+01  0.1885890E+02  0.1070791E+02  0.1325740E+03
Ar  291  0.8356545E+01  0.1561385E+02  0.1363650E+02  0.2363525E+03
Ar  292  0.5392247E+01  0.1789990E+02  0.1308735E+02  0.2785450E+03
Ar  293  0.5065302E+01  0.1547973E+02  0.1594509E+02  0.4183254E+03
Ar  294  0.7667008E+01  0.1852650E+02  0.1591276E+02  0.5998425E+03
Ar  295  0.7657795E+01  0.1596758E+02  0.1842438E+02  0.8225708E+02
Ar  296  0.5531777E+01  0.1890878E+02  0.1892806E+02  0.6181865E+01
Ar  297  0.5131709E+01  0.1554719E+02  0.2191604E+02  0.2425121E+03
Ar  298  0.8431116E+01  0.1844442E+02  0.2156912E+02  0.5243685E+03
Ar  299  0.8248769E+01  0.1620696E+02  0.2372018E+02  0.1110473E+03
Ar  300  0.5233610E+01  0.1919087E+02  0.2389366E+02  0.2204813E+02
Ar  301  0.4944736E+01  0.1625397E+02  0.2625581E+02  0.5167017E+03
Ar  302  0.7874089E+01  0.1870062E+02  0.2696579E+02  0.4656383E+03
Ar  303  0.7871135E+01  0.1564073E+02  0.2909507E+02  0.8716548E+02
Ar  304  0.5615984E+01  0.1883916E+02  0.2985972E+02  0.5409223E+03
Ar  305  0.6186935E+01  0.1612501E+02  0.3211011E+02  0.1334311E+03
Ar  306  0.9066543E+01  0.1909568E+02  0.3242365E+02  0.9118710E+02
Ar  307  0.7533593E+01  0.1584569E+02  0.3579143E+02  0.2345792E+03
Ar  308  0.6164988E+01  0.1873444E+02  0.3485090E+02  0.4121638E+03
Ar  309  0.5171627E+01  0.2105291E+02  0.1300050E-02  0.3371001E+02
Ar  310  0.7300615E+01  0.2458475E+02  0.3471997E+00  0.2885824E+02
Ar  311  0.7692151E+01  0.2112322E+02  0.2705952E+01  0.3543835E+03
Ar  312  0.5478216E+01  0.2406534E+02  0.3704196E+01  0.4353542E+03
Ar  313  0.5049121E+01  0.2116154E+02  0.5691602E+01  0.1494613E+03
Ar  314  0.7829056E+01  0.2430297E+02  0.6226023E+01  0.2054494E+03
Ar  315  0.8605075E+01  0.2109697E+02  0.7971559E+01  0.7279860E+02
Ar  316  0.4916558E+01  0.2453803E+02  0.8614771E+01  0.1893688E+03
Ar  317  0.5451910E+01  0.2170722E+02  0.1005008E+02  0.5290271E+03
Ar  318  0.8339465E+01  0.2400736E+02  0.1026896E+02  0.1505096E+03
Ar  319  0.8147540E+01  0.2135220E+02  0.1324088E+02  0.2253105E+03
Ar  320  0.5338630E+01  0.2376228E+02  0.1311297E+02  0.2372187E+03
Ar  321  0.5466268E+01  0.2171603E+02  0.1586846E+02  0.1194520E+03
Ar  322  0.8250217E+01  0.2394825E+02  0.1615732E+02  0.9538663E+03
Ar  323  0.7723086E+01  0.2127457E+02  0.1880868E+02  0.3541536E+02
Ar  324  0.5488967E+01  0.2432941E+02  0.1870848E+02  0.2190806E+03
Ar  325  0.5339350E+01  0.2192835E+02  0.2154394E+02  0.1667015E+03
Ar  326  0.7772113E+01  0.2410530E+02  0.2243045E+02  0.2561008E+03
Ar  327  0.8078184E+01  0.2098119E+02  0.2417629E+02  0.1187668E+03
Ar  328  0.4941217E+01  0.2425973E+02  0.2413673E+02  0.8655545E+02
Ar  329  0.5109742E+01  0.2094644E+02  0.2662467E+02  0.2082238E+03
Ar  330  0.7504878E+01  0.2383848E+02  0.2649355E+02  0.1121705E+03
Ar  331  0.7838493E+01  0.2180587E+02  0.2927649E+02  0.6080685E+03
Ar  332  0.5769813E+01  0.2518923E+02  0.3013658E+02  0.1772591E+03
Ar  333  0.5987744E+01  0.2139243E+02  0.3195748E+02  0.3767105E+03
Ar  334  0.9046904E+01  0.2605518E+02  0.3273499E+02  0.5508574E+03
Ar  335  0.7570983E+01  0.2201700E+02  0.3526256E+02  0.4366312E+02
Ar  336  0.5779930E+01  0.2470343E+02  0.3422463E+02  0.8490138E+02
Ar  337  0.4328069E+01  0.2691677E+02  0.1608570E+00  0.2938550E+03
Ar  338  0.7948650E+01  0.2976095E+02  0.4214079E-01  0.3713942E+03
Ar  339  0.7626295E+01  0.2716411E+02  0.2362946E+01  0.3293327E+02
Ar  340  0.4923301E+01  0.2938377E+02  0.2647829E+01  0.2901715E+03
Ar  341  0.5522861E+01  0.2695659E+02  0.6320549E+01  0.1561872E+03
Ar  342  0.7573553E+01  0.2969217E+02  0.6072687E+01  0.5318590E+03
Ar  343  0.8286061E+01  0.2702275E+02  0.8533132E+01  0.4186287E+02
Ar  344  0.5391514E+01  0.3004777E+02  0.8399185E+01  0.6032999E+03
Ar  345  0.5431557E+01  0.2705154E+02  0.1088000E+02  0.2686624E+03
Ar  346  0.8374220E+01  0.2935774E+02  0.1056142E+02  0.1973861E+03
Ar  347  0.8281398E+01  0.2670444E+02  0.1324282E+02  0.4225986E+02
Ar  348  0.5979646E+01  0.2927750E+02  0.1349816E+02  0.2486695E+03
Ar  349  0.5748373E+01  0.2661282E+02  0.1576031E+02  0.3179956E+02
Ar  350  0.8193843E+01  0.2981653E+02  0.1591641E+02  0.6168009E+03
Ar  351  0.8263102E+01  0.2652620E+02  0.1982749E+02  0.1016862E+03
Ar  352  0.5994183E+01  0.2909133E+02  0.1825253E+02  0.8320202E+03
Ar  353  0.5688384E+01  0.2671106E+02  0.2192530E+02  0.3756249E+02
Ar  354  0.7884680E+01  0.2978249E+02  0.2136446E+02  0.2818550E+03
Ar  355  0.8038215E+01  0.2666578E+02  0.2458921E+02  0.1986835E+03
Ar  356  0.4923321E+01  0.2957756E+02  0.2377748E+02  0.5212462E+03
Ar  357  0.5080136E+01  0.2715264E+02  0.2684268E+02  0.9107023E+02
Ar  358  0.7698954E+01  0.3018596E+02  0.2669415E+02  0.6975838E+03
Ar  359  0.7898393E+01  0.2767054E+02  0.2892847E+02  0.2425089E+02
Ar  360  0.4936740E+01  0.2985876E+02  0.2949875E+02  0.2954209E+01
Ar  361  0.5555309E+01  0.2776310E+02  0.3336093E+02  0.2266152E+03
Ar  362  0.8104156E+01  0.2956363E+02  0.3259287E+02  0.2512661E+03
Ar  363  0.8022770E+01  0.2685848E+02  0.3566241E+02  0.3694107E+03
Ar  364  0.5736106E+01  0.3076087E+02  0.3500850E+02  0.3493868E+02
Ar  365  0.5366716E+01  0.3234745E+02  0.2253031E-01  0.1504728E+04
Ar  366  0.7276873E+01  0.3492464E+02  0.7687599E+00  0.5138441E+03
Ar  367  0.7827460E+01  0.3186609E+02  0.2733178E+01  0.2040228E+03
Ar  368  0.5115667E+01  0.3515634E+02  0.3348476E+01  0.9796246E+02
Ar  369  0.5203071E+01  0.3214197E+02  0.5609405E+01  0.4191584E+03
Ar  370  0.8344822E+01  0.3545728E+02  0.5194556E+01  0.6638796E+02
Ar  371  0.7927854E+01  0.3264849E+02  0.7711155E+01  0.3355673E+03
Ar  372  0.5228259E+01  0.3498528E+02  0.7873675E+01  0.3529364E+03
Ar  373  0.6008099E+01  0.3238462E+02  0.1123185E+02  0.9303725E+02
Ar  374  0.7529714E+01  0.3521040E+02  0.1093394E+02  0.5503932E+02
Ar  375  0.8294200E+01  0.3248276E+02  0.1382820E+02  0.1856579E+03
Ar  376  0.5485267E+01  0.3554185E+02  0.1363758E+02  0.4880547E+02
Ar  377  0.6168340E+01  0.3218250E+02  0.1626796E+02  0.8876365E+02
Ar  378  0.8439853E+01  0.3514095E+02  0.1597059E+02  0.2935554E+03
Ar  379  0.8339977E+01  0.3216800E+02  0.1871417E+02  0.1792381E+03
Ar  380  0.6268635E+01  0.3513868E+02  0.1827649E+02  0.8462636E+03
Ar  381  0.5442995E+01  0.3253155E+02  0.2115988E+02  0.1130284E+03
Ar  382  0.7996192E+01  0.3535349E+02  0.2126365E+02  0.4123715E+03
Ar  383  0.7886861E+01  0.3280508E+02  0.2370154E+02  0.3301082E+03
Ar  384  0.4935469E+01  0.3513695E+02  0.2411080E+02  0.2342210E+03
Ar  385  0.5240010E+01  0.3224343E+02  0.2667361E+02  0.2698282E+03
Ar  386  0.8385983E+01  0.3488688E+02  0.2699619E+02  0.5041844E+02
Ar  387  0.8336223E+01  0.3193414E+02  0.2985009E+02  0.2645756E+02
Ar  388  0.5548937E+01  0.3504940E+02  0.2898431E+02  0.6469971E+03
Ar  389  0.5371172E+01  0.3221056E+02  0.3212105E+02  0.2733184E+02
Ar  390  0.8302245E+01  0.3506582E+02  0.3225651E+02  0.3472689E+03
Ar  391  0.8831346E+01  0.3260263E+02  0.3543950E+02  0.2310355E+03
Ar  392  0.6075507E+01  0.3495330E+02  0.3507563E+02  0.1659203E+03
Ar  393  0.1136376E+02  0.3777290E+02  0.3757471E+02  0.2946536E+02
Ar  394  0.1397202E+02  0.3022264E+01  0.3759322E+02  0.6314424E+03
Ar  395  0.1342383E+02  0.7113786E-01  0.2461977E+01  0.3779860E+03
Ar  396  0.1098145E+02  0.2701727E+01  0.2579575E+01  0.3905339E+02
Ar  397  0.1098115E+02  0.1025422E+00  0.5255393E+01  0.1995199E+03
Ar  398  0.1355276E+02  0.3327621E+01  0.5213492E+01  0.9028360E+03
Ar  399  0.1295880E+02  0.3727877E+02  0.8521350E+01  0.4612048E+03
Ar  400  0.1079185E+02  0.2361929E+01  0.8006639E+01  0.1734043E+03
Ar  401  0.1067859E+02  0.3762925E+02  0.1079869E+02  0.1203587E+03
Ar  402  0.1376105E+02  0.2414042E+01  0.1014112E+02  0.1059360E+03
Ar  403  0.1396702E+02  0.2581032E+00  0.1328339E+02  0.1572829E+03
Ar  404  0.1140658E+02  0.2001373E+01  0.1332363E+02  0.3524470E+03
Ar  405  0.1090093E+02  0.2202348E+00  0.1636119E+02  0.4619202E+03
Ar  406  0.1412955E+02  0.3156381E+01  0.1572134E+02  0.2407527E+03
Ar  407  0.1324294E+02  0.7191657E+00  0.1924887E+02  0.1966999E+03
Ar  408  0.1128914E+02  0.3426948E+01  0.1846377E+02  0.1539093E+03
Ar  409  0.1040162E+02  0.4938279E-03  0.2159525E+02  0.1164536E+03
Ar  410  0.1329119E+02  0.3701403E+01  0.2128402E+02  0.1833209E+02
Ar  411  0.1316088E+02  0.7673817E+00  0.2318999E+02  0.1838735E+03
Ar  412  0.1029331E+02  0.2530281E+01  0.2426000E+02  0.1206744E+03
Ar  413  0.1007914E+02  0.3937086E+00  0.2719948E+02  0.3229633E+03
Ar  414  0.1309007E+02  0.3305458E+01  0.2740450E+02  0.6789529E+02
Ar  415  0.1309762E+02  0.5566547E+00  0.2977196E+02  0.5834868E+02
Ar  416  0.1037062E+02  0.2860143E+01  0.2958738E+02  0.3494425E+03
Ar  417  0.1032989E+02  0.2023804E+00  0.3201449E+02  0.1676310E+03
Ar  418  0.1374341E+02  0.3470207E+01  0.3259419E+02  0.1264384E+03
Ar  419  0.1357723E+02  0.3766761E+02  0.3487692E+02  0.7369559E+02
Ar  420  0.1113468E+02  0.2565049E+01  0.3501683E+02  0.1339153E+03
Ar  421  0.1132762E+02  0.5503145E+01  0.3751823E+02  0.1936759E+03
Ar  422  0.1341908E+02  0.8855945E+01  0.6850512E+00  0.4037730E+03
Ar  423  0.1359587E+02  0.5550188E+01  0.2498035E+01  0.6998494E+03
Ar  424  0.1089971E+02  0.7710661E+01  0.2557021E+01  0.1012076E+03
Ar  425  0.1033341E+02  0.5196097E+01  0.5221176E+01  0.7272659E+02
Ar  426  0.1267842E+02  0.8001981E+01  0.6002871E+01  0.2934478E+03
Ar  427  0.1326624E+02  0.5493332E+01  0.8249596E+01  0.2317166E+03
Ar  428  0.1058958E+02  0.8323523E+01  0.8225755E+01  0.1488855E+03
Ar  429  0.1077207E+02  0.5118004E+01  0.1053609E+02  0.7203773E+02
Ar  430  0.1365022E+02  0.8328570E+01  0.1012542E+02  0.4961275E+03
Ar  431  0.1356817E+02  0.5560517E+01  0.1259231E+02  0.2688932E+03
Ar  432  0.1083169E+02  0.7902044E+01  0.1274465E+02  0.1961219E+03
Ar  433  0.1085328E+02  0.4995972E+01  0.1525552E+02  0.1594367E+03
Ar  434  0.1364170E+02  0.7978873E+01  0.1554362E+02  0.2955305E+03
Ar  435  0.1419480E+02  0.6252917E+01  0.1864418E+02  0.1108619E+03
Ar  436  0.1123913E+02  0.8065553E+01  0.1855550E+02  0.3778541E+03
Ar  437  0.1022400E+02  0.5044750E+01  0.2123817E+02  0.1250466E+03
Ar  438  0.1312389E+02  0.8253019E+01  0.2160813E+02  0.2407520E+03
Ar  439  0.1286080E+02  0.5640630E+01  0.2386318E+02  0.4567946E+03
Ar  440  0.1085237E+02  0.8345773E+01  0.2419407E+02  0.1007341E+03
Ar  441  0.1018499E+02  0.5407385E+01  0.2666221E+02  0.3356764E+03
Ar  442  0.1328983E+02  0.7764204E+01  0.2656326E+02  0.1138360E+03
Ar  443  0.1348758E+02  0.5978362E+01  0.2974283E+02  0.4496015E+03
Ar  444  0.1039545E+02  0.7141535E+01  0.2951108E+02  0.3333060E+02
Ar  445  0.1112178E+02  0.5141333E+01  0.3256369E+02  0.5490227E+03
Ar  446  0.1393838E+02  0.9284792E+01  0.3216367E+02  0.8611537E+03
Ar  447  0.1395658E+02  0.6628291E+01  0.3513042E+02  0.1737222E+03
Ar  448  0.1132458E+02  0.8515608E+01  0.3559089E+02  0.1874355E+03
Ar  449  0.1049920E+02  0.1055045E+02  0.5710417E+00  0.6208197E+03
Ar  450  0.1295928E+02  0.1276612E+02  0.8212388E+00  0.8350338E+02
Ar  451  0.1325412E+02  0.1055191E+02  0.3236970E+01  0.2360546E+03
Ar  452  0.1075873E+02  0.1324550E+02  0.3163100E+01  0.2486273E+03
Ar  453  0.1071676E+02  0.1055098E+02  0.5567864E+01  0.5114697E+03
Ar  454  0.1422383E+02  0.1343397E+02  0.5095787E+01  0.4752049E+03
Ar  455  0.1387613E+02  0.1091758E+02  0.7765539E+01  0.2711300E+03
Ar  456  0.1085200E+02  0.1350191E+02  0.8202756E+01  0.8086700E+02
Ar  457  0.1061739E+02  0.1077521E+02  0.1097926E+02  0.4566864E+03
Ar  458  0.1410567E+02  0.1315118E+02  0.1091934E+02  0.4197397E+03
Ar  459  0.1383085E+02  0.1022298E+02  0.1328142E+02  0.2350687E+03
Ar  460  0.1126183E+02  0.1331243E+02  0.1353308E+02  0.7108715E+03
Ar  461  0.1115430E+02  0.1086365E+02  0.1574552E+02  0.1239948E+03
Ar  462  0.1395264E+02  0.1347865E+02  0.1624102E+02  0.6737794E+03
Ar  463  0.1398970E+02  0.1085704E+02  0.1845344E+02  0.1373858E+03
Ar  464  0.1136723E+02  0.1347737E+02  0.1861667E+02  0.3683139E+03
Ar  465  0.1101873E+02  0.1076689E+02  0.2074020E+02  0.1149979E+03
Ar  466  0.1342025E+02  0.1314436E+02  0.2126392E+02  0.1216446E+04
Ar  467  0.1332377E+02  0.1083763E+02  0.2398828E+02  0.5396379E+03
Ar  468  0.1033170E+02  0.1291660E+02  0.2450570E+02  0.2280890E+03
Ar  469  0.1107795E+02  0.1065384E+02  0.2692609E+02  0.5100051E+03
Ar  470  0.1310810E+02  0.1383490E+02  0.2670348E+02  0.3781823E+03
Ar  471  0.1328228E+02  0.1132371E+02  0.2932998E+02  0.3138458E+02
Ar  472  0.1033917E+02  0.1351963E+02  0.2955133E+02  0.2891250E+02
Ar  473  0.1092383E+02  0.1036498E+02  0.3218860E+02  0.3455026E+02
Ar  474  0.1356908E+02  0.1352948E+02  0.3276048E+02  0.9729882E+03
Ar  475  0.1349702E+02  0.1083912E+02  0.3525182E+02  0.2192189E+03
Ar  476  0.1071199E+02  0.1328439E+02  0.3578587E+02  0.9501684E+03
Ar  477  0.1055480E+02  0.1590360E+02  0.3602048E+00  0.5622077E+03
Ar  478  0.1390804E+02  0.1879573E+02  0.2176097E+00  0.7441432E+02
Ar  479  0.1348877E+02  0.1618147E+02  0.2813140E+01  0.6174371E+01
Ar  480  0.1100830E+02  0.1881839E+02  0.3317899E+01  0.7283506E+03
Ar  481  0.1119946E+02  0.1579857E+02  0.5483555E+01  0.1816789E+02
Ar  482  0.1377104E+02  0.1889572E+02  0.5879246E+01  0.1132304E+03
Ar  483  0.1299242E+02  0.1627167E+02  0.8463234E+01  0.1095614E+03
Ar  484  0.1048311E+02  0.1870787E+02  0.7555634E+01  0.7564810E+02
Ar  485  0.1054781E+02  0.1588321E+02  0.1120976E+02  0.4806779E+03
Ar  486  0.1298778E+02  0.1893704E+02  0.1060444E+02  0.7423321E+03
Ar  487  0.1338116E+02  0.1634458E+02  0.1337103E+02  0.1416063E+03
Ar  488  0.1045796E+02  0.1884743E+02  0.1377050E+02  0.5210131E+03
Ar  489  0.1068451E+02  0.1574306E+02  0.1601742E+02  0.3566019E+03
Ar  490  0.1344196E+02  0.1849853E+02  0.1617707E+02  0.3837060E+03
Ar  491  0.1382456E+02  0.1602673E+02  0.1892031E+02  0.2036987E+03
Ar  492  0.1053815E+02  0.1871330E+02  0.1860937E+02  0.5489584E+02
Ar  493  0.1123210E+02  0.1565448E+02  0.2198858E+02  0.5469003E+03
Ar  494  0.1314495E+02  0.1867786E+02  0.2101819E+02  0.3024203E+03
Ar  495  0.1325548E+02  0.1663743E+02  0.2442554E+02  0.2324537E+03
Ar  496  0.1082118E+02  0.1886795E+02  0.2480104E+02  0.3867684E+02
Ar  497  0.1055006E+02  0.1630696E+02  0.2719969E+02  0.5734493E+03
Ar  498  0.1341452E+02  0.1904811E+02  0.2741482E+02  0.3544020E+03
Ar  499  0.1321014E+02  0.1609760E+02  0.2945858E+02  0.4737007E+03
Ar  500  0.1061047E+02  0.1872612E+02  0.2951273E+02  0.4523354E+03
Ar  501  0.1051097E+02  0.1571140E+02  0.3225131E+02  0.3114942E+03
Ar  502  0.1262766E+02  0.1869735E+02  0.3243345E+02  0.7982263E+02
Ar  503  0.1298737E+02  0.1630277E+02  0.3522208E+02  0.2607586E+03
Ar  504  0.1072270E+02  0.1958420E+02  0.3526872E+02  0.6863992E+03
Ar  505  0.1117143E+02  0.2252735E+02  0.2099740E+00  0.2204036E+03
Ar  506  0.1407027E+02  0.2431861E+02  0.3767518E+02  0.5381918E+03
Ar  507  0.1370324E+02  0.2180533E+02  0.2816948E+01  0.3942158E+03
Ar  508  0.1006349E+02  0.2454668E+02  0.2575198E+01  0.2853780E+03
Ar  509  0.1051016E+02  0.2191213E+02  0.4805088E+01  0.5922286E+03
Ar  510  0.1348373E+02  0.2440558E+02  0.5845505E+01  0.4241891E+03
Ar  511  0.1342677E+02  0.2198251E+02  0.8709612E+01  0.2017338E+03
Ar  512  0.1091619E+02  0.2427416E+02  0.7592753E+01  0.2231775E+03
Ar  513  0.1094757E+02  0.2138906E+02  0.1095531E+02  0.3948045E+03
Ar  514  0.1381663E+02  0.2429586E+02  0.1147436E+02  0.1977681E+03
Ar  515  0.1353636E+02  0.2083486E+02  0.1372338E+02  0.6208277E+03
Ar  516  0.1096583E+02  0.2430814E+02  0.1384736E+02  0.2776052E+03
Ar  517  0.1053824E+02  0.2123560E+02  0.1664865E+02  0.1757248E+03
Ar  518  0.1275774E+02  0.2437487E+02  0.1693462E+02  0.3247105E+03
Ar  519  0.1299699E+02  0.2110433E+02  0.1898891E+02  0.1457093E+03
Ar  520  0.1044369E+02  0.2421054E+02  0.1916209E+02  0.5826100E+03
Ar  521  0.1071837E+02  0.2119668E+02  0.2138658E+02  0.2399303E+03
Ar  522  0.1323000E+02  0.2390308E+02  0.2166151E+02  0.3161237E+03
Ar  523  0.1393359E+02  0.2064860E+02  0.2402136E+02  0.3173808E+03
Ar  524  0.1084209E+02  0.2357692E+02  0.2402181E+02  0.1462162E+03
Ar  525  0.1040129E+02  0.2179104E+02  0.2692568E+02  0.5336724E+03
Ar  526  0.1387221E+02  0.2465480E+02  0.2626924E+02  0.3998774E+03
Ar  527  0.1324903E+02  0.2172421E+02  0.2908063E+02  0.3885172E+03
Ar  528  0.9717131E+01  0.2460112E+02  0.2917574E+02  0.1922764E+03
Ar  529  0.1082530E+02  0.2205655E+02  0.3201132E+02  0.2814030E+03
Ar  530  0.1296760E+02  0.2474260E+02  0.3204932E+02  0.1726703E+03
Ar  531  0.1344946E+02  0.2220617E+02  0.3487520E+02  0.2043523E+03
Ar  532  0.1057270E+02  0.2384105E+02  0.3484778E+02  0.2198229E+03
Ar  533  0.1081943E+02  0.2707910E+02  0.2489864E+00  0.4264271E+03
Ar  534  0.1359367E+02  0.2953546E+02  0.2392591E+00  0.3655142E+02
Ar  535  0.1408093E+02  0.2672546E+02  0.2316670E+01  0.3889028E+03
Ar  536  0.1042128E+02  0.2930344E+02  0.2922090E+01  0.9227379E+02
Ar  537  0.9883779E+01  0.2696005E+02  0.5259195E+01  0.4173249E+02
Ar  538  0.1317621E+02  0.2865677E+02  0.5413893E+01  0.1539020E+03
Ar  539  0.1295561E+02  0.2670010E+02  0.8342738E+01  0.5174533E+02
Ar  540  0.1110085E+02  0.2970941E+02  0.8089704E+01  0.5639677E+02
Ar  541  0.1079065E+02  0.2669387E+02  0.1109255E+02  0.5738404E+03
Ar  542  0.1286472E+02  0.2952700E+02  0.1119103E+02  0.2638063E+03
Ar  543  0.1402949E+02  0.2685496E+02  0.1368174E+02  0.2005264E+03
Ar  544  0.1082100E+02  0.2953823E+02  0.1370765E+02  0.1305830E+03
Ar  545  0.1050908E+02  0.2658497E+02  0.1594157E+02  0.6013309E+02
Ar  546  0.1378875E+02  0.2929646E+02  0.1687250E+02  0.2845856E+03
Ar  547  0.1305296E+02  0.2696282E+02  0.1989574E+02  0.3735176E+03
Ar  548  0.1049625E+02  0.2928964E+02  0.1857659E+02  0.6260180E+03
Ar  549  0.1048026E+02  0.2761408E+02  0.2217254E+02  0.2811943E+03
Ar  550  0.1370330E+02  0.2986694E+02  0.2113079E+02  0.1755571E+03
Ar  551  0.1340682E+02  0.2679610E+02  0.2363030E+02  0.6076232E+03
Ar  552  0.1073385E+02  0.2972412E+02  0.2479249E+02  0.2545791E+03
Ar  553  0.1073406E+02  0.2611384E+02  0.2627475E+02  0.1108870E+03
Ar  554  0.1378767E+02  0.2919926E+02  0.2650417E+02  0.5248656E+03
Ar  555  0.1335914E+02  0.2704987E+02  0.2918812E+02  0.5637776E+03
Ar  556  0.1116369E+02  0.2960635E+02  0.2905270E+02  0.7829027E+03
Ar  557  0.1141886E+02  0.2844887E+02  0.3233611E+02  0.4220866E+03
Ar  558  0.1384373E+02  0.2993286E+02  0.3095481E+02  0.2889058E+03
Ar  559  0.1286567E+02  0.2627116E+02  0.3535397E+02  0.3657996E+03
Ar  560  0.1114314E+02  0.3003276E+02  0.3547740E+02  0.2293674E+03
Ar  561  0.1092621E+02  0.3273893E+02  0.5476249E+00  0.3632873E+02
Ar  562  0.1359556E+02  0.3494848E+02  0.8038960E+00  0.6866190E+03
Ar  563  0.1300190E+02  0.3178786E+02  0.3726027E+01  0.5687530E+03
Ar  564  0.1080152E+02  0.3521721E+02  0.2549950E+01  0.3488446E+03
Ar  565  0.9982080E+01  0.3216840E+02  0.5118777E+01  0.6315761E+02
Ar  566  0.1286186E+02  0.3468909E+02  0.5877410E+01  0.1460403E+03
Ar  567  0.1390084E+02  0.3204204E+02  0.7966252E+01  0.1834259E+03
Ar  568  0.1039781E+02  0.3473488E+02  0.8146134E+01  0.4116973E+02
Ar  569  0.1065791E+02  0.3246848E+02  0.1087547E+02  0.2362357E+03
Ar  570  0.1390024E+02  0.3529921E+02  0.1123789E+02  0.5128270E+03
Ar  571  0.1317596E+02  0.3245135E+02  0.1340685E+02  0.1986886E+03
Ar  572  0.1098908E+02  0.3544701E+02  0.1318481E+02  0.3047927E+02
Ar  573  0.1146593E+02  0.3222404E+02  0.1645586E+02  0.8987148E+02
Ar  574  0.1341763E+02  0.3571682E+02  0.1636265E+02  0.4442435E+03
Ar  575  0.1403414E+02  0.3297413E+02  0.1861758E+02  0.5706633E+02
Ar  576  0.1086833E+02  0.3537676E+02  0.1869821E+02  0.9085142E+02
Ar  577  0.1115249E+02  0.3203333E+02  0.2198006E+02  0.2139119E+03
Ar  578  0.1326413E+02  0.3521142E+02  0.2128224E+02  0.3280161E+03
Ar  579  0.1370684E+02  0.3219148E+02  0.2425699E+02  0.2507310E+03
Ar  580  0.1069110E+02  0.3552683E+02  0.2425293E+02  0.3328048E+03
Ar  581  0.1122067E+02  0.3296444E+02  0.2712970E+02  0.5503880E+02
Ar  582  0.1317767E+02  0.3622875E+02  0.2649471E+02  0.1756121E+02
Ar  583  0.1402841E+02  0.3266369E+02  0.2910848E+02  0.1739296E+03
Ar  584  0.1077223E+02  0.3551941E+02  0.2986365E+02  0.5384298E+03
Ar  585  0.1124324E+02  0.3227689E+02  0.3228179E+02  0.5718345E+03
Ar  586  0.1309176E+02  0.3522647E+02  0.3221892E+02  0.1530786E+03
Ar  587  0.1313328E+02  0.3315540E+02  0.3505862E+02  0.2940338E+03
Ar  588  0.1011913E+02  0.3568779E+02  0.3535921E+02  0.3725763E+03
Ar  589  0.1590928E+02  0.3725353E+02  0.3773151E+02  0.6029085E+02
Ar  590  0.1861284E+02  0.2953450E+01  0.5290787E+00  0.2141722E+03
Ar  591  0.1873957E+02  0.6200246E-04  0.2604216E+01  0.5419221E+03
Ar  592  0.1598182E+02  0.2618157E+01  0.2903203E+01  0.1196889E+03
Ar  593  0.1468152E+02  0.3726350E+02  0.5435420E+01  0.1817522E+03
Ar  594  0.1876299E+02  0.3154738E+01  0.5501395E+01  0.1635694E+03
Ar  595  0.1849906E+02  0.3758866E+02  0.7539186E+01  0.5346129E+02
Ar  596  0.1620520E+02  0.2581844E+01  0.7959029E+01  0.1462739E+03
Ar  597  0.1610005E+02  0.3762247E+02  0.1063159E+02  0.1755371E+03
Ar  598  0.1924199E+02  0.2770178E+01  0.1017170E+02  0.2322074E+03
Ar  599  0.1881384E+02  0.2794516E+00  0.1267249E+02  0.2316242E+03
Ar  600  0.1658861E+02  0.2855845E+01  0.1291101E+02  0.4205290E+02
Ar  601  0.1617390E+02  0.2135715E+00  0.1563648E+02  0.3804280E+03
Ar  602  0.1897800E+02  0.2756140E+01  0.1542328E+02  0.3014564E+03
Ar  603  0.1931849E+02  0.1630535E+00  0.1879486E+02  0.1723553E+03
Ar  604  0.1617446E+02  0.2987022E+01  0.1913912E+02  0.1298011E+02
Ar  605  0.1661179E+02  0.5900926E+00  0.2164148E+02  0.2602997E+03
Ar  606  0.1923093E+02  0.3256012E+01  0.2193748E+02  0.1126489E+03
Ar  607  0.1898995E+02  0.4281181E+00  0.2444532E+02  0.2348914E+03
Ar  608  0.1564485E+02  0.3384312E+01  0.2422584E+02  0.4868333E+03
Ar  609  0.1618144E+02  0.8403895E+00  0.2647524E+02  0.2254355E+03
Ar  610  0.1921567E+02  0.3558875E+01  0.2698502E+02  0.5605146E+03
Ar  611  0.1796244E+02  0.4949345E+00  0.2948608E+02  0.5685523E+03
Ar  612  0.1578864E+02  0.3520064E+01  0.2966200E+02  0.4739359E+03
Ar  613  0.1588873E+02  0.7390449E+00  0.3220369E+02  0.1397573E+03
Ar  614  0.1847093E+02  0.3437189E+01  0.3216447E+02  0.4225714E+03
Ar  615  0.1869891E+02  0.5182908E+00  0.3581882E+02  0.2733613E+03
Ar  616  0.1665087E+02  0.3069221E+01  0.3494980E+02  0.3825898E+02
Ar  617  0.1616020E+02  0.6020743E+01  0.1947353E+00  0.1109860E+03
Ar  618  0.1943162E+02  0.8361577E+01  0.2816547E+00  0.1608389E+03
Ar  619  0.1913720E+02  0.5264967E+01  0.2764896E+01  0.9035687E+03
Ar  620  0.1571772E+02  0.8408326E+01  0.3280932E+01  0.2057164E+03
Ar  621  0.1601776E+02  0.5602126E+01  0.5224639E+01  0.2839785E+03
Ar  622  0.1902201E+02  0.7944627E+01  0.4838556E+01  0.1277010E+03
Ar  623  0.1907652E+02  0.5651973E+01  0.8254868E+01  0.2139962E+03
Ar  624  0.1644075E+02  0.8089135E+01  0.7623808E+01  0.2770260E+03
Ar  625  0.1675754E+02  0.6016042E+01  0.1087551E+02  0.1342477E+03
Ar  626  0.1962849E+02  0.8606803E+01  0.1108284E+02  0.5269246E+03
Ar  627  0.1895434E+02  0.5459674E+01  0.1330927E+02  0.4988032E+03
Ar  628  0.1681529E+02  0.8451586E+01  0.1367236E+02  0.4468714E+03
Ar  629  0.1647371E+02  0.5866803E+01  0.1578447E+02  0.1363146E+04
Ar  630  0.1959828E+02  0.7925630E+01  0.1650818E+02  0.1653411E+03
Ar  631  0.1885962E+02  0.5229764E+01  0.1888522E+02  0.2201748E+03
Ar  632  0.1713231E+02  0.8457040E+01  0.1886508E+02  0.3961154E+03
Ar  633  0.1612959E+02  0.5403677E+01  0.2140475E+02  0.2588380E+03
Ar  634  0.1882053E+02  0.8307595E+01  0.2208133E+02  0.2231671E+03
Ar  635  0.1859074E+02  0.5433091E+01  0.2446499E+02  0.1291484E+03
Ar  636  0.1594893E+02  0.7959418E+01  0.2400282E+02  0.1861867E+03
Ar  637  0.1622176E+02  0.5838649E+01  0.2684072E+02  0.1920426E+03
Ar  638  0.1884478E+02  0.8217228E+01  0.2693331E+02  0.1697794E+02
Ar  639  0.1879615E+02  0.6072570E+01  0.2978342E+02  0.1019257E+03
Ar  640  0.1637862E+02  0.8848340E+01  0.2950260E+02  0.3535924E+03
Ar  641  0.1606303E+02  0.5823494E+01  0.3260499E+02  0.3815133E+03
Ar  642  0.1884978E+02  0.7883002E+01  0.3309834E+02  0.3236907E+03
Ar  643  0.1871302E+02  0.5568014E+01  0.3568191E+02  0.1866850E+03
Ar  644  0.1662009E+02  0.9061926E+01  0.3547847E+02  0.6793413E+03
Ar  645  0.1655903E+02  0.1118600E+02  0.4284765E+00  0.1542104E+03
Ar  646  0.1903794E+02  0.1360282E+02  0.3767298E+02  0.8906422E+02
Ar  647  0.1906095E+02  0.1135323E+02  0.2866844E+01  0.3644480E+03
Ar  648  0.1648828E+02  0.1395407E+02  0.2597526E+01  0.2274131E+03
Ar  649  0.1660045E+02  0.1090852E+02  0.5498907E+01  0.2000059E+03
Ar  650  0.1896667E+02  0.1429349E+02  0.5307894E+01  0.4185972E+03
Ar  651  0.1906580E+02  0.1069257E+02  0.8056064E+01  0.6918164E+02
Ar  652  0.1659589E+02  0.1366770E+02  0.8102112E+01  0.2243806E+03
Ar  653  0.1651576E+02  0.1074580E+02  0.1034741E+02  0.4660523E+02
Ar  654  0.1895578E+02  0.1339031E+02  0.1069478E+02  0.1261866E+03
Ar  655  0.1905042E+02  0.1098263E+02  0.1334564E+02  0.1748627E+03
Ar  656  0.1640148E+02  0.1345830E+02  0.1331157E+02  0.2550677E+03
Ar  657  0.1630179E+02  0.1107561E+02  0.1603098E+02  0.5359698E+03
Ar  658  0.1884587E+02  0.1366132E+02  0.1631773E+02  0.2563924E+03
Ar  659  0.1927748E+02  0.1088441E+02  0.1914565E+02  0.3216659E+03
Ar  660  0.1646267E+02  0.1345998E+02  0.1887926E+02  0.6707348E+03
Ar  661  0.1603245E+02  0.1071989E+02  0.2164575E+02  0.1793054E+03
Ar  662  0.1867147E+02  0.1354261E+02  0.2149472E+02  0.2130797E+03
Ar  663  0.1803991E+02  0.1072077E+02  0.2460342E+02  0.5976065E+03
Ar  664  0.1539385E+02  0.1342380E+02  0.2409851E+02  0.2495376E+02
Ar  665  0.1561074E+02  0.1109856E+02  0.2692493E+02  0.2478138E+03
Ar  666  0.1898743E+02  0.1284969E+02  0.2716370E+02  0.1256146E+03
Ar  667  0.1943023E+02  0.1059997E+02  0.2969900E+02  0.2624855E+03
Ar  668  0.1602574E+02  0.1338135E+02  0.2954015E+02  0.1003126E+03
Ar  669  0.1667385E+02  0.1149994E+02  0.3215096E+02  0.7727474E+03
Ar  670  0.1940328E+02  0.1315193E+02  0.3192254E+02  0.2170884E+03
Ar  671  0.1936380E+02  0.1078809E+02  0.3538810E+02  0.6897422E+02
Ar  672  0.1631475E+02  0.1454016E+02  0.3562050E+02  0.4372264E+03
Ar  673  0.1663639E+02  0.1644645E+02  0.4954125E+00  0.4377585E+03
Ar  674  0.1868053E+02  0.1906202E+02  0.3750749E+02  0.1708490E+03
Ar  675  0.1901311E+02  0.1709061E+02  0.2931919E+01  0.5002645E+02
Ar  676  0.1581328E+02  0.1894919E+02  0.2855207E+01  0.2033668E+03
Ar  677  0.1591362E+02  0.1613813E+02  0.5492360E+01  0.3050376E+03
Ar  678  0.1791553E+02  0.1953499E+02  0.5398563E+01  0.4735030E+02
Ar  679  0.1869040E+02  0.1699547E+02  0.7672236E+01  0.7405304E+03
Ar  680  0.1616969E+02  0.1919970E+02  0.8466775E+01  0.8620259E+03
Ar  681  0.1579521E+02  0.1617469E+02  0.1020619E+02  0.4339322E+03
Ar  682  0.1873724E+02  0.1848449E+02  0.1085202E+02  0.5556525E+03
Ar  683  0.1918503E+02  0.1598555E+02  0.1356445E+02  0.1754180E+03
Ar  684  0.1599488E+02  0.1825392E+02  0.1300743E+02  0.3401394E+02
Ar  685  0.1642185E+02  0.1605279E+02  0.1595158E+02  0.5202598E+02
Ar  686  0.1895602E+02  0.1854032E+02  0.1582826E+02  0.1354899E+03
Ar  687  0.1891389E+02  0.1617428E+02  0.1863346E+02  0.9663444E+02
Ar  688  0.1581564E+02  0.1867376E+02  0.1858098E+02  0.2903384E+03
Ar  689  0.1579083E+02  0.1593541E+02  0.2151974E+02  0.1655745E+03
Ar  690  0.1845120E+02  0.1790025E+02  0.2144524E+02  0.8272987E+03
Ar  691  0.1785912E+02  0.1546951E+02  0.2413748E+02  0.3369031E+03
Ar  692  0.1639577E+02  0.1813939E+02  0.2464521E+02  0.2336246E+03
Ar  693  0.1604196E+02  0.1587095E+02  0.2740547E+02  0.3682701E+03
Ar  694  0.1839498E+02  0.1863423E+02  0.2716114E+02  0.3720805E+03
Ar  695  0.1899911E+02  0.1611140E+02  0.2948554E+02  0.4038773E+03
Ar  696  0.1600431E+02  0.1850297E+02  0.2987079E+02  0.5110662E+03
Ar  697  0.1644208E+02  0.1565277E+02  0.3202215E+02  0.9860327E+02
Ar  698  0.1904788E+02  0.1888187E+02  0.3164615E+02  0.9695471E+02
Ar  699  0.1906727E+02  0.1637742E+02  0.3458608E+02  0.6506218E+03
Ar  700  0.1599948E+02  0.1842157E+02  0.3410230E+02  0.9967225E+02
Ar  701  0.1630724E+02  0.2188353E+02  0.3707967E+02  0.4632194E+03
Ar  702  0.1936097E+02  0.2410937E+02  0.3741610E+02  0.4755741E+03
Ar  703  0.1879173E+02  0.2117406E+02  0.2163407E+01  0.3481961E+03
Ar  704  0.1646521E+02  0.2385170E+02  0.2837195E+01  0.3763103E+03
Ar  705  0.1572902E+02  0.2197364E+02  0.5558366E+01  0.5038761E+02
Ar  706  0.1876705E+02  0.2428099E+02  0.6191238E+01  0.2356345E+03
Ar  707  0.1857116E+02  0.2138981E+02  0.8170932E+01  0.1382744E+03
Ar  708  0.1586570E+02  0.2497980E+02  0.8062428E+01  0.5963956E+03
Ar  709  0.1610559E+02  0.2131166E+02  0.1083106E+02  0.3861298E+03
Ar  710  0.1841113E+02  0.2448438E+02  0.1083840E+02  0.3819568E+03
Ar  711  0.1846692E+02  0.2130651E+02  0.1328795E+02  0.7506128E+02
Ar  712  0.1588138E+02  0.2318328E+02  0.1376187E+02  0.7220689E+02
Ar  713  0.1582115E+02  0.2147428E+02  0.1678738E+02  0.6736386E+03
Ar  714  0.1887927E+02  0.2374271E+02  0.1602579E+02  0.1509443E+03
Ar  715  0.1863376E+02  0.2122547E+02  0.1884436E+02  0.7673319E+02
Ar  716  0.1615942E+02  0.2485029E+02  0.1833819E+02  0.4107179E+02
Ar  717  0.1574047E+02  0.2143510E+02  0.2094057E+02  0.4221079E+03
Ar  718  0.1849254E+02  0.2425283E+02  0.2077738E+02  0.3242158E+03
Ar  719  0.1812318E+02  0.2110620E+02  0.2355659E+02  0.6375955E+02
Ar  720  0.1642132E+02  0.2428921E+02  0.2402327E+02  0.7768648E+03
Ar  721  0.1637924E+02  0.2156437E+02  0.2676139E+02  0.3412252E+03
Ar  722  0.1926327E+02  0.2371003E+02  0.2603160E+02  0.3766812E+03
Ar  723  0.1861704E+02  0.2185854E+02  0.2935398E+02  0.6217622E+02
Ar  724  0.1555703E+02  0.2412518E+02  0.2918384E+02  0.1145748E+03
Ar  725  0.1548376E+02  0.2173995E+02  0.3184852E+02  0.2347464E+03
Ar  726  0.1813853E+02  0.2518386E+02  0.3140703E+02  0.1745255E+03
Ar  727  0.1892585E+02  0.2191592E+02  0.3431005E+02  0.4729054E+03
Ar  728  0.1600141E+02  0.2505503E+02  0.3479244E+02  0.2196527E+03
Ar  729  0.1708295E+02  0.2640935E+02  0.1268428E+00  0.1229142E+03
Ar  730  0.1913479E+02  0.3014614E+02  0.3754060E+02  0.5647567E+02
Ar  731  0.1815219E+02  0.2730610E+02  0.3052693E+01  0.3685275E+03
Ar  732  0.1633446E+02  0.2990030E+02  0.2303339E+01  0.5441295E+02
Ar  733  0.1617650E+02  0.2709978E+02  0.5587382E+01  0.1886985E+03
Ar  734  0.1899391E+02  0.2941997E+02  0.5988040E+01  0.1838302E+03
Ar  735  0.1915812E+02  0.2731957E+02  0.8965761E+01  0.1523021E+03
Ar  736  0.1627700E+02  0.2924187E+02  0.8281981E+01  0.1471152E+03
Ar  737  0.1614826E+02  0.2674304E+02  0.1096727E+02  0.1069338E+03
Ar  738  0.1935364E+02  0.3004249E+02  0.1079573E+02  0.3659487E+03
Ar  739  0.1906655E+02  0.2769017E+02  0.1335698E+02  0.1342609E+03
Ar  740  0.1628479E+02  0.3010244E+02  0.1396139E+02  0.3979362E+03
Ar  741  0.1664101E+02  0.2692899E+02  0.1557530E+02  0.2560107E+03
Ar  742  0.1942154E+02  0.2987703E+02  0.1641774E+02  0.1003498E+04
Ar  743  0.1838939E+02  0.2707308E+02  0.1884791E+02  0.1071423E+03
Ar  744  0.1659703E+02  0.2977465E+02  0.1881943E+02  0.4077312E+03
Ar  745  0.1613416E+02  0.2679098E+02  0.2150023E+02  0.1305430E+03
Ar  746  0.1904282E+02  0.2971093E+02  0.2103840E+02  0.2599745E+02
Ar  747  0.1889790E+02  0.2642031E+02  0.2374600E+02  0.5022289E+03
Ar  748  0.1689616E+02  0.3021547E+02  0.2346562E+02  0.6762526E+02
Ar  749  0.1634153E+02  0.2696587E+02  0.2613529E+02  0.7307046E+03
Ar  750  0.1960398E+02  0.2937935E+02  0.2640365E+02  0.2763499E+03
Ar  751  0.1902485E+02  0.2627320E+02  0.2821638E+02  0.6439162E+03
Ar  752  0.1682762E+02  0.2881895E+02  0.2903367E+02  0.1738878E+03
Ar  753  0.1532630E+02  0.2753329E+02  0.3280231E+02  0.5554075E+03
Ar  754  0.1853685E+02  0.2941980E+02  0.3228376E+02  0.4171490E+03
Ar  755  0.1924819E+02  0.2673748E+02  0.3497942E+02  0.7175751E+02
Ar  756  0.1601174E+02  0.2902490E+02  0.3557155E+02  0.2774292E+03
Ar  757  0.1602358E+02  0.3252988E+02  0.3728738E+02  0.1534424E+03
Ar  758  0.1928154E+02  0.3468948E+02  0.3764602E+02  0.1381560E+03
Ar  759  0.1871480E+02  0.3263443E+02  0.2671170E+01  0.2624571E+03
Ar  760  0.1573313E+02  0.3488129E+02  0.3183559E+01  0.1968582E+03
Ar  761  0.1627743E+02  0.3222813E+02  0.5241434E+01  0.2153687E+03
Ar  762  0.1888357E+02  0.3486099E+02  0.5384583E+01  0.1681311E+03
Ar  763  0.1891042E+02  0.3254796E+02  0.7766488E+01  0.4346724E+03
Ar  764  0.1583064E+02  0.3503752E+02  0.7868562E+01  0.2613440E+03
Ar  765  0.1553715E+02  0.3197981E+02  0.1086736E+02  0.7445290E+03
Ar  766  0.1860747E+02  0.3495363E+02  0.1043709E+02  0.5675658E+03
Ar  767  0.1920229E+02  0.3238154E+02  0.1403892E+02  0.1076697E+03
Ar  768  0.1698436E+02  0.3510366E+02  0.1337070E+02  0.1815773E+03
Ar  769  0.1628770E+02  0.3260561E+02  0.1618323E+02  0.2101265E+02
Ar  770  0.1920598E+02  0.3570805E+02  0.1660919E+02  0.8470977E+02
Ar  771  0.1868226E+02  0.3284482E+02  0.1873367E+02  0.9253458E+01
Ar  772  0.1656577E+02  0.3568127E+02  0.1880213E+02  0.9459838E+02
Ar  773  0.1659310E+02  0.3302055E+02  0.2151883E+02  0.7698266E+02
Ar  774  0.1948208E+02  0.3497981E+02  0.2165041E+02  0.3280361E+03
Ar  775  0.1908870E+02  0.3266156E+02  0.2422254E+02  0.1085396E+03
Ar  776  0.1616934E+02  0.3593591E+02  0.2410932E+02  0.5466831E+03
Ar  777  0.1667589E+02  0.3143321E+02  0.2666320E+02  0.3155179E+02
Ar  778  0.1768960E+02  0.3501982E+02  0.2724896E+02  0.6802257E+03
Ar  779  0.1875496E+02  0.3220722E+02  0.2989702E+02  0.4706329E+03
Ar  780  0.1551544E+02  0.3566433E+02  0.2973636E+02  0.1220712E+03
Ar  781  0.1569294E+02  0.3215188E+02  0.3313468E+02  0.6125314E+02
Ar  782  0.1816926E+02  0.3551949E+02  0.3197924E+02  0.2432471E+03
Ar  783  0.1920154E+02  0.3233789E+02  0.3496717E+02  0.3013462E+03
Ar  784  0.1628458E+02  0.3548021E+02  0.3479566E+02  0.4243824E+02
Ar  785  0.2174316E+02  0.3738945E+02  0.3745826E+02  0.1213630E+03
Ar  786  0.2461225E+02  0.2578396E+01  0.3745516E+02  0.4147708E+03
Ar  787  0.2422665E+02  0.3103115E+00  0.2384333E+01  0.1187288E+03
Ar  788  0.2149986E+02  0.2440038E+01  0.2656989E+01  0.2317056E+02
Ar  789  0.2116237E+02  0.3775508E+02  0.5369700E+01  0.3473270E+03
Ar  790  0.2452649E+02  0.2278250E+01  0.5466804E+01  0.1474162E+03
Ar  791  0.2459159E+02  0.3740966E+02  0.8365473E+01  0.2911941E+03
Ar  792  0.2165688E+02  0.2141975E+01  0.8070278E+01  0.3134606E+03
Ar  793  0.2158393E+02  0.3761347E+02  0.1060825E+02  0.1122192E+03
Ar  794  0.2449235E+02  0.2805125E+01  0.1034882E+02  0.2550830E+03
Ar  795  0.2458796E+02  0.7502893E+00  0.1315200E+02  0.3261409E+03
Ar  796  0.2152897E+02  0.3339167E+01  0.1330647E+02  0.3576504E+02
Ar  797  0.2149487E+02  0.3445594E+00  0.1518818E+02  0.1947560E+03
Ar  798  0.2363629E+02  0.2495575E+01  0.1582609E+02  0.4091371E+03
Ar  799  0.2446913E+02  0.3117196E+00  0.1885917E+02  0.4754372E+03
Ar  800  0.2146121E+02  0.3208172E+01  0.1903322E+02  0.8882584E+02
Ar  801  0.2178680E+02  0.8372304E+00  0.2141703E+02  0.8141229E+02
Ar  802  0.2447620E+02  0.3049148E+01  0.2154706E+02  0.1605028E+03
Ar  803  0.2442759E+02  0.6404224E+00  0.2414895E+02  0.7445669E+02
Ar  804  0.2177270E+02  0.3001336E+01  0.2445994E+02  0.8341929E+03
Ar  805  0.2183645E+02  0.3850967E+00  0.2707390E+02  0.6690860E+03
Ar  806  0.2424112E+02  0.3058357E+01  0.2700952E+02  0.6329308E+03
Ar  807  0.2437403E+02  0.6248893E+00  0.2958707E+02  0.2431342E+03
Ar  808  0.2137171E+02  0.2962885E+01  0.2973854E+02  0.1048177E+04
Ar  809  0.2171005E+02  0.6118424E+00  0.3260924E+02  0.4508651E+02
Ar  810  0.2429029E+02  0.2968177E+01  0.3324553E+02  0.4393997E+03
Ar  811  0.2434419E+02  0.1570349E+00  0.3490945E+02  0.4356661E+03
Ar  812  0.2163046E+02  0.3391554E+01  0.3573439E+02  0.3267926E+03
Ar  813  0.2172162E+02  0.5520640E+01  0.7334688E+00  0.2012057E+03
Ar  814  0.2424815E+02  0.8746228E+01  0.3725731E+02  0.7686508E+03
Ar  815  0.2482225E+02  0.5140141E+01  0.2932019E+01  0.4370199E+03
Ar  816  0.2222032E+02  0.8056087E+01  0.3376272E+01  0.7384439E+02
Ar  817  0.2204701E+02  0.4996943E+01  0.5295628E+01  0.9325253E+03
Ar  818  0.2462584E+02  0.7755254E+01  0.5692561E+01  0.2359893E+03
Ar  819  0.2472872E+02  0.5596323E+01  0.8244324E+01  0.1357415E+03
Ar  820  0.2128898E+02  0.7832991E+01  0.7481103E+01  0.9783845E+03
Ar  821  0.2203385E+02  0.5639769E+01  0.1052222E+02  0.1814425E+03
Ar  822  0.2458329E+02  0.8551264E+01  0.1125389E+02  0.1243233E+03
Ar  823  0.2420302E+02  0.5638224E+01  0.1294847E+02  0.2144122E+03
Ar  824  0.2167337E+02  0.8408613E+01  0.1369947E+02  0.5247804E+03
Ar  825  0.2170581E+02  0.5143114E+01  0.1602439E+02  0.2232185E+03
Ar  826  0.2499291E+02  0.8035892E+01  0.1567693E+02  0.1805050E+03
Ar  827  0.2464377E+02  0.4528285E+01  0.1828324E+02  0.1546003E+03
Ar  828  0.2208789E+02  0.7965174E+01  0.1864818E+02  0.2020241E+03
Ar  829  0.2175238E+02  0.5778402E+01  0.2164753E+02  0.9292357E+02
Ar  830  0.2506064E+02  0.7590150E+01  0.2129128E+02  0.8925800E+03
Ar  831  0.2461489E+02  0.5705042E+01  0.2398065E+02  0.2022823E+03
Ar  832  0.2174371E+02  0.8060348E+01  0.2434597E+02  0.5779479E+02
Ar  833  0.2226369E+02  0.5920651E+01  0.2714716E+02  0.7184164E+02
Ar  834  0.2491135E+02  0.8225104E+01  0.2782206E+02  0.5672526E+03
Ar  835  0.2428521E+02  0.5861985E+01  0.3032902E+02  0.3766535E+03
Ar  836  0.2145438E+02  0.8304019E+01  0.2985513E+02  0.1649930E+03
Ar  837  0.2182475E+02  0.5585507E+01  0.3267537E+02  0.7256512E+02
Ar  838  0.2411791E+02  0.8391864E+01  0.3258518E+02  0.5587581E+03
Ar  839  0.2466956E+02  0.5742310E+01  0.3510878E+02  0.1052910E+03
Ar  840  0.2170557E+02  0.7895989E+01  0.3520853E+02  0.1096241E+03
Ar  841  0.2184736E+02  0.1162707E+02  0.4647073E+00  0.5743768E+03
Ar  842  0.2384333E+02  0.1449229E+02  0.3761855E+02  0.6329964E+03
Ar  843  0.2460806E+02  0.1071665E+02  0.3690953E+01  0.1866383E+03
Ar  844  0.2191110E+02  0.1368915E+02  0.3222640E+01  0.2226715E+03
Ar  845  0.2130177E+02  0.1091923E+02  0.5481421E+01  0.1398488E+03
Ar  846  0.2477927E+02  0.1381542E+02  0.4953747E+01  0.1933280E+03
Ar  847  0.2396482E+02  0.1096482E+02  0.7559032E+01  0.1930498E+03
Ar  848  0.2199365E+02  0.1388514E+02  0.7917208E+01  0.1072081E+02
Ar  849  0.2255945E+02  0.1143543E+02  0.1070551E+02  0.2747704E+03
Ar  850  0.2519750E+02  0.1328496E+02  0.1059446E+02  0.3377145E+03
Ar  851  0.2479339E+02  0.1106578E+02  0.1355678E+02  0.2378683E+03
Ar  852  0.2175886E+02  0.1356015E+02  0.1369881E+02  0.3946418E+03
Ar  853  0.2155481E+02  0.1099983E+02  0.1587341E+02  0.1896773E+03
Ar  854  0.2437783E+02  0.1307772E+02  0.1587196E+02  0.4734074E+03
Ar  855  0.2456469E+02  0.1078361E+02  0.1864332E+02  0.5404805E+02
Ar  856  0.2135274E+02  0.1341200E+02  0.1922419E+02  0.2009232E+03
Ar  857  0.2213330E+02  0.1020753E+02  0.2163176E+02  0.3741742E+03
Ar  858  0.2471719E+02  0.1328468E+02  0.2166696E+02  0.1617750E+03
Ar  859  0.2479310E+02  0.9994789E+01  0.2481445E+02  0.1262900E+03
Ar  860  0.2100684E+02  0.1352970E+02  0.2435213E+02  0.2932841E+03
Ar  861  0.2188400E+02  0.1076453E+02  0.2675662E+02  0.5469983E+02
Ar  862  0.2384365E+02  0.1349039E+02  0.2637998E+02  0.4584689E+03
Ar  863  0.2376359E+02  0.1079841E+02  0.2947475E+02  0.1203092E+03
Ar  864  0.2172591E+02  0.1395598E+02  0.2924353E+02  0.2576157E+03
Ar  865  0.2201099E+02  0.1086331E+02  0.3292419E+02  0.1094713E+04
Ar  866  0.2422047E+02  0.1381151E+02  0.3198111E+02  0.1662360E+03
Ar  867  0.2425542E+02  0.1119162E+02  0.3500202E+02  0.3144144E+03
Ar  868  0.2166787E+02  0.1361960E+02  0.3492213E+02  0.8828415E+02
Ar  869  0.2136234E+02  0.1715716E+02  0.2196899E+00  0.1812421E+03
Ar  870  0.2454706E+02  0.1869201E+02  0.3092720E+00  0.3312089E+03
Ar  871  0.2392794E+02  0.1660423E+02  0.2939696E+01  0.1392583E+03
Ar  872  0.2163077E+02  0.1925084E+02  0.3158726E+01  0.6357201E+03
Ar  873  0.2172890E+02  0.1673998E+02  0.5859886E+01  0.3804175E+03
Ar  874  0.2470073E+02  0.1862034E+02  0.5875426E+01  0.2331977E+03
Ar  875  0.2492942E+02  0.1608267E+02  0.8738559E+01  0.4184481E+03
Ar  876  0.2121910E+02  0.1952920E+02  0.8004192E+01  0.4541525E+03
Ar  877  0.2192336E+02  0.1618401E+02  0.1031945E+02  0.4639008E+03
Ar  878  0.2388449E+02  0.1881586E+02  0.1042395E+02  0.3852229E+03
Ar  879  0.2503543E+02  0.1546438E+02  0.1358501E+02  0.1659949E+03
Ar  880  0.2225181E+02  0.1864906E+02  0.1358571E+02  0.4277846E+02
Ar  881  0.2185641E+02  0.1650451E+02  0.1625804E+02  0.5045978E+03
Ar  882  0.2414021E+02  0.1884796E+02  0.1664644E+02  0.8793393E+02
Ar  883  0.2382117E+02  0.1584949E+02  0.1906292E+02  0.2698373E+03
Ar  884  0.2127494E+02  0.1893678E+02  0.1829018E+02  0.3721906E+03
Ar  885  0.2146297E+02  0.1671280E+02  0.2175820E+02  0.6054448E+03
Ar  886  0.2456966E+02  0.1942946E+02  0.2105499E+02  0.2302558E+03
Ar  887  0.2437041E+02  0.1708810E+02  0.2378592E+02  0.1478852E+03
Ar  888  0.2046245E+02  0.1850369E+02  0.2432062E+02  0.1113730E+03
Ar  889  0.2110092E+02  0.1636323E+02  0.2681787E+02  0.1875117E+03
Ar  890  0.2496224E+02  0.1906074E+02  0.2655374E+02  0.1199866E+03
Ar  891  0.2430726E+02  0.1700994E+02  0.2906380E+02  0.4089696E+03
Ar  892  0.2169837E+02  0.1917258E+02  0.2897386E+02  0.7674467E+02
Ar  893  0.2185742E+02  0.1663146E+02  0.3225519E+02  0.1642120E+03
Ar  894  0.2422642E+02  0.1908821E+02  0.3221075E+02  0.1546952E+03
Ar  895  0.2412112E+02  0.1680631E+02  0.3484929E+02  0.1817192E+03
Ar  896  0.2186439E+02  0.1944188E+02  0.3467036E+02  0.6066465E+02
Ar  897  0.2137398E+02  0.2127249E+02  0.3733905E+02  0.3545846E+03
Ar  898  0.2375876E+02  0.2427410E+02  0.2582990E+00  0.4380130E+03
Ar  899  0.2462455E+02  0.2181357E+02  0.2792063E+01  0.1257318E+04
Ar  900  0.2143670E+02  0.2424697E+02  0.3372575E+01  0.3350052E+03
Ar  901  0.2142387E+02  0.2191877E+02  0.5426680E+01  0.2545745E+03
Ar  902  0.2441512E+02  0.2434178E+02  0.5371063E+01  0.4853949E+03
Ar  903  0.2360418E+02  0.2184688E+02  0.8394107E+01  0.3418157E+03
Ar  904  0.2140024E+02  0.2416922E+02  0.8554875E+01  0.3535160E+03
Ar  905  0.2125772E+02  0.2124769E+02  0.1092148E+02  0.6991647E+03
Ar  906  0.2421292E+02  0.2453127E+02  0.1105224E+02  0.9711323E+02
Ar  907  0.2439847E+02  0.2149620E+02  0.1360570E+02  0.9159382E+02
Ar  908  0.2164418E+02  0.2388816E+02  0.1346330E+02  0.1119360E+03
Ar  909  0.2126710E+02  0.2096299E+02  0.1572071E+02  0.3371281E+03
Ar  910  0.2397288E+02  0.2468219E+02  0.1650196E+02  0.6758226E+03
Ar  911  0.2367321E+02  0.2199088E+02  0.1840059E+02  0.2011627E+03
Ar  912  0.2106075E+02  0.2403209E+02  0.1868933E+02  0.7216239E+02
Ar  913  0.2111246E+02  0.2054731E+02  0.2144872E+02  0.2228787E+03
Ar  914  0.2403603E+02  0.2445005E+02  0.2084819E+02  0.4414783E+03
Ar  915  0.2386213E+02  0.2188844E+02  0.2377494E+02  0.9426687E+02
Ar  916  0.2129681E+02  0.2434068E+02  0.2321720E+02  0.4172052E+02
Ar  917  0.2189414E+02  0.2135473E+02  0.2624966E+02  0.6597275E+02
Ar  918  0.2425411E+02  0.2414394E+02  0.2650834E+02  0.2079694E+03
Ar  919  0.2444061E+02  0.2126603E+02  0.2943971E+02  0.3391250E+03
Ar  920  0.2146879E+02  0.2395632E+02  0.2903559E+02  0.5849548E+03
Ar  921  0.2150978E+02  0.2156761E+02  0.3189928E+02  0.4014766E+03
Ar  922  0.2410612E+02  0.2406364E+02  0.3147084E+02  0.1882142E+03
Ar  923  0.2449087E+02  0.2151951E+02  0.3565955E+02  0.9497177E+02
Ar  924  0.2196718E+02  0.2407818E+02  0.3500017E+02  0.4695693E+02
Ar  925  0.2143838E+02  0.2717818E+02  0.3731861E+02  0.3162065E+03
Ar  926  0.2456598E+02  0.2975634E+02  0.1668406E+00  0.1668941E+03
Ar  927  0.2343434E+02  0.2705972E+02  0.3224618E+01  0.3272836E+03
Ar  928  0.2115678E+02  0.2979322E+02  0.2879435E+01  0.1583807E+03
Ar  929  0.2128548E+02  0.2693397E+02  0.6026072E+01  0.4490666E+03
Ar  930  0.2483165E+02  0.2952408E+02  0.5810056E+01  0.2553094E+03
Ar  931  0.2414885E+02  0.2670311E+02  0.7906755E+01  0.4753102E+03
Ar  932  0.2186694E+02  0.2990303E+02  0.7869629E+01  0.4503434E+03
Ar  933  0.2169567E+02  0.2716650E+02  0.1106676E+02  0.7714791E+03
Ar  934  0.2434008E+02  0.2935126E+02  0.1009120E+02  0.4064895E+03
Ar  935  0.2434149E+02  0.2683912E+02  0.1366041E+02  0.6643854E+03
Ar  936  0.2191034E+02  0.2986025E+02  0.1363097E+02  0.2542425E+03
Ar  937  0.2127495E+02  0.2694185E+02  0.1584343E+02  0.9734120E+02
Ar  938  0.2432971E+02  0.2962933E+02  0.1643612E+02  0.1006916E+03
Ar  939  0.2475836E+02  0.2708607E+02  0.1915669E+02  0.4307904E+03
Ar  940  0.2199643E+02  0.2964492E+02  0.1880927E+02  0.5122352E+03
Ar  941  0.2133977E+02  0.2676166E+02  0.2071675E+02  0.1530297E+04
Ar  942  0.2444566E+02  0.2963199E+02  0.2148950E+02  0.1518586E+03
Ar  943  0.2379823E+02  0.2688515E+02  0.2370071E+02  0.7948783E+03
Ar  944  0.2196743E+02  0.3042813E+02  0.2431949E+02  0.2012135E+03
Ar  945  0.2196251E+02  0.2660559E+02  0.2652376E+02  0.2416885E+03
Ar  946  0.2415823E+02  0.2997874E+02  0.2701995E+02  0.2901250E+03
Ar  947  0.2414603E+02  0.2709070E+02  0.2934272E+02  0.2822581E+03
Ar  948  0.2143621E+02  0.2996940E+02  0.2961154E+02  0.7882646E+03
Ar  949  0.2169249E+02  0.2712050E+02  0.3262347E+02  0.5628461E+03
Ar  950  0.2441927E+02  0.2960028E+02  0.3208045E+02  0.1659688E+03
Ar  951  0.2428141E+02  0.2748685E+02  0.3496056E+02  0.7821487E+02
Ar  952  0.2119167E+02  0.2954206E+02  0.3496234E+02  0.9568849E+03
Ar  953  0.2199864E+02  0.3198181E+02  0.3206211E+00  0.5470663E+02
Ar  954  0.2402327E+02  0.3466315E+02  0.3724022E+02  0.5499473E+02
Ar  955  0.2441734E+02  0.3210547E+02  0.3229671E+01  0.8250949E+02
Ar  956  0.2191006E+02  0.3527439E+02  0.2976315E+01  0.4276502E+03
Ar  957  0.2132676E+02  0.3228208E+02  0.5396083E+01  0.5520723E+03
Ar  958  0.2408294E+02  0.3465178E+02  0.5705750E+01  0.2693427E+03
Ar  959  0.2403875E+02  0.3286236E+02  0.8825154E+01  0.4131854E+03
Ar  960  0.2119831E+02  0.3497793E+02  0.8214144E+01  0.2885049E+03
Ar  961  0.2145937E+02  0.3264551E+02  0.1120052E+02  0.3685957E+03
Ar  962  0.2423912E+02  0.3539067E+02  0.1117160E+02  0.1557552E+03
Ar  963  0.2424121E+02  0.3240682E+02  0.1328629E+02  0.4289662E+02
Ar  964  0.2109942E+02  0.3534636E+02  0.1357674E+02  0.8978969E+02
Ar  965  0.2205996E+02  0.3219338E+02  0.1605727E+02  0.1057388E+04
Ar  966  0.2409965E+02  0.3583239E+02  0.1609875E+02  0.7627590E+03
Ar  967  0.2446216E+02  0.3214448E+02  0.1909379E+02  0.1498430E+03
Ar  968  0.2165238E+02  0.3547271E+02  0.1903626E+02  0.4083486E+02
Ar  969  0.2160151E+02  0.3250570E+02  0.2106013E+02  0.1281117E+03
Ar  970  0.2458282E+02  0.3479979E+02  0.2187054E+02  0.2857549E+03
Ar  971  0.2539807E+02  0.3214730E+02  0.2434721E+02  0.4504904E+03
Ar  972  0.2192123E+02  0.3610925E+02  0.2368817E+02  0.3489711E+03
Ar  973  0.2133772E+02  0.3278033E+02  0.2760945E+02  0.9301471E+02
Ar  974  0.2363114E+02  0.3441414E+02  0.2569381E+02  0.7616272E+03
Ar  975  0.2413822E+02  0.3230147E+02  0.2940674E+02  0.4845800E+03
Ar  976  0.2048192E+02  0.3593892E+02  0.2922477E+02  0.6436867E+03
Ar  977  0.2168224E+02  0.3223295E+02  0.3257603E+02  0.5860266E+03
Ar  978  0.2347683E+02  0.3563980E+02  0.3093923E+02  0.3849179E+03
Ar  979  0.2377276E+02  0.3233459E+02  0.3510066E+02  0.5095104E+03
Ar  980  0.2172486E+02  0.3548659E+02  0.3440109E+02  0.1209683E+03
Ar  981  0.2726287E+02  0.3741601E+02  0.4413555E+00  0.8357170E+03
Ar  982  0.2964104E+02  0.2138109E+01  0.5559055E+00  0.1137255E+03
Ar  983  0.3042044E+02  0.3763836E+02  0.2700823E+01  0.2235842E+03
Ar  984  0.2706158E+02  0.2347346E+01  0.2894660E+01  0.1021685E+02
Ar  985  0.2677472E+02  0.3736124E+02  0.5056613E+01  0.1059627E+04
Ar  986  0.2991889E+02  0.2396310E+01  0.5891641E+01  0.3839357E+03
Ar  987  0.2956705E+02  0.3690297E+02  0.8072266E+01  0.1014748E+04
Ar  988  0.2692547E+02  0.2656658E+01  0.8297919E+01  0.1473175E+03
Ar  989  0.2798033E+02  0.3767484E+02  0.1093510E+02  0.5438522E+02
Ar  990  0.2960661E+02  0.2543505E+01  0.9879267E+01  0.3579476E+03
Ar  991  0.2930253E+02  0.3740966E+02  0.1375511E+02  0.3007853E+02
Ar  992  0.2733739E+02  0.2854684E+01  0.1289054E+02  0.1178613E+03
Ar  993  0.2680182E+02  0.5466848E+00  0.1630008E+02  0.3011273E+03
Ar  994  0.2953781E+02  0.2608863E+01  0.1604409E+02  0.2813316E+03
Ar  995  0.2977442E+02  0.3664957E+02  0.1899282E+02  0.1896369E+03
Ar  996  0.2814098E+02  0.2053813E+01  0.1946559E+02  0.5947723E+03
Ar  997  0.2731479E+02  0.3735306E+02  0.2187149E+02  0.1584023E+02
Ar  998  0.3038578E+02  0.2507069E+01  0.2221084E+02  0.4246788E+03
Ar  999  0.3003351E+02  0.3733997E+02  0.2465187E+02  0.8079858E+02
Ar 1000  0.2718984E+02  0.3709539E+01  0.2481206E+02  0.7026268E+03
Ar 1001  0.2697094E+02  0.1102185E+01  0.2723337E+02  0.8836300E+02
Ar 1002  0.2977950E+02  0.2785156E+01  0.2687424E+02  0.8976040E+02
Ar 1003  0.2905626E+02  0.3733886E+02  0.2929311E+02  0.5001727E+03
Ar 1004  0.2676944E+02  0.3469298E+01  0.2956345E+02  0.5035491E+03
Ar 1005  0.2635125E+02  0.2333109E+00  0.3228830E+02  0.8130242E+03
Ar 1006  0.2921805E+02  0.2796157E+01  0.3231740E+02  0.1981883E+03
Ar 1007  0.2917791E+02  0.3746817E+02  0.3483289E+02  0.3639278E+03
Ar 1008  0.2748729E+02  0.2514360E+01  0.3586837E+02  0.2016382E+02
Ar 1009  0.2751071E+02  0.5673256E+01  0.3747239E+02  0.1205858E+03
Ar 1010  0.2962383E+02  0.8225359E+01  0.4509164E-01  0.2841418E+03
Ar 1011  0.3002097E+02  0.4787579E+01  0.3161040E+01  0.1043343E+03
Ar 1012  0.2726862E+02  0.8264179E+01  0.2831877E+01  0.2097712E+03
Ar 1013  0.2692635E+02  0.5004653E+01  0.5612793E+01  0.4480331E+03
Ar 1014  0.2978172E+02  0.8009203E+01  0.5104387E+01  0.1781633E+03
Ar 1015  0.2949591E+02  0.6085422E+01  0.8170934E+01  0.1525939E+03
Ar 1016  0.2687641E+02  0.8701644E+01  0.7938720E+01  0.5316039E+02
Ar 1017  0.2703255E+02  0.5639901E+01  0.1065953E+02  0.3087843E+03
Ar 1018  0.2996701E+02  0.7841812E+01  0.1103278E+02  0.3676261E+03
Ar 1019  0.2979213E+02  0.5379294E+01  0.1351383E+02  0.1195143E+04
Ar 1020  0.2726977E+02  0.7935355E+01  0.1334653E+02  0.5382110E+03
Ar 1021  0.2675431E+02  0.5080408E+01  0.1570561E+02  0.7873453E+03
Ar 1022  0.2987242E+02  0.7713120E+01  0.1613604E+02  0.3915515E+03
Ar 1023  0.2964161E+02  0.5311426E+01  0.1837523E+02  0.2128595E+03
Ar 1024  0.2781412E+02  0.7852868E+01  0.1926363E+02  0.1708865E+03
Ar 1025  0.2789068E+02  0.4932332E+01  0.2148936E+02  0.1548184E+03
Ar 1026  0.3056352E+02  0.7783694E+01  0.2166005E+02  0.3053267E+03
Ar 1027  0.3025675E+02  0.5592750E+01  0.2458470E+02  0.1183571E+03
Ar 1028  0.2791223E+02  0.8137301E+01  0.2410608E+02  0.7626411E+03
Ar 1029  0.2775181E+02  0.6326513E+01  0.2696740E+02  0.6322611E+03
Ar 1030  0.2957350E+02  0.9043109E+01  0.2707356E+02  0.5967764E+03
Ar 1031  0.2972576E+02  0.5461409E+01  0.2990049E+02  0.3253089E+03
Ar 1032  0.2728451E+02  0.8149364E+01  0.3047613E+02  0.9309951E+03
Ar 1033  0.2724261E+02  0.5630342E+01  0.3294786E+02  0.4853659E+03
Ar 1034  0.3031528E+02  0.8197641E+01  0.3235130E+02  0.1646879E+03
Ar 1035  0.3025666E+02  0.5768203E+01  0.3526668E+02  0.5508005E+03
Ar 1036  0.2731235E+02  0.8420442E+01  0.3497701E+02  0.3754245E+03
Ar 1037  0.2713441E+02  0.1089396E+02  0.3747762E+02  0.9281943E+02
Ar 1038  0.3012005E+02  0.1420799E+02  0.2383283E+00  0.2746378E+03
Ar 1039  0.2987584E+02  0.1115602E+02  0.2310490E+01  0.1191767E+03
Ar 1040  0.2728733E+02  0.1346652E+02  0.2641179E+01  0.7616136E+03
Ar 1041  0.2741867E+02  0.1107939E+02  0.5199073E+01  0.2502761E+03
Ar 1042  0.2966681E+02  0.1367613E+02  0.5107167E+01  0.9763835E+03
Ar 1043  0.3009993E+02  0.1021483E+02  0.8525898E+01  0.4999163E+03
Ar 1044  0.2733232E+02  0.1332434E+02  0.7399923E+01  0.7114683E+03
Ar 1045  0.2764369E+02  0.1082467E+02  0.1102059E+02  0.2334867E+03
Ar 1046  0.3009997E+02  0.1298800E+02  0.1052630E+02  0.4718184E+03
Ar 1047  0.2957418E+02  0.1027527E+02  0.1352465E+02  0.2367811E+03
Ar 1048  0.2772065E+02  0.1315646E+02  0.1386585E+02  0.2882277E+03
Ar 1049  0.2736210E+02  0.1060151E+02  0.1651176E+02  0.4751943E+03
Ar 1050  0.2999800E+02  0.1394784E+02  0.1637527E+02  0.2450692E+03
Ar 1051  0.2992950E+02  0.1095861E+02  0.1941689E+02  0.3066857E+03
Ar 1052  0.2722956E+02  0.1352235E+02  0.1960184E+02  0.1993163E+03
Ar 1053  0.2713785E+02  0.1037465E+02  0.2167379E+02  0.2855538E+03
Ar 1054  0.3015213E+02  0.1360158E+02  0.2178030E+02  0.4193584E+03
Ar 1055  0.2991556E+02  0.1081918E+02  0.2392764E+02  0.3403328E+02
Ar 1056  0.2710865E+02  0.1329321E+02  0.2413197E+02  0.5111725E+02
Ar 1057  0.2694911E+02  0.1137085E+02  0.2759811E+02  0.1281135E+03
Ar 1058  0.3017352E+02  0.1387464E+02  0.2755798E+02  0.1723941E+03
Ar 1059  0.2965406E+02  0.1115102E+02  0.3016877E+02  0.1528488E+03
Ar 1060  0.2618551E+02  0.1415122E+02  0.2889225E+02  0.5503720E+03
Ar 1061  0.2677454E+02  0.1089830E+02  0.3239648E+02  0.5266608E+03
Ar 1062  0.2874887E+02  0.1417816E+02  0.3184438E+02  0.2226172E+03
Ar 1063  0.2981404E+02  0.1097085E+02  0.3481596E+02  0.6848085E+02
Ar 1064  0.2659184E+02  0.1401363E+02  0.3581119E+02  0.6666973E+03
Ar 1065  0.2740478E+02  0.1649715E+02  0.5247649E+00  0.3020092E+03
Ar 1066  0.2960678E+02  0.1905708E+02  0.3532043E+00  0.1866895E+02
Ar 1067  0.2986390E+02  0.1670507E+02  0.2998381E+01  0.2089754E+03
Ar 1068  0.2699699E+02  0.1904641E+02  0.3127990E+01  0.2437667E+03
Ar 1069  0.2711975E+02  0.1612824E+02  0.5300817E+01  0.5755333E+03
Ar 1070  0.2938053E+02  0.1904912E+02  0.6057469E+01  0.3878890E+02
Ar 1071  0.2980965E+02  0.1655974E+02  0.8836240E+01  0.1335364E+03
Ar 1072  0.2694599E+02  0.1884539E+02  0.8463564E+01  0.6147574E+03
Ar 1073  0.2729647E+02  0.1620728E+02  0.1094676E+02  0.4203967E+03
Ar 1074  0.2967634E+02  0.1939340E+02  0.1092707E+02  0.5854260E+03
Ar 1075  0.3003919E+02  0.1657390E+02  0.1328432E+02  0.3352278E+03
Ar 1076  0.2720359E+02  0.1807378E+02  0.1391929E+02  0.8192339E+02
Ar 1077  0.2724304E+02  0.1565310E+02  0.1667556E+02  0.6895446E+02
Ar 1078  0.2957746E+02  0.1875489E+02  0.1721926E+02  0.9683063E+02
Ar 1079  0.3093591E+02  0.1645320E+02  0.1939570E+02  0.1140973E+03
Ar 1080  0.2672727E+02  0.1819381E+02  0.1882754E+02  0.9206913E+02
Ar 1081  0.2723872E+02  0.1621652E+02  0.2205125E+02  0.1345042E+04
Ar 1082  0.2978240E+02  0.1831872E+02  0.2214675E+02  0.1024544E+03
Ar 1083  0.3014563E+02  0.1587430E+02  0.2443092E+02  0.4054070E+02
Ar 1084  0.2733313E+02  0.1897732E+02  0.2440838E+02  0.2100509E+02
Ar 1085  0.2739348E+02  0.1638332E+02  0.2663561E+02  0.1476253E+03
Ar 1086  0.3016027E+02  0.1841183E+02  0.2674893E+02  0.3852983E+03
Ar 1087  0.2965613E+02  0.1685345E+02  0.2950841E+02  0.4597311E+02
Ar 1088  0.2701092E+02  0.1903634E+02  0.2938433E+02  0.5269986E+03
Ar 1089  0.2642777E+02  0.1666013E+02  0.3268628E+02  0.1061454E+03
Ar 1090  0.2945355E+02  0.1980068E+02  0.3221142E+02  0.8756216E+02
Ar 1091  0.2892684E+02  0.1630860E+02  0.3538724E+02  0.3162708E+03
Ar 1092  0.2672066E+02  0.1912426E+02  0.3494186E+02  0.1764647E+03
Ar 1093  0.2698188E+02  0.2162592E+02  0.7073055E-01  0.5126782E+02
Ar 1094  0.2991814E+02  0.2486544E+02  0.5277613E+00  0.6722050E+03
Ar 1095  0.2919667E+02  0.2164677E+02  0.2561897E+01  0.3051118E+02
Ar 1096  0.2704882E+02  0.2437123E+02  0.2897746E+01  0.8383965E+03
Ar 1097  0.2730898E+02  0.2171108E+02  0.5389090E+01  0.6837207E+02
Ar 1098  0.2980167E+02  0.2435487E+02  0.5858420E+01  0.1218904E+03
Ar 1099  0.2923998E+02  0.2192887E+02  0.8484006E+01  0.1334948E+03
Ar 1100  0.2635688E+02  0.2412156E+02  0.7985361E+01  0.1622553E+03
Ar 1101  0.2645365E+02  0.2137499E+02  0.1066738E+02  0.2546448E+03
Ar 1102  0.2989056E+02  0.2411613E+02  0.1110082E+02  0.2027065E+03
Ar 1103  0.2889985E+02  0.2145668E+02  0.1348175E+02  0.4264808E+03
Ar 1104  0.2685360E+02  0.2426456E+02  0.1281663E+02  0.1348084E+03
Ar 1105  0.2708327E+02  0.2093296E+02  0.1638243E+02  0.1781576E+03
Ar 1106  0.2972170E+02  0.2424155E+02  0.1572681E+02  0.3378783E+03
Ar 1107  0.2992048E+02  0.2131088E+02  0.1960257E+02  0.5978654E+03
Ar 1108  0.2731603E+02  0.2413320E+02  0.1930758E+02  0.1002105E+03
Ar 1109  0.2724390E+02  0.2165966E+02  0.2137134E+02  0.3600277E+03
Ar 1110  0.2955041E+02  0.2462306E+02  0.2196238E+02  0.3596312E+03
Ar 1111  0.2934961E+02  0.2195330E+02  0.2426440E+02  0.4520010E+03
Ar 1112  0.2663048E+02  0.2409054E+02  0.2362653E+02  0.3260808E+03
Ar 1113  0.2718217E+02  0.2165647E+02  0.2673034E+02  0.1187710E+03
Ar 1114  0.2981898E+02  0.2444763E+02  0.2717911E+02  0.2939809E+03
Ar 1115  0.2943644E+02  0.2156742E+02  0.2954123E+02  0.9099711E+02
Ar 1116  0.2679381E+02  0.2411954E+02  0.2941787E+02  0.5659878E+03
Ar 1117  0.2631855E+02  0.2205940E+02  0.3257973E+02  0.2477329E+03
Ar 1118  0.2959105E+02  0.2391013E+02  0.3239959E+02  0.4591845E+03
Ar 1119  0.2903016E+02  0.2143690E+02  0.3528445E+02  0.3525855E+03
Ar 1120  0.2709973E+02  0.2430362E+02  0.3542686E+02  0.1913076E+03
Ar 1121  0.2657462E+02  0.2634528E+02  0.1153329E+00  0.1254503E+03
Ar 1122  0.2973615E+02  0.2924066E+02  0.3769306E+02  0.4028041E+03
Ar 1123  0.2957266E+02  0.2725148E+02  0.2629255E+01  0.3617441E+03
Ar 1124  0.2662192E+02  0.2909427E+02  0.3020615E+01  0.4361008E+03
Ar 1125  0.2702672E+02  0.2676788E+02  0.5846413E+01  0.1133355E+03
Ar 1126  0.2950633E+02  0.2911472E+02  0.5790493E+01  0.1491096E+03
Ar 1127  0.2991777E+02  0.2661051E+02  0.8686056E+01  0.7264954E+02
Ar 1128  0.2752459E+02  0.2940477E+02  0.8414981E+01  0.4777557E+03
Ar 1129  0.2693915E+02  0.2687438E+02  0.1027769E+02  0.1446578E+03
Ar 1130  0.3023797E+02  0.2993849E+02  0.1090029E+02  0.6114165E+03
Ar 1131  0.2928968E+02  0.2743269E+02  0.1365048E+02  0.8494048E+02
Ar 1132  0.2691670E+02  0.2953703E+02  0.1380857E+02  0.3927941E+03
Ar 1133  0.2718050E+02  0.2632320E+02  0.1654747E+02  0.3857394E+03
Ar 1134  0.2977488E+02  0.2925255E+02  0.1658721E+02  0.3792247E+03
Ar 1135  0.3008802E+02  0.2611566E+02  0.1863280E+02  0.2630123E+03
Ar 1136  0.2727729E+02  0.2977769E+02  0.1912650E+02  0.1161519E+03
Ar 1137  0.2729612E+02  0.2698771E+02  0.2105771E+02  0.7099208E+02
Ar 1138  0.3010738E+02  0.2927739E+02  0.2245410E+02  0.2253789E+03
Ar 1139  0.2953582E+02  0.2669885E+02  0.2462347E+02  0.3921276E+02
Ar 1140  0.2687003E+02  0.2894291E+02  0.2392396E+02  0.2302800E+03
Ar 1141  0.2666171E+02  0.2684540E+02  0.2685429E+02  0.5845339E+03
Ar 1142  0.2957856E+02  0.2952969E+02  0.2682952E+02  0.3694690E+03
Ar 1143  0.2894008E+02  0.2685518E+02  0.2952944E+02  0.8179135E+02
Ar 1144  0.2668997E+02  0.2956481E+02  0.2959082E+02  0.2547723E+03
Ar 1145  0.2662094E+02  0.2649342E+02  0.3220759E+02  0.4054829E+03
Ar 1146  0.2942912E+02  0.2892192E+02  0.3271716E+02  0.9759208E+02
Ar 1147  0.2959798E+02  0.2669825E+02  0.3530318E+02  0.1869175E+03
Ar 1148  0.2702520E+02  0.2910206E+02  0.3521214E+02  0.1393880E+03
Ar 1149  0.2721242E+02  0.3231258E+02  0.3753023E+02  0.5268964E+03
Ar 1150  0.2934642E+02  0.3485653E+02  0.3751515E+02  0.3897154E+03
Ar 1151  0.2963605E+02  0.3249443E+02  0.2751843E+01  0.2703536E+03
Ar 1152  0.2681181E+02  0.3474156E+02  0.2869078E+01  0.2897802E+03
Ar 1153  0.2743216E+02  0.3215358E+02  0.5316404E+01  0.5639685E+02
Ar 1154  0.3003496E+02  0.3460728E+02  0.5677477E+01  0.7787830E+03
Ar 1155  0.2987179E+02  0.3202486E+02  0.8017141E+01  0.1594357E+03
Ar 1156  0.2677145E+02  0.3469994E+02  0.8428060E+01  0.2483554E+03
Ar 1157  0.2702540E+02  0.3250314E+02  0.1097891E+02  0.2620909E+03
Ar 1158  0.2946917E+02  0.3498868E+02  0.1135256E+02  0.1861360E+03
Ar 1159  0.3034705E+02  0.3211785E+02  0.1392437E+02  0.5293659E+02
Ar 1160  0.2674968E+02  0.3547358E+02  0.1406403E+02  0.1729391E+02
Ar 1161  0.2656251E+02  0.3220160E+02  0.1636163E+02  0.4996021E+02
Ar 1162  0.2963147E+02  0.3496833E+02  0.1606363E+02  0.1274971E+03
Ar 1163  0.2994547E+02  0.3220144E+02  0.1855695E+02  0.7456107E+03
Ar 1164  0.2673627E+02  0.3514935E+02  0.1862390E+02  0.2976588E+03
Ar 1165  0.2787778E+02  0.3219958E+02  0.2186153E+02  0.1893848E+02
Ar 1166  0.3042178E+02  0.3464910E+02  0.2177467E+02  0.9581844E+03
Ar 1167  0.2982016E+02  0.3244480E+02  0.2472255E+02  0.3090672E+03
Ar 1168  0.2702090E+02  0.3520249E+02  0.2483765E+02  0.2154505E+03
Ar 1169  0.2712539E+02  0.3195495E+02  0.2715188E+02  0.2763647E+03
Ar 1170  0.3010222E+02  0.3471803E+02  0.2754075E+02  0.4187546E+03
Ar 1171  0.3007013E+02  0.3163022E+02  0.3021101E+02  0.1836856E+03
Ar 1172  0.2650194E+02  0.3454374E+02  0.2921295E+02  0.1981369E+03
Ar 1173  0.2620689E+02  0.3230033E+02  0.3278272E+02  0.4473908E+03
Ar 1174  0.2896663E+02  0.3486480E+02  0.3196473E+02  0.1757222E+03
Ar 1175  0.3205702E+02  0.3207339E+02  0.3293282E+02  0.2117517E+03
Ar 1176  0.2651883E+02  0.3512495E+02  0.3480303E+02  0.1266534E+04
Ar 1177  0.3252215E+02  0.3763889E+02  0.1026033E+00  0.8011966E+02
Ar 1178  0.3442180E+02  0.2434721E+01  0.3721166E+02  0.4337170E+03
Ar 1179  0.3502647E+02  0.3759345E+02  0.3064670E+01  0.1915802E+03
Ar 1180  0.3297615E+02  0.2538982E+01  0.2519197E+01  0.2195486E+03
Ar 1181  0.3238363E+02  0.3733605E+02  0.5187650E+01  0.2789945E+03
Ar 1182  0.3451565E+02  0.2357713E+01  0.5510939E+01  0.1579629E+03
Ar 1183  0.3521189E+02  0.1132294E+00  0.8137929E+01  0.3107529E+02
Ar 1184  0.3262944E+02  0.2209117E+01  0.8329295E+01  0.1842290E+03
Ar 1185  0.3217594E+02  0.3723259E+02  0.1072800E+02  0.8892783E+02
Ar 1186  0.3531916E+02  0.2561443E+01  0.1075022E+02  0.9389723E+02
Ar 1187  0.3523797E+02  0.2737816E-01  0.1350916E+02  0.5681060E+02
Ar 1188  0.3194206E+02  0.1970368E+01  0.1327397E+02  0.5546930E+03
Ar 1189  0.3209095E+02  0.9114514E-02  0.1618809E+02  0.5950656E+02
Ar 1190  0.3505798E+02  0.2006695E+01  0.1634621E+02  0.8973324E+03
Ar 1191  0.3478157E+02  0.3718751E+02  0.1901098E+02  0.3059959E+02
Ar 1192  0.3193578E+02  0.1845392E+01  0.1918751E+02  0.5715198E+02
Ar 1193  0.3218290E+02  0.3733685E+02  0.2168767E+02  0.5069008E+03
Ar 1194  0.3494358E+02  0.2459405E+01  0.2091351E+02  0.7540524E+02
Ar 1195  0.3532822E+02  0.3767231E+02  0.2416922E+02  0.1095542E+03
Ar 1196  0.3358837E+02  0.2909992E+01  0.2365239E+02  0.2089713E+03
Ar 1197  0.3306497E+02  0.7536331E+00  0.2612866E+02  0.7500108E+02
Ar 1198  0.3502162E+02  0.2945294E+01  0.2784350E+02  0.2844118E+03
Ar 1199  0.3432114E+02  0.3756729E+02  0.2946049E+02  0.5389993E+03
Ar 1200  0.3166079E+02  0.2172889E+01  0.2943544E+02  0.9475782E+02
Ar 1201  0.3280518E+02  0.5495133E+00  0.3296068E+02  0.2426595E+03
Ar 1202  0.3539625E+02  0.2172619E+01  0.3164270E+02  0.9810732E+02
Ar 1203  0.3634252E+02  0.6552931E+00  0.3471652E+02  0.2373606E+03
Ar 1204  0.3144828E+02  0.2400037E+01  0.3532406E+02  0.2743396E+03
Ar 1205  0.3192589E+02  0.5021130E+01  0.3543820E+00  0.5902046E+02
Ar 1206  0.3475012E+02  0.6659252E+01  0.4354792E+00  0.2042237E+03
Ar 1207  0.3483138E+02  0.5186791E+01  0.3373321E+01  0.2370029E+03
Ar 1208  0.3193025E+02  0.7882589E+01  0.2618663E+01  0.1369049E+03
Ar 1209  0.3220718E+02  0.5368604E+01  0.5784858E+01  0.8077762E+02
Ar 1210  0.3428937E+02  0.8110185E+01  0.5913002E+01  0.3536824E+03
Ar 1211  0.3547509E+02  0.5266690E+01  0.8792104E+01  0.5786088E+02
Ar 1212  0.3258903E+02  0.7542199E+01  0.8922992E+01  0.1891611E+03
Ar 1213  0.3215486E+02  0.4427945E+01  0.1091356E+02  0.8561874E+02
Ar 1214  0.3559019E+02  0.7494526E+01  0.1133874E+02  0.2051888E+03
Ar 1215  0.3548779E+02  0.4591841E+01  0.1387268E+02  0.4031682E+03
Ar 1216  0.3271049E+02  0.7460663E+01  0.1310244E+02  0.1814084E+03
Ar 1217  0.3225032E+02  0.5137739E+01  0.1604405E+02  0.4621663E+03
Ar 1218  0.3519637E+02  0.7214638E+01  0.1585615E+02  0.2418257E+03
Ar 1219  0.3527869E+02  0.5088459E+01  0.1884024E+02  0.3043189E+03
Ar 1220  0.3264943E+02  0.7822822E+01  0.1855071E+02  0.3255147E+03
Ar 1221  0.3261515E+02  0.4985285E+01  0.2113827E+02  0.2683170E+01
Ar 1222  0.3506879E+02  0.8022762E+01  0.2156155E+02  0.1971735E+03
Ar 1223  0.3453543E+02  0.6116967E+01  0.2468865E+02  0.4253376E+02
Ar 1224  0.3242180E+02  0.8881849E+01  0.2437908E+02  0.2815348E+03
Ar 1225  0.3186435E+02  0.5295850E+01  0.2740865E+02  0.2307905E+03
Ar 1226  0.3500357E+02  0.8920010E+01  0.2698791E+02  0.4441652E+03
Ar 1227  0.3502868E+02  0.6046730E+01  0.2938385E+02  0.1383986E+03
Ar 1228  0.3247156E+02  0.8226215E+01  0.2973293E+02  0.4007778E+03
Ar 1229  0.3237342E+02  0.4662202E+01  0.3231154E+02  0.4704017E+03
Ar 1230  0.3565400E+02  0.8073154E+01  0.3233574E+02  0.2386311E+03
Ar 1231  0.3470296E+02  0.4410254E+01  0.3480787E+02  0.3063592E+03
Ar 1232  0.3309984E+02  0.7766691E+01  0.3495504E+02  0.6795695E+03
Ar 1233  0.3269955E+02  0.1095978E+02  0.3763409E+02  0.1075633E+03
Ar 1234  0.3467882E+02  0.1375952E+02  0.3692009E+02  0.2728894E+03
Ar 1235  0.3457956E+02  0.1044398E+02  0.3126424E+01  0.5408343E+03
Ar 1236  0.3219066E+02  0.1414581E+02  0.3095110E+01  0.1751752E+03
Ar 1237  0.3212377E+02  0.1095102E+02  0.5777887E+01  0.6953906E+02
Ar 1238  0.3479389E+02  0.1381219E+02  0.5466897E+01  0.1697232E+03
Ar 1239  0.3534995E+02  0.1153699E+02  0.8701983E+01  0.3957270E+03
Ar 1240  0.3249976E+02  0.1349693E+02  0.8293538E+01  0.8471004E+03
Ar 1241  0.3256745E+02  0.1091104E+02  0.1080447E+02  0.3320084E+03
Ar 1242  0.3511594E+02  0.1366398E+02  0.1114728E+02  0.4078029E+03
Ar 1243  0.3485819E+02  0.1037600E+02  0.1358821E+02  0.1523204E+03
Ar 1244  0.3173798E+02  0.1350106E+02  0.1329097E+02  0.3060371E+03
Ar 1245  0.3168156E+02  0.1038486E+02  0.1663958E+02  0.3812612E+03
Ar 1246  0.3513659E+02  0.1325366E+02  0.1634116E+02  0.7452890E+02
Ar 1247  0.3513453E+02  0.1037629E+02  0.1890643E+02  0.2207410E+03
Ar 1248  0.3261590E+02  0.1341927E+02  0.1875232E+02  0.3445401E+03
Ar 1249  0.3252800E+02  0.1090654E+02  0.2136520E+02  0.9159586E+02
Ar 1250  0.3503650E+02  0.1367202E+02  0.2140265E+02  0.6915700E+03
Ar 1251  0.3568892E+02  0.1123237E+02  0.2416931E+02  0.1303798E+03
Ar 1252  0.3284641E+02  0.1333771E+02  0.2472884E+02  0.3675291E+03
Ar 1253  0.3260318E+02  0.1102826E+02  0.2769961E+02  0.1039829E+03
Ar 1254  0.3550334E+02  0.1335089E+02  0.2777303E+02  0.1038305E+04
Ar 1255  0.3575238E+02  0.1057596E+02  0.2973521E+02  0.4006877E+03
Ar 1256  0.3187463E+02  0.1384013E+02  0.3058669E+02  0.3136973E+03
Ar 1257  0.3298415E+02  0.1069169E+02  0.3226417E+02  0.3454214E+03
Ar 1258  0.3535932E+02  0.1372078E+02  0.3200337E+02  0.1102481E+03
Ar 1259  0.3472321E+02  0.1084547E+02  0.3497682E+02  0.4751014E+03
Ar 1260  0.3173257E+02  0.1360631E+02  0.3424114E+02  0.1848505E+02
Ar 1261  0.3250210E+02  0.1693103E+02  0.6729263E-01  0.2833895E+03
Ar 1262  0.3464367E+02  0.1951806E+02  0.4010216E+00  0.8078198E+03
Ar 1263  0.3512465E+02  0.1649070E+02  0.3005454E+01  0.4093685E+03
Ar 1264  0.3214285E+02  0.1969294E+02  0.3366331E+01  0.3853464E+03
Ar 1265  0.3231145E+02  0.1608564E+02  0.5933709E+01  0.3595487E+02
Ar 1266  0.3511122E+02  0.1868404E+02  0.5609155E+01  0.2580658E+03
Ar 1267  0.3447639E+02  0.1668126E+02  0.8282452E+01  0.1210232E+03
Ar 1268  0.3206582E+02  0.1898572E+02  0.8464787E+01  0.2022784E+03
Ar 1269  0.3272098E+02  0.1597659E+02  0.1110287E+02  0.1373840E+03
Ar 1270  0.3551045E+02  0.1919314E+02  0.1096064E+02  0.7120754E+02
Ar 1271  0.3495747E+02  0.1607208E+02  0.1377988E+02  0.2017417E+03
Ar 1272  0.3211735E+02  0.1965327E+02  0.1390519E+02  0.1754887E+03
Ar 1273  0.3268638E+02  0.1663959E+02  0.1633508E+02  0.1980784E+03
Ar 1274  0.3563964E+02  0.1855375E+02  0.1594335E+02  0.2769560E+03
Ar 1275  0.3531930E+02  0.1587967E+02  0.1878364E+02  0.7228947E+03
Ar 1276  0.3309613E+02  0.1919352E+02  0.1876988E+02  0.1691249E+03
Ar 1277  0.3269410E+02  0.1600839E+02  0.2210159E+02  0.2954756E+03
Ar 1278  0.3484758E+02  0.1872752E+02  0.2151430E+02  0.1387995E+03
Ar 1279  0.3538992E+02  0.1606568E+02  0.2438155E+02  0.2738167E+03
Ar 1280  0.3302170E+02  0.1865232E+02  0.2442447E+02  0.2181790E+03
Ar 1281  0.3265512E+02  0.1600911E+02  0.2728442E+02  0.1186880E+04
Ar 1282  0.3567303E+02  0.1909929E+02  0.2716954E+02  0.3700845E+03
Ar 1283  0.3488964E+02  0.1637687E+02  0.2959772E+02  0.4944958E+03
Ar 1284  0.3258101E+02  0.1901892E+02  0.2937221E+02  0.7745392E+02
Ar 1285  0.3189617E+02  0.1671469E+02  0.3274016E+02  0.2622234E+03
Ar 1286  0.3485707E+02  0.1894063E+02  0.3238236E+02  0.1910453E+03
Ar 1287  0.3465034E+02  0.1634611E+02  0.3456593E+02  0.2826213E+03
Ar 1288  0.3200080E+02  0.1938387E+02  0.3508352E+02  0.5223952E+03
Ar 1289  0.3253921E+02  0.2179124E+02  0.1250417E+00  0.3741469E+03
Ar 1290  0.3474970E+02  0.2397108E+02  0.1075354E+00  0.2492432E+03
Ar 1291  0.3525546E+02  0.2131195E+02  0.3686727E+01  0.1754595E+03
Ar 1292  0.3286425E+02  0.2420616E+02  0.2835781E+01  0.1918274E+02
Ar 1293  0.3214639E+02  0.2198280E+02  0.5772030E+01  0.1167580E+03
Ar 1294  0.3520909E+02  0.2403163E+02  0.5794665E+01  0.1022997E+03
Ar 1295  0.3475882E+02  0.2102845E+02  0.8315969E+01  0.4994915E+02
Ar 1296  0.3228134E+02  0.2405608E+02  0.8461639E+01  0.1376802E+03
Ar 1297  0.3244827E+02  0.2166359E+02  0.1106446E+02  0.2197145E+03
Ar 1298  0.3479623E+02  0.2430740E+02  0.1138567E+02  0.1937768E+03
Ar 1299  0.3507042E+02  0.2119883E+02  0.1398240E+02  0.2311952E+03
Ar 1300  0.3240777E+02  0.2396268E+02  0.1377008E+02  0.3995474E+03
Ar 1301  0.3204435E+02  0.2178142E+02  0.1687455E+02  0.3036366E+03
Ar 1302  0.3458003E+02  0.2392529E+02  0.1655146E+02  0.4072960E+03
Ar 1303  0.3556032E+02  0.2128540E+02  0.1904282E+02  0.2471556E+03
Ar 1304  0.3279387E+02  0.2423006E+02  0.1976344E+02  0.1280234E+03
Ar 1305  0.3259632E+02  0.2144411E+02  0.2205557E+02  0.4252976E+01
Ar 1306  0.3541074E+02  0.2408861E+02  0.2168911E+02  0.2022360E+03
Ar 1307  0.3547298E+02  0.2098123E+02  0.2380818E+02  0.4833885E+03
Ar 1308  0.3268394E+02  0.2431122E+02  0.2402825E+02  0.4524382E+03
Ar 1309  0.3201490E+02  0.2139293E+02  0.2652019E+02  0.1477599E+04
Ar 1310  0.3524292E+02  0.2332609E+02  0.2690523E+02  0.1165640E+03
Ar 1311  0.3514054E+02  0.2128073E+02  0.2966532E+02  0.2395356E+03
Ar 1312  0.3255603E+02  0.2352461E+02  0.2920718E+02  0.9559005E+02
Ar 1313  0.3269976E+02  0.2207000E+02  0.3258850E+02  0.5992400E+02
Ar 1314  0.3552302E+02  0.2405166E+02  0.3198167E+02  0.2336110E+03
Ar 1315  0.3525061E+02  0.2160134E+02  0.3476162E+02  0.1530603E+03
Ar 1316  0.3193847E+02  0.2368706E+02  0.3542952E+02  0.3564179E+03
Ar 1317  0.3271068E+02  0.2680138E+02  0.3754147E+02  0.8603388E+01
Ar 1318  0.3566840E+02  0.2935287E+02  0.3732399E+02  0.2059415E+03
Ar 1319  0.3455857E+02  0.2720491E+02  0.2578483E+01  0.3292305E+03
Ar 1320  0.3231743E+02  0.3011146E+02  0.2538767E+01  0.7054115E+02
Ar 1321  0.3211437E+02  0.2652769E+02  0.5511063E+01  0.2214236E+03
Ar 1322  0.3529709E+02  0.2976064E+02  0.5691557E+01  0.4360268E+03
Ar 1323  0.3544178E+02  0.2717840E+02  0.8058717E+01  0.2785149E+03
Ar 1324  0.3229332E+02  0.2929543E+02  0.8375111E+01  0.3239595E+03
Ar 1325  0.3204993E+02  0.2699205E+02  0.1149737E+02  0.2435180E+03
Ar 1326  0.3507271E+02  0.2959236E+02  0.1151674E+02  0.1215596E+03
Ar 1327  0.3480883E+02  0.2687704E+02  0.1384678E+02  0.1017095E+03
Ar 1328  0.3228991E+02  0.2932292E+02  0.1409057E+02  0.1959172E+03
Ar 1329  0.3272734E+02  0.2722424E+02  0.1648500E+02  0.3852112E+03
Ar 1330  0.3591111E+02  0.2969922E+02  0.1626974E+02  0.3905087E+03
Ar 1331  0.3476179E+02  0.2675579E+02  0.1921156E+02  0.1831549E+04
Ar 1332  0.3245108E+02  0.2934330E+02  0.1923492E+02  0.9094799E+02
Ar 1333  0.3280888E+02  0.2720146E+02  0.2173502E+02  0.7308726E+03
Ar 1334  0.3477158E+02  0.3025916E+02  0.2188399E+02  0.1430291E+03
Ar 1335  0.3609918E+02  0.2647436E+02  0.2397848E+02  0.2441587E+03
Ar 1336  0.3318481E+02  0.2928072E+02  0.2437821E+02  0.2664356E+03
Ar 1337  0.3296135E+02  0.2640785E+02  0.2659324E+02  0.1803532E+03
Ar 1338  0.3567380E+02  0.2934093E+02  0.2680247E+02  0.1025119E+03
Ar 1339  0.3540001E+02  0.2731618E+02  0.2969306E+02  0.9137713E+03
Ar 1340  0.3285677E+02  0.2938971E+02  0.2961598E+02  0.2177496E+03
Ar 1341  0.3212729E+02  0.2658539E+02  0.3242894E+02  0.2663048E+02
Ar 1342  0.3483850E+02  0.2944069E+02  0.3229320E+02  0.1540703E+03
Ar 1343  0.3475722E+02  0.2608155E+02  0.3458064E+02  0.1714436E+03
Ar 1344  0.3221337E+02  0.2900986E+02  0.3496093E+02  0.2084288E+03
Ar 1345  0.2929959E+02  0.3260106E+02  0.3451252E+02  0.4045579E+03
Ar 1346  0.3685369E+02  0.3485335E+02  0.2189967E+01  0.1093506E+04
Ar 1347  0.3565856E+02  0.3168797E+02  0.2128819E+01  0.1627651E+03
Ar 1348  0.3246805E+02  0.3462322E+02  0.2402156E+01  0.6476620E+02
Ar 1349  0.3230906E+02  0.3196604E+02  0.5482635E+01  0.4832455E+03
Ar 1350  0.3505913E+02  0.3429024E+02  0.4784977E+01  0.2083678E+03
Ar 1351  0.3527054E+02  0.3239658E+02  0.7914953E+01  0.3801894E+03
Ar 1352  0.3308567E+02  0.3550098E+02  0.8102029E+01  0.1106290E+03
Ar 1353  0.3264973E+02  0.3254332E+02  0.1059477E+02  0.1140580E+03
Ar 1354  0.3485866E+02  0.3485665E+02  0.1069828E+02  0.1236826E+03
Ar 1355  0.3530667E+02  0.3232863E+02  0.1383825E+02  0.2100458E+03
Ar 1356  0.3253609E+02  0.3486918E+02  0.1401760E+02  0.4419845E+03
Ar 1357  0.3282069E+02  0.3214972E+02  0.1615369E+02  0.1937326E+03
Ar 1358  0.3508366E+02  0.3480036E+02  0.1661290E+02  0.4325685E+03
Ar 1359  0.3499816E+02  0.3172111E+02  0.1862061E+02  0.5286009E+02
Ar 1360  0.3255795E+02  0.3449964E+02  0.1914232E+02  0.2546205E+03
Ar 1361  0.3210654E+02  0.3211803E+02  0.2217381E+02  0.1828226E+03
Ar 1362  0.3508770E+02  0.3434563E+02  0.2149770E+02  0.1306287E+03
Ar 1363  0.3525076E+02  0.3267021E+02  0.2469991E+02  0.5654533E+02
Ar 1364  0.3249856E+02  0.3490980E+02  0.2483643E+02  0.3970807E+03
Ar 1365  0.3273267E+02  0.3201117E+02  0.2690738E+02  0.2937077E+03
Ar 1366  0.3467252E+02  0.3462616E+02  0.2763045E+02  0.3512094E+03
Ar 1367  0.3439559E+02  0.3252349E+02  0.3019793E+02  0.3403429E+03
Ar 1368  0.3205860E+02  0.3505200E+02  0.3108973E+02  0.7305713E+02
Ar 1369  0.3310677E+02  0.3221003E+02  0.3730987E+02  0.1369535E+03
Ar 1370  0.3521049E+02  0.3548733E+02  0.3294650E+02  0.3302268E+03
Ar 1371  0.3529538E+02  0.3255184E+02  0.3469831E+02  0.3784884E+02
Ar 1372  0.3198066E+02  0.3527049E+02  0.3474694E+02  0.2300493E+03
