        1372
Lattice="  0.3778015E+02  0.0000000E+00  0.0000000E+00  0.0000000E+00  0.3778015E+02  0.0000000E+00  0.0000000E+00  0.0000000E+00  0.3778015E+02" Properties=species:S:1:id:I:1:pos:R:3:tempK:R:1
Ar    1  0.3998775E+00  0.3717616E+02  0.3760182E+02  0.2085802E+03
Ar    2  0.3622468E+01  0.2479336E+01  0.6293690E+00  0.1613560E+03
Ar    3  0.3422457E+01  0.5220297E+00  0.3105911E+01  0.2396015E+03
Ar    4  0.1072923E+01  0.3762126E+01  0.3076271E+01  0.4138230E+03
Ar    5  0.1275543E+00  0.4576041E+00  0.4651633E+01  0.5314979E+03
Ar    6  0.2958787E+01  0.3791106E+01  0.5717454E+01  0.4849447E+03
Ar    7  0.1856115E+01  0.1588319E+01  0.8157891E+01  0.1957613E+03
Ar    8  0.3729340E+02  0.3990550E+01  0.9298255E+01  0.9165133E+03
Ar    9  0.1648973E+00  0.5608988E+00  0.1070327E+02  0.2112406E+03
Ar   10  0.2744707E+01  0.3493793E+01  0.1074125E+02  0.3079336E+03
Ar   11  0.2869962E+01  0.4359492E+00  0.1289546E+02  0.9753510E+03
Ar   12  0.8737040E+00  0.3007653E+01  0.1355256E+02  0.6220342E+02
Ar   13  0.3760901E+02  0.3350852E+00  0.1573374E+02  0.1051720E+04
Ar   14  0.2581222E+01  0.2575241E+01  0.1662172E+02  0.9011770E+02
Ar   15  0.1557231E+01  0.4850446E+00  0.1888323E+02  0.2450118E+03
Ar   16  0.3723914E+02  0.3045206E+01  0.1981411E+02  0.1321303E+03
Ar   17  0.3718899E+02  0.3682144E+02  0.2123955E+02  0.2335448E+02
Ar   18  0.2952916E+01  0.2872317E+01  0.2082132E+02  0.1277391E+04
Ar   19  0.2556628E+01  0.3310832E+00  0.2308527E+02  0.9839369E+03
Ar   20  0.3765288E+02  0.1920956E+01  0.2433510E+02  0.4969416E+03
Ar   21  0.3733773E+02  0.1241090E+01  0.2785573E+02  0.4413291E+03
Ar   22  0.2537246E+01  0.2742499E+01  0.2596581E+02  0.3545299E+03
Ar   23  0.3453327E+01  0.1338444E+01  0.2988122E+02  0.4075990E+02
Ar   24  0.6544190E+00  0.1137200E+01  0.3168828E+02  0.7514459E+02
Ar   25  0.3690940E+02  0.3632459E+02  0.3396195E+02  0.3304362E+03
Ar   26  0.4042240E+01  0.2809062E+01  0.3298792E+02  0.8697648E+03
Ar   27  0.2713714E+01  0.1398704E+00  0.3483611E+02  0.1044669E+04
Ar   28  0.1109605E+01  0.3164003E+01  0.3574825E+02  0.2155325E+03
Ar   29  0.1899814E+01  0.5625437E+01  0.1524273E+00  0.8095973E+03
Ar   30  0.2959422E+01  0.8658054E+01  0.9445892E-02  0.4771988E+03
Ar   31  0.2422038E+01  0.6676839E+01  0.3753714E+01  0.8661231E+02
Ar   32  0.3084565E+00  0.8788270E+01  0.2129714E+01  0.6240382E+03
Ar   33  0.3749110E+02  0.6453360E+01  0.5801744E+01  0.3680180E+03
Ar   34  0.3056777E+01  0.9265507E+01  0.5671485E+01  0.2937035E+03
Ar   35  0.2525797E+01  0.6432289E+01  0.8070711E+01  0.2768369E+03
Ar   36  0.3771504E+02  0.8262874E+01  0.8391500E+01  0.3438986E+03
Ar   37  0.6055663E+00  0.6188447E+01  0.1127750E+02  0.4914343E+03
Ar   38  0.2305621E+01  0.9112919E+01  0.1108634E+02  0.9210466E+02
Ar   39  0.2998090E+01  0.6169122E+01  0.1365425E+02  0.4923320E+03
Ar   40  0.4148078E+00  0.8472710E+01  0.1383855E+02  0.3506407E+03
Ar   41  0.3776072E+02  0.5087598E+01  0.1653231E+02  0.3428040E+03
Ar   42  0.3656638E+01  0.8953831E+01  0.1657105E+02  0.4537285E+03
Ar   43  0.4360824E+01  0.5680656E+01  0.1840286E+02  0.4645034E+03
Ar   44  0.1068998E+01  0.7779485E+01  0.1802519E+02  0.1067806E+04
Ar   45  0.1047049E+01  0.5611067E+01  0.2145865E+02  0.8905367E+03
Ar   46  0.2401029E+01  0.9048074E+01  0.2109409E+02  0.1950038E+03
Ar   47  0.3120905E+01  0.5731085E+01  0.2419626E+02  0.2504674E+03
Ar   48  0.3698925E+02  0.8157000E+01  0.2339656E+02  0.3329730E+03
Ar   49  0.3670355E+02  0.4776163E+01  0.2577382E+02  0.2256052E+02
Ar   50  0.1949868E+01  0.7788013E+01  0.2688068E+02  0.1578524E+03
Ar   51  0.2487118E+01  0.4889849E+01  0.2925831E+02  0.4789741E+03
Ar   52  0.3735303E+02  0.7475969E+01  0.2992237E+02  0.2960711E+02
Ar   53  0.3718502E+02  0.5030790E+01  0.3255149E+02  0.2778758E+03
Ar   54  0.2996892E+01  0.7708405E+01  0.3190919E+02  0.6401173E+03
Ar   55  0.3601822E+01  0.5642075E+01  0.3473826E+02  0.3640878E+03
Ar   56  0.7451664E+00  0.7557390E+01  0.3498882E+02  0.8744934E+02
Ar   57  0.3666765E+02  0.1160188E+02  0.3695373E+00  0.7285499E+01
Ar   58  0.2503986E+01  0.1357165E+02  0.3777081E+02  0.6764553E+03
Ar   59  0.3074937E+01  0.1084939E+02  0.2535434E+01  0.4342188E+03
Ar   60  0.3076470E+00  0.1273329E+02  0.3201949E+01  0.4162793E+03
Ar   61  0.3706203E+02  0.1058450E+02  0.6149699E+01  0.4212874E+03
Ar   62  0.2226031E+01  0.1347337E+02  0.5540651E+01  0.7472014E+02
Ar   63  0.2937244E+01  0.1138920E+02  0.8008617E+01  0.1170107E+03
Ar   64  0.2233583E-01  0.1356812E+02  0.8200700E+01  0.2990315E+03
Ar   65  0.3659590E+02  0.1098620E+02  0.1041778E+02  0.5097117E+03
Ar   66  0.2483387E+01  0.1407808E+02  0.1075588E+02  0.2380031E+03
Ar   67  0.2628954E+01  0.1171939E+02  0.1358704E+02  0.2094678E+03
Ar   68  0.3706022E+02  0.1316811E+02  0.1300621E+02  0.2054469E+03
Ar   69  0.3751718E+02  0.1066632E+02  0.1628341E+02  0.8252261E+02
Ar   70  0.1786163E+01  0.1383513E+02  0.1614522E+02  0.8583990E+02
Ar   71  0.2388158E+01  0.1133361E+02  0.1831827E+02  0.1220083E+03
Ar   72  0.3742603E+02  0.1391278E+02  0.1827385E+02  0.5246877E+02
Ar   73  0.3711150E+02  0.1139097E+02  0.2049733E+02  0.3827994E+03
Ar   74  0.2413099E+01  0.1307655E+02  0.2189125E+02  0.2835263E+03
Ar   75  0.1752212E+01  0.1061897E+02  0.2509943E+02  0.7143485E+03
Ar   76  0.5005755E+00  0.1405223E+02  0.2474258E+02  0.4999301E+03
Ar   77  0.7982722E-01  0.1199336E+02  0.2771895E+02  0.2189157E+03
Ar   78  0.4875618E+01  0.1378961E+02  0.2456329E+02  0.4333044E+03
Ar   79  0.2858659E+01  0.1424406E+02  0.2708522E+02  0.9620670E+02
Ar   80  0.2892670E+00  0.1413964E+02  0.3012887E+02  0.1945484E+03
Ar   81  0.3692560E+00  0.1098561E+02  0.3260954E+02  0.1926809E+03
Ar   82  0.2322473E+01  0.1366705E+02  0.3313339E+02  0.2702050E+02
Ar   83  0.2749813E+01  0.1095298E+02  0.3551745E+02  0.3384444E+03
Ar   84  0.3754512E+02  0.1341413E+02  0.3533497E+02  0.5665680E+03
Ar   85  0.3714474E+02  0.1594662E+02  0.3766095E+02  0.5734827E+03
Ar   86  0.2566655E+01  0.1907602E+02  0.3773517E+02  0.1661881E+03
Ar   87  0.2118827E+01  0.1558233E+02  0.2547901E+01  0.7646795E+02
Ar   88  0.3739963E+02  0.1882829E+02  0.2599492E+01  0.2913327E+03
Ar   89  0.3740461E+02  0.1628400E+02  0.4941411E+01  0.9754979E+02
Ar   90  0.2691280E+01  0.1840731E+02  0.5335960E+01  0.5502009E+03
Ar   91  0.2874861E+01  0.1629892E+02  0.7900305E+01  0.4245801E+03
Ar   92  0.1182005E+00  0.1847787E+02  0.7765493E+01  0.3840178E+03
Ar   93  0.1017058E+00  0.1612198E+02  0.1080178E+02  0.4780693E+03
Ar   94  0.2541035E+01  0.1837657E+02  0.1080116E+02  0.1011638E+03
Ar   95  0.2125446E+01  0.1632965E+02  0.1377255E+02  0.1807634E+03
Ar   96  0.9735557E-01  0.1965145E+02  0.1316217E+02  0.8293596E+02
Ar   97  0.3691454E+02  0.1711965E+02  0.1496209E+02  0.6891504E+03
Ar   98  0.3180267E+01  0.1943782E+02  0.1566238E+02  0.3056658E+03
Ar   99  0.2318835E+01  0.1631872E+02  0.1827198E+02  0.6791236E+02
Ar  100  0.3776798E+02  0.1891972E+02  0.1811387E+02  0.3203092E+03
Ar  101  0.7680116E+00  0.1564297E+02  0.2085822E+02  0.1526617E+03
Ar  102  0.3040816E+01  0.1883380E+02  0.2103305E+02  0.4442513E+03
Ar  103  0.2838773E+01  0.1637651E+02  0.2363859E+02  0.2850736E+03
Ar  104  0.3741151E+02  0.1755867E+02  0.2343153E+02  0.6680419E+03
Ar  105  0.5458507E+00  0.1659966E+02  0.2710066E+02  0.2417980E+02
Ar  106  0.5872977E+01  0.1892138E+02  0.2978081E+02  0.3240037E+03
Ar  107  0.3045190E+01  0.1621818E+02  0.2996826E+02  0.1425091E+03
Ar  108  0.3830576E+01  0.1779220E+02  0.2662441E+02  0.3851993E+03
Ar  109  0.7297429E+00  0.1662358E+02  0.3286719E+02  0.6381672E+02
Ar  110  0.2592587E+01  0.2005537E+02  0.2905151E+02  0.1688865E+03
Ar  111  0.3081474E+01  0.1654763E+02  0.3593247E+02  0.2064742E+03
Ar  112  0.3776994E+02  0.1861987E+02  0.3542958E+02  0.6803296E+03
Ar  113  0.3766692E+02  0.2115545E+02  0.2534050E+00  0.1411443E+02
Ar  114  0.2118387E+01  0.2443654E+02  0.4298156E+00  0.1877356E+03
Ar  115  0.2125974E+01  0.2169874E+02  0.3018579E+01  0.1077040E+03
Ar  116  0.3749811E+02  0.2402186E+02  0.3036706E+01  0.2163454E+03
Ar  117  0.3724868E+02  0.2135287E+02  0.5148127E+01  0.8831361E+03
Ar  118  0.3037819E+01  0.2396599E+02  0.5989508E+01  0.3717345E+03
Ar  119  0.2085184E+01  0.2124145E+02  0.7774023E+01  0.1759880E+03
Ar  120  0.3728746E+02  0.2375904E+02  0.7513180E+01  0.1846989E+03
Ar  121  0.3734248E+02  0.2125671E+02  0.1005047E+02  0.6993173E+02
Ar  122  0.1762431E+01  0.2382081E+02  0.1001524E+02  0.4559950E+03
Ar  123  0.3281663E+01  0.2147472E+02  0.1291003E+02  0.4458704E+03
Ar  124  0.1558321E+00  0.2358733E+02  0.1286319E+02  0.1605545E+03
Ar  125  0.3664702E+02  0.2220703E+02  0.1552989E+02  0.1279049E+03
Ar  126  0.2489745E+01  0.2353480E+02  0.1606779E+02  0.5379970E+02
Ar  127  0.3199521E+01  0.2132433E+02  0.1836123E+02  0.1918871E+03
Ar  128  0.8629707E+00  0.2378585E+02  0.1880499E+02  0.3663710E+03
Ar  129  0.4976313E+00  0.2103508E+02  0.2079964E+02  0.3987924E+03
Ar  130  0.3337863E+01  0.2403937E+02  0.2082501E+02  0.3079676E+03
Ar  131  0.4072352E+01  0.2212677E+02  0.2374636E+02  0.1808089E+03
Ar  132  0.2271780E+00  0.2339808E+02  0.2377249E+02  0.4920028E+02
Ar  133  0.1319269E+01  0.2031307E+02  0.2534517E+02  0.1013144E+04
Ar  134  0.1995011E+01  0.2390218E+02  0.2672457E+02  0.7908914E+02
Ar  135  0.3759067E+02  0.2478439E+02  0.2975791E+02  0.1747109E+03
Ar  136  0.3718589E+02  0.2200875E+02  0.2743884E+02  0.3489367E+03
Ar  137  0.1762054E+00  0.2181694E+02  0.3224868E+02  0.7785447E+03
Ar  138  0.2027344E+01  0.2465820E+02  0.3260456E+02  0.1916372E+03
Ar  139  0.2345864E+01  0.2210118E+02  0.3575584E+02  0.1013611E+04
Ar  140  0.3755007E+02  0.2408838E+02  0.3613752E+02  0.4366729E+03
Ar  141  0.1190078E+00  0.2670871E+02  0.1144639E+01  0.4418964E+03
Ar  142  0.2250936E+01  0.2930939E+02  0.3002076E+00  0.2594944E+03
Ar  143  0.2647246E+01  0.2656486E+02  0.3285519E+01  0.2426069E+03
Ar  144  0.3770418E+02  0.2899514E+02  0.3556719E+01  0.5492764E+03
Ar  145  0.3774057E+02  0.2660446E+02  0.5605288E+01  0.1436045E+03
Ar  146  0.2844742E+01  0.2938114E+02  0.5964074E+01  0.1596133E+03
Ar  147  0.2905330E+01  0.2665929E+02  0.8195524E+01  0.3811965E+03
Ar  148  0.3765294E+02  0.2966684E+02  0.7970828E+01  0.5179611E+03
Ar  149  0.3729721E+02  0.2646285E+02  0.1021609E+02  0.8138289E+02
Ar  150  0.2430235E+01  0.2889877E+02  0.1062341E+02  0.2172809E+03
Ar  151  0.2909431E+01  0.2585729E+02  0.1355007E+02  0.2688131E+03
Ar  152  0.3453755E+00  0.2866505E+02  0.1349632E+02  0.1556030E+03
Ar  153  0.3775319E+02  0.2602512E+02  0.1577291E+02  0.3889269E+03
Ar  154  0.2646762E+01  0.2960999E+02  0.1617906E+02  0.1509044E+03
Ar  155  0.2706281E+01  0.2705214E+02  0.1834872E+02  0.9933588E+02
Ar  156  0.3769125E+02  0.2987035E+02  0.1808175E+02  0.2236919E+03
Ar  157  0.5937859E+00  0.2654091E+02  0.2114581E+02  0.2920229E+03
Ar  158  0.2636679E+01  0.3091947E+02  0.2095354E+02  0.1338494E+03
Ar  159  0.2987468E+01  0.2706218E+02  0.2391583E+02  0.9977707E+03
Ar  160  0.3048973E-02  0.2942194E+02  0.2284288E+02  0.1691098E+03
Ar  161  0.2887591E+00  0.2746962E+02  0.2607620E+02  0.2656363E+03
Ar  162  0.2675351E+00  0.3131935E+02  0.2641648E+02  0.8602291E+02
Ar  163  0.3347248E+01  0.2958754E+02  0.2599615E+02  0.9402338E+02
Ar  164  0.1321848E+01  0.2993129E+02  0.2940342E+02  0.2970006E+02
Ar  165  0.3839399E+00  0.2775863E+02  0.3216608E+02  0.2209333E+03
Ar  166  0.2456912E+01  0.2681104E+02  0.2887284E+02  0.2043176E+03
Ar  167  0.2396469E+01  0.2728278E+02  0.3553506E+02  0.5046246E+02
Ar  168  0.3755196E+02  0.2982944E+02  0.3618914E+02  0.6118330E+02
Ar  169  0.4994727E+00  0.3200175E+02  0.6596948E+00  0.5046807E+03
Ar  170  0.4363127E+01  0.3279684E+02  0.2564005E+00  0.1800243E+03
Ar  171  0.2457510E+01  0.3174652E+02  0.3367043E+01  0.3966129E+03
Ar  172  0.3585300E+02  0.3448315E+02  0.3744771E+02  0.7601871E+03
Ar  173  0.2167163E-01  0.3281725E+02  0.6138128E+01  0.4683012E+02
Ar  174  0.2853949E+01  0.3504466E+02  0.6365963E+01  0.3046501E+03
Ar  175  0.2588949E+01  0.3230011E+02  0.8731420E+01  0.2399429E+03
Ar  176  0.2114937E+00  0.3484805E+02  0.8910471E+01  0.4353722E+03
Ar  177  0.1333373E+00  0.3126270E+02  0.1096438E+02  0.2222292E+03
Ar  178  0.3635955E+01  0.3473447E+02  0.1076303E+02  0.5435182E+03
Ar  179  0.2849081E+01  0.3214613E+02  0.1349880E+02  0.5001594E+03
Ar  180  0.6149011E+00  0.3540437E+02  0.1275109E+02  0.3244302E+03
Ar  181  0.2545834E+00  0.3231185E+02  0.1530466E+02  0.2208994E+03
Ar  182  0.6123714E+01  0.3204556E+02  0.1600439E+02  0.6166646E+03
Ar  183  0.2351008E+01  0.3318603E+02  0.1796309E+02  0.1841615E+03
Ar  184  0.3744798E+02  0.3520332E+02  0.1829741E+02  0.8801506E+02
Ar  185  0.1370939E+00  0.3278115E+02  0.2124279E+02  0.7118750E+02
Ar  186  0.2826185E+01  0.3498819E+02  0.2102764E+02  0.1341913E+03
Ar  187  0.3436941E+01  0.3284773E+02  0.2367458E+02  0.3450391E+02
Ar  188  0.3640815E+00  0.3418889E+02  0.2421074E+02  0.9685539E+02
Ar  189  0.3617067E+02  0.3378133E+02  0.2735024E+02  0.4453576E+03
Ar  190  0.2334084E+01  0.3729843E+02  0.2666222E+02  0.3082693E+03
Ar  191  0.2680130E+01  0.3324942E+02  0.2889780E+02  0.1785350E+03
Ar  192  0.4236628E+00  0.3592616E+02  0.2931825E+02  0.3516124E+03
Ar  193  0.3763294E+02  0.3257313E+02  0.3068678E+02  0.6875999E+02
Ar  194  0.1771134E+01  0.3499852E+02  0.3283629E+02  0.2598971E+03
Ar  195  0.1802236E+01  0.3096248E+02  0.3283312E+02  0.2606297E+02
Ar  196  0.1924402E+01  0.3464351E+02  0.3611759E+02  0.4571148E+03
Ar  197  0.4925396E+01  0.3704260E+02  0.2264495E+00  0.4250742E+03
Ar  198  0.7887627E+01  0.2684401E+01  0.1251490E+01  0.1949787E+03
Ar  199  0.7056009E+01  0.3730500E+02  0.3471844E+01  0.3120516E+03
Ar  200  0.4977984E+01  0.4268724E+01  0.3466017E+01  0.6224140E+02
Ar  201  0.4646474E+01  0.7079420E+00  0.6462742E+01  0.1816968E+03
Ar  202  0.7021544E+01  0.2537205E+01  0.5383205E+01  0.1318785E+03
Ar  203  0.7826141E+01  0.1473462E+00  0.8490664E+01  0.6538984E+02
Ar  204  0.5345538E+01  0.3139562E+01  0.8672113E+01  0.1731455E+03
Ar  205  0.4342771E+01  0.1884659E+00  0.1009827E+02  0.2321312E+03
Ar  206  0.8073331E+01  0.3752324E+01  0.1132268E+02  0.2177471E+03
Ar  207  0.8280462E+01  0.5141846E+00  0.1290271E+02  0.4070171E+02
Ar  208  0.4801667E+01  0.3048545E+01  0.1340766E+02  0.2228720E+03
Ar  209  0.2768949E+01  0.3599393E+02  0.1645449E+02  0.3315521E+03
Ar  210  0.7916771E+01  0.2407681E+01  0.1606135E+02  0.8067611E+02
Ar  211  0.5585100E+01  0.3776157E+02  0.1552578E+02  0.2507502E+03
Ar  212  0.5171276E+01  0.2309435E+01  0.1836413E+02  0.3524154E+03
Ar  213  0.5458065E+01  0.3741681E+02  0.2100761E+02  0.2303320E+03
Ar  214  0.7739735E+01  0.3252474E+01  0.2069379E+02  0.5643796E+03
Ar  215  0.8078869E+01  0.4144903E+00  0.2400389E+02  0.1578018E+03
Ar  216  0.5320377E+01  0.2707373E+01  0.2413266E+02  0.2057104E+03
Ar  217  0.6091153E+01  0.5273877E+00  0.2756048E+02  0.3802029E+03
Ar  218  0.8004093E+01  0.3019240E+01  0.2649761E+02  0.3559920E+03
Ar  219  0.8204217E+01  0.3743495E+02  0.3047785E+02  0.1975556E+03
Ar  220  0.6432497E+01  0.3332870E+01  0.2997817E+02  0.4152901E+02
Ar  221  0.5182356E+01  0.3772031E+02  0.3264440E+02  0.2557265E+03
Ar  222  0.8115872E+01  0.2817727E+01  0.3281421E+02  0.6937591E+02
Ar  223  0.8003428E+01  0.3701719E+02  0.3610843E+02  0.4248833E+03
Ar  224  0.5645021E+01  0.2255234E+01  0.3587704E+02  0.6076938E+03
Ar  225  0.5638420E+01  0.5073759E+01  0.4332887E-01  0.2527661E+03
Ar  226  0.8383385E+01  0.8138985E+01  0.2888501E+00  0.2900152E+02
Ar  227  0.8159853E+01  0.5990688E+01  0.3259608E+01  0.3482210E+02
Ar  228  0.5421711E+01  0.8072119E+01  0.2828895E+01  0.1147634E+03
Ar  229  0.5385480E+01  0.6523489E+01  0.5915639E+01  0.2507393E+03
Ar  230  0.8378237E+01  0.8622493E+01  0.6150727E+01  0.5800325E+02
Ar  231  0.8028735E+01  0.6044293E+01  0.8275954E+01  0.2192169E+03
Ar  232  0.5116083E+01  0.8945258E+01  0.8871247E+01  0.4134204E+03
Ar  233  0.5026638E+01  0.5802727E+01  0.1085346E+02  0.2304199E+03
Ar  234  0.8506454E+01  0.8715407E+01  0.9941648E+01  0.7304713E+03
Ar  235  0.7879483E+01  0.6780395E+01  0.1302972E+02  0.1148512E+03
Ar  236  0.5092508E+01  0.8523661E+01  0.1279497E+02  0.2680983E+03
Ar  237  0.5942742E+01  0.6159185E+01  0.1546426E+02  0.3521157E+03
Ar  238  0.7665666E+01  0.9183275E+01  0.1591016E+02  0.2570549E+02
Ar  239  0.7864102E+01  0.5459071E+01  0.1811079E+02  0.9105842E+02
Ar  240  0.5922374E+01  0.8357108E+01  0.1905729E+02  0.4704675E+03
Ar  241  0.5555223E+01  0.5960063E+01  0.2206614E+02  0.4133622E+02
Ar  242  0.8474670E+01  0.7804262E+01  0.2093284E+02  0.3481204E+02
Ar  243  0.7493231E+01  0.6439860E+01  0.2495948E+02  0.2634736E+03
Ar  244  0.4524927E+01  0.8584499E+01  0.2382712E+02  0.8191930E+03
Ar  245  0.6099380E+01  0.6572294E+01  0.2798515E+02  0.2428170E+03
Ar  246  0.8537800E+01  0.9113633E+01  0.2808291E+02  0.6332981E+03
Ar  247  0.9223455E+01  0.6722232E+01  0.3035143E+02  0.4803136E+03
Ar  248  0.4998935E+01  0.9451499E+01  0.2985195E+02  0.2825815E+03
Ar  249  0.6208116E+01  0.6031689E+01  0.3177510E+02  0.1208128E+03
Ar  250  0.8549685E+01  0.8026862E+01  0.3321366E+02  0.2946711E+03
Ar  251  0.8467508E+01  0.4943585E+01  0.3567021E+02  0.7731934E+03
Ar  252  0.5260935E+01  0.8672850E+01  0.3509442E+02  0.1166797E+03
Ar  253  0.6033874E+01  0.1087714E+02  0.8895167E+00  0.2486816E+03
Ar  254  0.8644070E+01  0.1359081E+02  0.4963026E+00  0.4577958E+03
Ar  255  0.8823080E+01  0.1115873E+02  0.3192516E+01  0.1492542E+03
Ar  256  0.5072576E+01  0.1389147E+02  0.2763838E+01  0.2045839E+03
Ar  257  0.5943522E+01  0.1068030E+02  0.4876155E+01  0.1466940E+03
Ar  258  0.8219021E+01  0.1405624E+02  0.4745902E+01  0.8672725E+03
Ar  259  0.8081500E+01  0.1154703E+02  0.7780850E+01  0.1973813E+03
Ar  260  0.5246256E+01  0.1403088E+02  0.7693617E+01  0.4189397E+03
Ar  261  0.5539172E+01  0.1190985E+02  0.1076684E+02  0.5877381E+02
Ar  262  0.8661414E+01  0.1344529E+02  0.1097792E+02  0.1360194E+03
Ar  263  0.7984119E+01  0.1072470E+02  0.1278610E+02  0.2502360E+03
Ar  264  0.5151270E+01  0.1429829E+02  0.1333381E+02  0.3972876E+03
Ar  265  0.5442882E+01  0.1129923E+02  0.1516018E+02  0.1939170E+03
Ar  266  0.8438473E+01  0.1302977E+02  0.1597072E+02  0.1108723E+03
Ar  267  0.8069328E+01  0.1144799E+02  0.1919829E+02  0.4334988E+03
Ar  268  0.5205184E+01  0.1338633E+02  0.1774014E+02  0.9686071E+02
Ar  269  0.4901010E+01  0.1111168E+02  0.2083386E+02  0.5440647E+03
Ar  270  0.7439810E+01  0.1328217E+02  0.2203825E+02  0.1810835E+03
Ar  271  0.8270328E+01  0.1100820E+02  0.2429526E+02  0.1033278E+03
Ar  272  0.5836342E+01  0.1101797E+02  0.2697238E+02  0.5662583E+02
Ar  273  0.2319378E+01  0.1152004E+02  0.3029438E+02  0.1563663E+03
Ar  274  0.8233647E+01  0.1330738E+02  0.2673408E+02  0.1196539E+03
Ar  275  0.7981258E+01  0.1141266E+02  0.3022303E+02  0.2736109E+03
Ar  276  0.4963304E+01  0.1329527E+02  0.3044791E+02  0.1056797E+03
Ar  277  0.5521054E+01  0.1086867E+02  0.3280055E+02  0.9520382E+02
Ar  278  0.8107526E+01  0.1323291E+02  0.3308237E+02  0.2023388E+03
Ar  279  0.7976914E+01  0.1109352E+02  0.3578805E+02  0.2984527E+02
Ar  280  0.5197747E+01  0.1352445E+02  0.3537852E+02  0.8538232E+03
Ar  281  0.5377847E+01  0.1689021E+02  0.4550285E+00  0.5276215E+03
Ar  282  0.8123720E+01  0.1903299E+02  0.3771948E+02  0.6604591E+03
Ar  283  0.8461172E+01  0.1658606E+02  0.2224308E+01  0.3444394E+03
Ar  284  0.5197420E+01  0.1942437E+02  0.2666079E+01  0.9453144E+02
Ar  285  0.5531537E+01  0.1648089E+02  0.4879186E+01  0.5307771E+02
Ar  286  0.8478920E+01  0.1824125E+02  0.5341932E+01  0.9956684E+02
Ar  287  0.8398096E+01  0.1603735E+02  0.8228463E+01  0.4231880E+03
Ar  288  0.5486369E+01  0.1853154E+02  0.8205718E+01  0.7571949E+03
Ar  289  0.5222474E+01  0.1640510E+02  0.1056048E+02  0.9435194E+03
Ar  290  0.8229774E+01  0.1881595E+02  0.1079951E+02  0.5938894E+02
Ar  291  0.8193160E+01  0.1575582E+02  0.1359507E+02  0.3848224E+03
Ar  292  0.5274176E+01  0.1865280E+02  0.1306405E+02  0.7763540E+03
Ar  293  0.5318083E+01  0.1648407E+02  0.1584772E+02  0.1413889E+04
Ar  294  0.8775920E+01  0.1853117E+02  0.1608700E+02  0.5473171E+03
Ar  295  0.7841256E+01  0.1582484E+02  0.1811774E+02  0.1708107E+03
Ar  296  0.5626766E+01  0.1848441E+02  0.1839258E+02  0.4688509E+03
Ar  297  0.5430515E+01  0.1552891E+02  0.2102507E+02  0.1124522E+03
Ar  298  0.8010641E+01  0.1815597E+02  0.2098166E+02  0.3564423E+03
Ar  299  0.7825827E+01  0.1582174E+02  0.2429934E+02  0.5624822E+03
Ar  300  0.5673805E+01  0.1857699E+02  0.2340227E+02  0.7998285E+02
Ar  301  0.5770623E+01  0.1539520E+02  0.2795234E+02  0.6109621E+02
Ar  302  0.7453416E+01  0.1800985E+02  0.2643496E+02  0.3680926E+03
Ar  303  0.5072935E+01  0.1621237E+02  0.3288025E+02  0.3276241E+02
Ar  304  0.8216600E+01  0.1598518E+02  0.3035489E+02  0.2304904E+03
Ar  305  0.2803417E+01  0.1947838E+02  0.3322769E+02  0.1564912E+03
Ar  306  0.8045738E+01  0.1907161E+02  0.3292934E+02  0.5685883E+03
Ar  307  0.8006784E+01  0.1603622E+02  0.3597122E+02  0.1708206E+03
Ar  308  0.5513303E+01  0.1950183E+02  0.3543427E+02  0.8141737E+02
Ar  309  0.5289825E+01  0.2208107E+02  0.9648158E-01  0.9080241E+03
Ar  310  0.7454629E+01  0.2426372E+02  0.8066440E+00  0.3245875E+03
Ar  311  0.7987728E+01  0.2139382E+02  0.2936890E+01  0.1417854E+02
Ar  312  0.5545379E+01  0.2394332E+02  0.3319083E+01  0.2201564E+03
Ar  313  0.4795125E+01  0.2101067E+02  0.5533316E+01  0.8976117E+03
Ar  314  0.9012763E+01  0.2490128E+02  0.5127301E+01  0.1884893E+03
Ar  315  0.8012494E+01  0.2078991E+02  0.7866590E+01  0.1135965E+04
Ar  316  0.5998370E+01  0.2346368E+02  0.7414966E+01  0.4171490E+03
Ar  317  0.5023673E+01  0.2137542E+02  0.9962735E+01  0.1114177E+03
Ar  318  0.7764715E+01  0.2356408E+02  0.1049470E+02  0.8649973E+03
Ar  319  0.8034719E+01  0.2116341E+02  0.1346882E+02  0.1512706E+03
Ar  320  0.5436513E+01  0.2392783E+02  0.1355484E+02  0.1432355E+03
Ar  321  0.5911665E+01  0.2147245E+02  0.1628533E+02  0.6639723E+03
Ar  322  0.8180964E+01  0.2396972E+02  0.1590038E+02  0.3458016E+03
Ar  323  0.8495549E+01  0.2124775E+02  0.1825602E+02  0.2526232E+03
Ar  324  0.5580339E+01  0.2424514E+02  0.1802483E+02  0.3472670E+03
Ar  325  0.6041784E+01  0.2108815E+02  0.2097553E+02  0.3596387E+02
Ar  326  0.7282999E+01  0.2457706E+02  0.2146072E+02  0.6445843E+03
Ar  327  0.7619299E+01  0.2093670E+02  0.2416290E+02  0.6216247E+03
Ar  328  0.5718359E+01  0.2482100E+02  0.2454938E+02  0.4450306E+02
Ar  329  0.5239974E+01  0.2090279E+02  0.2697695E+02  0.1920101E+03
Ar  330  0.7580695E+01  0.2377495E+02  0.2775353E+02  0.3376139E+03
Ar  331  0.7952133E+01  0.2197220E+02  0.3115580E+02  0.2526432E+03
Ar  332  0.3274152E+01  0.2332681E+02  0.2976360E+02  0.1007783E+03
Ar  333  0.5177068E+01  0.2210330E+02  0.3329606E+02  0.5979786E+02
Ar  334  0.5420572E+01  0.2583309E+02  0.3056237E+02  0.5636502E+03
Ar  335  0.7988743E+01  0.2222516E+02  0.3612254E+02  0.1001453E+03
Ar  336  0.4678089E+01  0.2473611E+02  0.3539593E+02  0.1934715E+03
Ar  337  0.5317031E+01  0.2695689E+02  0.7252582E+00  0.1545625E+03
Ar  338  0.6651021E+01  0.2998865E+02  0.5349363E+00  0.1661286E+03
Ar  339  0.8058475E+01  0.2684777E+02  0.2699881E+01  0.4896528E+03
Ar  340  0.4902468E+01  0.2940271E+02  0.3102623E+01  0.4221532E+03
Ar  341  0.5630618E+01  0.2673937E+02  0.5669625E+01  0.2624880E+03
Ar  342  0.8422825E+01  0.2932947E+02  0.6228540E+01  0.3875654E+03
Ar  343  0.7818504E+01  0.2635523E+02  0.8548312E+01  0.6811302E+02
Ar  344  0.5208809E+01  0.2953798E+02  0.8620121E+01  0.6457348E+03
Ar  345  0.4927858E+01  0.2579269E+02  0.1096623E+02  0.2911088E+03
Ar  346  0.8664504E+01  0.2930145E+02  0.1080222E+02  0.5985003E+02
Ar  347  0.7970366E+01  0.2694326E+02  0.1333272E+02  0.2218105E+03
Ar  348  0.4822451E+01  0.2926105E+02  0.1331276E+02  0.1331038E+03
Ar  349  0.5504462E+01  0.2700393E+02  0.1588340E+02  0.3018946E+03
Ar  350  0.8140365E+01  0.2929722E+02  0.1689556E+02  0.4420583E+03
Ar  351  0.8352293E+01  0.2631586E+02  0.1868860E+02  0.7787065E+02
Ar  352  0.5003335E+01  0.3072439E+02  0.1877636E+02  0.2147406E+02
Ar  353  0.4605789E+01  0.2754882E+02  0.2102735E+02  0.4293030E+03
Ar  354  0.7561149E+01  0.2877402E+02  0.2058148E+02  0.3535367E+02
Ar  355  0.8490247E+01  0.2728391E+02  0.2409336E+02  0.4844202E+03
Ar  356  0.5823008E+01  0.2965158E+02  0.2365232E+02  0.2071646E+03
Ar  357  0.6118917E+01  0.2729777E+02  0.2693254E+02  0.3713976E+03
Ar  358  0.8376296E+01  0.2943485E+02  0.2651519E+02  0.3173957E+03
Ar  359  0.8034748E+01  0.2780013E+02  0.3018706E+02  0.3520558E+02
Ar  360  0.4922989E+01  0.2939303E+02  0.2960073E+02  0.1315568E+03
Ar  361  0.3851237E+01  0.2805532E+02  0.3266780E+02  0.2035345E+03
Ar  362  0.7526294E+01  0.3055052E+02  0.3188569E+02  0.6190272E+03
Ar  363  0.7838367E+01  0.2628829E+02  0.3351153E+02  0.3122989E+03
Ar  364  0.6118169E+01  0.2837792E+02  0.3529849E+02  0.7239882E+03
Ar  365  0.3570734E+01  0.3063561E+02  0.3561400E+02  0.4760853E+03
Ar  366  0.7709020E+01  0.3433195E+02  0.4027721E+00  0.7917870E+03
Ar  367  0.7941995E+01  0.3175631E+02  0.3324375E+01  0.1030051E+04
Ar  368  0.4737722E+01  0.3465271E+02  0.3299183E+01  0.7064258E+03
Ar  369  0.5414937E+01  0.3212222E+02  0.5524654E+01  0.2017504E+03
Ar  370  0.8593513E+01  0.3455697E+02  0.5301937E+01  0.1409071E+03
Ar  371  0.8324119E+01  0.3217832E+02  0.7828649E+01  0.1889270E+03
Ar  372  0.5996421E+01  0.3502797E+02  0.7452512E+01  0.7901433E+03
Ar  373  0.6067439E+01  0.3200325E+02  0.1110275E+02  0.8788659E+02
Ar  374  0.7973202E+01  0.3536556E+02  0.1070174E+02  0.3373538E+03
Ar  375  0.8458646E+01  0.3295040E+02  0.1333576E+02  0.1428226E+03
Ar  376  0.5339145E+01  0.3449728E+02  0.1423654E+02  0.1835266E+03
Ar  377  0.8433377E+01  0.3172476E+02  0.1896440E+02  0.2010604E+01
Ar  378  0.7978949E+01  0.3519787E+02  0.1609860E+02  0.2011705E+02
Ar  379  0.1076611E+02  0.3537458E+02  0.1857170E+02  0.9188303E+02
Ar  380  0.5601194E+01  0.3478720E+02  0.1854546E+02  0.7753140E+03
Ar  381  0.6117980E+01  0.3235048E+02  0.2152501E+02  0.2403400E+03
Ar  382  0.8166452E+01  0.3513255E+02  0.2170738E+02  0.6706256E+03
Ar  383  0.8486659E+01  0.3275738E+02  0.2456311E+02  0.2505718E+03
Ar  384  0.5249563E+01  0.3561406E+02  0.2403102E+02  0.2977777E+03
Ar  385  0.5651066E+01  0.3243753E+02  0.2638045E+02  0.3457711E+03
Ar  386  0.7700589E+01  0.3551483E+02  0.2739184E+02  0.2169894E+02
Ar  387  0.7424383E+01  0.3268179E+02  0.2946234E+02  0.5570391E+03
Ar  388  0.5314600E+01  0.3571211E+02  0.2984894E+02  0.3430821E+03
Ar  389  0.4788584E+01  0.3233080E+02  0.3206441E+02  0.3889675E+03
Ar  390  0.8035679E+01  0.3463579E+02  0.3287318E+02  0.3879425E+03
Ar  391  0.7767317E+01  0.3202262E+02  0.3561594E+02  0.7275015E+03
Ar  392  0.5695759E+01  0.3441034E+02  0.3514350E+02  0.1435021E+03
Ar  393  0.1133505E+02  0.3727111E+02  0.1115916E+01  0.1247394E+03
Ar  394  0.1322426E+02  0.2490054E+01  0.1125932E+01  0.4846002E+03
Ar  395  0.1391423E+02  0.2751812E+00  0.3573004E+01  0.8794135E+03
Ar  396  0.1078083E+02  0.2921306E+01  0.3449708E+01  0.9713285E+02
Ar  397  0.1035650E+02  0.3742826E+02  0.5504344E+01  0.3837375E+03
Ar  398  0.1316243E+02  0.2723605E+01  0.6412013E+01  0.9902795E+02
Ar  399  0.1365444E+02  0.3723624E+02  0.8346107E+01  0.8333390E+03
Ar  400  0.9958439E+01  0.2857278E+01  0.8066503E+01  0.8245831E+02
Ar  401  0.1120015E+02  0.3739402E+02  0.1083983E+02  0.7138690E+02
Ar  402  0.1247693E+02  0.2524703E+01  0.1050143E+02  0.2578100E+03
Ar  403  0.1360586E+02  0.3761715E+02  0.1319152E+02  0.2545315E+03
Ar  404  0.1125593E+02  0.2376158E+01  0.1353854E+02  0.9818208E+03
Ar  405  0.1106262E+02  0.3639851E+00  0.1650113E+02  0.1257295E+03
Ar  406  0.1415806E+02  0.2527081E+01  0.1599676E+02  0.3629748E+03
Ar  407  0.1347664E+02  0.1216676E+00  0.1896806E+02  0.1416147E+03
Ar  408  0.1002426E+02  0.2551454E+01  0.1869821E+02  0.3052644E+03
Ar  409  0.1092437E+02  0.3576724E+00  0.2172590E+02  0.4151269E+03
Ar  410  0.1337901E+02  0.3065079E+01  0.2114556E+02  0.4735455E+03
Ar  411  0.1323769E+02  0.9261472E+00  0.2446117E+02  0.1116495E+03
Ar  412  0.9516827E+01  0.3834774E+01  0.2346393E+02  0.3462963E+02
Ar  413  0.1004211E+02  0.3312479E+00  0.2672722E+02  0.4265674E+03
Ar  414  0.1361719E+02  0.2608146E+01  0.2742783E+02  0.9475337E+01
Ar  415  0.1296756E+02  0.3744138E+02  0.2958752E+02  0.1216679E+03
Ar  416  0.1094706E+02  0.3396207E+01  0.2953343E+02  0.1967584E+03
Ar  417  0.9994157E+01  0.3734848E+02  0.3319308E+02  0.3155086E+03
Ar  418  0.1256965E+02  0.1778658E+01  0.3336632E+02  0.2785703E+03
Ar  419  0.1341583E+02  0.3693411E+02  0.3563822E+02  0.6625893E+03
Ar  420  0.1052194E+02  0.1915123E+01  0.3598655E+02  0.3068105E+03
Ar  421  0.1020922E+02  0.5499472E+01  0.6154158E+00  0.2579014E+03
Ar  422  0.1348657E+02  0.8176607E+01  0.3741847E+02  0.1306329E+03
Ar  423  0.1281824E+02  0.5489281E+01  0.2656536E+01  0.8301540E+02
Ar  424  0.1112305E+02  0.8022495E+01  0.2785697E+01  0.7543735E+02
Ar  425  0.1015690E+02  0.5652492E+01  0.5911793E+01  0.2277532E+02
Ar  426  0.1333460E+02  0.8139398E+01  0.5694012E+01  0.5806357E+02
Ar  427  0.1390837E+02  0.5648846E+01  0.8551658E+01  0.5847680E+03
Ar  428  0.1131517E+02  0.9099072E+01  0.8139237E+01  0.7702165E+03
Ar  429  0.1107413E+02  0.6089039E+01  0.1057959E+02  0.3597890E+03
Ar  430  0.1337058E+02  0.8657163E+01  0.1117799E+02  0.1751103E+03
Ar  431  0.1355091E+02  0.5431687E+01  0.1363983E+02  0.4245625E+03
Ar  432  0.1113665E+02  0.7711231E+01  0.1370603E+02  0.6505271E+02
Ar  433  0.1046781E+02  0.4816155E+01  0.1543292E+02  0.7968104E+03
Ar  434  0.1469821E+02  0.8691606E+01  0.1530642E+02  0.8849267E+01
Ar  435  0.1283678E+02  0.5513461E+01  0.1754387E+02  0.4693217E+03
Ar  436  0.1067086E+02  0.8157908E+01  0.1779762E+02  0.5173306E+03
Ar  437  0.1109168E+02  0.5891332E+01  0.2060003E+02  0.5032849E+03
Ar  438  0.1311307E+02  0.8512222E+01  0.2196913E+02  0.2009466E+03
Ar  439  0.1313158E+02  0.5173445E+01  0.2418522E+02  0.1492415E+03
Ar  440  0.1025946E+02  0.8401400E+01  0.2391106E+02  0.3431821E+02
Ar  441  0.1109057E+02  0.5759194E+01  0.2717136E+02  0.3365957E+03
Ar  442  0.1343841E+02  0.8188610E+01  0.2616395E+02  0.4496092E+03
Ar  443  0.1382426E+02  0.5819461E+01  0.3011648E+02  0.3556846E+03
Ar  444  0.1189284E+02  0.8499152E+01  0.2921478E+02  0.1385466E+03
Ar  445  0.1177125E+02  0.5147387E+01  0.3276099E+02  0.2175287E+03
Ar  446  0.1334837E+02  0.7900413E+01  0.3295699E+02  0.3040944E+03
Ar  447  0.1277396E+02  0.4753717E+01  0.3628547E+02  0.4732173E+02
Ar  448  0.1107181E+02  0.8373734E+01  0.3532544E+02  0.2707638E+03
Ar  449  0.1094403E+02  0.1074568E+02  0.3743926E+02  0.1846693E+03
Ar  450  0.1295713E+02  0.1331503E+02  0.3760663E+02  0.4336985E+02
Ar  451  0.1297677E+02  0.1096786E+02  0.2596450E+01  0.4089898E+03
Ar  452  0.1097416E+02  0.1467583E+02  0.2433870E+01  0.8711156E+03
Ar  453  0.1153353E+02  0.1131141E+02  0.5521329E+01  0.2279321E+03
Ar  454  0.1468435E+02  0.1395817E+02  0.5105744E+01  0.2002305E+03
Ar  455  0.1370687E+02  0.1166197E+02  0.7925538E+01  0.4397169E+03
Ar  456  0.1143223E+02  0.1410970E+02  0.8081220E+01  0.9702079E+03
Ar  457  0.1147844E+02  0.1123538E+02  0.1101467E+02  0.7481347E+02
Ar  458  0.1391533E+02  0.1362713E+02  0.1069745E+02  0.3741271E+03
Ar  459  0.1399390E+02  0.1143479E+02  0.1322042E+02  0.3778107E+02
Ar  460  0.1099301E+02  0.1323725E+02  0.1366485E+02  0.7603072E+02
Ar  461  0.1151555E+02  0.1078540E+02  0.1584905E+02  0.2361909E+03
Ar  462  0.1386672E+02  0.1352578E+02  0.1688363E+02  0.3407356E+02
Ar  463  0.1302041E+02  0.1064473E+02  0.1927892E+02  0.1036212E+03
Ar  464  0.1054561E+02  0.1384017E+02  0.1914467E+02  0.9414615E+02
Ar  465  0.1059104E+02  0.1105125E+02  0.2160145E+02  0.5688571E+03
Ar  466  0.1327292E+02  0.1377589E+02  0.2150573E+02  0.5953998E+03
Ar  467  0.1343261E+02  0.1140882E+02  0.2378189E+02  0.5759574E+03
Ar  468  0.1081861E+02  0.1382255E+02  0.2426040E+02  0.1583198E+03
Ar  469  0.1104550E+02  0.1151797E+02  0.2729276E+02  0.7429083E+02
Ar  470  0.1295372E+02  0.1397370E+02  0.2757593E+02  0.6915721E+02
Ar  471  0.1319654E+02  0.1143377E+02  0.3017556E+02  0.4726266E+02
Ar  472  0.1079415E+02  0.1377284E+02  0.3050272E+02  0.1100828E+04
Ar  473  0.1083723E+02  0.1052747E+02  0.3229311E+02  0.2128967E+03
Ar  474  0.1338219E+02  0.1404152E+02  0.3261475E+02  0.1950669E+03
Ar  475  0.1328820E+02  0.1097318E+02  0.3498408E+02  0.7919027E+03
Ar  476  0.1071307E+02  0.1407568E+02  0.3488473E+02  0.4637298E+03
Ar  477  0.1094540E+02  0.1639017E+02  0.3738178E+02  0.3444779E+03
Ar  478  0.1325016E+02  0.1902116E+02  0.2815145E+00  0.5060747E+03
Ar  479  0.1415806E+02  0.1629912E+02  0.1633296E+01  0.1411484E+03
Ar  480  0.1105178E+02  0.1875731E+02  0.2819338E+01  0.1340088E+03
Ar  481  0.1123619E+02  0.1625937E+02  0.5382415E+01  0.4779835E+03
Ar  482  0.1382348E+02  0.1850880E+02  0.4520591E+01  0.4513049E+03
Ar  483  0.1414204E+02  0.1640172E+02  0.7535097E+01  0.2425718E+03
Ar  484  0.1117482E+02  0.1906336E+02  0.8117939E+01  0.3328490E+03
Ar  485  0.1111689E+02  0.1545975E+02  0.1124434E+02  0.1611663E+03
Ar  486  0.1379889E+02  0.1849792E+02  0.1032081E+02  0.8345637E+03
Ar  487  0.1393743E+02  0.1549590E+02  0.1404175E+02  0.1203607E+03
Ar  488  0.1196689E+02  0.1812409E+02  0.1322408E+02  0.2317640E+03
Ar  489  0.1087906E+02  0.1589282E+02  0.1589200E+02  0.7216270E+03
Ar  490  0.1354699E+02  0.1863918E+02  0.1639685E+02  0.2390143E+03
Ar  491  0.1385022E+02  0.1623342E+02  0.1901133E+02  0.2341249E+03
Ar  492  0.1072009E+02  0.1875321E+02  0.1849558E+02  0.2020352E+02
Ar  493  0.1082360E+02  0.1610764E+02  0.2126755E+02  0.1266171E+03
Ar  494  0.1338091E+02  0.1888330E+02  0.2184802E+02  0.9143005E+03
Ar  495  0.1335363E+02  0.1646337E+02  0.2436148E+02  0.3338008E+03
Ar  496  0.1012000E+02  0.1873883E+02  0.2469566E+02  0.5013559E+03
Ar  497  0.1012611E+02  0.1608344E+02  0.2680296E+02  0.6817917E+02
Ar  498  0.1297872E+02  0.1896847E+02  0.2701793E+02  0.7487633E+03
Ar  499  0.1275572E+02  0.1671132E+02  0.3001278E+02  0.1231620E+04
Ar  500  0.1060419E+02  0.1964163E+02  0.3040572E+02  0.3135898E+01
Ar  501  0.1046445E+02  0.1647080E+02  0.3276203E+02  0.5052160E+03
Ar  502  0.1336226E+02  0.1837613E+02  0.3312062E+02  0.3207840E+03
Ar  503  0.1368063E+02  0.1589867E+02  0.3531555E+02  0.2721474E+03
Ar  504  0.1083073E+02  0.1924013E+02  0.3540385E+02  0.6355807E+03
Ar  505  0.1132205E+02  0.2157926E+02  0.3058673E+00  0.2073807E+03
Ar  506  0.1384957E+02  0.2431213E+02  0.1132004E+00  0.1040066E+03
Ar  507  0.1392154E+02  0.2164453E+02  0.2540560E+01  0.1309454E+03
Ar  508  0.1056412E+02  0.2445873E+02  0.2273041E+01  0.1480115E+03
Ar  509  0.1125893E+02  0.2212906E+02  0.4858510E+01  0.1522718E+03
Ar  510  0.1450985E+02  0.2481624E+02  0.6165912E+01  0.1760620E+03
Ar  511  0.1354587E+02  0.2125918E+02  0.7972589E+01  0.8557068E+02
Ar  512  0.1113092E+02  0.2345682E+02  0.8341911E+01  0.3304127E+03
Ar  513  0.1099587E+02  0.2134575E+02  0.1081434E+02  0.1354860E+03
Ar  514  0.1390163E+02  0.2389483E+02  0.1063774E+02  0.1698204E+03
Ar  515  0.1334288E+02  0.2126969E+02  0.1328238E+02  0.4158567E+03
Ar  516  0.1086452E+02  0.2405095E+02  0.1294139E+02  0.5403184E+02
Ar  517  0.1133425E+02  0.2142783E+02  0.1575871E+02  0.1422245E+03
Ar  518  0.1330392E+02  0.2441011E+02  0.1563385E+02  0.1197352E+03
Ar  519  0.1327089E+02  0.2093393E+02  0.1910739E+02  0.7570387E+03
Ar  520  0.1039678E+02  0.2374331E+02  0.1886093E+02  0.2566677E+03
Ar  521  0.1077140E+02  0.2122456E+02  0.2221224E+02  0.6062524E+03
Ar  522  0.1296652E+02  0.2404213E+02  0.2129236E+02  0.8991745E+01
Ar  523  0.1259327E+02  0.2111739E+02  0.2473873E+02  0.9393007E+02
Ar  524  0.9699852E+01  0.2385654E+02  0.2461791E+02  0.4185650E+03
Ar  525  0.1026214E+02  0.2131940E+02  0.2742783E+02  0.2192893E+03
Ar  526  0.1249268E+02  0.2394249E+02  0.2654385E+02  0.1847788E+03
Ar  527  0.1318590E+02  0.2195899E+02  0.2979673E+02  0.8380608E+03
Ar  528  0.1025613E+02  0.2369627E+02  0.2988210E+02  0.7853207E+03
Ar  529  0.1000015E+02  0.2212849E+02  0.3335838E+02  0.2758514E+03
Ar  530  0.1374332E+02  0.2368878E+02  0.3298563E+02  0.3824598E+03
Ar  531  0.1345499E+02  0.2178195E+02  0.3543499E+02  0.5230185E+03
Ar  532  0.1109425E+02  0.2487437E+02  0.3624226E+02  0.1083032E+04
Ar  533  0.8659419E+01  0.2731609E+02  0.3703809E+02  0.1964480E+03
Ar  534  0.1163849E+02  0.2871871E+02  0.3724773E+02  0.6947815E+02
Ar  535  0.1311144E+02  0.2739607E+02  0.2581222E+01  0.5765223E+03
Ar  536  0.1060260E+02  0.2939742E+02  0.3240829E+01  0.7083783E+03
Ar  537  0.1146612E+02  0.2702304E+02  0.5848949E+01  0.1780210E+03
Ar  538  0.1383664E+02  0.2997813E+02  0.5928703E+01  0.1538434E+03
Ar  539  0.1340034E+02  0.2688570E+02  0.9055410E+01  0.2316508E+03
Ar  540  0.1107093E+02  0.2971030E+02  0.8260346E+01  0.6859615E+02
Ar  541  0.1082283E+02  0.2696238E+02  0.1140407E+02  0.3191094E+03
Ar  542  0.1331500E+02  0.2955848E+02  0.1075306E+02  0.2966962E+03
Ar  543  0.1365464E+02  0.2725508E+02  0.1370875E+02  0.1217810E+03
Ar  544  0.1089107E+02  0.2979451E+02  0.1416693E+02  0.6176318E+03
Ar  545  0.1080650E+02  0.2660376E+02  0.1570928E+02  0.3888728E+03
Ar  546  0.1323585E+02  0.2940262E+02  0.1703616E+02  0.1845724E+03
Ar  547  0.1271792E+02  0.2648504E+02  0.1841834E+02  0.7764820E+02
Ar  548  0.1096947E+02  0.2936515E+02  0.1989542E+02  0.2212524E+03
Ar  549  0.1028978E+02  0.2598076E+02  0.2143818E+02  0.1288676E+03
Ar  550  0.1371450E+02  0.2999550E+02  0.2238693E+02  0.7392194E+03
Ar  551  0.1240383E+02  0.2739985E+02  0.2377408E+02  0.1106220E+03
Ar  552  0.1018500E+02  0.3045826E+02  0.2306042E+02  0.2432384E+03
Ar  553  0.1049414E+02  0.2629489E+02  0.2746796E+02  0.3728786E+03
Ar  554  0.1160721E+02  0.3000764E+02  0.2622695E+02  0.3231235E+02
Ar  555  0.1290572E+02  0.2763274E+02  0.2946004E+02  0.4115609E+03
Ar  556  0.1010738E+02  0.3007430E+02  0.2966872E+02  0.1980074E+03
Ar  557  0.1104976E+02  0.2621264E+02  0.3239178E+02  0.2713509E+03
Ar  558  0.1379754E+02  0.3049053E+02  0.3182694E+02  0.1234690E+03
Ar  559  0.1382804E+02  0.2680939E+02  0.3490235E+02  0.1732210E+02
Ar  560  0.1033750E+02  0.3008094E+02  0.3450356E+02  0.8698219E+03
Ar  561  0.1018341E+02  0.3153904E+02  0.1000488E+00  0.1076340E+03
Ar  562  0.1365728E+02  0.3471943E+02  0.3712435E+00  0.5376261E+03
Ar  563  0.1353913E+02  0.3134700E+02  0.2885151E+01  0.3369645E+03
Ar  564  0.1108708E+02  0.3430212E+02  0.2973960E+01  0.2800449E+03
Ar  565  0.1121843E+02  0.3183067E+02  0.5704438E+01  0.8392434E+03
Ar  566  0.1371350E+02  0.3463457E+02  0.5135167E+01  0.2795054E+03
Ar  567  0.1380856E+02  0.3227812E+02  0.8692715E+01  0.3020003E+03
Ar  568  0.1071867E+02  0.3511111E+02  0.8030343E+01  0.3429517E+03
Ar  569  0.1050465E+02  0.3250761E+02  0.1089607E+02  0.1892667E+03
Ar  570  0.1337551E+02  0.3466276E+02  0.1164855E+02  0.4640253E+03
Ar  571  0.1362586E+02  0.3234626E+02  0.1416223E+02  0.4032419E+03
Ar  572  0.1095410E+02  0.3506851E+02  0.1397419E+02  0.2193451E+03
Ar  573  0.1069730E+02  0.3245685E+02  0.1647925E+02  0.2254157E+03
Ar  574  0.1413798E+02  0.3534691E+02  0.1616821E+02  0.3210217E+03
Ar  575  0.1363135E+02  0.3275629E+02  0.1854611E+02  0.1376067E+03
Ar  576  0.8368640E+01  0.3756683E+02  0.1878836E+02  0.1710625E+03
Ar  577  0.1107158E+02  0.3317543E+02  0.2169705E+02  0.7152179E+03
Ar  578  0.1352101E+02  0.3552473E+02  0.2140606E+02  0.1989958E+03
Ar  579  0.1380823E+02  0.3243922E+02  0.2555433E+02  0.1995518E+03
Ar  580  0.1107308E+02  0.3539124E+02  0.2409146E+02  0.3165868E+03
Ar  581  0.1039419E+02  0.3263798E+02  0.2722199E+02  0.2278008E+03
Ar  582  0.1234874E+02  0.3580548E+02  0.2698585E+02  0.2064801E+03
Ar  583  0.1320870E+02  0.3300652E+02  0.2907910E+02  0.7383985E+03
Ar  584  0.1033044E+02  0.3516746E+02  0.3005840E+02  0.2053584E+03
Ar  585  0.1084959E+02  0.3225029E+02  0.3224247E+02  0.1185192E+03
Ar  586  0.1325005E+02  0.3531941E+02  0.3241488E+02  0.3026502E+02
Ar  587  0.1276631E+02  0.3232650E+02  0.3593240E+02  0.7981574E+03
Ar  588  0.1052701E+02  0.3491156E+02  0.3597682E+02  0.3195552E+02
Ar  589  0.1610820E+02  0.7038102E+00  0.1097966E+01  0.5087316E+03
Ar  590  0.1845402E+02  0.2257220E+01  0.3692391E+02  0.1212060E+03
Ar  591  0.1927690E+02  0.3746066E+02  0.3445860E+01  0.5146388E+02
Ar  592  0.1559714E+02  0.3425075E+01  0.3182228E+01  0.1417444E+03
Ar  593  0.1652808E+02  0.3743689E+02  0.5432832E+01  0.2635070E+03
Ar  594  0.1895888E+02  0.3607272E+01  0.5130188E+01  0.6982928E+02
Ar  595  0.1899998E+02  0.7647449E+00  0.8339977E+01  0.3101896E+03
Ar  596  0.1601821E+02  0.2699246E+01  0.8012725E+01  0.4079847E+03
Ar  597  0.1609632E+02  0.3355115E+00  0.1085665E+02  0.1616128E+03
Ar  598  0.1992497E+02  0.2533606E+01  0.1093559E+02  0.1934367E+03
Ar  599  0.1917605E+02  0.7364390E+00  0.1350185E+02  0.6922093E+03
Ar  600  0.1630796E+02  0.3312312E+01  0.1311172E+02  0.1219175E+03
Ar  601  0.1649556E+02  0.3755200E+02  0.1587901E+02  0.1094501E+03
Ar  602  0.1926212E+02  0.2690976E+01  0.1668164E+02  0.7458440E+03
Ar  603  0.1906460E+02  0.3722589E+02  0.1918896E+02  0.1597508E+03
Ar  604  0.1651254E+02  0.2810044E+01  0.1887171E+02  0.1660137E+03
Ar  605  0.1640652E+02  0.2427532E+00  0.2164116E+02  0.1264263E+03
Ar  606  0.1875029E+02  0.3023464E+01  0.2152964E+02  0.2774488E+03
Ar  607  0.1887089E+02  0.2076892E-01  0.2450695E+02  0.1050361E+04
Ar  608  0.1598198E+02  0.3085428E+01  0.2405401E+02  0.1381654E+04
Ar  609  0.1670184E+02  0.8808562E+00  0.2733784E+02  0.3293673E+03
Ar  610  0.1794105E+02  0.3820451E+01  0.2660285E+02  0.3223585E+03
Ar  611  0.1839583E+02  0.9765352E+00  0.3037989E+02  0.3163505E+03
Ar  612  0.1520646E+02  0.2178372E+01  0.3012523E+02  0.6820316E+03
Ar  613  0.1640906E+02  0.2739416E+00  0.3307655E+02  0.4973145E+03
Ar  614  0.1818782E+02  0.3736248E+01  0.3330410E+02  0.1772692E+03
Ar  615  0.1729396E+02  0.3684517E+02  0.3632965E+02  0.3724384E+03
Ar  616  0.1520195E+02  0.1977007E+01  0.3568557E+02  0.4865812E+03
Ar  617  0.1615357E+02  0.5022819E+01  0.3748563E+02  0.3306662E+03
Ar  618  0.1872076E+02  0.7981858E+01  0.3738367E+02  0.3799063E+03
Ar  619  0.1818044E+02  0.6391765E+01  0.2619444E+01  0.2328953E+03
Ar  620  0.1491318E+02  0.7975515E+01  0.2817631E+01  0.8289589E+03
Ar  621  0.1606057E+02  0.5350331E+01  0.6122246E+01  0.2361576E+03
Ar  622  0.1913666E+02  0.8809814E+01  0.5171011E+01  0.1050053E+03
Ar  623  0.1890211E+02  0.6725932E+01  0.7553779E+01  0.6438540E+03
Ar  624  0.1604601E+02  0.8172304E+01  0.8344723E+01  0.2746577E+03
Ar  625  0.1745558E+02  0.5847997E+01  0.1026835E+02  0.5226539E+02
Ar  626  0.1908773E+02  0.8811781E+01  0.1029622E+02  0.4102300E+02
Ar  627  0.1975083E+02  0.4877559E+01  0.1344049E+02  0.4042221E+03
Ar  628  0.1669924E+02  0.8225936E+01  0.1278756E+02  0.4363666E+02
Ar  629  0.1663298E+02  0.5264300E+01  0.1596165E+02  0.4956344E+03
Ar  630  0.1887872E+02  0.8019995E+01  0.1632585E+02  0.4780562E+02
Ar  631  0.1921886E+02  0.5839409E+01  0.1909644E+02  0.3294782E+03
Ar  632  0.1582389E+02  0.7837141E+01  0.1841155E+02  0.3708044E+03
Ar  633  0.1637372E+02  0.5554388E+01  0.2104551E+02  0.1621479E+03
Ar  634  0.1823545E+02  0.8134500E+01  0.2168515E+02  0.1902774E+03
Ar  635  0.1910967E+02  0.5542715E+01  0.2430318E+02  0.2450091E+03
Ar  636  0.1584419E+02  0.7919893E+01  0.2378749E+02  0.8537468E+03
Ar  637  0.1544760E+02  0.5827295E+01  0.2683719E+02  0.1166832E+04
Ar  638  0.1877149E+02  0.7742587E+01  0.2681904E+02  0.2933353E+03
Ar  639  0.1781649E+02  0.4166909E+01  0.2969235E+02  0.2680689E+03
Ar  640  0.1539601E+02  0.8703044E+01  0.2884650E+02  0.1236282E+03
Ar  641  0.1508669E+02  0.4747842E+01  0.3358201E+02  0.7120504E+03
Ar  642  0.1740103E+02  0.7543463E+01  0.3111432E+02  0.1126448E+03
Ar  643  0.1855504E+02  0.6722449E+01  0.3420679E+02  0.1118034E+03
Ar  644  0.1606505E+02  0.8596548E+01  0.3493937E+02  0.5140943E+03
Ar  645  0.1606407E+02  0.1038944E+02  0.2593787E+00  0.5210445E+02
Ar  646  0.1935218E+02  0.1283592E+02  0.3755803E+02  0.4309272E+02
Ar  647  0.1890491E+02  0.1021655E+02  0.2069742E+01  0.6622575E+03
Ar  648  0.1607999E+02  0.1339582E+02  0.1874320E+01  0.1734248E+03
Ar  649  0.1576568E+02  0.1060833E+02  0.4877603E+01  0.1649974E+03
Ar  650  0.1985516E+02  0.1335625E+02  0.4949449E+01  0.2183308E+03
Ar  651  0.1813029E+02  0.1123605E+02  0.7329426E+01  0.1052279E+03
Ar  652  0.1632588E+02  0.1409948E+02  0.8101091E+01  0.5362846E+03
Ar  653  0.1591515E+02  0.1066824E+02  0.1072542E+02  0.8776609E+02
Ar  654  0.1922715E+02  0.1352555E+02  0.1101808E+02  0.4664744E+03
Ar  655  0.1894518E+02  0.1111311E+02  0.1336496E+02  0.5403625E+03
Ar  656  0.1656094E+02  0.1325746E+02  0.1420325E+02  0.6215308E+03
Ar  657  0.1630962E+02  0.1104238E+02  0.1649130E+02  0.6909337E+02
Ar  658  0.1983508E+02  0.1453135E+02  0.1619095E+02  0.1553089E+02
Ar  659  0.1860214E+02  0.1019143E+02  0.1918727E+02  0.9704353E+02
Ar  660  0.1684120E+02  0.1368250E+02  0.1902150E+02  0.1664007E+03
Ar  661  0.1579530E+02  0.1073611E+02  0.2107651E+02  0.2669171E+03
Ar  662  0.1959786E+02  0.1245798E+02  0.2263909E+02  0.4649315E+03
Ar  663  0.1836723E+02  0.1042861E+02  0.2479333E+02  0.2682757E+03
Ar  664  0.1624031E+02  0.1337734E+02  0.2398658E+02  0.8427965E+02
Ar  665  0.1555606E+02  0.1159757E+02  0.2689794E+02  0.3413904E+03
Ar  666  0.1947163E+02  0.1343715E+02  0.2641317E+02  0.4270417E+03
Ar  667  0.1850189E+02  0.1080614E+02  0.2937534E+02  0.7410758E+03
Ar  668  0.1569205E+02  0.1393490E+02  0.2989757E+02  0.3380638E+02
Ar  669  0.1633349E+02  0.1066443E+02  0.3195058E+02  0.4468614E+03
Ar  670  0.1920831E+02  0.1341277E+02  0.3188399E+02  0.1629445E+03
Ar  671  0.1848945E+02  0.1068291E+02  0.3459265E+02  0.4769846E+02
Ar  672  0.1598178E+02  0.1303850E+02  0.3502695E+02  0.6811142E+02
Ar  673  0.1676473E+02  0.1592738E+02  0.3728946E+02  0.1233129E+03
Ar  674  0.1930404E+02  0.1862520E+02  0.3618993E+02  0.5006491E+02
Ar  675  0.1922447E+02  0.1603257E+02  0.2425781E+01  0.5506354E+03
Ar  676  0.1696232E+02  0.1852289E+02  0.2067788E+01  0.3535724E+03
Ar  677  0.1705269E+02  0.1658065E+02  0.5343617E+01  0.2666839E+03
Ar  678  0.1958430E+02  0.1861637E+02  0.4451701E+01  0.5699713E+02
Ar  679  0.1900384E+02  0.1600347E+02  0.8455314E+01  0.2004693E+03
Ar  680  0.1638281E+02  0.1899728E+02  0.7798309E+01  0.1805158E+03
Ar  681  0.1628806E+02  0.1651062E+02  0.1031680E+02  0.9255884E+03
Ar  682  0.1994822E+02  0.1892801E+02  0.1026094E+02  0.5316562E+03
Ar  683  0.1889258E+02  0.1569274E+02  0.1327483E+02  0.4846338E+03
Ar  684  0.1693864E+02  0.1924006E+02  0.1369154E+02  0.8873783E+03
Ar  685  0.1677233E+02  0.1633166E+02  0.1626828E+02  0.8068200E+02
Ar  686  0.1934203E+02  0.1942697E+02  0.1722458E+02  0.6969887E+03
Ar  687  0.1893307E+02  0.1663447E+02  0.1902624E+02  0.1742580E+03
Ar  688  0.1647124E+02  0.1859083E+02  0.1967101E+02  0.4292313E+03
Ar  689  0.1661729E+02  0.1579560E+02  0.2165456E+02  0.2478800E+03
Ar  690  0.1868801E+02  0.1894516E+02  0.2208834E+02  0.4587398E+03
Ar  691  0.1891577E+02  0.1637313E+02  0.2441214E+02  0.3081629E+03
Ar  692  0.1581151E+02  0.1851561E+02  0.2382143E+02  0.6000011E+02
Ar  693  0.1601541E+02  0.1603242E+02  0.2657570E+02  0.1620780E+03
Ar  694  0.1800015E+02  0.1863787E+02  0.2707027E+02  0.8765308E+03
Ar  695  0.1876598E+02  0.1585989E+02  0.2937805E+02  0.1435649E+03
Ar  696  0.1566085E+02  0.1807424E+02  0.2941638E+02  0.1351646E+03
Ar  697  0.1656721E+02  0.1613969E+02  0.3238067E+02  0.3970755E+03
Ar  698  0.1891975E+02  0.1840005E+02  0.3228166E+02  0.2333625E+03
Ar  699  0.1895601E+02  0.1567347E+02  0.3477271E+02  0.1299703E+03
Ar  700  0.1593977E+02  0.1873411E+02  0.3571661E+02  0.5583853E+03
Ar  701  0.1727573E+02  0.2155086E+02  0.3722181E+02  0.9030718E+02
Ar  702  0.1763826E+02  0.2537697E+02  0.3728934E+02  0.1619846E+03
Ar  703  0.1886919E+02  0.2350091E+02  0.2038790E+01  0.2437653E+03
Ar  704  0.1577398E+02  0.2481024E+02  0.2565007E+01  0.3992633E+03
Ar  705  0.1703150E+02  0.2165732E+02  0.4517846E+01  0.1597389E+03
Ar  706  0.1891797E+02  0.2460318E+02  0.5434616E+01  0.3776974E+03
Ar  707  0.1891881E+02  0.2173189E+02  0.7408007E+01  0.1523016E+03
Ar  708  0.1691991E+02  0.2421733E+02  0.8327726E+01  0.1331965E+03
Ar  709  0.1635230E+02  0.2180905E+02  0.1101774E+02  0.1441317E+03
Ar  710  0.1943441E+02  0.2399851E+02  0.1088704E+02  0.2023038E+03
Ar  711  0.1944495E+02  0.2131854E+02  0.1365866E+02  0.2978432E+03
Ar  712  0.1615315E+02  0.2378810E+02  0.1412695E+02  0.5142802E+03
Ar  713  0.1578069E+02  0.2124979E+02  0.1660953E+02  0.3068555E+03
Ar  714  0.1886690E+02  0.2345926E+02  0.1670262E+02  0.3578435E+03
Ar  715  0.1908032E+02  0.2215898E+02  0.1994585E+02  0.1254161E+02
Ar  716  0.1580160E+02  0.2330349E+02  0.1895160E+02  0.7710580E+03
Ar  717  0.1546031E+02  0.2121555E+02  0.2190621E+02  0.1613943E+03
Ar  718  0.1750344E+02  0.2514919E+02  0.2231584E+02  0.1401244E+03
Ar  719  0.1830206E+02  0.2193080E+02  0.2359937E+02  0.2365547E+03
Ar  720  0.1527963E+02  0.2388689E+02  0.2465947E+02  0.1087627E+03
Ar  721  0.1524488E+02  0.2213994E+02  0.2742920E+02  0.3730463E+03
Ar  722  0.1780362E+02  0.2490835E+02  0.2750585E+02  0.2299008E+03
Ar  723  0.1906794E+02  0.2144442E+02  0.2860405E+02  0.1389386E+03
Ar  724  0.1523327E+02  0.2508171E+02  0.2962317E+02  0.4259812E+03
Ar  725  0.1614802E+02  0.2116911E+02  0.3157160E+02  0.3073487E+03
Ar  726  0.1805630E+02  0.2420535E+02  0.3122343E+02  0.4023849E+03
Ar  727  0.1949341E+02  0.2249825E+02  0.3388890E+02  0.5340932E+02
Ar  728  0.1654043E+02  0.2414336E+02  0.3423281E+02  0.2407151E+02
Ar  729  0.1538528E+02  0.2808657E+02  0.2284390E+00  0.2626767E+03
Ar  730  0.1880267E+02  0.2945174E+02  0.3756095E+02  0.4756864E+03
Ar  731  0.1933272E+02  0.2729397E+02  0.3266270E+01  0.2760848E+03
Ar  732  0.1663494E+02  0.2958751E+02  0.3124491E+01  0.5422989E+03
Ar  733  0.1694951E+02  0.2735518E+02  0.5908987E+01  0.9373985E+02
Ar  734  0.1973111E+02  0.3001177E+02  0.6549563E+01  0.2540945E+03
Ar  735  0.1979876E+02  0.2664966E+02  0.8180239E+01  0.8987673E+03
Ar  736  0.1661724E+02  0.2991485E+02  0.8662984E+01  0.6251114E+03
Ar  737  0.1645113E+02  0.2679126E+02  0.1118827E+02  0.5646905E+03
Ar  738  0.1955301E+02  0.3007438E+02  0.1091536E+02  0.7271226E+03
Ar  739  0.1930034E+02  0.2640815E+02  0.1399176E+02  0.6901329E+03
Ar  740  0.1681736E+02  0.2886295E+02  0.1425803E+02  0.5224200E+03
Ar  741  0.1562543E+02  0.2629811E+02  0.1644632E+02  0.5475442E+03
Ar  742  0.1855513E+02  0.2946887E+02  0.1681465E+02  0.4132386E+02
Ar  743  0.1786871E+02  0.2702727E+02  0.1948857E+02  0.8062932E+03
Ar  744  0.1604282E+02  0.2961905E+02  0.1907357E+02  0.2441206E+03
Ar  745  0.1460495E+02  0.2670832E+02  0.2092755E+02  0.9332771E+02
Ar  746  0.1778841E+02  0.2951865E+02  0.2191697E+02  0.4823785E+03
Ar  747  0.1903071E+02  0.2709830E+02  0.2508181E+02  0.2803315E+03
Ar  748  0.1626278E+02  0.2969577E+02  0.2544216E+02  0.9077693E+03
Ar  749  0.1463226E+02  0.2698128E+02  0.2678183E+02  0.3701256E+03
Ar  750  0.1906868E+02  0.2990815E+02  0.2774874E+02  0.4026161E+02
Ar  751  0.1905817E+02  0.2743061E+02  0.3000213E+02  0.2480297E+03
Ar  752  0.1502693E+02  0.3004097E+02  0.2859999E+02  0.4530874E+03
Ar  753  0.1562886E+02  0.2714208E+02  0.3229231E+02  0.5907504E+03
Ar  754  0.1992574E+02  0.2970712E+02  0.3251020E+02  0.1017431E+04
Ar  755  0.1881681E+02  0.2674494E+02  0.3349089E+02  0.2019555E+03
Ar  756  0.1625164E+02  0.2992659E+02  0.3470012E+02  0.5523281E+03
Ar  757  0.1597046E+02  0.3198153E+02  0.3738633E+02  0.2795395E+03
Ar  758  0.1851226E+02  0.3454953E+02  0.3711639E+00  0.3295487E+03
Ar  759  0.1919443E+02  0.3338311E+02  0.3835170E+01  0.1990579E+03
Ar  760  0.1597411E+02  0.3524036E+02  0.2652794E+01  0.2327724E+03
Ar  761  0.1699150E+02  0.3218431E+02  0.6022623E+01  0.1452852E+03
Ar  762  0.1889893E+02  0.3540282E+02  0.6524551E+01  0.3182926E+03
Ar  763  0.1970381E+02  0.3279986E+02  0.8853363E+01  0.9691712E+02
Ar  764  0.1606206E+02  0.3482898E+02  0.8006883E+01  0.4132067E+03
Ar  765  0.1639329E+02  0.3067848E+02  0.1173538E+02  0.1934374E+03
Ar  766  0.1892492E+02  0.3599808E+02  0.1092842E+02  0.1505451E+03
Ar  767  0.1884215E+02  0.3178251E+02  0.1422369E+02  0.6001242E+03
Ar  768  0.1698661E+02  0.3484634E+02  0.1367642E+02  0.3439147E+03
Ar  769  0.1625538E+02  0.3197445E+02  0.1641284E+02  0.4692124E+03
Ar  770  0.1915611E+02  0.3421958E+02  0.1670084E+02  0.5715559E+03
Ar  771  0.1911834E+02  0.3207640E+02  0.1953389E+02  0.3802508E+03
Ar  772  0.1651973E+02  0.3461506E+02  0.1896884E+02  0.1580653E+03
Ar  773  0.1592680E+02  0.3322956E+02  0.2211944E+02  0.3740889E+02
Ar  774  0.1907608E+02  0.3461112E+02  0.2140689E+02  0.1172135E+03
Ar  775  0.1828012E+02  0.3252885E+02  0.2497426E+02  0.2644169E+03
Ar  776  0.1522532E+02  0.3540210E+02  0.2518725E+02  0.3860028E+03
Ar  777  0.1667006E+02  0.3276955E+02  0.2843424E+02  0.2869586E+03
Ar  778  0.1901020E+02  0.3543839E+02  0.2769615E+02  0.2763011E+03
Ar  779  0.1966313E+02  0.3265275E+02  0.2998492E+02  0.2562224E+03
Ar  780  0.1618183E+02  0.3537750E+02  0.3072789E+02  0.2452572E+03
Ar  781  0.1699753E+02  0.3151645E+02  0.3176536E+02  0.4668765E+03
Ar  782  0.1899862E+02  0.3482634E+02  0.3274799E+02  0.8980003E+03
Ar  783  0.1888072E+02  0.3202280E+02  0.3465525E+02  0.5858377E+03
Ar  784  0.1607678E+02  0.3418790E+02  0.3458658E+02  0.1337775E+03
Ar  785  0.2101909E+02  0.3745613E+02  0.3724630E+02  0.6464218E+02
Ar  786  0.2527912E+02  0.1852101E+01  0.9570823E-01  0.1560878E+03
Ar  787  0.2464596E+02  0.3753667E+02  0.2794386E+01  0.6617798E+03
Ar  788  0.2153535E+02  0.2326660E+01  0.2754954E+01  0.3253727E+03
Ar  789  0.2177198E+02  0.5024939E+00  0.5638984E+01  0.1232749E+03
Ar  790  0.2474885E+02  0.2991881E+01  0.5452139E+01  0.1137171E+03
Ar  791  0.2456495E+02  0.3951850E+00  0.8030614E+01  0.4705802E+02
Ar  792  0.2184049E+02  0.3502645E+01  0.7983804E+01  0.3164497E+03
Ar  793  0.2210979E+02  0.3763801E+02  0.1189962E+02  0.5135898E+03
Ar  794  0.2353678E+02  0.2639815E+01  0.1134823E+02  0.8306548E+03
Ar  795  0.2404033E+02  0.3714865E+02  0.1451284E+02  0.7939324E+02
Ar  796  0.2215805E+02  0.2732471E+01  0.1422853E+02  0.2921780E+03
Ar  797  0.2130920E+02  0.3768930E+02  0.1645582E+02  0.3113542E+03
Ar  798  0.2515949E+02  0.1968632E+01  0.1724627E+02  0.6222750E+03
Ar  799  0.2424527E+02  0.3697257E+02  0.1963946E+02  0.5225504E+03
Ar  800  0.2143071E+02  0.2155596E+01  0.1934229E+02  0.2908121E+03
Ar  801  0.2117938E+02  0.3722667E+02  0.2185077E+02  0.7728648E+03
Ar  802  0.2815782E+02  0.3324024E+01  0.2335886E+02  0.9425984E+02
Ar  803  0.2303298E+02  0.3767882E+02  0.2478935E+02  0.5460662E+03
Ar  804  0.2115615E+02  0.2559130E+01  0.2440515E+02  0.9233680E+02
Ar  805  0.2069789E+02  0.8750073E+00  0.2738507E+02  0.5501588E+02
Ar  806  0.2443083E+02  0.1890920E+01  0.2798420E+02  0.4902009E+03
Ar  807  0.2524491E+02  0.9321894E-01  0.3123214E+02  0.2309119E+03
Ar  808  0.2152976E+02  0.2091730E+01  0.3038752E+02  0.7907001E+02
Ar  809  0.2020772E+02  0.6640422E+00  0.3393256E+02  0.2729093E+03
Ar  810  0.2431784E+02  0.1154051E+01  0.3439971E+02  0.2574010E+03
Ar  811  0.2720591E+02  0.3607426E+02  0.3469057E+02  0.2601403E+03
Ar  812  0.2200032E+02  0.2959024E+01  0.3594946E+02  0.2751526E+03
Ar  813  0.2086046E+02  0.5361635E+01  0.5545458E-02  0.9475172E+02
Ar  814  0.2407002E+02  0.6966793E+01  0.3761586E+02  0.4653478E+03
Ar  815  0.2462417E+02  0.4557016E+01  0.2468699E+01  0.3173540E+03
Ar  816  0.2131971E+02  0.7976481E+01  0.2322863E+01  0.5577083E+03
Ar  817  0.2125833E+02  0.5961431E+01  0.4969639E+01  0.8743956E+03
Ar  818  0.2480826E+02  0.7247136E+01  0.4348552E+01  0.5249725E+03
Ar  819  0.2457912E+02  0.5521349E+01  0.8010818E+01  0.5155258E+02
Ar  820  0.2227928E+02  0.7803727E+01  0.7810616E+01  0.9662237E+03
Ar  821  0.2149030E+02  0.6807618E+01  0.1090128E+02  0.6235236E+02
Ar  822  0.2467395E+02  0.7935993E+01  0.1067395E+02  0.2840555E+03
Ar  823  0.2369483E+02  0.5675204E+01  0.1295252E+02  0.6297826E+03
Ar  824  0.2120588E+02  0.8262545E+01  0.1391766E+02  0.9237529E+03
Ar  825  0.2175913E+02  0.5343042E+01  0.1673141E+02  0.7865839E+03
Ar  826  0.2399393E+02  0.8479905E+01  0.1707900E+02  0.1110968E+03
Ar  827  0.2486192E+02  0.5217308E+01  0.1869301E+02  0.9839055E+02
Ar  828  0.2176786E+02  0.8015472E+01  0.1935079E+02  0.1056117E+04
Ar  829  0.2387388E+02  0.1850370E+01  0.2199111E+02  0.4062067E+03
Ar  830  0.2395566E+02  0.7994912E+01  0.2203043E+02  0.1461036E+03
Ar  831  0.2477307E+02  0.3282715E+01  0.2482343E+02  0.3105625E+02
Ar  832  0.2202026E+02  0.7246922E+01  0.2546955E+02  0.1988666E+03
Ar  833  0.2180733E+02  0.4050952E+01  0.2739568E+02  0.2531109E+03
Ar  834  0.2494315E+02  0.6851400E+01  0.2905202E+02  0.5363470E+03
Ar  835  0.2410416E+02  0.3967635E+01  0.3100312E+02  0.2097692E+03
Ar  836  0.2061148E+02  0.6793392E+01  0.2958802E+02  0.8453865E+03
Ar  837  0.2126879E+02  0.4901144E+01  0.3242663E+02  0.3281442E+02
Ar  838  0.2379156E+02  0.7040981E+01  0.3201657E+02  0.3828576E+03
Ar  839  0.2585804E+02  0.4615772E+01  0.3461583E+02  0.4789487E+03
Ar  840  0.2206100E+02  0.6969560E+01  0.3513481E+02  0.1443685E+03
Ar  841  0.2178300E+02  0.1040613E+02  0.3647957E+02  0.2774680E+03
Ar  842  0.2468439E+02  0.1385126E+02  0.3668605E+02  0.4225679E+03
Ar  843  0.2375032E+02  0.1001560E+02  0.1098820E+01  0.9271246E+03
Ar  844  0.2191312E+02  0.1367533E+02  0.1755364E+01  0.5683426E+02
Ar  845  0.2321258E+02  0.1169447E+02  0.4192227E+01  0.5782421E+03
Ar  846  0.2578564E+02  0.1354311E+02  0.5402097E+01  0.6383972E+03
Ar  847  0.2479005E+02  0.1156926E+02  0.8434023E+01  0.3867126E+03
Ar  848  0.2103026E+02  0.1275659E+02  0.7809936E+01  0.7361101E+02
Ar  849  0.2180615E+02  0.1064596E+02  0.1107565E+02  0.3821066E+03
Ar  850  0.2474155E+02  0.1270498E+02  0.1177732E+02  0.9632756E+02
Ar  851  0.2390975E+02  0.1016322E+02  0.1393204E+02  0.1778896E+03
Ar  852  0.2161953E+02  0.1294148E+02  0.1383928E+02  0.1902457E+03
Ar  853  0.2141683E+02  0.1079784E+02  0.1704498E+02  0.5914800E+02
Ar  854  0.2426894E+02  0.1313269E+02  0.1628421E+02  0.2081493E+03
Ar  855  0.2369519E+02  0.1102695E+02  0.1966891E+02  0.2542287E+03
Ar  856  0.2140311E+02  0.1339770E+02  0.1893406E+02  0.5862393E+03
Ar  857  0.2117438E+02  0.5122038E+01  0.2171637E+02  0.4571080E+03
Ar  858  0.2473398E+02  0.1348300E+02  0.2201445E+02  0.4347271E+03
Ar  859  0.2094767E+02  0.9562493E+01  0.2257360E+02  0.3173624E+03
Ar  860  0.2179350E+02  0.1453626E+02  0.2401264E+02  0.9951609E+03
Ar  861  0.2107775E+02  0.1028213E+02  0.2706047E+02  0.4446998E+03
Ar  862  0.2416516E+02  0.1412091E+02  0.2665922E+02  0.3025599E+03
Ar  863  0.2398849E+02  0.1036208E+02  0.3035159E+02  0.6505125E+03
Ar  864  0.2171147E+02  0.1295920E+02  0.2925002E+02  0.7020559E+02
Ar  865  0.2111281E+02  0.8973798E+01  0.3275774E+02  0.9526833E+03
Ar  866  0.2475938E+02  0.1327297E+02  0.3345019E+02  0.3283646E+02
Ar  867  0.2440695E+02  0.1005501E+02  0.3448252E+02  0.3884626E+03
Ar  868  0.2134012E+02  0.1343148E+02  0.3454340E+02  0.8224081E+02
Ar  869  0.2140521E+02  0.1640848E+02  0.3767520E+02  0.1291759E+04
Ar  870  0.2347222E+02  0.1895037E+02  0.1021173E+01  0.3827353E+02
Ar  871  0.2521832E+02  0.1624701E+02  0.2425429E+01  0.2237376E+02
Ar  872  0.1980416E+02  0.2043471E+02  0.1380880E+01  0.2668143E+03
Ar  873  0.2279788E+02  0.1539080E+02  0.5334022E+01  0.6649480E+03
Ar  874  0.2333860E+02  0.1895506E+02  0.4510502E+01  0.6908395E+03
Ar  875  0.2389252E+02  0.1501374E+02  0.8712081E+01  0.4900811E+03
Ar  876  0.2206875E+02  0.1803507E+02  0.7578693E+01  0.2944743E+03
Ar  877  0.2183775E+02  0.1560706E+02  0.1126640E+02  0.2596444E+03
Ar  878  0.2476563E+02  0.1809948E+02  0.1117905E+02  0.5163030E+02
Ar  879  0.2393464E+02  0.1634559E+02  0.1447605E+02  0.6272813E+03
Ar  880  0.2153390E+02  0.1852642E+02  0.1477273E+02  0.3490187E+03
Ar  881  0.2251671E+02  0.1630119E+02  0.1743795E+02  0.4099912E+03
Ar  882  0.2441696E+02  0.1919170E+02  0.1678073E+02  0.1399457E+04
Ar  883  0.2538098E+02  0.1570190E+02  0.1921420E+02  0.3762445E+03
Ar  884  0.2183642E+02  0.1938294E+02  0.1951354E+02  0.8538126E+02
Ar  885  0.2176732E+02  0.1622492E+02  0.2095077E+02  0.1074211E+04
Ar  886  0.2452637E+02  0.1874659E+02  0.2192428E+02  0.4050232E+03
Ar  887  0.2504183E+02  0.1651084E+02  0.2450973E+02  0.6203653E+03
Ar  888  0.2163926E+02  0.1801164E+02  0.2404772E+02  0.6218558E+03
Ar  889  0.2147318E+02  0.1667243E+02  0.2705709E+02  0.1775605E+03
Ar  890  0.2436943E+02  0.1950938E+02  0.2674141E+02  0.1637191E+03
Ar  891  0.2418693E+02  0.1671613E+02  0.2964667E+02  0.5143288E+03
Ar  892  0.2163224E+02  0.1901763E+02  0.2955365E+02  0.8132495E+02
Ar  893  0.2165068E+02  0.1616514E+02  0.3144193E+02  0.1408165E+03
Ar  894  0.2468490E+02  0.1972535E+02  0.3174976E+02  0.1617968E+03
Ar  895  0.2368119E+02  0.1692418E+02  0.3473280E+02  0.1954928E+03
Ar  896  0.2162311E+02  0.1960130E+02  0.3339059E+02  0.5400135E+03
Ar  897  0.2331970E+02  0.2073747E+02  0.3605958E+02  0.3340404E+03
Ar  898  0.2482661E+02  0.2422700E+02  0.3729503E+02  0.1024890E+03
Ar  899  0.2483566E+02  0.2182576E+02  0.2365184E+01  0.1124604E+03
Ar  900  0.2257275E+02  0.2452136E+02  0.2643778E+01  0.1294232E+03
Ar  901  0.2092653E+02  0.2202279E+02  0.4314009E+01  0.1723209E+03
Ar  902  0.2467848E+02  0.2365341E+02  0.5355780E+01  0.1721320E+03
Ar  903  0.2329193E+02  0.2117386E+02  0.7286037E+01  0.3861693E+03
Ar  904  0.2165323E+02  0.2365229E+02  0.8408756E+01  0.4252208E+03
Ar  905  0.2198288E+02  0.2158694E+02  0.1090415E+02  0.7471573E+02
Ar  906  0.2387428E+02  0.2472661E+02  0.1103060E+02  0.1006065E+03
Ar  907  0.2417829E+02  0.2068991E+02  0.1371018E+02  0.1002580E+03
Ar  908  0.2217542E+02  0.2369159E+02  0.1400929E+02  0.2562394E+03
Ar  909  0.2178462E+02  0.2150858E+02  0.1709415E+02  0.6064273E+02
Ar  910  0.2447901E+02  0.2339331E+02  0.1677779E+02  0.1914521E+03
Ar  911  0.2465891E+02  0.2184695E+02  0.1998252E+02  0.6513917E+02
Ar  912  0.2189253E+02  0.2399696E+02  0.1965897E+02  0.8590462E+03
Ar  913  0.2184084E+02  0.2188466E+02  0.2235095E+02  0.7336186E+02
Ar  914  0.2483954E+02  0.2503537E+02  0.2213638E+02  0.1982284E+03
Ar  915  0.2511262E+02  0.2157928E+02  0.2385690E+02  0.1794603E+03
Ar  916  0.2053218E+02  0.2375194E+02  0.2507457E+02  0.4459269E+03
Ar  917  0.2140053E+02  0.2043810E+02  0.2629335E+02  0.4188230E+03
Ar  918  0.2395377E+02  0.2388213E+02  0.2596895E+02  0.6940091E+03
Ar  919  0.2455459E+02  0.2272035E+02  0.2984801E+02  0.8266360E+03
Ar  920  0.2177935E+02  0.2389900E+02  0.2825142E+02  0.4630475E+03
Ar  921  0.2111077E+02  0.2232925E+02  0.3091747E+02  0.2138925E+03
Ar  922  0.2756145E+02  0.2576239E+02  0.3477532E+02  0.5173442E+03
Ar  923  0.2323637E+02  0.2313504E+02  0.3325158E+02  0.1230236E+04
Ar  924  0.2137043E+02  0.2364762E+02  0.3650458E+02  0.3107023E+03
Ar  925  0.2171077E+02  0.2740691E+02  0.7256832E+00  0.1560939E+03
Ar  926  0.2428229E+02  0.2965683E+02  0.4316583E+00  0.1270895E+03
Ar  927  0.2430875E+02  0.2734283E+02  0.2859775E+01  0.7752605E+03
Ar  928  0.2119201E+02  0.3002689E+02  0.3454723E+01  0.1820392E+03
Ar  929  0.2208258E+02  0.2727431E+02  0.5589549E+01  0.1358895E+03
Ar  930  0.2420581E+02  0.3015266E+02  0.5309927E+01  0.7794138E+02
Ar  931  0.2492266E+02  0.2632945E+02  0.7679958E+01  0.5185774E+03
Ar  932  0.2227906E+02  0.2955198E+02  0.8498927E+01  0.1410930E+03
Ar  933  0.2120422E+02  0.2739457E+02  0.1126078E+02  0.3113022E+03
Ar  934  0.2380732E+02  0.2987499E+02  0.1163258E+02  0.5872684E+03
Ar  935  0.2443586E+02  0.2658264E+02  0.1398381E+02  0.4344949E+03
Ar  936  0.2137135E+02  0.2956948E+02  0.1386479E+02  0.6485529E+02
Ar  937  0.2028830E+02  0.2664796E+02  0.1746029E+02  0.1016301E+03
Ar  938  0.2410053E+02  0.2906475E+02  0.1638913E+02  0.5974327E+03
Ar  939  0.2420843E+02  0.2648487E+02  0.1916257E+02  0.2543237E+03
Ar  940  0.2151937E+02  0.2966534E+02  0.1901727E+02  0.1091278E+03
Ar  941  0.2118438E+02  0.2654606E+02  0.2182282E+02  0.3686019E+03
Ar  942  0.2384893E+02  0.2999752E+02  0.2203252E+02  0.1670167E+03
Ar  943  0.2336490E+02  0.2752360E+02  0.2425394E+02  0.6740924E+03
Ar  944  0.2031559E+02  0.3035014E+02  0.2412212E+02  0.3159973E+03
Ar  945  0.2186232E+02  0.2705468E+02  0.2702066E+02  0.1264608E+03
Ar  946  0.2375450E+02  0.3017566E+02  0.2664697E+02  0.1865230E+02
Ar  947  0.2421348E+02  0.2611015E+02  0.2908051E+02  0.3819068E+03
Ar  948  0.2192695E+02  0.2946110E+02  0.2956670E+02  0.1725429E+03
Ar  949  0.2164901E+02  0.2576804E+02  0.3174020E+02  0.1661142E+03
Ar  950  0.2350474E+02  0.2919150E+02  0.3250380E+02  0.2153819E+03
Ar  951  0.2274423E+02  0.2653666E+02  0.3515561E+02  0.2006432E+03
Ar  952  0.2161774E+02  0.3000113E+02  0.3545621E+02  0.4073639E+03
Ar  953  0.2155078E+02  0.3276807E+02  0.6455872E+00  0.2469102E+03
Ar  954  0.2450349E+02  0.3625277E+02  0.3716419E+02  0.2843990E+03
Ar  955  0.2418734E+02  0.3302525E+02  0.3080091E+01  0.2315410E+03
Ar  956  0.2200247E+02  0.3544599E+02  0.3654461E+01  0.3293916E+03
Ar  957  0.2174266E+02  0.3247931E+02  0.5964955E+01  0.1652141E+02
Ar  958  0.2455009E+02  0.3528515E+02  0.6099359E+01  0.1658550E+03
Ar  959  0.2413160E+02  0.3259294E+02  0.8323812E+01  0.1175124E+04
Ar  960  0.2171415E+02  0.3569422E+02  0.8680529E+01  0.1727421E+03
Ar  961  0.2204932E+02  0.3305655E+02  0.1135952E+02  0.1919093E+03
Ar  962  0.2467646E+02  0.3508366E+02  0.1029958E+02  0.4517671E+03
Ar  963  0.2431971E+02  0.3303229E+02  0.1395730E+02  0.5265735E+03
Ar  964  0.2088093E+02  0.3549670E+02  0.1407357E+02  0.5584454E+02
Ar  965  0.2192765E+02  0.3191573E+02  0.1618803E+02  0.1274815E+03
Ar  966  0.2424114E+02  0.3473897E+02  0.1683738E+02  0.9189804E+02
Ar  967  0.2412150E+02  0.3218898E+02  0.1937181E+02  0.1059603E+03
Ar  968  0.2185187E+02  0.3473246E+02  0.1949091E+02  0.1175933E+03
Ar  969  0.2175668E+02  0.3241272E+02  0.2203825E+02  0.3897089E+03
Ar  970  0.2396498E+02  0.3512116E+02  0.2260030E+02  0.3142305E+03
Ar  971  0.2371595E+02  0.3321798E+02  0.2519226E+02  0.2251572E+03
Ar  972  0.2101780E+02  0.3469491E+02  0.2425519E+02  0.1719394E+03
Ar  973  0.2114072E+02  0.3247549E+02  0.2700057E+02  0.1564250E+03
Ar  974  0.2322549E+02  0.3638333E+02  0.2792147E+02  0.4006495E+03
Ar  975  0.2335406E+02  0.3259127E+02  0.2952474E+02  0.3866236E+03
Ar  976  0.2171979E+02  0.3637038E+02  0.3121641E+02  0.7058656E+03
Ar  977  0.2191086E+02  0.3267460E+02  0.3260192E+02  0.2128166E+03
Ar  978  0.2460407E+02  0.3493999E+02  0.3232333E+02  0.2967908E+03
Ar  979  0.2442564E+02  0.3269506E+02  0.3535514E+02  0.2382778E+03
Ar  980  0.2158961E+02  0.3439956E+02  0.3559285E+02  0.8201239E+02
Ar  981  0.2765927E+02  0.3730766E+02  0.3509347E+00  0.2660968E+03
Ar  982  0.2997535E+02  0.2185541E+01  0.1844518E+00  0.1054767E+03
Ar  983  0.2996783E+02  0.3743650E+02  0.2633491E+01  0.2033089E+02
Ar  984  0.2753323E+02  0.2134535E+01  0.2921231E+01  0.8101656E+03
Ar  985  0.2743653E+02  0.4140931E-01  0.5661255E+01  0.9171844E+03
Ar  986  0.2984689E+02  0.2818678E+01  0.5035596E+01  0.4155407E+03
Ar  987  0.3063676E+02  0.2302301E+00  0.7177562E+01  0.1728050E+03
Ar  988  0.2710177E+02  0.2602837E+01  0.8042419E+01  0.2923913E+03
Ar  989  0.2684829E+02  0.4502776E+00  0.1062560E+02  0.4949124E+03
Ar  990  0.3003055E+02  0.2253241E+01  0.1084080E+02  0.2040270E+03
Ar  991  0.2945198E+02  0.5427774E+00  0.1352269E+02  0.4820739E+03
Ar  992  0.2576130E+02  0.2744164E+01  0.1358093E+02  0.1450108E+03
Ar  993  0.2736949E+02  0.3693443E+02  0.1609357E+02  0.4132175E+03
Ar  994  0.2895480E+02  0.2737413E+01  0.1660918E+02  0.4508969E+02
Ar  995  0.2907378E+02  0.3727841E+02  0.1897351E+02  0.8806971E+02
Ar  996  0.2675094E+02  0.2729609E+01  0.2053517E+02  0.2986761E+03
Ar  997  0.2675207E+02  0.3733378E+02  0.2183574E+02  0.2771611E+02
Ar  998  0.3002638E+02  0.2522738E+01  0.2030582E+02  0.4357177E+02
Ar  999  0.3085562E+02  0.1048242E+00  0.2251706E+02  0.5316904E+03
Ar 1000  0.2756701E+02  0.7672038E+00  0.2582919E+02  0.3014476E+03
Ar 1001  0.2743158E+02  0.3597114E+02  0.2832454E+02  0.6797570E+02
Ar 1002  0.3018409E+02  0.4780628E+01  0.2676010E+02  0.1820301E+03
Ar 1003  0.2900359E+02  0.1884501E+01  0.2901251E+02  0.2598535E+03
Ar 1004  0.2677925E+02  0.4585713E+01  0.2688211E+02  0.5054792E+03
Ar 1005  0.2867959E+02  0.3717645E+02  0.3159535E+02  0.1598150E+03
Ar 1006  0.3097950E+02  0.2184789E+01  0.3217731E+02  0.7040566E+03
Ar 1007  0.3039783E+02  0.3773626E+02  0.3519449E+02  0.7034054E+03
Ar 1008  0.2781949E+02  0.1887534E+01  0.3504272E+02  0.4447973E+03
Ar 1009  0.2698267E+02  0.4614741E+01  0.3130015E+00  0.1734754E+02
Ar 1010  0.2980780E+02  0.7228714E+01  0.3661257E+02  0.1414798E+03
Ar 1011  0.2954701E+02  0.4975646E+01  0.2729135E+01  0.5542443E+03
Ar 1012  0.2702726E+02  0.8899623E+01  0.2450598E+01  0.2335902E+03
Ar 1013  0.2726230E+02  0.4919278E+01  0.5958273E+01  0.1910305E+03
Ar 1014  0.2890208E+02  0.8344709E+01  0.4924216E+01  0.2572920E+03
Ar 1015  0.2966452E+02  0.4880778E+01  0.8584792E+01  0.2377439E+03
Ar 1016  0.2753690E+02  0.7576808E+01  0.8098930E+01  0.2298640E+03
Ar 1017  0.2671017E+02  0.5148790E+01  0.1096120E+02  0.6565067E+03
Ar 1018  0.2976208E+02  0.8037884E+01  0.1084428E+02  0.6891800E+03
Ar 1019  0.2918440E+02  0.5326980E+01  0.1363138E+02  0.7171430E+03
Ar 1020  0.2675838E+02  0.7988502E+01  0.1341494E+02  0.3152787E+02
Ar 1021  0.2617543E+02  0.5271978E+01  0.1569747E+02  0.3684140E+02
Ar 1022  0.2998284E+02  0.7881710E+01  0.1614752E+02  0.9915829E+03
Ar 1023  0.2885903E+02  0.5438126E+01  0.1851581E+02  0.3437138E+03
Ar 1024  0.2716110E+02  0.8772842E+01  0.1924314E+02  0.4574001E+03
Ar 1025  0.2689574E+02  0.6251702E+01  0.2206791E+02  0.9419142E+02
Ar 1026  0.3021769E+02  0.8738826E+01  0.2115096E+02  0.7170072E+03
Ar 1027  0.2971949E+02  0.7075631E+01  0.2407470E+02  0.1071850E+03
Ar 1028  0.2421061E+02  0.1091699E+02  0.2515989E+02  0.5158959E+03
Ar 1029  0.2606789E+02  0.7799828E+01  0.2540466E+02  0.6498189E+03
Ar 1030  0.2867089E+02  0.7670177E+01  0.2809926E+02  0.9383207E+02
Ar 1031  0.3034330E+02  0.5324068E+01  0.2992363E+02  0.9812692E+02
Ar 1032  0.2734771E+02  0.7062316E+01  0.3161578E+02  0.3805315E+03
Ar 1033  0.2764958E+02  0.3299981E+01  0.3179905E+02  0.1157181E+03
Ar 1034  0.3068896E+02  0.7742608E+01  0.3232105E+02  0.2703963E+03
Ar 1035  0.2971496E+02  0.4808017E+01  0.3394854E+02  0.2492789E+03
Ar 1036  0.2687306E+02  0.8157553E+01  0.3501945E+02  0.2202704E+03
Ar 1037  0.2712587E+02  0.1076757E+02  0.3706562E+02  0.4116251E+03
Ar 1038  0.2979749E+02  0.1345779E+02  0.3770573E+02  0.4218353E+03
Ar 1039  0.3013116E+02  0.1007286E+02  0.1734337E+01  0.2684132E+03
Ar 1040  0.2627190E+02  0.1327330E+02  0.1613000E+01  0.2276581E+03
Ar 1041  0.2613375E+02  0.1010554E+02  0.5694679E+01  0.2956869E+03
Ar 1042  0.2923379E+02  0.1231319E+02  0.3900631E+01  0.4790709E+03
Ar 1043  0.2986076E+02  0.1036038E+02  0.8026734E+01  0.1132876E+03
Ar 1044  0.2799935E+02  0.1300904E+02  0.8086374E+01  0.3796451E+03
Ar 1045  0.2710880E+02  0.9889827E+01  0.1069095E+02  0.1074598E+04
Ar 1046  0.2980438E+02  0.1296404E+02  0.1065918E+02  0.3311166E+03
Ar 1047  0.2946472E+02  0.1074993E+02  0.1368927E+02  0.4142299E+03
Ar 1048  0.2726166E+02  0.1341677E+02  0.1449557E+02  0.3169324E+03
Ar 1049  0.2699681E+02  0.9911809E+01  0.1611931E+02  0.1230921E+03
Ar 1050  0.3040624E+02  0.1396632E+02  0.1586912E+02  0.2729807E+03
Ar 1051  0.3020619E+02  0.1117038E+02  0.1870926E+02  0.4045279E+03
Ar 1052  0.2694636E+02  0.1245672E+02  0.1849260E+02  0.4342626E+03
Ar 1053  0.2626534E+02  0.1030304E+02  0.2211895E+02  0.1665833E+03
Ar 1054  0.2889018E+02  0.1244882E+02  0.2151535E+02  0.1450485E+03
Ar 1055  0.3072722E+02  0.1023561E+02  0.2540384E+02  0.3395728E+02
Ar 1056  0.2652773E+02  0.1285662E+02  0.2462514E+02  0.3498909E+02
Ar 1057  0.2677141E+02  0.1055007E+02  0.2769443E+02  0.4070780E+03
Ar 1058  0.2996344E+02  0.1327259E+02  0.2796094E+02  0.5237250E+03
Ar 1059  0.3030446E+02  0.1040988E+02  0.2955208E+02  0.3252572E+03
Ar 1060  0.2586917E+02  0.1335195E+02  0.2947665E+02  0.1414851E+03
Ar 1061  0.2705430E+02  0.1073791E+02  0.3193631E+02  0.1223184E+03
Ar 1062  0.2912508E+02  0.1376718E+02  0.3103503E+02  0.3713878E+03
Ar 1063  0.2981083E+02  0.1078828E+02  0.3444045E+02  0.2894231E+03
Ar 1064  0.2771864E+02  0.1381477E+02  0.3519512E+02  0.3024942E+02
Ar 1065  0.2638215E+02  0.1678327E+02  0.3679674E+02  0.4843783E+02
Ar 1066  0.2981396E+02  0.1834153E+02  0.3720694E+02  0.4157892E+03
Ar 1067  0.2876752E+02  0.1609333E+02  0.1987704E+01  0.5203144E+03
Ar 1068  0.2695401E+02  0.1905291E+02  0.2028395E+01  0.2987755E+03
Ar 1069  0.2706160E+02  0.1705423E+02  0.5095688E+01  0.3937465E+03
Ar 1070  0.2956806E+02  0.1944366E+02  0.5428311E+01  0.3587545E+03
Ar 1071  0.2901345E+02  0.1606573E+02  0.7404077E+01  0.2666856E+03
Ar 1072  0.2641628E+02  0.1843816E+02  0.8360976E+01  0.3227956E+03
Ar 1073  0.2692605E+02  0.1561717E+02  0.1192096E+02  0.6024339E+03
Ar 1074  0.2908086E+02  0.1871730E+02  0.1022531E+02  0.3919747E+03
Ar 1075  0.2959149E+02  0.1637859E+02  0.1359725E+02  0.4990826E+03
Ar 1076  0.2706798E+02  0.1928649E+02  0.1360442E+02  0.2772920E+03
Ar 1077  0.2724270E+02  0.1713422E+02  0.1637601E+02  0.2646816E+03
Ar 1078  0.2998710E+02  0.1895810E+02  0.1585401E+02  0.5048893E+03
Ar 1079  0.2938470E+02  0.1540859E+02  0.1917628E+02  0.1165619E+03
Ar 1080  0.2766740E+02  0.1935286E+02  0.1939644E+02  0.4595352E+03
Ar 1081  0.2802914E+02  0.1692167E+02  0.2173599E+02  0.8954855E+02
Ar 1082  0.3144013E+02  0.2014922E+02  0.2179733E+02  0.3754530E+03
Ar 1083  0.2958026E+02  0.1532072E+02  0.2454135E+02  0.9006550E+02
Ar 1084  0.2778283E+02  0.1835831E+02  0.2476756E+02  0.4122640E+02
Ar 1085  0.2755211E+02  0.1559691E+02  0.2748706E+02  0.3444300E+03
Ar 1086  0.3044776E+02  0.1869562E+02  0.2743149E+02  0.2199630E+03
Ar 1087  0.3086571E+02  0.1744737E+02  0.3109784E+02  0.3240656E+03
Ar 1088  0.2708728E+02  0.1831914E+02  0.2984557E+02  0.2561493E+03
Ar 1089  0.2653739E+02  0.1569784E+02  0.3210416E+02  0.8053625E+02
Ar 1090  0.2868159E+02  0.2039310E+02  0.3202861E+02  0.4771548E+02
Ar 1091  0.2926845E+02  0.1667834E+02  0.3420288E+02  0.1904681E+03
Ar 1092  0.2659333E+02  0.1892408E+02  0.3430777E+02  0.3824105E+03
Ar 1093  0.2693165E+02  0.2105060E+02  0.3689023E+02  0.4199955E+03
Ar 1094  0.2945183E+02  0.2358030E+02  0.3731267E+02  0.1082128E+03
Ar 1095  0.2950754E+02  0.2152090E+02  0.2353644E+01  0.1762574E+03
Ar 1096  0.2686688E+02  0.2440963E+02  0.2057303E+01  0.1875877E+03
Ar 1097  0.2628721E+02  0.2040250E+02  0.5605684E+01  0.1116873E+03
Ar 1098  0.2791645E+02  0.2372677E+02  0.5664946E+01  0.2357840E+03
Ar 1099  0.2916017E+02  0.2175187E+02  0.8189976E+01  0.6980720E+03
Ar 1100  0.2623991E+02  0.2343236E+02  0.8762201E+01  0.3754113E+02
Ar 1101  0.2667826E+02  0.2099361E+02  0.1076324E+02  0.7201664E+03
Ar 1102  0.2966265E+02  0.2428816E+02  0.1035999E+02  0.9970526E+02
Ar 1103  0.2992656E+02  0.2189306E+02  0.1360639E+02  0.2207234E+03
Ar 1104  0.2715137E+02  0.2344121E+02  0.1353189E+02  0.1621772E+03
Ar 1105  0.2727186E+02  0.2164423E+02  0.1659491E+02  0.2100576E+03
Ar 1106  0.2939017E+02  0.2449775E+02  0.1646849E+02  0.3446169E+03
Ar 1107  0.3024244E+02  0.2235515E+02  0.1918286E+02  0.1423622E+03
Ar 1108  0.2717853E+02  0.2435936E+02  0.1890338E+02  0.1300481E+03
Ar 1109  0.2795387E+02  0.2179276E+02  0.2164883E+02  0.5439433E+02
Ar 1110  0.2950023E+02  0.2534316E+02  0.2223411E+02  0.1820505E+03
Ar 1111  0.3035819E+02  0.2145240E+02  0.2484941E+02  0.7717245E+02
Ar 1112  0.2727219E+02  0.2399782E+02  0.2447402E+02  0.9146554E+02
Ar 1113  0.2725185E+02  0.2196659E+02  0.2727028E+02  0.1533606E+03
Ar 1114  0.2714771E+02  0.2522878E+02  0.2814546E+02  0.2016101E+03
Ar 1115  0.3068801E+02  0.2174375E+02  0.2872548E+02  0.9196789E+03
Ar 1116  0.2781475E+02  0.2353868E+02  0.3068729E+02  0.4800131E+02
Ar 1117  0.2629511E+02  0.2220866E+02  0.3399149E+02  0.5339159E+03
Ar 1118  0.3266431E+02  0.2354577E+02  0.3251220E+02  0.1126124E+02
Ar 1119  0.3034428E+02  0.2097595E+02  0.3481377E+02  0.2341046E+03
Ar 1120  0.3027327E+02  0.2617959E+02  0.3247488E+02  0.4433371E+03
Ar 1121  0.2785044E+02  0.2746405E+02  0.3772311E+02  0.5860207E+03
Ar 1122  0.3002330E+02  0.3056376E+02  0.8448474E+00  0.4416322E+03
Ar 1123  0.2953120E+02  0.2753342E+02  0.3018409E+01  0.5544189E+03
Ar 1124  0.2667257E+02  0.3002965E+02  0.2594298E+01  0.1107894E+03
Ar 1125  0.2693778E+02  0.2692950E+02  0.5216659E+01  0.5242596E+03
Ar 1126  0.2884254E+02  0.2944426E+02  0.5994825E+01  0.4929605E+03
Ar 1127  0.2849431E+02  0.2685306E+02  0.8146081E+01  0.2093619E+03
Ar 1128  0.2617139E+02  0.2972814E+02  0.8431819E+01  0.9024689E+02
Ar 1129  0.2675819E+02  0.2671792E+02  0.1092406E+02  0.2375085E+03
Ar 1130  0.2908114E+02  0.2942793E+02  0.1049961E+02  0.1885214E+03
Ar 1131  0.2938867E+02  0.2695626E+02  0.1289054E+02  0.6531689E+03
Ar 1132  0.2686106E+02  0.2961951E+02  0.1391246E+02  0.6480173E+03
Ar 1133  0.2664479E+02  0.2678647E+02  0.1662301E+02  0.1171309E+03
Ar 1134  0.2942217E+02  0.2920210E+02  0.1555668E+02  0.1983008E+03
Ar 1135  0.2959727E+02  0.2744319E+02  0.1855734E+02  0.1836966E+03
Ar 1136  0.2660631E+02  0.2984697E+02  0.1869422E+02  0.4379982E+03
Ar 1137  0.2684304E+02  0.2760838E+02  0.2115794E+02  0.1567036E+03
Ar 1138  0.2940045E+02  0.3005769E+02  0.2136689E+02  0.1126031E+03
Ar 1139  0.2895940E+02  0.2831280E+02  0.2479041E+02  0.2699462E+03
Ar 1140  0.2631264E+02  0.3039268E+02  0.2436327E+02  0.1192016E+03
Ar 1141  0.2604986E+02  0.2759763E+02  0.2613940E+02  0.5301166E+03
Ar 1142  0.2906017E+02  0.3008264E+02  0.2811012E+02  0.7542138E+02
Ar 1143  0.3030923E+02  0.2597292E+02  0.2913802E+02  0.6577331E+03
Ar 1144  0.2608132E+02  0.2879053E+02  0.2928149E+02  0.7412406E+03
Ar 1145  0.2531923E+02  0.2604527E+02  0.3217891E+02  0.3937325E+03
Ar 1146  0.3004861E+02  0.3061274E+02  0.3148847E+02  0.1500275E+02
Ar 1147  0.3040192E+02  0.2864814E+02  0.3536678E+02  0.1144253E+03
Ar 1148  0.2617561E+02  0.2877946E+02  0.3489205E+02  0.7606188E+02
Ar 1149  0.2705716E+02  0.3191376E+02  0.3751907E+02  0.1610693E+03
Ar 1150  0.2964640E+02  0.3464459E+02  0.3722154E+02  0.1543472E+03
Ar 1151  0.3011564E+02  0.3178010E+02  0.4006672E+01  0.3614287E+03
Ar 1152  0.2725213E+02  0.3456531E+02  0.2330603E+01  0.3410257E+03
Ar 1153  0.2689436E+02  0.3236235E+02  0.5803039E+01  0.7457276E+02
Ar 1154  0.2991078E+02  0.3521048E+02  0.5460513E+01  0.3116908E+03
Ar 1155  0.2954011E+02  0.3236391E+02  0.7838018E+01  0.6001739E+03
Ar 1156  0.2773172E+02  0.3537963E+02  0.8515170E+01  0.1163050E+03
Ar 1157  0.2673088E+02  0.3273277E+02  0.1117618E+02  0.3420343E+02
Ar 1158  0.2943265E+02  0.3520952E+02  0.1135690E+02  0.5273201E+03
Ar 1159  0.2957610E+02  0.3172774E+02  0.1312581E+02  0.3197428E+03
Ar 1160  0.2639601E+02  0.3560116E+02  0.1314453E+02  0.3117740E+03
Ar 1161  0.2688916E+02  0.3194228E+02  0.1605403E+02  0.4372231E+03
Ar 1162  0.2922541E+02  0.3432266E+02  0.1520751E+02  0.3667161E+02
Ar 1163  0.2953213E+02  0.3162669E+02  0.1773557E+02  0.1538133E+03
Ar 1164  0.2694261E+02  0.3413019E+02  0.1854041E+02  0.1889705E+03
Ar 1165  0.2658544E+02  0.3239830E+02  0.2157372E+02  0.8321427E+03
Ar 1166  0.2931865E+02  0.3456403E+02  0.2127349E+02  0.3268929E+03
Ar 1167  0.2873468E+02  0.3297979E+02  0.2441481E+02  0.6867871E+03
Ar 1168  0.2625189E+02  0.3541672E+02  0.2497017E+02  0.5261955E+03
Ar 1169  0.2640868E+02  0.3250655E+02  0.2758667E+02  0.7178911E+02
Ar 1170  0.3024899E+02  0.3612270E+02  0.2550797E+02  0.7626387E+02
Ar 1171  0.3144933E+02  0.3408700E+02  0.2965586E+02  0.3456519E+03
Ar 1172  0.2820153E+02  0.3383281E+02  0.3139741E+02  0.2770388E+03
Ar 1173  0.2625061E+02  0.3059695E+02  0.3190924E+02  0.1044844E+04
Ar 1174  0.3051746E+02  0.3484144E+02  0.3373768E+02  0.1203896E+03
Ar 1175  0.3276414E+02  0.3201617E+02  0.3278425E+02  0.1494763E+03
Ar 1176  0.2749522E+02  0.3293642E+02  0.3437835E+02  0.2149956E+03
Ar 1177  0.3203309E+02  0.3687591E+02  0.1353724E+00  0.5482457E+03
Ar 1178  0.3672397E+02  0.2373761E+01  0.1045902E+01  0.7658564E+03
Ar 1179  0.3517348E+02  0.3727013E+02  0.2044895E+01  0.2995065E+03
Ar 1180  0.3312200E+02  0.2042383E+01  0.1609202E+01  0.1109953E+03
Ar 1181  0.3270877E+02  0.3876738E+00  0.4642214E+01  0.9386223E+02
Ar 1182  0.3514671E+02  0.3004547E+01  0.4494112E+01  0.2011120E+03
Ar 1183  0.3666960E+02  0.6720744E-01  0.7823992E+01  0.2533925E+03
Ar 1184  0.3289053E+02  0.2843653E+01  0.7767744E+01  0.3279847E+03
Ar 1185  0.3231905E+02  0.3719238E+02  0.1101244E+02  0.3342729E+03
Ar 1186  0.3511942E+02  0.2598205E+01  0.1128294E+02  0.4906033E+03
Ar 1187  0.3497354E+02  0.3744431E+02  0.1338464E+02  0.7745834E+03
Ar 1188  0.3246266E+02  0.2138068E+01  0.1349623E+02  0.1957461E+03
Ar 1189  0.3162339E+02  0.1039575E+01  0.1667950E+02  0.8368500E+03
Ar 1190  0.3549292E+02  0.2812326E+01  0.1610481E+02  0.5690668E+03
Ar 1191  0.3421545E+02  0.3690916E+02  0.1694275E+02  0.5167884E+03
Ar 1192  0.3330715E+02  0.2598601E+01  0.1906975E+02  0.6433330E+03
Ar 1193  0.3287788E+02  0.3698508E+02  0.2032940E+02  0.3117612E+03
Ar 1194  0.3461958E+02  0.1581092E+01  0.2232018E+02  0.4815215E+03
Ar 1195  0.3444119E+02  0.3626147E+02  0.2389402E+02  0.7052687E+03
Ar 1196  0.3211580E+02  0.4295170E+01  0.2324717E+02  0.1839001E+03
Ar 1197  0.3088306E+02  0.1942960E+01  0.2503468E+02  0.9895107E+03
Ar 1198  0.3442989E+02  0.1703061E+01  0.2596940E+02  0.4978221E+02
Ar 1199  0.3501015E+02  0.2092601E+00  0.3027741E+02  0.6075919E+03
Ar 1200  0.3291781E+02  0.2990870E+01  0.2941684E+02  0.1302367E+03
Ar 1201  0.3320922E+02  0.3720523E+02  0.3309271E+02  0.4397532E+03
Ar 1202  0.3562094E+02  0.2145747E+01  0.3319344E+02  0.4802473E+02
Ar 1203  0.3485089E+02  0.6187137E+00  0.3655357E+02  0.1410588E+03
Ar 1204  0.3231098E+02  0.2761758E+01  0.3539610E+02  0.2452706E+03
Ar 1205  0.3222200E+02  0.4985938E+01  0.4443459E-01  0.4335636E+02
Ar 1206  0.3610525E+02  0.7691738E+01  0.3771727E+02  0.2557555E+03
Ar 1207  0.3561680E+02  0.5369959E+01  0.2170912E+01  0.3254397E+03
Ar 1208  0.3163320E+02  0.7230318E+01  0.2823293E+01  0.2763055E+03
Ar 1209  0.3157082E+02  0.5708961E+01  0.5956624E+01  0.3391504E+03
Ar 1210  0.3401385E+02  0.7642606E+01  0.5000496E+01  0.7783948E+02
Ar 1211  0.3482547E+02  0.5850037E+01  0.7820580E+01  0.3380444E+03
Ar 1212  0.3223640E+02  0.7824520E+01  0.8859773E+01  0.3688546E+03
Ar 1213  0.3286328E+02  0.5090386E+01  0.1096810E+02  0.1080728E+03
Ar 1214  0.3496164E+02  0.7854534E+01  0.1103868E+02  0.1989722E+03
Ar 1215  0.3549632E+02  0.5314626E+01  0.1328642E+02  0.1236231E+03
Ar 1216  0.3262753E+02  0.8259630E+01  0.1330231E+02  0.4378680E+03
Ar 1217  0.3282389E+02  0.4935515E+01  0.1552440E+02  0.2370029E+03
Ar 1218  0.3547053E+02  0.7609940E+01  0.1561246E+02  0.1272204E+04
Ar 1219  0.3499212E+02  0.5403115E+01  0.1860009E+02  0.1368821E+03
Ar 1220  0.3267409E+02  0.7926416E+01  0.1789845E+02  0.3726634E+03
Ar 1221  0.3186736E+02  0.5843568E+01  0.2030409E+02  0.3721911E+02
Ar 1222  0.3624121E+02  0.8013033E+01  0.2036126E+02  0.8955581E+02
Ar 1223  0.3540706E+02  0.5177100E+01  0.2264626E+02  0.8248380E+03
Ar 1224  0.3376062E+02  0.7752667E+01  0.2423223E+02  0.2280052E+03
Ar 1225  0.3338740E+02  0.5164533E+01  0.2634408E+02  0.3329447E+03
Ar 1226  0.3594421E+02  0.8449349E+01  0.2716219E+02  0.1042237E+03
Ar 1227  0.3621421E+02  0.4232557E+01  0.2904646E+02  0.1388985E+03
Ar 1228  0.3299127E+02  0.8108176E+01  0.2940338E+02  0.3457633E+03
Ar 1229  0.3336020E+02  0.4726218E+01  0.3236553E+02  0.6070617E+03
Ar 1230  0.3516174E+02  0.7805001E+01  0.3286831E+02  0.5455702E+03
Ar 1231  0.3573221E+02  0.4413898E+01  0.3628659E+02  0.6970763E+03
Ar 1232  0.3289719E+02  0.7284407E+01  0.3524361E+02  0.2618549E+03
Ar 1233  0.3311915E+02  0.9837971E+01  0.3769420E+02  0.1946299E+03
Ar 1234  0.3408583E+02  0.1391474E+02  0.3654446E+02  0.1606374E+03
Ar 1235  0.3527692E+02  0.1045724E+02  0.3320133E+01  0.3072675E+03
Ar 1236  0.3271908E+02  0.1259794E+02  0.2110333E+01  0.3477085E+03
Ar 1237  0.3223433E+02  0.1066323E+02  0.4642526E+01  0.2589584E+03
Ar 1238  0.3503314E+02  0.1318502E+02  0.5297895E+01  0.3137018E+03
Ar 1239  0.3398846E+02  0.1026572E+02  0.7692898E+01  0.1937391E+03
Ar 1240  0.3143250E+02  0.1358143E+02  0.7312661E+01  0.2859249E+03
Ar 1241  0.3241468E+02  0.1039056E+02  0.1071395E+02  0.9010630E+02
Ar 1242  0.3440264E+02  0.1382729E+02  0.9332428E+01  0.1223290E+03
Ar 1243  0.3536590E+02  0.1034064E+02  0.1389090E+02  0.8175215E+02
Ar 1244  0.3246550E+02  0.1320118E+02  0.1319500E+02  0.5694351E+02
Ar 1245  0.3219438E+02  0.1094090E+02  0.1583120E+02  0.9889954E+02
Ar 1246  0.3527147E+02  0.1394035E+02  0.1555419E+02  0.9511488E+02
Ar 1247  0.3438760E+02  0.1071598E+02  0.1819376E+02  0.5178459E+03
Ar 1248  0.3309359E+02  0.1392072E+02  0.1839601E+02  0.1162493E+03
Ar 1249  0.3349840E+02  0.1031832E+02  0.2163437E+02  0.3544403E+03
Ar 1250  0.3482453E+02  0.1445744E+02  0.2129224E+02  0.1008495E+04
Ar 1251  0.3530796E+02  0.1173359E+02  0.2470085E+02  0.7301718E+03
Ar 1252  0.3195501E+02  0.1291959E+02  0.2310633E+02  0.7044881E+02
Ar 1253  0.3305221E+02  0.1134457E+02  0.2769995E+02  0.5794007E+03
Ar 1254  0.3551186E+02  0.1489781E+02  0.2812116E+02  0.3655445E+02
Ar 1255  0.3581772E+02  0.1049780E+02  0.2977335E+02  0.1020870E+03
Ar 1256  0.3262229E+02  0.1374558E+02  0.3021875E+02  0.3042587E+03
Ar 1257  0.3254102E+02  0.1046557E+02  0.3256645E+02  0.7428861E+03
Ar 1258  0.3482128E+02  0.1334556E+02  0.3244978E+02  0.5423916E+02
Ar 1259  0.3509777E+02  0.1074817E+02  0.3472563E+02  0.4627367E+03
Ar 1260  0.3180702E+02  0.1366670E+02  0.3364690E+02  0.7533443E+02
Ar 1261  0.3252669E+02  0.1606443E+02  0.2419507E+00  0.3921287E+02
Ar 1262  0.3421467E+02  0.1900625E+02  0.3777514E+02  0.2963779E+03
Ar 1263  0.3500299E+02  0.1533896E+02  0.2567114E+01  0.1530767E+03
Ar 1264  0.3192054E+02  0.1871311E+02  0.2792884E+01  0.7605581E+03
Ar 1265  0.3186852E+02  0.1546488E+02  0.4012692E+01  0.9023515E+03
Ar 1266  0.3482010E+02  0.1865924E+02  0.4830602E+01  0.7092460E+03
Ar 1267  0.3476779E+02  0.1654166E+02  0.7302865E+01  0.1016867E+03
Ar 1268  0.3163224E+02  0.1891027E+02  0.7994488E+01  0.2253055E+03
Ar 1269  0.3139279E+02  0.1635018E+02  0.1040724E+02  0.1117904E+03
Ar 1270  0.3463634E+02  0.1851372E+02  0.1044930E+02  0.9619533E+03
Ar 1271  0.3487582E+02  0.1565680E+02  0.1237446E+02  0.7647893E+02
Ar 1272  0.3213212E+02  0.1952040E+02  0.1271917E+02  0.2932856E+03
Ar 1273  0.3284513E+02  0.1608929E+02  0.1535985E+02  0.1971318E+03
Ar 1274  0.3461451E+02  0.1960961E+02  0.1656528E+02  0.6880354E+03
Ar 1275  0.3540972E+02  0.1662634E+02  0.1793016E+02  0.2183716E+03
Ar 1276  0.3209903E+02  0.1745178E+02  0.1902674E+02  0.2599420E+03
Ar 1277  0.3203403E+02  0.1663419E+02  0.2236010E+02  0.2049000E+03
Ar 1278  0.3506791E+02  0.1812365E+02  0.2098432E+02  0.1475610E+03
Ar 1279  0.3468888E+02  0.1488260E+02  0.2452624E+02  0.5542049E+03
Ar 1280  0.3304333E+02  0.1918584E+02  0.2490248E+02  0.4373742E+03
Ar 1281  0.3235881E+02  0.1604352E+02  0.2764663E+02  0.1786005E+03
Ar 1282  0.3589075E+02  0.1924846E+02  0.2657202E+02  0.2213727E+03
Ar 1283  0.3515855E+02  0.1680643E+02  0.3103189E+02  0.3339575E+03
Ar 1284  0.3345608E+02  0.1935406E+02  0.2875622E+02  0.4637835E+03
Ar 1285  0.3598993E+02  0.1962187E+02  0.3285027E+02  0.4565679E+03
Ar 1286  0.3767211E+02  0.1889180E+02  0.3024042E+02  0.1156394E+03
Ar 1287  0.3512538E+02  0.1651090E+02  0.3484021E+02  0.5911150E+02
Ar 1288  0.3239940E+02  0.1814290E+02  0.3496968E+02  0.1181858E+03
Ar 1289  0.3230209E+02  0.2179620E+02  0.2298686E+00  0.3908573E+03
Ar 1290  0.3452822E+02  0.2457657E+02  0.1342069E+00  0.1644946E+03
Ar 1291  0.3451502E+02  0.2192273E+02  0.2818459E+01  0.5256607E+03
Ar 1292  0.3162455E+02  0.2477156E+02  0.2349861E+01  0.8485026E+02
Ar 1293  0.3224879E+02  0.2171681E+02  0.5178080E+01  0.1095769E+03
Ar 1294  0.3485689E+02  0.2415927E+02  0.5315633E+01  0.2068981E+03
Ar 1295  0.3494539E+02  0.2084663E+02  0.7607849E+01  0.6945919E+03
Ar 1296  0.3120946E+02  0.2439406E+02  0.7325743E+01  0.6275866E+02
Ar 1297  0.3243212E+02  0.2246510E+02  0.9634015E+01  0.1704403E+03
Ar 1298  0.3462323E+02  0.2450581E+02  0.1086053E+02  0.4675875E+02
Ar 1299  0.3483941E+02  0.2130992E+02  0.1228393E+02  0.5568455E+03
Ar 1300  0.3218811E+02  0.2462045E+02  0.1322391E+02  0.1718384E+04
Ar 1301  0.3274967E+02  0.2226501E+02  0.1569762E+02  0.8162763E+03
Ar 1302  0.3468844E+02  0.2506140E+02  0.1729230E+02  0.2834381E+03
Ar 1303  0.3412414E+02  0.2131500E+02  0.1966321E+02  0.3400204E+03
Ar 1304  0.3213618E+02  0.2544959E+02  0.1963834E+02  0.1012626E+03
Ar 1305  0.3311805E+02  0.2398534E+02  0.2281951E+02  0.6169695E+02
Ar 1306  0.3560855E+02  0.2413069E+02  0.2082405E+02  0.1908254E+03
Ar 1307  0.3503227E+02  0.2149013E+02  0.2344171E+02  0.3672632E+03
Ar 1308  0.3065161E+02  0.2498804E+02  0.2616114E+02  0.5690966E+03
Ar 1309  0.3365454E+02  0.2293113E+02  0.2659065E+02  0.1262082E+04
Ar 1310  0.3575822E+02  0.2537210E+02  0.2594927E+02  0.7339728E+03
Ar 1311  0.3493349E+02  0.2256200E+02  0.3022051E+02  0.2599984E+03
Ar 1312  0.3350846E+02  0.2547712E+02  0.2874410E+02  0.6745595E+03
Ar 1313  0.3241291E+02  0.2039520E+02  0.3160792E+02  0.3995882E+03
Ar 1314  0.3604600E+02  0.2490999E+02  0.3290964E+02  0.8591740E+02
Ar 1315  0.3402050E+02  0.2154220E+02  0.3520107E+02  0.5064087E+03
Ar 1316  0.3194370E+02  0.2479961E+02  0.3557195E+02  0.1775293E+02
Ar 1317  0.3216112E+02  0.2730196E+02  0.3852343E-01  0.3386145E+03
Ar 1318  0.3541880E+02  0.2982592E+02  0.7584422E+00  0.2296661E+03
Ar 1319  0.3481799E+02  0.2669538E+02  0.2818983E+01  0.1559708E+03
Ar 1320  0.3275292E+02  0.2975551E+02  0.3046870E+01  0.1284011E+03
Ar 1321  0.3247005E+02  0.2726599E+02  0.5131867E+01  0.5420094E+03
Ar 1322  0.3503438E+02  0.2945560E+02  0.5639692E+01  0.4491931E+03
Ar 1323  0.3448004E+02  0.2646361E+02  0.7537267E+01  0.1548905E+03
Ar 1324  0.3143628E+02  0.2930254E+02  0.8220575E+01  0.9830272E+02
Ar 1325  0.3190134E+02  0.2657124E+02  0.1049433E+02  0.1805763E+03
Ar 1326  0.3431289E+02  0.2946144E+02  0.1021627E+02  0.1017357E+03
Ar 1327  0.3492354E+02  0.2717417E+02  0.1287330E+02  0.1656835E+03
Ar 1328  0.3189293E+02  0.2928346E+02  0.1294640E+02  0.1031730E+04
Ar 1329  0.3212552E+02  0.2671336E+02  0.1562153E+02  0.9413390E+02
Ar 1330  0.3525777E+02  0.2880312E+02  0.1578079E+02  0.1346948E+03
Ar 1331  0.3562229E+02  0.2760494E+02  0.1941396E+02  0.3493004E+03
Ar 1332  0.3240480E+02  0.2967559E+02  0.1795783E+02  0.1139308E+03
Ar 1333  0.3220117E+02  0.2842397E+02  0.2134539E+02  0.1633114E+03
Ar 1334  0.3449589E+02  0.3066396E+02  0.2115068E+02  0.4016010E+03
Ar 1335  0.3537034E+02  0.2749624E+02  0.2332223E+02  0.3822138E+03
Ar 1336  0.3165321E+02  0.3044701E+02  0.2412041E+02  0.5382320E+03
Ar 1337  0.3207381E+02  0.2733246E+02  0.2460273E+02  0.2229834E+03
Ar 1338  0.3479443E+02  0.2944882E+02  0.2580713E+02  0.3412278E+02
Ar 1339  0.3541770E+02  0.2799900E+02  0.2958748E+02  0.1242135E+03
Ar 1340  0.3218324E+02  0.2941012E+02  0.2902190E+02  0.8192144E+03
Ar 1341  0.3343280E+02  0.2715419E+02  0.3281718E+02  0.3296151E+03
Ar 1342  0.3581004E+02  0.3021295E+02  0.3246298E+02  0.1777838E+02
Ar 1343  0.3540659E+02  0.2677076E+02  0.3547248E+02  0.7714883E+03
Ar 1344  0.3384749E+02  0.3012470E+02  0.3530698E+02  0.1846297E+03
Ar 1345  0.3087165E+02  0.3190779E+02  0.3548358E+02  0.3757803E+03
Ar 1346  0.1096322E+00  0.3479248E+02  0.2367156E+01  0.6347021E+02
Ar 1347  0.3576972E+02  0.3249095E+02  0.3281349E+01  0.2246395E+03
Ar 1348  0.3237110E+02  0.3462670E+02  0.3255627E+01  0.3105285E+03
Ar 1349  0.3308030E+02  0.3266150E+02  0.5636315E+01  0.8854594E+03
Ar 1350  0.3534907E+02  0.3559390E+02  0.5533706E+01  0.1816409E+03
Ar 1351  0.3525104E+02  0.3290319E+02  0.8787938E+01  0.5467655E+03
Ar 1352  0.3227135E+02  0.3464041E+02  0.8234758E+01  0.5988823E+03
Ar 1353  0.3258228E+02  0.3236646E+02  0.1100430E+02  0.3418363E+03
Ar 1354  0.3482332E+02  0.3477000E+02  0.1138583E+02  0.2318456E+03
Ar 1355  0.3557022E+02  0.3112338E+02  0.1345415E+02  0.1545908E+03
Ar 1356  0.3197115E+02  0.3539470E+02  0.1404220E+02  0.3528468E+02
Ar 1357  0.3204370E+02  0.3211998E+02  0.1534037E+02  0.6164367E+03
Ar 1358  0.3549399E+02  0.3433406E+02  0.1470338E+02  0.3920943E+03
Ar 1359  0.3505245E+02  0.3223426E+02  0.1778886E+02  0.9047504E+02
Ar 1360  0.3138971E+02  0.3482695E+02  0.1790994E+02  0.5368685E+03
Ar 1361  0.3180508E+02  0.3216464E+02  0.2049288E+02  0.3956821E+03
Ar 1362  0.3471793E+02  0.3409637E+02  0.2096872E+02  0.1741218E+03
Ar 1363  0.3505069E+02  0.3215716E+02  0.2428521E+02  0.5219166E+02
Ar 1364  0.3197529E+02  0.3374696E+02  0.2338561E+02  0.5346341E+03
Ar 1365  0.3281870E+02  0.3237609E+02  0.2716327E+02  0.5285221E+03
Ar 1366  0.3351615E+02  0.3587538E+02  0.2719395E+02  0.1328712E+03
Ar 1367  0.3484212E+02  0.3136551E+02  0.2952807E+02  0.3815407E+03
Ar 1368  0.3179546E+02  0.3747681E+02  0.2954437E+02  0.3842114E+03
Ar 1369  0.3262423E+02  0.3253325E+02  0.6537689E+00  0.1322429E+03
Ar 1370  0.3466710E+02  0.3466729E+02  0.3083971E+02  0.2107046E+02
Ar 1371  0.3661029E+02  0.3304543E+02  0.3459185E+02  0.9578923E+02
Ar 1372  0.3336288E+02  0.3460522E+02  0.3525763E+02  0.2048042E+03
