        1372
Lattice="  0.3778015E+02  0.0000000E+00  0.0000000E+00  0.0000000E+00  0.3778015E+02  0.0000000E+00  0.0000000E+00  0.0000000E+00  0.3778015E+02" Properties=species:S:1:id:I:1:pos:R:3:tempK:R:1
Ar    1  0.3766157E+02  0.3766157E+02  0.3766157E+02  0.1576752E+02
Ar    2  0.2408613E+01  0.2408613E+01  0.3760145E+02  0.2305083E+03
Ar    3  0.2408613E+01  0.3760145E+02  0.2408613E+01  0.2305083E+03
Ar    4  0.3760145E+02  0.2408613E+01  0.2408613E+01  0.2305083E+03
Ar    5  0.3743762E+02  0.3743762E+02  0.5722953E+01  0.5166619E+03
Ar    6  0.2358546E+01  0.2358546E+01  0.6093910E+01  0.9821295E+01
Ar    7  0.2843290E+01  0.3717556E+02  0.8441967E+01  0.4416341E+02
Ar    8  0.3717556E+02  0.2843290E+01  0.8441967E+01  0.4416341E+02
Ar    9  0.3776443E+02  0.3776443E+02  0.1000438E+02  0.3652791E+03
Ar   10  0.2390312E+01  0.2390312E+01  0.1091171E+02  0.1145866E+03
Ar   11  0.2407330E+01  0.3761309E+02  0.1334139E+02  0.3771914E+02
Ar   12  0.3761309E+02  0.2407330E+01  0.1334139E+02  0.3771914E+02
Ar   13  0.3744904E+02  0.3744904E+02  0.1542148E+02  0.4876169E+02
Ar   14  0.2578239E+01  0.2578239E+01  0.1598018E+02  0.2624518E+03
Ar   15  0.2838777E+01  0.3745508E+02  0.1872070E+02  0.7503810E+02
Ar   16  0.3745508E+02  0.2838777E+01  0.1872070E+02  0.7503810E+02
Ar   17  0.3728643E+02  0.3728643E+02  0.2143405E+02  0.1730658E+03
Ar   18  0.2336630E+01  0.2336630E+01  0.2239693E+02  0.6190125E+02
Ar   19  0.2514026E+01  0.3728167E+02  0.2420232E+02  0.1956557E+03
Ar   20  0.3728167E+02  0.2514026E+01  0.2420232E+02  0.1956557E+03
Ar   21  0.2370173E+00  0.2370173E+00  0.2711772E+02  0.3118662E+02
Ar   22  0.2572455E+01  0.2572455E+01  0.2669445E+02  0.1881010E+03
Ar   23  0.3125936E+01  0.1490426E-02  0.2950110E+02  0.7821428E+02
Ar   24  0.1490425E-02  0.3125936E+01  0.2950110E+02  0.7821428E+02
Ar   25  0.2101922E+00  0.2101922E+00  0.3174732E+02  0.1419239E+02
Ar   26  0.2752497E+01  0.2752497E+01  0.3272094E+02  0.1721213E+03
Ar   27  0.2864170E+01  0.3757078E+02  0.3478219E+02  0.8611959E+02
Ar   28  0.3757078E+02  0.2864170E+01  0.3478219E+02  0.8611959E+02
Ar   29  0.3743762E+02  0.5722953E+01  0.3743762E+02  0.5166619E+03
Ar   30  0.2843290E+01  0.8441967E+01  0.3717556E+02  0.4416341E+02
Ar   31  0.2358546E+01  0.6093910E+01  0.2358546E+01  0.9821295E+01
Ar   32  0.3717556E+02  0.8441967E+01  0.2843290E+01  0.4416341E+02
Ar   33  0.3715207E+02  0.5357945E+01  0.5357945E+01  0.5049556E+02
Ar   34  0.2413046E+01  0.8004526E+01  0.5181422E+01  0.9614797E+02
Ar   35  0.2413046E+01  0.5181422E+01  0.8004526E+01  0.9614797E+02
Ar   36  0.3769648E+02  0.8091124E+01  0.8091124E+01  0.2289167E+03
Ar   37  0.3767905E+02  0.5498110E+01  0.1073843E+02  0.6656922E+02
Ar   38  0.2755944E+01  0.7955216E+01  0.1082797E+02  0.1078551E+03
Ar   39  0.2351132E+01  0.5118656E+01  0.1356627E+02  0.1471492E+03
Ar   40  0.3749052E+02  0.7814873E+01  0.1322204E+02  0.1716559E+03
Ar   41  0.3766353E+02  0.5503396E+01  0.1604823E+02  0.4755548E+02
Ar   42  0.2259057E+01  0.7787616E+01  0.1650037E+02  0.1478844E+03
Ar   43  0.2385760E+01  0.5054859E+01  0.1925062E+02  0.2280154E+02
Ar   44  0.1340296E+00  0.7895290E+01  0.1932581E+02  0.2572271E+03
Ar   45  0.5263079E-01  0.5311901E+01  0.2183202E+02  0.1430525E+03
Ar   46  0.2854491E+01  0.7919334E+01  0.2145764E+02  0.1126015E+03
Ar   47  0.2678098E+01  0.5368686E+01  0.2415170E+02  0.1611839E+03
Ar   48  0.2975410E-01  0.8123265E+01  0.2417357E+02  0.2035788E+02
Ar   49  0.3757259E+02  0.5127730E+01  0.2640769E+02  0.6645316E+02
Ar   50  0.2657095E+01  0.8024033E+01  0.2674028E+02  0.4904365E+02
Ar   51  0.2796954E+01  0.5388723E+01  0.2928079E+02  0.5301395E+02
Ar   52  0.3762791E+02  0.8322604E+01  0.2958941E+02  0.7061555E+02
Ar   53  0.3760801E+02  0.5511879E+01  0.3211404E+02  0.7599732E+02
Ar   54  0.2701921E+01  0.8359846E+01  0.3190652E+02  0.8370321E+02
Ar   55  0.2357805E+01  0.5418627E+01  0.3468457E+02  0.1733488E+03
Ar   56  0.3777994E+02  0.8312928E+01  0.3455334E+02  0.7878156E+02
Ar   57  0.3776443E+02  0.1000438E+02  0.3776443E+02  0.3652791E+03
Ar   58  0.2407330E+01  0.1334139E+02  0.3761309E+02  0.3771914E+02
Ar   59  0.2390312E+01  0.1091171E+02  0.2390312E+01  0.1145866E+03
Ar   60  0.3761309E+02  0.1334139E+02  0.2407330E+01  0.3771914E+02
Ar   61  0.3767905E+02  0.1073843E+02  0.5498110E+01  0.6656922E+02
Ar   62  0.2351132E+01  0.1356627E+02  0.5118656E+01  0.1471492E+03
Ar   63  0.2755944E+01  0.1082797E+02  0.7955216E+01  0.1078551E+03
Ar   64  0.3749052E+02  0.1322204E+02  0.7814873E+01  0.1716559E+03
Ar   65  0.3746891E+02  0.1056853E+02  0.1056853E+02  0.1065408E+03
Ar   66  0.2512203E+01  0.1335275E+02  0.1053308E+02  0.1905536E+03
Ar   67  0.2512203E+01  0.1053308E+02  0.1335275E+02  0.1905536E+03
Ar   68  0.4601499E+00  0.1335391E+02  0.1335391E+02  0.1944098E+03
Ar   69  0.3756472E+00  0.1050186E+02  0.1625625E+02  0.1361655E+03
Ar   70  0.2891440E+01  0.1344598E+02  0.1618976E+02  0.4316794E+02
Ar   71  0.2520223E+01  0.1072317E+02  0.1883292E+02  0.2086457E+03
Ar   72  0.4998895E+00  0.1364232E+02  0.1896572E+02  0.8344362E+02
Ar   73  0.1084009E+00  0.1079108E+02  0.2156064E+02  0.3710570E+03
Ar   74  0.3022043E+01  0.1355146E+02  0.2155501E+02  0.8377129E+02
Ar   75  0.2531746E+01  0.1102976E+02  0.2442505E+02  0.1121787E+03
Ar   76  0.2980158E+00  0.1377279E+02  0.2417614E+02  0.2003923E+02
Ar   77  0.3728124E+02  0.1125399E+02  0.2653031E+02  0.1016263E+02
Ar   78  0.3145009E+01  0.1353737E+02  0.2686769E+02  0.8291324E+01
Ar   79  0.2861037E+01  0.1121540E+02  0.2972885E+02  0.1587869E+03
Ar   80  0.1039762E+00  0.1377005E+02  0.2933060E+02  0.1396432E+03
Ar   81  0.3509298E+00  0.1103135E+02  0.3210651E+02  0.2375625E+02
Ar   82  0.2846599E+01  0.1380546E+02  0.3238990E+02  0.8274748E+02
Ar   83  0.2599754E+01  0.1099506E+02  0.3488443E+02  0.4105324E+02
Ar   84  0.3773248E+02  0.1333802E+02  0.3482847E+02  0.2286983E+02
Ar   85  0.3744904E+02  0.1542148E+02  0.3744904E+02  0.4876169E+02
Ar   86  0.2838777E+01  0.1872070E+02  0.3745508E+02  0.7503810E+02
Ar   87  0.2578239E+01  0.1598018E+02  0.2578239E+01  0.2624518E+03
Ar   88  0.3745508E+02  0.1872070E+02  0.2838777E+01  0.7503810E+02
Ar   89  0.3766353E+02  0.1604823E+02  0.5503396E+01  0.4755548E+02
Ar   90  0.2385760E+01  0.1925062E+02  0.5054859E+01  0.2280154E+02
Ar   91  0.2259057E+01  0.1650037E+02  0.7787616E+01  0.1478844E+03
Ar   92  0.1340296E+00  0.1932581E+02  0.7895290E+01  0.2572271E+03
Ar   93  0.3756472E+00  0.1625625E+02  0.1050186E+02  0.1361655E+03
Ar   94  0.2520223E+01  0.1883292E+02  0.1072317E+02  0.2086457E+03
Ar   95  0.2891440E+01  0.1618976E+02  0.1344598E+02  0.4316794E+02
Ar   96  0.4998895E+00  0.1896572E+02  0.1364232E+02  0.8344362E+02
Ar   97  0.1609361E+00  0.1611559E+02  0.1611559E+02  0.1398401E+03
Ar   98  0.3030130E+01  0.1891025E+02  0.1645247E+02  0.1783106E+01
Ar   99  0.3030130E+01  0.1645247E+02  0.1891025E+02  0.1783106E+01
Ar  100  0.3760975E+02  0.1912506E+02  0.1912506E+02  0.3860352E+03
Ar  101  0.3750607E+02  0.1624885E+02  0.2163050E+02  0.2141819E+02
Ar  102  0.2682003E+01  0.1896938E+02  0.2170818E+02  0.2699894E+03
Ar  103  0.2899765E+01  0.1606632E+02  0.2409421E+02  0.4344061E+02
Ar  104  0.3763171E+02  0.1875845E+02  0.2417600E+02  0.1138114E+03
Ar  105  0.9989972E-01  0.1626109E+02  0.2685508E+02  0.3310235E+02
Ar  106  0.2697940E+01  0.1910196E+02  0.2672297E+02  0.1295515E+03
Ar  107  0.2914445E+01  0.1605382E+02  0.2922699E+02  0.1670452E+03
Ar  108  0.3750374E+02  0.1894115E+02  0.2986442E+02  0.3537292E+02
Ar  109  0.3161365E-01  0.1616366E+02  0.3221493E+02  0.4966555E+02
Ar  110  0.2925133E+01  0.1883388E+02  0.3194878E+02  0.5953693E+02
Ar  111  0.2635226E+01  0.1610980E+02  0.3526794E+02  0.4611124E+01
Ar  112  0.3086943E+00  0.1881971E+02  0.3490379E+02  0.1338106E+03
Ar  113  0.3728643E+02  0.2143405E+02  0.3728643E+02  0.1730658E+03
Ar  114  0.2514026E+01  0.2420232E+02  0.3728167E+02  0.1956557E+03
Ar  115  0.2336630E+01  0.2239693E+02  0.2336630E+01  0.6190125E+02
Ar  116  0.3728167E+02  0.2420232E+02  0.2514026E+01  0.1956557E+03
Ar  117  0.5263079E-01  0.2183202E+02  0.5311901E+01  0.1430525E+03
Ar  118  0.2678098E+01  0.2415170E+02  0.5368686E+01  0.1611839E+03
Ar  119  0.2854491E+01  0.2145764E+02  0.7919334E+01  0.1126015E+03
Ar  120  0.2975410E-01  0.2417357E+02  0.8123265E+01  0.2035788E+02
Ar  121  0.1084009E+00  0.2156064E+02  0.1079108E+02  0.3710570E+03
Ar  122  0.2531746E+01  0.2442505E+02  0.1102976E+02  0.1121787E+03
Ar  123  0.3022043E+01  0.2155501E+02  0.1355146E+02  0.8377129E+02
Ar  124  0.2980158E+00  0.2417614E+02  0.1377279E+02  0.2003923E+02
Ar  125  0.3750607E+02  0.2163050E+02  0.1624885E+02  0.2141819E+02
Ar  126  0.2899765E+01  0.2409421E+02  0.1606632E+02  0.4344061E+02
Ar  127  0.2682003E+01  0.2170818E+02  0.1896938E+02  0.2699894E+03
Ar  128  0.3763171E+02  0.2417600E+02  0.1875845E+02  0.1138114E+03
Ar  129  0.3751155E+02  0.2150294E+02  0.2150294E+02  0.3705718E+03
Ar  130  0.2682090E+01  0.2424902E+02  0.2167107E+02  0.1027032E+03
Ar  131  0.2682090E+01  0.2167107E+02  0.2424902E+02  0.1027032E+03
Ar  132  0.3773195E+02  0.2420697E+02  0.2420697E+02  0.6733395E+02
Ar  133  0.3773852E+02  0.2166145E+02  0.2691345E+02  0.5885403E+02
Ar  134  0.2855040E+01  0.2436708E+02  0.2709808E+02  0.2174926E+02
Ar  135  0.2105052E+01  0.2186840E+02  0.2973882E+02  0.2172419E+02
Ar  136  0.3741089E+02  0.2459105E+02  0.2971962E+02  0.2072459E+03
Ar  137  0.3763122E+02  0.2156965E+02  0.3268055E+02  0.1782690E+03
Ar  138  0.2280235E+01  0.2411649E+02  0.3247061E+02  0.1900975E+02
Ar  139  0.2884594E+01  0.2127187E+02  0.3504593E+02  0.3240414E+02
Ar  140  0.3757504E+02  0.2434268E+02  0.3496406E+02  0.3380541E+03
Ar  141  0.2370173E+00  0.2711772E+02  0.2370173E+00  0.3118662E+02
Ar  142  0.3125936E+01  0.2950110E+02  0.1490426E-02  0.7821428E+02
Ar  143  0.2572455E+01  0.2669445E+02  0.2572455E+01  0.1881010E+03
Ar  144  0.1490426E-02  0.2950110E+02  0.3125936E+01  0.7821428E+02
Ar  145  0.3757259E+02  0.2640769E+02  0.5127730E+01  0.6645316E+02
Ar  146  0.2796954E+01  0.2928079E+02  0.5388723E+01  0.5301395E+02
Ar  147  0.2657095E+01  0.2674028E+02  0.8024033E+01  0.4904365E+02
Ar  148  0.3762791E+02  0.2958941E+02  0.8322604E+01  0.7061555E+02
Ar  149  0.3728124E+02  0.2653031E+02  0.1125399E+02  0.1016263E+02
Ar  150  0.2861037E+01  0.2972885E+02  0.1121540E+02  0.1587869E+03
Ar  151  0.3145009E+01  0.2686769E+02  0.1353737E+02  0.8291324E+01
Ar  152  0.1039762E+00  0.2933060E+02  0.1377005E+02  0.1396432E+03
Ar  153  0.9989972E-01  0.2685508E+02  0.1626109E+02  0.3310235E+02
Ar  154  0.2914445E+01  0.2922699E+02  0.1605382E+02  0.1670452E+03
Ar  155  0.2697940E+01  0.2672297E+02  0.1910196E+02  0.1295515E+03
Ar  156  0.3750374E+02  0.2986442E+02  0.1894115E+02  0.3537292E+02
Ar  157  0.3773852E+02  0.2691345E+02  0.2166145E+02  0.5885403E+02
Ar  158  0.2105052E+01  0.2973882E+02  0.2186840E+02  0.2172419E+02
Ar  159  0.2855040E+01  0.2709808E+02  0.2436708E+02  0.2174926E+02
Ar  160  0.3741089E+02  0.2971962E+02  0.2459105E+02  0.2072459E+03
Ar  161  0.3769135E+02  0.2698021E+02  0.2698021E+02  0.8285801E+01
Ar  162  0.2646977E+01  0.2966039E+02  0.2662242E+02  0.1588768E+02
Ar  163  0.2646977E+01  0.2662242E+02  0.2966039E+02  0.1588768E+02
Ar  164  0.4082176E-01  0.2985442E+02  0.2985442E+02  0.9021469E+02
Ar  165  0.3773488E+02  0.2740523E+02  0.3217492E+02  0.1851021E+02
Ar  166  0.2787919E+01  0.2970533E+02  0.3227139E+02  0.5253019E+02
Ar  167  0.2684038E+01  0.2703424E+02  0.3478584E+02  0.2979384E+03
Ar  168  0.6270424E-01  0.2983941E+02  0.3480012E+02  0.9846171E+02
Ar  169  0.2101922E+00  0.3174732E+02  0.2101922E+00  0.1419239E+02
Ar  170  0.2864170E+01  0.3478219E+02  0.3757078E+02  0.8611959E+02
Ar  171  0.2752497E+01  0.3272094E+02  0.2752497E+01  0.1721213E+03
Ar  172  0.3757078E+02  0.3478219E+02  0.2864170E+01  0.8611959E+02
Ar  173  0.3760801E+02  0.3211404E+02  0.5511879E+01  0.7599732E+02
Ar  174  0.2357805E+01  0.3468457E+02  0.5418627E+01  0.1733488E+03
Ar  175  0.2701921E+01  0.3190652E+02  0.8359846E+01  0.8370321E+02
Ar  176  0.3777994E+02  0.3455334E+02  0.8312928E+01  0.7878156E+02
Ar  177  0.3509298E+00  0.3210651E+02  0.1103135E+02  0.2375625E+02
Ar  178  0.2599754E+01  0.3488443E+02  0.1099506E+02  0.4105324E+02
Ar  179  0.2846599E+01  0.3238990E+02  0.1380546E+02  0.8274748E+02
Ar  180  0.3773248E+02  0.3482847E+02  0.1333802E+02  0.2286983E+02
Ar  181  0.3161365E-01  0.3221493E+02  0.1616366E+02  0.4966555E+02
Ar  182  0.2635226E+01  0.3526794E+02  0.1610980E+02  0.4611124E+01
Ar  183  0.2925133E+01  0.3194878E+02  0.1883388E+02  0.5953693E+02
Ar  184  0.3086943E+00  0.3490379E+02  0.1881971E+02  0.1338106E+03
Ar  185  0.3763122E+02  0.3268055E+02  0.2156965E+02  0.1782690E+03
Ar  186  0.2884594E+01  0.3504593E+02  0.2127187E+02  0.3240414E+02
Ar  187  0.2280235E+01  0.3247061E+02  0.2411649E+02  0.1900975E+02
Ar  188  0.3757504E+02  0.3496406E+02  0.2434268E+02  0.3380541E+03
Ar  189  0.3773488E+02  0.3217492E+02  0.2740523E+02  0.1851021E+02
Ar  190  0.2684038E+01  0.3478584E+02  0.2703424E+02  0.2979384E+03
Ar  191  0.2787919E+01  0.3227139E+02  0.2970533E+02  0.5253019E+02
Ar  192  0.6270424E-01  0.3480012E+02  0.2983941E+02  0.9846171E+02
Ar  193  0.3757522E+02  0.3220051E+02  0.3220051E+02  0.2709165E+03
Ar  194  0.2956627E+01  0.3510468E+02  0.3209683E+02  0.1752376E+03
Ar  195  0.2956627E+01  0.3209683E+02  0.3510468E+02  0.1752376E+03
Ar  196  0.3773602E+02  0.3473919E+02  0.3473919E+02  0.1015391E+03
Ar  197  0.5722953E+01  0.3743762E+02  0.3743762E+02  0.5166619E+03
Ar  198  0.8441967E+01  0.2843290E+01  0.3717556E+02  0.4416341E+02
Ar  199  0.8441967E+01  0.3717556E+02  0.2843290E+01  0.4416341E+02
Ar  200  0.6093910E+01  0.2358546E+01  0.2358546E+01  0.9821295E+01
Ar  201  0.5357945E+01  0.3715207E+02  0.5357945E+01  0.5049556E+02
Ar  202  0.8004526E+01  0.2413046E+01  0.5181422E+01  0.9614797E+02
Ar  203  0.8091124E+01  0.3769648E+02  0.8091124E+01  0.2289167E+03
Ar  204  0.5181422E+01  0.2413046E+01  0.8004526E+01  0.9614797E+02
Ar  205  0.5498110E+01  0.3767905E+02  0.1073843E+02  0.6656922E+02
Ar  206  0.7955216E+01  0.2755944E+01  0.1082797E+02  0.1078551E+03
Ar  207  0.7814873E+01  0.3749052E+02  0.1322204E+02  0.1716559E+03
Ar  208  0.5118656E+01  0.2351132E+01  0.1356627E+02  0.1471492E+03
Ar  209  0.5503396E+01  0.3766353E+02  0.1604823E+02  0.4755548E+02
Ar  210  0.7787616E+01  0.2259057E+01  0.1650037E+02  0.1478844E+03
Ar  211  0.7895290E+01  0.1340296E+00  0.1932581E+02  0.2572271E+03
Ar  212  0.5054859E+01  0.2385760E+01  0.1925062E+02  0.2280154E+02
Ar  213  0.5311901E+01  0.5263079E-01  0.2183202E+02  0.1430525E+03
Ar  214  0.7919334E+01  0.2854491E+01  0.2145764E+02  0.1126015E+03
Ar  215  0.8123265E+01  0.2975410E-01  0.2417357E+02  0.2035788E+02
Ar  216  0.5368686E+01  0.2678098E+01  0.2415170E+02  0.1611839E+03
Ar  217  0.5127730E+01  0.3757259E+02  0.2640769E+02  0.6645316E+02
Ar  218  0.8024033E+01  0.2657095E+01  0.2674028E+02  0.4904365E+02
Ar  219  0.8322604E+01  0.3762791E+02  0.2958941E+02  0.7061555E+02
Ar  220  0.5388723E+01  0.2796954E+01  0.2928079E+02  0.5301395E+02
Ar  221  0.5511879E+01  0.3760801E+02  0.3211404E+02  0.7599732E+02
Ar  222  0.8359846E+01  0.2701921E+01  0.3190652E+02  0.8370321E+02
Ar  223  0.8312928E+01  0.3777994E+02  0.3455334E+02  0.7878156E+02
Ar  224  0.5418627E+01  0.2357805E+01  0.3468457E+02  0.1733488E+03
Ar  225  0.5357945E+01  0.5357945E+01  0.3715207E+02  0.5049556E+02
Ar  226  0.8091124E+01  0.8091124E+01  0.3769648E+02  0.2289167E+03
Ar  227  0.8004526E+01  0.5181422E+01  0.2413046E+01  0.9614797E+02
Ar  228  0.5181422E+01  0.8004526E+01  0.2413046E+01  0.9614797E+02
Ar  229  0.4814360E+01  0.4814360E+01  0.4814360E+01  0.2895165E+03
Ar  230  0.8122667E+01  0.8122667E+01  0.5025767E+01  0.1107261E+03
Ar  231  0.8122667E+01  0.5025767E+01  0.8122667E+01  0.1107261E+03
Ar  232  0.5025767E+01  0.8122667E+01  0.8122667E+01  0.1107261E+03
Ar  233  0.5008249E+01  0.5008249E+01  0.1066293E+02  0.4322340E+02
Ar  234  0.8083768E+01  0.8083768E+01  0.1071626E+02  0.7742291E+02
Ar  235  0.7839781E+01  0.4729325E+01  0.1362020E+02  0.1603043E+03
Ar  236  0.4729325E+01  0.7839781E+01  0.1362020E+02  0.1603043E+03
Ar  237  0.5380665E+01  0.5380665E+01  0.1638802E+02  0.3005715E+03
Ar  238  0.8102731E+01  0.8102731E+01  0.1551707E+02  0.6954947E+02
Ar  239  0.8090816E+01  0.5191355E+01  0.1884490E+02  0.2227927E+03
Ar  240  0.5191355E+01  0.8090816E+01  0.1884490E+02  0.2227927E+03
Ar  241  0.5502412E+01  0.5502412E+01  0.2150581E+02  0.4735680E+02
Ar  242  0.8241604E+01  0.8241604E+01  0.2113528E+02  0.6965980E+02
Ar  243  0.8434116E+01  0.5055361E+01  0.2405517E+02  0.9064266E+02
Ar  244  0.5055361E+01  0.8434116E+01  0.2405517E+02  0.9064266E+02
Ar  245  0.5572479E+01  0.5572479E+01  0.2644990E+02  0.2159684E+03
Ar  246  0.8214564E+01  0.8214564E+01  0.2687876E+02  0.3688164E+02
Ar  247  0.7942414E+01  0.5665158E+01  0.2970547E+02  0.2461564E+03
Ar  248  0.5665158E+01  0.7942414E+01  0.2970547E+02  0.2461564E+03
Ar  249  0.5317434E+01  0.5317434E+01  0.3239127E+02  0.1434922E+03
Ar  250  0.8287139E+01  0.8287139E+01  0.3248111E+02  0.1893349E+03
Ar  251  0.8316804E+01  0.5653959E+01  0.3486770E+02  0.4343430E+02
Ar  252  0.5653959E+01  0.8316804E+01  0.3486770E+02  0.4343430E+02
Ar  253  0.5498110E+01  0.1073843E+02  0.3767905E+02  0.6656922E+02
Ar  254  0.7814873E+01  0.1322204E+02  0.3749052E+02  0.1716559E+03
Ar  255  0.7955216E+01  0.1082797E+02  0.2755944E+01  0.1078551E+03
Ar  256  0.5118656E+01  0.1356627E+02  0.2351132E+01  0.1471492E+03
Ar  257  0.5008249E+01  0.1066293E+02  0.5008249E+01  0.4322340E+02
Ar  258  0.7839781E+01  0.1362020E+02  0.4729325E+01  0.1603043E+03
Ar  259  0.8083768E+01  0.1071626E+02  0.8083768E+01  0.7742291E+02
Ar  260  0.4729325E+01  0.1362020E+02  0.7839781E+01  0.1603043E+03
Ar  261  0.5489896E+01  0.1078937E+02  0.1078937E+02  0.3381329E+02
Ar  262  0.8145177E+01  0.1362217E+02  0.1100280E+02  0.3738013E+02
Ar  263  0.8145177E+01  0.1100280E+02  0.1362217E+02  0.3738013E+02
Ar  264  0.5032779E+01  0.1341851E+02  0.1341851E+02  0.8082345E+02
Ar  265  0.4773834E+01  0.1027623E+02  0.1614115E+02  0.2350230E+03
Ar  266  0.8125530E+01  0.1343714E+02  0.1605002E+02  0.5617582E+02
Ar  267  0.7860864E+01  0.1042771E+02  0.1854830E+02  0.1192741E+03
Ar  268  0.5451743E+01  0.1362637E+02  0.1881506E+02  0.1449551E+03
Ar  269  0.5602222E+01  0.1096434E+02  0.2150335E+02  0.1060465E+03
Ar  270  0.8383462E+01  0.1367918E+02  0.2121844E+02  0.6254783E+02
Ar  271  0.8289038E+01  0.1064790E+02  0.2403334E+02  0.7722957E+02
Ar  272  0.5471624E+01  0.1339826E+02  0.2422672E+02  0.3181451E+02
Ar  273  0.5429192E+01  0.1078311E+02  0.2689484E+02  0.1230065E+03
Ar  274  0.8458495E+01  0.1343289E+02  0.2703416E+02  0.6337388E+02
Ar  275  0.8360729E+01  0.1100624E+02  0.2960253E+02  0.1279257E+03
Ar  276  0.5770040E+01  0.1367359E+02  0.2977889E+02  0.8482911E+02
Ar  277  0.5305845E+01  0.1084318E+02  0.3237323E+02  0.2581744E+03
Ar  278  0.8332961E+01  0.1372905E+02  0.3217749E+02  0.5506910E+02
Ar  279  0.8092604E+01  0.1084877E+02  0.3471595E+02  0.1745301E+03
Ar  280  0.5271757E+01  0.1338964E+02  0.3486668E+02  0.1070899E+02
Ar  281  0.5503396E+01  0.1604823E+02  0.3766353E+02  0.4755548E+02
Ar  282  0.7895290E+01  0.1932581E+02  0.1340296E+00  0.2572271E+03
Ar  283  0.7787616E+01  0.1650037E+02  0.2259057E+01  0.1478844E+03
Ar  284  0.5054859E+01  0.1925062E+02  0.2385760E+01  0.2280154E+02
Ar  285  0.5380665E+01  0.1638802E+02  0.5380665E+01  0.3005715E+03
Ar  286  0.8090816E+01  0.1884490E+02  0.5191355E+01  0.2227927E+03
Ar  287  0.8102731E+01  0.1551707E+02  0.8102731E+01  0.6954947E+02
Ar  288  0.5191355E+01  0.1884490E+02  0.8090816E+01  0.2227927E+03
Ar  289  0.4773834E+01  0.1614115E+02  0.1027623E+02  0.2350230E+03
Ar  290  0.7860864E+01  0.1854830E+02  0.1042771E+02  0.1192741E+03
Ar  291  0.8125530E+01  0.1605002E+02  0.1343714E+02  0.5617582E+02
Ar  292  0.5451743E+01  0.1881506E+02  0.1362637E+02  0.1449551E+03
Ar  293  0.5958635E+01  0.1650701E+02  0.1650701E+02  0.7265497E+02
Ar  294  0.8305282E+01  0.1896816E+02  0.1630468E+02  0.8399525E+02
Ar  295  0.8305282E+01  0.1630468E+02  0.1896816E+02  0.8399525E+02
Ar  296  0.5618852E+01  0.1883549E+02  0.1883549E+02  0.9976604E+02
Ar  297  0.5778657E+01  0.1623141E+02  0.2136961E+02  0.2398349E+03
Ar  298  0.8247275E+01  0.1910651E+02  0.2154205E+02  0.2189009E+02
Ar  299  0.8166846E+01  0.1621750E+02  0.2413738E+02  0.1656367E+02
Ar  300  0.5623493E+01  0.1885858E+02  0.2408681E+02  0.3351919E+02
Ar  301  0.5815261E+01  0.1625924E+02  0.2690032E+02  0.3105562E+03
Ar  302  0.8028054E+01  0.1930850E+02  0.2688319E+02  0.1186619E+03
Ar  303  0.8445958E+01  0.1625023E+02  0.2965034E+02  0.2867304E+03
Ar  304  0.5489559E+01  0.1868311E+02  0.2967895E+02  0.3985494E+02
Ar  305  0.5567202E+01  0.1596401E+02  0.3231939E+02  0.1823572E+03
Ar  306  0.8184949E+01  0.1885346E+02  0.3271759E+02  0.2156478E+02
Ar  307  0.8048713E+01  0.1596049E+02  0.3504523E+02  0.1482224E+03
Ar  308  0.5514617E+01  0.1852628E+02  0.3506314E+02  0.5163742E+02
Ar  309  0.5311901E+01  0.2183202E+02  0.5263079E-01  0.1430525E+03
Ar  310  0.8123265E+01  0.2417357E+02  0.2975410E-01  0.2035788E+02
Ar  311  0.7919334E+01  0.2145764E+02  0.2854491E+01  0.1126015E+03
Ar  312  0.5368686E+01  0.2415170E+02  0.2678098E+01  0.1611839E+03
Ar  313  0.5502412E+01  0.2150581E+02  0.5502412E+01  0.4735680E+02
Ar  314  0.8434116E+01  0.2405517E+02  0.5055361E+01  0.9064266E+02
Ar  315  0.8241604E+01  0.2113528E+02  0.8241604E+01  0.6965980E+02
Ar  316  0.5055361E+01  0.2405517E+02  0.8434116E+01  0.9064266E+02
Ar  317  0.5602222E+01  0.2150335E+02  0.1096434E+02  0.1060465E+03
Ar  318  0.8289038E+01  0.2403334E+02  0.1064790E+02  0.7722957E+02
Ar  319  0.8383462E+01  0.2121844E+02  0.1367918E+02  0.6254783E+02
Ar  320  0.5471624E+01  0.2422672E+02  0.1339826E+02  0.3181451E+02
Ar  321  0.5778657E+01  0.2136961E+02  0.1623141E+02  0.2398349E+03
Ar  322  0.8166846E+01  0.2413738E+02  0.1621750E+02  0.1656367E+02
Ar  323  0.8247275E+01  0.2154205E+02  0.1910651E+02  0.2189009E+02
Ar  324  0.5623493E+01  0.2408681E+02  0.1885858E+02  0.3351919E+02
Ar  325  0.5177149E+01  0.2157400E+02  0.2157400E+02  0.7839776E+02
Ar  326  0.8132778E+01  0.2422257E+02  0.2177080E+02  0.2401831E+02
Ar  327  0.8132778E+01  0.2177080E+02  0.2422257E+02  0.2401831E+02
Ar  328  0.4901749E+01  0.2444395E+02  0.2444395E+02  0.4507714E+03
Ar  329  0.5313969E+01  0.2159368E+02  0.2682143E+02  0.2821958E+01
Ar  330  0.7996434E+01  0.2436773E+02  0.2703196E+02  0.6562659E+01
Ar  331  0.8215796E+01  0.2148501E+02  0.2985219E+02  0.6986106E+02
Ar  332  0.5484061E+01  0.2456314E+02  0.2970048E+02  0.1463452E+02
Ar  333  0.5486903E+01  0.2200198E+02  0.3213803E+02  0.3685636E+02
Ar  334  0.8226575E+01  0.2419299E+02  0.3268394E+02  0.2936643E+02
Ar  335  0.8054515E+01  0.2154959E+02  0.3511292E+02  0.7566649E+02
Ar  336  0.5214980E+01  0.2395851E+02  0.3496126E+02  0.4906518E+02
Ar  337  0.5127730E+01  0.2640769E+02  0.3757259E+02  0.6645316E+02
Ar  338  0.8322604E+01  0.2958941E+02  0.3762791E+02  0.7061555E+02
Ar  339  0.8024033E+01  0.2674028E+02  0.2657095E+01  0.4904365E+02
Ar  340  0.5388723E+01  0.2928079E+02  0.2796954E+01  0.5301395E+02
Ar  341  0.5572479E+01  0.2644990E+02  0.5572479E+01  0.2159684E+03
Ar  342  0.7942414E+01  0.2970547E+02  0.5665158E+01  0.2461564E+03
Ar  343  0.8214564E+01  0.2687876E+02  0.8214564E+01  0.3688164E+02
Ar  344  0.5665158E+01  0.2970547E+02  0.7942414E+01  0.2461564E+03
Ar  345  0.5429192E+01  0.2689484E+02  0.1078311E+02  0.1230065E+03
Ar  346  0.8360729E+01  0.2960253E+02  0.1100624E+02  0.1279257E+03
Ar  347  0.8458495E+01  0.2703416E+02  0.1343289E+02  0.6337388E+02
Ar  348  0.5770040E+01  0.2977889E+02  0.1367359E+02  0.8482911E+02
Ar  349  0.5815261E+01  0.2690032E+02  0.1625924E+02  0.3105562E+03
Ar  350  0.8445958E+01  0.2965034E+02  0.1625023E+02  0.2867304E+03
Ar  351  0.8028054E+01  0.2688319E+02  0.1930850E+02  0.1186619E+03
Ar  352  0.5489559E+01  0.2967895E+02  0.1868311E+02  0.3985494E+02
Ar  353  0.5313969E+01  0.2682143E+02  0.2159368E+02  0.2821958E+01
Ar  354  0.8215796E+01  0.2985219E+02  0.2148501E+02  0.6986106E+02
Ar  355  0.7996434E+01  0.2703196E+02  0.2436773E+02  0.6562659E+01
Ar  356  0.5484061E+01  0.2970048E+02  0.2456314E+02  0.1463452E+02
Ar  357  0.5661196E+01  0.2680064E+02  0.2680064E+02  0.1561604E+03
Ar  358  0.7854801E+01  0.2951188E+02  0.2711001E+02  0.1518648E+03
Ar  359  0.7854801E+01  0.2711001E+02  0.2951188E+02  0.1518648E+03
Ar  360  0.5149538E+01  0.2959980E+02  0.2959980E+02  0.1320988E+03
Ar  361  0.5696268E+01  0.2669064E+02  0.3269001E+02  0.4137028E+02
Ar  362  0.7895024E+01  0.2957929E+02  0.3238259E+02  0.1616082E+03
Ar  363  0.8425984E+01  0.2688121E+02  0.3530267E+02  0.1770963E+03
Ar  364  0.5562478E+01  0.2926594E+02  0.3504881E+02  0.1150109E+02
Ar  365  0.5511879E+01  0.3211404E+02  0.3760801E+02  0.7599732E+02
Ar  366  0.8312928E+01  0.3455334E+02  0.3777994E+02  0.7878156E+02
Ar  367  0.8359846E+01  0.3190652E+02  0.2701921E+01  0.8370321E+02
Ar  368  0.5418627E+01  0.3468457E+02  0.2357805E+01  0.1733488E+03
Ar  369  0.5317434E+01  0.3239127E+02  0.5317434E+01  0.1434922E+03
Ar  370  0.8316804E+01  0.3486770E+02  0.5653959E+01  0.4343430E+02
Ar  371  0.8287139E+01  0.3248111E+02  0.8287139E+01  0.1893349E+03
Ar  372  0.5653959E+01  0.3486770E+02  0.8316804E+01  0.4343430E+02
Ar  373  0.5305845E+01  0.3237323E+02  0.1084318E+02  0.2581744E+03
Ar  374  0.8092604E+01  0.3471595E+02  0.1084877E+02  0.1745301E+03
Ar  375  0.8332961E+01  0.3217749E+02  0.1372905E+02  0.5506910E+02
Ar  376  0.5271757E+01  0.3486668E+02  0.1338964E+02  0.1070899E+02
Ar  377  0.5567202E+01  0.3231939E+02  0.1596401E+02  0.1823572E+03
Ar  378  0.8048713E+01  0.3504523E+02  0.1596049E+02  0.1482224E+03
Ar  379  0.8184949E+01  0.3271759E+02  0.1885346E+02  0.2156478E+02
Ar  380  0.5514617E+01  0.3506314E+02  0.1852628E+02  0.5163742E+02
Ar  381  0.5486903E+01  0.3213803E+02  0.2200198E+02  0.3685636E+02
Ar  382  0.8054515E+01  0.3511292E+02  0.2154959E+02  0.7566649E+02
Ar  383  0.8226575E+01  0.3268394E+02  0.2419299E+02  0.2936643E+02
Ar  384  0.5214980E+01  0.3496126E+02  0.2395851E+02  0.4906518E+02
Ar  385  0.5696268E+01  0.3269001E+02  0.2669064E+02  0.4137028E+02
Ar  386  0.8425984E+01  0.3530267E+02  0.2688121E+02  0.1770963E+03
Ar  387  0.7895024E+01  0.3238259E+02  0.2957929E+02  0.1616082E+03
Ar  388  0.5562478E+01  0.3504881E+02  0.2926594E+02  0.1150109E+02
Ar  389  0.5428594E+01  0.3214408E+02  0.3214408E+02  0.3510604E+02
Ar  390  0.8070281E+01  0.3495386E+02  0.3222736E+02  0.2520675E+03
Ar  391  0.8070281E+01  0.3222736E+02  0.3495386E+02  0.2520675E+03
Ar  392  0.5363172E+01  0.3466025E+02  0.3466025E+02  0.7194634E+03
Ar  393  0.1000438E+02  0.3776443E+02  0.3776443E+02  0.3652791E+03
Ar  394  0.1334139E+02  0.2407330E+01  0.3761309E+02  0.3771914E+02
Ar  395  0.1334139E+02  0.3761309E+02  0.2407330E+01  0.3771914E+02
Ar  396  0.1091171E+02  0.2390312E+01  0.2390312E+01  0.1145866E+03
Ar  397  0.1073843E+02  0.3767905E+02  0.5498110E+01  0.6656922E+02
Ar  398  0.1356627E+02  0.2351132E+01  0.5118656E+01  0.1471492E+03
Ar  399  0.1322204E+02  0.3749052E+02  0.7814873E+01  0.1716559E+03
Ar  400  0.1082797E+02  0.2755944E+01  0.7955216E+01  0.1078551E+03
Ar  401  0.1056853E+02  0.3746891E+02  0.1056853E+02  0.1065408E+03
Ar  402  0.1335275E+02  0.2512203E+01  0.1053308E+02  0.1905536E+03
Ar  403  0.1335391E+02  0.4601499E+00  0.1335391E+02  0.1944098E+03
Ar  404  0.1053308E+02  0.2512203E+01  0.1335275E+02  0.1905536E+03
Ar  405  0.1050186E+02  0.3756472E+00  0.1625625E+02  0.1361655E+03
Ar  406  0.1344598E+02  0.2891440E+01  0.1618976E+02  0.4316794E+02
Ar  407  0.1364232E+02  0.4998895E+00  0.1896572E+02  0.8344362E+02
Ar  408  0.1072317E+02  0.2520223E+01  0.1883292E+02  0.2086457E+03
Ar  409  0.1079108E+02  0.1084009E+00  0.2156064E+02  0.3710570E+03
Ar  410  0.1355146E+02  0.3022043E+01  0.2155501E+02  0.8377129E+02
Ar  411  0.1377279E+02  0.2980158E+00  0.2417614E+02  0.2003923E+02
Ar  412  0.1102976E+02  0.2531746E+01  0.2442505E+02  0.1121787E+03
Ar  413  0.1125399E+02  0.3728124E+02  0.2653031E+02  0.1016263E+02
Ar  414  0.1353737E+02  0.3145009E+01  0.2686769E+02  0.8291324E+01
Ar  415  0.1377005E+02  0.1039762E+00  0.2933060E+02  0.1396432E+03
Ar  416  0.1121540E+02  0.2861037E+01  0.2972885E+02  0.1587869E+03
Ar  417  0.1103135E+02  0.3509298E+00  0.3210651E+02  0.2375625E+02
Ar  418  0.1380546E+02  0.2846599E+01  0.3238990E+02  0.8274748E+02
Ar  419  0.1333802E+02  0.3773248E+02  0.3482847E+02  0.2286983E+02
Ar  420  0.1099506E+02  0.2599754E+01  0.3488443E+02  0.4105324E+02
Ar  421  0.1073843E+02  0.5498110E+01  0.3767905E+02  0.6656922E+02
Ar  422  0.1322204E+02  0.7814873E+01  0.3749052E+02  0.1716559E+03
Ar  423  0.1356627E+02  0.5118656E+01  0.2351132E+01  0.1471492E+03
Ar  424  0.1082797E+02  0.7955216E+01  0.2755944E+01  0.1078551E+03
Ar  425  0.1066293E+02  0.5008249E+01  0.5008249E+01  0.4322340E+02
Ar  426  0.1362020E+02  0.7839781E+01  0.4729325E+01  0.1603043E+03
Ar  427  0.1362020E+02  0.4729325E+01  0.7839781E+01  0.1603043E+03
Ar  428  0.1071626E+02  0.8083768E+01  0.8083768E+01  0.7742291E+02
Ar  429  0.1078937E+02  0.5489896E+01  0.1078937E+02  0.3381329E+02
Ar  430  0.1362217E+02  0.8145177E+01  0.1100280E+02  0.3738013E+02
Ar  431  0.1341851E+02  0.5032779E+01  0.1341851E+02  0.8082345E+02
Ar  432  0.1100280E+02  0.8145177E+01  0.1362217E+02  0.3738013E+02
Ar  433  0.1027623E+02  0.4773834E+01  0.1614115E+02  0.2350230E+03
Ar  434  0.1343714E+02  0.8125530E+01  0.1605002E+02  0.5617582E+02
Ar  435  0.1362637E+02  0.5451743E+01  0.1881506E+02  0.1449551E+03
Ar  436  0.1042771E+02  0.7860864E+01  0.1854830E+02  0.1192741E+03
Ar  437  0.1096434E+02  0.5602222E+01  0.2150335E+02  0.1060465E+03
Ar  438  0.1367918E+02  0.8383462E+01  0.2121844E+02  0.6254784E+02
Ar  439  0.1339826E+02  0.5471624E+01  0.2422672E+02  0.3181451E+02
Ar  440  0.1064790E+02  0.8289038E+01  0.2403334E+02  0.7722957E+02
Ar  441  0.1078311E+02  0.5429192E+01  0.2689484E+02  0.1230065E+03
Ar  442  0.1343289E+02  0.8458495E+01  0.2703416E+02  0.6337388E+02
Ar  443  0.1367359E+02  0.5770040E+01  0.2977889E+02  0.8482911E+02
Ar  444  0.1100624E+02  0.8360729E+01  0.2960253E+02  0.1279257E+03
Ar  445  0.1084318E+02  0.5305845E+01  0.3237323E+02  0.2581744E+03
Ar  446  0.1372905E+02  0.8332961E+01  0.3217749E+02  0.5506910E+02
Ar  447  0.1338964E+02  0.5271757E+01  0.3486668E+02  0.1070899E+02
Ar  448  0.1084877E+02  0.8092604E+01  0.3471595E+02  0.1745301E+03
Ar  449  0.1056853E+02  0.1056853E+02  0.3746891E+02  0.1065408E+03
Ar  450  0.1335391E+02  0.1335391E+02  0.4601499E+00  0.1944098E+03
Ar  451  0.1335275E+02  0.1053308E+02  0.2512203E+01  0.1905536E+03
Ar  452  0.1053308E+02  0.1335275E+02  0.2512203E+01  0.1905536E+03
Ar  453  0.1078937E+02  0.1078937E+02  0.5489896E+01  0.3381329E+02
Ar  454  0.1341851E+02  0.1341851E+02  0.5032779E+01  0.8082345E+02
Ar  455  0.1362217E+02  0.1100280E+02  0.8145177E+01  0.3738013E+02
Ar  456  0.1100280E+02  0.1362217E+02  0.8145177E+01  0.3738013E+02
Ar  457  0.1116548E+02  0.1116548E+02  0.1116548E+02  0.1106310E+03
Ar  458  0.1378206E+02  0.1378206E+02  0.1113205E+02  0.1984555E+02
Ar  459  0.1378206E+02  0.1113205E+02  0.1378206E+02  0.1984555E+02
Ar  460  0.1113205E+02  0.1378206E+02  0.1378206E+02  0.1984555E+02
Ar  461  0.1100121E+02  0.1100121E+02  0.1641296E+02  0.3947345E+02
Ar  462  0.1384272E+02  0.1384272E+02  0.1632371E+02  0.9199708E+01
Ar  463  0.1345621E+02  0.1090935E+02  0.1861188E+02  0.9719321E+02
Ar  464  0.1090935E+02  0.1345621E+02  0.1861188E+02  0.9719321E+02
Ar  465  0.1099154E+02  0.1099154E+02  0.2118412E+02  0.5518260E+03
Ar  466  0.1376033E+02  0.1376033E+02  0.2214518E+02  0.1158548E+02
Ar  467  0.1384970E+02  0.1079657E+02  0.2402654E+02  0.4043250E+02
Ar  468  0.1079657E+02  0.1384970E+02  0.2402654E+02  0.4043250E+02
Ar  469  0.1097846E+02  0.1097846E+02  0.2646594E+02  0.7836464E+02
Ar  470  0.1345463E+02  0.1345463E+02  0.2661033E+02  0.1567844E+03
Ar  471  0.1336649E+02  0.1101042E+02  0.2954363E+02  0.3217415E+03
Ar  472  0.1101042E+02  0.1336649E+02  0.2954363E+02  0.3217415E+03
Ar  473  0.1070410E+02  0.1070410E+02  0.3244541E+02  0.7033163E+02
Ar  474  0.1356097E+02  0.1356097E+02  0.3262295E+02  0.2136871E+03
Ar  475  0.1340348E+02  0.1074752E+02  0.3540417E+02  0.9839358E+02
Ar  476  0.1074752E+02  0.1340348E+02  0.3540417E+02  0.9839358E+02
Ar  477  0.1050186E+02  0.1625625E+02  0.3756472E+00  0.1361655E+03
Ar  478  0.1364232E+02  0.1896572E+02  0.4998895E+00  0.8344362E+02
Ar  479  0.1344598E+02  0.1618976E+02  0.2891440E+01  0.4316794E+02
Ar  480  0.1072317E+02  0.1883292E+02  0.2520223E+01  0.2086457E+03
Ar  481  0.1027623E+02  0.1614115E+02  0.4773834E+01  0.2350230E+03
Ar  482  0.1362637E+02  0.1881506E+02  0.5451743E+01  0.1449551E+03
Ar  483  0.1343714E+02  0.1605002E+02  0.8125530E+01  0.5617582E+02
Ar  484  0.1042771E+02  0.1854830E+02  0.7860864E+01  0.1192741E+03
Ar  485  0.1100121E+02  0.1641296E+02  0.1100121E+02  0.3947345E+02
Ar  486  0.1345621E+02  0.1861188E+02  0.1090935E+02  0.9719321E+02
Ar  487  0.1384272E+02  0.1632371E+02  0.1384272E+02  0.9199708E+01
Ar  488  0.1090935E+02  0.1861188E+02  0.1345621E+02  0.9719321E+02
Ar  489  0.1107015E+02  0.1652266E+02  0.1652266E+02  0.3759696E+03
Ar  490  0.1384506E+02  0.1887990E+02  0.1656265E+02  0.6287909E+02
Ar  491  0.1384506E+02  0.1656265E+02  0.1887990E+02  0.6287909E+02
Ar  492  0.1108556E+02  0.1902507E+02  0.1902507E+02  0.5240984E+03
Ar  493  0.1119710E+02  0.1628252E+02  0.2122502E+02  0.6928554E+02
Ar  494  0.1355731E+02  0.1921565E+02  0.2232431E+02  0.1606924E+03
Ar  495  0.1365912E+02  0.1623797E+02  0.2418068E+02  0.2449434E+03
Ar  496  0.1052484E+02  0.1881061E+02  0.2440543E+02  0.1313574E+03
Ar  497  0.1124397E+02  0.1606844E+02  0.2680699E+02  0.6979336E+02
Ar  498  0.1339761E+02  0.1894111E+02  0.2686711E+02  0.8448838E+02
Ar  499  0.1347511E+02  0.1631314E+02  0.2986855E+02  0.1939816E+03
Ar  500  0.1077475E+02  0.1889539E+02  0.2989248E+02  0.1879992E+03
Ar  501  0.1090739E+02  0.1654325E+02  0.3267551E+02  0.9497611E+02
Ar  502  0.1376738E+02  0.1869330E+02  0.3267974E+02  0.1133981E+03
Ar  503  0.1338297E+02  0.1609932E+02  0.3557407E+02  0.1289855E+03
Ar  504  0.1074661E+02  0.1884918E+02  0.3543931E+02  0.3106412E+03
Ar  505  0.1079108E+02  0.2156064E+02  0.1084009E+00  0.3710570E+03
Ar  506  0.1377279E+02  0.2417614E+02  0.2980158E+00  0.2003923E+02
Ar  507  0.1355146E+02  0.2155501E+02  0.3022043E+01  0.8377129E+02
Ar  508  0.1102976E+02  0.2442505E+02  0.2531746E+01  0.1121787E+03
Ar  509  0.1096434E+02  0.2150335E+02  0.5602222E+01  0.1060465E+03
Ar  510  0.1339826E+02  0.2422672E+02  0.5471624E+01  0.3181451E+02
Ar  511  0.1367918E+02  0.2121844E+02  0.8383462E+01  0.6254783E+02
Ar  512  0.1064790E+02  0.2403334E+02  0.8289038E+01  0.7722957E+02
Ar  513  0.1099154E+02  0.2118412E+02  0.1099154E+02  0.5518260E+03
Ar  514  0.1384970E+02  0.2402654E+02  0.1079657E+02  0.4043250E+02
Ar  515  0.1376033E+02  0.2214518E+02  0.1376033E+02  0.1158548E+02
Ar  516  0.1079657E+02  0.2402654E+02  0.1384970E+02  0.4043250E+02
Ar  517  0.1119710E+02  0.2122502E+02  0.1628252E+02  0.6928554E+02
Ar  518  0.1365912E+02  0.2418068E+02  0.1623797E+02  0.2449434E+03
Ar  519  0.1355731E+02  0.2232431E+02  0.1921565E+02  0.1606924E+03
Ar  520  0.1052484E+02  0.2440543E+02  0.1881061E+02  0.1313574E+03
Ar  521  0.1081255E+02  0.2179198E+02  0.2179198E+02  0.3023184E+03
Ar  522  0.1372956E+02  0.2464326E+02  0.2176930E+02  0.1295411E+03
Ar  523  0.1372956E+02  0.2176930E+02  0.2464326E+02  0.1295411E+03
Ar  524  0.1122316E+02  0.2448736E+02  0.2448736E+02  0.2651578E+03
Ar  525  0.1058040E+02  0.2188567E+02  0.2713282E+02  0.3551370E+02
Ar  526  0.1364372E+02  0.2442006E+02  0.2718350E+02  0.7617169E+02
Ar  527  0.1327546E+02  0.2133579E+02  0.2942577E+02  0.2107123E+03
Ar  528  0.1035000E+02  0.2421047E+02  0.2989074E+02  0.5973249E+02
Ar  529  0.1115642E+02  0.2126987E+02  0.3241464E+02  0.7919590E+02
Ar  530  0.1381365E+02  0.2426542E+02  0.3237132E+02  0.1779902E+03
Ar  531  0.1346301E+02  0.2143245E+02  0.3540492E+02  0.6658402E+03
Ar  532  0.1100119E+02  0.2378551E+02  0.3479658E+02  0.1873054E+02
Ar  533  0.1125399E+02  0.2653031E+02  0.3728124E+02  0.1016263E+02
Ar  534  0.1377005E+02  0.2933060E+02  0.1039762E+00  0.1396432E+03
Ar  535  0.1353737E+02  0.2686769E+02  0.3145009E+01  0.8291324E+01
Ar  536  0.1121540E+02  0.2972885E+02  0.2861037E+01  0.1587869E+03
Ar  537  0.1078311E+02  0.2689484E+02  0.5429192E+01  0.1230065E+03
Ar  538  0.1367359E+02  0.2977889E+02  0.5770040E+01  0.8482911E+02
Ar  539  0.1343289E+02  0.2703416E+02  0.8458495E+01  0.6337388E+02
Ar  540  0.1100624E+02  0.2960253E+02  0.8360729E+01  0.1279257E+03
Ar  541  0.1097846E+02  0.2646594E+02  0.1097846E+02  0.7836464E+02
Ar  542  0.1336649E+02  0.2954363E+02  0.1101042E+02  0.3217415E+03
Ar  543  0.1345463E+02  0.2661033E+02  0.1345463E+02  0.1567844E+03
Ar  544  0.1101042E+02  0.2954363E+02  0.1336649E+02  0.3217415E+03
Ar  545  0.1124397E+02  0.2680699E+02  0.1606844E+02  0.6979336E+02
Ar  546  0.1347511E+02  0.2986855E+02  0.1631314E+02  0.1939816E+03
Ar  547  0.1339761E+02  0.2686711E+02  0.1894111E+02  0.8448838E+02
Ar  548  0.1077475E+02  0.2989248E+02  0.1889539E+02  0.1879992E+03
Ar  549  0.1058040E+02  0.2713282E+02  0.2188567E+02  0.3551370E+02
Ar  550  0.1327546E+02  0.2942577E+02  0.2133579E+02  0.2107123E+03
Ar  551  0.1364372E+02  0.2718350E+02  0.2442006E+02  0.7617169E+02
Ar  552  0.1035000E+02  0.2989074E+02  0.2421047E+02  0.5973249E+02
Ar  553  0.1084716E+02  0.2749982E+02  0.2749982E+02  0.3914384E+02
Ar  554  0.1385700E+02  0.3008509E+02  0.2674473E+02  0.5283838E+03
Ar  555  0.1385700E+02  0.2674473E+02  0.3008509E+02  0.5283838E+03
Ar  556  0.1027088E+02  0.2998815E+02  0.2998815E+02  0.3000588E+03
Ar  557  0.1084319E+02  0.2666529E+02  0.3224581E+02  0.2685689E+03
Ar  558  0.1330696E+02  0.2960400E+02  0.3234040E+02  0.5133559E+02
Ar  559  0.1406769E+02  0.2672319E+02  0.3520992E+02  0.5979159E+02
Ar  560  0.1059498E+02  0.2948745E+02  0.3474720E+02  0.2193358E+02
Ar  561  0.1103135E+02  0.3210651E+02  0.3509298E+00  0.2375625E+02
Ar  562  0.1333802E+02  0.3482847E+02  0.3773248E+02  0.2286983E+02
Ar  563  0.1380546E+02  0.3238990E+02  0.2846599E+01  0.8274748E+02
Ar  564  0.1099506E+02  0.3488443E+02  0.2599754E+01  0.4105324E+02
Ar  565  0.1084318E+02  0.3237323E+02  0.5305845E+01  0.2581744E+03
Ar  566  0.1338964E+02  0.3486668E+02  0.5271757E+01  0.1070899E+02
Ar  567  0.1372905E+02  0.3217749E+02  0.8332961E+01  0.5506910E+02
Ar  568  0.1084877E+02  0.3471595E+02  0.8092604E+01  0.1745301E+03
Ar  569  0.1070410E+02  0.3244541E+02  0.1070410E+02  0.7033163E+02
Ar  570  0.1340348E+02  0.3540417E+02  0.1074752E+02  0.9839358E+02
Ar  571  0.1356097E+02  0.3262295E+02  0.1356097E+02  0.2136871E+03
Ar  572  0.1074752E+02  0.3540417E+02  0.1340348E+02  0.9839358E+02
Ar  573  0.1090739E+02  0.3267551E+02  0.1654325E+02  0.9497611E+02
Ar  574  0.1338297E+02  0.3557407E+02  0.1609932E+02  0.1289855E+03
Ar  575  0.1376738E+02  0.3267974E+02  0.1869330E+02  0.1133981E+03
Ar  576  0.1074661E+02  0.3543931E+02  0.1884918E+02  0.3106412E+03
Ar  577  0.1115642E+02  0.3241464E+02  0.2126987E+02  0.7919590E+02
Ar  578  0.1346301E+02  0.3540492E+02  0.2143245E+02  0.6658402E+03
Ar  579  0.1381365E+02  0.3237132E+02  0.2426542E+02  0.1779902E+03
Ar  580  0.1100119E+02  0.3479658E+02  0.2378551E+02  0.1873054E+02
Ar  581  0.1084319E+02  0.3224581E+02  0.2666529E+02  0.2685689E+03
Ar  582  0.1406769E+02  0.3520992E+02  0.2672319E+02  0.5979159E+02
Ar  583  0.1330696E+02  0.3234040E+02  0.2960400E+02  0.5133559E+02
Ar  584  0.1059498E+02  0.3474720E+02  0.2948745E+02  0.2193358E+02
Ar  585  0.1045839E+02  0.3233728E+02  0.3233728E+02  0.5515056E+02
Ar  586  0.1304777E+02  0.3517148E+02  0.3205978E+02  0.1667413E+03
Ar  587  0.1304777E+02  0.3205978E+02  0.3517148E+02  0.1667413E+03
Ar  588  0.1097672E+02  0.3488609E+02  0.3488609E+02  0.8644508E+01
Ar  589  0.1542148E+02  0.3744904E+02  0.3744904E+02  0.4876169E+02
Ar  590  0.1872070E+02  0.2838777E+01  0.3745508E+02  0.7503810E+02
Ar  591  0.1872070E+02  0.3745508E+02  0.2838777E+01  0.7503810E+02
Ar  592  0.1598018E+02  0.2578239E+01  0.2578239E+01  0.2624518E+03
Ar  593  0.1604823E+02  0.3766353E+02  0.5503396E+01  0.4755548E+02
Ar  594  0.1925062E+02  0.2385760E+01  0.5054859E+01  0.2280154E+02
Ar  595  0.1932581E+02  0.1340296E+00  0.7895290E+01  0.2572271E+03
Ar  596  0.1650037E+02  0.2259057E+01  0.7787616E+01  0.1478844E+03
Ar  597  0.1625625E+02  0.3756472E+00  0.1050186E+02  0.1361655E+03
Ar  598  0.1883292E+02  0.2520223E+01  0.1072317E+02  0.2086457E+03
Ar  599  0.1896572E+02  0.4998895E+00  0.1364232E+02  0.8344362E+02
Ar  600  0.1618976E+02  0.2891440E+01  0.1344598E+02  0.4316794E+02
Ar  601  0.1611559E+02  0.1609361E+00  0.1611559E+02  0.1398401E+03
Ar  602  0.1891025E+02  0.3030130E+01  0.1645247E+02  0.1783106E+01
Ar  603  0.1912506E+02  0.3760975E+02  0.1912506E+02  0.3860352E+03
Ar  604  0.1645247E+02  0.3030130E+01  0.1891025E+02  0.1783106E+01
Ar  605  0.1624885E+02  0.3750607E+02  0.2163050E+02  0.2141819E+02
Ar  606  0.1896938E+02  0.2682003E+01  0.2170818E+02  0.2699894E+03
Ar  607  0.1875845E+02  0.3763171E+02  0.2417600E+02  0.1138114E+03
Ar  608  0.1606632E+02  0.2899765E+01  0.2409421E+02  0.4344061E+02
Ar  609  0.1626109E+02  0.9989972E-01  0.2685508E+02  0.3310235E+02
Ar  610  0.1910196E+02  0.2697940E+01  0.2672297E+02  0.1295515E+03
Ar  611  0.1894115E+02  0.3750374E+02  0.2986442E+02  0.3537292E+02
Ar  612  0.1605382E+02  0.2914445E+01  0.2922699E+02  0.1670452E+03
Ar  613  0.1616366E+02  0.3161365E-01  0.3221493E+02  0.4966555E+02
Ar  614  0.1883388E+02  0.2925133E+01  0.3194878E+02  0.5953693E+02
Ar  615  0.1881971E+02  0.3086943E+00  0.3490379E+02  0.1338106E+03
Ar  616  0.1610980E+02  0.2635226E+01  0.3526794E+02  0.4611124E+01
Ar  617  0.1604823E+02  0.5503396E+01  0.3766353E+02  0.4755548E+02
Ar  618  0.1932581E+02  0.7895290E+01  0.1340296E+00  0.2572271E+03
Ar  619  0.1925062E+02  0.5054859E+01  0.2385760E+01  0.2280154E+02
Ar  620  0.1650037E+02  0.7787616E+01  0.2259057E+01  0.1478844E+03
Ar  621  0.1638802E+02  0.5380665E+01  0.5380665E+01  0.3005715E+03
Ar  622  0.1884490E+02  0.8090816E+01  0.5191355E+01  0.2227927E+03
Ar  623  0.1884490E+02  0.5191355E+01  0.8090816E+01  0.2227927E+03
Ar  624  0.1551707E+02  0.8102731E+01  0.8102731E+01  0.6954947E+02
Ar  625  0.1614115E+02  0.4773834E+01  0.1027623E+02  0.2350230E+03
Ar  626  0.1854830E+02  0.7860864E+01  0.1042771E+02  0.1192741E+03
Ar  627  0.1881506E+02  0.5451743E+01  0.1362637E+02  0.1449551E+03
Ar  628  0.1605002E+02  0.8125530E+01  0.1343714E+02  0.5617582E+02
Ar  629  0.1650701E+02  0.5958635E+01  0.1650701E+02  0.7265497E+02
Ar  630  0.1896816E+02  0.8305282E+01  0.1630468E+02  0.8399525E+02
Ar  631  0.1883549E+02  0.5618852E+01  0.1883549E+02  0.9976604E+02
Ar  632  0.1630468E+02  0.8305282E+01  0.1896816E+02  0.8399525E+02
Ar  633  0.1623141E+02  0.5778657E+01  0.2136961E+02  0.2398349E+03
Ar  634  0.1910651E+02  0.8247275E+01  0.2154205E+02  0.2189009E+02
Ar  635  0.1885858E+02  0.5623493E+01  0.2408681E+02  0.3351919E+02
Ar  636  0.1621750E+02  0.8166846E+01  0.2413738E+02  0.1656367E+02
Ar  637  0.1625924E+02  0.5815261E+01  0.2690032E+02  0.3105562E+03
Ar  638  0.1930850E+02  0.8028054E+01  0.2688319E+02  0.1186619E+03
Ar  639  0.1868311E+02  0.5489559E+01  0.2967895E+02  0.3985494E+02
Ar  640  0.1625023E+02  0.8445958E+01  0.2965034E+02  0.2867304E+03
Ar  641  0.1596401E+02  0.5567202E+01  0.3231939E+02  0.1823572E+03
Ar  642  0.1885346E+02  0.8184949E+01  0.3271759E+02  0.2156478E+02
Ar  643  0.1852628E+02  0.5514617E+01  0.3506314E+02  0.5163742E+02
Ar  644  0.1596049E+02  0.8048713E+01  0.3504523E+02  0.1482224E+03
Ar  645  0.1625625E+02  0.1050186E+02  0.3756472E+00  0.1361655E+03
Ar  646  0.1896572E+02  0.1364232E+02  0.4998895E+00  0.8344362E+02
Ar  647  0.1883292E+02  0.1072317E+02  0.2520223E+01  0.2086457E+03
Ar  648  0.1618976E+02  0.1344598E+02  0.2891440E+01  0.4316794E+02
Ar  649  0.1614115E+02  0.1027623E+02  0.4773834E+01  0.2350230E+03
Ar  650  0.1881506E+02  0.1362637E+02  0.5451743E+01  0.1449551E+03
Ar  651  0.1854830E+02  0.1042771E+02  0.7860864E+01  0.1192741E+03
Ar  652  0.1605002E+02  0.1343714E+02  0.8125530E+01  0.5617582E+02
Ar  653  0.1641296E+02  0.1100121E+02  0.1100121E+02  0.3947345E+02
Ar  654  0.1861188E+02  0.1345621E+02  0.1090935E+02  0.9719321E+02
Ar  655  0.1861188E+02  0.1090935E+02  0.1345621E+02  0.9719321E+02
Ar  656  0.1632371E+02  0.1384272E+02  0.1384272E+02  0.9199708E+01
Ar  657  0.1652266E+02  0.1107015E+02  0.1652266E+02  0.3759696E+03
Ar  658  0.1887990E+02  0.1384506E+02  0.1656265E+02  0.6287909E+02
Ar  659  0.1902507E+02  0.1108556E+02  0.1902507E+02  0.5240984E+03
Ar  660  0.1656265E+02  0.1384506E+02  0.1887990E+02  0.6287909E+02
Ar  661  0.1628252E+02  0.1119710E+02  0.2122502E+02  0.6928554E+02
Ar  662  0.1921565E+02  0.1355731E+02  0.2232431E+02  0.1606924E+03
Ar  663  0.1881061E+02  0.1052484E+02  0.2440543E+02  0.1313574E+03
Ar  664  0.1623797E+02  0.1365912E+02  0.2418068E+02  0.2449434E+03
Ar  665  0.1606844E+02  0.1124397E+02  0.2680699E+02  0.6979336E+02
Ar  666  0.1894111E+02  0.1339761E+02  0.2686711E+02  0.8448838E+02
Ar  667  0.1889539E+02  0.1077475E+02  0.2989248E+02  0.1879992E+03
Ar  668  0.1631314E+02  0.1347511E+02  0.2986855E+02  0.1939816E+03
Ar  669  0.1654325E+02  0.1090739E+02  0.3267551E+02  0.9497611E+02
Ar  670  0.1869330E+02  0.1376738E+02  0.3267974E+02  0.1133981E+03
Ar  671  0.1884918E+02  0.1074661E+02  0.3543931E+02  0.3106412E+03
Ar  672  0.1609932E+02  0.1338297E+02  0.3557407E+02  0.1289855E+03
Ar  673  0.1611559E+02  0.1611559E+02  0.1609361E+00  0.1398401E+03
Ar  674  0.1912506E+02  0.1912506E+02  0.3760975E+02  0.3860352E+03
Ar  675  0.1891025E+02  0.1645247E+02  0.3030130E+01  0.1783106E+01
Ar  676  0.1645247E+02  0.1891025E+02  0.3030130E+01  0.1783106E+01
Ar  677  0.1650701E+02  0.1650701E+02  0.5958635E+01  0.7265497E+02
Ar  678  0.1883549E+02  0.1883549E+02  0.5618852E+01  0.9976604E+02
Ar  679  0.1896816E+02  0.1630468E+02  0.8305282E+01  0.8399525E+02
Ar  680  0.1630468E+02  0.1896816E+02  0.8305282E+01  0.8399525E+02
Ar  681  0.1652266E+02  0.1652266E+02  0.1107015E+02  0.3759696E+03
Ar  682  0.1902507E+02  0.1902507E+02  0.1108556E+02  0.5240984E+03
Ar  683  0.1887990E+02  0.1656265E+02  0.1384506E+02  0.6287909E+02
Ar  684  0.1656265E+02  0.1887990E+02  0.1384506E+02  0.6287909E+02
Ar  685  0.1710845E+02  0.1710845E+02  0.1710845E+02  0.1416446E+03
Ar  686  0.1970716E+02  0.1970716E+02  0.1644896E+02  0.1118316E+03
Ar  687  0.1970716E+02  0.1644896E+02  0.1970716E+02  0.1118316E+03
Ar  688  0.1644896E+02  0.1970716E+02  0.1970716E+02  0.1118316E+03
Ar  689  0.1648359E+02  0.1648359E+02  0.2152038E+02  0.3082973E+03
Ar  690  0.1907398E+02  0.1907398E+02  0.2255605E+02  0.3137633E+03
Ar  691  0.1865011E+02  0.1612243E+02  0.2453294E+02  0.9414732E+02
Ar  692  0.1612243E+02  0.1865011E+02  0.2453294E+02  0.9414732E+02
Ar  693  0.1600265E+02  0.1600265E+02  0.2716347E+02  0.1606653E+03
Ar  694  0.1854551E+02  0.1854551E+02  0.2706182E+02  0.9110176E+01
Ar  695  0.1857736E+02  0.1614586E+02  0.2980197E+02  0.2068975E+02
Ar  696  0.1614586E+02  0.1857736E+02  0.2980197E+02  0.2068975E+02
Ar  697  0.1631049E+02  0.1631049E+02  0.3265450E+02  0.6799478E+01
Ar  698  0.1880437E+02  0.1880437E+02  0.3254615E+02  0.3727571E+03
Ar  699  0.1866969E+02  0.1617084E+02  0.3541045E+02  0.2385495E+02
Ar  700  0.1617084E+02  0.1866969E+02  0.3541045E+02  0.2385495E+02
Ar  701  0.1624885E+02  0.2163050E+02  0.3750607E+02  0.2141819E+02
Ar  702  0.1875845E+02  0.2417600E+02  0.3763171E+02  0.1138114E+03
Ar  703  0.1896938E+02  0.2170818E+02  0.2682003E+01  0.2699894E+03
Ar  704  0.1606632E+02  0.2409421E+02  0.2899765E+01  0.4344061E+02
Ar  705  0.1623141E+02  0.2136961E+02  0.5778657E+01  0.2398349E+03
Ar  706  0.1885858E+02  0.2408681E+02  0.5623493E+01  0.3351919E+02
Ar  707  0.1910651E+02  0.2154205E+02  0.8247275E+01  0.2189009E+02
Ar  708  0.1621750E+02  0.2413738E+02  0.8166846E+01  0.1656367E+02
Ar  709  0.1628252E+02  0.2122502E+02  0.1119710E+02  0.6928554E+02
Ar  710  0.1881061E+02  0.2440543E+02  0.1052484E+02  0.1313574E+03
Ar  711  0.1921565E+02  0.2232431E+02  0.1355731E+02  0.1606924E+03
Ar  712  0.1623797E+02  0.2418068E+02  0.1365912E+02  0.2449434E+03
Ar  713  0.1648359E+02  0.2152038E+02  0.1648359E+02  0.3082973E+03
Ar  714  0.1865011E+02  0.2453294E+02  0.1612243E+02  0.9414732E+02
Ar  715  0.1907398E+02  0.2255605E+02  0.1907398E+02  0.3137633E+03
Ar  716  0.1612243E+02  0.2453294E+02  0.1865011E+02  0.9414732E+02
Ar  717  0.1650601E+02  0.2199732E+02  0.2199732E+02  0.1327871E+03
Ar  718  0.1898906E+02  0.2472699E+02  0.2192881E+02  0.5627467E+02
Ar  719  0.1898906E+02  0.2192881E+02  0.2472699E+02  0.5627467E+02
Ar  720  0.1654249E+02  0.2462764E+02  0.2462764E+02  0.4314095E+02
Ar  721  0.1605738E+02  0.2143252E+02  0.2733153E+02  0.8038628E+02
Ar  722  0.1896566E+02  0.2461054E+02  0.2751948E+02  0.1125288E+03
Ar  723  0.1881448E+02  0.2158670E+02  0.2985178E+02  0.8111543E+01
Ar  724  0.1606334E+02  0.2388666E+02  0.2992345E+02  0.5931168E+02
Ar  725  0.1637198E+02  0.2125981E+02  0.3246730E+02  0.9690434E+02
Ar  726  0.1878560E+02  0.2445215E+02  0.3223745E+02  0.2464361E+02
Ar  727  0.1893106E+02  0.2157454E+02  0.3497519E+02  0.1296340E+03
Ar  728  0.1641350E+02  0.2428468E+02  0.3493242E+02  0.1795331E+03
Ar  729  0.1626109E+02  0.2685508E+02  0.9989972E-01  0.3310235E+02
Ar  730  0.1894115E+02  0.2986442E+02  0.3750374E+02  0.3537292E+02
Ar  731  0.1910196E+02  0.2672297E+02  0.2697940E+01  0.1295515E+03
Ar  732  0.1605382E+02  0.2922699E+02  0.2914445E+01  0.1670452E+03
Ar  733  0.1625924E+02  0.2690032E+02  0.5815261E+01  0.3105562E+03
Ar  734  0.1868311E+02  0.2967895E+02  0.5489559E+01  0.3985494E+02
Ar  735  0.1930850E+02  0.2688319E+02  0.8028054E+01  0.1186619E+03
Ar  736  0.1625023E+02  0.2965034E+02  0.8445958E+01  0.2867304E+03
Ar  737  0.1606844E+02  0.2680699E+02  0.1124397E+02  0.6979336E+02
Ar  738  0.1889539E+02  0.2989248E+02  0.1077475E+02  0.1879992E+03
Ar  739  0.1894111E+02  0.2686711E+02  0.1339761E+02  0.8448838E+02
Ar  740  0.1631314E+02  0.2986855E+02  0.1347511E+02  0.1939816E+03
Ar  741  0.1600265E+02  0.2716347E+02  0.1600265E+02  0.1606653E+03
Ar  742  0.1857736E+02  0.2980197E+02  0.1614586E+02  0.2068975E+02
Ar  743  0.1854551E+02  0.2706182E+02  0.1854551E+02  0.9110176E+01
Ar  744  0.1614586E+02  0.2980197E+02  0.1857736E+02  0.2068975E+02
Ar  745  0.1605738E+02  0.2733153E+02  0.2143252E+02  0.8038628E+02
Ar  746  0.1881448E+02  0.2985178E+02  0.2158670E+02  0.8111543E+01
Ar  747  0.1896566E+02  0.2751948E+02  0.2461054E+02  0.1125288E+03
Ar  748  0.1606334E+02  0.2992345E+02  0.2388666E+02  0.5931168E+02
Ar  749  0.1623787E+02  0.2716701E+02  0.2716701E+02  0.7819143E+02
Ar  750  0.1891905E+02  0.2995019E+02  0.2748336E+02  0.1913965E+03
Ar  751  0.1891905E+02  0.2748336E+02  0.2995019E+02  0.1913965E+03
Ar  752  0.1636747E+02  0.2975663E+02  0.2975663E+02  0.3660457E+01
Ar  753  0.1638600E+02  0.2724997E+02  0.3283812E+02  0.9481027E+02
Ar  754  0.1906619E+02  0.3000025E+02  0.3260865E+02  0.1182181E+03
Ar  755  0.1909802E+02  0.2695032E+02  0.3530871E+02  0.3822308E+02
Ar  756  0.1625070E+02  0.2970756E+02  0.3502460E+02  0.2727444E+03
Ar  757  0.1616366E+02  0.3221493E+02  0.3161365E-01  0.4966555E+02
Ar  758  0.1881971E+02  0.3490379E+02  0.3086943E+00  0.1338106E+03
Ar  759  0.1883388E+02  0.3194878E+02  0.2925133E+01  0.5953693E+02
Ar  760  0.1610980E+02  0.3526794E+02  0.2635226E+01  0.4611124E+01
Ar  761  0.1596401E+02  0.3231939E+02  0.5567202E+01  0.1823572E+03
Ar  762  0.1852628E+02  0.3506314E+02  0.5514617E+01  0.5163742E+02
Ar  763  0.1885346E+02  0.3271759E+02  0.8184949E+01  0.2156478E+02
Ar  764  0.1596049E+02  0.3504523E+02  0.8048713E+01  0.1482224E+03
Ar  765  0.1654325E+02  0.3267551E+02  0.1090739E+02  0.9497611E+02
Ar  766  0.1884918E+02  0.3543931E+02  0.1074661E+02  0.3106412E+03
Ar  767  0.1869330E+02  0.3267974E+02  0.1376738E+02  0.1133981E+03
Ar  768  0.1609932E+02  0.3557407E+02  0.1338297E+02  0.1289855E+03
Ar  769  0.1631049E+02  0.3265450E+02  0.1631049E+02  0.6799478E+01
Ar  770  0.1866969E+02  0.3541045E+02  0.1617084E+02  0.2385495E+02
Ar  771  0.1880437E+02  0.3254615E+02  0.1880437E+02  0.3727571E+03
Ar  772  0.1617084E+02  0.3541045E+02  0.1866969E+02  0.2385495E+02
Ar  773  0.1637198E+02  0.3246730E+02  0.2125981E+02  0.9690434E+02
Ar  774  0.1893106E+02  0.3497519E+02  0.2157454E+02  0.1296340E+03
Ar  775  0.1878560E+02  0.3223745E+02  0.2445215E+02  0.2464361E+02
Ar  776  0.1641350E+02  0.3493242E+02  0.2428468E+02  0.1795331E+03
Ar  777  0.1638600E+02  0.3283812E+02  0.2724997E+02  0.9481027E+02
Ar  778  0.1909802E+02  0.3530871E+02  0.2695032E+02  0.3822308E+02
Ar  779  0.1906619E+02  0.3260865E+02  0.3000025E+02  0.1182181E+03
Ar  780  0.1625070E+02  0.3502460E+02  0.2970756E+02  0.2727444E+03
Ar  781  0.1633652E+02  0.3213056E+02  0.3213056E+02  0.1289418E+03
Ar  782  0.1864533E+02  0.3528988E+02  0.3266242E+02  0.1473117E+03
Ar  783  0.1864533E+02  0.3266242E+02  0.3528988E+02  0.1473117E+03
Ar  784  0.1560336E+02  0.3479161E+02  0.3479161E+02  0.2607291E+03
Ar  785  0.2143405E+02  0.3728643E+02  0.3728643E+02  0.1730658E+03
Ar  786  0.2420232E+02  0.2514026E+01  0.3728167E+02  0.1956557E+03
Ar  787  0.2420232E+02  0.3728167E+02  0.2514026E+01  0.1956557E+03
Ar  788  0.2239693E+02  0.2336630E+01  0.2336630E+01  0.6190125E+02
Ar  789  0.2183202E+02  0.5263079E-01  0.5311901E+01  0.1430525E+03
Ar  790  0.2415170E+02  0.2678098E+01  0.5368686E+01  0.1611839E+03
Ar  791  0.2417357E+02  0.2975410E-01  0.8123265E+01  0.2035788E+02
Ar  792  0.2145764E+02  0.2854491E+01  0.7919334E+01  0.1126015E+03
Ar  793  0.2156064E+02  0.1084009E+00  0.1079108E+02  0.3710570E+03
Ar  794  0.2442505E+02  0.2531746E+01  0.1102976E+02  0.1121787E+03
Ar  795  0.2417614E+02  0.2980158E+00  0.1377279E+02  0.2003923E+02
Ar  796  0.2155501E+02  0.3022043E+01  0.1355146E+02  0.8377129E+02
Ar  797  0.2163050E+02  0.3750607E+02  0.1624885E+02  0.2141819E+02
Ar  798  0.2409421E+02  0.2899765E+01  0.1606632E+02  0.4344061E+02
Ar  799  0.2417600E+02  0.3763171E+02  0.1875845E+02  0.1138114E+03
Ar  800  0.2170818E+02  0.2682003E+01  0.1896938E+02  0.2699894E+03
Ar  801  0.2150294E+02  0.3751155E+02  0.2150294E+02  0.3705718E+03
Ar  802  0.2424902E+02  0.2682090E+01  0.2167107E+02  0.1027032E+03
Ar  803  0.2420697E+02  0.3773195E+02  0.2420697E+02  0.6733395E+02
Ar  804  0.2167107E+02  0.2682090E+01  0.2424902E+02  0.1027032E+03
Ar  805  0.2166145E+02  0.3773852E+02  0.2691345E+02  0.5885403E+02
Ar  806  0.2436708E+02  0.2855040E+01  0.2709808E+02  0.2174926E+02
Ar  807  0.2459105E+02  0.3741089E+02  0.2971962E+02  0.2072459E+03
Ar  808  0.2186840E+02  0.2105052E+01  0.2973882E+02  0.2172419E+02
Ar  809  0.2156965E+02  0.3763122E+02  0.3268055E+02  0.1782690E+03
Ar  810  0.2411649E+02  0.2280235E+01  0.3247061E+02  0.1900975E+02
Ar  811  0.2434268E+02  0.3757504E+02  0.3496406E+02  0.3380541E+03
Ar  812  0.2127187E+02  0.2884594E+01  0.3504593E+02  0.3240414E+02
Ar  813  0.2183202E+02  0.5311901E+01  0.5263079E-01  0.1430525E+03
Ar  814  0.2417357E+02  0.8123265E+01  0.2975410E-01  0.2035788E+02
Ar  815  0.2415170E+02  0.5368686E+01  0.2678098E+01  0.1611839E+03
Ar  816  0.2145764E+02  0.7919334E+01  0.2854491E+01  0.1126015E+03
Ar  817  0.2150581E+02  0.5502412E+01  0.5502412E+01  0.4735680E+02
Ar  818  0.2405517E+02  0.8434116E+01  0.5055361E+01  0.9064266E+02
Ar  819  0.2405517E+02  0.5055361E+01  0.8434116E+01  0.9064266E+02
Ar  820  0.2113528E+02  0.8241604E+01  0.8241604E+01  0.6965980E+02
Ar  821  0.2150335E+02  0.5602222E+01  0.1096434E+02  0.1060465E+03
Ar  822  0.2403334E+02  0.8289038E+01  0.1064790E+02  0.7722957E+02
Ar  823  0.2422672E+02  0.5471624E+01  0.1339826E+02  0.3181451E+02
Ar  824  0.2121844E+02  0.8383462E+01  0.1367918E+02  0.6254784E+02
Ar  825  0.2136961E+02  0.5778657E+01  0.1623141E+02  0.2398349E+03
Ar  826  0.2413738E+02  0.8166846E+01  0.1621750E+02  0.1656367E+02
Ar  827  0.2408681E+02  0.5623493E+01  0.1885858E+02  0.3351919E+02
Ar  828  0.2154205E+02  0.8247275E+01  0.1910651E+02  0.2189009E+02
Ar  829  0.2157400E+02  0.5177149E+01  0.2157400E+02  0.7839776E+02
Ar  830  0.2422257E+02  0.8132778E+01  0.2177080E+02  0.2401831E+02
Ar  831  0.2444395E+02  0.4901749E+01  0.2444395E+02  0.4507714E+03
Ar  832  0.2177080E+02  0.8132778E+01  0.2422257E+02  0.2401831E+02
Ar  833  0.2159368E+02  0.5313969E+01  0.2682143E+02  0.2821958E+01
Ar  834  0.2436773E+02  0.7996434E+01  0.2703196E+02  0.6562659E+01
Ar  835  0.2456314E+02  0.5484061E+01  0.2970048E+02  0.1463452E+02
Ar  836  0.2148501E+02  0.8215796E+01  0.2985219E+02  0.6986106E+02
Ar  837  0.2200198E+02  0.5486903E+01  0.3213803E+02  0.3685636E+02
Ar  838  0.2419299E+02  0.8226575E+01  0.3268394E+02  0.2936643E+02
Ar  839  0.2395851E+02  0.5214980E+01  0.3496126E+02  0.4906518E+02
Ar  840  0.2154959E+02  0.8054515E+01  0.3511292E+02  0.7566649E+02
Ar  841  0.2156064E+02  0.1079108E+02  0.1084009E+00  0.3710570E+03
Ar  842  0.2417614E+02  0.1377279E+02  0.2980158E+00  0.2003923E+02
Ar  843  0.2442505E+02  0.1102976E+02  0.2531746E+01  0.1121787E+03
Ar  844  0.2155501E+02  0.1355146E+02  0.3022043E+01  0.8377129E+02
Ar  845  0.2150335E+02  0.1096434E+02  0.5602222E+01  0.1060465E+03
Ar  846  0.2422672E+02  0.1339826E+02  0.5471624E+01  0.3181451E+02
Ar  847  0.2403334E+02  0.1064790E+02  0.8289038E+01  0.7722957E+02
Ar  848  0.2121844E+02  0.1367918E+02  0.8383462E+01  0.6254784E+02
Ar  849  0.2118412E+02  0.1099154E+02  0.1099154E+02  0.5518260E+03
Ar  850  0.2402654E+02  0.1384970E+02  0.1079657E+02  0.4043250E+02
Ar  851  0.2402654E+02  0.1079657E+02  0.1384970E+02  0.4043250E+02
Ar  852  0.2214518E+02  0.1376033E+02  0.1376033E+02  0.1158548E+02
Ar  853  0.2122502E+02  0.1119710E+02  0.1628252E+02  0.6928554E+02
Ar  854  0.2418068E+02  0.1365912E+02  0.1623797E+02  0.2449434E+03
Ar  855  0.2440543E+02  0.1052484E+02  0.1881061E+02  0.1313574E+03
Ar  856  0.2232431E+02  0.1355731E+02  0.1921565E+02  0.1606924E+03
Ar  857  0.2179198E+02  0.1081255E+02  0.2179198E+02  0.3023184E+03
Ar  858  0.2464326E+02  0.1372956E+02  0.2176930E+02  0.1295411E+03
Ar  859  0.2448736E+02  0.1122316E+02  0.2448736E+02  0.2651578E+03
Ar  860  0.2176930E+02  0.1372956E+02  0.2464326E+02  0.1295411E+03
Ar  861  0.2188567E+02  0.1058040E+02  0.2713282E+02  0.3551370E+02
Ar  862  0.2442006E+02  0.1364372E+02  0.2718350E+02  0.7617169E+02
Ar  863  0.2421047E+02  0.1035000E+02  0.2989074E+02  0.5973249E+02
Ar  864  0.2133579E+02  0.1327546E+02  0.2942577E+02  0.2107123E+03
Ar  865  0.2126987E+02  0.1115642E+02  0.3241464E+02  0.7919590E+02
Ar  866  0.2426542E+02  0.1381365E+02  0.3237132E+02  0.1779902E+03
Ar  867  0.2378551E+02  0.1100119E+02  0.3479658E+02  0.1873054E+02
Ar  868  0.2143245E+02  0.1346301E+02  0.3540492E+02  0.6658402E+03
Ar  869  0.2163050E+02  0.1624885E+02  0.3750607E+02  0.2141819E+02
Ar  870  0.2417600E+02  0.1875845E+02  0.3763171E+02  0.1138114E+03
Ar  871  0.2409421E+02  0.1606632E+02  0.2899765E+01  0.4344061E+02
Ar  872  0.2170818E+02  0.1896938E+02  0.2682003E+01  0.2699894E+03
Ar  873  0.2136961E+02  0.1623141E+02  0.5778657E+01  0.2398349E+03
Ar  874  0.2408681E+02  0.1885858E+02  0.5623493E+01  0.3351919E+02
Ar  875  0.2413738E+02  0.1621750E+02  0.8166846E+01  0.1656367E+02
Ar  876  0.2154205E+02  0.1910651E+02  0.8247275E+01  0.2189009E+02
Ar  877  0.2122502E+02  0.1628252E+02  0.1119710E+02  0.6928554E+02
Ar  878  0.2440543E+02  0.1881061E+02  0.1052484E+02  0.1313574E+03
Ar  879  0.2418068E+02  0.1623797E+02  0.1365912E+02  0.2449434E+03
Ar  880  0.2232431E+02  0.1921565E+02  0.1355731E+02  0.1606924E+03
Ar  881  0.2152038E+02  0.1648359E+02  0.1648359E+02  0.3082973E+03
Ar  882  0.2453294E+02  0.1865011E+02  0.1612243E+02  0.9414732E+02
Ar  883  0.2453294E+02  0.1612243E+02  0.1865011E+02  0.9414732E+02
Ar  884  0.2255605E+02  0.1907398E+02  0.1907398E+02  0.3137633E+03
Ar  885  0.2199732E+02  0.1650601E+02  0.2199732E+02  0.1327871E+03
Ar  886  0.2472699E+02  0.1898906E+02  0.2192881E+02  0.5627467E+02
Ar  887  0.2462764E+02  0.1654249E+02  0.2462764E+02  0.4314095E+02
Ar  888  0.2192881E+02  0.1898906E+02  0.2472699E+02  0.5627467E+02
Ar  889  0.2143252E+02  0.1605738E+02  0.2733153E+02  0.8038628E+02
Ar  890  0.2461054E+02  0.1896566E+02  0.2751948E+02  0.1125288E+03
Ar  891  0.2388666E+02  0.1606334E+02  0.2992345E+02  0.5931168E+02
Ar  892  0.2158670E+02  0.1881448E+02  0.2985178E+02  0.8111543E+01
Ar  893  0.2125981E+02  0.1637198E+02  0.3246730E+02  0.9690434E+02
Ar  894  0.2445215E+02  0.1878560E+02  0.3223745E+02  0.2464361E+02
Ar  895  0.2428468E+02  0.1641350E+02  0.3493242E+02  0.1795331E+03
Ar  896  0.2157454E+02  0.1893106E+02  0.3497519E+02  0.1296340E+03
Ar  897  0.2150294E+02  0.2150294E+02  0.3751155E+02  0.3705718E+03
Ar  898  0.2420697E+02  0.2420697E+02  0.3773195E+02  0.6733395E+02
Ar  899  0.2424902E+02  0.2167107E+02  0.2682090E+01  0.1027032E+03
Ar  900  0.2167107E+02  0.2424902E+02  0.2682090E+01  0.1027032E+03
Ar  901  0.2157400E+02  0.2157400E+02  0.5177149E+01  0.7839776E+02
Ar  902  0.2444395E+02  0.2444395E+02  0.4901749E+01  0.4507714E+03
Ar  903  0.2422257E+02  0.2177080E+02  0.8132778E+01  0.2401831E+02
Ar  904  0.2177080E+02  0.2422257E+02  0.8132778E+01  0.2401831E+02
Ar  905  0.2179198E+02  0.2179198E+02  0.1081255E+02  0.3023184E+03
Ar  906  0.2448736E+02  0.2448736E+02  0.1122316E+02  0.2651578E+03
Ar  907  0.2464326E+02  0.2176930E+02  0.1372956E+02  0.1295411E+03
Ar  908  0.2176930E+02  0.2464326E+02  0.1372956E+02  0.1295411E+03
Ar  909  0.2199732E+02  0.2199732E+02  0.1650601E+02  0.1327871E+03
Ar  910  0.2462764E+02  0.2462764E+02  0.1654249E+02  0.4314095E+02
Ar  911  0.2472699E+02  0.2192881E+02  0.1898906E+02  0.5627467E+02
Ar  912  0.2192881E+02  0.2472699E+02  0.1898906E+02  0.5627467E+02
Ar  913  0.2179808E+02  0.2179808E+02  0.2179808E+02  0.3677774E+03
Ar  914  0.2455822E+02  0.2455822E+02  0.2170472E+02  0.6036892E+02
Ar  915  0.2455822E+02  0.2170472E+02  0.2455822E+02  0.6036892E+02
Ar  916  0.2170472E+02  0.2455822E+02  0.2455822E+02  0.6036892E+02
Ar  917  0.2182005E+02  0.2182005E+02  0.2756002E+02  0.9948109E+01
Ar  918  0.2428834E+02  0.2428834E+02  0.2685605E+02  0.2392031E+02
Ar  919  0.2482118E+02  0.2171047E+02  0.2956479E+02  0.6840084E+02
Ar  920  0.2171047E+02  0.2482118E+02  0.2956479E+02  0.6840084E+02
Ar  921  0.2160727E+02  0.2160727E+02  0.3222211E+02  0.2593802E+02
Ar  922  0.2421963E+02  0.2421963E+02  0.3240820E+02  0.2736995E+03
Ar  923  0.2403308E+02  0.2152094E+02  0.3480532E+02  0.1684123E+03
Ar  924  0.2152094E+02  0.2403308E+02  0.3480532E+02  0.1684123E+03
Ar  925  0.2166145E+02  0.2691345E+02  0.3773852E+02  0.5885403E+02
Ar  926  0.2459105E+02  0.2971962E+02  0.3741089E+02  0.2072459E+03
Ar  927  0.2436708E+02  0.2709808E+02  0.2855040E+01  0.2174926E+02
Ar  928  0.2186840E+02  0.2973882E+02  0.2105052E+01  0.2172419E+02
Ar  929  0.2159368E+02  0.2682143E+02  0.5313969E+01  0.2821958E+01
Ar  930  0.2456314E+02  0.2970048E+02  0.5484061E+01  0.1463452E+02
Ar  931  0.2436773E+02  0.2703196E+02  0.7996434E+01  0.6562659E+01
Ar  932  0.2148501E+02  0.2985219E+02  0.8215796E+01  0.6986106E+02
Ar  933  0.2188567E+02  0.2713282E+02  0.1058040E+02  0.3551370E+02
Ar  934  0.2421047E+02  0.2989074E+02  0.1035000E+02  0.5973249E+02
Ar  935  0.2442006E+02  0.2718350E+02  0.1364372E+02  0.7617169E+02
Ar  936  0.2133579E+02  0.2942577E+02  0.1327546E+02  0.2107123E+03
Ar  937  0.2143252E+02  0.2733153E+02  0.1605738E+02  0.8038628E+02
Ar  938  0.2388666E+02  0.2992345E+02  0.1606334E+02  0.5931168E+02
Ar  939  0.2461054E+02  0.2751948E+02  0.1896566E+02  0.1125288E+03
Ar  940  0.2158670E+02  0.2985178E+02  0.1881448E+02  0.8111543E+01
Ar  941  0.2182005E+02  0.2756002E+02  0.2182005E+02  0.9948109E+01
Ar  942  0.2482118E+02  0.2956479E+02  0.2171047E+02  0.6840084E+02
Ar  943  0.2428834E+02  0.2685605E+02  0.2428834E+02  0.2392031E+02
Ar  944  0.2171047E+02  0.2956479E+02  0.2482118E+02  0.6840084E+02
Ar  945  0.2222884E+02  0.2729978E+02  0.2729978E+02  0.1988428E+03
Ar  946  0.2440459E+02  0.3000311E+02  0.2691533E+02  0.1683927E+03
Ar  947  0.2440459E+02  0.2691533E+02  0.3000311E+02  0.1683927E+03
Ar  948  0.2151873E+02  0.2979857E+02  0.2979857E+02  0.1043144E+03
Ar  949  0.2136870E+02  0.2706629E+02  0.3272552E+02  0.6279487E+02
Ar  950  0.2396378E+02  0.2969312E+02  0.3255119E+02  0.2335906E+03
Ar  951  0.2392353E+02  0.2674008E+02  0.3507915E+02  0.2692998E+03
Ar  952  0.2150348E+02  0.2978044E+02  0.3507510E+02  0.1065572E+03
Ar  953  0.2156965E+02  0.3268055E+02  0.3763122E+02  0.1782690E+03
Ar  954  0.2434268E+02  0.3496406E+02  0.3757504E+02  0.3380541E+03
Ar  955  0.2411649E+02  0.3247061E+02  0.2280235E+01  0.1900975E+02
Ar  956  0.2127187E+02  0.3504593E+02  0.2884594E+01  0.3240414E+02
Ar  957  0.2200198E+02  0.3213803E+02  0.5486903E+01  0.3685636E+02
Ar  958  0.2395851E+02  0.3496126E+02  0.5214980E+01  0.4906518E+02
Ar  959  0.2419299E+02  0.3268394E+02  0.8226575E+01  0.2936643E+02
Ar  960  0.2154959E+02  0.3511292E+02  0.8054515E+01  0.7566649E+02
Ar  961  0.2126987E+02  0.3241464E+02  0.1115642E+02  0.7919590E+02
Ar  962  0.2378551E+02  0.3479658E+02  0.1100119E+02  0.1873054E+02
Ar  963  0.2426542E+02  0.3237132E+02  0.1381365E+02  0.1779902E+03
Ar  964  0.2143245E+02  0.3540492E+02  0.1346301E+02  0.6658402E+03
Ar  965  0.2125981E+02  0.3246730E+02  0.1637198E+02  0.9690434E+02
Ar  966  0.2428468E+02  0.3493242E+02  0.1641350E+02  0.1795331E+03
Ar  967  0.2445215E+02  0.3223745E+02  0.1878560E+02  0.2464361E+02
Ar  968  0.2157454E+02  0.3497519E+02  0.1893106E+02  0.1296340E+03
Ar  969  0.2160727E+02  0.3222211E+02  0.2160727E+02  0.2593802E+02
Ar  970  0.2403308E+02  0.3480532E+02  0.2152094E+02  0.1684123E+03
Ar  971  0.2421963E+02  0.3240820E+02  0.2421963E+02  0.2736995E+03
Ar  972  0.2152094E+02  0.3480532E+02  0.2403308E+02  0.1684123E+03
Ar  973  0.2136870E+02  0.3272552E+02  0.2706629E+02  0.6279487E+02
Ar  974  0.2392353E+02  0.3507915E+02  0.2674008E+02  0.2692998E+03
Ar  975  0.2396378E+02  0.3255119E+02  0.2969312E+02  0.2335906E+03
Ar  976  0.2150348E+02  0.3507510E+02  0.2978044E+02  0.1065572E+03
Ar  977  0.2167074E+02  0.3242653E+02  0.3242653E+02  0.1791842E+03
Ar  978  0.2428546E+02  0.3507529E+02  0.3254660E+02  0.1170288E+03
Ar  979  0.2428546E+02  0.3254660E+02  0.3507529E+02  0.1170288E+03
Ar  980  0.2109656E+02  0.3497081E+02  0.3497081E+02  0.1490339E+03
Ar  981  0.2711772E+02  0.2370173E+00  0.2370173E+00  0.3118662E+02
Ar  982  0.2950110E+02  0.3125936E+01  0.1490425E-02  0.7821428E+02
Ar  983  0.2950110E+02  0.1490425E-02  0.3125936E+01  0.7821428E+02
Ar  984  0.2669445E+02  0.2572455E+01  0.2572455E+01  0.1881010E+03
Ar  985  0.2640769E+02  0.3757259E+02  0.5127730E+01  0.6645316E+02
Ar  986  0.2928079E+02  0.2796954E+01  0.5388723E+01  0.5301395E+02
Ar  987  0.2958941E+02  0.3762791E+02  0.8322604E+01  0.7061555E+02
Ar  988  0.2674028E+02  0.2657095E+01  0.8024033E+01  0.4904365E+02
Ar  989  0.2653031E+02  0.3728124E+02  0.1125399E+02  0.1016263E+02
Ar  990  0.2972885E+02  0.2861037E+01  0.1121540E+02  0.1587869E+03
Ar  991  0.2933060E+02  0.1039762E+00  0.1377005E+02  0.1396432E+03
Ar  992  0.2686769E+02  0.3145009E+01  0.1353737E+02  0.8291324E+01
Ar  993  0.2685508E+02  0.9989972E-01  0.1626109E+02  0.3310235E+02
Ar  994  0.2922699E+02  0.2914445E+01  0.1605382E+02  0.1670452E+03
Ar  995  0.2986442E+02  0.3750374E+02  0.1894115E+02  0.3537292E+02
Ar  996  0.2672297E+02  0.2697940E+01  0.1910196E+02  0.1295515E+03
Ar  997  0.2691345E+02  0.3773852E+02  0.2166145E+02  0.5885403E+02
Ar  998  0.2973882E+02  0.2105052E+01  0.2186840E+02  0.2172419E+02
Ar  999  0.2971962E+02  0.3741089E+02  0.2459105E+02  0.2072459E+03
Ar 1000  0.2709808E+02  0.2855040E+01  0.2436708E+02  0.2174926E+02
Ar 1001  0.2698021E+02  0.3769135E+02  0.2698021E+02  0.8285801E+01
Ar 1002  0.2966039E+02  0.2646977E+01  0.2662242E+02  0.1588768E+02
Ar 1003  0.2985442E+02  0.4082176E-01  0.2985442E+02  0.9021469E+02
Ar 1004  0.2662242E+02  0.2646977E+01  0.2966039E+02  0.1588768E+02
Ar 1005  0.2740523E+02  0.3773488E+02  0.3217492E+02  0.1851021E+02
Ar 1006  0.2970533E+02  0.2787919E+01  0.3227139E+02  0.5253019E+02
Ar 1007  0.2983941E+02  0.6270424E-01  0.3480012E+02  0.9846171E+02
Ar 1008  0.2703424E+02  0.2684038E+01  0.3478584E+02  0.2979384E+03
Ar 1009  0.2640769E+02  0.5127730E+01  0.3757259E+02  0.6645316E+02
Ar 1010  0.2958941E+02  0.8322604E+01  0.3762791E+02  0.7061555E+02
Ar 1011  0.2928079E+02  0.5388723E+01  0.2796954E+01  0.5301395E+02
Ar 1012  0.2674028E+02  0.8024033E+01  0.2657095E+01  0.4904365E+02
Ar 1013  0.2644990E+02  0.5572479E+01  0.5572479E+01  0.2159684E+03
Ar 1014  0.2970547E+02  0.7942414E+01  0.5665158E+01  0.2461564E+03
Ar 1015  0.2970547E+02  0.5665158E+01  0.7942414E+01  0.2461564E+03
Ar 1016  0.2687876E+02  0.8214564E+01  0.8214564E+01  0.3688164E+02
Ar 1017  0.2689484E+02  0.5429192E+01  0.1078311E+02  0.1230065E+03
Ar 1018  0.2960253E+02  0.8360729E+01  0.1100624E+02  0.1279257E+03
Ar 1019  0.2977889E+02  0.5770040E+01  0.1367359E+02  0.8482911E+02
Ar 1020  0.2703416E+02  0.8458495E+01  0.1343289E+02  0.6337388E+02
Ar 1021  0.2690032E+02  0.5815261E+01  0.1625924E+02  0.3105562E+03
Ar 1022  0.2965034E+02  0.8445958E+01  0.1625023E+02  0.2867304E+03
Ar 1023  0.2967895E+02  0.5489559E+01  0.1868311E+02  0.3985494E+02
Ar 1024  0.2688319E+02  0.8028054E+01  0.1930850E+02  0.1186619E+03
Ar 1025  0.2682143E+02  0.5313969E+01  0.2159368E+02  0.2821958E+01
Ar 1026  0.2985219E+02  0.8215796E+01  0.2148501E+02  0.6986106E+02
Ar 1027  0.2970048E+02  0.5484061E+01  0.2456314E+02  0.1463452E+02
Ar 1028  0.2703196E+02  0.7996434E+01  0.2436773E+02  0.6562659E+01
Ar 1029  0.2680064E+02  0.5661196E+01  0.2680064E+02  0.1561604E+03
Ar 1030  0.2951188E+02  0.7854801E+01  0.2711001E+02  0.1518648E+03
Ar 1031  0.2959980E+02  0.5149538E+01  0.2959980E+02  0.1320988E+03
Ar 1032  0.2711001E+02  0.7854801E+01  0.2951188E+02  0.1518648E+03
Ar 1033  0.2669064E+02  0.5696268E+01  0.3269001E+02  0.4137028E+02
Ar 1034  0.2957929E+02  0.7895024E+01  0.3238259E+02  0.1616082E+03
Ar 1035  0.2926594E+02  0.5562478E+01  0.3504881E+02  0.1150109E+02
Ar 1036  0.2688121E+02  0.8425984E+01  0.3530267E+02  0.1770963E+03
Ar 1037  0.2653031E+02  0.1125399E+02  0.3728124E+02  0.1016263E+02
Ar 1038  0.2933060E+02  0.1377005E+02  0.1039762E+00  0.1396432E+03
Ar 1039  0.2972885E+02  0.1121540E+02  0.2861037E+01  0.1587869E+03
Ar 1040  0.2686769E+02  0.1353737E+02  0.3145009E+01  0.8291324E+01
Ar 1041  0.2689484E+02  0.1078311E+02  0.5429192E+01  0.1230065E+03
Ar 1042  0.2977889E+02  0.1367359E+02  0.5770040E+01  0.8482911E+02
Ar 1043  0.2960253E+02  0.1100624E+02  0.8360729E+01  0.1279257E+03
Ar 1044  0.2703416E+02  0.1343289E+02  0.8458495E+01  0.6337388E+02
Ar 1045  0.2646594E+02  0.1097846E+02  0.1097846E+02  0.7836464E+02
Ar 1046  0.2954363E+02  0.1336649E+02  0.1101042E+02  0.3217415E+03
Ar 1047  0.2954363E+02  0.1101042E+02  0.1336649E+02  0.3217415E+03
Ar 1048  0.2661033E+02  0.1345463E+02  0.1345463E+02  0.1567844E+03
Ar 1049  0.2680699E+02  0.1124397E+02  0.1606844E+02  0.6979336E+02
Ar 1050  0.2986855E+02  0.1347511E+02  0.1631314E+02  0.1939816E+03
Ar 1051  0.2989248E+02  0.1077475E+02  0.1889539E+02  0.1879992E+03
Ar 1052  0.2686711E+02  0.1339761E+02  0.1894111E+02  0.8448838E+02
Ar 1053  0.2713282E+02  0.1058040E+02  0.2188567E+02  0.3551370E+02
Ar 1054  0.2942577E+02  0.1327546E+02  0.2133579E+02  0.2107123E+03
Ar 1055  0.2989074E+02  0.1035000E+02  0.2421047E+02  0.5973249E+02
Ar 1056  0.2718350E+02  0.1364372E+02  0.2442006E+02  0.7617169E+02
Ar 1057  0.2749982E+02  0.1084716E+02  0.2749982E+02  0.3914384E+02
Ar 1058  0.3008509E+02  0.1385700E+02  0.2674473E+02  0.5283838E+03
Ar 1059  0.2998815E+02  0.1027088E+02  0.2998815E+02  0.3000588E+03
Ar 1060  0.2674473E+02  0.1385700E+02  0.3008509E+02  0.5283838E+03
Ar 1061  0.2666529E+02  0.1084319E+02  0.3224581E+02  0.2685689E+03
Ar 1062  0.2960400E+02  0.1330696E+02  0.3234040E+02  0.5133559E+02
Ar 1063  0.2948745E+02  0.1059498E+02  0.3474720E+02  0.2193358E+02
Ar 1064  0.2672319E+02  0.1406769E+02  0.3520992E+02  0.5979159E+02
Ar 1065  0.2685508E+02  0.1626109E+02  0.9989972E-01  0.3310235E+02
Ar 1066  0.2986442E+02  0.1894115E+02  0.3750374E+02  0.3537292E+02
Ar 1067  0.2922699E+02  0.1605382E+02  0.2914445E+01  0.1670452E+03
Ar 1068  0.2672297E+02  0.1910196E+02  0.2697940E+01  0.1295515E+03
Ar 1069  0.2690032E+02  0.1625924E+02  0.5815261E+01  0.3105562E+03
Ar 1070  0.2967895E+02  0.1868311E+02  0.5489559E+01  0.3985494E+02
Ar 1071  0.2965034E+02  0.1625023E+02  0.8445958E+01  0.2867304E+03
Ar 1072  0.2688319E+02  0.1930850E+02  0.8028054E+01  0.1186619E+03
Ar 1073  0.2680699E+02  0.1606844E+02  0.1124397E+02  0.6979336E+02
Ar 1074  0.2989248E+02  0.1889539E+02  0.1077475E+02  0.1879992E+03
Ar 1075  0.2986855E+02  0.1631314E+02  0.1347511E+02  0.1939816E+03
Ar 1076  0.2686711E+02  0.1894111E+02  0.1339761E+02  0.8448838E+02
Ar 1077  0.2716347E+02  0.1600265E+02  0.1600265E+02  0.1606653E+03
Ar 1078  0.2980197E+02  0.1857736E+02  0.1614586E+02  0.2068975E+02
Ar 1079  0.2980197E+02  0.1614586E+02  0.1857736E+02  0.2068975E+02
Ar 1080  0.2706182E+02  0.1854551E+02  0.1854551E+02  0.9110176E+01
Ar 1081  0.2733153E+02  0.1605738E+02  0.2143252E+02  0.8038628E+02
Ar 1082  0.2985178E+02  0.1881448E+02  0.2158670E+02  0.8111543E+01
Ar 1083  0.2992345E+02  0.1606334E+02  0.2388666E+02  0.5931168E+02
Ar 1084  0.2751948E+02  0.1896566E+02  0.2461054E+02  0.1125288E+03
Ar 1085  0.2716701E+02  0.1623787E+02  0.2716701E+02  0.7819143E+02
Ar 1086  0.2995019E+02  0.1891905E+02  0.2748336E+02  0.1913965E+03
Ar 1087  0.2975663E+02  0.1636747E+02  0.2975663E+02  0.3660457E+01
Ar 1088  0.2748336E+02  0.1891905E+02  0.2995019E+02  0.1913965E+03
Ar 1089  0.2724997E+02  0.1638600E+02  0.3283812E+02  0.9481027E+02
Ar 1090  0.3000025E+02  0.1906619E+02  0.3260865E+02  0.1182181E+03
Ar 1091  0.2970756E+02  0.1625070E+02  0.3502460E+02  0.2727444E+03
Ar 1092  0.2695032E+02  0.1909802E+02  0.3530871E+02  0.3822308E+02
Ar 1093  0.2691345E+02  0.2166145E+02  0.3773852E+02  0.5885403E+02
Ar 1094  0.2971962E+02  0.2459105E+02  0.3741089E+02  0.2072459E+03
Ar 1095  0.2973882E+02  0.2186840E+02  0.2105052E+01  0.2172419E+02
Ar 1096  0.2709808E+02  0.2436708E+02  0.2855040E+01  0.2174926E+02
Ar 1097  0.2682143E+02  0.2159368E+02  0.5313969E+01  0.2821958E+01
Ar 1098  0.2970048E+02  0.2456314E+02  0.5484061E+01  0.1463452E+02
Ar 1099  0.2985219E+02  0.2148501E+02  0.8215796E+01  0.6986106E+02
Ar 1100  0.2703196E+02  0.2436773E+02  0.7996434E+01  0.6562659E+01
Ar 1101  0.2713282E+02  0.2188567E+02  0.1058040E+02  0.3551370E+02
Ar 1102  0.2989074E+02  0.2421047E+02  0.1035000E+02  0.5973249E+02
Ar 1103  0.2942577E+02  0.2133579E+02  0.1327546E+02  0.2107123E+03
Ar 1104  0.2718350E+02  0.2442006E+02  0.1364372E+02  0.7617169E+02
Ar 1105  0.2733153E+02  0.2143252E+02  0.1605738E+02  0.8038628E+02
Ar 1106  0.2992345E+02  0.2388666E+02  0.1606334E+02  0.5931168E+02
Ar 1107  0.2985178E+02  0.2158670E+02  0.1881448E+02  0.8111543E+01
Ar 1108  0.2751948E+02  0.2461054E+02  0.1896566E+02  0.1125288E+03
Ar 1109  0.2756002E+02  0.2182005E+02  0.2182005E+02  0.9948109E+01
Ar 1110  0.2956479E+02  0.2482118E+02  0.2171047E+02  0.6840084E+02
Ar 1111  0.2956479E+02  0.2171047E+02  0.2482118E+02  0.6840084E+02
Ar 1112  0.2685605E+02  0.2428834E+02  0.2428834E+02  0.2392031E+02
Ar 1113  0.2729978E+02  0.2222884E+02  0.2729978E+02  0.1988428E+03
Ar 1114  0.3000311E+02  0.2440459E+02  0.2691533E+02  0.1683927E+03
Ar 1115  0.2979857E+02  0.2151873E+02  0.2979857E+02  0.1043144E+03
Ar 1116  0.2691533E+02  0.2440459E+02  0.3000311E+02  0.1683927E+03
Ar 1117  0.2706629E+02  0.2136870E+02  0.3272552E+02  0.6279487E+02
Ar 1118  0.2969312E+02  0.2396378E+02  0.3255119E+02  0.2335906E+03
Ar 1119  0.2978044E+02  0.2150348E+02  0.3507510E+02  0.1065572E+03
Ar 1120  0.2674008E+02  0.2392353E+02  0.3507915E+02  0.2692998E+03
Ar 1121  0.2698021E+02  0.2698021E+02  0.3769135E+02  0.8285801E+01
Ar 1122  0.2985442E+02  0.2985442E+02  0.4082176E-01  0.9021469E+02
Ar 1123  0.2966039E+02  0.2662242E+02  0.2646977E+01  0.1588768E+02
Ar 1124  0.2662242E+02  0.2966039E+02  0.2646977E+01  0.1588768E+02
Ar 1125  0.2680064E+02  0.2680064E+02  0.5661196E+01  0.1561604E+03
Ar 1126  0.2959980E+02  0.2959980E+02  0.5149538E+01  0.1320988E+03
Ar 1127  0.2951188E+02  0.2711001E+02  0.7854801E+01  0.1518648E+03
Ar 1128  0.2711001E+02  0.2951188E+02  0.7854801E+01  0.1518648E+03
Ar 1129  0.2749982E+02  0.2749982E+02  0.1084716E+02  0.3914384E+02
Ar 1130  0.2998815E+02  0.2998815E+02  0.1027088E+02  0.3000588E+03
Ar 1131  0.3008509E+02  0.2674473E+02  0.1385700E+02  0.5283838E+03
Ar 1132  0.2674473E+02  0.3008509E+02  0.1385700E+02  0.5283838E+03
Ar 1133  0.2716701E+02  0.2716701E+02  0.1623787E+02  0.7819143E+02
Ar 1134  0.2975663E+02  0.2975663E+02  0.1636747E+02  0.3660457E+01
Ar 1135  0.2995019E+02  0.2748336E+02  0.1891905E+02  0.1913965E+03
Ar 1136  0.2748336E+02  0.2995019E+02  0.1891905E+02  0.1913965E+03
Ar 1137  0.2729978E+02  0.2729978E+02  0.2222884E+02  0.1988428E+03
Ar 1138  0.2979857E+02  0.2979857E+02  0.2151873E+02  0.1043144E+03
Ar 1139  0.3000311E+02  0.2691533E+02  0.2440459E+02  0.1683927E+03
Ar 1140  0.2691533E+02  0.3000311E+02  0.2440459E+02  0.1683927E+03
Ar 1141  0.2693066E+02  0.2693066E+02  0.2693066E+02  0.9583733E+01
Ar 1142  0.2966339E+02  0.2966339E+02  0.2680210E+02  0.1014568E+03
Ar 1143  0.2966339E+02  0.2680210E+02  0.2966339E+02  0.1014568E+03
Ar 1144  0.2680210E+02  0.2966339E+02  0.2966339E+02  0.1014568E+03
Ar 1145  0.2721716E+02  0.2721716E+02  0.3251724E+02  0.7607023E+02
Ar 1146  0.2983291E+02  0.2983291E+02  0.3223561E+02  0.1043113E+03
Ar 1147  0.2983251E+02  0.2695340E+02  0.3482166E+02  0.7420765E+02
Ar 1148  0.2695340E+02  0.2983251E+02  0.3482166E+02  0.7420765E+02
Ar 1149  0.2740523E+02  0.3217492E+02  0.3773488E+02  0.1851021E+02
Ar 1150  0.2983941E+02  0.3480012E+02  0.6270424E-01  0.9846171E+02
Ar 1151  0.2970533E+02  0.3227139E+02  0.2787919E+01  0.5253019E+02
Ar 1152  0.2703424E+02  0.3478584E+02  0.2684038E+01  0.2979384E+03
Ar 1153  0.2669064E+02  0.3269001E+02  0.5696268E+01  0.4137028E+02
Ar 1154  0.2926594E+02  0.3504881E+02  0.5562478E+01  0.1150109E+02
Ar 1155  0.2957929E+02  0.3238259E+02  0.7895024E+01  0.1616082E+03
Ar 1156  0.2688121E+02  0.3530267E+02  0.8425984E+01  0.1770963E+03
Ar 1157  0.2666529E+02  0.3224581E+02  0.1084319E+02  0.2685689E+03
Ar 1158  0.2948745E+02  0.3474720E+02  0.1059498E+02  0.2193358E+02
Ar 1159  0.2960400E+02  0.3234040E+02  0.1330696E+02  0.5133559E+02
Ar 1160  0.2672319E+02  0.3520992E+02  0.1406769E+02  0.5979159E+02
Ar 1161  0.2724997E+02  0.3283812E+02  0.1638600E+02  0.9481027E+02
Ar 1162  0.2970756E+02  0.3502460E+02  0.1625070E+02  0.2727444E+03
Ar 1163  0.3000025E+02  0.3260865E+02  0.1906619E+02  0.1182181E+03
Ar 1164  0.2695032E+02  0.3530871E+02  0.1909802E+02  0.3822308E+02
Ar 1165  0.2706629E+02  0.3272552E+02  0.2136870E+02  0.6279487E+02
Ar 1166  0.2978044E+02  0.3507510E+02  0.2150348E+02  0.1065572E+03
Ar 1167  0.2969312E+02  0.3255119E+02  0.2396378E+02  0.2335906E+03
Ar 1168  0.2674008E+02  0.3507915E+02  0.2392353E+02  0.2692998E+03
Ar 1169  0.2721716E+02  0.3251724E+02  0.2721716E+02  0.7607023E+02
Ar 1170  0.2983251E+02  0.3482166E+02  0.2695340E+02  0.7420765E+02
Ar 1171  0.2983291E+02  0.3223561E+02  0.2983291E+02  0.1043113E+03
Ar 1172  0.2695340E+02  0.3482166E+02  0.2983251E+02  0.7420765E+02
Ar 1173  0.2695161E+02  0.3218292E+02  0.3218292E+02  0.6384745E+02
Ar 1174  0.2954814E+02  0.3489426E+02  0.3217647E+02  0.1519313E+03
Ar 1175  0.2954814E+02  0.3217647E+02  0.3489426E+02  0.1519313E+03
Ar 1176  0.2713423E+02  0.3470040E+02  0.3470040E+02  0.2103291E+02
Ar 1177  0.3174732E+02  0.2101922E+00  0.2101922E+00  0.1419239E+02
Ar 1178  0.3478219E+02  0.2864170E+01  0.3757078E+02  0.8611959E+02
Ar 1179  0.3478219E+02  0.3757078E+02  0.2864170E+01  0.8611959E+02
Ar 1180  0.3272094E+02  0.2752497E+01  0.2752497E+01  0.1721213E+03
Ar 1181  0.3211404E+02  0.3760801E+02  0.5511879E+01  0.7599732E+02
Ar 1182  0.3468457E+02  0.2357805E+01  0.5418627E+01  0.1733488E+03
Ar 1183  0.3455334E+02  0.3777994E+02  0.8312928E+01  0.7878156E+02
Ar 1184  0.3190652E+02  0.2701921E+01  0.8359846E+01  0.8370321E+02
Ar 1185  0.3210651E+02  0.3509298E+00  0.1103135E+02  0.2375625E+02
Ar 1186  0.3488443E+02  0.2599754E+01  0.1099506E+02  0.4105324E+02
Ar 1187  0.3482847E+02  0.3773248E+02  0.1333802E+02  0.2286983E+02
Ar 1188  0.3238990E+02  0.2846599E+01  0.1380546E+02  0.8274748E+02
Ar 1189  0.3221493E+02  0.3161365E-01  0.1616366E+02  0.4966555E+02
Ar 1190  0.3526794E+02  0.2635226E+01  0.1610980E+02  0.4611124E+01
Ar 1191  0.3490379E+02  0.3086943E+00  0.1881971E+02  0.1338106E+03
Ar 1192  0.3194878E+02  0.2925133E+01  0.1883388E+02  0.5953693E+02
Ar 1193  0.3268055E+02  0.3763122E+02  0.2156965E+02  0.1782690E+03
Ar 1194  0.3504593E+02  0.2884594E+01  0.2127187E+02  0.3240414E+02
Ar 1195  0.3496406E+02  0.3757504E+02  0.2434268E+02  0.3380541E+03
Ar 1196  0.3247061E+02  0.2280235E+01  0.2411649E+02  0.1900975E+02
Ar 1197  0.3217492E+02  0.3773488E+02  0.2740523E+02  0.1851021E+02
Ar 1198  0.3478584E+02  0.2684038E+01  0.2703424E+02  0.2979384E+03
Ar 1199  0.3480012E+02  0.6270424E-01  0.2983941E+02  0.9846171E+02
Ar 1200  0.3227139E+02  0.2787919E+01  0.2970533E+02  0.5253019E+02
Ar 1201  0.3220051E+02  0.3757522E+02  0.3220051E+02  0.2709165E+03
Ar 1202  0.3510468E+02  0.2956627E+01  0.3209683E+02  0.1752376E+03
Ar 1203  0.3473919E+02  0.3773602E+02  0.3473919E+02  0.1015391E+03
Ar 1204  0.3209683E+02  0.2956627E+01  0.3510468E+02  0.1752376E+03
Ar 1205  0.3211404E+02  0.5511879E+01  0.3760801E+02  0.7599732E+02
Ar 1206  0.3455334E+02  0.8312928E+01  0.3777994E+02  0.7878156E+02
Ar 1207  0.3468457E+02  0.5418627E+01  0.2357805E+01  0.1733488E+03
Ar 1208  0.3190652E+02  0.8359846E+01  0.2701921E+01  0.8370321E+02
Ar 1209  0.3239127E+02  0.5317434E+01  0.5317434E+01  0.1434922E+03
Ar 1210  0.3486770E+02  0.8316804E+01  0.5653959E+01  0.4343430E+02
Ar 1211  0.3486770E+02  0.5653959E+01  0.8316804E+01  0.4343430E+02
Ar 1212  0.3248111E+02  0.8287139E+01  0.8287139E+01  0.1893349E+03
Ar 1213  0.3237323E+02  0.5305845E+01  0.1084318E+02  0.2581744E+03
Ar 1214  0.3471595E+02  0.8092604E+01  0.1084877E+02  0.1745301E+03
Ar 1215  0.3486668E+02  0.5271757E+01  0.1338964E+02  0.1070899E+02
Ar 1216  0.3217749E+02  0.8332961E+01  0.1372905E+02  0.5506910E+02
Ar 1217  0.3231939E+02  0.5567202E+01  0.1596401E+02  0.1823572E+03
Ar 1218  0.3504523E+02  0.8048713E+01  0.1596049E+02  0.1482224E+03
Ar 1219  0.3506314E+02  0.5514617E+01  0.1852628E+02  0.5163742E+02
Ar 1220  0.3271759E+02  0.8184949E+01  0.1885346E+02  0.2156478E+02
Ar 1221  0.3213803E+02  0.5486903E+01  0.2200198E+02  0.3685636E+02
Ar 1222  0.3511292E+02  0.8054515E+01  0.2154959E+02  0.7566649E+02
Ar 1223  0.3496126E+02  0.5214980E+01  0.2395851E+02  0.4906518E+02
Ar 1224  0.3268394E+02  0.8226575E+01  0.2419299E+02  0.2936643E+02
Ar 1225  0.3269001E+02  0.5696268E+01  0.2669064E+02  0.4137028E+02
Ar 1226  0.3530267E+02  0.8425984E+01  0.2688121E+02  0.1770963E+03
Ar 1227  0.3504881E+02  0.5562478E+01  0.2926594E+02  0.1150109E+02
Ar 1228  0.3238259E+02  0.7895024E+01  0.2957929E+02  0.1616082E+03
Ar 1229  0.3214408E+02  0.5428594E+01  0.3214408E+02  0.3510604E+02
Ar 1230  0.3495386E+02  0.8070281E+01  0.3222736E+02  0.2520675E+03
Ar 1231  0.3466025E+02  0.5363172E+01  0.3466025E+02  0.7194634E+03
Ar 1232  0.3222736E+02  0.8070281E+01  0.3495386E+02  0.2520675E+03
Ar 1233  0.3210651E+02  0.1103135E+02  0.3509298E+00  0.2375625E+02
Ar 1234  0.3482847E+02  0.1333802E+02  0.3773248E+02  0.2286983E+02
Ar 1235  0.3488443E+02  0.1099506E+02  0.2599754E+01  0.4105324E+02
Ar 1236  0.3238990E+02  0.1380546E+02  0.2846599E+01  0.8274748E+02
Ar 1237  0.3237323E+02  0.1084318E+02  0.5305845E+01  0.2581744E+03
Ar 1238  0.3486668E+02  0.1338964E+02  0.5271757E+01  0.1070899E+02
Ar 1239  0.3471595E+02  0.1084877E+02  0.8092604E+01  0.1745301E+03
Ar 1240  0.3217749E+02  0.1372905E+02  0.8332961E+01  0.5506910E+02
Ar 1241  0.3244541E+02  0.1070410E+02  0.1070410E+02  0.7033163E+02
Ar 1242  0.3540417E+02  0.1340348E+02  0.1074752E+02  0.9839358E+02
Ar 1243  0.3540417E+02  0.1074752E+02  0.1340348E+02  0.9839358E+02
Ar 1244  0.3262295E+02  0.1356097E+02  0.1356097E+02  0.2136871E+03
Ar 1245  0.3267551E+02  0.1090739E+02  0.1654325E+02  0.9497611E+02
Ar 1246  0.3557407E+02  0.1338297E+02  0.1609932E+02  0.1289855E+03
Ar 1247  0.3543931E+02  0.1074661E+02  0.1884918E+02  0.3106412E+03
Ar 1248  0.3267974E+02  0.1376738E+02  0.1869330E+02  0.1133981E+03
Ar 1249  0.3241464E+02  0.1115642E+02  0.2126987E+02  0.7919590E+02
Ar 1250  0.3540492E+02  0.1346301E+02  0.2143245E+02  0.6658402E+03
Ar 1251  0.3479658E+02  0.1100119E+02  0.2378551E+02  0.1873054E+02
Ar 1252  0.3237132E+02  0.1381365E+02  0.2426542E+02  0.1779902E+03
Ar 1253  0.3224581E+02  0.1084319E+02  0.2666529E+02  0.2685689E+03
Ar 1254  0.3520992E+02  0.1406769E+02  0.2672319E+02  0.5979159E+02
Ar 1255  0.3474720E+02  0.1059498E+02  0.2948745E+02  0.2193358E+02
Ar 1256  0.3234040E+02  0.1330696E+02  0.2960400E+02  0.5133559E+02
Ar 1257  0.3233728E+02  0.1045839E+02  0.3233728E+02  0.5515056E+02
Ar 1258  0.3517148E+02  0.1304777E+02  0.3205978E+02  0.1667413E+03
Ar 1259  0.3488609E+02  0.1097672E+02  0.3488609E+02  0.8644508E+01
Ar 1260  0.3205978E+02  0.1304777E+02  0.3517148E+02  0.1667413E+03
Ar 1261  0.3221493E+02  0.1616366E+02  0.3161365E-01  0.4966555E+02
Ar 1262  0.3490379E+02  0.1881971E+02  0.3086943E+00  0.1338106E+03
Ar 1263  0.3526794E+02  0.1610980E+02  0.2635226E+01  0.4611124E+01
Ar 1264  0.3194878E+02  0.1883388E+02  0.2925133E+01  0.5953693E+02
Ar 1265  0.3231939E+02  0.1596401E+02  0.5567202E+01  0.1823572E+03
Ar 1266  0.3506314E+02  0.1852628E+02  0.5514617E+01  0.5163742E+02
Ar 1267  0.3504523E+02  0.1596049E+02  0.8048713E+01  0.1482224E+03
Ar 1268  0.3271759E+02  0.1885346E+02  0.8184949E+01  0.2156478E+02
Ar 1269  0.3267551E+02  0.1654325E+02  0.1090739E+02  0.9497611E+02
Ar 1270  0.3543931E+02  0.1884918E+02  0.1074661E+02  0.3106412E+03
Ar 1271  0.3557407E+02  0.1609932E+02  0.1338297E+02  0.1289855E+03
Ar 1272  0.3267974E+02  0.1869330E+02  0.1376738E+02  0.1133981E+03
Ar 1273  0.3265450E+02  0.1631049E+02  0.1631049E+02  0.6799478E+01
Ar 1274  0.3541045E+02  0.1866969E+02  0.1617084E+02  0.2385495E+02
Ar 1275  0.3541045E+02  0.1617084E+02  0.1866969E+02  0.2385495E+02
Ar 1276  0.3254615E+02  0.1880437E+02  0.1880437E+02  0.3727571E+03
Ar 1277  0.3246730E+02  0.1637198E+02  0.2125981E+02  0.9690434E+02
Ar 1278  0.3497519E+02  0.1893106E+02  0.2157454E+02  0.1296340E+03
Ar 1279  0.3493242E+02  0.1641350E+02  0.2428468E+02  0.1795331E+03
Ar 1280  0.3223745E+02  0.1878560E+02  0.2445215E+02  0.2464361E+02
Ar 1281  0.3283812E+02  0.1638600E+02  0.2724997E+02  0.9481027E+02
Ar 1282  0.3530871E+02  0.1909802E+02  0.2695032E+02  0.3822308E+02
Ar 1283  0.3502460E+02  0.1625070E+02  0.2970756E+02  0.2727444E+03
Ar 1284  0.3260865E+02  0.1906619E+02  0.3000025E+02  0.1182181E+03
Ar 1285  0.3213056E+02  0.1633652E+02  0.3213056E+02  0.1289418E+03
Ar 1286  0.3528988E+02  0.1864533E+02  0.3266242E+02  0.1473117E+03
Ar 1287  0.3479161E+02  0.1560336E+02  0.3479161E+02  0.2607291E+03
Ar 1288  0.3266242E+02  0.1864533E+02  0.3528988E+02  0.1473117E+03
Ar 1289  0.3268055E+02  0.2156965E+02  0.3763122E+02  0.1782690E+03
Ar 1290  0.3496406E+02  0.2434268E+02  0.3757504E+02  0.3380541E+03
Ar 1291  0.3504593E+02  0.2127187E+02  0.2884594E+01  0.3240414E+02
Ar 1292  0.3247061E+02  0.2411649E+02  0.2280235E+01  0.1900975E+02
Ar 1293  0.3213803E+02  0.2200198E+02  0.5486903E+01  0.3685636E+02
Ar 1294  0.3496126E+02  0.2395851E+02  0.5214980E+01  0.4906518E+02
Ar 1295  0.3511292E+02  0.2154959E+02  0.8054515E+01  0.7566649E+02
Ar 1296  0.3268394E+02  0.2419299E+02  0.8226575E+01  0.2936643E+02
Ar 1297  0.3241464E+02  0.2126987E+02  0.1115642E+02  0.7919590E+02
Ar 1298  0.3479658E+02  0.2378551E+02  0.1100119E+02  0.1873054E+02
Ar 1299  0.3540492E+02  0.2143245E+02  0.1346301E+02  0.6658402E+03
Ar 1300  0.3237132E+02  0.2426542E+02  0.1381365E+02  0.1779902E+03
Ar 1301  0.3246730E+02  0.2125981E+02  0.1637198E+02  0.9690434E+02
Ar 1302  0.3493242E+02  0.2428468E+02  0.1641350E+02  0.1795331E+03
Ar 1303  0.3497519E+02  0.2157454E+02  0.1893106E+02  0.1296340E+03
Ar 1304  0.3223745E+02  0.2445215E+02  0.1878560E+02  0.2464361E+02
Ar 1305  0.3222211E+02  0.2160727E+02  0.2160727E+02  0.2593802E+02
Ar 1306  0.3480532E+02  0.2403308E+02  0.2152094E+02  0.1684123E+03
Ar 1307  0.3480532E+02  0.2152094E+02  0.2403308E+02  0.1684123E+03
Ar 1308  0.3240820E+02  0.2421963E+02  0.2421963E+02  0.2736995E+03
Ar 1309  0.3272552E+02  0.2136870E+02  0.2706629E+02  0.6279487E+02
Ar 1310  0.3507915E+02  0.2392353E+02  0.2674008E+02  0.2692998E+03
Ar 1311  0.3507510E+02  0.2150348E+02  0.2978044E+02  0.1065572E+03
Ar 1312  0.3255119E+02  0.2396378E+02  0.2969312E+02  0.2335906E+03
Ar 1313  0.3242653E+02  0.2167074E+02  0.3242653E+02  0.1791842E+03
Ar 1314  0.3507529E+02  0.2428546E+02  0.3254660E+02  0.1170288E+03
Ar 1315  0.3497081E+02  0.2109656E+02  0.3497081E+02  0.1490339E+03
Ar 1316  0.3254660E+02  0.2428546E+02  0.3507529E+02  0.1170288E+03
Ar 1317  0.3217492E+02  0.2740523E+02  0.3773488E+02  0.1851021E+02
Ar 1318  0.3480012E+02  0.2983941E+02  0.6270424E-01  0.9846171E+02
Ar 1319  0.3478584E+02  0.2703424E+02  0.2684038E+01  0.2979384E+03
Ar 1320  0.3227139E+02  0.2970533E+02  0.2787919E+01  0.5253019E+02
Ar 1321  0.3269001E+02  0.2669064E+02  0.5696268E+01  0.4137028E+02
Ar 1322  0.3504881E+02  0.2926594E+02  0.5562478E+01  0.1150109E+02
Ar 1323  0.3530267E+02  0.2688121E+02  0.8425984E+01  0.1770963E+03
Ar 1324  0.3238259E+02  0.2957929E+02  0.7895024E+01  0.1616082E+03
Ar 1325  0.3224581E+02  0.2666529E+02  0.1084319E+02  0.2685689E+03
Ar 1326  0.3474720E+02  0.2948745E+02  0.1059498E+02  0.2193358E+02
Ar 1327  0.3520992E+02  0.2672319E+02  0.1406769E+02  0.5979159E+02
Ar 1328  0.3234040E+02  0.2960400E+02  0.1330696E+02  0.5133559E+02
Ar 1329  0.3283812E+02  0.2724997E+02  0.1638600E+02  0.9481027E+02
Ar 1330  0.3502460E+02  0.2970756E+02  0.1625070E+02  0.2727444E+03
Ar 1331  0.3530871E+02  0.2695032E+02  0.1909802E+02  0.3822308E+02
Ar 1332  0.3260865E+02  0.3000025E+02  0.1906619E+02  0.1182181E+03
Ar 1333  0.3272552E+02  0.2706629E+02  0.2136870E+02  0.6279487E+02
Ar 1334  0.3507510E+02  0.2978044E+02  0.2150348E+02  0.1065572E+03
Ar 1335  0.3507915E+02  0.2674008E+02  0.2392353E+02  0.2692998E+03
Ar 1336  0.3255119E+02  0.2969312E+02  0.2396378E+02  0.2335906E+03
Ar 1337  0.3251724E+02  0.2721716E+02  0.2721716E+02  0.7607023E+02
Ar 1338  0.3482166E+02  0.2983251E+02  0.2695340E+02  0.7420765E+02
Ar 1339  0.3482166E+02  0.2695340E+02  0.2983251E+02  0.7420765E+02
Ar 1340  0.3223561E+02  0.2983291E+02  0.2983291E+02  0.1043113E+03
Ar 1341  0.3218292E+02  0.2695161E+02  0.3218292E+02  0.6384745E+02
Ar 1342  0.3489426E+02  0.2954814E+02  0.3217647E+02  0.1519313E+03
Ar 1343  0.3470040E+02  0.2713423E+02  0.3470040E+02  0.2103291E+02
Ar 1344  0.3217647E+02  0.2954814E+02  0.3489426E+02  0.1519313E+03
Ar 1345  0.3220051E+02  0.3220051E+02  0.3757522E+02  0.2709165E+03
Ar 1346  0.3473919E+02  0.3473919E+02  0.3773602E+02  0.1015391E+03
Ar 1347  0.3510468E+02  0.3209683E+02  0.2956627E+01  0.1752376E+03
Ar 1348  0.3209683E+02  0.3510468E+02  0.2956627E+01  0.1752376E+03
Ar 1349  0.3214408E+02  0.3214408E+02  0.5428594E+01  0.3510604E+02
Ar 1350  0.3466025E+02  0.3466025E+02  0.5363172E+01  0.7194634E+03
Ar 1351  0.3495386E+02  0.3222736E+02  0.8070281E+01  0.2520675E+03
Ar 1352  0.3222736E+02  0.3495386E+02  0.8070281E+01  0.2520675E+03
Ar 1353  0.3233728E+02  0.3233728E+02  0.1045839E+02  0.5515056E+02
Ar 1354  0.3488609E+02  0.3488609E+02  0.1097672E+02  0.8644508E+01
Ar 1355  0.3517148E+02  0.3205978E+02  0.1304777E+02  0.1667413E+03
Ar 1356  0.3205978E+02  0.3517148E+02  0.1304777E+02  0.1667413E+03
Ar 1357  0.3213056E+02  0.3213056E+02  0.1633652E+02  0.1289418E+03
Ar 1358  0.3479161E+02  0.3479161E+02  0.1560336E+02  0.2607291E+03
Ar 1359  0.3528988E+02  0.3266242E+02  0.1864533E+02  0.1473117E+03
Ar 1360  0.3266242E+02  0.3528988E+02  0.1864533E+02  0.1473117E+03
Ar 1361  0.3242653E+02  0.3242653E+02  0.2167074E+02  0.1791842E+03
Ar 1362  0.3497081E+02  0.3497081E+02  0.2109656E+02  0.1490339E+03
Ar 1363  0.3507529E+02  0.3254660E+02  0.2428546E+02  0.1170288E+03
Ar 1364  0.3254660E+02  0.3507529E+02  0.2428546E+02  0.1170288E+03
Ar 1365  0.3218292E+02  0.3218292E+02  0.2695161E+02  0.6384745E+02
Ar 1366  0.3470040E+02  0.3470040E+02  0.2713423E+02  0.2103291E+02
Ar 1367  0.3489426E+02  0.3217647E+02  0.2954814E+02  0.1519313E+03
Ar 1368  0.3217647E+02  0.3489426E+02  0.2954814E+02  0.1519313E+03
Ar 1369  0.3253510E+02  0.3253510E+02  0.3253510E+02  0.2662404E+01
Ar 1370  0.3525967E+02  0.3525967E+02  0.3222020E+02  0.5047710E+03
Ar 1371  0.3525967E+02  0.3222020E+02  0.3525967E+02  0.5047710E+03
Ar 1372  0.3222020E+02  0.3525967E+02  0.3525967E+02  0.5047710E+03
