        1372
Lattice="  0.3778015E+02  0.0000000E+00  0.0000000E+00  0.0000000E+00  0.3778015E+02  0.0000000E+00  0.0000000E+00  0.0000000E+00  0.3778015E+02" Properties=species:S:1:id:I:1:pos:R:3:tempK:R:1
Ar    1  0.2656970E+00  0.7367437E+00  0.3702041E+02  0.3081762E+03
Ar    2  0.3005701E+01  0.2873463E+01  0.3772499E+02  0.5050950E+02
Ar    3  0.2976073E+01  0.4215031E+00  0.3246228E+01  0.3645525E+02
Ar    4  0.3771593E+02  0.2478806E+01  0.2303829E+01  0.1960063E+03
Ar    5  0.9442439E-01  0.3767944E+02  0.5279919E+01  0.1827156E+03
Ar    6  0.2843905E+01  0.3266274E+01  0.5577852E+01  0.2616036E+03
Ar    7  0.2542341E+01  0.1949343E+00  0.7926827E+01  0.2569687E+03
Ar    8  0.5809397E-01  0.3039325E+01  0.8122396E+01  0.1836088E+03
Ar    9  0.3748118E+02  0.8231769E-01  0.1087663E+02  0.6246458E+03
Ar   10  0.3018824E+01  0.2514660E+01  0.1127513E+02  0.4214732E+03
Ar   11  0.2398688E+01  0.3723925E+02  0.1301035E+02  0.2048048E+03
Ar   12  0.1952877E+00  0.2918393E+01  0.1380117E+02  0.1282736E+03
Ar   13  0.3771333E+02  0.6593627E-01  0.1630041E+02  0.6102452E+03
Ar   14  0.2804864E+01  0.2572257E+01  0.1587378E+02  0.1696591E+03
Ar   15  0.2787959E+01  0.7894650E+00  0.1908157E+02  0.1559834E+03
Ar   16  0.3750958E+02  0.2720264E+01  0.1835248E+02  0.2115207E+03
Ar   17  0.3762765E+02  0.5178130E+00  0.2160341E+02  0.2720055E+03
Ar   18  0.3178017E+01  0.2974267E+01  0.2225560E+02  0.5018186E+02
Ar   19  0.2705568E+01  0.5775558E-01  0.2439141E+02  0.1451121E+03
Ar   20  0.1089864E+00  0.2807422E+01  0.2444871E+02  0.1525455E+03
Ar   21  0.3733727E+02  0.1421313E+00  0.2757730E+02  0.1195303E+03
Ar   22  0.2464883E+01  0.1990411E+01  0.2707215E+02  0.1022724E+03
Ar   23  0.2239393E+01  0.3763542E+02  0.2954678E+02  0.2086752E+03
Ar   24  0.5331159E-01  0.3037706E+01  0.2972224E+02  0.1815320E+03
Ar   25  0.3765367E+02  0.3120054E+00  0.3251966E+02  0.9712138E+02
Ar   26  0.2674805E+01  0.3583994E+01  0.3212956E+02  0.1282622E+03
Ar   27  0.2671541E+01  0.6835086E+00  0.3491811E+02  0.1771196E+03
Ar   28  0.2657220E-01  0.3315114E+01  0.3476458E+02  0.7561862E+02
Ar   29  0.5746268E-02  0.5443311E+01  0.1425125E+00  0.1503684E+03
Ar   30  0.2494557E+01  0.7956655E+01  0.9214506E-01  0.2738270E+02
Ar   31  0.2338539E+01  0.5406368E+01  0.2686963E+01  0.2154331E+03
Ar   32  0.3736258E+02  0.8062386E+01  0.2380117E+01  0.6883499E+02
Ar   33  0.3728462E+02  0.5556050E+01  0.4807759E+01  0.5022232E+03
Ar   34  0.2674834E+01  0.8126073E+01  0.5240647E+01  0.8896005E+02
Ar   35  0.2956919E+01  0.5094113E+01  0.8536159E+01  0.1578547E+03
Ar   36  0.3772122E+02  0.8175408E+01  0.7750090E+01  0.1508906E+03
Ar   37  0.3759086E+02  0.5454977E+01  0.1074274E+02  0.4571667E+03
Ar   38  0.2742121E+01  0.7786530E+01  0.1083633E+02  0.1793120E+03
Ar   39  0.2495751E+01  0.5415951E+01  0.1319338E+02  0.2457469E+03
Ar   40  0.3751592E+02  0.7756392E+01  0.1380710E+02  0.1181987E+03
Ar   41  0.3751855E+02  0.5411820E+01  0.1619236E+02  0.1257170E+03
Ar   42  0.2550828E+01  0.8014121E+01  0.1589505E+02  0.1064822E+03
Ar   43  0.2973975E+01  0.4810476E+01  0.1870868E+02  0.7833642E+03
Ar   44  0.2604797E+00  0.7554422E+01  0.1936557E+02  0.2183230E+03
Ar   45  0.3768222E+02  0.4682325E+01  0.2163995E+02  0.3800203E+03
Ar   46  0.2931306E+01  0.8055633E+01  0.2144620E+02  0.1826144E+03
Ar   47  0.2514139E+01  0.5398610E+01  0.2480845E+02  0.2301991E+03
Ar   48  0.1390273E+00  0.8206017E+01  0.2464840E+02  0.6893493E+02
Ar   49  0.3767772E+02  0.4885256E+01  0.2715114E+02  0.3988005E+03
Ar   50  0.3166393E+01  0.8156565E+01  0.2660807E+02  0.3955694E+02
Ar   51  0.2760308E+01  0.5492658E+01  0.2915570E+02  0.2617934E+03
Ar   52  0.7846534E-01  0.8028265E+01  0.2959774E+02  0.8720033E+02
Ar   53  0.3437189E-01  0.6147780E+01  0.3237303E+02  0.2386476E+03
Ar   54  0.3063085E+01  0.8017554E+01  0.3230334E+02  0.2070888E+03
Ar   55  0.2592511E+01  0.5903544E+01  0.3523033E+02  0.1154453E+03
Ar   56  0.3740434E+02  0.7776837E+01  0.3549239E+02  0.2025505E+03
Ar   57  0.3760558E+02  0.1090161E+02  0.1901444E+00  0.4174657E+03
Ar   58  0.2321733E+01  0.1324398E+02  0.3777388E+02  0.2624662E+03
Ar   59  0.2119324E+01  0.1041044E+02  0.2772886E+01  0.2743562E+03
Ar   60  0.3767675E+02  0.1309225E+02  0.2946711E+01  0.1470374E+03
Ar   61  0.3733616E+02  0.1054644E+02  0.5363974E+01  0.1178361E+03
Ar   62  0.2411770E+01  0.1301570E+02  0.5630097E+01  0.1252826E+03
Ar   63  0.2526895E+01  0.1035498E+02  0.8246570E+01  0.1503507E+03
Ar   64  0.2059080E+00  0.1302140E+02  0.8139640E+01  0.9737918E+02
Ar   65  0.3754014E+02  0.1048281E+02  0.1071172E+02  0.1535975E+03
Ar   66  0.3030668E+01  0.1305193E+02  0.1079461E+02  0.3049473E+03
Ar   67  0.2364159E+01  0.1028394E+02  0.1334368E+02  0.3465219E+02
Ar   68  0.3731182E+02  0.1324102E+02  0.1342034E+02  0.2088624E+03
Ar   69  0.3763668E+02  0.1063647E+02  0.1650550E+02  0.1736773E+03
Ar   70  0.2330029E+01  0.1345069E+02  0.1581576E+02  0.1260819E+03
Ar   71  0.2742022E+01  0.1040368E+02  0.1870182E+02  0.2107404E+03
Ar   72  0.3712733E+02  0.1340246E+02  0.1873106E+02  0.1472191E+03
Ar   73  0.3772179E+02  0.1069969E+02  0.2147316E+02  0.2171719E+03
Ar   74  0.2375277E+01  0.1332242E+02  0.2137895E+02  0.5073053E+03
Ar   75  0.2960719E+01  0.1075996E+02  0.2401774E+02  0.1375876E+03
Ar   76  0.3749506E+02  0.1350630E+02  0.2376981E+02  0.6076320E+02
Ar   77  0.4902912E+00  0.1074089E+02  0.2709578E+02  0.6330639E+02
Ar   78  0.2498746E+01  0.1330432E+02  0.2654226E+02  0.1102226E+03
Ar   79  0.2593542E+01  0.1065591E+02  0.2991418E+02  0.1959731E+02
Ar   80  0.1850242E+00  0.1340791E+02  0.3005643E+02  0.4135197E+02
Ar   81  0.1944580E-01  0.1044458E+02  0.3265159E+02  0.7905227E+02
Ar   82  0.2177468E+01  0.1292492E+02  0.3281623E+02  0.1778826E+03
Ar   83  0.2472266E+01  0.9977906E+01  0.3516740E+02  0.2193016E+03
Ar   84  0.3730653E+02  0.1330961E+02  0.3515583E+02  0.2397592E+03
Ar   85  0.3734513E+02  0.1611245E+02  0.3580748E+00  0.3479622E+02
Ar   86  0.2628555E+01  0.1889863E+02  0.5124970E+00  0.9436322E+02
Ar   87  0.2406367E+01  0.1636527E+02  0.2973066E+01  0.2885098E+02
Ar   88  0.3750161E+02  0.1926855E+02  0.2857582E+01  0.1715531E+03
Ar   89  0.3757534E+02  0.1601885E+02  0.5450692E+01  0.5350819E+02
Ar   90  0.3259553E+01  0.1914360E+02  0.5463519E+01  0.2433860E+03
Ar   91  0.2836801E+01  0.1589461E+02  0.7586702E+01  0.2781645E+03
Ar   92  0.3746626E+02  0.1856760E+02  0.7498980E+01  0.3746191E+03
Ar   93  0.3900627E+00  0.1540375E+02  0.1063688E+02  0.6709676E+02
Ar   94  0.2364726E+01  0.1931046E+02  0.9733688E+01  0.1010171E+03
Ar   95  0.3087809E+01  0.1561082E+02  0.1297278E+02  0.1429140E+03
Ar   96  0.5458453E+00  0.1876835E+02  0.1291703E+02  0.7395603E+03
Ar   97  0.6005823E-01  0.1702234E+02  0.1622145E+02  0.3492339E+02
Ar   98  0.2791700E+01  0.1927146E+02  0.1612593E+02  0.2522919E+02
Ar   99  0.2636833E+01  0.1675208E+02  0.1917962E+02  0.1374105E+03
Ar  100  0.1007486E+00  0.1936007E+02  0.1907792E+02  0.3589031E+03
Ar  101  0.7429018E-01  0.1645398E+02  0.2137679E+02  0.1995296E+02
Ar  102  0.2404724E+01  0.1902477E+02  0.2233808E+02  0.5460819E+03
Ar  103  0.2202680E+01  0.1604651E+02  0.2414642E+02  0.7501849E+02
Ar  104  0.3766972E+02  0.1891155E+02  0.2472528E+02  0.3886281E+02
Ar  105  0.3768849E+02  0.1558583E+02  0.2726535E+02  0.1519701E+03
Ar  106  0.2158601E+01  0.1855548E+02  0.2717806E+02  0.1894074E+03
Ar  107  0.2603268E+01  0.1605837E+02  0.3036393E+02  0.1766267E+03
Ar  108  0.3738871E+02  0.1894668E+02  0.2980069E+02  0.2616674E+02
Ar  109  0.3731703E+02  0.1597183E+02  0.3238020E+02  0.1259198E+03
Ar  110  0.1995513E+01  0.1889198E+02  0.3276847E+02  0.7301546E+03
Ar  111  0.2223401E+01  0.1567391E+02  0.3496482E+02  0.8556614E+03
Ar  112  0.8803920E-01  0.1836127E+02  0.3534309E+02  0.5917043E+02
Ar  113  0.1631623E+00  0.2137255E+02  0.3742580E+02  0.2767858E+03
Ar  114  0.2638421E+01  0.2414098E+02  0.3768282E+02  0.8203559E+02
Ar  115  0.2932318E+01  0.2148042E+02  0.2543072E+01  0.4661101E+02
Ar  116  0.3729307E+02  0.2404480E+02  0.2217922E+01  0.1253222E+03
Ar  117  0.1703036E+00  0.2168360E+02  0.5243662E+01  0.1926536E+03
Ar  118  0.2969575E+01  0.2433589E+02  0.4884099E+01  0.2728262E+03
Ar  119  0.2916218E+01  0.2226743E+02  0.7964077E+01  0.2663124E+03
Ar  120  0.3765138E+02  0.2423206E+02  0.8127839E+01  0.2500686E+02
Ar  121  0.3757628E+02  0.2143682E+02  0.1078956E+02  0.1087419E+01
Ar  122  0.2696001E+01  0.2448212E+02  0.1123834E+02  0.1059679E+04
Ar  123  0.2741354E+01  0.2177865E+02  0.1314688E+02  0.6583754E+02
Ar  124  0.3760022E+02  0.2386107E+02  0.1331505E+02  0.1302150E+03
Ar  125  0.3761627E+02  0.2123117E+02  0.1553268E+02  0.1191405E+03
Ar  126  0.2219303E+01  0.2393174E+02  0.1640706E+02  0.5317724E+02
Ar  127  0.3177680E+01  0.2152308E+02  0.1981592E+02  0.4050791E+03
Ar  128  0.2583789E+00  0.2384816E+02  0.1924845E+02  0.8549418E+02
Ar  129  0.1543507E+00  0.2163634E+02  0.2171093E+02  0.5416838E+02
Ar  130  0.2838839E+01  0.2484332E+02  0.2189744E+02  0.7532342E+03
Ar  131  0.2408866E+01  0.2125626E+02  0.2482069E+02  0.3959389E+03
Ar  132  0.1025410E+00  0.2409556E+02  0.2421065E+02  0.1825578E+03
Ar  133  0.2356588E+00  0.2151873E+02  0.2742398E+02  0.1082044E+03
Ar  134  0.2730638E+01  0.2391089E+02  0.2777325E+02  0.1883045E+03
Ar  135  0.2582816E+01  0.2116857E+02  0.3017435E+02  0.1347572E+03
Ar  136  0.3759629E+02  0.2449772E+02  0.2989011E+02  0.3475698E+02
Ar  137  0.3682631E+02  0.2129094E+02  0.3326116E+02  0.1289332E+03
Ar  138  0.2885251E+01  0.2423245E+02  0.3238855E+02  0.1152717E+04
Ar  139  0.2534514E+01  0.2195389E+02  0.3488073E+02  0.3013135E+02
Ar  140  0.1107903E+00  0.2443470E+02  0.3564207E+02  0.3678146E+03
Ar  141  0.3776415E+02  0.2722428E+02  0.1913788E+00  0.1106093E+03
Ar  142  0.2916242E+01  0.2982070E+02  0.1164269E+00  0.1447028E+03
Ar  143  0.2571297E+01  0.2685814E+02  0.2428247E+01  0.1485676E+03
Ar  144  0.3763402E+02  0.2969175E+02  0.3093281E+01  0.3814492E+03
Ar  145  0.8534296E-01  0.2631358E+02  0.4612816E+01  0.1688846E+03
Ar  146  0.2489846E+01  0.2927772E+02  0.5623544E+01  0.2937955E+02
Ar  147  0.3210503E+01  0.2668145E+02  0.7942078E+01  0.1210197E+03
Ar  148  0.8408813E-02  0.2908736E+02  0.8635342E+01  0.3161946E+03
Ar  149  0.3772163E+02  0.2646437E+02  0.1114104E+02  0.4728111E+03
Ar  150  0.3178872E+01  0.2974726E+02  0.1033860E+02  0.1793382E+03
Ar  151  0.2618058E+01  0.2679987E+02  0.1346609E+02  0.1265822E+03
Ar  152  0.2212351E+00  0.2970200E+02  0.1349549E+02  0.1843468E+03
Ar  153  0.1067538E+00  0.2678703E+02  0.1611638E+02  0.1068881E+03
Ar  154  0.2077221E+01  0.2963505E+02  0.1625082E+02  0.7905708E+02
Ar  155  0.2328822E+01  0.2665493E+02  0.1906875E+02  0.1000745E+03
Ar  156  0.7543978E+00  0.2974516E+02  0.1919395E+02  0.2269030E+03
Ar  157  0.6329530E-01  0.2742719E+02  0.2167338E+02  0.6642735E+03
Ar  158  0.2725343E+01  0.2984104E+02  0.2200779E+02  0.3832362E+03
Ar  159  0.2858357E+01  0.2722748E+02  0.2473593E+02  0.8509335E+01
Ar  160  0.2023718E+00  0.2961374E+02  0.2459975E+02  0.2902784E+03
Ar  161  0.3849661E+00  0.2691783E+02  0.2719848E+02  0.9172452E+02
Ar  162  0.2803784E+01  0.2972291E+02  0.2722108E+02  0.7201886E+03
Ar  163  0.2834734E+01  0.2700436E+02  0.2970373E+02  0.1099593E+03
Ar  164  0.1945623E+00  0.2928316E+02  0.2999524E+02  0.4214711E+02
Ar  165  0.3773085E+02  0.2682516E+02  0.3254361E+02  0.1329013E+03
Ar  166  0.3400052E+01  0.2985715E+02  0.3255674E+02  0.3667539E+02
Ar  167  0.2988587E+01  0.2662985E+02  0.3509653E+02  0.1555100E+03
Ar  168  0.5693640E+00  0.2975357E+02  0.3485756E+02  0.2114431E+03
Ar  169  0.3850447E-01  0.3258536E+02  0.1735534E+00  0.1667921E+03
Ar  170  0.2852488E+01  0.3511876E+02  0.3740985E+02  0.2032843E+03
Ar  171  0.3113791E+01  0.3279170E+02  0.2531017E+01  0.3570260E+03
Ar  172  0.5495229E+00  0.3633149E+02  0.1630557E+01  0.5176216E+02
Ar  173  0.1624721E+00  0.3208105E+02  0.6258457E+01  0.9777428E+02
Ar  174  0.2394320E+01  0.3490468E+02  0.5503701E+01  0.2500608E+03
Ar  175  0.3083627E+01  0.3223525E+02  0.7811034E+01  0.6097991E+03
Ar  176  0.3748940E+02  0.3484249E+02  0.8033057E+01  0.8516468E+02
Ar  177  0.1797902E+00  0.3220103E+02  0.1038695E+02  0.1311856E+03
Ar  178  0.2111698E+01  0.3530017E+02  0.1039393E+02  0.4006865E+02
Ar  179  0.2821849E+01  0.3240766E+02  0.1298634E+02  0.4586384E+02
Ar  180  0.3770075E+02  0.3506869E+02  0.1337405E+02  0.1219191E+03
Ar  181  0.4581819E+00  0.3295909E+02  0.1666269E+02  0.1733870E+03
Ar  182  0.3392637E+01  0.3467054E+02  0.1631515E+02  0.1791735E+03
Ar  183  0.3595551E+01  0.3194387E+02  0.1863736E+02  0.9022156E+02
Ar  184  0.6553555E+00  0.3564371E+02  0.1947923E+02  0.1095213E+03
Ar  185  0.2801617E+00  0.3277837E+02  0.2177716E+02  0.1233525E+03
Ar  186  0.2979793E+01  0.3496633E+02  0.2241079E+02  0.4448331E+02
Ar  187  0.2592954E+01  0.3266639E+02  0.2485217E+02  0.2464189E+03
Ar  188  0.1284083E+00  0.3497564E+02  0.2444432E+02  0.1387846E+02
Ar  189  0.2401444E+00  0.3209880E+02  0.2786138E+02  0.1175720E+03
Ar  190  0.2583583E+01  0.3494946E+02  0.2746246E+02  0.7511294E+02
Ar  191  0.2502042E+01  0.3236092E+02  0.3049323E+02  0.1959135E+03
Ar  192  0.3728278E+02  0.3512227E+02  0.2993577E+02  0.2598075E+03
Ar  193  0.3774740E+02  0.3252152E+02  0.3287970E+02  0.1046518E+03
Ar  194  0.2198955E+01  0.3530046E+02  0.3258620E+02  0.1918387E+03
Ar  195  0.2947396E+01  0.3222449E+02  0.3525284E+02  0.3375975E+03
Ar  196  0.3738362E+02  0.3545320E+02  0.3501122E+02  0.5295583E+03
Ar  197  0.5479336E+01  0.3776245E+02  0.3511265E+00  0.1044464E+04
Ar  198  0.8052121E+01  0.3281715E+01  0.6617315E+00  0.1102069E+03
Ar  199  0.8019141E+01  0.6116523E-01  0.2793711E+01  0.3041130E+03
Ar  200  0.5446323E+01  0.2693788E+01  0.3021638E+01  0.9119653E+02
Ar  201  0.5500374E+01  0.3773400E+02  0.5386332E+01  0.1857430E+03
Ar  202  0.8191499E+01  0.2988041E+01  0.5608024E+01  0.2991062E+03
Ar  203  0.8672253E+01  0.3033103E+00  0.7781360E+01  0.1573968E+03
Ar  204  0.5559225E+01  0.2732149E+01  0.7766626E+01  0.5196469E+02
Ar  205  0.5365831E+01  0.3752002E+02  0.1052824E+02  0.1179019E+03
Ar  206  0.8196073E+01  0.2352214E+01  0.1090467E+02  0.1153519E+03
Ar  207  0.7630029E+01  0.1345784E+00  0.1355241E+02  0.3736196E+03
Ar  208  0.5770614E+01  0.3281737E+01  0.1374996E+02  0.1351052E+02
Ar  209  0.5439189E+01  0.3748744E+02  0.1631185E+02  0.2083189E+03
Ar  210  0.8352133E+01  0.2463323E+01  0.1628311E+02  0.1962474E+03
Ar  211  0.7813184E+01  0.3718183E+02  0.1896188E+02  0.2303903E+03
Ar  212  0.6088497E+01  0.2998609E+01  0.1904061E+02  0.8157605E+02
Ar  213  0.5388009E+01  0.2383042E+00  0.2152159E+02  0.2839571E+03
Ar  214  0.8157017E+01  0.2816880E+01  0.2150637E+02  0.2047209E+03
Ar  215  0.8129094E+01  0.3766689E+02  0.2460052E+02  0.7032558E+03
Ar  216  0.5986956E+01  0.2519901E+01  0.2436358E+02  0.2140650E+03
Ar  217  0.5284967E+01  0.3766704E+02  0.2686435E+02  0.9442106E+02
Ar  218  0.7920041E+01  0.2246991E+01  0.2733305E+02  0.4420401E+03
Ar  219  0.7923101E+01  0.3761848E+02  0.3027840E+02  0.3093355E+03
Ar  220  0.4979334E+01  0.2798557E+01  0.2930765E+02  0.1494972E+03
Ar  221  0.4998683E+01  0.5664867E+00  0.3252460E+02  0.2395834E+03
Ar  222  0.7837271E+01  0.2719091E+01  0.3243138E+02  0.1451825E+03
Ar  223  0.8173746E+01  0.2033454E+00  0.3559113E+02  0.1409839E+03
Ar  224  0.5566493E+01  0.2788549E+01  0.3497115E+02  0.1698882E+03
Ar  225  0.5266481E+01  0.5850485E+01  0.4247590E+00  0.3147370E+03
Ar  226  0.8870417E+01  0.7996180E+01  0.4350034E+00  0.7736470E+02
Ar  227  0.8505920E+01  0.5617109E+01  0.3349769E+01  0.3228646E+03
Ar  228  0.5779580E+01  0.8227598E+01  0.2798615E+01  0.4689764E+03
Ar  229  0.5439619E+01  0.5595638E+01  0.5165613E+01  0.2191426E+03
Ar  230  0.7805072E+01  0.8258855E+01  0.5523767E+01  0.1068962E+02
Ar  231  0.7872994E+01  0.5344860E+01  0.8120870E+01  0.1700305E+03
Ar  232  0.5214861E+01  0.7803863E+01  0.7859147E+01  0.4782910E+02
Ar  233  0.5691217E+01  0.4983984E+01  0.1065310E+02  0.2299384E+03
Ar  234  0.8182609E+01  0.8127129E+01  0.1114499E+02  0.7783188E+03
Ar  235  0.8789297E+01  0.5230099E+01  0.1367504E+02  0.8619285E+02
Ar  236  0.5621140E+01  0.7981796E+01  0.1361151E+02  0.3896760E+03
Ar  237  0.5673738E+01  0.5802899E+01  0.1624472E+02  0.4895839E+03
Ar  238  0.8568778E+01  0.8003231E+01  0.1572947E+02  0.2641535E+03
Ar  239  0.8299680E+01  0.5600688E+01  0.1879854E+02  0.1911906E+03
Ar  240  0.5567525E+01  0.8103390E+01  0.1904709E+02  0.1058457E+03
Ar  241  0.5740273E+01  0.5564609E+01  0.2180160E+02  0.1873732E+03
Ar  242  0.8517387E+01  0.7853273E+01  0.2137244E+02  0.2129457E+03
Ar  243  0.8453589E+01  0.5657458E+01  0.2433175E+02  0.1953886E+03
Ar  244  0.5736589E+01  0.8094645E+01  0.2429799E+02  0.9572684E+02
Ar  245  0.5788237E+01  0.5399101E+01  0.2681801E+02  0.1422595E+03
Ar  246  0.8724012E+01  0.7665475E+01  0.2683146E+02  0.1058122E+03
Ar  247  0.7898348E+01  0.5034096E+01  0.2942350E+02  0.2398452E+03
Ar  248  0.5997861E+01  0.8253619E+01  0.2947147E+02  0.6132008E+03
Ar  249  0.5570837E+01  0.5615717E+01  0.3265826E+02  0.2079809E+03
Ar  250  0.8629622E+01  0.8561190E+01  0.3256187E+02  0.3651370E+03
Ar  251  0.7931814E+01  0.5311748E+01  0.3549892E+02  0.7164425E+02
Ar  252  0.5589129E+01  0.8075736E+01  0.3499037E+02  0.9015327E+02
Ar  253  0.5273011E+01  0.1005987E+02  0.3775765E+02  0.6499473E+03
Ar  254  0.8122103E+01  0.1372211E+02  0.6080224E-02  0.1342493E+03
Ar  255  0.7820623E+01  0.1110153E+02  0.2491615E+01  0.7645795E+02
Ar  256  0.4782235E+01  0.1322248E+02  0.2917470E+01  0.1845259E+03
Ar  257  0.5084785E+01  0.1049669E+02  0.5082861E+01  0.5835795E+02
Ar  258  0.8015787E+01  0.1324876E+02  0.5349696E+01  0.2122107E+03
Ar  259  0.7551318E+01  0.1049446E+02  0.8155917E+01  0.2159670E+03
Ar  260  0.5517024E+01  0.1331076E+02  0.8298864E+01  0.2115289E+03
Ar  261  0.4899388E+01  0.1041361E+02  0.1097673E+02  0.1568123E+03
Ar  262  0.8049910E+01  0.1335958E+02  0.1076857E+02  0.2183166E+03
Ar  263  0.8475997E+01  0.1100534E+02  0.1354585E+02  0.2923089E+03
Ar  264  0.5458074E+01  0.1296600E+02  0.1320141E+02  0.1105152E+03
Ar  265  0.4583156E+01  0.1089444E+02  0.1603827E+02  0.3312761E+03
Ar  266  0.7667544E+01  0.1322133E+02  0.1606686E+02  0.1296717E+03
Ar  267  0.8062678E+01  0.1034753E+02  0.1870054E+02  0.8386582E+02
Ar  268  0.4904814E+01  0.1364619E+02  0.1888039E+02  0.5404453E+02
Ar  269  0.5591907E+01  0.1057491E+02  0.2115398E+02  0.3325370E+03
Ar  270  0.7957071E+01  0.1388832E+02  0.2150633E+02  0.3063662E+03
Ar  271  0.7992230E+01  0.1130453E+02  0.2423834E+02  0.1639822E+03
Ar  272  0.5317821E+01  0.1386493E+02  0.2404302E+02  0.1903150E+03
Ar  273  0.5561656E+01  0.1069817E+02  0.2657774E+02  0.5214587E+02
Ar  274  0.7643578E+01  0.1327143E+02  0.2745858E+02  0.1353781E+03
Ar  275  0.7765825E+01  0.1093950E+02  0.2986327E+02  0.1879561E+03
Ar  276  0.5137449E+01  0.1331992E+02  0.3028511E+02  0.1816684E+03
Ar  277  0.5743865E+01  0.1069917E+02  0.3272696E+02  0.3691605E+02
Ar  278  0.8398638E+01  0.1316190E+02  0.3285647E+02  0.5749739E+01
Ar  279  0.8046852E+01  0.1055075E+02  0.3561003E+02  0.3944825E+03
Ar  280  0.5110785E+01  0.1322974E+02  0.3553177E+02  0.1229646E+03
Ar  281  0.5291900E+01  0.1609605E+02  0.5246393E+00  0.1890975E+03
Ar  282  0.7889694E+01  0.1918930E+02  0.2388249E+00  0.1343395E+03
Ar  283  0.7873931E+01  0.1593310E+02  0.2629310E+01  0.5208395E+03
Ar  284  0.5256414E+01  0.1876974E+02  0.2887928E+01  0.2832165E+03
Ar  285  0.5415861E+01  0.1601536E+02  0.5602228E+01  0.1666013E+02
Ar  286  0.8086773E+01  0.1883936E+02  0.5517744E+01  0.1861376E+03
Ar  287  0.8006158E+01  0.1632019E+02  0.8120626E+01  0.2318699E+03
Ar  288  0.5664736E+01  0.1954260E+02  0.8067271E+01  0.1859060E+03
Ar  289  0.4939591E+01  0.1617860E+02  0.1021543E+02  0.7520222E+02
Ar  290  0.8112207E+01  0.1927667E+02  0.1125105E+02  0.1615817E+03
Ar  291  0.7893375E+01  0.1566622E+02  0.1352426E+02  0.7675699E+02
Ar  292  0.4946677E+01  0.1922710E+02  0.1333750E+02  0.4809451E+03
Ar  293  0.4637070E+01  0.1628604E+02  0.1627461E+02  0.3160161E+03
Ar  294  0.7796898E+01  0.1893623E+02  0.1540265E+02  0.2949562E+02
Ar  295  0.7530521E+01  0.1625395E+02  0.1877860E+02  0.4944694E+03
Ar  296  0.5198096E+01  0.1900719E+02  0.1864538E+02  0.2512472E+03
Ar  297  0.5026019E+01  0.1614610E+02  0.2157057E+02  0.2592359E+03
Ar  298  0.8419002E+01  0.1816422E+02  0.2159788E+02  0.1004630E+03
Ar  299  0.7746219E+01  0.1627017E+02  0.2508878E+02  0.2986932E+02
Ar  300  0.4835064E+01  0.1796712E+02  0.2479508E+02  0.1558414E+02
Ar  301  0.5118607E+01  0.1554387E+02  0.2747388E+02  0.3622103E+03
Ar  302  0.7265759E+01  0.1862261E+02  0.2760002E+02  0.6430227E+03
Ar  303  0.7729008E+01  0.1644823E+02  0.3017251E+02  0.1411050E+03
Ar  304  0.5088946E+01  0.1892024E+02  0.3012681E+02  0.2962196E+02
Ar  305  0.5122689E+01  0.1579613E+02  0.3274731E+02  0.3164311E+03
Ar  306  0.8523585E+01  0.1951698E+02  0.3240919E+02  0.2089620E+03
Ar  307  0.7710450E+01  0.1628880E+02  0.3530659E+02  0.3586168E+03
Ar  308  0.5227084E+01  0.1864342E+02  0.3504791E+02  0.5875001E+03
Ar  309  0.5452670E+01  0.2162416E+02  0.3744435E+02  0.2308427E+03
Ar  310  0.8075780E+01  0.2391193E+02  0.3756059E+02  0.6677713E+03
Ar  311  0.8714095E+01  0.2135875E+02  0.2832083E+01  0.5420073E+02
Ar  312  0.5665665E+01  0.2395526E+02  0.2320757E+01  0.1323607E+03
Ar  313  0.5793917E+01  0.2180746E+02  0.5194230E+01  0.6193306E+02
Ar  314  0.8649859E+01  0.2449227E+02  0.5117980E+01  0.2548922E+03
Ar  315  0.8409099E+01  0.2209176E+02  0.7708834E+01  0.4700598E+03
Ar  316  0.5729461E+01  0.2452400E+02  0.7204512E+01  0.5720218E+03
Ar  317  0.5736763E+01  0.2242256E+02  0.1056434E+02  0.5712995E+02
Ar  318  0.8627743E+01  0.2450299E+02  0.1054371E+02  0.8896101E+02
Ar  319  0.8026044E+01  0.2194317E+02  0.1323936E+02  0.3922411E+02
Ar  320  0.5430095E+01  0.2496241E+02  0.1349480E+02  0.1396436E+03
Ar  321  0.5352773E+01  0.2187976E+02  0.1646710E+02  0.2646720E+02
Ar  322  0.8564439E+01  0.2461049E+02  0.1542691E+02  0.8106552E+03
Ar  323  0.7934863E+01  0.2228815E+02  0.1887110E+02  0.1717548E+03
Ar  324  0.5138933E+01  0.2465902E+02  0.1935683E+02  0.2117136E+03
Ar  325  0.6087996E+01  0.2119862E+02  0.2149971E+02  0.1801665E+03
Ar  326  0.7496547E+01  0.2432214E+02  0.2194830E+02  0.3465078E+03
Ar  327  0.8153352E+01  0.2151038E+02  0.2519548E+02  0.2014425E+03
Ar  328  0.4907338E+01  0.2403683E+02  0.2450142E+02  0.5918371E+02
Ar  329  0.5175377E+01  0.2129266E+02  0.2759203E+02  0.3922975E+03
Ar  330  0.8465905E+01  0.2442879E+02  0.2745541E+02  0.1556654E+03
Ar  331  0.8073914E+01  0.2174969E+02  0.2969154E+02  0.4794863E+02
Ar  332  0.5545812E+01  0.2417007E+02  0.2971447E+02  0.2740305E+03
Ar  333  0.5483262E+01  0.2160167E+02  0.3265253E+02  0.1253404E+03
Ar  334  0.8132496E+01  0.2431570E+02  0.3252039E+02  0.3169989E+03
Ar  335  0.8335037E+01  0.2188245E+02  0.3472694E+02  0.2105783E+02
Ar  336  0.5548896E+01  0.2403311E+02  0.3515989E+02  0.1748505E+03
Ar  337  0.5096234E+01  0.2677648E+02  0.3748840E+02  0.8285757E+02
Ar  338  0.8356500E+01  0.2956185E+02  0.3018881E-01  0.4581803E+02
Ar  339  0.7652798E+01  0.2703823E+02  0.2367141E+01  0.2576802E+03
Ar  340  0.5008303E+01  0.2936021E+02  0.2690284E+01  0.1486096E+03
Ar  341  0.5326503E+01  0.2710132E+02  0.5175511E+01  0.2331396E+02
Ar  342  0.8105521E+01  0.2952024E+02  0.4937597E+01  0.3307382E+03
Ar  343  0.8065619E+01  0.2681593E+02  0.7616934E+01  0.1250073E+03
Ar  344  0.5755565E+01  0.3007178E+02  0.7668743E+01  0.1680002E+03
Ar  345  0.5612667E+01  0.2619418E+02  0.1031160E+02  0.4988989E+03
Ar  346  0.8061627E+01  0.2930726E+02  0.1027628E+02  0.1417693E+02
Ar  347  0.8611218E+01  0.2707019E+02  0.1298446E+02  0.3105607E+03
Ar  348  0.5637844E+01  0.2875951E+02  0.1271057E+02  0.3619231E+03
Ar  349  0.4903874E+01  0.2727344E+02  0.1628824E+02  0.3044606E+03
Ar  350  0.8292068E+01  0.2888706E+02  0.1608044E+02  0.3089313E+03
Ar  351  0.8265362E+01  0.2634136E+02  0.1847118E+02  0.6830378E+03
Ar  352  0.5783777E+01  0.2914872E+02  0.1908629E+02  0.1605697E+03
Ar  353  0.5373997E+01  0.2728105E+02  0.2217036E+02  0.6478801E+03
Ar  354  0.8115662E+01  0.2975493E+02  0.2146755E+02  0.9849675E+02
Ar  355  0.8171981E+01  0.2726274E+02  0.2411720E+02  0.5624384E+03
Ar  356  0.5442725E+01  0.2997753E+02  0.2479953E+02  0.3051690E+03
Ar  357  0.5517891E+01  0.2698881E+02  0.2682996E+02  0.5900640E+03
Ar  358  0.8013704E+01  0.3015845E+02  0.2704435E+02  0.2622233E+02
Ar  359  0.8097992E+01  0.2715830E+02  0.2991796E+02  0.2421566E+03
Ar  360  0.5272690E+01  0.2999294E+02  0.2991499E+02  0.4580654E+03
Ar  361  0.5268643E+01  0.2677736E+02  0.3255738E+02  0.1916658E+03
Ar  362  0.7866995E+01  0.2967163E+02  0.3209102E+02  0.3185893E+03
Ar  363  0.7692474E+01  0.2672399E+02  0.3507806E+02  0.1853890E+03
Ar  364  0.5566851E+01  0.2969664E+02  0.3560197E+02  0.6843040E+02
Ar  365  0.5687599E+01  0.3242422E+02  0.3773655E+02  0.2117861E+02
Ar  366  0.7827304E+01  0.3514022E+02  0.6402673E+00  0.1525229E+03
Ar  367  0.7987408E+01  0.3184991E+02  0.2442880E+01  0.1317696E+02
Ar  368  0.5194270E+01  0.3529590E+02  0.3118164E+01  0.4562378E+01
Ar  369  0.5287087E+01  0.3262794E+02  0.4971056E+01  0.1022950E+03
Ar  370  0.8160807E+01  0.3475598E+02  0.4841656E+01  0.2862654E+03
Ar  371  0.7959470E+01  0.3263040E+02  0.8272961E+01  0.9780219E+02
Ar  372  0.5087073E+01  0.3513641E+02  0.8069130E+01  0.2965773E+03
Ar  373  0.5916776E+01  0.3239974E+02  0.1110270E+02  0.1361914E+03
Ar  374  0.8054380E+01  0.3531285E+02  0.1039755E+02  0.4707085E+03
Ar  375  0.8531278E+01  0.3202831E+02  0.1326143E+02  0.3017638E+03
Ar  376  0.5288746E+01  0.3493605E+02  0.1326246E+02  0.1232553E+03
Ar  377  0.5262585E+01  0.3095126E+02  0.1557337E+02  0.2719940E+03
Ar  378  0.7437769E+01  0.3460142E+02  0.1612925E+02  0.1717366E+03
Ar  379  0.7517931E+01  0.3233049E+02  0.1863458E+02  0.9880899E+01
Ar  380  0.5183849E+01  0.3509123E+02  0.1919139E+02  0.1137311E+04
Ar  381  0.5476800E+01  0.3233129E+02  0.2158414E+02  0.3838389E+02
Ar  382  0.7872953E+01  0.3480788E+02  0.2160216E+02  0.3246581E+03
Ar  383  0.7828819E+01  0.3237827E+02  0.2463994E+02  0.1622835E+03
Ar  384  0.5654091E+01  0.3534733E+02  0.2449983E+02  0.4188768E+03
Ar  385  0.5587560E+01  0.3283625E+02  0.2755250E+02  0.1505802E+03
Ar  386  0.8483512E+01  0.3476151E+02  0.2705581E+02  0.2375248E+03
Ar  387  0.8082988E+01  0.3277390E+02  0.2986937E+02  0.6642317E+02
Ar  388  0.5416515E+01  0.3544342E+02  0.3036982E+02  0.1947436E+03
Ar  389  0.5444556E+01  0.3255427E+02  0.3223627E+02  0.5447089E+02
Ar  390  0.8391161E+01  0.3506434E+02  0.3238601E+02  0.3751004E+02
Ar  391  0.8503331E+01  0.3258529E+02  0.3499514E+02  0.1786176E+03
Ar  392  0.5089665E+01  0.3525089E+02  0.3454309E+02  0.6654702E+02
Ar  393  0.1100609E+02  0.1758113E+00  0.3765158E+02  0.2882950E+03
Ar  394  0.1398586E+02  0.2508390E+01  0.3744574E+02  0.1184267E+03
Ar  395  0.1396117E+02  0.3763833E+02  0.2355493E+01  0.3705291E+03
Ar  396  0.1044035E+02  0.2800295E+01  0.3272794E+01  0.7451247E+02
Ar  397  0.1090902E+02  0.3759771E+02  0.4616048E+01  0.3030345E+02
Ar  398  0.1368685E+02  0.1779159E+01  0.5356435E+01  0.4211552E+03
Ar  399  0.1357536E+02  0.6340551E-01  0.8464495E+01  0.1503199E+03
Ar  400  0.1080544E+02  0.2798553E+01  0.8803282E+01  0.4032490E+03
Ar  401  0.1115464E+02  0.3739012E+02  0.1131602E+02  0.4336635E+03
Ar  402  0.1341549E+02  0.2844659E+01  0.1086243E+02  0.3816247E+02
Ar  403  0.1341816E+02  0.3720195E+02  0.1361209E+02  0.6021363E+03
Ar  404  0.1049862E+02  0.2432740E+01  0.1361258E+02  0.1319374E+03
Ar  405  0.1028263E+02  0.3716934E+02  0.1600893E+02  0.4194866E+03
Ar  406  0.1288650E+02  0.2240792E+01  0.1588806E+02  0.1758511E+03
Ar  407  0.1298006E+02  0.3776358E+02  0.1904956E+02  0.3415573E+03
Ar  408  0.1042583E+02  0.2341301E+01  0.1890131E+02  0.5046921E+03
Ar  409  0.1048940E+02  0.3774218E+02  0.2163476E+02  0.1297798E+03
Ar  410  0.1335319E+02  0.2360227E+01  0.2173419E+02  0.1091446E+03
Ar  411  0.1313648E+02  0.3775861E+02  0.2445361E+02  0.1884247E+02
Ar  412  0.1054131E+02  0.2678458E+01  0.2477476E+02  0.4201580E+03
Ar  413  0.1087888E+02  0.3753212E+02  0.2734223E+02  0.4259069E+02
Ar  414  0.1343530E+02  0.2658743E+01  0.2742858E+02  0.3997143E+03
Ar  415  0.1347695E+02  0.1965778E+00  0.2961133E+02  0.2390249E+03
Ar  416  0.1070955E+02  0.2152200E+01  0.3002410E+02  0.4054240E+03
Ar  417  0.1086613E+02  0.3769269E+02  0.3299989E+02  0.6028931E+02
Ar  418  0.1362429E+02  0.2333582E+01  0.3258202E+02  0.2574384E+03
Ar  419  0.1342212E+02  0.1667658E-01  0.3515338E+02  0.2193857E+03
Ar  420  0.1125094E+02  0.2651549E+01  0.3501132E+02  0.1816378E+03
Ar  421  0.1111608E+02  0.4979089E+01  0.3763894E+02  0.4291214E+03
Ar  422  0.1387320E+02  0.8182629E+01  0.2995381E+00  0.9448058E+02
Ar  423  0.1404372E+02  0.4718812E+01  0.3109972E+01  0.1790984E+03
Ar  424  0.1158528E+02  0.7665170E+01  0.2821725E+01  0.6343543E+02
Ar  425  0.1095441E+02  0.5222692E+01  0.6033274E+01  0.1270707E+03
Ar  426  0.1366830E+02  0.8411619E+01  0.5747871E+01  0.2361951E+02
Ar  427  0.1364711E+02  0.5288223E+01  0.8060504E+01  0.2269247E+03
Ar  428  0.1032853E+02  0.8835276E+01  0.8078330E+01  0.3064191E+03
Ar  429  0.1090231E+02  0.5932012E+01  0.1069888E+02  0.3363528E+03
Ar  430  0.1382241E+02  0.8219532E+01  0.1018579E+02  0.2844931E+03
Ar  431  0.1345112E+02  0.5110547E+01  0.1326331E+02  0.8996386E+02
Ar  432  0.1144092E+02  0.8435377E+01  0.1329765E+02  0.4410474E+03
Ar  433  0.1133142E+02  0.5673552E+01  0.1593142E+02  0.1662467E+03
Ar  434  0.1376502E+02  0.8119978E+01  0.1581745E+02  0.6944441E+03
Ar  435  0.1354124E+02  0.5040327E+01  0.1861566E+02  0.1031542E+03
Ar  436  0.1162945E+02  0.8244871E+01  0.1883061E+02  0.3878368E+02
Ar  437  0.1101364E+02  0.5223583E+01  0.2150250E+02  0.1288488E+03
Ar  438  0.1355108E+02  0.8249692E+01  0.2180164E+02  0.1858895E+03
Ar  439  0.1342502E+02  0.5835256E+01  0.2419712E+02  0.5257795E+03
Ar  440  0.1063225E+02  0.8273867E+01  0.2387609E+02  0.1911408E+03
Ar  441  0.1109829E+02  0.5371083E+01  0.2706097E+02  0.3139456E+03
Ar  442  0.1293776E+02  0.8435038E+01  0.2651507E+02  0.6077224E+02
Ar  443  0.1336766E+02  0.4970633E+01  0.3007676E+02  0.8370855E+02
Ar  444  0.1079155E+02  0.7364932E+01  0.2995802E+02  0.1773763E+03
Ar  445  0.1021983E+02  0.5183131E+01  0.3263597E+02  0.1957335E+03
Ar  446  0.1359830E+02  0.8213748E+01  0.3233834E+02  0.1155770E+03
Ar  447  0.1383774E+02  0.4899000E+01  0.3494957E+02  0.4667999E+02
Ar  448  0.1130814E+02  0.7590672E+01  0.3483466E+02  0.1211056E+03
Ar  449  0.1108830E+02  0.1046157E+02  0.3775094E+02  0.1830795E+03
Ar  450  0.1369267E+02  0.1352247E+02  0.1608565E+00  0.1152482E+02
Ar  451  0.1345987E+02  0.1109635E+02  0.2897126E+01  0.2883851E+03
Ar  452  0.1107246E+02  0.1357832E+02  0.2802079E+01  0.1035871E+03
Ar  453  0.1076398E+02  0.1077119E+02  0.4844685E+01  0.1268678E+03
Ar  454  0.1362526E+02  0.1319304E+02  0.5556663E+01  0.2381646E+03
Ar  455  0.1324732E+02  0.1134690E+02  0.8899045E+01  0.1654386E+03
Ar  456  0.1060213E+02  0.1366472E+02  0.8697537E+01  0.9477333E+02
Ar  457  0.1063898E+02  0.1077258E+02  0.1067143E+02  0.1715851E+03
Ar  458  0.1325687E+02  0.1363584E+02  0.1157422E+02  0.6460683E+02
Ar  459  0.1375841E+02  0.1090054E+02  0.1315816E+02  0.1809482E+03
Ar  460  0.1048002E+02  0.1350858E+02  0.1383028E+02  0.9919250E+02
Ar  461  0.1144767E+02  0.1051426E+02  0.1645897E+02  0.3295699E+03
Ar  462  0.1368226E+02  0.1349108E+02  0.1556389E+02  0.9450824E+02
Ar  463  0.1413195E+02  0.1118401E+02  0.1854526E+02  0.1082798E+03
Ar  464  0.1154784E+02  0.1366198E+02  0.1821962E+02  0.8400594E+03
Ar  465  0.1068276E+02  0.1068545E+02  0.2135795E+02  0.3367050E+02
Ar  466  0.1346680E+02  0.1330477E+02  0.2125479E+02  0.1188127E+03
Ar  467  0.1291417E+02  0.1085880E+02  0.2445593E+02  0.2994972E+03
Ar  468  0.1061687E+02  0.1332231E+02  0.2409322E+02  0.4194654E+03
Ar  469  0.1054719E+02  0.1113857E+02  0.2753168E+02  0.2685604E+03
Ar  470  0.1302526E+02  0.1370496E+02  0.2679529E+02  0.3071935E+03
Ar  471  0.1393419E+02  0.1090953E+02  0.2911925E+02  0.1816401E+02
Ar  472  0.1016609E+02  0.1378460E+02  0.2966998E+02  0.6555465E+01
Ar  473  0.1090274E+02  0.1073285E+02  0.3146809E+02  0.5020625E+02
Ar  474  0.1332702E+02  0.1346097E+02  0.3156789E+02  0.1299656E+03
Ar  475  0.1363752E+02  0.1028120E+02  0.3489061E+02  0.5517855E+03
Ar  476  0.1144924E+02  0.1311443E+02  0.3450018E+02  0.6680791E+02
Ar  477  0.1098412E+02  0.1571059E+02  0.6827952E-01  0.6644306E+02
Ar  478  0.1331631E+02  0.1861535E+02  0.2482519E+00  0.1776666E+03
Ar  479  0.1362356E+02  0.1636519E+02  0.3157671E+01  0.4237739E+02
Ar  480  0.1063360E+02  0.1847406E+02  0.2143241E+01  0.2084975E+03
Ar  481  0.1075667E+02  0.1555881E+02  0.5649103E+01  0.6813152E+02
Ar  482  0.1281004E+02  0.1847551E+02  0.6084350E+01  0.4790518E+03
Ar  483  0.1328715E+02  0.1613206E+02  0.8694108E+01  0.1492155E+03
Ar  484  0.1070136E+02  0.1880826E+02  0.8492369E+01  0.5908350E+02
Ar  485  0.1042611E+02  0.1627963E+02  0.1111115E+02  0.5882621E+02
Ar  486  0.1377672E+02  0.1906183E+02  0.1045529E+02  0.2968894E+02
Ar  487  0.1334736E+02  0.1660541E+02  0.1354846E+02  0.1497003E+03
Ar  488  0.1082143E+02  0.1907061E+02  0.1320814E+02  0.1549826E+03
Ar  489  0.1063300E+02  0.1682847E+02  0.1635415E+02  0.1701575E+03
Ar  490  0.1351493E+02  0.1878181E+02  0.1621142E+02  0.1685263E+03
Ar  491  0.1332242E+02  0.1635057E+02  0.1833942E+02  0.1454046E+03
Ar  492  0.1075184E+02  0.1932071E+02  0.1899801E+02  0.9291710E+02
Ar  493  0.1135638E+02  0.1635273E+02  0.2162380E+02  0.3823792E+03
Ar  494  0.1330342E+02  0.1941427E+02  0.2117250E+02  0.2146207E+03
Ar  495  0.1381147E+02  0.1601296E+02  0.2438803E+02  0.1437056E+03
Ar  496  0.1049161E+02  0.1886813E+02  0.2435916E+02  0.3103321E+03
Ar  497  0.1076027E+02  0.1647639E+02  0.2740286E+02  0.3937511E+02
Ar  498  0.1333995E+02  0.1912015E+02  0.2695741E+02  0.2075748E+03
Ar  499  0.1339678E+02  0.1627947E+02  0.2939459E+02  0.2522248E+03
Ar  500  0.1115599E+02  0.1927801E+02  0.2980806E+02  0.2181772E+03
Ar  501  0.1069835E+02  0.1651209E+02  0.3219341E+02  0.3517675E+03
Ar  502  0.1323748E+02  0.1898923E+02  0.3243913E+02  0.4215746E+01
Ar  503  0.1314044E+02  0.1618606E+02  0.3523800E+02  0.1369177E+03
Ar  504  0.1015114E+02  0.1859040E+02  0.3532310E+02  0.3253206E+03
Ar  505  0.1077767E+02  0.2183047E+02  0.3750385E+02  0.3529371E+03
Ar  506  0.1413863E+02  0.2402980E+02  0.1870780E+00  0.1342475E+03
Ar  507  0.1328863E+02  0.2132194E+02  0.2721738E+01  0.2919739E+03
Ar  508  0.1126243E+02  0.2465310E+02  0.2299452E+01  0.2529038E+02
Ar  509  0.1080804E+02  0.2128071E+02  0.5503125E+01  0.2963012E+03
Ar  510  0.1322294E+02  0.2405793E+02  0.5361953E+01  0.1608920E+03
Ar  511  0.1391504E+02  0.2179729E+02  0.7616892E+01  0.4820734E+03
Ar  512  0.1104532E+02  0.2464288E+02  0.7965716E+01  0.1098402E+03
Ar  513  0.1092154E+02  0.2166582E+02  0.1039779E+02  0.1638245E+03
Ar  514  0.1343615E+02  0.2396847E+02  0.1023415E+02  0.3705222E+03
Ar  515  0.1384017E+02  0.2135547E+02  0.1376901E+02  0.6120929E+03
Ar  516  0.1147648E+02  0.2381507E+02  0.1316890E+02  0.1507171E+03
Ar  517  0.1066572E+02  0.2174131E+02  0.1601066E+02  0.2478199E+03
Ar  518  0.1367665E+02  0.2445357E+02  0.1604716E+02  0.3364679E+03
Ar  519  0.1339045E+02  0.2167225E+02  0.1842064E+02  0.3221865E+03
Ar  520  0.1093896E+02  0.2409190E+02  0.1876981E+02  0.1981540E+03
Ar  521  0.1009856E+02  0.2148386E+02  0.2169125E+02  0.1278073E+03
Ar  522  0.1350585E+02  0.2362567E+02  0.2135760E+02  0.1857349E+03
Ar  523  0.1319894E+02  0.2169323E+02  0.2427873E+02  0.3332378E+03
Ar  524  0.1034148E+02  0.2418920E+02  0.2464465E+02  0.4858216E+02
Ar  525  0.1095151E+02  0.2184257E+02  0.2732860E+02  0.3454406E+03
Ar  526  0.1357471E+02  0.2430013E+02  0.2706572E+02  0.5811386E+02
Ar  527  0.1386167E+02  0.2163632E+02  0.2964294E+02  0.3833818E+03
Ar  528  0.1104132E+02  0.2412595E+02  0.2979281E+02  0.3020435E+03
Ar  529  0.1139046E+02  0.2199123E+02  0.3257800E+02  0.1151010E+03
Ar  530  0.1322863E+02  0.2509197E+02  0.3207422E+02  0.1508334E+03
Ar  531  0.1429188E+02  0.2162246E+02  0.3536396E+02  0.4472494E+03
Ar  532  0.1132721E+02  0.2428469E+02  0.3516894E+02  0.9835894E+02
Ar  533  0.1057677E+02  0.2713780E+02  0.3720755E+02  0.4501971E+02
Ar  534  0.1334419E+02  0.2946387E+02  0.3775056E+02  0.8501309E+02
Ar  535  0.1351491E+02  0.2715014E+02  0.3014722E+01  0.7875040E+03
Ar  536  0.1089730E+02  0.2951943E+02  0.2686698E+01  0.2091796E+03
Ar  537  0.1114733E+02  0.2723921E+02  0.5808861E+01  0.1083734E+03
Ar  538  0.1369856E+02  0.2967378E+02  0.5951207E+01  0.2509981E+03
Ar  539  0.1355162E+02  0.2723763E+02  0.8078088E+01  0.2477968E+03
Ar  540  0.1058111E+02  0.2959522E+02  0.8284789E+01  0.2418959E+03
Ar  541  0.1099174E+02  0.2705902E+02  0.1047890E+02  0.1906679E+03
Ar  542  0.1321816E+02  0.2954753E+02  0.1074639E+02  0.1969957E+03
Ar  543  0.1383629E+02  0.2689085E+02  0.1349937E+02  0.1154220E+03
Ar  544  0.1100716E+02  0.2916010E+02  0.1384543E+02  0.3346326E+03
Ar  545  0.1130322E+02  0.2697557E+02  0.1628007E+02  0.2942884E+03
Ar  546  0.1370777E+02  0.2974592E+02  0.1621945E+02  0.7838837E+03
Ar  547  0.1357813E+02  0.2691871E+02  0.1876497E+02  0.2561510E+03
Ar  548  0.1050106E+02  0.2932037E+02  0.1895837E+02  0.5913802E+02
Ar  549  0.1094862E+02  0.2670554E+02  0.2147849E+02  0.4895657E+02
Ar  550  0.1333729E+02  0.2959122E+02  0.2182709E+02  0.3844132E+03
Ar  551  0.1287968E+02  0.2679039E+02  0.2443908E+02  0.3854189E+02
Ar  552  0.1043077E+02  0.2991201E+02  0.2392487E+02  0.9083433E+02
Ar  553  0.1034179E+02  0.2720138E+02  0.2730770E+02  0.4672312E+03
Ar  554  0.1330809E+02  0.2989688E+02  0.2638521E+02  0.2658517E+02
Ar  555  0.1341008E+02  0.2708167E+02  0.2887493E+02  0.1768687E+03
Ar  556  0.1053791E+02  0.2991013E+02  0.2967107E+02  0.1500329E+03
Ar  557  0.1067792E+02  0.2711207E+02  0.3278429E+02  0.2257460E+02
Ar  558  0.1343946E+02  0.2964267E+02  0.3182779E+02  0.7980075E+03
Ar  559  0.1372608E+02  0.2747025E+02  0.3482237E+02  0.3072316E+03
Ar  560  0.1089426E+02  0.2984668E+02  0.3499578E+02  0.1799963E+02
Ar  561  0.1110672E+02  0.3224377E+02  0.3774696E+02  0.9719997E+02
Ar  562  0.1329064E+02  0.3496339E+02  0.3434516E+00  0.8604737E+02
Ar  563  0.1364520E+02  0.3222699E+02  0.2711835E+01  0.3830715E+03
Ar  564  0.1084794E+02  0.3448273E+02  0.2914361E+01  0.7570902E+03
Ar  565  0.1065601E+02  0.3205212E+02  0.5301158E+01  0.7499277E+02
Ar  566  0.1382000E+02  0.3505548E+02  0.5159500E+01  0.4513552E+03
Ar  567  0.1347882E+02  0.3261597E+02  0.7966794E+01  0.2242622E+03
Ar  568  0.1063764E+02  0.3501815E+02  0.7579922E+01  0.1422467E+03
Ar  569  0.1055393E+02  0.3229069E+02  0.1066513E+02  0.6592872E+03
Ar  570  0.1337525E+02  0.3495099E+02  0.1055363E+02  0.4373161E+02
Ar  571  0.1334756E+02  0.3233927E+02  0.1375230E+02  0.1222541E+03
Ar  572  0.1036457E+02  0.3472921E+02  0.1351258E+02  0.1611577E+03
Ar  573  0.1098544E+02  0.3223622E+02  0.1608715E+02  0.1107564E+03
Ar  574  0.1345295E+02  0.3513381E+02  0.1608585E+02  0.3200806E+03
Ar  575  0.1357357E+02  0.3211520E+02  0.1862110E+02  0.7568905E+03
Ar  576  0.1098482E+02  0.3495504E+02  0.1871081E+02  0.2806631E+02
Ar  577  0.1036688E+02  0.3231802E+02  0.2122033E+02  0.6725185E+03
Ar  578  0.1373049E+02  0.3504398E+02  0.2165457E+02  0.3835372E+03
Ar  579  0.1302843E+02  0.3240275E+02  0.2372975E+02  0.1402857E+03
Ar  580  0.1062950E+02  0.3534256E+02  0.2389814E+02  0.5217692E+03
Ar  581  0.1065527E+02  0.3232621E+02  0.2664690E+02  0.8743089E+03
Ar  582  0.1311385E+02  0.3524879E+02  0.2724154E+02  0.3228633E+03
Ar  583  0.1280392E+02  0.3230092E+02  0.2918858E+02  0.2031910E+03
Ar  584  0.1066103E+02  0.3511852E+02  0.2967269E+02  0.4267996E+03
Ar  585  0.1084509E+02  0.3241563E+02  0.3245566E+02  0.2132382E+02
Ar  586  0.1342875E+02  0.3468866E+02  0.3206248E+02  0.5436222E+03
Ar  587  0.1386116E+02  0.3239532E+02  0.3475273E+02  0.1817132E+03
Ar  588  0.1127928E+02  0.3501643E+02  0.3547859E+02  0.1794494E+03
Ar  589  0.1666737E+02  0.3777668E+02  0.3720139E+02  0.1278035E+03
Ar  590  0.1915723E+02  0.3103929E+01  0.3742314E+02  0.1717661E+03
Ar  591  0.1911544E+02  0.3768691E+02  0.2581364E+01  0.6760403E+02
Ar  592  0.1676281E+02  0.2448339E+01  0.2587502E+01  0.1006989E+03
Ar  593  0.1656253E+02  0.3754039E+02  0.5215403E+01  0.7740097E+02
Ar  594  0.1927690E+02  0.2956369E+01  0.5223954E+01  0.1228534E+03
Ar  595  0.1962472E+02  0.3735457E+02  0.8314744E+01  0.4650559E+03
Ar  596  0.1632874E+02  0.1965364E+01  0.8317664E+01  0.8505262E+02
Ar  597  0.1616965E+02  0.3752767E+02  0.1150090E+02  0.1827427E+03
Ar  598  0.1858296E+02  0.2865033E+01  0.1083426E+02  0.1734506E+03
Ar  599  0.1916773E+02  0.3772129E+02  0.1381183E+02  0.2220484E+03
Ar  600  0.1577837E+02  0.2497426E+01  0.1433668E+02  0.7311313E+02
Ar  601  0.1621505E+02  0.3705657E+02  0.1618808E+02  0.3195992E+03
Ar  602  0.1883535E+02  0.2499443E+01  0.1636159E+02  0.2952584E+03
Ar  603  0.1860203E+02  0.3731262E+02  0.1865838E+02  0.1814740E+03
Ar  604  0.1574867E+02  0.2187910E+01  0.1788835E+02  0.1152331E+03
Ar  605  0.1619589E+02  0.4171692E+00  0.2104520E+02  0.1847372E+02
Ar  606  0.1878057E+02  0.2663337E+01  0.2109241E+02  0.7436226E+03
Ar  607  0.1852904E+02  0.3751417E+02  0.2443363E+02  0.2525017E+03
Ar  608  0.1586706E+02  0.2471670E+01  0.2464346E+02  0.3403005E+03
Ar  609  0.1617716E+02  0.3736779E+02  0.2697474E+02  0.1149833E+03
Ar  610  0.1854245E+02  0.2546387E+01  0.2752670E+02  0.4845850E+02
Ar  611  0.1871325E+02  0.3754446E+02  0.2974537E+02  0.2320741E+02
Ar  612  0.1606138E+02  0.2511523E+01  0.3016123E+02  0.4182958E+03
Ar  613  0.1607979E+02  0.3748837E+02  0.3263878E+02  0.1076784E+03
Ar  614  0.1920225E+02  0.2628405E+01  0.3216896E+02  0.1422416E+03
Ar  615  0.1901165E+02  0.1638386E+00  0.3472359E+02  0.9088505E+02
Ar  616  0.1668475E+02  0.2776787E+01  0.3496280E+02  0.1440546E+03
Ar  617  0.1627377E+02  0.5458207E+01  0.3776157E+02  0.1033694E+03
Ar  618  0.1903582E+02  0.8359230E+01  0.3165980E+00  0.7222048E+02
Ar  619  0.1922937E+02  0.5197128E+01  0.2408540E+01  0.4111400E+03
Ar  620  0.1621661E+02  0.7426247E+01  0.2959389E+01  0.1789970E+03
Ar  621  0.1651547E+02  0.4709736E+01  0.5649836E+01  0.1999495E+03
Ar  622  0.1904259E+02  0.7948227E+01  0.4998873E+01  0.2087747E+03
Ar  623  0.1939556E+02  0.5494305E+01  0.7790049E+01  0.8462736E+02
Ar  624  0.1656984E+02  0.7605735E+01  0.7939373E+01  0.6048129E+03
Ar  625  0.1656300E+02  0.5817162E+01  0.1057527E+02  0.7581497E+03
Ar  626  0.1985828E+02  0.7737031E+01  0.1069678E+02  0.1679345E+03
Ar  627  0.1893419E+02  0.5405346E+01  0.1299363E+02  0.7879205E+02
Ar  628  0.1680041E+02  0.8467469E+01  0.1291844E+02  0.3282383E+03
Ar  629  0.1599797E+02  0.5441918E+01  0.1593697E+02  0.4478475E+02
Ar  630  0.1891897E+02  0.7873330E+01  0.1625842E+02  0.1148123E+03
Ar  631  0.1867961E+02  0.5623727E+01  0.1870440E+02  0.1880154E+03
Ar  632  0.1604013E+02  0.8108414E+01  0.1930465E+02  0.1233582E+03
Ar  633  0.1598996E+02  0.5097642E+01  0.2163928E+02  0.2346852E+03
Ar  634  0.1864368E+02  0.7621368E+01  0.2166218E+02  0.8490649E+02
Ar  635  0.1847117E+02  0.5011819E+01  0.2410550E+02  0.2183007E+03
Ar  636  0.1650150E+02  0.7939815E+01  0.2398668E+02  0.1857399E+03
Ar  637  0.1601145E+02  0.5175778E+01  0.2691919E+02  0.9667310E+02
Ar  638  0.1877798E+02  0.7755896E+01  0.2660077E+02  0.8868377E+02
Ar  639  0.1897670E+02  0.5480024E+01  0.2954155E+02  0.7351824E+02
Ar  640  0.1588729E+02  0.7893682E+01  0.2972229E+02  0.1253344E+03
Ar  641  0.1625792E+02  0.5406493E+01  0.3235148E+02  0.9208887E+02
Ar  642  0.1870601E+02  0.7589350E+01  0.3191879E+02  0.4291401E+03
Ar  643  0.1896256E+02  0.5233999E+01  0.3487398E+02  0.3695046E+03
Ar  644  0.1631952E+02  0.7933797E+01  0.3504056E+02  0.9525672E+02
Ar  645  0.1606570E+02  0.1072010E+02  0.2396111E+00  0.4078398E+02
Ar  646  0.1859642E+02  0.1332961E+02  0.3745190E+02  0.4464632E+03
Ar  647  0.1849958E+02  0.1067031E+02  0.3060934E+01  0.1463797E+03
Ar  648  0.1622726E+02  0.1352710E+02  0.2857665E+01  0.3559292E+03
Ar  649  0.1624870E+02  0.1066356E+02  0.5533132E+01  0.5458464E+02
Ar  650  0.1895422E+02  0.1346589E+02  0.5613888E+01  0.7833251E+02
Ar  651  0.1891565E+02  0.1033081E+02  0.7636692E+01  0.1413320E+03
Ar  652  0.1594869E+02  0.1340038E+02  0.8256419E+01  0.1359795E+03
Ar  653  0.1663431E+02  0.1066794E+02  0.1001944E+02  0.3151959E+03
Ar  654  0.1889100E+02  0.1359130E+02  0.9676239E+01  0.3973375E+03
Ar  655  0.1944911E+02  0.1080520E+02  0.1377365E+02  0.8547722E+02
Ar  656  0.1640064E+02  0.1319635E+02  0.1326564E+02  0.3787304E+03
Ar  657  0.1640009E+02  0.1054079E+02  0.1556804E+02  0.1841010E+03
Ar  658  0.1884684E+02  0.1349830E+02  0.1626078E+02  0.1851972E+03
Ar  659  0.1850539E+02  0.1058644E+02  0.1909715E+02  0.5503386E+03
Ar  660  0.1619098E+02  0.1394022E+02  0.1846397E+02  0.1900400E+03
Ar  661  0.1605617E+02  0.1082920E+02  0.2169606E+02  0.2291610E+03
Ar  662  0.1873167E+02  0.1315792E+02  0.2154850E+02  0.6832120E+02
Ar  663  0.1882535E+02  0.1104089E+02  0.2418312E+02  0.2819225E+02
Ar  664  0.1608565E+02  0.1346292E+02  0.2364519E+02  0.2824115E+03
Ar  665  0.1572207E+02  0.1086148E+02  0.2621109E+02  0.6013707E+02
Ar  666  0.1890408E+02  0.1337539E+02  0.2686616E+02  0.3091728E+03
Ar  667  0.1860721E+02  0.1058548E+02  0.2932036E+02  0.4887190E+03
Ar  668  0.1623885E+02  0.1382320E+02  0.2930741E+02  0.2438431E+03
Ar  669  0.1660486E+02  0.1042010E+02  0.3209919E+02  0.1192860E+03
Ar  670  0.1881604E+02  0.1365126E+02  0.3214984E+02  0.4501329E+03
Ar  671  0.1857128E+02  0.1062968E+02  0.3500297E+02  0.6222729E+02
Ar  672  0.1594019E+02  0.1378876E+02  0.3478626E+02  0.3056997E+03
Ar  673  0.1619706E+02  0.1609524E+02  0.1912992E+00  0.3123596E+03
Ar  674  0.1890583E+02  0.1883906E+02  0.3755925E+02  0.1539936E+03
Ar  675  0.1898534E+02  0.1610228E+02  0.2621018E+01  0.1238958E+03
Ar  676  0.1627234E+02  0.1886305E+02  0.2959373E+01  0.8935063E+02
Ar  677  0.1606884E+02  0.1634337E+02  0.6052565E+01  0.1223077E+03
Ar  678  0.1891604E+02  0.1893605E+02  0.5113233E+01  0.4057627E+03
Ar  679  0.1922415E+02  0.1646728E+02  0.7722954E+01  0.1705789E+02
Ar  680  0.1706839E+02  0.1908751E+02  0.7891796E+01  0.9346222E+02
Ar  681  0.1620141E+02  0.1616032E+02  0.1065008E+02  0.2083686E+03
Ar  682  0.1941162E+02  0.1880246E+02  0.1054438E+02  0.1519762E+03
Ar  683  0.1933193E+02  0.1661800E+02  0.1317522E+02  0.5305501E+01
Ar  684  0.1629510E+02  0.1885408E+02  0.1340497E+02  0.8700371E+02
Ar  685  0.1633694E+02  0.1604699E+02  0.1546757E+02  0.4310128E+03
Ar  686  0.1863395E+02  0.1895515E+02  0.1646970E+02  0.1213540E+03
Ar  687  0.1833539E+02  0.1634314E+02  0.1924515E+02  0.4651990E+03
Ar  688  0.1618487E+02  0.1878053E+02  0.1879731E+02  0.1736562E+03
Ar  689  0.1533215E+02  0.1635213E+02  0.2116074E+02  0.3177229E+03
Ar  690  0.1934574E+02  0.1900661E+02  0.2155804E+02  0.3676128E+02
Ar  691  0.1847757E+02  0.1585216E+02  0.2383880E+02  0.2142347E+02
Ar  692  0.1634011E+02  0.1899903E+02  0.2416084E+02  0.1567173E+03
Ar  693  0.1601996E+02  0.1648162E+02  0.2707260E+02  0.3894362E+03
Ar  694  0.1927220E+02  0.1881169E+02  0.2650769E+02  0.3606801E+02
Ar  695  0.1885638E+02  0.1638688E+02  0.2923610E+02  0.5122675E+02
Ar  696  0.1607471E+02  0.1900950E+02  0.2963024E+02  0.1466151E+03
Ar  697  0.1578383E+02  0.1627041E+02  0.3206794E+02  0.2192175E+03
Ar  698  0.1901553E+02  0.1850903E+02  0.3239667E+02  0.5552825E+03
Ar  699  0.1885512E+02  0.1588020E+02  0.3555216E+02  0.2764313E+03
Ar  700  0.1620103E+02  0.1832585E+02  0.3541148E+02  0.9817550E+02
Ar  701  0.1682190E+02  0.2167755E+02  0.3774980E+02  0.1764001E+03
Ar  702  0.1897570E+02  0.2468514E+02  0.1753976E+00  0.8856322E+02
Ar  703  0.1939759E+02  0.2117558E+02  0.2800673E+01  0.2426741E+03
Ar  704  0.1686423E+02  0.2450346E+02  0.2858136E+01  0.1707244E+03
Ar  705  0.1634809E+02  0.2204253E+02  0.5165900E+01  0.1042878E+03
Ar  706  0.1901018E+02  0.2444851E+02  0.5529806E+01  0.1461735E+03
Ar  707  0.1896380E+02  0.2215207E+02  0.8144929E+01  0.2830666E+03
Ar  708  0.1619795E+02  0.2457273E+02  0.8211537E+01  0.1005166E+03
Ar  709  0.1635346E+02  0.2189442E+02  0.1084978E+02  0.9417791E+02
Ar  710  0.1901668E+02  0.2414014E+02  0.1101167E+02  0.1957434E+03
Ar  711  0.1890573E+02  0.2130500E+02  0.1351911E+02  0.9496217E+02
Ar  712  0.1595885E+02  0.2406054E+02  0.1363820E+02  0.3267345E+03
Ar  713  0.1630671E+02  0.2154803E+02  0.1623516E+02  0.4007560E+03
Ar  714  0.1857864E+02  0.2420257E+02  0.1589087E+02  0.4771795E+03
Ar  715  0.1884703E+02  0.2142544E+02  0.1927954E+02  0.2568979E+03
Ar  716  0.1624945E+02  0.2387952E+02  0.1873354E+02  0.3434744E+02
Ar  717  0.1636440E+02  0.2156493E+02  0.2191904E+02  0.3856943E+03
Ar  718  0.1907276E+02  0.2431658E+02  0.2153506E+02  0.1105216E+03
Ar  719  0.1917302E+02  0.2162023E+02  0.2414833E+02  0.1632623E+03
Ar  720  0.1674469E+02  0.2387814E+02  0.2429861E+02  0.1556500E+03
Ar  721  0.1635228E+02  0.2142868E+02  0.2695116E+02  0.6407036E+03
Ar  722  0.1842365E+02  0.2433896E+02  0.2730306E+02  0.4756268E+03
Ar  723  0.1844105E+02  0.2195031E+02  0.2983635E+02  0.9792700E+02
Ar  724  0.1602323E+02  0.2449068E+02  0.2995985E+02  0.2188330E+03
Ar  725  0.1621961E+02  0.2149989E+02  0.3218591E+02  0.2939306E+03
Ar  726  0.1925854E+02  0.2491237E+02  0.3285312E+02  0.1576218E+03
Ar  727  0.1878093E+02  0.2145345E+02  0.3504955E+02  0.3202394E+03
Ar  728  0.1594728E+02  0.2460511E+02  0.3465528E+02  0.1307454E+03
Ar  729  0.1633244E+02  0.2720174E+02  0.3759242E+02  0.4691570E+03
Ar  730  0.1914743E+02  0.2978241E+02  0.2416614E+00  0.2634977E+03
Ar  731  0.1914891E+02  0.2740298E+02  0.2481980E+01  0.1865223E+03
Ar  732  0.1614861E+02  0.2982265E+02  0.3062759E+01  0.1627966E+03
Ar  733  0.1586481E+02  0.2712656E+02  0.5488254E+01  0.1028435E+03
Ar  734  0.1888906E+02  0.2995338E+02  0.5329101E+01  0.2509865E+03
Ar  735  0.1870836E+02  0.2696815E+02  0.8366672E+01  0.3418237E+03
Ar  736  0.1677724E+02  0.2999284E+02  0.7785724E+01  0.1136606E+03
Ar  737  0.1572594E+02  0.2714713E+02  0.1089254E+02  0.3159940E+03
Ar  738  0.1922695E+02  0.2969419E+02  0.1042275E+02  0.2205362E+03
Ar  739  0.1918885E+02  0.2763175E+02  0.1332746E+02  0.2333008E+03
Ar  740  0.1632485E+02  0.2959899E+02  0.1303071E+02  0.8927216E+03
Ar  741  0.1610033E+02  0.2712085E+02  0.1652544E+02  0.8388775E+02
Ar  742  0.1835876E+02  0.2996664E+02  0.1631741E+02  0.5845376E+03
Ar  743  0.1887473E+02  0.2727814E+02  0.1859956E+02  0.2118998E+03
Ar  744  0.1578842E+02  0.2971249E+02  0.1906265E+02  0.8628443E+02
Ar  745  0.1643111E+02  0.2643141E+02  0.2187179E+02  0.3185923E+03
Ar  746  0.1864229E+02  0.2927112E+02  0.2155426E+02  0.1861921E+02
Ar  747  0.1882293E+02  0.2694390E+02  0.2438878E+02  0.5513537E+02
Ar  748  0.1624901E+02  0.2977230E+02  0.2446634E+02  0.1774627E+03
Ar  749  0.1598264E+02  0.2690329E+02  0.2657519E+02  0.8931110E+02
Ar  750  0.1884263E+02  0.3022559E+02  0.2692237E+02  0.3287632E+02
Ar  751  0.1871601E+02  0.2710471E+02  0.2949359E+02  0.3215596E+03
Ar  752  0.1599035E+02  0.3002090E+02  0.2913144E+02  0.6674242E+02
Ar  753  0.1620256E+02  0.2734021E+02  0.3232935E+02  0.2207923E+03
Ar  754  0.1917410E+02  0.2946738E+02  0.3223981E+02  0.1179237E+03
Ar  755  0.1921978E+02  0.2751506E+02  0.3521073E+02  0.1010452E+03
Ar  756  0.1665188E+02  0.2992729E+02  0.3517596E+02  0.1728844E+03
Ar  757  0.1613110E+02  0.3206494E+02  0.6486571E-01  0.1418973E+03
Ar  758  0.1926638E+02  0.3517138E+02  0.4068532E-01  0.3948306E+03
Ar  759  0.1877345E+02  0.3276378E+02  0.2533747E+01  0.2487195E+02
Ar  760  0.1619119E+02  0.3492771E+02  0.2588414E+01  0.7613252E+03
Ar  761  0.1640705E+02  0.3232878E+02  0.5236174E+01  0.5423888E+02
Ar  762  0.1912519E+02  0.3501444E+02  0.5447670E+01  0.9815043E+02
Ar  763  0.1901482E+02  0.3241055E+02  0.8258518E+01  0.1360523E+03
Ar  764  0.1636448E+02  0.3513896E+02  0.7931005E+01  0.1541678E+03
Ar  765  0.1596138E+02  0.3202922E+02  0.1061090E+02  0.1746111E+03
Ar  766  0.1895621E+02  0.3483484E+02  0.1074503E+02  0.1287627E+03
Ar  767  0.1882687E+02  0.3213988E+02  0.1285381E+02  0.3712075E+02
Ar  768  0.1630515E+02  0.3465301E+02  0.1349172E+02  0.5389574E+03
Ar  769  0.1630623E+02  0.3266026E+02  0.1652100E+02  0.8789774E+02
Ar  770  0.1904542E+02  0.3475136E+02  0.1642782E+02  0.5942851E+02
Ar  771  0.1914575E+02  0.3220105E+02  0.1891731E+02  0.2121512E+02
Ar  772  0.1614451E+02  0.3465455E+02  0.1937564E+02  0.1684039E+03
Ar  773  0.1612169E+02  0.3222054E+02  0.2217222E+02  0.4999575E+02
Ar  774  0.1900282E+02  0.3491816E+02  0.2146516E+02  0.2027796E+02
Ar  775  0.1880003E+02  0.3256469E+02  0.2407064E+02  0.4274095E+03
Ar  776  0.1567355E+02  0.3470348E+02  0.2476795E+02  0.2969285E+03
Ar  777  0.1575603E+02  0.3229164E+02  0.2676981E+02  0.5680374E+02
Ar  778  0.1889946E+02  0.3464908E+02  0.2739772E+02  0.5208955E+03
Ar  779  0.1856582E+02  0.3220090E+02  0.2971092E+02  0.9857698E+02
Ar  780  0.1610306E+02  0.3488288E+02  0.2976687E+02  0.6294012E+02
Ar  781  0.1625838E+02  0.3191287E+02  0.3224105E+02  0.1429080E+03
Ar  782  0.1902707E+02  0.3543618E+02  0.3255026E+02  0.5512184E+03
Ar  783  0.1926100E+02  0.3255336E+02  0.3555549E+02  0.8683074E+02
Ar  784  0.1625179E+02  0.3486129E+02  0.3516296E+02  0.2026230E+03
Ar  785  0.2151918E+02  0.3125583E+00  0.3747350E+02  0.6174690E+03
Ar  786  0.2432649E+02  0.2939619E+01  0.3755956E+02  0.3253206E+03
Ar  787  0.2403173E+02  0.4842108E+00  0.2661740E+01  0.4113435E+03
Ar  788  0.2194826E+02  0.2896866E+01  0.2265843E+01  0.6150430E+02
Ar  789  0.2166364E+02  0.7095194E-01  0.5162697E+01  0.2239189E+03
Ar  790  0.2414153E+02  0.2800652E+01  0.5310011E+01  0.6052843E+02
Ar  791  0.2382428E+02  0.1773261E+00  0.8591019E+01  0.1439351E+02
Ar  792  0.2140995E+02  0.2459592E+01  0.7878863E+01  0.1399061E+03
Ar  793  0.2182918E+02  0.2395719E-01  0.1101245E+02  0.1547334E+03
Ar  794  0.2430870E+02  0.2792475E+01  0.1094157E+02  0.3674901E+03
Ar  795  0.2439629E+02  0.3774949E+02  0.1362616E+02  0.1018786E+03
Ar  796  0.2151449E+02  0.2626349E+01  0.1375223E+02  0.8381239E+02
Ar  797  0.2187546E+02  0.3733968E+02  0.1638403E+02  0.3560205E+02
Ar  798  0.2419077E+02  0.2769676E+01  0.1576952E+02  0.1169654E+03
Ar  799  0.2415021E+02  0.3722586E+02  0.1945016E+02  0.3248755E+03
Ar  800  0.2269313E+02  0.2612422E+01  0.1879513E+02  0.2375588E+03
Ar  801  0.2150794E+02  0.3743021E+02  0.2153439E+02  0.2150143E+03
Ar  802  0.2445212E+02  0.2489277E+01  0.2219761E+02  0.1073088E+03
Ar  803  0.2416019E+02  0.3723950E+02  0.2426946E+02  0.5489865E+02
Ar  804  0.2121324E+02  0.2195939E+01  0.2417456E+02  0.2598121E+03
Ar  805  0.2179655E+02  0.1758465E+00  0.2712577E+02  0.1025476E+02
Ar  806  0.2409068E+02  0.3307694E+01  0.2627035E+02  0.2771780E+03
Ar  807  0.2442083E+02  0.2300901E+00  0.2954751E+02  0.2686403E+02
Ar  808  0.2161510E+02  0.2851284E+01  0.2937372E+02  0.2030335E+03
Ar  809  0.2171609E+02  0.4413004E+00  0.3203638E+02  0.1736297E+03
Ar  810  0.2442629E+02  0.2954626E+01  0.3176693E+02  0.1481432E+03
Ar  811  0.2438793E+02  0.4986869E+00  0.3485761E+02  0.3217317E+02
Ar  812  0.2210367E+02  0.2944483E+01  0.3477406E+02  0.5614656E+02
Ar  813  0.2175736E+02  0.5650935E+01  0.3764911E+02  0.1874277E+03
Ar  814  0.2439329E+02  0.8218482E+01  0.3755198E+02  0.1722746E+03
Ar  815  0.2433733E+02  0.5767512E+01  0.2158370E+01  0.1856098E+03
Ar  816  0.2215330E+02  0.8289394E+01  0.2611557E+01  0.7098399E+02
Ar  817  0.2175994E+02  0.5433383E+01  0.4575193E+01  0.4227798E+03
Ar  818  0.2439463E+02  0.8094750E+01  0.5035390E+01  0.8426714E+02
Ar  819  0.2374095E+02  0.5201206E+01  0.7793875E+01  0.1168842E+03
Ar  820  0.2173802E+02  0.8336199E+01  0.7442531E+01  0.1162935E+03
Ar  821  0.2157226E+02  0.4679015E+01  0.1072714E+02  0.2841770E+03
Ar  822  0.2417958E+02  0.8089383E+01  0.1155432E+02  0.1360598E+02
Ar  823  0.2458772E+02  0.5488735E+01  0.1362085E+02  0.7006760E+02
Ar  824  0.2192210E+02  0.7899834E+01  0.1435301E+02  0.4990277E+02
Ar  825  0.2143036E+02  0.5171417E+01  0.1654264E+02  0.1691151E+02
Ar  826  0.2411751E+02  0.8115387E+01  0.1707150E+02  0.1083900E+02
Ar  827  0.2440755E+02  0.5434430E+01  0.1959722E+02  0.1757845E+03
Ar  828  0.2134141E+02  0.7617422E+01  0.1940817E+02  0.2850584E+03
Ar  829  0.2158127E+02  0.5182673E+01  0.2215479E+02  0.3358872E+03
Ar  830  0.2477437E+02  0.8616895E+01  0.2165100E+02  0.1358930E+03
Ar  831  0.2457561E+02  0.5964527E+01  0.2425328E+02  0.2602532E+03
Ar  832  0.2116122E+02  0.8167225E+01  0.2414264E+02  0.2234362E+03
Ar  833  0.2120001E+02  0.5161374E+01  0.2621031E+02  0.2167852E+03
Ar  834  0.2420636E+02  0.8423572E+01  0.2646936E+02  0.1546459E+03
Ar  835  0.2385790E+02  0.5656079E+01  0.2884375E+02  0.1615772E+03
Ar  836  0.2148141E+02  0.8027606E+01  0.2888937E+02  0.3367807E+03
Ar  837  0.2149092E+02  0.5180657E+01  0.3207726E+02  0.2636211E+03
Ar  838  0.2331628E+02  0.8194939E+01  0.3240717E+02  0.7688034E+02
Ar  839  0.2377166E+02  0.5698016E+01  0.3497039E+02  0.3518923E+03
Ar  840  0.2137863E+02  0.8420820E+01  0.3518471E+02  0.3412345E+03
Ar  841  0.2104023E+02  0.1096139E+02  0.4657695E+00  0.2173119E+02
Ar  842  0.2454180E+02  0.1315855E+02  0.1373682E+00  0.2240930E+03
Ar  843  0.2430049E+02  0.1094421E+02  0.2883375E+01  0.8101728E+03
Ar  844  0.2202893E+02  0.1342021E+02  0.2684629E+01  0.5075958E+03
Ar  845  0.2180387E+02  0.1107565E+02  0.5085611E+01  0.1588874E+03
Ar  846  0.2444846E+02  0.1405484E+02  0.5510273E+01  0.3853397E+02
Ar  847  0.2428752E+02  0.1072083E+02  0.8112323E+01  0.3107544E+02
Ar  848  0.2155852E+02  0.1353800E+02  0.7653441E+01  0.2361555E+03
Ar  849  0.2123069E+02  0.1103807E+02  0.1037606E+02  0.1521230E+03
Ar  850  0.2422115E+02  0.1276566E+02  0.1073657E+02  0.5670601E+02
Ar  851  0.2402668E+02  0.1109804E+02  0.1388475E+02  0.4600860E+02
Ar  852  0.2192780E+02  0.1382645E+02  0.1312762E+02  0.1425210E+03
Ar  853  0.2156438E+02  0.1088835E+02  0.1700965E+02  0.2630612E+01
Ar  854  0.2456897E+02  0.1371086E+02  0.1616667E+02  0.1529146E+03
Ar  855  0.2410723E+02  0.1123559E+02  0.1902442E+02  0.8856268E+02
Ar  856  0.2140167E+02  0.1344623E+02  0.1913258E+02  0.2570691E+03
Ar  857  0.2127714E+02  0.1063876E+02  0.2147158E+02  0.1750308E+03
Ar  858  0.2394935E+02  0.1362656E+02  0.2122941E+02  0.1793505E+02
Ar  859  0.2421359E+02  0.1111658E+02  0.2414855E+02  0.1085899E+03
Ar  860  0.2150843E+02  0.1382595E+02  0.2449278E+02  0.1290954E+03
Ar  861  0.2148001E+02  0.1067504E+02  0.2694630E+02  0.1597920E+03
Ar  862  0.2391526E+02  0.1331694E+02  0.2702250E+02  0.3420534E+03
Ar  863  0.2357249E+02  0.1059883E+02  0.2961455E+02  0.6940140E+02
Ar  864  0.2122684E+02  0.1328849E+02  0.2943204E+02  0.1767362E+03
Ar  865  0.2085145E+02  0.1064832E+02  0.3211624E+02  0.4621704E+03
Ar  866  0.2397270E+02  0.1301182E+02  0.3213110E+02  0.2343799E+03
Ar  867  0.2397652E+02  0.1095602E+02  0.3494102E+02  0.5196765E+02
Ar  868  0.2114967E+02  0.1300291E+02  0.3488503E+02  0.3008806E+03
Ar  869  0.2174379E+02  0.1553361E+02  0.3755848E+02  0.1250063E+03
Ar  870  0.2490054E+02  0.1884490E+02  0.3767977E+02  0.6981997E+03
Ar  871  0.2452950E+02  0.1598389E+02  0.2529625E+01  0.4544507E+03
Ar  872  0.2206717E+02  0.1857079E+02  0.1999173E+01  0.1740029E+03
Ar  873  0.2154081E+02  0.1606694E+02  0.5054271E+01  0.5425363E+03
Ar  874  0.2447057E+02  0.1886067E+02  0.4893723E+01  0.3266228E+02
Ar  875  0.2405547E+02  0.1681225E+02  0.7581239E+01  0.6924727E+02
Ar  876  0.2160419E+02  0.1927211E+02  0.7378643E+01  0.1618021E+03
Ar  877  0.2191145E+02  0.1608815E+02  0.1032273E+02  0.4567748E+03
Ar  878  0.2405104E+02  0.1887208E+02  0.1090463E+02  0.1203065E+03
Ar  879  0.2441295E+02  0.1589428E+02  0.1325781E+02  0.2616366E+02
Ar  880  0.2198341E+02  0.1890264E+02  0.1412613E+02  0.1905879E+02
Ar  881  0.2153191E+02  0.1578317E+02  0.1628125E+02  0.5789222E+02
Ar  882  0.2409508E+02  0.1868230E+02  0.1657866E+02  0.1252541E+03
Ar  883  0.2426107E+02  0.1613966E+02  0.1896372E+02  0.5942472E+02
Ar  884  0.2151048E+02  0.1931359E+02  0.1877621E+02  0.2138855E+03
Ar  885  0.2159922E+02  0.1615683E+02  0.2163752E+02  0.3034088E+03
Ar  886  0.2429289E+02  0.1931585E+02  0.2131621E+02  0.2264754E+03
Ar  887  0.2424142E+02  0.1637452E+02  0.2406007E+02  0.1221621E+03
Ar  888  0.2177200E+02  0.1893482E+02  0.2421983E+02  0.1518747E+03
Ar  889  0.2177662E+02  0.1617189E+02  0.2680234E+02  0.4400194E+02
Ar  890  0.2372819E+02  0.1963775E+02  0.2708478E+02  0.1712075E+03
Ar  891  0.2432746E+02  0.1596057E+02  0.2956359E+02  0.2009819E+03
Ar  892  0.2147081E+02  0.1900448E+02  0.2973420E+02  0.3325227E+03
Ar  893  0.2134450E+02  0.1576634E+02  0.3264258E+02  0.1736178E+03
Ar  894  0.2418800E+02  0.1872547E+02  0.3216067E+02  0.9727278E+02
Ar  895  0.2440412E+02  0.1575400E+02  0.3462614E+02  0.6685817E+03
Ar  896  0.2194088E+02  0.1852964E+02  0.3473652E+02  0.2733773E+03
Ar  897  0.2113821E+02  0.2127411E+02  0.3772885E+02  0.3326562E+03
Ar  898  0.2471352E+02  0.2392112E+02  0.1814771E+00  0.2258607E+02
Ar  899  0.2431993E+02  0.2129638E+02  0.2203703E+01  0.4746877E+03
Ar  900  0.2218281E+02  0.2421675E+02  0.2643517E+01  0.1583471E+03
Ar  901  0.2167454E+02  0.2176616E+02  0.5379022E+01  0.5896492E+03
Ar  902  0.2439158E+02  0.2383611E+02  0.5355633E+01  0.1172882E+03
Ar  903  0.2424476E+02  0.2159508E+02  0.7820816E+01  0.7686876E+02
Ar  904  0.2150261E+02  0.2481869E+02  0.8020315E+01  0.5080043E+03
Ar  905  0.2164987E+02  0.2134669E+02  0.1060850E+02  0.1003372E+04
Ar  906  0.2420686E+02  0.2479158E+02  0.1060019E+02  0.1684483E+03
Ar  907  0.2437756E+02  0.2149443E+02  0.1361711E+02  0.2125037E+03
Ar  908  0.2159453E+02  0.2397723E+02  0.1310405E+02  0.1841129E+03
Ar  909  0.2125937E+02  0.2209460E+02  0.1606989E+02  0.3866736E+03
Ar  910  0.2456840E+02  0.2445898E+02  0.1614249E+02  0.8793956E+02
Ar  911  0.2464558E+02  0.2162075E+02  0.1823409E+02  0.3156463E+03
Ar  912  0.2144133E+02  0.2454163E+02  0.1882151E+02  0.2518609E+03
Ar  913  0.2201854E+02  0.2216163E+02  0.2163812E+02  0.2145881E+03
Ar  914  0.2457085E+02  0.2476778E+02  0.2130028E+02  0.4100439E+03
Ar  915  0.2456737E+02  0.2175461E+02  0.2411797E+02  0.8802159E+02
Ar  916  0.2175537E+02  0.2458039E+02  0.2416540E+02  0.2868911E+03
Ar  917  0.2129130E+02  0.2196631E+02  0.2715117E+02  0.4436528E+02
Ar  918  0.2459667E+02  0.2465340E+02  0.2671043E+02  0.3099370E+03
Ar  919  0.2419816E+02  0.2201701E+02  0.2962169E+02  0.6075229E+03
Ar  920  0.2194333E+02  0.2470227E+02  0.2983236E+02  0.2521631E+03
Ar  921  0.2201642E+02  0.2160503E+02  0.3243676E+02  0.1468463E+03
Ar  922  0.2457351E+02  0.2453105E+02  0.3201756E+02  0.1319179E+03
Ar  923  0.2443398E+02  0.2146887E+02  0.3483666E+02  0.1821640E+02
Ar  924  0.2196419E+02  0.2461681E+02  0.3551958E+02  0.5964892E+01
Ar  925  0.2164511E+02  0.2732254E+02  0.5453031E+00  0.1768130E+03
Ar  926  0.2468559E+02  0.2983135E+02  0.3767601E+02  0.1020474E+03
Ar  927  0.2437325E+02  0.2671177E+02  0.3140726E+01  0.2066551E+03
Ar  928  0.2143393E+02  0.3000713E+02  0.3004536E+01  0.3792925E+02
Ar  929  0.2179268E+02  0.2680063E+02  0.5324805E+01  0.1724880E+03
Ar  930  0.2426203E+02  0.2962896E+02  0.5524939E+01  0.5193131E+03
Ar  931  0.2420880E+02  0.2718050E+02  0.8261491E+01  0.1964374E+03
Ar  932  0.2146598E+02  0.2968142E+02  0.7701289E+01  0.5510862E+02
Ar  933  0.2151342E+02  0.2719263E+02  0.1077939E+02  0.2202446E+03
Ar  934  0.2437877E+02  0.2928516E+02  0.1092739E+02  0.2015627E+03
Ar  935  0.2380799E+02  0.2666253E+02  0.1358859E+02  0.2501278E+03
Ar  936  0.2193621E+02  0.2962309E+02  0.1310109E+02  0.7730661E+02
Ar  937  0.2181476E+02  0.2810141E+02  0.1623871E+02  0.8592728E+02
Ar  938  0.2463399E+02  0.3023812E+02  0.1559735E+02  0.4285086E+03
Ar  939  0.2487366E+02  0.2782165E+02  0.1890827E+02  0.2362352E+03
Ar  940  0.2145431E+02  0.2981467E+02  0.1917581E+02  0.2207389E+03
Ar  941  0.2179951E+02  0.2696374E+02  0.2157809E+02  0.1085934E+04
Ar  942  0.2417590E+02  0.2959828E+02  0.2185919E+02  0.1323742E+03
Ar  943  0.2429029E+02  0.2771764E+02  0.2444436E+02  0.2338787E+03
Ar  944  0.2107384E+02  0.2969593E+02  0.2430173E+02  0.5893197E+03
Ar  945  0.2125552E+02  0.2722412E+02  0.2730768E+02  0.1020522E+03
Ar  946  0.2489743E+02  0.3003918E+02  0.2703961E+02  0.1343210E+03
Ar  947  0.2422069E+02  0.2752778E+02  0.2912451E+02  0.3339255E+03
Ar  948  0.2142130E+02  0.2967420E+02  0.2946099E+02  0.9938670E+02
Ar  949  0.2188561E+02  0.2727108E+02  0.3228397E+02  0.7886002E+02
Ar  950  0.2473195E+02  0.3009117E+02  0.3295079E+02  0.2706542E+02
Ar  951  0.2490644E+02  0.2674304E+02  0.3540684E+02  0.1903333E+03
Ar  952  0.2229969E+02  0.2929837E+02  0.3519294E+02  0.1576980E+03
Ar  953  0.2162009E+02  0.3283602E+02  0.4158989E+00  0.2096115E+03
Ar  954  0.2414844E+02  0.3471643E+02  0.4896863E+00  0.8946642E+02
Ar  955  0.2439618E+02  0.3197004E+02  0.2944318E+01  0.3240742E+03
Ar  956  0.2158932E+02  0.3517776E+02  0.2786787E+01  0.1759604E+03
Ar  957  0.2179180E+02  0.3228858E+02  0.5360930E+01  0.1943722E+03
Ar  958  0.2428820E+02  0.3522992E+02  0.5542923E+01  0.6975113E+03
Ar  959  0.2468255E+02  0.3254596E+02  0.8040353E+01  0.1625591E+03
Ar  960  0.2155336E+02  0.3470498E+02  0.7612918E+01  0.1965531E+03
Ar  961  0.2198088E+02  0.3233324E+02  0.1033291E+02  0.3094629E+03
Ar  962  0.2435996E+02  0.3526260E+02  0.1072796E+02  0.7516217E+02
Ar  963  0.2459993E+02  0.3237408E+02  0.1303356E+02  0.4925454E+03
Ar  964  0.2145552E+02  0.3527107E+02  0.1358573E+02  0.4777245E+02
Ar  965  0.2170013E+02  0.3211467E+02  0.1582847E+02  0.1310327E+03
Ar  966  0.2455556E+02  0.3475351E+02  0.1614455E+02  0.1468482E+03
Ar  967  0.2434965E+02  0.3199177E+02  0.1904117E+02  0.1572485E+03
Ar  968  0.2183072E+02  0.3423868E+02  0.1892067E+02  0.1525736E+03
Ar  969  0.2125623E+02  0.3229257E+02  0.2179141E+02  0.3724789E+02
Ar  970  0.2419688E+02  0.3473543E+02  0.2166136E+02  0.9892299E+02
Ar  971  0.2422335E+02  0.3205970E+02  0.2467865E+02  0.2573388E+03
Ar  972  0.2122384E+02  0.3518805E+02  0.2449827E+02  0.1655731E+03
Ar  973  0.2149790E+02  0.3243061E+02  0.2726620E+02  0.7386828E+02
Ar  974  0.2414352E+02  0.3483199E+02  0.2706956E+02  0.8700926E+03
Ar  975  0.2397293E+02  0.3202020E+02  0.2997020E+02  0.7050877E+03
Ar  976  0.2175201E+02  0.3499606E+02  0.3025935E+02  0.3730468E+03
Ar  977  0.2123508E+02  0.3226240E+02  0.3225727E+02  0.4287382E+03
Ar  978  0.2433397E+02  0.3517316E+02  0.3270410E+02  0.6556638E+02
Ar  979  0.2441044E+02  0.3232853E+02  0.3550847E+02  0.1525494E+03
Ar  980  0.2151623E+02  0.3557202E+02  0.3523119E+02  0.2201278E+03
Ar  981  0.2630144E+02  0.1711013E+00  0.1709706E+00  0.3438387E+02
Ar  982  0.2928476E+02  0.3152328E+01  0.6273787E+00  0.3292853E+03
Ar  983  0.2906498E+02  0.3774835E+02  0.2746499E+01  0.1385821E+02
Ar  984  0.2671081E+02  0.2490581E+01  0.2636738E+01  0.1304832E+03
Ar  985  0.2661599E+02  0.4454825E+00  0.5587410E+01  0.1243107E+03
Ar  986  0.2970549E+02  0.3409252E+01  0.4593571E+01  0.2860196E+03
Ar  987  0.3012510E+02  0.3160236E+00  0.7805651E+01  0.1681319E+03
Ar  988  0.2639995E+02  0.2705244E+01  0.8406348E+01  0.3601665E+03
Ar  989  0.2695800E+02  0.3741984E+02  0.1119795E+02  0.1276514E+03
Ar  990  0.2912501E+02  0.2755368E+01  0.1090962E+02  0.6401794E+02
Ar  991  0.3012945E+02  0.3786820E+00  0.1396985E+02  0.1236014E+03
Ar  992  0.2724313E+02  0.1914353E+01  0.1365082E+02  0.5967067E+03
Ar  993  0.2698763E+02  0.3765843E+02  0.1677292E+02  0.3717484E+02
Ar  994  0.3019198E+02  0.2950280E+01  0.1628723E+02  0.3138755E+03
Ar  995  0.2967326E+02  0.3732455E+02  0.1912800E+02  0.1612731E+03
Ar  996  0.2636177E+02  0.2836187E+01  0.1889172E+02  0.1328174E+03
Ar  997  0.2706365E+02  0.3563719E+00  0.2139697E+02  0.4274931E+02
Ar  998  0.2951415E+02  0.2564377E+01  0.2095351E+02  0.1914540E+03
Ar  999  0.2950458E+02  0.3744240E+02  0.2451187E+02  0.8214470E+02
Ar 1000  0.2706837E+02  0.2634069E+01  0.2438599E+02  0.1721816E+03
Ar 1001  0.2655777E+02  0.3773863E+02  0.2674458E+02  0.1061803E+03
Ar 1002  0.2969389E+02  0.2827029E+01  0.2674999E+02  0.6733202E+02
Ar 1003  0.2971016E+02  0.2771204E-01  0.2965238E+02  0.8414952E+02
Ar 1004  0.2750757E+02  0.2466634E+01  0.2924989E+02  0.5541626E+02
Ar 1005  0.2692846E+02  0.3770120E+02  0.3226606E+02  0.2622001E+03
Ar 1006  0.2941390E+02  0.2947017E+01  0.3218486E+02  0.1325344E+03
Ar 1007  0.2913413E+02  0.2398437E+00  0.3504398E+02  0.3483811E+02
Ar 1008  0.2653552E+02  0.3103779E+01  0.3513770E+02  0.1529557E+03
Ar 1009  0.2697073E+02  0.5704570E+01  0.3748334E+02  0.2316405E+02
Ar 1010  0.2995393E+02  0.8581983E+01  0.3766409E+02  0.3908495E+03
Ar 1011  0.2934873E+02  0.6133101E+01  0.2301403E+01  0.2143002E+03
Ar 1012  0.2693540E+02  0.8581525E+01  0.2537971E+01  0.1127481E+03
Ar 1013  0.2658865E+02  0.4778147E+01  0.5507214E+01  0.9653143E+03
Ar 1014  0.2931083E+02  0.7932784E+01  0.5299297E+01  0.1620837E+03
Ar 1015  0.2928240E+02  0.5237794E+01  0.8098282E+01  0.1181236E+03
Ar 1016  0.2633835E+02  0.8023010E+01  0.8097144E+01  0.4238124E+03
Ar 1017  0.2738422E+02  0.5705887E+01  0.1077961E+02  0.2955563E+03
Ar 1018  0.2947670E+02  0.8097721E+01  0.1094620E+02  0.2489486E+03
Ar 1019  0.2939608E+02  0.5224631E+01  0.1376108E+02  0.3562283E+03
Ar 1020  0.2704611E+02  0.8044915E+01  0.1377557E+02  0.5756427E+03
Ar 1021  0.2702338E+02  0.4885584E+01  0.1645401E+02  0.1955429E+03
Ar 1022  0.2959400E+02  0.7990037E+01  0.1615150E+02  0.6766803E+03
Ar 1023  0.2930740E+02  0.5637264E+01  0.1904415E+02  0.8329392E+02
Ar 1024  0.2689553E+02  0.8353081E+01  0.1890046E+02  0.3744238E+03
Ar 1025  0.2732629E+02  0.5619835E+01  0.2197716E+02  0.2535105E+03
Ar 1026  0.2932850E+02  0.8269399E+01  0.2140914E+02  0.1979486E+02
Ar 1027  0.2985152E+02  0.5572665E+01  0.2423052E+02  0.1301268E+03
Ar 1028  0.2679749E+02  0.9025199E+01  0.2404280E+02  0.9350479E+02
Ar 1029  0.2687300E+02  0.5995859E+01  0.2671251E+02  0.1159079E+03
Ar 1030  0.2917004E+02  0.8410145E+01  0.2667577E+02  0.1249902E+03
Ar 1031  0.3016397E+02  0.5201035E+01  0.2956609E+02  0.3651028E+03
Ar 1032  0.2627502E+02  0.8155252E+01  0.3004150E+02  0.6141502E+03
Ar 1033  0.2651529E+02  0.5393248E+01  0.3220831E+02  0.3805166E+02
Ar 1034  0.2939412E+02  0.7419443E+01  0.3226742E+02  0.1442628E+03
Ar 1035  0.2926751E+02  0.4986752E+01  0.3517147E+02  0.5829458E+02
Ar 1036  0.2736001E+02  0.8094057E+01  0.3461545E+02  0.1736628E+03
Ar 1037  0.2671036E+02  0.1042921E+02  0.3750571E+02  0.3346285E+03
Ar 1038  0.2965745E+02  0.1296746E+02  0.3763536E+02  0.1591315E+03
Ar 1039  0.2963676E+02  0.1077002E+02  0.2740460E+01  0.1279686E+03
Ar 1040  0.2715411E+02  0.1306089E+02  0.2450349E+01  0.8802734E+02
Ar 1041  0.2733239E+02  0.1075187E+02  0.5291480E+01  0.1353439E+03
Ar 1042  0.2984331E+02  0.1317603E+02  0.5208243E+01  0.2838024E+03
Ar 1043  0.2976594E+02  0.1045086E+02  0.7579274E+01  0.9813848E+02
Ar 1044  0.2694535E+02  0.1347850E+02  0.8036672E+01  0.3691463E+02
Ar 1045  0.2695462E+02  0.1073905E+02  0.1059253E+02  0.4268642E+03
Ar 1046  0.2940197E+02  0.1334975E+02  0.1082360E+02  0.1791757E+02
Ar 1047  0.2939481E+02  0.1054374E+02  0.1351355E+02  0.6476269E+02
Ar 1048  0.2675481E+02  0.1365010E+02  0.1362124E+02  0.3877861E+03
Ar 1049  0.2712472E+02  0.1070287E+02  0.1640691E+02  0.4110453E+03
Ar 1050  0.2962850E+02  0.1352540E+02  0.1597682E+02  0.2093874E+03
Ar 1051  0.2963701E+02  0.1116364E+02  0.1890344E+02  0.2048308E+03
Ar 1052  0.2696560E+02  0.1386719E+02  0.1894346E+02  0.3095036E+03
Ar 1053  0.2717373E+02  0.1170920E+02  0.2170551E+02  0.2551985E+02
Ar 1054  0.2960947E+02  0.1398656E+02  0.2127626E+02  0.1549801E+02
Ar 1055  0.2974232E+02  0.1121981E+02  0.2423503E+02  0.6606493E+02
Ar 1056  0.2662503E+02  0.1361705E+02  0.2415136E+02  0.3893718E+03
Ar 1057  0.2671249E+02  0.1090934E+02  0.2690590E+02  0.2919995E+03
Ar 1058  0.2983539E+02  0.1345087E+02  0.2671538E+02  0.1170160E+03
Ar 1059  0.2969427E+02  0.1091893E+02  0.2932014E+02  0.4134298E+03
Ar 1060  0.2675497E+02  0.1348832E+02  0.2965423E+02  0.3048673E+03
Ar 1061  0.2701978E+02  0.1088656E+02  0.3209151E+02  0.1045450E+03
Ar 1062  0.2953084E+02  0.1352781E+02  0.3202194E+02  0.1444733E+03
Ar 1063  0.2950868E+02  0.1093379E+02  0.3468549E+02  0.3319289E+03
Ar 1064  0.2662315E+02  0.1309929E+02  0.3466156E+02  0.5045740E+02
Ar 1065  0.2722193E+02  0.1582610E+02  0.3768507E+02  0.6394800E+01
Ar 1066  0.2969818E+02  0.1853093E+02  0.3776471E+02  0.6327032E+03
Ar 1067  0.2973659E+02  0.1595079E+02  0.2908505E+01  0.1079723E+03
Ar 1068  0.2708098E+02  0.1846332E+02  0.2687026E+01  0.2553986E+03
Ar 1069  0.2724815E+02  0.1632514E+02  0.5798627E+01  0.1526546E+03
Ar 1070  0.2951274E+02  0.1885474E+02  0.5284396E+01  0.2300435E+03
Ar 1071  0.2976924E+02  0.1570448E+02  0.8181676E+01  0.7716439E+02
Ar 1072  0.2668837E+02  0.1909061E+02  0.8325282E+01  0.4002355E+03
Ar 1073  0.2658392E+02  0.1571896E+02  0.1065174E+02  0.3827703E+03
Ar 1074  0.2926498E+02  0.1943268E+02  0.1069887E+02  0.8369384E+03
Ar 1075  0.2959035E+02  0.1628542E+02  0.1366590E+02  0.1504275E+03
Ar 1076  0.2678185E+02  0.1896583E+02  0.1315807E+02  0.1635994E+03
Ar 1077  0.2693508E+02  0.1653179E+02  0.1634176E+02  0.1677228E+03
Ar 1078  0.2950407E+02  0.1905207E+02  0.1631475E+02  0.1643132E+03
Ar 1079  0.2953494E+02  0.1589041E+02  0.1856835E+02  0.9623856E+02
Ar 1080  0.2695371E+02  0.1862455E+02  0.1880068E+02  0.4417058E+03
Ar 1081  0.2665352E+02  0.1637177E+02  0.2167196E+02  0.2825351E+02
Ar 1082  0.3002640E+02  0.1868747E+02  0.2165055E+02  0.7573777E+02
Ar 1083  0.2949852E+02  0.1616921E+02  0.2400582E+02  0.1077137E+03
Ar 1084  0.2725605E+02  0.1879037E+02  0.2395342E+02  0.1939255E+03
Ar 1085  0.2697908E+02  0.1606892E+02  0.2681119E+02  0.1853666E+03
Ar 1086  0.2920221E+02  0.1871892E+02  0.2690623E+02  0.6980944E+02
Ar 1087  0.2983122E+02  0.1596136E+02  0.2929102E+02  0.2133312E+03
Ar 1088  0.2676861E+02  0.1870230E+02  0.2951606E+02  0.5232524E+02
Ar 1089  0.2675424E+02  0.1587460E+02  0.3228332E+02  0.3637486E+03
Ar 1090  0.2938084E+02  0.1873119E+02  0.3202811E+02  0.8011915E+02
Ar 1091  0.2984134E+02  0.1571119E+02  0.3470963E+02  0.9041679E+02
Ar 1092  0.2691716E+02  0.1884794E+02  0.3502488E+02  0.2945923E+03
Ar 1093  0.2731557E+02  0.2131623E+02  0.3767695E+02  0.2026328E+03
Ar 1094  0.2964754E+02  0.2418443E+02  0.3774176E+02  0.1406369E+03
Ar 1095  0.2960750E+02  0.2126307E+02  0.2868545E+01  0.1923508E+03
Ar 1096  0.2679518E+02  0.2371618E+02  0.2850934E+01  0.6061039E+03
Ar 1097  0.2713883E+02  0.2136748E+02  0.6062512E+01  0.1546905E+03
Ar 1098  0.2930911E+02  0.2393383E+02  0.5181316E+01  0.1266280E+03
Ar 1099  0.2992764E+02  0.2222978E+02  0.8458519E+01  0.1846180E+02
Ar 1100  0.2652861E+02  0.2455967E+02  0.7767992E+01  0.3827954E+03
Ar 1101  0.2694931E+02  0.2201688E+02  0.1070462E+02  0.1821681E+03
Ar 1102  0.2990999E+02  0.2463453E+02  0.1062474E+02  0.2093589E+03
Ar 1103  0.2959969E+02  0.2225697E+02  0.1322950E+02  0.5841375E+03
Ar 1104  0.2689798E+02  0.2468447E+02  0.1352000E+02  0.7178436E+02
Ar 1105  0.2716403E+02  0.2153585E+02  0.1588774E+02  0.2203781E+03
Ar 1106  0.2951031E+02  0.2406312E+02  0.1634856E+02  0.1290992E+03
Ar 1107  0.2980048E+02  0.2159589E+02  0.1892054E+02  0.4465695E+02
Ar 1108  0.2706111E+02  0.2498835E+02  0.1856375E+02  0.2610930E+03
Ar 1109  0.2716008E+02  0.2170125E+02  0.2195730E+02  0.3036395E+03
Ar 1110  0.2906046E+02  0.2446834E+02  0.2153840E+02  0.4507058E+03
Ar 1111  0.2951479E+02  0.2203599E+02  0.2442338E+02  0.1674786E+03
Ar 1112  0.2670455E+02  0.2511554E+02  0.2411056E+02  0.4914870E+03
Ar 1113  0.2698783E+02  0.2198405E+02  0.2701763E+02  0.3580288E+03
Ar 1114  0.2998306E+02  0.2434866E+02  0.2729780E+02  0.4625326E+03
Ar 1115  0.2925320E+02  0.2114453E+02  0.2960924E+02  0.3068070E+02
Ar 1116  0.2725415E+02  0.2417495E+02  0.2940143E+02  0.9457270E+02
Ar 1117  0.2682162E+02  0.2122270E+02  0.3203141E+02  0.6794448E+03
Ar 1118  0.2913437E+02  0.2423742E+02  0.3212539E+02  0.2434743E+03
Ar 1119  0.2970280E+02  0.2113282E+02  0.3509647E+02  0.7198365E+01
Ar 1120  0.2714787E+02  0.2411848E+02  0.3527606E+02  0.8790199E+02
Ar 1121  0.2698563E+02  0.2689521E+02  0.8895902E+00  0.2694913E+03
Ar 1122  0.2986884E+02  0.2989534E+02  0.3766175E+02  0.5802420E+03
Ar 1123  0.2998141E+02  0.2696954E+02  0.2703702E+01  0.1602259E+03
Ar 1124  0.2697600E+02  0.2966921E+02  0.3000112E+01  0.7655938E+02
Ar 1125  0.2687445E+02  0.2721264E+02  0.5372440E+01  0.1072962E+03
Ar 1126  0.2972783E+02  0.2944546E+02  0.5355151E+01  0.4464892E+02
Ar 1127  0.2960244E+02  0.2649434E+02  0.7680076E+01  0.9210133E+02
Ar 1128  0.2720086E+02  0.2959930E+02  0.8334279E+01  0.2918105E+02
Ar 1129  0.2690256E+02  0.2712321E+02  0.1083014E+02  0.4502390E+03
Ar 1130  0.3029207E+02  0.2876574E+02  0.1093839E+02  0.3437325E+03
Ar 1131  0.2983445E+02  0.2662048E+02  0.1332134E+02  0.5396673E+03
Ar 1132  0.2704375E+02  0.2927552E+02  0.1300819E+02  0.8615856E+02
Ar 1133  0.2697622E+02  0.2731043E+02  0.1573096E+02  0.1223925E+03
Ar 1134  0.2965041E+02  0.3017533E+02  0.1567575E+02  0.3133124E+03
Ar 1135  0.2985671E+02  0.2711263E+02  0.1888291E+02  0.1318062E+03
Ar 1136  0.2774431E+02  0.2993080E+02  0.1882524E+02  0.2079103E+03
Ar 1137  0.2744380E+02  0.2773196E+02  0.2158575E+02  0.1343205E+03
Ar 1138  0.2997902E+02  0.3006078E+02  0.2200633E+02  0.9705467E+02
Ar 1139  0.3001743E+02  0.2754671E+02  0.2439829E+02  0.1816359E+03
Ar 1140  0.2726303E+02  0.2965245E+02  0.2419619E+02  0.2491656E+03
Ar 1141  0.2735245E+02  0.2721491E+02  0.2759682E+02  0.1896013E+02
Ar 1142  0.2976568E+02  0.2965743E+02  0.2683640E+02  0.5582286E+03
Ar 1143  0.3020094E+02  0.2706365E+02  0.3020200E+02  0.3476624E+02
Ar 1144  0.2679540E+02  0.2995176E+02  0.2996326E+02  0.1256994E+03
Ar 1145  0.2706181E+02  0.2725631E+02  0.3291593E+02  0.2443686E+03
Ar 1146  0.2961121E+02  0.2977586E+02  0.3284757E+02  0.2260770E+03
Ar 1147  0.2982809E+02  0.2656598E+02  0.3507237E+02  0.2795828E+03
Ar 1148  0.2705459E+02  0.2956201E+02  0.3539491E+02  0.1766048E+03
Ar 1149  0.2764525E+02  0.3233862E+02  0.3722757E+02  0.1980973E+03
Ar 1150  0.2966724E+02  0.3517882E+02  0.3858741E+00  0.2442295E+03
Ar 1151  0.2961444E+02  0.3226770E+02  0.2818163E+01  0.2875907E+03
Ar 1152  0.2704650E+02  0.3502007E+02  0.2789007E+01  0.8367646E+02
Ar 1153  0.2710571E+02  0.3218251E+02  0.5499678E+01  0.1573822E+03
Ar 1154  0.2938978E+02  0.3513372E+02  0.5504142E+01  0.1021904E+03
Ar 1155  0.3029581E+02  0.3253925E+02  0.8208191E+01  0.2621993E+03
Ar 1156  0.2665740E+02  0.3550999E+02  0.7962272E+01  0.8020852E+02
Ar 1157  0.2707608E+02  0.3252125E+02  0.1047320E+02  0.1239392E+03
Ar 1158  0.2993612E+02  0.3550172E+02  0.9832936E+01  0.3454741E+03
Ar 1159  0.2991765E+02  0.3187988E+02  0.1283501E+02  0.1317613E+03
Ar 1160  0.2796938E+02  0.3465141E+02  0.1307257E+02  0.2041362E+02
Ar 1161  0.2723358E+02  0.3252222E+02  0.1556807E+02  0.2408493E+03
Ar 1162  0.2938531E+02  0.3530751E+02  0.1624808E+02  0.1181386E+02
Ar 1163  0.2972832E+02  0.3302487E+02  0.1873776E+02  0.6159012E+02
Ar 1164  0.2686129E+02  0.3498794E+02  0.1911392E+02  0.3729195E+03
Ar 1165  0.2660311E+02  0.3264021E+02  0.2169501E+02  0.2328074E+03
Ar 1166  0.2934247E+02  0.3527710E+02  0.2170215E+02  0.4011022E+02
Ar 1167  0.2942464E+02  0.3252299E+02  0.2429897E+02  0.6377541E+02
Ar 1168  0.2682191E+02  0.3514018E+02  0.2394873E+02  0.1132545E+02
Ar 1169  0.2737289E+02  0.3250908E+02  0.2713085E+02  0.1119741E+03
Ar 1170  0.2931632E+02  0.3541185E+02  0.2710089E+02  0.8510368E+03
Ar 1171  0.2965110E+02  0.3258277E+02  0.2995622E+02  0.4665462E+03
Ar 1172  0.2638048E+02  0.3501834E+02  0.2969494E+02  0.2500308E+03
Ar 1173  0.2720188E+02  0.3245847E+02  0.3343701E+02  0.2339051E+03
Ar 1174  0.2971251E+02  0.3501263E+02  0.3249396E+02  0.2705392E+03
Ar 1175  0.3205647E+02  0.3247379E+02  0.3257205E+02  0.3197931E+03
Ar 1176  0.2665456E+02  0.3526073E+02  0.3533148E+02  0.6843845E+03
Ar 1177  0.3165114E+02  0.3110861E+00  0.3759616E+02  0.1988628E+03
Ar 1178  0.3442805E+02  0.3006633E+01  0.3729613E+02  0.1591331E+03
Ar 1179  0.3522248E+02  0.3767460E+02  0.2529069E+01  0.6155303E+03
Ar 1180  0.3240493E+02  0.2550310E+01  0.2338594E+01  0.1989188E+02
Ar 1181  0.3255178E+02  0.1379912E+00  0.5155728E+01  0.1633891E+02
Ar 1182  0.3489587E+02  0.3220579E+01  0.5118836E+01  0.2495409E+03
Ar 1183  0.3565501E+02  0.3106481E+00  0.7551118E+01  0.6035001E+02
Ar 1184  0.3205786E+02  0.3194442E+01  0.8031099E+01  0.4338082E+03
Ar 1185  0.3173649E+02  0.2134098E+00  0.1100665E+02  0.1380879E+03
Ar 1186  0.3474358E+02  0.2423779E+01  0.1031751E+02  0.3925164E+02
Ar 1187  0.3499090E+02  0.3511445E+00  0.1352441E+02  0.8513113E+02
Ar 1188  0.3233780E+02  0.3035435E+01  0.1298901E+02  0.1437676E+03
Ar 1189  0.3291149E+02  0.3738400E+02  0.1600899E+02  0.2980463E+03
Ar 1190  0.3478965E+02  0.2915423E+01  0.1589093E+02  0.2719959E+03
Ar 1191  0.3539555E+02  0.3758772E+02  0.1909719E+02  0.2391530E+03
Ar 1192  0.3306146E+02  0.2460281E+01  0.1870477E+02  0.1473607E+03
Ar 1193  0.3252978E+02  0.3761148E+02  0.2143384E+02  0.4129025E+03
Ar 1194  0.3487389E+02  0.2957164E+01  0.2178743E+02  0.4719518E+03
Ar 1195  0.3504068E+02  0.2672771E+00  0.2440396E+02  0.3488777E+02
Ar 1196  0.3225948E+02  0.2750264E+01  0.2406974E+02  0.9612010E+02
Ar 1197  0.3253632E+02  0.2197467E+00  0.2721766E+02  0.4517705E+03
Ar 1198  0.3477270E+02  0.2606398E+01  0.2659223E+02  0.5343798E+03
Ar 1199  0.3498526E+02  0.3771357E+02  0.2998181E+02  0.7841476E+02
Ar 1200  0.3234430E+02  0.2816711E+01  0.2978941E+02  0.1659651E+03
Ar 1201  0.3219974E+02  0.2241156E+00  0.3223138E+02  0.2165523E+03
Ar 1202  0.3487230E+02  0.2908080E+01  0.3227241E+02  0.2273184E+03
Ar 1203  0.3451751E+02  0.3754654E+02  0.3566939E+02  0.3390717E+03
Ar 1204  0.3221443E+02  0.2895454E+01  0.3469581E+02  0.7972573E+02
Ar 1205  0.3185606E+02  0.5465857E+01  0.3755025E+02  0.1871091E+03
Ar 1206  0.3450591E+02  0.7959985E+01  0.3720007E+02  0.1595123E+03
Ar 1207  0.3475166E+02  0.5172169E+01  0.2183524E+01  0.4615718E+03
Ar 1208  0.3255026E+02  0.8033563E+01  0.2387836E+01  0.2523299E+03
Ar 1209  0.3208564E+02  0.5705930E+01  0.4833224E+01  0.7155828E+02
Ar 1210  0.3478540E+02  0.8091096E+01  0.5178767E+01  0.2518747E+02
Ar 1211  0.3518817E+02  0.5504267E+01  0.7993093E+01  0.2509333E+03
Ar 1212  0.3261364E+02  0.8151914E+01  0.7685686E+01  0.2829968E+02
Ar 1213  0.3161192E+02  0.5596229E+01  0.1075667E+02  0.4684218E+03
Ar 1214  0.3497696E+02  0.7699000E+01  0.1063551E+02  0.1253894E+03
Ar 1215  0.3513440E+02  0.5131106E+01  0.1337702E+02  0.1453426E+03
Ar 1216  0.3267976E+02  0.8330780E+01  0.1340800E+02  0.3300364E+03
Ar 1217  0.3224351E+02  0.5654011E+01  0.1664025E+02  0.3427763E+03
Ar 1218  0.3470463E+02  0.8257666E+01  0.1615925E+02  0.3334083E+02
Ar 1219  0.3466116E+02  0.5532625E+01  0.1929268E+02  0.8421390E+03
Ar 1220  0.3209781E+02  0.7860631E+01  0.1917790E+02  0.4420535E+03
Ar 1221  0.3221479E+02  0.5536784E+01  0.2191672E+02  0.1128978E+03
Ar 1222  0.3511719E+02  0.8272935E+01  0.2117810E+02  0.2392477E+03
Ar 1223  0.3512219E+02  0.5727091E+01  0.2420633E+02  0.8992881E+02
Ar 1224  0.3221825E+02  0.8490697E+01  0.2413695E+02  0.1050280E+03
Ar 1225  0.3281839E+02  0.5528782E+01  0.2712268E+02  0.7179184E+03
Ar 1226  0.3536223E+02  0.8332624E+01  0.2676370E+02  0.6569524E+02
Ar 1227  0.3522164E+02  0.5322406E+01  0.2968491E+02  0.3036217E+03
Ar 1228  0.3201351E+02  0.8198350E+01  0.2974002E+02  0.3481990E+03
Ar 1229  0.3203769E+02  0.5609087E+01  0.3259784E+02  0.8714320E+02
Ar 1230  0.3488959E+02  0.8116299E+01  0.3225997E+02  0.2395256E+03
Ar 1231  0.3490322E+02  0.5421550E+01  0.3467711E+02  0.5749276E+03
Ar 1232  0.3208525E+02  0.8588469E+01  0.3473794E+02  0.4567002E+03
Ar 1233  0.3230246E+02  0.1077665E+02  0.1233127E+00  0.8968642E+02
Ar 1234  0.3512402E+02  0.1330269E+02  0.4219998E+00  0.5445420E+02
Ar 1235  0.3508878E+02  0.1057631E+02  0.2787600E+01  0.1689827E+03
Ar 1236  0.3236116E+02  0.1389742E+02  0.2843873E+01  0.1191805E+03
Ar 1237  0.3221824E+02  0.1092367E+02  0.5181733E+01  0.3585976E+02
Ar 1238  0.3489952E+02  0.1312213E+02  0.5277194E+01  0.1948919E+03
Ar 1239  0.3508020E+02  0.1076506E+02  0.8286099E+01  0.1379267E+03
Ar 1240  0.3216152E+02  0.1283930E+02  0.8073130E+01  0.4706165E+03
Ar 1241  0.3190984E+02  0.1032424E+02  0.1048791E+02  0.3233188E+03
Ar 1242  0.3511968E+02  0.1350106E+02  0.1089419E+02  0.2528193E+03
Ar 1243  0.3527463E+02  0.1064934E+02  0.1350132E+02  0.2623257E+02
Ar 1244  0.3230833E+02  0.1328259E+02  0.1342440E+02  0.2215515E+03
Ar 1245  0.3197867E+02  0.1082046E+02  0.1660627E+02  0.7134888E+03
Ar 1246  0.3500784E+02  0.1399314E+02  0.1629242E+02  0.1858683E+03
Ar 1247  0.3467815E+02  0.1100902E+02  0.1883884E+02  0.6539215E+02
Ar 1248  0.3271716E+02  0.1422657E+02  0.1911904E+02  0.9061400E+02
Ar 1249  0.3204468E+02  0.1106560E+02  0.2123253E+02  0.2801579E+03
Ar 1250  0.3475328E+02  0.1366455E+02  0.2181910E+02  0.1394015E+03
Ar 1251  0.3478124E+02  0.1102460E+02  0.2497616E+02  0.4393994E+03
Ar 1252  0.3218526E+02  0.1364013E+02  0.2401082E+02  0.1235549E+03
Ar 1253  0.3212417E+02  0.1065378E+02  0.2684587E+02  0.1295417E+03
Ar 1254  0.3493940E+02  0.1389172E+02  0.2675733E+02  0.4930854E+03
Ar 1255  0.3500903E+02  0.1053792E+02  0.2961130E+02  0.2608533E+02
Ar 1256  0.3243167E+02  0.1340027E+02  0.2936054E+02  0.7258343E+02
Ar 1257  0.3232699E+02  0.1106728E+02  0.3242975E+02  0.2426855E+03
Ar 1258  0.3431760E+02  0.1377676E+02  0.3211133E+02  0.1550716E+03
Ar 1259  0.3515428E+02  0.1052422E+02  0.3492874E+02  0.2374139E+03
Ar 1260  0.3254657E+02  0.1305779E+02  0.3510471E+02  0.3252168E+03
Ar 1261  0.3187271E+02  0.1554032E+02  0.3752541E+02  0.6331035E+03
Ar 1262  0.3487551E+02  0.1872679E+02  0.3667458E+00  0.1845371E+03
Ar 1263  0.3515143E+02  0.1601965E+02  0.3014223E+01  0.2078180E+03
Ar 1264  0.3204921E+02  0.1867341E+02  0.2586262E+01  0.1261110E+03
Ar 1265  0.3244523E+02  0.1631794E+02  0.5452349E+01  0.2854462E+03
Ar 1266  0.3456440E+02  0.1923433E+02  0.4914486E+01  0.1026380E+03
Ar 1267  0.3516119E+02  0.1602277E+02  0.8108115E+01  0.5297960E+03
Ar 1268  0.3284362E+02  0.1896869E+02  0.7787406E+01  0.7904460E+02
Ar 1269  0.3244055E+02  0.1588719E+02  0.1042057E+02  0.5002933E+03
Ar 1270  0.3520237E+02  0.1876477E+02  0.1063865E+02  0.2382999E+03
Ar 1271  0.3524124E+02  0.1690360E+02  0.1365670E+02  0.3275031E+03
Ar 1272  0.3201550E+02  0.1900848E+02  0.1341690E+02  0.7018321E+01
Ar 1273  0.3237310E+02  0.1694920E+02  0.1616114E+02  0.3959442E+03
Ar 1274  0.3537316E+02  0.1914712E+02  0.1658614E+02  0.1412491E+03
Ar 1275  0.3531539E+02  0.1667164E+02  0.1900646E+02  0.3382910E+03
Ar 1276  0.3238598E+02  0.1871945E+02  0.1938197E+02  0.2898127E+03
Ar 1277  0.3299721E+02  0.1683620E+02  0.2186788E+02  0.2277861E+03
Ar 1278  0.3534171E+02  0.1923470E+02  0.2176515E+02  0.1381791E+03
Ar 1279  0.3554239E+02  0.1643070E+02  0.2415333E+02  0.1451858E+03
Ar 1280  0.3242823E+02  0.1942373E+02  0.2426970E+02  0.4748373E+03
Ar 1281  0.3243461E+02  0.1650702E+02  0.2652286E+02  0.8863264E+03
Ar 1282  0.3481553E+02  0.1970655E+02  0.2731954E+02  0.7701228E+02
Ar 1283  0.3489937E+02  0.1631941E+02  0.2925432E+02  0.5042334E+02
Ar 1284  0.3197659E+02  0.1889867E+02  0.2935231E+02  0.1747299E+03
Ar 1285  0.3217971E+02  0.1644929E+02  0.3197587E+02  0.1398239E+02
Ar 1286  0.3476841E+02  0.1883260E+02  0.3247198E+02  0.2789539E+03
Ar 1287  0.3475111E+02  0.1599360E+02  0.3563174E+02  0.4387296E+02
Ar 1288  0.3212454E+02  0.1855660E+02  0.3556601E+02  0.2229211E+03
Ar 1289  0.3203956E+02  0.2136411E+02  0.3241937E+00  0.5244072E+02
Ar 1290  0.3465578E+02  0.2431199E+02  0.3748519E+02  0.2960646E+03
Ar 1291  0.3492788E+02  0.2163405E+02  0.2198281E+01  0.3247127E+03
Ar 1292  0.3202935E+02  0.2404567E+02  0.2932098E+01  0.2283368E+03
Ar 1293  0.3227992E+02  0.2151072E+02  0.5820733E+01  0.6878003E+02
Ar 1294  0.3523840E+02  0.2406683E+02  0.5542301E+01  0.9180597E+02
Ar 1295  0.3518587E+02  0.2151643E+02  0.8400412E+01  0.5100205E+03
Ar 1296  0.3271021E+02  0.2416949E+02  0.8538568E+01  0.8541412E+02
Ar 1297  0.3202504E+02  0.2168132E+02  0.1101033E+02  0.1977732E+03
Ar 1298  0.3502375E+02  0.2381623E+02  0.1066245E+02  0.2497033E+03
Ar 1299  0.3457022E+02  0.2142725E+02  0.1356075E+02  0.1568989E+03
Ar 1300  0.3262703E+02  0.2470695E+02  0.1330822E+02  0.7686326E+02
Ar 1301  0.3217878E+02  0.2175009E+02  0.1633579E+02  0.3683528E+02
Ar 1302  0.3491694E+02  0.2391377E+02  0.1633847E+02  0.1280753E+03
Ar 1303  0.3500598E+02  0.2147969E+02  0.1913556E+02  0.1795499E+03
Ar 1304  0.3261978E+02  0.2412376E+02  0.1930737E+02  0.2997344E+02
Ar 1305  0.3266061E+02  0.2177112E+02  0.2161387E+02  0.2108387E+02
Ar 1306  0.3545350E+02  0.2489984E+02  0.2154886E+02  0.1229441E+03
Ar 1307  0.3496388E+02  0.2193274E+02  0.2484710E+02  0.1313171E+03
Ar 1308  0.3209815E+02  0.2452131E+02  0.2443319E+02  0.7723066E+02
Ar 1309  0.3216773E+02  0.2170999E+02  0.2685059E+02  0.3562415E+02
Ar 1310  0.3527069E+02  0.2450111E+02  0.2724780E+02  0.2491724E+03
Ar 1311  0.3502420E+02  0.2178934E+02  0.3039167E+02  0.1552433E+03
Ar 1312  0.3218506E+02  0.2424003E+02  0.3011376E+02  0.4866130E+03
Ar 1313  0.3192924E+02  0.2139856E+02  0.3243694E+02  0.1222027E+03
Ar 1314  0.3502889E+02  0.2423079E+02  0.3290319E+02  0.1060387E+03
Ar 1315  0.3454018E+02  0.2107741E+02  0.3544557E+02  0.2668966E+03
Ar 1316  0.3205930E+02  0.2377241E+02  0.3512874E+02  0.7135645E+02
Ar 1317  0.3269655E+02  0.2704082E+02  0.3700197E+02  0.7616144E+02
Ar 1318  0.3461133E+02  0.3009179E+02  0.3747369E+02  0.2280088E+03
Ar 1319  0.3498174E+02  0.2701490E+02  0.2656088E+01  0.2178707E+02
Ar 1320  0.3212896E+02  0.2914855E+02  0.2988996E+01  0.8918119E+02
Ar 1321  0.3253625E+02  0.2650734E+02  0.5606189E+01  0.2457393E+03
Ar 1322  0.3512366E+02  0.2921533E+02  0.5488714E+01  0.1709660E+03
Ar 1323  0.3527089E+02  0.2680207E+02  0.7859751E+01  0.2183228E+03
Ar 1324  0.3247152E+02  0.2959484E+02  0.8307182E+01  0.8178535E+02
Ar 1325  0.3317593E+02  0.2679414E+02  0.1065737E+02  0.2680905E+03
Ar 1326  0.3527597E+02  0.2961792E+02  0.1120918E+02  0.2027627E+03
Ar 1327  0.3553886E+02  0.2680156E+02  0.1348049E+02  0.1314271E+03
Ar 1328  0.3249411E+02  0.2880928E+02  0.1366211E+02  0.8364345E+02
Ar 1329  0.3276626E+02  0.2660269E+02  0.1649272E+02  0.3142250E+03
Ar 1330  0.3546583E+02  0.2933905E+02  0.1586923E+02  0.3379581E+03
Ar 1331  0.3502097E+02  0.2772685E+02  0.1902813E+02  0.3616835E+02
Ar 1332  0.3256578E+02  0.3019524E+02  0.1878346E+02  0.5874274E+02
Ar 1333  0.3205455E+02  0.2671409E+02  0.2169395E+02  0.1020883E+03
Ar 1334  0.3555272E+02  0.3046579E+02  0.2192041E+02  0.2158545E+03
Ar 1335  0.3539695E+02  0.2713006E+02  0.2477395E+02  0.1139658E+03
Ar 1336  0.3309337E+02  0.2969615E+02  0.2421639E+02  0.1924381E+03
Ar 1337  0.3211118E+02  0.2726065E+02  0.2747137E+02  0.5412146E+02
Ar 1338  0.3519404E+02  0.2990228E+02  0.2766058E+02  0.3138040E+03
Ar 1339  0.3494467E+02  0.2684392E+02  0.2996270E+02  0.1520411E+03
Ar 1340  0.3254649E+02  0.2956528E+02  0.3016106E+02  0.1129116E+03
Ar 1341  0.3277718E+02  0.2692050E+02  0.3313214E+02  0.7407101E+02
Ar 1342  0.3580991E+02  0.3003168E+02  0.3253756E+02  0.4217190E+02
Ar 1343  0.3588438E+02  0.2748140E+02  0.3535194E+02  0.3462527E+03
Ar 1344  0.3266162E+02  0.2996476E+02  0.3471181E+02  0.4285189E+02
Ar 1345  0.3155284E+02  0.3272050E+02  0.3691146E+02  0.7155032E+03
Ar 1346  0.3736749E+02  0.3388321E+02  0.3411398E+01  0.1084303E+03
Ar 1347  0.3447275E+02  0.3197852E+02  0.2623114E+01  0.2544799E+03
Ar 1348  0.3235727E+02  0.3507342E+02  0.2592402E+01  0.3535621E+03
Ar 1349  0.3210026E+02  0.3213889E+02  0.5307920E+01  0.4272592E+03
Ar 1350  0.3485111E+02  0.3534281E+02  0.5486592E+01  0.1043672E+03
Ar 1351  0.3505626E+02  0.3217052E+02  0.8327874E+01  0.1963117E+03
Ar 1352  0.3295613E+02  0.3486743E+02  0.8351332E+01  0.1564785E+03
Ar 1353  0.3276081E+02  0.3227894E+02  0.1101726E+02  0.2782372E+03
Ar 1354  0.3506034E+02  0.3523161E+02  0.1138116E+02  0.1757116E+03
Ar 1355  0.3589289E+02  0.3224488E+02  0.1401833E+02  0.1080528E+03
Ar 1356  0.3205375E+02  0.3508868E+02  0.1339879E+02  0.6833040E+02
Ar 1357  0.3212209E+02  0.3289291E+02  0.1608377E+02  0.4481676E+02
Ar 1358  0.3557598E+02  0.3498032E+02  0.1632645E+02  0.7534799E+03
Ar 1359  0.3531362E+02  0.3244264E+02  0.1875578E+02  0.7169403E+02
Ar 1360  0.3279238E+02  0.3531134E+02  0.1902372E+02  0.3074715E+03
Ar 1361  0.3247385E+02  0.3240721E+02  0.2227639E+02  0.2523038E+03
Ar 1362  0.3552450E+02  0.3551056E+02  0.2179821E+02  0.1571987E+03
Ar 1363  0.3524132E+02  0.3267087E+02  0.2502693E+02  0.2963066E+03
Ar 1364  0.3236458E+02  0.3543824E+02  0.2433344E+02  0.1171042E+03
Ar 1365  0.3207704E+02  0.3246498E+02  0.2687791E+02  0.6781707E+02
Ar 1366  0.3471224E+02  0.3533756E+02  0.2717776E+02  0.2679905E+03
Ar 1367  0.3493139E+02  0.3243798E+02  0.2978881E+02  0.1277865E+03
Ar 1368  0.3222410E+02  0.3526934E+02  0.2961144E+02  0.9337208E+02
Ar 1369  0.3510470E+02  0.3492795E+02  0.3770354E+02  0.2869757E+03
Ar 1370  0.3448955E+02  0.3508446E+02  0.3222913E+02  0.3045799E+03
Ar 1371  0.3528378E+02  0.3245621E+02  0.3493677E+02  0.2682755E+03
Ar 1372  0.3194221E+02  0.3555520E+02  0.3505071E+02  0.2415165E+03
