        1372
Lattice="  0.3778015E+02  0.0000000E+00  0.0000000E+00  0.0000000E+00  0.3778015E+02  0.0000000E+00  0.0000000E+00  0.0000000E+00  0.3778015E+02" Properties=species:S:1:id:I:1:pos:R:3:tempK:R:1
Ar    1  0.3761944E+02  0.3761944E+02  0.3761944E+02  0.6166394E+03
Ar    2  0.2631081E+01  0.2631081E+01  0.3691844E+02  0.3254495E+02
Ar    3  0.2631081E+01  0.3691844E+02  0.2631081E+01  0.3254495E+02
Ar    4  0.3691844E+02  0.2631081E+01  0.2631081E+01  0.3254495E+02
Ar    5  0.3732380E+02  0.3732380E+02  0.5657489E+01  0.6329544E+02
Ar    6  0.2556211E+01  0.2556211E+01  0.5547568E+01  0.3929833E+02
Ar    7  0.2437286E+01  0.3730243E+02  0.8563921E+01  0.5997747E+02
Ar    8  0.3730243E+02  0.2437286E+01  0.8563921E+01  0.5997747E+02
Ar    9  0.3753544E+02  0.3753544E+02  0.1101565E+02  0.8329562E+01
Ar   10  0.2386851E+01  0.2386851E+01  0.1097885E+02  0.1109348E+03
Ar   11  0.2762710E+01  0.3748029E+02  0.1347299E+02  0.1097051E+03
Ar   12  0.3748029E+02  0.2762710E+01  0.1347299E+02  0.1097051E+03
Ar   13  0.3773660E+02  0.3773660E+02  0.1637715E+02  0.2032437E+03
Ar   14  0.2372622E+01  0.2372622E+01  0.1583708E+02  0.3740870E+02
Ar   15  0.2574078E+01  0.3732903E+02  0.1899550E+02  0.1488295E+03
Ar   16  0.3732903E+02  0.2574078E+01  0.1899550E+02  0.1488295E+03
Ar   17  0.3775333E+02  0.3775333E+02  0.2131006E+02  0.9651832E+01
Ar   18  0.2614116E+01  0.2614116E+01  0.2191927E+02  0.1912069E+03
Ar   19  0.2605829E+01  0.3755863E+02  0.2419829E+02  0.2357101E+02
Ar   20  0.3755863E+02  0.2605829E+01  0.2419829E+02  0.2357101E+02
Ar   21  0.1212057E+00  0.1212057E+00  0.2686014E+02  0.1353873E+03
Ar   22  0.2590331E+01  0.2590331E+01  0.2650713E+02  0.1915895E+02
Ar   23  0.2672275E+01  0.3776488E+02  0.2947922E+02  0.1192750E+03
Ar   24  0.3776488E+02  0.2672275E+01  0.2947922E+02  0.1192750E+03
Ar   25  0.3761660E+02  0.3761660E+02  0.3196681E+02  0.7977131E+01
Ar   26  0.2401742E+01  0.2401742E+01  0.3258847E+02  0.4062959E+02
Ar   27  0.2844757E+01  0.3739015E+02  0.3481588E+02  0.1917640E+03
Ar   28  0.3739015E+02  0.2844757E+01  0.3481588E+02  0.1917640E+03
Ar   29  0.3732380E+02  0.5657489E+01  0.3732380E+02  0.6329544E+02
Ar   30  0.2437286E+01  0.8563921E+01  0.3730243E+02  0.5997747E+02
Ar   31  0.2556211E+01  0.5547568E+01  0.2556211E+01  0.3929833E+02
Ar   32  0.3730243E+02  0.8563921E+01  0.2437286E+01  0.5997747E+02
Ar   33  0.3694704E+02  0.5463763E+01  0.5463763E+01  0.3107884E+02
Ar   34  0.2638382E+01  0.8969151E+01  0.5446308E+01  0.3171228E+02
Ar   35  0.2638382E+01  0.5446308E+01  0.8969151E+01  0.3171228E+02
Ar   36  0.3763917E+02  0.8242406E+01  0.8242406E+01  0.6015669E+03
Ar   37  0.3739264E+02  0.5255283E+01  0.1106212E+02  0.1913241E+03
Ar   38  0.2849690E+01  0.8475422E+01  0.1105252E+02  0.1940487E+03
Ar   39  0.2407794E+01  0.5691360E+01  0.1328281E+02  0.3847028E+02
Ar   40  0.3762034E+02  0.8253632E+01  0.1390073E+02  0.6980639E+01
Ar   41  0.3774767E+02  0.5413297E+01  0.1639333E+02  0.1226319E+03
Ar   42  0.2677651E+01  0.8121359E+01  0.1639134E+02  0.1267139E+03
Ar   43  0.2590937E+01  0.5497491E+01  0.1936257E+02  0.2068369E+02
Ar   44  0.1139666E+00  0.7967265E+01  0.1902381E+02  0.1327709E+03
Ar   45  0.3757689E+02  0.5484341E+01  0.2168151E+02  0.2364567E+02
Ar   46  0.2604296E+01  0.8298594E+01  0.2167721E+02  0.2266198E+02
Ar   47  0.2618837E+01  0.5470544E+01  0.2397762E+02  0.2026726E+03
Ar   48  0.3775213E+02  0.8127393E+01  0.2457886E+02  0.8398839E+01
Ar   49  0.3731670E+02  0.5509172E+01  0.2688464E+02  0.1318315E+03
Ar   50  0.2592823E+01  0.8545081E+01  0.2689033E+02  0.1522737E+03
Ar   51  0.2355548E+01  0.5745003E+01  0.3006065E+02  0.3567896E+02
Ar   52  0.3773179E+02  0.8149275E+01  0.2949937E+02  0.1853618E+03
Ar   53  0.3746576E+02  0.5337481E+01  0.3240143E+02  0.1067162E+03
Ar   54  0.2752218E+01  0.8402587E+01  0.3240889E+02  0.1171045E+03
Ar   55  0.2390143E+01  0.5703847E+01  0.3489415E+02  0.1101659E+03
Ar   56  0.3754107E+02  0.8340155E+01  0.3486318E+02  0.9132069E+01
Ar   57  0.3753544E+02  0.1101565E+02  0.3753544E+02  0.8329562E+01
Ar   58  0.2762710E+01  0.1347299E+02  0.3748029E+02  0.1097051E+03
Ar   59  0.2386851E+01  0.1097885E+02  0.2386851E+01  0.1109348E+03
Ar   60  0.3748029E+02  0.1347299E+02  0.2762710E+01  0.1097051E+03
Ar   61  0.3739264E+02  0.1106212E+02  0.5255283E+01  0.1913241E+03
Ar   62  0.2407794E+01  0.1328281E+02  0.5691360E+01  0.3847028E+02
Ar   63  0.2849690E+01  0.1105252E+02  0.8475422E+01  0.1940487E+03
Ar   64  0.3762034E+02  0.1390073E+02  0.8253632E+01  0.6980639E+01
Ar   65  0.2780506E-01  0.1096161E+02  0.1096161E+02  0.2428985E+02
Ar   66  0.2889265E+01  0.1353537E+02  0.1092670E+02  0.4749992E+02
Ar   67  0.2889265E+01  0.1092670E+02  0.1353537E+02  0.4749992E+02
Ar   68  0.3775415E+02  0.1379434E+02  0.1379434E+02  0.1165408E+03
Ar   69  0.1205354E+00  0.1097239E+02  0.1610331E+02  0.1120446E+03
Ar   70  0.2851796E+01  0.1383504E+02  0.1628570E+02  0.1341350E+03
Ar   71  0.2839838E+01  0.1106217E+02  0.1914911E+02  0.9286864E+02
Ar   72  0.3753081E+02  0.1356845E+02  0.1896194E+02  0.9840222E+02
Ar   73  0.3753804E+02  0.1098579E+02  0.2152614E+02  0.1747425E+03
Ar   74  0.2726402E+01  0.1357473E+02  0.2175887E+02  0.7865557E+02
Ar   75  0.2700858E+01  0.1108136E+02  0.2427507E+02  0.4406213E+02
Ar   76  0.3768111E+02  0.1364422E+02  0.2418956E+02  0.8375878E+02
Ar   77  0.3772944E+02  0.1116737E+02  0.2665308E+02  0.3645073E+02
Ar   78  0.2726852E+01  0.1355168E+02  0.2706920E+02  0.1005972E+03
Ar   79  0.2509816E+01  0.1077536E+02  0.2965981E+02  0.6241979E+02
Ar   80  0.3768725E+02  0.1363989E+02  0.2950317E+02  0.2574136E+02
Ar   81  0.3743935E+02  0.1117726E+02  0.3200969E+02  0.4720163E+02
Ar   82  0.2516788E+01  0.1364210E+02  0.3223622E+02  0.1183662E+03
Ar   83  0.2366066E+01  0.1093519E+02  0.3493351E+02  0.5922728E+02
Ar   84  0.3744041E+02  0.1385853E+02  0.3469508E+02  0.4710302E+02
Ar   85  0.3773660E+02  0.1637715E+02  0.3773660E+02  0.2032437E+03
Ar   86  0.2574078E+01  0.1899550E+02  0.3732903E+02  0.1488295E+03
Ar   87  0.2372622E+01  0.1583708E+02  0.2372622E+01  0.3740870E+02
Ar   88  0.3732903E+02  0.1899550E+02  0.2574078E+01  0.1488295E+03
Ar   89  0.3774767E+02  0.1639333E+02  0.5413297E+01  0.1226319E+03
Ar   90  0.2590937E+01  0.1936257E+02  0.5497491E+01  0.2068369E+02
Ar   91  0.2677651E+01  0.1639134E+02  0.8121359E+01  0.1267139E+03
Ar   92  0.1139666E+00  0.1902381E+02  0.7967265E+01  0.1327709E+03
Ar   93  0.1205354E+00  0.1610331E+02  0.1097239E+02  0.1120446E+03
Ar   94  0.2839838E+01  0.1914911E+02  0.1106217E+02  0.9286864E+02
Ar   95  0.2851796E+01  0.1628570E+02  0.1383504E+02  0.1341350E+03
Ar   96  0.3753081E+02  0.1896194E+02  0.1356845E+02  0.9840222E+02
Ar   97  0.3739726E+02  0.1615595E+02  0.1615595E+02  0.1519159E+03
Ar   98  0.2647420E+01  0.1905614E+02  0.1630193E+02  0.4608586E+02
Ar   99  0.2647420E+01  0.1630193E+02  0.1905614E+02  0.4608586E+02
Ar  100  0.3765556E+02  0.1868945E+02  0.1868945E+02  0.1153181E+03
Ar  101  0.3766976E+02  0.1618221E+02  0.2150497E+02  0.2017288E+03
Ar  102  0.2822998E+01  0.1881117E+02  0.2158622E+02  0.9560107E+02
Ar  103  0.2779129E+01  0.1619757E+02  0.2422111E+02  0.3507802E+02
Ar  104  0.3776218E+02  0.1883933E+02  0.2448034E+02  0.8616220E+02
Ar  105  0.1241972E+00  0.1612429E+02  0.2676111E+02  0.4407444E+02
Ar  106  0.3124260E+01  0.1893338E+02  0.2694090E+02  0.2856018E+02
Ar  107  0.2285402E+01  0.1630349E+02  0.2958247E+02  0.1599015E+03
Ar  108  0.1210192E+00  0.1911504E+02  0.2974846E+02  0.4428006E+02
Ar  109  0.3768229E+02  0.1638621E+02  0.3224238E+02  0.2670857E+02
Ar  110  0.2726727E+01  0.1881477E+02  0.3232291E+02  0.9309472E+02
Ar  111  0.2509492E+01  0.1622312E+02  0.3510212E+02  0.6557888E+02
Ar  112  0.3771794E+02  0.1922035E+02  0.3470498E+02  0.3635886E+02
Ar  113  0.3775333E+02  0.2131006E+02  0.3775333E+02  0.9651832E+01
Ar  114  0.2605829E+01  0.2419829E+02  0.3755863E+02  0.2357101E+02
Ar  115  0.2614116E+01  0.2191927E+02  0.2614116E+01  0.1912069E+03
Ar  116  0.3755863E+02  0.2419829E+02  0.2605829E+01  0.2357101E+02
Ar  117  0.3757689E+02  0.2168151E+02  0.5484341E+01  0.2364567E+02
Ar  118  0.2618837E+01  0.2397762E+02  0.5470544E+01  0.2026726E+03
Ar  119  0.2604296E+01  0.2167721E+02  0.8298594E+01  0.2266198E+02
Ar  120  0.3775213E+02  0.2457886E+02  0.8127393E+01  0.8398839E+01
Ar  121  0.3753804E+02  0.2152614E+02  0.1098579E+02  0.1747425E+03
Ar  122  0.2700858E+01  0.2427507E+02  0.1108136E+02  0.4406213E+02
Ar  123  0.2726402E+01  0.2175887E+02  0.1357473E+02  0.7865557E+02
Ar  124  0.3768111E+02  0.2418956E+02  0.1364422E+02  0.8375878E+02
Ar  125  0.3766976E+02  0.2150497E+02  0.1618221E+02  0.2017288E+03
Ar  126  0.2779129E+01  0.2422111E+02  0.1619757E+02  0.3507802E+02
Ar  127  0.2822998E+01  0.2158622E+02  0.1881117E+02  0.9560107E+02
Ar  128  0.3776218E+02  0.2448034E+02  0.1883933E+02  0.8616220E+02
Ar  129  0.3766145E+02  0.2142770E+02  0.2142770E+02  0.9050036E+02
Ar  130  0.2434451E+01  0.2435765E+02  0.2151916E+02  0.1425976E+02
Ar  131  0.2434451E+01  0.2151916E+02  0.2435765E+02  0.1425976E+02
Ar  132  0.3766282E+02  0.2443355E+02  0.2443355E+02  0.1028125E+03
Ar  133  0.3777204E+02  0.2139152E+02  0.2703037E+02  0.8238079E+02
Ar  134  0.2827371E+01  0.2428968E+02  0.2705101E+02  0.8783381E+02
Ar  135  0.2776582E+01  0.2165160E+02  0.2967314E+02  0.3622743E+02
Ar  136  0.3765611E+02  0.2437706E+02  0.2969947E+02  0.2010295E+03
Ar  137  0.3767420E+02  0.2168457E+02  0.3222932E+02  0.8677317E+02
Ar  138  0.2729483E+01  0.2410984E+02  0.3229398E+02  0.8441400E+02
Ar  139  0.2700761E+01  0.2159067E+02  0.3479273E+02  0.4181937E+02
Ar  140  0.3753555E+02  0.2434400E+02  0.3488840E+02  0.1940199E+03
Ar  141  0.1212057E+00  0.2686014E+02  0.1212057E+00  0.1353873E+03
Ar  142  0.2672275E+01  0.2947922E+02  0.3776488E+02  0.1192750E+03
Ar  143  0.2590331E+01  0.2650713E+02  0.2590331E+01  0.1915895E+02
Ar  144  0.3776488E+02  0.2947922E+02  0.2672275E+01  0.1192750E+03
Ar  145  0.3731670E+02  0.2688464E+02  0.5509172E+01  0.1318315E+03
Ar  146  0.2355548E+01  0.3006065E+02  0.5745003E+01  0.3567896E+02
Ar  147  0.2592823E+01  0.2689033E+02  0.8545081E+01  0.1522737E+03
Ar  148  0.3773179E+02  0.2949937E+02  0.8149275E+01  0.1853618E+03
Ar  149  0.3772944E+02  0.2665308E+02  0.1116737E+02  0.3645073E+02
Ar  150  0.2509816E+01  0.2965981E+02  0.1077536E+02  0.6241979E+02
Ar  151  0.2726852E+01  0.2706920E+02  0.1355168E+02  0.1005972E+03
Ar  152  0.3768725E+02  0.2950317E+02  0.1363989E+02  0.2574136E+02
Ar  153  0.1241972E+00  0.2676111E+02  0.1612429E+02  0.4407444E+02
Ar  154  0.2285402E+01  0.2958247E+02  0.1630349E+02  0.1599015E+03
Ar  155  0.3124260E+01  0.2694090E+02  0.1893338E+02  0.2856018E+02
Ar  156  0.1210192E+00  0.2974846E+02  0.1911504E+02  0.4428006E+02
Ar  157  0.3777204E+02  0.2703037E+02  0.2139152E+02  0.8238079E+02
Ar  158  0.2776582E+01  0.2967314E+02  0.2165160E+02  0.3622743E+02
Ar  159  0.2827371E+01  0.2705101E+02  0.2428968E+02  0.8783381E+02
Ar  160  0.3765611E+02  0.2969947E+02  0.2437706E+02  0.2010295E+03
Ar  161  0.3765389E+02  0.2718611E+02  0.2718611E+02  0.1157218E+03
Ar  162  0.2645089E+01  0.2955645E+02  0.2681670E+02  0.4558668E+02
Ar  163  0.2645089E+01  0.2681670E+02  0.2955645E+02  0.4558668E+02
Ar  164  0.3740295E+02  0.2972060E+02  0.2972060E+02  0.1462469E+03
Ar  165  0.3752833E+02  0.2691285E+02  0.3230399E+02  0.9430920E+02
Ar  166  0.2860960E+01  0.2958906E+02  0.3203396E+02  0.1325181E+03
Ar  167  0.2847132E+01  0.2673420E+02  0.3480615E+02  0.9461478E+02
Ar  168  0.1194930E+00  0.2977349E+02  0.3488788E+02  0.9998118E+02
Ar  169  0.3761660E+02  0.3196681E+02  0.3761660E+02  0.7977131E+01
Ar  170  0.2844757E+01  0.3481588E+02  0.3739015E+02  0.1917640E+03
Ar  171  0.2401742E+01  0.3258847E+02  0.2401742E+01  0.4062959E+02
Ar  172  0.3739015E+02  0.3481588E+02  0.2844757E+01  0.1917640E+03
Ar  173  0.3746576E+02  0.3240143E+02  0.5337481E+01  0.1067162E+03
Ar  174  0.2390143E+01  0.3489415E+02  0.5703847E+01  0.1101659E+03
Ar  175  0.2752218E+01  0.3240889E+02  0.8402587E+01  0.1171045E+03
Ar  176  0.3754107E+02  0.3486318E+02  0.8340155E+01  0.9132069E+01
Ar  177  0.3743935E+02  0.3200969E+02  0.1117726E+02  0.4720163E+02
Ar  178  0.2366066E+01  0.3493351E+02  0.1093519E+02  0.5922728E+02
Ar  179  0.2516788E+01  0.3223622E+02  0.1364210E+02  0.1183662E+03
Ar  180  0.3744041E+02  0.3469508E+02  0.1385853E+02  0.4710302E+02
Ar  181  0.3768229E+02  0.3224238E+02  0.1638621E+02  0.2670857E+02
Ar  182  0.2509492E+01  0.3510212E+02  0.1622312E+02  0.6557888E+02
Ar  183  0.2726727E+01  0.3232291E+02  0.1881477E+02  0.9309472E+02
Ar  184  0.3771794E+02  0.3470498E+02  0.1922035E+02  0.3635886E+02
Ar  185  0.3767420E+02  0.3222932E+02  0.2168457E+02  0.8677317E+02
Ar  186  0.2700761E+01  0.3479273E+02  0.2159067E+02  0.4181937E+02
Ar  187  0.2729483E+01  0.3229398E+02  0.2410984E+02  0.8441400E+02
Ar  188  0.3753555E+02  0.3488840E+02  0.2434400E+02  0.1940199E+03
Ar  189  0.3752833E+02  0.3230399E+02  0.2691285E+02  0.9430920E+02
Ar  190  0.2847132E+01  0.3480615E+02  0.2673420E+02  0.9461478E+02
Ar  191  0.2860960E+01  0.3203396E+02  0.2958906E+02  0.1325181E+03
Ar  192  0.1194930E+00  0.3488788E+02  0.2977349E+02  0.9998118E+02
Ar  193  0.3774033E+02  0.3208995E+02  0.3208995E+02  0.1094612E+03
Ar  194  0.2890090E+01  0.3494433E+02  0.3233824E+02  0.4262104E+02
Ar  195  0.2890090E+01  0.3233824E+02  0.3494433E+02  0.4262104E+02
Ar  196  0.1740877E-01  0.3492423E+02  0.3492423E+02  0.2297854E+02
Ar  197  0.5657489E+01  0.3732380E+02  0.3732380E+02  0.6329544E+02
Ar  198  0.8563921E+01  0.2437286E+01  0.3730243E+02  0.5997747E+02
Ar  199  0.8563921E+01  0.3730243E+02  0.2437286E+01  0.5997747E+02
Ar  200  0.5547568E+01  0.2556211E+01  0.2556211E+01  0.3929833E+02
Ar  201  0.5463763E+01  0.3694704E+02  0.5463763E+01  0.3107884E+02
Ar  202  0.8969151E+01  0.2638382E+01  0.5446308E+01  0.3171228E+02
Ar  203  0.8242406E+01  0.3763917E+02  0.8242406E+01  0.6015669E+03
Ar  204  0.5446308E+01  0.2638382E+01  0.8969151E+01  0.3171228E+02
Ar  205  0.5255283E+01  0.3739264E+02  0.1106212E+02  0.1913241E+03
Ar  206  0.8475422E+01  0.2849690E+01  0.1105252E+02  0.1940487E+03
Ar  207  0.8253632E+01  0.3762034E+02  0.1390073E+02  0.6980639E+01
Ar  208  0.5691360E+01  0.2407794E+01  0.1328281E+02  0.3847028E+02
Ar  209  0.5413297E+01  0.3774767E+02  0.1639333E+02  0.1226319E+03
Ar  210  0.8121359E+01  0.2677651E+01  0.1639134E+02  0.1267139E+03
Ar  211  0.7967265E+01  0.1139666E+00  0.1902381E+02  0.1327709E+03
Ar  212  0.5497491E+01  0.2590937E+01  0.1936257E+02  0.2068369E+02
Ar  213  0.5484341E+01  0.3757689E+02  0.2168151E+02  0.2364567E+02
Ar  214  0.8298594E+01  0.2604296E+01  0.2167721E+02  0.2266198E+02
Ar  215  0.8127393E+01  0.3775213E+02  0.2457886E+02  0.8398839E+01
Ar  216  0.5470544E+01  0.2618837E+01  0.2397762E+02  0.2026726E+03
Ar  217  0.5509172E+01  0.3731670E+02  0.2688464E+02  0.1318315E+03
Ar  218  0.8545081E+01  0.2592823E+01  0.2689033E+02  0.1522737E+03
Ar  219  0.8149275E+01  0.3773179E+02  0.2949937E+02  0.1853618E+03
Ar  220  0.5745003E+01  0.2355548E+01  0.3006065E+02  0.3567896E+02
Ar  221  0.5337481E+01  0.3746576E+02  0.3240143E+02  0.1067162E+03
Ar  222  0.8402587E+01  0.2752218E+01  0.3240889E+02  0.1171045E+03
Ar  223  0.8340155E+01  0.3754107E+02  0.3486318E+02  0.9132069E+01
Ar  224  0.5703847E+01  0.2390143E+01  0.3489415E+02  0.1101659E+03
Ar  225  0.5463763E+01  0.5463763E+01  0.3694704E+02  0.3107884E+02
Ar  226  0.8242406E+01  0.8242406E+01  0.3763917E+02  0.6015669E+03
Ar  227  0.8969151E+01  0.5446308E+01  0.2638382E+01  0.3171228E+02
Ar  228  0.5446308E+01  0.8969151E+01  0.2638382E+01  0.3171228E+02
Ar  229  0.5517241E+01  0.5517241E+01  0.5517241E+01  0.4446411E+02
Ar  230  0.8545317E+01  0.8545317E+01  0.5657291E+01  0.6730709E+02
Ar  231  0.8545317E+01  0.5657291E+01  0.8545317E+01  0.6730709E+02
Ar  232  0.5657291E+01  0.8545317E+01  0.8545317E+01  0.6730709E+02
Ar  233  0.5711644E+01  0.5711644E+01  0.1097164E+02  0.1205802E+03
Ar  234  0.8350246E+01  0.8350246E+01  0.1101575E+02  0.9486556E+01
Ar  235  0.8415385E+01  0.5346000E+01  0.1346896E+02  0.1124585E+03
Ar  236  0.5346000E+01  0.8415385E+01  0.1346896E+02  0.1124585E+03
Ar  237  0.5740216E+01  0.5740216E+01  0.1581367E+02  0.3959405E+02
Ar  238  0.8140029E+01  0.8140029E+01  0.1639181E+02  0.1898603E+03
Ar  239  0.8554822E+01  0.5502255E+01  0.1899367E+02  0.1483710E+03
Ar  240  0.5502255E+01  0.8554822E+01  0.1899367E+02  0.1483710E+03
Ar  241  0.5477245E+01  0.5477245E+01  0.2189691E+02  0.2147174E+03
Ar  242  0.8127588E+01  0.8127588E+01  0.2130404E+02  0.8146047E+01
Ar  243  0.8297421E+01  0.5484873E+01  0.2420481E+02  0.1974094E+02
Ar  244  0.5484873E+01  0.8297421E+01  0.2420481E+02  0.1974094E+02
Ar  245  0.5501476E+01  0.5501476E+01  0.2651691E+02  0.2073340E+02
Ar  246  0.7967442E+01  0.7967442E+01  0.2685261E+02  0.1328802E+03
Ar  247  0.8130309E+01  0.5419709E+01  0.2949447E+02  0.1233441E+03
Ar  248  0.5419709E+01  0.8130309E+01  0.2949447E+02  0.1233441E+03
Ar  249  0.5695806E+01  0.5695806E+01  0.3259052E+02  0.4512130E+02
Ar  250  0.8259943E+01  0.8259943E+01  0.3198189E+02  0.5503986E+01
Ar  251  0.8476176E+01  0.5252256E+01  0.3482782E+02  0.2049973E+03
Ar  252  0.5252256E+01  0.8476176E+01  0.3482782E+02  0.2049973E+03
Ar  253  0.5255283E+01  0.1106212E+02  0.3739264E+02  0.1913241E+03
Ar  254  0.8253632E+01  0.1390073E+02  0.3762034E+02  0.6980639E+01
Ar  255  0.8475422E+01  0.1105252E+02  0.2849690E+01  0.1940487E+03
Ar  256  0.5691360E+01  0.1328281E+02  0.2407794E+01  0.3847028E+02
Ar  257  0.5711644E+01  0.1097164E+02  0.5711644E+01  0.1205802E+03
Ar  258  0.8415385E+01  0.1346896E+02  0.5346000E+01  0.1124585E+03
Ar  259  0.8350246E+01  0.1101575E+02  0.8350246E+01  0.9486556E+01
Ar  260  0.5346000E+01  0.1346896E+02  0.8415385E+01  0.1124585E+03
Ar  261  0.5729019E+01  0.1092428E+02  0.1092428E+02  0.7682713E+02
Ar  262  0.8438459E+01  0.1386698E+02  0.1117979E+02  0.4305192E+02
Ar  263  0.8438459E+01  0.1117979E+02  0.1386698E+02  0.4305192E+02
Ar  264  0.5587395E+01  0.1364801E+02  0.1364801E+02  0.1077045E+03
Ar  265  0.5582947E+01  0.1076821E+02  0.1622652E+02  0.6040534E+02
Ar  266  0.8193875E+01  0.1362437E+02  0.1638433E+02  0.2423765E+02
Ar  267  0.8155277E+01  0.1116891E+02  0.1922422E+02  0.3794463E+02
Ar  268  0.5367557E+01  0.1354671E+02  0.1880452E+02  0.9828755E+02
Ar  269  0.5403548E+01  0.1108164E+02  0.2159601E+02  0.4354998E+02
Ar  270  0.8190999E+01  0.1364783E+02  0.2169081E+02  0.9002109E+02
Ar  271  0.8338159E+01  0.1099363E+02  0.2434694E+02  0.1865036E+03
Ar  272  0.5368963E+01  0.1357893E+02  0.2411082E+02  0.7754563E+02
Ar  273  0.5260589E+01  0.1106825E+02  0.2673001E+02  0.9710343E+02
Ar  274  0.8346434E+01  0.1356805E+02  0.2691536E+02  0.1027784E+03
Ar  275  0.7982920E+01  0.1096753E+02  0.2977871E+02  0.1076227E+03
Ar  276  0.5246165E+01  0.1384414E+02  0.2958898E+02  0.1340869E+03
Ar  277  0.5205779E+01  0.1092515E+02  0.3234123E+02  0.4613881E+02
Ar  278  0.8128168E+01  0.1378747E+02  0.3208541E+02  0.1163124E+03
Ar  279  0.8065077E+01  0.1095674E+02  0.3492210E+02  0.2213828E+02
Ar  280  0.5197457E+01  0.1353207E+02  0.3494159E+02  0.4607970E+02
Ar  281  0.5413297E+01  0.1639333E+02  0.3774767E+02  0.1226319E+03
Ar  282  0.7967265E+01  0.1902381E+02  0.1139666E+00  0.1327709E+03
Ar  283  0.8121359E+01  0.1639134E+02  0.2677651E+01  0.1267139E+03
Ar  284  0.5497491E+01  0.1936257E+02  0.2590937E+01  0.2068369E+02
Ar  285  0.5740216E+01  0.1581367E+02  0.5740216E+01  0.3959405E+02
Ar  286  0.8554822E+01  0.1899367E+02  0.5502255E+01  0.1483710E+03
Ar  287  0.8140029E+01  0.1639181E+02  0.8140029E+01  0.1898603E+03
Ar  288  0.5502255E+01  0.1899367E+02  0.8554822E+01  0.1483710E+03
Ar  289  0.5582947E+01  0.1622652E+02  0.1076821E+02  0.6040534E+02
Ar  290  0.8155277E+01  0.1922422E+02  0.1116891E+02  0.3794463E+02
Ar  291  0.8193875E+01  0.1638433E+02  0.1362437E+02  0.2423765E+02
Ar  292  0.5367557E+01  0.1880452E+02  0.1354671E+02  0.9828755E+02
Ar  293  0.5818491E+01  0.1629992E+02  0.1629992E+02  0.1608140E+03
Ar  294  0.7974584E+01  0.1911906E+02  0.1612524E+02  0.4291877E+02
Ar  295  0.7974584E+01  0.1612524E+02  0.1911906E+02  0.4291877E+02
Ar  296  0.4973241E+01  0.1893134E+02  0.1893134E+02  0.2959430E+02
Ar  297  0.5319777E+01  0.1619090E+02  0.2165636E+02  0.3490451E+02
Ar  298  0.8096548E+01  0.1883935E+02  0.2139083E+02  0.8590356E+02
Ar  299  0.8211607E+01  0.1617723E+02  0.2437682E+02  0.1975270E+03
Ar  300  0.5272009E+01  0.1882456E+02  0.2428669E+02  0.8718165E+02
Ar  301  0.5444189E+01  0.1631280E+02  0.2681641E+02  0.4745099E+02
Ar  302  0.8221174E+01  0.1869067E+02  0.2718771E+02  0.1154026E+03
Ar  303  0.8484047E+01  0.1615335E+02  0.2972302E+02  0.1543878E+03
Ar  304  0.5449337E+01  0.1906522E+02  0.2956503E+02  0.4635545E+02
Ar  305  0.5230718E+01  0.1628704E+02  0.3204284E+02  0.1298007E+03
Ar  306  0.8348463E+01  0.1895710E+02  0.3230717E+02  0.9776998E+02
Ar  307  0.7967752E+01  0.1609284E+02  0.3489105E+02  0.1117694E+03
Ar  308  0.5249886E+01  0.1913830E+02  0.3481479E+02  0.9392266E+02
Ar  309  0.5484341E+01  0.2168151E+02  0.3757689E+02  0.2364567E+02
Ar  310  0.8127393E+01  0.2457886E+02  0.3775213E+02  0.8398839E+01
Ar  311  0.8298594E+01  0.2167721E+02  0.2604296E+01  0.2266198E+02
Ar  312  0.5470544E+01  0.2397762E+02  0.2618837E+01  0.2026726E+03
Ar  313  0.5477245E+01  0.2189691E+02  0.5477245E+01  0.2147174E+03
Ar  314  0.8297421E+01  0.2420481E+02  0.5484873E+01  0.1974094E+02
Ar  315  0.8127588E+01  0.2130404E+02  0.8127588E+01  0.8146047E+01
Ar  316  0.5484873E+01  0.2420481E+02  0.8297421E+01  0.1974094E+02
Ar  317  0.5403548E+01  0.2159601E+02  0.1108164E+02  0.4354998E+02
Ar  318  0.8338159E+01  0.2434694E+02  0.1099363E+02  0.1865036E+03
Ar  319  0.8190999E+01  0.2169081E+02  0.1364783E+02  0.9002109E+02
Ar  320  0.5368963E+01  0.2411082E+02  0.1357893E+02  0.7754563E+02
Ar  321  0.5319777E+01  0.2165636E+02  0.1619090E+02  0.3490451E+02
Ar  322  0.8211607E+01  0.2437682E+02  0.1617723E+02  0.1975270E+03
Ar  323  0.8096548E+01  0.2139083E+02  0.1883935E+02  0.8590356E+02
Ar  324  0.5272009E+01  0.2428669E+02  0.1882456E+02  0.8718165E+02
Ar  325  0.5647089E+01  0.2151990E+02  0.2151990E+02  0.1336268E+02
Ar  326  0.8217425E+01  0.2443898E+02  0.2143035E+02  0.9477234E+02
Ar  327  0.8217425E+01  0.2143035E+02  0.2443898E+02  0.9477234E+02
Ar  328  0.5663485E+01  0.2435892E+02  0.2435892E+02  0.1411817E+02
Ar  329  0.5275260E+01  0.2159034E+02  0.2705597E+02  0.9614245E+02
Ar  330  0.8105166E+01  0.2447882E+02  0.2703249E+02  0.8458245E+02
Ar  331  0.8219200E+01  0.2149997E+02  0.2970214E+02  0.2030290E+03
Ar  332  0.5320902E+01  0.2423147E+02  0.2967505E+02  0.3746732E+02
Ar  333  0.5369909E+01  0.2176199E+02  0.3229686E+02  0.8016487E+02
Ar  334  0.8203496E+01  0.2418934E+02  0.3223595E+02  0.9132437E+02
Ar  335  0.8339681E+01  0.2153379E+02  0.3489263E+02  0.1753847E+03
Ar  336  0.5401649E+01  0.2427628E+02  0.3479631E+02  0.4324316E+02
Ar  337  0.5509172E+01  0.2688464E+02  0.3731670E+02  0.1318315E+03
Ar  338  0.8149275E+01  0.2949937E+02  0.3773179E+02  0.1853618E+03
Ar  339  0.8545081E+01  0.2689033E+02  0.2592823E+01  0.1522737E+03
Ar  340  0.5745003E+01  0.3006065E+02  0.2355548E+01  0.3567896E+02
Ar  341  0.5501476E+01  0.2651691E+02  0.5501476E+01  0.2073340E+02
Ar  342  0.8130309E+01  0.2949447E+02  0.5419709E+01  0.1233441E+03
Ar  343  0.7967442E+01  0.2685261E+02  0.7967442E+01  0.1328802E+03
Ar  344  0.5419709E+01  0.2949447E+02  0.8130309E+01  0.1233441E+03
Ar  345  0.5260589E+01  0.2673001E+02  0.1106825E+02  0.9710343E+02
Ar  346  0.7982920E+01  0.2977871E+02  0.1096753E+02  0.1076227E+03
Ar  347  0.8346434E+01  0.2691536E+02  0.1356805E+02  0.1027784E+03
Ar  348  0.5246165E+01  0.2958898E+02  0.1384414E+02  0.1340869E+03
Ar  349  0.5444189E+01  0.2681641E+02  0.1631280E+02  0.4745099E+02
Ar  350  0.8484047E+01  0.2972302E+02  0.1615335E+02  0.1543878E+03
Ar  351  0.8221174E+01  0.2718771E+02  0.1869067E+02  0.1154026E+03
Ar  352  0.5449337E+01  0.2956503E+02  0.1906522E+02  0.4635545E+02
Ar  353  0.5275260E+01  0.2705597E+02  0.2159034E+02  0.9614245E+02
Ar  354  0.8219200E+01  0.2970214E+02  0.2149997E+02  0.2030290E+03
Ar  355  0.8105166E+01  0.2703249E+02  0.2447882E+02  0.8458245E+02
Ar  356  0.5320902E+01  0.2967505E+02  0.2423147E+02  0.3746732E+02
Ar  357  0.4985285E+01  0.2694502E+02  0.2694502E+02  0.2565739E+02
Ar  358  0.7983162E+01  0.2975849E+02  0.2676079E+02  0.4590890E+02
Ar  359  0.7983162E+01  0.2676079E+02  0.2975849E+02  0.4590890E+02
Ar  360  0.5816690E+01  0.2957958E+02  0.2957958E+02  0.1653976E+03
Ar  361  0.5369156E+01  0.2707154E+02  0.3232384E+02  0.9755135E+02
Ar  362  0.8196618E+01  0.2949560E+02  0.3224279E+02  0.2619661E+02
Ar  363  0.8149291E+01  0.2665719E+02  0.3470793E+02  0.3840257E+02
Ar  364  0.5584710E+01  0.2966259E+02  0.3511417E+02  0.5667748E+02
Ar  365  0.5337481E+01  0.3240143E+02  0.3746576E+02  0.1067162E+03
Ar  366  0.8340155E+01  0.3486318E+02  0.3754107E+02  0.9132069E+01
Ar  367  0.8402587E+01  0.3240889E+02  0.2752218E+01  0.1171045E+03
Ar  368  0.5703847E+01  0.3489415E+02  0.2390143E+01  0.1101659E+03
Ar  369  0.5695806E+01  0.3259052E+02  0.5695806E+01  0.4512130E+02
Ar  370  0.8476176E+01  0.3482782E+02  0.5252256E+01  0.2049973E+03
Ar  371  0.8259943E+01  0.3198189E+02  0.8259943E+01  0.5503986E+01
Ar  372  0.5252256E+01  0.3482782E+02  0.8476176E+01  0.2049973E+03
Ar  373  0.5205779E+01  0.3234123E+02  0.1092515E+02  0.4613881E+02
Ar  374  0.8065077E+01  0.3492210E+02  0.1095674E+02  0.2213828E+02
Ar  375  0.8128168E+01  0.3208541E+02  0.1378747E+02  0.1163124E+03
Ar  376  0.5197457E+01  0.3494159E+02  0.1353207E+02  0.4607970E+02
Ar  377  0.5230718E+01  0.3204284E+02  0.1628704E+02  0.1298007E+03
Ar  378  0.7967752E+01  0.3489105E+02  0.1609284E+02  0.1117694E+03
Ar  379  0.8348463E+01  0.3230717E+02  0.1895710E+02  0.9776998E+02
Ar  380  0.5249886E+01  0.3481479E+02  0.1913830E+02  0.9392266E+02
Ar  381  0.5369909E+01  0.3229686E+02  0.2176199E+02  0.8016487E+02
Ar  382  0.8339681E+01  0.3489263E+02  0.2153379E+02  0.1753847E+03
Ar  383  0.8203496E+01  0.3223595E+02  0.2418934E+02  0.9132437E+02
Ar  384  0.5401649E+01  0.3479631E+02  0.2427628E+02  0.4324316E+02
Ar  385  0.5369156E+01  0.3232384E+02  0.2707154E+02  0.9755135E+02
Ar  386  0.8149291E+01  0.3470793E+02  0.2665719E+02  0.3840257E+02
Ar  387  0.8196618E+01  0.3224279E+02  0.2949560E+02  0.2619661E+02
Ar  388  0.5584710E+01  0.3511417E+02  0.2966259E+02  0.5667748E+02
Ar  389  0.5578643E+01  0.3223712E+02  0.3223712E+02  0.1128040E+03
Ar  390  0.8440055E+01  0.3469598E+02  0.3201002E+02  0.4280792E+02
Ar  391  0.8440055E+01  0.3201002E+02  0.3469598E+02  0.4280792E+02
Ar  392  0.5738931E+01  0.3494979E+02  0.3494979E+02  0.7382259E+02
Ar  393  0.1101565E+02  0.3753544E+02  0.3753544E+02  0.8329562E+01
Ar  394  0.1347299E+02  0.2762710E+01  0.3748029E+02  0.1097051E+03
Ar  395  0.1347299E+02  0.3748029E+02  0.2762710E+01  0.1097051E+03
Ar  396  0.1097885E+02  0.2386851E+01  0.2386851E+01  0.1109348E+03
Ar  397  0.1106212E+02  0.3739264E+02  0.5255283E+01  0.1913241E+03
Ar  398  0.1328281E+02  0.2407794E+01  0.5691360E+01  0.3847028E+02
Ar  399  0.1390073E+02  0.3762034E+02  0.8253632E+01  0.6980639E+01
Ar  400  0.1105252E+02  0.2849690E+01  0.8475422E+01  0.1940487E+03
Ar  401  0.1096161E+02  0.2780506E-01  0.1096161E+02  0.2428985E+02
Ar  402  0.1353537E+02  0.2889265E+01  0.1092670E+02  0.4749992E+02
Ar  403  0.1379434E+02  0.3775415E+02  0.1379434E+02  0.1165408E+03
Ar  404  0.1092670E+02  0.2889265E+01  0.1353537E+02  0.4749992E+02
Ar  405  0.1097239E+02  0.1205354E+00  0.1610331E+02  0.1120446E+03
Ar  406  0.1383504E+02  0.2851796E+01  0.1628570E+02  0.1341350E+03
Ar  407  0.1356845E+02  0.3753081E+02  0.1896194E+02  0.9840222E+02
Ar  408  0.1106217E+02  0.2839838E+01  0.1914911E+02  0.9286864E+02
Ar  409  0.1098579E+02  0.3753804E+02  0.2152614E+02  0.1747425E+03
Ar  410  0.1357473E+02  0.2726402E+01  0.2175887E+02  0.7865557E+02
Ar  411  0.1364422E+02  0.3768111E+02  0.2418956E+02  0.8375878E+02
Ar  412  0.1108136E+02  0.2700858E+01  0.2427507E+02  0.4406213E+02
Ar  413  0.1116737E+02  0.3772944E+02  0.2665308E+02  0.3645073E+02
Ar  414  0.1355168E+02  0.2726852E+01  0.2706920E+02  0.1005972E+03
Ar  415  0.1363989E+02  0.3768725E+02  0.2950317E+02  0.2574136E+02
Ar  416  0.1077536E+02  0.2509816E+01  0.2965981E+02  0.6241979E+02
Ar  417  0.1117726E+02  0.3743935E+02  0.3200969E+02  0.4720163E+02
Ar  418  0.1364210E+02  0.2516788E+01  0.3223622E+02  0.1183662E+03
Ar  419  0.1385853E+02  0.3744041E+02  0.3469508E+02  0.4710302E+02
Ar  420  0.1093519E+02  0.2366066E+01  0.3493351E+02  0.5922728E+02
Ar  421  0.1106212E+02  0.5255283E+01  0.3739264E+02  0.1913241E+03
Ar  422  0.1390073E+02  0.8253632E+01  0.3762034E+02  0.6980639E+01
Ar  423  0.1328281E+02  0.5691360E+01  0.2407794E+01  0.3847028E+02
Ar  424  0.1105252E+02  0.8475422E+01  0.2849690E+01  0.1940487E+03
Ar  425  0.1097164E+02  0.5711644E+01  0.5711644E+01  0.1205802E+03
Ar  426  0.1346896E+02  0.8415385E+01  0.5346000E+01  0.1124585E+03
Ar  427  0.1346896E+02  0.5346000E+01  0.8415385E+01  0.1124585E+03
Ar  428  0.1101575E+02  0.8350246E+01  0.8350246E+01  0.9486556E+01
Ar  429  0.1092428E+02  0.5729019E+01  0.1092428E+02  0.7682713E+02
Ar  430  0.1386698E+02  0.8438459E+01  0.1117979E+02  0.4305192E+02
Ar  431  0.1364801E+02  0.5587395E+01  0.1364801E+02  0.1077045E+03
Ar  432  0.1117979E+02  0.8438459E+01  0.1386698E+02  0.4305192E+02
Ar  433  0.1076821E+02  0.5582947E+01  0.1622652E+02  0.6040534E+02
Ar  434  0.1362437E+02  0.8193875E+01  0.1638433E+02  0.2423765E+02
Ar  435  0.1354671E+02  0.5367557E+01  0.1880452E+02  0.9828755E+02
Ar  436  0.1116891E+02  0.8155277E+01  0.1922422E+02  0.3794463E+02
Ar  437  0.1108164E+02  0.5403548E+01  0.2159601E+02  0.4354998E+02
Ar  438  0.1364783E+02  0.8190999E+01  0.2169081E+02  0.9002109E+02
Ar  439  0.1357893E+02  0.5368963E+01  0.2411082E+02  0.7754563E+02
Ar  440  0.1099363E+02  0.8338159E+01  0.2434694E+02  0.1865036E+03
Ar  441  0.1106825E+02  0.5260589E+01  0.2673001E+02  0.9710343E+02
Ar  442  0.1356805E+02  0.8346434E+01  0.2691536E+02  0.1027784E+03
Ar  443  0.1384414E+02  0.5246165E+01  0.2958898E+02  0.1340869E+03
Ar  444  0.1096753E+02  0.7982920E+01  0.2977871E+02  0.1076227E+03
Ar  445  0.1092515E+02  0.5205779E+01  0.3234123E+02  0.4613881E+02
Ar  446  0.1378747E+02  0.8128168E+01  0.3208541E+02  0.1163124E+03
Ar  447  0.1353207E+02  0.5197457E+01  0.3494159E+02  0.4607970E+02
Ar  448  0.1095674E+02  0.8065077E+01  0.3492210E+02  0.2213828E+02
Ar  449  0.1096161E+02  0.1096161E+02  0.2780506E-01  0.2428985E+02
Ar  450  0.1379434E+02  0.1379434E+02  0.3775415E+02  0.1165408E+03
Ar  451  0.1353537E+02  0.1092670E+02  0.2889265E+01  0.4749992E+02
Ar  452  0.1092670E+02  0.1353537E+02  0.2889265E+01  0.4749992E+02
Ar  453  0.1092428E+02  0.1092428E+02  0.5729019E+01  0.7682713E+02
Ar  454  0.1364801E+02  0.1364801E+02  0.5587395E+01  0.1077045E+03
Ar  455  0.1386698E+02  0.1117979E+02  0.8438459E+01  0.4305192E+02
Ar  456  0.1117979E+02  0.1386698E+02  0.8438459E+01  0.4305192E+02
Ar  457  0.1100154E+02  0.1100154E+02  0.1100154E+02  0.4805812E+03
Ar  458  0.1368196E+02  0.1368196E+02  0.1090584E+02  0.2925084E+03
Ar  459  0.1368196E+02  0.1090584E+02  0.1368196E+02  0.2925084E+03
Ar  460  0.1090584E+02  0.1368196E+02  0.1368196E+02  0.2925084E+03
Ar  461  0.1075334E+02  0.1075334E+02  0.1648764E+02  0.1581673E+02
Ar  462  0.1323534E+02  0.1323534E+02  0.1620461E+02  0.5697024E+03
Ar  463  0.1370381E+02  0.1094097E+02  0.1876230E+02  0.6652481E+01
Ar  464  0.1094097E+02  0.1370381E+02  0.1876230E+02  0.6652481E+01
Ar  465  0.1069983E+02  0.1069983E+02  0.2180562E+02  0.1643236E+03
Ar  466  0.1341513E+02  0.1341513E+02  0.2151618E+02  0.7528262E+01
Ar  467  0.1352866E+02  0.1091538E+02  0.2432566E+02  0.1089084E+03
Ar  468  0.1091538E+02  0.1352866E+02  0.2432566E+02  0.1089084E+03
Ar  469  0.1084956E+02  0.1084956E+02  0.2669491E+02  0.4692310E+02
Ar  470  0.1390870E+02  0.1390870E+02  0.2684976E+02  0.1650954E+03
Ar  471  0.1353926E+02  0.1081320E+02  0.2952138E+02  0.4214138E+02
Ar  472  0.1081320E+02  0.1353926E+02  0.2952138E+02  0.4214138E+02
Ar  473  0.1095423E+02  0.1095423E+02  0.3229164E+02  0.1722821E+03
Ar  474  0.1360260E+02  0.1360260E+02  0.3227972E+02  0.3475088E+02
Ar  475  0.1358593E+02  0.1095733E+02  0.3492355E+02  0.1699670E+03
Ar  476  0.1095733E+02  0.1358593E+02  0.3492355E+02  0.1699670E+03
Ar  477  0.1097239E+02  0.1610331E+02  0.1205354E+00  0.1120446E+03
Ar  478  0.1356845E+02  0.1896194E+02  0.3753081E+02  0.9840222E+02
Ar  479  0.1383504E+02  0.1628570E+02  0.2851796E+01  0.1341350E+03
Ar  480  0.1106217E+02  0.1914911E+02  0.2839838E+01  0.9286864E+02
Ar  481  0.1076821E+02  0.1622652E+02  0.5582947E+01  0.6040534E+02
Ar  482  0.1354671E+02  0.1880452E+02  0.5367557E+01  0.9828755E+02
Ar  483  0.1362437E+02  0.1638433E+02  0.8193875E+01  0.2423765E+02
Ar  484  0.1116891E+02  0.1922422E+02  0.8155277E+01  0.3794463E+02
Ar  485  0.1075334E+02  0.1648764E+02  0.1075334E+02  0.1581673E+02
Ar  486  0.1370381E+02  0.1876230E+02  0.1094097E+02  0.6652481E+01
Ar  487  0.1323534E+02  0.1620461E+02  0.1323534E+02  0.5697024E+03
Ar  488  0.1094097E+02  0.1876230E+02  0.1370381E+02  0.6652481E+01
Ar  489  0.1104418E+02  0.1602226E+02  0.1602226E+02  0.2701000E+02
Ar  490  0.1352525E+02  0.1871999E+02  0.1630979E+02  0.1483073E+02
Ar  491  0.1352525E+02  0.1630979E+02  0.1871999E+02  0.1483073E+02
Ar  492  0.1069093E+02  0.1892859E+02  0.1892859E+02  0.2418171E+02
Ar  493  0.1069867E+02  0.1606233E+02  0.2153080E+02  0.1644228E+03
Ar  494  0.1336964E+02  0.1873517E+02  0.2160656E+02  0.1387972E+02
Ar  495  0.1361593E+02  0.1613821E+02  0.2420750E+02  0.5638510E+02
Ar  496  0.1096311E+02  0.1900374E+02  0.2412177E+02  0.2268828E+02
Ar  497  0.1097647E+02  0.1627045E+02  0.2672541E+02  0.6454973E+02
Ar  498  0.1401866E+02  0.1878615E+02  0.2709418E+02  0.4777976E+02
Ar  499  0.1349709E+02  0.1617452E+02  0.2970756E+02  0.1199901E+03
Ar  500  0.1098355E+02  0.1915532E+02  0.2959863E+02  0.6292114E+02
Ar  501  0.1082336E+02  0.1635473E+02  0.3232699E+02  0.3958246E+02
Ar  502  0.1392171E+02  0.1902233E+02  0.3195034E+02  0.1714782E+03
Ar  503  0.1354800E+02  0.1635599E+02  0.3505589E+02  0.3997996E+02
Ar  504  0.1085148E+02  0.1917742E+02  0.3502339E+02  0.4370039E+02
Ar  505  0.1098579E+02  0.2152614E+02  0.3753804E+02  0.1747425E+03
Ar  506  0.1364422E+02  0.2418956E+02  0.3768111E+02  0.8375878E+02
Ar  507  0.1357473E+02  0.2175887E+02  0.2726402E+01  0.7865557E+02
Ar  508  0.1108136E+02  0.2427507E+02  0.2700858E+01  0.4406213E+02
Ar  509  0.1108164E+02  0.2159601E+02  0.5403548E+01  0.4354998E+02
Ar  510  0.1357893E+02  0.2411082E+02  0.5368963E+01  0.7754563E+02
Ar  511  0.1364783E+02  0.2169081E+02  0.8190999E+01  0.9002109E+02
Ar  512  0.1099363E+02  0.2434694E+02  0.8338159E+01  0.1865036E+03
Ar  513  0.1069983E+02  0.2180562E+02  0.1069983E+02  0.1643236E+03
Ar  514  0.1352866E+02  0.2432566E+02  0.1091538E+02  0.1089084E+03
Ar  515  0.1341513E+02  0.2151618E+02  0.1341513E+02  0.7528262E+01
Ar  516  0.1091538E+02  0.2432566E+02  0.1352866E+02  0.1089084E+03
Ar  517  0.1069867E+02  0.2153080E+02  0.1606233E+02  0.1644228E+03
Ar  518  0.1361593E+02  0.2420750E+02  0.1613821E+02  0.5638510E+02
Ar  519  0.1336964E+02  0.2160656E+02  0.1873517E+02  0.1387972E+02
Ar  520  0.1096311E+02  0.2412177E+02  0.1900374E+02  0.2268828E+02
Ar  521  0.1065142E+02  0.2163317E+02  0.2163317E+02  0.8240354E+02
Ar  522  0.1387033E+02  0.2448019E+02  0.2139623E+02  0.5629055E+01
Ar  523  0.1387033E+02  0.2139623E+02  0.2448019E+02  0.5629055E+01
Ar  524  0.1064709E+02  0.2425132E+02  0.2425132E+02  0.7980189E+02
Ar  525  0.1095438E+02  0.2174641E+02  0.2686924E+02  0.2482444E+02
Ar  526  0.1336459E+02  0.2425460E+02  0.2713330E+02  0.1429285E+02
Ar  527  0.1361577E+02  0.2167245E+02  0.2974164E+02  0.5519932E+02
Ar  528  0.1070087E+02  0.2435070E+02  0.2982024E+02  0.1626039E+03
Ar  529  0.1092348E+02  0.2154504E+02  0.3234776E+02  0.1214870E+03
Ar  530  0.1341281E+02  0.2436062E+02  0.3246485E+02  0.5533602E+01
Ar  531  0.1353011E+02  0.2155331E+02  0.3496238E+02  0.1126991E+03
Ar  532  0.1069475E+02  0.2408237E+02  0.3518821E+02  0.1700182E+03
Ar  533  0.1116737E+02  0.2665308E+02  0.3772944E+02  0.3645073E+02
Ar  534  0.1363989E+02  0.2950317E+02  0.3768725E+02  0.2574136E+02
Ar  535  0.1355168E+02  0.2706920E+02  0.2726852E+01  0.1005972E+03
Ar  536  0.1077536E+02  0.2965981E+02  0.2509816E+01  0.6241979E+02
Ar  537  0.1106825E+02  0.2673001E+02  0.5260589E+01  0.9710343E+02
Ar  538  0.1384414E+02  0.2958898E+02  0.5246165E+01  0.1340869E+03
Ar  539  0.1356805E+02  0.2691536E+02  0.8346434E+01  0.1027784E+03
Ar  540  0.1096753E+02  0.2977871E+02  0.7982920E+01  0.1076227E+03
Ar  541  0.1084956E+02  0.2669491E+02  0.1084956E+02  0.4692310E+02
Ar  542  0.1353926E+02  0.2952138E+02  0.1081320E+02  0.4214138E+02
Ar  543  0.1390870E+02  0.2684976E+02  0.1390870E+02  0.1650954E+03
Ar  544  0.1081320E+02  0.2952138E+02  0.1353926E+02  0.4214138E+02
Ar  545  0.1097647E+02  0.2672541E+02  0.1627045E+02  0.6454973E+02
Ar  546  0.1349709E+02  0.2970756E+02  0.1617452E+02  0.1199901E+03
Ar  547  0.1401866E+02  0.2709418E+02  0.1878615E+02  0.4777976E+02
Ar  548  0.1098355E+02  0.2959863E+02  0.1915532E+02  0.6292114E+02
Ar  549  0.1095438E+02  0.2686924E+02  0.2174641E+02  0.2482444E+02
Ar  550  0.1361577E+02  0.2974164E+02  0.2167245E+02  0.5519932E+02
Ar  551  0.1336459E+02  0.2713330E+02  0.2425460E+02  0.1429285E+02
Ar  552  0.1070087E+02  0.2982024E+02  0.2435070E+02  0.1626039E+03
Ar  553  0.1067784E+02  0.2693237E+02  0.2693237E+02  0.2174457E+02
Ar  554  0.1351484E+02  0.2956247E+02  0.2714332E+02  0.1622455E+02
Ar  555  0.1351484E+02  0.2714332E+02  0.2956247E+02  0.1622455E+02
Ar  556  0.1103869E+02  0.2985300E+02  0.2985300E+02  0.3319493E+02
Ar  557  0.1093980E+02  0.2712501E+02  0.3217763E+02  0.8438688E+01
Ar  558  0.1323095E+02  0.2968036E+02  0.3263499E+02  0.5870007E+03
Ar  559  0.1370162E+02  0.2711927E+02  0.3494084E+02  0.9440027E+01
Ar  560  0.1075972E+02  0.2939128E+02  0.3512928E+02  0.1464412E+02
Ar  561  0.1117726E+02  0.3200969E+02  0.3743935E+02  0.4720163E+02
Ar  562  0.1385853E+02  0.3469508E+02  0.3744041E+02  0.4710302E+02
Ar  563  0.1364210E+02  0.3223622E+02  0.2516788E+01  0.1183662E+03
Ar  564  0.1093519E+02  0.3493351E+02  0.2366066E+01  0.5922728E+02
Ar  565  0.1092515E+02  0.3234123E+02  0.5205779E+01  0.4613881E+02
Ar  566  0.1353207E+02  0.3494159E+02  0.5197457E+01  0.4607970E+02
Ar  567  0.1378747E+02  0.3208541E+02  0.8128168E+01  0.1163124E+03
Ar  568  0.1095674E+02  0.3492210E+02  0.8065077E+01  0.2213828E+02
Ar  569  0.1095423E+02  0.3229164E+02  0.1095423E+02  0.1722821E+03
Ar  570  0.1358593E+02  0.3492355E+02  0.1095733E+02  0.1699670E+03
Ar  571  0.1360260E+02  0.3227972E+02  0.1360260E+02  0.3475088E+02
Ar  572  0.1095733E+02  0.3492355E+02  0.1358593E+02  0.1699670E+03
Ar  573  0.1082336E+02  0.3232699E+02  0.1635473E+02  0.3958246E+02
Ar  574  0.1354800E+02  0.3505589E+02  0.1635599E+02  0.3997996E+02
Ar  575  0.1392171E+02  0.3195034E+02  0.1902233E+02  0.1714782E+03
Ar  576  0.1085148E+02  0.3502339E+02  0.1917742E+02  0.4370039E+02
Ar  577  0.1092348E+02  0.3234776E+02  0.2154504E+02  0.1214870E+03
Ar  578  0.1353011E+02  0.3496238E+02  0.2155331E+02  0.1126991E+03
Ar  579  0.1341281E+02  0.3246485E+02  0.2436062E+02  0.5533602E+01
Ar  580  0.1069475E+02  0.3518821E+02  0.2408237E+02  0.1700182E+03
Ar  581  0.1093980E+02  0.3217763E+02  0.2712501E+02  0.8438688E+01
Ar  582  0.1370162E+02  0.3494084E+02  0.2711927E+02  0.9440027E+01
Ar  583  0.1323095E+02  0.3263499E+02  0.2968036E+02  0.5870007E+03
Ar  584  0.1075972E+02  0.3512928E+02  0.2939128E+02  0.1464412E+02
Ar  585  0.1091073E+02  0.3220097E+02  0.3220097E+02  0.2784880E+03
Ar  586  0.1368304E+02  0.3496046E+02  0.3219541E+02  0.2723907E+03
Ar  587  0.1368304E+02  0.3219541E+02  0.3496046E+02  0.2723907E+03
Ar  588  0.1098753E+02  0.3487993E+02  0.3487993E+02  0.5088144E+03
Ar  589  0.1637715E+02  0.3773660E+02  0.3773660E+02  0.2032437E+03
Ar  590  0.1899550E+02  0.2574078E+01  0.3732903E+02  0.1488295E+03
Ar  591  0.1899550E+02  0.3732903E+02  0.2574078E+01  0.1488295E+03
Ar  592  0.1583708E+02  0.2372622E+01  0.2372622E+01  0.3740870E+02
Ar  593  0.1639333E+02  0.3774767E+02  0.5413297E+01  0.1226319E+03
Ar  594  0.1936257E+02  0.2590937E+01  0.5497491E+01  0.2068369E+02
Ar  595  0.1902381E+02  0.1139666E+00  0.7967265E+01  0.1327709E+03
Ar  596  0.1639134E+02  0.2677651E+01  0.8121359E+01  0.1267139E+03
Ar  597  0.1610331E+02  0.1205354E+00  0.1097239E+02  0.1120446E+03
Ar  598  0.1914911E+02  0.2839838E+01  0.1106217E+02  0.9286864E+02
Ar  599  0.1896194E+02  0.3753081E+02  0.1356845E+02  0.9840222E+02
Ar  600  0.1628570E+02  0.2851796E+01  0.1383504E+02  0.1341350E+03
Ar  601  0.1615595E+02  0.3739726E+02  0.1615595E+02  0.1519159E+03
Ar  602  0.1905614E+02  0.2647420E+01  0.1630193E+02  0.4608586E+02
Ar  603  0.1868945E+02  0.3765556E+02  0.1868945E+02  0.1153181E+03
Ar  604  0.1630193E+02  0.2647420E+01  0.1905614E+02  0.4608586E+02
Ar  605  0.1618221E+02  0.3766976E+02  0.2150497E+02  0.2017288E+03
Ar  606  0.1881117E+02  0.2822998E+01  0.2158622E+02  0.9560107E+02
Ar  607  0.1883933E+02  0.3776218E+02  0.2448034E+02  0.8616220E+02
Ar  608  0.1619757E+02  0.2779129E+01  0.2422111E+02  0.3507802E+02
Ar  609  0.1612429E+02  0.1241972E+00  0.2676111E+02  0.4407444E+02
Ar  610  0.1893338E+02  0.3124260E+01  0.2694090E+02  0.2856018E+02
Ar  611  0.1911504E+02  0.1210192E+00  0.2974846E+02  0.4428006E+02
Ar  612  0.1630349E+02  0.2285402E+01  0.2958247E+02  0.1599015E+03
Ar  613  0.1638621E+02  0.3768229E+02  0.3224238E+02  0.2670857E+02
Ar  614  0.1881477E+02  0.2726727E+01  0.3232291E+02  0.9309472E+02
Ar  615  0.1922035E+02  0.3771794E+02  0.3470498E+02  0.3635886E+02
Ar  616  0.1622312E+02  0.2509492E+01  0.3510212E+02  0.6557888E+02
Ar  617  0.1639333E+02  0.5413297E+01  0.3774767E+02  0.1226319E+03
Ar  618  0.1902381E+02  0.7967265E+01  0.1139666E+00  0.1327709E+03
Ar  619  0.1936257E+02  0.5497491E+01  0.2590937E+01  0.2068369E+02
Ar  620  0.1639134E+02  0.8121359E+01  0.2677651E+01  0.1267139E+03
Ar  621  0.1581367E+02  0.5740216E+01  0.5740216E+01  0.3959405E+02
Ar  622  0.1899367E+02  0.8554822E+01  0.5502255E+01  0.1483710E+03
Ar  623  0.1899367E+02  0.5502255E+01  0.8554822E+01  0.1483710E+03
Ar  624  0.1639181E+02  0.8140029E+01  0.8140029E+01  0.1898603E+03
Ar  625  0.1622652E+02  0.5582947E+01  0.1076821E+02  0.6040534E+02
Ar  626  0.1922422E+02  0.8155277E+01  0.1116891E+02  0.3794463E+02
Ar  627  0.1880452E+02  0.5367557E+01  0.1354671E+02  0.9828755E+02
Ar  628  0.1638433E+02  0.8193875E+01  0.1362437E+02  0.2423765E+02
Ar  629  0.1629992E+02  0.5818491E+01  0.1629992E+02  0.1608140E+03
Ar  630  0.1911906E+02  0.7974584E+01  0.1612524E+02  0.4291877E+02
Ar  631  0.1893134E+02  0.4973241E+01  0.1893134E+02  0.2959430E+02
Ar  632  0.1612524E+02  0.7974584E+01  0.1911906E+02  0.4291877E+02
Ar  633  0.1619090E+02  0.5319777E+01  0.2165636E+02  0.3490451E+02
Ar  634  0.1883935E+02  0.8096548E+01  0.2139083E+02  0.8590356E+02
Ar  635  0.1882456E+02  0.5272009E+01  0.2428669E+02  0.8718165E+02
Ar  636  0.1617723E+02  0.8211607E+01  0.2437682E+02  0.1975270E+03
Ar  637  0.1631280E+02  0.5444189E+01  0.2681641E+02  0.4745099E+02
Ar  638  0.1869067E+02  0.8221174E+01  0.2718771E+02  0.1154026E+03
Ar  639  0.1906522E+02  0.5449337E+01  0.2956503E+02  0.4635545E+02
Ar  640  0.1615335E+02  0.8484047E+01  0.2972302E+02  0.1543878E+03
Ar  641  0.1628704E+02  0.5230718E+01  0.3204284E+02  0.1298007E+03
Ar  642  0.1895710E+02  0.8348463E+01  0.3230717E+02  0.9776998E+02
Ar  643  0.1913830E+02  0.5249886E+01  0.3481479E+02  0.9392266E+02
Ar  644  0.1609284E+02  0.7967752E+01  0.3489105E+02  0.1117694E+03
Ar  645  0.1610331E+02  0.1097239E+02  0.1205354E+00  0.1120446E+03
Ar  646  0.1896194E+02  0.1356845E+02  0.3753081E+02  0.9840222E+02
Ar  647  0.1914911E+02  0.1106217E+02  0.2839838E+01  0.9286864E+02
Ar  648  0.1628570E+02  0.1383504E+02  0.2851796E+01  0.1341350E+03
Ar  649  0.1622652E+02  0.1076821E+02  0.5582947E+01  0.6040534E+02
Ar  650  0.1880452E+02  0.1354671E+02  0.5367557E+01  0.9828755E+02
Ar  651  0.1922422E+02  0.1116891E+02  0.8155277E+01  0.3794463E+02
Ar  652  0.1638433E+02  0.1362437E+02  0.8193875E+01  0.2423765E+02
Ar  653  0.1648764E+02  0.1075334E+02  0.1075334E+02  0.1581673E+02
Ar  654  0.1876230E+02  0.1370381E+02  0.1094097E+02  0.6652481E+01
Ar  655  0.1876230E+02  0.1094097E+02  0.1370381E+02  0.6652481E+01
Ar  656  0.1620461E+02  0.1323534E+02  0.1323534E+02  0.5697024E+03
Ar  657  0.1602226E+02  0.1104418E+02  0.1602226E+02  0.2701000E+02
Ar  658  0.1871999E+02  0.1352525E+02  0.1630979E+02  0.1483073E+02
Ar  659  0.1892859E+02  0.1069093E+02  0.1892859E+02  0.2418171E+02
Ar  660  0.1630979E+02  0.1352525E+02  0.1871999E+02  0.1483073E+02
Ar  661  0.1606233E+02  0.1069867E+02  0.2153080E+02  0.1644228E+03
Ar  662  0.1873517E+02  0.1336964E+02  0.2160656E+02  0.1387972E+02
Ar  663  0.1900374E+02  0.1096311E+02  0.2412177E+02  0.2268828E+02
Ar  664  0.1613821E+02  0.1361593E+02  0.2420750E+02  0.5638510E+02
Ar  665  0.1627045E+02  0.1097647E+02  0.2672541E+02  0.6454973E+02
Ar  666  0.1878615E+02  0.1401866E+02  0.2709418E+02  0.4777976E+02
Ar  667  0.1915532E+02  0.1098355E+02  0.2959863E+02  0.6292114E+02
Ar  668  0.1617452E+02  0.1349709E+02  0.2970756E+02  0.1199901E+03
Ar  669  0.1635473E+02  0.1082336E+02  0.3232699E+02  0.3958246E+02
Ar  670  0.1902233E+02  0.1392171E+02  0.3195034E+02  0.1714782E+03
Ar  671  0.1917742E+02  0.1085148E+02  0.3502339E+02  0.4370039E+02
Ar  672  0.1635599E+02  0.1354800E+02  0.3505589E+02  0.3997996E+02
Ar  673  0.1615595E+02  0.1615595E+02  0.3739726E+02  0.1519159E+03
Ar  674  0.1868945E+02  0.1868945E+02  0.3765556E+02  0.1153181E+03
Ar  675  0.1905614E+02  0.1630193E+02  0.2647420E+01  0.4608586E+02
Ar  676  0.1630193E+02  0.1905614E+02  0.2647420E+01  0.4608586E+02
Ar  677  0.1629992E+02  0.1629992E+02  0.5818491E+01  0.1608140E+03
Ar  678  0.1893134E+02  0.1893134E+02  0.4973241E+01  0.2959430E+02
Ar  679  0.1911906E+02  0.1612524E+02  0.7974584E+01  0.4291877E+02
Ar  680  0.1612524E+02  0.1911906E+02  0.7974584E+01  0.4291877E+02
Ar  681  0.1602226E+02  0.1602226E+02  0.1104418E+02  0.2701000E+02
Ar  682  0.1892859E+02  0.1892859E+02  0.1069093E+02  0.2418171E+02
Ar  683  0.1871999E+02  0.1630979E+02  0.1352525E+02  0.1483073E+02
Ar  684  0.1630979E+02  0.1871999E+02  0.1352525E+02  0.1483073E+02
Ar  685  0.1640809E+02  0.1640809E+02  0.1640809E+02  0.8543991E+01
Ar  686  0.1901829E+02  0.1901829E+02  0.1609215E+02  0.5832087E+01
Ar  687  0.1901829E+02  0.1609215E+02  0.1901829E+02  0.5832087E+01
Ar  688  0.1609215E+02  0.1901829E+02  0.1901829E+02  0.5832087E+01
Ar  689  0.1639729E+02  0.1639729E+02  0.2169830E+02  0.9818405E+02
Ar  690  0.1883134E+02  0.1883134E+02  0.2146053E+02  0.1425580E+03
Ar  691  0.1885289E+02  0.1634988E+02  0.2415977E+02  0.6376403E+02
Ar  692  0.1634988E+02  0.1885289E+02  0.2415977E+02  0.6376403E+02
Ar  693  0.1634053E+02  0.1634053E+02  0.2680220E+02  0.1411553E+03
Ar  694  0.1914201E+02  0.1914201E+02  0.2674139E+02  0.2872219E+01
Ar  695  0.1908336E+02  0.1635132E+02  0.2953078E+02  0.1506653E+03
Ar  696  0.1635132E+02  0.1908336E+02  0.2953078E+02  0.1506653E+03
Ar  697  0.1618159E+02  0.1618159E+02  0.3236243E+02  0.1222255E+03
Ar  698  0.1878635E+02  0.1878635E+02  0.3187116E+02  0.4861407E+02
Ar  699  0.1914869E+02  0.1627244E+02  0.3489790E+02  0.6487350E+02
Ar  700  0.1627244E+02  0.1914869E+02  0.3489790E+02  0.6487350E+02
Ar  701  0.1618221E+02  0.2150497E+02  0.3766976E+02  0.2017288E+03
Ar  702  0.1883933E+02  0.2448034E+02  0.3776218E+02  0.8616220E+02
Ar  703  0.1881117E+02  0.2158622E+02  0.2822998E+01  0.9560107E+02
Ar  704  0.1619757E+02  0.2422111E+02  0.2779129E+01  0.3507802E+02
Ar  705  0.1619090E+02  0.2165636E+02  0.5319777E+01  0.3490451E+02
Ar  706  0.1882456E+02  0.2428669E+02  0.5272009E+01  0.8718165E+02
Ar  707  0.1883935E+02  0.2139083E+02  0.8096548E+01  0.8590356E+02
Ar  708  0.1617723E+02  0.2437682E+02  0.8211607E+01  0.1975270E+03
Ar  709  0.1606233E+02  0.2153080E+02  0.1069867E+02  0.1644228E+03
Ar  710  0.1900374E+02  0.2412177E+02  0.1096311E+02  0.2268828E+02
Ar  711  0.1873517E+02  0.2160656E+02  0.1336964E+02  0.1387972E+02
Ar  712  0.1613821E+02  0.2420750E+02  0.1361593E+02  0.5638510E+02
Ar  713  0.1639729E+02  0.2169830E+02  0.1639729E+02  0.9818405E+02
Ar  714  0.1885289E+02  0.2415977E+02  0.1634988E+02  0.6376403E+02
Ar  715  0.1883134E+02  0.2146053E+02  0.1883134E+02  0.1425580E+03
Ar  716  0.1634988E+02  0.2415977E+02  0.1885289E+02  0.6376403E+02
Ar  717  0.1578061E+02  0.2157678E+02  0.2157678E+02  0.2700941E+03
Ar  718  0.1872082E+02  0.2419305E+02  0.2167668E+02  0.2588428E+03
Ar  719  0.1872082E+02  0.2167668E+02  0.2419305E+02  0.2588428E+03
Ar  720  0.1577038E+02  0.2429670E+02  0.2429670E+02  0.2702814E+03
Ar  721  0.1635400E+02  0.2171968E+02  0.2701863E+02  0.6429591E+02
Ar  722  0.1883703E+02  0.2441703E+02  0.2703574E+02  0.1416508E+03
Ar  723  0.1885445E+02  0.2173723E+02  0.2951975E+02  0.6154020E+02
Ar  724  0.1640253E+02  0.2417280E+02  0.2947291E+02  0.9300541E+02
Ar  725  0.1614357E+02  0.2166711E+02  0.3225838E+02  0.5308562E+02
Ar  726  0.1873193E+02  0.2426604E+02  0.3250296E+02  0.1283432E+02
Ar  727  0.1900041E+02  0.2175881E+02  0.3491488E+02  0.2445888E+02
Ar  728  0.1605491E+02  0.2434754E+02  0.3517417E+02  0.1658175E+03
Ar  729  0.1612429E+02  0.2676111E+02  0.1241972E+00  0.4407444E+02
Ar  730  0.1911504E+02  0.2974846E+02  0.1210192E+00  0.4428006E+02
Ar  731  0.1893338E+02  0.2694090E+02  0.3124260E+01  0.2856018E+02
Ar  732  0.1630349E+02  0.2958247E+02  0.2285402E+01  0.1599015E+03
Ar  733  0.1631280E+02  0.2681641E+02  0.5444189E+01  0.4745099E+02
Ar  734  0.1906522E+02  0.2956503E+02  0.5449337E+01  0.4635545E+02
Ar  735  0.1869067E+02  0.2718771E+02  0.8221174E+01  0.1154026E+03
Ar  736  0.1615335E+02  0.2972302E+02  0.8484047E+01  0.1543878E+03
Ar  737  0.1627045E+02  0.2672541E+02  0.1097647E+02  0.6454973E+02
Ar  738  0.1915532E+02  0.2959863E+02  0.1098355E+02  0.6292114E+02
Ar  739  0.1878615E+02  0.2709418E+02  0.1401866E+02  0.4777976E+02
Ar  740  0.1617452E+02  0.2970756E+02  0.1349709E+02  0.1199901E+03
Ar  741  0.1634053E+02  0.2680220E+02  0.1634053E+02  0.1411553E+03
Ar  742  0.1908336E+02  0.2953078E+02  0.1635132E+02  0.1506653E+03
Ar  743  0.1914201E+02  0.2674139E+02  0.1914201E+02  0.2872219E+01
Ar  744  0.1635132E+02  0.2953078E+02  0.1908336E+02  0.1506653E+03
Ar  745  0.1635400E+02  0.2701863E+02  0.2171968E+02  0.6429591E+02
Ar  746  0.1885445E+02  0.2951975E+02  0.2173723E+02  0.6154020E+02
Ar  747  0.1883703E+02  0.2703574E+02  0.2441703E+02  0.1416508E+03
Ar  748  0.1640253E+02  0.2947291E+02  0.2417280E+02  0.9300541E+02
Ar  749  0.1609170E+02  0.2685667E+02  0.2685667E+02  0.9279631E+01
Ar  750  0.1902085E+02  0.2977475E+02  0.2686107E+02  0.8346320E+01
Ar  751  0.1902085E+02  0.2686107E+02  0.2977475E+02  0.8346320E+01
Ar  752  0.1640856E+02  0.2945900E+02  0.2945900E+02  0.8349046E+01
Ar  753  0.1630167E+02  0.2716459E+02  0.3234339E+02  0.1472436E+02
Ar  754  0.1871815E+02  0.2956430E+02  0.3234806E+02  0.1603144E+02
Ar  755  0.1893928E+02  0.2693842E+02  0.3518285E+02  0.2182052E+02
Ar  756  0.1601635E+02  0.2985908E+02  0.3482420E+02  0.2378344E+02
Ar  757  0.1638621E+02  0.3224238E+02  0.3768229E+02  0.2670857E+02
Ar  758  0.1922035E+02  0.3470498E+02  0.3771794E+02  0.3635886E+02
Ar  759  0.1881477E+02  0.3232291E+02  0.2726727E+01  0.9309472E+02
Ar  760  0.1622312E+02  0.3510212E+02  0.2509492E+01  0.6557888E+02
Ar  761  0.1628704E+02  0.3204284E+02  0.5230718E+01  0.1298007E+03
Ar  762  0.1913830E+02  0.3481479E+02  0.5249886E+01  0.9392266E+02
Ar  763  0.1895710E+02  0.3230717E+02  0.8348463E+01  0.9776998E+02
Ar  764  0.1609284E+02  0.3489105E+02  0.7967752E+01  0.1117694E+03
Ar  765  0.1635473E+02  0.3232699E+02  0.1082336E+02  0.3958246E+02
Ar  766  0.1917742E+02  0.3502339E+02  0.1085148E+02  0.4370039E+02
Ar  767  0.1902233E+02  0.3195034E+02  0.1392171E+02  0.1714782E+03
Ar  768  0.1635599E+02  0.3505589E+02  0.1354800E+02  0.3997996E+02
Ar  769  0.1618159E+02  0.3236243E+02  0.1618159E+02  0.1222255E+03
Ar  770  0.1914869E+02  0.3489790E+02  0.1627244E+02  0.6487350E+02
Ar  771  0.1878635E+02  0.3187116E+02  0.1878635E+02  0.4861407E+02
Ar  772  0.1627244E+02  0.3489790E+02  0.1914869E+02  0.6487350E+02
Ar  773  0.1614357E+02  0.3225838E+02  0.2166711E+02  0.5308562E+02
Ar  774  0.1900041E+02  0.3491488E+02  0.2175881E+02  0.2445888E+02
Ar  775  0.1873193E+02  0.3250296E+02  0.2426604E+02  0.1283432E+02
Ar  776  0.1605491E+02  0.3517417E+02  0.2434754E+02  0.1658175E+03
Ar  777  0.1630167E+02  0.3234339E+02  0.2716459E+02  0.1472436E+02
Ar  778  0.1893928E+02  0.3518285E+02  0.2693842E+02  0.2182052E+02
Ar  779  0.1871815E+02  0.3234806E+02  0.2956430E+02  0.1603144E+02
Ar  780  0.1601635E+02  0.3482420E+02  0.2985908E+02  0.2378344E+02
Ar  781  0.1621550E+02  0.3264367E+02  0.3264367E+02  0.5694463E+03
Ar  782  0.1876232E+02  0.3494241E+02  0.3216893E+02  0.6307693E+01
Ar  783  0.1876232E+02  0.3216893E+02  0.3494241E+02  0.6307693E+01
Ar  784  0.1648417E+02  0.3513687E+02  0.3513687E+02  0.1742964E+02
Ar  785  0.2131006E+02  0.3775333E+02  0.3775333E+02  0.9651832E+01
Ar  786  0.2419829E+02  0.2605829E+01  0.3755863E+02  0.2357101E+02
Ar  787  0.2419829E+02  0.3755863E+02  0.2605829E+01  0.2357101E+02
Ar  788  0.2191927E+02  0.2614116E+01  0.2614116E+01  0.1912069E+03
Ar  789  0.2168151E+02  0.3757689E+02  0.5484341E+01  0.2364567E+02
Ar  790  0.2397762E+02  0.2618837E+01  0.5470544E+01  0.2026726E+03
Ar  791  0.2457886E+02  0.3775213E+02  0.8127393E+01  0.8398839E+01
Ar  792  0.2167721E+02  0.2604296E+01  0.8298594E+01  0.2266198E+02
Ar  793  0.2152614E+02  0.3753804E+02  0.1098579E+02  0.1747425E+03
Ar  794  0.2427507E+02  0.2700858E+01  0.1108136E+02  0.4406213E+02
Ar  795  0.2418956E+02  0.3768111E+02  0.1364422E+02  0.8375878E+02
Ar  796  0.2175887E+02  0.2726402E+01  0.1357473E+02  0.7865557E+02
Ar  797  0.2150497E+02  0.3766976E+02  0.1618221E+02  0.2017288E+03
Ar  798  0.2422111E+02  0.2779129E+01  0.1619757E+02  0.3507802E+02
Ar  799  0.2448034E+02  0.3776218E+02  0.1883933E+02  0.8616220E+02
Ar  800  0.2158622E+02  0.2822998E+01  0.1881117E+02  0.9560107E+02
Ar  801  0.2142770E+02  0.3766145E+02  0.2142770E+02  0.9050036E+02
Ar  802  0.2435765E+02  0.2434451E+01  0.2151916E+02  0.1425976E+02
Ar  803  0.2443355E+02  0.3766282E+02  0.2443355E+02  0.1028125E+03
Ar  804  0.2151916E+02  0.2434451E+01  0.2435765E+02  0.1425976E+02
Ar  805  0.2139152E+02  0.3777204E+02  0.2703037E+02  0.8238079E+02
Ar  806  0.2428968E+02  0.2827371E+01  0.2705101E+02  0.8783381E+02
Ar  807  0.2437706E+02  0.3765611E+02  0.2969947E+02  0.2010295E+03
Ar  808  0.2165160E+02  0.2776582E+01  0.2967314E+02  0.3622743E+02
Ar  809  0.2168457E+02  0.3767420E+02  0.3222932E+02  0.8677317E+02
Ar  810  0.2410984E+02  0.2729483E+01  0.3229398E+02  0.8441400E+02
Ar  811  0.2434400E+02  0.3753555E+02  0.3488840E+02  0.1940199E+03
Ar  812  0.2159067E+02  0.2700761E+01  0.3479273E+02  0.4181937E+02
Ar  813  0.2168151E+02  0.5484341E+01  0.3757689E+02  0.2364567E+02
Ar  814  0.2457886E+02  0.8127393E+01  0.3775213E+02  0.8398839E+01
Ar  815  0.2397762E+02  0.5470544E+01  0.2618837E+01  0.2026726E+03
Ar  816  0.2167721E+02  0.8298594E+01  0.2604296E+01  0.2266198E+02
Ar  817  0.2189691E+02  0.5477245E+01  0.5477245E+01  0.2147174E+03
Ar  818  0.2420481E+02  0.8297421E+01  0.5484873E+01  0.1974094E+02
Ar  819  0.2420481E+02  0.5484873E+01  0.8297421E+01  0.1974094E+02
Ar  820  0.2130404E+02  0.8127588E+01  0.8127588E+01  0.8146047E+01
Ar  821  0.2159601E+02  0.5403548E+01  0.1108164E+02  0.4354998E+02
Ar  822  0.2434694E+02  0.8338159E+01  0.1099363E+02  0.1865036E+03
Ar  823  0.2411082E+02  0.5368963E+01  0.1357893E+02  0.7754563E+02
Ar  824  0.2169081E+02  0.8190999E+01  0.1364783E+02  0.9002109E+02
Ar  825  0.2165636E+02  0.5319777E+01  0.1619090E+02  0.3490451E+02
Ar  826  0.2437682E+02  0.8211607E+01  0.1617723E+02  0.1975270E+03
Ar  827  0.2428669E+02  0.5272009E+01  0.1882456E+02  0.8718165E+02
Ar  828  0.2139083E+02  0.8096548E+01  0.1883935E+02  0.8590356E+02
Ar  829  0.2151990E+02  0.5647089E+01  0.2151990E+02  0.1336268E+02
Ar  830  0.2443898E+02  0.8217425E+01  0.2143035E+02  0.9477234E+02
Ar  831  0.2435892E+02  0.5663485E+01  0.2435892E+02  0.1411817E+02
Ar  832  0.2143035E+02  0.8217425E+01  0.2443898E+02  0.9477234E+02
Ar  833  0.2159034E+02  0.5275260E+01  0.2705597E+02  0.9614245E+02
Ar  834  0.2447882E+02  0.8105166E+01  0.2703249E+02  0.8458245E+02
Ar  835  0.2423147E+02  0.5320902E+01  0.2967505E+02  0.3746732E+02
Ar  836  0.2149997E+02  0.8219200E+01  0.2970214E+02  0.2030290E+03
Ar  837  0.2176199E+02  0.5369909E+01  0.3229686E+02  0.8016487E+02
Ar  838  0.2418934E+02  0.8203496E+01  0.3223595E+02  0.9132437E+02
Ar  839  0.2427628E+02  0.5401649E+01  0.3479631E+02  0.4324316E+02
Ar  840  0.2153379E+02  0.8339681E+01  0.3489263E+02  0.1753847E+03
Ar  841  0.2152614E+02  0.1098579E+02  0.3753804E+02  0.1747425E+03
Ar  842  0.2418956E+02  0.1364422E+02  0.3768111E+02  0.8375878E+02
Ar  843  0.2427507E+02  0.1108136E+02  0.2700858E+01  0.4406213E+02
Ar  844  0.2175887E+02  0.1357473E+02  0.2726402E+01  0.7865557E+02
Ar  845  0.2159601E+02  0.1108164E+02  0.5403548E+01  0.4354998E+02
Ar  846  0.2411082E+02  0.1357893E+02  0.5368963E+01  0.7754563E+02
Ar  847  0.2434694E+02  0.1099363E+02  0.8338159E+01  0.1865036E+03
Ar  848  0.2169081E+02  0.1364783E+02  0.8190999E+01  0.9002109E+02
Ar  849  0.2180562E+02  0.1069983E+02  0.1069983E+02  0.1643236E+03
Ar  850  0.2432566E+02  0.1352866E+02  0.1091538E+02  0.1089084E+03
Ar  851  0.2432566E+02  0.1091538E+02  0.1352866E+02  0.1089084E+03
Ar  852  0.2151618E+02  0.1341513E+02  0.1341513E+02  0.7528262E+01
Ar  853  0.2153080E+02  0.1069867E+02  0.1606233E+02  0.1644228E+03
Ar  854  0.2420750E+02  0.1361593E+02  0.1613821E+02  0.5638510E+02
Ar  855  0.2412177E+02  0.1096311E+02  0.1900374E+02  0.2268828E+02
Ar  856  0.2160656E+02  0.1336964E+02  0.1873517E+02  0.1387972E+02
Ar  857  0.2163317E+02  0.1065142E+02  0.2163317E+02  0.8240354E+02
Ar  858  0.2448019E+02  0.1387033E+02  0.2139623E+02  0.5629055E+01
Ar  859  0.2425132E+02  0.1064709E+02  0.2425132E+02  0.7980189E+02
Ar  860  0.2139623E+02  0.1387033E+02  0.2448019E+02  0.5629055E+01
Ar  861  0.2174641E+02  0.1095438E+02  0.2686924E+02  0.2482444E+02
Ar  862  0.2425460E+02  0.1336459E+02  0.2713330E+02  0.1429285E+02
Ar  863  0.2435070E+02  0.1070087E+02  0.2982024E+02  0.1626039E+03
Ar  864  0.2167245E+02  0.1361577E+02  0.2974164E+02  0.5519932E+02
Ar  865  0.2154504E+02  0.1092348E+02  0.3234776E+02  0.1214870E+03
Ar  866  0.2436062E+02  0.1341281E+02  0.3246485E+02  0.5533602E+01
Ar  867  0.2408237E+02  0.1069475E+02  0.3518821E+02  0.1700182E+03
Ar  868  0.2155331E+02  0.1353011E+02  0.3496238E+02  0.1126991E+03
Ar  869  0.2150497E+02  0.1618221E+02  0.3766976E+02  0.2017288E+03
Ar  870  0.2448034E+02  0.1883933E+02  0.3776218E+02  0.8616220E+02
Ar  871  0.2422111E+02  0.1619757E+02  0.2779129E+01  0.3507802E+02
Ar  872  0.2158622E+02  0.1881117E+02  0.2822998E+01  0.9560107E+02
Ar  873  0.2165636E+02  0.1619090E+02  0.5319777E+01  0.3490451E+02
Ar  874  0.2428669E+02  0.1882456E+02  0.5272009E+01  0.8718165E+02
Ar  875  0.2437682E+02  0.1617723E+02  0.8211607E+01  0.1975270E+03
Ar  876  0.2139083E+02  0.1883935E+02  0.8096548E+01  0.8590356E+02
Ar  877  0.2153080E+02  0.1606233E+02  0.1069867E+02  0.1644228E+03
Ar  878  0.2412177E+02  0.1900374E+02  0.1096311E+02  0.2268828E+02
Ar  879  0.2420750E+02  0.1613821E+02  0.1361593E+02  0.5638510E+02
Ar  880  0.2160656E+02  0.1873517E+02  0.1336964E+02  0.1387972E+02
Ar  881  0.2169830E+02  0.1639729E+02  0.1639729E+02  0.9818405E+02
Ar  882  0.2415977E+02  0.1885289E+02  0.1634988E+02  0.6376403E+02
Ar  883  0.2415977E+02  0.1634988E+02  0.1885289E+02  0.6376403E+02
Ar  884  0.2146053E+02  0.1883134E+02  0.1883134E+02  0.1425580E+03
Ar  885  0.2157678E+02  0.1578061E+02  0.2157678E+02  0.2700941E+03
Ar  886  0.2419305E+02  0.1872082E+02  0.2167668E+02  0.2588428E+03
Ar  887  0.2429670E+02  0.1577038E+02  0.2429670E+02  0.2702814E+03
Ar  888  0.2167668E+02  0.1872082E+02  0.2419305E+02  0.2588428E+03
Ar  889  0.2171968E+02  0.1635400E+02  0.2701863E+02  0.6429591E+02
Ar  890  0.2441703E+02  0.1883703E+02  0.2703574E+02  0.1416508E+03
Ar  891  0.2417280E+02  0.1640253E+02  0.2947291E+02  0.9300541E+02
Ar  892  0.2173723E+02  0.1885445E+02  0.2951975E+02  0.6154020E+02
Ar  893  0.2166711E+02  0.1614357E+02  0.3225838E+02  0.5308562E+02
Ar  894  0.2426604E+02  0.1873193E+02  0.3250296E+02  0.1283432E+02
Ar  895  0.2434754E+02  0.1605491E+02  0.3517417E+02  0.1658175E+03
Ar  896  0.2175881E+02  0.1900041E+02  0.3491488E+02  0.2445888E+02
Ar  897  0.2142770E+02  0.2142770E+02  0.3766145E+02  0.9050036E+02
Ar  898  0.2443355E+02  0.2443355E+02  0.3766282E+02  0.1028125E+03
Ar  899  0.2435765E+02  0.2151916E+02  0.2434451E+01  0.1425976E+02
Ar  900  0.2151916E+02  0.2435765E+02  0.2434451E+01  0.1425976E+02
Ar  901  0.2151990E+02  0.2151990E+02  0.5647089E+01  0.1336268E+02
Ar  902  0.2435892E+02  0.2435892E+02  0.5663485E+01  0.1411817E+02
Ar  903  0.2443898E+02  0.2143035E+02  0.8217425E+01  0.9477234E+02
Ar  904  0.2143035E+02  0.2443898E+02  0.8217425E+01  0.9477234E+02
Ar  905  0.2163317E+02  0.2163317E+02  0.1065142E+02  0.8240354E+02
Ar  906  0.2425132E+02  0.2425132E+02  0.1064709E+02  0.7980189E+02
Ar  907  0.2448019E+02  0.2139623E+02  0.1387033E+02  0.5629055E+01
Ar  908  0.2139623E+02  0.2448019E+02  0.1387033E+02  0.5629055E+01
Ar  909  0.2157678E+02  0.2157678E+02  0.1578061E+02  0.2700941E+03
Ar  910  0.2429670E+02  0.2429670E+02  0.1577038E+02  0.2702814E+03
Ar  911  0.2419305E+02  0.2167668E+02  0.1872082E+02  0.2588428E+03
Ar  912  0.2167668E+02  0.2419305E+02  0.1872082E+02  0.2588428E+03
Ar  913  0.2166427E+02  0.2166427E+02  0.2166427E+02  0.2709505E+03
Ar  914  0.2419568E+02  0.2419568E+02  0.2167371E+02  0.2271455E+03
Ar  915  0.2419568E+02  0.2167371E+02  0.2419568E+02  0.2271455E+03
Ar  916  0.2167371E+02  0.2419568E+02  0.2419568E+02  0.2271455E+03
Ar  917  0.2167253E+02  0.2167253E+02  0.2715790E+02  0.2549973E+03
Ar  918  0.2419538E+02  0.2419538E+02  0.2716156E+02  0.2464825E+03
Ar  919  0.2430603E+02  0.2158634E+02  0.3010605E+02  0.2761262E+03
Ar  920  0.2158634E+02  0.2430603E+02  0.3010605E+02  0.2761262E+03
Ar  921  0.2139197E+02  0.2139197E+02  0.3200127E+02  0.5817241E+01
Ar  922  0.2448677E+02  0.2448677E+02  0.3201571E+02  0.6446169E+01
Ar  923  0.2424786E+02  0.2163073E+02  0.3522825E+02  0.7866479E+02
Ar  924  0.2163073E+02  0.2424786E+02  0.3522825E+02  0.7866479E+02
Ar  925  0.2139152E+02  0.2703037E+02  0.3777204E+02  0.8238079E+02
Ar  926  0.2437706E+02  0.2969947E+02  0.3765611E+02  0.2010295E+03
Ar  927  0.2428968E+02  0.2705101E+02  0.2827371E+01  0.8783381E+02
Ar  928  0.2165160E+02  0.2967314E+02  0.2776582E+01  0.3622743E+02
Ar  929  0.2159034E+02  0.2705597E+02  0.5275260E+01  0.9614245E+02
Ar  930  0.2423147E+02  0.2967505E+02  0.5320902E+01  0.3746732E+02
Ar  931  0.2447882E+02  0.2703249E+02  0.8105166E+01  0.8458245E+02
Ar  932  0.2149997E+02  0.2970214E+02  0.8219200E+01  0.2030290E+03
Ar  933  0.2174641E+02  0.2686924E+02  0.1095438E+02  0.2482444E+02
Ar  934  0.2435070E+02  0.2982024E+02  0.1070087E+02  0.1626039E+03
Ar  935  0.2425460E+02  0.2713330E+02  0.1336459E+02  0.1429285E+02
Ar  936  0.2167245E+02  0.2974164E+02  0.1361577E+02  0.5519932E+02
Ar  937  0.2171968E+02  0.2701863E+02  0.1635400E+02  0.6429591E+02
Ar  938  0.2417280E+02  0.2947291E+02  0.1640253E+02  0.9300541E+02
Ar  939  0.2441703E+02  0.2703574E+02  0.1883703E+02  0.1416508E+03
Ar  940  0.2173723E+02  0.2951975E+02  0.1885445E+02  0.6154020E+02
Ar  941  0.2167253E+02  0.2715790E+02  0.2167253E+02  0.2549973E+03
Ar  942  0.2430603E+02  0.3010605E+02  0.2158634E+02  0.2761262E+03
Ar  943  0.2419538E+02  0.2716156E+02  0.2419538E+02  0.2464825E+03
Ar  944  0.2158634E+02  0.3010605E+02  0.2430603E+02  0.2761262E+03
Ar  945  0.2145257E+02  0.2702815E+02  0.2702815E+02  0.1344390E+03
Ar  946  0.2415632E+02  0.2951845E+02  0.2701427E+02  0.5945779E+02
Ar  947  0.2415632E+02  0.2701427E+02  0.2951845E+02  0.5945779E+02
Ar  948  0.2171349E+02  0.2946353E+02  0.2946353E+02  0.9618162E+02
Ar  949  0.2162052E+02  0.2713981E+02  0.3251118E+02  0.1464241E+02
Ar  950  0.2421030E+02  0.2972990E+02  0.3225323E+02  0.5284834E+02
Ar  951  0.2413074E+02  0.2687290E+02  0.3492535E+02  0.2322501E+02
Ar  952  0.2153071E+02  0.2980782E+02  0.3517879E+02  0.1548270E+03
Ar  953  0.2168457E+02  0.3222932E+02  0.3767420E+02  0.8677317E+02
Ar  954  0.2434400E+02  0.3488840E+02  0.3753555E+02  0.1940199E+03
Ar  955  0.2410984E+02  0.3229398E+02  0.2729483E+01  0.8441400E+02
Ar  956  0.2159067E+02  0.3479273E+02  0.2700761E+01  0.4181937E+02
Ar  957  0.2176199E+02  0.3229686E+02  0.5369909E+01  0.8016487E+02
Ar  958  0.2427628E+02  0.3479631E+02  0.5401649E+01  0.4324316E+02
Ar  959  0.2418934E+02  0.3223595E+02  0.8203496E+01  0.9132437E+02
Ar  960  0.2153379E+02  0.3489263E+02  0.8339681E+01  0.1753847E+03
Ar  961  0.2154504E+02  0.3234776E+02  0.1092348E+02  0.1214870E+03
Ar  962  0.2408237E+02  0.3518821E+02  0.1069475E+02  0.1700182E+03
Ar  963  0.2436062E+02  0.3246485E+02  0.1341281E+02  0.5533602E+01
Ar  964  0.2155331E+02  0.3496238E+02  0.1353011E+02  0.1126991E+03
Ar  965  0.2166711E+02  0.3225838E+02  0.1614357E+02  0.5308562E+02
Ar  966  0.2434754E+02  0.3517417E+02  0.1605491E+02  0.1658175E+03
Ar  967  0.2426604E+02  0.3250296E+02  0.1873193E+02  0.1283432E+02
Ar  968  0.2175881E+02  0.3491488E+02  0.1900041E+02  0.2445888E+02
Ar  969  0.2139197E+02  0.3200127E+02  0.2139197E+02  0.5817241E+01
Ar  970  0.2424786E+02  0.3522825E+02  0.2163073E+02  0.7866479E+02
Ar  971  0.2448677E+02  0.3201571E+02  0.2448677E+02  0.6446169E+01
Ar  972  0.2163073E+02  0.3522825E+02  0.2424786E+02  0.7866479E+02
Ar  973  0.2162052E+02  0.3251118E+02  0.2713981E+02  0.1464241E+02
Ar  974  0.2413074E+02  0.3492535E+02  0.2687290E+02  0.2322501E+02
Ar  975  0.2421030E+02  0.3225323E+02  0.2972990E+02  0.5284834E+02
Ar  976  0.2153071E+02  0.3517879E+02  0.2980782E+02  0.1548270E+03
Ar  977  0.2153012E+02  0.3245028E+02  0.3245028E+02  0.6669009E+01
Ar  978  0.2432304E+02  0.3495963E+02  0.3235376E+02  0.1083975E+03
Ar  979  0.2432304E+02  0.3235376E+02  0.3495963E+02  0.1083975E+03
Ar  980  0.2178075E+02  0.3518803E+02  0.3518803E+02  0.1591475E+03
Ar  981  0.2686014E+02  0.1212057E+00  0.1212057E+00  0.1353873E+03
Ar  982  0.2947922E+02  0.2672275E+01  0.3776488E+02  0.1192750E+03
Ar  983  0.2947922E+02  0.3776488E+02  0.2672275E+01  0.1192750E+03
Ar  984  0.2650713E+02  0.2590331E+01  0.2590331E+01  0.1915895E+02
Ar  985  0.2688464E+02  0.3731670E+02  0.5509172E+01  0.1318315E+03
Ar  986  0.3006065E+02  0.2355548E+01  0.5745003E+01  0.3567896E+02
Ar  987  0.2949937E+02  0.3773179E+02  0.8149275E+01  0.1853618E+03
Ar  988  0.2689033E+02  0.2592823E+01  0.8545081E+01  0.1522737E+03
Ar  989  0.2665308E+02  0.3772944E+02  0.1116737E+02  0.3645073E+02
Ar  990  0.2965981E+02  0.2509816E+01  0.1077536E+02  0.6241979E+02
Ar  991  0.2950317E+02  0.3768725E+02  0.1363989E+02  0.2574136E+02
Ar  992  0.2706920E+02  0.2726852E+01  0.1355168E+02  0.1005972E+03
Ar  993  0.2676111E+02  0.1241972E+00  0.1612429E+02  0.4407444E+02
Ar  994  0.2958247E+02  0.2285402E+01  0.1630349E+02  0.1599015E+03
Ar  995  0.2974846E+02  0.1210192E+00  0.1911504E+02  0.4428006E+02
Ar  996  0.2694090E+02  0.3124260E+01  0.1893338E+02  0.2856018E+02
Ar  997  0.2703037E+02  0.3777204E+02  0.2139152E+02  0.8238079E+02
Ar  998  0.2967314E+02  0.2776582E+01  0.2165160E+02  0.3622743E+02
Ar  999  0.2969947E+02  0.3765611E+02  0.2437706E+02  0.2010295E+03
Ar 1000  0.2705101E+02  0.2827371E+01  0.2428968E+02  0.8783381E+02
Ar 1001  0.2718611E+02  0.3765389E+02  0.2718611E+02  0.1157218E+03
Ar 1002  0.2955645E+02  0.2645089E+01  0.2681670E+02  0.4558668E+02
Ar 1003  0.2972060E+02  0.3740295E+02  0.2972060E+02  0.1462469E+03
Ar 1004  0.2681670E+02  0.2645089E+01  0.2955645E+02  0.4558668E+02
Ar 1005  0.2691285E+02  0.3752833E+02  0.3230399E+02  0.9430920E+02
Ar 1006  0.2958906E+02  0.2860960E+01  0.3203396E+02  0.1325181E+03
Ar 1007  0.2977349E+02  0.1194930E+00  0.3488788E+02  0.9998118E+02
Ar 1008  0.2673420E+02  0.2847132E+01  0.3480615E+02  0.9461478E+02
Ar 1009  0.2688464E+02  0.5509172E+01  0.3731670E+02  0.1318315E+03
Ar 1010  0.2949937E+02  0.8149275E+01  0.3773179E+02  0.1853618E+03
Ar 1011  0.3006065E+02  0.5745003E+01  0.2355548E+01  0.3567896E+02
Ar 1012  0.2689033E+02  0.8545081E+01  0.2592823E+01  0.1522737E+03
Ar 1013  0.2651691E+02  0.5501476E+01  0.5501476E+01  0.2073340E+02
Ar 1014  0.2949447E+02  0.8130309E+01  0.5419709E+01  0.1233441E+03
Ar 1015  0.2949447E+02  0.5419709E+01  0.8130309E+01  0.1233441E+03
Ar 1016  0.2685261E+02  0.7967442E+01  0.7967442E+01  0.1328802E+03
Ar 1017  0.2673001E+02  0.5260589E+01  0.1106825E+02  0.9710343E+02
Ar 1018  0.2977871E+02  0.7982920E+01  0.1096753E+02  0.1076227E+03
Ar 1019  0.2958898E+02  0.5246165E+01  0.1384414E+02  0.1340869E+03
Ar 1020  0.2691536E+02  0.8346434E+01  0.1356805E+02  0.1027784E+03
Ar 1021  0.2681641E+02  0.5444189E+01  0.1631280E+02  0.4745099E+02
Ar 1022  0.2972302E+02  0.8484047E+01  0.1615335E+02  0.1543878E+03
Ar 1023  0.2956503E+02  0.5449337E+01  0.1906522E+02  0.4635545E+02
Ar 1024  0.2718771E+02  0.8221174E+01  0.1869067E+02  0.1154026E+03
Ar 1025  0.2705597E+02  0.5275260E+01  0.2159034E+02  0.9614245E+02
Ar 1026  0.2970214E+02  0.8219200E+01  0.2149997E+02  0.2030290E+03
Ar 1027  0.2967505E+02  0.5320902E+01  0.2423147E+02  0.3746732E+02
Ar 1028  0.2703249E+02  0.8105166E+01  0.2447882E+02  0.8458245E+02
Ar 1029  0.2694502E+02  0.4985285E+01  0.2694502E+02  0.2565739E+02
Ar 1030  0.2975849E+02  0.7983162E+01  0.2676079E+02  0.4590890E+02
Ar 1031  0.2957958E+02  0.5816690E+01  0.2957958E+02  0.1653976E+03
Ar 1032  0.2676079E+02  0.7983162E+01  0.2975849E+02  0.4590890E+02
Ar 1033  0.2707154E+02  0.5369156E+01  0.3232384E+02  0.9755135E+02
Ar 1034  0.2949560E+02  0.8196618E+01  0.3224279E+02  0.2619661E+02
Ar 1035  0.2966259E+02  0.5584710E+01  0.3511417E+02  0.5667748E+02
Ar 1036  0.2665719E+02  0.8149291E+01  0.3470793E+02  0.3840257E+02
Ar 1037  0.2665308E+02  0.1116737E+02  0.3772944E+02  0.3645073E+02
Ar 1038  0.2950317E+02  0.1363989E+02  0.3768725E+02  0.2574136E+02
Ar 1039  0.2965981E+02  0.1077536E+02  0.2509816E+01  0.6241979E+02
Ar 1040  0.2706920E+02  0.1355168E+02  0.2726852E+01  0.1005972E+03
Ar 1041  0.2673001E+02  0.1106825E+02  0.5260589E+01  0.9710343E+02
Ar 1042  0.2958898E+02  0.1384414E+02  0.5246165E+01  0.1340869E+03
Ar 1043  0.2977871E+02  0.1096753E+02  0.7982920E+01  0.1076227E+03
Ar 1044  0.2691536E+02  0.1356805E+02  0.8346434E+01  0.1027784E+03
Ar 1045  0.2669491E+02  0.1084956E+02  0.1084956E+02  0.4692310E+02
Ar 1046  0.2952138E+02  0.1353926E+02  0.1081320E+02  0.4214138E+02
Ar 1047  0.2952138E+02  0.1081320E+02  0.1353926E+02  0.4214138E+02
Ar 1048  0.2684976E+02  0.1390870E+02  0.1390870E+02  0.1650954E+03
Ar 1049  0.2672541E+02  0.1097647E+02  0.1627045E+02  0.6454973E+02
Ar 1050  0.2970756E+02  0.1349709E+02  0.1617452E+02  0.1199901E+03
Ar 1051  0.2959863E+02  0.1098355E+02  0.1915532E+02  0.6292114E+02
Ar 1052  0.2709418E+02  0.1401866E+02  0.1878615E+02  0.4777976E+02
Ar 1053  0.2686924E+02  0.1095438E+02  0.2174641E+02  0.2482444E+02
Ar 1054  0.2974164E+02  0.1361577E+02  0.2167245E+02  0.5519932E+02
Ar 1055  0.2982024E+02  0.1070087E+02  0.2435070E+02  0.1626039E+03
Ar 1056  0.2713330E+02  0.1336459E+02  0.2425460E+02  0.1429285E+02
Ar 1057  0.2693237E+02  0.1067784E+02  0.2693237E+02  0.2174457E+02
Ar 1058  0.2956247E+02  0.1351484E+02  0.2714332E+02  0.1622455E+02
Ar 1059  0.2985300E+02  0.1103869E+02  0.2985300E+02  0.3319493E+02
Ar 1060  0.2714332E+02  0.1351484E+02  0.2956247E+02  0.1622455E+02
Ar 1061  0.2712501E+02  0.1093980E+02  0.3217763E+02  0.8438688E+01
Ar 1062  0.2968036E+02  0.1323095E+02  0.3263499E+02  0.5870007E+03
Ar 1063  0.2939128E+02  0.1075972E+02  0.3512928E+02  0.1464412E+02
Ar 1064  0.2711927E+02  0.1370162E+02  0.3494084E+02  0.9440027E+01
Ar 1065  0.2676111E+02  0.1612429E+02  0.1241972E+00  0.4407444E+02
Ar 1066  0.2974846E+02  0.1911504E+02  0.1210192E+00  0.4428006E+02
Ar 1067  0.2958247E+02  0.1630349E+02  0.2285402E+01  0.1599015E+03
Ar 1068  0.2694090E+02  0.1893338E+02  0.3124260E+01  0.2856018E+02
Ar 1069  0.2681641E+02  0.1631280E+02  0.5444189E+01  0.4745099E+02
Ar 1070  0.2956503E+02  0.1906522E+02  0.5449337E+01  0.4635545E+02
Ar 1071  0.2972302E+02  0.1615335E+02  0.8484047E+01  0.1543878E+03
Ar 1072  0.2718771E+02  0.1869067E+02  0.8221174E+01  0.1154026E+03
Ar 1073  0.2672541E+02  0.1627045E+02  0.1097647E+02  0.6454973E+02
Ar 1074  0.2959863E+02  0.1915532E+02  0.1098355E+02  0.6292114E+02
Ar 1075  0.2970756E+02  0.1617452E+02  0.1349709E+02  0.1199901E+03
Ar 1076  0.2709418E+02  0.1878615E+02  0.1401866E+02  0.4777976E+02
Ar 1077  0.2680220E+02  0.1634053E+02  0.1634053E+02  0.1411553E+03
Ar 1078  0.2953078E+02  0.1908336E+02  0.1635132E+02  0.1506653E+03
Ar 1079  0.2953078E+02  0.1635132E+02  0.1908336E+02  0.1506653E+03
Ar 1080  0.2674139E+02  0.1914201E+02  0.1914201E+02  0.2872219E+01
Ar 1081  0.2701863E+02  0.1635400E+02  0.2171968E+02  0.6429591E+02
Ar 1082  0.2951975E+02  0.1885445E+02  0.2173723E+02  0.6154020E+02
Ar 1083  0.2947291E+02  0.1640253E+02  0.2417280E+02  0.9300541E+02
Ar 1084  0.2703574E+02  0.1883703E+02  0.2441703E+02  0.1416508E+03
Ar 1085  0.2685667E+02  0.1609170E+02  0.2685667E+02  0.9279631E+01
Ar 1086  0.2977475E+02  0.1902085E+02  0.2686107E+02  0.8346320E+01
Ar 1087  0.2945900E+02  0.1640856E+02  0.2945900E+02  0.8349046E+01
Ar 1088  0.2686107E+02  0.1902085E+02  0.2977475E+02  0.8346320E+01
Ar 1089  0.2716459E+02  0.1630167E+02  0.3234339E+02  0.1472436E+02
Ar 1090  0.2956430E+02  0.1871815E+02  0.3234806E+02  0.1603144E+02
Ar 1091  0.2985908E+02  0.1601635E+02  0.3482420E+02  0.2378344E+02
Ar 1092  0.2693842E+02  0.1893928E+02  0.3518285E+02  0.2182052E+02
Ar 1093  0.2703037E+02  0.2139152E+02  0.3777204E+02  0.8238079E+02
Ar 1094  0.2969947E+02  0.2437706E+02  0.3765611E+02  0.2010295E+03
Ar 1095  0.2967314E+02  0.2165160E+02  0.2776582E+01  0.3622743E+02
Ar 1096  0.2705101E+02  0.2428968E+02  0.2827371E+01  0.8783381E+02
Ar 1097  0.2705597E+02  0.2159034E+02  0.5275260E+01  0.9614245E+02
Ar 1098  0.2967505E+02  0.2423147E+02  0.5320902E+01  0.3746732E+02
Ar 1099  0.2970214E+02  0.2149997E+02  0.8219200E+01  0.2030290E+03
Ar 1100  0.2703249E+02  0.2447882E+02  0.8105166E+01  0.8458245E+02
Ar 1101  0.2686924E+02  0.2174641E+02  0.1095438E+02  0.2482444E+02
Ar 1102  0.2982024E+02  0.2435070E+02  0.1070087E+02  0.1626039E+03
Ar 1103  0.2974164E+02  0.2167245E+02  0.1361577E+02  0.5519932E+02
Ar 1104  0.2713330E+02  0.2425460E+02  0.1336459E+02  0.1429285E+02
Ar 1105  0.2701863E+02  0.2171968E+02  0.1635400E+02  0.6429591E+02
Ar 1106  0.2947291E+02  0.2417280E+02  0.1640253E+02  0.9300541E+02
Ar 1107  0.2951975E+02  0.2173723E+02  0.1885445E+02  0.6154020E+02
Ar 1108  0.2703574E+02  0.2441703E+02  0.1883703E+02  0.1416508E+03
Ar 1109  0.2715790E+02  0.2167253E+02  0.2167253E+02  0.2549973E+03
Ar 1110  0.3010605E+02  0.2430603E+02  0.2158634E+02  0.2761262E+03
Ar 1111  0.3010605E+02  0.2158634E+02  0.2430603E+02  0.2761262E+03
Ar 1112  0.2716156E+02  0.2419538E+02  0.2419538E+02  0.2464825E+03
Ar 1113  0.2702815E+02  0.2145257E+02  0.2702815E+02  0.1344390E+03
Ar 1114  0.2951845E+02  0.2415632E+02  0.2701427E+02  0.5945779E+02
Ar 1115  0.2946353E+02  0.2171349E+02  0.2946353E+02  0.9618162E+02
Ar 1116  0.2701427E+02  0.2415632E+02  0.2951845E+02  0.5945779E+02
Ar 1117  0.2713981E+02  0.2162052E+02  0.3251118E+02  0.1464241E+02
Ar 1118  0.2972990E+02  0.2421030E+02  0.3225323E+02  0.5284834E+02
Ar 1119  0.2980782E+02  0.2153071E+02  0.3517879E+02  0.1548270E+03
Ar 1120  0.2687290E+02  0.2413074E+02  0.3492535E+02  0.2322501E+02
Ar 1121  0.2718611E+02  0.2718611E+02  0.3765389E+02  0.1157218E+03
Ar 1122  0.2972060E+02  0.2972060E+02  0.3740295E+02  0.1462469E+03
Ar 1123  0.2955645E+02  0.2681670E+02  0.2645089E+01  0.4558668E+02
Ar 1124  0.2681670E+02  0.2955645E+02  0.2645089E+01  0.4558668E+02
Ar 1125  0.2694502E+02  0.2694502E+02  0.4985285E+01  0.2565739E+02
Ar 1126  0.2957958E+02  0.2957958E+02  0.5816690E+01  0.1653976E+03
Ar 1127  0.2975849E+02  0.2676079E+02  0.7983162E+01  0.4590890E+02
Ar 1128  0.2676079E+02  0.2975849E+02  0.7983162E+01  0.4590890E+02
Ar 1129  0.2693237E+02  0.2693237E+02  0.1067784E+02  0.2174457E+02
Ar 1130  0.2985300E+02  0.2985300E+02  0.1103869E+02  0.3319493E+02
Ar 1131  0.2956247E+02  0.2714332E+02  0.1351484E+02  0.1622455E+02
Ar 1132  0.2714332E+02  0.2956247E+02  0.1351484E+02  0.1622455E+02
Ar 1133  0.2685667E+02  0.2685667E+02  0.1609170E+02  0.9279631E+01
Ar 1134  0.2945900E+02  0.2945900E+02  0.1640856E+02  0.8349046E+01
Ar 1135  0.2977475E+02  0.2686107E+02  0.1902085E+02  0.8346320E+01
Ar 1136  0.2686107E+02  0.2977475E+02  0.1902085E+02  0.8346320E+01
Ar 1137  0.2702815E+02  0.2702815E+02  0.2145257E+02  0.1344390E+03
Ar 1138  0.2946353E+02  0.2946353E+02  0.2171349E+02  0.9618162E+02
Ar 1139  0.2951845E+02  0.2701427E+02  0.2415632E+02  0.5945779E+02
Ar 1140  0.2701427E+02  0.2951845E+02  0.2415632E+02  0.5945779E+02
Ar 1141  0.2671829E+02  0.2671829E+02  0.2671829E+02  0.4921321E+01
Ar 1142  0.2952749E+02  0.2952749E+02  0.2678622E+02  0.1503677E+03
Ar 1143  0.2952749E+02  0.2678622E+02  0.2952749E+02  0.1503677E+03
Ar 1144  0.2678622E+02  0.2952749E+02  0.2952749E+02  0.1503677E+03
Ar 1145  0.2709018E+02  0.2709018E+02  0.3185366E+02  0.4546466E+02
Ar 1146  0.2970316E+02  0.2970316E+02  0.3236593E+02  0.1257646E+03
Ar 1147  0.2961010E+02  0.2672787E+02  0.3490807E+02  0.6469058E+02
Ar 1148  0.2672787E+02  0.2961010E+02  0.3490807E+02  0.6469058E+02
Ar 1149  0.2691285E+02  0.3230399E+02  0.3752833E+02  0.9430920E+02
Ar 1150  0.2977349E+02  0.3488788E+02  0.1194930E+00  0.9998118E+02
Ar 1151  0.2958906E+02  0.3203396E+02  0.2860960E+01  0.1325181E+03
Ar 1152  0.2673420E+02  0.3480615E+02  0.2847132E+01  0.9461478E+02
Ar 1153  0.2707154E+02  0.3232384E+02  0.5369156E+01  0.9755135E+02
Ar 1154  0.2966259E+02  0.3511417E+02  0.5584710E+01  0.5667748E+02
Ar 1155  0.2949560E+02  0.3224279E+02  0.8196618E+01  0.2619661E+02
Ar 1156  0.2665719E+02  0.3470793E+02  0.8149291E+01  0.3840257E+02
Ar 1157  0.2712501E+02  0.3217763E+02  0.1093980E+02  0.8438688E+01
Ar 1158  0.2939128E+02  0.3512928E+02  0.1075972E+02  0.1464412E+02
Ar 1159  0.2968036E+02  0.3263499E+02  0.1323095E+02  0.5870007E+03
Ar 1160  0.2711927E+02  0.3494084E+02  0.1370162E+02  0.9440027E+01
Ar 1161  0.2716459E+02  0.3234339E+02  0.1630167E+02  0.1472436E+02
Ar 1162  0.2985908E+02  0.3482420E+02  0.1601635E+02  0.2378344E+02
Ar 1163  0.2956430E+02  0.3234806E+02  0.1871815E+02  0.1603144E+02
Ar 1164  0.2693842E+02  0.3518285E+02  0.1893928E+02  0.2182052E+02
Ar 1165  0.2713981E+02  0.3251118E+02  0.2162052E+02  0.1464241E+02
Ar 1166  0.2980782E+02  0.3517879E+02  0.2153071E+02  0.1548270E+03
Ar 1167  0.2972990E+02  0.3225323E+02  0.2421030E+02  0.5284834E+02
Ar 1168  0.2687290E+02  0.3492535E+02  0.2413074E+02  0.2322501E+02
Ar 1169  0.2709018E+02  0.3185366E+02  0.2709018E+02  0.4546466E+02
Ar 1170  0.2961010E+02  0.3490807E+02  0.2672787E+02  0.6469058E+02
Ar 1171  0.2970316E+02  0.3236593E+02  0.2970316E+02  0.1257646E+03
Ar 1172  0.2672787E+02  0.3490807E+02  0.2961010E+02  0.6469058E+02
Ar 1173  0.2685139E+02  0.3194973E+02  0.3194973E+02  0.1735565E+03
Ar 1174  0.2951307E+02  0.3505129E+02  0.3232844E+02  0.4153041E+02
Ar 1175  0.2951307E+02  0.3232844E+02  0.3505129E+02  0.4153041E+02
Ar 1176  0.2669441E+02  0.3502784E+02  0.3502784E+02  0.4903926E+02
Ar 1177  0.3196681E+02  0.3761660E+02  0.3761660E+02  0.7977131E+01
Ar 1178  0.3481588E+02  0.2844757E+01  0.3739015E+02  0.1917640E+03
Ar 1179  0.3481588E+02  0.3739015E+02  0.2844757E+01  0.1917640E+03
Ar 1180  0.3258847E+02  0.2401742E+01  0.2401742E+01  0.4062959E+02
Ar 1181  0.3240143E+02  0.3746576E+02  0.5337481E+01  0.1067162E+03
Ar 1182  0.3489415E+02  0.2390143E+01  0.5703847E+01  0.1101659E+03
Ar 1183  0.3486318E+02  0.3754107E+02  0.8340155E+01  0.9132069E+01
Ar 1184  0.3240889E+02  0.2752218E+01  0.8402587E+01  0.1171045E+03
Ar 1185  0.3200969E+02  0.3743935E+02  0.1117726E+02  0.4720163E+02
Ar 1186  0.3493351E+02  0.2366066E+01  0.1093519E+02  0.5922728E+02
Ar 1187  0.3469508E+02  0.3744041E+02  0.1385853E+02  0.4710302E+02
Ar 1188  0.3223622E+02  0.2516788E+01  0.1364210E+02  0.1183662E+03
Ar 1189  0.3224238E+02  0.3768229E+02  0.1638621E+02  0.2670857E+02
Ar 1190  0.3510212E+02  0.2509492E+01  0.1622312E+02  0.6557888E+02
Ar 1191  0.3470498E+02  0.3771794E+02  0.1922035E+02  0.3635886E+02
Ar 1192  0.3232291E+02  0.2726727E+01  0.1881477E+02  0.9309472E+02
Ar 1193  0.3222932E+02  0.3767420E+02  0.2168457E+02  0.8677317E+02
Ar 1194  0.3479273E+02  0.2700761E+01  0.2159067E+02  0.4181937E+02
Ar 1195  0.3488840E+02  0.3753555E+02  0.2434400E+02  0.1940199E+03
Ar 1196  0.3229398E+02  0.2729483E+01  0.2410984E+02  0.8441400E+02
Ar 1197  0.3230399E+02  0.3752833E+02  0.2691285E+02  0.9430920E+02
Ar 1198  0.3480615E+02  0.2847132E+01  0.2673420E+02  0.9461478E+02
Ar 1199  0.3488788E+02  0.1194930E+00  0.2977349E+02  0.9998118E+02
Ar 1200  0.3203396E+02  0.2860960E+01  0.2958906E+02  0.1325181E+03
Ar 1201  0.3208995E+02  0.3774033E+02  0.3208995E+02  0.1094612E+03
Ar 1202  0.3494433E+02  0.2890090E+01  0.3233824E+02  0.4262104E+02
Ar 1203  0.3492423E+02  0.1740877E-01  0.3492423E+02  0.2297854E+02
Ar 1204  0.3233824E+02  0.2890090E+01  0.3494433E+02  0.4262104E+02
Ar 1205  0.3240143E+02  0.5337481E+01  0.3746576E+02  0.1067162E+03
Ar 1206  0.3486318E+02  0.8340155E+01  0.3754107E+02  0.9132069E+01
Ar 1207  0.3489415E+02  0.5703847E+01  0.2390143E+01  0.1101659E+03
Ar 1208  0.3240889E+02  0.8402587E+01  0.2752218E+01  0.1171045E+03
Ar 1209  0.3259052E+02  0.5695806E+01  0.5695806E+01  0.4512130E+02
Ar 1210  0.3482782E+02  0.8476176E+01  0.5252256E+01  0.2049973E+03
Ar 1211  0.3482782E+02  0.5252256E+01  0.8476176E+01  0.2049973E+03
Ar 1212  0.3198189E+02  0.8259943E+01  0.8259943E+01  0.5503986E+01
Ar 1213  0.3234123E+02  0.5205779E+01  0.1092515E+02  0.4613881E+02
Ar 1214  0.3492210E+02  0.8065077E+01  0.1095674E+02  0.2213828E+02
Ar 1215  0.3494159E+02  0.5197457E+01  0.1353207E+02  0.4607970E+02
Ar 1216  0.3208541E+02  0.8128168E+01  0.1378747E+02  0.1163124E+03
Ar 1217  0.3204284E+02  0.5230718E+01  0.1628704E+02  0.1298007E+03
Ar 1218  0.3489105E+02  0.7967752E+01  0.1609284E+02  0.1117694E+03
Ar 1219  0.3481479E+02  0.5249886E+01  0.1913830E+02  0.9392266E+02
Ar 1220  0.3230717E+02  0.8348463E+01  0.1895710E+02  0.9776998E+02
Ar 1221  0.3229686E+02  0.5369909E+01  0.2176199E+02  0.8016487E+02
Ar 1222  0.3489263E+02  0.8339681E+01  0.2153379E+02  0.1753847E+03
Ar 1223  0.3479631E+02  0.5401649E+01  0.2427628E+02  0.4324316E+02
Ar 1224  0.3223595E+02  0.8203496E+01  0.2418934E+02  0.9132437E+02
Ar 1225  0.3232384E+02  0.5369156E+01  0.2707154E+02  0.9755135E+02
Ar 1226  0.3470793E+02  0.8149291E+01  0.2665719E+02  0.3840257E+02
Ar 1227  0.3511417E+02  0.5584710E+01  0.2966259E+02  0.5667748E+02
Ar 1228  0.3224279E+02  0.8196618E+01  0.2949560E+02  0.2619661E+02
Ar 1229  0.3223712E+02  0.5578643E+01  0.3223712E+02  0.1128040E+03
Ar 1230  0.3469598E+02  0.8440055E+01  0.3201002E+02  0.4280792E+02
Ar 1231  0.3494979E+02  0.5738931E+01  0.3494979E+02  0.7382259E+02
Ar 1232  0.3201002E+02  0.8440055E+01  0.3469598E+02  0.4280792E+02
Ar 1233  0.3200969E+02  0.1117726E+02  0.3743935E+02  0.4720163E+02
Ar 1234  0.3469508E+02  0.1385853E+02  0.3744041E+02  0.4710302E+02
Ar 1235  0.3493351E+02  0.1093519E+02  0.2366066E+01  0.5922728E+02
Ar 1236  0.3223622E+02  0.1364210E+02  0.2516788E+01  0.1183662E+03
Ar 1237  0.3234123E+02  0.1092515E+02  0.5205779E+01  0.4613881E+02
Ar 1238  0.3494159E+02  0.1353207E+02  0.5197457E+01  0.4607970E+02
Ar 1239  0.3492210E+02  0.1095674E+02  0.8065077E+01  0.2213828E+02
Ar 1240  0.3208541E+02  0.1378747E+02  0.8128168E+01  0.1163124E+03
Ar 1241  0.3229164E+02  0.1095423E+02  0.1095423E+02  0.1722821E+03
Ar 1242  0.3492355E+02  0.1358593E+02  0.1095733E+02  0.1699670E+03
Ar 1243  0.3492355E+02  0.1095733E+02  0.1358593E+02  0.1699670E+03
Ar 1244  0.3227972E+02  0.1360260E+02  0.1360260E+02  0.3475088E+02
Ar 1245  0.3232699E+02  0.1082336E+02  0.1635473E+02  0.3958246E+02
Ar 1246  0.3505589E+02  0.1354800E+02  0.1635599E+02  0.3997996E+02
Ar 1247  0.3502339E+02  0.1085148E+02  0.1917742E+02  0.4370039E+02
Ar 1248  0.3195034E+02  0.1392171E+02  0.1902233E+02  0.1714782E+03
Ar 1249  0.3234776E+02  0.1092348E+02  0.2154504E+02  0.1214870E+03
Ar 1250  0.3496238E+02  0.1353011E+02  0.2155331E+02  0.1126991E+03
Ar 1251  0.3518821E+02  0.1069475E+02  0.2408237E+02  0.1700182E+03
Ar 1252  0.3246485E+02  0.1341281E+02  0.2436062E+02  0.5533602E+01
Ar 1253  0.3217763E+02  0.1093980E+02  0.2712501E+02  0.8438688E+01
Ar 1254  0.3494084E+02  0.1370162E+02  0.2711927E+02  0.9440027E+01
Ar 1255  0.3512928E+02  0.1075972E+02  0.2939128E+02  0.1464412E+02
Ar 1256  0.3263499E+02  0.1323095E+02  0.2968036E+02  0.5870007E+03
Ar 1257  0.3220097E+02  0.1091073E+02  0.3220097E+02  0.2784880E+03
Ar 1258  0.3496046E+02  0.1368304E+02  0.3219541E+02  0.2723907E+03
Ar 1259  0.3487993E+02  0.1098753E+02  0.3487993E+02  0.5088144E+03
Ar 1260  0.3219541E+02  0.1368304E+02  0.3496046E+02  0.2723907E+03
Ar 1261  0.3224238E+02  0.1638621E+02  0.3768229E+02  0.2670857E+02
Ar 1262  0.3470498E+02  0.1922035E+02  0.3771794E+02  0.3635886E+02
Ar 1263  0.3510212E+02  0.1622312E+02  0.2509492E+01  0.6557888E+02
Ar 1264  0.3232291E+02  0.1881477E+02  0.2726727E+01  0.9309472E+02
Ar 1265  0.3204284E+02  0.1628704E+02  0.5230718E+01  0.1298007E+03
Ar 1266  0.3481479E+02  0.1913830E+02  0.5249886E+01  0.9392266E+02
Ar 1267  0.3489105E+02  0.1609284E+02  0.7967752E+01  0.1117694E+03
Ar 1268  0.3230717E+02  0.1895710E+02  0.8348463E+01  0.9776998E+02
Ar 1269  0.3232699E+02  0.1635473E+02  0.1082336E+02  0.3958246E+02
Ar 1270  0.3502339E+02  0.1917742E+02  0.1085148E+02  0.4370039E+02
Ar 1271  0.3505589E+02  0.1635599E+02  0.1354800E+02  0.3997996E+02
Ar 1272  0.3195034E+02  0.1902233E+02  0.1392171E+02  0.1714782E+03
Ar 1273  0.3236243E+02  0.1618159E+02  0.1618159E+02  0.1222255E+03
Ar 1274  0.3489790E+02  0.1914869E+02  0.1627244E+02  0.6487350E+02
Ar 1275  0.3489790E+02  0.1627244E+02  0.1914869E+02  0.6487350E+02
Ar 1276  0.3187116E+02  0.1878635E+02  0.1878635E+02  0.4861407E+02
Ar 1277  0.3225838E+02  0.1614357E+02  0.2166711E+02  0.5308562E+02
Ar 1278  0.3491488E+02  0.1900041E+02  0.2175881E+02  0.2445888E+02
Ar 1279  0.3517417E+02  0.1605491E+02  0.2434754E+02  0.1658175E+03
Ar 1280  0.3250296E+02  0.1873193E+02  0.2426604E+02  0.1283432E+02
Ar 1281  0.3234339E+02  0.1630167E+02  0.2716459E+02  0.1472436E+02
Ar 1282  0.3518285E+02  0.1893928E+02  0.2693842E+02  0.2182052E+02
Ar 1283  0.3482420E+02  0.1601635E+02  0.2985908E+02  0.2378344E+02
Ar 1284  0.3234806E+02  0.1871815E+02  0.2956430E+02  0.1603144E+02
Ar 1285  0.3264367E+02  0.1621550E+02  0.3264367E+02  0.5694463E+03
Ar 1286  0.3494241E+02  0.1876232E+02  0.3216893E+02  0.6307693E+01
Ar 1287  0.3513687E+02  0.1648417E+02  0.3513687E+02  0.1742964E+02
Ar 1288  0.3216893E+02  0.1876232E+02  0.3494241E+02  0.6307693E+01
Ar 1289  0.3222932E+02  0.2168457E+02  0.3767420E+02  0.8677317E+02
Ar 1290  0.3488840E+02  0.2434400E+02  0.3753555E+02  0.1940199E+03
Ar 1291  0.3479273E+02  0.2159067E+02  0.2700761E+01  0.4181937E+02
Ar 1292  0.3229398E+02  0.2410984E+02  0.2729483E+01  0.8441400E+02
Ar 1293  0.3229686E+02  0.2176199E+02  0.5369909E+01  0.8016487E+02
Ar 1294  0.3479631E+02  0.2427628E+02  0.5401649E+01  0.4324316E+02
Ar 1295  0.3489263E+02  0.2153379E+02  0.8339681E+01  0.1753847E+03
Ar 1296  0.3223595E+02  0.2418934E+02  0.8203496E+01  0.9132437E+02
Ar 1297  0.3234776E+02  0.2154504E+02  0.1092348E+02  0.1214870E+03
Ar 1298  0.3518821E+02  0.2408237E+02  0.1069475E+02  0.1700182E+03
Ar 1299  0.3496238E+02  0.2155331E+02  0.1353011E+02  0.1126991E+03
Ar 1300  0.3246485E+02  0.2436062E+02  0.1341281E+02  0.5533602E+01
Ar 1301  0.3225838E+02  0.2166711E+02  0.1614357E+02  0.5308562E+02
Ar 1302  0.3517417E+02  0.2434754E+02  0.1605491E+02  0.1658175E+03
Ar 1303  0.3491488E+02  0.2175881E+02  0.1900041E+02  0.2445888E+02
Ar 1304  0.3250296E+02  0.2426604E+02  0.1873193E+02  0.1283432E+02
Ar 1305  0.3200127E+02  0.2139197E+02  0.2139197E+02  0.5817241E+01
Ar 1306  0.3522825E+02  0.2424786E+02  0.2163073E+02  0.7866479E+02
Ar 1307  0.3522825E+02  0.2163073E+02  0.2424786E+02  0.7866479E+02
Ar 1308  0.3201571E+02  0.2448677E+02  0.2448677E+02  0.6446169E+01
Ar 1309  0.3251118E+02  0.2162052E+02  0.2713981E+02  0.1464241E+02
Ar 1310  0.3492535E+02  0.2413074E+02  0.2687290E+02  0.2322501E+02
Ar 1311  0.3517879E+02  0.2153071E+02  0.2980782E+02  0.1548270E+03
Ar 1312  0.3225323E+02  0.2421030E+02  0.2972990E+02  0.5284834E+02
Ar 1313  0.3245028E+02  0.2153012E+02  0.3245028E+02  0.6669009E+01
Ar 1314  0.3495963E+02  0.2432304E+02  0.3235376E+02  0.1083975E+03
Ar 1315  0.3518803E+02  0.2178075E+02  0.3518803E+02  0.1591475E+03
Ar 1316  0.3235376E+02  0.2432304E+02  0.3495963E+02  0.1083975E+03
Ar 1317  0.3230399E+02  0.2691285E+02  0.3752833E+02  0.9430920E+02
Ar 1318  0.3488788E+02  0.2977349E+02  0.1194930E+00  0.9998118E+02
Ar 1319  0.3480615E+02  0.2673420E+02  0.2847132E+01  0.9461478E+02
Ar 1320  0.3203396E+02  0.2958906E+02  0.2860960E+01  0.1325181E+03
Ar 1321  0.3232384E+02  0.2707154E+02  0.5369156E+01  0.9755135E+02
Ar 1322  0.3511417E+02  0.2966259E+02  0.5584710E+01  0.5667748E+02
Ar 1323  0.3470793E+02  0.2665719E+02  0.8149291E+01  0.3840257E+02
Ar 1324  0.3224279E+02  0.2949560E+02  0.8196618E+01  0.2619661E+02
Ar 1325  0.3217763E+02  0.2712501E+02  0.1093980E+02  0.8438688E+01
Ar 1326  0.3512928E+02  0.2939128E+02  0.1075972E+02  0.1464412E+02
Ar 1327  0.3494084E+02  0.2711927E+02  0.1370162E+02  0.9440027E+01
Ar 1328  0.3263499E+02  0.2968036E+02  0.1323095E+02  0.5870007E+03
Ar 1329  0.3234339E+02  0.2716459E+02  0.1630167E+02  0.1472436E+02
Ar 1330  0.3482420E+02  0.2985908E+02  0.1601635E+02  0.2378344E+02
Ar 1331  0.3518285E+02  0.2693842E+02  0.1893928E+02  0.2182052E+02
Ar 1332  0.3234806E+02  0.2956430E+02  0.1871815E+02  0.1603144E+02
Ar 1333  0.3251118E+02  0.2713981E+02  0.2162052E+02  0.1464241E+02
Ar 1334  0.3517879E+02  0.2980782E+02  0.2153071E+02  0.1548270E+03
Ar 1335  0.3492535E+02  0.2687290E+02  0.2413074E+02  0.2322501E+02
Ar 1336  0.3225323E+02  0.2972990E+02  0.2421030E+02  0.5284834E+02
Ar 1337  0.3185366E+02  0.2709018E+02  0.2709018E+02  0.4546466E+02
Ar 1338  0.3490807E+02  0.2961010E+02  0.2672787E+02  0.6469058E+02
Ar 1339  0.3490807E+02  0.2672787E+02  0.2961010E+02  0.6469058E+02
Ar 1340  0.3236593E+02  0.2970316E+02  0.2970316E+02  0.1257646E+03
Ar 1341  0.3194973E+02  0.2685139E+02  0.3194973E+02  0.1735565E+03
Ar 1342  0.3505129E+02  0.2951307E+02  0.3232844E+02  0.4153041E+02
Ar 1343  0.3502784E+02  0.2669441E+02  0.3502784E+02  0.4903926E+02
Ar 1344  0.3232844E+02  0.2951307E+02  0.3505129E+02  0.4153041E+02
Ar 1345  0.3208995E+02  0.3208995E+02  0.3774033E+02  0.1094612E+03
Ar 1346  0.3492423E+02  0.3492423E+02  0.1740877E-01  0.2297854E+02
Ar 1347  0.3494433E+02  0.3233824E+02  0.2890090E+01  0.4262104E+02
Ar 1348  0.3233824E+02  0.3494433E+02  0.2890090E+01  0.4262104E+02
Ar 1349  0.3223712E+02  0.3223712E+02  0.5578643E+01  0.1128040E+03
Ar 1350  0.3494979E+02  0.3494979E+02  0.5738931E+01  0.7382259E+02
Ar 1351  0.3469598E+02  0.3201002E+02  0.8440055E+01  0.4280792E+02
Ar 1352  0.3201002E+02  0.3469598E+02  0.8440055E+01  0.4280792E+02
Ar 1353  0.3220097E+02  0.3220097E+02  0.1091073E+02  0.2784880E+03
Ar 1354  0.3487993E+02  0.3487993E+02  0.1098753E+02  0.5088144E+03
Ar 1355  0.3496046E+02  0.3219541E+02  0.1368304E+02  0.2723907E+03
Ar 1356  0.3219541E+02  0.3496046E+02  0.1368304E+02  0.2723907E+03
Ar 1357  0.3264367E+02  0.3264367E+02  0.1621550E+02  0.5694463E+03
Ar 1358  0.3513687E+02  0.3513687E+02  0.1648417E+02  0.1742964E+02
Ar 1359  0.3494241E+02  0.3216893E+02  0.1876232E+02  0.6307693E+01
Ar 1360  0.3216893E+02  0.3494241E+02  0.1876232E+02  0.6307693E+01
Ar 1361  0.3245028E+02  0.3245028E+02  0.2153012E+02  0.6669009E+01
Ar 1362  0.3518803E+02  0.3518803E+02  0.2178075E+02  0.1591475E+03
Ar 1363  0.3495963E+02  0.3235376E+02  0.2432304E+02  0.1083975E+03
Ar 1364  0.3235376E+02  0.3495963E+02  0.2432304E+02  0.1083975E+03
Ar 1365  0.3194973E+02  0.3194973E+02  0.2685139E+02  0.1735565E+03
Ar 1366  0.3502784E+02  0.3502784E+02  0.2669441E+02  0.4903926E+02
Ar 1367  0.3505129E+02  0.3232844E+02  0.2951307E+02  0.4153041E+02
Ar 1368  0.3232844E+02  0.3505129E+02  0.2951307E+02  0.4153041E+02
Ar 1369  0.3227494E+02  0.3227494E+02  0.3227494E+02  0.2841945E+02
Ar 1370  0.3491901E+02  0.3491901E+02  0.3228369E+02  0.1734478E+03
Ar 1371  0.3491901E+02  0.3228369E+02  0.3491901E+02  0.1734478E+03
Ar 1372  0.3228369E+02  0.3491901E+02  0.3491901E+02  0.1734478E+03
