        1372
Lattice="  0.3778015E+02  0.0000000E+00  0.0000000E+00  0.0000000E+00  0.3778015E+02  0.0000000E+00  0.0000000E+00  0.0000000E+00  0.3778015E+02" Properties=species:S:1:id:I:1:pos:R:3:tempK:R:1
Ar    1  0.3774308E+02  0.3770270E+02  0.8500251E-01  0.5070701E+03
Ar    2  0.2634754E+01  0.2695023E+01  0.3757078E+02  0.2627773E+03
Ar    3  0.2733430E+01  0.3774020E+02  0.2281843E+01  0.8793620E+02
Ar    4  0.3748400E+02  0.2400834E+01  0.2470271E+01  0.2130752E+03
Ar    5  0.3009420E+00  0.4438247E+00  0.5621453E+01  0.1044462E+04
Ar    6  0.2987346E+01  0.2849978E+01  0.5215523E+01  0.1959912E+03
Ar    7  0.3060620E+01  0.3758443E+02  0.7476418E+01  0.2345690E+03
Ar    8  0.3777764E+02  0.2203791E+01  0.8479429E+01  0.2314607E+03
Ar    9  0.5414294E+00  0.3737692E+02  0.1101333E+02  0.4520853E+03
Ar   10  0.3259789E+01  0.2390194E+01  0.1017719E+02  0.1695275E+03
Ar   11  0.2683019E+01  0.6688366E-01  0.1375323E+02  0.2318266E+02
Ar   12  0.2925109E+00  0.2539680E+01  0.1280536E+02  0.1582498E+03
Ar   13  0.3764070E+02  0.3742564E+02  0.1601501E+02  0.1771638E+03
Ar   14  0.2584917E+01  0.2688761E+01  0.1646199E+02  0.1758785E+03
Ar   15  0.2813377E+01  0.4381118E-01  0.1861261E+02  0.6609796E+03
Ar   16  0.3770601E+02  0.1886073E+01  0.1866484E+02  0.8866673E+02
Ar   17  0.3726637E+02  0.3756396E+02  0.2142745E+02  0.2738442E+03
Ar   18  0.2655373E+01  0.2446458E+01  0.2169115E+02  0.6268289E+03
Ar   19  0.2485882E+01  0.1201348E+00  0.2442186E+02  0.3105662E+03
Ar   20  0.3767712E+02  0.2985517E+01  0.2438012E+02  0.6979745E+03
Ar   21  0.3736564E+02  0.3760781E+02  0.2627624E+02  0.9423832E+03
Ar   22  0.2068212E+01  0.3372651E+01  0.2710085E+02  0.1323715E+03
Ar   23  0.2413980E+01  0.3735293E+02  0.2970066E+02  0.1146667E+03
Ar   24  0.5068307E+00  0.2866068E+01  0.2987032E+02  0.6332925E+02
Ar   25  0.3720282E+02  0.3728957E+02  0.3274680E+02  0.2549987E+03
Ar   26  0.2741154E+01  0.2507912E+01  0.3231586E+02  0.7263205E+02
Ar   27  0.2587554E+01  0.3746044E+02  0.3461425E+02  0.1837878E+03
Ar   28  0.3755856E+02  0.2852147E+01  0.3503003E+02  0.7891584E+02
Ar   29  0.1027187E+00  0.5352697E+01  0.2926983E+00  0.6536686E+02
Ar   30  0.2569648E+01  0.8299033E+01  0.3312005E+00  0.4493324E+03
Ar   31  0.3064952E+01  0.5329362E+01  0.2136759E+01  0.1136305E+03
Ar   32  0.3753091E+02  0.7918846E+01  0.2607135E+01  0.3048316E+03
Ar   33  0.3731125E+02  0.4752004E+01  0.5394317E+01  0.2652710E+03
Ar   34  0.2920548E+01  0.8032669E+01  0.5732882E+01  0.6078652E+02
Ar   35  0.2709812E+01  0.5123510E+01  0.7681246E+01  0.1193213E+03
Ar   36  0.1926211E+00  0.7560612E+01  0.7774142E+01  0.5476356E+02
Ar   37  0.2147903E+00  0.4982079E+01  0.1029329E+02  0.5465156E+03
Ar   38  0.2478068E+01  0.7811303E+01  0.1051233E+02  0.1950339E+03
Ar   39  0.2532997E+01  0.5066719E+01  0.1312070E+02  0.5227931E+03
Ar   40  0.3768408E+02  0.7803892E+01  0.1339992E+02  0.3054189E+03
Ar   41  0.3728940E+02  0.5041485E+01  0.1701610E+02  0.2233535E+03
Ar   42  0.2273796E+01  0.7364725E+01  0.1643701E+02  0.5818720E+03
Ar   43  0.3448748E+01  0.4684845E+01  0.1937407E+02  0.1645299E+03
Ar   44  0.3753367E+02  0.7948873E+01  0.1895999E+02  0.1668005E+02
Ar   45  0.3737317E+02  0.5415798E+01  0.2160447E+02  0.7942996E+03
Ar   46  0.3098312E+01  0.7973753E+01  0.2193491E+02  0.1731254E+03
Ar   47  0.2509077E+01  0.5072704E+01  0.2415657E+02  0.4540318E+03
Ar   48  0.4136739E+00  0.8227448E+01  0.2427026E+02  0.3214177E+03
Ar   49  0.5706595E+00  0.6292185E+01  0.2727924E+02  0.1385562E+03
Ar   50  0.3477757E+01  0.8425984E+01  0.2699228E+02  0.5386174E+03
Ar   51  0.2806780E+01  0.5575658E+01  0.2931487E+02  0.1857336E+03
Ar   52  0.1227344E-01  0.8358793E+01  0.3012994E+02  0.2308511E+03
Ar   53  0.3758158E+02  0.5265913E+01  0.3214797E+02  0.2093039E+03
Ar   54  0.2423326E+01  0.7809530E+01  0.3224913E+02  0.6129283E+02
Ar   55  0.2182596E+01  0.5657054E+01  0.3554577E+02  0.2269339E+03
Ar   56  0.1911715E+00  0.9155825E+01  0.3569453E+02  0.2456598E+03
Ar   57  0.1065317E+01  0.1136347E+02  0.3367632E+00  0.1518981E+03
Ar   58  0.3206831E+01  0.1414290E+02  0.2529821E-01  0.1417357E+03
Ar   59  0.3558141E+01  0.1126253E+02  0.2557299E+01  0.4326624E+03
Ar   60  0.9265394E+00  0.1381407E+02  0.2733580E+01  0.4110102E+03
Ar   61  0.3032665E+00  0.1061611E+02  0.5511920E+01  0.1944733E+03
Ar   62  0.3348868E+01  0.1337058E+02  0.5654414E+01  0.4347669E+02
Ar   63  0.2957033E+01  0.1023208E+02  0.8120416E+01  0.2005684E+03
Ar   64  0.2831834E+00  0.1321620E+02  0.7660897E+01  0.8356277E+03
Ar   65  0.4386962E+00  0.1050608E+02  0.1042905E+02  0.3567243E+03
Ar   66  0.2833741E+01  0.1326415E+02  0.1018480E+02  0.7471087E+03
Ar   67  0.3060894E+01  0.1074883E+02  0.1293243E+02  0.1763970E+03
Ar   68  0.2788864E+00  0.1314900E+02  0.1293540E+02  0.7967374E+03
Ar   69  0.1009844E+00  0.1072609E+02  0.1567887E+02  0.2041291E+03
Ar   70  0.2920716E+01  0.1327395E+02  0.1593995E+02  0.2858366E+03
Ar   71  0.2721448E+01  0.1050464E+02  0.1869813E+02  0.7492093E+02
Ar   72  0.6882911E-01  0.1318136E+02  0.1892492E+02  0.1711382E+04
Ar   73  0.4307875E+00  0.1021926E+02  0.2137566E+02  0.1624630E+03
Ar   74  0.3042486E+01  0.1371179E+02  0.2108282E+02  0.1804992E+03
Ar   75  0.3143482E+01  0.1114748E+02  0.2396736E+02  0.1255906E+03
Ar   76  0.3214505E+00  0.1336130E+02  0.2453151E+02  0.2752123E+03
Ar   77  0.1943463E+00  0.1096302E+02  0.2691696E+02  0.6955564E+03
Ar   78  0.3434577E+01  0.1351069E+02  0.2646090E+02  0.2048815E+03
Ar   79  0.2446140E+01  0.1159817E+02  0.2939446E+02  0.2742064E+03
Ar   80  0.3468910E-01  0.1404755E+02  0.2888141E+02  0.3533478E+03
Ar   81  0.3752634E+02  0.1099200E+02  0.3230248E+02  0.4290122E+03
Ar   82  0.2369431E+01  0.1412960E+02  0.3183798E+02  0.5938346E+03
Ar   83  0.2600981E+01  0.1160483E+02  0.3477677E+02  0.1189510E+03
Ar   84  0.8576828E-01  0.1417993E+02  0.3576840E+02  0.5695457E+03
Ar   85  0.3758471E+02  0.1637941E+02  0.8124328E+00  0.4844668E+03
Ar   86  0.2605723E+01  0.1895755E+02  0.3889119E+00  0.6342326E+03
Ar   87  0.3385151E+01  0.1659073E+02  0.2741819E+01  0.1598551E+03
Ar   88  0.3771156E+02  0.1899484E+02  0.2871666E+01  0.2801256E+03
Ar   89  0.8125971E+00  0.1600338E+02  0.5427584E+01  0.8486627E+03
Ar   90  0.3028200E+01  0.1893554E+02  0.6034172E+01  0.3303030E+01
Ar   91  0.3087261E+01  0.1590239E+02  0.7688503E+01  0.2336805E+03
Ar   92  0.3737210E+02  0.1908174E+02  0.7167245E+01  0.3299246E+03
Ar   93  0.6810081E+00  0.1595315E+02  0.1013478E+02  0.7936914E+03
Ar   94  0.2914966E+01  0.1887354E+02  0.1034967E+02  0.1002439E+03
Ar   95  0.2514651E+01  0.1641432E+02  0.1340289E+02  0.6386979E+02
Ar   96  0.3749027E+02  0.1883316E+02  0.1281676E+02  0.1292833E+02
Ar   97  0.1029521E+00  0.1579472E+02  0.1652052E+02  0.5528816E+03
Ar   98  0.2492262E+01  0.1876807E+02  0.1652632E+02  0.1509928E+03
Ar   99  0.3132517E+01  0.1611681E+02  0.1834453E+02  0.1466473E+02
Ar  100  0.3692465E+00  0.1840272E+02  0.1903943E+02  0.1482715E+03
Ar  101  0.3630929E+02  0.1618668E+02  0.2248274E+02  0.5579997E+03
Ar  102  0.2621967E+01  0.1839596E+02  0.2168419E+02  0.8018825E+02
Ar  103  0.3342424E+01  0.1591470E+02  0.2410930E+02  0.1036163E+03
Ar  104  0.3732939E+02  0.1921664E+02  0.2414316E+02  0.5328931E+02
Ar  105  0.7903429E+00  0.1674945E+02  0.2607341E+02  0.2707428E+02
Ar  106  0.3430643E+01  0.1903384E+02  0.2618233E+02  0.7620849E+03
Ar  107  0.2761940E+01  0.1667616E+02  0.2947131E+02  0.2212520E+03
Ar  108  0.1771107E+00  0.1862270E+02  0.2878346E+02  0.3246429E+03
Ar  109  0.3711555E+02  0.1596716E+02  0.3282063E+02  0.2457632E+03
Ar  110  0.2538341E+01  0.1921009E+02  0.3237951E+02  0.1933897E+03
Ar  111  0.2871194E+01  0.1614502E+02  0.3511218E+02  0.2226034E+02
Ar  112  0.3246184E+00  0.1876207E+02  0.3513020E+02  0.6379357E+02
Ar  113  0.7819765E+00  0.2157763E+02  0.3686660E+02  0.4769385E+03
Ar  114  0.3104843E+01  0.2454744E+02  0.3721917E+02  0.1292237E+03
Ar  115  0.3115451E+01  0.2213767E+02  0.2506655E+01  0.8400749E+01
Ar  116  0.4634834E+00  0.2390586E+02  0.2328475E+01  0.2601647E+03
Ar  117  0.5887003E+00  0.2170199E+02  0.5649299E+01  0.4840550E+03
Ar  118  0.3212670E+01  0.2508188E+02  0.5402419E+01  0.5972080E+02
Ar  119  0.3386684E+01  0.2152443E+02  0.7896569E+01  0.2259512E+03
Ar  120  0.3796247E+00  0.2454769E+02  0.8021357E+01  0.2635037E+03
Ar  121  0.4520319E+00  0.2131738E+02  0.1002457E+02  0.9458990E+02
Ar  122  0.2639504E+01  0.2437432E+02  0.1118157E+02  0.7450709E+02
Ar  123  0.2154427E+01  0.2146579E+02  0.1412900E+02  0.1616813E+03
Ar  124  0.3747281E+02  0.2409649E+02  0.1332736E+02  0.1585476E+03
Ar  125  0.3729360E+02  0.2021202E+02  0.1614722E+02  0.6338949E+03
Ar  126  0.2003001E+01  0.2411580E+02  0.1660835E+02  0.5392424E+03
Ar  127  0.2433226E+01  0.2169067E+02  0.1954580E+02  0.7434627E+03
Ar  128  0.3725636E+02  0.2484622E+02  0.1914263E+02  0.9132078E+02
Ar  129  0.3751387E+02  0.2164366E+02  0.2121441E+02  0.1454315E+03
Ar  130  0.2022011E+01  0.2490004E+02  0.2146711E+02  0.3669903E+02
Ar  131  0.2887051E+01  0.2124294E+02  0.2360577E+02  0.1076643E+03
Ar  132  0.1314142E+00  0.2427485E+02  0.2439722E+02  0.1033730E+03
Ar  133  0.6030806E+00  0.2147627E+02  0.2633718E+02  0.2323338E+03
Ar  134  0.3039073E+01  0.2395542E+02  0.2668190E+02  0.1592543E+03
Ar  135  0.2663039E+01  0.2144346E+02  0.2972015E+02  0.4330388E+03
Ar  136  0.8111712E+00  0.2455837E+02  0.2896739E+02  0.5211762E+03
Ar  137  0.3048767E+00  0.2275268E+02  0.3226729E+02  0.5145900E+03
Ar  138  0.3015687E+01  0.2502173E+02  0.3222125E+02  0.1114730E+03
Ar  139  0.3694235E+01  0.2228775E+02  0.3420746E+02  0.5331342E+03
Ar  140  0.3757205E+00  0.2470422E+02  0.3526611E+02  0.1689716E+03
Ar  141  0.3767088E+02  0.2737700E+02  0.1186305E+00  0.3345541E+03
Ar  142  0.2618367E+01  0.2976912E+02  0.3375579E+00  0.7349297E+03
Ar  143  0.3056056E+01  0.2676732E+02  0.2315681E+01  0.9979228E+02
Ar  144  0.4370445E+00  0.2982044E+02  0.3304905E+01  0.1769937E+03
Ar  145  0.3739170E+02  0.2711092E+02  0.5593471E+01  0.2667768E+03
Ar  146  0.2781929E+01  0.2882270E+02  0.5909187E+01  0.2129005E+03
Ar  147  0.3245818E+01  0.2674924E+02  0.8488740E+01  0.2570938E+03
Ar  148  0.2884161E+00  0.2933338E+02  0.8147320E+01  0.9000765E+03
Ar  149  0.3690536E+02  0.2660973E+02  0.1071034E+02  0.1720685E+03
Ar  150  0.2877075E+01  0.2931229E+02  0.1054631E+02  0.3246246E+03
Ar  151  0.2053638E+01  0.2705205E+02  0.1368568E+02  0.3961994E+03
Ar  152  0.8023537E-01  0.2979810E+02  0.1371978E+02  0.1644982E+03
Ar  153  0.3727913E+02  0.2741472E+02  0.1611463E+02  0.2894219E+03
Ar  154  0.2657797E+01  0.2972978E+02  0.1654696E+02  0.3136538E+03
Ar  155  0.2541731E+01  0.2687763E+02  0.1832204E+02  0.9904775E+03
Ar  156  0.3764646E+02  0.2964793E+02  0.1897631E+02  0.4876636E+03
Ar  157  0.3758364E+02  0.2723760E+02  0.2157003E+02  0.4735082E+03
Ar  158  0.2309939E+01  0.2981754E+02  0.2185869E+02  0.1988181E+03
Ar  159  0.2943860E+01  0.2674667E+02  0.2405760E+02  0.1893955E+03
Ar  160  0.3749937E+02  0.2932150E+02  0.2410416E+02  0.1927659E+03
Ar  161  0.3223562E+00  0.2700510E+02  0.2689127E+02  0.1047856E+04
Ar  162  0.2794771E+01  0.2967735E+02  0.2674287E+02  0.5671717E+02
Ar  163  0.2779581E+01  0.2762772E+02  0.2976833E+02  0.3341308E+03
Ar  164  0.3941772E-01  0.2969728E+02  0.2974594E+02  0.3409377E+03
Ar  165  0.3770241E+02  0.2702904E+02  0.3191063E+02  0.1796872E+03
Ar  166  0.2620812E+01  0.2977246E+02  0.3238998E+02  0.3733919E+03
Ar  167  0.2608351E+01  0.2774883E+02  0.3528090E+02  0.5178712E+02
Ar  168  0.3742296E+02  0.2947483E+02  0.3472853E+02  0.3063228E+03
Ar  169  0.3742139E+02  0.3184364E+02  0.3720018E+02  0.9365005E+02
Ar  170  0.2286879E+01  0.3490474E+02  0.3488594E+00  0.9977853E+02
Ar  171  0.2632689E+01  0.3256683E+02  0.2620679E+01  0.1824343E+03
Ar  172  0.3478402E+02  0.3552682E+02  0.7927387E+00  0.2465317E+03
Ar  173  0.3747305E+02  0.3188762E+02  0.5713999E+01  0.1970066E+03
Ar  174  0.2980230E+01  0.3530356E+02  0.5200712E+01  0.6854308E+02
Ar  175  0.2198572E+01  0.3196925E+02  0.8064988E+01  0.7338121E+02
Ar  176  0.2154098E+00  0.3510802E+02  0.7266359E+01  0.5025039E+03
Ar  177  0.5517166E+00  0.3175424E+02  0.1095169E+02  0.3636037E+02
Ar  178  0.3508057E+01  0.3509008E+02  0.1112637E+02  0.6814318E+03
Ar  179  0.2851140E+01  0.3175476E+02  0.1324664E+02  0.9751021E+02
Ar  180  0.1621763E+00  0.3468116E+02  0.1317402E+02  0.2346940E+03
Ar  181  0.3735565E+02  0.3203079E+02  0.1613236E+02  0.1892915E+03
Ar  182  0.3178434E+01  0.3483591E+02  0.1658209E+02  0.5632574E+03
Ar  183  0.2633112E+01  0.3228311E+02  0.1866838E+02  0.2588241E+03
Ar  184  0.3753337E+02  0.3486881E+02  0.1849586E+02  0.1749855E+03
Ar  185  0.3755140E+02  0.3229035E+02  0.2110240E+02  0.2569634E+03
Ar  186  0.2603910E+01  0.3491011E+02  0.2183625E+02  0.3266278E+03
Ar  187  0.2496657E+01  0.3235164E+02  0.2412459E+02  0.9408194E+02
Ar  188  0.3731241E+02  0.3498087E+02  0.2425191E+02  0.1483964E+03
Ar  189  0.5213799E+00  0.3208189E+02  0.2660776E+02  0.3362191E+03
Ar  190  0.2867360E+01  0.3542647E+02  0.2678875E+02  0.6429757E+03
Ar  191  0.2531994E+01  0.3287353E+02  0.2983320E+02  0.5854014E+03
Ar  192  0.3707649E+02  0.3452552E+02  0.2949640E+02  0.1716548E+03
Ar  193  0.4929708E-01  0.3237782E+02  0.3203287E+02  0.6652590E+03
Ar  194  0.2908468E+01  0.3474614E+02  0.3272638E+02  0.2365982E+03
Ar  195  0.2592022E+01  0.3242503E+02  0.3492912E+02  0.4539832E+03
Ar  196  0.3692271E+02  0.3491819E+02  0.3559391E+02  0.3082572E+02
Ar  197  0.4647306E+01  0.3757160E+02  0.3743758E+02  0.1681616E+03
Ar  198  0.8427523E+01  0.2832594E+01  0.4808256E+00  0.1608238E+03
Ar  199  0.7684823E+01  0.3752586E+02  0.2431542E+01  0.1321232E+03
Ar  200  0.5137094E+01  0.2330537E+01  0.2328376E+01  0.2101936E+03
Ar  201  0.5460710E+01  0.3755856E+02  0.5145361E+01  0.4200785E+03
Ar  202  0.7839156E+01  0.2773718E+01  0.4594052E+01  0.2424844E+03
Ar  203  0.8608145E+01  0.3755770E+02  0.8323047E+01  0.2055817E+03
Ar  204  0.5757835E+01  0.2519515E+01  0.7400535E+01  0.5474011E+03
Ar  205  0.5585660E+01  0.3774734E+02  0.1046858E+02  0.2077075E+03
Ar  206  0.8561137E+01  0.2648711E+01  0.1054980E+02  0.8614713E+02
Ar  207  0.8204308E+01  0.3043691E+00  0.1317676E+02  0.3251056E+03
Ar  208  0.5847851E+01  0.2969078E+01  0.1309334E+02  0.1072412E+03
Ar  209  0.6752236E+01  0.9107213E-01  0.1612886E+02  0.2176298E+03
Ar  210  0.8300993E+01  0.3126031E+01  0.1577128E+02  0.2196509E+03
Ar  211  0.8607213E+01  0.2841192E+00  0.1984844E+02  0.9150398E+03
Ar  212  0.5742857E+01  0.2466220E+01  0.1841151E+02  0.2635506E+03
Ar  213  0.5250169E+01  0.2430685E-01  0.2216026E+02  0.1250149E+03
Ar  214  0.8348807E+01  0.3748893E+01  0.2098395E+02  0.9539365E+03
Ar  215  0.8089057E+01  0.1069106E+01  0.2430061E+02  0.3800301E+03
Ar  216  0.5049296E+01  0.2815256E+01  0.2457654E+02  0.4615052E+03
Ar  217  0.5287815E+01  0.2135305E+00  0.2711353E+02  0.3405804E+03
Ar  218  0.8358198E+01  0.3438514E+01  0.2738073E+02  0.2901961E+02
Ar  219  0.7578582E+01  0.3271714E+00  0.2974233E+02  0.2599778E+03
Ar  220  0.4979919E+01  0.3305895E+01  0.2966312E+02  0.1718933E+02
Ar  221  0.5156678E+01  0.3750801E+02  0.3205760E+02  0.2559799E+03
Ar  222  0.7842247E+01  0.2699283E+01  0.3251478E+02  0.1207768E+03
Ar  223  0.7418891E+01  0.2437385E+00  0.3546778E+02  0.2716346E+02
Ar  224  0.4891994E+01  0.2504461E+01  0.3477018E+02  0.3355493E+03
Ar  225  0.4854621E+01  0.5497372E+01  0.3701602E+02  0.5061784E+03
Ar  226  0.8070366E+01  0.7604755E+01  0.3726108E+02  0.1916122E+03
Ar  227  0.8217667E+01  0.5508125E+01  0.2555379E+01  0.1712887E+03
Ar  228  0.5347890E+01  0.8366113E+01  0.2635955E+01  0.1241593E+03
Ar  229  0.5188793E+01  0.5350332E+01  0.4945863E+01  0.1813431E+03
Ar  230  0.7911252E+01  0.7732616E+01  0.5628240E+01  0.6268378E+03
Ar  231  0.8326327E+01  0.4774848E+01  0.7802311E+01  0.4292032E+02
Ar  232  0.5523121E+01  0.7729650E+01  0.8169045E+01  0.4392430E+02
Ar  233  0.5547442E+01  0.5277007E+01  0.1047603E+02  0.6212686E+02
Ar  234  0.7960576E+01  0.7938841E+01  0.1080621E+02  0.2192227E+03
Ar  235  0.8727345E+01  0.5433178E+01  0.1296249E+02  0.2763330E+03
Ar  236  0.5106963E+01  0.7587716E+01  0.1324645E+02  0.7728784E+02
Ar  237  0.4841527E+01  0.5200016E+01  0.1561273E+02  0.6233118E+03
Ar  238  0.7920706E+01  0.7660737E+01  0.1583058E+02  0.5038355E+03
Ar  239  0.7662019E+01  0.5344024E+01  0.1835646E+02  0.2061450E+03
Ar  240  0.5232831E+01  0.7594602E+01  0.1860093E+02  0.5511576E+03
Ar  241  0.5516554E+01  0.5452644E+01  0.2233121E+02  0.2410893E+03
Ar  242  0.8269131E+01  0.8007638E+01  0.2111457E+02  0.5078811E+02
Ar  243  0.8476408E+01  0.5952015E+01  0.2445980E+02  0.2784477E+03
Ar  244  0.5727026E+01  0.8203797E+01  0.2438717E+02  0.3551655E+03
Ar  245  0.5550117E+01  0.5766229E+01  0.2712032E+02  0.3696989E+03
Ar  246  0.8505724E+01  0.8098767E+01  0.2715060E+02  0.5355894E+03
Ar  247  0.7943991E+01  0.5541911E+01  0.2982021E+02  0.1846295E+03
Ar  248  0.5487195E+01  0.8523184E+01  0.3003024E+02  0.3444804E+03
Ar  249  0.5620568E+01  0.5614651E+01  0.3255091E+02  0.1179375E+03
Ar  250  0.7861713E+01  0.8238265E+01  0.3354849E+02  0.3527054E+03
Ar  251  0.8145909E+01  0.5100714E+01  0.3520262E+02  0.1046753E+03
Ar  252  0.4710421E+01  0.7986399E+01  0.3482354E+02  0.6304844E+02
Ar  253  0.5514488E+01  0.1071377E+02  0.3754597E+02  0.4342686E+03
Ar  254  0.7449508E+01  0.1368608E+02  0.3756000E+02  0.2949248E+03
Ar  255  0.8600907E+01  0.1105455E+02  0.3019011E+01  0.2397287E+03
Ar  256  0.5772307E+01  0.1426943E+02  0.2485640E+01  0.3241730E+03
Ar  257  0.5770757E+01  0.1075302E+02  0.6134909E+01  0.1228343E+03
Ar  258  0.8414428E+01  0.1360421E+02  0.5474879E+01  0.4772922E+02
Ar  259  0.8248415E+01  0.1083015E+02  0.8549230E+01  0.6970968E+03
Ar  260  0.5438556E+01  0.1345286E+02  0.8160190E+01  0.1041251E+03
Ar  261  0.5306388E+01  0.1036165E+02  0.1053492E+02  0.1385126E+03
Ar  262  0.8024271E+01  0.1347179E+02  0.1054506E+02  0.1640933E+03
Ar  263  0.8075730E+01  0.1059090E+02  0.1334186E+02  0.5151143E+02
Ar  264  0.5228186E+01  0.1345050E+02  0.1326085E+02  0.1777397E+03
Ar  265  0.4744620E+01  0.1028724E+02  0.1587386E+02  0.6522165E+02
Ar  266  0.8766563E+01  0.1361852E+02  0.1652910E+02  0.9434526E+03
Ar  267  0.8006464E+01  0.1049557E+02  0.1864954E+02  0.1914868E+03
Ar  268  0.5281641E+01  0.1331811E+02  0.1847508E+02  0.3553888E+03
Ar  269  0.5064201E+01  0.1110016E+02  0.2111610E+02  0.1836996E+03
Ar  270  0.7942459E+01  0.1308863E+02  0.2151708E+02  0.7648695E+03
Ar  271  0.8495820E+01  0.1064253E+02  0.2379718E+02  0.7111194E+03
Ar  272  0.6032317E+01  0.1352371E+02  0.2412960E+02  0.5967287E+03
Ar  273  0.5766116E+01  0.1093842E+02  0.2696948E+02  0.2878728E+02
Ar  274  0.8059632E+01  0.1372124E+02  0.2789008E+02  0.1662523E+03
Ar  275  0.8277385E+01  0.1069300E+02  0.2987677E+02  0.9914146E+02
Ar  276  0.4854854E+01  0.1368318E+02  0.2967906E+02  0.4033326E+03
Ar  277  0.4797950E+01  0.1110619E+02  0.3216342E+02  0.1969272E+03
Ar  278  0.7603911E+01  0.1338262E+02  0.3157026E+02  0.1190575E+03
Ar  279  0.8236772E+01  0.1137361E+02  0.3515063E+02  0.8884499E+02
Ar  280  0.5461423E+01  0.1351499E+02  0.3453319E+02  0.7262273E+02
Ar  281  0.5514052E+01  0.1663860E+02  0.3759764E+02  0.7080635E+02
Ar  282  0.8053115E+01  0.1962343E+02  0.3743037E+02  0.9257994E+02
Ar  283  0.7983209E+01  0.1675247E+02  0.2882556E+01  0.7702566E+03
Ar  284  0.5661227E+01  0.1931941E+02  0.2141549E+01  0.7106320E+03
Ar  285  0.5637364E+01  0.1646783E+02  0.5738519E+01  0.6926453E+03
Ar  286  0.7786139E+01  0.1911934E+02  0.5236846E+01  0.2222891E+03
Ar  287  0.8098931E+01  0.1609346E+02  0.8348343E+01  0.6378716E+02
Ar  288  0.5911828E+01  0.1926544E+02  0.8422183E+01  0.3465877E+03
Ar  289  0.4873626E+01  0.1592388E+02  0.1062223E+02  0.7946100E+03
Ar  290  0.7802808E+01  0.1898670E+02  0.1153058E+02  0.1124283E+03
Ar  291  0.7625369E+01  0.1597783E+02  0.1288413E+02  0.1582241E+03
Ar  292  0.5132718E+01  0.1882729E+02  0.1415437E+02  0.2195716E+03
Ar  293  0.5911650E+01  0.1548667E+02  0.1583960E+02  0.3803548E+02
Ar  294  0.8117694E+01  0.1845649E+02  0.1589816E+02  0.1700309E+03
Ar  295  0.8376876E+01  0.1610756E+02  0.1923710E+02  0.5098962E+03
Ar  296  0.5831883E+01  0.1827388E+02  0.1859105E+02  0.5710316E+03
Ar  297  0.5744366E+01  0.1574879E+02  0.2174308E+02  0.4394271E+02
Ar  298  0.8143370E+01  0.1891884E+02  0.2143377E+02  0.4749163E+03
Ar  299  0.8292334E+01  0.1585045E+02  0.2434778E+02  0.7550910E+02
Ar  300  0.5743197E+01  0.1926465E+02  0.2377208E+02  0.6105376E+02
Ar  301  0.6021459E+01  0.1657277E+02  0.2692625E+02  0.2754866E+03
Ar  302  0.8314705E+01  0.1880880E+02  0.2637651E+02  0.4916856E+02
Ar  303  0.7840423E+01  0.1677604E+02  0.2994723E+02  0.3721260E+03
Ar  304  0.5641836E+01  0.1917532E+02  0.2949268E+02  0.3065213E+03
Ar  305  0.5074182E+01  0.1653831E+02  0.3265581E+02  0.1483810E+02
Ar  306  0.7588940E+01  0.1912214E+02  0.3237584E+02  0.4396428E+03
Ar  307  0.8340472E+01  0.1643463E+02  0.3483571E+02  0.6611756E+02
Ar  308  0.5135303E+01  0.1926975E+02  0.3522851E+02  0.2277343E+03
Ar  309  0.5970508E+01  0.2232485E+02  0.6518499E-01  0.4920952E+03
Ar  310  0.8207292E+01  0.2478360E+02  0.3747050E+02  0.4385270E+03
Ar  311  0.8450216E+01  0.2161181E+02  0.2419237E+01  0.3486659E+02
Ar  312  0.5672113E+01  0.2472449E+02  0.2500609E+01  0.1200978E+02
Ar  313  0.5736383E+01  0.2196465E+02  0.4784159E+01  0.1296273E+03
Ar  314  0.7925909E+01  0.2449499E+02  0.5083330E+01  0.2271293E+03
Ar  315  0.7966859E+01  0.2198387E+02  0.7585463E+01  0.3843641E+03
Ar  316  0.5867760E+01  0.2418486E+02  0.8578056E+01  0.3355640E+03
Ar  317  0.4859031E+01  0.2160071E+02  0.1111157E+02  0.2585020E+03
Ar  318  0.8382208E+01  0.2419824E+02  0.1115651E+02  0.4630626E+03
Ar  319  0.8161913E+01  0.2162671E+02  0.1397396E+02  0.6295048E+02
Ar  320  0.5477224E+01  0.2372730E+02  0.1387752E+02  0.1253248E+03
Ar  321  0.4163797E+01  0.2143686E+02  0.1661746E+02  0.1300937E+03
Ar  322  0.8450410E+01  0.2423886E+02  0.1619569E+02  0.3903010E+03
Ar  323  0.8328597E+01  0.2185548E+02  0.1835469E+02  0.9142391E+02
Ar  324  0.5526913E+01  0.2398828E+02  0.1860341E+02  0.9734478E+02
Ar  325  0.5498860E+01  0.2098435E+02  0.2073155E+02  0.6148520E+03
Ar  326  0.7938568E+01  0.2414988E+02  0.2104615E+02  0.6903487E+02
Ar  327  0.8492733E+01  0.2148002E+02  0.2384760E+02  0.5017585E+03
Ar  328  0.5697599E+01  0.2362718E+02  0.2352280E+02  0.1444917E+03
Ar  329  0.5588999E+01  0.2172379E+02  0.2655370E+02  0.1349223E+03
Ar  330  0.7886855E+01  0.2501906E+02  0.2717927E+02  0.1545626E+03
Ar  331  0.8306769E+01  0.2115119E+02  0.2878335E+02  0.9925550E+02
Ar  332  0.5265220E+01  0.2467505E+02  0.2962192E+02  0.1125049E+03
Ar  333  0.5815948E+01  0.2184171E+02  0.3142291E+02  0.6045425E+03
Ar  334  0.8199031E+01  0.2454122E+02  0.3156908E+02  0.2936770E+03
Ar  335  0.7621553E+01  0.2203924E+02  0.3450412E+02  0.1055640E+03
Ar  336  0.5825873E+01  0.2500474E+02  0.3503360E+02  0.1149854E+03
Ar  337  0.5302055E+01  0.2708949E+02  0.3766248E+02  0.1258712E+03
Ar  338  0.7527728E+01  0.2969325E+02  0.3468553E-01  0.8083475E+02
Ar  339  0.7955992E+01  0.2719508E+02  0.3160611E+01  0.1783379E+03
Ar  340  0.4936978E+01  0.2970009E+02  0.3020769E+01  0.8062092E+03
Ar  341  0.6123308E+01  0.2717812E+02  0.5852098E+01  0.3372791E+03
Ar  342  0.8598982E+01  0.2976236E+02  0.5279756E+01  0.5679744E+03
Ar  343  0.7978962E+01  0.2710242E+02  0.8996849E+01  0.1142484E+03
Ar  344  0.6319213E+01  0.3019236E+02  0.7973639E+01  0.2288436E+03
Ar  345  0.5660567E+01  0.2642269E+02  0.1160265E+02  0.1367436E+03
Ar  346  0.8240695E+01  0.2956534E+02  0.1123075E+02  0.1099998E+03
Ar  347  0.8567622E+01  0.2685426E+02  0.1396240E+02  0.1636434E+03
Ar  348  0.5818133E+01  0.2939051E+02  0.1382449E+02  0.2185981E+03
Ar  349  0.5281602E+01  0.2733596E+02  0.1661266E+02  0.1067479E+03
Ar  350  0.8499519E+01  0.2955400E+02  0.1676202E+02  0.8124128E+02
Ar  351  0.8174048E+01  0.2646745E+02  0.1875160E+02  0.6186731E+03
Ar  352  0.5708517E+01  0.2975465E+02  0.1958509E+02  0.6733987E+02
Ar  353  0.5719509E+01  0.2676567E+02  0.2122375E+02  0.2576359E+03
Ar  354  0.8887421E+01  0.2884222E+02  0.2130971E+02  0.7148324E+01
Ar  355  0.7149399E+01  0.2664664E+02  0.2412525E+02  0.5513642E+02
Ar  356  0.5172997E+01  0.2968783E+02  0.2369932E+02  0.2025876E+03
Ar  357  0.5145758E+01  0.2728751E+02  0.2747212E+02  0.1560459E+03
Ar  358  0.7634703E+01  0.2973066E+02  0.2663260E+02  0.6517054E+03
Ar  359  0.8282192E+01  0.2756226E+02  0.2984467E+02  0.3374485E+03
Ar  360  0.5465699E+01  0.3013837E+02  0.2922672E+02  0.1091657E+03
Ar  361  0.5495791E+01  0.2764737E+02  0.3243668E+02  0.2089743E+02
Ar  362  0.8293134E+01  0.2978997E+02  0.3241916E+02  0.3187850E+03
Ar  363  0.8440190E+01  0.2692082E+02  0.3438923E+02  0.1375468E+03
Ar  364  0.5018746E+01  0.2980789E+02  0.3511234E+02  0.1337315E+02
Ar  365  0.5013372E+01  0.3250019E+02  0.3775078E+02  0.4659658E+02
Ar  366  0.7809740E+01  0.3511095E+02  0.3768521E+02  0.5994575E+03
Ar  367  0.7914338E+01  0.3215358E+02  0.2540910E+01  0.5336942E+03
Ar  368  0.5206893E+01  0.3493605E+02  0.2396490E+01  0.2317437E+03
Ar  369  0.4520147E+01  0.3221382E+02  0.5247754E+01  0.2695523E+03
Ar  370  0.8081134E+01  0.3508861E+02  0.5595850E+01  0.2555773E+03
Ar  371  0.8340210E+01  0.3289190E+02  0.8338568E+01  0.3786110E+03
Ar  372  0.5321956E+01  0.3493309E+02  0.8056358E+01  0.9203427E+01
Ar  373  0.5117168E+01  0.3197086E+02  0.1076819E+02  0.1149486E+03
Ar  374  0.7708987E+01  0.3525694E+02  0.1091423E+02  0.3930043E+02
Ar  375  0.8362128E+01  0.3222914E+02  0.1415490E+02  0.1507882E+03
Ar  376  0.5545153E+01  0.3498530E+02  0.1394116E+02  0.2735400E+03
Ar  377  0.5288610E+01  0.3191713E+02  0.1619706E+02  0.3149867E+03
Ar  378  0.9086255E+01  0.3474385E+02  0.1694247E+02  0.1299590E+03
Ar  379  0.8424931E+01  0.3227848E+02  0.1917535E+02  0.1966406E+03
Ar  380  0.5782249E+01  0.3557990E+02  0.1892410E+02  0.9467758E+02
Ar  381  0.5165684E+01  0.3271853E+02  0.2148538E+02  0.1552303E+03
Ar  382  0.8314849E+01  0.3521860E+02  0.2150119E+02  0.4616400E+03
Ar  383  0.7763069E+01  0.3184385E+02  0.2338623E+02  0.2589019E+03
Ar  384  0.6035106E+01  0.3552956E+02  0.2448296E+02  0.6586383E+02
Ar  385  0.4930903E+01  0.3266896E+02  0.2662495E+02  0.2107919E+02
Ar  386  0.8501001E+01  0.3574894E+02  0.2716891E+02  0.2259862E+03
Ar  387  0.7867025E+01  0.3267457E+02  0.2887424E+02  0.9628953E+02
Ar  388  0.5451728E+01  0.3493824E+02  0.2940202E+02  0.3534022E+03
Ar  389  0.5292460E+01  0.3221936E+02  0.3227658E+02  0.4886282E+03
Ar  390  0.8007621E+01  0.3536609E+02  0.3273678E+02  0.6956353E+03
Ar  391  0.7583753E+01  0.3202701E+02  0.3482945E+02  0.2731004E+02
Ar  392  0.5333927E+01  0.3507094E+02  0.3509856E+02  0.2168806E+03
Ar  393  0.1033625E+02  0.3758027E+02  0.3756238E+02  0.3456897E+03
Ar  394  0.1292513E+02  0.2402139E+01  0.3743733E+02  0.2387313E+03
Ar  395  0.1305512E+02  0.8237945E-01  0.2302248E+01  0.4454032E+03
Ar  396  0.1079795E+02  0.2617086E+01  0.2750299E+01  0.7717497E+02
Ar  397  0.1048591E+02  0.3772965E+02  0.5068571E+01  0.7192181E+03
Ar  398  0.1334527E+02  0.2721500E+01  0.5228510E+01  0.2179804E+03
Ar  399  0.1322760E+02  0.1552160E+00  0.7819073E+01  0.3847028E+03
Ar  400  0.1086635E+02  0.2339180E+01  0.7635992E+01  0.1334777E+03
Ar  401  0.1109209E+02  0.3771156E+02  0.1068490E+02  0.1960712E+03
Ar  402  0.1333593E+02  0.2278773E+01  0.1059742E+02  0.1347945E+03
Ar  403  0.1406875E+02  0.3747930E+02  0.1382040E+02  0.1230629E+02
Ar  404  0.1113801E+02  0.2716873E+01  0.1312679E+02  0.4253781E+02
Ar  405  0.1117018E+02  0.4950263E+00  0.1649852E+02  0.4945209E+03
Ar  406  0.1381363E+02  0.2282756E+01  0.1576017E+02  0.4309540E+03
Ar  407  0.1349034E+02  0.2183736E+00  0.1916544E+02  0.1510375E+03
Ar  408  0.1139818E+02  0.3342473E+01  0.1841640E+02  0.9665908E+02
Ar  409  0.1123676E+02  0.1403084E+00  0.2226386E+02  0.1116368E+03
Ar  410  0.1375706E+02  0.3328011E+01  0.2211754E+02  0.8291935E+03
Ar  411  0.1394068E+02  0.6874405E+00  0.2458988E+02  0.1035644E+03
Ar  412  0.1128684E+02  0.3420526E+01  0.2431012E+02  0.7024300E+03
Ar  413  0.1101530E+02  0.4050156E+00  0.2739473E+02  0.2307437E+03
Ar  414  0.1355723E+02  0.3467073E+01  0.2724703E+02  0.1060236E+03
Ar  415  0.1341538E+02  0.3765858E+02  0.3003690E+02  0.2577374E+03
Ar  416  0.1067768E+02  0.2643274E+01  0.3014280E+02  0.7241336E+03
Ar  417  0.1056488E+02  0.7264840E-01  0.3244075E+02  0.2233184E+03
Ar  418  0.1334868E+02  0.2281890E+01  0.3245107E+02  0.4057130E+03
Ar  419  0.1368863E+02  0.3722617E+02  0.3525207E+02  0.2547043E+03
Ar  420  0.1055705E+02  0.2734037E+01  0.3454875E+02  0.4197166E+03
Ar  421  0.1089221E+02  0.5673310E+01  0.3929312E+00  0.1243576E+03
Ar  422  0.1375173E+02  0.7715052E+01  0.3770415E+02  0.6844632E+03
Ar  423  0.1385227E+02  0.5530568E+01  0.2971454E+01  0.1774272E+03
Ar  424  0.1084141E+02  0.8396475E+01  0.3082661E+01  0.3552362E+03
Ar  425  0.1121789E+02  0.5576068E+01  0.4987467E+01  0.2519800E+03
Ar  426  0.1352713E+02  0.7832212E+01  0.5467262E+01  0.4620449E+03
Ar  427  0.1383646E+02  0.4991352E+01  0.8151492E+01  0.4810121E+02
Ar  428  0.1061180E+02  0.8175411E+01  0.8135662E+01  0.6377112E+03
Ar  429  0.1097448E+02  0.5169934E+01  0.1034184E+02  0.3101092E+03
Ar  430  0.1347722E+02  0.7992554E+01  0.1088894E+02  0.1726040E+03
Ar  431  0.1375928E+02  0.5416275E+01  0.1355956E+02  0.2333137E+03
Ar  432  0.1092032E+02  0.8163082E+01  0.1276623E+02  0.6890426E+03
Ar  433  0.1116451E+02  0.5621963E+01  0.1584783E+02  0.5609077E+03
Ar  434  0.1403443E+02  0.8056236E+01  0.1579730E+02  0.2159563E+03
Ar  435  0.1379124E+02  0.6107821E+01  0.1886521E+02  0.2418894E+03
Ar  436  0.1095028E+02  0.8090161E+01  0.1846176E+02  0.2763708E+03
Ar  437  0.1158014E+02  0.5730412E+01  0.2129189E+02  0.1131838E+03
Ar  438  0.1379258E+02  0.8151939E+01  0.2205729E+02  0.1038283E+03
Ar  439  0.1356310E+02  0.5896615E+01  0.2454747E+02  0.2261440E+03
Ar  440  0.1095837E+02  0.8080984E+01  0.2435658E+02  0.1427824E+03
Ar  441  0.1095204E+02  0.5689094E+01  0.2812867E+02  0.3037977E+03
Ar  442  0.1344325E+02  0.8021983E+01  0.2767550E+02  0.1989869E+03
Ar  443  0.1357274E+02  0.5275814E+01  0.3070694E+02  0.5983533E+02
Ar  444  0.1092115E+02  0.8560982E+01  0.2998648E+02  0.7038000E+02
Ar  445  0.1038433E+02  0.5943199E+01  0.3244135E+02  0.3793214E+03
Ar  446  0.1387350E+02  0.8492077E+01  0.3336854E+02  0.1921406E+03
Ar  447  0.1343327E+02  0.4709550E+01  0.3507751E+02  0.8010737E+02
Ar  448  0.1078014E+02  0.8154977E+01  0.3536436E+02  0.1050850E+04
Ar  449  0.9894695E+01  0.1083894E+02  0.1416248E+00  0.1855508E+03
Ar  450  0.1376006E+02  0.1371777E+02  0.3775522E+02  0.2355327E+03
Ar  451  0.1313400E+02  0.1109807E+02  0.2950831E+01  0.3263457E+03
Ar  452  0.1042164E+02  0.1379893E+02  0.1533347E+01  0.2821117E+02
Ar  453  0.1089872E+02  0.1082399E+02  0.5804551E+01  0.4212942E+01
Ar  454  0.1218747E+02  0.1389766E+02  0.4526417E+01  0.5366575E+02
Ar  455  0.1343252E+02  0.1085834E+02  0.8286138E+01  0.1481172E+03
Ar  456  0.1076978E+02  0.1315084E+02  0.8289828E+01  0.2467902E+03
Ar  457  0.1081300E+02  0.1076792E+02  0.1068721E+02  0.2060979E+03
Ar  458  0.1366066E+02  0.1348346E+02  0.1071766E+02  0.1095455E+04
Ar  459  0.1299140E+02  0.1113785E+02  0.1328662E+02  0.3039541E+03
Ar  460  0.1045320E+02  0.1391026E+02  0.1351288E+02  0.3753170E+03
Ar  461  0.1058212E+02  0.1079075E+02  0.1583259E+02  0.7958195E+02
Ar  462  0.1351523E+02  0.1307033E+02  0.1657149E+02  0.1868750E+03
Ar  463  0.1380265E+02  0.1038357E+02  0.1873057E+02  0.1113941E+03
Ar  464  0.1091737E+02  0.1293108E+02  0.1916356E+02  0.2611793E+03
Ar  465  0.1109605E+02  0.1072549E+02  0.2197579E+02  0.3696583E+03
Ar  466  0.1369547E+02  0.1350026E+02  0.2189290E+02  0.1116680E+04
Ar  467  0.1361371E+02  0.1056870E+02  0.2432341E+02  0.1866317E+02
Ar  468  0.1057422E+02  0.1343182E+02  0.2440734E+02  0.6346857E+02
Ar  469  0.1035058E+02  0.1077191E+02  0.2689787E+02  0.1372331E+03
Ar  470  0.1322856E+02  0.1346006E+02  0.2675856E+02  0.3056450E+03
Ar  471  0.1369201E+02  0.1044328E+02  0.3034284E+02  0.1736451E+03
Ar  472  0.1091476E+02  0.1371831E+02  0.2990280E+02  0.2878952E+03
Ar  473  0.1049500E+02  0.1108659E+02  0.3244145E+02  0.4433085E+02
Ar  474  0.1368688E+02  0.1334049E+02  0.3233499E+02  0.3371850E+03
Ar  475  0.1320734E+02  0.1094085E+02  0.3549527E+02  0.6665816E+03
Ar  476  0.1158581E+02  0.1426381E+02  0.3539427E+02  0.1282613E+03
Ar  477  0.1013813E+02  0.1673811E+02  0.2363966E+00  0.2236770E+02
Ar  478  0.1397202E+02  0.1891226E+02  0.3671335E+02  0.4195284E+02
Ar  479  0.1298739E+02  0.1623951E+02  0.2517732E+01  0.7347264E+01
Ar  480  0.1112110E+02  0.1942263E+02  0.2634795E+01  0.1534552E+03
Ar  481  0.1027438E+02  0.1664512E+02  0.5652858E+01  0.2883179E+03
Ar  482  0.1334331E+02  0.1862137E+02  0.5356966E+01  0.2653043E+02
Ar  483  0.1331886E+02  0.1632509E+02  0.8249962E+01  0.1229953E+03
Ar  484  0.1055120E+02  0.1882696E+02  0.8892618E+01  0.2622230E+03
Ar  485  0.1079649E+02  0.1644473E+02  0.1118548E+02  0.2906375E+03
Ar  486  0.1355630E+02  0.1891310E+02  0.1040049E+02  0.1012747E+03
Ar  487  0.1348122E+02  0.1585195E+02  0.1311042E+02  0.2224418E+03
Ar  488  0.1128053E+02  0.1877395E+02  0.1405361E+02  0.3016676E+03
Ar  489  0.1088602E+02  0.1633721E+02  0.1660559E+02  0.8744685E+03
Ar  490  0.1356857E+02  0.1843327E+02  0.1662714E+02  0.1020898E+03
Ar  491  0.1378124E+02  0.1572346E+02  0.1930763E+02  0.4507013E+02
Ar  492  0.1042714E+02  0.1908969E+02  0.1882109E+02  0.5522128E+02
Ar  493  0.1104338E+02  0.1563963E+02  0.2179773E+02  0.3362712E+03
Ar  494  0.1343492E+02  0.1841618E+02  0.2132886E+02  0.1449421E+03
Ar  495  0.1329053E+02  0.1645799E+02  0.2400890E+02  0.2230435E+03
Ar  496  0.1061087E+02  0.1857742E+02  0.2409346E+02  0.6740502E+02
Ar  497  0.1057641E+02  0.1656318E+02  0.2730845E+02  0.6370205E+02
Ar  498  0.1305018E+02  0.1858388E+02  0.2650779E+02  0.1733149E+03
Ar  499  0.1334345E+02  0.1588082E+02  0.2953592E+02  0.1977630E+03
Ar  500  0.1114678E+02  0.1914875E+02  0.2960813E+02  0.2980637E+03
Ar  501  0.1059028E+02  0.1606964E+02  0.3226045E+02  0.1362235E+03
Ar  502  0.1319284E+02  0.1960673E+02  0.3269558E+02  0.1709696E+03
Ar  503  0.1384907E+02  0.1638136E+02  0.3429674E+02  0.4420149E+03
Ar  504  0.1092822E+02  0.1881169E+02  0.3511511E+02  0.2584398E+03
Ar  505  0.1120840E+02  0.2104198E+02  0.3752940E+02  0.2377473E+03
Ar  506  0.1322182E+02  0.2398836E+02  0.3360601E+00  0.2571524E+03
Ar  507  0.1329390E+02  0.2176962E+02  0.3179321E+01  0.8830573E+03
Ar  508  0.1054633E+02  0.2431501E+02  0.3011297E+01  0.4094136E+03
Ar  509  0.1046572E+02  0.2158040E+02  0.5362756E+01  0.6828090E+03
Ar  510  0.1304810E+02  0.2444626E+02  0.5902392E+01  0.6515193E+02
Ar  511  0.1287443E+02  0.2138094E+02  0.8270206E+01  0.6837220E+03
Ar  512  0.1034379E+02  0.2464924E+02  0.7954082E+01  0.4663252E+03
Ar  513  0.1047165E+02  0.2192525E+02  0.1050225E+02  0.6124079E+02
Ar  514  0.1296653E+02  0.2447868E+02  0.1050456E+02  0.3066219E+03
Ar  515  0.1327594E+02  0.2152401E+02  0.1298150E+02  0.6631527E+03
Ar  516  0.1110400E+02  0.2441572E+02  0.1402474E+02  0.4522869E+03
Ar  517  0.1105871E+02  0.2124201E+02  0.1647326E+02  0.2888850E+03
Ar  518  0.1336113E+02  0.2432413E+02  0.1654256E+02  0.2353997E+03
Ar  519  0.1367745E+02  0.2126107E+02  0.1939225E+02  0.3087493E+02
Ar  520  0.1108218E+02  0.2401456E+02  0.1918802E+02  0.8653310E+02
Ar  521  0.1140417E+02  0.2169377E+02  0.2183445E+02  0.1244506E+03
Ar  522  0.1410268E+02  0.2420316E+02  0.2145469E+02  0.9770529E+03
Ar  523  0.1381360E+02  0.2105914E+02  0.2417171E+02  0.1809133E+03
Ar  524  0.1057630E+02  0.2450489E+02  0.2394027E+02  0.8023788E+02
Ar  525  0.1085833E+02  0.2152831E+02  0.2609536E+02  0.1244350E+03
Ar  526  0.1299234E+02  0.2439120E+02  0.2657677E+02  0.2131776E+03
Ar  527  0.1334057E+02  0.2132792E+02  0.2951901E+02  0.4929502E+03
Ar  528  0.1080323E+02  0.2354837E+02  0.2904842E+02  0.5267256E+03
Ar  529  0.1047288E+02  0.2143990E+02  0.3253853E+02  0.1227070E+04
Ar  530  0.1302900E+02  0.2415026E+02  0.3178042E+02  0.4057109E+03
Ar  531  0.1392361E+02  0.2205507E+02  0.3479926E+02  0.2570877E+03
Ar  532  0.1098328E+02  0.2452067E+02  0.3550962E+02  0.2663917E+03
Ar  533  0.1063309E+02  0.2696222E+02  0.3767023E+02  0.9659893E+03
Ar  534  0.1346937E+02  0.2960611E+02  0.3772805E+02  0.8055732E+03
Ar  535  0.1326746E+02  0.2696592E+02  0.2530218E+01  0.3375719E+03
Ar  536  0.1049453E+02  0.2974651E+02  0.2335168E+01  0.2727334E+03
Ar  537  0.1096706E+02  0.2693216E+02  0.5135415E+01  0.1812988E+03
Ar  538  0.1316338E+02  0.3018919E+02  0.5269761E+01  0.7220735E+03
Ar  539  0.1261326E+02  0.2728827E+02  0.7975012E+01  0.7601854E+02
Ar  540  0.1062197E+02  0.3008383E+02  0.8045743E+01  0.1296193E+02
Ar  541  0.1097831E+02  0.2723764E+02  0.1113001E+02  0.1112897E+03
Ar  542  0.1339282E+02  0.2991616E+02  0.1059189E+02  0.2173995E+03
Ar  543  0.1365723E+02  0.2749784E+02  0.1406930E+02  0.1446322E+03
Ar  544  0.1110262E+02  0.2990794E+02  0.1345764E+02  0.2480510E+02
Ar  545  0.1107474E+02  0.2683493E+02  0.1683340E+02  0.7108746E+02
Ar  546  0.1423691E+02  0.2986621E+02  0.1643235E+02  0.2770227E+03
Ar  547  0.1396081E+02  0.2678053E+02  0.1880272E+02  0.4386864E+03
Ar  548  0.1108346E+02  0.2981005E+02  0.1878287E+02  0.2382316E+03
Ar  549  0.1166522E+02  0.2698840E+02  0.2096460E+02  0.1949131E+03
Ar  550  0.1311655E+02  0.2977938E+02  0.2221354E+02  0.2035156E+03
Ar  551  0.1354691E+02  0.2674150E+02  0.2410889E+02  0.2939961E+03
Ar  552  0.1025621E+02  0.2906223E+02  0.2444136E+02  0.5314474E+03
Ar  553  0.1100860E+02  0.2702352E+02  0.2738379E+02  0.2930702E+03
Ar  554  0.1382020E+02  0.2952362E+02  0.2712890E+02  0.9134344E+03
Ar  555  0.1379913E+02  0.2698796E+02  0.2979818E+02  0.3944864E+03
Ar  556  0.1112507E+02  0.2989640E+02  0.2975812E+02  0.5646237E+02
Ar  557  0.1123714E+02  0.2729612E+02  0.3243484E+02  0.2826860E+03
Ar  558  0.1315542E+02  0.3035285E+02  0.3252210E+02  0.3356481E+03
Ar  559  0.1366003E+02  0.2702748E+02  0.3554318E+02  0.2627602E+03
Ar  560  0.1074901E+02  0.2964123E+02  0.3543709E+02  0.1664787E+03
Ar  561  0.1002496E+02  0.3212437E+02  0.3756935E+02  0.1465709E+02
Ar  562  0.1335899E+02  0.3500025E+02  0.3764492E+02  0.1056070E+03
Ar  563  0.1300784E+02  0.3251677E+02  0.2384658E+01  0.3749718E+03
Ar  564  0.1066830E+02  0.3484361E+02  0.2143235E+01  0.2327947E+03
Ar  565  0.1076419E+02  0.3271918E+02  0.5275043E+01  0.7858389E+03
Ar  566  0.1341994E+02  0.3527168E+02  0.4838104E+01  0.1771298E+03
Ar  567  0.1342692E+02  0.3244627E+02  0.7687425E+01  0.2200370E+03
Ar  568  0.1139473E+02  0.3492833E+02  0.8048069E+01  0.3841145E+03
Ar  569  0.1101369E+02  0.3242597E+02  0.1081052E+02  0.1630337E+03
Ar  570  0.1359851E+02  0.3558423E+02  0.1075913E+02  0.1377669E+03
Ar  571  0.1314300E+02  0.3273205E+02  0.1320474E+02  0.1090013E+03
Ar  572  0.1071584E+02  0.3527269E+02  0.1375691E+02  0.1753473E+03
Ar  573  0.1125675E+02  0.3211104E+02  0.1626384E+02  0.3951838E+02
Ar  574  0.1313575E+02  0.3498027E+02  0.1667081E+02  0.3264618E+03
Ar  575  0.1327385E+02  0.3201782E+02  0.1938553E+02  0.1215340E+03
Ar  576  0.1106687E+02  0.3473348E+02  0.1942529E+02  0.8204270E+03
Ar  577  0.1080017E+02  0.3266873E+02  0.2216443E+02  0.1875232E+02
Ar  578  0.1358102E+02  0.3544260E+02  0.2244191E+02  0.1347453E+03
Ar  579  0.1320475E+02  0.3250700E+02  0.2457825E+02  0.4498908E+02
Ar  580  0.1042208E+02  0.3508002E+02  0.2450512E+02  0.1807931E+03
Ar  581  0.1045415E+02  0.3180425E+02  0.2602569E+02  0.9337134E+02
Ar  582  0.1337118E+02  0.3539125E+02  0.2619022E+02  0.3276564E+03
Ar  583  0.1403418E+02  0.3244785E+02  0.2979178E+02  0.2173420E+03
Ar  584  0.1136766E+02  0.3481921E+02  0.2944906E+02  0.6398330E+03
Ar  585  0.1019032E+02  0.3261236E+02  0.3221042E+02  0.2039115E+03
Ar  586  0.1336983E+02  0.3510022E+02  0.3214426E+02  0.7079078E+03
Ar  587  0.1413858E+02  0.3246674E+02  0.3531292E+02  0.4254952E+03
Ar  588  0.1048673E+02  0.3546457E+02  0.3498188E+02  0.5322507E+03
Ar  589  0.1640866E+02  0.7181078E+00  0.1928841E+00  0.1286345E+03
Ar  590  0.1955120E+02  0.2973293E+01  0.6836773E-02  0.7981273E+02
Ar  591  0.1912343E+02  0.3753600E+02  0.2506009E+01  0.3208827E+03
Ar  592  0.1604617E+02  0.2949042E+01  0.3007496E+01  0.1285515E+03
Ar  593  0.1580930E+02  0.1403561E+00  0.4868638E+01  0.7229761E+02
Ar  594  0.1892851E+02  0.2618372E+01  0.4830918E+01  0.5794701E+03
Ar  595  0.1923697E+02  0.3736631E+02  0.8011450E+01  0.1726591E+03
Ar  596  0.1682503E+02  0.2053495E+01  0.7497266E+01  0.1711466E+03
Ar  597  0.1660635E+02  0.3764836E+02  0.1119863E+02  0.3190517E+03
Ar  598  0.1864870E+02  0.2635345E+01  0.1067631E+02  0.3285182E+03
Ar  599  0.1918498E+02  0.6375557E+00  0.1345790E+02  0.4658819E+03
Ar  600  0.1622577E+02  0.2644443E+01  0.1337200E+02  0.2517090E+03
Ar  601  0.1659235E+02  0.3770844E+02  0.1650234E+02  0.6891289E+02
Ar  602  0.1870107E+02  0.3005325E+01  0.1636240E+02  0.5016542E+03
Ar  603  0.1855105E+02  0.3735252E+02  0.1884768E+02  0.3121570E+03
Ar  604  0.1607882E+02  0.2744277E+01  0.1848430E+02  0.6034267E+02
Ar  605  0.1638913E+02  0.3867937E+00  0.2166526E+02  0.2559469E+03
Ar  606  0.1931969E+02  0.2427600E+01  0.2137762E+02  0.8692739E+02
Ar  607  0.1874920E+02  0.5344843E+00  0.2444983E+02  0.3631418E+03
Ar  608  0.1662969E+02  0.3889670E+01  0.2445929E+02  0.6796626E+03
Ar  609  0.1605279E+02  0.5355079E+00  0.2725849E+02  0.4627125E+03
Ar  610  0.1926422E+02  0.3098695E+01  0.2751224E+02  0.1221907E+03
Ar  611  0.1910254E+02  0.3838690E+00  0.2986998E+02  0.6412324E+03
Ar  612  0.1622650E+02  0.2223045E+01  0.3011393E+02  0.5577699E+03
Ar  613  0.1638643E+02  0.3736138E+02  0.3290959E+02  0.4033251E+03
Ar  614  0.1890385E+02  0.2094484E+01  0.3281090E+02  0.1095576E+03
Ar  615  0.1879201E+02  0.7339866E-02  0.3571509E+02  0.2843698E+03
Ar  616  0.1600387E+02  0.2327113E+01  0.3487916E+02  0.4332364E+03
Ar  617  0.1583179E+02  0.4892183E+01  0.3765849E+02  0.2869867E+03
Ar  618  0.1864848E+02  0.8787198E+01  0.5738427E+00  0.2611032E+02
Ar  619  0.1832784E+02  0.5440329E+01  0.2094480E+01  0.1034908E+03
Ar  620  0.1664379E+02  0.8113237E+01  0.3310215E+01  0.1601862E+03
Ar  621  0.1640182E+02  0.5555514E+01  0.5513028E+01  0.4710475E+03
Ar  622  0.1893312E+02  0.8309958E+01  0.5877550E+01  0.1792394E+03
Ar  623  0.1883857E+02  0.5396548E+01  0.8125684E+01  0.1591749E+03
Ar  624  0.1665102E+02  0.8838788E+01  0.8034588E+01  0.3825128E+03
Ar  625  0.1590382E+02  0.5462715E+01  0.1066148E+02  0.2327477E+03
Ar  626  0.1896924E+02  0.8634100E+01  0.1071883E+02  0.3228901E+03
Ar  627  0.1859362E+02  0.5333934E+01  0.1376313E+02  0.1613336E+03
Ar  628  0.1634486E+02  0.8564810E+01  0.1308225E+02  0.4568035E+03
Ar  629  0.1633539E+02  0.5576082E+01  0.1637550E+02  0.9954569E+02
Ar  630  0.1905406E+02  0.8468219E+01  0.1631913E+02  0.4625132E+02
Ar  631  0.1944244E+02  0.5368250E+01  0.1836542E+02  0.3017842E+03
Ar  632  0.1660888E+02  0.8237379E+01  0.1857086E+02  0.2135987E+03
Ar  633  0.1675174E+02  0.5852501E+01  0.2145417E+02  0.5900636E+02
Ar  634  0.1959536E+02  0.8103498E+01  0.2139722E+02  0.4565006E+02
Ar  635  0.1956169E+02  0.5532791E+01  0.2406764E+02  0.1203344E+03
Ar  636  0.1658409E+02  0.7996239E+01  0.2451347E+02  0.2794091E+03
Ar  637  0.1608745E+02  0.5716409E+01  0.2758251E+02  0.1640759E+03
Ar  638  0.1916398E+02  0.6878920E+01  0.2737862E+02  0.2832125E+03
Ar  639  0.1832604E+02  0.5087494E+01  0.3035865E+02  0.1977256E+03
Ar  640  0.1613205E+02  0.7837152E+01  0.3063229E+02  0.3808243E+03
Ar  641  0.1592739E+02  0.5435938E+01  0.3301481E+02  0.2036254E+03
Ar  642  0.1877877E+02  0.8125902E+01  0.3308490E+02  0.6547016E+03
Ar  643  0.1888560E+02  0.5016279E+01  0.3508023E+02  0.2013755E+03
Ar  644  0.1654503E+02  0.8398751E+01  0.3550589E+02  0.2066169E+03
Ar  645  0.1576383E+02  0.1101251E+02  0.3112897E+00  0.3689023E+03
Ar  646  0.1889291E+02  0.1321565E+02  0.3766868E+02  0.2311434E+03
Ar  647  0.1914842E+02  0.1073421E+02  0.3408411E+01  0.2684677E+03
Ar  648  0.1619462E+02  0.1368851E+02  0.2494361E+01  0.4223239E+02
Ar  649  0.1597998E+02  0.1161839E+02  0.5844946E+01  0.1035339E+03
Ar  650  0.1905995E+02  0.1337061E+02  0.5813755E+01  0.9928491E+02
Ar  651  0.1921108E+02  0.1099154E+02  0.8201687E+01  0.1358261E+04
Ar  652  0.1572271E+02  0.1373298E+02  0.8079530E+01  0.7720317E+02
Ar  653  0.1663282E+02  0.1145219E+02  0.1049873E+02  0.1021651E+03
Ar  654  0.1895898E+02  0.1418940E+02  0.9708095E+01  0.4868278E+03
Ar  655  0.1916140E+02  0.1145912E+02  0.1311178E+02  0.3780977E+03
Ar  656  0.1615225E+02  0.1347441E+02  0.1304529E+02  0.1722889E+03
Ar  657  0.1627755E+02  0.1094275E+02  0.1572907E+02  0.7003169E+03
Ar  658  0.1916364E+02  0.1340832E+02  0.1591305E+02  0.1871118E+03
Ar  659  0.1964577E+02  0.1092660E+02  0.1949865E+02  0.1096486E+03
Ar  660  0.1620781E+02  0.1349594E+02  0.1911710E+02  0.2276995E+03
Ar  661  0.1631928E+02  0.1085366E+02  0.2141820E+02  0.6448845E+03
Ar  662  0.1925217E+02  0.1377238E+02  0.2212815E+02  0.2668202E+03
Ar  663  0.1940710E+02  0.1094050E+02  0.2439658E+02  0.5081763E+03
Ar  664  0.1569850E+02  0.1333721E+02  0.2459849E+02  0.7871824E+02
Ar  665  0.1662842E+02  0.1076648E+02  0.2714875E+02  0.4038232E+03
Ar  666  0.1913872E+02  0.1331798E+02  0.2689427E+02  0.3715251E+03
Ar  667  0.1881397E+02  0.9956241E+01  0.2975659E+02  0.5128209E+03
Ar  668  0.1690312E+02  0.1319834E+02  0.2976321E+02  0.2766447E+03
Ar  669  0.1612341E+02  0.1098088E+02  0.3265601E+02  0.8330281E+02
Ar  670  0.1927584E+02  0.1349984E+02  0.3246963E+02  0.6858186E+02
Ar  671  0.1877347E+02  0.1091865E+02  0.3475719E+02  0.1565151E+03
Ar  672  0.1611482E+02  0.1359417E+02  0.3508003E+02  0.2615356E+03
Ar  673  0.1625651E+02  0.1624178E+02  0.2166446E+00  0.4350814E+03
Ar  674  0.1839130E+02  0.1886125E+02  0.1720048E+00  0.3080931E+03
Ar  675  0.1928679E+02  0.1599323E+02  0.2682740E+01  0.5988486E+03
Ar  676  0.1559765E+02  0.1900029E+02  0.2614444E+01  0.2539639E+02
Ar  677  0.1626279E+02  0.1635052E+02  0.5467433E+01  0.1139080E+03
Ar  678  0.1840854E+02  0.1878456E+02  0.4744523E+01  0.2154642E+03
Ar  679  0.1861592E+02  0.1743117E+02  0.7984368E+01  0.4635702E+02
Ar  680  0.1615911E+02  0.1938896E+02  0.7566563E+01  0.3421462E+02
Ar  681  0.1630570E+02  0.1647698E+02  0.1073437E+02  0.3793325E+03
Ar  682  0.1927028E+02  0.1904243E+02  0.1134816E+02  0.5824163E+03
Ar  683  0.1899252E+02  0.1578653E+02  0.1299835E+02  0.2717299E+03
Ar  684  0.1622632E+02  0.1863540E+02  0.1367875E+02  0.9164652E+02
Ar  685  0.1616047E+02  0.1557160E+02  0.1646832E+02  0.1081275E+04
Ar  686  0.1910608E+02  0.1804964E+02  0.1566183E+02  0.3347729E+03
Ar  687  0.1901122E+02  0.1652318E+02  0.1865844E+02  0.2721010E+03
Ar  688  0.1607650E+02  0.1885090E+02  0.1900231E+02  0.8665119E+02
Ar  689  0.1653941E+02  0.1581837E+02  0.2158420E+02  0.3225898E+02
Ar  690  0.1884280E+02  0.1866467E+02  0.2202289E+02  0.1016710E+04
Ar  691  0.1882140E+02  0.1628321E+02  0.2475756E+02  0.1558922E+03
Ar  692  0.1628017E+02  0.1865911E+02  0.2452115E+02  0.1876806E+03
Ar  693  0.1580778E+02  0.1584888E+02  0.2701403E+02  0.2164721E+03
Ar  694  0.1831785E+02  0.1829336E+02  0.2754489E+02  0.3960770E+03
Ar  695  0.1907762E+02  0.1617846E+02  0.3001693E+02  0.3765841E+02
Ar  696  0.1517806E+02  0.1831976E+02  0.2921414E+02  0.2405044E+03
Ar  697  0.1622873E+02  0.1592407E+02  0.3201181E+02  0.3701694E+03
Ar  698  0.1922008E+02  0.1872634E+02  0.3255050E+02  0.2630211E+03
Ar  699  0.1936309E+02  0.1600118E+02  0.3555556E+02  0.6628204E+02
Ar  700  0.1663580E+02  0.1824759E+02  0.3491601E+02  0.2397907E+02
Ar  701  0.1641800E+02  0.2182824E+02  0.3731916E+02  0.3521159E+02
Ar  702  0.1914485E+02  0.2451684E+02  0.6131912E-01  0.2341401E+03
Ar  703  0.1862141E+02  0.2179368E+02  0.2511128E+01  0.1459569E+03
Ar  704  0.1631591E+02  0.2480740E+02  0.2894146E+01  0.3705313E+03
Ar  705  0.1569256E+02  0.2228066E+02  0.6025011E+01  0.3069115E+03
Ar  706  0.1850964E+02  0.2502456E+02  0.5766533E+01  0.2947484E+03
Ar  707  0.1891273E+02  0.2166366E+02  0.8677488E+01  0.1833584E+03
Ar  708  0.1592968E+02  0.2518939E+02  0.8465618E+01  0.2278092E+03
Ar  709  0.1635688E+02  0.2158122E+02  0.1068148E+02  0.2835619E+03
Ar  710  0.1830450E+02  0.2492974E+02  0.1097269E+02  0.1024958E+04
Ar  711  0.1822180E+02  0.2157379E+02  0.1342210E+02  0.2986186E+03
Ar  712  0.1487536E+02  0.2435154E+02  0.1320108E+02  0.5029307E+03
Ar  713  0.1557512E+02  0.2132014E+02  0.1659134E+02  0.3651539E+02
Ar  714  0.1819549E+02  0.2390956E+02  0.1601726E+02  0.2072215E+03
Ar  715  0.1862202E+02  0.2091247E+02  0.1815237E+02  0.2330516E+03
Ar  716  0.1616345E+02  0.2380333E+02  0.1913357E+02  0.3444073E+03
Ar  717  0.1658042E+02  0.2123860E+02  0.2142139E+02  0.5524299E+02
Ar  718  0.1845854E+02  0.2398554E+02  0.2238210E+02  0.4241811E+02
Ar  719  0.1877696E+02  0.2098789E+02  0.2490883E+02  0.6130745E+03
Ar  720  0.1600177E+02  0.2438768E+02  0.2470578E+02  0.6003465E+03
Ar  721  0.1571443E+02  0.2135269E+02  0.2720294E+02  0.1490869E+03
Ar  722  0.1886207E+02  0.2408758E+02  0.2670032E+02  0.2279881E+03
Ar  723  0.1859622E+02  0.2161747E+02  0.2932121E+02  0.2002630E+03
Ar  724  0.1602977E+02  0.2423983E+02  0.2955172E+02  0.5574659E+02
Ar  725  0.1586349E+02  0.2156529E+02  0.3164215E+02  0.1757585E+03
Ar  726  0.1884987E+02  0.2430885E+02  0.3258899E+02  0.1317875E+03
Ar  727  0.1896612E+02  0.2193349E+02  0.3497902E+02  0.5645111E+03
Ar  728  0.1626899E+02  0.2454789E+02  0.3503931E+02  0.2830257E+03
Ar  729  0.1606250E+02  0.2675431E+02  0.6364611E-01  0.4423681E+02
Ar  730  0.1890954E+02  0.2934307E+02  0.3749362E+02  0.9770572E+03
Ar  731  0.1818068E+02  0.2759893E+02  0.2724698E+01  0.6703047E+03
Ar  732  0.1541282E+02  0.3014593E+02  0.2596138E+01  0.1291958E+03
Ar  733  0.1551052E+02  0.2757407E+02  0.5606790E+01  0.4159713E+02
Ar  734  0.1828223E+02  0.3010118E+02  0.5619359E+01  0.1998665E+03
Ar  735  0.1830598E+02  0.2755307E+02  0.7955810E+01  0.1567048E+03
Ar  736  0.1609076E+02  0.3027072E+02  0.7779253E+01  0.3193945E+03
Ar  737  0.1538053E+02  0.2727677E+02  0.1113987E+02  0.1115598E+03
Ar  738  0.1912355E+02  0.3030250E+02  0.1091025E+02  0.3126823E+03
Ar  739  0.1867965E+02  0.2697329E+02  0.1420029E+02  0.8128572E+02
Ar  740  0.1609608E+02  0.2995672E+02  0.1306620E+02  0.2384596E+03
Ar  741  0.1610769E+02  0.2677605E+02  0.1610445E+02  0.3872230E+02
Ar  742  0.1797696E+02  0.2981397E+02  0.1630400E+02  0.1681579E+02
Ar  743  0.1871776E+02  0.2719427E+02  0.1944194E+02  0.2679217E+03
Ar  744  0.1557850E+02  0.2973578E+02  0.1936114E+02  0.5216775E+02
Ar  745  0.1616557E+02  0.2720719E+02  0.2211810E+02  0.3811207E+02
Ar  746  0.1864608E+02  0.3024468E+02  0.2124779E+02  0.5847218E+03
Ar  747  0.1879628E+02  0.2689977E+02  0.2466691E+02  0.2245759E+03
Ar  748  0.1606008E+02  0.2989701E+02  0.2433849E+02  0.3964855E+03
Ar  749  0.1655315E+02  0.2729606E+02  0.2694419E+02  0.3736079E+02
Ar  750  0.1970767E+02  0.2986883E+02  0.2720409E+02  0.1418088E+03
Ar  751  0.1813355E+02  0.2663026E+02  0.3007457E+02  0.9445462E+02
Ar  752  0.1619338E+02  0.2992516E+02  0.2997891E+02  0.4071429E+03
Ar  753  0.1561723E+02  0.2718827E+02  0.3267602E+02  0.5518021E+03
Ar  754  0.1878899E+02  0.2923782E+02  0.3227774E+02  0.1013295E+04
Ar  755  0.1865418E+02  0.2679817E+02  0.3501775E+02  0.5384445E+03
Ar  756  0.1600156E+02  0.2938022E+02  0.3568543E+02  0.3438873E+03
Ar  757  0.1671303E+02  0.3212570E+02  0.2546465E+00  0.5689916E+03
Ar  758  0.1885115E+02  0.3487010E+02  0.5606293E+00  0.1629259E+03
Ar  759  0.1888025E+02  0.3200469E+02  0.2945053E+01  0.3418220E+02
Ar  760  0.1591125E+02  0.3519563E+02  0.2225232E+01  0.2998226E+03
Ar  761  0.1639277E+02  0.3305281E+02  0.5146119E+01  0.5042199E+03
Ar  762  0.1887135E+02  0.3512828E+02  0.5158275E+01  0.1247796E+03
Ar  763  0.1825386E+02  0.3277193E+02  0.8225744E+01  0.1656702E+03
Ar  764  0.1599341E+02  0.3557516E+02  0.7464443E+01  0.5401789E+03
Ar  765  0.1603354E+02  0.3245729E+02  0.1094787E+02  0.7032030E+02
Ar  766  0.1888336E+02  0.3493589E+02  0.1122276E+02  0.7401494E+03
Ar  767  0.1905778E+02  0.3257458E+02  0.1394249E+02  0.2077330E+03
Ar  768  0.1595165E+02  0.3449395E+02  0.1343507E+02  0.3506756E+03
Ar  769  0.1612232E+02  0.3249638E+02  0.1677271E+02  0.1495074E+03
Ar  770  0.1896033E+02  0.3516928E+02  0.1567396E+02  0.2226398E+03
Ar  771  0.1885983E+02  0.3271121E+02  0.1893153E+02  0.8622585E+03
Ar  772  0.1579021E+02  0.3489047E+02  0.1917265E+02  0.7372050E+02
Ar  773  0.1582667E+02  0.3246869E+02  0.2189116E+02  0.1558003E+03
Ar  774  0.1855471E+02  0.3518274E+02  0.2150209E+02  0.1420280E+03
Ar  775  0.1842337E+02  0.3237179E+02  0.2437870E+02  0.1066623E+03
Ar  776  0.1644743E+02  0.3562404E+02  0.2432744E+02  0.1511659E+03
Ar  777  0.1611177E+02  0.3263097E+02  0.2700363E+02  0.1527230E+03
Ar  778  0.1863184E+02  0.3585649E+02  0.2725368E+02  0.2903418E+02
Ar  779  0.1888751E+02  0.3220689E+02  0.2984117E+02  0.2751686E+02
Ar  780  0.1658828E+02  0.3557232E+02  0.2989211E+02  0.1565277E+03
Ar  781  0.1645209E+02  0.3210801E+02  0.3292861E+02  0.5543352E+03
Ar  782  0.1897496E+02  0.3495824E+02  0.3254772E+02  0.9909964E+02
Ar  783  0.1921232E+02  0.3266756E+02  0.3537310E+02  0.7639791E+02
Ar  784  0.1674831E+02  0.3508245E+02  0.3580695E+02  0.9297662E+01
Ar  785  0.2172647E+02  0.3280302E+00  0.4512964E+00  0.3069189E+03
Ar  786  0.2488391E+02  0.2404335E+01  0.1313468E-01  0.1268854E+03
Ar  787  0.2400224E+02  0.9473891E-01  0.2682793E+01  0.1550393E+03
Ar  788  0.2135975E+02  0.4221328E+01  0.3141180E+01  0.6156293E+03
Ar  789  0.2146629E+02  0.3762180E+02  0.5450887E+01  0.4724675E+03
Ar  790  0.2367710E+02  0.2711890E+01  0.4961449E+01  0.1136206E+03
Ar  791  0.2484888E+02  0.2947707E+00  0.7911058E+01  0.1977629E+03
Ar  792  0.2103217E+02  0.2602777E+01  0.7937523E+01  0.6404903E+03
Ar  793  0.2171646E+02  0.7025142E+00  0.1057942E+02  0.4252298E+03
Ar  794  0.2385887E+02  0.3743011E+01  0.1011833E+02  0.2204059E+03
Ar  795  0.2434600E+02  0.2740975E+00  0.1341803E+02  0.1864639E+03
Ar  796  0.2162538E+02  0.3197577E+01  0.1308210E+02  0.3193545E+03
Ar  797  0.2174068E+02  0.4148296E+00  0.1560860E+02  0.5488696E+02
Ar  798  0.2440946E+02  0.3092385E+01  0.1579322E+02  0.4137762E+03
Ar  799  0.2478809E+02  0.3750987E+02  0.1848144E+02  0.2276514E+03
Ar  800  0.2149845E+02  0.2433213E+01  0.1865060E+02  0.2085239E+03
Ar  801  0.2192571E+02  0.3747827E+02  0.2111930E+02  0.6445127E+03
Ar  802  0.2436771E+02  0.2538156E+01  0.2114186E+02  0.1095993E+03
Ar  803  0.2429419E+02  0.3707173E+02  0.2427032E+02  0.1973356E+03
Ar  804  0.2196760E+02  0.2418701E+01  0.2377395E+02  0.6676942E+02
Ar  805  0.2114314E+02  0.1262848E+00  0.2702577E+02  0.1081245E+03
Ar  806  0.2455005E+02  0.2305990E+01  0.2701830E+02  0.3494796E+03
Ar  807  0.2485025E+02  0.3739070E+02  0.3033611E+02  0.1344865E+03
Ar  808  0.2215817E+02  0.2432156E+01  0.2942873E+02  0.2855284E+03
Ar  809  0.2146355E+02  0.3746694E+02  0.3264109E+02  0.5119631E+03
Ar  810  0.2457272E+02  0.2291870E+01  0.3259008E+02  0.1033157E+03
Ar  811  0.2466024E+02  0.3776221E+02  0.3525588E+02  0.5913450E+03
Ar  812  0.2196678E+02  0.2085958E+01  0.3498237E+02  0.3087788E+03
Ar  813  0.2111302E+02  0.5802446E+01  0.1819185E+00  0.6131448E+02
Ar  814  0.2447899E+02  0.8442639E+01  0.3740037E+02  0.4208299E+03
Ar  815  0.2416091E+02  0.5741630E+01  0.2069235E+01  0.1933031E+03
Ar  816  0.2114148E+02  0.7972249E+01  0.2801532E+01  0.5525436E+03
Ar  817  0.2142878E+02  0.5836889E+01  0.6044452E+01  0.4124526E+03
Ar  818  0.2460700E+02  0.8495899E+01  0.4879068E+01  0.1472150E+03
Ar  819  0.2466319E+02  0.6214870E+01  0.7644861E+01  0.5866797E+02
Ar  820  0.2141793E+02  0.8169145E+01  0.8507830E+01  0.2177709E+03
Ar  821  0.2091099E+02  0.5694998E+01  0.1107369E+02  0.1435490E+03
Ar  822  0.2404191E+02  0.8281006E+01  0.1108920E+02  0.4650010E+03
Ar  823  0.2434041E+02  0.5465685E+01  0.1330351E+02  0.1410806E+03
Ar  824  0.2137491E+02  0.7699726E+01  0.1366742E+02  0.4358464E+03
Ar  825  0.2181433E+02  0.5238602E+01  0.1618684E+02  0.2854263E+03
Ar  826  0.2461255E+02  0.7738306E+01  0.1574472E+02  0.4106634E+03
Ar  827  0.2418651E+02  0.5580688E+01  0.1860418E+02  0.5402326E+02
Ar  828  0.2174254E+02  0.8257249E+01  0.1849255E+02  0.2946760E+03
Ar  829  0.2193553E+02  0.5236838E+01  0.2094596E+02  0.2458321E+03
Ar  830  0.2376497E+02  0.8417317E+01  0.2118604E+02  0.1820167E+03
Ar  831  0.2411738E+02  0.5498912E+01  0.2388037E+02  0.1416785E+03
Ar  832  0.2153037E+02  0.8242725E+01  0.2481865E+02  0.2437602E+03
Ar  833  0.2230196E+02  0.5106229E+01  0.2701764E+02  0.6326660E+03
Ar  834  0.2480358E+02  0.7487284E+01  0.2713677E+02  0.2315287E+03
Ar  835  0.2464384E+02  0.5253062E+01  0.2983011E+02  0.4529570E+03
Ar  836  0.2195360E+02  0.7987035E+01  0.2983910E+02  0.2354157E+03
Ar  837  0.2125044E+02  0.5525966E+01  0.3235650E+02  0.4204430E+03
Ar  838  0.2436315E+02  0.7701919E+01  0.3264963E+02  0.3079095E+03
Ar  839  0.2397704E+02  0.5140637E+01  0.3588246E+02  0.5045140E+03
Ar  840  0.2181713E+02  0.7466572E+01  0.3520809E+02  0.4013012E+02
Ar  841  0.2153646E+02  0.1003473E+02  0.3775203E+02  0.3316596E+02
Ar  842  0.2416565E+02  0.1316334E+02  0.3759576E+02  0.1315833E+03
Ar  843  0.2465312E+02  0.1096521E+02  0.2332854E+01  0.1068439E+03
Ar  844  0.2165761E+02  0.1302148E+02  0.3161298E+01  0.1536372E+03
Ar  845  0.2165429E+02  0.1012067E+02  0.5582753E+01  0.7630618E+02
Ar  846  0.2485633E+02  0.1306070E+02  0.5947647E+01  0.4280860E+01
Ar  847  0.2419706E+02  0.1013024E+02  0.8151083E+01  0.5145169E+03
Ar  848  0.2184738E+02  0.1310611E+02  0.7508259E+01  0.4024912E+03
Ar  849  0.2165305E+02  0.1091197E+02  0.1081874E+02  0.3347178E+03
Ar  850  0.2456306E+02  0.1336700E+02  0.9764666E+01  0.6024552E+03
Ar  851  0.2523708E+02  0.1071638E+02  0.1297692E+02  0.1283791E+02
Ar  852  0.2199948E+02  0.1375106E+02  0.1361433E+02  0.4050620E+03
Ar  853  0.2195764E+02  0.1096258E+02  0.1582213E+02  0.1366493E+03
Ar  854  0.2433789E+02  0.1332579E+02  0.1634772E+02  0.1039683E+04
Ar  855  0.2445542E+02  0.1059471E+02  0.1818358E+02  0.1108816E+03
Ar  856  0.2141903E+02  0.1387467E+02  0.1933166E+02  0.1983415E+03
Ar  857  0.2195116E+02  0.1125391E+02  0.2186703E+02  0.4544483E+02
Ar  858  0.2481060E+02  0.1318366E+02  0.2083546E+02  0.2280874E+03
Ar  859  0.2427858E+02  0.1042180E+02  0.2438431E+02  0.1059628E+04
Ar  860  0.2193663E+02  0.1379199E+02  0.2479265E+02  0.2010437E+03
Ar  861  0.2187223E+02  0.1036984E+02  0.2755775E+02  0.3227118E+03
Ar  862  0.2480093E+02  0.1324854E+02  0.2710846E+02  0.9892556E+02
Ar  863  0.2427867E+02  0.1101678E+02  0.2965501E+02  0.4525606E+03
Ar  864  0.2144129E+02  0.1384231E+02  0.2958814E+02  0.4357885E+03
Ar  865  0.2146139E+02  0.1024875E+02  0.3204740E+02  0.7982756E+02
Ar  866  0.2403638E+02  0.1326768E+02  0.3236106E+02  0.4834108E+03
Ar  867  0.2384755E+02  0.1044069E+02  0.3498171E+02  0.1423376E+03
Ar  868  0.2149572E+02  0.1322668E+02  0.3554369E+02  0.6054491E+03
Ar  869  0.2214069E+02  0.1606639E+02  0.1775927E+00  0.7880155E+02
Ar  870  0.2442790E+02  0.1885548E+02  0.1194715E+01  0.6750470E+02
Ar  871  0.2431442E+02  0.1497110E+02  0.3190139E+01  0.5434659E+03
Ar  872  0.2125264E+02  0.1937169E+02  0.3064569E+01  0.2037902E+03
Ar  873  0.2147027E+02  0.1668897E+02  0.5166777E+01  0.1508169E+03
Ar  874  0.2376891E+02  0.1941749E+02  0.5745756E+01  0.7413796E+02
Ar  875  0.2420382E+02  0.1602602E+02  0.7375805E+01  0.7644915E+03
Ar  876  0.2145426E+02  0.1909249E+02  0.8265373E+01  0.2645025E+03
Ar  877  0.2191961E+02  0.1617538E+02  0.1024492E+02  0.3453612E+02
Ar  878  0.2421917E+02  0.1874483E+02  0.1017124E+02  0.1883121E+03
Ar  879  0.2409614E+02  0.1650424E+02  0.1265233E+02  0.3170366E+03
Ar  880  0.2209957E+02  0.1911684E+02  0.1331119E+02  0.5580554E+03
Ar  881  0.2200076E+02  0.1635201E+02  0.1608219E+02  0.4382898E+02
Ar  882  0.2438170E+02  0.1928420E+02  0.1583398E+02  0.1503970E+03
Ar  883  0.2449969E+02  0.1595663E+02  0.1893152E+02  0.2260820E+03
Ar  884  0.2229357E+02  0.1863257E+02  0.1868888E+02  0.5321602E+03
Ar  885  0.2168720E+02  0.1651029E+02  0.2194240E+02  0.3800201E+03
Ar  886  0.2384662E+02  0.1896585E+02  0.2191649E+02  0.2643564E+03
Ar  887  0.2487390E+02  0.1605201E+02  0.2526937E+02  0.2697395E+03
Ar  888  0.2184426E+02  0.1877504E+02  0.2461074E+02  0.3751842E+03
Ar  889  0.2155036E+02  0.1682916E+02  0.2705266E+02  0.7608676E+03
Ar  890  0.2417938E+02  0.1929348E+02  0.2719607E+02  0.1524960E+03
Ar  891  0.2430025E+02  0.1604592E+02  0.2962733E+02  0.5978265E+03
Ar  892  0.2114787E+02  0.1925721E+02  0.2961323E+02  0.6256484E+03
Ar  893  0.2159336E+02  0.1574545E+02  0.3299166E+02  0.2087757E+03
Ar  894  0.2382903E+02  0.1849840E+02  0.3245695E+02  0.2292829E+03
Ar  895  0.2434685E+02  0.1574404E+02  0.3505959E+02  0.6236544E+03
Ar  896  0.2143742E+02  0.1873236E+02  0.3582478E+02  0.3162817E+03
Ar  897  0.2085760E+02  0.2139888E+02  0.7347772E-01  0.5775046E+03
Ar  898  0.2364693E+02  0.2432437E+02  0.5868244E+00  0.4324036E+02
Ar  899  0.2358598E+02  0.2175160E+02  0.2979028E+01  0.9413577E+02
Ar  900  0.2110946E+02  0.2522642E+02  0.2962166E+01  0.2582279E+03
Ar  901  0.2131236E+02  0.2205758E+02  0.5938270E+01  0.6229586E+02
Ar  902  0.2422978E+02  0.2446106E+02  0.5361193E+01  0.1492793E+03
Ar  903  0.2398073E+02  0.2186027E+02  0.8252159E+01  0.2749222E+02
Ar  904  0.2143965E+02  0.2458866E+02  0.8452371E+01  0.1359987E+03
Ar  905  0.2158262E+02  0.2196635E+02  0.1140537E+02  0.8745633E+02
Ar  906  0.2452250E+02  0.2470111E+02  0.1090012E+02  0.3316169E+03
Ar  907  0.2430760E+02  0.2166636E+02  0.1319313E+02  0.4536475E+03
Ar  908  0.2133671E+02  0.2448526E+02  0.1387141E+02  0.5253849E+02
Ar  909  0.2137573E+02  0.2176525E+02  0.1605838E+02  0.6134854E+02
Ar  910  0.2393464E+02  0.2422924E+02  0.1704601E+02  0.1794856E+03
Ar  911  0.2413640E+02  0.2141521E+02  0.1879695E+02  0.9212626E+03
Ar  912  0.2105311E+02  0.2390817E+02  0.1855031E+02  0.1766282E+03
Ar  913  0.2058097E+02  0.2152466E+02  0.2097174E+02  0.2980974E+03
Ar  914  0.2408798E+02  0.2403535E+02  0.2201905E+02  0.2520270E+03
Ar  915  0.2434011E+02  0.2134140E+02  0.2435778E+02  0.1433789E+03
Ar  916  0.2148223E+02  0.2405113E+02  0.2471538E+02  0.5604302E+03
Ar  917  0.2142078E+02  0.2142664E+02  0.2696548E+02  0.3025621E+03
Ar  918  0.2437997E+02  0.2441947E+02  0.2715158E+02  0.4029285E+03
Ar  919  0.2446670E+02  0.2143253E+02  0.2971565E+02  0.1592553E+03
Ar  920  0.2081586E+02  0.2401397E+02  0.3006554E+02  0.1793794E+03
Ar  921  0.2158815E+02  0.2127945E+02  0.3288578E+02  0.1767198E+03
Ar  922  0.2383889E+02  0.2406862E+02  0.3205104E+02  0.2172930E+03
Ar  923  0.2384362E+02  0.2150377E+02  0.3606545E+02  0.3089649E+03
Ar  924  0.2137899E+02  0.2438609E+02  0.3492131E+02  0.2064021E+03
Ar  925  0.2144420E+02  0.2694328E+02  0.3742392E+02  0.4241450E+03
Ar  926  0.2399960E+02  0.2944985E+02  0.3742143E+02  0.2107686E+03
Ar  927  0.2439356E+02  0.2787163E+02  0.2639416E+01  0.7164050E+03
Ar  928  0.2117335E+02  0.2913562E+02  0.2540494E+01  0.3467115E+03
Ar  929  0.2137027E+02  0.2749169E+02  0.5515154E+01  0.1857464E+03
Ar  930  0.2444070E+02  0.2961688E+02  0.5676986E+01  0.3642341E+02
Ar  931  0.2458826E+02  0.2684472E+02  0.8137366E+01  0.4529179E+03
Ar  932  0.2100295E+02  0.3020845E+02  0.8195675E+01  0.1538353E+03
Ar  933  0.2125671E+02  0.2707360E+02  0.1098830E+02  0.9202398E+02
Ar  934  0.2367676E+02  0.2964663E+02  0.1073796E+02  0.2938476E+03
Ar  935  0.2374874E+02  0.2689165E+02  0.1408650E+02  0.2549308E+03
Ar  936  0.2120428E+02  0.2957577E+02  0.1379925E+02  0.1291454E+03
Ar  937  0.2085117E+02  0.2714130E+02  0.1669508E+02  0.2114055E+03
Ar  938  0.2411660E+02  0.2922079E+02  0.1668751E+02  0.2241625E+03
Ar  939  0.2323060E+02  0.2725785E+02  0.1941205E+02  0.2294348E+02
Ar  940  0.2120970E+02  0.2995338E+02  0.1855789E+02  0.1598253E+03
Ar  941  0.2118755E+02  0.2633061E+02  0.2172328E+02  0.5440503E+03
Ar  942  0.2403301E+02  0.2961854E+02  0.2157668E+02  0.1214426E+03
Ar  943  0.2334409E+02  0.2691554E+02  0.2466842E+02  0.1337313E+03
Ar  944  0.2165610E+02  0.2956252E+02  0.2417657E+02  0.7074581E+01
Ar  945  0.2127962E+02  0.2692134E+02  0.2754322E+02  0.3016296E+03
Ar  946  0.2338577E+02  0.3057336E+02  0.2714570E+02  0.7096424E+02
Ar  947  0.2440446E+02  0.2694499E+02  0.2934864E+02  0.9788814E+02
Ar  948  0.2209947E+02  0.2962068E+02  0.3041827E+02  0.2239061E+03
Ar  949  0.2206218E+02  0.2678915E+02  0.3258495E+02  0.5966565E+03
Ar  950  0.2465264E+02  0.3054249E+02  0.3267779E+02  0.1623012E+03
Ar  951  0.2428654E+02  0.2653361E+02  0.3530035E+02  0.7641800E+03
Ar  952  0.2205630E+02  0.2972512E+02  0.3456785E+02  0.4902090E+03
Ar  953  0.2128652E+02  0.3203309E+02  0.2967782E+00  0.1113994E+03
Ar  954  0.2396938E+02  0.3524204E+02  0.2348736E-01  0.2670767E+03
Ar  955  0.2376540E+02  0.3154180E+02  0.2979882E+01  0.2268224E+03
Ar  956  0.2182005E+02  0.3514961E+02  0.3024780E+01  0.3944354E+03
Ar  957  0.2148815E+02  0.3256991E+02  0.5905850E+01  0.6156067E+03
Ar  958  0.2438767E+02  0.3525262E+02  0.5438831E+01  0.4138463E+03
Ar  959  0.2389711E+02  0.3209453E+02  0.8238462E+01  0.1424172E+03
Ar  960  0.2174004E+02  0.3488000E+02  0.8847511E+01  0.1737952E+03
Ar  961  0.2224630E+02  0.3285721E+02  0.1156986E+02  0.4934144E+03
Ar  962  0.2471641E+02  0.3546011E+02  0.1052826E+02  0.2659707E+03
Ar  963  0.2385217E+02  0.3168831E+02  0.1451883E+02  0.8669540E+02
Ar  964  0.2180286E+02  0.3584541E+02  0.1321107E+02  0.1787052E+03
Ar  965  0.2127254E+02  0.3270650E+02  0.1638470E+02  0.6390279E+02
Ar  966  0.2484596E+02  0.3545759E+02  0.1571659E+02  0.2846612E+03
Ar  967  0.2431018E+02  0.3290568E+02  0.1836150E+02  0.3041005E+03
Ar  968  0.2161200E+02  0.3553480E+02  0.1844977E+02  0.4623920E+03
Ar  969  0.2162979E+02  0.3289274E+02  0.2141531E+02  0.2099649E+03
Ar  970  0.2446875E+02  0.3511456E+02  0.2162447E+02  0.2365962E+03
Ar  971  0.2333241E+02  0.3284881E+02  0.2448720E+02  0.1572542E+03
Ar  972  0.2060110E+02  0.3582275E+02  0.2421562E+02  0.3482954E+03
Ar  973  0.2130200E+02  0.3350580E+02  0.2713943E+02  0.4101761E+03
Ar  974  0.2437255E+02  0.3530508E+02  0.2721197E+02  0.1619829E+03
Ar  975  0.2384810E+02  0.3254946E+02  0.2956877E+02  0.3064046E+03
Ar  976  0.2205082E+02  0.3598291E+02  0.2967996E+02  0.2706272E+03
Ar  977  0.2127452E+02  0.3254175E+02  0.3285053E+02  0.5539263E+02
Ar  978  0.2416524E+02  0.3449666E+02  0.3247750E+02  0.3165829E+03
Ar  979  0.2433755E+02  0.3218296E+02  0.3548481E+02  0.1748595E+03
Ar  980  0.2148721E+02  0.3509356E+02  0.3531796E+02  0.3308556E+02
Ar  981  0.2728172E+02  0.3761228E+02  0.4972302E+00  0.2164715E+03
Ar  982  0.2974471E+02  0.2622923E+01  0.3754232E+02  0.5559347E+02
Ar  983  0.3023071E+02  0.3757724E+02  0.2679985E+01  0.8058284E+02
Ar  984  0.2673612E+02  0.2542856E+01  0.2551839E+01  0.2689603E+03
Ar  985  0.2651559E+02  0.1005369E+00  0.5108572E+01  0.1481869E+02
Ar  986  0.2974449E+02  0.2670097E+01  0.4537430E+01  0.2492500E+03
Ar  987  0.2911888E+02  0.3747580E+02  0.8111024E+01  0.5174629E+02
Ar  988  0.2684500E+02  0.3056419E+01  0.7654401E+01  0.1480382E+03
Ar  989  0.2650666E+02  0.8819955E+00  0.1081306E+02  0.2736901E+03
Ar  990  0.2957157E+02  0.2638548E+01  0.1051404E+02  0.2634661E+03
Ar  991  0.2992707E+02  0.2554306E+00  0.1344254E+02  0.3770233E+02
Ar  992  0.2701924E+02  0.2936036E+01  0.1348367E+02  0.3640397E+03
Ar  993  0.2718279E+02  0.3770596E+02  0.1570870E+02  0.1807210E+03
Ar  994  0.2969476E+02  0.3700280E+01  0.1546148E+02  0.3370965E+03
Ar  995  0.2888514E+02  0.2394635E+00  0.1864029E+02  0.2261759E+03
Ar  996  0.2742213E+02  0.3275165E+01  0.1855560E+02  0.5302327E+02
Ar  997  0.2726813E+02  0.1998398E+00  0.2147342E+02  0.2524178E+03
Ar  998  0.2896450E+02  0.3178096E+01  0.2175048E+02  0.2361083E+03
Ar  999  0.2978583E+02  0.1311651E+00  0.2442897E+02  0.7284419E+03
Ar 1000  0.2668964E+02  0.2084028E+01  0.2436411E+02  0.6327556E+02
Ar 1001  0.2691912E+02  0.3762606E+02  0.2693871E+02  0.2237814E+03
Ar 1002  0.2966091E+02  0.2673112E+01  0.2728611E+02  0.7822742E+02
Ar 1003  0.2961162E+02  0.3730630E+02  0.2958976E+02  0.6186017E+03
Ar 1004  0.2699135E+02  0.2693094E+01  0.2985468E+02  0.4302584E+03
Ar 1005  0.2747502E+02  0.3733006E+02  0.3233928E+02  0.3774032E+03
Ar 1006  0.2974365E+02  0.3007902E+01  0.3236069E+02  0.3109523E+03
Ar 1007  0.3034238E+02  0.3733028E+02  0.3429034E+02  0.5522517E+03
Ar 1008  0.2732890E+02  0.2235906E+01  0.3502024E+02  0.3261841E+03
Ar 1009  0.2735956E+02  0.5846871E+01  0.3770196E+02  0.4632574E+03
Ar 1010  0.2992427E+02  0.8218184E+01  0.3742065E+02  0.3186277E+03
Ar 1011  0.2990114E+02  0.5339639E+01  0.2588426E+01  0.3378423E+03
Ar 1012  0.2752836E+02  0.8348826E+01  0.3319127E+01  0.5080938E+03
Ar 1013  0.2691073E+02  0.5763024E+01  0.5267184E+01  0.1005520E+04
Ar 1014  0.3012142E+02  0.7500906E+01  0.5877474E+01  0.4076060E+02
Ar 1015  0.2954885E+02  0.5220805E+01  0.8381094E+01  0.2142941E+03
Ar 1016  0.2725748E+02  0.8311097E+01  0.8275908E+01  0.1569489E+03
Ar 1017  0.2676894E+02  0.5726408E+01  0.1054497E+02  0.3979396E+03
Ar 1018  0.3024570E+02  0.8565043E+01  0.1079376E+02  0.3145583E+03
Ar 1019  0.2982119E+02  0.5677272E+01  0.1281865E+02  0.2393821E+03
Ar 1020  0.2773308E+02  0.8111663E+01  0.1382746E+02  0.1572986E+03
Ar 1021  0.2689030E+02  0.5517977E+01  0.1614943E+02  0.2278302E+03
Ar 1022  0.3025834E+02  0.8421465E+01  0.1611007E+02  0.2022791E+03
Ar 1023  0.3105258E+02  0.5353287E+01  0.1861402E+02  0.1046373E+03
Ar 1024  0.2738007E+02  0.8325486E+01  0.1838198E+02  0.9194006E+02
Ar 1025  0.2705445E+02  0.5758965E+01  0.2115840E+02  0.2505551E+03
Ar 1026  0.3043952E+02  0.7908184E+01  0.2140010E+02  0.2992081E+03
Ar 1027  0.2954677E+02  0.6149813E+01  0.2398468E+02  0.5318398E+03
Ar 1028  0.2690252E+02  0.8237838E+01  0.2437679E+02  0.1043815E+03
Ar 1029  0.2737227E+02  0.5033597E+01  0.2680479E+02  0.1182837E+03
Ar 1030  0.2941899E+02  0.7816068E+01  0.2713113E+02  0.3939761E+03
Ar 1031  0.2974554E+02  0.5680722E+01  0.2975320E+02  0.2738127E+03
Ar 1032  0.2669891E+02  0.8146254E+01  0.3005162E+02  0.7439533E+02
Ar 1033  0.2701494E+02  0.5131048E+01  0.3282900E+02  0.9624295E+03
Ar 1034  0.3008217E+02  0.7988332E+01  0.3303521E+02  0.1733690E+03
Ar 1035  0.3004770E+02  0.4831794E+01  0.3505277E+02  0.8546112E+03
Ar 1036  0.2712363E+02  0.7731834E+01  0.3499944E+02  0.5925393E+02
Ar 1037  0.2699281E+02  0.1029675E+02  0.3772391E+02  0.5592208E+03
Ar 1038  0.2955654E+02  0.1293666E+02  0.3765791E+02  0.8009476E+03
Ar 1039  0.2997363E+02  0.1077604E+02  0.3008842E+01  0.1909806E+03
Ar 1040  0.2748185E+02  0.1327449E+02  0.2809119E+01  0.4302508E+03
Ar 1041  0.2719124E+02  0.1093945E+02  0.5377548E+01  0.8040954E+02
Ar 1042  0.3024344E+02  0.1337746E+02  0.5301064E+01  0.3236336E+02
Ar 1043  0.3024891E+02  0.1084372E+02  0.7798186E+01  0.4083840E+02
Ar 1044  0.2756346E+02  0.1347186E+02  0.8024756E+01  0.4301159E+03
Ar 1045  0.2770212E+02  0.1129946E+02  0.1063567E+02  0.3543031E+03
Ar 1046  0.3046481E+02  0.1355809E+02  0.1078116E+02  0.1516386E+03
Ar 1047  0.3015360E+02  0.1130308E+02  0.1356336E+02  0.3808401E+03
Ar 1048  0.2723274E+02  0.1405017E+02  0.1316614E+02  0.5444948E+03
Ar 1049  0.2695184E+02  0.1119708E+02  0.1611567E+02  0.7640492E+03
Ar 1050  0.2941876E+02  0.1384701E+02  0.1589590E+02  0.3980572E+03
Ar 1051  0.2963572E+02  0.1059981E+02  0.1887108E+02  0.8729528E+02
Ar 1052  0.2739553E+02  0.1379646E+02  0.1858832E+02  0.3245121E+03
Ar 1053  0.2684807E+02  0.1043484E+02  0.2160177E+02  0.2349038E+03
Ar 1054  0.2997727E+02  0.1338421E+02  0.2096590E+02  0.5434478E+03
Ar 1055  0.2944425E+02  0.1142883E+02  0.2383561E+02  0.1787360E+03
Ar 1056  0.2633362E+02  0.1296767E+02  0.2393436E+02  0.7689430E+02
Ar 1057  0.2689085E+02  0.1074125E+02  0.2719985E+02  0.2300280E+03
Ar 1058  0.2907231E+02  0.1373837E+02  0.2666000E+02  0.1105994E+04
Ar 1059  0.2937020E+02  0.1120251E+02  0.2987442E+02  0.8505154E+03
Ar 1060  0.2737492E+02  0.1391173E+02  0.2989209E+02  0.1022847E+04
Ar 1061  0.2678312E+02  0.1125955E+02  0.3211162E+02  0.5952055E+03
Ar 1062  0.2917676E+02  0.1416836E+02  0.3279837E+02  0.2003825E+03
Ar 1063  0.2936248E+02  0.1091270E+02  0.3448066E+02  0.1560163E+03
Ar 1064  0.2668878E+02  0.1284775E+02  0.3500583E+02  0.4487711E+03
Ar 1065  0.2640892E+02  0.1602715E+02  0.4227397E+00  0.2031964E+03
Ar 1066  0.2925796E+02  0.1852744E+02  0.2378843E+00  0.3592367E+03
Ar 1067  0.2972878E+02  0.1593630E+02  0.2861929E+01  0.4508383E+03
Ar 1068  0.2689406E+02  0.1952158E+02  0.3224350E+01  0.2338262E+02
Ar 1069  0.2700357E+02  0.1651044E+02  0.5730441E+01  0.3352747E+03
Ar 1070  0.2979221E+02  0.1868231E+02  0.5379412E+01  0.4119455E+03
Ar 1071  0.3029428E+02  0.1589154E+02  0.8089816E+01  0.3433328E+02
Ar 1072  0.2697354E+02  0.1934633E+02  0.7705922E+01  0.4137713E+03
Ar 1073  0.2749742E+02  0.1631019E+02  0.1032951E+02  0.8676824E+02
Ar 1074  0.2954770E+02  0.1923696E+02  0.1051139E+02  0.1105063E+03
Ar 1075  0.2988442E+02  0.1653357E+02  0.1273193E+02  0.3907720E+03
Ar 1076  0.2699425E+02  0.1828972E+02  0.1311042E+02  0.1447168E+03
Ar 1077  0.2655799E+02  0.1605451E+02  0.1587710E+02  0.5463290E+03
Ar 1078  0.2994078E+02  0.1793347E+02  0.1570775E+02  0.1034455E+03
Ar 1079  0.2972591E+02  0.1605519E+02  0.1907512E+02  0.4164013E+03
Ar 1080  0.2665897E+02  0.1883575E+02  0.1893882E+02  0.1055890E+03
Ar 1081  0.2649680E+02  0.1631334E+02  0.2154289E+02  0.7466994E+02
Ar 1082  0.3011898E+02  0.1870653E+02  0.2114204E+02  0.1021240E+04
Ar 1083  0.2923030E+02  0.1633750E+02  0.2381179E+02  0.9550109E+03
Ar 1084  0.2715987E+02  0.1927873E+02  0.2427506E+02  0.1382532E+03
Ar 1085  0.2766984E+02  0.1671456E+02  0.2721772E+02  0.1269865E+03
Ar 1086  0.3013938E+02  0.1970078E+02  0.2713289E+02  0.9961723E+02
Ar 1087  0.2998948E+02  0.1680382E+02  0.3015643E+02  0.5654325E+03
Ar 1088  0.2696587E+02  0.1920118E+02  0.3016785E+02  0.3332176E+03
Ar 1089  0.2664630E+02  0.1633548E+02  0.3254779E+02  0.7624034E+03
Ar 1090  0.2977783E+02  0.1874290E+02  0.3316453E+02  0.2471091E+03
Ar 1091  0.2890788E+02  0.1639171E+02  0.3548434E+02  0.6842843E+03
Ar 1092  0.2671621E+02  0.1918106E+02  0.3592338E+02  0.9629762E+02
Ar 1093  0.2653774E+02  0.2172685E+02  0.3161874E+00  0.2992632E+03
Ar 1094  0.2988974E+02  0.2426085E+02  0.3753869E+02  0.1272380E+03
Ar 1095  0.2939203E+02  0.2179648E+02  0.3423178E+01  0.1204216E+03
Ar 1096  0.2709436E+02  0.2404729E+02  0.3146768E+01  0.2281552E+03
Ar 1097  0.2663727E+02  0.2216838E+02  0.5826174E+01  0.1538989E+03
Ar 1098  0.2986827E+02  0.2434908E+02  0.5731732E+01  0.5741825E+03
Ar 1099  0.2982105E+02  0.2156731E+02  0.7674515E+01  0.5267653E+02
Ar 1100  0.2724480E+02  0.2443829E+02  0.8451370E+01  0.2456980E+03
Ar 1101  0.2676393E+02  0.2126505E+02  0.1073859E+02  0.4362175E+02
Ar 1102  0.2949490E+02  0.2336551E+02  0.1087203E+02  0.5794803E+03
Ar 1103  0.2993744E+02  0.2148458E+02  0.1447386E+02  0.9804615E+02
Ar 1104  0.2669600E+02  0.2447397E+02  0.1396301E+02  0.3041305E+03
Ar 1105  0.2705305E+02  0.2161041E+02  0.1676882E+02  0.2053061E+01
Ar 1106  0.2936285E+02  0.2466303E+02  0.1609354E+02  0.2172884E+03
Ar 1107  0.3007844E+02  0.2092538E+02  0.1880102E+02  0.3074071E+03
Ar 1108  0.2668015E+02  0.2386268E+02  0.1908145E+02  0.2577332E+03
Ar 1109  0.2673161E+02  0.2098169E+02  0.2148390E+02  0.5482579E+03
Ar 1110  0.2864852E+02  0.2403672E+02  0.2169898E+02  0.7910526E+03
Ar 1111  0.2997208E+02  0.2165485E+02  0.2422185E+02  0.2280636E+03
Ar 1112  0.2672134E+02  0.2425090E+02  0.2456662E+02  0.3750079E+03
Ar 1113  0.2716169E+02  0.2195337E+02  0.2727876E+02  0.5967254E+03
Ar 1114  0.2961338E+02  0.2458739E+02  0.2715277E+02  0.3101897E+02
Ar 1115  0.2971468E+02  0.2235762E+02  0.3002125E+02  0.1128252E+03
Ar 1116  0.2718116E+02  0.2427570E+02  0.3042711E+02  0.1951888E+03
Ar 1117  0.2600641E+02  0.2138604E+02  0.3306862E+02  0.2577548E+03
Ar 1118  0.2917621E+02  0.2336107E+02  0.3304222E+02  0.9738553E+02
Ar 1119  0.2981008E+02  0.2116186E+02  0.3566257E+02  0.1674119E+03
Ar 1120  0.2687269E+02  0.2450322E+02  0.3529775E+02  0.4258684E+03
Ar 1121  0.2654806E+02  0.2662361E+02  0.5807065E+00  0.3670826E+03
Ar 1122  0.2919960E+02  0.2972082E+02  0.3905664E+00  0.9839370E+02
Ar 1123  0.2960399E+02  0.2672295E+02  0.2673905E+01  0.1193297E+03
Ar 1124  0.2720731E+02  0.2945400E+02  0.3510083E+01  0.2745650E+03
Ar 1125  0.2706862E+02  0.2693173E+02  0.5739545E+01  0.4829622E+03
Ar 1126  0.2997488E+02  0.2951202E+02  0.5763583E+01  0.1550689E+03
Ar 1127  0.3013772E+02  0.2665236E+02  0.8143531E+01  0.1467839E+03
Ar 1128  0.2766222E+02  0.2954838E+02  0.8250095E+01  0.6773192E+03
Ar 1129  0.2770121E+02  0.2692445E+02  0.1084626E+02  0.2707745E+03
Ar 1130  0.2900113E+02  0.2986693E+02  0.1180965E+02  0.6978332E+02
Ar 1131  0.3007205E+02  0.2647409E+02  0.1331221E+02  0.8342403E+02
Ar 1132  0.2626629E+02  0.2911730E+02  0.1351257E+02  0.4008834E+02
Ar 1133  0.2663244E+02  0.2657552E+02  0.1715595E+02  0.2066865E+03
Ar 1134  0.2930888E+02  0.2895690E+02  0.1585277E+02  0.2609380E+03
Ar 1135  0.2975211E+02  0.2624744E+02  0.1900344E+02  0.2147058E+03
Ar 1136  0.2718125E+02  0.2973857E+02  0.1947775E+02  0.1244053E+03
Ar 1137  0.2654765E+02  0.2671741E+02  0.2166713E+02  0.2290927E+03
Ar 1138  0.2828486E+02  0.2945151E+02  0.2264864E+02  0.4613570E+03
Ar 1139  0.2946400E+02  0.2651640E+02  0.2414973E+02  0.2645177E+02
Ar 1140  0.2549413E+02  0.2991833E+02  0.2458604E+02  0.5488059E+03
Ar 1141  0.2693758E+02  0.2713522E+02  0.2649523E+02  0.3907175E+03
Ar 1142  0.2933750E+02  0.2951448E+02  0.2642667E+02  0.4273507E+03
Ar 1143  0.2949457E+02  0.2693084E+02  0.2989438E+02  0.2734310E+03
Ar 1144  0.2687318E+02  0.3002477E+02  0.2987438E+02  0.1879012E+03
Ar 1145  0.2630682E+02  0.2710498E+02  0.3266248E+02  0.2149447E+03
Ar 1146  0.2930517E+02  0.2980915E+02  0.3213175E+02  0.2032493E+03
Ar 1147  0.2930935E+02  0.2726064E+02  0.3529795E+02  0.1937814E+03
Ar 1148  0.2729183E+02  0.2969920E+02  0.3495749E+02  0.8518146E+02
Ar 1149  0.2616436E+02  0.3252420E+02  0.5411381E+00  0.5976011E+03
Ar 1150  0.2977711E+02  0.3499586E+02  0.5752837E+00  0.1427801E+03
Ar 1151  0.2907756E+02  0.3224836E+02  0.2945032E+01  0.4913498E+03
Ar 1152  0.2638022E+02  0.3519950E+02  0.2758965E+01  0.2431547E+03
Ar 1153  0.2660273E+02  0.3241571E+02  0.5452359E+01  0.2526359E+03
Ar 1154  0.2893182E+02  0.3508985E+02  0.5222325E+01  0.3790027E+03
Ar 1155  0.2961753E+02  0.3204395E+02  0.8238739E+01  0.1615763E+03
Ar 1156  0.2708003E+02  0.3407835E+02  0.8549819E+01  0.8403767E+02
Ar 1157  0.2648681E+02  0.3209828E+02  0.1196925E+02  0.9241194E+02
Ar 1158  0.2975622E+02  0.3527351E+02  0.1069763E+02  0.3750647E+03
Ar 1159  0.3028619E+02  0.3259666E+02  0.1339360E+02  0.2768493E+03
Ar 1160  0.2656984E+02  0.3502398E+02  0.1323737E+02  0.4482777E+03
Ar 1161  0.2706164E+02  0.3201511E+02  0.1592611E+02  0.1219224E+03
Ar 1162  0.2910837E+02  0.3477029E+02  0.1551171E+02  0.4566239E+03
Ar 1163  0.2949728E+02  0.3221149E+02  0.1840991E+02  0.3254735E+03
Ar 1164  0.2714555E+02  0.3493173E+02  0.1922987E+02  0.2560578E+03
Ar 1165  0.2632945E+02  0.3219799E+02  0.2188010E+02  0.1167451E+03
Ar 1166  0.3003907E+02  0.3498040E+02  0.2149816E+02  0.2102299E+03
Ar 1167  0.2969806E+02  0.3246569E+02  0.2437770E+02  0.3726961E+02
Ar 1168  0.2695642E+02  0.3459414E+02  0.2434504E+02  0.8828053E+02
Ar 1169  0.2676664E+02  0.3235570E+02  0.2705126E+02  0.2116650E+03
Ar 1170  0.2945906E+02  0.3507790E+02  0.2659644E+02  0.1643046E+03
Ar 1171  0.2999475E+02  0.3190081E+02  0.2958260E+02  0.3178701E+03
Ar 1172  0.2716098E+02  0.3435530E+02  0.2993645E+02  0.1814839E+03
Ar 1173  0.2739531E+02  0.3285670E+02  0.3269215E+02  0.3034163E+02
Ar 1174  0.3024666E+02  0.3459480E+02  0.3231289E+02  0.1871852E+03
Ar 1175  0.3240967E+02  0.3199115E+02  0.3281129E+02  0.6043618E+02
Ar 1176  0.2732609E+02  0.3560561E+02  0.3560344E+02  0.1052246E+03
Ar 1177  0.3218717E+02  0.3775357E+02  0.3718110E+02  0.1701116E+03
Ar 1178  0.3495254E+02  0.2774973E+01  0.3704905E+02  0.6401588E+02
Ar 1179  0.3518151E+02  0.3766545E+02  0.3452001E+01  0.4321693E+03
Ar 1180  0.3249303E+02  0.2457888E+01  0.2227836E+01  0.3727708E+03
Ar 1181  0.3197356E+02  0.3776179E+02  0.5735114E+01  0.9461478E+02
Ar 1182  0.3457046E+02  0.2690692E+01  0.5043329E+01  0.1369486E+03
Ar 1183  0.3508855E+02  0.3777063E+02  0.8305991E+01  0.1271747E+03
Ar 1184  0.3267465E+02  0.2711309E+01  0.7934095E+01  0.2599328E+03
Ar 1185  0.3218384E+02  0.3757673E+02  0.1040562E+02  0.7313962E+03
Ar 1186  0.3527944E+02  0.2746531E+01  0.1060980E+02  0.5552840E+02
Ar 1187  0.3530398E+02  0.3691530E+02  0.1293917E+02  0.3232108E+03
Ar 1188  0.3281426E+02  0.2142728E+01  0.1295795E+02  0.3308654E+02
Ar 1189  0.3241318E+02  0.3771090E+02  0.1615393E+02  0.1804607E+02
Ar 1190  0.3529064E+02  0.2065883E+01  0.1611118E+02  0.4923350E+03
Ar 1191  0.3510747E+02  0.3732587E+02  0.1865099E+02  0.8930482E+01
Ar 1192  0.3278902E+02  0.2325087E+01  0.1872647E+02  0.2165788E+03
Ar 1193  0.3203142E+02  0.4200083E+00  0.2136251E+02  0.1122884E+03
Ar 1194  0.3536089E+02  0.2978457E+01  0.2151584E+02  0.3081952E+02
Ar 1195  0.3454338E+02  0.4645628E-01  0.2404406E+02  0.1558855E+03
Ar 1196  0.3239232E+02  0.2952136E+01  0.2485577E+02  0.3251295E+03
Ar 1197  0.3275214E+02  0.3743722E+02  0.2736970E+02  0.7096476E+03
Ar 1198  0.3603929E+02  0.3056109E+01  0.2727269E+02  0.1163821E+03
Ar 1199  0.3567372E+02  0.3773683E+02  0.2952189E+02  0.1653502E+03
Ar 1200  0.3287957E+02  0.2421230E+01  0.2934368E+02  0.3152379E+01
Ar 1201  0.3266124E+02  0.3751110E+02  0.3129512E+02  0.3634228E+03
Ar 1202  0.3543039E+02  0.2368366E+01  0.3233395E+02  0.4705698E+03
Ar 1203  0.3411249E+02  0.3692224E+02  0.3455037E+02  0.1659982E+03
Ar 1204  0.3277967E+02  0.2362589E+01  0.3435067E+02  0.2392082E+03
Ar 1205  0.3229441E+02  0.4774198E+01  0.3744040E+02  0.3122873E+02
Ar 1206  0.3517877E+02  0.8064890E+01  0.3768903E+02  0.1507351E+03
Ar 1207  0.3515414E+02  0.5015872E+01  0.2058854E+01  0.1938609E+03
Ar 1208  0.3244457E+02  0.8045416E+01  0.2307883E+01  0.1271093E+03
Ar 1209  0.3225991E+02  0.5146451E+01  0.5461277E+01  0.5927665E+02
Ar 1210  0.3490999E+02  0.7979832E+01  0.5308557E+01  0.1286089E+03
Ar 1211  0.3480450E+02  0.5441671E+01  0.8057072E+01  0.3294047E+03
Ar 1212  0.3320013E+02  0.8486432E+01  0.8596315E+01  0.1509667E+03
Ar 1213  0.3255787E+02  0.5453047E+01  0.1063067E+02  0.5079374E+03
Ar 1214  0.3581639E+02  0.7732898E+01  0.1043271E+02  0.9602615E+02
Ar 1215  0.3527109E+02  0.5443873E+01  0.1307197E+02  0.4156956E+02
Ar 1216  0.3277625E+02  0.8124981E+01  0.1285819E+02  0.2865572E+02
Ar 1217  0.3292477E+02  0.4412563E+01  0.1592246E+02  0.1988222E+03
Ar 1218  0.3503473E+02  0.7640244E+01  0.1573603E+02  0.4045704E+03
Ar 1219  0.3438965E+02  0.5369555E+01  0.1872034E+02  0.1211248E+04
Ar 1220  0.3255711E+02  0.8471790E+01  0.1859054E+02  0.2944227E+03
Ar 1221  0.3259297E+02  0.5110438E+01  0.2167908E+02  0.6402073E+03
Ar 1222  0.3515473E+02  0.7880001E+01  0.2123580E+02  0.2296234E+03
Ar 1223  0.3486129E+02  0.5360672E+01  0.2483846E+02  0.1821296E+03
Ar 1224  0.3222785E+02  0.8903177E+01  0.2456065E+02  0.1254746E+03
Ar 1225  0.3192624E+02  0.5780667E+01  0.2714334E+02  0.2080041E+03
Ar 1226  0.3469777E+02  0.8340572E+01  0.2706298E+02  0.2418425E+03
Ar 1227  0.3485181E+02  0.5650324E+01  0.2930395E+02  0.1983737E+03
Ar 1228  0.3207409E+02  0.8064622E+01  0.3010316E+02  0.1440318E+03
Ar 1229  0.3276430E+02  0.4884864E+01  0.3218059E+02  0.1626732E+03
Ar 1230  0.3465506E+02  0.8094476E+01  0.3241319E+02  0.2707165E+03
Ar 1231  0.3535670E+02  0.5730172E+01  0.3517755E+02  0.1008923E+03
Ar 1232  0.3284298E+02  0.8132324E+01  0.3535463E+02  0.3064892E+03
Ar 1233  0.3246945E+02  0.1089434E+02  0.3712288E+02  0.1229092E+03
Ar 1234  0.3507787E+02  0.1311910E+02  0.3763964E+02  0.8562309E+02
Ar 1235  0.3497359E+02  0.1036119E+02  0.2616063E+01  0.6976690E+02
Ar 1236  0.3267207E+02  0.1248595E+02  0.2058723E+01  0.5798404E+02
Ar 1237  0.3244516E+02  0.1036524E+02  0.5312522E+01  0.8224505E+02
Ar 1238  0.3567150E+02  0.1305853E+02  0.4683134E+01  0.1620113E+03
Ar 1239  0.3530471E+02  0.1076336E+02  0.7904691E+01  0.2600299E+02
Ar 1240  0.3304222E+02  0.1362898E+02  0.7775214E+01  0.3301321E+03
Ar 1241  0.3308675E+02  0.1129916E+02  0.1039411E+02  0.6459142E+02
Ar 1242  0.3580619E+02  0.1339558E+02  0.1018316E+02  0.3094368E+02
Ar 1243  0.3533578E+02  0.1074076E+02  0.1294534E+02  0.1097656E+03
Ar 1244  0.3356378E+02  0.1337725E+02  0.1324815E+02  0.6050509E+03
Ar 1245  0.3293344E+02  0.1055541E+02  0.1559133E+02  0.9394840E+03
Ar 1246  0.3511704E+02  0.1331089E+02  0.1622289E+02  0.2156068E+02
Ar 1247  0.3499191E+02  0.1076186E+02  0.1908340E+02  0.8144008E+01
Ar 1248  0.3232820E+02  0.1330843E+02  0.1838192E+02  0.2035361E+03
Ar 1249  0.3235013E+02  0.1058942E+02  0.2129505E+02  0.4630133E+03
Ar 1250  0.3463779E+02  0.1329746E+02  0.2180156E+02  0.3097420E+03
Ar 1251  0.3530269E+02  0.1111392E+02  0.2383441E+02  0.2356803E+03
Ar 1252  0.3202228E+02  0.1390965E+02  0.2455606E+02  0.3685492E+03
Ar 1253  0.3203023E+02  0.1152511E+02  0.2741453E+02  0.6852688E+03
Ar 1254  0.3508985E+02  0.1308992E+02  0.2704912E+02  0.3182072E+03
Ar 1255  0.3504640E+02  0.1031160E+02  0.2998779E+02  0.5096587E+03
Ar 1256  0.3207044E+02  0.1378120E+02  0.2998066E+02  0.3532487E+03
Ar 1257  0.3219355E+02  0.1099291E+02  0.3234581E+02  0.1409719E+03
Ar 1258  0.3457908E+02  0.1341079E+02  0.3221198E+02  0.5202363E+02
Ar 1259  0.3535214E+02  0.1108174E+02  0.3469024E+02  0.3236834E+03
Ar 1260  0.3211670E+02  0.1366838E+02  0.3482894E+02  0.3379209E+03
Ar 1261  0.3209580E+02  0.1554033E+02  0.3750372E+02  0.1458307E+03
Ar 1262  0.3541178E+02  0.1915921E+02  0.3759455E+02  0.1743652E+03
Ar 1263  0.3443848E+02  0.1623827E+02  0.2058882E+01  0.4290263E+03
Ar 1264  0.3221727E+02  0.1896666E+02  0.2437360E+01  0.1408988E+03
Ar 1265  0.3271641E+02  0.1567998E+02  0.4895448E+01  0.2491211E+03
Ar 1266  0.3437191E+02  0.1858826E+02  0.5431262E+01  0.1420025E+03
Ar 1267  0.3568681E+02  0.1577960E+02  0.7379942E+01  0.5444499E+03
Ar 1268  0.3232421E+02  0.1901135E+02  0.7834820E+01  0.1838751E+03
Ar 1269  0.3299070E+02  0.1621635E+02  0.1041179E+02  0.3006554E+03
Ar 1270  0.3515793E+02  0.1925309E+02  0.1003640E+02  0.2979338E+03
Ar 1271  0.3625153E+02  0.1569298E+02  0.1342233E+02  0.1884089E+03
Ar 1272  0.3251734E+02  0.1901209E+02  0.1284270E+02  0.1198158E+03
Ar 1273  0.3233697E+02  0.1587907E+02  0.1591600E+02  0.3044874E+02
Ar 1274  0.3481876E+02  0.1778443E+02  0.1560252E+02  0.1710146E+03
Ar 1275  0.3518184E+02  0.1574279E+02  0.1872713E+02  0.4614581E+03
Ar 1276  0.3286015E+02  0.1795689E+02  0.1877952E+02  0.1512534E+03
Ar 1277  0.3223405E+02  0.1568779E+02  0.2186922E+02  0.6181859E+02
Ar 1278  0.3541088E+02  0.1904888E+02  0.2074787E+02  0.6830588E+03
Ar 1279  0.3533187E+02  0.1564947E+02  0.2532963E+02  0.6649154E+02
Ar 1280  0.3248872E+02  0.1862370E+02  0.2375291E+02  0.2313636E+03
Ar 1281  0.3174143E+02  0.1636994E+02  0.2730614E+02  0.3962481E+03
Ar 1282  0.3497822E+02  0.1943182E+02  0.2711539E+02  0.4507079E+03
Ar 1283  0.3454372E+02  0.1607118E+02  0.2973866E+02  0.5249104E+03
Ar 1284  0.3276640E+02  0.1912494E+02  0.2974178E+02  0.1691235E+03
Ar 1285  0.3280309E+02  0.1639660E+02  0.3281005E+02  0.4395517E+03
Ar 1286  0.3601169E+02  0.1925242E+02  0.3244489E+02  0.2344658E+03
Ar 1287  0.3493544E+02  0.1605082E+02  0.3547125E+02  0.4104795E+03
Ar 1288  0.3203204E+02  0.1878938E+02  0.3574647E+02  0.1480333E+03
Ar 1289  0.3250213E+02  0.2197357E+02  0.1072813E+00  0.2109910E+03
Ar 1290  0.3547527E+02  0.2419939E+02  0.3034233E+00  0.2576310E+03
Ar 1291  0.3504400E+02  0.2152405E+02  0.2330458E+01  0.3943168E+03
Ar 1292  0.3205856E+02  0.2392358E+02  0.2572710E+01  0.7819231E+03
Ar 1293  0.3277683E+02  0.2151149E+02  0.5083638E+01  0.3246563E+03
Ar 1294  0.3540757E+02  0.2452756E+02  0.5683458E+01  0.4034378E+03
Ar 1295  0.3497068E+02  0.2146605E+02  0.7505216E+01  0.2977461E+03
Ar 1296  0.3249800E+02  0.2416131E+02  0.7897384E+01  0.1336637E+03
Ar 1297  0.3245683E+02  0.2131005E+02  0.1058449E+02  0.1876304E+03
Ar 1298  0.3516016E+02  0.2382657E+02  0.1032757E+02  0.2336954E+03
Ar 1299  0.3510417E+02  0.2148209E+02  0.1292524E+02  0.7796141E+03
Ar 1300  0.3271268E+02  0.2352909E+02  0.1330821E+02  0.6407618E+03
Ar 1301  0.3249143E+02  0.2033124E+02  0.1611935E+02  0.4227552E+03
Ar 1302  0.3565401E+02  0.2369268E+02  0.1625172E+02  0.3188826E+02
Ar 1303  0.3461254E+02  0.2177275E+02  0.1909596E+02  0.2639783E+03
Ar 1304  0.3232271E+02  0.2432533E+02  0.1850487E+02  0.4061599E+03
Ar 1305  0.3191258E+02  0.2214402E+02  0.2160236E+02  0.7293417E+03
Ar 1306  0.3564604E+02  0.2419441E+02  0.2221011E+02  0.2422153E+03
Ar 1307  0.3478456E+02  0.2132962E+02  0.2407033E+02  0.5461523E+03
Ar 1308  0.3223605E+02  0.2449304E+02  0.2400136E+02  0.1881056E+03
Ar 1309  0.3241995E+02  0.2235248E+02  0.2744636E+02  0.3618417E+03
Ar 1310  0.3554789E+02  0.2382247E+02  0.2670704E+02  0.3844445E+03
Ar 1311  0.3547462E+02  0.2203330E+02  0.2986304E+02  0.3674244E+02
Ar 1312  0.3225342E+02  0.2488291E+02  0.3003220E+02  0.1143086E+03
Ar 1313  0.3297875E+02  0.2160051E+02  0.3214125E+02  0.2526376E+03
Ar 1314  0.3507214E+02  0.2497122E+02  0.3239733E+02  0.1411496E+03
Ar 1315  0.3545156E+02  0.2190728E+02  0.3496816E+02  0.5682961E+01
Ar 1316  0.3250321E+02  0.2465505E+02  0.3506111E+02  0.3139013E+03
Ar 1317  0.3273897E+02  0.2693410E+02  0.2548862E+00  0.6192605E+02
Ar 1318  0.3516097E+02  0.2950001E+02  0.5787323E+00  0.2802251E+03
Ar 1319  0.3538297E+02  0.2676953E+02  0.2961906E+01  0.5996844E+02
Ar 1320  0.3230243E+02  0.2932524E+02  0.2749537E+01  0.1134701E+02
Ar 1321  0.3226612E+02  0.2663199E+02  0.5408815E+01  0.2677082E+03
Ar 1322  0.3444888E+02  0.2933237E+02  0.5873763E+01  0.3464020E+03
Ar 1323  0.3490936E+02  0.2674580E+02  0.8179791E+01  0.1582761E+03
Ar 1324  0.3192761E+02  0.2947823E+02  0.9414402E+01  0.1091536E+03
Ar 1325  0.3250508E+02  0.2616281E+02  0.1070638E+02  0.3312683E+03
Ar 1326  0.3500432E+02  0.2975102E+02  0.1117231E+02  0.1863535E+03
Ar 1327  0.3506416E+02  0.2647532E+02  0.1368831E+02  0.2024590E+03
Ar 1328  0.3211590E+02  0.2936983E+02  0.1349528E+02  0.8170387E+02
Ar 1329  0.3247197E+02  0.2668057E+02  0.1605655E+02  0.7920828E+02
Ar 1330  0.3449871E+02  0.2974627E+02  0.1602713E+02  0.1505026E+03
Ar 1331  0.3442614E+02  0.2722783E+02  0.1886063E+02  0.1568288E+03
Ar 1332  0.3039276E+02  0.2939772E+02  0.1956040E+02  0.2769543E+03
Ar 1333  0.3212800E+02  0.2683613E+02  0.2169823E+02  0.5564793E+02
Ar 1334  0.3500112E+02  0.2939910E+02  0.2171927E+02  0.4999931E+03
Ar 1335  0.3512034E+02  0.2672993E+02  0.2434797E+02  0.3651327E+02
Ar 1336  0.3222784E+02  0.2933258E+02  0.2421989E+02  0.3563389E+03
Ar 1337  0.3255372E+02  0.2659507E+02  0.2711833E+02  0.1217879E+03
Ar 1338  0.3505218E+02  0.2908893E+02  0.2694412E+02  0.1393707E+03
Ar 1339  0.3533925E+02  0.2644774E+02  0.2927414E+02  0.3309363E+03
Ar 1340  0.3222413E+02  0.2942158E+02  0.2948744E+02  0.5977736E+03
Ar 1341  0.3209006E+02  0.2737311E+02  0.3275502E+02  0.1502774E+03
Ar 1342  0.3502360E+02  0.2948933E+02  0.3204829E+02  0.4310555E+03
Ar 1343  0.3495140E+02  0.2684393E+02  0.3541632E+02  0.1200977E+03
Ar 1344  0.3232714E+02  0.2928006E+02  0.3565655E+02  0.1112317E+03
Ar 1345  0.2916068E+02  0.3247647E+02  0.3550743E+02  0.3299715E+03
Ar 1346  0.3733798E+02  0.3511684E+02  0.3461509E+01  0.2061134E+02
Ar 1347  0.3502898E+02  0.3251413E+02  0.2814849E+01  0.1222631E+03
Ar 1348  0.3207153E+02  0.3473793E+02  0.3139772E+01  0.4972392E+03
Ar 1349  0.3219055E+02  0.3178514E+02  0.4933979E+01  0.1552004E+03
Ar 1350  0.3470920E+02  0.3519250E+02  0.5899298E+01  0.4410580E+03
Ar 1351  0.3464110E+02  0.3235752E+02  0.7438630E+01  0.8129198E+02
Ar 1352  0.3174663E+02  0.3444914E+02  0.7825946E+01  0.2966076E+02
Ar 1353  0.3218505E+02  0.3286251E+02  0.1078852E+02  0.3749079E+03
Ar 1354  0.3568633E+02  0.3433196E+02  0.1030635E+02  0.1292038E+03
Ar 1355  0.3471378E+02  0.3221079E+02  0.1317903E+02  0.3599401E+03
Ar 1356  0.3232917E+02  0.3533009E+02  0.1373542E+02  0.4995493E+03
Ar 1357  0.3223561E+02  0.3244655E+02  0.1611084E+02  0.7789401E+02
Ar 1358  0.3515943E+02  0.3506432E+02  0.1579629E+02  0.1075723E+04
Ar 1359  0.3403214E+02  0.3226921E+02  0.1911575E+02  0.7777268E+02
Ar 1360  0.3181310E+02  0.3503768E+02  0.1843790E+02  0.3805321E+03
Ar 1361  0.3210995E+02  0.3186955E+02  0.2183384E+02  0.3652540E+03
Ar 1362  0.3426824E+02  0.3495950E+02  0.2167588E+02  0.4224709E+03
Ar 1363  0.3475053E+02  0.3201316E+02  0.2422892E+02  0.1042587E+04
Ar 1364  0.3206097E+02  0.3515123E+02  0.2423685E+02  0.3257649E+01
Ar 1365  0.3214421E+02  0.3175055E+02  0.2672874E+02  0.1048858E+03
Ar 1366  0.3481838E+02  0.3452405E+02  0.2679980E+02  0.4847819E+03
Ar 1367  0.3491401E+02  0.3203591E+02  0.2925278E+02  0.3286844E+03
Ar 1368  0.3226934E+02  0.3428785E+02  0.2927323E+02  0.4919933E+03
Ar 1369  0.3190592E+02  0.3201688E+02  0.6924221E+00  0.1463999E+03
Ar 1370  0.3464889E+02  0.3439025E+02  0.3190765E+02  0.4268373E+03
Ar 1371  0.3522267E+02  0.3190733E+02  0.3443041E+02  0.5000039E+03
Ar 1372  0.3248534E+02  0.3425457E+02  0.3632598E+02  0.2374935E+03
