        1372
Lattice="  0.3778015E+02  0.0000000E+00  0.0000000E+00  0.0000000E+00  0.3778015E+02  0.0000000E+00  0.0000000E+00  0.0000000E+00  0.3778015E+02" Properties=species:S:1:id:I:1:pos:R:3:tempK:R:1
Ar    1  0.9980193E-01  0.9980193E-01  0.9980193E-01  0.6298480E+03
Ar    2  0.2871356E+01  0.2871356E+01  0.3757792E+02  0.1754196E+03
Ar    3  0.2871356E+01  0.3757792E+02  0.2871356E+01  0.1754196E+03
Ar    4  0.3757792E+02  0.2871356E+01  0.2871356E+01  0.1754196E+03
Ar    5  0.1615787E-01  0.1615787E-01  0.5918458E+01  0.7175352E+02
Ar    6  0.2589418E+01  0.2589418E+01  0.5800881E+01  0.1182358E+03
Ar    7  0.2587156E+01  0.3756681E+02  0.8292757E+01  0.2001244E+02
Ar    8  0.3756681E+02  0.2587156E+01  0.8292757E+01  0.2001244E+02
Ar    9  0.3767773E+02  0.3767773E+02  0.1078861E+02  0.1032172E+03
Ar   10  0.2632864E+01  0.2632864E+01  0.1121511E+02  0.1050391E+03
Ar   11  0.2810323E+01  0.4522496E-01  0.1362652E+02  0.1870436E+03
Ar   12  0.4522496E-01  0.2810323E+01  0.1362652E+02  0.1870436E+03
Ar   13  0.6161313E-01  0.6161313E-01  0.1617460E+02  0.7478167E+00
Ar   14  0.2822443E+01  0.2822443E+01  0.1608668E+02  0.8730197E+02
Ar   15  0.2586175E+01  0.3771539E+02  0.1894385E+02  0.4230461E+02
Ar   16  0.3771539E+02  0.2586175E+01  0.1894385E+02  0.4230461E+02
Ar   17  0.2245963E-01  0.2245963E-01  0.2124707E+02  0.7507808E+02
Ar   18  0.2750690E+01  0.2750690E+01  0.2173819E+02  0.3092769E+03
Ar   19  0.2511154E+01  0.3772641E+02  0.2429188E+02  0.6759760E+01
Ar   20  0.3772641E+02  0.2511154E+01  0.2429188E+02  0.6759760E+01
Ar   21  0.3771719E+02  0.3771719E+02  0.2684542E+02  0.3676560E+02
Ar   22  0.2493569E+01  0.2493569E+01  0.2716976E+02  0.5938565E+02
Ar   23  0.2562210E+01  0.3745262E+02  0.2970311E+02  0.1144043E+03
Ar   24  0.3745262E+02  0.2562210E+01  0.2970311E+02  0.1144043E+03
Ar   25  0.3760913E+02  0.3760913E+02  0.3198645E+02  0.3184276E+02
Ar   26  0.2590781E+01  0.2590781E+01  0.3266319E+02  0.6449355E+02
Ar   27  0.2579289E+01  0.3770179E+02  0.3502020E+02  0.2106149E+03
Ar   28  0.3770179E+02  0.2579289E+01  0.3502020E+02  0.2106149E+03
Ar   29  0.1615787E-01  0.5918458E+01  0.1615787E-01  0.7175352E+02
Ar   30  0.2587156E+01  0.8292757E+01  0.3756681E+02  0.2001244E+02
Ar   31  0.2589418E+01  0.5800881E+01  0.2589418E+01  0.1182358E+03
Ar   32  0.3756681E+02  0.8292757E+01  0.2587156E+01  0.2001244E+02
Ar   33  0.3720648E+02  0.5408910E+01  0.5408910E+01  0.3361116E+02
Ar   34  0.2832212E+01  0.8475066E+01  0.5363739E+01  0.1540931E+03
Ar   35  0.2832212E+01  0.5363739E+01  0.8475066E+01  0.1540931E+03
Ar   36  0.2913937E+00  0.8017667E+01  0.8017667E+01  0.8594613E+02
Ar   37  0.3752782E+02  0.5455736E+01  0.1092746E+02  0.2845920E+02
Ar   38  0.2532822E+01  0.8326957E+01  0.1114853E+02  0.1498017E+03
Ar   39  0.2526607E+01  0.5409503E+01  0.1348033E+02  0.2527609E+02
Ar   40  0.3772879E+02  0.8118376E+01  0.1383578E+02  0.6212711E+02
Ar   41  0.3739029E+02  0.5487673E+01  0.1621481E+02  0.4803226E+02
Ar   42  0.2820675E+01  0.8414147E+01  0.1615185E+02  0.4558589E+02
Ar   43  0.2605588E+01  0.5477230E+01  0.1860251E+02  0.2763815E+03
Ar   44  0.1931323E+00  0.8125144E+01  0.1890632E+02  0.1114788E+02
Ar   45  0.3772723E+02  0.5671761E+01  0.2128883E+02  0.5607439E+02
Ar   46  0.2582593E+01  0.8036142E+01  0.2158559E+02  0.6583472E+02
Ar   47  0.2657499E+01  0.5245975E+01  0.2393763E+02  0.7745449E+02
Ar   48  0.9265415E-03  0.7891201E+01  0.2462397E+02  0.8198188E+02
Ar   49  0.3764942E+02  0.5345911E+01  0.2705810E+02  0.6584969E+02
Ar   50  0.2610385E+01  0.8118495E+01  0.2698454E+02  0.8592900E+02
Ar   51  0.2731555E+01  0.5254690E+01  0.2972729E+02  0.3441532E+02
Ar   52  0.1045643E+00  0.8150937E+01  0.2964434E+02  0.1362511E+03
Ar   53  0.5169312E-01  0.5254393E+01  0.3207676E+02  0.3006381E+02
Ar   54  0.2822698E+01  0.8056378E+01  0.3191591E+02  0.1212672E+03
Ar   55  0.2652786E+01  0.5715136E+01  0.3495056E+02  0.1833593E+03
Ar   56  0.1236878E+00  0.8142607E+01  0.3515655E+02  0.1038599E+03
Ar   57  0.3767773E+02  0.1078861E+02  0.3767773E+02  0.1032172E+03
Ar   58  0.2810323E+01  0.1362652E+02  0.4522496E-01  0.1870436E+03
Ar   59  0.2632864E+01  0.1121511E+02  0.2632864E+01  0.1050391E+03
Ar   60  0.4522496E-01  0.1362652E+02  0.2810323E+01  0.1870436E+03
Ar   61  0.3752782E+02  0.1092746E+02  0.5455736E+01  0.2845920E+02
Ar   62  0.2526607E+01  0.1348033E+02  0.5409503E+01  0.2527609E+02
Ar   63  0.2532822E+01  0.1114853E+02  0.8326957E+01  0.1498017E+03
Ar   64  0.3772879E+02  0.1383578E+02  0.8118376E+01  0.6212711E+02
Ar   65  0.1626538E+00  0.1086873E+02  0.1086873E+02  0.1212082E+02
Ar   66  0.3308862E+01  0.1378581E+02  0.1087835E+02  0.1500167E+03
Ar   67  0.3308862E+01  0.1087835E+02  0.1378581E+02  0.1500167E+03
Ar   68  0.3748719E+02  0.1344951E+02  0.1344951E+02  0.1850505E+03
Ar   69  0.3753986E+02  0.1085790E+02  0.1623577E+02  0.1707127E+03
Ar   70  0.2315924E+01  0.1374115E+02  0.1653898E+02  0.7739101E+02
Ar   71  0.2527710E+01  0.1112634E+02  0.1857357E+02  0.9259489E+02
Ar   72  0.1640419E-02  0.1363205E+02  0.1880837E+02  0.3058163E+02
Ar   73  0.1441318E+00  0.1062562E+02  0.2151885E+02  0.9825880E+01
Ar   74  0.2555556E+01  0.1352031E+02  0.2149686E+02  0.4073047E+01
Ar   75  0.2676689E+01  0.1094712E+02  0.2453541E+02  0.1001332E+03
Ar   76  0.1558126E-01  0.1339708E+02  0.2441243E+02  0.2736819E+02
Ar   77  0.3767322E+02  0.1106129E+02  0.2735632E+02  0.4573168E+02
Ar   78  0.2663642E+01  0.1377898E+02  0.2693559E+02  0.1832293E+03
Ar   79  0.2667313E+01  0.1088182E+02  0.2981840E+02  0.8659355E+02
Ar   80  0.3752881E+02  0.1360306E+02  0.2987286E+02  0.3204274E+02
Ar   81  0.1307947E+00  0.1058241E+02  0.3228263E+02  0.6995100E+02
Ar   82  0.2770599E+01  0.1386540E+02  0.3188162E+02  0.1617975E+03
Ar   83  0.2833768E+01  0.1099451E+02  0.3471041E+02  0.2833882E+02
Ar   84  0.6137355E-01  0.1366705E+02  0.3521664E+02  0.3179173E+02
Ar   85  0.6161313E-01  0.1617460E+02  0.6161313E-01  0.7478167E+00
Ar   86  0.2586175E+01  0.1894385E+02  0.3771539E+02  0.4230461E+02
Ar   87  0.2822443E+01  0.1608668E+02  0.2822443E+01  0.8730197E+02
Ar   88  0.3771539E+02  0.1894385E+02  0.2586175E+01  0.4230461E+02
Ar   89  0.3739029E+02  0.1621481E+02  0.5487673E+01  0.4803226E+02
Ar   90  0.2605588E+01  0.1860251E+02  0.5477230E+01  0.2763815E+03
Ar   91  0.2820675E+01  0.1615185E+02  0.8414147E+01  0.4558589E+02
Ar   92  0.1931323E+00  0.1890632E+02  0.8125144E+01  0.1114788E+02
Ar   93  0.3753986E+02  0.1623577E+02  0.1085790E+02  0.1707127E+03
Ar   94  0.2527710E+01  0.1857357E+02  0.1112634E+02  0.9259489E+02
Ar   95  0.2315924E+01  0.1653898E+02  0.1374115E+02  0.7739101E+02
Ar   96  0.1640419E-02  0.1880837E+02  0.1363205E+02  0.3058163E+02
Ar   97  0.3769659E+02  0.1671147E+02  0.1671147E+02  0.1164879E+02
Ar   98  0.2669533E+01  0.1918110E+02  0.1631067E+02  0.9015212E+02
Ar   99  0.2669533E+01  0.1631067E+02  0.1918110E+02  0.9015212E+02
Ar  100  0.2328457E+00  0.1910918E+02  0.1910918E+02  0.1029748E+03
Ar  101  0.1784189E+00  0.1619816E+02  0.2189290E+02  0.5325508E+02
Ar  102  0.2963224E+01  0.1932905E+02  0.2185114E+02  0.1460760E+03
Ar  103  0.2668986E+01  0.1651569E+02  0.2440783E+02  0.2378226E+03
Ar  104  0.4229887E-01  0.1896127E+02  0.2425799E+02  0.7078989E+02
Ar  105  0.3748201E+02  0.1612389E+02  0.2668249E+02  0.3366074E+02
Ar  106  0.2579171E+01  0.1901668E+02  0.2698580E+02  0.1572790E+03
Ar  107  0.2375543E+01  0.1645616E+02  0.2963437E+02  0.1342145E+03
Ar  108  0.3772920E+02  0.1912003E+02  0.2966208E+02  0.8751355E+01
Ar  109  0.3774660E+02  0.1608005E+02  0.3233055E+02  0.4483851E+02
Ar  110  0.2580391E+01  0.1898157E+02  0.3223138E+02  0.5992445E+02
Ar  111  0.2825710E+01  0.1623682E+02  0.3477546E+02  0.8695526E+01
Ar  112  0.2586029E-01  0.1851099E+02  0.3500030E+02  0.4655806E+02
Ar  113  0.2245963E-01  0.2124707E+02  0.2245963E-01  0.7507808E+02
Ar  114  0.2511154E+01  0.2429188E+02  0.3772641E+02  0.6759760E+01
Ar  115  0.2750690E+01  0.2173819E+02  0.2750690E+01  0.3092769E+03
Ar  116  0.3772641E+02  0.2429188E+02  0.2511154E+01  0.6759760E+01
Ar  117  0.3772723E+02  0.2128883E+02  0.5671761E+01  0.5607439E+02
Ar  118  0.2657499E+01  0.2393763E+02  0.5245975E+01  0.7745449E+02
Ar  119  0.2582593E+01  0.2158559E+02  0.8036142E+01  0.6583472E+02
Ar  120  0.9265415E-03  0.2462397E+02  0.7891201E+01  0.8198188E+02
Ar  121  0.1441318E+00  0.2151885E+02  0.1062562E+02  0.9825880E+01
Ar  122  0.2676689E+01  0.2453541E+02  0.1094712E+02  0.1001332E+03
Ar  123  0.2555556E+01  0.2149686E+02  0.1352031E+02  0.4073047E+01
Ar  124  0.1558126E-01  0.2441243E+02  0.1339708E+02  0.2736819E+02
Ar  125  0.1784189E+00  0.2189290E+02  0.1619816E+02  0.5325508E+02
Ar  126  0.2668986E+01  0.2440783E+02  0.1651569E+02  0.2378226E+03
Ar  127  0.2963224E+01  0.2185114E+02  0.1932905E+02  0.1460760E+03
Ar  128  0.4229887E-01  0.2425799E+02  0.1896127E+02  0.7078989E+02
Ar  129  0.1250492E-01  0.2166235E+02  0.2166235E+02  0.5622252E+03
Ar  130  0.2597081E+01  0.2429305E+02  0.2191104E+02  0.7436118E+02
Ar  131  0.2597081E+01  0.2191104E+02  0.2429305E+02  0.7436118E+02
Ar  132  0.2471522E+00  0.2436553E+02  0.2436553E+02  0.2982570E+02
Ar  133  0.3928049E-02  0.2155872E+02  0.2675043E+02  0.2969572E+01
Ar  134  0.2757105E+01  0.2431166E+02  0.2685152E+02  0.1408858E+03
Ar  135  0.2734267E+01  0.2172325E+02  0.2928412E+02  0.2368129E+03
Ar  136  0.3768160E+02  0.2420028E+02  0.2940193E+02  0.1186784E+02
Ar  137  0.1213243E+00  0.2158230E+02  0.3258012E+02  0.2552000E+02
Ar  138  0.2475578E+01  0.2445710E+02  0.3215797E+02  0.5860785E+01
Ar  139  0.2852458E+01  0.2125981E+02  0.3514170E+02  0.2723463E+02
Ar  140  0.3929016E-01  0.2434816E+02  0.3509657E+02  0.1197275E+02
Ar  141  0.3771719E+02  0.2684542E+02  0.3771719E+02  0.3676560E+02
Ar  142  0.2562210E+01  0.2970311E+02  0.3745262E+02  0.1144043E+03
Ar  143  0.2493569E+01  0.2716976E+02  0.2493569E+01  0.5938565E+02
Ar  144  0.3745262E+02  0.2970311E+02  0.2562210E+01  0.1144043E+03
Ar  145  0.3764942E+02  0.2705810E+02  0.5345911E+01  0.6584969E+02
Ar  146  0.2731555E+01  0.2972729E+02  0.5254690E+01  0.3441532E+02
Ar  147  0.2610385E+01  0.2698454E+02  0.8118495E+01  0.8592900E+02
Ar  148  0.1045643E+00  0.2964434E+02  0.8150937E+01  0.1362511E+03
Ar  149  0.3767322E+02  0.2735632E+02  0.1106129E+02  0.4573168E+02
Ar  150  0.2667313E+01  0.2981840E+02  0.1088182E+02  0.8659355E+02
Ar  151  0.2663642E+01  0.2693559E+02  0.1377898E+02  0.1832293E+03
Ar  152  0.3752881E+02  0.2987286E+02  0.1360306E+02  0.3204274E+02
Ar  153  0.3748201E+02  0.2668249E+02  0.1612389E+02  0.3366074E+02
Ar  154  0.2375543E+01  0.2963437E+02  0.1645616E+02  0.1342145E+03
Ar  155  0.2579171E+01  0.2698580E+02  0.1901668E+02  0.1572790E+03
Ar  156  0.3772920E+02  0.2966208E+02  0.1912003E+02  0.8751355E+01
Ar  157  0.3928049E-02  0.2675043E+02  0.2155872E+02  0.2969572E+01
Ar  158  0.2734267E+01  0.2928412E+02  0.2172325E+02  0.2368129E+03
Ar  159  0.2757105E+01  0.2685152E+02  0.2431166E+02  0.1408858E+03
Ar  160  0.3768160E+02  0.2940193E+02  0.2420028E+02  0.1186784E+02
Ar  161  0.3767234E+02  0.2674766E+02  0.2674766E+02  0.3407646E+03
Ar  162  0.2632791E+01  0.2926556E+02  0.2679513E+02  0.1292943E+03
Ar  163  0.2632791E+01  0.2679513E+02  0.2926556E+02  0.1292943E+03
Ar  164  0.3746750E+02  0.2934978E+02  0.2934978E+02  0.8381941E+02
Ar  165  0.8403229E-01  0.2721735E+02  0.3240612E+02  0.9214327E+02
Ar  166  0.2552537E+01  0.2964165E+02  0.3208045E+02  0.8909548E+02
Ar  167  0.2606281E+01  0.2719214E+02  0.3478542E+02  0.2947970E+03
Ar  168  0.3756888E+02  0.2969856E+02  0.3493804E+02  0.1166586E+02
Ar  169  0.3760913E+02  0.3198645E+02  0.3760913E+02  0.3184276E+02
Ar  170  0.2579289E+01  0.3502020E+02  0.3770179E+02  0.2106149E+03
Ar  171  0.2590781E+01  0.3266319E+02  0.2590781E+01  0.6449355E+02
Ar  172  0.3770179E+02  0.3502020E+02  0.2579289E+01  0.2106149E+03
Ar  173  0.5169312E-01  0.3207676E+02  0.5254393E+01  0.3006381E+02
Ar  174  0.2652786E+01  0.3495056E+02  0.5715136E+01  0.1833593E+03
Ar  175  0.2822698E+01  0.3191591E+02  0.8056378E+01  0.1212672E+03
Ar  176  0.1236878E+00  0.3515655E+02  0.8142607E+01  0.1038599E+03
Ar  177  0.1307947E+00  0.3228263E+02  0.1058241E+02  0.6995100E+02
Ar  178  0.2833768E+01  0.3471041E+02  0.1099451E+02  0.2833882E+02
Ar  179  0.2770599E+01  0.3188162E+02  0.1386540E+02  0.1617975E+03
Ar  180  0.6137355E-01  0.3521664E+02  0.1366705E+02  0.3179173E+02
Ar  181  0.3774660E+02  0.3233055E+02  0.1608005E+02  0.4483851E+02
Ar  182  0.2825710E+01  0.3477546E+02  0.1623682E+02  0.8695526E+01
Ar  183  0.2580391E+01  0.3223138E+02  0.1898157E+02  0.5992445E+02
Ar  184  0.2586029E-01  0.3500030E+02  0.1851099E+02  0.4655806E+02
Ar  185  0.1213243E+00  0.3258012E+02  0.2158230E+02  0.2552000E+02
Ar  186  0.2852458E+01  0.3514170E+02  0.2125981E+02  0.2723463E+02
Ar  187  0.2475578E+01  0.3215797E+02  0.2445710E+02  0.5860785E+01
Ar  188  0.3929016E-01  0.3509657E+02  0.2434816E+02  0.1197275E+02
Ar  189  0.8403229E-01  0.3240612E+02  0.2721735E+02  0.9214327E+02
Ar  190  0.2606281E+01  0.3478542E+02  0.2719214E+02  0.2947970E+03
Ar  191  0.2552537E+01  0.3208045E+02  0.2964165E+02  0.8909548E+02
Ar  192  0.3756888E+02  0.3493804E+02  0.2969856E+02  0.1166586E+02
Ar  193  0.2963740E-02  0.3250846E+02  0.3250846E+02  0.2796606E+03
Ar  194  0.3054372E+01  0.3521017E+02  0.3236434E+02  0.1567181E+02
Ar  195  0.3054372E+01  0.3236434E+02  0.3521017E+02  0.1567181E+02
Ar  196  0.2100378E+00  0.3518738E+02  0.3518738E+02  0.7307621E+02
Ar  197  0.5918458E+01  0.1615787E-01  0.1615787E-01  0.7175352E+02
Ar  198  0.8292757E+01  0.2587156E+01  0.3756681E+02  0.2001244E+02
Ar  199  0.8292757E+01  0.3756681E+02  0.2587156E+01  0.2001244E+02
Ar  200  0.5800881E+01  0.2589418E+01  0.2589418E+01  0.1182358E+03
Ar  201  0.5408910E+01  0.3720648E+02  0.5408910E+01  0.3361116E+02
Ar  202  0.8475066E+01  0.2832212E+01  0.5363739E+01  0.1540931E+03
Ar  203  0.8017667E+01  0.2913937E+00  0.8017667E+01  0.8594613E+02
Ar  204  0.5363739E+01  0.2832212E+01  0.8475066E+01  0.1540931E+03
Ar  205  0.5455736E+01  0.3752782E+02  0.1092746E+02  0.2845920E+02
Ar  206  0.8326957E+01  0.2532822E+01  0.1114853E+02  0.1498017E+03
Ar  207  0.8118376E+01  0.3772879E+02  0.1383578E+02  0.6212711E+02
Ar  208  0.5409503E+01  0.2526607E+01  0.1348033E+02  0.2527609E+02
Ar  209  0.5487673E+01  0.3739029E+02  0.1621481E+02  0.4803226E+02
Ar  210  0.8414147E+01  0.2820675E+01  0.1615185E+02  0.4558589E+02
Ar  211  0.8125144E+01  0.1931323E+00  0.1890632E+02  0.1114788E+02
Ar  212  0.5477230E+01  0.2605588E+01  0.1860251E+02  0.2763815E+03
Ar  213  0.5671761E+01  0.3772723E+02  0.2128883E+02  0.5607439E+02
Ar  214  0.8036142E+01  0.2582593E+01  0.2158559E+02  0.6583472E+02
Ar  215  0.7891201E+01  0.9265415E-03  0.2462397E+02  0.8198188E+02
Ar  216  0.5245975E+01  0.2657499E+01  0.2393763E+02  0.7745449E+02
Ar  217  0.5345911E+01  0.3764942E+02  0.2705810E+02  0.6584969E+02
Ar  218  0.8118495E+01  0.2610385E+01  0.2698454E+02  0.8592900E+02
Ar  219  0.8150937E+01  0.1045643E+00  0.2964434E+02  0.1362511E+03
Ar  220  0.5254690E+01  0.2731555E+01  0.2972729E+02  0.3441532E+02
Ar  221  0.5254393E+01  0.5169312E-01  0.3207676E+02  0.3006381E+02
Ar  222  0.8056378E+01  0.2822698E+01  0.3191591E+02  0.1212672E+03
Ar  223  0.8142607E+01  0.1236878E+00  0.3515655E+02  0.1038599E+03
Ar  224  0.5715136E+01  0.2652786E+01  0.3495056E+02  0.1833593E+03
Ar  225  0.5408910E+01  0.5408910E+01  0.3720648E+02  0.3361116E+02
Ar  226  0.8017667E+01  0.8017667E+01  0.2913937E+00  0.8594613E+02
Ar  227  0.8475066E+01  0.5363739E+01  0.2832212E+01  0.1540931E+03
Ar  228  0.5363739E+01  0.8475066E+01  0.2832212E+01  0.1540931E+03
Ar  229  0.5293286E+01  0.5293286E+01  0.5293286E+01  0.4813751E+02
Ar  230  0.8152849E+01  0.8152849E+01  0.5353745E+01  0.1942866E+03
Ar  231  0.8152849E+01  0.5353745E+01  0.8152849E+01  0.1942866E+03
Ar  232  0.5353745E+01  0.8152849E+01  0.8152849E+01  0.1942866E+03
Ar  233  0.5448669E+01  0.5448669E+01  0.1095764E+02  0.6348789E+02
Ar  234  0.7878760E+01  0.7878760E+01  0.1056898E+02  0.1875759E+02
Ar  235  0.7936188E+01  0.5306223E+01  0.1373457E+02  0.5911324E+01
Ar  236  0.5306223E+01  0.7936188E+01  0.1373457E+02  0.5911324E+01
Ar  237  0.5320457E+01  0.5320457E+01  0.1620271E+02  0.3377872E+02
Ar  238  0.8057383E+01  0.8057383E+01  0.1636551E+02  0.3090272E+03
Ar  239  0.8198525E+01  0.5431388E+01  0.1893192E+02  0.3035206E+02
Ar  240  0.5431388E+01  0.8198525E+01  0.1893192E+02  0.3035206E+02
Ar  241  0.5150176E+01  0.5150176E+01  0.2161657E+02  0.6877369E+02
Ar  242  0.7913842E+01  0.7913842E+01  0.2138164E+02  0.2761338E+02
Ar  243  0.8001443E+01  0.5485898E+01  0.2438503E+02  0.2913952E+02
Ar  244  0.5485898E+01  0.8001443E+01  0.2438503E+02  0.2913952E+02
Ar  245  0.5511148E+01  0.5511148E+01  0.2703879E+02  0.1689008E+03
Ar  246  0.8158181E+01  0.8158181E+01  0.2689994E+02  0.1317691E+03
Ar  247  0.8250799E+01  0.5428804E+01  0.2954798E+02  0.1608786E+02
Ar  248  0.5428804E+01  0.8250799E+01  0.2954798E+02  0.1608786E+02
Ar  249  0.5614346E+01  0.5614346E+01  0.3266566E+02  0.6314546E+02
Ar  250  0.8286772E+01  0.8286772E+01  0.3191892E+02  0.6977489E+02
Ar  251  0.8618025E+01  0.5809051E+01  0.3499789E+02  0.2428018E+02
Ar  252  0.5809051E+01  0.8618025E+01  0.3499789E+02  0.2428018E+02
Ar  253  0.5455736E+01  0.1092746E+02  0.3752782E+02  0.2845920E+02
Ar  254  0.8118376E+01  0.1383578E+02  0.3772879E+02  0.6212711E+02
Ar  255  0.8326957E+01  0.1114853E+02  0.2532822E+01  0.1498017E+03
Ar  256  0.5409503E+01  0.1348033E+02  0.2526607E+01  0.2527609E+02
Ar  257  0.5448669E+01  0.1095764E+02  0.5448669E+01  0.6348789E+02
Ar  258  0.7936188E+01  0.1373457E+02  0.5306223E+01  0.5911324E+01
Ar  259  0.7878760E+01  0.1056898E+02  0.7878760E+01  0.1875759E+02
Ar  260  0.5306223E+01  0.1373457E+02  0.7936188E+01  0.5911324E+01
Ar  261  0.5285006E+01  0.1074779E+02  0.1074779E+02  0.1708430E+02
Ar  262  0.7742004E+01  0.1345305E+02  0.1062313E+02  0.1417952E+03
Ar  263  0.7742004E+01  0.1062313E+02  0.1345305E+02  0.1417952E+03
Ar  264  0.5220150E+01  0.1399846E+02  0.1399846E+02  0.8482599E+02
Ar  265  0.5448928E+01  0.1094340E+02  0.1629784E+02  0.3580042E+01
Ar  266  0.7965663E+01  0.1359529E+02  0.1614920E+02  0.1364801E+02
Ar  267  0.7969929E+01  0.1066444E+02  0.1867721E+02  0.3249115E+02
Ar  268  0.5336055E+01  0.1384757E+02  0.1903644E+02  0.1647539E+03
Ar  269  0.5300609E+01  0.1085704E+02  0.2119113E+02  0.2525342E+02
Ar  270  0.7984168E+01  0.1333044E+02  0.2184376E+02  0.3000491E+02
Ar  271  0.7930403E+01  0.1075468E+02  0.2439967E+02  0.6039348E+02
Ar  272  0.5555233E+01  0.1367566E+02  0.2460938E+02  0.1410329E+02
Ar  273  0.5619940E+01  0.1106564E+02  0.2747734E+02  0.1259929E+03
Ar  274  0.8162783E+01  0.1353653E+02  0.2720232E+02  0.2479643E+02
Ar  275  0.8389950E+01  0.1090230E+02  0.2943162E+02  0.3347667E+02
Ar  276  0.5465878E+01  0.1399640E+02  0.2946029E+02  0.1139087E+03
Ar  277  0.5219862E+01  0.1067843E+02  0.3202244E+02  0.1057847E+03
Ar  278  0.7839747E+01  0.1337312E+02  0.3238959E+02  0.1087024E+03
Ar  279  0.8038443E+01  0.1114168E+02  0.3517424E+02  0.4610639E+02
Ar  280  0.5252992E+01  0.1360699E+02  0.3498054E+02  0.2206970E+03
Ar  281  0.5487673E+01  0.1621481E+02  0.3739029E+02  0.4803226E+02
Ar  282  0.8125144E+01  0.1890632E+02  0.1931323E+00  0.1114788E+02
Ar  283  0.8414147E+01  0.1615185E+02  0.2820675E+01  0.4558589E+02
Ar  284  0.5477230E+01  0.1860251E+02  0.2605588E+01  0.2763815E+03
Ar  285  0.5320457E+01  0.1620271E+02  0.5320457E+01  0.3377872E+02
Ar  286  0.8198525E+01  0.1893192E+02  0.5431388E+01  0.3035206E+02
Ar  287  0.8057383E+01  0.1636551E+02  0.8057383E+01  0.3090272E+03
Ar  288  0.5431388E+01  0.1893192E+02  0.8198525E+01  0.3035206E+02
Ar  289  0.5448928E+01  0.1629784E+02  0.1094340E+02  0.3580042E+01
Ar  290  0.7969929E+01  0.1867721E+02  0.1066444E+02  0.3249115E+02
Ar  291  0.7965663E+01  0.1614920E+02  0.1359529E+02  0.1364801E+02
Ar  292  0.5336055E+01  0.1903644E+02  0.1384757E+02  0.1647539E+03
Ar  293  0.5790338E+01  0.1642034E+02  0.1642034E+02  0.2812565E+02
Ar  294  0.8067270E+01  0.1930448E+02  0.1600652E+02  0.9896963E+02
Ar  295  0.8067270E+01  0.1600652E+02  0.1930448E+02  0.9896963E+02
Ar  296  0.5379518E+01  0.1884925E+02  0.1884925E+02  0.7961479E+02
Ar  297  0.5458561E+01  0.1667047E+02  0.2163263E+02  0.2841662E+03
Ar  298  0.8307137E+01  0.1916143E+02  0.2157773E+02  0.2538910E+02
Ar  299  0.8052050E+01  0.1639697E+02  0.2394604E+02  0.7427418E+02
Ar  300  0.5066811E+01  0.1920911E+02  0.2448145E+02  0.2723077E+03
Ar  301  0.5452589E+01  0.1653290E+02  0.2688640E+02  0.1775101E+03
Ar  302  0.7900133E+01  0.1907440E+02  0.2690268E+02  0.6037860E+02
Ar  303  0.8246971E+01  0.1648445E+02  0.2961935E+02  0.6527579E+02
Ar  304  0.5353359E+01  0.1907143E+02  0.2950447E+02  0.2084969E+03
Ar  305  0.5618723E+01  0.1646767E+02  0.3222412E+02  0.3037215E+02
Ar  306  0.8058386E+01  0.1886831E+02  0.3238646E+02  0.4968728E+02
Ar  307  0.8189386E+01  0.1621899E+02  0.3492017E+02  0.7072166E+02
Ar  308  0.5519110E+01  0.1864608E+02  0.3487871E+02  0.2623169E+02
Ar  309  0.5671761E+01  0.2128883E+02  0.3772723E+02  0.5607439E+02
Ar  310  0.7891201E+01  0.2462397E+02  0.9265415E-03  0.8198188E+02
Ar  311  0.8036142E+01  0.2158559E+02  0.2582593E+01  0.6583472E+02
Ar  312  0.5245975E+01  0.2393763E+02  0.2657499E+01  0.7745449E+02
Ar  313  0.5150176E+01  0.2161657E+02  0.5150176E+01  0.6877369E+02
Ar  314  0.8001443E+01  0.2438503E+02  0.5485898E+01  0.2913952E+02
Ar  315  0.7913842E+01  0.2138164E+02  0.7913842E+01  0.2761338E+02
Ar  316  0.5485898E+01  0.2438503E+02  0.8001443E+01  0.2913952E+02
Ar  317  0.5300609E+01  0.2119113E+02  0.1085704E+02  0.2525342E+02
Ar  318  0.7930403E+01  0.2439967E+02  0.1075468E+02  0.6039348E+02
Ar  319  0.7984168E+01  0.2184376E+02  0.1333044E+02  0.3000491E+02
Ar  320  0.5555233E+01  0.2460938E+02  0.1367566E+02  0.1410329E+02
Ar  321  0.5458561E+01  0.2163263E+02  0.1667047E+02  0.2841662E+03
Ar  322  0.8052050E+01  0.2394604E+02  0.1639697E+02  0.7427418E+02
Ar  323  0.8307137E+01  0.2157773E+02  0.1916143E+02  0.2538910E+02
Ar  324  0.5066811E+01  0.2448145E+02  0.1920911E+02  0.2723077E+03
Ar  325  0.5593410E+01  0.2179895E+02  0.2179895E+02  0.1335840E+02
Ar  326  0.7992778E+01  0.2441846E+02  0.2146789E+02  0.2719380E+03
Ar  327  0.7992778E+01  0.2146789E+02  0.2441846E+02  0.2719380E+03
Ar  328  0.5609420E+01  0.2419611E+02  0.2419611E+02  0.8761351E+01
Ar  329  0.5212641E+01  0.2181156E+02  0.2689599E+02  0.2490440E+02
Ar  330  0.8287218E+01  0.2447411E+02  0.2696124E+02  0.5902992E+02
Ar  331  0.7864664E+01  0.2196157E+02  0.2966332E+02  0.2857838E+02
Ar  332  0.5426057E+01  0.2437215E+02  0.2928713E+02  0.2235528E+03
Ar  333  0.5401577E+01  0.2148764E+02  0.3237609E+02  0.5611074E+02
Ar  334  0.7913182E+01  0.2430104E+02  0.3253860E+02  0.3459302E+02
Ar  335  0.8015515E+01  0.2147025E+02  0.3507780E+02  0.2840692E+01
Ar  336  0.5468767E+01  0.2436983E+02  0.3518490E+02  0.1835796E+02
Ar  337  0.5345911E+01  0.2705810E+02  0.3764942E+02  0.6584969E+02
Ar  338  0.8150937E+01  0.2964434E+02  0.1045643E+00  0.1362511E+03
Ar  339  0.8118495E+01  0.2698454E+02  0.2610385E+01  0.8592900E+02
Ar  340  0.5254690E+01  0.2972729E+02  0.2731555E+01  0.3441532E+02
Ar  341  0.5511148E+01  0.2703879E+02  0.5511148E+01  0.1689008E+03
Ar  342  0.8250799E+01  0.2954798E+02  0.5428804E+01  0.1608786E+02
Ar  343  0.8158181E+01  0.2689994E+02  0.8158181E+01  0.1317691E+03
Ar  344  0.5428804E+01  0.2954798E+02  0.8250799E+01  0.1608786E+02
Ar  345  0.5619940E+01  0.2747734E+02  0.1106564E+02  0.1259929E+03
Ar  346  0.8389950E+01  0.2943162E+02  0.1090230E+02  0.3347667E+02
Ar  347  0.8162783E+01  0.2720232E+02  0.1353653E+02  0.2479643E+02
Ar  348  0.5465878E+01  0.2946029E+02  0.1399640E+02  0.1139087E+03
Ar  349  0.5452589E+01  0.2688640E+02  0.1653290E+02  0.1775101E+03
Ar  350  0.8246971E+01  0.2961935E+02  0.1648445E+02  0.6527579E+02
Ar  351  0.7900133E+01  0.2690268E+02  0.1907440E+02  0.6037860E+02
Ar  352  0.5353359E+01  0.2950447E+02  0.1907143E+02  0.2084969E+03
Ar  353  0.5212641E+01  0.2689599E+02  0.2181156E+02  0.2490440E+02
Ar  354  0.7864664E+01  0.2966332E+02  0.2196157E+02  0.2857838E+02
Ar  355  0.8287218E+01  0.2696124E+02  0.2447411E+02  0.5902992E+02
Ar  356  0.5426057E+01  0.2928713E+02  0.2437215E+02  0.2235528E+03
Ar  357  0.5455439E+01  0.2687098E+02  0.2687098E+02  0.4070265E+02
Ar  358  0.8208965E+01  0.2981875E+02  0.2667275E+02  0.3432659E+02
Ar  359  0.8208965E+01  0.2667275E+02  0.2981875E+02  0.3432659E+02
Ar  360  0.5343872E+01  0.2948191E+02  0.2948191E+02  0.6483460E+02
Ar  361  0.5162941E+01  0.2692162E+02  0.3202671E+02  0.2103419E+03
Ar  362  0.8057342E+01  0.2962682E+02  0.3228143E+02  0.2060152E+02
Ar  363  0.8214143E+01  0.2742101E+02  0.3522613E+02  0.8985028E+02
Ar  364  0.5329573E+01  0.2968102E+02  0.3488542E+02  0.6687987E+02
Ar  365  0.5254393E+01  0.3207676E+02  0.5169312E-01  0.3006381E+02
Ar  366  0.8142607E+01  0.3515655E+02  0.1236878E+00  0.1038599E+03
Ar  367  0.8056378E+01  0.3191591E+02  0.2822698E+01  0.1212672E+03
Ar  368  0.5715136E+01  0.3495056E+02  0.2652786E+01  0.1833593E+03
Ar  369  0.5614346E+01  0.3266566E+02  0.5614346E+01  0.6314546E+02
Ar  370  0.8618025E+01  0.3499789E+02  0.5809051E+01  0.2428018E+02
Ar  371  0.8286772E+01  0.3191892E+02  0.8286772E+01  0.6977489E+02
Ar  372  0.5809051E+01  0.3499789E+02  0.8618025E+01  0.2428018E+02
Ar  373  0.5219862E+01  0.3202244E+02  0.1067843E+02  0.1057847E+03
Ar  374  0.8038443E+01  0.3517424E+02  0.1114168E+02  0.4610639E+02
Ar  375  0.7839747E+01  0.3238959E+02  0.1337312E+02  0.1087024E+03
Ar  376  0.5252992E+01  0.3498054E+02  0.1360699E+02  0.2206970E+03
Ar  377  0.5618723E+01  0.3222412E+02  0.1646767E+02  0.3037215E+02
Ar  378  0.8189386E+01  0.3492017E+02  0.1621899E+02  0.7072166E+02
Ar  379  0.8058386E+01  0.3238646E+02  0.1886831E+02  0.4968728E+02
Ar  380  0.5519110E+01  0.3487871E+02  0.1864608E+02  0.2623169E+02
Ar  381  0.5401577E+01  0.3237609E+02  0.2148764E+02  0.5611074E+02
Ar  382  0.8015515E+01  0.3507780E+02  0.2147025E+02  0.2840692E+01
Ar  383  0.7913182E+01  0.3253860E+02  0.2430104E+02  0.3459302E+02
Ar  384  0.5468767E+01  0.3518490E+02  0.2436983E+02  0.1835796E+02
Ar  385  0.5162941E+01  0.3202671E+02  0.2692162E+02  0.2103419E+03
Ar  386  0.8214143E+01  0.3522613E+02  0.2742101E+02  0.8985028E+02
Ar  387  0.8057342E+01  0.3228143E+02  0.2962682E+02  0.2060152E+02
Ar  388  0.5329573E+01  0.3488542E+02  0.2968102E+02  0.6687987E+02
Ar  389  0.5370078E+01  0.3209970E+02  0.3209970E+02  0.1070482E+03
Ar  390  0.7944911E+01  0.3513749E+02  0.3219764E+02  0.7078494E+02
Ar  391  0.7944911E+01  0.3219764E+02  0.3513749E+02  0.7078494E+02
Ar  392  0.5344632E+01  0.3508402E+02  0.3508402E+02  0.9775537E+02
Ar  393  0.1078861E+02  0.3767773E+02  0.3767773E+02  0.1032172E+03
Ar  394  0.1362652E+02  0.2810323E+01  0.4522496E-01  0.1870436E+03
Ar  395  0.1362652E+02  0.4522496E-01  0.2810323E+01  0.1870436E+03
Ar  396  0.1121511E+02  0.2632864E+01  0.2632864E+01  0.1050391E+03
Ar  397  0.1092746E+02  0.3752782E+02  0.5455736E+01  0.2845920E+02
Ar  398  0.1348033E+02  0.2526607E+01  0.5409503E+01  0.2527609E+02
Ar  399  0.1383578E+02  0.3772879E+02  0.8118376E+01  0.6212711E+02
Ar  400  0.1114853E+02  0.2532822E+01  0.8326957E+01  0.1498017E+03
Ar  401  0.1086873E+02  0.1626538E+00  0.1086873E+02  0.1212082E+02
Ar  402  0.1378581E+02  0.3308862E+01  0.1087835E+02  0.1500167E+03
Ar  403  0.1344951E+02  0.3748719E+02  0.1344951E+02  0.1850505E+03
Ar  404  0.1087835E+02  0.3308862E+01  0.1378581E+02  0.1500167E+03
Ar  405  0.1085790E+02  0.3753986E+02  0.1623577E+02  0.1707127E+03
Ar  406  0.1374115E+02  0.2315924E+01  0.1653898E+02  0.7739101E+02
Ar  407  0.1363205E+02  0.1640419E-02  0.1880837E+02  0.3058163E+02
Ar  408  0.1112634E+02  0.2527710E+01  0.1857357E+02  0.9259489E+02
Ar  409  0.1062562E+02  0.1441318E+00  0.2151885E+02  0.9825880E+01
Ar  410  0.1352031E+02  0.2555556E+01  0.2149686E+02  0.4073047E+01
Ar  411  0.1339708E+02  0.1558126E-01  0.2441243E+02  0.2736819E+02
Ar  412  0.1094712E+02  0.2676689E+01  0.2453541E+02  0.1001332E+03
Ar  413  0.1106129E+02  0.3767322E+02  0.2735632E+02  0.4573168E+02
Ar  414  0.1377898E+02  0.2663642E+01  0.2693559E+02  0.1832293E+03
Ar  415  0.1360306E+02  0.3752881E+02  0.2987286E+02  0.3204274E+02
Ar  416  0.1088182E+02  0.2667313E+01  0.2981840E+02  0.8659355E+02
Ar  417  0.1058241E+02  0.1307947E+00  0.3228263E+02  0.6995100E+02
Ar  418  0.1386540E+02  0.2770599E+01  0.3188162E+02  0.1617975E+03
Ar  419  0.1366705E+02  0.6137355E-01  0.3521664E+02  0.3179173E+02
Ar  420  0.1099451E+02  0.2833768E+01  0.3471041E+02  0.2833882E+02
Ar  421  0.1092746E+02  0.5455736E+01  0.3752782E+02  0.2845920E+02
Ar  422  0.1383578E+02  0.8118376E+01  0.3772879E+02  0.6212711E+02
Ar  423  0.1348033E+02  0.5409503E+01  0.2526607E+01  0.2527609E+02
Ar  424  0.1114853E+02  0.8326957E+01  0.2532822E+01  0.1498017E+03
Ar  425  0.1095764E+02  0.5448669E+01  0.5448669E+01  0.6348789E+02
Ar  426  0.1373457E+02  0.7936188E+01  0.5306223E+01  0.5911324E+01
Ar  427  0.1373457E+02  0.5306223E+01  0.7936188E+01  0.5911324E+01
Ar  428  0.1056898E+02  0.7878760E+01  0.7878760E+01  0.1875759E+02
Ar  429  0.1074779E+02  0.5285006E+01  0.1074779E+02  0.1708430E+02
Ar  430  0.1345305E+02  0.7742004E+01  0.1062313E+02  0.1417952E+03
Ar  431  0.1399846E+02  0.5220150E+01  0.1399846E+02  0.8482599E+02
Ar  432  0.1062313E+02  0.7742004E+01  0.1345305E+02  0.1417952E+03
Ar  433  0.1094340E+02  0.5448928E+01  0.1629784E+02  0.3580042E+01
Ar  434  0.1359529E+02  0.7965663E+01  0.1614920E+02  0.1364801E+02
Ar  435  0.1384757E+02  0.5336055E+01  0.1903644E+02  0.1647539E+03
Ar  436  0.1066444E+02  0.7969929E+01  0.1867721E+02  0.3249115E+02
Ar  437  0.1085704E+02  0.5300609E+01  0.2119113E+02  0.2525342E+02
Ar  438  0.1333044E+02  0.7984168E+01  0.2184376E+02  0.3000491E+02
Ar  439  0.1367566E+02  0.5555233E+01  0.2460938E+02  0.1410329E+02
Ar  440  0.1075468E+02  0.7930403E+01  0.2439967E+02  0.6039348E+02
Ar  441  0.1106564E+02  0.5619940E+01  0.2747734E+02  0.1259929E+03
Ar  442  0.1353653E+02  0.8162783E+01  0.2720232E+02  0.2479643E+02
Ar  443  0.1399640E+02  0.5465878E+01  0.2946029E+02  0.1139087E+03
Ar  444  0.1090230E+02  0.8389950E+01  0.2943162E+02  0.3347667E+02
Ar  445  0.1067843E+02  0.5219862E+01  0.3202244E+02  0.1057847E+03
Ar  446  0.1337312E+02  0.7839747E+01  0.3238959E+02  0.1087024E+03
Ar  447  0.1360699E+02  0.5252992E+01  0.3498054E+02  0.2206970E+03
Ar  448  0.1114168E+02  0.8038443E+01  0.3517424E+02  0.4610639E+02
Ar  449  0.1086873E+02  0.1086873E+02  0.1626538E+00  0.1212082E+02
Ar  450  0.1344951E+02  0.1344951E+02  0.3748719E+02  0.1850505E+03
Ar  451  0.1378581E+02  0.1087835E+02  0.3308862E+01  0.1500167E+03
Ar  452  0.1087835E+02  0.1378581E+02  0.3308862E+01  0.1500167E+03
Ar  453  0.1074779E+02  0.1074779E+02  0.5285006E+01  0.1708430E+02
Ar  454  0.1399846E+02  0.1399846E+02  0.5220150E+01  0.8482599E+02
Ar  455  0.1345305E+02  0.1062313E+02  0.7742004E+01  0.1417952E+03
Ar  456  0.1062313E+02  0.1345305E+02  0.7742004E+01  0.1417952E+03
Ar  457  0.1072887E+02  0.1072887E+02  0.1072887E+02  0.7228709E+02
Ar  458  0.1343418E+02  0.1343418E+02  0.1082246E+02  0.1416475E+03
Ar  459  0.1343418E+02  0.1082246E+02  0.1343418E+02  0.1416475E+03
Ar  460  0.1082246E+02  0.1343418E+02  0.1343418E+02  0.1416475E+03
Ar  461  0.1074851E+02  0.1074851E+02  0.1584215E+02  0.3568555E+03
Ar  462  0.1353931E+02  0.1353931E+02  0.1603059E+02  0.2204421E+03
Ar  463  0.1327391E+02  0.1036599E+02  0.1889477E+02  0.9664316E+02
Ar  464  0.1036599E+02  0.1327391E+02  0.1889477E+02  0.9664316E+02
Ar  465  0.1049651E+02  0.1049651E+02  0.2174055E+02  0.1428266E+02
Ar  466  0.1318193E+02  0.1318193E+02  0.2142861E+02  0.1208082E+02
Ar  467  0.1375506E+02  0.1075905E+02  0.2430130E+02  0.3908624E+02
Ar  468  0.1075905E+02  0.1375506E+02  0.2430130E+02  0.3908624E+02
Ar  469  0.1087562E+02  0.1087562E+02  0.2658889E+02  0.1018970E+03
Ar  470  0.1342192E+02  0.1342192E+02  0.2667264E+02  0.2631946E+03
Ar  471  0.1367315E+02  0.1105312E+02  0.2951134E+02  0.2020375E+02
Ar  472  0.1105312E+02  0.1367315E+02  0.2951134E+02  0.2020375E+02
Ar  473  0.1096611E+02  0.1096611E+02  0.3178618E+02  0.1008530E+03
Ar  474  0.1378844E+02  0.1378844E+02  0.3218022E+02  0.8313556E+02
Ar  475  0.1420167E+02  0.1125011E+02  0.3452389E+02  0.3781207E+02
Ar  476  0.1125011E+02  0.1420167E+02  0.3452389E+02  0.3781207E+02
Ar  477  0.1085790E+02  0.1623577E+02  0.3753986E+02  0.1707127E+03
Ar  478  0.1363205E+02  0.1880837E+02  0.1640419E-02  0.3058163E+02
Ar  479  0.1374115E+02  0.1653898E+02  0.2315924E+01  0.7739101E+02
Ar  480  0.1112634E+02  0.1857357E+02  0.2527710E+01  0.9259489E+02
Ar  481  0.1094340E+02  0.1629784E+02  0.5448928E+01  0.3580042E+01
Ar  482  0.1384757E+02  0.1903644E+02  0.5336055E+01  0.1647539E+03
Ar  483  0.1359529E+02  0.1614920E+02  0.7965663E+01  0.1364801E+02
Ar  484  0.1066444E+02  0.1867721E+02  0.7969929E+01  0.3249115E+02
Ar  485  0.1074851E+02  0.1584215E+02  0.1074851E+02  0.3568555E+03
Ar  486  0.1327391E+02  0.1889477E+02  0.1036599E+02  0.9664316E+02
Ar  487  0.1353931E+02  0.1603059E+02  0.1353931E+02  0.2204421E+03
Ar  488  0.1036599E+02  0.1889477E+02  0.1327391E+02  0.9664316E+02
Ar  489  0.1051706E+02  0.1604147E+02  0.1604147E+02  0.1284935E+02
Ar  490  0.1337524E+02  0.1893881E+02  0.1631922E+02  0.1105476E+03
Ar  491  0.1337524E+02  0.1631922E+02  0.1893881E+02  0.1105476E+03
Ar  492  0.1070526E+02  0.1849802E+02  0.1849802E+02  0.2568156E+01
Ar  493  0.1102936E+02  0.1619055E+02  0.2145338E+02  0.1335651E+03
Ar  494  0.1359876E+02  0.1885236E+02  0.2175411E+02  0.8774089E+02
Ar  495  0.1353330E+02  0.1629852E+02  0.2423061E+02  0.1239303E+03
Ar  496  0.1092043E+02  0.1898970E+02  0.2424105E+02  0.3860914E+02
Ar  497  0.1040726E+02  0.1655947E+02  0.2654670E+02  0.2963742E+03
Ar  498  0.1337134E+02  0.1891634E+02  0.2669241E+02  0.9362429E+02
Ar  499  0.1359617E+02  0.1685141E+02  0.2944271E+02  0.9015116E+02
Ar  500  0.1038946E+02  0.1917037E+02  0.2944212E+02  0.1121879E+03
Ar  501  0.1159487E+02  0.1707862E+02  0.3217044E+02  0.2041783E+03
Ar  502  0.1380707E+02  0.1944286E+02  0.3250478E+02  0.1208507E+03
Ar  503  0.1380566E+02  0.1664207E+02  0.3477117E+02  0.7006009E+02
Ar  504  0.1093928E+02  0.1899328E+02  0.3516533E+02  0.2508971E+03
Ar  505  0.1062562E+02  0.2151885E+02  0.1441318E+00  0.9825880E+01
Ar  506  0.1339708E+02  0.2441243E+02  0.1558126E-01  0.2736819E+02
Ar  507  0.1352031E+02  0.2149686E+02  0.2555556E+01  0.4073047E+01
Ar  508  0.1094712E+02  0.2453541E+02  0.2676689E+01  0.1001332E+03
Ar  509  0.1085704E+02  0.2119113E+02  0.5300609E+01  0.2525342E+02
Ar  510  0.1367566E+02  0.2460938E+02  0.5555233E+01  0.1410329E+02
Ar  511  0.1333044E+02  0.2184376E+02  0.7984168E+01  0.3000491E+02
Ar  512  0.1075468E+02  0.2439967E+02  0.7930403E+01  0.6039348E+02
Ar  513  0.1049651E+02  0.2174055E+02  0.1049651E+02  0.1428266E+02
Ar  514  0.1375506E+02  0.2430130E+02  0.1075905E+02  0.3908624E+02
Ar  515  0.1318193E+02  0.2142861E+02  0.1318193E+02  0.1208082E+02
Ar  516  0.1075905E+02  0.2430130E+02  0.1375506E+02  0.3908624E+02
Ar  517  0.1102936E+02  0.2145338E+02  0.1619055E+02  0.1335651E+03
Ar  518  0.1353330E+02  0.2423061E+02  0.1629852E+02  0.1239303E+03
Ar  519  0.1359876E+02  0.2175411E+02  0.1885236E+02  0.8774089E+02
Ar  520  0.1092043E+02  0.2424105E+02  0.1898970E+02  0.3860914E+02
Ar  521  0.1103451E+02  0.2161681E+02  0.2161681E+02  0.2590807E+03
Ar  522  0.1334744E+02  0.2421998E+02  0.2140572E+02  0.3780956E+03
Ar  523  0.1334744E+02  0.2140572E+02  0.2421998E+02  0.3780956E+03
Ar  524  0.1126368E+02  0.2427817E+02  0.2427817E+02  0.3921948E+03
Ar  525  0.1082153E+02  0.2144797E+02  0.2674238E+02  0.1115850E+03
Ar  526  0.1329279E+02  0.2397740E+02  0.2692090E+02  0.1103815E+02
Ar  527  0.1345691E+02  0.2162179E+02  0.2962075E+02  0.1897759E+03
Ar  528  0.1081659E+02  0.2429812E+02  0.2974243E+02  0.1231456E+03
Ar  529  0.1046579E+02  0.2177920E+02  0.3234380E+02  0.1059365E+03
Ar  530  0.1308936E+02  0.2465103E+02  0.3263000E+02  0.1835388E+02
Ar  531  0.1375015E+02  0.2174533E+02  0.3549263E+02  0.4493533E+02
Ar  532  0.1040430E+02  0.2433112E+02  0.3532405E+02  0.1070167E+02
Ar  533  0.1106129E+02  0.2735632E+02  0.3767322E+02  0.4573168E+02
Ar  534  0.1360306E+02  0.2987286E+02  0.3752881E+02  0.3204274E+02
Ar  535  0.1377898E+02  0.2693559E+02  0.2663642E+01  0.1832293E+03
Ar  536  0.1088182E+02  0.2981840E+02  0.2667313E+01  0.8659355E+02
Ar  537  0.1106564E+02  0.2747734E+02  0.5619940E+01  0.1259929E+03
Ar  538  0.1399640E+02  0.2946029E+02  0.5465878E+01  0.1139087E+03
Ar  539  0.1353653E+02  0.2720232E+02  0.8162783E+01  0.2479643E+02
Ar  540  0.1090230E+02  0.2943162E+02  0.8389950E+01  0.3347667E+02
Ar  541  0.1087562E+02  0.2658889E+02  0.1087562E+02  0.1018970E+03
Ar  542  0.1367315E+02  0.2951134E+02  0.1105312E+02  0.2020375E+02
Ar  543  0.1342192E+02  0.2667264E+02  0.1342192E+02  0.2631946E+03
Ar  544  0.1105312E+02  0.2951134E+02  0.1367315E+02  0.2020375E+02
Ar  545  0.1040726E+02  0.2654670E+02  0.1655947E+02  0.2963742E+03
Ar  546  0.1359617E+02  0.2944271E+02  0.1685141E+02  0.9015116E+02
Ar  547  0.1337134E+02  0.2669241E+02  0.1891634E+02  0.9362429E+02
Ar  548  0.1038946E+02  0.2944212E+02  0.1917037E+02  0.1121879E+03
Ar  549  0.1082153E+02  0.2674238E+02  0.2144797E+02  0.1115850E+03
Ar  550  0.1345691E+02  0.2962075E+02  0.2162179E+02  0.1897759E+03
Ar  551  0.1329279E+02  0.2692090E+02  0.2397740E+02  0.1103815E+02
Ar  552  0.1081659E+02  0.2974243E+02  0.2429812E+02  0.1231456E+03
Ar  553  0.1056016E+02  0.2722057E+02  0.2722057E+02  0.7115083E+02
Ar  554  0.1341603E+02  0.2962512E+02  0.2672782E+02  0.2665657E+02
Ar  555  0.1341603E+02  0.2672782E+02  0.2962512E+02  0.2665657E+02
Ar  556  0.1059540E+02  0.2977530E+02  0.2977530E+02  0.6189370E+02
Ar  557  0.1048123E+02  0.2700448E+02  0.3239225E+02  0.1399162E+03
Ar  558  0.1365383E+02  0.2957175E+02  0.3238843E+02  0.1655465E+03
Ar  559  0.1341257E+02  0.2712539E+02  0.3525946E+02  0.5453371E+02
Ar  560  0.1082288E+02  0.3014863E+02  0.3521315E+02  0.1418168E+03
Ar  561  0.1058241E+02  0.3228263E+02  0.1307947E+00  0.6995100E+02
Ar  562  0.1366705E+02  0.3521664E+02  0.6137355E-01  0.3179173E+02
Ar  563  0.1386540E+02  0.3188162E+02  0.2770599E+01  0.1617975E+03
Ar  564  0.1099451E+02  0.3471041E+02  0.2833768E+01  0.2833882E+02
Ar  565  0.1067843E+02  0.3202244E+02  0.5219862E+01  0.1057847E+03
Ar  566  0.1360699E+02  0.3498054E+02  0.5252992E+01  0.2206970E+03
Ar  567  0.1337312E+02  0.3238959E+02  0.7839747E+01  0.1087024E+03
Ar  568  0.1114168E+02  0.3517424E+02  0.8038443E+01  0.4610639E+02
Ar  569  0.1096611E+02  0.3178618E+02  0.1096611E+02  0.1008530E+03
Ar  570  0.1420167E+02  0.3452389E+02  0.1125011E+02  0.3781207E+02
Ar  571  0.1378844E+02  0.3218022E+02  0.1378844E+02  0.8313556E+02
Ar  572  0.1125011E+02  0.3452389E+02  0.1420167E+02  0.3781207E+02
Ar  573  0.1159487E+02  0.3217044E+02  0.1707862E+02  0.2041783E+03
Ar  574  0.1380566E+02  0.3477117E+02  0.1664207E+02  0.7006009E+02
Ar  575  0.1380707E+02  0.3250478E+02  0.1944286E+02  0.1208507E+03
Ar  576  0.1093928E+02  0.3516533E+02  0.1899328E+02  0.2508971E+03
Ar  577  0.1046579E+02  0.3234380E+02  0.2177920E+02  0.1059365E+03
Ar  578  0.1375015E+02  0.3549263E+02  0.2174533E+02  0.4493533E+02
Ar  579  0.1308936E+02  0.3263000E+02  0.2465103E+02  0.1835388E+02
Ar  580  0.1040430E+02  0.3532405E+02  0.2433112E+02  0.1070167E+02
Ar  581  0.1048123E+02  0.3239225E+02  0.2700448E+02  0.1399162E+03
Ar  582  0.1341257E+02  0.3525946E+02  0.2712539E+02  0.5453371E+02
Ar  583  0.1365383E+02  0.3238843E+02  0.2957175E+02  0.1655465E+03
Ar  584  0.1082288E+02  0.3521315E+02  0.3014863E+02  0.1418168E+03
Ar  585  0.1070663E+02  0.3217715E+02  0.3217715E+02  0.3505672E+02
Ar  586  0.1364232E+02  0.3508708E+02  0.3262770E+02  0.1199256E+03
Ar  587  0.1364232E+02  0.3262770E+02  0.3508708E+02  0.1199256E+03
Ar  588  0.1075203E+02  0.3478336E+02  0.3478336E+02  0.1084621E+03
Ar  589  0.1617460E+02  0.6161313E-01  0.6161313E-01  0.7478167E+00
Ar  590  0.1894385E+02  0.2586175E+01  0.3771539E+02  0.4230461E+02
Ar  591  0.1894385E+02  0.3771539E+02  0.2586175E+01  0.4230461E+02
Ar  592  0.1608668E+02  0.2822443E+01  0.2822443E+01  0.8730197E+02
Ar  593  0.1621481E+02  0.3739029E+02  0.5487673E+01  0.4803226E+02
Ar  594  0.1860251E+02  0.2605588E+01  0.5477230E+01  0.2763815E+03
Ar  595  0.1890632E+02  0.1931323E+00  0.8125144E+01  0.1114788E+02
Ar  596  0.1615185E+02  0.2820675E+01  0.8414147E+01  0.4558589E+02
Ar  597  0.1623577E+02  0.3753986E+02  0.1085790E+02  0.1707127E+03
Ar  598  0.1857357E+02  0.2527710E+01  0.1112634E+02  0.9259489E+02
Ar  599  0.1880837E+02  0.1640419E-02  0.1363205E+02  0.3058163E+02
Ar  600  0.1653898E+02  0.2315924E+01  0.1374115E+02  0.7739101E+02
Ar  601  0.1671147E+02  0.3769659E+02  0.1671147E+02  0.1164879E+02
Ar  602  0.1918110E+02  0.2669533E+01  0.1631067E+02  0.9015212E+02
Ar  603  0.1910918E+02  0.2328457E+00  0.1910918E+02  0.1029748E+03
Ar  604  0.1631067E+02  0.2669533E+01  0.1918110E+02  0.9015212E+02
Ar  605  0.1619816E+02  0.1784189E+00  0.2189290E+02  0.5325508E+02
Ar  606  0.1932905E+02  0.2963224E+01  0.2185114E+02  0.1460760E+03
Ar  607  0.1896127E+02  0.4229887E-01  0.2425799E+02  0.7078989E+02
Ar  608  0.1651569E+02  0.2668986E+01  0.2440783E+02  0.2378226E+03
Ar  609  0.1612389E+02  0.3748201E+02  0.2668249E+02  0.3366074E+02
Ar  610  0.1901668E+02  0.2579171E+01  0.2698580E+02  0.1572790E+03
Ar  611  0.1912003E+02  0.3772920E+02  0.2966208E+02  0.8751355E+01
Ar  612  0.1645616E+02  0.2375543E+01  0.2963437E+02  0.1342145E+03
Ar  613  0.1608005E+02  0.3774660E+02  0.3233055E+02  0.4483851E+02
Ar  614  0.1898157E+02  0.2580391E+01  0.3223138E+02  0.5992445E+02
Ar  615  0.1851099E+02  0.2586029E-01  0.3500030E+02  0.4655806E+02
Ar  616  0.1623682E+02  0.2825710E+01  0.3477546E+02  0.8695526E+01
Ar  617  0.1621481E+02  0.5487673E+01  0.3739029E+02  0.4803226E+02
Ar  618  0.1890632E+02  0.8125144E+01  0.1931323E+00  0.1114788E+02
Ar  619  0.1860251E+02  0.5477230E+01  0.2605588E+01  0.2763815E+03
Ar  620  0.1615185E+02  0.8414147E+01  0.2820675E+01  0.4558589E+02
Ar  621  0.1620271E+02  0.5320457E+01  0.5320457E+01  0.3377872E+02
Ar  622  0.1893192E+02  0.8198525E+01  0.5431388E+01  0.3035206E+02
Ar  623  0.1893192E+02  0.5431388E+01  0.8198525E+01  0.3035206E+02
Ar  624  0.1636551E+02  0.8057383E+01  0.8057383E+01  0.3090272E+03
Ar  625  0.1629784E+02  0.5448928E+01  0.1094340E+02  0.3580042E+01
Ar  626  0.1867721E+02  0.7969929E+01  0.1066444E+02  0.3249115E+02
Ar  627  0.1903644E+02  0.5336055E+01  0.1384757E+02  0.1647539E+03
Ar  628  0.1614920E+02  0.7965663E+01  0.1359529E+02  0.1364801E+02
Ar  629  0.1642034E+02  0.5790338E+01  0.1642034E+02  0.2812565E+02
Ar  630  0.1930448E+02  0.8067270E+01  0.1600652E+02  0.9896963E+02
Ar  631  0.1884925E+02  0.5379518E+01  0.1884925E+02  0.7961479E+02
Ar  632  0.1600652E+02  0.8067270E+01  0.1930448E+02  0.9896963E+02
Ar  633  0.1667047E+02  0.5458561E+01  0.2163263E+02  0.2841662E+03
Ar  634  0.1916143E+02  0.8307137E+01  0.2157773E+02  0.2538910E+02
Ar  635  0.1920911E+02  0.5066811E+01  0.2448145E+02  0.2723077E+03
Ar  636  0.1639697E+02  0.8052050E+01  0.2394604E+02  0.7427418E+02
Ar  637  0.1653290E+02  0.5452589E+01  0.2688640E+02  0.1775101E+03
Ar  638  0.1907440E+02  0.7900133E+01  0.2690268E+02  0.6037860E+02
Ar  639  0.1907143E+02  0.5353359E+01  0.2950447E+02  0.2084969E+03
Ar  640  0.1648445E+02  0.8246971E+01  0.2961935E+02  0.6527579E+02
Ar  641  0.1646767E+02  0.5618723E+01  0.3222412E+02  0.3037215E+02
Ar  642  0.1886831E+02  0.8058386E+01  0.3238646E+02  0.4968728E+02
Ar  643  0.1864608E+02  0.5519110E+01  0.3487871E+02  0.2623169E+02
Ar  644  0.1621899E+02  0.8189386E+01  0.3492017E+02  0.7072166E+02
Ar  645  0.1623577E+02  0.1085790E+02  0.3753986E+02  0.1707127E+03
Ar  646  0.1880837E+02  0.1363205E+02  0.1640419E-02  0.3058163E+02
Ar  647  0.1857357E+02  0.1112634E+02  0.2527710E+01  0.9259489E+02
Ar  648  0.1653898E+02  0.1374115E+02  0.2315924E+01  0.7739101E+02
Ar  649  0.1629784E+02  0.1094340E+02  0.5448928E+01  0.3580042E+01
Ar  650  0.1903644E+02  0.1384757E+02  0.5336055E+01  0.1647539E+03
Ar  651  0.1867721E+02  0.1066444E+02  0.7969929E+01  0.3249115E+02
Ar  652  0.1614920E+02  0.1359529E+02  0.7965663E+01  0.1364801E+02
Ar  653  0.1584215E+02  0.1074851E+02  0.1074851E+02  0.3568555E+03
Ar  654  0.1889477E+02  0.1327391E+02  0.1036599E+02  0.9664316E+02
Ar  655  0.1889477E+02  0.1036599E+02  0.1327391E+02  0.9664316E+02
Ar  656  0.1603059E+02  0.1353931E+02  0.1353931E+02  0.2204421E+03
Ar  657  0.1604147E+02  0.1051706E+02  0.1604147E+02  0.1284935E+02
Ar  658  0.1893881E+02  0.1337524E+02  0.1631922E+02  0.1105476E+03
Ar  659  0.1849802E+02  0.1070526E+02  0.1849802E+02  0.2568156E+01
Ar  660  0.1631922E+02  0.1337524E+02  0.1893881E+02  0.1105476E+03
Ar  661  0.1619055E+02  0.1102936E+02  0.2145338E+02  0.1335651E+03
Ar  662  0.1885236E+02  0.1359876E+02  0.2175411E+02  0.8774089E+02
Ar  663  0.1898970E+02  0.1092043E+02  0.2424105E+02  0.3860914E+02
Ar  664  0.1629852E+02  0.1353330E+02  0.2423061E+02  0.1239303E+03
Ar  665  0.1655947E+02  0.1040726E+02  0.2654670E+02  0.2963742E+03
Ar  666  0.1891634E+02  0.1337134E+02  0.2669241E+02  0.9362429E+02
Ar  667  0.1917037E+02  0.1038946E+02  0.2944212E+02  0.1121879E+03
Ar  668  0.1685141E+02  0.1359617E+02  0.2944271E+02  0.9015116E+02
Ar  669  0.1707862E+02  0.1159487E+02  0.3217044E+02  0.2041783E+03
Ar  670  0.1944286E+02  0.1380707E+02  0.3250478E+02  0.1208507E+03
Ar  671  0.1899328E+02  0.1093928E+02  0.3516533E+02  0.2508971E+03
Ar  672  0.1664207E+02  0.1380566E+02  0.3477117E+02  0.7006009E+02
Ar  673  0.1671147E+02  0.1671147E+02  0.3769659E+02  0.1164879E+02
Ar  674  0.1910918E+02  0.1910918E+02  0.2328457E+00  0.1029748E+03
Ar  675  0.1918110E+02  0.1631067E+02  0.2669533E+01  0.9015212E+02
Ar  676  0.1631067E+02  0.1918110E+02  0.2669533E+01  0.9015212E+02
Ar  677  0.1642034E+02  0.1642034E+02  0.5790338E+01  0.2812565E+02
Ar  678  0.1884925E+02  0.1884925E+02  0.5379518E+01  0.7961479E+02
Ar  679  0.1930448E+02  0.1600652E+02  0.8067270E+01  0.9896963E+02
Ar  680  0.1600652E+02  0.1930448E+02  0.8067270E+01  0.9896963E+02
Ar  681  0.1604147E+02  0.1604147E+02  0.1051706E+02  0.1284935E+02
Ar  682  0.1849802E+02  0.1849802E+02  0.1070526E+02  0.2568156E+01
Ar  683  0.1893881E+02  0.1631922E+02  0.1337524E+02  0.1105476E+03
Ar  684  0.1631922E+02  0.1893881E+02  0.1337524E+02  0.1105476E+03
Ar  685  0.1604088E+02  0.1604088E+02  0.1604088E+02  0.8988330E+03
Ar  686  0.1900042E+02  0.1900042E+02  0.1576510E+02  0.6505043E+02
Ar  687  0.1900042E+02  0.1576510E+02  0.1900042E+02  0.6505043E+02
Ar  688  0.1576510E+02  0.1900042E+02  0.1900042E+02  0.6505043E+02
Ar  689  0.1593550E+02  0.1593550E+02  0.2131990E+02  0.3636592E+03
Ar  690  0.1882707E+02  0.1882707E+02  0.2155038E+02  0.1261356E+03
Ar  691  0.1929283E+02  0.1606454E+02  0.2405230E+02  0.1508006E+03
Ar  692  0.1606454E+02  0.1929283E+02  0.2405230E+02  0.1508006E+03
Ar  693  0.1607481E+02  0.1607481E+02  0.2671691E+02  0.4003700E+02
Ar  694  0.1894917E+02  0.1894917E+02  0.2679815E+02  0.3697551E+02
Ar  695  0.1941527E+02  0.1630778E+02  0.2960057E+02  0.1098541E+03
Ar  696  0.1630778E+02  0.1941527E+02  0.2960057E+02  0.1098541E+03
Ar  697  0.1662246E+02  0.1662246E+02  0.3243924E+02  0.6143777E+02
Ar  698  0.1907043E+02  0.1907043E+02  0.3259059E+02  0.1723687E+03
Ar  699  0.1919194E+02  0.1637511E+02  0.3531128E+02  0.2426451E+03
Ar  700  0.1637511E+02  0.1919194E+02  0.3531128E+02  0.2426451E+03
Ar  701  0.1619816E+02  0.2189290E+02  0.1784189E+00  0.5325508E+02
Ar  702  0.1896127E+02  0.2425799E+02  0.4229887E-01  0.7078989E+02
Ar  703  0.1932905E+02  0.2185114E+02  0.2963224E+01  0.1460760E+03
Ar  704  0.1651569E+02  0.2440783E+02  0.2668986E+01  0.2378226E+03
Ar  705  0.1667047E+02  0.2163263E+02  0.5458561E+01  0.2841662E+03
Ar  706  0.1920911E+02  0.2448145E+02  0.5066811E+01  0.2723077E+03
Ar  707  0.1916143E+02  0.2157773E+02  0.8307137E+01  0.2538910E+02
Ar  708  0.1639697E+02  0.2394604E+02  0.8052050E+01  0.7427418E+02
Ar  709  0.1619055E+02  0.2145338E+02  0.1102936E+02  0.1335651E+03
Ar  710  0.1898970E+02  0.2424105E+02  0.1092043E+02  0.3860914E+02
Ar  711  0.1885236E+02  0.2175411E+02  0.1359876E+02  0.8774089E+02
Ar  712  0.1629852E+02  0.2423061E+02  0.1353330E+02  0.1239303E+03
Ar  713  0.1593550E+02  0.2131990E+02  0.1593550E+02  0.3636592E+03
Ar  714  0.1929283E+02  0.2405230E+02  0.1606454E+02  0.1508006E+03
Ar  715  0.1882707E+02  0.2155038E+02  0.1882707E+02  0.1261356E+03
Ar  716  0.1606454E+02  0.2405230E+02  0.1929283E+02  0.1508006E+03
Ar  717  0.1582840E+02  0.2177685E+02  0.2177685E+02  0.1673419E+03
Ar  718  0.1895913E+02  0.2427918E+02  0.2158974E+02  0.1327866E+04
Ar  719  0.1895913E+02  0.2158974E+02  0.2427918E+02  0.1327866E+04
Ar  720  0.1635642E+02  0.2417077E+02  0.2417077E+02  0.4092882E+03
Ar  721  0.1621938E+02  0.2178344E+02  0.2674713E+02  0.2268921E+03
Ar  722  0.1885474E+02  0.2385052E+02  0.2677376E+02  0.1314616E+03
Ar  723  0.1895507E+02  0.2184198E+02  0.2971716E+02  0.3644742E+03
Ar  724  0.1604908E+02  0.2415277E+02  0.2960242E+02  0.2503682E+03
Ar  725  0.1621022E+02  0.2183924E+02  0.3252579E+02  0.1615356E+03
Ar  726  0.1898029E+02  0.2403700E+02  0.3237194E+02  0.1211048E+03
Ar  727  0.1901922E+02  0.2162891E+02  0.3508197E+02  0.4910329E+02
Ar  728  0.1632937E+02  0.2443732E+02  0.3488763E+02  0.2322961E+02
Ar  729  0.1612389E+02  0.2668249E+02  0.3748201E+02  0.3366074E+02
Ar  730  0.1912003E+02  0.2966208E+02  0.3772920E+02  0.8751355E+01
Ar  731  0.1901668E+02  0.2698580E+02  0.2579171E+01  0.1572790E+03
Ar  732  0.1645616E+02  0.2963437E+02  0.2375543E+01  0.1342145E+03
Ar  733  0.1653290E+02  0.2688640E+02  0.5452589E+01  0.1775101E+03
Ar  734  0.1907143E+02  0.2950447E+02  0.5353359E+01  0.2084969E+03
Ar  735  0.1907440E+02  0.2690268E+02  0.7900133E+01  0.6037860E+02
Ar  736  0.1648445E+02  0.2961935E+02  0.8246971E+01  0.6527579E+02
Ar  737  0.1655947E+02  0.2654670E+02  0.1040726E+02  0.2963742E+03
Ar  738  0.1917037E+02  0.2944212E+02  0.1038946E+02  0.1121879E+03
Ar  739  0.1891634E+02  0.2669241E+02  0.1337134E+02  0.9362429E+02
Ar  740  0.1685141E+02  0.2944271E+02  0.1359617E+02  0.9015116E+02
Ar  741  0.1607481E+02  0.2671691E+02  0.1607481E+02  0.4003700E+02
Ar  742  0.1941527E+02  0.2960057E+02  0.1630778E+02  0.1098541E+03
Ar  743  0.1894917E+02  0.2679815E+02  0.1894917E+02  0.3697551E+02
Ar  744  0.1630778E+02  0.2960057E+02  0.1941527E+02  0.1098541E+03
Ar  745  0.1621938E+02  0.2674713E+02  0.2178344E+02  0.2268921E+03
Ar  746  0.1895507E+02  0.2971716E+02  0.2184198E+02  0.3644742E+03
Ar  747  0.1885474E+02  0.2677376E+02  0.2385052E+02  0.1314616E+03
Ar  748  0.1604908E+02  0.2960242E+02  0.2415277E+02  0.2503682E+03
Ar  749  0.1551037E+02  0.2671990E+02  0.2671990E+02  0.6024733E+02
Ar  750  0.1876406E+02  0.3002953E+02  0.2674797E+02  0.1624980E+03
Ar  751  0.1876406E+02  0.2674797E+02  0.3002953E+02  0.1624980E+03
Ar  752  0.1595228E+02  0.2939712E+02  0.2939712E+02  0.4036734E+03
Ar  753  0.1614220E+02  0.2677382E+02  0.3231875E+02  0.1397948E+03
Ar  754  0.1917713E+02  0.2946458E+02  0.3228165E+02  0.1806650E+02
Ar  755  0.1897395E+02  0.2711678E+02  0.3526198E+02  0.7103753E+02
Ar  756  0.1618306E+02  0.2971321E+02  0.3521179E+02  0.1577261E+03
Ar  757  0.1608005E+02  0.3233055E+02  0.3774660E+02  0.4483851E+02
Ar  758  0.1851099E+02  0.3500030E+02  0.2586029E-01  0.4655806E+02
Ar  759  0.1898157E+02  0.3223138E+02  0.2580391E+01  0.5992445E+02
Ar  760  0.1623682E+02  0.3477546E+02  0.2825710E+01  0.8695526E+01
Ar  761  0.1646767E+02  0.3222412E+02  0.5618723E+01  0.3037215E+02
Ar  762  0.1864608E+02  0.3487871E+02  0.5519110E+01  0.2623169E+02
Ar  763  0.1886831E+02  0.3238646E+02  0.8058386E+01  0.4968728E+02
Ar  764  0.1621899E+02  0.3492017E+02  0.8189386E+01  0.7072166E+02
Ar  765  0.1707862E+02  0.3217044E+02  0.1159487E+02  0.2041783E+03
Ar  766  0.1899328E+02  0.3516533E+02  0.1093928E+02  0.2508971E+03
Ar  767  0.1944286E+02  0.3250478E+02  0.1380707E+02  0.1208507E+03
Ar  768  0.1664207E+02  0.3477117E+02  0.1380566E+02  0.7006009E+02
Ar  769  0.1662246E+02  0.3243924E+02  0.1662246E+02  0.6143777E+02
Ar  770  0.1919194E+02  0.3531128E+02  0.1637511E+02  0.2426451E+03
Ar  771  0.1907043E+02  0.3259059E+02  0.1907043E+02  0.1723687E+03
Ar  772  0.1637511E+02  0.3531128E+02  0.1919194E+02  0.2426451E+03
Ar  773  0.1621022E+02  0.3252579E+02  0.2183924E+02  0.1615356E+03
Ar  774  0.1901922E+02  0.3508197E+02  0.2162891E+02  0.4910329E+02
Ar  775  0.1898029E+02  0.3237194E+02  0.2403700E+02  0.1211048E+03
Ar  776  0.1632937E+02  0.3488763E+02  0.2443732E+02  0.2322961E+02
Ar  777  0.1614220E+02  0.3231875E+02  0.2677382E+02  0.1397948E+03
Ar  778  0.1897395E+02  0.3526198E+02  0.2711678E+02  0.7103753E+02
Ar  779  0.1917713E+02  0.3228165E+02  0.2946458E+02  0.1806650E+02
Ar  780  0.1618306E+02  0.3521179E+02  0.2971321E+02  0.1577261E+03
Ar  781  0.1651376E+02  0.3205573E+02  0.3205573E+02  0.2756612E+03
Ar  782  0.1882158E+02  0.3547630E+02  0.3251518E+02  0.9878598E+02
Ar  783  0.1882158E+02  0.3251518E+02  0.3547630E+02  0.9878598E+02
Ar  784  0.1600496E+02  0.3510592E+02  0.3510592E+02  0.1042939E+03
Ar  785  0.2124707E+02  0.2245963E-01  0.2245963E-01  0.7507808E+02
Ar  786  0.2429188E+02  0.2511154E+01  0.3772641E+02  0.6759760E+01
Ar  787  0.2429188E+02  0.3772641E+02  0.2511154E+01  0.6759760E+01
Ar  788  0.2173819E+02  0.2750690E+01  0.2750690E+01  0.3092769E+03
Ar  789  0.2128883E+02  0.3772723E+02  0.5671761E+01  0.5607439E+02
Ar  790  0.2393763E+02  0.2657499E+01  0.5245975E+01  0.7745449E+02
Ar  791  0.2462397E+02  0.9265415E-03  0.7891201E+01  0.8198188E+02
Ar  792  0.2158559E+02  0.2582593E+01  0.8036142E+01  0.6583472E+02
Ar  793  0.2151885E+02  0.1441318E+00  0.1062562E+02  0.9825880E+01
Ar  794  0.2453541E+02  0.2676689E+01  0.1094712E+02  0.1001332E+03
Ar  795  0.2441243E+02  0.1558126E-01  0.1339708E+02  0.2736819E+02
Ar  796  0.2149686E+02  0.2555556E+01  0.1352031E+02  0.4073047E+01
Ar  797  0.2189290E+02  0.1784189E+00  0.1619816E+02  0.5325508E+02
Ar  798  0.2440783E+02  0.2668986E+01  0.1651569E+02  0.2378226E+03
Ar  799  0.2425799E+02  0.4229887E-01  0.1896127E+02  0.7078989E+02
Ar  800  0.2185114E+02  0.2963224E+01  0.1932905E+02  0.1460760E+03
Ar  801  0.2166235E+02  0.1250492E-01  0.2166235E+02  0.5622252E+03
Ar  802  0.2429305E+02  0.2597081E+01  0.2191104E+02  0.7436118E+02
Ar  803  0.2436553E+02  0.2471522E+00  0.2436553E+02  0.2982570E+02
Ar  804  0.2191104E+02  0.2597081E+01  0.2429305E+02  0.7436118E+02
Ar  805  0.2155872E+02  0.3928049E-02  0.2675043E+02  0.2969572E+01
Ar  806  0.2431166E+02  0.2757105E+01  0.2685152E+02  0.1408858E+03
Ar  807  0.2420028E+02  0.3768160E+02  0.2940193E+02  0.1186784E+02
Ar  808  0.2172325E+02  0.2734267E+01  0.2928412E+02  0.2368129E+03
Ar  809  0.2158230E+02  0.1213243E+00  0.3258012E+02  0.2552000E+02
Ar  810  0.2445710E+02  0.2475578E+01  0.3215797E+02  0.5860785E+01
Ar  811  0.2434816E+02  0.3929016E-01  0.3509657E+02  0.1197275E+02
Ar  812  0.2125981E+02  0.2852458E+01  0.3514170E+02  0.2723463E+02
Ar  813  0.2128883E+02  0.5671761E+01  0.3772723E+02  0.5607439E+02
Ar  814  0.2462397E+02  0.7891201E+01  0.9265415E-03  0.8198188E+02
Ar  815  0.2393763E+02  0.5245975E+01  0.2657499E+01  0.7745449E+02
Ar  816  0.2158559E+02  0.8036142E+01  0.2582593E+01  0.6583472E+02
Ar  817  0.2161657E+02  0.5150176E+01  0.5150176E+01  0.6877369E+02
Ar  818  0.2438503E+02  0.8001443E+01  0.5485898E+01  0.2913952E+02
Ar  819  0.2438503E+02  0.5485898E+01  0.8001443E+01  0.2913952E+02
Ar  820  0.2138164E+02  0.7913842E+01  0.7913842E+01  0.2761338E+02
Ar  821  0.2119113E+02  0.5300609E+01  0.1085704E+02  0.2525342E+02
Ar  822  0.2439967E+02  0.7930403E+01  0.1075468E+02  0.6039348E+02
Ar  823  0.2460938E+02  0.5555233E+01  0.1367566E+02  0.1410329E+02
Ar  824  0.2184376E+02  0.7984168E+01  0.1333044E+02  0.3000491E+02
Ar  825  0.2163263E+02  0.5458561E+01  0.1667047E+02  0.2841662E+03
Ar  826  0.2394604E+02  0.8052050E+01  0.1639697E+02  0.7427418E+02
Ar  827  0.2448145E+02  0.5066811E+01  0.1920911E+02  0.2723077E+03
Ar  828  0.2157773E+02  0.8307137E+01  0.1916143E+02  0.2538910E+02
Ar  829  0.2179895E+02  0.5593410E+01  0.2179895E+02  0.1335840E+02
Ar  830  0.2441846E+02  0.7992778E+01  0.2146789E+02  0.2719380E+03
Ar  831  0.2419611E+02  0.5609420E+01  0.2419611E+02  0.8761351E+01
Ar  832  0.2146789E+02  0.7992778E+01  0.2441846E+02  0.2719380E+03
Ar  833  0.2181156E+02  0.5212641E+01  0.2689599E+02  0.2490440E+02
Ar  834  0.2447411E+02  0.8287218E+01  0.2696124E+02  0.5902992E+02
Ar  835  0.2437215E+02  0.5426057E+01  0.2928713E+02  0.2235528E+03
Ar  836  0.2196157E+02  0.7864664E+01  0.2966332E+02  0.2857838E+02
Ar  837  0.2148764E+02  0.5401577E+01  0.3237609E+02  0.5611074E+02
Ar  838  0.2430104E+02  0.7913182E+01  0.3253860E+02  0.3459302E+02
Ar  839  0.2436983E+02  0.5468767E+01  0.3518490E+02  0.1835796E+02
Ar  840  0.2147025E+02  0.8015515E+01  0.3507780E+02  0.2840692E+01
Ar  841  0.2151885E+02  0.1062562E+02  0.1441318E+00  0.9825880E+01
Ar  842  0.2441243E+02  0.1339708E+02  0.1558126E-01  0.2736819E+02
Ar  843  0.2453541E+02  0.1094712E+02  0.2676689E+01  0.1001332E+03
Ar  844  0.2149686E+02  0.1352031E+02  0.2555556E+01  0.4073047E+01
Ar  845  0.2119113E+02  0.1085704E+02  0.5300609E+01  0.2525342E+02
Ar  846  0.2460938E+02  0.1367566E+02  0.5555233E+01  0.1410329E+02
Ar  847  0.2439967E+02  0.1075468E+02  0.7930403E+01  0.6039348E+02
Ar  848  0.2184376E+02  0.1333044E+02  0.7984168E+01  0.3000491E+02
Ar  849  0.2174055E+02  0.1049651E+02  0.1049651E+02  0.1428266E+02
Ar  850  0.2430130E+02  0.1375506E+02  0.1075905E+02  0.3908624E+02
Ar  851  0.2430130E+02  0.1075905E+02  0.1375506E+02  0.3908624E+02
Ar  852  0.2142861E+02  0.1318193E+02  0.1318193E+02  0.1208082E+02
Ar  853  0.2145338E+02  0.1102936E+02  0.1619055E+02  0.1335651E+03
Ar  854  0.2423061E+02  0.1353330E+02  0.1629852E+02  0.1239303E+03
Ar  855  0.2424105E+02  0.1092043E+02  0.1898970E+02  0.3860914E+02
Ar  856  0.2175411E+02  0.1359876E+02  0.1885236E+02  0.8774089E+02
Ar  857  0.2161681E+02  0.1103451E+02  0.2161681E+02  0.2590807E+03
Ar  858  0.2421998E+02  0.1334744E+02  0.2140572E+02  0.3780956E+03
Ar  859  0.2427817E+02  0.1126368E+02  0.2427817E+02  0.3921948E+03
Ar  860  0.2140572E+02  0.1334744E+02  0.2421998E+02  0.3780956E+03
Ar  861  0.2144797E+02  0.1082153E+02  0.2674238E+02  0.1115850E+03
Ar  862  0.2397740E+02  0.1329279E+02  0.2692090E+02  0.1103815E+02
Ar  863  0.2429812E+02  0.1081659E+02  0.2974243E+02  0.1231456E+03
Ar  864  0.2162179E+02  0.1345691E+02  0.2962075E+02  0.1897759E+03
Ar  865  0.2177920E+02  0.1046579E+02  0.3234380E+02  0.1059365E+03
Ar  866  0.2465103E+02  0.1308936E+02  0.3263000E+02  0.1835388E+02
Ar  867  0.2433112E+02  0.1040430E+02  0.3532405E+02  0.1070167E+02
Ar  868  0.2174533E+02  0.1375015E+02  0.3549263E+02  0.4493533E+02
Ar  869  0.2189290E+02  0.1619816E+02  0.1784189E+00  0.5325508E+02
Ar  870  0.2425799E+02  0.1896127E+02  0.4229887E-01  0.7078989E+02
Ar  871  0.2440783E+02  0.1651569E+02  0.2668986E+01  0.2378226E+03
Ar  872  0.2185114E+02  0.1932905E+02  0.2963224E+01  0.1460760E+03
Ar  873  0.2163263E+02  0.1667047E+02  0.5458561E+01  0.2841662E+03
Ar  874  0.2448145E+02  0.1920911E+02  0.5066811E+01  0.2723077E+03
Ar  875  0.2394604E+02  0.1639697E+02  0.8052050E+01  0.7427418E+02
Ar  876  0.2157773E+02  0.1916143E+02  0.8307137E+01  0.2538910E+02
Ar  877  0.2145338E+02  0.1619055E+02  0.1102936E+02  0.1335651E+03
Ar  878  0.2424105E+02  0.1898970E+02  0.1092043E+02  0.3860914E+02
Ar  879  0.2423061E+02  0.1629852E+02  0.1353330E+02  0.1239303E+03
Ar  880  0.2175411E+02  0.1885236E+02  0.1359876E+02  0.8774089E+02
Ar  881  0.2131990E+02  0.1593550E+02  0.1593550E+02  0.3636592E+03
Ar  882  0.2405230E+02  0.1929283E+02  0.1606454E+02  0.1508006E+03
Ar  883  0.2405230E+02  0.1606454E+02  0.1929283E+02  0.1508006E+03
Ar  884  0.2155038E+02  0.1882707E+02  0.1882707E+02  0.1261356E+03
Ar  885  0.2177685E+02  0.1582840E+02  0.2177685E+02  0.1673419E+03
Ar  886  0.2427918E+02  0.1895913E+02  0.2158974E+02  0.1327866E+04
Ar  887  0.2417077E+02  0.1635642E+02  0.2417077E+02  0.4092882E+03
Ar  888  0.2158974E+02  0.1895913E+02  0.2427918E+02  0.1327866E+04
Ar  889  0.2178344E+02  0.1621938E+02  0.2674713E+02  0.2268921E+03
Ar  890  0.2385052E+02  0.1885474E+02  0.2677376E+02  0.1314616E+03
Ar  891  0.2415277E+02  0.1604908E+02  0.2960242E+02  0.2503682E+03
Ar  892  0.2184198E+02  0.1895507E+02  0.2971716E+02  0.3644742E+03
Ar  893  0.2183924E+02  0.1621022E+02  0.3252579E+02  0.1615356E+03
Ar  894  0.2403700E+02  0.1898029E+02  0.3237194E+02  0.1211048E+03
Ar  895  0.2443732E+02  0.1632937E+02  0.3488763E+02  0.2322961E+02
Ar  896  0.2162891E+02  0.1901922E+02  0.3508197E+02  0.4910329E+02
Ar  897  0.2166235E+02  0.2166235E+02  0.1250492E-01  0.5622252E+03
Ar  898  0.2436553E+02  0.2436553E+02  0.2471522E+00  0.2982570E+02
Ar  899  0.2429305E+02  0.2191104E+02  0.2597081E+01  0.7436118E+02
Ar  900  0.2191104E+02  0.2429305E+02  0.2597081E+01  0.7436118E+02
Ar  901  0.2179895E+02  0.2179895E+02  0.5593410E+01  0.1335840E+02
Ar  902  0.2419611E+02  0.2419611E+02  0.5609420E+01  0.8761351E+01
Ar  903  0.2441846E+02  0.2146789E+02  0.7992778E+01  0.2719380E+03
Ar  904  0.2146789E+02  0.2441846E+02  0.7992778E+01  0.2719380E+03
Ar  905  0.2161681E+02  0.2161681E+02  0.1103451E+02  0.2590807E+03
Ar  906  0.2427817E+02  0.2427817E+02  0.1126368E+02  0.3921948E+03
Ar  907  0.2421998E+02  0.2140572E+02  0.1334744E+02  0.3780956E+03
Ar  908  0.2140572E+02  0.2421998E+02  0.1334744E+02  0.3780956E+03
Ar  909  0.2177685E+02  0.2177685E+02  0.1582840E+02  0.1673419E+03
Ar  910  0.2417077E+02  0.2417077E+02  0.1635642E+02  0.4092882E+03
Ar  911  0.2427918E+02  0.2158974E+02  0.1895913E+02  0.1327866E+04
Ar  912  0.2158974E+02  0.2427918E+02  0.1895913E+02  0.1327866E+04
Ar  913  0.2144249E+02  0.2144249E+02  0.2144249E+02  0.5296186E+03
Ar  914  0.2437632E+02  0.2437632E+02  0.2146936E+02  0.1756918E+02
Ar  915  0.2437632E+02  0.2146936E+02  0.2437632E+02  0.1756918E+02
Ar  916  0.2146936E+02  0.2437632E+02  0.2437632E+02  0.1756918E+02
Ar  917  0.2162795E+02  0.2162795E+02  0.2662895E+02  0.4037990E+03
Ar  918  0.2412963E+02  0.2412963E+02  0.2696779E+02  0.5755055E+03
Ar  919  0.2404889E+02  0.2183122E+02  0.2988670E+02  0.8597232E+02
Ar  920  0.2183122E+02  0.2404889E+02  0.2988670E+02  0.8597232E+02
Ar  921  0.2147409E+02  0.2147409E+02  0.3219973E+02  0.3131297E+02
Ar  922  0.2427928E+02  0.2427928E+02  0.3214942E+02  0.2997329E+03
Ar  923  0.2432970E+02  0.2149764E+02  0.3464960E+02  0.1937301E+03
Ar  924  0.2149764E+02  0.2432970E+02  0.3464960E+02  0.1937301E+03
Ar  925  0.2155872E+02  0.2675043E+02  0.3928049E-02  0.2969572E+01
Ar  926  0.2420028E+02  0.2940193E+02  0.3768160E+02  0.1186784E+02
Ar  927  0.2431166E+02  0.2685152E+02  0.2757105E+01  0.1408858E+03
Ar  928  0.2172325E+02  0.2928412E+02  0.2734267E+01  0.2368129E+03
Ar  929  0.2181156E+02  0.2689599E+02  0.5212641E+01  0.2490440E+02
Ar  930  0.2437215E+02  0.2928713E+02  0.5426057E+01  0.2235528E+03
Ar  931  0.2447411E+02  0.2696124E+02  0.8287218E+01  0.5902992E+02
Ar  932  0.2196157E+02  0.2966332E+02  0.7864664E+01  0.2857838E+02
Ar  933  0.2144797E+02  0.2674238E+02  0.1082153E+02  0.1115850E+03
Ar  934  0.2429812E+02  0.2974243E+02  0.1081659E+02  0.1231456E+03
Ar  935  0.2397740E+02  0.2692090E+02  0.1329279E+02  0.1103815E+02
Ar  936  0.2162179E+02  0.2962075E+02  0.1345691E+02  0.1897759E+03
Ar  937  0.2178344E+02  0.2674713E+02  0.1621938E+02  0.2268921E+03
Ar  938  0.2415277E+02  0.2960242E+02  0.1604908E+02  0.2503682E+03
Ar  939  0.2385052E+02  0.2677376E+02  0.1885474E+02  0.1314616E+03
Ar  940  0.2184198E+02  0.2971716E+02  0.1895507E+02  0.3644742E+03
Ar  941  0.2162795E+02  0.2662895E+02  0.2162795E+02  0.4037990E+03
Ar  942  0.2404889E+02  0.2988670E+02  0.2183122E+02  0.8597232E+02
Ar  943  0.2412963E+02  0.2696779E+02  0.2412963E+02  0.5755055E+03
Ar  944  0.2183122E+02  0.2988670E+02  0.2404889E+02  0.8597232E+02
Ar  945  0.2084102E+02  0.2687787E+02  0.2687787E+02  0.6183510E+02
Ar  946  0.2369925E+02  0.2940446E+02  0.2685449E+02  0.2579666E+03
Ar  947  0.2369925E+02  0.2685449E+02  0.2940446E+02  0.2579666E+03
Ar  948  0.2190859E+02  0.2984946E+02  0.2984946E+02  0.2974804E+03
Ar  949  0.2185292E+02  0.2678089E+02  0.3231766E+02  0.2152637E+03
Ar  950  0.2413241E+02  0.2974630E+02  0.3245659E+02  0.2715530E+03
Ar  951  0.2430590E+02  0.2693493E+02  0.3489361E+02  0.6101732E+02
Ar  952  0.2150229E+02  0.2961164E+02  0.3481845E+02  0.1399551E+03
Ar  953  0.2158230E+02  0.3258012E+02  0.1213243E+00  0.2552000E+02
Ar  954  0.2434816E+02  0.3509657E+02  0.3929016E-01  0.1197275E+02
Ar  955  0.2445710E+02  0.3215797E+02  0.2475578E+01  0.5860785E+01
Ar  956  0.2125981E+02  0.3514170E+02  0.2852458E+01  0.2723463E+02
Ar  957  0.2148764E+02  0.3237609E+02  0.5401577E+01  0.5611074E+02
Ar  958  0.2436983E+02  0.3518490E+02  0.5468767E+01  0.1835796E+02
Ar  959  0.2430104E+02  0.3253860E+02  0.7913182E+01  0.3459302E+02
Ar  960  0.2147025E+02  0.3507780E+02  0.8015515E+01  0.2840692E+01
Ar  961  0.2177920E+02  0.3234380E+02  0.1046579E+02  0.1059365E+03
Ar  962  0.2433112E+02  0.3532405E+02  0.1040430E+02  0.1070167E+02
Ar  963  0.2465103E+02  0.3263000E+02  0.1308936E+02  0.1835388E+02
Ar  964  0.2174533E+02  0.3549263E+02  0.1375015E+02  0.4493533E+02
Ar  965  0.2183924E+02  0.3252579E+02  0.1621022E+02  0.1615356E+03
Ar  966  0.2443732E+02  0.3488763E+02  0.1632937E+02  0.2322961E+02
Ar  967  0.2403700E+02  0.3237194E+02  0.1898029E+02  0.1211048E+03
Ar  968  0.2162891E+02  0.3508197E+02  0.1901922E+02  0.4910329E+02
Ar  969  0.2147409E+02  0.3219973E+02  0.2147409E+02  0.3131297E+02
Ar  970  0.2432970E+02  0.3464960E+02  0.2149764E+02  0.1937301E+03
Ar  971  0.2427928E+02  0.3214942E+02  0.2427928E+02  0.2997329E+03
Ar  972  0.2149764E+02  0.3464960E+02  0.2432970E+02  0.1937301E+03
Ar  973  0.2185292E+02  0.3231766E+02  0.2678089E+02  0.2152637E+03
Ar  974  0.2430590E+02  0.3489361E+02  0.2693493E+02  0.6101732E+02
Ar  975  0.2413241E+02  0.3245659E+02  0.2974630E+02  0.2715530E+03
Ar  976  0.2150229E+02  0.3481845E+02  0.2961164E+02  0.1399551E+03
Ar  977  0.2152076E+02  0.3248475E+02  0.3248475E+02  0.1927220E+02
Ar  978  0.2414654E+02  0.3533615E+02  0.3221302E+02  0.1737912E+03
Ar  979  0.2414654E+02  0.3221302E+02  0.3533615E+02  0.1737912E+03
Ar  980  0.2130255E+02  0.3536032E+02  0.3536032E+02  0.1380466E+03
Ar  981  0.2684542E+02  0.3771719E+02  0.3771719E+02  0.3676560E+02
Ar  982  0.2970311E+02  0.2562210E+01  0.3745262E+02  0.1144043E+03
Ar  983  0.2970311E+02  0.3745262E+02  0.2562210E+01  0.1144043E+03
Ar  984  0.2716976E+02  0.2493569E+01  0.2493569E+01  0.5938565E+02
Ar  985  0.2705810E+02  0.3764942E+02  0.5345911E+01  0.6584969E+02
Ar  986  0.2972729E+02  0.2731555E+01  0.5254690E+01  0.3441532E+02
Ar  987  0.2964434E+02  0.1045643E+00  0.8150937E+01  0.1362511E+03
Ar  988  0.2698454E+02  0.2610385E+01  0.8118495E+01  0.8592900E+02
Ar  989  0.2735632E+02  0.3767322E+02  0.1106129E+02  0.4573168E+02
Ar  990  0.2981840E+02  0.2667313E+01  0.1088182E+02  0.8659355E+02
Ar  991  0.2987286E+02  0.3752881E+02  0.1360306E+02  0.3204274E+02
Ar  992  0.2693559E+02  0.2663642E+01  0.1377898E+02  0.1832293E+03
Ar  993  0.2668249E+02  0.3748201E+02  0.1612389E+02  0.3366074E+02
Ar  994  0.2963437E+02  0.2375543E+01  0.1645616E+02  0.1342145E+03
Ar  995  0.2966208E+02  0.3772920E+02  0.1912003E+02  0.8751355E+01
Ar  996  0.2698580E+02  0.2579171E+01  0.1901668E+02  0.1572790E+03
Ar  997  0.2675043E+02  0.3928049E-02  0.2155872E+02  0.2969572E+01
Ar  998  0.2928412E+02  0.2734267E+01  0.2172325E+02  0.2368129E+03
Ar  999  0.2940193E+02  0.3768160E+02  0.2420028E+02  0.1186784E+02
Ar 1000  0.2685152E+02  0.2757105E+01  0.2431166E+02  0.1408858E+03
Ar 1001  0.2674766E+02  0.3767234E+02  0.2674766E+02  0.3407646E+03
Ar 1002  0.2926556E+02  0.2632791E+01  0.2679513E+02  0.1292943E+03
Ar 1003  0.2934978E+02  0.3746750E+02  0.2934978E+02  0.8381941E+02
Ar 1004  0.2679513E+02  0.2632791E+01  0.2926556E+02  0.1292943E+03
Ar 1005  0.2721735E+02  0.8403229E-01  0.3240612E+02  0.9214327E+02
Ar 1006  0.2964165E+02  0.2552537E+01  0.3208045E+02  0.8909548E+02
Ar 1007  0.2969856E+02  0.3756888E+02  0.3493804E+02  0.1166586E+02
Ar 1008  0.2719214E+02  0.2606281E+01  0.3478542E+02  0.2947970E+03
Ar 1009  0.2705810E+02  0.5345911E+01  0.3764942E+02  0.6584969E+02
Ar 1010  0.2964434E+02  0.8150937E+01  0.1045643E+00  0.1362511E+03
Ar 1011  0.2972729E+02  0.5254690E+01  0.2731555E+01  0.3441532E+02
Ar 1012  0.2698454E+02  0.8118495E+01  0.2610385E+01  0.8592900E+02
Ar 1013  0.2703879E+02  0.5511148E+01  0.5511148E+01  0.1689008E+03
Ar 1014  0.2954798E+02  0.8250799E+01  0.5428804E+01  0.1608786E+02
Ar 1015  0.2954798E+02  0.5428804E+01  0.8250799E+01  0.1608786E+02
Ar 1016  0.2689994E+02  0.8158181E+01  0.8158181E+01  0.1317691E+03
Ar 1017  0.2747734E+02  0.5619940E+01  0.1106564E+02  0.1259929E+03
Ar 1018  0.2943162E+02  0.8389950E+01  0.1090230E+02  0.3347667E+02
Ar 1019  0.2946029E+02  0.5465878E+01  0.1399640E+02  0.1139087E+03
Ar 1020  0.2720232E+02  0.8162783E+01  0.1353653E+02  0.2479643E+02
Ar 1021  0.2688640E+02  0.5452589E+01  0.1653290E+02  0.1775101E+03
Ar 1022  0.2961935E+02  0.8246971E+01  0.1648445E+02  0.6527579E+02
Ar 1023  0.2950447E+02  0.5353359E+01  0.1907143E+02  0.2084969E+03
Ar 1024  0.2690268E+02  0.7900133E+01  0.1907440E+02  0.6037860E+02
Ar 1025  0.2689599E+02  0.5212641E+01  0.2181156E+02  0.2490440E+02
Ar 1026  0.2966332E+02  0.7864664E+01  0.2196157E+02  0.2857838E+02
Ar 1027  0.2928713E+02  0.5426057E+01  0.2437215E+02  0.2235528E+03
Ar 1028  0.2696124E+02  0.8287218E+01  0.2447411E+02  0.5902992E+02
Ar 1029  0.2687098E+02  0.5455439E+01  0.2687098E+02  0.4070265E+02
Ar 1030  0.2981875E+02  0.8208965E+01  0.2667275E+02  0.3432659E+02
Ar 1031  0.2948191E+02  0.5343872E+01  0.2948191E+02  0.6483460E+02
Ar 1032  0.2667275E+02  0.8208965E+01  0.2981875E+02  0.3432659E+02
Ar 1033  0.2692162E+02  0.5162941E+01  0.3202671E+02  0.2103419E+03
Ar 1034  0.2962682E+02  0.8057342E+01  0.3228143E+02  0.2060152E+02
Ar 1035  0.2968102E+02  0.5329573E+01  0.3488542E+02  0.6687987E+02
Ar 1036  0.2742101E+02  0.8214143E+01  0.3522613E+02  0.8985028E+02
Ar 1037  0.2735632E+02  0.1106129E+02  0.3767322E+02  0.4573168E+02
Ar 1038  0.2987286E+02  0.1360306E+02  0.3752881E+02  0.3204274E+02
Ar 1039  0.2981840E+02  0.1088182E+02  0.2667313E+01  0.8659355E+02
Ar 1040  0.2693559E+02  0.1377898E+02  0.2663642E+01  0.1832293E+03
Ar 1041  0.2747734E+02  0.1106564E+02  0.5619940E+01  0.1259929E+03
Ar 1042  0.2946029E+02  0.1399640E+02  0.5465878E+01  0.1139087E+03
Ar 1043  0.2943162E+02  0.1090230E+02  0.8389950E+01  0.3347667E+02
Ar 1044  0.2720232E+02  0.1353653E+02  0.8162783E+01  0.2479643E+02
Ar 1045  0.2658889E+02  0.1087562E+02  0.1087562E+02  0.1018970E+03
Ar 1046  0.2951134E+02  0.1367315E+02  0.1105312E+02  0.2020375E+02
Ar 1047  0.2951134E+02  0.1105312E+02  0.1367315E+02  0.2020375E+02
Ar 1048  0.2667264E+02  0.1342192E+02  0.1342192E+02  0.2631946E+03
Ar 1049  0.2654670E+02  0.1040726E+02  0.1655947E+02  0.2963742E+03
Ar 1050  0.2944271E+02  0.1359617E+02  0.1685141E+02  0.9015116E+02
Ar 1051  0.2944212E+02  0.1038946E+02  0.1917037E+02  0.1121879E+03
Ar 1052  0.2669241E+02  0.1337134E+02  0.1891634E+02  0.9362429E+02
Ar 1053  0.2674238E+02  0.1082153E+02  0.2144797E+02  0.1115850E+03
Ar 1054  0.2962075E+02  0.1345691E+02  0.2162179E+02  0.1897759E+03
Ar 1055  0.2974243E+02  0.1081659E+02  0.2429812E+02  0.1231456E+03
Ar 1056  0.2692090E+02  0.1329279E+02  0.2397740E+02  0.1103815E+02
Ar 1057  0.2722057E+02  0.1056016E+02  0.2722057E+02  0.7115083E+02
Ar 1058  0.2962512E+02  0.1341603E+02  0.2672782E+02  0.2665657E+02
Ar 1059  0.2977530E+02  0.1059540E+02  0.2977530E+02  0.6189370E+02
Ar 1060  0.2672782E+02  0.1341603E+02  0.2962512E+02  0.2665657E+02
Ar 1061  0.2700448E+02  0.1048123E+02  0.3239225E+02  0.1399162E+03
Ar 1062  0.2957175E+02  0.1365383E+02  0.3238843E+02  0.1655465E+03
Ar 1063  0.3014863E+02  0.1082288E+02  0.3521315E+02  0.1418168E+03
Ar 1064  0.2712539E+02  0.1341257E+02  0.3525946E+02  0.5453371E+02
Ar 1065  0.2668249E+02  0.1612389E+02  0.3748201E+02  0.3366074E+02
Ar 1066  0.2966208E+02  0.1912003E+02  0.3772920E+02  0.8751355E+01
Ar 1067  0.2963437E+02  0.1645616E+02  0.2375543E+01  0.1342145E+03
Ar 1068  0.2698580E+02  0.1901668E+02  0.2579171E+01  0.1572790E+03
Ar 1069  0.2688640E+02  0.1653290E+02  0.5452589E+01  0.1775101E+03
Ar 1070  0.2950447E+02  0.1907143E+02  0.5353359E+01  0.2084969E+03
Ar 1071  0.2961935E+02  0.1648445E+02  0.8246971E+01  0.6527579E+02
Ar 1072  0.2690268E+02  0.1907440E+02  0.7900133E+01  0.6037860E+02
Ar 1073  0.2654670E+02  0.1655947E+02  0.1040726E+02  0.2963742E+03
Ar 1074  0.2944212E+02  0.1917037E+02  0.1038946E+02  0.1121879E+03
Ar 1075  0.2944271E+02  0.1685141E+02  0.1359617E+02  0.9015116E+02
Ar 1076  0.2669241E+02  0.1891634E+02  0.1337134E+02  0.9362429E+02
Ar 1077  0.2671691E+02  0.1607481E+02  0.1607481E+02  0.4003700E+02
Ar 1078  0.2960057E+02  0.1941527E+02  0.1630778E+02  0.1098541E+03
Ar 1079  0.2960057E+02  0.1630778E+02  0.1941527E+02  0.1098541E+03
Ar 1080  0.2679815E+02  0.1894917E+02  0.1894917E+02  0.3697551E+02
Ar 1081  0.2674713E+02  0.1621938E+02  0.2178344E+02  0.2268921E+03
Ar 1082  0.2971716E+02  0.1895507E+02  0.2184198E+02  0.3644742E+03
Ar 1083  0.2960242E+02  0.1604908E+02  0.2415277E+02  0.2503682E+03
Ar 1084  0.2677376E+02  0.1885474E+02  0.2385052E+02  0.1314616E+03
Ar 1085  0.2671990E+02  0.1551037E+02  0.2671990E+02  0.6024733E+02
Ar 1086  0.3002953E+02  0.1876406E+02  0.2674797E+02  0.1624980E+03
Ar 1087  0.2939712E+02  0.1595228E+02  0.2939712E+02  0.4036734E+03
Ar 1088  0.2674797E+02  0.1876406E+02  0.3002953E+02  0.1624980E+03
Ar 1089  0.2677382E+02  0.1614220E+02  0.3231875E+02  0.1397948E+03
Ar 1090  0.2946458E+02  0.1917713E+02  0.3228165E+02  0.1806650E+02
Ar 1091  0.2971321E+02  0.1618306E+02  0.3521179E+02  0.1577261E+03
Ar 1092  0.2711678E+02  0.1897395E+02  0.3526198E+02  0.7103753E+02
Ar 1093  0.2675043E+02  0.2155872E+02  0.3928049E-02  0.2969572E+01
Ar 1094  0.2940193E+02  0.2420028E+02  0.3768160E+02  0.1186784E+02
Ar 1095  0.2928412E+02  0.2172325E+02  0.2734267E+01  0.2368129E+03
Ar 1096  0.2685152E+02  0.2431166E+02  0.2757105E+01  0.1408858E+03
Ar 1097  0.2689599E+02  0.2181156E+02  0.5212641E+01  0.2490440E+02
Ar 1098  0.2928713E+02  0.2437215E+02  0.5426057E+01  0.2235528E+03
Ar 1099  0.2966332E+02  0.2196157E+02  0.7864664E+01  0.2857838E+02
Ar 1100  0.2696124E+02  0.2447411E+02  0.8287218E+01  0.5902992E+02
Ar 1101  0.2674238E+02  0.2144797E+02  0.1082153E+02  0.1115850E+03
Ar 1102  0.2974243E+02  0.2429812E+02  0.1081659E+02  0.1231456E+03
Ar 1103  0.2962075E+02  0.2162179E+02  0.1345691E+02  0.1897759E+03
Ar 1104  0.2692090E+02  0.2397740E+02  0.1329279E+02  0.1103815E+02
Ar 1105  0.2674713E+02  0.2178344E+02  0.1621938E+02  0.2268921E+03
Ar 1106  0.2960242E+02  0.2415277E+02  0.1604908E+02  0.2503682E+03
Ar 1107  0.2971716E+02  0.2184198E+02  0.1895507E+02  0.3644742E+03
Ar 1108  0.2677376E+02  0.2385052E+02  0.1885474E+02  0.1314616E+03
Ar 1109  0.2662895E+02  0.2162795E+02  0.2162795E+02  0.4037990E+03
Ar 1110  0.2988670E+02  0.2404889E+02  0.2183122E+02  0.8597232E+02
Ar 1111  0.2988670E+02  0.2183122E+02  0.2404889E+02  0.8597232E+02
Ar 1112  0.2696779E+02  0.2412963E+02  0.2412963E+02  0.5755055E+03
Ar 1113  0.2687787E+02  0.2084102E+02  0.2687787E+02  0.6183510E+02
Ar 1114  0.2940446E+02  0.2369925E+02  0.2685449E+02  0.2579666E+03
Ar 1115  0.2984946E+02  0.2190859E+02  0.2984946E+02  0.2974804E+03
Ar 1116  0.2685449E+02  0.2369925E+02  0.2940446E+02  0.2579666E+03
Ar 1117  0.2678089E+02  0.2185292E+02  0.3231766E+02  0.2152637E+03
Ar 1118  0.2974630E+02  0.2413241E+02  0.3245659E+02  0.2715530E+03
Ar 1119  0.2961164E+02  0.2150229E+02  0.3481845E+02  0.1399551E+03
Ar 1120  0.2693493E+02  0.2430590E+02  0.3489361E+02  0.6101732E+02
Ar 1121  0.2674766E+02  0.2674766E+02  0.3767234E+02  0.3407646E+03
Ar 1122  0.2934978E+02  0.2934978E+02  0.3746750E+02  0.8381941E+02
Ar 1123  0.2926556E+02  0.2679513E+02  0.2632791E+01  0.1292943E+03
Ar 1124  0.2679513E+02  0.2926556E+02  0.2632791E+01  0.1292943E+03
Ar 1125  0.2687098E+02  0.2687098E+02  0.5455439E+01  0.4070265E+02
Ar 1126  0.2948191E+02  0.2948191E+02  0.5343872E+01  0.6483460E+02
Ar 1127  0.2981875E+02  0.2667275E+02  0.8208965E+01  0.3432659E+02
Ar 1128  0.2667275E+02  0.2981875E+02  0.8208965E+01  0.3432659E+02
Ar 1129  0.2722057E+02  0.2722057E+02  0.1056016E+02  0.7115083E+02
Ar 1130  0.2977530E+02  0.2977530E+02  0.1059540E+02  0.6189370E+02
Ar 1131  0.2962512E+02  0.2672782E+02  0.1341603E+02  0.2665657E+02
Ar 1132  0.2672782E+02  0.2962512E+02  0.1341603E+02  0.2665657E+02
Ar 1133  0.2671990E+02  0.2671990E+02  0.1551037E+02  0.6024733E+02
Ar 1134  0.2939712E+02  0.2939712E+02  0.1595228E+02  0.4036734E+03
Ar 1135  0.3002953E+02  0.2674797E+02  0.1876406E+02  0.1624980E+03
Ar 1136  0.2674797E+02  0.3002953E+02  0.1876406E+02  0.1624980E+03
Ar 1137  0.2687787E+02  0.2687787E+02  0.2084102E+02  0.6183510E+02
Ar 1138  0.2984946E+02  0.2984946E+02  0.2190859E+02  0.2974804E+03
Ar 1139  0.2940446E+02  0.2685449E+02  0.2369925E+02  0.2579666E+03
Ar 1140  0.2685449E+02  0.2940446E+02  0.2369925E+02  0.2579666E+03
Ar 1141  0.2755619E+02  0.2755619E+02  0.2755619E+02  0.2628363E+00
Ar 1142  0.2984443E+02  0.2984443E+02  0.2634116E+02  0.1021661E+03
Ar 1143  0.2984443E+02  0.2634116E+02  0.2984443E+02  0.1021661E+03
Ar 1144  0.2634116E+02  0.2984443E+02  0.2984443E+02  0.1021661E+03
Ar 1145  0.2698013E+02  0.2698013E+02  0.3237943E+02  0.4096966E+02
Ar 1146  0.2923948E+02  0.2923948E+02  0.3253611E+02  0.1441357E+02
Ar 1147  0.2938982E+02  0.2678069E+02  0.3524992E+02  0.1460427E+03
Ar 1148  0.2678069E+02  0.2938982E+02  0.3524992E+02  0.1460427E+03
Ar 1149  0.2721735E+02  0.3240612E+02  0.8403229E-01  0.9214327E+02
Ar 1150  0.2969856E+02  0.3493804E+02  0.3756888E+02  0.1166586E+02
Ar 1151  0.2964165E+02  0.3208045E+02  0.2552537E+01  0.8909548E+02
Ar 1152  0.2719214E+02  0.3478542E+02  0.2606281E+01  0.2947970E+03
Ar 1153  0.2692162E+02  0.3202671E+02  0.5162941E+01  0.2103419E+03
Ar 1154  0.2968102E+02  0.3488542E+02  0.5329573E+01  0.6687987E+02
Ar 1155  0.2962682E+02  0.3228143E+02  0.8057342E+01  0.2060152E+02
Ar 1156  0.2742101E+02  0.3522613E+02  0.8214143E+01  0.8985028E+02
Ar 1157  0.2700448E+02  0.3239225E+02  0.1048123E+02  0.1399162E+03
Ar 1158  0.3014863E+02  0.3521315E+02  0.1082288E+02  0.1418168E+03
Ar 1159  0.2957175E+02  0.3238843E+02  0.1365383E+02  0.1655465E+03
Ar 1160  0.2712539E+02  0.3525946E+02  0.1341257E+02  0.5453371E+02
Ar 1161  0.2677382E+02  0.3231875E+02  0.1614220E+02  0.1397948E+03
Ar 1162  0.2971321E+02  0.3521179E+02  0.1618306E+02  0.1577261E+03
Ar 1163  0.2946458E+02  0.3228165E+02  0.1917713E+02  0.1806650E+02
Ar 1164  0.2711678E+02  0.3526198E+02  0.1897395E+02  0.7103753E+02
Ar 1165  0.2678089E+02  0.3231766E+02  0.2185292E+02  0.2152637E+03
Ar 1166  0.2961164E+02  0.3481845E+02  0.2150229E+02  0.1399551E+03
Ar 1167  0.2974630E+02  0.3245659E+02  0.2413241E+02  0.2715530E+03
Ar 1168  0.2693493E+02  0.3489361E+02  0.2430590E+02  0.6101732E+02
Ar 1169  0.2698013E+02  0.3237943E+02  0.2698013E+02  0.4096966E+02
Ar 1170  0.2938982E+02  0.3524992E+02  0.2678069E+02  0.1460427E+03
Ar 1171  0.2923948E+02  0.3253611E+02  0.2923948E+02  0.1441357E+02
Ar 1172  0.2678069E+02  0.3524992E+02  0.2938982E+02  0.1460427E+03
Ar 1173  0.2653136E+02  0.3235517E+02  0.3235517E+02  0.5566173E+02
Ar 1174  0.2942395E+02  0.3455326E+02  0.3198298E+02  0.1553679E+03
Ar 1175  0.2942395E+02  0.3198298E+02  0.3455326E+02  0.1553679E+03
Ar 1176  0.2693648E+02  0.3503301E+02  0.3503301E+02  0.1896658E+03
Ar 1177  0.3198645E+02  0.3760913E+02  0.3760913E+02  0.3184276E+02
Ar 1178  0.3502020E+02  0.2579289E+01  0.3770179E+02  0.2106149E+03
Ar 1179  0.3502020E+02  0.3770179E+02  0.2579289E+01  0.2106149E+03
Ar 1180  0.3266319E+02  0.2590781E+01  0.2590781E+01  0.6449355E+02
Ar 1181  0.3207676E+02  0.5169312E-01  0.5254393E+01  0.3006381E+02
Ar 1182  0.3495056E+02  0.2652786E+01  0.5715136E+01  0.1833593E+03
Ar 1183  0.3515655E+02  0.1236878E+00  0.8142607E+01  0.1038599E+03
Ar 1184  0.3191591E+02  0.2822698E+01  0.8056378E+01  0.1212672E+03
Ar 1185  0.3228263E+02  0.1307947E+00  0.1058241E+02  0.6995100E+02
Ar 1186  0.3471041E+02  0.2833768E+01  0.1099451E+02  0.2833882E+02
Ar 1187  0.3521664E+02  0.6137355E-01  0.1366705E+02  0.3179173E+02
Ar 1188  0.3188162E+02  0.2770599E+01  0.1386540E+02  0.1617975E+03
Ar 1189  0.3233055E+02  0.3774660E+02  0.1608005E+02  0.4483851E+02
Ar 1190  0.3477546E+02  0.2825710E+01  0.1623682E+02  0.8695526E+01
Ar 1191  0.3500030E+02  0.2586029E-01  0.1851099E+02  0.4655806E+02
Ar 1192  0.3223138E+02  0.2580391E+01  0.1898157E+02  0.5992445E+02
Ar 1193  0.3258012E+02  0.1213243E+00  0.2158230E+02  0.2552000E+02
Ar 1194  0.3514170E+02  0.2852458E+01  0.2125981E+02  0.2723463E+02
Ar 1195  0.3509657E+02  0.3929016E-01  0.2434816E+02  0.1197275E+02
Ar 1196  0.3215797E+02  0.2475578E+01  0.2445710E+02  0.5860785E+01
Ar 1197  0.3240612E+02  0.8403229E-01  0.2721735E+02  0.9214327E+02
Ar 1198  0.3478542E+02  0.2606281E+01  0.2719214E+02  0.2947970E+03
Ar 1199  0.3493804E+02  0.3756888E+02  0.2969856E+02  0.1166586E+02
Ar 1200  0.3208045E+02  0.2552537E+01  0.2964165E+02  0.8909548E+02
Ar 1201  0.3250846E+02  0.2963740E-02  0.3250846E+02  0.2796606E+03
Ar 1202  0.3521017E+02  0.3054372E+01  0.3236434E+02  0.1567181E+02
Ar 1203  0.3518738E+02  0.2100378E+00  0.3518738E+02  0.7307621E+02
Ar 1204  0.3236434E+02  0.3054372E+01  0.3521017E+02  0.1567181E+02
Ar 1205  0.3207676E+02  0.5254393E+01  0.5169312E-01  0.3006381E+02
Ar 1206  0.3515655E+02  0.8142607E+01  0.1236878E+00  0.1038599E+03
Ar 1207  0.3495056E+02  0.5715136E+01  0.2652786E+01  0.1833593E+03
Ar 1208  0.3191591E+02  0.8056378E+01  0.2822698E+01  0.1212672E+03
Ar 1209  0.3266566E+02  0.5614346E+01  0.5614346E+01  0.6314546E+02
Ar 1210  0.3499789E+02  0.8618025E+01  0.5809051E+01  0.2428018E+02
Ar 1211  0.3499789E+02  0.5809051E+01  0.8618025E+01  0.2428018E+02
Ar 1212  0.3191892E+02  0.8286772E+01  0.8286772E+01  0.6977489E+02
Ar 1213  0.3202244E+02  0.5219862E+01  0.1067843E+02  0.1057847E+03
Ar 1214  0.3517424E+02  0.8038443E+01  0.1114168E+02  0.4610639E+02
Ar 1215  0.3498054E+02  0.5252992E+01  0.1360699E+02  0.2206970E+03
Ar 1216  0.3238959E+02  0.7839747E+01  0.1337312E+02  0.1087024E+03
Ar 1217  0.3222412E+02  0.5618723E+01  0.1646767E+02  0.3037215E+02
Ar 1218  0.3492017E+02  0.8189386E+01  0.1621899E+02  0.7072166E+02
Ar 1219  0.3487871E+02  0.5519110E+01  0.1864608E+02  0.2623169E+02
Ar 1220  0.3238646E+02  0.8058386E+01  0.1886831E+02  0.4968728E+02
Ar 1221  0.3237609E+02  0.5401577E+01  0.2148764E+02  0.5611074E+02
Ar 1222  0.3507780E+02  0.8015515E+01  0.2147025E+02  0.2840692E+01
Ar 1223  0.3518490E+02  0.5468767E+01  0.2436983E+02  0.1835796E+02
Ar 1224  0.3253860E+02  0.7913182E+01  0.2430104E+02  0.3459302E+02
Ar 1225  0.3202671E+02  0.5162941E+01  0.2692162E+02  0.2103419E+03
Ar 1226  0.3522613E+02  0.8214143E+01  0.2742101E+02  0.8985028E+02
Ar 1227  0.3488542E+02  0.5329573E+01  0.2968102E+02  0.6687987E+02
Ar 1228  0.3228143E+02  0.8057342E+01  0.2962682E+02  0.2060152E+02
Ar 1229  0.3209970E+02  0.5370078E+01  0.3209970E+02  0.1070482E+03
Ar 1230  0.3513749E+02  0.7944911E+01  0.3219764E+02  0.7078494E+02
Ar 1231  0.3508402E+02  0.5344632E+01  0.3508402E+02  0.9775537E+02
Ar 1232  0.3219764E+02  0.7944911E+01  0.3513749E+02  0.7078494E+02
Ar 1233  0.3228263E+02  0.1058241E+02  0.1307947E+00  0.6995100E+02
Ar 1234  0.3521664E+02  0.1366705E+02  0.6137355E-01  0.3179173E+02
Ar 1235  0.3471041E+02  0.1099451E+02  0.2833768E+01  0.2833882E+02
Ar 1236  0.3188162E+02  0.1386540E+02  0.2770599E+01  0.1617975E+03
Ar 1237  0.3202244E+02  0.1067843E+02  0.5219862E+01  0.1057847E+03
Ar 1238  0.3498054E+02  0.1360699E+02  0.5252992E+01  0.2206970E+03
Ar 1239  0.3517424E+02  0.1114168E+02  0.8038443E+01  0.4610639E+02
Ar 1240  0.3238959E+02  0.1337312E+02  0.7839747E+01  0.1087024E+03
Ar 1241  0.3178618E+02  0.1096611E+02  0.1096611E+02  0.1008530E+03
Ar 1242  0.3452389E+02  0.1420167E+02  0.1125011E+02  0.3781207E+02
Ar 1243  0.3452389E+02  0.1125011E+02  0.1420167E+02  0.3781207E+02
Ar 1244  0.3218022E+02  0.1378844E+02  0.1378844E+02  0.8313556E+02
Ar 1245  0.3217044E+02  0.1159487E+02  0.1707862E+02  0.2041783E+03
Ar 1246  0.3477117E+02  0.1380566E+02  0.1664207E+02  0.7006009E+02
Ar 1247  0.3516533E+02  0.1093928E+02  0.1899328E+02  0.2508971E+03
Ar 1248  0.3250478E+02  0.1380707E+02  0.1944286E+02  0.1208507E+03
Ar 1249  0.3234380E+02  0.1046579E+02  0.2177920E+02  0.1059365E+03
Ar 1250  0.3549263E+02  0.1375015E+02  0.2174533E+02  0.4493533E+02
Ar 1251  0.3532405E+02  0.1040430E+02  0.2433112E+02  0.1070167E+02
Ar 1252  0.3263000E+02  0.1308936E+02  0.2465103E+02  0.1835388E+02
Ar 1253  0.3239225E+02  0.1048123E+02  0.2700448E+02  0.1399162E+03
Ar 1254  0.3525946E+02  0.1341257E+02  0.2712539E+02  0.5453371E+02
Ar 1255  0.3521315E+02  0.1082288E+02  0.3014863E+02  0.1418168E+03
Ar 1256  0.3238843E+02  0.1365383E+02  0.2957175E+02  0.1655465E+03
Ar 1257  0.3217715E+02  0.1070663E+02  0.3217715E+02  0.3505672E+02
Ar 1258  0.3508708E+02  0.1364232E+02  0.3262770E+02  0.1199256E+03
Ar 1259  0.3478336E+02  0.1075203E+02  0.3478336E+02  0.1084621E+03
Ar 1260  0.3262770E+02  0.1364232E+02  0.3508708E+02  0.1199256E+03
Ar 1261  0.3233055E+02  0.1608005E+02  0.3774660E+02  0.4483851E+02
Ar 1262  0.3500030E+02  0.1851099E+02  0.2586029E-01  0.4655806E+02
Ar 1263  0.3477546E+02  0.1623682E+02  0.2825710E+01  0.8695526E+01
Ar 1264  0.3223138E+02  0.1898157E+02  0.2580391E+01  0.5992445E+02
Ar 1265  0.3222412E+02  0.1646767E+02  0.5618723E+01  0.3037215E+02
Ar 1266  0.3487871E+02  0.1864608E+02  0.5519110E+01  0.2623169E+02
Ar 1267  0.3492017E+02  0.1621899E+02  0.8189386E+01  0.7072166E+02
Ar 1268  0.3238646E+02  0.1886831E+02  0.8058386E+01  0.4968728E+02
Ar 1269  0.3217044E+02  0.1707862E+02  0.1159487E+02  0.2041783E+03
Ar 1270  0.3516533E+02  0.1899328E+02  0.1093928E+02  0.2508971E+03
Ar 1271  0.3477117E+02  0.1664207E+02  0.1380566E+02  0.7006009E+02
Ar 1272  0.3250478E+02  0.1944286E+02  0.1380707E+02  0.1208507E+03
Ar 1273  0.3243924E+02  0.1662246E+02  0.1662246E+02  0.6143777E+02
Ar 1274  0.3531128E+02  0.1919194E+02  0.1637511E+02  0.2426451E+03
Ar 1275  0.3531128E+02  0.1637511E+02  0.1919194E+02  0.2426451E+03
Ar 1276  0.3259059E+02  0.1907043E+02  0.1907043E+02  0.1723687E+03
Ar 1277  0.3252579E+02  0.1621022E+02  0.2183924E+02  0.1615356E+03
Ar 1278  0.3508197E+02  0.1901922E+02  0.2162891E+02  0.4910329E+02
Ar 1279  0.3488763E+02  0.1632937E+02  0.2443732E+02  0.2322961E+02
Ar 1280  0.3237194E+02  0.1898029E+02  0.2403700E+02  0.1211048E+03
Ar 1281  0.3231875E+02  0.1614220E+02  0.2677382E+02  0.1397948E+03
Ar 1282  0.3526198E+02  0.1897395E+02  0.2711678E+02  0.7103753E+02
Ar 1283  0.3521179E+02  0.1618306E+02  0.2971321E+02  0.1577261E+03
Ar 1284  0.3228165E+02  0.1917713E+02  0.2946458E+02  0.1806650E+02
Ar 1285  0.3205573E+02  0.1651376E+02  0.3205573E+02  0.2756612E+03
Ar 1286  0.3547630E+02  0.1882158E+02  0.3251518E+02  0.9878598E+02
Ar 1287  0.3510592E+02  0.1600496E+02  0.3510592E+02  0.1042939E+03
Ar 1288  0.3251518E+02  0.1882158E+02  0.3547630E+02  0.9878598E+02
Ar 1289  0.3258012E+02  0.2158230E+02  0.1213243E+00  0.2552000E+02
Ar 1290  0.3509657E+02  0.2434816E+02  0.3929016E-01  0.1197275E+02
Ar 1291  0.3514170E+02  0.2125981E+02  0.2852458E+01  0.2723463E+02
Ar 1292  0.3215797E+02  0.2445710E+02  0.2475578E+01  0.5860785E+01
Ar 1293  0.3237609E+02  0.2148764E+02  0.5401577E+01  0.5611074E+02
Ar 1294  0.3518490E+02  0.2436983E+02  0.5468767E+01  0.1835796E+02
Ar 1295  0.3507780E+02  0.2147025E+02  0.8015515E+01  0.2840692E+01
Ar 1296  0.3253860E+02  0.2430104E+02  0.7913182E+01  0.3459302E+02
Ar 1297  0.3234380E+02  0.2177920E+02  0.1046579E+02  0.1059365E+03
Ar 1298  0.3532405E+02  0.2433112E+02  0.1040430E+02  0.1070167E+02
Ar 1299  0.3549263E+02  0.2174533E+02  0.1375015E+02  0.4493533E+02
Ar 1300  0.3263000E+02  0.2465103E+02  0.1308936E+02  0.1835388E+02
Ar 1301  0.3252579E+02  0.2183924E+02  0.1621022E+02  0.1615356E+03
Ar 1302  0.3488763E+02  0.2443732E+02  0.1632937E+02  0.2322961E+02
Ar 1303  0.3508197E+02  0.2162891E+02  0.1901922E+02  0.4910329E+02
Ar 1304  0.3237194E+02  0.2403700E+02  0.1898029E+02  0.1211048E+03
Ar 1305  0.3219973E+02  0.2147409E+02  0.2147409E+02  0.3131297E+02
Ar 1306  0.3464960E+02  0.2432970E+02  0.2149764E+02  0.1937301E+03
Ar 1307  0.3464960E+02  0.2149764E+02  0.2432970E+02  0.1937301E+03
Ar 1308  0.3214942E+02  0.2427928E+02  0.2427928E+02  0.2997329E+03
Ar 1309  0.3231766E+02  0.2185292E+02  0.2678089E+02  0.2152637E+03
Ar 1310  0.3489361E+02  0.2430590E+02  0.2693493E+02  0.6101732E+02
Ar 1311  0.3481845E+02  0.2150229E+02  0.2961164E+02  0.1399551E+03
Ar 1312  0.3245659E+02  0.2413241E+02  0.2974630E+02  0.2715530E+03
Ar 1313  0.3248475E+02  0.2152076E+02  0.3248475E+02  0.1927220E+02
Ar 1314  0.3533615E+02  0.2414654E+02  0.3221302E+02  0.1737912E+03
Ar 1315  0.3536032E+02  0.2130255E+02  0.3536032E+02  0.1380466E+03
Ar 1316  0.3221302E+02  0.2414654E+02  0.3533615E+02  0.1737912E+03
Ar 1317  0.3240612E+02  0.2721735E+02  0.8403229E-01  0.9214327E+02
Ar 1318  0.3493804E+02  0.2969856E+02  0.3756888E+02  0.1166586E+02
Ar 1319  0.3478542E+02  0.2719214E+02  0.2606281E+01  0.2947970E+03
Ar 1320  0.3208045E+02  0.2964165E+02  0.2552537E+01  0.8909548E+02
Ar 1321  0.3202671E+02  0.2692162E+02  0.5162941E+01  0.2103419E+03
Ar 1322  0.3488542E+02  0.2968102E+02  0.5329573E+01  0.6687987E+02
Ar 1323  0.3522613E+02  0.2742101E+02  0.8214143E+01  0.8985028E+02
Ar 1324  0.3228143E+02  0.2962682E+02  0.8057342E+01  0.2060152E+02
Ar 1325  0.3239225E+02  0.2700448E+02  0.1048123E+02  0.1399162E+03
Ar 1326  0.3521315E+02  0.3014863E+02  0.1082288E+02  0.1418168E+03
Ar 1327  0.3525946E+02  0.2712539E+02  0.1341257E+02  0.5453371E+02
Ar 1328  0.3238843E+02  0.2957175E+02  0.1365383E+02  0.1655465E+03
Ar 1329  0.3231875E+02  0.2677382E+02  0.1614220E+02  0.1397948E+03
Ar 1330  0.3521179E+02  0.2971321E+02  0.1618306E+02  0.1577261E+03
Ar 1331  0.3526198E+02  0.2711678E+02  0.1897395E+02  0.7103753E+02
Ar 1332  0.3228165E+02  0.2946458E+02  0.1917713E+02  0.1806650E+02
Ar 1333  0.3231766E+02  0.2678089E+02  0.2185292E+02  0.2152637E+03
Ar 1334  0.3481845E+02  0.2961164E+02  0.2150229E+02  0.1399551E+03
Ar 1335  0.3489361E+02  0.2693493E+02  0.2430590E+02  0.6101732E+02
Ar 1336  0.3245659E+02  0.2974630E+02  0.2413241E+02  0.2715530E+03
Ar 1337  0.3237943E+02  0.2698013E+02  0.2698013E+02  0.4096966E+02
Ar 1338  0.3524992E+02  0.2938982E+02  0.2678069E+02  0.1460427E+03
Ar 1339  0.3524992E+02  0.2678069E+02  0.2938982E+02  0.1460427E+03
Ar 1340  0.3253611E+02  0.2923948E+02  0.2923948E+02  0.1441357E+02
Ar 1341  0.3235517E+02  0.2653136E+02  0.3235517E+02  0.5566173E+02
Ar 1342  0.3455326E+02  0.2942395E+02  0.3198298E+02  0.1553679E+03
Ar 1343  0.3503301E+02  0.2693648E+02  0.3503301E+02  0.1896658E+03
Ar 1344  0.3198298E+02  0.2942395E+02  0.3455326E+02  0.1553679E+03
Ar 1345  0.3250846E+02  0.3250846E+02  0.2963740E-02  0.2796606E+03
Ar 1346  0.3518738E+02  0.3518738E+02  0.2100378E+00  0.7307621E+02
Ar 1347  0.3521017E+02  0.3236434E+02  0.3054372E+01  0.1567181E+02
Ar 1348  0.3236434E+02  0.3521017E+02  0.3054372E+01  0.1567181E+02
Ar 1349  0.3209970E+02  0.3209970E+02  0.5370078E+01  0.1070482E+03
Ar 1350  0.3508402E+02  0.3508402E+02  0.5344632E+01  0.9775537E+02
Ar 1351  0.3513749E+02  0.3219764E+02  0.7944911E+01  0.7078494E+02
Ar 1352  0.3219764E+02  0.3513749E+02  0.7944911E+01  0.7078494E+02
Ar 1353  0.3217715E+02  0.3217715E+02  0.1070663E+02  0.3505672E+02
Ar 1354  0.3478336E+02  0.3478336E+02  0.1075203E+02  0.1084621E+03
Ar 1355  0.3508708E+02  0.3262770E+02  0.1364232E+02  0.1199256E+03
Ar 1356  0.3262770E+02  0.3508708E+02  0.1364232E+02  0.1199256E+03
Ar 1357  0.3205573E+02  0.3205573E+02  0.1651376E+02  0.2756612E+03
Ar 1358  0.3510592E+02  0.3510592E+02  0.1600496E+02  0.1042939E+03
Ar 1359  0.3547630E+02  0.3251518E+02  0.1882158E+02  0.9878598E+02
Ar 1360  0.3251518E+02  0.3547630E+02  0.1882158E+02  0.9878598E+02
Ar 1361  0.3248475E+02  0.3248475E+02  0.2152076E+02  0.1927220E+02
Ar 1362  0.3536032E+02  0.3536032E+02  0.2130255E+02  0.1380466E+03
Ar 1363  0.3533615E+02  0.3221302E+02  0.2414654E+02  0.1737912E+03
Ar 1364  0.3221302E+02  0.3533615E+02  0.2414654E+02  0.1737912E+03
Ar 1365  0.3235517E+02  0.3235517E+02  0.2653136E+02  0.5566173E+02
Ar 1366  0.3503301E+02  0.3503301E+02  0.2693648E+02  0.1896658E+03
Ar 1367  0.3455326E+02  0.3198298E+02  0.2942395E+02  0.1553679E+03
Ar 1368  0.3198298E+02  0.3455326E+02  0.2942395E+02  0.1553679E+03
Ar 1369  0.3180451E+02  0.3180451E+02  0.3180451E+02  0.1461991E+03
Ar 1370  0.3458056E+02  0.3458056E+02  0.3183201E+02  0.1130729E+03
Ar 1371  0.3458056E+02  0.3183201E+02  0.3458056E+02  0.1130729E+03
Ar 1372  0.3183201E+02  0.3458056E+02  0.3458056E+02  0.1130729E+03
