        1372
Lattice="  0.3778015E+02  0.0000000E+00  0.0000000E+00  0.0000000E+00  0.3778015E+02  0.0000000E+00  0.0000000E+00  0.0000000E+00  0.3778015E+02" Properties=species:S:1:id:I:1:pos:R:3:tempK:R:1
Ar    1  0.3949273E+00  0.3949273E+00  0.3949274E+00  0.1784501E+03
Ar    2  0.2831036E+01  0.2831036E+01  0.3708952E+02  0.2089041E+03
Ar    3  0.2831036E+01  0.3708952E+02  0.2831036E+01  0.2089041E+03
Ar    4  0.3708952E+02  0.2831036E+01  0.2831036E+01  0.2089041E+03
Ar    5  0.3758144E+02  0.3758144E+02  0.5546445E+01  0.1825804E+02
Ar    6  0.2415632E+01  0.2415632E+01  0.4909618E+01  0.7227972E+02
Ar    7  0.2839010E+01  0.3758857E+02  0.8024396E+01  0.1339084E+03
Ar    8  0.3758857E+02  0.2839010E+01  0.8024396E+01  0.1339084E+03
Ar    9  0.3759202E+02  0.3759202E+02  0.1086682E+02  0.1372519E+03
Ar   10  0.2555429E+01  0.2555429E+01  0.1078747E+02  0.7303013E+03
Ar   11  0.2788643E+01  0.3759023E+02  0.1329096E+02  0.1375999E+03
Ar   12  0.3759023E+02  0.2788643E+01  0.1329096E+02  0.1375999E+03
Ar   13  0.3762163E+02  0.3762163E+02  0.1622533E+02  0.2027068E+03
Ar   14  0.2392969E+01  0.2392969E+01  0.1599476E+02  0.2669340E+03
Ar   15  0.2624242E+01  0.3770200E+02  0.1866386E+02  0.2398452E+03
Ar   16  0.3770200E+02  0.2624242E+01  0.1866386E+02  0.2398452E+03
Ar   17  0.3744120E+02  0.3744120E+02  0.2116043E+02  0.1235647E+03
Ar   18  0.2283021E+01  0.2283021E+01  0.2098774E+02  0.7412325E+02
Ar   19  0.2647426E+01  0.2165009E+00  0.2403221E+02  0.3177512E+02
Ar   20  0.2165009E+00  0.2647426E+01  0.2403221E+02  0.3177512E+02
Ar   21  0.3766863E+02  0.3766863E+02  0.2649835E+02  0.7573753E+02
Ar   22  0.2835341E+01  0.2835341E+01  0.2722316E+02  0.2924896E+03
Ar   23  0.2384817E+01  0.2404092E-01  0.2959576E+02  0.2176564E+03
Ar   24  0.2404093E-01  0.2384817E+01  0.2959576E+02  0.2176564E+03
Ar   25  0.3732308E+02  0.3732308E+02  0.3187575E+02  0.3738311E+03
Ar   26  0.2654546E+01  0.2654546E+01  0.3223019E+02  0.5031073E+02
Ar   27  0.2244709E+01  0.3739431E+02  0.3465655E+02  0.3111962E+03
Ar   28  0.3739431E+02  0.2244709E+01  0.3465655E+02  0.3111962E+03
Ar   29  0.3758144E+02  0.5546445E+01  0.3758144E+02  0.1825804E+02
Ar   30  0.2839010E+01  0.8024396E+01  0.3758857E+02  0.1339084E+03
Ar   31  0.2415632E+01  0.4909618E+01  0.2415632E+01  0.7227971E+02
Ar   32  0.3758857E+02  0.8024396E+01  0.2839010E+01  0.1339084E+03
Ar   33  0.3725543E+02  0.5273020E+01  0.5273020E+01  0.5946661E+02
Ar   34  0.2890917E+01  0.8149472E+01  0.5276499E+01  0.3315280E+02
Ar   35  0.2890917E+01  0.5276499E+01  0.8149472E+01  0.3315280E+02
Ar   36  0.3746404E+02  0.8572574E+01  0.8572574E+01  0.6915474E+02
Ar   37  0.1236876E+00  0.5665151E+01  0.1055899E+02  0.7234497E+02
Ar   38  0.2798684E+01  0.8185856E+01  0.1072106E+02  0.3289010E+03
Ar   39  0.2913391E+01  0.5617461E+01  0.1360169E+02  0.5253438E+02
Ar   40  0.3767779E+02  0.8383112E+01  0.1408638E+02  0.3427950E+03
Ar   41  0.1092674E+00  0.5538826E+01  0.1589652E+02  0.4324362E+03
Ar   42  0.2318029E+01  0.8137559E+01  0.1706779E+02  0.1669095E+03
Ar   43  0.2386351E+01  0.4960535E+01  0.1855508E+02  0.5317500E+02
Ar   44  0.3704782E+02  0.8264092E+01  0.1916517E+02  0.2593440E+03
Ar   45  0.3760350E+02  0.5441143E+01  0.2136093E+02  0.1546247E+03
Ar   46  0.2321649E+01  0.7970655E+01  0.2118476E+02  0.4451380E+02
Ar   47  0.2557056E+01  0.5601272E+01  0.2422864E+02  0.1514551E+03
Ar   48  0.3773004E+02  0.8083775E+01  0.2424831E+02  0.8477122E+02
Ar   49  0.1901894E+00  0.5485345E+01  0.2695842E+02  0.2141759E+03
Ar   50  0.2551715E+01  0.8107789E+01  0.2729224E+02  0.1413080E+03
Ar   51  0.2762985E+01  0.5240681E+01  0.2964116E+02  0.1731422E+03
Ar   52  0.1375102E+00  0.7792138E+01  0.2976932E+02  0.1216691E+03
Ar   53  0.3765166E+02  0.5006422E+01  0.3204774E+02  0.4131676E+03
Ar   54  0.2703605E+01  0.7977402E+01  0.3214065E+02  0.5601741E+01
Ar   55  0.2627078E+01  0.5606956E+01  0.3478340E+02  0.3210839E+03
Ar   56  0.4101816E-01  0.8150400E+01  0.3462256E+02  0.5108667E+02
Ar   57  0.3759202E+02  0.1086682E+02  0.3759202E+02  0.1372519E+03
Ar   58  0.2788643E+01  0.1329096E+02  0.3759023E+02  0.1375999E+03
Ar   59  0.2555429E+01  0.1078747E+02  0.2555429E+01  0.7303013E+03
Ar   60  0.3759023E+02  0.1329096E+02  0.2788643E+01  0.1375999E+03
Ar   61  0.1236876E+00  0.1055899E+02  0.5665151E+01  0.7234497E+02
Ar   62  0.2913391E+01  0.1360169E+02  0.5617461E+01  0.5253439E+02
Ar   63  0.2798684E+01  0.1072106E+02  0.8185856E+01  0.3289010E+03
Ar   64  0.3767779E+02  0.1408638E+02  0.8383112E+01  0.3427950E+03
Ar   65  0.3725328E+02  0.1122476E+02  0.1122476E+02  0.1031544E+03
Ar   66  0.2387455E+01  0.1380223E+02  0.1119205E+02  0.7208515E+02
Ar   67  0.2387455E+01  0.1119205E+02  0.1380223E+02  0.7208515E+02
Ar   68  0.3737846E+02  0.1373859E+02  0.1373859E+02  0.1998184E+02
Ar   69  0.3772894E+02  0.1096511E+02  0.1639551E+02  0.1830265E+03
Ar   70  0.2411966E+01  0.1362717E+02  0.1625251E+02  0.1233256E+03
Ar   71  0.2639121E+01  0.1117930E+02  0.1901986E+02  0.5667099E+02
Ar   72  0.3737622E+02  0.1373665E+02  0.1889672E+02  0.2865662E+02
Ar   73  0.3770383E+02  0.1055602E+02  0.2167787E+02  0.4022537E+02
Ar   74  0.2385585E+01  0.1375441E+02  0.2139228E+02  0.4483176E+03
Ar   75  0.2752291E+01  0.1090577E+02  0.2450194E+02  0.7044451E+02
Ar   76  0.3768804E+02  0.1308006E+02  0.2437755E+02  0.3054224E+03
Ar   77  0.1865856E-01  0.1085188E+02  0.2712688E+02  0.6903229E+02
Ar   78  0.2286744E+01  0.1344917E+02  0.2703225E+02  0.1243467E+03
Ar   79  0.2511596E+01  0.1077266E+02  0.2987098E+02  0.1871236E+03
Ar   80  0.2212254E+00  0.1370396E+02  0.2973997E+02  0.1308842E+03
Ar   81  0.3770619E+02  0.1141183E+02  0.3223387E+02  0.2641223E+03
Ar   82  0.2928041E+01  0.1410011E+02  0.3228069E+02  0.1904317E+03
Ar   83  0.2891886E+01  0.1090741E+02  0.3499312E+02  0.1776829E+02
Ar   84  0.3674924E-02  0.1380162E+02  0.3507450E+02  0.5717914E+02
Ar   85  0.3762163E+02  0.1622533E+02  0.3762163E+02  0.2027068E+03
Ar   86  0.2624242E+01  0.1866386E+02  0.3770200E+02  0.2398452E+03
Ar   87  0.2392969E+01  0.1599476E+02  0.2392969E+01  0.2669340E+03
Ar   88  0.3770200E+02  0.1866386E+02  0.2624242E+01  0.2398452E+03
Ar   89  0.1092674E+00  0.1589652E+02  0.5538826E+01  0.4324362E+03
Ar   90  0.2386351E+01  0.1855508E+02  0.4960535E+01  0.5317501E+02
Ar   91  0.2318029E+01  0.1706779E+02  0.8137559E+01  0.1669095E+03
Ar   92  0.3704782E+02  0.1916517E+02  0.8264092E+01  0.2593440E+03
Ar   93  0.3772894E+02  0.1639551E+02  0.1096511E+02  0.1830265E+03
Ar   94  0.2639121E+01  0.1901986E+02  0.1117930E+02  0.5667098E+02
Ar   95  0.2411966E+01  0.1625251E+02  0.1362717E+02  0.1233256E+03
Ar   96  0.3737622E+02  0.1889672E+02  0.1373665E+02  0.2865662E+02
Ar   97  0.3768380E+02  0.1636993E+02  0.1636993E+02  0.2243175E+03
Ar   98  0.2282021E+01  0.1890975E+02  0.1601940E+02  0.3067258E+03
Ar   99  0.2282021E+01  0.1601940E+02  0.1890975E+02  0.3067258E+03
Ar  100  0.3776648E+02  0.1894270E+02  0.1894270E+02  0.1111666E+03
Ar  101  0.1366456E-01  0.1659535E+02  0.2166677E+02  0.6604421E+02
Ar  102  0.2762716E+01  0.1859253E+02  0.2206279E+02  0.2840452E+03
Ar  103  0.2232193E+01  0.1571359E+02  0.2443659E+02  0.1834706E+03
Ar  104  0.3774698E+02  0.1918469E+02  0.2432862E+02  0.2115977E+03
Ar  105  0.3767080E+02  0.1627605E+02  0.2688930E+02  0.7095592E+03
Ar  106  0.2424293E+01  0.1888407E+02  0.2699086E+02  0.3815001E+03
Ar  107  0.2756356E+01  0.1631719E+02  0.2919752E+02  0.7952409E+02
Ar  108  0.9964178E-01  0.1925932E+02  0.2958740E+02  0.3065986E+02
Ar  109  0.2440834E+00  0.1650952E+02  0.3246686E+02  0.1841112E+03
Ar  110  0.2805461E+01  0.1893724E+02  0.3185076E+02  0.2155509E+02
Ar  111  0.2835683E+01  0.1609273E+02  0.3538819E+02  0.6018649E+02
Ar  112  0.2076655E+00  0.1908627E+02  0.3463057E+02  0.5350111E+02
Ar  113  0.3744120E+02  0.2116043E+02  0.3744120E+02  0.1235647E+03
Ar  114  0.2647426E+01  0.2403221E+02  0.2165009E+00  0.3177512E+02
Ar  115  0.2283021E+01  0.2098774E+02  0.2283021E+01  0.7412324E+02
Ar  116  0.2165009E+00  0.2403221E+02  0.2647426E+01  0.3177512E+02
Ar  117  0.3760350E+02  0.2136093E+02  0.5441143E+01  0.1546247E+03
Ar  118  0.2557056E+01  0.2422864E+02  0.5601272E+01  0.1514551E+03
Ar  119  0.2321649E+01  0.2118476E+02  0.7970655E+01  0.4451380E+02
Ar  120  0.3773004E+02  0.2424831E+02  0.8083775E+01  0.8477121E+02
Ar  121  0.3770383E+02  0.2167787E+02  0.1055602E+02  0.4022537E+02
Ar  122  0.2752291E+01  0.2450194E+02  0.1090577E+02  0.7044450E+02
Ar  123  0.2385585E+01  0.2139228E+02  0.1375441E+02  0.4483176E+03
Ar  124  0.3768804E+02  0.2437755E+02  0.1308006E+02  0.3054224E+03
Ar  125  0.1366455E-01  0.2166677E+02  0.1659535E+02  0.6604421E+02
Ar  126  0.2232193E+01  0.2443659E+02  0.1571359E+02  0.1834706E+03
Ar  127  0.2762716E+01  0.2206279E+02  0.1859253E+02  0.2840452E+03
Ar  128  0.3774698E+02  0.2432862E+02  0.1918469E+02  0.2115977E+03
Ar  129  0.1849348E+00  0.2154036E+02  0.2154036E+02  0.1882477E+03
Ar  130  0.2820382E+01  0.2457072E+02  0.2136999E+02  0.1751227E+02
Ar  131  0.2820382E+01  0.2136999E+02  0.2457072E+02  0.1751228E+02
Ar  132  0.7374730E+00  0.2402992E+02  0.2402992E+02  0.2735653E+03
Ar  133  0.1269000E+00  0.2179397E+02  0.2665129E+02  0.1074267E+03
Ar  134  0.3627740E+01  0.2451312E+02  0.2698028E+02  0.1710281E+03
Ar  135  0.3090679E+01  0.2133167E+02  0.2921632E+02  0.8855284E+02
Ar  136  0.4925256E+00  0.2378357E+02  0.2921270E+02  0.8532632E+02
Ar  137  0.7180073E+00  0.2179957E+02  0.3229995E+02  0.6472672E+02
Ar  138  0.2895265E+01  0.2471781E+02  0.3228126E+02  0.7278761E+01
Ar  139  0.2850736E+01  0.2194343E+02  0.3512837E+02  0.7088641E+02
Ar  140  0.2712863E+00  0.2439931E+02  0.3470758E+02  0.2379115E+02
Ar  141  0.3766863E+02  0.2649835E+02  0.3766863E+02  0.7573754E+02
Ar  142  0.2384817E+01  0.2959576E+02  0.2404092E-01  0.2176563E+03
Ar  143  0.2835341E+01  0.2722316E+02  0.2835341E+01  0.2924895E+03
Ar  144  0.2404091E-01  0.2959576E+02  0.2384817E+01  0.2176563E+03
Ar  145  0.1901894E+00  0.2695842E+02  0.5485345E+01  0.2141759E+03
Ar  146  0.2762985E+01  0.2964116E+02  0.5240681E+01  0.1731422E+03
Ar  147  0.2551715E+01  0.2729224E+02  0.8107789E+01  0.1413080E+03
Ar  148  0.1375102E+00  0.2976932E+02  0.7792138E+01  0.1216691E+03
Ar  149  0.1865855E-01  0.2712688E+02  0.1085188E+02  0.6903229E+02
Ar  150  0.2511596E+01  0.2987098E+02  0.1077266E+02  0.1871236E+03
Ar  151  0.2286743E+01  0.2703225E+02  0.1344917E+02  0.1243467E+03
Ar  152  0.2212254E+00  0.2973997E+02  0.1370396E+02  0.1308842E+03
Ar  153  0.3767080E+02  0.2688930E+02  0.1627605E+02  0.7095592E+03
Ar  154  0.2756356E+01  0.2919752E+02  0.1631719E+02  0.7952409E+02
Ar  155  0.2424293E+01  0.2699086E+02  0.1888407E+02  0.3815001E+03
Ar  156  0.9964180E-01  0.2958740E+02  0.1925932E+02  0.3065987E+02
Ar  157  0.1269000E+00  0.2665129E+02  0.2179397E+02  0.1074267E+03
Ar  158  0.3090679E+01  0.2921632E+02  0.2133167E+02  0.8855284E+02
Ar  159  0.3627740E+01  0.2698028E+02  0.2451312E+02  0.1710281E+03
Ar  160  0.4925256E+00  0.2921270E+02  0.2378357E+02  0.8532632E+02
Ar  161  0.9646959E+00  0.2682637E+02  0.2682637E+02  0.3967529E+03
Ar  162  0.3107106E+01  0.2979563E+02  0.2701769E+02  0.6595947E+02
Ar  163  0.3107106E+01  0.2701769E+02  0.2979563E+02  0.6595947E+02
Ar  164  0.3774888E+02  0.2960260E+02  0.2960260E+02  0.6098401E+03
Ar  165  0.3770028E+02  0.2660377E+02  0.3189728E+02  0.2810048E+02
Ar  166  0.2578796E+01  0.2939298E+02  0.3229706E+02  0.1366279E+02
Ar  167  0.3028799E+01  0.2703479E+02  0.3517569E+02  0.1646017E+03
Ar  168  0.3750716E+02  0.2937856E+02  0.3481034E+02  0.8429500E+02
Ar  169  0.3732308E+02  0.3187575E+02  0.3732308E+02  0.3738311E+03
Ar  170  0.2244709E+01  0.3465655E+02  0.3739431E+02  0.3111962E+03
Ar  171  0.2654546E+01  0.3223019E+02  0.2654546E+01  0.5031073E+02
Ar  172  0.3739431E+02  0.3465655E+02  0.2244709E+01  0.3111962E+03
Ar  173  0.3765166E+02  0.3204774E+02  0.5006422E+01  0.4131676E+03
Ar  174  0.2627078E+01  0.3478340E+02  0.5606956E+01  0.3210839E+03
Ar  175  0.2703605E+01  0.3214065E+02  0.7977402E+01  0.5601742E+01
Ar  176  0.4101816E-01  0.3462256E+02  0.8150400E+01  0.5108668E+02
Ar  177  0.3770619E+02  0.3223387E+02  0.1141183E+02  0.2641223E+03
Ar  178  0.2891886E+01  0.3499312E+02  0.1090741E+02  0.1776828E+02
Ar  179  0.2928041E+01  0.3228069E+02  0.1410011E+02  0.1904317E+03
Ar  180  0.3674944E-02  0.3507450E+02  0.1380162E+02  0.5717914E+02
Ar  181  0.2440834E+00  0.3246686E+02  0.1650952E+02  0.1841112E+03
Ar  182  0.2835683E+01  0.3538819E+02  0.1609273E+02  0.6018649E+02
Ar  183  0.2805461E+01  0.3185076E+02  0.1893724E+02  0.2155509E+02
Ar  184  0.2076655E+00  0.3463057E+02  0.1908627E+02  0.5350111E+02
Ar  185  0.7180072E+00  0.3229995E+02  0.2179957E+02  0.6472673E+02
Ar  186  0.2850736E+01  0.3512837E+02  0.2194343E+02  0.7088641E+02
Ar  187  0.2895265E+01  0.3228126E+02  0.2471781E+02  0.7278761E+01
Ar  188  0.2712863E+00  0.3470758E+02  0.2439931E+02  0.2379115E+02
Ar  189  0.3770028E+02  0.3189728E+02  0.2660377E+02  0.2810048E+02
Ar  190  0.3028799E+01  0.3517569E+02  0.2703479E+02  0.1646017E+03
Ar  191  0.2578796E+01  0.3229706E+02  0.2939298E+02  0.1366278E+02
Ar  192  0.3750716E+02  0.3481034E+02  0.2937856E+02  0.8429501E+02
Ar  193  0.3763792E+02  0.3209643E+02  0.3209643E+02  0.1898992E+03
Ar  194  0.2437566E+01  0.3501433E+02  0.3185878E+02  0.1075102E+03
Ar  195  0.2437566E+01  0.3185878E+02  0.3501433E+02  0.1075102E+03
Ar  196  0.3709186E+02  0.3463400E+02  0.3463400E+02  0.1244612E+02
Ar  197  0.5546445E+01  0.3758144E+02  0.3758144E+02  0.1825804E+02
Ar  198  0.8024396E+01  0.2839010E+01  0.3758857E+02  0.1339084E+03
Ar  199  0.8024396E+01  0.3758857E+02  0.2839010E+01  0.1339084E+03
Ar  200  0.4909618E+01  0.2415632E+01  0.2415632E+01  0.7227970E+02
Ar  201  0.5273020E+01  0.3725543E+02  0.5273020E+01  0.5946662E+02
Ar  202  0.8149472E+01  0.2890917E+01  0.5276499E+01  0.3315279E+02
Ar  203  0.8572574E+01  0.3746404E+02  0.8572574E+01  0.6915473E+02
Ar  204  0.5276499E+01  0.2890917E+01  0.8149472E+01  0.3315280E+02
Ar  205  0.5665151E+01  0.1236876E+00  0.1055899E+02  0.7234497E+02
Ar  206  0.8185856E+01  0.2798684E+01  0.1072106E+02  0.3289010E+03
Ar  207  0.8383112E+01  0.3767779E+02  0.1408638E+02  0.3427950E+03
Ar  208  0.5617461E+01  0.2913391E+01  0.1360169E+02  0.5253439E+02
Ar  209  0.5538826E+01  0.1092674E+00  0.1589652E+02  0.4324362E+03
Ar  210  0.8137559E+01  0.2318029E+01  0.1706779E+02  0.1669095E+03
Ar  211  0.8264092E+01  0.3704782E+02  0.1916517E+02  0.2593440E+03
Ar  212  0.4960535E+01  0.2386351E+01  0.1855508E+02  0.5317500E+02
Ar  213  0.5441143E+01  0.3760350E+02  0.2136093E+02  0.1546247E+03
Ar  214  0.7970655E+01  0.2321649E+01  0.2118476E+02  0.4451379E+02
Ar  215  0.8083775E+01  0.3773004E+02  0.2424831E+02  0.8477122E+02
Ar  216  0.5601272E+01  0.2557056E+01  0.2422864E+02  0.1514551E+03
Ar  217  0.5485345E+01  0.1901894E+00  0.2695842E+02  0.2141759E+03
Ar  218  0.8107789E+01  0.2551715E+01  0.2729224E+02  0.1413080E+03
Ar  219  0.7792138E+01  0.1375102E+00  0.2976932E+02  0.1216691E+03
Ar  220  0.5240682E+01  0.2762985E+01  0.2964116E+02  0.1731422E+03
Ar  221  0.5006422E+01  0.3765166E+02  0.3204774E+02  0.4131675E+03
Ar  222  0.7977402E+01  0.2703605E+01  0.3214065E+02  0.5601741E+01
Ar  223  0.8150400E+01  0.4101816E-01  0.3462256E+02  0.5108667E+02
Ar  224  0.5606956E+01  0.2627078E+01  0.3478340E+02  0.3210839E+03
Ar  225  0.5273020E+01  0.5273020E+01  0.3725543E+02  0.5946662E+02
Ar  226  0.8572574E+01  0.8572574E+01  0.3746404E+02  0.6915475E+02
Ar  227  0.8149472E+01  0.5276499E+01  0.2890917E+01  0.3315279E+02
Ar  228  0.5276499E+01  0.8149472E+01  0.2890917E+01  0.3315280E+02
Ar  229  0.5013059E+01  0.5013059E+01  0.5013059E+01  0.6748110E+03
Ar  230  0.8178325E+01  0.8178325E+01  0.5113233E+01  0.4388318E+02
Ar  231  0.8178325E+01  0.5113233E+01  0.8178325E+01  0.4388319E+02
Ar  232  0.5113233E+01  0.8178325E+01  0.8178325E+01  0.4388319E+02
Ar  233  0.5683297E+01  0.5683297E+01  0.1090089E+02  0.1187854E+03
Ar  234  0.8150929E+01  0.8150929E+01  0.1098727E+02  0.9310549E+01
Ar  235  0.8514673E+01  0.4955705E+01  0.1379498E+02  0.2124653E+03
Ar  236  0.4955705E+01  0.8514673E+01  0.1379498E+02  0.2124653E+03
Ar  237  0.5552612E+01  0.5552612E+01  0.1615750E+02  0.3087025E+02
Ar  238  0.8162324E+01  0.8162324E+01  0.1609159E+02  0.1263190E+02
Ar  239  0.8002024E+01  0.5521488E+01  0.1891801E+02  0.1191841E+03
Ar  240  0.5521488E+01  0.8002024E+01  0.1891801E+02  0.1191841E+03
Ar  241  0.5063173E+01  0.5063173E+01  0.2169747E+02  0.2507187E+03
Ar  242  0.7676576E+01  0.7676576E+01  0.2227486E+02  0.2054237E+03
Ar  243  0.7746568E+01  0.5058619E+01  0.2412835E+02  0.1312998E+03
Ar  244  0.5058619E+01  0.7746568E+01  0.2412835E+02  0.1312998E+03
Ar  245  0.5365816E+01  0.5365816E+01  0.2691082E+02  0.2393078E+02
Ar  246  0.8300983E+01  0.8300983E+01  0.2696465E+02  0.1726286E+03
Ar  247  0.8020665E+01  0.5610656E+01  0.2926966E+02  0.1017199E+03
Ar  248  0.5610656E+01  0.8020665E+01  0.2926966E+02  0.1017199E+03
Ar  249  0.5205344E+01  0.5205344E+01  0.3208801E+02  0.1847725E+03
Ar  250  0.7791802E+01  0.7791802E+01  0.3213224E+02  0.3840222E+02
Ar  251  0.8240549E+01  0.5829320E+01  0.3496412E+02  0.4462660E+02
Ar  252  0.5829320E+01  0.8240549E+01  0.3496412E+02  0.4462660E+02
Ar  253  0.5665151E+01  0.1055899E+02  0.1236876E+00  0.7234497E+02
Ar  254  0.8383112E+01  0.1408638E+02  0.3767779E+02  0.3427950E+03
Ar  255  0.8185856E+01  0.1072106E+02  0.2798684E+01  0.3289010E+03
Ar  256  0.5617461E+01  0.1360169E+02  0.2913391E+01  0.5253439E+02
Ar  257  0.5683297E+01  0.1090089E+02  0.5683297E+01  0.1187854E+03
Ar  258  0.8514673E+01  0.1379498E+02  0.4955705E+01  0.2124653E+03
Ar  259  0.8150929E+01  0.1098727E+02  0.8150929E+01  0.9310548E+01
Ar  260  0.4955705E+01  0.1379498E+02  0.8514673E+01  0.2124653E+03
Ar  261  0.5209413E+01  0.1121986E+02  0.1121986E+02  0.2975841E+03
Ar  262  0.8334945E+01  0.1320264E+02  0.1087677E+02  0.1898912E+03
Ar  263  0.8334945E+01  0.1087677E+02  0.1320264E+02  0.1898912E+03
Ar  264  0.5092666E+01  0.1365545E+02  0.1365545E+02  0.1544740E+03
Ar  265  0.5393887E+01  0.1101705E+02  0.1623446E+02  0.3107279E+02
Ar  266  0.8008523E+01  0.1354332E+02  0.1639614E+02  0.7899127E+02
Ar  267  0.8267029E+01  0.1071351E+02  0.1886492E+02  0.8410850E+02
Ar  268  0.5307911E+01  0.1322988E+02  0.1941879E+02  0.4238707E+03
Ar  269  0.4991219E+01  0.1050357E+02  0.2172527E+02  0.7689463E+02
Ar  270  0.8345254E+01  0.1349983E+02  0.2148429E+02  0.2083808E+03
Ar  271  0.7525370E+01  0.1048578E+02  0.2434565E+02  0.8879165E+02
Ar  272  0.5618873E+01  0.1315330E+02  0.2402035E+02  0.3007140E+03
Ar  273  0.5147555E+01  0.1078099E+02  0.2704560E+02  0.1364798E+03
Ar  274  0.8250158E+01  0.1355152E+02  0.2659580E+02  0.5076920E+02
Ar  275  0.8281896E+01  0.1108178E+02  0.2963098E+02  0.1334671E+03
Ar  276  0.5842147E+01  0.1382268E+02  0.2904879E+02  0.3195624E+02
Ar  277  0.5248561E+01  0.1137645E+02  0.3209207E+02  0.9966569E+02
Ar  278  0.7972620E+01  0.1417837E+02  0.3222786E+02  0.1999916E+03
Ar  279  0.8421663E+01  0.1087750E+02  0.3474497E+02  0.5138290E+02
Ar  280  0.5569286E+01  0.1369877E+02  0.3489995E+02  0.7523381E+02
Ar  281  0.5538826E+01  0.1589652E+02  0.1092674E+00  0.4324362E+03
Ar  282  0.8264092E+01  0.1916517E+02  0.3704782E+02  0.2593440E+03
Ar  283  0.8137559E+01  0.1706779E+02  0.2318029E+01  0.1669095E+03
Ar  284  0.4960535E+01  0.1855508E+02  0.2386351E+01  0.5317501E+02
Ar  285  0.5552612E+01  0.1615750E+02  0.5552612E+01  0.3087025E+02
Ar  286  0.8002024E+01  0.1891801E+02  0.5521488E+01  0.1191841E+03
Ar  287  0.8162324E+01  0.1609159E+02  0.8162324E+01  0.1263190E+02
Ar  288  0.5521488E+01  0.1891801E+02  0.8002024E+01  0.1191841E+03
Ar  289  0.5393887E+01  0.1623446E+02  0.1101705E+02  0.3107279E+02
Ar  290  0.8267029E+01  0.1886492E+02  0.1071351E+02  0.8410851E+02
Ar  291  0.8008523E+01  0.1639614E+02  0.1354332E+02  0.7899127E+02
Ar  292  0.5307911E+01  0.1941879E+02  0.1322988E+02  0.4238707E+03
Ar  293  0.5187076E+01  0.1608151E+02  0.1608151E+02  0.3349579E+02
Ar  294  0.7991323E+01  0.1913473E+02  0.1610222E+02  0.1655623E+03
Ar  295  0.7991323E+01  0.1610222E+02  0.1913473E+02  0.1655623E+03
Ar  296  0.5239114E+01  0.1867402E+02  0.1867402E+02  0.4171409E+02
Ar  297  0.5270609E+01  0.1600712E+02  0.2129374E+02  0.8684348E+02
Ar  298  0.7700140E+01  0.1880274E+02  0.2161864E+02  0.1377141E+02
Ar  299  0.8026027E+01  0.1622693E+02  0.2387295E+02  0.7248954E+02
Ar  300  0.5631114E+01  0.1908385E+02  0.2448448E+02  0.7724563E+02
Ar  301  0.5363091E+01  0.1626852E+02  0.2636940E+02  0.1273370E+03
Ar  302  0.8529932E+01  0.1907478E+02  0.2716196E+02  0.1974585E+03
Ar  303  0.8497075E+01  0.1610565E+02  0.2916389E+02  0.2270507E+02
Ar  304  0.5563154E+01  0.1839771E+02  0.2919610E+02  0.5647634E+02
Ar  305  0.5280714E+01  0.1642494E+02  0.3221007E+02  0.3152468E+02
Ar  306  0.8259308E+01  0.1860846E+02  0.3198739E+02  0.2473538E+02
Ar  307  0.7976353E+01  0.1642241E+02  0.3488592E+02  0.1197217E+03
Ar  308  0.5101510E+01  0.1886504E+02  0.3487025E+02  0.3084212E+02
Ar  309  0.5441143E+01  0.2136093E+02  0.3760350E+02  0.1546247E+03
Ar  310  0.8083775E+01  0.2424831E+02  0.3773004E+02  0.8477122E+02
Ar  311  0.7970655E+01  0.2118476E+02  0.2321649E+01  0.4451380E+02
Ar  312  0.5601272E+01  0.2422864E+02  0.2557056E+01  0.1514551E+03
Ar  313  0.5063173E+01  0.2169747E+02  0.5063173E+01  0.2507187E+03
Ar  314  0.7746568E+01  0.2412835E+02  0.5058619E+01  0.1312998E+03
Ar  315  0.7676576E+01  0.2227486E+02  0.7676576E+01  0.2054237E+03
Ar  316  0.5058619E+01  0.2412835E+02  0.7746568E+01  0.1312998E+03
Ar  317  0.4991219E+01  0.2172527E+02  0.1050357E+02  0.7689464E+02
Ar  318  0.7525370E+01  0.2434565E+02  0.1048578E+02  0.8879166E+02
Ar  319  0.8345254E+01  0.2148429E+02  0.1349983E+02  0.2083808E+03
Ar  320  0.5618873E+01  0.2402035E+02  0.1315330E+02  0.3007140E+03
Ar  321  0.5270609E+01  0.2129374E+02  0.1600712E+02  0.8684349E+02
Ar  322  0.8026027E+01  0.2387295E+02  0.1622693E+02  0.7248954E+02
Ar  323  0.7700141E+01  0.2161864E+02  0.1880274E+02  0.1377141E+02
Ar  324  0.5631114E+01  0.2448448E+02  0.1908385E+02  0.7724561E+02
Ar  325  0.4728066E+01  0.2145594E+02  0.2145594E+02  0.1105426E+03
Ar  326  0.8044891E+01  0.2436179E+02  0.2166663E+02  0.1890596E+03
Ar  327  0.8044891E+01  0.2166663E+02  0.2436179E+02  0.1890596E+03
Ar  328  0.5359734E+01  0.2379773E+02  0.2379773E+02  0.1709412E+03
Ar  329  0.5667058E+01  0.2169691E+02  0.2709621E+02  0.6061294E+02
Ar  330  0.8267298E+01  0.2433450E+02  0.2727604E+02  0.1069378E+03
Ar  331  0.8287947E+01  0.2163042E+02  0.2988521E+02  0.3857141E+02
Ar  332  0.5684016E+01  0.2435887E+02  0.2968723E+02  0.1492659E+03
Ar  333  0.5586868E+01  0.2159352E+02  0.3225983E+02  0.5619863E+02
Ar  334  0.8187634E+01  0.2421067E+02  0.3221899E+02  0.1050216E+03
Ar  335  0.8070863E+01  0.2127864E+02  0.3454371E+02  0.1282937E+03
Ar  336  0.5672449E+01  0.2407185E+02  0.3514026E+02  0.3854881E+02
Ar  337  0.5485345E+01  0.2695842E+02  0.1901894E+00  0.2141759E+03
Ar  338  0.7792138E+01  0.2976932E+02  0.1375101E+00  0.1216691E+03
Ar  339  0.8107789E+01  0.2729224E+02  0.2551715E+01  0.1413080E+03
Ar  340  0.5240681E+01  0.2964116E+02  0.2762985E+01  0.1731422E+03
Ar  341  0.5365816E+01  0.2691082E+02  0.5365816E+01  0.2393078E+02
Ar  342  0.8020665E+01  0.2926966E+02  0.5610656E+01  0.1017199E+03
Ar  343  0.8300983E+01  0.2696465E+02  0.8300983E+01  0.1726286E+03
Ar  344  0.5610656E+01  0.2926966E+02  0.8020665E+01  0.1017199E+03
Ar  345  0.5147554E+01  0.2704560E+02  0.1078099E+02  0.1364798E+03
Ar  346  0.8281896E+01  0.2963098E+02  0.1108178E+02  0.1334671E+03
Ar  347  0.8250158E+01  0.2659580E+02  0.1355152E+02  0.5076920E+02
Ar  348  0.5842147E+01  0.2904879E+02  0.1382268E+02  0.3195623E+02
Ar  349  0.5363091E+01  0.2636940E+02  0.1626852E+02  0.1273370E+03
Ar  350  0.8497075E+01  0.2916389E+02  0.1610565E+02  0.2270506E+02
Ar  351  0.8529932E+01  0.2716196E+02  0.1907478E+02  0.1974585E+03
Ar  352  0.5563154E+01  0.2919610E+02  0.1839771E+02  0.5647634E+02
Ar  353  0.5667058E+01  0.2709621E+02  0.2169691E+02  0.6061294E+02
Ar  354  0.8287947E+01  0.2988521E+02  0.2163042E+02  0.3857141E+02
Ar  355  0.8267298E+01  0.2727604E+02  0.2433450E+02  0.1069378E+03
Ar  356  0.5684016E+01  0.2968723E+02  0.2435887E+02  0.1492659E+03
Ar  357  0.6116638E+01  0.2720838E+02  0.2720838E+02  0.4465257E+02
Ar  358  0.8251999E+01  0.2994339E+02  0.2692135E+02  0.8878152E+01
Ar  359  0.8251999E+01  0.2692135E+02  0.2994339E+02  0.8878153E+01
Ar  360  0.5293889E+01  0.2967769E+02  0.2967769E+02  0.7850874E+03
Ar  361  0.5586483E+01  0.2700455E+02  0.3229096E+02  0.4238579E+02
Ar  362  0.7646383E+01  0.2992207E+02  0.3259117E+02  0.8153308E+02
Ar  363  0.8332704E+01  0.2708804E+02  0.3519950E+02  0.2332660E+02
Ar  364  0.5389976E+01  0.2960139E+02  0.3519940E+02  0.1043638E+03
Ar  365  0.5006422E+01  0.3204774E+02  0.3765166E+02  0.4131676E+03
Ar  366  0.8150400E+01  0.3462256E+02  0.4101817E-01  0.5108667E+02
Ar  367  0.7977402E+01  0.3214065E+02  0.2703605E+01  0.5601743E+01
Ar  368  0.5606956E+01  0.3478340E+02  0.2627078E+01  0.3210839E+03
Ar  369  0.5205344E+01  0.3208801E+02  0.5205344E+01  0.1847725E+03
Ar  370  0.8240549E+01  0.3496412E+02  0.5829320E+01  0.4462659E+02
Ar  371  0.7791802E+01  0.3213224E+02  0.7791802E+01  0.3840221E+02
Ar  372  0.5829320E+01  0.3496412E+02  0.8240549E+01  0.4462660E+02
Ar  373  0.5248561E+01  0.3209207E+02  0.1137645E+02  0.9966570E+02
Ar  374  0.8421663E+01  0.3474497E+02  0.1087750E+02  0.5138290E+02
Ar  375  0.7972620E+01  0.3222786E+02  0.1417837E+02  0.1999916E+03
Ar  376  0.5569286E+01  0.3489995E+02  0.1369877E+02  0.7523381E+02
Ar  377  0.5280714E+01  0.3221007E+02  0.1642494E+02  0.3152468E+02
Ar  378  0.7976353E+01  0.3488592E+02  0.1642241E+02  0.1197217E+03
Ar  379  0.8259308E+01  0.3198739E+02  0.1860846E+02  0.2473538E+02
Ar  380  0.5101510E+01  0.3487025E+02  0.1886504E+02  0.3084212E+02
Ar  381  0.5586868E+01  0.3225983E+02  0.2159352E+02  0.5619863E+02
Ar  382  0.8070863E+01  0.3454371E+02  0.2127864E+02  0.1282937E+03
Ar  383  0.8187634E+01  0.3221899E+02  0.2421067E+02  0.1050216E+03
Ar  384  0.5672449E+01  0.3514026E+02  0.2407185E+02  0.3854881E+02
Ar  385  0.5586483E+01  0.3229096E+02  0.2700455E+02  0.4238579E+02
Ar  386  0.8332704E+01  0.3519950E+02  0.2708804E+02  0.2332660E+02
Ar  387  0.7646383E+01  0.3259117E+02  0.2992207E+02  0.8153308E+02
Ar  388  0.5389976E+01  0.3519940E+02  0.2960139E+02  0.1043638E+03
Ar  389  0.4784918E+01  0.3198856E+02  0.3198856E+02  0.1494432E+03
Ar  390  0.8535583E+01  0.3515453E+02  0.3226934E+02  0.9402973E+02
Ar  391  0.8535583E+01  0.3226934E+02  0.3515453E+02  0.9402973E+02
Ar  392  0.5659446E+01  0.3460777E+02  0.3460777E+02  0.6284344E+03
Ar  393  0.1086682E+02  0.3759202E+02  0.3759202E+02  0.1372519E+03
Ar  394  0.1329096E+02  0.2788643E+01  0.3759023E+02  0.1375999E+03
Ar  395  0.1329096E+02  0.3759023E+02  0.2788643E+01  0.1375999E+03
Ar  396  0.1078747E+02  0.2555429E+01  0.2555429E+01  0.7303013E+03
Ar  397  0.1055899E+02  0.1236876E+00  0.5665151E+01  0.7234497E+02
Ar  398  0.1360169E+02  0.2913391E+01  0.5617461E+01  0.5253439E+02
Ar  399  0.1408638E+02  0.3767779E+02  0.8383112E+01  0.3427950E+03
Ar  400  0.1072106E+02  0.2798684E+01  0.8185856E+01  0.3289010E+03
Ar  401  0.1122476E+02  0.3725328E+02  0.1122476E+02  0.1031544E+03
Ar  402  0.1380223E+02  0.2387455E+01  0.1119205E+02  0.7208515E+02
Ar  403  0.1373859E+02  0.3737846E+02  0.1373859E+02  0.1998184E+02
Ar  404  0.1119205E+02  0.2387455E+01  0.1380223E+02  0.7208515E+02
Ar  405  0.1096511E+02  0.3772894E+02  0.1639551E+02  0.1830265E+03
Ar  406  0.1362717E+02  0.2411966E+01  0.1625251E+02  0.1233256E+03
Ar  407  0.1373665E+02  0.3737622E+02  0.1889672E+02  0.2865662E+02
Ar  408  0.1117930E+02  0.2639121E+01  0.1901986E+02  0.5667098E+02
Ar  409  0.1055602E+02  0.3770383E+02  0.2167787E+02  0.4022538E+02
Ar  410  0.1375441E+02  0.2385585E+01  0.2139228E+02  0.4483176E+03
Ar  411  0.1308006E+02  0.3768804E+02  0.2437755E+02  0.3054224E+03
Ar  412  0.1090577E+02  0.2752291E+01  0.2450194E+02  0.7044450E+02
Ar  413  0.1085188E+02  0.1865857E-01  0.2712688E+02  0.6903229E+02
Ar  414  0.1344917E+02  0.2286744E+01  0.2703225E+02  0.1243467E+03
Ar  415  0.1370396E+02  0.2212254E+00  0.2973997E+02  0.1308842E+03
Ar  416  0.1077266E+02  0.2511596E+01  0.2987098E+02  0.1871236E+03
Ar  417  0.1141183E+02  0.3770619E+02  0.3223387E+02  0.2641223E+03
Ar  418  0.1410011E+02  0.2928041E+01  0.3228069E+02  0.1904317E+03
Ar  419  0.1380162E+02  0.3674939E-02  0.3507450E+02  0.5717914E+02
Ar  420  0.1090741E+02  0.2891886E+01  0.3499312E+02  0.1776829E+02
Ar  421  0.1055899E+02  0.5665151E+01  0.1236876E+00  0.7234496E+02
Ar  422  0.1408638E+02  0.8383112E+01  0.3767779E+02  0.3427950E+03
Ar  423  0.1360169E+02  0.5617461E+01  0.2913391E+01  0.5253439E+02
Ar  424  0.1072106E+02  0.8185856E+01  0.2798684E+01  0.3289010E+03
Ar  425  0.1090089E+02  0.5683297E+01  0.5683297E+01  0.1187854E+03
Ar  426  0.1379498E+02  0.8514673E+01  0.4955705E+01  0.2124653E+03
Ar  427  0.1379498E+02  0.4955705E+01  0.8514673E+01  0.2124653E+03
Ar  428  0.1098727E+02  0.8150929E+01  0.8150929E+01  0.9310549E+01
Ar  429  0.1121986E+02  0.5209413E+01  0.1121986E+02  0.2975841E+03
Ar  430  0.1320264E+02  0.8334945E+01  0.1087677E+02  0.1898912E+03
Ar  431  0.1365545E+02  0.5092666E+01  0.1365545E+02  0.1544740E+03
Ar  432  0.1087677E+02  0.8334945E+01  0.1320264E+02  0.1898912E+03
Ar  433  0.1101705E+02  0.5393887E+01  0.1623446E+02  0.3107279E+02
Ar  434  0.1354332E+02  0.8008523E+01  0.1639614E+02  0.7899126E+02
Ar  435  0.1322988E+02  0.5307911E+01  0.1941879E+02  0.4238707E+03
Ar  436  0.1071351E+02  0.8267029E+01  0.1886492E+02  0.8410851E+02
Ar  437  0.1050357E+02  0.4991219E+01  0.2172527E+02  0.7689464E+02
Ar  438  0.1349983E+02  0.8345254E+01  0.2148429E+02  0.2083808E+03
Ar  439  0.1315330E+02  0.5618873E+01  0.2402035E+02  0.3007140E+03
Ar  440  0.1048578E+02  0.7525370E+01  0.2434565E+02  0.8879165E+02
Ar  441  0.1078099E+02  0.5147555E+01  0.2704560E+02  0.1364798E+03
Ar  442  0.1355152E+02  0.8250158E+01  0.2659580E+02  0.5076919E+02
Ar  443  0.1382268E+02  0.5842147E+01  0.2904879E+02  0.3195624E+02
Ar  444  0.1108178E+02  0.8281896E+01  0.2963098E+02  0.1334671E+03
Ar  445  0.1137645E+02  0.5248561E+01  0.3209207E+02  0.9966569E+02
Ar  446  0.1417837E+02  0.7972620E+01  0.3222786E+02  0.1999916E+03
Ar  447  0.1369877E+02  0.5569286E+01  0.3489995E+02  0.7523381E+02
Ar  448  0.1087750E+02  0.8421663E+01  0.3474497E+02  0.5138290E+02
Ar  449  0.1122476E+02  0.1122476E+02  0.3725328E+02  0.1031544E+03
Ar  450  0.1373859E+02  0.1373859E+02  0.3737846E+02  0.1998184E+02
Ar  451  0.1380223E+02  0.1119205E+02  0.2387455E+01  0.7208515E+02
Ar  452  0.1119205E+02  0.1380223E+02  0.2387455E+01  0.7208515E+02
Ar  453  0.1121986E+02  0.1121986E+02  0.5209413E+01  0.2975841E+03
Ar  454  0.1365545E+02  0.1365545E+02  0.5092666E+01  0.1544740E+03
Ar  455  0.1320264E+02  0.1087677E+02  0.8334945E+01  0.1898912E+03
Ar  456  0.1087677E+02  0.1320264E+02  0.8334945E+01  0.1898912E+03
Ar  457  0.1144512E+02  0.1144512E+02  0.1144512E+02  0.7448915E+02
Ar  458  0.1389175E+02  0.1389175E+02  0.1083928E+02  0.1205217E+03
Ar  459  0.1389175E+02  0.1083928E+02  0.1389175E+02  0.1205217E+03
Ar  460  0.1083928E+02  0.1389175E+02  0.1389175E+02  0.1205217E+03
Ar  461  0.1123685E+02  0.1123685E+02  0.1642502E+02  0.1522412E+03
Ar  462  0.1380111E+02  0.1380111E+02  0.1706897E+02  0.2997942E+03
Ar  463  0.1340016E+02  0.1090835E+02  0.1940891E+02  0.1142819E+03
Ar  464  0.1090835E+02  0.1340016E+02  0.1940891E+02  0.1142819E+03
Ar  465  0.1015028E+02  0.1015028E+02  0.2192822E+02  0.1264948E+04
Ar  466  0.1357540E+02  0.1357540E+02  0.2200081E+02  0.1442617E+02
Ar  467  0.1375244E+02  0.1064264E+02  0.2429284E+02  0.6330025E+02
Ar  468  0.1064264E+02  0.1375244E+02  0.2429284E+02  0.6330025E+02
Ar  469  0.1104160E+02  0.1104160E+02  0.2709784E+02  0.1529790E+03
Ar  470  0.1367687E+02  0.1367687E+02  0.2678416E+02  0.2020861E+03
Ar  471  0.1368701E+02  0.1085094E+02  0.2931939E+02  0.5672274E+02
Ar  472  0.1085094E+02  0.1368701E+02  0.2931939E+02  0.5672275E+02
Ar  473  0.1132440E+02  0.1132440E+02  0.3209042E+02  0.9360946E+02
Ar  474  0.1368633E+02  0.1368633E+02  0.3202870E+02  0.1911055E+03
Ar  475  0.1364231E+02  0.1070712E+02  0.3446349E+02  0.4564414E+03
Ar  476  0.1070712E+02  0.1364231E+02  0.3446349E+02  0.4564414E+03
Ar  477  0.1096511E+02  0.1639551E+02  0.3772894E+02  0.1830265E+03
Ar  478  0.1373665E+02  0.1889672E+02  0.3737622E+02  0.2865662E+02
Ar  479  0.1362717E+02  0.1625251E+02  0.2411966E+01  0.1233256E+03
Ar  480  0.1117930E+02  0.1901986E+02  0.2639121E+01  0.5667099E+02
Ar  481  0.1101705E+02  0.1623446E+02  0.5393887E+01  0.3107279E+02
Ar  482  0.1322988E+02  0.1941879E+02  0.5307911E+01  0.4238707E+03
Ar  483  0.1354332E+02  0.1639614E+02  0.8008523E+01  0.7899127E+02
Ar  484  0.1071351E+02  0.1886492E+02  0.8267029E+01  0.8410850E+02
Ar  485  0.1123685E+02  0.1642502E+02  0.1123685E+02  0.1522412E+03
Ar  486  0.1340016E+02  0.1940891E+02  0.1090835E+02  0.1142819E+03
Ar  487  0.1380111E+02  0.1706898E+02  0.1380111E+02  0.2997941E+03
Ar  488  0.1090835E+02  0.1940891E+02  0.1340016E+02  0.1142819E+03
Ar  489  0.1069072E+02  0.1637917E+02  0.1637917E+02  0.4006106E+02
Ar  490  0.1383572E+02  0.1923366E+02  0.1663771E+02  0.1323134E+03
Ar  491  0.1383572E+02  0.1663771E+02  0.1923366E+02  0.1323133E+03
Ar  492  0.1064120E+02  0.1867603E+02  0.1867603E+02  0.2382393E+03
Ar  493  0.1063766E+02  0.1631921E+02  0.2167717E+02  0.8179083E+02
Ar  494  0.1335653E+02  0.1899506E+02  0.2164022E+02  0.2871818E+03
Ar  495  0.1349865E+02  0.1650306E+02  0.2409568E+02  0.1057390E+03
Ar  496  0.1085313E+02  0.1909954E+02  0.2431087E+02  0.2556139E+02
Ar  497  0.1087137E+02  0.1651362E+02  0.2642386E+02  0.1041269E+03
Ar  498  0.1378912E+02  0.1936481E+02  0.2689049E+02  0.1023916E+03
Ar  499  0.1384240E+02  0.1629064E+02  0.2943180E+02  0.1284308E+03
Ar  500  0.1129909E+02  0.1878793E+02  0.2944679E+02  0.8028083E+02
Ar  501  0.1109845E+02  0.1653540E+02  0.3223577E+02  0.5470423E+02
Ar  502  0.1389285E+02  0.1903259E+02  0.3227846E+02  0.1800673E+02
Ar  503  0.1395364E+02  0.1621556E+02  0.3485190E+02  0.1465161E+03
Ar  504  0.1133362E+02  0.1880094E+02  0.3493060E+02  0.8634486E+02
Ar  505  0.1055602E+02  0.2167787E+02  0.3770383E+02  0.4022537E+02
Ar  506  0.1308006E+02  0.2437755E+02  0.3768804E+02  0.3054224E+03
Ar  507  0.1375441E+02  0.2139228E+02  0.2385585E+01  0.4483176E+03
Ar  508  0.1090577E+02  0.2450194E+02  0.2752291E+01  0.7044450E+02
Ar  509  0.1050357E+02  0.2172527E+02  0.4991219E+01  0.7689464E+02
Ar  510  0.1315330E+02  0.2402035E+02  0.5618873E+01  0.3007140E+03
Ar  511  0.1349983E+02  0.2148429E+02  0.8345254E+01  0.2083808E+03
Ar  512  0.1048578E+02  0.2434565E+02  0.7525370E+01  0.8879165E+02
Ar  513  0.1015028E+02  0.2192822E+02  0.1015028E+02  0.1264948E+04
Ar  514  0.1375244E+02  0.2429284E+02  0.1064264E+02  0.6330024E+02
Ar  515  0.1357540E+02  0.2200081E+02  0.1357540E+02  0.1442617E+02
Ar  516  0.1064264E+02  0.2429284E+02  0.1375244E+02  0.6330025E+02
Ar  517  0.1063766E+02  0.2167717E+02  0.1631921E+02  0.8179084E+02
Ar  518  0.1349865E+02  0.2409568E+02  0.1650306E+02  0.1057390E+03
Ar  519  0.1335653E+02  0.2164022E+02  0.1899506E+02  0.2871818E+03
Ar  520  0.1085313E+02  0.2431087E+02  0.1909954E+02  0.2556139E+02
Ar  521  0.1054223E+02  0.2207119E+02  0.2207119E+02  0.4554749E+02
Ar  522  0.1354192E+02  0.2412032E+02  0.2164866E+02  0.6046571E+02
Ar  523  0.1354192E+02  0.2164866E+02  0.2412032E+02  0.6046571E+02
Ar  524  0.1072595E+02  0.2472161E+02  0.2472161E+02  0.1121436E+03
Ar  525  0.1101141E+02  0.2160703E+02  0.2659323E+02  0.4551634E+03
Ar  526  0.1370498E+02  0.2435627E+02  0.2672179E+02  0.2210110E+03
Ar  527  0.1362641E+02  0.2192518E+02  0.2934408E+02  0.1996577E+03
Ar  528  0.1102189E+02  0.2408753E+02  0.2925849E+02  0.2857159E+02
Ar  529  0.1115452E+02  0.2142664E+02  0.3235999E+02  0.1939172E+03
Ar  530  0.1383773E+02  0.2425840E+02  0.3264745E+02  0.1091953E+03
Ar  531  0.1327842E+02  0.2152525E+02  0.3532574E+02  0.7489755E+02
Ar  532  0.1091795E+02  0.2432498E+02  0.3520619E+02  0.2671355E+03
Ar  533  0.1085188E+02  0.2712688E+02  0.1865855E-01  0.6903228E+02
Ar  534  0.1370396E+02  0.2973997E+02  0.2212254E+00  0.1308842E+03
Ar  535  0.1344917E+02  0.2703225E+02  0.2286744E+01  0.1243467E+03
Ar  536  0.1077266E+02  0.2987098E+02  0.2511596E+01  0.1871236E+03
Ar  537  0.1078099E+02  0.2704560E+02  0.5147554E+01  0.1364798E+03
Ar  538  0.1382268E+02  0.2904879E+02  0.5842147E+01  0.3195624E+02
Ar  539  0.1355152E+02  0.2659580E+02  0.8250158E+01  0.5076920E+02
Ar  540  0.1108178E+02  0.2963098E+02  0.8281896E+01  0.1334671E+03
Ar  541  0.1104160E+02  0.2709784E+02  0.1104160E+02  0.1529790E+03
Ar  542  0.1368701E+02  0.2931939E+02  0.1085094E+02  0.5672275E+02
Ar  543  0.1367687E+02  0.2678416E+02  0.1367687E+02  0.2020861E+03
Ar  544  0.1085094E+02  0.2931939E+02  0.1368701E+02  0.5672274E+02
Ar  545  0.1087137E+02  0.2642386E+02  0.1651362E+02  0.1041269E+03
Ar  546  0.1384240E+02  0.2943180E+02  0.1629064E+02  0.1284308E+03
Ar  547  0.1378912E+02  0.2689049E+02  0.1936481E+02  0.1023916E+03
Ar  548  0.1129909E+02  0.2944679E+02  0.1878793E+02  0.8028083E+02
Ar  549  0.1101141E+02  0.2659323E+02  0.2160703E+02  0.4551634E+03
Ar  550  0.1362641E+02  0.2934408E+02  0.2192518E+02  0.1996577E+03
Ar  551  0.1370498E+02  0.2672179E+02  0.2435627E+02  0.2210110E+03
Ar  552  0.1102189E+02  0.2925849E+02  0.2408753E+02  0.2857158E+02
Ar  553  0.1079343E+02  0.2711382E+02  0.2711382E+02  0.4815319E+02
Ar  554  0.1350082E+02  0.2994905E+02  0.2649903E+02  0.2995306E+03
Ar  555  0.1350082E+02  0.2649903E+02  0.2994905E+02  0.2995306E+03
Ar  556  0.1055453E+02  0.2962438E+02  0.2962438E+02  0.6101546E+02
Ar  557  0.1057864E+02  0.2715205E+02  0.3229500E+02  0.9590452E+02
Ar  558  0.1337725E+02  0.3010420E+02  0.3289241E+02  0.2581742E+02
Ar  559  0.1382505E+02  0.2693473E+02  0.3520518E+02  0.8587768E+02
Ar  560  0.1124407E+02  0.2956102E+02  0.3536509E+02  0.2438871E+03
Ar  561  0.1141183E+02  0.3223387E+02  0.3770619E+02  0.2641223E+03
Ar  562  0.1380162E+02  0.3507450E+02  0.3674928E-02  0.5717914E+02
Ar  563  0.1410011E+02  0.3228069E+02  0.2928041E+01  0.1904317E+03
Ar  564  0.1090741E+02  0.3499312E+02  0.2891886E+01  0.1776828E+02
Ar  565  0.1137645E+02  0.3209207E+02  0.5248561E+01  0.9966570E+02
Ar  566  0.1369877E+02  0.3489995E+02  0.5569286E+01  0.7523382E+02
Ar  567  0.1417837E+02  0.3222786E+02  0.7972620E+01  0.1999916E+03
Ar  568  0.1087750E+02  0.3474497E+02  0.8421663E+01  0.5138290E+02
Ar  569  0.1132440E+02  0.3209042E+02  0.1132440E+02  0.9360946E+02
Ar  570  0.1364231E+02  0.3446349E+02  0.1070712E+02  0.4564413E+03
Ar  571  0.1368633E+02  0.3202870E+02  0.1368633E+02  0.1911055E+03
Ar  572  0.1070712E+02  0.3446349E+02  0.1364231E+02  0.4564413E+03
Ar  573  0.1109845E+02  0.3223577E+02  0.1653540E+02  0.5470422E+02
Ar  574  0.1395364E+02  0.3485190E+02  0.1621556E+02  0.1465162E+03
Ar  575  0.1389285E+02  0.3227846E+02  0.1903259E+02  0.1800673E+02
Ar  576  0.1133362E+02  0.3493060E+02  0.1880094E+02  0.8634486E+02
Ar  577  0.1115452E+02  0.3235999E+02  0.2142664E+02  0.1939172E+03
Ar  578  0.1327842E+02  0.3532574E+02  0.2152525E+02  0.7489755E+02
Ar  579  0.1383773E+02  0.3264745E+02  0.2425840E+02  0.1091952E+03
Ar  580  0.1091795E+02  0.3520619E+02  0.2432498E+02  0.2671355E+03
Ar  581  0.1057864E+02  0.3229500E+02  0.2715205E+02  0.9590453E+02
Ar  582  0.1382505E+02  0.3520518E+02  0.2693473E+02  0.8587768E+02
Ar  583  0.1337725E+02  0.3289241E+02  0.3010420E+02  0.2581743E+02
Ar  584  0.1124407E+02  0.3536509E+02  0.2956102E+02  0.2438871E+03
Ar  585  0.1055625E+02  0.3221169E+02  0.3221169E+02  0.2323609E+03
Ar  586  0.1387017E+02  0.3525922E+02  0.3264766E+02  0.1338863E+03
Ar  587  0.1387017E+02  0.3264766E+02  0.3525922E+02  0.1338863E+03
Ar  588  0.1070808E+02  0.3477305E+02  0.3477305E+02  0.1858065E+03
Ar  589  0.1622533E+02  0.3762163E+02  0.3762163E+02  0.2027068E+03
Ar  590  0.1866386E+02  0.2624242E+01  0.3770200E+02  0.2398452E+03
Ar  591  0.1866386E+02  0.3770200E+02  0.2624242E+01  0.2398452E+03
Ar  592  0.1599476E+02  0.2392969E+01  0.2392969E+01  0.2669340E+03
Ar  593  0.1589652E+02  0.1092674E+00  0.5538826E+01  0.4324362E+03
Ar  594  0.1855508E+02  0.2386351E+01  0.4960535E+01  0.5317500E+02
Ar  595  0.1916517E+02  0.3704782E+02  0.8264092E+01  0.2593440E+03
Ar  596  0.1706779E+02  0.2318029E+01  0.8137559E+01  0.1669095E+03
Ar  597  0.1639551E+02  0.3772894E+02  0.1096511E+02  0.1830265E+03
Ar  598  0.1901986E+02  0.2639121E+01  0.1117930E+02  0.5667098E+02
Ar  599  0.1889672E+02  0.3737622E+02  0.1373665E+02  0.2865662E+02
Ar  600  0.1625251E+02  0.2411966E+01  0.1362717E+02  0.1233256E+03
Ar  601  0.1636993E+02  0.3768380E+02  0.1636993E+02  0.2243175E+03
Ar  602  0.1890975E+02  0.2282021E+01  0.1601940E+02  0.3067258E+03
Ar  603  0.1894270E+02  0.3776648E+02  0.1894270E+02  0.1111666E+03
Ar  604  0.1601940E+02  0.2282021E+01  0.1890975E+02  0.3067258E+03
Ar  605  0.1659535E+02  0.1366456E-01  0.2166677E+02  0.6604422E+02
Ar  606  0.1859253E+02  0.2762716E+01  0.2206279E+02  0.2840452E+03
Ar  607  0.1918469E+02  0.3774698E+02  0.2432862E+02  0.2115977E+03
Ar  608  0.1571359E+02  0.2232193E+01  0.2443659E+02  0.1834706E+03
Ar  609  0.1627605E+02  0.3767080E+02  0.2688930E+02  0.7095592E+03
Ar  610  0.1888407E+02  0.2424293E+01  0.2699086E+02  0.3815001E+03
Ar  611  0.1925932E+02  0.9964179E-01  0.2958740E+02  0.3065987E+02
Ar  612  0.1631719E+02  0.2756356E+01  0.2919752E+02  0.7952409E+02
Ar  613  0.1650952E+02  0.2440834E+00  0.3246686E+02  0.1841112E+03
Ar  614  0.1893724E+02  0.2805461E+01  0.3185076E+02  0.2155509E+02
Ar  615  0.1908627E+02  0.2076655E+00  0.3463057E+02  0.5350111E+02
Ar  616  0.1609273E+02  0.2835683E+01  0.3538819E+02  0.6018648E+02
Ar  617  0.1589652E+02  0.5538826E+01  0.1092674E+00  0.4324362E+03
Ar  618  0.1916517E+02  0.8264092E+01  0.3704782E+02  0.2593440E+03
Ar  619  0.1855508E+02  0.4960535E+01  0.2386351E+01  0.5317500E+02
Ar  620  0.1706779E+02  0.8137559E+01  0.2318029E+01  0.1669095E+03
Ar  621  0.1615750E+02  0.5552612E+01  0.5552612E+01  0.3087025E+02
Ar  622  0.1891801E+02  0.8002024E+01  0.5521488E+01  0.1191841E+03
Ar  623  0.1891801E+02  0.5521488E+01  0.8002024E+01  0.1191841E+03
Ar  624  0.1609159E+02  0.8162324E+01  0.8162324E+01  0.1263190E+02
Ar  625  0.1623446E+02  0.5393887E+01  0.1101705E+02  0.3107279E+02
Ar  626  0.1886492E+02  0.8267029E+01  0.1071351E+02  0.8410851E+02
Ar  627  0.1941879E+02  0.5307911E+01  0.1322988E+02  0.4238707E+03
Ar  628  0.1639614E+02  0.8008523E+01  0.1354332E+02  0.7899127E+02
Ar  629  0.1608151E+02  0.5187076E+01  0.1608151E+02  0.3349580E+02
Ar  630  0.1913473E+02  0.7991323E+01  0.1610222E+02  0.1655623E+03
Ar  631  0.1867402E+02  0.5239114E+01  0.1867402E+02  0.4171409E+02
Ar  632  0.1610222E+02  0.7991323E+01  0.1913473E+02  0.1655623E+03
Ar  633  0.1600712E+02  0.5270609E+01  0.2129374E+02  0.8684347E+02
Ar  634  0.1880274E+02  0.7700140E+01  0.2161864E+02  0.1377141E+02
Ar  635  0.1908385E+02  0.5631114E+01  0.2448448E+02  0.7724562E+02
Ar  636  0.1622693E+02  0.8026027E+01  0.2387295E+02  0.7248953E+02
Ar  637  0.1626852E+02  0.5363091E+01  0.2636940E+02  0.1273370E+03
Ar  638  0.1907478E+02  0.8529932E+01  0.2716196E+02  0.1974585E+03
Ar  639  0.1839771E+02  0.5563154E+01  0.2919610E+02  0.5647634E+02
Ar  640  0.1610565E+02  0.8497075E+01  0.2916389E+02  0.2270506E+02
Ar  641  0.1642494E+02  0.5280714E+01  0.3221007E+02  0.3152468E+02
Ar  642  0.1860846E+02  0.8259308E+01  0.3198739E+02  0.2473539E+02
Ar  643  0.1886504E+02  0.5101510E+01  0.3487025E+02  0.3084212E+02
Ar  644  0.1642241E+02  0.7976353E+01  0.3488592E+02  0.1197217E+03
Ar  645  0.1639551E+02  0.1096511E+02  0.3772894E+02  0.1830265E+03
Ar  646  0.1889672E+02  0.1373665E+02  0.3737622E+02  0.2865662E+02
Ar  647  0.1901986E+02  0.1117930E+02  0.2639121E+01  0.5667099E+02
Ar  648  0.1625251E+02  0.1362717E+02  0.2411966E+01  0.1233256E+03
Ar  649  0.1623446E+02  0.1101705E+02  0.5393887E+01  0.3107279E+02
Ar  650  0.1941879E+02  0.1322988E+02  0.5307911E+01  0.4238707E+03
Ar  651  0.1886492E+02  0.1071351E+02  0.8267029E+01  0.8410850E+02
Ar  652  0.1639614E+02  0.1354332E+02  0.8008523E+01  0.7899127E+02
Ar  653  0.1642502E+02  0.1123685E+02  0.1123685E+02  0.1522412E+03
Ar  654  0.1940891E+02  0.1340016E+02  0.1090835E+02  0.1142819E+03
Ar  655  0.1940891E+02  0.1090835E+02  0.1340016E+02  0.1142819E+03
Ar  656  0.1706897E+02  0.1380111E+02  0.1380111E+02  0.2997942E+03
Ar  657  0.1637917E+02  0.1069072E+02  0.1637917E+02  0.4006107E+02
Ar  658  0.1923366E+02  0.1383572E+02  0.1663771E+02  0.1323133E+03
Ar  659  0.1867603E+02  0.1064120E+02  0.1867603E+02  0.2382393E+03
Ar  660  0.1663771E+02  0.1383572E+02  0.1923366E+02  0.1323133E+03
Ar  661  0.1631921E+02  0.1063766E+02  0.2167717E+02  0.8179083E+02
Ar  662  0.1899506E+02  0.1335653E+02  0.2164022E+02  0.2871818E+03
Ar  663  0.1909954E+02  0.1085313E+02  0.2431087E+02  0.2556139E+02
Ar  664  0.1650306E+02  0.1349865E+02  0.2409568E+02  0.1057390E+03
Ar  665  0.1651362E+02  0.1087137E+02  0.2642386E+02  0.1041269E+03
Ar  666  0.1936481E+02  0.1378912E+02  0.2689049E+02  0.1023916E+03
Ar  667  0.1878793E+02  0.1129909E+02  0.2944679E+02  0.8028082E+02
Ar  668  0.1629064E+02  0.1384240E+02  0.2943180E+02  0.1284308E+03
Ar  669  0.1653540E+02  0.1109845E+02  0.3223577E+02  0.5470423E+02
Ar  670  0.1903259E+02  0.1389285E+02  0.3227846E+02  0.1800673E+02
Ar  671  0.1880094E+02  0.1133362E+02  0.3493060E+02  0.8634486E+02
Ar  672  0.1621556E+02  0.1395364E+02  0.3485190E+02  0.1465162E+03
Ar  673  0.1636993E+02  0.1636993E+02  0.3768380E+02  0.2243175E+03
Ar  674  0.1894270E+02  0.1894270E+02  0.3776648E+02  0.1111666E+03
Ar  675  0.1890975E+02  0.1601940E+02  0.2282021E+01  0.3067258E+03
Ar  676  0.1601940E+02  0.1890975E+02  0.2282021E+01  0.3067258E+03
Ar  677  0.1608151E+02  0.1608151E+02  0.5187076E+01  0.3349579E+02
Ar  678  0.1867402E+02  0.1867402E+02  0.5239114E+01  0.4171409E+02
Ar  679  0.1913473E+02  0.1610222E+02  0.7991323E+01  0.1655623E+03
Ar  680  0.1610222E+02  0.1913473E+02  0.7991323E+01  0.1655623E+03
Ar  681  0.1637917E+02  0.1637917E+02  0.1069072E+02  0.4006106E+02
Ar  682  0.1867603E+02  0.1867603E+02  0.1064120E+02  0.2382393E+03
Ar  683  0.1923366E+02  0.1663771E+02  0.1383572E+02  0.1323133E+03
Ar  684  0.1663771E+02  0.1923366E+02  0.1383572E+02  0.1323134E+03
Ar  685  0.1633288E+02  0.1633288E+02  0.1633288E+02  0.1068190E+03
Ar  686  0.1895229E+02  0.1895229E+02  0.1628631E+02  0.1619709E+03
Ar  687  0.1895229E+02  0.1628631E+02  0.1895229E+02  0.1619709E+03
Ar  688  0.1628631E+02  0.1895229E+02  0.1895229E+02  0.1619709E+03
Ar  689  0.1635746E+02  0.1635746E+02  0.2188854E+02  0.1504553E+03
Ar  690  0.1865348E+02  0.1865348E+02  0.2145880E+02  0.3749234E+03
Ar  691  0.1899898E+02  0.1597396E+02  0.2433880E+02  0.1016639E+03
Ar  692  0.1597396E+02  0.1899898E+02  0.2433880E+02  0.1016639E+03
Ar  693  0.1616937E+02  0.1616937E+02  0.2659507E+02  0.1204093E+03
Ar  694  0.1875696E+02  0.1875696E+02  0.2667983E+02  0.1319725E+03
Ar  695  0.1911274E+02  0.1639726E+02  0.2923557E+02  0.1141262E+03
Ar  696  0.1639726E+02  0.1911274E+02  0.2923557E+02  0.1141262E+03
Ar  697  0.1624475E+02  0.1624475E+02  0.3219354E+02  0.5476661E+03
Ar  698  0.1857596E+02  0.1857596E+02  0.3245121E+02  0.3290159E+03
Ar  699  0.1883365E+02  0.1633083E+02  0.3513290E+02  0.1164405E+03
Ar  700  0.1633083E+02  0.1883365E+02  0.3513290E+02  0.1164405E+03
Ar  701  0.1659535E+02  0.2166677E+02  0.1366455E-01  0.6604421E+02
Ar  702  0.1918469E+02  0.2432862E+02  0.3774698E+02  0.2115977E+03
Ar  703  0.1859253E+02  0.2206279E+02  0.2762716E+01  0.2840452E+03
Ar  704  0.1571359E+02  0.2443659E+02  0.2232193E+01  0.1834706E+03
Ar  705  0.1600712E+02  0.2129374E+02  0.5270609E+01  0.8684349E+02
Ar  706  0.1908385E+02  0.2448448E+02  0.5631114E+01  0.7724562E+02
Ar  707  0.1880274E+02  0.2161864E+02  0.7700141E+01  0.1377141E+02
Ar  708  0.1622693E+02  0.2387295E+02  0.8026027E+01  0.7248953E+02
Ar  709  0.1631921E+02  0.2167717E+02  0.1063766E+02  0.8179083E+02
Ar  710  0.1909954E+02  0.2431087E+02  0.1085313E+02  0.2556138E+02
Ar  711  0.1899506E+02  0.2164022E+02  0.1335653E+02  0.2871818E+03
Ar  712  0.1650306E+02  0.2409568E+02  0.1349865E+02  0.1057390E+03
Ar  713  0.1635746E+02  0.2188854E+02  0.1635746E+02  0.1504553E+03
Ar  714  0.1899898E+02  0.2433880E+02  0.1597396E+02  0.1016639E+03
Ar  715  0.1865348E+02  0.2145880E+02  0.1865348E+02  0.3749234E+03
Ar  716  0.1597396E+02  0.2433880E+02  0.1899898E+02  0.1016639E+03
Ar  717  0.1636563E+02  0.2131367E+02  0.2131367E+02  0.3990696E+03
Ar  718  0.1901581E+02  0.2427819E+02  0.2158650E+02  0.9260791E+02
Ar  719  0.1901581E+02  0.2158650E+02  0.2427819E+02  0.9260790E+02
Ar  720  0.1636128E+02  0.2434471E+02  0.2434471E+02  0.9798883E+02
Ar  721  0.1658396E+02  0.2189982E+02  0.2695108E+02  0.6593307E+02
Ar  722  0.1900864E+02  0.2466498E+02  0.2726714E+02  0.5496972E+02
Ar  723  0.1930659E+02  0.2160238E+02  0.2924294E+02  0.1643913E+03
Ar  724  0.1649222E+02  0.2436614E+02  0.2946191E+02  0.2630963E+03
Ar  725  0.1633372E+02  0.2204979E+02  0.3205046E+02  0.2945359E+02
Ar  726  0.1921029E+02  0.2418304E+02  0.3229894E+02  0.3872274E+02
Ar  727  0.1884969E+02  0.2163715E+02  0.3458044E+02  0.5745071E+02
Ar  728  0.1633887E+02  0.2407166E+02  0.3541697E+02  0.2984726E+03
Ar  729  0.1627605E+02  0.2688930E+02  0.3767080E+02  0.7095592E+03
Ar  730  0.1925932E+02  0.2958740E+02  0.9964179E-01  0.3065987E+02
Ar  731  0.1888407E+02  0.2699086E+02  0.2424293E+01  0.3815001E+03
Ar  732  0.1631719E+02  0.2919752E+02  0.2756356E+01  0.7952409E+02
Ar  733  0.1626852E+02  0.2636940E+02  0.5363091E+01  0.1273370E+03
Ar  734  0.1839771E+02  0.2919610E+02  0.5563154E+01  0.5647634E+02
Ar  735  0.1907478E+02  0.2716196E+02  0.8529932E+01  0.1974585E+03
Ar  736  0.1610565E+02  0.2916389E+02  0.8497075E+01  0.2270506E+02
Ar  737  0.1651362E+02  0.2642386E+02  0.1087137E+02  0.1041269E+03
Ar  738  0.1878793E+02  0.2944679E+02  0.1129909E+02  0.8028082E+02
Ar  739  0.1936481E+02  0.2689049E+02  0.1378912E+02  0.1023916E+03
Ar  740  0.1629064E+02  0.2943180E+02  0.1384240E+02  0.1284308E+03
Ar  741  0.1616937E+02  0.2659507E+02  0.1616937E+02  0.1204093E+03
Ar  742  0.1911274E+02  0.2923557E+02  0.1639726E+02  0.1141262E+03
Ar  743  0.1875696E+02  0.2667983E+02  0.1875696E+02  0.1319725E+03
Ar  744  0.1639726E+02  0.2923557E+02  0.1911274E+02  0.1141262E+03
Ar  745  0.1658396E+02  0.2695108E+02  0.2189982E+02  0.6593307E+02
Ar  746  0.1930659E+02  0.2924294E+02  0.2160238E+02  0.1643913E+03
Ar  747  0.1900864E+02  0.2726714E+02  0.2466498E+02  0.5496972E+02
Ar  748  0.1649222E+02  0.2946191E+02  0.2436614E+02  0.2630963E+03
Ar  749  0.1617074E+02  0.2725002E+02  0.2725002E+02  0.6488940E+03
Ar  750  0.1917904E+02  0.2994735E+02  0.2734042E+02  0.2026036E+03
Ar  751  0.1917904E+02  0.2734042E+02  0.2994735E+02  0.2026036E+03
Ar  752  0.1519796E+02  0.2998239E+02  0.2998239E+02  0.1106186E+03
Ar  753  0.1595277E+02  0.2729710E+02  0.3224629E+02  0.4029548E+02
Ar  754  0.1875333E+02  0.2986523E+02  0.3244953E+02  0.9340542E+02
Ar  755  0.1888974E+02  0.2668092E+02  0.3499197E+02  0.6315173E+02
Ar  756  0.1646791E+02  0.2957256E+02  0.3515573E+02  0.3923770E+03
Ar  757  0.1650952E+02  0.3246686E+02  0.2440834E+00  0.1841112E+03
Ar  758  0.1908627E+02  0.3463057E+02  0.2076655E+00  0.5350112E+02
Ar  759  0.1893724E+02  0.3185076E+02  0.2805461E+01  0.2155509E+02
Ar  760  0.1609273E+02  0.3538819E+02  0.2835683E+01  0.6018649E+02
Ar  761  0.1642494E+02  0.3221007E+02  0.5280714E+01  0.3152469E+02
Ar  762  0.1886504E+02  0.3487025E+02  0.5101510E+01  0.3084212E+02
Ar  763  0.1860846E+02  0.3198739E+02  0.8259308E+01  0.2473538E+02
Ar  764  0.1642241E+02  0.3488592E+02  0.7976353E+01  0.1197217E+03
Ar  765  0.1653540E+02  0.3223577E+02  0.1109845E+02  0.5470423E+02
Ar  766  0.1880094E+02  0.3493060E+02  0.1133362E+02  0.8634487E+02
Ar  767  0.1903259E+02  0.3227846E+02  0.1389285E+02  0.1800673E+02
Ar  768  0.1621556E+02  0.3485190E+02  0.1395364E+02  0.1465162E+03
Ar  769  0.1624475E+02  0.3219354E+02  0.1624475E+02  0.5476661E+03
Ar  770  0.1883365E+02  0.3513290E+02  0.1633083E+02  0.1164405E+03
Ar  771  0.1857596E+02  0.3245121E+02  0.1857596E+02  0.3290159E+03
Ar  772  0.1633083E+02  0.3513290E+02  0.1883365E+02  0.1164405E+03
Ar  773  0.1633372E+02  0.3205046E+02  0.2204979E+02  0.2945359E+02
Ar  774  0.1884969E+02  0.3458044E+02  0.2163715E+02  0.5745071E+02
Ar  775  0.1921029E+02  0.3229894E+02  0.2418304E+02  0.3872274E+02
Ar  776  0.1633887E+02  0.3541697E+02  0.2407166E+02  0.2984726E+03
Ar  777  0.1595277E+02  0.3224629E+02  0.2729710E+02  0.4029548E+02
Ar  778  0.1888974E+02  0.3499197E+02  0.2668092E+02  0.6315173E+02
Ar  779  0.1875333E+02  0.3244953E+02  0.2986523E+02  0.9340542E+02
Ar  780  0.1646791E+02  0.3515573E+02  0.2957256E+02  0.3923770E+03
Ar  781  0.1629991E+02  0.3234189E+02  0.3234189E+02  0.3070622E+02
Ar  782  0.1916355E+02  0.3511410E+02  0.3191172E+02  0.5597201E+02
Ar  783  0.1916355E+02  0.3191172E+02  0.3511410E+02  0.5597202E+02
Ar  784  0.1706476E+02  0.3504110E+02  0.3504110E+02  0.3582832E+02
Ar  785  0.2116043E+02  0.3744120E+02  0.3744120E+02  0.1235647E+03
Ar  786  0.2403221E+02  0.2647426E+01  0.2165009E+00  0.3177512E+02
Ar  787  0.2403221E+02  0.2165009E+00  0.2647426E+01  0.3177512E+02
Ar  788  0.2098774E+02  0.2283021E+01  0.2283021E+01  0.7412324E+02
Ar  789  0.2136093E+02  0.3760350E+02  0.5441143E+01  0.1546247E+03
Ar  790  0.2422864E+02  0.2557056E+01  0.5601272E+01  0.1514550E+03
Ar  791  0.2424831E+02  0.3773004E+02  0.8083775E+01  0.8477122E+02
Ar  792  0.2118476E+02  0.2321649E+01  0.7970655E+01  0.4451379E+02
Ar  793  0.2167787E+02  0.3770383E+02  0.1055602E+02  0.4022538E+02
Ar  794  0.2450194E+02  0.2752291E+01  0.1090577E+02  0.7044450E+02
Ar  795  0.2437755E+02  0.3768804E+02  0.1308006E+02  0.3054224E+03
Ar  796  0.2139228E+02  0.2385585E+01  0.1375441E+02  0.4483176E+03
Ar  797  0.2166677E+02  0.1366455E-01  0.1659535E+02  0.6604422E+02
Ar  798  0.2443659E+02  0.2232193E+01  0.1571359E+02  0.1834706E+03
Ar  799  0.2432862E+02  0.3774698E+02  0.1918469E+02  0.2115977E+03
Ar  800  0.2206279E+02  0.2762716E+01  0.1859253E+02  0.2840452E+03
Ar  801  0.2154036E+02  0.1849348E+00  0.2154036E+02  0.1882477E+03
Ar  802  0.2457072E+02  0.2820382E+01  0.2136999E+02  0.1751227E+02
Ar  803  0.2402992E+02  0.7374730E+00  0.2402992E+02  0.2735653E+03
Ar  804  0.2136999E+02  0.2820382E+01  0.2457072E+02  0.1751227E+02
Ar  805  0.2179397E+02  0.1269000E+00  0.2665129E+02  0.1074267E+03
Ar  806  0.2451312E+02  0.3627740E+01  0.2698028E+02  0.1710281E+03
Ar  807  0.2378357E+02  0.4925256E+00  0.2921270E+02  0.8532632E+02
Ar  808  0.2133167E+02  0.3090679E+01  0.2921632E+02  0.8855284E+02
Ar  809  0.2179957E+02  0.7180073E+00  0.3229995E+02  0.6472673E+02
Ar  810  0.2471781E+02  0.2895265E+01  0.3228126E+02  0.7278760E+01
Ar  811  0.2439931E+02  0.2712863E+00  0.3470758E+02  0.2379115E+02
Ar  812  0.2194343E+02  0.2850736E+01  0.3512837E+02  0.7088641E+02
Ar  813  0.2136093E+02  0.5441143E+01  0.3760350E+02  0.1546247E+03
Ar  814  0.2424831E+02  0.8083775E+01  0.3773004E+02  0.8477123E+02
Ar  815  0.2422864E+02  0.5601272E+01  0.2557056E+01  0.1514551E+03
Ar  816  0.2118476E+02  0.7970655E+01  0.2321649E+01  0.4451380E+02
Ar  817  0.2169747E+02  0.5063173E+01  0.5063173E+01  0.2507188E+03
Ar  818  0.2412835E+02  0.7746568E+01  0.5058619E+01  0.1312998E+03
Ar  819  0.2412835E+02  0.5058619E+01  0.7746568E+01  0.1312998E+03
Ar  820  0.2227486E+02  0.7676576E+01  0.7676576E+01  0.2054237E+03
Ar  821  0.2172527E+02  0.4991219E+01  0.1050357E+02  0.7689464E+02
Ar  822  0.2434565E+02  0.7525370E+01  0.1048578E+02  0.8879166E+02
Ar  823  0.2402035E+02  0.5618873E+01  0.1315330E+02  0.3007140E+03
Ar  824  0.2148429E+02  0.8345254E+01  0.1349983E+02  0.2083808E+03
Ar  825  0.2129374E+02  0.5270609E+01  0.1600712E+02  0.8684348E+02
Ar  826  0.2387295E+02  0.8026027E+01  0.1622693E+02  0.7248953E+02
Ar  827  0.2448448E+02  0.5631114E+01  0.1908385E+02  0.7724561E+02
Ar  828  0.2161864E+02  0.7700141E+01  0.1880274E+02  0.1377142E+02
Ar  829  0.2145594E+02  0.4728066E+01  0.2145594E+02  0.1105426E+03
Ar  830  0.2436179E+02  0.8044891E+01  0.2166663E+02  0.1890596E+03
Ar  831  0.2379773E+02  0.5359734E+01  0.2379773E+02  0.1709412E+03
Ar  832  0.2166663E+02  0.8044891E+01  0.2436179E+02  0.1890596E+03
Ar  833  0.2169691E+02  0.5667058E+01  0.2709621E+02  0.6061294E+02
Ar  834  0.2433450E+02  0.8267298E+01  0.2727604E+02  0.1069378E+03
Ar  835  0.2435887E+02  0.5684016E+01  0.2968723E+02  0.1492659E+03
Ar  836  0.2163042E+02  0.8287947E+01  0.2988521E+02  0.3857141E+02
Ar  837  0.2159352E+02  0.5586868E+01  0.3225983E+02  0.5619863E+02
Ar  838  0.2421067E+02  0.8187634E+01  0.3221899E+02  0.1050216E+03
Ar  839  0.2407185E+02  0.5672449E+01  0.3514026E+02  0.3854880E+02
Ar  840  0.2127864E+02  0.8070863E+01  0.3454371E+02  0.1282937E+03
Ar  841  0.2167787E+02  0.1055602E+02  0.3770383E+02  0.4022537E+02
Ar  842  0.2437755E+02  0.1308006E+02  0.3768804E+02  0.3054224E+03
Ar  843  0.2450194E+02  0.1090577E+02  0.2752291E+01  0.7044450E+02
Ar  844  0.2139228E+02  0.1375441E+02  0.2385585E+01  0.4483176E+03
Ar  845  0.2172527E+02  0.1050357E+02  0.4991219E+01  0.7689464E+02
Ar  846  0.2402035E+02  0.1315330E+02  0.5618873E+01  0.3007140E+03
Ar  847  0.2434565E+02  0.1048578E+02  0.7525370E+01  0.8879165E+02
Ar  848  0.2148429E+02  0.1349983E+02  0.8345254E+01  0.2083808E+03
Ar  849  0.2192822E+02  0.1015028E+02  0.1015028E+02  0.1264948E+04
Ar  850  0.2429284E+02  0.1375244E+02  0.1064264E+02  0.6330024E+02
Ar  851  0.2429284E+02  0.1064264E+02  0.1375244E+02  0.6330024E+02
Ar  852  0.2200081E+02  0.1357540E+02  0.1357540E+02  0.1442617E+02
Ar  853  0.2167717E+02  0.1063766E+02  0.1631921E+02  0.8179082E+02
Ar  854  0.2409568E+02  0.1349865E+02  0.1650306E+02  0.1057390E+03
Ar  855  0.2431087E+02  0.1085313E+02  0.1909954E+02  0.2556139E+02
Ar  856  0.2164022E+02  0.1335653E+02  0.1899506E+02  0.2871818E+03
Ar  857  0.2207119E+02  0.1054223E+02  0.2207119E+02  0.4554749E+02
Ar  858  0.2412032E+02  0.1354192E+02  0.2164866E+02  0.6046571E+02
Ar  859  0.2472161E+02  0.1072595E+02  0.2472161E+02  0.1121436E+03
Ar  860  0.2164866E+02  0.1354192E+02  0.2412032E+02  0.6046571E+02
Ar  861  0.2160703E+02  0.1101141E+02  0.2659323E+02  0.4551634E+03
Ar  862  0.2435627E+02  0.1370498E+02  0.2672179E+02  0.2210110E+03
Ar  863  0.2408753E+02  0.1102189E+02  0.2925849E+02  0.2857158E+02
Ar  864  0.2192518E+02  0.1362641E+02  0.2934408E+02  0.1996577E+03
Ar  865  0.2142664E+02  0.1115452E+02  0.3235999E+02  0.1939172E+03
Ar  866  0.2425840E+02  0.1383773E+02  0.3264745E+02  0.1091952E+03
Ar  867  0.2432498E+02  0.1091795E+02  0.3520619E+02  0.2671355E+03
Ar  868  0.2152525E+02  0.1327842E+02  0.3532574E+02  0.7489755E+02
Ar  869  0.2166677E+02  0.1659535E+02  0.1366455E-01  0.6604421E+02
Ar  870  0.2432862E+02  0.1918469E+02  0.3774698E+02  0.2115977E+03
Ar  871  0.2443659E+02  0.1571359E+02  0.2232193E+01  0.1834706E+03
Ar  872  0.2206279E+02  0.1859253E+02  0.2762716E+01  0.2840452E+03
Ar  873  0.2129374E+02  0.1600712E+02  0.5270609E+01  0.8684349E+02
Ar  874  0.2448448E+02  0.1908385E+02  0.5631114E+01  0.7724562E+02
Ar  875  0.2387295E+02  0.1622693E+02  0.8026027E+01  0.7248954E+02
Ar  876  0.2161864E+02  0.1880274E+02  0.7700141E+01  0.1377141E+02
Ar  877  0.2167717E+02  0.1631921E+02  0.1063766E+02  0.8179084E+02
Ar  878  0.2431087E+02  0.1909954E+02  0.1085313E+02  0.2556139E+02
Ar  879  0.2409568E+02  0.1650306E+02  0.1349865E+02  0.1057390E+03
Ar  880  0.2164022E+02  0.1899506E+02  0.1335653E+02  0.2871818E+03
Ar  881  0.2188854E+02  0.1635746E+02  0.1635746E+02  0.1504553E+03
Ar  882  0.2433880E+02  0.1899898E+02  0.1597396E+02  0.1016639E+03
Ar  883  0.2433880E+02  0.1597396E+02  0.1899898E+02  0.1016639E+03
Ar  884  0.2145880E+02  0.1865348E+02  0.1865348E+02  0.3749234E+03
Ar  885  0.2131367E+02  0.1636563E+02  0.2131367E+02  0.3990696E+03
Ar  886  0.2427819E+02  0.1901581E+02  0.2158650E+02  0.9260790E+02
Ar  887  0.2434471E+02  0.1636128E+02  0.2434471E+02  0.9798883E+02
Ar  888  0.2158650E+02  0.1901581E+02  0.2427819E+02  0.9260790E+02
Ar  889  0.2189982E+02  0.1658396E+02  0.2695108E+02  0.6593307E+02
Ar  890  0.2466498E+02  0.1900864E+02  0.2726714E+02  0.5496972E+02
Ar  891  0.2436614E+02  0.1649222E+02  0.2946191E+02  0.2630963E+03
Ar  892  0.2160238E+02  0.1930659E+02  0.2924294E+02  0.1643913E+03
Ar  893  0.2204979E+02  0.1633372E+02  0.3205046E+02  0.2945359E+02
Ar  894  0.2418304E+02  0.1921029E+02  0.3229894E+02  0.3872274E+02
Ar  895  0.2407166E+02  0.1633887E+02  0.3541697E+02  0.2984726E+03
Ar  896  0.2163715E+02  0.1884969E+02  0.3458044E+02  0.5745071E+02
Ar  897  0.2154036E+02  0.2154036E+02  0.1849347E+00  0.1882477E+03
Ar  898  0.2402992E+02  0.2402992E+02  0.7374730E+00  0.2735653E+03
Ar  899  0.2457072E+02  0.2136999E+02  0.2820382E+01  0.1751227E+02
Ar  900  0.2136999E+02  0.2457072E+02  0.2820382E+01  0.1751227E+02
Ar  901  0.2145594E+02  0.2145594E+02  0.4728066E+01  0.1105426E+03
Ar  902  0.2379773E+02  0.2379773E+02  0.5359734E+01  0.1709412E+03
Ar  903  0.2436179E+02  0.2166663E+02  0.8044891E+01  0.1890596E+03
Ar  904  0.2166663E+02  0.2436179E+02  0.8044891E+01  0.1890596E+03
Ar  905  0.2207119E+02  0.2207119E+02  0.1054223E+02  0.4554749E+02
Ar  906  0.2472161E+02  0.2472161E+02  0.1072595E+02  0.1121436E+03
Ar  907  0.2412032E+02  0.2164866E+02  0.1354192E+02  0.6046572E+02
Ar  908  0.2164866E+02  0.2412032E+02  0.1354192E+02  0.6046571E+02
Ar  909  0.2131367E+02  0.2131367E+02  0.1636563E+02  0.3990696E+03
Ar  910  0.2434471E+02  0.2434471E+02  0.1636128E+02  0.9798882E+02
Ar  911  0.2427819E+02  0.2158650E+02  0.1901581E+02  0.9260790E+02
Ar  912  0.2158650E+02  0.2427819E+02  0.1901581E+02  0.9260791E+02
Ar  913  0.2165654E+02  0.2165654E+02  0.2165654E+02  0.2926508E+02
Ar  914  0.2425345E+02  0.2425345E+02  0.2126901E+02  0.1572672E+03
Ar  915  0.2425345E+02  0.2126901E+02  0.2425345E+02  0.1572672E+03
Ar  916  0.2126901E+02  0.2425345E+02  0.2425345E+02  0.1572672E+03
Ar  917  0.2187918E+02  0.2187918E+02  0.2695029E+02  0.1792935E+03
Ar  918  0.2445633E+02  0.2445633E+02  0.2691358E+02  0.4962985E+02
Ar  919  0.2454978E+02  0.2207008E+02  0.2977921E+02  0.2559198E+02
Ar  920  0.2207008E+02  0.2454978E+02  0.2977921E+02  0.2559198E+02
Ar  921  0.2151242E+02  0.2151242E+02  0.3238910E+02  0.3795805E+02
Ar  922  0.2406677E+02  0.2406677E+02  0.3278195E+02  0.1825534E+02
Ar  923  0.2401310E+02  0.2159454E+02  0.3504156E+02  0.1319682E+03
Ar  924  0.2159454E+02  0.2401310E+02  0.3504156E+02  0.1319682E+03
Ar  925  0.2179397E+02  0.2665129E+02  0.1269000E+00  0.1074267E+03
Ar  926  0.2378357E+02  0.2921270E+02  0.4925256E+00  0.8532633E+02
Ar  927  0.2451312E+02  0.2698028E+02  0.3627740E+01  0.1710281E+03
Ar  928  0.2133167E+02  0.2921632E+02  0.3090679E+01  0.8855284E+02
Ar  929  0.2169691E+02  0.2709621E+02  0.5667058E+01  0.6061294E+02
Ar  930  0.2435887E+02  0.2968723E+02  0.5684016E+01  0.1492659E+03
Ar  931  0.2433450E+02  0.2727604E+02  0.8267298E+01  0.1069378E+03
Ar  932  0.2163042E+02  0.2988521E+02  0.8287947E+01  0.3857141E+02
Ar  933  0.2160703E+02  0.2659323E+02  0.1101141E+02  0.4551634E+03
Ar  934  0.2408753E+02  0.2925849E+02  0.1102189E+02  0.2857158E+02
Ar  935  0.2435627E+02  0.2672179E+02  0.1370498E+02  0.2210110E+03
Ar  936  0.2192518E+02  0.2934408E+02  0.1362641E+02  0.1996577E+03
Ar  937  0.2189982E+02  0.2695108E+02  0.1658396E+02  0.6593306E+02
Ar  938  0.2436614E+02  0.2946191E+02  0.1649222E+02  0.2630963E+03
Ar  939  0.2466498E+02  0.2726714E+02  0.1900864E+02  0.5496972E+02
Ar  940  0.2160238E+02  0.2924294E+02  0.1930659E+02  0.1643913E+03
Ar  941  0.2187918E+02  0.2695029E+02  0.2187918E+02  0.1792935E+03
Ar  942  0.2454978E+02  0.2977921E+02  0.2207008E+02  0.2559198E+02
Ar  943  0.2445633E+02  0.2691358E+02  0.2445633E+02  0.4962985E+02
Ar  944  0.2207008E+02  0.2977921E+02  0.2454978E+02  0.2559198E+02
Ar  945  0.2197022E+02  0.2737477E+02  0.2737477E+02  0.1828866E+02
Ar  946  0.2434313E+02  0.2987667E+02  0.2716488E+02  0.3405586E+02
Ar  947  0.2434313E+02  0.2716488E+02  0.2987667E+02  0.3405587E+02
Ar  948  0.2203975E+02  0.3003650E+02  0.3003650E+02  0.7071447E+01
Ar  949  0.2149237E+02  0.2681692E+02  0.3261935E+02  0.1042774E+03
Ar  950  0.2437388E+02  0.2953983E+02  0.3261226E+02  0.4511855E+02
Ar  951  0.2409410E+02  0.2650770E+02  0.3546075E+02  0.3135822E+03
Ar  952  0.2158912E+02  0.2918747E+02  0.3514162E+02  0.2958338E+02
Ar  953  0.2179957E+02  0.3229995E+02  0.7180073E+00  0.6472673E+02
Ar  954  0.2439931E+02  0.3470758E+02  0.2712863E+00  0.2379115E+02
Ar  955  0.2471781E+02  0.3228126E+02  0.2895265E+01  0.7278760E+01
Ar  956  0.2194343E+02  0.3512837E+02  0.2850736E+01  0.7088641E+02
Ar  957  0.2159352E+02  0.3225983E+02  0.5586868E+01  0.5619862E+02
Ar  958  0.2407185E+02  0.3514026E+02  0.5672449E+01  0.3854881E+02
Ar  959  0.2421067E+02  0.3221899E+02  0.8187634E+01  0.1050216E+03
Ar  960  0.2127864E+02  0.3454371E+02  0.8070863E+01  0.1282937E+03
Ar  961  0.2142664E+02  0.3235999E+02  0.1115452E+02  0.1939172E+03
Ar  962  0.2432498E+02  0.3520619E+02  0.1091795E+02  0.2671355E+03
Ar  963  0.2425840E+02  0.3264745E+02  0.1383773E+02  0.1091952E+03
Ar  964  0.2152525E+02  0.3532574E+02  0.1327842E+02  0.7489754E+02
Ar  965  0.2204979E+02  0.3205046E+02  0.1633372E+02  0.2945359E+02
Ar  966  0.2407166E+02  0.3541697E+02  0.1633887E+02  0.2984726E+03
Ar  967  0.2418304E+02  0.3229894E+02  0.1921029E+02  0.3872274E+02
Ar  968  0.2163715E+02  0.3458044E+02  0.1884969E+02  0.5745072E+02
Ar  969  0.2151242E+02  0.3238910E+02  0.2151242E+02  0.3795805E+02
Ar  970  0.2401310E+02  0.3504156E+02  0.2159454E+02  0.1319682E+03
Ar  971  0.2406677E+02  0.3278195E+02  0.2406677E+02  0.1825534E+02
Ar  972  0.2159454E+02  0.3504156E+02  0.2401310E+02  0.1319682E+03
Ar  973  0.2149237E+02  0.3261935E+02  0.2681692E+02  0.1042774E+03
Ar  974  0.2409410E+02  0.3546075E+02  0.2650770E+02  0.3135822E+03
Ar  975  0.2437388E+02  0.3261226E+02  0.2953983E+02  0.4511856E+02
Ar  976  0.2158912E+02  0.3514162E+02  0.2918747E+02  0.2958338E+02
Ar  977  0.2203514E+02  0.3241390E+02  0.3241390E+02  0.1331669E+01
Ar  978  0.2338757E+02  0.3551962E+02  0.3210751E+02  0.8339792E+02
Ar  979  0.2338757E+02  0.3210751E+02  0.3551962E+02  0.8339792E+02
Ar  980  0.2129270E+02  0.3488158E+02  0.3488158E+02  0.2940462E+03
Ar  981  0.2649835E+02  0.3766863E+02  0.3766863E+02  0.7573754E+02
Ar  982  0.2959576E+02  0.2384817E+01  0.2404091E-01  0.2176563E+03
Ar  983  0.2959576E+02  0.2404093E-01  0.2384817E+01  0.2176564E+03
Ar  984  0.2722316E+02  0.2835341E+01  0.2835341E+01  0.2924895E+03
Ar  985  0.2695842E+02  0.1901894E+00  0.5485345E+01  0.2141759E+03
Ar  986  0.2964116E+02  0.2762985E+01  0.5240681E+01  0.1731422E+03
Ar  987  0.2976932E+02  0.1375102E+00  0.7792138E+01  0.1216691E+03
Ar  988  0.2729224E+02  0.2551715E+01  0.8107789E+01  0.1413080E+03
Ar  989  0.2712688E+02  0.1865857E-01  0.1085188E+02  0.6903228E+02
Ar  990  0.2987098E+02  0.2511596E+01  0.1077266E+02  0.1871236E+03
Ar  991  0.2973997E+02  0.2212254E+00  0.1370396E+02  0.1308842E+03
Ar  992  0.2703225E+02  0.2286743E+01  0.1344917E+02  0.1243467E+03
Ar  993  0.2688930E+02  0.3767080E+02  0.1627605E+02  0.7095592E+03
Ar  994  0.2919752E+02  0.2756356E+01  0.1631719E+02  0.7952408E+02
Ar  995  0.2958740E+02  0.9964181E-01  0.1925932E+02  0.3065987E+02
Ar  996  0.2699086E+02  0.2424293E+01  0.1888407E+02  0.3815001E+03
Ar  997  0.2665129E+02  0.1269000E+00  0.2179397E+02  0.1074267E+03
Ar  998  0.2921632E+02  0.3090679E+01  0.2133167E+02  0.8855283E+02
Ar  999  0.2921270E+02  0.4925256E+00  0.2378357E+02  0.8532632E+02
Ar 1000  0.2698028E+02  0.3627740E+01  0.2451312E+02  0.1710281E+03
Ar 1001  0.2682637E+02  0.9646959E+00  0.2682637E+02  0.3967529E+03
Ar 1002  0.2979563E+02  0.3107106E+01  0.2701769E+02  0.6595947E+02
Ar 1003  0.2960260E+02  0.3774888E+02  0.2960260E+02  0.6098401E+03
Ar 1004  0.2701769E+02  0.3107106E+01  0.2979563E+02  0.6595946E+02
Ar 1005  0.2660377E+02  0.3770028E+02  0.3189728E+02  0.2810048E+02
Ar 1006  0.2939298E+02  0.2578796E+01  0.3229706E+02  0.1366279E+02
Ar 1007  0.2937856E+02  0.3750716E+02  0.3481034E+02  0.8429500E+02
Ar 1008  0.2703479E+02  0.3028799E+01  0.3517569E+02  0.1646017E+03
Ar 1009  0.2695842E+02  0.5485345E+01  0.1901894E+00  0.2141759E+03
Ar 1010  0.2976932E+02  0.7792138E+01  0.1375102E+00  0.1216691E+03
Ar 1011  0.2964116E+02  0.5240681E+01  0.2762985E+01  0.1731422E+03
Ar 1012  0.2729224E+02  0.8107789E+01  0.2551715E+01  0.1413080E+03
Ar 1013  0.2691082E+02  0.5365816E+01  0.5365816E+01  0.2393078E+02
Ar 1014  0.2926966E+02  0.8020665E+01  0.5610656E+01  0.1017199E+03
Ar 1015  0.2926966E+02  0.5610656E+01  0.8020665E+01  0.1017199E+03
Ar 1016  0.2696465E+02  0.8300983E+01  0.8300983E+01  0.1726285E+03
Ar 1017  0.2704560E+02  0.5147554E+01  0.1078099E+02  0.1364798E+03
Ar 1018  0.2963098E+02  0.8281896E+01  0.1108178E+02  0.1334671E+03
Ar 1019  0.2904879E+02  0.5842147E+01  0.1382268E+02  0.3195624E+02
Ar 1020  0.2659580E+02  0.8250158E+01  0.1355152E+02  0.5076920E+02
Ar 1021  0.2636940E+02  0.5363091E+01  0.1626852E+02  0.1273370E+03
Ar 1022  0.2916389E+02  0.8497075E+01  0.1610565E+02  0.2270506E+02
Ar 1023  0.2919610E+02  0.5563154E+01  0.1839771E+02  0.5647634E+02
Ar 1024  0.2716196E+02  0.8529932E+01  0.1907478E+02  0.1974585E+03
Ar 1025  0.2709621E+02  0.5667058E+01  0.2169691E+02  0.6061294E+02
Ar 1026  0.2988521E+02  0.8287947E+01  0.2163042E+02  0.3857141E+02
Ar 1027  0.2968723E+02  0.5684016E+01  0.2435887E+02  0.1492659E+03
Ar 1028  0.2727604E+02  0.8267298E+01  0.2433450E+02  0.1069378E+03
Ar 1029  0.2720838E+02  0.6116638E+01  0.2720838E+02  0.4465256E+02
Ar 1030  0.2994339E+02  0.8251999E+01  0.2692135E+02  0.8878154E+01
Ar 1031  0.2967769E+02  0.5293889E+01  0.2967769E+02  0.7850874E+03
Ar 1032  0.2692135E+02  0.8251999E+01  0.2994339E+02  0.8878155E+01
Ar 1033  0.2700455E+02  0.5586483E+01  0.3229096E+02  0.4238579E+02
Ar 1034  0.2992207E+02  0.7646383E+01  0.3259117E+02  0.8153308E+02
Ar 1035  0.2960139E+02  0.5389976E+01  0.3519940E+02  0.1043638E+03
Ar 1036  0.2708804E+02  0.8332704E+01  0.3519950E+02  0.2332660E+02
Ar 1037  0.2712688E+02  0.1085188E+02  0.1865856E-01  0.6903228E+02
Ar 1038  0.2973997E+02  0.1370396E+02  0.2212254E+00  0.1308842E+03
Ar 1039  0.2987098E+02  0.1077266E+02  0.2511596E+01  0.1871236E+03
Ar 1040  0.2703225E+02  0.1344917E+02  0.2286743E+01  0.1243467E+03
Ar 1041  0.2704560E+02  0.1078099E+02  0.5147554E+01  0.1364798E+03
Ar 1042  0.2904879E+02  0.1382268E+02  0.5842147E+01  0.3195624E+02
Ar 1043  0.2963098E+02  0.1108178E+02  0.8281896E+01  0.1334671E+03
Ar 1044  0.2659580E+02  0.1355152E+02  0.8250158E+01  0.5076920E+02
Ar 1045  0.2709784E+02  0.1104160E+02  0.1104160E+02  0.1529790E+03
Ar 1046  0.2931939E+02  0.1368701E+02  0.1085094E+02  0.5672275E+02
Ar 1047  0.2931939E+02  0.1085094E+02  0.1368701E+02  0.5672274E+02
Ar 1048  0.2678416E+02  0.1367687E+02  0.1367687E+02  0.2020861E+03
Ar 1049  0.2642386E+02  0.1087137E+02  0.1651362E+02  0.1041269E+03
Ar 1050  0.2943180E+02  0.1384240E+02  0.1629064E+02  0.1284308E+03
Ar 1051  0.2944679E+02  0.1129909E+02  0.1878793E+02  0.8028083E+02
Ar 1052  0.2689049E+02  0.1378912E+02  0.1936481E+02  0.1023916E+03
Ar 1053  0.2659323E+02  0.1101141E+02  0.2160703E+02  0.4551634E+03
Ar 1054  0.2934408E+02  0.1362641E+02  0.2192518E+02  0.1996577E+03
Ar 1055  0.2925849E+02  0.1102189E+02  0.2408753E+02  0.2857158E+02
Ar 1056  0.2672179E+02  0.1370498E+02  0.2435627E+02  0.2210110E+03
Ar 1057  0.2711382E+02  0.1079343E+02  0.2711382E+02  0.4815319E+02
Ar 1058  0.2994905E+02  0.1350082E+02  0.2649903E+02  0.2995306E+03
Ar 1059  0.2962438E+02  0.1055453E+02  0.2962438E+02  0.6101546E+02
Ar 1060  0.2649903E+02  0.1350082E+02  0.2994905E+02  0.2995306E+03
Ar 1061  0.2715205E+02  0.1057864E+02  0.3229500E+02  0.9590452E+02
Ar 1062  0.3010420E+02  0.1337725E+02  0.3289241E+02  0.2581743E+02
Ar 1063  0.2956102E+02  0.1124407E+02  0.3536509E+02  0.2438871E+03
Ar 1064  0.2693473E+02  0.1382505E+02  0.3520518E+02  0.8587769E+02
Ar 1065  0.2688930E+02  0.1627605E+02  0.3767080E+02  0.7095592E+03
Ar 1066  0.2958740E+02  0.1925932E+02  0.9964179E-01  0.3065987E+02
Ar 1067  0.2919752E+02  0.1631719E+02  0.2756356E+01  0.7952409E+02
Ar 1068  0.2699086E+02  0.1888407E+02  0.2424293E+01  0.3815001E+03
Ar 1069  0.2636940E+02  0.1626852E+02  0.5363091E+01  0.1273370E+03
Ar 1070  0.2919610E+02  0.1839771E+02  0.5563154E+01  0.5647634E+02
Ar 1071  0.2916389E+02  0.1610565E+02  0.8497075E+01  0.2270507E+02
Ar 1072  0.2716196E+02  0.1907478E+02  0.8529932E+01  0.1974585E+03
Ar 1073  0.2642386E+02  0.1651362E+02  0.1087137E+02  0.1041269E+03
Ar 1074  0.2944679E+02  0.1878793E+02  0.1129909E+02  0.8028082E+02
Ar 1075  0.2943180E+02  0.1629064E+02  0.1384240E+02  0.1284308E+03
Ar 1076  0.2689049E+02  0.1936481E+02  0.1378912E+02  0.1023916E+03
Ar 1077  0.2659507E+02  0.1616937E+02  0.1616937E+02  0.1204093E+03
Ar 1078  0.2923557E+02  0.1911274E+02  0.1639726E+02  0.1141262E+03
Ar 1079  0.2923557E+02  0.1639726E+02  0.1911274E+02  0.1141262E+03
Ar 1080  0.2667983E+02  0.1875696E+02  0.1875696E+02  0.1319725E+03
Ar 1081  0.2695108E+02  0.1658396E+02  0.2189982E+02  0.6593307E+02
Ar 1082  0.2924294E+02  0.1930659E+02  0.2160238E+02  0.1643913E+03
Ar 1083  0.2946191E+02  0.1649222E+02  0.2436614E+02  0.2630963E+03
Ar 1084  0.2726714E+02  0.1900864E+02  0.2466498E+02  0.5496972E+02
Ar 1085  0.2725002E+02  0.1617074E+02  0.2725002E+02  0.6488941E+03
Ar 1086  0.2994735E+02  0.1917904E+02  0.2734042E+02  0.2026036E+03
Ar 1087  0.2998239E+02  0.1519796E+02  0.2998239E+02  0.1106186E+03
Ar 1088  0.2734042E+02  0.1917904E+02  0.2994735E+02  0.2026036E+03
Ar 1089  0.2729710E+02  0.1595277E+02  0.3224629E+02  0.4029548E+02
Ar 1090  0.2986523E+02  0.1875333E+02  0.3244953E+02  0.9340542E+02
Ar 1091  0.2957256E+02  0.1646791E+02  0.3515573E+02  0.3923769E+03
Ar 1092  0.2668092E+02  0.1888974E+02  0.3499197E+02  0.6315173E+02
Ar 1093  0.2665129E+02  0.2179397E+02  0.1269000E+00  0.1074267E+03
Ar 1094  0.2921270E+02  0.2378357E+02  0.4925257E+00  0.8532632E+02
Ar 1095  0.2921632E+02  0.2133167E+02  0.3090679E+01  0.8855285E+02
Ar 1096  0.2698028E+02  0.2451312E+02  0.3627740E+01  0.1710281E+03
Ar 1097  0.2709621E+02  0.2169691E+02  0.5667058E+01  0.6061294E+02
Ar 1098  0.2968723E+02  0.2435887E+02  0.5684016E+01  0.1492659E+03
Ar 1099  0.2988521E+02  0.2163042E+02  0.8287947E+01  0.3857141E+02
Ar 1100  0.2727604E+02  0.2433450E+02  0.8267298E+01  0.1069378E+03
Ar 1101  0.2659323E+02  0.2160703E+02  0.1101141E+02  0.4551634E+03
Ar 1102  0.2925849E+02  0.2408753E+02  0.1102189E+02  0.2857158E+02
Ar 1103  0.2934408E+02  0.2192518E+02  0.1362641E+02  0.1996577E+03
Ar 1104  0.2672179E+02  0.2435627E+02  0.1370498E+02  0.2210110E+03
Ar 1105  0.2695108E+02  0.2189982E+02  0.1658396E+02  0.6593307E+02
Ar 1106  0.2946191E+02  0.2436614E+02  0.1649222E+02  0.2630963E+03
Ar 1107  0.2924294E+02  0.2160238E+02  0.1930659E+02  0.1643913E+03
Ar 1108  0.2726714E+02  0.2466498E+02  0.1900864E+02  0.5496972E+02
Ar 1109  0.2695029E+02  0.2187918E+02  0.2187918E+02  0.1792935E+03
Ar 1110  0.2977921E+02  0.2454978E+02  0.2207008E+02  0.2559198E+02
Ar 1111  0.2977921E+02  0.2207008E+02  0.2454978E+02  0.2559198E+02
Ar 1112  0.2691358E+02  0.2445633E+02  0.2445633E+02  0.4962985E+02
Ar 1113  0.2737477E+02  0.2197022E+02  0.2737477E+02  0.1828866E+02
Ar 1114  0.2987667E+02  0.2434313E+02  0.2716488E+02  0.3405587E+02
Ar 1115  0.3003650E+02  0.2203975E+02  0.3003650E+02  0.7071445E+01
Ar 1116  0.2716488E+02  0.2434313E+02  0.2987667E+02  0.3405587E+02
Ar 1117  0.2681692E+02  0.2149237E+02  0.3261935E+02  0.1042774E+03
Ar 1118  0.2953983E+02  0.2437388E+02  0.3261226E+02  0.4511856E+02
Ar 1119  0.2918747E+02  0.2158912E+02  0.3514162E+02  0.2958338E+02
Ar 1120  0.2650770E+02  0.2409410E+02  0.3546075E+02  0.3135822E+03
Ar 1121  0.2682637E+02  0.2682637E+02  0.9646959E+00  0.3967529E+03
Ar 1122  0.2960260E+02  0.2960260E+02  0.3774888E+02  0.6098401E+03
Ar 1123  0.2979563E+02  0.2701769E+02  0.3107106E+01  0.6595947E+02
Ar 1124  0.2701769E+02  0.2979563E+02  0.3107106E+01  0.6595947E+02
Ar 1125  0.2720838E+02  0.2720838E+02  0.6116638E+01  0.4465255E+02
Ar 1126  0.2967769E+02  0.2967769E+02  0.5293889E+01  0.7850874E+03
Ar 1127  0.2994339E+02  0.2692135E+02  0.8251999E+01  0.8878155E+01
Ar 1128  0.2692135E+02  0.2994339E+02  0.8251999E+01  0.8878160E+01
Ar 1129  0.2711382E+02  0.2711382E+02  0.1079343E+02  0.4815319E+02
Ar 1130  0.2962438E+02  0.2962438E+02  0.1055453E+02  0.6101546E+02
Ar 1131  0.2994905E+02  0.2649903E+02  0.1350082E+02  0.2995306E+03
Ar 1132  0.2649903E+02  0.2994905E+02  0.1350082E+02  0.2995306E+03
Ar 1133  0.2725002E+02  0.2725002E+02  0.1617074E+02  0.6488940E+03
Ar 1134  0.2998239E+02  0.2998239E+02  0.1519796E+02  0.1106186E+03
Ar 1135  0.2994735E+02  0.2734042E+02  0.1917904E+02  0.2026036E+03
Ar 1136  0.2734042E+02  0.2994735E+02  0.1917904E+02  0.2026036E+03
Ar 1137  0.2737477E+02  0.2737477E+02  0.2197022E+02  0.1828865E+02
Ar 1138  0.3003650E+02  0.3003650E+02  0.2203975E+02  0.7071446E+01
Ar 1139  0.2987667E+02  0.2716488E+02  0.2434313E+02  0.3405587E+02
Ar 1140  0.2716488E+02  0.2987667E+02  0.2434313E+02  0.3405587E+02
Ar 1141  0.2703613E+02  0.2703613E+02  0.2703613E+02  0.7589456E+02
Ar 1142  0.2983462E+02  0.2983462E+02  0.2697271E+02  0.6879965E+01
Ar 1143  0.2983462E+02  0.2697271E+02  0.2983462E+02  0.6879967E+01
Ar 1144  0.2697271E+02  0.2983462E+02  0.2983462E+02  0.6879966E+01
Ar 1145  0.2670855E+02  0.2670855E+02  0.3271303E+02  0.1044709E+03
Ar 1146  0.2940063E+02  0.2940063E+02  0.3252854E+02  0.1545781E+03
Ar 1147  0.2926076E+02  0.2666938E+02  0.3520814E+02  0.2950230E+03
Ar 1148  0.2666938E+02  0.2926076E+02  0.3520814E+02  0.2950230E+03
Ar 1149  0.2660377E+02  0.3189728E+02  0.3770028E+02  0.2810048E+02
Ar 1150  0.2937856E+02  0.3481034E+02  0.3750716E+02  0.8429500E+02
Ar 1151  0.2939298E+02  0.3229706E+02  0.2578796E+01  0.1366279E+02
Ar 1152  0.2703479E+02  0.3517569E+02  0.3028799E+01  0.1646017E+03
Ar 1153  0.2700455E+02  0.3229096E+02  0.5586483E+01  0.4238579E+02
Ar 1154  0.2960139E+02  0.3519940E+02  0.5389976E+01  0.1043638E+03
Ar 1155  0.2992207E+02  0.3259117E+02  0.7646383E+01  0.8153308E+02
Ar 1156  0.2708804E+02  0.3519950E+02  0.8332704E+01  0.2332660E+02
Ar 1157  0.2715205E+02  0.3229500E+02  0.1057864E+02  0.9590451E+02
Ar 1158  0.2956102E+02  0.3536509E+02  0.1124407E+02  0.2438871E+03
Ar 1159  0.3010420E+02  0.3289241E+02  0.1337725E+02  0.2581742E+02
Ar 1160  0.2693473E+02  0.3520518E+02  0.1382505E+02  0.8587769E+02
Ar 1161  0.2729710E+02  0.3224629E+02  0.1595277E+02  0.4029548E+02
Ar 1162  0.2957256E+02  0.3515573E+02  0.1646791E+02  0.3923769E+03
Ar 1163  0.2986523E+02  0.3244953E+02  0.1875333E+02  0.9340541E+02
Ar 1164  0.2668092E+02  0.3499197E+02  0.1888974E+02  0.6315172E+02
Ar 1165  0.2681692E+02  0.3261935E+02  0.2149237E+02  0.1042774E+03
Ar 1166  0.2918747E+02  0.3514162E+02  0.2158912E+02  0.2958338E+02
Ar 1167  0.2953983E+02  0.3261226E+02  0.2437388E+02  0.4511855E+02
Ar 1168  0.2650770E+02  0.3546075E+02  0.2409410E+02  0.3135822E+03
Ar 1169  0.2670855E+02  0.3271303E+02  0.2670855E+02  0.1044709E+03
Ar 1170  0.2926076E+02  0.3520814E+02  0.2666938E+02  0.2950230E+03
Ar 1171  0.2940063E+02  0.3252854E+02  0.2940063E+02  0.1545781E+03
Ar 1172  0.2666938E+02  0.3520814E+02  0.2926076E+02  0.2950230E+03
Ar 1173  0.2687642E+02  0.3217957E+02  0.3217957E+02  0.1937383E+03
Ar 1174  0.2911561E+02  0.3503529E+02  0.3188829E+02  0.1767514E+03
Ar 1175  0.2911561E+02  0.3188829E+02  0.3503529E+02  0.1767514E+03
Ar 1176  0.2620134E+02  0.3462256E+02  0.3462256E+02  0.1159436E+03
Ar 1177  0.3187575E+02  0.3732308E+02  0.3732308E+02  0.3738311E+03
Ar 1178  0.3465655E+02  0.2244709E+01  0.3739431E+02  0.3111962E+03
Ar 1179  0.3465655E+02  0.3739431E+02  0.2244709E+01  0.3111962E+03
Ar 1180  0.3223019E+02  0.2654546E+01  0.2654546E+01  0.5031072E+02
Ar 1181  0.3204774E+02  0.3765166E+02  0.5006422E+01  0.4131676E+03
Ar 1182  0.3478340E+02  0.2627078E+01  0.5606956E+01  0.3210839E+03
Ar 1183  0.3462256E+02  0.4101817E-01  0.8150400E+01  0.5108668E+02
Ar 1184  0.3214065E+02  0.2703605E+01  0.7977402E+01  0.5601742E+01
Ar 1185  0.3223387E+02  0.3770619E+02  0.1141183E+02  0.2641223E+03
Ar 1186  0.3499312E+02  0.2891886E+01  0.1090741E+02  0.1776828E+02
Ar 1187  0.3507450E+02  0.3674950E-02  0.1380162E+02  0.5717914E+02
Ar 1188  0.3228069E+02  0.2928041E+01  0.1410011E+02  0.1904317E+03
Ar 1189  0.3246686E+02  0.2440834E+00  0.1650952E+02  0.1841112E+03
Ar 1190  0.3538819E+02  0.2835683E+01  0.1609273E+02  0.6018648E+02
Ar 1191  0.3463057E+02  0.2076655E+00  0.1908627E+02  0.5350112E+02
Ar 1192  0.3185076E+02  0.2805461E+01  0.1893724E+02  0.2155509E+02
Ar 1193  0.3229995E+02  0.7180073E+00  0.2179957E+02  0.6472673E+02
Ar 1194  0.3512837E+02  0.2850736E+01  0.2194343E+02  0.7088641E+02
Ar 1195  0.3470758E+02  0.2712863E+00  0.2439931E+02  0.2379115E+02
Ar 1196  0.3228126E+02  0.2895265E+01  0.2471781E+02  0.7278760E+01
Ar 1197  0.3189728E+02  0.3770028E+02  0.2660377E+02  0.2810047E+02
Ar 1198  0.3517569E+02  0.3028799E+01  0.2703479E+02  0.1646017E+03
Ar 1199  0.3481034E+02  0.3750716E+02  0.2937856E+02  0.8429501E+02
Ar 1200  0.3229706E+02  0.2578796E+01  0.2939298E+02  0.1366279E+02
Ar 1201  0.3209643E+02  0.3763792E+02  0.3209643E+02  0.1898992E+03
Ar 1202  0.3501433E+02  0.2437566E+01  0.3185878E+02  0.1075102E+03
Ar 1203  0.3463400E+02  0.3709186E+02  0.3463400E+02  0.1244612E+02
Ar 1204  0.3185878E+02  0.2437566E+01  0.3501433E+02  0.1075102E+03
Ar 1205  0.3204774E+02  0.5006422E+01  0.3765166E+02  0.4131676E+03
Ar 1206  0.3462256E+02  0.8150400E+01  0.4101815E-01  0.5108667E+02
Ar 1207  0.3478340E+02  0.5606956E+01  0.2627078E+01  0.3210839E+03
Ar 1208  0.3214065E+02  0.7977402E+01  0.2703605E+01  0.5601742E+01
Ar 1209  0.3208801E+02  0.5205344E+01  0.5205344E+01  0.1847725E+03
Ar 1210  0.3496412E+02  0.8240549E+01  0.5829320E+01  0.4462659E+02
Ar 1211  0.3496412E+02  0.5829320E+01  0.8240549E+01  0.4462660E+02
Ar 1212  0.3213224E+02  0.7791802E+01  0.7791802E+01  0.3840222E+02
Ar 1213  0.3209207E+02  0.5248561E+01  0.1137645E+02  0.9966570E+02
Ar 1214  0.3474497E+02  0.8421663E+01  0.1087750E+02  0.5138290E+02
Ar 1215  0.3489995E+02  0.5569286E+01  0.1369877E+02  0.7523381E+02
Ar 1216  0.3222786E+02  0.7972620E+01  0.1417837E+02  0.1999916E+03
Ar 1217  0.3221007E+02  0.5280714E+01  0.1642494E+02  0.3152468E+02
Ar 1218  0.3488592E+02  0.7976353E+01  0.1642241E+02  0.1197217E+03
Ar 1219  0.3487025E+02  0.5101510E+01  0.1886504E+02  0.3084212E+02
Ar 1220  0.3198739E+02  0.8259308E+01  0.1860846E+02  0.2473538E+02
Ar 1221  0.3225983E+02  0.5586868E+01  0.2159352E+02  0.5619863E+02
Ar 1222  0.3454371E+02  0.8070863E+01  0.2127864E+02  0.1282937E+03
Ar 1223  0.3514026E+02  0.5672449E+01  0.2407185E+02  0.3854881E+02
Ar 1224  0.3221899E+02  0.8187634E+01  0.2421067E+02  0.1050216E+03
Ar 1225  0.3229096E+02  0.5586483E+01  0.2700455E+02  0.4238580E+02
Ar 1226  0.3519950E+02  0.8332704E+01  0.2708804E+02  0.2332660E+02
Ar 1227  0.3519940E+02  0.5389976E+01  0.2960139E+02  0.1043638E+03
Ar 1228  0.3259117E+02  0.7646383E+01  0.2992207E+02  0.8153308E+02
Ar 1229  0.3198856E+02  0.4784918E+01  0.3198856E+02  0.1494432E+03
Ar 1230  0.3515453E+02  0.8535583E+01  0.3226934E+02  0.9402973E+02
Ar 1231  0.3460777E+02  0.5659446E+01  0.3460777E+02  0.6284344E+03
Ar 1232  0.3226934E+02  0.8535583E+01  0.3515453E+02  0.9402972E+02
Ar 1233  0.3223387E+02  0.1141183E+02  0.3770619E+02  0.2641223E+03
Ar 1234  0.3507450E+02  0.1380162E+02  0.3674931E-02  0.5717914E+02
Ar 1235  0.3499312E+02  0.1090741E+02  0.2891886E+01  0.1776829E+02
Ar 1236  0.3228069E+02  0.1410011E+02  0.2928041E+01  0.1904317E+03
Ar 1237  0.3209207E+02  0.1137645E+02  0.5248561E+01  0.9966570E+02
Ar 1238  0.3489995E+02  0.1369877E+02  0.5569286E+01  0.7523381E+02
Ar 1239  0.3474497E+02  0.1087750E+02  0.8421663E+01  0.5138290E+02
Ar 1240  0.3222786E+02  0.1417837E+02  0.7972620E+01  0.1999916E+03
Ar 1241  0.3209042E+02  0.1132440E+02  0.1132440E+02  0.9360947E+02
Ar 1242  0.3446349E+02  0.1364231E+02  0.1070712E+02  0.4564414E+03
Ar 1243  0.3446349E+02  0.1070712E+02  0.1364231E+02  0.4564414E+03
Ar 1244  0.3202870E+02  0.1368633E+02  0.1368633E+02  0.1911055E+03
Ar 1245  0.3223577E+02  0.1109845E+02  0.1653540E+02  0.5470422E+02
Ar 1246  0.3485190E+02  0.1395364E+02  0.1621556E+02  0.1465162E+03
Ar 1247  0.3493060E+02  0.1133362E+02  0.1880094E+02  0.8634486E+02
Ar 1248  0.3227846E+02  0.1389285E+02  0.1903259E+02  0.1800672E+02
Ar 1249  0.3235999E+02  0.1115452E+02  0.2142664E+02  0.1939172E+03
Ar 1250  0.3532574E+02  0.1327842E+02  0.2152525E+02  0.7489755E+02
Ar 1251  0.3520619E+02  0.1091795E+02  0.2432498E+02  0.2671355E+03
Ar 1252  0.3264745E+02  0.1383773E+02  0.2425840E+02  0.1091952E+03
Ar 1253  0.3229500E+02  0.1057864E+02  0.2715205E+02  0.9590452E+02
Ar 1254  0.3520518E+02  0.1382505E+02  0.2693473E+02  0.8587768E+02
Ar 1255  0.3536509E+02  0.1124407E+02  0.2956102E+02  0.2438871E+03
Ar 1256  0.3289241E+02  0.1337725E+02  0.3010420E+02  0.2581742E+02
Ar 1257  0.3221169E+02  0.1055625E+02  0.3221169E+02  0.2323609E+03
Ar 1258  0.3525922E+02  0.1387017E+02  0.3264766E+02  0.1338863E+03
Ar 1259  0.3477305E+02  0.1070808E+02  0.3477305E+02  0.1858065E+03
Ar 1260  0.3264766E+02  0.1387017E+02  0.3525922E+02  0.1338863E+03
Ar 1261  0.3246686E+02  0.1650952E+02  0.2440834E+00  0.1841112E+03
Ar 1262  0.3463057E+02  0.1908627E+02  0.2076655E+00  0.5350111E+02
Ar 1263  0.3538819E+02  0.1609273E+02  0.2835683E+01  0.6018648E+02
Ar 1264  0.3185076E+02  0.1893724E+02  0.2805461E+01  0.2155509E+02
Ar 1265  0.3221007E+02  0.1642494E+02  0.5280714E+01  0.3152469E+02
Ar 1266  0.3487025E+02  0.1886504E+02  0.5101510E+01  0.3084212E+02
Ar 1267  0.3488592E+02  0.1642241E+02  0.7976353E+01  0.1197217E+03
Ar 1268  0.3198739E+02  0.1860846E+02  0.8259308E+01  0.2473539E+02
Ar 1269  0.3223577E+02  0.1653540E+02  0.1109845E+02  0.5470422E+02
Ar 1270  0.3493060E+02  0.1880094E+02  0.1133362E+02  0.8634486E+02
Ar 1271  0.3485190E+02  0.1621556E+02  0.1395364E+02  0.1465162E+03
Ar 1272  0.3227846E+02  0.1903259E+02  0.1389285E+02  0.1800673E+02
Ar 1273  0.3219354E+02  0.1624475E+02  0.1624475E+02  0.5476661E+03
Ar 1274  0.3513290E+02  0.1883365E+02  0.1633083E+02  0.1164405E+03
Ar 1275  0.3513290E+02  0.1633083E+02  0.1883365E+02  0.1164405E+03
Ar 1276  0.3245121E+02  0.1857596E+02  0.1857596E+02  0.3290159E+03
Ar 1277  0.3205046E+02  0.1633372E+02  0.2204979E+02  0.2945359E+02
Ar 1278  0.3458044E+02  0.1884969E+02  0.2163715E+02  0.5745071E+02
Ar 1279  0.3541697E+02  0.1633887E+02  0.2407166E+02  0.2984726E+03
Ar 1280  0.3229894E+02  0.1921029E+02  0.2418304E+02  0.3872274E+02
Ar 1281  0.3224629E+02  0.1595277E+02  0.2729710E+02  0.4029548E+02
Ar 1282  0.3499197E+02  0.1888974E+02  0.2668092E+02  0.6315173E+02
Ar 1283  0.3515573E+02  0.1646791E+02  0.2957256E+02  0.3923770E+03
Ar 1284  0.3244953E+02  0.1875333E+02  0.2986523E+02  0.9340542E+02
Ar 1285  0.3234189E+02  0.1629991E+02  0.3234189E+02  0.3070622E+02
Ar 1286  0.3511410E+02  0.1916355E+02  0.3191172E+02  0.5597202E+02
Ar 1287  0.3504110E+02  0.1706476E+02  0.3504110E+02  0.3582832E+02
Ar 1288  0.3191172E+02  0.1916355E+02  0.3511410E+02  0.5597202E+02
Ar 1289  0.3229995E+02  0.2179957E+02  0.7180073E+00  0.6472672E+02
Ar 1290  0.3470758E+02  0.2439931E+02  0.2712863E+00  0.2379115E+02
Ar 1291  0.3512837E+02  0.2194343E+02  0.2850736E+01  0.7088641E+02
Ar 1292  0.3228126E+02  0.2471781E+02  0.2895265E+01  0.7278759E+01
Ar 1293  0.3225983E+02  0.2159352E+02  0.5586868E+01  0.5619863E+02
Ar 1294  0.3514026E+02  0.2407185E+02  0.5672449E+01  0.3854880E+02
Ar 1295  0.3454371E+02  0.2127864E+02  0.8070863E+01  0.1282937E+03
Ar 1296  0.3221899E+02  0.2421067E+02  0.8187634E+01  0.1050216E+03
Ar 1297  0.3235999E+02  0.2142664E+02  0.1115452E+02  0.1939172E+03
Ar 1298  0.3520619E+02  0.2432498E+02  0.1091795E+02  0.2671355E+03
Ar 1299  0.3532574E+02  0.2152525E+02  0.1327842E+02  0.7489755E+02
Ar 1300  0.3264745E+02  0.2425840E+02  0.1383773E+02  0.1091952E+03
Ar 1301  0.3205046E+02  0.2204979E+02  0.1633372E+02  0.2945359E+02
Ar 1302  0.3541697E+02  0.2407166E+02  0.1633887E+02  0.2984726E+03
Ar 1303  0.3458044E+02  0.2163715E+02  0.1884969E+02  0.5745071E+02
Ar 1304  0.3229894E+02  0.2418304E+02  0.1921029E+02  0.3872274E+02
Ar 1305  0.3238910E+02  0.2151242E+02  0.2151242E+02  0.3795805E+02
Ar 1306  0.3504156E+02  0.2401310E+02  0.2159454E+02  0.1319682E+03
Ar 1307  0.3504156E+02  0.2159454E+02  0.2401310E+02  0.1319682E+03
Ar 1308  0.3278195E+02  0.2406677E+02  0.2406677E+02  0.1825534E+02
Ar 1309  0.3261935E+02  0.2149237E+02  0.2681692E+02  0.1042774E+03
Ar 1310  0.3546075E+02  0.2409410E+02  0.2650770E+02  0.3135822E+03
Ar 1311  0.3514162E+02  0.2158912E+02  0.2918747E+02  0.2958338E+02
Ar 1312  0.3261226E+02  0.2437388E+02  0.2953983E+02  0.4511856E+02
Ar 1313  0.3241390E+02  0.2203514E+02  0.3241390E+02  0.1331670E+01
Ar 1314  0.3551962E+02  0.2338757E+02  0.3210751E+02  0.8339791E+02
Ar 1315  0.3488158E+02  0.2129270E+02  0.3488158E+02  0.2940462E+03
Ar 1316  0.3210751E+02  0.2338757E+02  0.3551962E+02  0.8339792E+02
Ar 1317  0.3189728E+02  0.2660377E+02  0.3770028E+02  0.2810048E+02
Ar 1318  0.3481034E+02  0.2937856E+02  0.3750716E+02  0.8429500E+02
Ar 1319  0.3517569E+02  0.2703479E+02  0.3028799E+01  0.1646017E+03
Ar 1320  0.3229706E+02  0.2939298E+02  0.2578796E+01  0.1366278E+02
Ar 1321  0.3229096E+02  0.2700455E+02  0.5586483E+01  0.4238579E+02
Ar 1322  0.3519940E+02  0.2960139E+02  0.5389976E+01  0.1043638E+03
Ar 1323  0.3519950E+02  0.2708804E+02  0.8332704E+01  0.2332660E+02
Ar 1324  0.3259117E+02  0.2992207E+02  0.7646383E+01  0.8153308E+02
Ar 1325  0.3229500E+02  0.2715205E+02  0.1057864E+02  0.9590451E+02
Ar 1326  0.3536509E+02  0.2956102E+02  0.1124407E+02  0.2438870E+03
Ar 1327  0.3520518E+02  0.2693473E+02  0.1382505E+02  0.8587769E+02
Ar 1328  0.3289241E+02  0.3010420E+02  0.1337725E+02  0.2581743E+02
Ar 1329  0.3224629E+02  0.2729710E+02  0.1595277E+02  0.4029548E+02
Ar 1330  0.3515573E+02  0.2957256E+02  0.1646791E+02  0.3923770E+03
Ar 1331  0.3499197E+02  0.2668092E+02  0.1888974E+02  0.6315173E+02
Ar 1332  0.3244953E+02  0.2986523E+02  0.1875333E+02  0.9340542E+02
Ar 1333  0.3261935E+02  0.2681692E+02  0.2149237E+02  0.1042774E+03
Ar 1334  0.3514162E+02  0.2918747E+02  0.2158912E+02  0.2958338E+02
Ar 1335  0.3546075E+02  0.2650770E+02  0.2409410E+02  0.3135822E+03
Ar 1336  0.3261226E+02  0.2953983E+02  0.2437388E+02  0.4511855E+02
Ar 1337  0.3271303E+02  0.2670855E+02  0.2670855E+02  0.1044709E+03
Ar 1338  0.3520814E+02  0.2926076E+02  0.2666938E+02  0.2950230E+03
Ar 1339  0.3520814E+02  0.2666938E+02  0.2926076E+02  0.2950230E+03
Ar 1340  0.3252854E+02  0.2940063E+02  0.2940063E+02  0.1545781E+03
Ar 1341  0.3217957E+02  0.2687642E+02  0.3217957E+02  0.1937384E+03
Ar 1342  0.3503529E+02  0.2911561E+02  0.3188829E+02  0.1767514E+03
Ar 1343  0.3462256E+02  0.2620134E+02  0.3462256E+02  0.1159436E+03
Ar 1344  0.3188829E+02  0.2911561E+02  0.3503529E+02  0.1767514E+03
Ar 1345  0.3209643E+02  0.3209643E+02  0.3763792E+02  0.1898992E+03
Ar 1346  0.3463400E+02  0.3463400E+02  0.3709186E+02  0.1244612E+02
Ar 1347  0.3501433E+02  0.3185878E+02  0.2437566E+01  0.1075102E+03
Ar 1348  0.3185878E+02  0.3501433E+02  0.2437566E+01  0.1075102E+03
Ar 1349  0.3198856E+02  0.3198856E+02  0.4784918E+01  0.1494432E+03
Ar 1350  0.3460777E+02  0.3460777E+02  0.5659446E+01  0.6284344E+03
Ar 1351  0.3515453E+02  0.3226934E+02  0.8535583E+01  0.9402973E+02
Ar 1352  0.3226934E+02  0.3515453E+02  0.8535583E+01  0.9402973E+02
Ar 1353  0.3221169E+02  0.3221169E+02  0.1055625E+02  0.2323609E+03
Ar 1354  0.3477305E+02  0.3477305E+02  0.1070808E+02  0.1858066E+03
Ar 1355  0.3525922E+02  0.3264766E+02  0.1387017E+02  0.1338863E+03
Ar 1356  0.3264766E+02  0.3525922E+02  0.1387017E+02  0.1338863E+03
Ar 1357  0.3234189E+02  0.3234189E+02  0.1629991E+02  0.3070622E+02
Ar 1358  0.3504110E+02  0.3504110E+02  0.1706476E+02  0.3582832E+02
Ar 1359  0.3511410E+02  0.3191172E+02  0.1916355E+02  0.5597203E+02
Ar 1360  0.3191172E+02  0.3511410E+02  0.1916355E+02  0.5597202E+02
Ar 1361  0.3241390E+02  0.3241390E+02  0.2203514E+02  0.1331671E+01
Ar 1362  0.3488158E+02  0.3488158E+02  0.2129270E+02  0.2940463E+03
Ar 1363  0.3551962E+02  0.3210751E+02  0.2338757E+02  0.8339791E+02
Ar 1364  0.3210751E+02  0.3551962E+02  0.2338757E+02  0.8339792E+02
Ar 1365  0.3217957E+02  0.3217957E+02  0.2687642E+02  0.1937384E+03
Ar 1366  0.3462256E+02  0.3462256E+02  0.2620134E+02  0.1159436E+03
Ar 1367  0.3503529E+02  0.3188829E+02  0.2911561E+02  0.1767514E+03
Ar 1368  0.3188829E+02  0.3503529E+02  0.2911561E+02  0.1767514E+03
Ar 1369  0.3215020E+02  0.3215020E+02  0.3215020E+02  0.5592500E+03
Ar 1370  0.3496060E+02  0.3496060E+02  0.3177037E+02  0.2762411E+03
Ar 1371  0.3496060E+02  0.3177037E+02  0.3496060E+02  0.2762410E+03
Ar 1372  0.3177037E+02  0.3496060E+02  0.3496060E+02  0.2762410E+03
