        1372
Lattice="  0.3778015E+02  0.0000000E+00  0.0000000E+00  0.0000000E+00  0.3778015E+02  0.0000000E+00  0.0000000E+00  0.0000000E+00  0.3778015E+02" Properties=species:S:1:id:I:1:pos:R:3:tempK:R:1
Ar    1  0.2026941E+00  0.2026924E+00  0.2026940E+00  0.6149127E+03
Ar    2  0.2943255E+01  0.2943255E+01  0.4040840E+00  0.6545772E+03
Ar    3  0.2943256E+01  0.4040852E+00  0.2943255E+01  0.6545776E+03
Ar    4  0.4040851E+00  0.2943256E+01  0.2943256E+01  0.6545771E+03
Ar    5  0.2903123E+00  0.2903118E+00  0.5454764E+01  0.4794908E+02
Ar    6  0.2856529E+01  0.2856528E+01  0.6460837E+01  0.3410792E+03
Ar    7  0.3098731E+01  0.3753707E+02  0.8409133E+01  0.2910537E+03
Ar    8  0.3753707E+02  0.3098731E+01  0.8409133E+01  0.2910540E+03
Ar    9  0.3776358E+02  0.3776358E+02  0.1005953E+02  0.3259451E+03
Ar   10  0.2925009E+01  0.2925008E+01  0.1081128E+02  0.7806018E+02
Ar   11  0.2549309E+01  0.3764540E+02  0.1279900E+02  0.3241476E+02
Ar   12  0.3764540E+02  0.2549309E+01  0.1279900E+02  0.3241461E+02
Ar   13  0.3718093E+02  0.3718093E+02  0.1668026E+02  0.2441358E+03
Ar   14  0.2127732E+01  0.2127732E+01  0.1560105E+02  0.1367756E+02
Ar   15  0.3227289E+01  0.3774119E+02  0.1872572E+02  0.9873533E+01
Ar   16  0.3774119E+02  0.3227289E+01  0.1872572E+02  0.9873503E+01
Ar   17  0.8926435E-01  0.8926447E-01  0.2152790E+02  0.1007873E+03
Ar   18  0.2589696E+01  0.2589697E+01  0.2113440E+02  0.1060114E+03
Ar   19  0.2840775E+01  0.3166942E-01  0.2430177E+02  0.1147987E+03
Ar   20  0.3166893E-01  0.2840776E+01  0.2430177E+02  0.1147986E+03
Ar   21  0.7766767E-01  0.7766753E-01  0.2709897E+02  0.6947432E+03
Ar   22  0.3046487E+01  0.3046487E+01  0.2690970E+02  0.1149672E+03
Ar   23  0.2928181E+01  0.1494254E+00  0.2939879E+02  0.3750551E+03
Ar   24  0.1494258E+00  0.2928182E+01  0.2939879E+02  0.3750558E+03
Ar   25  0.1594497E-03  0.1603217E-03  0.3237133E+02  0.3269523E+03
Ar   26  0.2999014E+01  0.2999014E+01  0.3191999E+02  0.1680528E+02
Ar   27  0.3208861E+01  0.4971092E-01  0.3502066E+02  0.1328539E+03
Ar   28  0.4971056E-01  0.3208861E+01  0.3502066E+02  0.1328541E+03
Ar   29  0.2903119E+00  0.5454763E+01  0.2903122E+00  0.4794890E+02
Ar   30  0.3098731E+01  0.8409133E+01  0.3753707E+02  0.2910540E+03
Ar   31  0.2856528E+01  0.6460837E+01  0.2856528E+01  0.3410787E+03
Ar   32  0.3753707E+02  0.8409133E+01  0.3098730E+01  0.2910540E+03
Ar   33  0.8693691E-01  0.5691443E+01  0.5691444E+01  0.1373325E+03
Ar   34  0.2971992E+01  0.8664395E+01  0.5717298E+01  0.6548960E+02
Ar   35  0.2971991E+01  0.5717297E+01  0.8664396E+01  0.6549001E+02
Ar   36  0.6613520E+00  0.8163249E+01  0.8163249E+01  0.1156801E+03
Ar   37  0.8563292E-01  0.5595537E+01  0.1081639E+02  0.1148016E+03
Ar   38  0.3195915E+01  0.8082634E+01  0.1121661E+02  0.1617698E+03
Ar   39  0.2359290E+01  0.5102271E+01  0.1376211E+02  0.5109888E+02
Ar   40  0.2933630E+00  0.8366940E+01  0.1345217E+02  0.4987033E+02
Ar   41  0.3770264E+02  0.5632108E+01  0.1604353E+02  0.5475607E+02
Ar   42  0.2716351E+01  0.7967639E+01  0.1604621E+02  0.7047383E+02
Ar   43  0.2558525E+01  0.5836626E+01  0.1883874E+02  0.3147719E+03
Ar   44  0.3738592E+02  0.8147546E+01  0.1904791E+02  0.3108744E+03
Ar   45  0.3772722E+02  0.5873374E+01  0.2174959E+02  0.1732452E+03
Ar   46  0.2839169E+01  0.8511660E+01  0.2161790E+02  0.3235415E+03
Ar   47  0.2512130E+01  0.5291231E+01  0.2371424E+02  0.7658634E+02
Ar   48  0.1941824E+00  0.8392221E+01  0.2424804E+02  0.7389813E+02
Ar   49  0.3895478E+00  0.5766363E+01  0.2665236E+02  0.2169317E+03
Ar   50  0.3116015E+01  0.7885396E+01  0.2660452E+02  0.3130859E+03
Ar   51  0.2862857E+01  0.5469223E+01  0.2927820E+02  0.9280639E+02
Ar   52  0.8652970E-01  0.7788800E+01  0.2938646E+02  0.4792023E+03
Ar   53  0.1712594E+00  0.5318522E+01  0.3209951E+02  0.1137067E+03
Ar   54  0.2630070E+01  0.8036488E+01  0.3210959E+02  0.9075729E+02
Ar   55  0.3148591E+01  0.5726583E+01  0.3503661E+02  0.3260656E+03
Ar   56  0.3919544E-01  0.7943073E+01  0.3485424E+02  0.9143383E+02
Ar   57  0.3776358E+02  0.1005953E+02  0.3776358E+02  0.3259449E+03
Ar   58  0.2549309E+01  0.1279900E+02  0.3764540E+02  0.3241466E+02
Ar   59  0.2925008E+01  0.1081128E+02  0.2925009E+01  0.7806074E+02
Ar   60  0.3764540E+02  0.1279900E+02  0.2549309E+01  0.3241456E+02
Ar   61  0.8563315E-01  0.1081639E+02  0.5595537E+01  0.1148017E+03
Ar   62  0.2359291E+01  0.1376211E+02  0.5102271E+01  0.5109929E+02
Ar   63  0.3195915E+01  0.1121661E+02  0.8082634E+01  0.1617695E+03
Ar   64  0.2933628E+00  0.1345217E+02  0.8366941E+01  0.4987029E+02
Ar   65  0.5651860E+00  0.1105529E+02  0.1105529E+02  0.2313920E+03
Ar   66  0.3018269E+01  0.1372981E+02  0.1088585E+02  0.4212725E+02
Ar   67  0.3018269E+01  0.1088585E+02  0.1372981E+02  0.4212724E+02
Ar   68  0.3764693E+02  0.1349416E+02  0.1349416E+02  0.2082308E+03
Ar   69  0.3216516E-01  0.1061797E+02  0.1667326E+02  0.1497513E+03
Ar   70  0.2855951E+01  0.1351949E+02  0.1605892E+02  0.1996236E+03
Ar   71  0.2978479E+01  0.1127890E+02  0.1840071E+02  0.1443799E+03
Ar   72  0.3773722E+02  0.1322886E+02  0.1880823E+02  0.3145089E+03
Ar   73  0.3939642E+00  0.1076251E+02  0.2144489E+02  0.4587756E+02
Ar   74  0.2593629E+01  0.1340449E+02  0.2121975E+02  0.2122922E+03
Ar   75  0.2763348E+01  0.1098957E+02  0.2427248E+02  0.3425093E+03
Ar   76  0.1914934E+00  0.1390708E+02  0.2435579E+02  0.2752087E+03
Ar   77  0.1376867E+00  0.1094846E+02  0.2690248E+02  0.1221154E+03
Ar   78  0.2538403E+01  0.1344402E+02  0.2680194E+02  0.2483321E+03
Ar   79  0.2607673E+01  0.1034101E+02  0.2918788E+02  0.1001134E+03
Ar   80  0.1186551E+00  0.1381492E+02  0.2949531E+02  0.1766038E+02
Ar   81  0.6658633E-01  0.1081713E+02  0.3191353E+02  0.1421240E+03
Ar   82  0.3032737E+01  0.1394743E+02  0.3183758E+02  0.1588629E+03
Ar   83  0.3328829E+01  0.1092763E+02  0.3476372E+02  0.1303443E+03
Ar   84  0.3771151E+02  0.1217222E+02  0.3497604E+02  0.8707869E+02
Ar   85  0.3718093E+02  0.1668026E+02  0.3718093E+02  0.2441365E+03
Ar   86  0.3227289E+01  0.1872572E+02  0.3774119E+02  0.9873673E+01
Ar   87  0.2127733E+01  0.1560105E+02  0.2127733E+01  0.1367798E+02
Ar   88  0.3774119E+02  0.1872572E+02  0.3227289E+01  0.9873555E+01
Ar   89  0.3770264E+02  0.1604353E+02  0.5632108E+01  0.5475682E+02
Ar   90  0.2558525E+01  0.1883874E+02  0.5836626E+01  0.3147709E+03
Ar   91  0.2716351E+01  0.1604621E+02  0.7967639E+01  0.7047340E+02
Ar   92  0.3738592E+02  0.1904791E+02  0.8147546E+01  0.3108740E+03
Ar   93  0.3216600E-01  0.1667326E+02  0.1061797E+02  0.1497505E+03
Ar   94  0.2978480E+01  0.1840071E+02  0.1127890E+02  0.1443805E+03
Ar   95  0.2855951E+01  0.1605892E+02  0.1351949E+02  0.1996236E+03
Ar   96  0.3773722E+02  0.1880823E+02  0.1322886E+02  0.3145088E+03
Ar   97  0.3679433E+02  0.1591595E+02  0.1591595E+02  0.5224764E+03
Ar   98  0.3032194E+01  0.1868871E+02  0.1615485E+02  0.2716506E+03
Ar   99  0.3032195E+01  0.1615485E+02  0.1868871E+02  0.2716508E+03
Ar  100  0.5708726E+00  0.1891377E+02  0.1891377E+02  0.1449509E+03
Ar  101  0.3770630E+02  0.1627521E+02  0.2120595E+02  0.4328647E+02
Ar  102  0.2585457E+01  0.1873513E+02  0.2185879E+02  0.6191652E+02
Ar  103  0.3308727E+01  0.1582449E+02  0.2396093E+02  0.2560543E+03
Ar  104  0.3754184E-01  0.1855828E+02  0.2416938E+02  0.1896004E+02
Ar  105  0.9091868E-01  0.1646786E+02  0.2676907E+02  0.8749141E+02
Ar  106  0.2438977E+01  0.1901702E+02  0.2682960E+02  0.7771531E+02
Ar  107  0.2737628E+01  0.1626130E+02  0.2930026E+02  0.2915315E+03
Ar  108  0.3735484E+02  0.1853461E+02  0.2986630E+02  0.7990683E+02
Ar  109  0.5780502E-01  0.1602746E+02  0.3283205E+02  0.3651012E+02
Ar  110  0.2637768E+01  0.1887266E+02  0.3240142E+02  0.4586182E+03
Ar  111  0.2977183E+01  0.1613516E+02  0.3480582E+02  0.6449549E+02
Ar  112  0.3774711E+02  0.1926466E+02  0.3513870E+02  0.4596401E+02
Ar  113  0.8926481E-01  0.2152790E+02  0.8926445E-01  0.1007878E+03
Ar  114  0.2840775E+01  0.2430177E+02  0.3166898E-01  0.1147988E+03
Ar  115  0.2589696E+01  0.2113440E+02  0.2589696E+01  0.1060115E+03
Ar  116  0.3166906E-01  0.2430177E+02  0.2840775E+01  0.1147984E+03
Ar  117  0.3772722E+02  0.2174959E+02  0.5873374E+01  0.1732453E+03
Ar  118  0.2512130E+01  0.2371424E+02  0.5291231E+01  0.7658647E+02
Ar  119  0.2839169E+01  0.2161790E+02  0.8511660E+01  0.3235421E+03
Ar  120  0.1941825E+00  0.2424804E+02  0.8392222E+01  0.7389824E+02
Ar  121  0.3939643E+00  0.2144489E+02  0.1076252E+02  0.4587754E+02
Ar  122  0.2763347E+01  0.2427248E+02  0.1098957E+02  0.3425098E+03
Ar  123  0.2593629E+01  0.2121975E+02  0.1340449E+02  0.2122921E+03
Ar  124  0.1914931E+00  0.2435579E+02  0.1390708E+02  0.2752091E+03
Ar  125  0.3770630E+02  0.2120595E+02  0.1627521E+02  0.4328646E+02
Ar  126  0.3308727E+01  0.2396093E+02  0.1582449E+02  0.2560536E+03
Ar  127  0.2585456E+01  0.2185879E+02  0.1873512E+02  0.6191669E+02
Ar  128  0.3754162E-01  0.2416938E+02  0.1855828E+02  0.1896017E+02
Ar  129  0.3727045E+02  0.2139493E+02  0.2139493E+02  0.6639110E+02
Ar  130  0.2388247E+01  0.2381342E+02  0.2129265E+02  0.1412297E+03
Ar  131  0.2388247E+01  0.2129265E+02  0.2381342E+02  0.1412294E+03
Ar  132  0.3755903E+02  0.2404546E+02  0.2404546E+02  0.1374466E+03
Ar  133  0.3768498E+02  0.2162153E+02  0.2660972E+02  0.5318320E+02
Ar  134  0.2278885E+01  0.2440212E+02  0.2696830E+02  0.1343646E+02
Ar  135  0.2338974E+01  0.2173705E+02  0.2966731E+02  0.7699681E+02
Ar  136  0.3777863E+02  0.2454040E+02  0.2998339E+02  0.7111374E+02
Ar  137  0.1580552E+00  0.2205798E+02  0.3260885E+02  0.9584874E+02
Ar  138  0.2549452E+01  0.2468414E+02  0.3260406E+02  0.4619105E+03
Ar  139  0.2686795E+01  0.2152076E+02  0.3523440E+02  0.1240330E+03
Ar  140  0.1033995E+00  0.2445538E+02  0.3543089E+02  0.3435888E+03
Ar  141  0.7766759E-01  0.2709897E+02  0.7766755E-01  0.6947416E+03
Ar  142  0.2928181E+01  0.2939879E+02  0.1494250E+00  0.3750543E+03
Ar  143  0.3046487E+01  0.2690970E+02  0.3046487E+01  0.1149674E+03
Ar  144  0.1494254E+00  0.2939879E+02  0.2928182E+01  0.3750548E+03
Ar  145  0.3895477E+00  0.2665236E+02  0.5766363E+01  0.2169316E+03
Ar  146  0.2862856E+01  0.2927820E+02  0.5469223E+01  0.9280670E+02
Ar  147  0.3116015E+01  0.2660452E+02  0.7885396E+01  0.3130857E+03
Ar  148  0.8652886E-01  0.2938646E+02  0.7788800E+01  0.4792011E+03
Ar  149  0.1376862E+00  0.2690248E+02  0.1094846E+02  0.1221153E+03
Ar  150  0.2607673E+01  0.2918788E+02  0.1034101E+02  0.1001135E+03
Ar  151  0.2538402E+01  0.2680194E+02  0.1344402E+02  0.2483338E+03
Ar  152  0.1186553E+00  0.2949531E+02  0.1381491E+02  0.1766057E+02
Ar  153  0.9091900E-01  0.2676907E+02  0.1646786E+02  0.8749169E+02
Ar  154  0.2737628E+01  0.2930026E+02  0.1626130E+02  0.2915316E+03
Ar  155  0.2438977E+01  0.2682960E+02  0.1901702E+02  0.7771531E+02
Ar  156  0.3735484E+02  0.2986630E+02  0.1853461E+02  0.7990686E+02
Ar  157  0.3768498E+02  0.2660972E+02  0.2162153E+02  0.5318332E+02
Ar  158  0.2338974E+01  0.2966731E+02  0.2173705E+02  0.7699676E+02
Ar  159  0.2278885E+01  0.2696830E+02  0.2440212E+02  0.1343652E+02
Ar  160  0.3777863E+02  0.2998339E+02  0.2454040E+02  0.7111350E+02
Ar  161  0.3757183E+02  0.2709726E+02  0.2709726E+02  0.1067264E+03
Ar  162  0.2609425E+01  0.2960194E+02  0.2698341E+02  0.4270091E+02
Ar  163  0.2609426E+01  0.2698341E+02  0.2960194E+02  0.4270102E+02
Ar  164  0.3745384E+02  0.2972599E+02  0.2972599E+02  0.4536596E+03
Ar  165  0.3768665E+02  0.2678799E+02  0.3280475E+02  0.1991469E+03
Ar  166  0.2400157E+01  0.2943543E+02  0.3210007E+02  0.2751302E+03
Ar  167  0.2731787E+01  0.2705677E+02  0.3539589E+02  0.7962363E+02
Ar  168  0.3395842E+00  0.2954993E+02  0.3521059E+02  0.4487611E+02
Ar  169  0.1596826E-03  0.3237133E+02  0.1590385E-03  0.3269540E+03
Ar  170  0.3208861E+01  0.3502066E+02  0.4971061E-01  0.1328539E+03
Ar  171  0.2999013E+01  0.3192000E+02  0.2999013E+01  0.1680580E+02
Ar  172  0.4971045E-01  0.3502066E+02  0.3208860E+01  0.1328538E+03
Ar  173  0.1712596E+00  0.3209951E+02  0.5318522E+01  0.1137066E+03
Ar  174  0.3148591E+01  0.3503660E+02  0.5726583E+01  0.3260653E+03
Ar  175  0.2630071E+01  0.3210959E+02  0.8036487E+01  0.9075718E+02
Ar  176  0.3919549E-01  0.3485424E+02  0.7943073E+01  0.9143353E+02
Ar  177  0.6658692E-01  0.3191353E+02  0.1081713E+02  0.1421240E+03
Ar  178  0.3328830E+01  0.3476372E+02  0.1092764E+02  0.1303447E+03
Ar  179  0.3032736E+01  0.3183758E+02  0.1394743E+02  0.1588637E+03
Ar  180  0.3771151E+02  0.3497604E+02  0.1217222E+02  0.8707930E+02
Ar  181  0.5780526E-01  0.3283205E+02  0.1602746E+02  0.3650992E+02
Ar  182  0.2977183E+01  0.3480582E+02  0.1613516E+02  0.6449576E+02
Ar  183  0.2637768E+01  0.3240142E+02  0.1887266E+02  0.4586183E+03
Ar  184  0.3774711E+02  0.3513870E+02  0.1926466E+02  0.4596414E+02
Ar  185  0.1580548E+00  0.3260885E+02  0.2205798E+02  0.9584878E+02
Ar  186  0.2686795E+01  0.3523440E+02  0.2152076E+02  0.1240332E+03
Ar  187  0.2549452E+01  0.3260406E+02  0.2468414E+02  0.4619104E+03
Ar  188  0.1033999E+00  0.3543089E+02  0.2445538E+02  0.3435892E+03
Ar  189  0.3768665E+02  0.3280475E+02  0.2678799E+02  0.1991468E+03
Ar  190  0.2731788E+01  0.3539589E+02  0.2705676E+02  0.7962449E+02
Ar  191  0.2400156E+01  0.3210007E+02  0.2943544E+02  0.2751297E+03
Ar  192  0.3395841E+00  0.3521059E+02  0.2954993E+02  0.4487622E+02
Ar  193  0.1680124E+00  0.3291695E+02  0.3291695E+02  0.1695617E+03
Ar  194  0.3057923E+01  0.3486996E+02  0.3210785E+02  0.1356912E+03
Ar  195  0.3057924E+01  0.3210785E+02  0.3486996E+02  0.1356912E+03
Ar  196  0.7708520E+00  0.3517691E+02  0.3517691E+02  0.4442362E+03
Ar  197  0.5454764E+01  0.2903117E+00  0.2903132E+00  0.4794922E+02
Ar  198  0.8409133E+01  0.3098731E+01  0.3753707E+02  0.2910537E+03
Ar  199  0.8409133E+01  0.3753707E+02  0.3098731E+01  0.2910540E+03
Ar  200  0.6460837E+01  0.2856528E+01  0.2856529E+01  0.3410781E+03
Ar  201  0.5691444E+01  0.8693609E-01  0.5691445E+01  0.1373325E+03
Ar  202  0.8664395E+01  0.2971992E+01  0.5717298E+01  0.6548963E+02
Ar  203  0.8163249E+01  0.6613520E+00  0.8163249E+01  0.1156799E+03
Ar  204  0.5717298E+01  0.2971992E+01  0.8664395E+01  0.6548984E+02
Ar  205  0.5595538E+01  0.8563272E-01  0.1081639E+02  0.1148017E+03
Ar  206  0.8082635E+01  0.3195915E+01  0.1121661E+02  0.1617694E+03
Ar  207  0.8366940E+01  0.2933638E+00  0.1345217E+02  0.4987029E+02
Ar  208  0.5102271E+01  0.2359290E+01  0.1376211E+02  0.5109899E+02
Ar  209  0.5632108E+01  0.3770264E+02  0.1604353E+02  0.5475613E+02
Ar  210  0.7967639E+01  0.2716351E+01  0.1604621E+02  0.7047351E+02
Ar  211  0.8147546E+01  0.3738592E+02  0.1904791E+02  0.3108745E+03
Ar  212  0.5836626E+01  0.2558525E+01  0.1883874E+02  0.3147714E+03
Ar  213  0.5873374E+01  0.3772722E+02  0.2174959E+02  0.1732456E+03
Ar  214  0.8511660E+01  0.2839169E+01  0.2161790E+02  0.3235418E+03
Ar  215  0.8392222E+01  0.1941824E+00  0.2424804E+02  0.7389830E+02
Ar  216  0.5291231E+01  0.2512130E+01  0.2371424E+02  0.7658636E+02
Ar  217  0.5766363E+01  0.3895473E+00  0.2665236E+02  0.2169315E+03
Ar  218  0.7885397E+01  0.3116015E+01  0.2660452E+02  0.3130865E+03
Ar  219  0.7788800E+01  0.8652843E-01  0.2938646E+02  0.4792012E+03
Ar  220  0.5469223E+01  0.2862856E+01  0.2927820E+02  0.9280655E+02
Ar  221  0.5318522E+01  0.1712592E+00  0.3209951E+02  0.1137064E+03
Ar  222  0.8036487E+01  0.2630070E+01  0.3210959E+02  0.9075730E+02
Ar  223  0.7943073E+01  0.3919557E-01  0.3485424E+02  0.9143359E+02
Ar  224  0.5726583E+01  0.3148592E+01  0.3503660E+02  0.3260653E+03
Ar  225  0.5691444E+01  0.5691443E+01  0.8693701E-01  0.1373324E+03
Ar  226  0.8163249E+01  0.8163249E+01  0.6613507E+00  0.1156801E+03
Ar  227  0.8664396E+01  0.5717297E+01  0.2971990E+01  0.6549044E+02
Ar  228  0.5717297E+01  0.8664395E+01  0.2971991E+01  0.6548998E+02
Ar  229  0.5601493E+01  0.5601492E+01  0.5601493E+01  0.1736195E+00
Ar  230  0.8594387E+01  0.8594386E+01  0.5774754E+01  0.6648665E+03
Ar  231  0.8594387E+01  0.5774754E+01  0.8594387E+01  0.6648665E+03
Ar  232  0.5774754E+01  0.8594386E+01  0.8594386E+01  0.6648678E+03
Ar  233  0.5562545E+01  0.5562545E+01  0.1182044E+02  0.6175288E+02
Ar  234  0.7960257E+01  0.7960257E+01  0.1143591E+02  0.1320672E+03
Ar  235  0.8147365E+01  0.5522887E+01  0.1394822E+02  0.1023463E+03
Ar  236  0.5522888E+01  0.8147365E+01  0.1394822E+02  0.1023463E+03
Ar  237  0.5183068E+01  0.5183067E+01  0.1636197E+02  0.2309293E+03
Ar  238  0.8601479E+01  0.8601479E+01  0.1637071E+02  0.6550125E+02
Ar  239  0.8163660E+01  0.5272553E+01  0.1858936E+02  0.4886758E+02
Ar  240  0.5272553E+01  0.8163660E+01  0.1858936E+02  0.4886771E+02
Ar  241  0.5406939E+01  0.5406938E+01  0.2105242E+02  0.1243658E+03
Ar  242  0.8236031E+01  0.8236030E+01  0.2113423E+02  0.2912825E+03
Ar  243  0.8154131E+01  0.5375952E+01  0.2389956E+02  0.1250637E+03
Ar  244  0.5375952E+01  0.8154131E+01  0.2389956E+02  0.1250635E+03
Ar  245  0.5411874E+01  0.5411873E+01  0.2604605E+02  0.2845787E+03
Ar  246  0.7889230E+01  0.7889230E+01  0.2693017E+02  0.1129373E+03
Ar  247  0.7918485E+01  0.5500509E+01  0.2935238E+02  0.4607282E+02
Ar  248  0.5500509E+01  0.7918485E+01  0.2935238E+02  0.4607290E+02
Ar  249  0.5438771E+01  0.5438771E+01  0.3185055E+02  0.7429339E+02
Ar  250  0.7937505E+01  0.7937506E+01  0.3183937E+02  0.7360667E+02
Ar  251  0.8288382E+01  0.5486327E+01  0.3482408E+02  0.1988086E+03
Ar  252  0.5486327E+01  0.8288381E+01  0.3482408E+02  0.1988081E+03
Ar  253  0.5595537E+01  0.1081639E+02  0.8563345E-01  0.1148015E+03
Ar  254  0.8366941E+01  0.1345217E+02  0.2933637E+00  0.4987010E+02
Ar  255  0.8082634E+01  0.1121661E+02  0.3195915E+01  0.1617694E+03
Ar  256  0.5102271E+01  0.1376211E+02  0.2359291E+01  0.5109910E+02
Ar  257  0.5562545E+01  0.1182044E+02  0.5562545E+01  0.6175209E+02
Ar  258  0.8147366E+01  0.1394822E+02  0.5522888E+01  0.1023468E+03
Ar  259  0.7960256E+01  0.1143591E+02  0.7960256E+01  0.1320660E+03
Ar  260  0.5522888E+01  0.1394822E+02  0.8147366E+01  0.1023461E+03
Ar  261  0.5551104E+01  0.1094864E+02  0.1094864E+02  0.3594479E+03
Ar  262  0.7926442E+01  0.1348724E+02  0.1083476E+02  0.5539023E+03
Ar  263  0.7926441E+01  0.1083476E+02  0.1348724E+02  0.5539025E+03
Ar  264  0.5650226E+01  0.1370512E+02  0.1370512E+02  0.4378705E+01
Ar  265  0.5832757E+01  0.1119372E+02  0.1643016E+02  0.1029761E+03
Ar  266  0.8443846E+01  0.1379830E+02  0.1637272E+02  0.1830753E+03
Ar  267  0.8219346E+01  0.1099176E+02  0.1896618E+02  0.3051490E+02
Ar  268  0.5692095E+01  0.1362115E+02  0.1877703E+02  0.1129156E+02
Ar  269  0.5581636E+01  0.1080325E+02  0.2147742E+02  0.5983944E+02
Ar  270  0.8167209E+01  0.1314873E+02  0.2179716E+02  0.9875963E+02
Ar  271  0.7783344E+01  0.1075025E+02  0.2440261E+02  0.4914927E+02
Ar  272  0.5142668E+01  0.1326797E+02  0.2422640E+02  0.2422109E+02
Ar  273  0.5137248E+01  0.1076291E+02  0.2679262E+02  0.4330654E+03
Ar  274  0.7802524E+01  0.1348968E+02  0.2705700E+02  0.2487988E+02
Ar  275  0.8228555E+01  0.1081548E+02  0.2925690E+02  0.4010849E+02
Ar  276  0.4918340E+01  0.1350111E+02  0.2906690E+02  0.2542152E+03
Ar  277  0.5216580E+01  0.1084451E+02  0.3168034E+02  0.1895240E+03
Ar  278  0.7766417E+01  0.1366684E+02  0.3177255E+02  0.1600538E+02
Ar  279  0.7541845E+01  0.1156048E+02  0.3470354E+02  0.7507849E+02
Ar  280  0.5132822E+01  0.1346214E+02  0.3560754E+02  0.6554779E+02
Ar  281  0.5632108E+01  0.1604353E+02  0.3770264E+02  0.5475679E+02
Ar  282  0.8147546E+01  0.1904791E+02  0.3738592E+02  0.3108743E+03
Ar  283  0.7967638E+01  0.1604621E+02  0.2716352E+01  0.7047336E+02
Ar  284  0.5836627E+01  0.1883874E+02  0.2558525E+01  0.3147713E+03
Ar  285  0.5183068E+01  0.1636197E+02  0.5183068E+01  0.2309290E+03
Ar  286  0.8163661E+01  0.1858936E+02  0.5272553E+01  0.4886779E+02
Ar  287  0.8601479E+01  0.1637071E+02  0.8601479E+01  0.6550206E+02
Ar  288  0.5272553E+01  0.1858936E+02  0.8163661E+01  0.4886779E+02
Ar  289  0.5832757E+01  0.1643016E+02  0.1119372E+02  0.1029761E+03
Ar  290  0.8219346E+01  0.1896618E+02  0.1099176E+02  0.3051458E+02
Ar  291  0.8443846E+01  0.1637272E+02  0.1379830E+02  0.1830753E+03
Ar  292  0.5692096E+01  0.1877703E+02  0.1362115E+02  0.1129158E+02
Ar  293  0.5839288E+01  0.1607350E+02  0.1607350E+02  0.1969187E+03
Ar  294  0.8245076E+01  0.1894664E+02  0.1631336E+02  0.1147683E+03
Ar  295  0.8245076E+01  0.1631336E+02  0.1894664E+02  0.1147682E+03
Ar  296  0.6085947E+01  0.1903811E+02  0.1903811E+02  0.7157071E+02
Ar  297  0.5561315E+01  0.1642351E+02  0.2113094E+02  0.4451298E+02
Ar  298  0.8254767E+01  0.1920967E+02  0.2192815E+02  0.2088152E+03
Ar  299  0.7655624E+01  0.1623971E+02  0.2417046E+02  0.2989408E+02
Ar  300  0.5250656E+01  0.1937033E+02  0.2463409E+02  0.2838145E+03
Ar  301  0.5273223E+01  0.1648051E+02  0.2680126E+02  0.2251180E+03
Ar  302  0.8279805E+01  0.1876318E+02  0.2663934E+02  0.1037637E+03
Ar  303  0.8165668E+01  0.1615927E+02  0.2949205E+02  0.2268329E+03
Ar  304  0.4833537E+01  0.1949486E+02  0.2979950E+02  0.6014471E+02
Ar  305  0.5464064E+01  0.1656098E+02  0.3212488E+02  0.1309389E+03
Ar  306  0.7573566E+01  0.1951087E+02  0.3237013E+02  0.8384273E+02
Ar  307  0.8126775E+01  0.1552002E+02  0.3531517E+02  0.1111058E+03
Ar  308  0.5630805E+01  0.1867083E+02  0.3505709E+02  0.3697876E+02
Ar  309  0.5873374E+01  0.2174959E+02  0.3772722E+02  0.1732453E+03
Ar  310  0.8392221E+01  0.2424804E+02  0.1941825E+00  0.7389832E+02
Ar  311  0.8511660E+01  0.2161790E+02  0.2839169E+01  0.3235421E+03
Ar  312  0.5291231E+01  0.2371424E+02  0.2512130E+01  0.7658618E+02
Ar  313  0.5406939E+01  0.2105242E+02  0.5406939E+01  0.1243657E+03
Ar  314  0.8154131E+01  0.2389956E+02  0.5375952E+01  0.1250635E+03
Ar  315  0.8236031E+01  0.2113423E+02  0.8236031E+01  0.2912811E+03
Ar  316  0.5375952E+01  0.2389956E+02  0.8154131E+01  0.1250634E+03
Ar  317  0.5581636E+01  0.2147742E+02  0.1080325E+02  0.5983961E+02
Ar  318  0.7783344E+01  0.2440261E+02  0.1075025E+02  0.4914929E+02
Ar  319  0.8167209E+01  0.2179716E+02  0.1314873E+02  0.9875965E+02
Ar  320  0.5142668E+01  0.2422641E+02  0.1326797E+02  0.2422117E+02
Ar  321  0.5561314E+01  0.2113094E+02  0.1642351E+02  0.4451299E+02
Ar  322  0.7655623E+01  0.2417046E+02  0.1623971E+02  0.2989415E+02
Ar  323  0.8254767E+01  0.2192815E+02  0.1920967E+02  0.2088159E+03
Ar  324  0.5250656E+01  0.2463409E+02  0.1937033E+02  0.2838143E+03
Ar  325  0.5745688E+01  0.2153640E+02  0.2153640E+02  0.5833231E+03
Ar  326  0.7598328E+01  0.2460590E+02  0.2202627E+02  0.2835569E+03
Ar  327  0.7598328E+01  0.2202627E+02  0.2460589E+02  0.2835562E+03
Ar  328  0.4615975E+01  0.2415371E+02  0.2415371E+02  0.1710790E+03
Ar  329  0.4989450E+01  0.2213466E+02  0.2694240E+02  0.5234837E+03
Ar  330  0.7894629E+01  0.2461011E+02  0.2745542E+02  0.1131689E+03
Ar  331  0.7520864E+01  0.2163619E+02  0.2946720E+02  0.3844621E+02
Ar  332  0.5111441E+01  0.2445211E+02  0.3006546E+02  0.2609083E+02
Ar  333  0.4533955E+01  0.2166470E+02  0.3245444E+02  0.6165842E+02
Ar  334  0.8071234E+01  0.2407436E+02  0.3259986E+02  0.1108401E+03
Ar  335  0.8614682E+01  0.2195924E+02  0.3519114E+02  0.9050363E+02
Ar  336  0.5387104E+01  0.2409068E+02  0.3510152E+02  0.1227471E+03
Ar  337  0.5766363E+01  0.2665236E+02  0.3895478E+00  0.2169314E+03
Ar  338  0.7788800E+01  0.2938646E+02  0.8652929E-01  0.4792009E+03
Ar  339  0.7885396E+01  0.2660452E+02  0.3116015E+01  0.3130857E+03
Ar  340  0.5469222E+01  0.2927820E+02  0.2862856E+01  0.9280673E+02
Ar  341  0.5411873E+01  0.2604605E+02  0.5411873E+01  0.2845778E+03
Ar  342  0.7918485E+01  0.2935238E+02  0.5500509E+01  0.4607265E+02
Ar  343  0.7889230E+01  0.2693017E+02  0.7889230E+01  0.1129377E+03
Ar  344  0.5500509E+01  0.2935238E+02  0.7918485E+01  0.4607291E+02
Ar  345  0.5137248E+01  0.2679262E+02  0.1076291E+02  0.4330662E+03
Ar  346  0.8228555E+01  0.2925690E+02  0.1081548E+02  0.4010887E+02
Ar  347  0.7802524E+01  0.2705700E+02  0.1348968E+02  0.2487986E+02
Ar  348  0.4918339E+01  0.2906690E+02  0.1350111E+02  0.2542142E+03
Ar  349  0.5273223E+01  0.2680126E+02  0.1648051E+02  0.2251184E+03
Ar  350  0.8165668E+01  0.2949205E+02  0.1615927E+02  0.2268329E+03
Ar  351  0.8279805E+01  0.2663934E+02  0.1876318E+02  0.1037639E+03
Ar  352  0.4833536E+01  0.2979950E+02  0.1949486E+02  0.6014448E+02
Ar  353  0.4989450E+01  0.2694240E+02  0.2213466E+02  0.5234838E+03
Ar  354  0.7520864E+01  0.2946720E+02  0.2163619E+02  0.3844626E+02
Ar  355  0.7894629E+01  0.2745541E+02  0.2461011E+02  0.1131692E+03
Ar  356  0.5111441E+01  0.3006546E+02  0.2445211E+02  0.2609089E+02
Ar  357  0.4880772E+01  0.2692904E+02  0.2692904E+02  0.2276358E+03
Ar  358  0.7913264E+01  0.2999651E+02  0.2696813E+02  0.1404197E+02
Ar  359  0.7913265E+01  0.2696813E+02  0.2999651E+02  0.1404181E+02
Ar  360  0.5767226E+01  0.2936896E+02  0.2936896E+02  0.1183164E+03
Ar  361  0.5151284E+01  0.2696117E+02  0.3248479E+02  0.1407491E+03
Ar  362  0.7648806E+01  0.2960891E+02  0.3242092E+02  0.4105315E+03
Ar  363  0.8010194E+01  0.2689162E+02  0.3523550E+02  0.9084890E+02
Ar  364  0.5539655E+01  0.2938359E+02  0.3539876E+02  0.8635408E+02
Ar  365  0.5318523E+01  0.3209951E+02  0.1712600E+00  0.1137065E+03
Ar  366  0.7943074E+01  0.3485424E+02  0.3919537E-01  0.9143371E+02
Ar  367  0.8036488E+01  0.3210959E+02  0.2630071E+01  0.9075727E+02
Ar  368  0.5726583E+01  0.3503661E+02  0.3148591E+01  0.3260652E+03
Ar  369  0.5438770E+01  0.3185055E+02  0.5438770E+01  0.7429282E+02
Ar  370  0.8288382E+01  0.3482408E+02  0.5486326E+01  0.1988092E+03
Ar  371  0.7937506E+01  0.3183937E+02  0.7937506E+01  0.7360693E+02
Ar  372  0.5486327E+01  0.3482408E+02  0.8288382E+01  0.1988090E+03
Ar  373  0.5216581E+01  0.3168034E+02  0.1084451E+02  0.1895243E+03
Ar  374  0.7541845E+01  0.3470354E+02  0.1156048E+02  0.7507822E+02
Ar  375  0.7766417E+01  0.3177255E+02  0.1366684E+02  0.1600526E+02
Ar  376  0.5132822E+01  0.3560754E+02  0.1346214E+02  0.6554770E+02
Ar  377  0.5464064E+01  0.3212488E+02  0.1656098E+02  0.1309390E+03
Ar  378  0.8126776E+01  0.3531517E+02  0.1552002E+02  0.1111061E+03
Ar  379  0.7573566E+01  0.3237013E+02  0.1951087E+02  0.8384282E+02
Ar  380  0.5630804E+01  0.3505709E+02  0.1867083E+02  0.3697875E+02
Ar  381  0.4533955E+01  0.3245444E+02  0.2166470E+02  0.6165851E+02
Ar  382  0.8614682E+01  0.3519114E+02  0.2195924E+02  0.9050335E+02
Ar  383  0.8071234E+01  0.3259986E+02  0.2407436E+02  0.1108400E+03
Ar  384  0.5387105E+01  0.3510152E+02  0.2409068E+02  0.1227474E+03
Ar  385  0.5151283E+01  0.3248479E+02  0.2696117E+02  0.1407489E+03
Ar  386  0.8010195E+01  0.3523550E+02  0.2689162E+02  0.9084942E+02
Ar  387  0.7648805E+01  0.3242092E+02  0.2960891E+02  0.4105321E+03
Ar  388  0.5539653E+01  0.3539876E+02  0.2938359E+02  0.8635449E+02
Ar  389  0.5334493E+01  0.3204736E+02  0.3204736E+02  0.2219154E+01
Ar  390  0.7895983E+01  0.3523199E+02  0.3207468E+02  0.1404301E+03
Ar  391  0.7895983E+01  0.3207468E+02  0.3523199E+02  0.1404310E+03
Ar  392  0.6012256E+01  0.3466461E+02  0.3466461E+02  0.3658766E+02
Ar  393  0.1005953E+02  0.3776358E+02  0.3776358E+02  0.3259446E+03
Ar  394  0.1279900E+02  0.2549309E+01  0.3764540E+02  0.3241473E+02
Ar  395  0.1279900E+02  0.3764540E+02  0.2549309E+01  0.3241468E+02
Ar  396  0.1081128E+02  0.2925008E+01  0.2925009E+01  0.7806070E+02
Ar  397  0.1081639E+02  0.8563251E-01  0.5595538E+01  0.1148016E+03
Ar  398  0.1376211E+02  0.2359290E+01  0.5102271E+01  0.5109924E+02
Ar  399  0.1345217E+02  0.2933632E+00  0.8366941E+01  0.4987042E+02
Ar  400  0.1121661E+02  0.3195914E+01  0.8082635E+01  0.1617693E+03
Ar  401  0.1105529E+02  0.5651857E+00  0.1105529E+02  0.2313917E+03
Ar  402  0.1372981E+02  0.3018269E+01  0.1088585E+02  0.4212709E+02
Ar  403  0.1349416E+02  0.3764694E+02  0.1349416E+02  0.2082309E+03
Ar  404  0.1088585E+02  0.3018270E+01  0.1372981E+02  0.4212714E+02
Ar  405  0.1061797E+02  0.3216549E-01  0.1667326E+02  0.1497511E+03
Ar  406  0.1351949E+02  0.2855951E+01  0.1605892E+02  0.1996232E+03
Ar  407  0.1322886E+02  0.3773722E+02  0.1880823E+02  0.3145088E+03
Ar  408  0.1127890E+02  0.2978480E+01  0.1840071E+02  0.1443802E+03
Ar  409  0.1076251E+02  0.3939637E+00  0.2144488E+02  0.4587769E+02
Ar  410  0.1340449E+02  0.2593629E+01  0.2121975E+02  0.2122926E+03
Ar  411  0.1390708E+02  0.1914933E+00  0.2435579E+02  0.2752090E+03
Ar  412  0.1098957E+02  0.2763347E+01  0.2427248E+02  0.3425090E+03
Ar  413  0.1094846E+02  0.1376866E+00  0.2690248E+02  0.1221153E+03
Ar  414  0.1344402E+02  0.2538402E+01  0.2680194E+02  0.2483330E+03
Ar  415  0.1381491E+02  0.1186550E+00  0.2949531E+02  0.1766043E+02
Ar  416  0.1034100E+02  0.2607673E+01  0.2918788E+02  0.1001134E+03
Ar  417  0.1081713E+02  0.6658605E-01  0.3191353E+02  0.1421240E+03
Ar  418  0.1394743E+02  0.3032737E+01  0.3183758E+02  0.1588632E+03
Ar  419  0.1217222E+02  0.3771151E+02  0.3497604E+02  0.8707886E+02
Ar  420  0.1092763E+02  0.3328829E+01  0.3476372E+02  0.1303446E+03
Ar  421  0.1081639E+02  0.5595537E+01  0.8563308E-01  0.1148014E+03
Ar  422  0.1345217E+02  0.8366940E+01  0.2933637E+00  0.4987016E+02
Ar  423  0.1376211E+02  0.5102270E+01  0.2359290E+01  0.5109908E+02
Ar  424  0.1121661E+02  0.8082634E+01  0.3195915E+01  0.1617700E+03
Ar  425  0.1182044E+02  0.5562545E+01  0.5562545E+01  0.6175266E+02
Ar  426  0.1394822E+02  0.8147366E+01  0.5522888E+01  0.1023464E+03
Ar  427  0.1394822E+02  0.5522887E+01  0.8147367E+01  0.1023467E+03
Ar  428  0.1143591E+02  0.7960258E+01  0.7960257E+01  0.1320675E+03
Ar  429  0.1094865E+02  0.5551104E+01  0.1094864E+02  0.3594507E+03
Ar  430  0.1348724E+02  0.7926442E+01  0.1083476E+02  0.5539011E+03
Ar  431  0.1370512E+02  0.5650225E+01  0.1370512E+02  0.4378644E+01
Ar  432  0.1083476E+02  0.7926441E+01  0.1348724E+02  0.5539017E+03
Ar  433  0.1119372E+02  0.5832757E+01  0.1643016E+02  0.1029757E+03
Ar  434  0.1379830E+02  0.8443846E+01  0.1637272E+02  0.1830755E+03
Ar  435  0.1362115E+02  0.5692095E+01  0.1877703E+02  0.1129186E+02
Ar  436  0.1099176E+02  0.8219346E+01  0.1896618E+02  0.3051486E+02
Ar  437  0.1080325E+02  0.5581635E+01  0.2147742E+02  0.5983933E+02
Ar  438  0.1314873E+02  0.8167208E+01  0.2179716E+02  0.9876005E+02
Ar  439  0.1326797E+02  0.5142668E+01  0.2422641E+02  0.2422116E+02
Ar  440  0.1075025E+02  0.7783344E+01  0.2440261E+02  0.4914922E+02
Ar  441  0.1076291E+02  0.5137248E+01  0.2679262E+02  0.4330659E+03
Ar  442  0.1348968E+02  0.7802524E+01  0.2705700E+02  0.2487985E+02
Ar  443  0.1350111E+02  0.4918340E+01  0.2906690E+02  0.2542143E+03
Ar  444  0.1081548E+02  0.8228555E+01  0.2925690E+02  0.4010898E+02
Ar  445  0.1084451E+02  0.5216580E+01  0.3168034E+02  0.1895241E+03
Ar  446  0.1366684E+02  0.7766417E+01  0.3177255E+02  0.1600535E+02
Ar  447  0.1346214E+02  0.5132822E+01  0.3560754E+02  0.6554752E+02
Ar  448  0.1156048E+02  0.7541846E+01  0.3470354E+02  0.7507873E+02
Ar  449  0.1105528E+02  0.1105529E+02  0.5651868E+00  0.2313924E+03
Ar  450  0.1349416E+02  0.1349416E+02  0.3764694E+02  0.2082310E+03
Ar  451  0.1372981E+02  0.1088585E+02  0.3018270E+01  0.4212723E+02
Ar  452  0.1088585E+02  0.1372981E+02  0.3018269E+01  0.4212729E+02
Ar  453  0.1094865E+02  0.1094864E+02  0.5551103E+01  0.3594476E+03
Ar  454  0.1370512E+02  0.1370512E+02  0.5650225E+01  0.4378574E+01
Ar  455  0.1348724E+02  0.1083476E+02  0.7926442E+01  0.5539020E+03
Ar  456  0.1083476E+02  0.1348724E+02  0.7926442E+01  0.5539024E+03
Ar  457  0.1056664E+02  0.1056664E+02  0.1056664E+02  0.1954513E+03
Ar  458  0.1357061E+02  0.1357061E+02  0.1055559E+02  0.1400363E+02
Ar  459  0.1357061E+02  0.1055559E+02  0.1357061E+02  0.1400388E+02
Ar  460  0.1055559E+02  0.1357061E+02  0.1357061E+02  0.1400380E+02
Ar  461  0.1111306E+02  0.1111306E+02  0.1629921E+02  0.1711016E+03
Ar  462  0.1350939E+02  0.1350939E+02  0.1669526E+02  0.2361848E+02
Ar  463  0.1345601E+02  0.1087580E+02  0.1932913E+02  0.6311390E+02
Ar  464  0.1087580E+02  0.1345601E+02  0.1932913E+02  0.6311400E+02
Ar  465  0.1069943E+02  0.1069943E+02  0.2137878E+02  0.1766162E+03
Ar  466  0.1360452E+02  0.1360452E+02  0.2203575E+02  0.6987350E+03
Ar  467  0.1310177E+02  0.1055175E+02  0.2427128E+02  0.9729081E+02
Ar  468  0.1055175E+02  0.1310177E+02  0.2427128E+02  0.9729109E+02
Ar  469  0.1077673E+02  0.1077673E+02  0.2722542E+02  0.6628198E+03
Ar  470  0.1312705E+02  0.1312705E+02  0.2660376E+02  0.1250403E+03
Ar  471  0.1332053E+02  0.1043714E+02  0.2968330E+02  0.1322397E+03
Ar  472  0.1043714E+02  0.1332053E+02  0.2968330E+02  0.1322399E+03
Ar  473  0.1056812E+02  0.1056812E+02  0.3196966E+02  0.5333158E+02
Ar  474  0.1288054E+02  0.1288054E+02  0.3210057E+02  0.1156139E+03
Ar  475  0.1346221E+02  0.1075600E+02  0.3523561E+02  0.1523069E+03
Ar  476  0.1075600E+02  0.1346221E+02  0.3523561E+02  0.1523068E+03
Ar  477  0.1061797E+02  0.1667326E+02  0.3216581E-01  0.1497505E+03
Ar  478  0.1322886E+02  0.1880823E+02  0.3773722E+02  0.3145087E+03
Ar  479  0.1351949E+02  0.1605892E+02  0.2855951E+01  0.1996235E+03
Ar  480  0.1127890E+02  0.1840071E+02  0.2978480E+01  0.1443799E+03
Ar  481  0.1119372E+02  0.1643016E+02  0.5832757E+01  0.1029754E+03
Ar  482  0.1362115E+02  0.1877703E+02  0.5692095E+01  0.1129162E+02
Ar  483  0.1379830E+02  0.1637272E+02  0.8443846E+01  0.1830753E+03
Ar  484  0.1099176E+02  0.1896618E+02  0.8219346E+01  0.3051499E+02
Ar  485  0.1111306E+02  0.1629921E+02  0.1111306E+02  0.1711019E+03
Ar  486  0.1345601E+02  0.1932913E+02  0.1087580E+02  0.6311419E+02
Ar  487  0.1350939E+02  0.1669526E+02  0.1350939E+02  0.2361867E+02
Ar  488  0.1087580E+02  0.1932913E+02  0.1345601E+02  0.6311461E+02
Ar  489  0.1137713E+02  0.1616311E+02  0.1616311E+02  0.3242159E+02
Ar  490  0.1301683E+02  0.1939943E+02  0.1616843E+02  0.1364557E+02
Ar  491  0.1301683E+02  0.1616843E+02  0.1939943E+02  0.1364549E+02
Ar  492  0.1049930E+02  0.1929233E+02  0.1929233E+02  0.2222657E+03
Ar  493  0.1088955E+02  0.1611620E+02  0.2209369E+02  0.1020214E+03
Ar  494  0.1361802E+02  0.1898290E+02  0.2198374E+02  0.1813636E+03
Ar  495  0.1310651E+02  0.1613070E+02  0.2478331E+02  0.1066245E+03
Ar  496  0.1090630E+02  0.1936392E+02  0.2436610E+02  0.4656564E+03
Ar  497  0.1066512E+02  0.1573145E+02  0.2698106E+02  0.4489277E+02
Ar  498  0.1312478E+02  0.1866388E+02  0.2749902E+02  0.6598023E+02
Ar  499  0.1285601E+02  0.1568311E+02  0.2995121E+02  0.7573214E+02
Ar  500  0.1024945E+02  0.1923172E+02  0.2969659E+02  0.8466056E+02
Ar  501  0.1027195E+02  0.1592297E+02  0.3261082E+02  0.1156216E+01
Ar  502  0.1298179E+02  0.1845915E+02  0.3225691E+02  0.1686478E+03
Ar  503  0.1305017E+02  0.1592788E+02  0.3494142E+02  0.1680458E+03
Ar  504  0.1052095E+02  0.1862369E+02  0.3475441E+02  0.9085119E+02
Ar  505  0.1076251E+02  0.2144489E+02  0.3939644E+00  0.4587787E+02
Ar  506  0.1390708E+02  0.2435579E+02  0.1914935E+00  0.2752088E+03
Ar  507  0.1340449E+02  0.2121975E+02  0.2593629E+01  0.2122921E+03
Ar  508  0.1098957E+02  0.2427248E+02  0.2763348E+01  0.3425091E+03
Ar  509  0.1080325E+02  0.2147742E+02  0.5581635E+01  0.5983953E+02
Ar  510  0.1326797E+02  0.2422641E+02  0.5142669E+01  0.2422116E+02
Ar  511  0.1314873E+02  0.2179716E+02  0.8167209E+01  0.9875977E+02
Ar  512  0.1075025E+02  0.2440261E+02  0.7783344E+01  0.4914930E+02
Ar  513  0.1069943E+02  0.2137878E+02  0.1069943E+02  0.1766149E+03
Ar  514  0.1310177E+02  0.2427128E+02  0.1055175E+02  0.9729058E+02
Ar  515  0.1360453E+02  0.2203575E+02  0.1360453E+02  0.6987349E+03
Ar  516  0.1055175E+02  0.2427128E+02  0.1310177E+02  0.9729097E+02
Ar  517  0.1088955E+02  0.2209369E+02  0.1611620E+02  0.1020216E+03
Ar  518  0.1310651E+02  0.2478331E+02  0.1613070E+02  0.1066244E+03
Ar  519  0.1361802E+02  0.2198374E+02  0.1898290E+02  0.1813636E+03
Ar  520  0.1090630E+02  0.2436610E+02  0.1936392E+02  0.4656559E+03
Ar  521  0.1096737E+02  0.2175793E+02  0.2175793E+02  0.1236138E+03
Ar  522  0.1322565E+02  0.2447954E+02  0.2174436E+02  0.6511750E+02
Ar  523  0.1322565E+02  0.2174436E+02  0.2447954E+02  0.6511751E+02
Ar  524  0.1096730E+02  0.2470619E+02  0.2470619E+02  0.3065310E+03
Ar  525  0.1038392E+02  0.2178745E+02  0.2714535E+02  0.2449211E+03
Ar  526  0.1368034E+02  0.2448763E+02  0.2710373E+02  0.1733622E+03
Ar  527  0.1333596E+02  0.2152115E+02  0.2917894E+02  0.3225086E+02
Ar  528  0.1092766E+02  0.2471336E+02  0.2975509E+02  0.1354775E+03
Ar  529  0.1115311E+02  0.2192857E+02  0.3257716E+02  0.8423365E+02
Ar  530  0.1330745E+02  0.2439945E+02  0.3256699E+02  0.1149124E+03
Ar  531  0.1325268E+02  0.2121226E+02  0.3507958E+02  0.2232519E+03
Ar  532  0.1127707E+02  0.2433230E+02  0.3551324E+02  0.1684710E+03
Ar  533  0.1094846E+02  0.2690248E+02  0.1376868E+00  0.1221153E+03
Ar  534  0.1381491E+02  0.2949531E+02  0.1186551E+00  0.1766048E+02
Ar  535  0.1344402E+02  0.2680194E+02  0.2538402E+01  0.2483328E+03
Ar  536  0.1034101E+02  0.2918788E+02  0.2607673E+01  0.1001135E+03
Ar  537  0.1076291E+02  0.2679262E+02  0.5137247E+01  0.4330664E+03
Ar  538  0.1350111E+02  0.2906690E+02  0.4918339E+01  0.2542148E+03
Ar  539  0.1348968E+02  0.2705700E+02  0.7802524E+01  0.2487990E+02
Ar  540  0.1081548E+02  0.2925690E+02  0.8228555E+01  0.4010865E+02
Ar  541  0.1077673E+02  0.2722542E+02  0.1077673E+02  0.6628194E+03
Ar  542  0.1332053E+02  0.2968330E+02  0.1043714E+02  0.1322396E+03
Ar  543  0.1312705E+02  0.2660376E+02  0.1312705E+02  0.1250401E+03
Ar  544  0.1043714E+02  0.2968330E+02  0.1332053E+02  0.1322395E+03
Ar  545  0.1066512E+02  0.2698106E+02  0.1573145E+02  0.4489273E+02
Ar  546  0.1285601E+02  0.2995121E+02  0.1568311E+02  0.7573189E+02
Ar  547  0.1312478E+02  0.2749902E+02  0.1866388E+02  0.6598002E+02
Ar  548  0.1024945E+02  0.2969659E+02  0.1923171E+02  0.8466063E+02
Ar  549  0.1038392E+02  0.2714535E+02  0.2178745E+02  0.2449211E+03
Ar  550  0.1333596E+02  0.2917894E+02  0.2152115E+02  0.3225103E+02
Ar  551  0.1368034E+02  0.2710373E+02  0.2448763E+02  0.1733621E+03
Ar  552  0.1092766E+02  0.2975509E+02  0.2471336E+02  0.1354774E+03
Ar  553  0.1104989E+02  0.2723030E+02  0.2723030E+02  0.1035539E+03
Ar  554  0.1401844E+02  0.2955115E+02  0.2723005E+02  0.2177753E+03
Ar  555  0.1401844E+02  0.2723005E+02  0.2955115E+02  0.2177750E+03
Ar  556  0.1027020E+02  0.2945498E+02  0.2945498E+02  0.3185897E+03
Ar  557  0.1104009E+02  0.2693423E+02  0.3242217E+02  0.2269965E+03
Ar  558  0.1309463E+02  0.2973006E+02  0.3228784E+02  0.2714780E+02
Ar  559  0.1358255E+02  0.2689465E+02  0.3513682E+02  0.2184477E+03
Ar  560  0.1081212E+02  0.2937746E+02  0.3532250E+02  0.1484118E+03
Ar  561  0.1081713E+02  0.3191353E+02  0.6658663E-01  0.1421244E+03
Ar  562  0.1217222E+02  0.3497604E+02  0.3771151E+02  0.8707905E+02
Ar  563  0.1394743E+02  0.3183758E+02  0.3032737E+01  0.1588630E+03
Ar  564  0.1092764E+02  0.3476372E+02  0.3328829E+01  0.1303446E+03
Ar  565  0.1084451E+02  0.3168034E+02  0.5216581E+01  0.1895238E+03
Ar  566  0.1346214E+02  0.3560754E+02  0.5132822E+01  0.6554747E+02
Ar  567  0.1366684E+02  0.3177255E+02  0.7766417E+01  0.1600534E+02
Ar  568  0.1156048E+02  0.3470354E+02  0.7541846E+01  0.7507805E+02
Ar  569  0.1056812E+02  0.3196966E+02  0.1056812E+02  0.5333142E+02
Ar  570  0.1346221E+02  0.3523561E+02  0.1075600E+02  0.1523071E+03
Ar  571  0.1288054E+02  0.3210057E+02  0.1288054E+02  0.1156142E+03
Ar  572  0.1075600E+02  0.3523561E+02  0.1346221E+02  0.1523067E+03
Ar  573  0.1027195E+02  0.3261082E+02  0.1592297E+02  0.1156171E+01
Ar  574  0.1305017E+02  0.3494142E+02  0.1592788E+02  0.1680459E+03
Ar  575  0.1298179E+02  0.3225691E+02  0.1845915E+02  0.1686474E+03
Ar  576  0.1052095E+02  0.3475441E+02  0.1862369E+02  0.9085168E+02
Ar  577  0.1115311E+02  0.3257716E+02  0.2192857E+02  0.8423360E+02
Ar  578  0.1325268E+02  0.3507958E+02  0.2121226E+02  0.2232520E+03
Ar  579  0.1330745E+02  0.3256699E+02  0.2439945E+02  0.1149125E+03
Ar  580  0.1127707E+02  0.3551324E+02  0.2433230E+02  0.1684710E+03
Ar  581  0.1104009E+02  0.3242217E+02  0.2693423E+02  0.2269961E+03
Ar  582  0.1358255E+02  0.3513682E+02  0.2689465E+02  0.2184486E+03
Ar  583  0.1309463E+02  0.3228784E+02  0.2973006E+02  0.2714757E+02
Ar  584  0.1081213E+02  0.3532250E+02  0.2937746E+02  0.1484118E+03
Ar  585  0.1060209E+02  0.3215638E+02  0.3215638E+02  0.5878504E+02
Ar  586  0.1300514E+02  0.3489887E+02  0.3232439E+02  0.1617238E+03
Ar  587  0.1300514E+02  0.3232439E+02  0.3489887E+02  0.1617238E+03
Ar  588  0.1029374E+02  0.3464304E+02  0.3464304E+02  0.9937691E+02
Ar  589  0.1668026E+02  0.3718093E+02  0.3718093E+02  0.2441367E+03
Ar  590  0.1872572E+02  0.3227289E+01  0.3774118E+02  0.9873492E+01
Ar  591  0.1872572E+02  0.3774119E+02  0.3227289E+01  0.9873582E+01
Ar  592  0.1560105E+02  0.2127733E+01  0.2127733E+01  0.1367783E+02
Ar  593  0.1604353E+02  0.3770264E+02  0.5632108E+01  0.5475672E+02
Ar  594  0.1883874E+02  0.2558526E+01  0.5836626E+01  0.3147717E+03
Ar  595  0.1904791E+02  0.3738592E+02  0.8147546E+01  0.3108741E+03
Ar  596  0.1604621E+02  0.2716351E+01  0.7967639E+01  0.7047354E+02
Ar  597  0.1667326E+02  0.3216572E-01  0.1061797E+02  0.1497506E+03
Ar  598  0.1840071E+02  0.2978480E+01  0.1127891E+02  0.1443804E+03
Ar  599  0.1880823E+02  0.3773722E+02  0.1322886E+02  0.3145085E+03
Ar  600  0.1605892E+02  0.2855951E+01  0.1351949E+02  0.1996235E+03
Ar  601  0.1591595E+02  0.3679433E+02  0.1591595E+02  0.5224780E+03
Ar  602  0.1868871E+02  0.3032195E+01  0.1615485E+02  0.2716504E+03
Ar  603  0.1891377E+02  0.5708732E+00  0.1891377E+02  0.1449509E+03
Ar  604  0.1615485E+02  0.3032194E+01  0.1868871E+02  0.2716507E+03
Ar  605  0.1627521E+02  0.3770630E+02  0.2120595E+02  0.4328614E+02
Ar  606  0.1873513E+02  0.2585458E+01  0.2185879E+02  0.6191604E+02
Ar  607  0.1855828E+02  0.3754175E-01  0.2416938E+02  0.1896021E+02
Ar  608  0.1582449E+02  0.3308727E+01  0.2396093E+02  0.2560535E+03
Ar  609  0.1646786E+02  0.9091862E-01  0.2676907E+02  0.8749164E+02
Ar  610  0.1901702E+02  0.2438977E+01  0.2682960E+02  0.7771538E+02
Ar  611  0.1853461E+02  0.3735484E+02  0.2986630E+02  0.7990690E+02
Ar  612  0.1626130E+02  0.2737628E+01  0.2930026E+02  0.2915314E+03
Ar  613  0.1602746E+02  0.5780531E-01  0.3283205E+02  0.3651011E+02
Ar  614  0.1887266E+02  0.2637768E+01  0.3240142E+02  0.4586171E+03
Ar  615  0.1926466E+02  0.3774711E+02  0.3513870E+02  0.4596408E+02
Ar  616  0.1613516E+02  0.2977182E+01  0.3480582E+02  0.6449570E+02
Ar  617  0.1604353E+02  0.5632108E+01  0.3770264E+02  0.5475660E+02
Ar  618  0.1904791E+02  0.8147546E+01  0.3738592E+02  0.3108740E+03
Ar  619  0.1883874E+02  0.5836626E+01  0.2558525E+01  0.3147712E+03
Ar  620  0.1604621E+02  0.7967638E+01  0.2716351E+01  0.7047362E+02
Ar  621  0.1636197E+02  0.5183068E+01  0.5183068E+01  0.2309291E+03
Ar  622  0.1858936E+02  0.8163661E+01  0.5272553E+01  0.4886796E+02
Ar  623  0.1858936E+02  0.5272553E+01  0.8163661E+01  0.4886766E+02
Ar  624  0.1637071E+02  0.8601479E+01  0.8601479E+01  0.6550165E+02
Ar  625  0.1643016E+02  0.5832757E+01  0.1119372E+02  0.1029759E+03
Ar  626  0.1896618E+02  0.8219346E+01  0.1099176E+02  0.3051475E+02
Ar  627  0.1877703E+02  0.5692096E+01  0.1362115E+02  0.1129178E+02
Ar  628  0.1637272E+02  0.8443847E+01  0.1379830E+02  0.1830760E+03
Ar  629  0.1607350E+02  0.5839288E+01  0.1607350E+02  0.1969189E+03
Ar  630  0.1894664E+02  0.8245076E+01  0.1631336E+02  0.1147680E+03
Ar  631  0.1903811E+02  0.6085947E+01  0.1903811E+02  0.7157050E+02
Ar  632  0.1631336E+02  0.8245076E+01  0.1894664E+02  0.1147681E+03
Ar  633  0.1642351E+02  0.5561314E+01  0.2113094E+02  0.4451328E+02
Ar  634  0.1920967E+02  0.8254767E+01  0.2192815E+02  0.2088153E+03
Ar  635  0.1937033E+02  0.5250656E+01  0.2463409E+02  0.2838142E+03
Ar  636  0.1623971E+02  0.7655623E+01  0.2417046E+02  0.2989408E+02
Ar  637  0.1648051E+02  0.5273223E+01  0.2680126E+02  0.2251184E+03
Ar  638  0.1876318E+02  0.8279805E+01  0.2663934E+02  0.1037637E+03
Ar  639  0.1949486E+02  0.4833536E+01  0.2979950E+02  0.6014431E+02
Ar  640  0.1615927E+02  0.8165668E+01  0.2949205E+02  0.2268327E+03
Ar  641  0.1656098E+02  0.5464064E+01  0.3212488E+02  0.1309390E+03
Ar  642  0.1951087E+02  0.7573567E+01  0.3237013E+02  0.8384260E+02
Ar  643  0.1867083E+02  0.5630805E+01  0.3505709E+02  0.3697883E+02
Ar  644  0.1552002E+02  0.8126776E+01  0.3531517E+02  0.1111057E+03
Ar  645  0.1667326E+02  0.1061797E+02  0.3216608E-01  0.1497509E+03
Ar  646  0.1880823E+02  0.1322886E+02  0.3773723E+02  0.3145093E+03
Ar  647  0.1840071E+02  0.1127890E+02  0.2978480E+01  0.1443802E+03
Ar  648  0.1605892E+02  0.1351949E+02  0.2855951E+01  0.1996236E+03
Ar  649  0.1643016E+02  0.1119372E+02  0.5832757E+01  0.1029760E+03
Ar  650  0.1877703E+02  0.1362115E+02  0.5692095E+01  0.1129146E+02
Ar  651  0.1896618E+02  0.1099176E+02  0.8219346E+01  0.3051472E+02
Ar  652  0.1637272E+02  0.1379830E+02  0.8443846E+01  0.1830756E+03
Ar  653  0.1629921E+02  0.1111306E+02  0.1111306E+02  0.1711018E+03
Ar  654  0.1932913E+02  0.1345601E+02  0.1087580E+02  0.6311455E+02
Ar  655  0.1932913E+02  0.1087580E+02  0.1345601E+02  0.6311436E+02
Ar  656  0.1669526E+02  0.1350939E+02  0.1350939E+02  0.2361851E+02
Ar  657  0.1616311E+02  0.1137713E+02  0.1616311E+02  0.3242162E+02
Ar  658  0.1939943E+02  0.1301683E+02  0.1616843E+02  0.1364537E+02
Ar  659  0.1929233E+02  0.1049930E+02  0.1929233E+02  0.2222657E+03
Ar  660  0.1616843E+02  0.1301683E+02  0.1939943E+02  0.1364548E+02
Ar  661  0.1611620E+02  0.1088955E+02  0.2209369E+02  0.1020214E+03
Ar  662  0.1898290E+02  0.1361802E+02  0.2198374E+02  0.1813637E+03
Ar  663  0.1936392E+02  0.1090630E+02  0.2436610E+02  0.4656563E+03
Ar  664  0.1613070E+02  0.1310652E+02  0.2478331E+02  0.1066248E+03
Ar  665  0.1573145E+02  0.1066512E+02  0.2698106E+02  0.4489291E+02
Ar  666  0.1866388E+02  0.1312478E+02  0.2749902E+02  0.6598022E+02
Ar  667  0.1923172E+02  0.1024945E+02  0.2969659E+02  0.8466051E+02
Ar  668  0.1568311E+02  0.1285601E+02  0.2995121E+02  0.7573211E+02
Ar  669  0.1592297E+02  0.1027195E+02  0.3261082E+02  0.1156171E+01
Ar  670  0.1845915E+02  0.1298179E+02  0.3225691E+02  0.1686475E+03
Ar  671  0.1862369E+02  0.1052095E+02  0.3475441E+02  0.9085159E+02
Ar  672  0.1592788E+02  0.1305017E+02  0.3494142E+02  0.1680454E+03
Ar  673  0.1591595E+02  0.1591595E+02  0.3679433E+02  0.5224774E+03
Ar  674  0.1891377E+02  0.1891377E+02  0.5708729E+00  0.1449512E+03
Ar  675  0.1868871E+02  0.1615485E+02  0.3032194E+01  0.2716512E+03
Ar  676  0.1615485E+02  0.1868871E+02  0.3032194E+01  0.2716505E+03
Ar  677  0.1607350E+02  0.1607350E+02  0.5839288E+01  0.1969196E+03
Ar  678  0.1903811E+02  0.1903811E+02  0.6085946E+01  0.7157056E+02
Ar  679  0.1894664E+02  0.1631336E+02  0.8245076E+01  0.1147683E+03
Ar  680  0.1631336E+02  0.1894664E+02  0.8245076E+01  0.1147682E+03
Ar  681  0.1616311E+02  0.1616311E+02  0.1137713E+02  0.3242155E+02
Ar  682  0.1929233E+02  0.1929233E+02  0.1049930E+02  0.2222663E+03
Ar  683  0.1939943E+02  0.1616843E+02  0.1301683E+02  0.1364540E+02
Ar  684  0.1616843E+02  0.1939943E+02  0.1301683E+02  0.1364546E+02
Ar  685  0.1641160E+02  0.1641160E+02  0.1641160E+02  0.7080221E+03
Ar  686  0.1890095E+02  0.1890095E+02  0.1611272E+02  0.2458348E+03
Ar  687  0.1890095E+02  0.1611272E+02  0.1890095E+02  0.2458346E+03
Ar  688  0.1611272E+02  0.1890095E+02  0.1890095E+02  0.2458345E+03
Ar  689  0.1612182E+02  0.1612182E+02  0.2193496E+02  0.3229432E+02
Ar  690  0.1886121E+02  0.1886121E+02  0.2152972E+02  0.8031905E+02
Ar  691  0.1819711E+02  0.1566542E+02  0.2489871E+02  0.1296628E+02
Ar  692  0.1566542E+02  0.1819711E+02  0.2489871E+02  0.1296621E+02
Ar  693  0.1564663E+02  0.1564663E+02  0.2787391E+02  0.3688907E+02
Ar  694  0.1869678E+02  0.1869678E+02  0.2714319E+02  0.5532981E+01
Ar  695  0.1888967E+02  0.1561859E+02  0.3001187E+02  0.2581026E+03
Ar  696  0.1561859E+02  0.1888967E+02  0.3001187E+02  0.2581030E+03
Ar  697  0.1560924E+02  0.1560924E+02  0.3244488E+02  0.1893738E+02
Ar  698  0.1847146E+02  0.1847146E+02  0.3225802E+02  0.6010644E+03
Ar  699  0.1889007E+02  0.1593046E+02  0.3509716E+02  0.9634125E+01
Ar  700  0.1593046E+02  0.1889007E+02  0.3509716E+02  0.9634201E+01
Ar  701  0.1627521E+02  0.2120595E+02  0.3770630E+02  0.4328632E+02
Ar  702  0.1855828E+02  0.2416938E+02  0.3754127E-01  0.1895999E+02
Ar  703  0.1873513E+02  0.2185879E+02  0.2585457E+01  0.6191637E+02
Ar  704  0.1582449E+02  0.2396093E+02  0.3308727E+01  0.2560545E+03
Ar  705  0.1642351E+02  0.2113094E+02  0.5561314E+01  0.4451309E+02
Ar  706  0.1937033E+02  0.2463409E+02  0.5250656E+01  0.2838145E+03
Ar  707  0.1920967E+02  0.2192815E+02  0.8254767E+01  0.2088157E+03
Ar  708  0.1623971E+02  0.2417046E+02  0.7655623E+01  0.2989415E+02
Ar  709  0.1611620E+02  0.2209369E+02  0.1088955E+02  0.1020213E+03
Ar  710  0.1936392E+02  0.2436610E+02  0.1090630E+02  0.4656563E+03
Ar  711  0.1898290E+02  0.2198374E+02  0.1361802E+02  0.1813634E+03
Ar  712  0.1613070E+02  0.2478331E+02  0.1310652E+02  0.1066248E+03
Ar  713  0.1612182E+02  0.2193496E+02  0.1612182E+02  0.3229453E+02
Ar  714  0.1819711E+02  0.2489871E+02  0.1566542E+02  0.1296604E+02
Ar  715  0.1886121E+02  0.2152973E+02  0.1886121E+02  0.8031911E+02
Ar  716  0.1566542E+02  0.2489871E+02  0.1819711E+02  0.1296600E+02
Ar  717  0.1594981E+02  0.2166459E+02  0.2166458E+02  0.2518154E+03
Ar  718  0.1882569E+02  0.2420072E+02  0.2140535E+02  0.3311532E+02
Ar  719  0.1882569E+02  0.2140535E+02  0.2420072E+02  0.3311556E+02
Ar  720  0.1650896E+02  0.2410198E+02  0.2410198E+02  0.6556001E+03
Ar  721  0.1626722E+02  0.2154383E+02  0.2697043E+02  0.4970099E+02
Ar  722  0.1920775E+02  0.2423195E+02  0.2764412E+02  0.1859684E+03
Ar  723  0.1826207E+02  0.2131396E+02  0.2976043E+02  0.9511369E+02
Ar  724  0.1612298E+02  0.2432819E+02  0.2983518E+02  0.1013799E+03
Ar  725  0.1578097E+02  0.2131098E+02  0.3235677E+02  0.1143512E+03
Ar  726  0.1886927E+02  0.2375688E+02  0.3225254E+02  0.1429987E+03
Ar  727  0.1838314E+02  0.2192287E+02  0.3514167E+02  0.6624550E+02
Ar  728  0.1587021E+02  0.2467941E+02  0.3506938E+02  0.7161928E+02
Ar  729  0.1646786E+02  0.2676907E+02  0.9091873E-01  0.8749174E+02
Ar  730  0.1853461E+02  0.2986630E+02  0.3735484E+02  0.7990694E+02
Ar  731  0.1901702E+02  0.2682960E+02  0.2438976E+01  0.7771533E+02
Ar  732  0.1626130E+02  0.2930026E+02  0.2737628E+01  0.2915318E+03
Ar  733  0.1648051E+02  0.2680126E+02  0.5273223E+01  0.2251186E+03
Ar  734  0.1949486E+02  0.2979950E+02  0.4833536E+01  0.6014439E+02
Ar  735  0.1876318E+02  0.2663933E+02  0.8279805E+01  0.1037635E+03
Ar  736  0.1615927E+02  0.2949205E+02  0.8165668E+01  0.2268328E+03
Ar  737  0.1573145E+02  0.2698106E+02  0.1066512E+02  0.4489300E+02
Ar  738  0.1923172E+02  0.2969659E+02  0.1024945E+02  0.8466062E+02
Ar  739  0.1866388E+02  0.2749902E+02  0.1312478E+02  0.6598006E+02
Ar  740  0.1568311E+02  0.2995121E+02  0.1285601E+02  0.7573199E+02
Ar  741  0.1564663E+02  0.2787391E+02  0.1564663E+02  0.3688897E+02
Ar  742  0.1888967E+02  0.3001187E+02  0.1561859E+02  0.2581027E+03
Ar  743  0.1869678E+02  0.2714319E+02  0.1869678E+02  0.5532900E+01
Ar  744  0.1561859E+02  0.3001187E+02  0.1888967E+02  0.2581028E+03
Ar  745  0.1626722E+02  0.2697043E+02  0.2154383E+02  0.4970115E+02
Ar  746  0.1826207E+02  0.2976043E+02  0.2131396E+02  0.9511362E+02
Ar  747  0.1920775E+02  0.2764412E+02  0.2423195E+02  0.1859683E+03
Ar  748  0.1612298E+02  0.2983518E+02  0.2432819E+02  0.1013801E+03
Ar  749  0.1647365E+02  0.2660032E+02  0.2660032E+02  0.3881912E+03
Ar  750  0.1938135E+02  0.3023520E+02  0.2702189E+02  0.4044032E+02
Ar  751  0.1938135E+02  0.2702189E+02  0.3023520E+02  0.4044020E+02
Ar  752  0.1622438E+02  0.2990212E+02  0.2990212E+02  0.2882017E+03
Ar  753  0.1600309E+02  0.2721900E+02  0.3233890E+02  0.2148811E+03
Ar  754  0.1894670E+02  0.3003685E+02  0.3252670E+02  0.8408374E+02
Ar  755  0.1907771E+02  0.2685401E+02  0.3472163E+02  0.1533575E+03
Ar  756  0.1584622E+02  0.2964064E+02  0.3485942E+02  0.2780712E+03
Ar  757  0.1602746E+02  0.3283205E+02  0.5780532E-01  0.3651003E+02
Ar  758  0.1926466E+02  0.3513870E+02  0.3774711E+02  0.4596394E+02
Ar  759  0.1887266E+02  0.3240142E+02  0.2637768E+01  0.4586180E+03
Ar  760  0.1613516E+02  0.3480582E+02  0.2977183E+01  0.6449563E+02
Ar  761  0.1656098E+02  0.3212488E+02  0.5464064E+01  0.1309388E+03
Ar  762  0.1867083E+02  0.3505709E+02  0.5630805E+01  0.3697892E+02
Ar  763  0.1951087E+02  0.3237013E+02  0.7573566E+01  0.8384278E+02
Ar  764  0.1552002E+02  0.3531517E+02  0.8126776E+01  0.1111058E+03
Ar  765  0.1592297E+02  0.3261082E+02  0.1027195E+02  0.1156181E+01
Ar  766  0.1862369E+02  0.3475441E+02  0.1052095E+02  0.9085152E+02
Ar  767  0.1845915E+02  0.3225691E+02  0.1298179E+02  0.1686475E+03
Ar  768  0.1592788E+02  0.3494142E+02  0.1305017E+02  0.1680458E+03
Ar  769  0.1560924E+02  0.3244488E+02  0.1560924E+02  0.1893725E+02
Ar  770  0.1889007E+02  0.3509716E+02  0.1593046E+02  0.9634241E+01
Ar  771  0.1847146E+02  0.3225802E+02  0.1847146E+02  0.6010647E+03
Ar  772  0.1593046E+02  0.3509716E+02  0.1889007E+02  0.9634207E+01
Ar  773  0.1578097E+02  0.3235677E+02  0.2131098E+02  0.1143511E+03
Ar  774  0.1838314E+02  0.3514167E+02  0.2192287E+02  0.6624560E+02
Ar  775  0.1886927E+02  0.3225254E+02  0.2375688E+02  0.1429988E+03
Ar  776  0.1587021E+02  0.3506938E+02  0.2467941E+02  0.7161988E+02
Ar  777  0.1600309E+02  0.3233890E+02  0.2721900E+02  0.2148809E+03
Ar  778  0.1907771E+02  0.3472163E+02  0.2685401E+02  0.1533574E+03
Ar  779  0.1894670E+02  0.3252670E+02  0.3003685E+02  0.8408376E+02
Ar  780  0.1584622E+02  0.3485942E+02  0.2964064E+02  0.2780711E+03
Ar  781  0.1567796E+02  0.3233100E+02  0.3233100E+02  0.9413445E+02
Ar  782  0.1905863E+02  0.3552431E+02  0.3266942E+02  0.1099575E+02
Ar  783  0.1905863E+02  0.3266942E+02  0.3552431E+02  0.1099591E+02
Ar  784  0.1607778E+02  0.3459606E+02  0.3459606E+02  0.1882609E+03
Ar  785  0.2152790E+02  0.8926428E-01  0.8926437E-01  0.1007872E+03
Ar  786  0.2430177E+02  0.2840775E+01  0.3166847E-01  0.1147983E+03
Ar  787  0.2430177E+02  0.3166962E-01  0.2840775E+01  0.1147987E+03
Ar  788  0.2113440E+02  0.2589696E+01  0.2589695E+01  0.1060118E+03
Ar  789  0.2174959E+02  0.3772722E+02  0.5873374E+01  0.1732455E+03
Ar  790  0.2371424E+02  0.2512131E+01  0.5291231E+01  0.7658648E+02
Ar  791  0.2424804E+02  0.1941827E+00  0.8392221E+01  0.7389817E+02
Ar  792  0.2161790E+02  0.2839170E+01  0.8511660E+01  0.3235418E+03
Ar  793  0.2144488E+02  0.3939641E+00  0.1076252E+02  0.4587756E+02
Ar  794  0.2427248E+02  0.2763348E+01  0.1098957E+02  0.3425092E+03
Ar  795  0.2435579E+02  0.1914936E+00  0.1390708E+02  0.2752090E+03
Ar  796  0.2121975E+02  0.2593629E+01  0.1340449E+02  0.2122922E+03
Ar  797  0.2120595E+02  0.3770630E+02  0.1627521E+02  0.4328630E+02
Ar  798  0.2396093E+02  0.3308728E+01  0.1582449E+02  0.2560538E+03
Ar  799  0.2416938E+02  0.3754106E-01  0.1855828E+02  0.1896016E+02
Ar  800  0.2185879E+02  0.2585457E+01  0.1873512E+02  0.6191673E+02
Ar  801  0.2139493E+02  0.3727045E+02  0.2139493E+02  0.6639127E+02
Ar  802  0.2381342E+02  0.2388247E+01  0.2129265E+02  0.1412294E+03
Ar  803  0.2404546E+02  0.3755903E+02  0.2404546E+02  0.1374469E+03
Ar  804  0.2129265E+02  0.2388247E+01  0.2381342E+02  0.1412287E+03
Ar  805  0.2162153E+02  0.3768498E+02  0.2660972E+02  0.5318302E+02
Ar  806  0.2440212E+02  0.2278886E+01  0.2696830E+02  0.1343643E+02
Ar  807  0.2454040E+02  0.3777863E+02  0.2998339E+02  0.7111377E+02
Ar  808  0.2173705E+02  0.2338973E+01  0.2966731E+02  0.7699660E+02
Ar  809  0.2205798E+02  0.1580553E+00  0.3260885E+02  0.9584866E+02
Ar  810  0.2468414E+02  0.2549452E+01  0.3260406E+02  0.4619106E+03
Ar  811  0.2445538E+02  0.1033998E+00  0.3543089E+02  0.3435894E+03
Ar  812  0.2152076E+02  0.2686795E+01  0.3523440E+02  0.1240332E+03
Ar  813  0.2174959E+02  0.5873374E+01  0.3772722E+02  0.1732451E+03
Ar  814  0.2424804E+02  0.8392221E+01  0.1941825E+00  0.7389836E+02
Ar  815  0.2371424E+02  0.5291232E+01  0.2512130E+01  0.7658630E+02
Ar  816  0.2161790E+02  0.8511660E+01  0.2839170E+01  0.3235415E+03
Ar  817  0.2105242E+02  0.5406939E+01  0.5406939E+01  0.1243659E+03
Ar  818  0.2389956E+02  0.8154131E+01  0.5375952E+01  0.1250637E+03
Ar  819  0.2389956E+02  0.5375952E+01  0.8154131E+01  0.1250633E+03
Ar  820  0.2113423E+02  0.8236030E+01  0.8236031E+01  0.2912815E+03
Ar  821  0.2147742E+02  0.5581636E+01  0.1080325E+02  0.5983951E+02
Ar  822  0.2440261E+02  0.7783344E+01  0.1075025E+02  0.4914909E+02
Ar  823  0.2422640E+02  0.5142669E+01  0.1326797E+02  0.2422138E+02
Ar  824  0.2179716E+02  0.8167209E+01  0.1314873E+02  0.9875991E+02
Ar  825  0.2113094E+02  0.5561314E+01  0.1642351E+02  0.4451301E+02
Ar  826  0.2417046E+02  0.7655624E+01  0.1623971E+02  0.2989419E+02
Ar  827  0.2463409E+02  0.5250656E+01  0.1937033E+02  0.2838145E+03
Ar  828  0.2192815E+02  0.8254767E+01  0.1920967E+02  0.2088162E+03
Ar  829  0.2153640E+02  0.5745688E+01  0.2153640E+02  0.5833232E+03
Ar  830  0.2460589E+02  0.7598328E+01  0.2202627E+02  0.2835566E+03
Ar  831  0.2415371E+02  0.4615975E+01  0.2415371E+02  0.1710784E+03
Ar  832  0.2202627E+02  0.7598328E+01  0.2460590E+02  0.2835563E+03
Ar  833  0.2213466E+02  0.4989451E+01  0.2694240E+02  0.5234836E+03
Ar  834  0.2461011E+02  0.7894630E+01  0.2745541E+02  0.1131690E+03
Ar  835  0.2445211E+02  0.5111441E+01  0.3006546E+02  0.2609091E+02
Ar  836  0.2163619E+02  0.7520864E+01  0.2946720E+02  0.3844615E+02
Ar  837  0.2166470E+02  0.4533955E+01  0.3245444E+02  0.6165864E+02
Ar  838  0.2407436E+02  0.8071235E+01  0.3259986E+02  0.1108401E+03
Ar  839  0.2409068E+02  0.5387104E+01  0.3510152E+02  0.1227469E+03
Ar  840  0.2195924E+02  0.8614682E+01  0.3519114E+02  0.9050324E+02
Ar  841  0.2144489E+02  0.1076251E+02  0.3939643E+00  0.4587766E+02
Ar  842  0.2435579E+02  0.1390708E+02  0.1914933E+00  0.2752090E+03
Ar  843  0.2427248E+02  0.1098957E+02  0.2763348E+01  0.3425088E+03
Ar  844  0.2121975E+02  0.1340449E+02  0.2593629E+01  0.2122922E+03
Ar  845  0.2147742E+02  0.1080325E+02  0.5581636E+01  0.5983932E+02
Ar  846  0.2422640E+02  0.1326797E+02  0.5142668E+01  0.2422105E+02
Ar  847  0.2440261E+02  0.1075025E+02  0.7783344E+01  0.4914931E+02
Ar  848  0.2179716E+02  0.1314873E+02  0.8167208E+01  0.9875973E+02
Ar  849  0.2137878E+02  0.1069943E+02  0.1069943E+02  0.1766150E+03
Ar  850  0.2427128E+02  0.1310177E+02  0.1055175E+02  0.9729063E+02
Ar  851  0.2427128E+02  0.1055175E+02  0.1310177E+02  0.9729065E+02
Ar  852  0.2203575E+02  0.1360453E+02  0.1360453E+02  0.6987346E+03
Ar  853  0.2209369E+02  0.1088955E+02  0.1611620E+02  0.1020213E+03
Ar  854  0.2478331E+02  0.1310652E+02  0.1613070E+02  0.1066245E+03
Ar  855  0.2436610E+02  0.1090630E+02  0.1936392E+02  0.4656558E+03
Ar  856  0.2198374E+02  0.1361802E+02  0.1898290E+02  0.1813639E+03
Ar  857  0.2175793E+02  0.1096737E+02  0.2175793E+02  0.1236136E+03
Ar  858  0.2447954E+02  0.1322565E+02  0.2174436E+02  0.6511744E+02
Ar  859  0.2470619E+02  0.1096730E+02  0.2470619E+02  0.3065314E+03
Ar  860  0.2174436E+02  0.1322565E+02  0.2447954E+02  0.6511732E+02
Ar  861  0.2178745E+02  0.1038392E+02  0.2714535E+02  0.2449210E+03
Ar  862  0.2448763E+02  0.1368034E+02  0.2710373E+02  0.1733624E+03
Ar  863  0.2471336E+02  0.1092766E+02  0.2975509E+02  0.1354775E+03
Ar  864  0.2152115E+02  0.1333596E+02  0.2917894E+02  0.3225112E+02
Ar  865  0.2192857E+02  0.1115311E+02  0.3257716E+02  0.8423351E+02
Ar  866  0.2439945E+02  0.1330745E+02  0.3256699E+02  0.1149123E+03
Ar  867  0.2433230E+02  0.1127707E+02  0.3551324E+02  0.1684709E+03
Ar  868  0.2121226E+02  0.1325268E+02  0.3507958E+02  0.2232521E+03
Ar  869  0.2120595E+02  0.1627521E+02  0.3770630E+02  0.4328653E+02
Ar  870  0.2416938E+02  0.1855828E+02  0.3754154E-01  0.1896006E+02
Ar  871  0.2396093E+02  0.1582449E+02  0.3308727E+01  0.2560546E+03
Ar  872  0.2185879E+02  0.1873513E+02  0.2585457E+01  0.6191641E+02
Ar  873  0.2113094E+02  0.1642351E+02  0.5561315E+01  0.4451305E+02
Ar  874  0.2463409E+02  0.1937033E+02  0.5250656E+01  0.2838145E+03
Ar  875  0.2417046E+02  0.1623971E+02  0.7655623E+01  0.2989431E+02
Ar  876  0.2192815E+02  0.1920967E+02  0.8254767E+01  0.2088155E+03
Ar  877  0.2209369E+02  0.1611620E+02  0.1088955E+02  0.1020213E+03
Ar  878  0.2436610E+02  0.1936392E+02  0.1090630E+02  0.4656563E+03
Ar  879  0.2478331E+02  0.1613070E+02  0.1310652E+02  0.1066247E+03
Ar  880  0.2198374E+02  0.1898290E+02  0.1361802E+02  0.1813634E+03
Ar  881  0.2193496E+02  0.1612182E+02  0.1612182E+02  0.3229465E+02
Ar  882  0.2489871E+02  0.1819711E+02  0.1566542E+02  0.1296610E+02
Ar  883  0.2489871E+02  0.1566542E+02  0.1819711E+02  0.1296610E+02
Ar  884  0.2152972E+02  0.1886121E+02  0.1886121E+02  0.8031926E+02
Ar  885  0.2166459E+02  0.1594980E+02  0.2166458E+02  0.2518153E+03
Ar  886  0.2420072E+02  0.1882569E+02  0.2140535E+02  0.3311542E+02
Ar  887  0.2410198E+02  0.1650897E+02  0.2410198E+02  0.6556000E+03
Ar  888  0.2140535E+02  0.1882569E+02  0.2420072E+02  0.3311555E+02
Ar  889  0.2154383E+02  0.1626722E+02  0.2697043E+02  0.4970114E+02
Ar  890  0.2423195E+02  0.1920775E+02  0.2764412E+02  0.1859683E+03
Ar  891  0.2432819E+02  0.1612298E+02  0.2983518E+02  0.1013800E+03
Ar  892  0.2131396E+02  0.1826207E+02  0.2976044E+02  0.9511367E+02
Ar  893  0.2131098E+02  0.1578097E+02  0.3235677E+02  0.1143512E+03
Ar  894  0.2375688E+02  0.1886927E+02  0.3225254E+02  0.1429988E+03
Ar  895  0.2467941E+02  0.1587021E+02  0.3506938E+02  0.7161950E+02
Ar  896  0.2192287E+02  0.1838314E+02  0.3514167E+02  0.6624543E+02
Ar  897  0.2139493E+02  0.2139493E+02  0.3727045E+02  0.6639129E+02
Ar  898  0.2404546E+02  0.2404546E+02  0.3755903E+02  0.1374462E+03
Ar  899  0.2381342E+02  0.2129265E+02  0.2388247E+01  0.1412289E+03
Ar  900  0.2129265E+02  0.2381342E+02  0.2388247E+01  0.1412290E+03
Ar  901  0.2153640E+02  0.2153640E+02  0.5745689E+01  0.5833218E+03
Ar  902  0.2415371E+02  0.2415371E+02  0.4615975E+01  0.1710785E+03
Ar  903  0.2460590E+02  0.2202627E+02  0.7598328E+01  0.2835568E+03
Ar  904  0.2202627E+02  0.2460590E+02  0.7598328E+01  0.2835573E+03
Ar  905  0.2175792E+02  0.2175792E+02  0.1096737E+02  0.1236135E+03
Ar  906  0.2470619E+02  0.2470619E+02  0.1096730E+02  0.3065304E+03
Ar  907  0.2447954E+02  0.2174436E+02  0.1322565E+02  0.6511751E+02
Ar  908  0.2174436E+02  0.2447954E+02  0.1322565E+02  0.6511749E+02
Ar  909  0.2166459E+02  0.2166459E+02  0.1594981E+02  0.2518160E+03
Ar  910  0.2410198E+02  0.2410198E+02  0.1650897E+02  0.6556000E+03
Ar  911  0.2420072E+02  0.2140535E+02  0.1882569E+02  0.3311532E+02
Ar  912  0.2140535E+02  0.2420072E+02  0.1882569E+02  0.3311538E+02
Ar  913  0.2120555E+02  0.2120555E+02  0.2120555E+02  0.1383256E+04
Ar  914  0.2434885E+02  0.2434885E+02  0.2119245E+02  0.7287012E+02
Ar  915  0.2434885E+02  0.2119245E+02  0.2434885E+02  0.7286977E+02
Ar  916  0.2119245E+02  0.2434885E+02  0.2434885E+02  0.7286991E+02
Ar  917  0.2119002E+02  0.2119002E+02  0.2701588E+02  0.2709471E+03
Ar  918  0.2394832E+02  0.2394832E+02  0.2689159E+02  0.1552746E+03
Ar  919  0.2443043E+02  0.2205479E+02  0.2990189E+02  0.4538535E+02
Ar  920  0.2205479E+02  0.2443043E+02  0.2990189E+02  0.4538535E+02
Ar  921  0.2092929E+02  0.2092929E+02  0.3252729E+02  0.4814480E+00
Ar  922  0.2452115E+02  0.2452115E+02  0.3237466E+02  0.2590506E+03
Ar  923  0.2412565E+02  0.2152219E+02  0.3492450E+02  0.1164527E+03
Ar  924  0.2152219E+02  0.2412565E+02  0.3492450E+02  0.1164528E+03
Ar  925  0.2162153E+02  0.2660972E+02  0.3768498E+02  0.5318337E+02
Ar  926  0.2454040E+02  0.2998339E+02  0.3777863E+02  0.7111367E+02
Ar  927  0.2440212E+02  0.2696830E+02  0.2278885E+01  0.1343645E+02
Ar  928  0.2173705E+02  0.2966731E+02  0.2338974E+01  0.7699664E+02
Ar  929  0.2213466E+02  0.2694240E+02  0.4989450E+01  0.5234833E+03
Ar  930  0.2445211E+02  0.3006546E+02  0.5111441E+01  0.2609077E+02
Ar  931  0.2461011E+02  0.2745542E+02  0.7894629E+01  0.1131688E+03
Ar  932  0.2163619E+02  0.2946720E+02  0.7520864E+01  0.3844623E+02
Ar  933  0.2178745E+02  0.2714535E+02  0.1038392E+02  0.2449211E+03
Ar  934  0.2471336E+02  0.2975509E+02  0.1092766E+02  0.1354777E+03
Ar  935  0.2448763E+02  0.2710373E+02  0.1368034E+02  0.1733626E+03
Ar  936  0.2152115E+02  0.2917894E+02  0.1333596E+02  0.3225094E+02
Ar  937  0.2154383E+02  0.2697043E+02  0.1626722E+02  0.4970100E+02
Ar  938  0.2432819E+02  0.2983518E+02  0.1612298E+02  0.1013802E+03
Ar  939  0.2423195E+02  0.2764412E+02  0.1920775E+02  0.1859684E+03
Ar  940  0.2131396E+02  0.2976043E+02  0.1826207E+02  0.9511377E+02
Ar  941  0.2119002E+02  0.2701588E+02  0.2119002E+02  0.2709469E+03
Ar  942  0.2443043E+02  0.2990189E+02  0.2205479E+02  0.4538537E+02
Ar  943  0.2394832E+02  0.2689159E+02  0.2394832E+02  0.1552746E+03
Ar  944  0.2205479E+02  0.2990189E+02  0.2443043E+02  0.4538539E+02
Ar  945  0.2131225E+02  0.2725761E+02  0.2725761E+02  0.4751197E+02
Ar  946  0.2456368E+02  0.2993512E+02  0.2723000E+02  0.2095137E+03
Ar  947  0.2456368E+02  0.2723000E+02  0.2993511E+02  0.2095140E+03
Ar  948  0.2204840E+02  0.2980648E+02  0.2980648E+02  0.1674767E+03
Ar  949  0.2170994E+02  0.2693518E+02  0.3264276E+02  0.2392680E+03
Ar  950  0.2429297E+02  0.2983142E+02  0.3284358E+02  0.4913099E+02
Ar  951  0.2430731E+02  0.2697538E+02  0.3541560E+02  0.3831505E+03
Ar  952  0.2145565E+02  0.2949353E+02  0.3532005E+02  0.3850766E+02
Ar  953  0.2205798E+02  0.3260885E+02  0.1580550E+00  0.9584883E+02
Ar  954  0.2445538E+02  0.3543089E+02  0.1034001E+00  0.3435891E+03
Ar  955  0.2468414E+02  0.3260406E+02  0.2549452E+01  0.4619101E+03
Ar  956  0.2152076E+02  0.3523440E+02  0.2686795E+01  0.1240330E+03
Ar  957  0.2166470E+02  0.3245444E+02  0.4533955E+01  0.6165847E+02
Ar  958  0.2409068E+02  0.3510152E+02  0.5387105E+01  0.1227474E+03
Ar  959  0.2407436E+02  0.3259986E+02  0.8071235E+01  0.1108401E+03
Ar  960  0.2195924E+02  0.3519114E+02  0.8614682E+01  0.9050319E+02
Ar  961  0.2192857E+02  0.3257716E+02  0.1115311E+02  0.8423373E+02
Ar  962  0.2433230E+02  0.3551324E+02  0.1127707E+02  0.1684714E+03
Ar  963  0.2439945E+02  0.3256699E+02  0.1330745E+02  0.1149124E+03
Ar  964  0.2121226E+02  0.3507958E+02  0.1325268E+02  0.2232518E+03
Ar  965  0.2131098E+02  0.3235677E+02  0.1578097E+02  0.1143513E+03
Ar  966  0.2467941E+02  0.3506938E+02  0.1587021E+02  0.7161982E+02
Ar  967  0.2375688E+02  0.3225254E+02  0.1886927E+02  0.1429987E+03
Ar  968  0.2192287E+02  0.3514167E+02  0.1838314E+02  0.6624531E+02
Ar  969  0.2092929E+02  0.3252729E+02  0.2092929E+02  0.4814692E+00
Ar  970  0.2412565E+02  0.3492450E+02  0.2152219E+02  0.1164526E+03
Ar  971  0.2452115E+02  0.3237466E+02  0.2452115E+02  0.2590503E+03
Ar  972  0.2152219E+02  0.3492450E+02  0.2412565E+02  0.1164528E+03
Ar  973  0.2170994E+02  0.3264276E+02  0.2693519E+02  0.2392681E+03
Ar  974  0.2430731E+02  0.3541560E+02  0.2697537E+02  0.3831505E+03
Ar  975  0.2429297E+02  0.3284358E+02  0.2983142E+02  0.4913102E+02
Ar  976  0.2145565E+02  0.3532005E+02  0.2949353E+02  0.3850761E+02
Ar  977  0.2173623E+02  0.3235925E+02  0.3235925E+02  0.1736064E+02
Ar  978  0.2468850E+02  0.3505611E+02  0.3251289E+02  0.4124525E+02
Ar  979  0.2468850E+02  0.3251289E+02  0.3505611E+02  0.4124517E+02
Ar  980  0.2203971E+02  0.3507177E+02  0.3507177E+02  0.2001432E+03
Ar  981  0.2709897E+02  0.7766741E-01  0.7766757E-01  0.6947431E+03
Ar  982  0.2939879E+02  0.2928181E+01  0.1494253E+00  0.3750550E+03
Ar  983  0.2939879E+02  0.1494252E+00  0.2928181E+01  0.3750554E+03
Ar  984  0.2690970E+02  0.3046487E+01  0.3046486E+01  0.1149674E+03
Ar  985  0.2665236E+02  0.3895476E+00  0.5766363E+01  0.2169318E+03
Ar  986  0.2927820E+02  0.2862856E+01  0.5469222E+01  0.9280683E+02
Ar  987  0.2938646E+02  0.8652875E-01  0.7788800E+01  0.4792013E+03
Ar  988  0.2660452E+02  0.3116015E+01  0.7885396E+01  0.3130859E+03
Ar  989  0.2690248E+02  0.1376866E+00  0.1094846E+02  0.1221156E+03
Ar  990  0.2918788E+02  0.2607673E+01  0.1034100E+02  0.1001133E+03
Ar  991  0.2949531E+02  0.1186553E+00  0.1381491E+02  0.1766057E+02
Ar  992  0.2680194E+02  0.2538402E+01  0.1344402E+02  0.2483331E+03
Ar  993  0.2676907E+02  0.9091870E-01  0.1646786E+02  0.8749160E+02
Ar  994  0.2930026E+02  0.2737628E+01  0.1626130E+02  0.2915320E+03
Ar  995  0.2986630E+02  0.3735484E+02  0.1853461E+02  0.7990689E+02
Ar  996  0.2682960E+02  0.2438977E+01  0.1901702E+02  0.7771528E+02
Ar  997  0.2660972E+02  0.3768498E+02  0.2162153E+02  0.5318326E+02
Ar  998  0.2966731E+02  0.2338974E+01  0.2173705E+02  0.7699683E+02
Ar  999  0.2998339E+02  0.3777863E+02  0.2454040E+02  0.7111346E+02
Ar 1000  0.2696830E+02  0.2278886E+01  0.2440212E+02  0.1343649E+02
Ar 1001  0.2709726E+02  0.3757183E+02  0.2709726E+02  0.1067251E+03
Ar 1002  0.2960194E+02  0.2609425E+01  0.2698341E+02  0.4270102E+02
Ar 1003  0.2972599E+02  0.3745384E+02  0.2972599E+02  0.4536605E+03
Ar 1004  0.2698341E+02  0.2609425E+01  0.2960194E+02  0.4270096E+02
Ar 1005  0.2678799E+02  0.3768665E+02  0.3280475E+02  0.1991468E+03
Ar 1006  0.2943544E+02  0.2400157E+01  0.3210007E+02  0.2751302E+03
Ar 1007  0.2954993E+02  0.3395840E+00  0.3521059E+02  0.4487607E+02
Ar 1008  0.2705677E+02  0.2731787E+01  0.3539589E+02  0.7962415E+02
Ar 1009  0.2665236E+02  0.5766363E+01  0.3895476E+00  0.2169317E+03
Ar 1010  0.2938646E+02  0.7788801E+01  0.8652922E-01  0.4792020E+03
Ar 1011  0.2927820E+02  0.5469223E+01  0.2862856E+01  0.9280677E+02
Ar 1012  0.2660452E+02  0.7885397E+01  0.3116015E+01  0.3130856E+03
Ar 1013  0.2604605E+02  0.5411874E+01  0.5411874E+01  0.2845786E+03
Ar 1014  0.2935238E+02  0.7918484E+01  0.5500509E+01  0.4607282E+02
Ar 1015  0.2935238E+02  0.5500509E+01  0.7918484E+01  0.4607315E+02
Ar 1016  0.2693017E+02  0.7889230E+01  0.7889230E+01  0.1129376E+03
Ar 1017  0.2679262E+02  0.5137247E+01  0.1076291E+02  0.4330668E+03
Ar 1018  0.2925690E+02  0.8228555E+01  0.1081548E+02  0.4010858E+02
Ar 1019  0.2906690E+02  0.4918340E+01  0.1350111E+02  0.2542144E+03
Ar 1020  0.2705700E+02  0.7802525E+01  0.1348968E+02  0.2487973E+02
Ar 1021  0.2680126E+02  0.5273223E+01  0.1648051E+02  0.2251184E+03
Ar 1022  0.2949205E+02  0.8165668E+01  0.1615927E+02  0.2268326E+03
Ar 1023  0.2979950E+02  0.4833537E+01  0.1949486E+02  0.6014427E+02
Ar 1024  0.2663934E+02  0.8279805E+01  0.1876318E+02  0.1037637E+03
Ar 1025  0.2694240E+02  0.4989450E+01  0.2213466E+02  0.5234839E+03
Ar 1026  0.2946720E+02  0.7520864E+01  0.2163619E+02  0.3844635E+02
Ar 1027  0.3006546E+02  0.5111441E+01  0.2445211E+02  0.2609098E+02
Ar 1028  0.2745541E+02  0.7894629E+01  0.2461011E+02  0.1131693E+03
Ar 1029  0.2692904E+02  0.4880772E+01  0.2692904E+02  0.2276354E+03
Ar 1030  0.2999651E+02  0.7913265E+01  0.2696813E+02  0.1404173E+02
Ar 1031  0.2936896E+02  0.5767226E+01  0.2936896E+02  0.1183172E+03
Ar 1032  0.2696813E+02  0.7913265E+01  0.2999651E+02  0.1404165E+02
Ar 1033  0.2696117E+02  0.5151284E+01  0.3248479E+02  0.1407493E+03
Ar 1034  0.2960891E+02  0.7648806E+01  0.3242092E+02  0.4105319E+03
Ar 1035  0.2938359E+02  0.5539655E+01  0.3539876E+02  0.8635420E+02
Ar 1036  0.2689162E+02  0.8010194E+01  0.3523550E+02  0.9084899E+02
Ar 1037  0.2690248E+02  0.1094846E+02  0.1376869E+00  0.1221154E+03
Ar 1038  0.2949531E+02  0.1381491E+02  0.1186552E+00  0.1766039E+02
Ar 1039  0.2918788E+02  0.1034100E+02  0.2607673E+01  0.1001135E+03
Ar 1040  0.2680194E+02  0.1344402E+02  0.2538402E+01  0.2483332E+03
Ar 1041  0.2679262E+02  0.1076291E+02  0.5137247E+01  0.4330654E+03
Ar 1042  0.2906690E+02  0.1350111E+02  0.4918340E+01  0.2542147E+03
Ar 1043  0.2925690E+02  0.1081548E+02  0.8228555E+01  0.4010888E+02
Ar 1044  0.2705700E+02  0.1348968E+02  0.7802524E+01  0.2487979E+02
Ar 1045  0.2722542E+02  0.1077673E+02  0.1077673E+02  0.6628197E+03
Ar 1046  0.2968330E+02  0.1332053E+02  0.1043714E+02  0.1322398E+03
Ar 1047  0.2968330E+02  0.1043714E+02  0.1332053E+02  0.1322399E+03
Ar 1048  0.2660376E+02  0.1312705E+02  0.1312705E+02  0.1250402E+03
Ar 1049  0.2698106E+02  0.1066512E+02  0.1573145E+02  0.4489291E+02
Ar 1050  0.2995121E+02  0.1285601E+02  0.1568311E+02  0.7573221E+02
Ar 1051  0.2969659E+02  0.1024945E+02  0.1923172E+02  0.8466060E+02
Ar 1052  0.2749902E+02  0.1312478E+02  0.1866388E+02  0.6598012E+02
Ar 1053  0.2714535E+02  0.1038392E+02  0.2178745E+02  0.2449210E+03
Ar 1054  0.2917894E+02  0.1333596E+02  0.2152115E+02  0.3225097E+02
Ar 1055  0.2975509E+02  0.1092766E+02  0.2471336E+02  0.1354775E+03
Ar 1056  0.2710373E+02  0.1368034E+02  0.2448763E+02  0.1733624E+03
Ar 1057  0.2723030E+02  0.1104989E+02  0.2723030E+02  0.1035537E+03
Ar 1058  0.2955115E+02  0.1401844E+02  0.2723005E+02  0.2177749E+03
Ar 1059  0.2945498E+02  0.1027020E+02  0.2945498E+02  0.3185897E+03
Ar 1060  0.2723005E+02  0.1401844E+02  0.2955115E+02  0.2177750E+03
Ar 1061  0.2693423E+02  0.1104009E+02  0.3242217E+02  0.2269966E+03
Ar 1062  0.2973006E+02  0.1309463E+02  0.3228784E+02  0.2714768E+02
Ar 1063  0.2937746E+02  0.1081212E+02  0.3532250E+02  0.1484119E+03
Ar 1064  0.2689465E+02  0.1358255E+02  0.3513682E+02  0.2184481E+03
Ar 1065  0.2676907E+02  0.1646786E+02  0.9091883E-01  0.8749166E+02
Ar 1066  0.2986630E+02  0.1853461E+02  0.3735484E+02  0.7990690E+02
Ar 1067  0.2930026E+02  0.1626130E+02  0.2737628E+01  0.2915315E+03
Ar 1068  0.2682960E+02  0.1901702E+02  0.2438977E+01  0.7771534E+02
Ar 1069  0.2680126E+02  0.1648051E+02  0.5273223E+01  0.2251176E+03
Ar 1070  0.2979950E+02  0.1949486E+02  0.4833537E+01  0.6014484E+02
Ar 1071  0.2949205E+02  0.1615927E+02  0.8165668E+01  0.2268327E+03
Ar 1072  0.2663934E+02  0.1876318E+02  0.8279805E+01  0.1037638E+03
Ar 1073  0.2698106E+02  0.1573145E+02  0.1066512E+02  0.4489293E+02
Ar 1074  0.2969659E+02  0.1923172E+02  0.1024945E+02  0.8466054E+02
Ar 1075  0.2995121E+02  0.1568311E+02  0.1285601E+02  0.7573214E+02
Ar 1076  0.2749902E+02  0.1866388E+02  0.1312478E+02  0.6597996E+02
Ar 1077  0.2787391E+02  0.1564663E+02  0.1564663E+02  0.3688903E+02
Ar 1078  0.3001187E+02  0.1888967E+02  0.1561859E+02  0.2581029E+03
Ar 1079  0.3001187E+02  0.1561859E+02  0.1888967E+02  0.2581025E+03
Ar 1080  0.2714319E+02  0.1869678E+02  0.1869678E+02  0.5532902E+01
Ar 1081  0.2697043E+02  0.1626722E+02  0.2154383E+02  0.4970126E+02
Ar 1082  0.2976044E+02  0.1826207E+02  0.2131396E+02  0.9511366E+02
Ar 1083  0.2983518E+02  0.1612298E+02  0.2432819E+02  0.1013800E+03
Ar 1084  0.2764412E+02  0.1920775E+02  0.2423195E+02  0.1859683E+03
Ar 1085  0.2660032E+02  0.1647365E+02  0.2660032E+02  0.3881916E+03
Ar 1086  0.3023520E+02  0.1938135E+02  0.2702189E+02  0.4044031E+02
Ar 1087  0.2990212E+02  0.1622438E+02  0.2990212E+02  0.2882018E+03
Ar 1088  0.2702189E+02  0.1938135E+02  0.3023520E+02  0.4044021E+02
Ar 1089  0.2721900E+02  0.1600309E+02  0.3233890E+02  0.2148809E+03
Ar 1090  0.3003685E+02  0.1894670E+02  0.3252670E+02  0.8408354E+02
Ar 1091  0.2964064E+02  0.1584622E+02  0.3485942E+02  0.2780709E+03
Ar 1092  0.2685401E+02  0.1907771E+02  0.3472163E+02  0.1533577E+03
Ar 1093  0.2660972E+02  0.2162153E+02  0.3768498E+02  0.5318325E+02
Ar 1094  0.2998339E+02  0.2454040E+02  0.3777863E+02  0.7111371E+02
Ar 1095  0.2966731E+02  0.2173705E+02  0.2338974E+01  0.7699667E+02
Ar 1096  0.2696830E+02  0.2440212E+02  0.2278886E+01  0.1343650E+02
Ar 1097  0.2694240E+02  0.2213466E+02  0.4989450E+01  0.5234833E+03
Ar 1098  0.3006546E+02  0.2445211E+02  0.5111441E+01  0.2609074E+02
Ar 1099  0.2946720E+02  0.2163619E+02  0.7520864E+01  0.3844622E+02
Ar 1100  0.2745542E+02  0.2461011E+02  0.7894630E+01  0.1131689E+03
Ar 1101  0.2714535E+02  0.2178745E+02  0.1038392E+02  0.2449213E+03
Ar 1102  0.2975509E+02  0.2471336E+02  0.1092766E+02  0.1354775E+03
Ar 1103  0.2917894E+02  0.2152115E+02  0.1333596E+02  0.3225102E+02
Ar 1104  0.2710373E+02  0.2448763E+02  0.1368034E+02  0.1733628E+03
Ar 1105  0.2697043E+02  0.2154383E+02  0.1626722E+02  0.4970086E+02
Ar 1106  0.2983518E+02  0.2432819E+02  0.1612298E+02  0.1013799E+03
Ar 1107  0.2976043E+02  0.2131396E+02  0.1826207E+02  0.9511356E+02
Ar 1108  0.2764412E+02  0.2423195E+02  0.1920775E+02  0.1859684E+03
Ar 1109  0.2701588E+02  0.2119002E+02  0.2119002E+02  0.2709470E+03
Ar 1110  0.2990189E+02  0.2443043E+02  0.2205479E+02  0.4538549E+02
Ar 1111  0.2990189E+02  0.2205479E+02  0.2443043E+02  0.4538549E+02
Ar 1112  0.2689159E+02  0.2394832E+02  0.2394832E+02  0.1552742E+03
Ar 1113  0.2725761E+02  0.2131225E+02  0.2725761E+02  0.4751185E+02
Ar 1114  0.2993512E+02  0.2456368E+02  0.2723000E+02  0.2095138E+03
Ar 1115  0.2980648E+02  0.2204840E+02  0.2980648E+02  0.1674767E+03
Ar 1116  0.2723000E+02  0.2456368E+02  0.2993512E+02  0.2095139E+03
Ar 1117  0.2693518E+02  0.2170994E+02  0.3264276E+02  0.2392678E+03
Ar 1118  0.2983142E+02  0.2429297E+02  0.3284358E+02  0.4913086E+02
Ar 1119  0.2949353E+02  0.2145565E+02  0.3532005E+02  0.3850761E+02
Ar 1120  0.2697538E+02  0.2430731E+02  0.3541560E+02  0.3831507E+03
Ar 1121  0.2709726E+02  0.2709726E+02  0.3757183E+02  0.1067263E+03
Ar 1122  0.2972599E+02  0.2972599E+02  0.3745384E+02  0.4536597E+03
Ar 1123  0.2960194E+02  0.2698341E+02  0.2609425E+01  0.4270106E+02
Ar 1124  0.2698341E+02  0.2960194E+02  0.2609425E+01  0.4270103E+02
Ar 1125  0.2692904E+02  0.2692904E+02  0.4880772E+01  0.2276357E+03
Ar 1126  0.2936896E+02  0.2936896E+02  0.5767225E+01  0.1183167E+03
Ar 1127  0.2999651E+02  0.2696813E+02  0.7913265E+01  0.1404181E+02
Ar 1128  0.2696813E+02  0.2999651E+02  0.7913264E+01  0.1404196E+02
Ar 1129  0.2723030E+02  0.2723030E+02  0.1104989E+02  0.1035537E+03
Ar 1130  0.2945498E+02  0.2945498E+02  0.1027020E+02  0.3185897E+03
Ar 1131  0.2955115E+02  0.2723005E+02  0.1401844E+02  0.2177753E+03
Ar 1132  0.2723005E+02  0.2955115E+02  0.1401844E+02  0.2177752E+03
Ar 1133  0.2660032E+02  0.2660032E+02  0.1647365E+02  0.3881918E+03
Ar 1134  0.2990212E+02  0.2990212E+02  0.1622438E+02  0.2882013E+03
Ar 1135  0.3023520E+02  0.2702189E+02  0.1938135E+02  0.4044016E+02
Ar 1136  0.2702189E+02  0.3023520E+02  0.1938135E+02  0.4044032E+02
Ar 1137  0.2725761E+02  0.2725761E+02  0.2131225E+02  0.4751198E+02
Ar 1138  0.2980648E+02  0.2980648E+02  0.2204840E+02  0.1674766E+03
Ar 1139  0.2993512E+02  0.2723000E+02  0.2456368E+02  0.2095140E+03
Ar 1140  0.2723000E+02  0.2993511E+02  0.2456368E+02  0.2095139E+03
Ar 1141  0.2782507E+02  0.2782507E+02  0.2782507E+02  0.8021202E+02
Ar 1142  0.3030393E+02  0.3030393E+02  0.2679092E+02  0.8379486E+02
Ar 1143  0.3030393E+02  0.2679092E+02  0.3030393E+02  0.8379541E+02
Ar 1144  0.2679092E+02  0.3030393E+02  0.3030393E+02  0.8379572E+02
Ar 1145  0.2701728E+02  0.2701728E+02  0.3254884E+02  0.2277153E+03
Ar 1146  0.2981949E+02  0.2981949E+02  0.3247355E+02  0.2553879E+02
Ar 1147  0.2969138E+02  0.2699475E+02  0.3516132E+02  0.9670734E+02
Ar 1148  0.2699475E+02  0.2969138E+02  0.3516132E+02  0.9670760E+02
Ar 1149  0.2678799E+02  0.3280475E+02  0.3768665E+02  0.1991466E+03
Ar 1150  0.2954993E+02  0.3521059E+02  0.3395841E+00  0.4487628E+02
Ar 1151  0.2943544E+02  0.3210007E+02  0.2400156E+01  0.2751296E+03
Ar 1152  0.2705677E+02  0.3539589E+02  0.2731788E+01  0.7962413E+02
Ar 1153  0.2696117E+02  0.3248479E+02  0.5151284E+01  0.1407492E+03
Ar 1154  0.2938359E+02  0.3539876E+02  0.5539654E+01  0.8635440E+02
Ar 1155  0.2960891E+02  0.3242092E+02  0.7648806E+01  0.4105327E+03
Ar 1156  0.2689162E+02  0.3523550E+02  0.8010194E+01  0.9084902E+02
Ar 1157  0.2693423E+02  0.3242217E+02  0.1104009E+02  0.2269963E+03
Ar 1158  0.2937746E+02  0.3532249E+02  0.1081213E+02  0.1484116E+03
Ar 1159  0.2973006E+02  0.3228784E+02  0.1309463E+02  0.2714756E+02
Ar 1160  0.2689465E+02  0.3513682E+02  0.1358255E+02  0.2184486E+03
Ar 1161  0.2721900E+02  0.3233890E+02  0.1600309E+02  0.2148808E+03
Ar 1162  0.2964064E+02  0.3485942E+02  0.1584622E+02  0.2780711E+03
Ar 1163  0.3003686E+02  0.3252670E+02  0.1894670E+02  0.8408381E+02
Ar 1164  0.2685401E+02  0.3472163E+02  0.1907771E+02  0.1533574E+03
Ar 1165  0.2693519E+02  0.3264275E+02  0.2170994E+02  0.2392680E+03
Ar 1166  0.2949353E+02  0.3532005E+02  0.2145565E+02  0.3850732E+02
Ar 1167  0.2983142E+02  0.3284358E+02  0.2429297E+02  0.4913075E+02
Ar 1168  0.2697537E+02  0.3541560E+02  0.2430731E+02  0.3831505E+03
Ar 1169  0.2701728E+02  0.3254884E+02  0.2701728E+02  0.2277159E+03
Ar 1170  0.2969138E+02  0.3516132E+02  0.2699475E+02  0.9670735E+02
Ar 1171  0.2981948E+02  0.3247355E+02  0.2981949E+02  0.2553870E+02
Ar 1172  0.2699475E+02  0.3516132E+02  0.2969138E+02  0.9670753E+02
Ar 1173  0.2731606E+02  0.3260052E+02  0.3260052E+02  0.2357090E+03
Ar 1174  0.2983009E+02  0.3523365E+02  0.3245395E+02  0.6651356E+02
Ar 1175  0.2983009E+02  0.3245395E+02  0.3523365E+02  0.6651324E+02
Ar 1176  0.2738051E+02  0.3554192E+02  0.3554192E+02  0.3148809E+02
Ar 1177  0.3237133E+02  0.1604101E-03  0.1595726E-03  0.3269531E+03
Ar 1178  0.3502066E+02  0.3208861E+01  0.4971114E-01  0.1328541E+03
Ar 1179  0.3502066E+02  0.4971034E-01  0.3208861E+01  0.1328539E+03
Ar 1180  0.3191999E+02  0.2999014E+01  0.2999014E+01  0.1680543E+02
Ar 1181  0.3209951E+02  0.1712594E+00  0.5318522E+01  0.1137065E+03
Ar 1182  0.3503660E+02  0.3148591E+01  0.5726582E+01  0.3260652E+03
Ar 1183  0.3485424E+02  0.3919571E-01  0.7943073E+01  0.9143355E+02
Ar 1184  0.3210959E+02  0.2630070E+01  0.8036488E+01  0.9075743E+02
Ar 1185  0.3191353E+02  0.6658647E-01  0.1081713E+02  0.1421240E+03
Ar 1186  0.3476372E+02  0.3328830E+01  0.1092763E+02  0.1303443E+03
Ar 1187  0.3497604E+02  0.3771151E+02  0.1217222E+02  0.8707928E+02
Ar 1188  0.3183758E+02  0.3032736E+01  0.1394743E+02  0.1588634E+03
Ar 1189  0.3283205E+02  0.5780535E-01  0.1602746E+02  0.3651011E+02
Ar 1190  0.3480582E+02  0.2977183E+01  0.1613516E+02  0.6449565E+02
Ar 1191  0.3513870E+02  0.3774711E+02  0.1926466E+02  0.4596427E+02
Ar 1192  0.3240142E+02  0.2637768E+01  0.1887266E+02  0.4586175E+03
Ar 1193  0.3260885E+02  0.1580548E+00  0.2205798E+02  0.9584883E+02
Ar 1194  0.3523440E+02  0.2686795E+01  0.2152076E+02  0.1240333E+03
Ar 1195  0.3543089E+02  0.1034001E+00  0.2445538E+02  0.3435890E+03
Ar 1196  0.3260406E+02  0.2549452E+01  0.2468414E+02  0.4619099E+03
Ar 1197  0.3280475E+02  0.3768665E+02  0.2678799E+02  0.1991467E+03
Ar 1198  0.3539589E+02  0.2731787E+01  0.2705676E+02  0.7962387E+02
Ar 1199  0.3521059E+02  0.3395846E+00  0.2954993E+02  0.4487649E+02
Ar 1200  0.3210007E+02  0.2400157E+01  0.2943544E+02  0.2751300E+03
Ar 1201  0.3291695E+02  0.1680120E+00  0.3291695E+02  0.1695617E+03
Ar 1202  0.3486996E+02  0.3057923E+01  0.3210785E+02  0.1356913E+03
Ar 1203  0.3517691E+02  0.7708512E+00  0.3517691E+02  0.4442352E+03
Ar 1204  0.3210785E+02  0.3057924E+01  0.3486996E+02  0.1356914E+03
Ar 1205  0.3209951E+02  0.5318523E+01  0.1712595E+00  0.1137067E+03
Ar 1206  0.3485424E+02  0.7943074E+01  0.3919561E-01  0.9143369E+02
Ar 1207  0.3503661E+02  0.5726583E+01  0.3148591E+01  0.3260653E+03
Ar 1208  0.3210959E+02  0.8036487E+01  0.2630071E+01  0.9075727E+02
Ar 1209  0.3185055E+02  0.5438770E+01  0.5438770E+01  0.7429318E+02
Ar 1210  0.3482408E+02  0.8288382E+01  0.5486326E+01  0.1988091E+03
Ar 1211  0.3482408E+02  0.5486327E+01  0.8288381E+01  0.1988088E+03
Ar 1212  0.3183937E+02  0.7937505E+01  0.7937506E+01  0.7360665E+02
Ar 1213  0.3168034E+02  0.5216580E+01  0.1084451E+02  0.1895246E+03
Ar 1214  0.3470354E+02  0.7541845E+01  0.1156048E+02  0.7507855E+02
Ar 1215  0.3560754E+02  0.5132822E+01  0.1346214E+02  0.6554782E+02
Ar 1216  0.3177255E+02  0.7766417E+01  0.1366684E+02  0.1600554E+02
Ar 1217  0.3212488E+02  0.5464064E+01  0.1656098E+02  0.1309390E+03
Ar 1218  0.3531517E+02  0.8126775E+01  0.1552002E+02  0.1111061E+03
Ar 1219  0.3505709E+02  0.5630805E+01  0.1867083E+02  0.3697878E+02
Ar 1220  0.3237013E+02  0.7573566E+01  0.1951087E+02  0.8384264E+02
Ar 1221  0.3245444E+02  0.4533955E+01  0.2166470E+02  0.6165827E+02
Ar 1222  0.3519114E+02  0.8614682E+01  0.2195924E+02  0.9050357E+02
Ar 1223  0.3510152E+02  0.5387105E+01  0.2409068E+02  0.1227472E+03
Ar 1224  0.3259986E+02  0.8071235E+01  0.2407436E+02  0.1108401E+03
Ar 1225  0.3248479E+02  0.5151284E+01  0.2696117E+02  0.1407493E+03
Ar 1226  0.3523550E+02  0.8010195E+01  0.2689162E+02  0.9084919E+02
Ar 1227  0.3539876E+02  0.5539655E+01  0.2938359E+02  0.8635408E+02
Ar 1228  0.3242092E+02  0.7648806E+01  0.2960891E+02  0.4105314E+03
Ar 1229  0.3204736E+02  0.5334494E+01  0.3204736E+02  0.2219171E+01
Ar 1230  0.3523199E+02  0.7895982E+01  0.3207468E+02  0.1404305E+03
Ar 1231  0.3466461E+02  0.6012256E+01  0.3466461E+02  0.3658778E+02
Ar 1232  0.3207468E+02  0.7895983E+01  0.3523199E+02  0.1404309E+03
Ar 1233  0.3191353E+02  0.1081713E+02  0.6658648E-01  0.1421244E+03
Ar 1234  0.3497604E+02  0.1217222E+02  0.3771151E+02  0.8707884E+02
Ar 1235  0.3476372E+02  0.1092764E+02  0.3328829E+01  0.1303443E+03
Ar 1236  0.3183758E+02  0.1394743E+02  0.3032737E+01  0.1588629E+03
Ar 1237  0.3168034E+02  0.1084451E+02  0.5216580E+01  0.1895241E+03
Ar 1238  0.3560754E+02  0.1346214E+02  0.5132823E+01  0.6554758E+02
Ar 1239  0.3470354E+02  0.1156048E+02  0.7541846E+01  0.7507851E+02
Ar 1240  0.3177255E+02  0.1366684E+02  0.7766417E+01  0.1600541E+02
Ar 1241  0.3196966E+02  0.1056812E+02  0.1056812E+02  0.5333147E+02
Ar 1242  0.3523561E+02  0.1346221E+02  0.1075600E+02  0.1523069E+03
Ar 1243  0.3523561E+02  0.1075600E+02  0.1346221E+02  0.1523062E+03
Ar 1244  0.3210057E+02  0.1288054E+02  0.1288054E+02  0.1156143E+03
Ar 1245  0.3261082E+02  0.1027195E+02  0.1592297E+02  0.1156118E+01
Ar 1246  0.3494142E+02  0.1305017E+02  0.1592788E+02  0.1680461E+03
Ar 1247  0.3475441E+02  0.1052095E+02  0.1862369E+02  0.9085146E+02
Ar 1248  0.3225691E+02  0.1298179E+02  0.1845915E+02  0.1686473E+03
Ar 1249  0.3257716E+02  0.1115311E+02  0.2192857E+02  0.8423354E+02
Ar 1250  0.3507958E+02  0.1325268E+02  0.2121226E+02  0.2232518E+03
Ar 1251  0.3551324E+02  0.1127707E+02  0.2433230E+02  0.1684709E+03
Ar 1252  0.3256699E+02  0.1330745E+02  0.2439945E+02  0.1149125E+03
Ar 1253  0.3242217E+02  0.1104009E+02  0.2693423E+02  0.2269966E+03
Ar 1254  0.3513682E+02  0.1358255E+02  0.2689465E+02  0.2184470E+03
Ar 1255  0.3532249E+02  0.1081213E+02  0.2937746E+02  0.1484118E+03
Ar 1256  0.3228784E+02  0.1309463E+02  0.2973006E+02  0.2714764E+02
Ar 1257  0.3215638E+02  0.1060209E+02  0.3215638E+02  0.5878499E+02
Ar 1258  0.3489887E+02  0.1300514E+02  0.3232439E+02  0.1617240E+03
Ar 1259  0.3464304E+02  0.1029374E+02  0.3464304E+02  0.9937618E+02
Ar 1260  0.3232439E+02  0.1300514E+02  0.3489887E+02  0.1617241E+03
Ar 1261  0.3283205E+02  0.1602746E+02  0.5780554E-01  0.3651010E+02
Ar 1262  0.3513870E+02  0.1926466E+02  0.3774711E+02  0.4596385E+02
Ar 1263  0.3480582E+02  0.1613516E+02  0.2977183E+01  0.6449547E+02
Ar 1264  0.3240142E+02  0.1887266E+02  0.2637768E+01  0.4586179E+03
Ar 1265  0.3212488E+02  0.1656098E+02  0.5464064E+01  0.1309387E+03
Ar 1266  0.3505709E+02  0.1867083E+02  0.5630804E+01  0.3697869E+02
Ar 1267  0.3531517E+02  0.1552002E+02  0.8126776E+01  0.1111055E+03
Ar 1268  0.3237013E+02  0.1951087E+02  0.7573566E+01  0.8384284E+02
Ar 1269  0.3261082E+02  0.1592297E+02  0.1027195E+02  0.1156219E+01
Ar 1270  0.3475441E+02  0.1862369E+02  0.1052095E+02  0.9085146E+02
Ar 1271  0.3494142E+02  0.1592788E+02  0.1305017E+02  0.1680455E+03
Ar 1272  0.3225691E+02  0.1845915E+02  0.1298179E+02  0.1686478E+03
Ar 1273  0.3244488E+02  0.1560924E+02  0.1560924E+02  0.1893740E+02
Ar 1274  0.3509716E+02  0.1889007E+02  0.1593046E+02  0.9634192E+01
Ar 1275  0.3509716E+02  0.1593046E+02  0.1889007E+02  0.9634254E+01
Ar 1276  0.3225802E+02  0.1847146E+02  0.1847146E+02  0.6010646E+03
Ar 1277  0.3235677E+02  0.1578097E+02  0.2131098E+02  0.1143511E+03
Ar 1278  0.3514167E+02  0.1838314E+02  0.2192287E+02  0.6624551E+02
Ar 1279  0.3506938E+02  0.1587021E+02  0.2467941E+02  0.7161889E+02
Ar 1280  0.3225254E+02  0.1886927E+02  0.2375688E+02  0.1429988E+03
Ar 1281  0.3233890E+02  0.1600309E+02  0.2721900E+02  0.2148807E+03
Ar 1282  0.3472163E+02  0.1907771E+02  0.2685401E+02  0.1533579E+03
Ar 1283  0.3485942E+02  0.1584622E+02  0.2964064E+02  0.2780709E+03
Ar 1284  0.3252670E+02  0.1894670E+02  0.3003685E+02  0.8408358E+02
Ar 1285  0.3233100E+02  0.1567796E+02  0.3233100E+02  0.9413530E+02
Ar 1286  0.3552431E+02  0.1905863E+02  0.3266942E+02  0.1099586E+02
Ar 1287  0.3459606E+02  0.1607779E+02  0.3459606E+02  0.1882618E+03
Ar 1288  0.3266942E+02  0.1905863E+02  0.3552431E+02  0.1099593E+02
Ar 1289  0.3260885E+02  0.2205798E+02  0.1580551E+00  0.9584900E+02
Ar 1290  0.3543089E+02  0.2445538E+02  0.1033999E+00  0.3435885E+03
Ar 1291  0.3523440E+02  0.2152075E+02  0.2686795E+01  0.1240329E+03
Ar 1292  0.3260406E+02  0.2468414E+02  0.2549452E+01  0.4619101E+03
Ar 1293  0.3245444E+02  0.2166470E+02  0.4533955E+01  0.6165884E+02
Ar 1294  0.3510152E+02  0.2409068E+02  0.5387104E+01  0.1227472E+03
Ar 1295  0.3519114E+02  0.2195924E+02  0.8614682E+01  0.9050329E+02
Ar 1296  0.3259986E+02  0.2407436E+02  0.8071234E+01  0.1108402E+03
Ar 1297  0.3257716E+02  0.2192857E+02  0.1115311E+02  0.8423363E+02
Ar 1298  0.3551324E+02  0.2433230E+02  0.1127707E+02  0.1684712E+03
Ar 1299  0.3507958E+02  0.2121226E+02  0.1325268E+02  0.2232518E+03
Ar 1300  0.3256699E+02  0.2439945E+02  0.1330745E+02  0.1149126E+03
Ar 1301  0.3235677E+02  0.2131098E+02  0.1578097E+02  0.1143512E+03
Ar 1302  0.3506938E+02  0.2467941E+02  0.1587021E+02  0.7161970E+02
Ar 1303  0.3514167E+02  0.2192287E+02  0.1838314E+02  0.6624555E+02
Ar 1304  0.3225254E+02  0.2375687E+02  0.1886927E+02  0.1429987E+03
Ar 1305  0.3252729E+02  0.2092929E+02  0.2092929E+02  0.4814600E+00
Ar 1306  0.3492450E+02  0.2412565E+02  0.2152219E+02  0.1164527E+03
Ar 1307  0.3492450E+02  0.2152219E+02  0.2412565E+02  0.1164526E+03
Ar 1308  0.3237466E+02  0.2452115E+02  0.2452115E+02  0.2590504E+03
Ar 1309  0.3264276E+02  0.2170994E+02  0.2693518E+02  0.2392676E+03
Ar 1310  0.3541560E+02  0.2430731E+02  0.2697538E+02  0.3831505E+03
Ar 1311  0.3532005E+02  0.2145565E+02  0.2949353E+02  0.3850765E+02
Ar 1312  0.3284358E+02  0.2429297E+02  0.2983142E+02  0.4913089E+02
Ar 1313  0.3235925E+02  0.2173623E+02  0.3235925E+02  0.1736052E+02
Ar 1314  0.3505611E+02  0.2468850E+02  0.3251289E+02  0.4124533E+02
Ar 1315  0.3507177E+02  0.2203971E+02  0.3507177E+02  0.2001432E+03
Ar 1316  0.3251289E+02  0.2468850E+02  0.3505611E+02  0.4124539E+02
Ar 1317  0.3280475E+02  0.2678799E+02  0.3768665E+02  0.1991466E+03
Ar 1318  0.3521059E+02  0.2954993E+02  0.3395842E+00  0.4487648E+02
Ar 1319  0.3539589E+02  0.2705677E+02  0.2731788E+01  0.7962374E+02
Ar 1320  0.3210007E+02  0.2943544E+02  0.2400157E+01  0.2751298E+03
Ar 1321  0.3248479E+02  0.2696117E+02  0.5151284E+01  0.1407492E+03
Ar 1322  0.3539876E+02  0.2938359E+02  0.5539654E+01  0.8635445E+02
Ar 1323  0.3523550E+02  0.2689162E+02  0.8010194E+01  0.9084914E+02
Ar 1324  0.3242092E+02  0.2960891E+02  0.7648806E+01  0.4105325E+03
Ar 1325  0.3242217E+02  0.2693423E+02  0.1104009E+02  0.2269963E+03
Ar 1326  0.3532250E+02  0.2937746E+02  0.1081212E+02  0.1484116E+03
Ar 1327  0.3513682E+02  0.2689465E+02  0.1358255E+02  0.2184483E+03
Ar 1328  0.3228784E+02  0.2973006E+02  0.1309463E+02  0.2714784E+02
Ar 1329  0.3233890E+02  0.2721900E+02  0.1600309E+02  0.2148811E+03
Ar 1330  0.3485942E+02  0.2964064E+02  0.1584622E+02  0.2780709E+03
Ar 1331  0.3472163E+02  0.2685401E+02  0.1907771E+02  0.1533569E+03
Ar 1332  0.3252670E+02  0.3003685E+02  0.1894670E+02  0.8408369E+02
Ar 1333  0.3264276E+02  0.2693518E+02  0.2170994E+02  0.2392680E+03
Ar 1334  0.3532005E+02  0.2949353E+02  0.2145565E+02  0.3850741E+02
Ar 1335  0.3541560E+02  0.2697538E+02  0.2430731E+02  0.3831507E+03
Ar 1336  0.3284358E+02  0.2983142E+02  0.2429297E+02  0.4913082E+02
Ar 1337  0.3254884E+02  0.2701728E+02  0.2701728E+02  0.2277156E+03
Ar 1338  0.3516132E+02  0.2969138E+02  0.2699475E+02  0.9670736E+02
Ar 1339  0.3516132E+02  0.2699475E+02  0.2969138E+02  0.9670757E+02
Ar 1340  0.3247355E+02  0.2981948E+02  0.2981949E+02  0.2553878E+02
Ar 1341  0.3260053E+02  0.2731606E+02  0.3260052E+02  0.2357099E+03
Ar 1342  0.3523365E+02  0.2983009E+02  0.3245395E+02  0.6651308E+02
Ar 1343  0.3554192E+02  0.2738051E+02  0.3554192E+02  0.3148825E+02
Ar 1344  0.3245395E+02  0.2983009E+02  0.3523365E+02  0.6651311E+02
Ar 1345  0.3291695E+02  0.3291695E+02  0.1680118E+00  0.1695616E+03
Ar 1346  0.3517691E+02  0.3517691E+02  0.7708501E+00  0.4442352E+03
Ar 1347  0.3486996E+02  0.3210785E+02  0.3057923E+01  0.1356908E+03
Ar 1348  0.3210785E+02  0.3486996E+02  0.3057923E+01  0.1356909E+03
Ar 1349  0.3204736E+02  0.3204736E+02  0.5334493E+01  0.2219277E+01
Ar 1350  0.3466461E+02  0.3466461E+02  0.6012256E+01  0.3658764E+02
Ar 1351  0.3523199E+02  0.3207468E+02  0.7895983E+01  0.1404308E+03
Ar 1352  0.3207468E+02  0.3523199E+02  0.7895983E+01  0.1404304E+03
Ar 1353  0.3215638E+02  0.3215638E+02  0.1060209E+02  0.5878514E+02
Ar 1354  0.3464304E+02  0.3464304E+02  0.1029374E+02  0.9937634E+02
Ar 1355  0.3489887E+02  0.3232439E+02  0.1300514E+02  0.1617241E+03
Ar 1356  0.3232439E+02  0.3489887E+02  0.1300514E+02  0.1617242E+03
Ar 1357  0.3233100E+02  0.3233100E+02  0.1567796E+02  0.9413488E+02
Ar 1358  0.3459606E+02  0.3459606E+02  0.1607778E+02  0.1882614E+03
Ar 1359  0.3552431E+02  0.3266942E+02  0.1905863E+02  0.1099587E+02
Ar 1360  0.3266942E+02  0.3552431E+02  0.1905863E+02  0.1099582E+02
Ar 1361  0.3235925E+02  0.3235925E+02  0.2173623E+02  0.1736048E+02
Ar 1362  0.3507177E+02  0.3507177E+02  0.2203971E+02  0.2001434E+03
Ar 1363  0.3505611E+02  0.3251289E+02  0.2468850E+02  0.4124504E+02
Ar 1364  0.3251289E+02  0.3505611E+02  0.2468850E+02  0.4124535E+02
Ar 1365  0.3260052E+02  0.3260052E+02  0.2731606E+02  0.2357104E+03
Ar 1366  0.3554192E+02  0.3554192E+02  0.2738051E+02  0.3148817E+02
Ar 1367  0.3523365E+02  0.3245395E+02  0.2983009E+02  0.6651328E+02
Ar 1368  0.3245395E+02  0.3523365E+02  0.2983008E+02  0.6651378E+02
Ar 1369  0.3247845E+02  0.3247845E+02  0.3247845E+02  0.2551313E+03
Ar 1370  0.3524414E+02  0.3524414E+02  0.3198344E+02  0.2572240E+03
Ar 1371  0.3524414E+02  0.3198344E+02  0.3524414E+02  0.2572238E+03
Ar 1372  0.3198344E+02  0.3524414E+02  0.3524414E+02  0.2572241E+03
