        1372
Lattice="  0.3778015E+02  0.0000000E+00  0.0000000E+00  0.0000000E+00  0.3778015E+02  0.0000000E+00  0.0000000E+00  0.0000000E+00  0.3778015E+02" Properties=species:S:1:id:I:1:pos:R:3:tempK:R:1
Ar    1  0.1455986E+01  0.3723901E+02  0.1707589E+01  0.2258261E+03
Ar    2  0.2044169E+01  0.2951251E+01  0.3715157E+00  0.3045406E+03
Ar    3  0.2763831E+01  0.1780744E+01  0.3496473E+01  0.1837916E+03
Ar    4  0.3734501E+02  0.4346373E+01  0.2851942E+01  0.4442226E+03
Ar    5  0.8292087E+00  0.9612635E+00  0.6353511E+01  0.1436255E+03
Ar    6  0.4150732E+01  0.2417202E+01  0.7012565E+01  0.2090924E+03
Ar    7  0.1725909E+01  0.3763200E+02  0.9441438E+01  0.5996783E+03
Ar    8  0.6855890E+00  0.3062021E+01  0.9079218E+01  0.8511001E+03
Ar    9  0.3273992E+02  0.3754221E+02  0.1400633E+02  0.7819042E+03
Ar   10  0.6730274E+01  0.3304229E+01  0.8550378E+01  0.1145676E+03
Ar   11  0.4467659E+01  0.8536703E+00  0.1403021E+02  0.5567126E+02
Ar   12  0.1000564E+01  0.1405925E+01  0.1272826E+02  0.8091070E+02
Ar   13  0.2004958E+00  0.3768108E+02  0.1592049E+02  0.1404087E+03
Ar   14  0.6802974E+01  0.4029190E+01  0.1459601E+02  0.6997618E+03
Ar   15  0.7347560E+01  0.1241230E+01  0.1679060E+02  0.3252331E+03
Ar   16  0.3672218E+02  0.3937826E+01  0.1731042E+02  0.1410107E+04
Ar   17  0.1716839E+01  0.5567928E+00  0.2068826E+02  0.8127279E+03
Ar   18  0.3689929E+01  0.1962717E+01  0.1743898E+02  0.2703687E+03
Ar   19  0.3367965E+01  0.3688907E+02  0.2334769E+02  0.4167470E+03
Ar   20  0.6453793E+00  0.1648980E+01  0.2339362E+02  0.2465523E+03
Ar   21  0.1871601E+01  0.2135900E+01  0.2677607E+02  0.4029266E+03
Ar   22  0.5235896E+01  0.2229497E+01  0.2580097E+02  0.3158829E+03
Ar   23  0.2554190E+01  0.3689582E+02  0.2890481E+02  0.2879329E+03
Ar   24  0.1695902E+01  0.2161889E+01  0.3001051E+02  0.4716114E+02
Ar   25  0.9080814E+00  0.3774751E+02  0.3253346E+02  0.3048404E+02
Ar   26  0.2845801E+01  0.4217668E+01  0.3293343E+02  0.5518045E+03
Ar   27  0.3213181E+01  0.9500386E-01  0.3555673E+02  0.2261049E+03
Ar   28  0.6343374E+00  0.2506326E+01  0.3528200E+02  0.2565896E+03
Ar   29  0.3756710E+02  0.5454801E+01  0.3747458E+02  0.9183856E+03
Ar   30  0.2316892E+01  0.8490050E+01  0.5710955E+00  0.6000212E+03
Ar   31  0.4362829E+01  0.5467471E+01  0.1627579E+01  0.4196823E+01
Ar   32  0.3698832E+02  0.8035569E+01  0.2081093E+01  0.1418023E+03
Ar   33  0.2406241E+01  0.4827372E+01  0.5786535E+01  0.2130401E+03
Ar   34  0.1672681E+01  0.7306975E+01  0.3846723E+01  0.9978394E+02
Ar   35  0.4012219E+01  0.5344622E+01  0.8659026E+01  0.8599940E+02
Ar   36  0.1191108E+01  0.6815491E+01  0.8058547E+01  0.6471641E+03
Ar   37  0.9907593E+00  0.5051444E+01  0.1202403E+02  0.3703424E+02
Ar   38  0.2852714E+01  0.8443919E+01  0.1109820E+02  0.3271067E+03
Ar   39  0.4162767E+01  0.4853437E+01  0.1215272E+02  0.4508170E+03
Ar   40  0.3706560E+02  0.8561955E+01  0.1092274E+02  0.8864729E+02
Ar   41  0.1870904E+01  0.4099075E+01  0.1540983E+02  0.3268824E+03
Ar   42  0.2056161E+01  0.7967114E+01  0.1502017E+02  0.7847072E+02
Ar   43  0.3284750E+01  0.4795372E+01  0.1974277E+02  0.1904007E+03
Ar   44  0.3658289E+00  0.6832670E+01  0.1877353E+02  0.4350562E+03
Ar   45  0.3777118E+02  0.3596435E+01  0.2056295E+02  0.2826382E+02
Ar   46  0.1579929E+01  0.6672067E+01  0.2227047E+02  0.5487952E+03
Ar   47  0.3228032E+01  0.3237772E+01  0.2307462E+02  0.6862673E+03
Ar   48  0.5856811E+00  0.1020605E+02  0.2387658E+02  0.8221194E+03
Ar   49  0.3715657E+02  0.4847711E+01  0.2389566E+02  0.2439791E+03
Ar   50  0.5748525E+01  0.6207878E+01  0.2504857E+02  0.8316933E+03
Ar   51  0.2212088E+01  0.5474737E+01  0.2617501E+02  0.7747554E+03
Ar   52  0.1347380E+01  0.8505889E+01  0.2696486E+02  0.1532452E+03
Ar   53  0.3719622E+02  0.5826050E+01  0.3372901E+02  0.1203651E+03
Ar   54  0.1902186E+01  0.8012997E+01  0.3226058E+02  0.1892096E+03
Ar   55  0.3157053E+01  0.5431479E+01  0.3595567E+02  0.5413812E+03
Ar   56  0.2439531E+00  0.8691946E+01  0.3549125E+02  0.1817828E+03
Ar   57  0.1444731E+01  0.1095873E+02  0.2838471E+01  0.1920385E+02
Ar   58  0.1244802E+01  0.1427124E+02  0.3168622E+01  0.2585965E+03
Ar   59  0.3877149E+01  0.1229224E+02  0.5563970E+00  0.2041064E+03
Ar   60  0.1689208E+00  0.1328166E+02  0.6057369E+01  0.5447960E+02
Ar   61  0.3623110E+02  0.1064785E+02  0.4662565E+01  0.5014565E+03
Ar   62  0.3591235E+01  0.1189555E+02  0.4895414E+01  0.9865560E+03
Ar   63  0.7429811E+00  0.9842302E+01  0.6571050E+01  0.1930886E+03
Ar   64  0.3500075E+02  0.1429706E+02  0.6684277E+01  0.1312690E+03
Ar   65  0.3683482E+02  0.1193678E+02  0.8769734E+01  0.2107766E+03
Ar   66  0.1106706E+01  0.1295448E+02  0.1109122E+02  0.9259954E+02
Ar   67  0.3725537E+02  0.1057806E+02  0.1350954E+02  0.2628469E+03
Ar   68  0.3612254E+02  0.1390676E+02  0.1283060E+02  0.3027265E+03
Ar   69  0.1363297E+01  0.1077438E+02  0.1699301E+02  0.6701610E+03
Ar   70  0.1050644E+01  0.1319793E+02  0.1465337E+02  0.1434448E+03
Ar   71  0.2936120E+01  0.1289592E+02  0.1915324E+02  0.4153599E+03
Ar   72  0.3736697E+02  0.1366462E+02  0.1764375E+02  0.2612192E+03
Ar   73  0.3572224E+02  0.1057641E+02  0.2161425E+02  0.3084210E+03
Ar   74  0.1302851E+01  0.9493180E+01  0.2045885E+02  0.2286087E+03
Ar   75  0.3615690E+01  0.1272251E+02  0.2577456E+02  0.2178669E+03
Ar   76  0.3770099E+02  0.1373029E+02  0.2389000E+02  0.1479273E+03
Ar   77  0.6241774E+00  0.1216047E+02  0.2658686E+02  0.1535137E+03
Ar   78  0.5845155E+01  0.1351481E+02  0.2333927E+02  0.6675167E+03
Ar   79  0.2460669E+01  0.1469378E+02  0.2828305E+02  0.4280500E+03
Ar   80  0.3708413E+02  0.1384331E+02  0.3060555E+02  0.1177996E+03
Ar   81  0.4260398E+00  0.1200377E+02  0.3361551E+02  0.2131618E+03
Ar   82  0.5165694E+00  0.1554162E+02  0.3413079E+02  0.1350241E+03
Ar   83  0.3081128E+01  0.1293649E+02  0.3522536E+02  0.1304161E+03
Ar   84  0.3740454E+00  0.1170387E+02  0.3729273E+02  0.1099817E+03
Ar   85  0.2725526E+00  0.1516293E+02  0.2289735E+00  0.1394624E+03
Ar   86  0.3193323E+01  0.1989772E+02  0.1223088E+01  0.2152632E+03
Ar   87  0.8961697E+00  0.1895355E+02  0.3510918E+01  0.5311070E+03
Ar   88  0.3727433E+02  0.2096634E+02  0.1531121E+01  0.9279506E+02
Ar   89  0.3753099E+02  0.1657786E+02  0.5568447E+01  0.1788576E+04
Ar   90  0.2472457E+01  0.1887680E+02  0.7030253E+01  0.9562536E+02
Ar   91  0.3262866E+01  0.1636898E+02  0.9459268E+01  0.7995642E+03
Ar   92  0.3669231E+02  0.1920246E+02  0.7426884E+01  0.6301859E+02
Ar   93  0.3674103E+02  0.1742724E+02  0.1120922E+02  0.3859022E+03
Ar   94  0.1921005E+01  0.1966888E+02  0.1085531E+02  0.2865225E+03
Ar   95  0.2165557E+01  0.1736075E+02  0.1315639E+02  0.2017209E+03
Ar   96  0.3723968E+02  0.2037371E+02  0.1324609E+02  0.1361408E+03
Ar   97  0.3655553E+02  0.1627394E+02  0.1515345E+02  0.2464587E+03
Ar   98  0.2872054E+01  0.2082448E+02  0.1693044E+02  0.4891483E+03
Ar   99  0.1870312E+01  0.1604938E+02  0.1643685E+02  0.1984571E+03
Ar  100  0.3748178E+02  0.1843798E+02  0.1795374E+02  0.1028282E+03
Ar  101  0.2373217E+01  0.1499662E+02  0.2133583E+02  0.3379335E+03
Ar  102  0.1701921E+01  0.1862932E+02  0.2202478E+02  0.3584573E+03
Ar  103  0.2876811E+01  0.1597429E+02  0.2482338E+02  0.6665122E+03
Ar  104  0.3296890E+02  0.1486589E+02  0.2546282E+02  0.1629810E+03
Ar  105  0.3611199E+02  0.1475564E+02  0.2702588E+02  0.6988781E+02
Ar  106  0.5989562E+01  0.1918851E+02  0.3225184E+02  0.3575204E+03
Ar  107  0.2305965E+01  0.1780655E+02  0.3083134E+02  0.1669612E+03
Ar  108  0.3839935E+01  0.1868768E+02  0.2789150E+02  0.2824826E+03
Ar  109  0.3631990E+02  0.1771361E+02  0.3205036E+02  0.7014295E+03
Ar  110  0.3718681E+02  0.1746741E+02  0.2846933E+02  0.7170550E+02
Ar  111  0.2404672E+01  0.1744386E+02  0.3684169E+02  0.2459473E+03
Ar  112  0.3678015E+02  0.1874534E+02  0.3539122E+02  0.1040814E+04
Ar  113  0.3685103E+02  0.2479106E+02  0.9379503E+00  0.2212985E+03
Ar  114  0.2464248E+01  0.2401691E+02  0.3768622E+02  0.6825540E+03
Ar  115  0.1942206E+01  0.2238703E+02  0.3209354E+01  0.1456400E+03
Ar  116  0.8421427E+00  0.2548469E+02  0.4081319E+01  0.4614448E+03
Ar  117  0.3666343E+02  0.2244162E+02  0.4405751E+01  0.1098190E+03
Ar  118  0.3388755E+01  0.2557646E+02  0.6577255E+01  0.2933219E+03
Ar  119  0.7923911E+00  0.2318484E+02  0.7136924E+01  0.2210202E+03
Ar  120  0.3633197E+02  0.2533926E+02  0.1014491E+02  0.9462959E+03
Ar  121  0.3705530E+02  0.2183877E+02  0.9635279E+01  0.2148227E+03
Ar  122  0.3174025E+01  0.2398465E+02  0.9961910E+01  0.3951252E+03
Ar  123  0.3767028E+01  0.2044793E+02  0.1388962E+02  0.2275962E+03
Ar  124  0.1089739E+01  0.2458337E+02  0.1255838E+02  0.2672640E+03
Ar  125  0.3732165E+02  0.2182353E+02  0.1632290E+02  0.5143766E+03
Ar  126  0.3568455E+02  0.2460520E+02  0.1743531E+02  0.1459307E+03
Ar  127  0.3747953E+02  0.2220408E+02  0.1963711E+02  0.1659861E+04
Ar  128  0.3253810E+02  0.2599931E+02  0.1815783E+02  0.1481004E+03
Ar  129  0.3700662E+02  0.2292127E+02  0.2295591E+02  0.3723394E+03
Ar  130  0.2003434E+01  0.2405695E+02  0.2136144E+02  0.5694223E+02
Ar  131  0.3902810E+01  0.1957689E+02  0.2469897E+02  0.3340036E+03
Ar  132  0.1480037E+01  0.2231041E+02  0.2591506E+02  0.4693828E+03
Ar  133  0.3618207E+02  0.1689682E+02  0.2428211E+02  0.5765117E+02
Ar  134  0.4822336E+01  0.2563807E+02  0.2682166E+02  0.2120149E+03
Ar  135  0.3555625E+02  0.2531266E+02  0.3011049E+02  0.2966870E+03
Ar  136  0.1708951E+01  0.2101432E+02  0.2961307E+02  0.1364562E+03
Ar  137  0.2843328E+00  0.2085750E+02  0.3300016E+02  0.3966484E+03
Ar  138  0.3481661E+01  0.2509646E+02  0.3174437E+02  0.3958866E+03
Ar  139  0.2008490E+01  0.2158594E+02  0.3564988E+02  0.1417693E+03
Ar  140  0.9194823E+00  0.2479300E+02  0.3456845E+02  0.4137301E+03
Ar  141  0.1877940E+01  0.2712586E+02  0.1382602E+01  0.2242832E+03
Ar  142  0.2356140E+01  0.3079373E+02  0.7756607E+00  0.3954903E+03
Ar  143  0.3852434E+01  0.2785926E+02  0.4288943E+01  0.5752233E+03
Ar  144  0.7704404E+00  0.3051072E+02  0.3653628E+01  0.5408888E+03
Ar  145  0.3725659E+02  0.2756067E+02  0.6773988E+01  0.3735928E+03
Ar  146  0.2426895E+01  0.2886217E+02  0.7167775E+01  0.2922166E+03
Ar  147  0.1415892E+01  0.2681787E+02  0.9522113E+01  0.1940180E+03
Ar  148  0.3668591E+02  0.2965549E+02  0.9215560E+01  0.1297083E+03
Ar  149  0.3537359E+02  0.2882992E+02  0.1236229E+02  0.6768986E+03
Ar  150  0.9441643E+00  0.2865726E+02  0.1223460E+02  0.4907502E+03
Ar  151  0.2115498E+01  0.2375399E+02  0.1816769E+02  0.4104032E+03
Ar  152  0.3668932E+02  0.3126547E+02  0.1484073E+02  0.7372889E+03
Ar  153  0.3566022E+02  0.2537017E+02  0.1416032E+02  0.1308357E+03
Ar  154  0.1002322E+01  0.2622504E+02  0.1571416E+02  0.2681225E+03
Ar  155  0.4961611E+01  0.2500586E+02  0.2021831E+02  0.7612381E+02
Ar  156  0.3650078E+02  0.2814200E+02  0.1756579E+02  0.6767162E+03
Ar  157  0.3716864E+02  0.2621460E+02  0.2111586E+02  0.6124097E+03
Ar  158  0.2461850E+01  0.2759492E+02  0.2092414E+02  0.2916838E+03
Ar  159  0.1311804E+01  0.2526538E+02  0.2485318E+02  0.3088286E+03
Ar  160  0.3837463E-01  0.2851167E+02  0.2411780E+02  0.1462975E+02
Ar  161  0.3696573E+02  0.2749114E+02  0.2780481E+02  0.5605990E+02
Ar  162  0.1179431E+01  0.3331387E+02  0.2673718E+02  0.1093176E+04
Ar  163  0.1646523E+01  0.2979641E+02  0.2676300E+02  0.1049819E+04
Ar  164  0.7732019E+00  0.3166289E+02  0.2995964E+02  0.2252771E+03
Ar  165  0.1541533E+01  0.2787178E+02  0.3207301E+02  0.1852539E+02
Ar  166  0.2899177E+01  0.2700030E+02  0.2884222E+02  0.2296254E+03
Ar  167  0.2713132E+01  0.2747928E+02  0.3599181E+02  0.2489527E+03
Ar  168  0.5203963E+00  0.3313264E+02  0.3668489E+02  0.8558261E+03
Ar  169  0.7439851E+00  0.3413066E+02  0.2107333E+01  0.2038939E+03
Ar  170  0.4880767E+01  0.3379305E+02  0.1221272E+01  0.5085718E+03
Ar  171  0.3880195E+01  0.3168181E+02  0.3977218E+01  0.3557815E+03
Ar  172  0.3514826E+02  0.3476450E+02  0.1029362E+01  0.4153172E+03
Ar  173  0.8815704E+00  0.3251659E+02  0.6471572E+01  0.1231322E+03
Ar  174  0.3290913E+01  0.3518699E+02  0.7848555E+01  0.4015528E+03
Ar  175  0.2586038E+01  0.3158145E+02  0.9494618E+01  0.2028092E+03
Ar  176  0.3765176E+02  0.3428758E+02  0.8990465E+01  0.2692970E+03
Ar  177  0.3507481E+02  0.3238215E+02  0.1241431E+02  0.2623544E+03
Ar  178  0.7232607E+00  0.3248047E+02  0.1205480E+02  0.1949580E+03
Ar  179  0.2169421E+01  0.3210270E+02  0.1583438E+02  0.6004749E+03
Ar  180  0.3772007E+02  0.3591419E+02  0.1176888E+02  0.1336020E+03
Ar  181  0.3657088E+02  0.3244392E+02  0.1794634E+02  0.5267540E+03
Ar  182  0.4869977E+01  0.3297817E+02  0.1809685E+02  0.3720306E+02
Ar  183  0.1906805E+01  0.2935665E+02  0.1789160E+02  0.1199579E+03
Ar  184  0.1833144E+01  0.3531078E+02  0.1800684E+02  0.1340825E+03
Ar  185  0.2536067E+01  0.3245733E+02  0.2007364E+02  0.7435845E+01
Ar  186  0.3975610E+01  0.3555961E+02  0.2048840E+02  0.1528127E+03
Ar  187  0.1421348E+01  0.3137894E+02  0.2303212E+02  0.4055316E+03
Ar  188  0.1210017E+00  0.3640085E+02  0.2556981E+02  0.5983615E+03
Ar  189  0.3506318E+02  0.3594236E+02  0.2731694E+02  0.8003550E+03
Ar  190  0.4613634E+01  0.3669156E+02  0.2655858E+02  0.3694807E+03
Ar  191  0.3909936E+01  0.3355851E+02  0.3030122E+02  0.4459221E+03
Ar  192  0.3747058E+02  0.3496128E+02  0.2932177E+02  0.2995172E+03
Ar  193  0.6129078E+00  0.3418522E+02  0.3326776E+02  0.2063877E+03
Ar  194  0.4093195E+01  0.3605656E+02  0.3270230E+02  0.2496304E+03
Ar  195  0.2464113E+01  0.3129837E+02  0.3320908E+02  0.2919497E+03
Ar  196  0.3761437E+02  0.3692312E+02  0.3618700E+02  0.1594104E+03
Ar  197  0.4836611E+01  0.3721098E+02  0.9519028E+00  0.5591576E+03
Ar  198  0.8222451E+01  0.2533588E+00  0.7658790E+00  0.1032759E+04
Ar  199  0.8728730E+01  0.3697300E+02  0.3857006E+01  0.3360957E+02
Ar  200  0.6279926E+01  0.1833997E+01  0.3601760E+01  0.6688998E+03
Ar  201  0.6410474E+01  0.5155115E-01  0.8416040E+01  0.2327288E+03
Ar  202  0.9139760E+01  0.5546707E+01  0.6017966E+01  0.1711396E+03
Ar  203  0.9006353E+01  0.3544046E+02  0.7142568E+01  0.6500933E+03
Ar  204  0.1005033E+02  0.1066475E+01  0.7525294E+01  0.1402808E+03
Ar  205  0.3955476E+01  0.1970160E+01  0.1017387E+02  0.2120814E+03
Ar  206  0.1050956E+02  0.4758608E+01  0.8533221E+01  0.6321592E+03
Ar  207  0.1092187E+02  0.3750115E+02  0.1542155E+02  0.5648928E+03
Ar  208  0.8650651E+01  0.1548579E+01  0.1102089E+02  0.1578203E+03
Ar  209  0.3080846E+01  0.3529597E+02  0.1460542E+02  0.4612969E+03
Ar  210  0.1004224E+02  0.1277537E+01  0.1839516E+02  0.1307046E+03
Ar  211  0.7250233E+01  0.3671523E+02  0.1390918E+02  0.1691784E+03
Ar  212  0.4607049E+01  0.5834363E+01  0.1675458E+02  0.9479666E+02
Ar  213  0.5302335E+01  0.1575717E+01  0.2051470E+02  0.2292862E+03
Ar  214  0.6616117E+01  0.4082192E+01  0.1846808E+02  0.4755329E+03
Ar  215  0.7279987E+01  0.3746910E+02  0.2384937E+02  0.9053902E+02
Ar  216  0.7071387E+01  0.3039496E+01  0.2310936E+02  0.6955043E+03
Ar  217  0.7973422E+01  0.6800991E+00  0.2750973E+02  0.8636202E+03
Ar  218  0.8336657E+01  0.2604817E+01  0.3020299E+02  0.3354670E+03
Ar  219  0.8220233E+01  0.3725796E+02  0.3238593E+02  0.3677304E+03
Ar  220  0.4572232E+01  0.3997679E+01  0.2886021E+02  0.3013636E+03
Ar  221  0.5116211E+01  0.9711215E+00  0.3066302E+02  0.1475580E+03
Ar  222  0.8008048E+01  0.4637680E+01  0.3338653E+02  0.2806422E+03
Ar  223  0.9787623E+01  0.2524226E+01  0.3560825E+01  0.2618592E+03
Ar  224  0.5813851E+01  0.1784056E+01  0.3437010E+02  0.1336144E+03
Ar  225  0.5723386E+01  0.2742069E+01  0.3767809E+02  0.4334084E+03
Ar  226  0.6508916E+01  0.5883034E+01  0.3669434E+02  0.3746349E+03
Ar  227  0.7300091E+01  0.4954178E+01  0.3076121E+01  0.4446175E+03
Ar  228  0.4697811E+01  0.8888744E+01  0.2869848E+01  0.3828832E+02
Ar  229  0.5621509E+01  0.6567769E+01  0.5466340E+01  0.3031764E+02
Ar  230  0.9784010E+01  0.8751753E+01  0.4408233E+01  0.6947271E+03
Ar  231  0.7266917E+01  0.8137165E+01  0.7969054E+01  0.1013692E+04
Ar  232  0.4647551E+01  0.9871353E+01  0.7614510E+01  0.6397885E+03
Ar  233  0.7191311E+01  0.1065687E+02  0.1026090E+02  0.2784879E+03
Ar  234  0.9789839E+01  0.8873029E+01  0.1048285E+02  0.3055067E+03
Ar  235  0.8429646E+01  0.5710181E+01  0.1100343E+02  0.4069060E+03
Ar  236  0.7007080E+01  0.1210174E+02  0.1377766E+02  0.4440614E+03
Ar  237  0.5950655E+01  0.7631915E+01  0.1320676E+02  0.1728032E+03
Ar  238  0.6370443E+01  0.1001763E+02  0.1688007E+02  0.4608315E+03
Ar  239  0.7845892E+01  0.7358464E+01  0.1965942E+02  0.4563778E+03
Ar  240  0.3743033E+01  0.8946568E+01  0.1830200E+02  0.4421340E+03
Ar  241  0.4529642E+01  0.7948805E+01  0.2129292E+02  0.6319968E+03
Ar  242  0.7262748E+01  0.9589160E+01  0.2325291E+02  0.1755322E+03
Ar  243  0.8583877E+01  0.6209954E+01  0.2343433E+02  0.2772459E+03
Ar  244  0.4095648E+01  0.9261675E+01  0.2472977E+02  0.6791358E+03
Ar  245  0.8065837E+01  0.3930847E+01  0.2683781E+02  0.3393186E+03
Ar  246  0.6935208E+01  0.8895680E+01  0.2751978E+02  0.3769039E+02
Ar  247  0.7351976E+01  0.5968640E+01  0.2985036E+02  0.2415461E+03
Ar  248  0.4173528E+01  0.8327111E+01  0.2911838E+02  0.5542720E+03
Ar  249  0.5431223E+01  0.6950035E+01  0.3279063E+02  0.7037112E+03
Ar  250  0.8641961E+01  0.7902014E+01  0.3409746E+02  0.3760444E+03
Ar  251  0.9990548E+01  0.7464445E+01  0.3772358E+02  0.7547121E+02
Ar  252  0.4183338E+01  0.9266286E+01  0.3547411E+02  0.8278416E+03
Ar  253  0.6733886E+01  0.9011546E+01  0.2111791E+00  0.4118937E+03
Ar  254  0.8301333E+01  0.1611091E+02  0.2349958E+01  0.1559244E+03
Ar  255  0.7792924E+01  0.1297296E+02  0.1526888E-01  0.2830369E+03
Ar  256  0.5766710E+01  0.1405857E+02  0.3388727E+01  0.2731479E+03
Ar  257  0.7125710E+01  0.1112771E+02  0.4404682E+01  0.6397929E+03
Ar  258  0.9369132E+01  0.1351763E+02  0.4272229E+01  0.1022817E+04
Ar  259  0.9878997E+01  0.1087216E+02  0.7048971E+01  0.1066284E+03
Ar  260  0.6485966E+01  0.1276748E+02  0.7366872E+01  0.5988573E+03
Ar  261  0.4057527E+01  0.1155098E+02  0.1086162E+02  0.9424353E+02
Ar  262  0.6839607E+01  0.1423886E+02  0.1083786E+02  0.9221901E+03
Ar  263  0.8302886E+01  0.1525275E+02  0.1414838E+02  0.6054400E+03
Ar  264  0.3879467E+01  0.1435983E+02  0.1250572E+02  0.2063467E+03
Ar  265  0.3759330E+01  0.1060654E+02  0.1457902E+02  0.8839112E+02
Ar  266  0.4266589E+01  0.1375552E+02  0.1621108E+02  0.4141464E+03
Ar  267  0.6676376E+01  0.1188131E+02  0.2015249E+02  0.5163619E+03
Ar  268  0.5508072E+01  0.1509094E+02  0.1963043E+02  0.3553056E+03
Ar  269  0.3577300E+01  0.1131054E+02  0.2192588E+02  0.1609175E+03
Ar  270  0.8415416E+01  0.1495817E+02  0.2068338E+02  0.2102729E+03
Ar  271  0.6974336E+01  0.1193207E+02  0.2580758E+02  0.2243199E+03
Ar  272  0.4341367E+01  0.1197213E+02  0.2907128E+02  0.1290824E+03
Ar  273  0.1373655E+01  0.1071753E+02  0.3013195E+02  0.2219615E+03
Ar  274  0.1048644E+02  0.1262948E+02  0.2574216E+02  0.2370755E+03
Ar  275  0.7894139E+01  0.9470115E+01  0.3119231E+02  0.1830053E+03
Ar  276  0.2877679E+01  0.1393297E+02  0.3154961E+02  0.4843110E+03
Ar  277  0.4083700E+01  0.1042056E+02  0.3258004E+02  0.5196697E+03
Ar  278  0.7045877E+01  0.1261223E+02  0.3146628E+02  0.6190723E+03
Ar  279  0.6800210E+01  0.1125785E+02  0.3449960E+02  0.7779691E+03
Ar  280  0.5265352E+01  0.1577662E+02  0.3751984E+02  0.4119706E+03
Ar  281  0.3615123E+01  0.1697200E+02  0.2503565E+01  0.6894750E+02
Ar  282  0.6762193E+01  0.1899017E+02  0.1839635E+01  0.4918526E+03
Ar  283  0.6060211E+01  0.1764925E+02  0.4770703E+01  0.3593508E+02
Ar  284  0.4945074E+01  0.2164354E+02  0.3880367E+01  0.1252663E+04
Ar  285  0.3535443E+01  0.1596259E+02  0.5711967E+01  0.4880171E+03
Ar  286  0.7587303E+01  0.2082159E+02  0.5959475E+01  0.2169612E+03
Ar  287  0.5589091E+01  0.1859679E+02  0.7874496E+01  0.2407740E+03
Ar  288  0.5626688E+01  0.2098894E+02  0.1052720E+02  0.4509948E+03
Ar  289  0.2855742E+01  0.1297087E+02  0.8090198E+01  0.1794136E+03
Ar  290  0.8656991E+01  0.1940922E+02  0.8958303E+01  0.7102473E+03
Ar  291  0.9724111E+01  0.1684771E+02  0.1105627E+02  0.4172592E+02
Ar  292  0.5763745E+01  0.1753060E+02  0.1142237E+02  0.7408297E+03
Ar  293  0.5479814E+01  0.1680531E+02  0.1441844E+02  0.3440448E+03
Ar  294  0.9044251E+01  0.1866073E+02  0.1417536E+02  0.3682908E+03
Ar  295  0.7026512E+01  0.1771105E+02  0.1814168E+02  0.2845096E+03
Ar  296  0.3364904E+01  0.1799837E+02  0.1881895E+02  0.4555580E+03
Ar  297  0.5463775E+01  0.1734006E+02  0.2251011E+02  0.5980876E+02
Ar  298  0.8740617E+01  0.1863956E+02  0.2097432E+02  0.4615050E+03
Ar  299  0.8921286E+01  0.1550609E+02  0.2414723E+02  0.1603691E+03
Ar  300  0.7587566E+01  0.1848576E+02  0.2486040E+02  0.6873741E+03
Ar  301  0.6299789E+01  0.1581150E+02  0.2667573E+02  0.1021713E+03
Ar  302  0.7540567E+01  0.1803485E+02  0.2897209E+02  0.9152342E+02
Ar  303  0.4599599E+01  0.1603971E+02  0.3417016E+02  0.2596751E+03
Ar  304  0.5563440E+01  0.1578099E+02  0.3039029E+02  0.4113788E+03
Ar  305  0.2972947E+01  0.1891973E+02  0.3388192E+02  0.8634063E+02
Ar  306  0.9639365E+01  0.1936100E+02  0.3286233E+02  0.1520825E+03
Ar  307  0.8728792E+01  0.1768767E+02  0.3619249E+02  0.1083871E+04
Ar  308  0.5354339E+01  0.1921611E+02  0.3647614E+02  0.5689482E+02
Ar  309  0.5671284E+01  0.2230033E+02  0.1863730E+00  0.9309575E+02
Ar  310  0.7983666E+01  0.2476765E+02  0.3689477E+02  0.8405450E+02
Ar  311  0.8000973E+01  0.2364334E+02  0.2453426E+01  0.2081083E+03
Ar  312  0.4305280E+01  0.2495587E+02  0.2954579E+01  0.2739309E+03
Ar  313  0.4800296E+01  0.2189814E+02  0.7356507E+01  0.3652091E+03
Ar  314  0.6462821E+01  0.2408828E+02  0.5287302E+01  0.5840604E+03
Ar  315  0.8040177E+01  0.2278114E+02  0.8597144E+01  0.6267377E+02
Ar  316  0.5789242E+01  0.2595991E+02  0.9066892E+01  0.3141818E+03
Ar  317  0.5633792E+01  0.2378427E+02  0.1298073E+02  0.6185439E+03
Ar  318  0.8009066E+01  0.2639079E+02  0.1171635E+02  0.2681186E+03
Ar  319  0.8425939E+01  0.2150295E+02  0.1224741E+02  0.2169078E+03
Ar  320  0.3137774E+01  0.2373179E+02  0.1519404E+02  0.3198116E+03
Ar  321  0.6777153E+01  0.2035666E+02  0.1539844E+02  0.3314218E+03
Ar  322  0.8900246E+01  0.2416953E+02  0.1513500E+02  0.7428370E+03
Ar  323  0.8521849E+01  0.2123439E+02  0.1815766E+02  0.4101139E+03
Ar  324  0.6306109E+01  0.2354486E+02  0.1740747E+02  0.7520705E+03
Ar  325  0.4357796E+01  0.2142999E+02  0.2038797E+02  0.7155131E+03
Ar  326  0.8270506E+01  0.2376345E+02  0.2012554E+02  0.6700380E+03
Ar  327  0.6912823E+01  0.2116827E+02  0.2290039E+02  0.2982281E+03
Ar  328  0.4493880E+01  0.2371824E+02  0.2342599E+02  0.9701184E+02
Ar  329  0.5382367E+01  0.2165114E+02  0.2646795E+02  0.2987349E+03
Ar  330  0.7403359E+01  0.2465387E+02  0.2492435E+02  0.1258901E+03
Ar  331  0.7827976E+01  0.2153403E+02  0.3037236E+02  0.1183084E+03
Ar  332  0.1002197E+01  0.2423125E+02  0.2840022E+02  0.2394297E+03
Ar  333  0.4338335E+01  0.2207880E+02  0.3323514E+02  0.9031206E+02
Ar  334  0.4942378E+01  0.2324017E+02  0.2977182E+02  0.4046983E+03
Ar  335  0.7381992E+01  0.2144406E+02  0.3510430E+02  0.6442088E+03
Ar  336  0.4499364E+01  0.2498777E+02  0.3503637E+02  0.1554704E+03
Ar  337  0.5904250E+01  0.2652208E+02  0.5683734E+00  0.3595368E+03
Ar  338  0.9451732E+01  0.3004358E+02  0.2731836E+01  0.3627538E+03
Ar  339  0.8194763E+01  0.2697254E+02  0.3040656E+01  0.2971600E+02
Ar  340  0.5492741E+01  0.2972665E+02  0.1587494E+01  0.4962625E+03
Ar  341  0.7007190E+01  0.2749616E+02  0.5945856E+01  0.4521578E+03
Ar  342  0.8191990E+01  0.2938805E+02  0.9147189E+01  0.6082413E+03
Ar  343  0.9293754E+01  0.2601565E+02  0.8264479E+01  0.8344764E+03
Ar  344  0.5363431E+01  0.2860684E+02  0.1072757E+02  0.6638208E+03
Ar  345  0.3632796E+01  0.2661193E+02  0.1348493E+02  0.4484249E+03
Ar  346  0.7936022E+01  0.2962020E+02  0.1274321E+02  0.3238177E+03
Ar  347  0.6636305E+01  0.2678849E+02  0.1482565E+02  0.2707945E+03
Ar  348  0.5198283E+01  0.2980823E+02  0.1537548E+02  0.1374016E+04
Ar  349  0.4192921E+01  0.2614124E+02  0.1708403E+02  0.7526425E+03
Ar  350  0.8970650E+01  0.2709350E+02  0.1813452E+02  0.5599959E+03
Ar  351  0.7819173E+01  0.2646266E+02  0.2212659E+02  0.2042339E+03
Ar  352  0.5977977E+01  0.2839083E+02  0.1872351E+02  0.3967277E+02
Ar  353  0.4428562E+01  0.2703240E+02  0.2384828E+02  0.2546156E+03
Ar  354  0.9121351E+01  0.2967893E+02  0.2109775E+02  0.1149483E+02
Ar  355  0.9644253E+01  0.2783021E+02  0.2551062E+02  0.3086783E+03
Ar  356  0.4300708E+01  0.3037602E+02  0.2449478E+02  0.1300270E+03
Ar  357  0.6369107E+01  0.2824225E+02  0.2746504E+02  0.8682552E+02
Ar  358  0.8571716E+01  0.3093978E+02  0.2781068E+02  0.1737986E+04
Ar  359  0.6115584E+01  0.2645976E+02  0.3019950E+02  0.1607291E+03
Ar  360  0.4078585E+01  0.3006824E+02  0.3007680E+02  0.1869772E+03
Ar  361  0.5640544E+01  0.2820497E+02  0.3323972E+02  0.4943944E+03
Ar  362  0.8076614E+01  0.2930292E+02  0.3143069E+02  0.1118156E+03
Ar  363  0.6815953E+01  0.2420885E+02  0.3229906E+02  0.6797314E+03
Ar  364  0.4670905E+01  0.3080580E+02  0.3636675E+02  0.3212936E+03
Ar  365  0.3568633E+01  0.3442850E+02  0.3615790E+02  0.2967437E+03
Ar  366  0.8919056E+01  0.3456641E+02  0.1425933E+01  0.5567545E+02
Ar  367  0.7078861E+01  0.3320798E+02  0.3900389E+01  0.2911752E+03
Ar  368  0.5400908E+01  0.3638791E+02  0.4326886E+01  0.2313230E+03
Ar  369  0.5527079E+01  0.3036007E+02  0.7007174E+01  0.3072086E+03
Ar  370  0.6314223E+01  0.3374636E+02  0.7377004E+01  0.3573166E+03
Ar  371  0.6060339E+01  0.3262422E+02  0.1057259E+02  0.1844241E+03
Ar  372  0.4441528E+01  0.3647594E+02  0.1145209E+02  0.5296448E+03
Ar  373  0.3751626E+01  0.3062197E+02  0.1245815E+02  0.1652998E+03
Ar  374  0.8217160E+01  0.3519045E+02  0.1042586E+02  0.6417032E+02
Ar  375  0.9149507E+01  0.3162078E+02  0.1497932E+02  0.2565735E+03
Ar  376  0.6132891E+01  0.3311402E+02  0.1453070E+02  0.2482975E+03
Ar  377  0.8111408E+01  0.3111654E+02  0.1811338E+02  0.4677701E+03
Ar  378  0.8267013E+01  0.3491448E+02  0.1813296E+02  0.7901784E+03
Ar  379  0.1164874E+02  0.3623949E+02  0.1962569E+02  0.2358524E+03
Ar  380  0.5297895E+01  0.3638673E+02  0.1704565E+02  0.3507007E+03
Ar  381  0.5296531E+01  0.3040269E+02  0.2092358E+02  0.3895703E+03
Ar  382  0.7452657E+01  0.3325708E+02  0.2134080E+02  0.4490602E+02
Ar  383  0.7789416E+01  0.3179341E+02  0.2457704E+02  0.4621859E+03
Ar  384  0.4297324E+01  0.3368349E+02  0.2361711E+02  0.1376185E+03
Ar  385  0.4687972E+01  0.3289462E+02  0.2727450E+02  0.1668534E+03
Ar  386  0.7782415E+01  0.3449303E+02  0.2683102E+02  0.1410777E+03
Ar  387  0.7433772E+01  0.3269698E+02  0.3032138E+02  0.1351739E+02
Ar  388  0.6194616E+01  0.3588145E+02  0.2941833E+02  0.3086395E+03
Ar  389  0.6372239E+01  0.3218173E+02  0.3360359E+02  0.2221944E+03
Ar  390  0.1097032E+02  0.3571173E+02  0.3632658E+02  0.2374386E+03
Ar  391  0.7519462E+01  0.3272454E+02  0.3715867E+02  0.5526321E+03
Ar  392  0.6469684E+01  0.3526073E+02  0.3464033E+02  0.5454528E+03
Ar  393  0.1297507E+02  0.1096454E+01  0.4222151E+01  0.5046235E+03
Ar  394  0.1241846E+02  0.4523685E+01  0.3266633E+00  0.8350187E+03
Ar  395  0.1332925E+02  0.3545856E+02  0.3166766E+01  0.6328373E+02
Ar  396  0.8954431E+01  0.3828163E+01  0.3755257E+02  0.2478322E+03
Ar  397  0.1319989E+02  0.6384394E+00  0.9121144E+01  0.4928311E+02
Ar  398  0.1299510E+02  0.3621480E+02  0.6736721E+01  0.3197998E+03
Ar  399  0.1409114E+02  0.3481692E+02  0.9436663E+01  0.2076728E+03
Ar  400  0.1401260E+02  0.4511540E+01  0.9073265E+01  0.5333065E+03
Ar  401  0.1150451E+02  0.3569469E+02  0.1080684E+02  0.8042447E+03
Ar  402  0.1160306E+02  0.4103777E+01  0.1147267E+02  0.3080887E+03
Ar  403  0.1262318E+02  0.7379056E+00  0.1265698E+02  0.5274084E+03
Ar  404  0.9786438E+01  0.2785182E+01  0.1434508E+02  0.3884124E+03
Ar  405  0.1270625E+02  0.2312836E+01  0.1682848E+02  0.6233089E+02
Ar  406  0.1657785E+02  0.2992213E+01  0.1699360E+02  0.8988669E+03
Ar  407  0.1544700E+02  0.3590789E+00  0.1896171E+02  0.4488932E+03
Ar  408  0.9771675E+01  0.4569096E+01  0.1768233E+02  0.5655713E+03
Ar  409  0.9613137E+01  0.1623309E+01  0.2154654E+02  0.1331608E+03
Ar  410  0.1329102E+02  0.2585994E+01  0.2024388E+02  0.1882492E+03
Ar  411  0.1273977E+02  0.3236007E-01  0.2243153E+02  0.7486148E+03
Ar  412  0.1047546E+02  0.2535649E+01  0.2467097E+02  0.2968300E+03
Ar  413  0.1057967E+02  0.3662416E+02  0.2545998E+02  0.2161951E+03
Ar  414  0.1287712E+02  0.2665526E+01  0.2687160E+02  0.7512396E+02
Ar  415  0.1114343E+02  0.6878383E+00  0.2952124E+02  0.1978607E+03
Ar  416  0.1113231E+02  0.2926181E+01  0.3296342E+02  0.2984221E+03
Ar  417  0.1181610E+02  0.3722756E+02  0.3319724E+02  0.9074884E+03
Ar  418  0.1768226E+02  0.1751042E+01  0.3512761E+02  0.4897617E+03
Ar  419  0.1336213E+02  0.1741311E+01  0.3562692E+02  0.9082494E+03
Ar  420  0.9407072E+01  0.1177933E+01  0.3548320E+02  0.9190398E+02
Ar  421  0.1051392E+02  0.5586596E+01  0.2990819E+01  0.1180923E+03
Ar  422  0.1403247E+02  0.7658421E+01  0.3652028E+02  0.2979889E+03
Ar  423  0.1217385E+02  0.4415728E+01  0.5407162E+01  0.2248369E+03
Ar  424  0.9430142E+01  0.1086424E+02  0.1592798E+01  0.4497578E+03
Ar  425  0.1406511E+02  0.6696512E+01  0.3290307E+01  0.3355684E+03
Ar  426  0.1669498E+02  0.5216761E+01  0.5389188E+01  0.3238154E+03
Ar  427  0.1564825E+02  0.2205338E+01  0.7018855E+01  0.5365690E+03
Ar  428  0.1294003E+02  0.7827827E+01  0.6533997E+01  0.8438788E+02
Ar  429  0.1099579E+02  0.5828535E+01  0.1417667E+02  0.3229894E+03
Ar  430  0.1280536E+02  0.7003952E+01  0.1095303E+02  0.2011429E+03
Ar  431  0.1376056E+02  0.5232157E+01  0.1804891E+02  0.5949927E+03
Ar  432  0.9052938E+01  0.9247897E+01  0.1356236E+02  0.9844458E+01
Ar  433  0.8305905E+01  0.7190466E+01  0.1617507E+02  0.1714827E+04
Ar  434  0.1383983E+02  0.7949348E+01  0.1491226E+02  0.9984319E+03
Ar  435  0.1140503E+02  0.7410809E+01  0.1765831E+02  0.2860422E+03
Ar  436  0.9526848E+01  0.1013486E+02  0.1897642E+02  0.3111611E+03
Ar  437  0.1057658E+02  0.5484816E+01  0.2056834E+02  0.2654134E+03
Ar  438  0.1075637E+02  0.8716409E+01  0.2237874E+02  0.1406364E+03
Ar  439  0.1202465E+02  0.5950749E+01  0.2488975E+02  0.1715957E+03
Ar  440  0.1008319E+02  0.9078164E+01  0.2593358E+02  0.5349347E+03
Ar  441  0.1068835E+02  0.5023277E+01  0.2851904E+02  0.8545351E+02
Ar  442  0.1283185E+02  0.8050750E+01  0.2813637E+02  0.3173009E+03
Ar  443  0.1340078E+02  0.4496247E+01  0.3046252E+02  0.9671400E+02
Ar  444  0.1018153E+02  0.1047009E+02  0.2922219E+02  0.2543028E+03
Ar  445  0.1081354E+02  0.7611890E+01  0.3096769E+02  0.6394016E+02
Ar  446  0.1248784E+02  0.8914565E+01  0.3373009E+02  0.1353018E+03
Ar  447  0.1151192E+02  0.5817963E+01  0.3454494E+02  0.1768740E+03
Ar  448  0.1005435E+02  0.1072817E+02  0.3607505E+02  0.9795950E+03
Ar  449  0.1134346E+02  0.1385905E+02  0.1386535E+01  0.7162778E+03
Ar  450  0.1673588E+02  0.1150385E+02  0.8125995E+00  0.6120061E+03
Ar  451  0.1311858E+02  0.9951357E+01  0.2383186E+01  0.1697911E+02
Ar  452  0.1205665E+02  0.1573727E+02  0.4006515E+01  0.3194055E+03
Ar  453  0.1263839E+02  0.1243141E+02  0.4896470E+01  0.2691721E+03
Ar  454  0.1121952E+02  0.1389377E+02  0.7402376E+01  0.1368292E+03
Ar  455  0.1331892E+02  0.1118316E+02  0.8052743E+01  0.7780972E+03
Ar  456  0.7975229E+01  0.1554367E+02  0.7410180E+01  0.1021874E+04
Ar  457  0.1051099E+02  0.1221516E+02  0.1044285E+02  0.2610280E+03
Ar  458  0.1367777E+02  0.1447915E+02  0.1064186E+02  0.6581999E+03
Ar  459  0.1244626E+02  0.1005988E+02  0.1223776E+02  0.1690342E+03
Ar  460  0.1162142E+02  0.1430244E+02  0.1340605E+02  0.4758180E+02
Ar  461  0.8099611E+01  0.1385569E+02  0.1747437E+02  0.4395838E+03
Ar  462  0.9792250E+01  0.1182396E+02  0.1537021E+02  0.2029505E+03
Ar  463  0.1336656E+02  0.1044497E+02  0.1976811E+02  0.4243070E+02
Ar  464  0.1014083E+02  0.1661890E+02  0.1732678E+02  0.1955787E+03
Ar  465  0.1145055E+02  0.1295149E+02  0.1850665E+02  0.1456266E+03
Ar  466  0.1387223E+02  0.1378797E+02  0.2143161E+02  0.1910559E+03
Ar  467  0.1385220E+02  0.1137729E+02  0.2394809E+02  0.5743234E+03
Ar  468  0.1217692E+02  0.1625928E+02  0.2171746E+02  0.6620075E+02
Ar  469  0.1085922E+02  0.1199681E+02  0.2262225E+02  0.4152059E+03
Ar  470  0.1255710E+02  0.1478788E+02  0.2454880E+02  0.9386767E+02
Ar  471  0.1122541E+02  0.1347889E+02  0.2972820E+02  0.4589013E+02
Ar  472  0.8319633E+01  0.1372316E+02  0.2860613E+02  0.4629097E+03
Ar  473  0.1028441E+02  0.1116531E+02  0.3269020E+02  0.3271753E+03
Ar  474  0.1322461E+02  0.1268411E+02  0.3342552E+02  0.1665837E+03
Ar  475  0.1334422E+02  0.1091141E+02  0.3679832E+02  0.6152129E+03
Ar  476  0.9824902E+01  0.1415770E+02  0.3534171E+02  0.1195611E+02
Ar  477  0.1372183E+02  0.1432075E+02  0.3676939E+02  0.1735187E+03
Ar  478  0.1472488E+02  0.1830263E+02  0.3645946E+02  0.3825059E+03
Ar  479  0.1511462E+02  0.1615292E+02  0.1865025E+01  0.7432919E+02
Ar  480  0.1097880E+02  0.1813398E+02  0.7868363E+00  0.1048331E+03
Ar  481  0.9102599E+01  0.1824566E+02  0.4935646E+01  0.4317340E+03
Ar  482  0.1396397E+02  0.1847890E+02  0.4196662E+01  0.3236237E+03
Ar  483  0.1435287E+02  0.1545564E+02  0.7029269E+01  0.2051909E+03
Ar  484  0.1177167E+02  0.2077603E+02  0.6462843E+01  0.3573951E+03
Ar  485  0.1137313E+02  0.1732594E+02  0.7893449E+01  0.5966101E+03
Ar  486  0.1416115E+02  0.1836040E+02  0.1002197E+02  0.8230820E+03
Ar  487  0.1669332E+02  0.1621464E+02  0.1164266E+02  0.3635212E+03
Ar  488  0.1151483E+02  0.2012752E+02  0.1059617E+02  0.2331479E+03
Ar  489  0.1285693E+02  0.1789450E+02  0.1354219E+02  0.2727587E+03
Ar  490  0.1589246E+02  0.1746515E+02  0.1530950E+02  0.1488943E+03
Ar  491  0.1369290E+02  0.1457887E+02  0.1624268E+02  0.4660511E+03
Ar  492  0.1141477E+02  0.1958329E+02  0.1762785E+02  0.9874936E+02
Ar  493  0.1414647E+02  0.1745691E+02  0.1828541E+02  0.1022112E+03
Ar  494  0.1301010E+02  0.2016231E+02  0.2144333E+02  0.1205510E+03
Ar  495  0.1572714E+02  0.1695179E+02  0.2289840E+02  0.4506305E+03
Ar  496  0.1113304E+02  0.1816891E+02  0.2417856E+02  0.4220189E+02
Ar  497  0.9842633E+01  0.1635470E+02  0.2721368E+02  0.1151656E+03
Ar  498  0.1300133E+02  0.1858823E+02  0.2711708E+02  0.3535634E+03
Ar  499  0.1280708E+02  0.1609940E+02  0.3220692E+02  0.7765701E+03
Ar  500  0.1109725E+02  0.1748380E+02  0.3013204E+02  0.3753054E+03
Ar  501  0.7845423E+01  0.1544690E+02  0.3315685E+02  0.1439082E+03
Ar  502  0.1454610E+02  0.1909226E+02  0.3290493E+02  0.7252315E+03
Ar  503  0.1696017E+02  0.1332823E+02  0.3557200E+02  0.1410115E+03
Ar  504  0.1153969E+02  0.1682663E+02  0.3521670E+02  0.4624777E+03
Ar  505  0.9417090E+01  0.2110786E+02  0.2241846E+00  0.1339065E+03
Ar  506  0.1330278E+02  0.2364826E+02  0.3641451E+02  0.4226411E+03
Ar  507  0.1278640E+02  0.2087140E+02  0.3821505E+00  0.7811102E+03
Ar  508  0.1138936E+02  0.2396837E+02  0.2265671E+01  0.2941383E+03
Ar  509  0.1069865E+02  0.2092636E+02  0.3093842E+01  0.3317071E+03
Ar  510  0.1398072E+02  0.2531012E+02  0.4293343E+01  0.9670034E+02
Ar  511  0.1315006E+02  0.2276140E+02  0.8989904E+01  0.2357312E+03
Ar  512  0.1042462E+02  0.2388908E+02  0.5571398E+01  0.6140467E+03
Ar  513  0.1037356E+02  0.2413496E+02  0.1104999E+02  0.3000357E+03
Ar  514  0.1528250E+02  0.2543438E+02  0.1080296E+02  0.1426628E+03
Ar  515  0.1484554E+02  0.2045201E+02  0.1282542E+02  0.2754003E+03
Ar  516  0.1271209E+02  0.2436021E+02  0.1394575E+02  0.2056518E+03
Ar  517  0.1175025E+02  0.2126343E+02  0.1399458E+02  0.2540465E+02
Ar  518  0.1515559E+02  0.2455801E+02  0.1676531E+02  0.6316388E+02
Ar  519  0.1424118E+02  0.2100974E+02  0.1698303E+02  0.2652263E+03
Ar  520  0.1146934E+02  0.2257908E+02  0.1948413E+02  0.1975277E+03
Ar  521  0.1021515E+02  0.2141084E+02  0.2353505E+02  0.4520220E+03
Ar  522  0.1398987E+02  0.2247164E+02  0.2306908E+02  0.1858172E+03
Ar  523  0.1298005E+02  0.2170285E+02  0.2619139E+02  0.1770641E+03
Ar  524  0.1092654E+02  0.2498461E+02  0.2660299E+02  0.6376571E+03
Ar  525  0.8753312E+01  0.2075726E+02  0.2694235E+02  0.2467224E+03
Ar  526  0.1318041E+02  0.2354256E+02  0.2959556E+02  0.4681232E+03
Ar  527  0.1109397E+02  0.2075237E+02  0.2987334E+02  0.1310649E+03
Ar  528  0.8038473E+01  0.2445219E+02  0.2806544E+02  0.3655643E+03
Ar  529  0.9980819E+01  0.2489159E+02  0.3079156E+02  0.4206319E+02
Ar  530  0.1354221E+02  0.2605710E+02  0.3348565E+02  0.3114603E+03
Ar  531  0.1182938E+02  0.2051964E+02  0.3516961E+02  0.4026931E+03
Ar  532  0.1007349E+02  0.2384040E+02  0.3420963E+02  0.5616864E+03
Ar  533  0.8747322E+01  0.2881574E+02  0.3745205E+02  0.6747084E+03
Ar  534  0.1088792E+02  0.2592486E+02  0.3654503E+02  0.3799672E+03
Ar  535  0.1538233E+02  0.2592907E+02  0.8082607E+00  0.1009629E+03
Ar  536  0.1157867E+02  0.2754527E+02  0.1596327E+01  0.2412097E+03
Ar  537  0.1102568E+02  0.2761488E+02  0.4997800E+01  0.3383394E+03
Ar  538  0.1433259E+02  0.2872454E+02  0.6181419E+01  0.5057103E+03
Ar  539  0.1281026E+02  0.2578887E+02  0.7720039E+01  0.3607973E+03
Ar  540  0.1174966E+02  0.2904847E+02  0.8865465E+01  0.5068711E+03
Ar  541  0.1143509E+02  0.2757189E+02  0.1175239E+02  0.3721289E+03
Ar  542  0.1526814E+02  0.2846953E+02  0.9370811E+01  0.9143481E+03
Ar  543  0.1431907E+02  0.2773947E+02  0.1337122E+02  0.1208116E+03
Ar  544  0.1064192E+02  0.2738208E+02  0.1502738E+02  0.2457012E+03
Ar  545  0.1209831E+02  0.2542518E+02  0.1746479E+02  0.2982427E+03
Ar  546  0.1428319E+02  0.2814177E+02  0.1659522E+02  0.9883670E+02
Ar  547  0.1478082E+02  0.2591678E+02  0.1991091E+02  0.3184923E+03
Ar  548  0.1215025E+02  0.2793360E+02  0.2012150E+02  0.6024990E+03
Ar  549  0.1071200E+02  0.2469624E+02  0.2210490E+02  0.5398808E+03
Ar  550  0.1225674E+02  0.3201556E+02  0.2065081E+02  0.9757964E+03
Ar  551  0.1340590E+02  0.2706595E+02  0.2350187E+02  0.1114022E+03
Ar  552  0.1116626E+02  0.3041239E+02  0.2411483E+02  0.3759852E+03
Ar  553  0.9637024E+01  0.2781191E+02  0.2884432E+02  0.6707057E+03
Ar  554  0.1219899E+02  0.2942164E+02  0.2751650E+02  0.5059388E+03
Ar  555  0.1107423E+02  0.2773476E+02  0.3223118E+02  0.3205324E+03
Ar  556  0.1101859E+02  0.3072646E+02  0.3039441E+02  0.3423462E+03
Ar  557  0.8653277E+01  0.2696849E+02  0.3454315E+02  0.1998886E+02
Ar  558  0.1369599E+02  0.2989368E+02  0.3233745E+02  0.2252098E+02
Ar  559  0.1347554E+02  0.2832372E+02  0.3607806E+02  0.1225931E+04
Ar  560  0.1135425E+02  0.3022189E+02  0.3455389E+02  0.1096980E+04
Ar  561  0.1124606E+02  0.3249345E+02  0.4757924E+00  0.3629983E+03
Ar  562  0.1555536E+02  0.3728818E+02  0.9326921E+00  0.2602285E+03
Ar  563  0.1475454E+02  0.3424668E+02  0.4435682E+00  0.6104446E+03
Ar  564  0.1058683E+02  0.3349855E+02  0.3919593E+01  0.1370584E+03
Ar  565  0.9405701E+01  0.3065951E+02  0.6298615E+01  0.8054777E+03
Ar  566  0.1200909E+02  0.3243290E+02  0.7703059E+01  0.3820057E+03
Ar  567  0.1615329E+02  0.3411792E+02  0.6137170E+01  0.9771761E+02
Ar  568  0.1500016E+02  0.3168083E+02  0.8066728E+01  0.1269166E+04
Ar  569  0.9654138E+01  0.3217020E+02  0.1094303E+02  0.7139300E+03
Ar  570  0.1306470E+02  0.3137637E+02  0.1132959E+02  0.1349746E+02
Ar  571  0.1231891E+02  0.3044787E+02  0.1427292E+02  0.1360857E+03
Ar  572  0.9751087E+01  0.3467544E+02  0.1384266E+02  0.4506729E+03
Ar  573  0.1122190E+02  0.2997497E+02  0.1759963E+02  0.7131541E+03
Ar  574  0.1378886E+02  0.3638024E+02  0.1659196E+02  0.2037813E+03
Ar  575  0.1440684E+02  0.3306602E+02  0.1757952E+02  0.3978371E+03
Ar  576  0.7959181E+01  0.3655952E+02  0.2074475E+02  0.3257215E+03
Ar  577  0.1100149E+02  0.3336831E+02  0.1742221E+02  0.1463466E+04
Ar  578  0.1690409E+02  0.3540214E+02  0.2351120E+02  0.5590750E+03
Ar  579  0.1414270E+02  0.3497291E+02  0.2111175E+02  0.2015170E+03
Ar  580  0.1076162E+02  0.3437362E+02  0.2239740E+02  0.1738768E+03
Ar  581  0.1117788E+02  0.3322339E+02  0.2602573E+02  0.3291390E+03
Ar  582  0.1366924E+02  0.3759190E+02  0.2770052E+02  0.2217167E+03
Ar  583  0.1276645E+02  0.3399396E+02  0.3068331E+02  0.1639108E+03
Ar  584  0.9960666E+01  0.3494163E+02  0.2905803E+02  0.7962744E+03
Ar  585  0.9622797E+01  0.3365310E+02  0.3241891E+02  0.9769709E+03
Ar  586  0.1542339E+02  0.3590410E+02  0.3421002E+02  0.4089201E+03
Ar  587  0.1286565E+02  0.3316698E+02  0.3404714E+02  0.3769298E+03
Ar  588  0.1172760E+02  0.6556244E+00  0.8385136E+00  0.6763445E+03
Ar  589  0.1559341E+02  0.3719832E+01  0.3737444E+02  0.2608332E+03
Ar  590  0.2333084E+02  0.6113694E+01  0.6565461E+00  0.2999562E+03
Ar  591  0.1870405E+02  0.1366574E+00  0.1063067E+01  0.7173729E+03
Ar  592  0.1595742E+02  0.2548880E+01  0.3039992E+01  0.6335012E+03
Ar  593  0.1580736E+02  0.3717092E+02  0.5205627E+01  0.4144429E+03
Ar  594  0.1904338E+02  0.6884694E+00  0.5514037E+01  0.1136526E+03
Ar  595  0.2087017E+02  0.3637530E+02  0.8568856E+01  0.2015126E+03
Ar  596  0.1745552E+02  0.3712521E+02  0.8277403E+01  0.1439712E+03
Ar  597  0.1652390E+02  0.3626587E+02  0.1121966E+02  0.2435799E+03
Ar  598  0.1878049E+02  0.2559577E+01  0.9144785E+01  0.9531312E+03
Ar  599  0.1943931E+02  0.3744265E+02  0.1204236E+02  0.1402362E+03
Ar  600  0.1436529E+02  0.4353259E+01  0.1361302E+02  0.4072696E+03
Ar  601  0.1534713E+02  0.9993571E+00  0.1477802E+02  0.5236592E+03
Ar  602  0.1843049E+02  0.2432818E+01  0.1416100E+02  0.8214785E+03
Ar  603  0.1836347E+02  0.2593574E+00  0.1776125E+02  0.1565424E+04
Ar  604  0.1652893E+02  0.4325631E+01  0.2060508E+02  0.3857971E+02
Ar  605  0.1691906E+02  0.8104846E+00  0.2180872E+02  0.4725414E+01
Ar  606  0.1868922E+02  0.2562446E+01  0.2583300E+02  0.2335293E+03
Ar  607  0.1943471E+02  0.3743949E+02  0.2412791E+02  0.2328660E+03
Ar  608  0.1383165E+02  0.3468554E+01  0.2376167E+02  0.5357847E+03
Ar  609  0.1565488E+02  0.7904953E+00  0.2519142E+02  0.9342457E+02
Ar  610  0.1603551E+02  0.1782022E+01  0.2841752E+02  0.2375591E+03
Ar  611  0.1936619E+02  0.3747961E+02  0.2804349E+02  0.4886636E+03
Ar  612  0.1462015E+02  0.1343456E+01  0.3207153E+02  0.8116553E+03
Ar  613  0.1844601E+02  0.5530354E+00  0.3105683E+02  0.5142163E+03
Ar  614  0.1760357E+02  0.3414670E+01  0.3221970E+02  0.1294309E+04
Ar  615  0.2114973E+02  0.1693922E+01  0.3444578E+02  0.1948306E+03
Ar  616  0.2106409E+02  0.5349446E+01  0.3332057E+02  0.4924595E+03
Ar  617  0.1767696E+02  0.5877392E+01  0.3499246E+02  0.2570060E+03
Ar  618  0.1985786E+02  0.6379687E+01  0.8093478E+00  0.3679594E+02
Ar  619  0.1996069E+02  0.3755744E+01  0.3651714E+02  0.3265185E+03
Ar  620  0.1676720E+02  0.5812829E+01  0.1680822E+01  0.4070216E+03
Ar  621  0.1925317E+02  0.3359585E+01  0.2647065E+01  0.4101521E+03
Ar  622  0.1955063E+02  0.7865127E+01  0.4490239E+01  0.4671315E+03
Ar  623  0.1953921E+02  0.3724727E+01  0.6087603E+01  0.9295916E+03
Ar  624  0.1606968E+02  0.7268838E+01  0.9002518E+01  0.2291408E+03
Ar  625  0.1723609E+02  0.5247863E+01  0.1215086E+02  0.3334959E+03
Ar  626  0.1952301E+02  0.6307754E+01  0.8489206E+01  0.5554340E+03
Ar  627  0.1550846E+02  0.2207291E+01  0.1151058E+02  0.1454830E+03
Ar  628  0.1920405E+02  0.7071748E+01  0.1382245E+02  0.6977533E+03
Ar  629  0.1673744E+02  0.6072231E+01  0.1558282E+02  0.2256213E+03
Ar  630  0.1955169E+02  0.9172736E+01  0.1677992E+02  0.4995430E+03
Ar  631  0.1860299E+02  0.5704849E+01  0.1821150E+02  0.6723766E+02
Ar  632  0.1592551E+02  0.8328490E+01  0.1850954E+02  0.1606963E+04
Ar  633  0.1370069E+02  0.7066360E+01  0.2091336E+02  0.2088630E+03
Ar  634  0.1973301E+02  0.7575269E+01  0.2136566E+02  0.3127240E+02
Ar  635  0.1806570E+02  0.8339527E+01  0.2442463E+02  0.2189492E+03
Ar  636  0.1449993E+02  0.8298869E+01  0.2498005E+02  0.4238120E+03
Ar  637  0.1556081E+02  0.5538411E+01  0.2758483E+02  0.3009949E+03
Ar  638  0.1613889E+02  0.8971228E+01  0.2768691E+02  0.2957192E+03
Ar  639  0.1850586E+02  0.4200411E+01  0.2927165E+02  0.1739262E+02
Ar  640  0.1424043E+02  0.1048411E+02  0.3021515E+02  0.3013345E+03
Ar  641  0.1479762E+02  0.4761623E+01  0.3367501E+02  0.1722725E+03
Ar  642  0.1619345E+02  0.6617485E+01  0.3127941E+02  0.8618168E+03
Ar  643  0.1823505E+02  0.8941915E+01  0.3594059E+02  0.3473382E+03
Ar  644  0.1584295E+02  0.9102024E+01  0.3303410E+02  0.1186894E+03
Ar  645  0.1653613E+02  0.8776793E+01  0.2572732E+01  0.4713313E+03
Ar  646  0.1818297E+02  0.1125384E+02  0.4199516E+01  0.1582412E+03
Ar  647  0.1883310E+02  0.9540063E+01  0.7717816E+01  0.6432681E+02
Ar  648  0.1600755E+02  0.1362696E+02  0.3866822E+01  0.1254610E+03
Ar  649  0.1583767E+02  0.9227916E+01  0.5811833E+01  0.1298829E+03
Ar  650  0.1995675E+02  0.1409356E+02  0.6149120E+01  0.1949585E+03
Ar  651  0.2279693E+02  0.8636598E+01  0.8996760E+01  0.1102299E+03
Ar  652  0.1693961E+02  0.1240783E+02  0.7537092E+01  0.1251791E+03
Ar  653  0.1608593E+02  0.1048876E+02  0.1000144E+02  0.6979080E+03
Ar  654  0.2084679E+02  0.1237446E+02  0.9096585E+01  0.8009380E+03
Ar  655  0.1947318E+02  0.9782654E+01  0.1153546E+02  0.1666332E+03
Ar  656  0.1843381E+02  0.1278251E+02  0.1311518E+02  0.5384153E+03
Ar  657  0.1667904E+02  0.9303266E+01  0.1324017E+02  0.2087661E+03
Ar  658  0.1714857E+02  0.1123036E+02  0.1588374E+02  0.4329795E+02
Ar  659  0.1331277E+02  0.1075742E+02  0.1644327E+02  0.2223194E+03
Ar  660  0.1604311E+02  0.1225540E+02  0.1867091E+02  0.1162430E+04
Ar  661  0.1668468E+02  0.9525006E+01  0.2146264E+02  0.1461457E+02
Ar  662  0.1968659E+02  0.1128711E+02  0.2320641E+02  0.2045275E+03
Ar  663  0.1642256E+02  0.1161421E+02  0.2550467E+02  0.5880402E+03
Ar  664  0.1711469E+02  0.1336951E+02  0.2214903E+02  0.8911472E+02
Ar  665  0.1339502E+02  0.1217110E+02  0.2706453E+02  0.4552849E+03
Ar  666  0.1701575E+02  0.1175239E+02  0.2881933E+02  0.7116797E+02
Ar  667  0.1898024E+02  0.7632945E+01  0.2913753E+02  0.2479512E+03
Ar  668  0.1496078E+02  0.1397035E+02  0.3037733E+02  0.3606434E+03
Ar  669  0.1752379E+02  0.1256508E+02  0.3228855E+02  0.4877461E+03
Ar  670  0.2064652E+02  0.1063915E+02  0.3085393E+02  0.1266440E+04
Ar  671  0.1931559E+02  0.8263859E+01  0.3286697E+02  0.5486596E+03
Ar  672  0.2018732E+02  0.1389342E+02  0.3755997E+02  0.6359279E+03
Ar  673  0.1800278E+02  0.1740064E+02  0.3620759E+02  0.1338286E+04
Ar  674  0.1987873E+02  0.2081213E+02  0.3534413E+02  0.4007524E+03
Ar  675  0.1832816E+02  0.1503435E+02  0.2265508E+01  0.3494838E+03
Ar  676  0.1686970E+02  0.1879381E+02  0.2214906E+01  0.6606649E+03
Ar  677  0.1757504E+02  0.1701577E+02  0.5443223E+01  0.7083345E+03
Ar  678  0.2069188E+02  0.1856142E+02  0.3551704E+01  0.8835318E+02
Ar  679  0.2065288E+02  0.1829804E+02  0.6735731E+01  0.6839245E+03
Ar  680  0.1662005E+02  0.1978557E+02  0.7608593E+01  0.9580616E+02
Ar  681  0.1858454E+02  0.1591372E+02  0.8522888E+01  0.1947387E+03
Ar  682  0.1931497E+02  0.1916419E+02  0.9949283E+01  0.1430898E+03
Ar  683  0.2075930E+02  0.1692962E+02  0.1540498E+02  0.3972281E+02
Ar  684  0.1879346E+02  0.1887316E+02  0.1336089E+02  0.2637529E+03
Ar  685  0.1480613E+02  0.1236671E+02  0.1360623E+02  0.2276518E+03
Ar  686  0.1822172E+02  0.1837773E+02  0.1764064E+02  0.4232630E+03
Ar  687  0.1825262E+02  0.1480866E+02  0.1629719E+02  0.1222545E+03
Ar  688  0.1603246E+02  0.1916288E+02  0.2021345E+02  0.8736439E+02
Ar  689  0.1760835E+02  0.1553521E+02  0.1949775E+02  0.7982491E+02
Ar  690  0.1875666E+02  0.1812129E+02  0.2189733E+02  0.2469019E+03
Ar  691  0.1648441E+02  0.1501088E+02  0.2702569E+02  0.3724501E+03
Ar  692  0.1704318E+02  0.1891867E+02  0.2524607E+02  0.2136104E+03
Ar  693  0.1312365E+02  0.1553140E+02  0.2783910E+02  0.3566145E+02
Ar  694  0.1812166E+02  0.2013084E+02  0.2874615E+02  0.7914222E+03
Ar  695  0.1749294E+02  0.1682924E+02  0.3041858E+02  0.2136970E+03
Ar  696  0.1449996E+02  0.1824022E+02  0.2984202E+02  0.3156086E+03
Ar  697  0.1582621E+02  0.1606499E+02  0.3350775E+02  0.8154606E+03
Ar  698  0.1835937E+02  0.2398328E+02  0.3476335E+02  0.4998526E+03
Ar  699  0.1973896E+02  0.1512063E+02  0.3390499E+02  0.2277892E+03
Ar  700  0.1592071E+02  0.2124620E+02  0.3512651E+02  0.8258951E+02
Ar  701  0.1724102E+02  0.2155338E+02  0.3557249E+00  0.1207887E+04
Ar  702  0.1629286E+02  0.2659654E+02  0.3516547E+02  0.1145100E+03
Ar  703  0.1766866E+02  0.2381872E+02  0.4422091E+01  0.4662071E+03
Ar  704  0.1487213E+02  0.2275288E+02  0.2414111E+01  0.1026087E+03
Ar  705  0.1478599E+02  0.2222525E+02  0.5860908E+01  0.5756612E+03
Ar  706  0.1760457E+02  0.2737986E+02  0.5854149E+01  0.6956984E+03
Ar  707  0.1900829E+02  0.2185492E+02  0.7690800E+01  0.5167137E+03
Ar  708  0.1663834E+02  0.2474426E+02  0.7784342E+01  0.2423807E+03
Ar  709  0.1677535E+02  0.2224595E+02  0.1010411E+02  0.2651764E+03
Ar  710  0.1900815E+02  0.2475907E+02  0.1203263E+02  0.1016414E+03
Ar  711  0.1902600E+02  0.2206338E+02  0.1402013E+02  0.2930576E+03
Ar  712  0.1627409E+02  0.2384870E+02  0.1349833E+02  0.2899670E+03
Ar  713  0.1745820E+02  0.2146748E+02  0.1709444E+02  0.1585170E+03
Ar  714  0.2066983E+02  0.2334521E+02  0.1760735E+02  0.7338125E+03
Ar  715  0.1929727E+02  0.2077480E+02  0.1953128E+02  0.3058953E+03
Ar  716  0.1610061E+02  0.2263462E+02  0.1986344E+02  0.3418415E+02
Ar  717  0.1770578E+02  0.2147159E+02  0.2273379E+02  0.2828748E+03
Ar  718  0.1959470E+02  0.2392945E+02  0.2094556E+02  0.9471588E+02
Ar  719  0.2022797E+02  0.2018535E+02  0.2498876E+02  0.3957784E+03
Ar  720  0.1429441E+02  0.2486957E+02  0.2632716E+02  0.3112814E+03
Ar  721  0.1566555E+02  0.2148683E+02  0.3072824E+02  0.1090116E+03
Ar  722  0.1683106E+02  0.2329033E+02  0.2777511E+02  0.5423816E+03
Ar  723  0.2134800E+02  0.2228183E+02  0.2792184E+02  0.1949051E+03
Ar  724  0.1532613E+02  0.2900225E+02  0.2599389E+02  0.4587962E+03
Ar  725  0.1887451E+02  0.2329520E+02  0.3056941E+02  0.3703199E+03
Ar  726  0.1883410E+02  0.2714373E+02  0.3097698E+02  0.5462652E+03
Ar  727  0.1926510E+02  0.2655012E+02  0.3722148E+02  0.2629677E+02
Ar  728  0.1331424E+02  0.2298429E+02  0.3280569E+02  0.6528885E+03
Ar  729  0.1407404E+02  0.3057375E+02  0.7797005E+00  0.8903448E+02
Ar  730  0.1699648E+02  0.2934516E+02  0.3691941E+02  0.3089481E+03
Ar  731  0.1838563E+02  0.2434153E+02  0.1519369E+01  0.3886981E+03
Ar  732  0.1315721E+02  0.3118536E+02  0.4447110E+01  0.5340158E+03
Ar  733  0.1528203E+02  0.2848923E+02  0.3165407E+01  0.6214254E+03
Ar  734  0.1775325E+02  0.3055134E+02  0.5971789E+01  0.2125157E+02
Ar  735  0.2193478E+02  0.2941388E+02  0.7736615E+01  0.1361121E+03
Ar  736  0.1931151E+02  0.2645492E+02  0.9056309E+01  0.1954067E+03
Ar  737  0.1723631E+02  0.2903960E+02  0.1236208E+02  0.2415350E+03
Ar  738  0.2077007E+02  0.2804421E+02  0.1127540E+02  0.1746025E+03
Ar  739  0.2010112E+02  0.2537323E+02  0.1485585E+02  0.1144442E+04
Ar  740  0.1740010E+02  0.2808071E+02  0.1653612E+02  0.8272888E+02
Ar  741  0.1784332E+02  0.2505310E+02  0.1838360E+02  0.8803620E+03
Ar  742  0.2028709E+02  0.2884660E+02  0.1398236E+02  0.1743613E+03
Ar  743  0.1878938E+02  0.2748069E+02  0.2039300E+02  0.9921249E+03
Ar  744  0.1490936E+02  0.2950933E+02  0.2029823E+02  0.1925556E+03
Ar  745  0.1651246E+02  0.2525410E+02  0.2315373E+02  0.3395789E+03
Ar  746  0.1948955E+02  0.3081661E+02  0.2082602E+02  0.3820503E+03
Ar  747  0.1816416E+02  0.2652899E+02  0.2577172E+02  0.6430391E+03
Ar  748  0.1681669E+02  0.2887418E+02  0.2277400E+02  0.2614701E+03
Ar  749  0.1436600E+02  0.3178154E+02  0.2482166E+02  0.7929135E+03
Ar  750  0.1995356E+02  0.2921126E+02  0.2815709E+02  0.7134566E+02
Ar  751  0.1648054E+02  0.2701338E+02  0.2869824E+02  0.9922038E+02
Ar  752  0.1293223E+02  0.2691421E+02  0.2936419E+02  0.1014255E+03
Ar  753  0.1610319E+02  0.2500053E+02  0.3170756E+02  0.5652001E+03
Ar  754  0.1578531E+02  0.3023460E+02  0.2916360E+02  0.1338880E+03
Ar  755  0.2069462E+02  0.2764655E+02  0.3418006E+02  0.2628471E+02
Ar  756  0.1700374E+02  0.2924529E+02  0.3307679E+02  0.2415386E+03
Ar  757  0.1589663E+02  0.3200238E+02  0.3489000E+02  0.9050930E+02
Ar  758  0.1929983E+02  0.3636761E+02  0.3582343E+02  0.1338905E+03
Ar  759  0.1769301E+02  0.3230348E+02  0.3764272E+02  0.4474428E+03
Ar  760  0.1745866E+02  0.3535364E+02  0.2843722E+01  0.4552246E+02
Ar  761  0.1653518E+02  0.3212273E+02  0.3243719E+01  0.4998720E+03
Ar  762  0.1941019E+02  0.3504765E+02  0.5596952E+01  0.1924929E+03
Ar  763  0.1811961E+02  0.3030703E+02  0.9452878E+01  0.5439466E+03
Ar  764  0.1812990E+02  0.3352189E+02  0.8623292E+01  0.5015582E+03
Ar  765  0.1600406E+02  0.3279444E+02  0.1141454E+02  0.4067049E+03
Ar  766  0.1913512E+02  0.3413558E+02  0.1235133E+02  0.3556459E+03
Ar  767  0.1885303E+02  0.3196800E+02  0.1520567E+02  0.2638927E+03
Ar  768  0.1342194E+02  0.3481304E+02  0.1335226E+02  0.3059693E+03
Ar  769  0.1536008E+02  0.3114559E+02  0.1453728E+02  0.3455365E+03
Ar  770  0.2059698E+02  0.3470603E+02  0.1802604E+02  0.2220668E+03
Ar  771  0.1734782E+02  0.3493285E+02  0.1918982E+02  0.2599814E+03
Ar  772  0.1665447E+02  0.3492404E+02  0.1501749E+02  0.2879932E+03
Ar  773  0.1645153E+02  0.3264935E+02  0.2197338E+02  0.2573021E+03
Ar  774  0.2036120E+02  0.3324563E+02  0.2277861E+02  0.2351165E+03
Ar  775  0.1812029E+02  0.3116584E+02  0.2501980E+02  0.4968495E+03
Ar  776  0.1403237E+02  0.3511858E+02  0.2458916E+02  0.1368104E+03
Ar  777  0.1471268E+02  0.3348525E+02  0.2784019E+02  0.2400002E+03
Ar  778  0.1996581E+02  0.3440231E+02  0.2560102E+02  0.2821085E+03
Ar  779  0.1847276E+02  0.3276774E+02  0.2822588E+02  0.6094500E+03
Ar  780  0.1668044E+02  0.3574266E+02  0.2704246E+02  0.4580292E+03
Ar  781  0.1595010E+02  0.3298654E+02  0.3134755E+02  0.1213582E+03
Ar  782  0.1876097E+02  0.3485124E+02  0.3060256E+02  0.4324033E+03
Ar  783  0.1901667E+02  0.3108112E+02  0.3153175E+02  0.1516422E+03
Ar  784  0.1563515E+02  0.3632127E+02  0.3017139E+02  0.1256442E+03
Ar  785  0.2288093E+02  0.2325092E+01  0.2425281E+00  0.7529216E+03
Ar  786  0.2907987E+02  0.2322245E+01  0.1560943E+01  0.1721957E+03
Ar  787  0.2438126E+02  0.3679632E+02  0.3062445E+01  0.5689577E+03
Ar  788  0.2137172E+02  0.5059728E+00  0.3128276E+01  0.1052012E+03
Ar  789  0.2256781E+02  0.3361700E+02  0.5041619E+01  0.6435904E+03
Ar  790  0.2514086E+02  0.1978975E+01  0.3822658E+01  0.5435516E+03
Ar  791  0.2408859E+02  0.3540784E+02  0.8673851E+01  0.1980889E+03
Ar  792  0.2289029E+02  0.3725217E+02  0.6012965E+01  0.4322629E+03
Ar  793  0.2230506E+02  0.3569793E+02  0.1186921E+02  0.5989132E+03
Ar  794  0.2275586E+02  0.1268539E+01  0.9578667E+01  0.2782376E+03
Ar  795  0.2548179E+02  0.3685307E+02  0.1282192E+02  0.1051673E+03
Ar  796  0.2240877E+02  0.1277086E+01  0.1357519E+02  0.3269626E+03
Ar  797  0.2011335E+02  0.3625396E+02  0.1514680E+02  0.3700593E+03
Ar  798  0.2485240E+02  0.3526324E+01  0.1712572E+02  0.1525620E+03
Ar  799  0.2046223E+02  0.3481987E+01  0.1684677E+02  0.5017747E+03
Ar  800  0.1962395E+02  0.2601625E+01  0.2013842E+02  0.2486785E+03
Ar  801  0.2008657E+02  0.3637804E+02  0.2079765E+02  0.2232955E+03
Ar  802  0.2779822E+02  0.2683100E+01  0.2256775E+02  0.4690636E+03
Ar  803  0.2489633E+02  0.8472980E+00  0.2452791E+02  0.4177135E+03
Ar  804  0.2178658E+02  0.1248485E+01  0.2257432E+02  0.1549272E+04
Ar  805  0.2216692E+02  0.3720317E+02  0.2582124E+02  0.4848187E+02
Ar  806  0.2806311E+02  0.2914345E+01  0.2597972E+02  0.5277076E+02
Ar  807  0.2586177E+02  0.3366281E+00  0.3121560E+02  0.2351022E+03
Ar  808  0.2155284E+02  0.3022483E+01  0.3110938E+02  0.1740253E+03
Ar  809  0.2437959E+02  0.6407129E+00  0.3441798E+02  0.3364524E+03
Ar  810  0.2129764E+02  0.3630096E+02  0.3256952E+02  0.3157456E+03
Ar  811  0.2701864E+02  0.3639453E+02  0.3394275E+02  0.5819806E+03
Ar  812  0.2560882E+02  0.3769127E+01  0.9450178E+00  0.6435097E+03
Ar  813  0.2569171E+02  0.6115538E+01  0.3925525E+01  0.5261398E+03
Ar  814  0.2600252E+02  0.8033327E+01  0.1119591E+01  0.1256452E+03
Ar  815  0.2866701E+02  0.5663551E+01  0.7760668E+00  0.4748899E+02
Ar  816  0.2315078E+02  0.8420651E+01  0.3401548E+01  0.7139845E+03
Ar  817  0.2258143E+02  0.4143307E+01  0.3391906E+01  0.3210083E+03
Ar  818  0.2505903E+02  0.9505626E+01  0.5721683E+01  0.3237061E+03
Ar  819  0.2582363E+02  0.6947797E+01  0.7658316E+01  0.9953294E+03
Ar  820  0.2247738E+02  0.6393468E+01  0.5954034E+01  0.1662837E+03
Ar  821  0.2263979E+02  0.2761626E+01  0.6487396E+01  0.3120017E+03
Ar  822  0.2311857E+02  0.5237494E+01  0.9279343E+01  0.4036752E+02
Ar  823  0.2578500E+02  0.5477082E+01  0.1393499E+02  0.1597712E+03
Ar  824  0.2085221E+02  0.4035230E+01  0.1150896E+02  0.3847110E+03
Ar  825  0.2168388E+02  0.6117147E+01  0.1573741E+02  0.9201929E+03
Ar  826  0.2453536E+02  0.8551486E+01  0.1528844E+02  0.1547326E+03
Ar  827  0.2184770E+02  0.5426673E+01  0.1938831E+02  0.3343261E+03
Ar  828  0.2267018E+02  0.8587882E+01  0.1831231E+02  0.6204472E+03
Ar  829  0.2244698E+02  0.1304387E+01  0.1855385E+02  0.1670863E+03
Ar  830  0.2549783E+02  0.7738629E+01  0.2143074E+02  0.4805926E+03
Ar  831  0.2458843E+02  0.4591216E+01  0.2471888E+02  0.2130992E+03
Ar  832  0.2211999E+02  0.5787961E+01  0.2272030E+02  0.2511972E+03
Ar  833  0.2253057E+02  0.3386788E+01  0.2730776E+02  0.1873970E+03
Ar  834  0.2450817E+02  0.6220348E+01  0.2852495E+02  0.1160648E+03
Ar  835  0.2545767E+02  0.2938097E+01  0.2910497E+02  0.9033194E+02
Ar  836  0.2181554E+02  0.6436164E+01  0.3016145E+02  0.3721783E+03
Ar  837  0.2365290E+02  0.4102953E+01  0.3529990E+02  0.1671538E+03
Ar  838  0.2420684E+02  0.6107710E+01  0.3252903E+02  0.1229409E+03
Ar  839  0.2587200E+02  0.3519379E+01  0.3334231E+02  0.9738732E+03
Ar  840  0.2151733E+02  0.7550235E+01  0.3602080E+02  0.4568882E+02
Ar  841  0.2044877E+02  0.1032047E+02  0.1696875E+01  0.1916928E+03
Ar  842  0.2339248E+02  0.1287686E+02  0.3627287E+02  0.3837128E+03
Ar  843  0.2386377E+02  0.1089221E+02  0.1259473E+01  0.1578583E+03
Ar  844  0.2132195E+02  0.1334643E+02  0.3470346E+01  0.2061860E+03
Ar  845  0.2237894E+02  0.1128022E+02  0.6219249E+01  0.5995596E+02
Ar  846  0.2444703E+02  0.1347326E+02  0.4595472E+01  0.7227688E+03
Ar  847  0.2468436E+02  0.1204988E+02  0.8476383E+01  0.3564077E+03
Ar  848  0.2204522E+02  0.1602313E+02  0.8855123E+01  0.1138733E+04
Ar  849  0.2675965E+02  0.1002825E+02  0.9352475E+01  0.1597214E+03
Ar  850  0.2152689E+02  0.9533750E+01  0.1411786E+02  0.1397711E+03
Ar  851  0.2315584E+02  0.7207680E+01  0.1218568E+02  0.2894662E+03
Ar  852  0.2138766E+02  0.1355344E+02  0.1464949E+02  0.2605754E+03
Ar  853  0.2149431E+02  0.1196105E+02  0.1739138E+02  0.8283104E+02
Ar  854  0.2284504E+02  0.1476525E+02  0.1735894E+02  0.3577150E+02
Ar  855  0.2535075E+02  0.1110015E+02  0.1877077E+02  0.1335182E+03
Ar  856  0.1919660E+02  0.1081430E+02  0.1958479E+02  0.1032504E+04
Ar  857  0.1748202E+02  0.4832658E+01  0.2369667E+02  0.6250344E+03
Ar  858  0.2236096E+02  0.1052105E+02  0.2131226E+02  0.1806142E+03
Ar  859  0.2187739E+02  0.8837682E+01  0.2421121E+02  0.1955630E+03
Ar  860  0.1930320E+02  0.1318173E+02  0.2603998E+02  0.1723608E+03
Ar  861  0.2049328E+02  0.6077318E+01  0.2607699E+02  0.3300543E+03
Ar  862  0.2276605E+02  0.1252656E+02  0.2485457E+02  0.4315349E+02
Ar  863  0.2271879E+02  0.9441191E+01  0.2841818E+02  0.1145210E+03
Ar  864  0.2352233E+02  0.1287274E+02  0.2968794E+02  0.3098991E+03
Ar  865  0.2297012E+02  0.9151532E+01  0.3264430E+02  0.6396819E+03
Ar  866  0.1989617E+02  0.1164320E+02  0.3418752E+02  0.2030970E+03
Ar  867  0.2411422E+02  0.9819530E+01  0.3581302E+02  0.7143652E+03
Ar  868  0.2290142E+02  0.1256427E+02  0.3319328E+02  0.5684195E+03
Ar  869  0.2204809E+02  0.1621643E+02  0.3579735E+02  0.6306011E+02
Ar  870  0.2133615E+02  0.1896447E+02  0.3769480E+02  0.1756856E+04
Ar  871  0.2373259E+02  0.1712005E+02  0.1525455E+01  0.1447603E+03
Ar  872  0.2144947E+02  0.2211252E+02  0.4747791E+01  0.3746433E+03
Ar  873  0.2281443E+02  0.1660997E+02  0.4927627E+01  0.7466069E+03
Ar  874  0.2378732E+02  0.1990834E+02  0.5315223E+01  0.2976072E+03
Ar  875  0.2504870E+02  0.1531075E+02  0.7392737E+01  0.2319344E+03
Ar  876  0.2301219E+02  0.1970617E+02  0.8902105E+01  0.1475875E+03
Ar  877  0.1998458E+02  0.1562997E+02  0.1153817E+02  0.2133407E+03
Ar  878  0.2506825E+02  0.1712376E+02  0.1036437E+02  0.1559979E+03
Ar  879  0.2286825E+02  0.1723505E+02  0.1298661E+02  0.4557153E+03
Ar  880  0.2194803E+02  0.2030912E+02  0.1331890E+02  0.3435149E+02
Ar  881  0.2030152E+02  0.1394314E+02  0.2009754E+02  0.1671136E+03
Ar  882  0.2396680E+02  0.1800946E+02  0.1602735E+02  0.8192341E+03
Ar  883  0.2584109E+02  0.1376807E+02  0.2124596E+02  0.2649985E+03
Ar  884  0.2122193E+02  0.1754884E+02  0.1887973E+02  0.8106355E+03
Ar  885  0.2058162E+02  0.1558426E+02  0.2416561E+02  0.5483190E+03
Ar  886  0.2298328E+02  0.1550132E+02  0.2116918E+02  0.2899670E+03
Ar  887  0.2222334E+02  0.1455754E+02  0.2748263E+02  0.1204401E+02
Ar  888  0.1933627E+02  0.1701714E+02  0.2671443E+02  0.2264985E+03
Ar  889  0.1966705E+02  0.1411024E+02  0.3026628E+02  0.3521616E+02
Ar  890  0.2539786E+02  0.1869531E+02  0.2586810E+02  0.1036154E+04
Ar  891  0.2404820E+02  0.1730825E+02  0.2921958E+02  0.2821999E+03
Ar  892  0.1777739E+02  0.1887991E+02  0.3306864E+02  0.1668887E+03
Ar  893  0.2071466E+02  0.1745185E+02  0.3126277E+02  0.1758088E+03
Ar  894  0.2688816E+02  0.1865054E+02  0.3362208E+02  0.1302688E+03
Ar  895  0.2528957E+02  0.1538273E+02  0.3189396E+02  0.5248553E+03
Ar  896  0.2226464E+02  0.1913739E+02  0.3401886E+02  0.3777723E+03
Ar  897  0.2310244E+02  0.2317834E+02  0.3743551E+02  0.1808038E+03
Ar  898  0.2459168E+02  0.2415034E+02  0.2804753E+01  0.8672727E+02
Ar  899  0.2409130E+02  0.2078343E+02  0.1794505E+01  0.5961742E+03
Ar  900  0.2150247E+02  0.2509354E+02  0.2358068E+01  0.2067512E+03
Ar  901  0.2054054E+02  0.2482739E+02  0.6600146E+01  0.2949292E+03
Ar  902  0.2377200E+02  0.2604001E+02  0.5850175E+01  0.3801647E+02
Ar  903  0.2335154E+02  0.2282052E+02  0.7518883E+01  0.4139535E+03
Ar  904  0.2320380E+02  0.2666593E+02  0.8877249E+01  0.6510257E+03
Ar  905  0.2106590E+02  0.2197792E+02  0.1056633E+02  0.1365047E+03
Ar  906  0.2516977E+02  0.2409849E+02  0.1060336E+02  0.1351073E+03
Ar  907  0.2468094E+02  0.2121789E+02  0.1549445E+02  0.9046873E+02
Ar  908  0.2388883E+02  0.2435551E+02  0.1648020E+02  0.4539832E+03
Ar  909  0.2122858E+02  0.2023785E+02  0.1645269E+02  0.9964005E+03
Ar  910  0.2370988E+02  0.2086772E+02  0.1901348E+02  0.5802266E+03
Ar  911  0.2474753E+02  0.1805367E+02  0.2034285E+02  0.6202117E+03
Ar  912  0.2189639E+02  0.2144213E+02  0.2227020E+02  0.2359513E+03
Ar  913  0.2306278E+02  0.1841923E+02  0.2313428E+02  0.3869605E+03
Ar  914  0.2340557E+02  0.2457272E+02  0.2296786E+02  0.1801296E+03
Ar  915  0.2350824E+02  0.2109898E+02  0.2541198E+02  0.4918007E+02
Ar  916  0.2053482E+02  0.2385294E+02  0.2499786E+02  0.5783464E+03
Ar  917  0.2197052E+02  0.1909257E+02  0.2746748E+02  0.6209943E+03
Ar  918  0.2396566E+02  0.2432520E+02  0.2649740E+02  0.2621665E+03
Ar  919  0.2262907E+02  0.2339240E+02  0.3084478E+02  0.9333635E+03
Ar  920  0.2079961E+02  0.2557206E+02  0.2860830E+02  0.5586741E+03
Ar  921  0.2039211E+02  0.2093880E+02  0.3206920E+02  0.7002288E+02
Ar  922  0.2807323E+02  0.2552731E+02  0.3713285E+02  0.2443639E+03
Ar  923  0.2202281E+02  0.2433749E+02  0.3444315E+02  0.7962108E+02
Ar  924  0.2023794E+02  0.2186939E+02  0.1339772E+01  0.1652309E+03
Ar  925  0.2267308E+02  0.2796737E+02  0.3729521E+02  0.3337441E+03
Ar  926  0.2344544E+02  0.3145373E+02  0.2600653E+01  0.2295532E+03
Ar  927  0.2431332E+02  0.2770518E+02  0.2547017E+01  0.1887044E+03
Ar  928  0.1809998E+02  0.2806375E+02  0.2065941E+01  0.9024633E+02
Ar  929  0.2084426E+02  0.2821367E+02  0.4288284E+01  0.7359186E+02
Ar  930  0.2450001E+02  0.2972707E+02  0.5293017E+01  0.1274863E+04
Ar  931  0.2675559E+02  0.2840929E+02  0.8457401E+01  0.1961491E+03
Ar  932  0.2355266E+02  0.2977431E+02  0.1117853E+02  0.2510484E+03
Ar  933  0.2274045E+02  0.2367614E+02  0.1342199E+02  0.2375815E+03
Ar  934  0.2573066E+02  0.2714685E+02  0.1169439E+02  0.1193161E+03
Ar  935  0.2335031E+02  0.2707614E+02  0.1425141E+02  0.2948918E+03
Ar  936  0.2387924E+02  0.3058116E+02  0.1494742E+02  0.4735186E+03
Ar  937  0.2057602E+02  0.2768505E+02  0.1779501E+02  0.1513706E+02
Ar  938  0.2410233E+02  0.2834922E+02  0.1772319E+02  0.3981138E+03
Ar  939  0.2205329E+02  0.2546900E+02  0.1991294E+02  0.6506039E+02
Ar  940  0.1711617E+02  0.3134662E+02  0.1831567E+02  0.9337308E+01
Ar  941  0.2044206E+02  0.2789292E+02  0.2330329E+02  0.3612814E+03
Ar  942  0.2279936E+02  0.2952147E+02  0.2057630E+02  0.5148334E+03
Ar  943  0.2477313E+02  0.2802616E+02  0.2291222E+02  0.4501534E+03
Ar  944  0.2133663E+02  0.3079710E+02  0.2517838E+02  0.3968298E+03
Ar  945  0.2271228E+02  0.2713274E+02  0.2538952E+02  0.7105416E+03
Ar  946  0.2611898E+02  0.2666715E+02  0.2667780E+02  0.5373372E+02
Ar  947  0.2523526E+02  0.2485799E+02  0.2979782E+02  0.3468986E+03
Ar  948  0.2335822E+02  0.2825921E+02  0.2859613E+02  0.1077872E+03
Ar  949  0.2220578E+02  0.2643864E+02  0.3159515E+02  0.8923629E+03
Ar  950  0.2394719E+02  0.2822651E+02  0.3425657E+02  0.6077826E+03
Ar  951  0.2510324E+02  0.2554786E+02  0.3571341E+02  0.2361495E+03
Ar  952  0.2037529E+02  0.3068286E+02  0.3585610E+02  0.5000610E+02
Ar  953  0.2140082E+02  0.3381777E+02  0.3709626E+02  0.2756917E+03
Ar  954  0.2266987E+02  0.3685182E+02  0.3754822E+02  0.9667278E+02
Ar  955  0.2446644E+02  0.3384310E+02  0.3337594E+00  0.4273223E+03
Ar  956  0.2126372E+02  0.3502498E+02  0.2278940E+01  0.8123752E+02
Ar  957  0.1989111E+02  0.3189382E+02  0.3246556E+01  0.8918357E+03
Ar  958  0.2467249E+02  0.3191370E+02  0.8208738E+01  0.9745660E+02
Ar  959  0.2686656E+02  0.3091366E+02  0.1076178E+02  0.3645291E+03
Ar  960  0.2163359E+02  0.3307637E+02  0.9297945E+01  0.1784291E+03
Ar  961  0.2035876E+02  0.3138750E+02  0.1192756E+02  0.1610909E+03
Ar  962  0.2428702E+02  0.3323317E+02  0.1159035E+02  0.2568636E+03
Ar  963  0.2674365E+02  0.3286169E+02  0.1419926E+02  0.2330451E+03
Ar  964  0.2203467E+02  0.3322363E+02  0.1480909E+02  0.6094080E+03
Ar  965  0.2089141E+02  0.3107572E+02  0.1794419E+02  0.3702116E+03
Ar  966  0.2325299E+02  0.3650501E+02  0.1581378E+02  0.3725021E+02
Ar  967  0.2453642E+02  0.3292288E+02  0.1715671E+02  0.3483151E+03
Ar  968  0.2393076E+02  0.3593457E+02  0.1882530E+02  0.5161152E+03
Ar  969  0.2269431E+02  0.3331686E+02  0.2049794E+02  0.5798414E+03
Ar  970  0.2388949E+02  0.3573727E+02  0.2251392E+02  0.6243083E+03
Ar  971  0.2407506E+02  0.3259176E+02  0.2352780E+02  0.2724096E+03
Ar  972  0.2340259E+02  0.3369147E+02  0.2711198E+02  0.3297641E+03
Ar  973  0.2521303E+02  0.3036089E+02  0.2575123E+02  0.3494370E+03
Ar  974  0.2735678E+02  0.3418304E+02  0.2782652E+02  0.1514642E+03
Ar  975  0.2495597E+02  0.3465822E+02  0.3067108E+02  0.3996117E+02
Ar  976  0.2226843E+02  0.3715944E+02  0.2949301E+02  0.1616866E+04
Ar  977  0.2157534E+02  0.3313702E+02  0.3022921E+02  0.2726578E+03
Ar  978  0.2831203E+02  0.3051224E+02  0.2728507E+02  0.5737483E+02
Ar  979  0.2251898E+02  0.2994138E+02  0.3141866E+02  0.6098699E+02
Ar  980  0.1878314E+02  0.3367972E+02  0.3399971E+02  0.1994715E+03
Ar  981  0.2597812E+02  0.3746344E+02  0.3766499E+02  0.6343414E+02
Ar  982  0.3192185E+02  0.3564067E+01  0.9927722E+00  0.1277567E+03
Ar  983  0.3236784E+02  0.9545449E-01  0.3763380E+02  0.4355934E+03
Ar  984  0.2901031E+02  0.3774099E+02  0.4733598E+01  0.3094951E+03
Ar  985  0.2622072E+02  0.1909184E+00  0.6536437E+01  0.7087760E+02
Ar  986  0.3089889E+02  0.2759740E+01  0.5782210E+01  0.2085164E+03
Ar  987  0.3065971E+02  0.3770773E+02  0.8390823E+01  0.2618395E+03
Ar  988  0.2586315E+02  0.3623962E+01  0.7759201E+01  0.2934701E+03
Ar  989  0.2664197E+02  0.2416598E+00  0.9938275E+01  0.5960310E+03
Ar  990  0.2860763E+02  0.2840731E+01  0.9056697E+01  0.9897280E+02
Ar  991  0.2967322E+02  0.6062092E+00  0.1192459E+02  0.9125287E+03
Ar  992  0.2526349E+02  0.2725268E+01  0.1146176E+02  0.6147414E+02
Ar  993  0.2724138E+02  0.1801693E+01  0.1382917E+02  0.1180254E+03
Ar  994  0.3001120E+02  0.1964795E+01  0.1566809E+02  0.3824631E+03
Ar  995  0.2862361E+02  0.3964785E+00  0.1981875E+02  0.4290983E+03
Ar  996  0.2735039E+02  0.3663553E+01  0.1924413E+02  0.2510679E+03
Ar  997  0.2534225E+02  0.7698736E+00  0.2036619E+02  0.2968161E+03
Ar  998  0.2838511E+02  0.6164323E+01  0.2114538E+02  0.1921381E+03
Ar  999  0.2923388E+02  0.3699071E+02  0.2379901E+02  0.2202630E+03
Ar 1000  0.2905938E+02  0.3773847E+02  0.2731793E+02  0.2056902E+03
Ar 1001  0.2563671E+02  0.3731307E+02  0.2775806E+02  0.1768904E+03
Ar 1002  0.3076549E+02  0.5455479E+01  0.2672983E+02  0.3371296E+03
Ar 1003  0.3248055E+02  0.6601721E+00  0.2893444E+02  0.1351275E+02
Ar 1004  0.2767355E+02  0.5968870E+01  0.2797300E+02  0.1468875E+03
Ar 1005  0.2895227E+02  0.1221947E+01  0.3256371E+02  0.2130271E+03
Ar 1006  0.3359834E+02  0.2292648E+01  0.3149715E+02  0.2399915E+03
Ar 1007  0.2964795E+02  0.3695653E+02  0.3593996E+02  0.7643770E+02
Ar 1008  0.2792870E+02  0.2095443E+01  0.3595643E+02  0.6743564E+03
Ar 1009  0.3043384E+02  0.5565721E+01  0.3511119E+02  0.2187629E+03
Ar 1010  0.3223683E+02  0.1089723E+02  0.3592277E+02  0.5098722E+03
Ar 1011  0.3065808E+02  0.5855815E+01  0.4264848E+01  0.4483084E+03
Ar 1012  0.2958123E+02  0.8790417E+01  0.3658380E+02  0.3580584E+03
Ar 1013  0.2795148E+02  0.3983585E+01  0.4668195E+01  0.6424943E+03
Ar 1014  0.3222916E+02  0.7926354E+01  0.3389746E+00  0.9053918E+03
Ar 1015  0.2958910E+02  0.5556345E+01  0.7415602E+01  0.1088127E+03
Ar 1016  0.2805917E+02  0.7950770E+01  0.5373598E+01  0.1680429E+02
Ar 1017  0.2612498E+02  0.6579670E+01  0.1092829E+02  0.6760125E+03
Ar 1018  0.2944499E+02  0.7489442E+01  0.1026101E+02  0.3889740E+03
Ar 1019  0.2899192E+02  0.4372802E+01  0.1221846E+02  0.5224354E+03
Ar 1020  0.2813031E+02  0.8178571E+01  0.1417882E+02  0.9435709E+03
Ar 1021  0.2841522E+02  0.5248213E+01  0.1591619E+02  0.1459463E+03
Ar 1022  0.3118477E+02  0.6500133E+01  0.1342058E+02  0.1593024E+03
Ar 1023  0.3052985E+02  0.6275035E+01  0.1876428E+02  0.3729471E+03
Ar 1024  0.2587045E+02  0.6489700E+01  0.1791342E+02  0.1034908E+04
Ar 1025  0.2449132E+02  0.3889206E+01  0.2112901E+02  0.7275749E+02
Ar 1026  0.2789376E+02  0.8841066E+01  0.1940022E+02  0.1625440E+03
Ar 1027  0.2746027E+02  0.5738603E+01  0.2429470E+02  0.1259366E+03
Ar 1028  0.1959315E+02  0.1024254E+02  0.2719172E+02  0.1278569E+03
Ar 1029  0.2502845E+02  0.8264605E+01  0.2523573E+02  0.2678915E+02
Ar 1030  0.3067360E+02  0.6743088E+01  0.2982735E+02  0.6484597E+03
Ar 1031  0.3175811E+02  0.4869263E+01  0.3232923E+02  0.8561171E+03
Ar 1032  0.2812446E+02  0.4635745E+01  0.3111352E+02  0.5978657E+03
Ar 1033  0.2966168E+02  0.2313446E+01  0.2948396E+02  0.1729396E+03
Ar 1034  0.3019335E+02  0.8178450E+01  0.3272123E+02  0.6210112E+03
Ar 1035  0.3174378E+02  0.1810093E+01  0.3469569E+02  0.3130874E+03
Ar 1036  0.2630790E+02  0.6335882E+01  0.3568999E+02  0.1652926E+02
Ar 1037  0.2766720E+02  0.1150387E+02  0.1194758E-02  0.1996917E+02
Ar 1038  0.2909498E+02  0.1445700E+02  0.3655414E+02  0.2049171E+03
Ar 1039  0.3132249E+02  0.1235267E+02  0.9846210E+00  0.1258496E+03
Ar 1040  0.2539427E+02  0.1395955E+02  0.1514189E+01  0.3672661E+02
Ar 1041  0.2665866E+02  0.1124138E+02  0.3340815E+01  0.1857927E+03
Ar 1042  0.2971875E+02  0.1252981E+02  0.3815659E+01  0.4065911E+03
Ar 1043  0.2852783E+02  0.1085260E+02  0.6296860E+01  0.5317450E+02
Ar 1044  0.2775922E+02  0.1448262E+02  0.5925398E+01  0.1482837E+03
Ar 1045  0.2479419E+02  0.1014770E+02  0.1191496E+02  0.4765640E+03
Ar 1046  0.2793401E+02  0.1305716E+02  0.8982973E+01  0.2089727E+03
Ar 1047  0.2735861E+02  0.1245037E+02  0.1249118E+02  0.1727889E+03
Ar 1048  0.2444725E+02  0.1190322E+02  0.1557104E+02  0.3020401E+03
Ar 1049  0.2792661E+02  0.1112127E+02  0.1589392E+02  0.1546098E+03
Ar 1050  0.2955902E+02  0.1397889E+02  0.1494886E+02  0.1992306E+03
Ar 1051  0.2989258E+02  0.1223785E+02  0.1834516E+02  0.3337293E+03
Ar 1052  0.2640495E+02  0.1403738E+02  0.1761414E+02  0.6053090E+03
Ar 1053  0.2585355E+02  0.1082199E+02  0.2277920E+02  0.1413190E+02
Ar 1054  0.2906270E+02  0.1159939E+02  0.2188327E+02  0.5137636E+03
Ar 1055  0.2739538E+02  0.8689510E+01  0.3039878E+02  0.4056791E+03
Ar 1056  0.2774532E+02  0.1364534E+02  0.2431496E+02  0.1064548E+03
Ar 1057  0.2718109E+02  0.1230586E+02  0.3019931E+02  0.4822509E+03
Ar 1058  0.2914654E+02  0.1290832E+02  0.2736206E+02  0.8720196E+03
Ar 1059  0.3028886E+02  0.1003248E+02  0.2902027E+02  0.3372776E+03
Ar 1060  0.2556274E+02  0.1252431E+02  0.2723552E+02  0.2159805E+03
Ar 1061  0.2641612E+02  0.8815731E+01  0.3354256E+02  0.6521047E+03
Ar 1062  0.3083282E+02  0.1354787E+02  0.3034386E+02  0.3845024E+03
Ar 1063  0.2926953E+02  0.1132722E+02  0.3296046E+02  0.5574191E+03
Ar 1064  0.2675870E+02  0.1315023E+02  0.3445423E+02  0.2315295E+03
Ar 1065  0.2562537E+02  0.1628761E+02  0.3532380E+02  0.7784809E+03
Ar 1066  0.2819001E+02  0.1809800E+02  0.5629500E-01  0.3638247E+02
Ar 1067  0.2826540E+02  0.1521674E+02  0.2479186E+01  0.3353714E+02
Ar 1068  0.2745114E+02  0.1980354E+02  0.3065605E+01  0.3154553E+03
Ar 1069  0.2598939E+02  0.1698810E+02  0.4316126E+01  0.4657019E+03
Ar 1070  0.2910424E+02  0.1789720E+02  0.5378647E+01  0.1912504E+03
Ar 1071  0.2837045E+02  0.1644386E+02  0.8539749E+01  0.3563848E+03
Ar 1072  0.2636239E+02  0.1879904E+02  0.7179287E+01  0.1012597E+03
Ar 1073  0.2365861E+02  0.1353330E+02  0.1118500E+02  0.4618295E+03
Ar 1074  0.2831257E+02  0.1944294E+02  0.1056278E+02  0.1809902E+03
Ar 1075  0.2854355E+02  0.1565131E+02  0.1198346E+02  0.1305352E+03
Ar 1076  0.2625308E+02  0.1838087E+02  0.1356765E+02  0.2744330E+03
Ar 1077  0.2526439E+02  0.1480362E+02  0.1423078E+02  0.2079636E+03
Ar 1078  0.2841146E+02  0.1726146E+02  0.1591313E+02  0.1777203E+03
Ar 1079  0.3460969E+02  0.1634782E+02  0.1828917E+02  0.2595434E+03
Ar 1080  0.2834488E+02  0.1642517E+02  0.1958860E+02  0.3622424E+03
Ar 1081  0.3160413E+02  0.1515988E+02  0.1920331E+02  0.6059859E+03
Ar 1082  0.2762095E+02  0.1771625E+02  0.2350998E+02  0.4851729E+02
Ar 1083  0.3014474E+02  0.1643120E+02  0.2639666E+02  0.2772045E+03
Ar 1084  0.2528939E+02  0.2063426E+02  0.2260600E+02  0.2476681E+02
Ar 1085  0.2484104E+02  0.1582725E+02  0.2445598E+02  0.2877759E+03
Ar 1086  0.2754118E+02  0.1946927E+02  0.2992103E+02  0.3732087E+03
Ar 1087  0.2711565E+02  0.1548418E+02  0.2877169E+02  0.4799939E+03
Ar 1088  0.2412358E+02  0.2009934E+02  0.3132007E+02  0.3213112E+02
Ar 1089  0.2887904E+02  0.1479079E+02  0.3276295E+02  0.1406319E+03
Ar 1090  0.3027367E+02  0.2112982E+02  0.2898586E+02  0.2865708E+03
Ar 1091  0.2980140E+02  0.1762343E+02  0.3477225E+02  0.4613435E+03
Ar 1092  0.2497398E+02  0.1938336E+02  0.3655560E+02  0.8493753E+02
Ar 1093  0.2667868E+02  0.2220194E+02  0.3710879E+02  0.3787659E+02
Ar 1094  0.3170976E+02  0.2498328E+02  0.3773978E+02  0.2158389E+02
Ar 1095  0.3136166E+02  0.2072150E+02  0.4602032E+01  0.6326478E+03
Ar 1096  0.2913877E+02  0.2242763E+02  0.1939698E+01  0.4040298E+03
Ar 1097  0.2641429E+02  0.2203582E+02  0.5128156E+01  0.7812374E+02
Ar 1098  0.2750825E+02  0.2523286E+02  0.3920050E+01  0.2237285E+03
Ar 1099  0.2887933E+02  0.2153671E+02  0.7586086E+01  0.5810334E+03
Ar 1100  0.2702401E+02  0.2454510E+02  0.7532087E+01  0.7335852E+02
Ar 1101  0.2564278E+02  0.2122072E+02  0.1209030E+02  0.1117062E+03
Ar 1102  0.2852667E+02  0.2267854E+02  0.1126547E+02  0.1511285E+03
Ar 1103  0.2823810E+02  0.2138494E+02  0.1431529E+02  0.2242281E+03
Ar 1104  0.2646305E+02  0.2441269E+02  0.1411080E+02  0.2470547E+03
Ar 1105  0.2717515E+02  0.1990535E+02  0.1749494E+02  0.9720145E+02
Ar 1106  0.2659371E+02  0.2314799E+02  0.1807033E+02  0.1102504E+03
Ar 1107  0.2901690E+02  0.1956728E+02  0.2029839E+02  0.1228885E+04
Ar 1108  0.2774869E+02  0.2299399E+02  0.2126225E+02  0.4373806E+03
Ar 1109  0.2697555E+02  0.2329430E+02  0.2508304E+02  0.4855634E+03
Ar 1110  0.2923975E+02  0.2090285E+02  0.2335453E+02  0.6562452E+02
Ar 1111  0.2870362E+02  0.1956661E+02  0.2620123E+02  0.4177839E+03
Ar 1112  0.3036458E+02  0.2325984E+02  0.2599073E+02  0.4716338E+03
Ar 1113  0.2559137E+02  0.2192853E+02  0.2818726E+02  0.2445071E+03
Ar 1114  0.2819350E+02  0.2477542E+02  0.2846366E+02  0.1021729E+04
Ar 1115  0.2761710E+02  0.2248212E+02  0.3099966E+02  0.2426453E+02
Ar 1116  0.2935798E+02  0.2377226E+02  0.3435387E+02  0.4047480E+03
Ar 1117  0.2524169E+02  0.2262871E+02  0.3385310E+02  0.1092321E+04
Ar 1118  0.3285371E+02  0.2554091E+02  0.3344739E+02  0.3483393E+03
Ar 1119  0.3235681E+02  0.2265000E+02  0.3480236E+02  0.2739911E+03
Ar 1120  0.3006493E+02  0.2534475E+02  0.3140484E+02  0.1942489E+03
Ar 1121  0.2721825E+02  0.2862728E+02  0.8956998E+00  0.9113790E+02
Ar 1122  0.2496064E+02  0.3129376E+02  0.3545142E+02  0.3176494E+03
Ar 1123  0.3054842E+02  0.2677080E+02  0.2410529E+01  0.2941086E+03
Ar 1124  0.2683504E+02  0.3207146E+02  0.1833600E+01  0.5135613E+03
Ar 1125  0.2763028E+02  0.2900930E+02  0.4649610E+01  0.1279693E+03
Ar 1126  0.3088155E+02  0.3013376E+02  0.3985426E+01  0.1588755E+02
Ar 1127  0.3043767E+02  0.2733137E+02  0.5878953E+01  0.1585967E+03
Ar 1128  0.2836920E+02  0.3157473E+02  0.6471924E+01  0.1734255E+03
Ar 1129  0.2905829E+02  0.2586405E+02  0.1006026E+02  0.4873772E+03
Ar 1130  0.2966688E+02  0.2903035E+02  0.1081733E+02  0.7322078E+03
Ar 1131  0.2900738E+02  0.2680617E+02  0.1354023E+02  0.2364434E+03
Ar 1132  0.2751583E+02  0.2966603E+02  0.1404060E+02  0.2582113E+03
Ar 1133  0.2707132E+02  0.2644163E+02  0.1670092E+02  0.2400611E+03
Ar 1134  0.2703833E+02  0.3007805E+02  0.1738338E+02  0.5213769E+03
Ar 1135  0.2920202E+02  0.2581405E+02  0.1931448E+02  0.3108106E+03
Ar 1136  0.2528339E+02  0.2585684E+02  0.2040154E+02  0.3740268E+03
Ar 1137  0.2797443E+02  0.2631468E+02  0.2316249E+02  0.2361417E+03
Ar 1138  0.3003085E+02  0.2867772E+02  0.2263414E+02  0.3715182E+03
Ar 1139  0.3092665E+02  0.2538178E+02  0.2228327E+02  0.3673858E+03
Ar 1140  0.2736239E+02  0.2867758E+02  0.2045834E+02  0.8705924E+02
Ar 1141  0.2987753E+02  0.2716808E+02  0.2544669E+02  0.3685794E+03
Ar 1142  0.3143737E+02  0.3003026E+02  0.2608456E+02  0.2030923E+03
Ar 1143  0.3217942E+02  0.2795150E+02  0.3116959E+02  0.4173050E+02
Ar 1144  0.2996531E+02  0.2762137E+02  0.2877887E+02  0.4560803E+03
Ar 1145  0.2658348E+02  0.2561104E+02  0.3278240E+02  0.1600069E+03
Ar 1146  0.2615591E+02  0.2805348E+02  0.3037853E+02  0.3063312E+03
Ar 1147  0.3063850E+02  0.2763601E+02  0.3486508E+02  0.5780892E+03
Ar 1148  0.2743269E+02  0.2812408E+02  0.3495597E+02  0.7726255E+03
Ar 1149  0.2381317E+02  0.3451881E+02  0.3397965E+02  0.3363723E+03
Ar 1150  0.2791840E+02  0.3393553E+02  0.3690360E+02  0.6737635E+03
Ar 1151  0.3020023E+02  0.3287700E+02  0.2407733E+01  0.2802198E+03
Ar 1152  0.2929464E+02  0.3634918E+02  0.1570246E+01  0.4421806E+03
Ar 1153  0.2604700E+02  0.3399846E+02  0.4910624E+01  0.7162358E+03
Ar 1154  0.2957907E+02  0.3439104E+02  0.5431932E+01  0.4315433E+02
Ar 1155  0.2724890E+02  0.3513603E+02  0.7814666E+01  0.3721082E+03
Ar 1156  0.2747865E+02  0.3464553E+02  0.1150611E+02  0.2198786E+02
Ar 1157  0.2990644E+02  0.3230596E+02  0.1360751E+02  0.7841347E+02
Ar 1158  0.3139610E+02  0.3552060E+02  0.1165664E+02  0.3937153E+03
Ar 1159  0.3013270E+02  0.3219677E+02  0.1695700E+02  0.4366828E+03
Ar 1160  0.2895503E+02  0.3557878E+02  0.1465556E+02  0.4068860E+02
Ar 1161  0.2704010E+02  0.3510353E+02  0.1799391E+02  0.4577393E+03
Ar 1162  0.3067056E+02  0.3667615E+02  0.1703163E+02  0.1810419E+03
Ar 1163  0.2896837E+02  0.3156350E+02  0.2051855E+02  0.1937822E+03
Ar 1164  0.2683889E+02  0.7102561E+00  0.1690307E+02  0.2350192E+03
Ar 1165  0.2550389E+02  0.3173491E+02  0.2024707E+02  0.7280612E+03
Ar 1166  0.2722212E+02  0.3448070E+02  0.2170701E+02  0.1650192E+03
Ar 1167  0.3002676E+02  0.3391435E+02  0.2590289E+02  0.7547601E+03
Ar 1168  0.2615353E+02  0.3537709E+02  0.2500731E+02  0.3045199E+03
Ar 1169  0.2778033E+02  0.3108175E+02  0.2341700E+02  0.6317841E+03
Ar 1170  0.3234411E+02  0.3447830E+02  0.2944134E+02  0.3766057E+03
Ar 1171  0.3506228E+02  0.3603901E+02  0.3165313E+02  0.2812799E+03
Ar 1172  0.2912345E+02  0.3233643E+02  0.3082354E+02  0.3733442E+03
Ar 1173  0.2547137E+02  0.3154235E+02  0.2936741E+02  0.2418341E+02
Ar 1174  0.3031026E+02  0.3438477E+02  0.3394390E+02  0.4174002E+03
Ar 1175  0.3210162E+02  0.3217752E+02  0.3249416E+02  0.4696003E+03
Ar 1176  0.2638209E+02  0.3237252E+02  0.3264489E+02  0.5817618E+03
Ar 1177  0.3415358E+02  0.3596424E+02  0.3568739E+02  0.1127638E+03
Ar 1178  0.3611057E+02  0.2059045E+01  0.7614098E+00  0.6150106E+03
Ar 1179  0.3625157E+02  0.3760116E+02  0.3576977E+01  0.7996928E+03
Ar 1180  0.3327133E+02  0.1894911E+01  0.3473029E+01  0.1855008E+04
Ar 1181  0.3292394E+02  0.3730279E+02  0.5894028E+01  0.6757722E+03
Ar 1182  0.3641027E+02  0.3653240E+01  0.5994984E+01  0.1714784E+03
Ar 1183  0.3597379E+02  0.3741473E+02  0.8786749E+01  0.1202913E+03
Ar 1184  0.3382394E+02  0.2202647E+01  0.7408046E+01  0.1706202E+03
Ar 1185  0.3338340E+02  0.2215930E+00  0.1062081E+02  0.7662305E+02
Ar 1186  0.3548463E+02  0.2596603E+01  0.1078162E+02  0.5380385E+03
Ar 1187  0.3735635E+02  0.3428703E+02  0.1502020E+02  0.2240034E+03
Ar 1188  0.3266107E+02  0.2968770E+01  0.1292281E+02  0.2920863E+03
Ar 1189  0.3468720E+02  0.3623096E+02  0.1664770E+02  0.3230295E+03
Ar 1190  0.3511276E+02  0.2159683E+01  0.1487602E+02  0.5019654E+03
Ar 1191  0.3674354E+02  0.1011572E+01  0.1879456E+02  0.4710010E+03
Ar 1192  0.3241542E+02  0.1687952E+01  0.1762083E+02  0.4539716E+03
Ar 1193  0.3375591E+02  0.3693554E+02  0.1976002E+02  0.3150907E+03
Ar 1194  0.3457460E+02  0.2238813E+01  0.2113982E+02  0.1979613E+03
Ar 1195  0.3612307E+02  0.3681400E+02  0.2281262E+02  0.1761619E+03
Ar 1196  0.3082365E+02  0.4380196E+01  0.2359208E+02  0.6444273E+03
Ar 1197  0.3202102E+02  0.2379005E+01  0.2614245E+02  0.6690479E+03
Ar 1198  0.3196690E+02  0.6948126E+00  0.2242055E+02  0.1577435E+03
Ar 1199  0.3540901E+02  0.1475670E+01  0.2500739E+02  0.9895459E+02
Ar 1200  0.3333694E+02  0.4733445E+01  0.2853408E+02  0.7197214E+02
Ar 1201  0.3181277E+02  0.3696988E+02  0.3209262E+02  0.8526771E+03
Ar 1202  0.3672375E+02  0.3108933E+01  0.3175750E+02  0.1275916E+03
Ar 1203  0.3504295E+02  0.1661031E+01  0.3482877E+02  0.9814179E+02
Ar 1204  0.3433433E+02  0.4823479E+01  0.3545795E+02  0.5335474E+03
Ar 1205  0.3438259E+02  0.5634689E+01  0.1694501E+01  0.1041069E+04
Ar 1206  0.3509579E+02  0.8606402E+01  0.3691429E+02  0.6922589E+03
Ar 1207  0.3628446E+02  0.6917170E+01  0.5233152E+01  0.3576978E+03
Ar 1208  0.3308356E+02  0.8365665E+01  0.4178736E+01  0.2551062E+03
Ar 1209  0.3332139E+02  0.5750862E+01  0.6530443E+01  0.2991774E+02
Ar 1210  0.3550889E+02  0.9086908E+01  0.7645511E+01  0.1500597E+03
Ar 1211  0.3544213E+02  0.6068789E+01  0.8816493E+01  0.2853948E+03
Ar 1212  0.3169965E+02  0.8898952E+01  0.7159625E+01  0.5843539E+03
Ar 1213  0.3205890E+02  0.4550572E+01  0.9669501E+01  0.2542636E+03
Ar 1214  0.3349784E+02  0.7916609E+01  0.1088018E+02  0.2049285E+03
Ar 1215  0.3469408E+02  0.5501608E+01  0.1319064E+02  0.2660424E+03
Ar 1216  0.3350363E+02  0.8923428E+01  0.1402877E+02  0.3704987E+03
Ar 1217  0.3241385E+02  0.4805431E+01  0.1583822E+02  0.1563924E+03
Ar 1218  0.3675960E+02  0.6638339E+01  0.1549875E+02  0.7510725E+03
Ar 1219  0.3439957E+02  0.7788999E+01  0.1747496E+02  0.2860350E+03
Ar 1220  0.3130636E+02  0.9374224E+01  0.1726566E+02  0.8354074E+01
Ar 1221  0.3128634E+02  0.3303844E+01  0.2030764E+02  0.2079359E+03
Ar 1222  0.3623480E+02  0.7471634E+01  0.2121473E+02  0.3542004E+03
Ar 1223  0.3428656E+02  0.5229948E+01  0.1958820E+02  0.4359947E+03
Ar 1224  0.2976704E+02  0.8152075E+01  0.2360216E+02  0.5806272E+03
Ar 1225  0.3399412E+02  0.4979166E+01  0.2436356E+02  0.1391220E+03
Ar 1226  0.3525185E+02  0.6756302E+01  0.2672580E+02  0.4184948E+03
Ar 1227  0.3668079E+02  0.3844501E+01  0.2725629E+02  0.4379629E+03
Ar 1228  0.3414610E+02  0.8757409E+01  0.2982666E+02  0.5361441E+02
Ar 1229  0.3660956E+02  0.6497218E+01  0.3014077E+02  0.4982985E+03
Ar 1230  0.2081261E+01  0.5832544E+01  0.2953799E+02  0.2276055E+03
Ar 1231  0.3389612E+02  0.7314496E+01  0.3333172E+02  0.1356877E+03
Ar 1232  0.3647219E+02  0.9520182E+01  0.3246127E+02  0.3324582E+03
Ar 1233  0.3192622E+02  0.1368342E+02  0.3465313E+02  0.1495919E+03
Ar 1234  0.3456018E+02  0.1368222E+02  0.3735583E+02  0.2352633E+03
Ar 1235  0.3468322E+02  0.1088984E+02  0.1667740E+01  0.1559461E+03
Ar 1236  0.3192433E+02  0.1535736E+02  0.1529560E+01  0.7549435E+02
Ar 1237  0.3282419E+02  0.1228293E+02  0.5187172E+01  0.8208518E+02
Ar 1238  0.3560406E+02  0.1488292E+02  0.3195147E+01  0.4502345E+03
Ar 1239  0.3327014E+02  0.1180799E+02  0.8492321E+01  0.4277244E+03
Ar 1240  0.3103700E+02  0.1418634E+02  0.7858804E+01  0.3807668E+02
Ar 1241  0.3021856E+02  0.1101541E+02  0.1030409E+02  0.3321896E+03
Ar 1242  0.3443207E+02  0.1503422E+02  0.9855383E+01  0.3132485E+03
Ar 1243  0.3471749E+02  0.1112008E+02  0.1167234E+02  0.1825179E+03
Ar 1244  0.3239676E+02  0.1334158E+02  0.1189839E+02  0.5276728E+03
Ar 1245  0.3052024E+02  0.1102402E+02  0.1385532E+02  0.2049351E+03
Ar 1246  0.3316729E+02  0.1322026E+02  0.1560808E+02  0.7790455E+02
Ar 1247  0.3531406E+02  0.1099651E+02  0.1726278E+02  0.1013445E+02
Ar 1248  0.3303222E+02  0.1228178E+02  0.1939501E+02  0.4511740E+03
Ar 1249  0.3238877E+02  0.9006647E+01  0.2088343E+02  0.5473727E+03
Ar 1250  0.3274787E+02  0.1237314E+02  0.2276897E+02  0.6570270E+03
Ar 1251  0.3366860E+02  0.8754996E+01  0.2386461E+02  0.1055663E+04
Ar 1252  0.2817939E+02  0.9577112E+01  0.2623085E+02  0.2896977E+03
Ar 1253  0.3236685E+02  0.8361246E+01  0.2711663E+02  0.7850039E+02
Ar 1254  0.3507986E+02  0.1143850E+02  0.2470573E+02  0.2608942E+03
Ar 1255  0.3624911E+02  0.9841247E+01  0.2713026E+02  0.9983699E+03
Ar 1256  0.3365577E+02  0.1165695E+02  0.2879715E+02  0.5799418E+02
Ar 1257  0.3247851E+02  0.1065919E+02  0.3222727E+02  0.1422765E+03
Ar 1258  0.3434368E+02  0.1346005E+02  0.3242856E+02  0.1101663E+04
Ar 1259  0.3506189E+02  0.1145367E+02  0.3486982E+02  0.1476879E+03
Ar 1260  0.3514111E+02  0.1571767E+02  0.3497274E+02  0.3365913E+03
Ar 1261  0.3305335E+02  0.1833076E+02  0.3540762E+02  0.6357686E+03
Ar 1262  0.3594884E+02  0.2215994E+02  0.3632366E+02  0.5858850E+02
Ar 1263  0.3493720E+02  0.1706119E+02  0.4298868E+00  0.6381764E+03
Ar 1264  0.3163962E+02  0.1882684E+02  0.9034260E+00  0.3860983E+03
Ar 1265  0.3182552E+02  0.1614260E+02  0.5357016E+01  0.3369321E+03
Ar 1266  0.3501684E+02  0.1946584E+02  0.3892487E+01  0.4166553E+03
Ar 1267  0.3390498E+02  0.1742298E+02  0.7804012E+01  0.4532348E+03
Ar 1268  0.3102997E+02  0.1879653E+02  0.7924312E+01  0.7429418E+03
Ar 1269  0.3168438E+02  0.1653006E+02  0.1022557E+02  0.2269399E+03
Ar 1270  0.3417578E+02  0.1993973E+02  0.1029338E+02  0.3705689E+03
Ar 1271  0.3354177E+02  0.1628502E+02  0.1303717E+02  0.8389462E+02
Ar 1272  0.3013150E+02  0.1810268E+02  0.1345694E+02  0.4181028E+03
Ar 1273  0.3176013E+02  0.1635430E+02  0.1604447E+02  0.8469157E+02
Ar 1274  0.3477160E+02  0.1917501E+02  0.1518997E+02  0.1089499E+03
Ar 1275  0.3644586E+02  0.1461241E+02  0.2092421E+02  0.2242663E+03
Ar 1276  0.3297127E+02  0.1887281E+02  0.1987401E+02  0.8362678E+02
Ar 1277  0.2978953E+02  0.1558448E+02  0.2257593E+02  0.3003912E+03
Ar 1278  0.3633136E+02  0.1870622E+02  0.2103955E+02  0.4786321E+03
Ar 1279  0.3137045E+02  0.1131438E+02  0.2562490E+02  0.2711818E+03
Ar 1280  0.3298571E+02  0.1649761E+02  0.2238326E+02  0.1204315E+03
Ar 1281  0.3038995E+02  0.1717293E+02  0.2977024E+02  0.3888904E+03
Ar 1282  0.3391859E+02  0.1803567E+02  0.2697571E+02  0.1621818E+03
Ar 1283  0.3227146E+02  0.1648752E+02  0.3212149E+02  0.7097501E+03
Ar 1284  0.3306736E+02  0.2151863E+02  0.2734198E+02  0.2663700E+03
Ar 1285  0.3324720E+02  0.1924136E+02  0.3038820E+02  0.8080771E+02
Ar 1286  0.3376970E+02  0.1493656E+02  0.2926645E+02  0.5244722E+03
Ar 1287  0.3460465E+02  0.2035664E+02  0.3323508E+02  0.2955465E+03
Ar 1288  0.3010333E+02  0.2040980E+02  0.3232262E+02  0.1818438E+03
Ar 1289  0.2957426E+02  0.2055812E+02  0.3621567E+02  0.7218057E+03
Ar 1290  0.3486701E+02  0.2555385E+02  0.3612907E+02  0.4012884E+03
Ar 1291  0.3299434E+02  0.2198308E+02  0.6616825E+00  0.6340022E+03
Ar 1292  0.3464237E+02  0.2484797E+02  0.3400479E+01  0.9616018E+02
Ar 1293  0.3177313E+02  0.2416746E+02  0.5015076E+01  0.6696743E+02
Ar 1294  0.3506423E+02  0.2485612E+02  0.7121195E+01  0.6072097E+03
Ar 1295  0.3345331E+02  0.2173396E+02  0.7018032E+01  0.4243637E+03
Ar 1296  0.3189314E+02  0.2475949E+02  0.8479972E+01  0.1479008E+03
Ar 1297  0.3125110E+02  0.2181879E+02  0.1009585E+02  0.3052506E+02
Ar 1298  0.3408021E+02  0.2309639E+02  0.1147174E+02  0.3428560E+02
Ar 1299  0.3238323E+02  0.2049719E+02  0.1302258E+02  0.1082094E+03
Ar 1300  0.3113864E+02  0.2422211E+02  0.1299818E+02  0.2123397E+03
Ar 1301  0.3143875E+02  0.2021320E+02  0.1644015E+02  0.2672041E+03
Ar 1302  0.3311206E+02  0.2314830E+02  0.1510888E+02  0.1548615E+03
Ar 1303  0.3422276E+02  0.2154129E+02  0.1840792E+02  0.4941264E+03
Ar 1304  0.3062608E+02  0.2259010E+02  0.1937737E+02  0.5568410E+03
Ar 1305  0.3262937E+02  0.2178412E+02  0.2195391E+02  0.4996652E+02
Ar 1306  0.3446239E+02  0.2434645E+02  0.2056118E+02  0.2291327E+03
Ar 1307  0.9721888E+00  0.1896893E+02  0.2610950E+02  0.4207370E+03
Ar 1308  0.3189460E+02  0.2482952E+02  0.2871938E+02  0.1858697E+04
Ar 1309  0.3216430E+02  0.1947326E+02  0.2458223E+02  0.1651303E+03
Ar 1310  0.3581232E+02  0.2402620E+02  0.2666646E+02  0.2263835E+03
Ar 1311  0.3606819E+02  0.2149250E+02  0.2950923E+02  0.6022870E+02
Ar 1312  0.3337865E+02  0.2377294E+02  0.2430776E+02  0.8473509E+02
Ar 1313  0.3258993E+02  0.2256181E+02  0.3126322E+02  0.9359971E+03
Ar 1314  0.3592022E+02  0.2718707E+02  0.3338409E+02  0.2014104E+03
Ar 1315  0.3621649E+02  0.2361468E+02  0.3292263E+02  0.1173710E+03
Ar 1316  0.3350416E+02  0.2934215E+02  0.3441803E+02  0.1072029E+04
Ar 1317  0.3360167E+02  0.2806720E+02  0.9143405E-01  0.3904513E+03
Ar 1318  0.3660477E+02  0.3085123E+02  0.6449931E+00  0.2198947E+03
Ar 1319  0.3647411E+02  0.2772518E+02  0.2800167E+01  0.1857412E+03
Ar 1320  0.3335230E+02  0.3074368E+02  0.1731723E+01  0.1697080E+03
Ar 1321  0.3351539E+02  0.2739706E+02  0.4954811E+01  0.3736367E+03
Ar 1322  0.3552848E+02  0.3012484E+02  0.5613467E+01  0.1857672E+03
Ar 1323  0.3411600E+02  0.2794928E+02  0.8113456E+01  0.1359642E+03
Ar 1324  0.3172467E+02  0.3077685E+02  0.7036472E+01  0.2554806E+03
Ar 1325  0.3272376E+02  0.2684534E+02  0.1111905E+02  0.9377433E+02
Ar 1326  0.3294215E+02  0.3086513E+02  0.1030209E+02  0.4465147E+03
Ar 1327  0.3253128E+02  0.2691598E+02  0.1457617E+02  0.1236302E+03
Ar 1328  0.2985611E+02  0.2840238E+02  0.1653011E+02  0.2416450E+03
Ar 1329  0.2978354E+02  0.2448057E+02  0.1614252E+02  0.8100409E+02
Ar 1330  0.3334951E+02  0.2960628E+02  0.1687149E+02  0.5146505E+03
Ar 1331  0.3456900E+02  0.2788001E+02  0.2031497E+02  0.3175031E+03
Ar 1332  0.3147276E+02  0.2918543E+02  0.1972917E+02  0.1206454E+04
Ar 1333  0.3557669E+02  0.2055532E+02  0.2489194E+02  0.4032662E+03
Ar 1334  0.3724598E+02  0.3021790E+02  0.2021387E+02  0.5723417E+03
Ar 1335  0.3472576E+02  0.2713081E+02  0.2444471E+02  0.7445123E+02
Ar 1336  0.3415038E+02  0.3025168E+02  0.2457502E+02  0.3983096E+02
Ar 1337  0.3367575E+02  0.2819260E+02  0.2753011E+02  0.1745317E+03
Ar 1338  0.3639301E+02  0.3105583E+02  0.2718094E+02  0.7466210E+03
Ar 1339  0.3576194E+02  0.2912397E+02  0.3065571E+02  0.4938341E+03
Ar 1340  0.3243196E+02  0.3066062E+02  0.2924491E+02  0.7537179E+03
Ar 1341  0.2871373E+02  0.2931393E+02  0.3198607E+02  0.7777204E+02
Ar 1342  0.3700173E+02  0.3073444E+02  0.3375918E+02  0.3308632E+03
Ar 1343  0.3685913E+02  0.2826601E+02  0.3631585E+02  0.7623516E+03
Ar 1344  0.3353251E+02  0.3206902E+02  0.3615569E+02  0.2845677E+02
Ar 1345  0.2916274E+02  0.3096423E+02  0.3554082E+02  0.1091703E+03
Ar 1346  0.1298751E+01  0.3562505E+02  0.5126374E+01  0.1829848E+03
Ar 1347  0.3562890E+02  0.3259239E+02  0.3283553E+01  0.2471719E+03
Ar 1348  0.3235813E+02  0.3596696E+02  0.2963242E+01  0.1893998E+03
Ar 1349  0.3268031E+02  0.3313027E+02  0.4724784E+01  0.6711323E+03
Ar 1350  0.3560629E+02  0.3524388E+02  0.6156977E+01  0.3923123E+03
Ar 1351  0.3483732E+02  0.3220447E+02  0.7779994E+01  0.5450599E+03
Ar 1352  0.3203910E+02  0.3421512E+02  0.7722571E+01  0.3027061E+03
Ar 1353  0.3034627E+02  0.3261423E+02  0.1036676E+02  0.1523223E+03
Ar 1354  0.3444371E+02  0.3480665E+02  0.1013105E+02  0.3817134E+03
Ar 1355  0.3214978E+02  0.2979962E+02  0.1351983E+02  0.4476118E+03
Ar 1356  0.3311900E+02  0.3331565E+02  0.1497955E+02  0.1675884E+03
Ar 1357  0.3349799E+02  0.3364056E+02  0.1864771E+02  0.7420871E+03
Ar 1358  0.3651685E+02  0.3480002E+02  0.2003458E+02  0.1046622E+03
Ar 1359  0.3392896E+02  0.3107480E+02  0.2104359E+02  0.8254701E+03
Ar 1360  0.3074038E+02  0.3439836E+02  0.2130702E+02  0.4317997E+03
Ar 1361  0.3133510E+02  0.3191515E+02  0.2353998E+02  0.1110176E+04
Ar 1362  0.1184574E+01  0.3463297E+02  0.2258816E+02  0.5124329E+03
Ar 1363  0.3644404E+02  0.3360992E+02  0.2473338E+02  0.1886002E+03
Ar 1364  0.3390038E+02  0.3424656E+02  0.2287036E+02  0.8166172E+03
Ar 1365  0.3359903E+02  0.3310473E+02  0.2611975E+02  0.3947698E+03
Ar 1366  0.3248966E+02  0.3677840E+02  0.2562289E+02  0.1947955E+03
Ar 1367  0.3489970E+02  0.3249707E+02  0.3070437E+02  0.8629715E+02
Ar 1368  0.2872063E+02  0.3631499E+02  0.3072182E+02  0.6455079E+03
Ar 1369  0.3045762E+02  0.2989573E+02  0.3006614E+00  0.2990324E+03
Ar 1370  0.3593905E+02  0.8654787E+00  0.2907594E+02  0.5124890E+03
Ar 1371  0.3527020E+02  0.3359307E+02  0.3366692E+02  0.2416353E+03
Ar 1372  0.3163072E+02  0.3397824E+02  0.3764315E+02  0.8814296E+03
