        1372
Lattice="  0.3778015E+02  0.0000000E+00  0.0000000E+00  0.0000000E+00  0.3778015E+02  0.0000000E+00  0.0000000E+00  0.0000000E+00  0.3778015E+02" Properties=species:S:1:id:I:1:pos:R:3:tempK:R:1
Ar    1  0.1128782E+01  0.3556852E+02  0.5767669E-01  0.6174610E+03
Ar    2  0.2345289E+01  0.3802356E+01  0.3756197E+02  0.1563620E+03
Ar    3  0.1101882E+01  0.1041843E+01  0.3737540E+01  0.4458111E+03
Ar    4  0.3715751E+02  0.4164104E+01  0.1906433E+01  0.1405845E+03
Ar    5  0.5690939E+00  0.3706195E+02  0.6936669E+01  0.2437787E+03
Ar    6  0.3335650E+01  0.1403569E+01  0.7576819E+01  0.3777082E+03
Ar    7  0.2841792E+01  0.3718604E+02  0.1044177E+02  0.3381632E+03
Ar    8  0.4732522E+00  0.2585059E+01  0.8552562E+01  0.2124593E+03
Ar    9  0.3164354E+02  0.3700586E+02  0.1369473E+02  0.2169364E+03
Ar   10  0.7139687E+01  0.3015112E+01  0.8845850E+01  0.4885382E+03
Ar   11  0.3342080E+01  0.1661706E+01  0.1346885E+02  0.3081363E+03
Ar   12  0.4340923E+00  0.9214349E+00  0.1191692E+02  0.9208267E+03
Ar   13  0.1243528E+01  0.1249934E+00  0.1574277E+02  0.8283313E+02
Ar   14  0.7763215E+01  0.4689290E+01  0.1181664E+02  0.7768785E+03
Ar   15  0.6488947E+01  0.2492981E+01  0.1520850E+02  0.3359815E+02
Ar   16  0.1336056E+01  0.3966796E+01  0.1903883E+02  0.1827816E+03
Ar   17  0.4300800E+01  0.1647820E+01  0.2117349E+02  0.2121374E+03
Ar   18  0.4084036E+01  0.1249119E+01  0.1719502E+02  0.7034438E+02
Ar   19  0.3039525E+01  0.6639637E+00  0.2396851E+02  0.8719880E+02
Ar   20  0.3777256E+02  0.1181986E+01  0.2211141E+02  0.2163249E+03
Ar   21  0.1372259E+01  0.2520723E+01  0.2647245E+02  0.1092856E+03
Ar   22  0.6267829E+01  0.1248373E+01  0.2551962E+02  0.3611334E+03
Ar   23  0.2295445E+01  0.2012667E+00  0.2878862E+02  0.2765331E+03
Ar   24  0.1817682E+01  0.3345195E+01  0.2985393E+02  0.4294376E+02
Ar   25  0.3753219E+02  0.7267378E+00  0.3223146E+02  0.1817201E+03
Ar   26  0.5201614E+01  0.3364066E+01  0.3308928E+02  0.3447078E+03
Ar   27  0.3405160E+01  0.3700386E+02  0.3576967E+02  0.5893503E+02
Ar   28  0.1874033E+01  0.2804830E+01  0.3426207E+02  0.5503178E+03
Ar   29  0.3721018E+02  0.5170737E+01  0.3633741E+02  0.5470400E+02
Ar   30  0.1503991E+01  0.7765349E+01  0.3768271E+02  0.2031313E+02
Ar   31  0.2596366E+01  0.5141068E+01  0.2948077E+01  0.8140576E+01
Ar   32  0.3771553E+02  0.7496095E+01  0.3234419E+01  0.6191599E+03
Ar   33  0.5229887E+00  0.4073619E+01  0.5270016E+01  0.4928727E+02
Ar   34  0.2466457E+01  0.6878821E+01  0.6284990E+01  0.5355632E+03
Ar   35  0.4232560E+01  0.5146831E+01  0.1049506E+02  0.1477335E+03
Ar   36  0.8914780E+00  0.5973150E+01  0.9052416E+01  0.8194100E+02
Ar   37  0.1970816E+00  0.4436019E+01  0.1265043E+02  0.9119008E+02
Ar   38  0.3722898E+01  0.8531233E+01  0.9972653E+01  0.9317239E+02
Ar   39  0.3507007E+01  0.6308100E+01  0.1356984E+02  0.3277548E+03
Ar   40  0.3641324E+02  0.7965240E+01  0.1056954E+02  0.5042796E+03
Ar   41  0.1998806E+01  0.4115527E+01  0.1559008E+02  0.2239749E+03
Ar   42  0.5082637E+01  0.9944434E+01  0.1798838E+02  0.2121105E+03
Ar   43  0.4028999E+01  0.5687072E+01  0.2082474E+02  0.8338972E+03
Ar   44  0.2616967E+01  0.8902444E+01  0.1995691E+02  0.2413867E+03
Ar   45  0.1947745E+01  0.4041112E+01  0.2271123E+02  0.1011785E+03
Ar   46  0.2172516E+01  0.7550969E+01  0.2303276E+02  0.3177792E+03
Ar   47  0.4442335E+01  0.4063617E+01  0.2558033E+02  0.2976269E+02
Ar   48  0.3708574E+02  0.8415996E+01  0.2492562E+02  0.1808460E+03
Ar   49  0.3693300E+02  0.5093001E+01  0.2403907E+02  0.9000638E+03
Ar   50  0.5148746E+01  0.7446705E+01  0.2592782E+02  0.1499269E+03
Ar   51  0.1860884E+01  0.6509153E+01  0.2674349E+02  0.6602252E+02
Ar   52  0.3682034E+02  0.8831403E+01  0.2840271E+02  0.1623042E+03
Ar   53  0.6765905E+00  0.5964857E+01  0.3348523E+02  0.2308103E+03
Ar   54  0.1725333E+01  0.1090012E+02  0.3165257E+02  0.1757283E+03
Ar   55  0.3694230E+01  0.6063407E+01  0.3513441E+02  0.3705968E+03
Ar   56  0.1562392E+01  0.9027448E+01  0.3452619E+02  0.4596245E+03
Ar   57  0.2651708E+01  0.1053444E+02  0.2586727E+01  0.3591938E+03
Ar   58  0.3694460E+02  0.1450374E+02  0.4023933E+01  0.2944729E+03
Ar   59  0.1071495E+01  0.1321834E+02  0.1221505E+01  0.3355596E+03
Ar   60  0.8063859E+00  0.1297380E+02  0.6287023E+01  0.3311798E+03
Ar   61  0.3675452E+02  0.1044097E+02  0.4754864E+01  0.5513044E+02
Ar   62  0.3529769E+01  0.1109932E+02  0.5887548E+01  0.8033892E+02
Ar   63  0.1159106E+01  0.9684461E+01  0.7496239E+01  0.7476053E+02
Ar   64  0.3503539E+02  0.1539161E+02  0.6693221E+01  0.4879685E+03
Ar   65  0.3569587E+02  0.1144919E+02  0.9315118E+01  0.3854459E+03
Ar   66  0.1295628E+01  0.1047213E+02  0.1132974E+02  0.4966767E+03
Ar   67  0.7244935E+00  0.7882690E+01  0.1331736E+02  0.8365197E+03
Ar   68  0.3561511E+02  0.1420626E+02  0.1254696E+02  0.2640876E+03
Ar   69  0.1005936E+01  0.9901062E+01  0.1602807E+02  0.9171436E+03
Ar   70  0.1412357E+01  0.1330374E+02  0.1448600E+02  0.3981918E+03
Ar   71  0.2636803E+01  0.1253626E+02  0.1910878E+02  0.1953475E+03
Ar   72  0.3722328E+02  0.1329246E+02  0.1732132E+02  0.7445862E+03
Ar   73  0.3446005E+02  0.1217300E+02  0.2136057E+02  0.4915508E+03
Ar   74  0.8474096E+00  0.1087799E+02  0.2293072E+02  0.1345953E+03
Ar   75  0.2217048E+01  0.1316936E+02  0.2481367E+02  0.4816435E+03
Ar   76  0.6817023E-02  0.1502232E+02  0.2277637E+02  0.6494410E+03
Ar   77  0.3761008E+02  0.1162464E+02  0.2681738E+02  0.2590909E+02
Ar   78  0.5553592E+01  0.1481911E+02  0.2366799E+02  0.1839789E+03
Ar   79  0.3251217E+01  0.1490180E+02  0.2787914E+02  0.7859426E+03
Ar   80  0.2946765E+00  0.1430162E+02  0.2964517E+02  0.8033632E+02
Ar   81  0.3725246E+02  0.1209930E+02  0.3391006E+02  0.2581984E+03
Ar   82  0.1276869E+01  0.1433892E+02  0.3567847E+02  0.1866407E+03
Ar   83  0.3990486E+01  0.1261747E+02  0.3645883E+02  0.3006657E+03
Ar   84  0.3569061E+02  0.1009606E+02  0.1702430E+01  0.3793195E+03
Ar   85  0.3554623E+02  0.1488740E+02  0.3488513E+02  0.1051505E+03
Ar   86  0.3106096E+01  0.1901274E+02  0.2802397E+01  0.2336222E+03
Ar   87  0.3659139E+02  0.1785354E+02  0.4416205E+01  0.2345843E+03
Ar   88  0.7930085E-01  0.2043749E+02  0.2229816E+01  0.1566228E+03
Ar   89  0.8962506E+00  0.1596488E+02  0.7607045E+01  0.4999849E+03
Ar   90  0.1286882E+01  0.2021099E+02  0.6074111E+01  0.2759068E+03
Ar   91  0.3493547E+01  0.1557864E+02  0.1058287E+02  0.1150604E+03
Ar   92  0.3570745E+02  0.1937359E+02  0.7266845E+01  0.4007241E+02
Ar   93  0.3763742E+02  0.1392140E+02  0.9965992E+01  0.3728613E+02
Ar   94  0.2410567E+01  0.1867652E+02  0.9127632E+01  0.1388929E+03
Ar   95  0.2098893E+01  0.1670817E+02  0.1377876E+02  0.1065294E+03
Ar   96  0.3775068E+02  0.2015480E+02  0.1249548E+02  0.2126592E+03
Ar   97  0.3667032E+02  0.1708045E+02  0.1419784E+02  0.1547813E+03
Ar   98  0.1837682E+01  0.1946050E+02  0.1690393E+02  0.3285368E+03
Ar   99  0.3169838E+01  0.1572688E+02  0.1654622E+02  0.1763639E+03
Ar  100  0.3611254E+02  0.1978693E+02  0.1810180E+02  0.1482067E+04
Ar  101  0.3424027E+00  0.1668400E+02  0.1780824E+02  0.2060162E+03
Ar  102  0.1391144E+01  0.1958636E+02  0.2200056E+02  0.2550463E+03
Ar  103  0.2637090E+01  0.1708389E+02  0.2396014E+02  0.9904970E+02
Ar  104  0.3192394E+02  0.1499554E+02  0.2569522E+02  0.8763014E+03
Ar  105  0.3776440E+02  0.1556830E+02  0.2656953E+02  0.2007174E+03
Ar  106  0.5475329E+01  0.1916410E+02  0.3301770E+02  0.4166412E+03
Ar  107  0.2376636E+01  0.1724859E+02  0.3101312E+02  0.2716569E+03
Ar  108  0.5921815E+01  0.2054976E+02  0.2721495E+02  0.2778381E+02
Ar  109  0.3671389E+02  0.1779217E+02  0.3283298E+02  0.3644455E+03
Ar  110  0.3748647E+02  0.1824694E+02  0.2958140E+02  0.1786290E+03
Ar  111  0.7804361E+00  0.1687334E+02  0.1518942E+01  0.1537384E+03
Ar  112  0.3770726E+02  0.1823506E+02  0.3607630E+02  0.3584780E+03
Ar  113  0.3682101E+02  0.2423686E+02  0.1997219E+01  0.1698238E+03
Ar  114  0.3094899E+01  0.2348562E+02  0.1561304E-02  0.3909873E+02
Ar  115  0.1774494E+01  0.2298534E+02  0.3342333E+01  0.1233255E+03
Ar  116  0.3774723E+02  0.2630406E+02  0.4463620E+01  0.2250124E+03
Ar  117  0.3566812E+02  0.2252379E+02  0.5583012E+01  0.8192960E+02
Ar  118  0.4020516E+01  0.2518584E+02  0.5411079E+01  0.3667003E+03
Ar  119  0.9956500E+00  0.2389494E+02  0.6643179E+01  0.5291153E+03
Ar  120  0.3590428E+02  0.2434424E+02  0.9396781E+01  0.7328572E+02
Ar  121  0.3293260E+00  0.2174706E+02  0.9033403E+01  0.3843745E+03
Ar  122  0.3519375E+01  0.2327154E+02  0.1027831E+02  0.2027626E+03
Ar  123  0.3192998E+01  0.1975800E+02  0.1234032E+02  0.4866869E+03
Ar  124  0.8959198E+00  0.2355107E+02  0.1247940E+02  0.5903290E+03
Ar  125  0.3650949E+02  0.2323932E+02  0.1520899E+02  0.1631841E+03
Ar  126  0.3605837E+02  0.2535986E+02  0.1768283E+02  0.1698808E+03
Ar  127  0.3710719E+02  0.2153700E+02  0.2051243E+02  0.3750206E+03
Ar  128  0.3269106E+02  0.2604280E+02  0.1858538E+02  0.5161679E+03
Ar  129  0.3734276E+02  0.2257418E+02  0.2381690E+02  0.4290894E+03
Ar  130  0.3646400E+01  0.2238569E+02  0.2174817E+02  0.3287233E+03
Ar  131  0.4370970E+01  0.1981648E+02  0.2414169E+02  0.1706292E+03
Ar  132  0.2978338E+01  0.2275151E+02  0.2518967E+02  0.9579019E+03
Ar  133  0.3742246E+02  0.1819605E+02  0.2464478E+02  0.2614883E+03
Ar  134  0.4590910E+01  0.2462947E+02  0.2726074E+02  0.4125728E+03
Ar  135  0.3495823E+02  0.2509189E+02  0.3002115E+02  0.2091330E+03
Ar  136  0.2799072E+01  0.2227897E+02  0.2885702E+02  0.3726692E+03
Ar  137  0.8376608E+00  0.2058476E+02  0.3185683E+02  0.5512354E+02
Ar  138  0.7112148E+00  0.2389938E+02  0.3171375E+02  0.7822263E+03
Ar  139  0.2602672E+01  0.2018664E+02  0.3748776E+02  0.4162123E+02
Ar  140  0.8346847E+00  0.2430405E+02  0.3526656E+02  0.8772009E+02
Ar  141  0.8074479E+00  0.2717185E+02  0.2867267E+00  0.1037620E+03
Ar  142  0.2117527E+01  0.3076226E+02  0.3768531E+02  0.3170286E+03
Ar  143  0.3141778E+01  0.2745313E+02  0.2910504E+01  0.2760494E+03
Ar  144  0.4488561E+00  0.2967738E+02  0.3184112E+01  0.2060598E+03
Ar  145  0.3738758E+02  0.2755341E+02  0.7497430E+01  0.3401244E+03
Ar  146  0.2718040E+01  0.2899253E+02  0.6437338E+01  0.1096262E+03
Ar  147  0.2200329E+01  0.2581792E+02  0.8821156E+01  0.4152490E+02
Ar  148  0.3775609E+02  0.3079847E+02  0.8892260E+01  0.1427734E+03
Ar  149  0.3520079E+02  0.2932285E+02  0.1276040E+02  0.1777810E+03
Ar  150  0.3738446E+02  0.2663633E+02  0.1137059E+02  0.5748388E+02
Ar  151  0.1468712E+01  0.2343049E+02  0.1849004E+02  0.5845807E+03
Ar  152  0.6097533E+00  0.2915406E+02  0.1433705E+02  0.3682786E+03
Ar  153  0.3453613E+02  0.2601072E+02  0.1291937E+02  0.3417073E+03
Ar  154  0.2305038E-02  0.2608499E+02  0.1464738E+02  0.2130701E+03
Ar  155  0.6408034E+01  0.2436679E+02  0.1977212E+02  0.4028330E+03
Ar  156  0.3490547E+02  0.2828893E+02  0.1627985E+02  0.4872065E+03
Ar  157  0.3775516E+02  0.2494281E+02  0.2135922E+02  0.1296710E+03
Ar  158  0.3626741E+01  0.2564606E+02  0.2085431E+02  0.3787402E+02
Ar  159  0.9135124E+00  0.2645356E+02  0.2511798E+02  0.1069388E+03
Ar  160  0.7583529E+00  0.2832022E+02  0.2218351E+02  0.6506494E+03
Ar  161  0.3742691E+02  0.2804225E+02  0.2799519E+02  0.8351914E+02
Ar  162  0.1386368E+01  0.3311411E+02  0.2626910E+02  0.8272732E+03
Ar  163  0.2505330E+01  0.2974009E+02  0.2584142E+02  0.5942921E+03
Ar  164  0.1242957E+01  0.3104160E+02  0.2930673E+02  0.1268084E+04
Ar  165  0.9948137E+00  0.2732830E+02  0.3088443E+02  0.1289261E+03
Ar  166  0.3752147E+01  0.2767564E+02  0.2863691E+02  0.1442629E+03
Ar  167  0.9975816E+00  0.2995328E+02  0.3458176E+02  0.1896895E+03
Ar  168  0.1646723E+01  0.3371469E+02  0.3440947E+02  0.1304709E+03
Ar  169  0.1042589E+00  0.3304859E+02  0.2226202E+01  0.4443507E+03
Ar  170  0.4138636E+01  0.3375040E+02  0.1551900E+01  0.4745788E+03
Ar  171  0.3436016E+01  0.3203069E+02  0.4479128E+01  0.3065932E+02
Ar  172  0.3640597E+02  0.3369546E+02  0.3626384E+02  0.1228529E+04
Ar  173  0.4890294E+00  0.3274116E+02  0.6118546E+01  0.4992338E+03
Ar  174  0.3522808E+01  0.3450420E+02  0.6838855E+01  0.2488720E+03
Ar  175  0.3610768E+01  0.3153053E+02  0.8144499E+01  0.1652504E+03
Ar  176  0.3407536E+00  0.3439973E+02  0.1050053E+02  0.1308666E+03
Ar  177  0.3679571E+02  0.3246589E+02  0.1357148E+02  0.3481896E+03
Ar  178  0.1532393E+01  0.3141235E+02  0.1165912E+02  0.2577826E+03
Ar  179  0.2129330E+01  0.3197910E+02  0.1525491E+02  0.4337316E+02
Ar  180  0.3644972E+02  0.3690274E+02  0.1390331E+02  0.4798880E+03
Ar  181  0.3757133E+02  0.3049930E+02  0.1749123E+02  0.1876082E+03
Ar  182  0.5523670E+01  0.3187660E+02  0.1784662E+02  0.9902382E+02
Ar  183  0.1169527E+01  0.2712261E+02  0.1908804E+02  0.1451500E+03
Ar  184  0.3914212E+01  0.3551570E+02  0.1647525E+02  0.2540327E+03
Ar  185  0.2230895E+01  0.3218778E+02  0.1957406E+02  0.4846162E+02
Ar  186  0.3611515E+01  0.3520084E+02  0.2021461E+02  0.6276634E+03
Ar  187  0.2346694E+01  0.3161062E+02  0.2266132E+02  0.4421981E+02
Ar  188  0.3768369E+02  0.3710978E+02  0.2642509E+02  0.1740406E+02
Ar  189  0.3534558E+02  0.3470252E+02  0.2693834E+02  0.3547030E+03
Ar  190  0.3500222E+01  0.3571094E+02  0.2654893E+02  0.1306814E+03
Ar  191  0.3877837E+01  0.3391836E+02  0.2900686E+02  0.1698592E+03
Ar  192  0.3743627E+02  0.3426143E+02  0.2961386E+02  0.1276855E+03
Ar  193  0.2288458E+01  0.3621327E+02  0.3168321E+02  0.2722148E+03
Ar  194  0.5682173E+01  0.3586087E+02  0.3220433E+02  0.9834497E+03
Ar  195  0.2899538E+01  0.3145939E+02  0.3195716E+02  0.1035121E+04
Ar  196  0.3584621E+02  0.3626173E+02  0.3418245E+02  0.1070228E+03
Ar  197  0.3674671E+01  0.8174342E+00  0.9428163E+00  0.1544002E+03
Ar  198  0.7511494E+01  0.3492062E+00  0.2349300E+01  0.6285903E+03
Ar  199  0.9897603E+01  0.3653709E+02  0.3984137E+01  0.2295452E+03
Ar  200  0.4123503E+01  0.2018780E+01  0.4193253E+01  0.5413822E+03
Ar  201  0.6889517E+01  0.3772225E+02  0.7011211E+01  0.6873048E+03
Ar  202  0.7869808E+01  0.7181824E+01  0.5684813E+01  0.8649491E+03
Ar  203  0.9430968E+01  0.3524697E+02  0.8237854E+01  0.4609126E+03
Ar  204  0.9833165E+01  0.1074512E+01  0.8834799E+01  0.2460966E+03
Ar  205  0.4767238E+01  0.1805144E+01  0.1058286E+02  0.3707206E+03
Ar  206  0.1020970E+02  0.4594298E+01  0.8292689E+01  0.7687023E+02
Ar  207  0.1005665E+02  0.3635964E+02  0.1481842E+02  0.3675634E+03
Ar  208  0.7916178E+01  0.6583174E+00  0.1222333E+02  0.4038197E+03
Ar  209  0.2109342E+01  0.3548342E+02  0.1350923E+02  0.1180328E+04
Ar  210  0.8614468E+01  0.6988356E+00  0.1749771E+02  0.7122249E+03
Ar  211  0.5653191E+01  0.3663951E+02  0.1344127E+02  0.1786226E+03
Ar  212  0.4291074E+01  0.6271234E+01  0.1702359E+02  0.3767209E+03
Ar  213  0.6372476E+01  0.3713775E+02  0.1971742E+02  0.7556368E+02
Ar  214  0.6459398E+01  0.3400004E+01  0.1827456E+02  0.6611985E+03
Ar  215  0.6747073E+01  0.3696479E+02  0.2289185E+02  0.5763184E+03
Ar  216  0.6491678E+01  0.3967341E+01  0.2224402E+02  0.8746010E+02
Ar  217  0.9623732E+01  0.2312150E+00  0.2685221E+02  0.3503395E+03
Ar  218  0.7860788E+01  0.3578890E+01  0.3101750E+02  0.2902715E+02
Ar  219  0.8177298E+01  0.8781471E-01  0.3008868E+02  0.2315319E+03
Ar  220  0.4231508E+01  0.5166442E+01  0.2917344E+02  0.3913883E+03
Ar  221  0.5409448E+01  0.1677875E+01  0.2947140E+02  0.1470265E+03
Ar  222  0.7203227E+01  0.5990174E+01  0.3475452E+02  0.2951102E+03
Ar  223  0.7637370E+01  0.3234914E+01  0.5702770E+01  0.1802163E+03
Ar  224  0.8438965E+01  0.1334623E+01  0.3369205E+02  0.4717488E+03
Ar  225  0.6324494E+01  0.3193080E+01  0.3707851E+02  0.9988776E+02
Ar  226  0.4965791E+01  0.6229637E+01  0.7733668E+00  0.6062296E+03
Ar  227  0.6191905E+01  0.4418290E+01  0.3207053E+01  0.1389843E+04
Ar  228  0.4873824E+01  0.8323931E+01  0.4203647E+01  0.1525559E+03
Ar  229  0.5072702E+01  0.4915009E+01  0.7382150E+01  0.1828618E+03
Ar  230  0.1009901E+02  0.9426241E+01  0.3606737E+01  0.2292554E+03
Ar  231  0.7697343E+01  0.6701601E+01  0.9323315E+01  0.7718772E+02
Ar  232  0.5742447E+01  0.8828431E+01  0.7597453E+01  0.3273252E+03
Ar  233  0.7558867E+01  0.1031781E+02  0.1020427E+02  0.7044000E+03
Ar  234  0.1266925E+02  0.7693732E+01  0.1226785E+02  0.8848220E+02
Ar  235  0.9203335E+01  0.7882396E+01  0.1258014E+02  0.2158748E+03
Ar  236  0.8858634E+01  0.1262104E+02  0.1361347E+02  0.1730033E+03
Ar  237  0.6070162E+01  0.9299705E+01  0.1316041E+02  0.2478569E+03
Ar  238  0.7955894E+01  0.1025736E+02  0.1588799E+02  0.7627013E+02
Ar  239  0.8915986E+01  0.8058989E+01  0.2130082E+02  0.7646943E+03
Ar  240  0.6767773E+01  0.6406951E+01  0.1953521E+02  0.1805609E+03
Ar  241  0.5056606E+01  0.8486230E+01  0.2251942E+02  0.1524720E+03
Ar  242  0.7808495E+01  0.1009493E+02  0.2386056E+02  0.4296741E+03
Ar  243  0.7695606E+01  0.5634134E+01  0.2523208E+02  0.7714365E+03
Ar  244  0.3149885E+01  0.9984021E+01  0.2587253E+02  0.2225136E+03
Ar  245  0.7912924E+01  0.3164807E+01  0.2783923E+02  0.2851701E+03
Ar  246  0.7345132E+01  0.1001920E+02  0.2786316E+02  0.2162211E+03
Ar  247  0.7302213E+01  0.6651725E+01  0.3001241E+02  0.4362681E+03
Ar  248  0.4086081E+01  0.9043865E+01  0.2954195E+02  0.1758020E+03
Ar  249  0.5024109E+01  0.7223601E+01  0.3252701E+02  0.4645086E+03
Ar  250  0.9249341E+01  0.8837322E+01  0.3581191E+02  0.1919644E+03
Ar  251  0.8176958E+01  0.7468125E+01  0.6303639E+00  0.3767048E+03
Ar  252  0.5551814E+01  0.9349315E+01  0.3514400E+02  0.4436288E+03
Ar  253  0.5776533E+01  0.1031373E+02  0.6066395E+00  0.9103382E+03
Ar  254  0.9670896E+01  0.1560958E+02  0.2432070E+01  0.6732174E+03
Ar  255  0.6519124E+01  0.1396048E+02  0.8799127E+00  0.6102888E+02
Ar  256  0.3671197E+01  0.1359119E+02  0.3475205E+01  0.6354251E+03
Ar  257  0.7018930E+01  0.1109673E+02  0.4251855E+01  0.5207191E+03
Ar  258  0.7195465E+01  0.1449552E+02  0.4937698E+01  0.1670521E+03
Ar  259  0.9049998E+01  0.1056184E+02  0.6765335E+01  0.5999144E+03
Ar  260  0.5914487E+01  0.1254614E+02  0.8386494E+01  0.1790200E+02
Ar  261  0.4801751E+01  0.1166215E+02  0.1151983E+02  0.1986150E+03
Ar  262  0.7533160E+01  0.1549757E+02  0.1104211E+02  0.4517001E+03
Ar  263  0.9720416E+01  0.1624502E+02  0.1382520E+02  0.5985247E+03
Ar  264  0.5319711E+01  0.1428286E+02  0.1371410E+02  0.2996647E+03
Ar  265  0.4022879E+01  0.1116970E+02  0.1504799E+02  0.2750394E+03
Ar  266  0.6179175E+01  0.1298880E+02  0.1706702E+02  0.2265996E+03
Ar  267  0.7144447E+01  0.1069780E+02  0.2034101E+02  0.3558085E+03
Ar  268  0.2855010E+01  0.1584422E+02  0.2096818E+02  0.3338970E+03
Ar  269  0.4120371E+01  0.1183997E+02  0.2216173E+02  0.1025158E+04
Ar  270  0.5866514E+01  0.1542949E+02  0.1941925E+02  0.1377669E+03
Ar  271  0.5440711E+01  0.1223277E+02  0.2562443E+02  0.2410961E+03
Ar  272  0.5981402E+01  0.1302205E+02  0.2938258E+02  0.3817598E+02
Ar  273  0.2612208E+01  0.1186313E+02  0.2872816E+02  0.6850722E+02
Ar  274  0.9071576E+01  0.1271338E+02  0.2547970E+02  0.6407873E+03
Ar  275  0.7931489E+01  0.9952995E+01  0.3210777E+02  0.6705058E+03
Ar  276  0.3679024E+01  0.1474478E+02  0.3264123E+02  0.6852750E+02
Ar  277  0.5089955E+01  0.1156863E+02  0.3285910E+02  0.5822630E+02
Ar  278  0.7687987E+01  0.1403459E+02  0.3224508E+02  0.1019449E+03
Ar  279  0.7510572E+01  0.1218797E+02  0.3509162E+02  0.8986397E+03
Ar  280  0.3749515E+01  0.1570239E+02  0.2642884E+00  0.1386525E+04
Ar  281  0.2153070E+01  0.1618459E+02  0.4386430E+01  0.1605678E+03
Ar  282  0.9237276E+01  0.1903253E+02  0.6814740E+00  0.3593587E+03
Ar  283  0.6971050E+01  0.1743651E+02  0.3123944E+01  0.9183918E+03
Ar  284  0.5201932E+01  0.2136862E+02  0.3609130E+01  0.6977876E+03
Ar  285  0.4300482E+01  0.1490465E+02  0.6786307E+01  0.5931340E+02
Ar  286  0.7355026E+01  0.1995734E+02  0.6643235E+01  0.3925146E+02
Ar  287  0.4394536E+01  0.1846677E+02  0.6301501E+01  0.7450981E+03
Ar  288  0.5748095E+01  0.2016816E+02  0.9834161E+01  0.9660159E+03
Ar  289  0.2550811E+01  0.1240665E+02  0.9146697E+01  0.2479157E+03
Ar  290  0.9054364E+01  0.1893247E+02  0.9723250E+01  0.2459603E+03
Ar  291  0.1076392E+02  0.1608293E+02  0.1080260E+02  0.1405632E+03
Ar  292  0.5711707E+01  0.1771370E+02  0.1263349E+02  0.6275503E+02
Ar  293  0.4945271E+01  0.1878285E+02  0.1598217E+02  0.4130040E+03
Ar  294  0.8496491E+01  0.1962547E+02  0.1520190E+02  0.1959219E+03
Ar  295  0.7660588E+01  0.1842089E+02  0.1923769E+02  0.2815387E+02
Ar  296  0.4155380E+01  0.1862311E+02  0.1923971E+02  0.6075962E+03
Ar  297  0.6162858E+01  0.1799716E+02  0.2219788E+02  0.3798347E+03
Ar  298  0.1008793E+02  0.1889798E+02  0.2179113E+02  0.5228817E+03
Ar  299  0.9560379E+01  0.1665203E+02  0.2417241E+02  0.1418188E+03
Ar  300  0.7998848E+01  0.1960408E+02  0.2478842E+02  0.2931319E+03
Ar  301  0.6096195E+01  0.1689065E+02  0.2624810E+02  0.6271965E+03
Ar  302  0.8368379E+01  0.1877902E+02  0.2836599E+02  0.2689567E+03
Ar  303  0.6093727E+01  0.1632241E+02  0.3513753E+02  0.4579765E+03
Ar  304  0.5449806E+01  0.1666221E+02  0.2994554E+02  0.3619804E+03
Ar  305  0.3142444E+01  0.1768682E+02  0.3519341E+02  0.6395674E+03
Ar  306  0.8420156E+01  0.2067614E+02  0.3157068E+02  0.9980601E+03
Ar  307  0.8441806E+01  0.1853421E+02  0.3484248E+02  0.1413538E+03
Ar  308  0.5594690E+01  0.1878387E+02  0.3768011E+02  0.1757216E+02
Ar  309  0.7203737E+01  0.2224352E+02  0.1685613E+00  0.3580843E+03
Ar  310  0.7846620E+01  0.2519526E+02  0.3641850E+02  0.1165232E+03
Ar  311  0.9165312E+01  0.2131525E+02  0.2807938E+01  0.1094973E+04
Ar  312  0.5965801E+01  0.2464205E+02  0.2595831E+01  0.1294852E+03
Ar  313  0.4341090E+01  0.2179470E+02  0.6618410E+01  0.3594281E+03
Ar  314  0.7418617E+01  0.2331128E+02  0.5458215E+01  0.4536271E+02
Ar  315  0.7475898E+01  0.2294466E+02  0.8678852E+01  0.2737615E+02
Ar  316  0.5736178E+01  0.2594680E+02  0.9087152E+01  0.2277270E+03
Ar  317  0.4921969E+01  0.2422622E+02  0.1330070E+02  0.5294862E+03
Ar  318  0.8736430E+01  0.2519213E+02  0.1121584E+02  0.3086373E+02
Ar  319  0.6929797E+01  0.2203295E+02  0.1231596E+02  0.3713779E+03
Ar  320  0.2738817E+01  0.2186964E+02  0.1505103E+02  0.8617500E+03
Ar  321  0.6053063E+01  0.2192084E+02  0.1553501E+02  0.3170408E+03
Ar  322  0.9570868E+01  0.2294424E+02  0.1462870E+02  0.2969047E+03
Ar  323  0.9372959E+01  0.2175189E+02  0.1790879E+02  0.1718842E+03
Ar  324  0.6936513E+01  0.2478266E+02  0.1655483E+02  0.1533555E+04
Ar  325  0.4677794E+01  0.2191071E+02  0.1842865E+02  0.9888869E+03
Ar  326  0.8824856E+01  0.2433523E+02  0.2206115E+02  0.4246776E+03
Ar  327  0.7411288E+01  0.2114054E+02  0.2138854E+02  0.1025737E+03
Ar  328  0.6327752E+01  0.2299143E+02  0.2419194E+02  0.1092208E+04
Ar  329  0.8044241E+01  0.2321566E+02  0.2736606E+02  0.4435352E+03
Ar  330  0.7852593E+01  0.2567150E+02  0.2510409E+02  0.2764478E+03
Ar  331  0.5801412E+01  0.2251078E+02  0.3043109E+02  0.5958814E+03
Ar  332  0.2445293E+00  0.2432057E+02  0.2800116E+02  0.2009844E+03
Ar  333  0.3550679E+01  0.2220587E+02  0.3315171E+02  0.2347104E+03
Ar  334  0.3635298E+01  0.2516242E+02  0.3133793E+02  0.3466787E+03
Ar  335  0.7178033E+01  0.2168715E+02  0.3457971E+02  0.5024369E+03
Ar  336  0.5075489E+01  0.2435481E+02  0.3504169E+02  0.2944113E+03
Ar  337  0.4949316E+01  0.2719053E+02  0.3757228E+02  0.4604032E+03
Ar  338  0.1022770E+02  0.3308176E+02  0.1630943E+01  0.1489677E+03
Ar  339  0.8563826E+01  0.2657864E+02  0.1588359E+01  0.9737599E+03
Ar  340  0.8306875E+01  0.3024651E+02  0.2869813E+01  0.5785754E+03
Ar  341  0.6754423E+01  0.2750894E+02  0.5198107E+01  0.4023412E+03
Ar  342  0.7161175E+01  0.2903464E+02  0.8860949E+01  0.2800442E+03
Ar  343  0.8759049E+01  0.2573425E+02  0.7463967E+01  0.2313186E+03
Ar  344  0.3801879E+01  0.2844371E+02  0.9937108E+01  0.4656397E+03
Ar  345  0.2977578E+01  0.2665247E+02  0.1228593E+02  0.5560177E+03
Ar  346  0.6719135E+01  0.2795655E+02  0.1201328E+02  0.9680236E+03
Ar  347  0.5132457E+01  0.2725515E+02  0.1478198E+02  0.2332165E+03
Ar  348  0.3323067E+01  0.2937837E+02  0.1695283E+02  0.2037827E+03
Ar  349  0.2998900E+01  0.2524243E+02  0.1620827E+02  0.2789366E+03
Ar  350  0.9456591E+01  0.2595479E+02  0.1827745E+02  0.2436478E+03
Ar  351  0.6939793E+01  0.2717580E+02  0.2224919E+02  0.3763907E+02
Ar  352  0.5798174E+01  0.2749602E+02  0.1837284E+02  0.3720268E+03
Ar  353  0.3950354E+01  0.2651563E+02  0.2397284E+02  0.7024721E+03
Ar  354  0.8308658E+01  0.2897213E+02  0.2003043E+02  0.2771501E+03
Ar  355  0.9271766E+01  0.2876233E+02  0.2432982E+02  0.2832848E+03
Ar  356  0.5420490E+01  0.3045217E+02  0.2324579E+02  0.3031148E+03
Ar  357  0.6280749E+01  0.2863618E+02  0.2658182E+02  0.1120869E+04
Ar  358  0.8943862E+01  0.3155001E+02  0.2735734E+02  0.7055695E+02
Ar  359  0.4854027E+01  0.2847545E+02  0.3213250E+02  0.5850342E+02
Ar  360  0.5136002E+01  0.3066274E+02  0.2898917E+02  0.2130533E+03
Ar  361  0.3103197E+01  0.2697095E+02  0.3447029E+02  0.9798468E+02
Ar  362  0.7812081E+01  0.2906166E+02  0.3049663E+02  0.5286314E+03
Ar  363  0.7753833E+01  0.2495011E+02  0.3305015E+02  0.3800012E+03
Ar  364  0.4474660E+01  0.2981691E+02  0.3526070E+02  0.2812629E+03
Ar  365  0.4986105E+01  0.3341131E+02  0.3572293E+02  0.2416122E+03
Ar  366  0.7128753E+01  0.3492620E+02  0.6544252E+00  0.1407046E+03
Ar  367  0.7654836E+01  0.3419072E+02  0.4017735E+01  0.4942576E+03
Ar  368  0.4700339E+01  0.3590333E+02  0.4184666E+01  0.6655602E+03
Ar  369  0.6471135E+01  0.3121688E+02  0.5295583E+01  0.4108113E+03
Ar  370  0.6412477E+01  0.3340859E+02  0.7669366E+01  0.2955454E+03
Ar  371  0.6775852E+01  0.3149228E+02  0.1107209E+02  0.5451093E+02
Ar  372  0.4062724E+01  0.3367752E+02  0.1131873E+02  0.2986594E+03
Ar  373  0.4192821E+01  0.3033659E+02  0.1338293E+02  0.3076245E+03
Ar  374  0.5868431E+01  0.3588967E+02  0.9678067E+01  0.2834052E+03
Ar  375  0.9315490E+01  0.3072195E+02  0.1283016E+02  0.2786599E+03
Ar  376  0.5604113E+01  0.3333811E+02  0.1441041E+02  0.2172956E+03
Ar  377  0.7515154E+01  0.2993362E+02  0.1572311E+02  0.8926567E+03
Ar  378  0.9259295E+01  0.3324121E+02  0.1495324E+02  0.2345300E+03
Ar  379  0.1039876E+02  0.3546466E+02  0.1800470E+02  0.2055615E+04
Ar  380  0.7481112E+01  0.3553834E+02  0.1660994E+02  0.6843398E+03
Ar  381  0.3961088E+01  0.2930038E+02  0.2060318E+02  0.5370842E+02
Ar  382  0.6052863E+01  0.3283590E+02  0.2109851E+02  0.3491777E+02
Ar  383  0.8395012E+01  0.3173126E+02  0.2375998E+02  0.1717603E+03
Ar  384  0.4641348E+01  0.3445209E+02  0.2353503E+02  0.2248940E+03
Ar  385  0.5661979E+01  0.3241330E+02  0.2588540E+02  0.6266813E+02
Ar  386  0.8503238E+01  0.3439849E+02  0.2557640E+02  0.4875771E+03
Ar  387  0.6988075E+01  0.3356308E+02  0.3007882E+02  0.5815826E+03
Ar  388  0.6403775E+01  0.3609612E+02  0.2792841E+02  0.2383830E+03
Ar  389  0.6964012E+01  0.3172389E+02  0.3272000E+02  0.2231793E+03
Ar  390  0.1006521E+02  0.3620380E+02  0.3739847E+02  0.1471463E+03
Ar  391  0.4875432E+01  0.2997892E+02  0.1789652E+01  0.3352094E+03
Ar  392  0.6687672E+01  0.3746633E+02  0.3623729E+02  0.1599160E+03
Ar  393  0.1140096E+02  0.2013808E+01  0.5749778E+01  0.2314208E+01
Ar  394  0.1241105E+02  0.4605356E+01  0.1554846E+01  0.2159108E+03
Ar  395  0.1310436E+02  0.3608515E+02  0.1944541E+01  0.3817841E+03
Ar  396  0.8965539E+01  0.4289982E+01  0.1111303E+01  0.4549054E+03
Ar  397  0.1304086E+02  0.1492839E+01  0.9210819E+01  0.3737461E+03
Ar  398  0.1197592E+02  0.3684538E+02  0.7198326E+01  0.2845590E+03
Ar  399  0.1669314E+02  0.3350447E+02  0.9832101E+01  0.3070662E+03
Ar  400  0.1387371E+02  0.4898536E+01  0.8921356E+01  0.5354281E+03
Ar  401  0.1136407E+02  0.3698082E+02  0.1125128E+02  0.3677387E+03
Ar  402  0.1180741E+02  0.3668846E+01  0.1121573E+02  0.1588652E+03
Ar  403  0.1425783E+02  0.7440971E+00  0.1343945E+02  0.1772769E+03
Ar  404  0.9835454E+01  0.2528105E+01  0.1423664E+02  0.2809366E+03
Ar  405  0.1224349E+02  0.9942768E+00  0.1647651E+02  0.7500995E+03
Ar  406  0.1577033E+02  0.3266010E+01  0.1833751E+02  0.2169999E+02
Ar  407  0.1452353E+02  0.2267345E+00  0.1903294E+02  0.3395056E+03
Ar  408  0.1027376E+02  0.3488326E+01  0.1778311E+02  0.1689815E+03
Ar  409  0.1065147E+02  0.3749361E+00  0.2015363E+02  0.1511980E+03
Ar  410  0.1271323E+02  0.2731095E+01  0.2058271E+02  0.2131030E+03
Ar  411  0.1304370E+02  0.5381866E+00  0.2307209E+02  0.2915628E+03
Ar  412  0.9669254E+01  0.2565133E+01  0.2415610E+02  0.9008067E+03
Ar  413  0.1020734E+02  0.3668063E+02  0.2343368E+02  0.1575527E+03
Ar  414  0.1425714E+02  0.1153802E+01  0.2809278E+02  0.6151157E+03
Ar  415  0.1204972E+02  0.3708456E+02  0.3033711E+02  0.3374027E+03
Ar  416  0.1052409E+02  0.4077661E+01  0.3342690E+02  0.3107133E+02
Ar  417  0.1238058E+02  0.9402237E+00  0.3356508E+02  0.3058433E+02
Ar  418  0.1618631E+02  0.5385627E+00  0.3426264E+02  0.1158345E+03
Ar  419  0.1372260E+02  0.2776698E+01  0.3623261E+02  0.1816053E+03
Ar  420  0.9669265E+01  0.1923850E+01  0.3653973E+02  0.1110987E+03
Ar  421  0.1029365E+02  0.5899255E+01  0.3812801E+01  0.1942184E+03
Ar  422  0.1450980E+02  0.7227221E+01  0.3684562E+02  0.2769709E+02
Ar  423  0.1341376E+02  0.5067589E+01  0.5314434E+01  0.6661518E+03
Ar  424  0.9331596E+01  0.1214379E+02  0.1699991E+01  0.5265838E+03
Ar  425  0.1182177E+02  0.8756580E+01  0.6038489E+01  0.5091437E+03
Ar  426  0.1637944E+02  0.5912512E+01  0.5884260E+01  0.8851602E+02
Ar  427  0.1571258E+02  0.2485405E+01  0.7339080E+01  0.2760766E+03
Ar  428  0.1085628E+02  0.7733262E+01  0.9418565E+01  0.4377454E+03
Ar  429  0.1065985E+02  0.5810742E+01  0.1476087E+02  0.3486089E+03
Ar  430  0.1513290E+02  0.5091414E+01  0.1272766E+02  0.1848468E+03
Ar  431  0.1263489E+02  0.5848477E+01  0.1846799E+02  0.1831702E+03
Ar  432  0.1135712E+02  0.1120037E+02  0.1557750E+02  0.2289862E+03
Ar  433  0.7201168E+01  0.6483972E+01  0.1508708E+02  0.8913270E+03
Ar  434  0.1385001E+02  0.9044818E+01  0.1510711E+02  0.2560202E+03
Ar  435  0.9775324E+01  0.8146538E+01  0.1769332E+02  0.1177115E+03
Ar  436  0.1030693E+02  0.1124489E+02  0.1972036E+02  0.8194342E+03
Ar  437  0.9764917E+01  0.4447981E+01  0.2116226E+02  0.1008376E+04
Ar  438  0.1048919E+02  0.7319217E+01  0.2385205E+02  0.2463600E+03
Ar  439  0.1064255E+02  0.5871424E+01  0.2666643E+02  0.1987029E+03
Ar  440  0.1060403E+02  0.1005193E+02  0.2684183E+02  0.3404313E+03
Ar  441  0.1096116E+02  0.3015264E+01  0.2839433E+02  0.4416470E+03
Ar  442  0.1163840E+02  0.5951042E+01  0.2994231E+02  0.4688559E+03
Ar  443  0.1478299E+02  0.4918074E+01  0.2850946E+02  0.2268823E+03
Ar  444  0.9681500E+01  0.1246468E+02  0.2958767E+02  0.5630865E+03
Ar  445  0.1020529E+02  0.7636948E+01  0.3279326E+02  0.1972282E+03
Ar  446  0.1293079E+02  0.9247244E+01  0.3468553E+02  0.4524222E+03
Ar  447  0.1145056E+02  0.6225916E+01  0.3673159E+02  0.5386229E+03
Ar  448  0.1143747E+02  0.1015724E+02  0.3001685E+00  0.3217361E+03
Ar  449  0.1286488E+02  0.1371611E+02  0.1056562E+01  0.2616116E+03
Ar  450  0.1664587E+02  0.1345965E+02  0.1262047E+01  0.7007778E+03
Ar  451  0.1318017E+02  0.7801844E+01  0.2664077E+01  0.8436313E+03
Ar  452  0.1114343E+02  0.1401685E+02  0.4850463E+01  0.5014448E+03
Ar  453  0.1277988E+02  0.1133464E+02  0.3130352E+01  0.1549738E+04
Ar  454  0.9250977E+01  0.1375093E+02  0.8462396E+01  0.2315601E+03
Ar  455  0.1227609E+02  0.1116033E+02  0.8666664E+01  0.1101309E+04
Ar  456  0.6941246E+01  0.1672813E+02  0.7798810E+01  0.4033503E+03
Ar  457  0.1083807E+02  0.1084587E+02  0.1156438E+02  0.4453055E+03
Ar  458  0.1384493E+02  0.1542008E+02  0.1171867E+02  0.8223399E+02
Ar  459  0.1389910E+02  0.1128737E+02  0.1194450E+02  0.1423325E+03
Ar  460  0.1179904E+02  0.1376411E+02  0.1362701E+02  0.1980582E+03
Ar  461  0.7236347E+01  0.1640744E+02  0.1629622E+02  0.1179330E+04
Ar  462  0.9935008E+01  0.1403831E+02  0.1668079E+02  0.4973354E+03
Ar  463  0.1075398E+02  0.1069995E+02  0.2282564E+02  0.5621238E+03
Ar  464  0.1041364E+02  0.1742956E+02  0.1767685E+02  0.2762447E+03
Ar  465  0.1291561E+02  0.1419255E+02  0.1840752E+02  0.4416645E+03
Ar  466  0.1444217E+02  0.1304947E+02  0.2164809E+02  0.3236216E+03
Ar  467  0.1336939E+02  0.1045532E+02  0.2499488E+02  0.5937868E+02
Ar  468  0.1174339E+02  0.1584236E+02  0.2131930E+02  0.1097942E+04
Ar  469  0.8451549E+01  0.1424961E+02  0.2178350E+02  0.5303298E+03
Ar  470  0.1212657E+02  0.1375620E+02  0.2408337E+02  0.1617240E+02
Ar  471  0.1127920E+02  0.1465902E+02  0.3115515E+02  0.1282886E+02
Ar  472  0.8542473E+01  0.1543685E+02  0.2865425E+02  0.7373887E+03
Ar  473  0.1082810E+02  0.1155289E+02  0.3410731E+02  0.4070433E+03
Ar  474  0.1348311E+02  0.1175054E+02  0.3207855E+02  0.3800739E+03
Ar  475  0.1498541E+02  0.1238562E+02  0.3507688E+02  0.9752764E+03
Ar  476  0.9093046E+01  0.1484709E+02  0.3613993E+02  0.3006733E+03
Ar  477  0.1230856E+02  0.1451163E+02  0.3467270E+02  0.5035618E+02
Ar  478  0.1464901E+02  0.1938425E+02  0.3507150E+02  0.2821198E+03
Ar  479  0.1912454E+02  0.1718936E+02  0.1434157E+01  0.9812110E+02
Ar  480  0.1297865E+02  0.1656523E+02  0.3368152E+01  0.2856057E+03
Ar  481  0.1006240E+02  0.1753491E+02  0.5761812E+01  0.1163760E+03
Ar  482  0.1311219E+02  0.1905591E+02  0.6013687E+01  0.1552202E+03
Ar  483  0.1247703E+02  0.1485658E+02  0.7581239E+01  0.2730629E+03
Ar  484  0.1074479E+02  0.2092145E+02  0.6987876E+01  0.1309453E+03
Ar  485  0.1312975E+02  0.1855609E+02  0.9817194E+01  0.9488757E+02
Ar  486  0.1697046E+02  0.1811832E+02  0.1057064E+02  0.2192851E+03
Ar  487  0.1740616E+02  0.1568277E+02  0.1328711E+02  0.8037447E+03
Ar  488  0.1067783E+02  0.2179874E+02  0.1087249E+02  0.6008698E+03
Ar  489  0.1123630E+02  0.1943657E+02  0.1284437E+02  0.1496230E+03
Ar  490  0.1587317E+02  0.1780629E+02  0.1580295E+02  0.2840232E+03
Ar  491  0.1285973E+02  0.1624238E+02  0.1529030E+02  0.2661401E+03
Ar  492  0.1207905E+02  0.1984876E+02  0.1619566E+02  0.6793332E+03
Ar  493  0.1446139E+02  0.1824132E+02  0.1884683E+02  0.2217014E+03
Ar  494  0.1205764E+02  0.2070246E+02  0.1942642E+02  0.4778970E+03
Ar  495  0.1597778E+02  0.1577224E+02  0.2364455E+02  0.4722896E+03
Ar  496  0.1354372E+02  0.1846569E+02  0.2266814E+02  0.2294190E+03
Ar  497  0.1149920E+02  0.1888007E+02  0.2605962E+02  0.9456085E+02
Ar  498  0.1468960E+02  0.1698172E+02  0.2663760E+02  0.4814508E+03
Ar  499  0.1154815E+02  0.1880039E+02  0.3336387E+02  0.1713785E+03
Ar  500  0.1106575E+02  0.1811800E+02  0.2967910E+02  0.6815839E+03
Ar  501  0.8631328E+01  0.1725033E+02  0.3152767E+02  0.6063949E+02
Ar  502  0.1440950E+02  0.1837167E+02  0.3159778E+02  0.4032450E+03
Ar  503  0.1827208E+02  0.1176713E+02  0.3610142E+02  0.4326167E+03
Ar  504  0.1157978E+02  0.1682091E+02  0.3757696E+02  0.2469888E+03
Ar  505  0.1084219E+02  0.2401878E+02  0.2103941E-01  0.4299982E+03
Ar  506  0.1415237E+02  0.2422090E+02  0.3673427E+02  0.4583792E+03
Ar  507  0.1454964E+02  0.1865692E+02  0.3766136E+00  0.1254365E+03
Ar  508  0.1330164E+02  0.2626468E+02  0.1240503E+01  0.6798905E+03
Ar  509  0.1239683E+02  0.2026007E+02  0.2485458E+01  0.2273193E+03
Ar  510  0.1598307E+02  0.2552243E+02  0.3928409E+01  0.1019186E+03
Ar  511  0.1392990E+02  0.2205532E+02  0.9296594E+01  0.5164348E+03
Ar  512  0.1011102E+02  0.2432514E+02  0.3751987E+01  0.1598418E+02
Ar  513  0.1151898E+02  0.2459889E+02  0.8492202E+01  0.4412066E+03
Ar  514  0.1491971E+02  0.2527795E+02  0.1060869E+02  0.1412006E+03
Ar  515  0.1437858E+02  0.1934033E+02  0.1288605E+02  0.3719553E+03
Ar  516  0.1238364E+02  0.2544112E+02  0.1244073E+02  0.4586629E+03
Ar  517  0.1280499E+02  0.2270880E+02  0.1387799E+02  0.1245484E+03
Ar  518  0.1549386E+02  0.2483663E+02  0.1481268E+02  0.1808518E+03
Ar  519  0.1540799E+02  0.2181700E+02  0.1578853E+02  0.2926856E+03
Ar  520  0.1186308E+02  0.2395400E+02  0.2006129E+02  0.5791869E+03
Ar  521  0.1036429E+02  0.2239694E+02  0.2481249E+02  0.3068736E+03
Ar  522  0.1376944E+02  0.2232814E+02  0.2232157E+02  0.1402151E+03
Ar  523  0.1403909E+02  0.2216903E+02  0.2584749E+02  0.1510799E+03
Ar  524  0.1262273E+02  0.2515197E+02  0.2745081E+02  0.6936340E+03
Ar  525  0.1109967E+02  0.2245624E+02  0.2828134E+02  0.2303233E+03
Ar  526  0.1538867E+02  0.2389384E+02  0.2894410E+02  0.1194621E+03
Ar  527  0.1142192E+02  0.2143755E+02  0.3133252E+02  0.4190107E+03
Ar  528  0.7035479E+01  0.2596596E+02  0.2927946E+02  0.1017365E+03
Ar  529  0.1021456E+02  0.2446157E+02  0.3062230E+02  0.7571386E+02
Ar  530  0.1374185E+02  0.2655041E+02  0.3439989E+02  0.3548718E+03
Ar  531  0.1176617E+02  0.2058521E+02  0.3678731E+02  0.4378830E+03
Ar  532  0.1155909E+02  0.2347927E+02  0.3420602E+02  0.2529294E+03
Ar  533  0.7578156E+01  0.3037398E+02  0.3691703E+02  0.3784868E+03
Ar  534  0.1124758E+02  0.2713313E+02  0.3660650E+02  0.4680758E+03
Ar  535  0.1636336E+02  0.2651328E+02  0.3762403E+02  0.1360975E+03
Ar  536  0.1061488E+02  0.2987588E+02  0.5911719E+00  0.3602225E+02
Ar  537  0.1116035E+02  0.2799266E+02  0.4068583E+01  0.6206264E+03
Ar  538  0.1742745E+02  0.2772792E+02  0.6726960E+01  0.1143164E+04
Ar  539  0.1335492E+02  0.2673335E+02  0.6411589E+01  0.4919461E+03
Ar  540  0.1127156E+02  0.2917763E+02  0.7081747E+01  0.8436026E+03
Ar  541  0.1067531E+02  0.2806055E+02  0.1028452E+02  0.6462663E+02
Ar  542  0.1492615E+02  0.2855741E+02  0.9083670E+01  0.5153668E+03
Ar  543  0.1520421E+02  0.2785192E+02  0.1252837E+02  0.4900204E+03
Ar  544  0.9584061E+01  0.2667935E+02  0.1443966E+02  0.6481148E+03
Ar  545  0.1209495E+02  0.2404130E+02  0.1684476E+02  0.4599940E+02
Ar  546  0.1293273E+02  0.2701358E+02  0.1544578E+02  0.1754104E+03
Ar  547  0.1479588E+02  0.2589110E+02  0.1842309E+02  0.1990652E+03
Ar  548  0.1101876E+02  0.2736155E+02  0.2105233E+02  0.1779647E+03
Ar  549  0.1110498E+02  0.2591019E+02  0.2412583E+02  0.2961402E+03
Ar  550  0.8843495E+01  0.3237692E+02  0.1824011E+02  0.6907821E+03
Ar  551  0.1412526E+02  0.2813681E+02  0.2768262E+02  0.6550616E+02
Ar  552  0.1101009E+02  0.3090318E+02  0.2088851E+02  0.6143653E+03
Ar  553  0.1004064E+02  0.2770665E+02  0.2779112E+02  0.7162702E+03
Ar  554  0.1091535E+02  0.3013462E+02  0.3037193E+02  0.6436716E+02
Ar  555  0.9962754E+01  0.2757130E+02  0.3266350E+02  0.1812086E+03
Ar  556  0.9978783E+01  0.3284754E+02  0.3205928E+02  0.2215899E+03
Ar  557  0.7210606E+01  0.2799194E+02  0.3443916E+02  0.9371336E+03
Ar  558  0.1339918E+02  0.2979627E+02  0.3316884E+02  0.1939026E+03
Ar  559  0.1390707E+02  0.2906423E+02  0.3727897E+02  0.2880085E+03
Ar  560  0.1061766E+02  0.3023069E+02  0.3471528E+02  0.1157005E+03
Ar  561  0.8321915E+01  0.3307010E+02  0.3543727E+02  0.2054018E+03
Ar  562  0.1507354E+02  0.1382481E+01  0.8678727E+00  0.1667638E+03
Ar  563  0.1369817E+02  0.3645456E+02  0.3638108E+02  0.2771686E+03
Ar  564  0.1203187E+02  0.3409794E+02  0.5131246E+01  0.1334542E+02
Ar  565  0.9646903E+01  0.3196349E+02  0.6561027E+01  0.1616007E+03
Ar  566  0.1336562E+02  0.3394281E+02  0.8242679E+01  0.8678606E+03
Ar  567  0.1555477E+02  0.3507111E+02  0.5733468E+01  0.2956437E+03
Ar  568  0.1461254E+02  0.3139707E+02  0.6335287E+01  0.7822917E+02
Ar  569  0.1056095E+02  0.3264883E+02  0.1007111E+02  0.8656456E+03
Ar  570  0.1384644E+02  0.3137969E+02  0.1049641E+02  0.2293865E+03
Ar  571  0.1245413E+02  0.2959999E+02  0.1310708E+02  0.2803590E+03
Ar  572  0.8079862E+01  0.3476183E+02  0.1198429E+02  0.3069633E+03
Ar  573  0.1106786E+02  0.2978890E+02  0.1655096E+02  0.9801985E+02
Ar  574  0.1337276E+02  0.3540510E+02  0.1611300E+02  0.2327140E+03
Ar  575  0.1389503E+02  0.3269810E+02  0.1817894E+02  0.2950361E+03
Ar  576  0.9036086E+01  0.3437925E+02  0.2125044E+02  0.2515458E+03
Ar  577  0.1238985E+02  0.3294423E+02  0.1365627E+02  0.5342075E+03
Ar  578  0.1806131E+02  0.3355712E+02  0.2470952E+02  0.1110917E+03
Ar  579  0.1293427E+02  0.3495503E+02  0.2070870E+02  0.2007076E+03
Ar  580  0.1195379E+02  0.3301217E+02  0.2413591E+02  0.1311098E+04
Ar  581  0.1224872E+02  0.3117737E+02  0.2718879E+02  0.6155477E+03
Ar  582  0.1250791E+02  0.3607957E+02  0.2636862E+02  0.1456174E+03
Ar  583  0.1309925E+02  0.3362315E+02  0.3047446E+02  0.2400119E+03
Ar  584  0.1007700E+02  0.3426199E+02  0.2912361E+02  0.3786260E+03
Ar  585  0.9502963E+01  0.3554047E+02  0.3368926E+02  0.3372965E+03
Ar  586  0.1624278E+02  0.3488660E+02  0.3457267E+02  0.1310074E+04
Ar  587  0.1301411E+02  0.3432689E+02  0.3396667E+02  0.3595996E+03
Ar  588  0.1147582E+02  0.9205565E+00  0.1989991E+01  0.2768730E+03
Ar  589  0.1704248E+02  0.3471503E+01  0.3677693E+02  0.1744914E+03
Ar  590  0.2470135E+02  0.7162234E+01  0.2602216E+00  0.3868979E+03
Ar  591  0.2022298E+02  0.1622945E+01  0.3672947E+02  0.7767885E+02
Ar  592  0.1603112E+02  0.3020317E+01  0.3774507E+01  0.3391174E+03
Ar  593  0.1434525E+02  0.3061694E+00  0.4752495E+01  0.2400625E+03
Ar  594  0.1778373E+02  0.3739551E+02  0.5662463E+01  0.1221718E+03
Ar  595  0.2071954E+02  0.3682543E+02  0.6915444E+01  0.9581694E+02
Ar  596  0.1619545E+02  0.3702820E+02  0.8620325E+01  0.8392933E+03
Ar  597  0.1716987E+02  0.3682760E+02  0.1199288E+02  0.8371065E+03
Ar  598  0.1873097E+02  0.1251697E+01  0.8983471E+01  0.1254847E+04
Ar  599  0.2048419E+02  0.3650905E+02  0.1080369E+02  0.5805199E+03
Ar  600  0.1348439E+02  0.4068292E+01  0.1544352E+02  0.4708566E+02
Ar  601  0.1593419E+02  0.3755026E+02  0.1600348E+02  0.1876235E+03
Ar  602  0.1751342E+02  0.2297668E+01  0.1398978E+02  0.3242865E+03
Ar  603  0.1862634E+02  0.3713258E+02  0.1887958E+02  0.2017753E+03
Ar  604  0.1530529E+02  0.3584564E+01  0.2227322E+02  0.4047114E+03
Ar  605  0.1639016E+02  0.3759785E+02  0.2225135E+02  0.1130394E+04
Ar  606  0.1968589E+02  0.3404330E+01  0.2597418E+02  0.7121621E+03
Ar  607  0.2087353E+02  0.4256843E+00  0.2518936E+02  0.2313796E+03
Ar  608  0.1276011E+02  0.3497026E+01  0.2549460E+02  0.5520272E+03
Ar  609  0.1598241E+02  0.1357299E+01  0.2523247E+02  0.3577105E+03
Ar  610  0.1745818E+02  0.1404692E+01  0.2829527E+02  0.2295982E+02
Ar  611  0.2083430E+02  0.5433646E+00  0.2890764E+02  0.2409317E+03
Ar  612  0.1309229E+02  0.2953948E+01  0.3115930E+02  0.2587694E+03
Ar  613  0.1881249E+02  0.1377885E+01  0.3143929E+02  0.1080652E+03
Ar  614  0.1668635E+02  0.3710344E+01  0.3257762E+02  0.1953215E+03
Ar  615  0.2159250E+02  0.8491849E+00  0.3344828E+02  0.2073119E+03
Ar  616  0.2065059E+02  0.4137623E+01  0.3323230E+02  0.3843037E+03
Ar  617  0.1855964E+02  0.6429285E+01  0.3402618E+02  0.4901102E+02
Ar  618  0.2138687E+02  0.7961355E+01  0.7934907E+00  0.2107297E+03
Ar  619  0.2039717E+02  0.4753244E+01  0.3710914E+02  0.9029881E+03
Ar  620  0.1585974E+02  0.6460136E+01  0.2127190E+01  0.5201816E+03
Ar  621  0.1912657E+02  0.5332096E+01  0.2188798E+01  0.7045077E+03
Ar  622  0.1870553E+02  0.8689927E+01  0.3163830E+01  0.7023437E+03
Ar  623  0.2028645E+02  0.6335283E+01  0.5362042E+01  0.2770492E+03
Ar  624  0.1432531E+02  0.7975323E+01  0.8656412E+01  0.1681129E+03
Ar  625  0.1711754E+02  0.5644579E+01  0.9013436E+01  0.1292168E+02
Ar  626  0.2098907E+02  0.5024141E+01  0.8711108E+01  0.1236360E+03
Ar  627  0.1601805E+02  0.2009551E+01  0.1098523E+02  0.2290349E+03
Ar  628  0.1899226E+02  0.7075580E+01  0.1470587E+02  0.3030888E+03
Ar  629  0.1581203E+02  0.6224980E+01  0.1556974E+02  0.4686301E+03
Ar  630  0.1832918E+02  0.7440073E+01  0.1838329E+02  0.2471243E+03
Ar  631  0.1950006E+02  0.4565784E+01  0.2009434E+02  0.3203911E+03
Ar  632  0.1537359E+02  0.7358993E+01  0.1942672E+02  0.2996070E+03
Ar  633  0.1237579E+02  0.8129976E+01  0.2132567E+02  0.6230341E+03
Ar  634  0.2036261E+02  0.7738383E+01  0.2090824E+02  0.2939670E+03
Ar  635  0.1641432E+02  0.8053022E+01  0.2577300E+02  0.2466044E+03
Ar  636  0.1383524E+02  0.6264781E+01  0.2390315E+02  0.1216421E+03
Ar  637  0.1651549E+02  0.4558223E+01  0.2553862E+02  0.2068204E+03
Ar  638  0.1344086E+02  0.8148059E+01  0.2773930E+02  0.2297003E+03
Ar  639  0.1826205E+02  0.4417186E+01  0.2934866E+02  0.2804201E+03
Ar  640  0.1058889E+02  0.9132137E+01  0.2989251E+02  0.1766242E+03
Ar  641  0.1411082E+02  0.5581089E+01  0.3360024E+02  0.3382729E+02
Ar  642  0.1406629E+02  0.8249833E+01  0.3148458E+02  0.8016967E+02
Ar  643  0.1817924E+02  0.8162714E+01  0.3736798E+02  0.1188086E+03
Ar  644  0.1631012E+02  0.9473116E+01  0.3414522E+02  0.3996681E+03
Ar  645  0.1559989E+02  0.1049968E+02  0.7503894E+00  0.3232849E+03
Ar  646  0.1768823E+02  0.1188268E+02  0.4661784E+01  0.3639279E+03
Ar  647  0.1789061E+02  0.8591955E+01  0.7255281E+01  0.6876453E+03
Ar  648  0.1668005E+02  0.1539802E+02  0.4199033E+01  0.2507332E+03
Ar  649  0.1521861E+02  0.9682242E+01  0.5209707E+01  0.1453151E+03
Ar  650  0.2000874E+02  0.1569877E+02  0.6261686E+01  0.3488091E+03
Ar  651  0.2144464E+02  0.9532928E+01  0.8020342E+01  0.1598652E+03
Ar  652  0.1442966E+02  0.1335467E+02  0.5610088E+01  0.1342281E+03
Ar  653  0.1660411E+02  0.1193022E+02  0.9335455E+01  0.2189487E+03
Ar  654  0.2013429E+02  0.1266226E+02  0.1043721E+02  0.1634120E+03
Ar  655  0.1944733E+02  0.8452641E+01  0.1042609E+02  0.2389222E+03
Ar  656  0.1811654E+02  0.1218513E+02  0.1306595E+02  0.4863982E+03
Ar  657  0.1617563E+02  0.8726427E+01  0.1266557E+02  0.4202679E+03
Ar  658  0.1675330E+02  0.9751286E+01  0.1649872E+02  0.2263279E+03
Ar  659  0.1363139E+02  0.9918814E+01  0.1844474E+02  0.1194672E+04
Ar  660  0.1663977E+02  0.1505374E+02  0.1816305E+02  0.2732083E+03
Ar  661  0.1514699E+02  0.9763523E+01  0.2213355E+02  0.7025303E+03
Ar  662  0.1843368E+02  0.9947748E+01  0.2362268E+02  0.5126933E+02
Ar  663  0.1600508E+02  0.1242643E+02  0.2490202E+02  0.3288828E+03
Ar  664  0.1816427E+02  0.1414187E+02  0.2163903E+02  0.7458218E+03
Ar  665  0.1340104E+02  0.1151481E+02  0.2802491E+02  0.4708834E+03
Ar  666  0.1713481E+02  0.1111859E+02  0.2868906E+02  0.7725594E+02
Ar  667  0.1659285E+02  0.7784276E+01  0.2914982E+02  0.5759750E+03
Ar  668  0.1447894E+02  0.1442767E+02  0.3003710E+02  0.7630870E+02
Ar  669  0.1761990E+02  0.1175614E+02  0.3182406E+02  0.2036063E+03
Ar  670  0.2084981E+02  0.1040524E+02  0.3000734E+02  0.8406658E+03
Ar  671  0.1984549E+02  0.9720166E+01  0.3341466E+02  0.6519370E+03
Ar  672  0.2050466E+02  0.1404792E+02  0.3764486E+02  0.7901735E+02
Ar  673  0.1484638E+02  0.1549872E+02  0.3695081E+02  0.3057131E+03
Ar  674  0.2068557E+02  0.2031778E+02  0.3438401E+02  0.7107623E+02
Ar  675  0.2100036E+02  0.1470374E+02  0.3336553E+01  0.5360547E+03
Ar  676  0.1579044E+02  0.1921547E+02  0.3911071E+01  0.3250582E+03
Ar  677  0.1597745E+02  0.1670821E+02  0.7090568E+01  0.4235896E+03
Ar  678  0.1921548E+02  0.1991874E+02  0.4090113E+01  0.2474156E+02
Ar  679  0.2033411E+02  0.1842325E+02  0.7600704E+01  0.3151396E+03
Ar  680  0.1674048E+02  0.1986356E+02  0.7679115E+01  0.8973007E+02
Ar  681  0.1804183E+02  0.1508194E+02  0.9565930E+01  0.1618652E+03
Ar  682  0.2018151E+02  0.1799860E+02  0.1118423E+02  0.2492509E+03
Ar  683  0.1969899E+02  0.1767788E+02  0.1488337E+02  0.8354914E+03
Ar  684  0.1799465E+02  0.2040208E+02  0.1416678E+02  0.4604287E+03
Ar  685  0.1525284E+02  0.1353515E+02  0.1488123E+02  0.6269846E+03
Ar  686  0.1822403E+02  0.1921236E+02  0.1826448E+02  0.3053066E+03
Ar  687  0.1868760E+02  0.1389713E+02  0.1590090E+02  0.1535765E+03
Ar  688  0.1670260E+02  0.2058040E+02  0.2175927E+02  0.5997749E+03
Ar  689  0.1730657E+02  0.1711432E+02  0.2071663E+02  0.5533154E+02
Ar  690  0.2049482E+02  0.1757005E+02  0.2226031E+02  0.1171313E+04
Ar  691  0.1723035E+02  0.1465341E+02  0.2710628E+02  0.5700261E+03
Ar  692  0.1820963E+02  0.1897382E+02  0.2473466E+02  0.1035914E+04
Ar  693  0.1191343E+02  0.1521619E+02  0.2688139E+02  0.1362978E+03
Ar  694  0.2008556E+02  0.1710580E+02  0.2874951E+02  0.3684688E+03
Ar  695  0.1695978E+02  0.1745841E+02  0.2915805E+02  0.4254354E+02
Ar  696  0.1443080E+02  0.1983831E+02  0.2835793E+02  0.3288503E+03
Ar  697  0.1551078E+02  0.1474071E+02  0.3301914E+02  0.5927934E+02
Ar  698  0.2020011E+02  0.2258316E+02  0.3733601E+02  0.1082865E+04
Ar  699  0.1764243E+02  0.1506748E+02  0.3574676E+02  0.1127180E+03
Ar  700  0.1689453E+02  0.2209223E+02  0.3588109E+02  0.7259487E+03
Ar  701  0.1800888E+02  0.2019114E+02  0.6858919E+00  0.4201753E+03
Ar  702  0.1695439E+02  0.2515778E+02  0.3473838E+02  0.8546914E+02
Ar  703  0.1668867E+02  0.2224970E+02  0.5121451E+01  0.3299610E+03
Ar  704  0.1457412E+02  0.2328290E+02  0.2299261E+01  0.3126556E+02
Ar  705  0.1366003E+02  0.2329845E+02  0.6336186E+01  0.2877357E+03
Ar  706  0.1930259E+02  0.2476886E+02  0.5055684E+01  0.8512642E+02
Ar  707  0.2020196E+02  0.2216475E+02  0.6998901E+01  0.3748116E+03
Ar  708  0.1683381E+02  0.2404488E+02  0.7790749E+01  0.9157938E+02
Ar  709  0.1857213E+02  0.2090087E+02  0.1004426E+02  0.2442621E+03
Ar  710  0.1795459E+02  0.2673088E+02  0.1017013E+02  0.9991625E+02
Ar  711  0.1859896E+02  0.2438143E+02  0.1353928E+02  0.5334586E+03
Ar  712  0.1600779E+02  0.2239251E+02  0.1185388E+02  0.1564864E+03
Ar  713  0.1843395E+02  0.2365541E+02  0.1691464E+02  0.1514474E+03
Ar  714  0.2203108E+02  0.2390107E+02  0.1768819E+02  0.1383001E+03
Ar  715  0.1993540E+02  0.2183596E+02  0.1957259E+02  0.1035288E+03
Ar  716  0.1522826E+02  0.2247439E+02  0.1886767E+02  0.1750953E+03
Ar  717  0.1722074E+02  0.2263119E+02  0.2537720E+02  0.5809173E+03
Ar  718  0.1843364E+02  0.2359134E+02  0.2243568E+02  0.2046582E+03
Ar  719  0.2000324E+02  0.2080124E+02  0.2296265E+02  0.6053626E+03
Ar  720  0.1583322E+02  0.2566203E+02  0.2465233E+02  0.2501861E+03
Ar  721  0.1724722E+02  0.2177180E+02  0.3080053E+02  0.1962814E+03
Ar  722  0.1802804E+02  0.2064155E+02  0.2787417E+02  0.5514482E+03
Ar  723  0.2174341E+02  0.2291703E+02  0.2861287E+02  0.1832980E+03
Ar  724  0.1497416E+02  0.3084563E+02  0.2964573E+02  0.5549330E+03
Ar  725  0.1998250E+02  0.2308782E+02  0.3316365E+02  0.2874607E+03
Ar  726  0.2006296E+02  0.2642724E+02  0.3178915E+02  0.1804229E+03
Ar  727  0.1984683E+02  0.2701787E+02  0.3528997E+02  0.1965519E+03
Ar  728  0.1455544E+02  0.2202944E+02  0.3277727E+02  0.3647805E+02
Ar  729  0.1311694E+02  0.3292258E+02  0.3776154E+02  0.2144388E+03
Ar  730  0.1617531E+02  0.3048909E+02  0.1131460E+01  0.3362756E+03
Ar  731  0.1790897E+02  0.2362965E+02  0.1775908E+01  0.3044886E+03
Ar  732  0.1200136E+02  0.3118066E+02  0.3948048E+01  0.3360744E+03
Ar  733  0.1438799E+02  0.2860678E+02  0.3770534E+01  0.1569465E+03
Ar  734  0.1717248E+02  0.3019772E+02  0.3987716E+01  0.2480507E+03
Ar  735  0.2256555E+02  0.3012972E+02  0.8834135E+01  0.3002764E+03
Ar  736  0.2068446E+02  0.2678407E+02  0.8001394E+01  0.6439760E+03
Ar  737  0.1868228E+02  0.2756293E+02  0.1355413E+02  0.1127362E+03
Ar  738  0.2216511E+02  0.2719060E+02  0.1154151E+02  0.1390575E+03
Ar  739  0.2049619E+02  0.2729328E+02  0.1626991E+02  0.3435546E+03
Ar  740  0.1725428E+02  0.2752224E+02  0.1702932E+02  0.6366534E+03
Ar  741  0.1856143E+02  0.2594474E+02  0.1965971E+02  0.8068678E+03
Ar  742  0.2152087E+02  0.2975616E+02  0.1411109E+02  0.9440101E+02
Ar  743  0.1571548E+02  0.2855829E+02  0.2143945E+02  0.2643622E+03
Ar  744  0.1371952E+02  0.2910958E+02  0.1882987E+02  0.4988298E+03
Ar  745  0.1408962E+02  0.2599725E+02  0.2194337E+02  0.7906258E+03
Ar  746  0.1981863E+02  0.3243383E+02  0.2168694E+02  0.3921169E+03
Ar  747  0.1720103E+02  0.2877376E+02  0.2618636E+02  0.4284897E+03
Ar  748  0.1313305E+02  0.2880247E+02  0.2382539E+02  0.2161120E+03
Ar  749  0.1538526E+02  0.3154622E+02  0.2592873E+02  0.1921159E+03
Ar  750  0.1987395E+02  0.2830769E+02  0.2798500E+02  0.5074655E+03
Ar  751  0.1902050E+02  0.2512428E+02  0.2801634E+02  0.4825727E+03
Ar  752  0.1306440E+02  0.2665226E+02  0.3073801E+02  0.3474287E+03
Ar  753  0.1666325E+02  0.2633038E+02  0.3096547E+02  0.2466802E+03
Ar  754  0.1800410E+02  0.2957186E+02  0.3116466E+02  0.2384674E+03
Ar  755  0.2069061E+02  0.2967746E+02  0.3341351E+02  0.2791475E+03
Ar  756  0.1657961E+02  0.2886479E+02  0.3428559E+02  0.2430041E+03
Ar  757  0.1541367E+02  0.3191835E+02  0.3565292E+02  0.4818366E+03
Ar  758  0.1822622E+02  0.3678500E+02  0.3643874E+02  0.8990662E+02
Ar  759  0.1722120E+02  0.3412269E+02  0.1717408E+00  0.7058108E+02
Ar  760  0.1670093E+02  0.3670416E+02  0.2191764E+01  0.2112316E+03
Ar  761  0.1509324E+02  0.3293430E+02  0.3002712E+01  0.4249709E+03
Ar  762  0.2015163E+02  0.3702755E+02  0.3217544E+01  0.3668042E+03
Ar  763  0.1855392E+02  0.3050147E+02  0.7946577E+01  0.7743160E+03
Ar  764  0.1858673E+02  0.3388297E+02  0.6868235E+01  0.8967803E+02
Ar  765  0.1669104E+02  0.3093395E+02  0.1243860E+02  0.5316088E+03
Ar  766  0.1934169E+02  0.3337024E+02  0.1277298E+02  0.1985520E+03
Ar  767  0.1812574E+02  0.3179958E+02  0.1614446E+02  0.3844212E+03
Ar  768  0.1426952E+02  0.3480286E+02  0.1168581E+02  0.6992184E+03
Ar  769  0.1482648E+02  0.3030853E+02  0.1563871E+02  0.1782134E+03
Ar  770  0.1959008E+02  0.3398746E+02  0.1868685E+02  0.1175391E+03
Ar  771  0.1637552E+02  0.3501607E+02  0.1796481E+02  0.2389373E+03
Ar  772  0.1599287E+02  0.3418610E+02  0.1448437E+02  0.2376355E+03
Ar  773  0.1395977E+02  0.3164980E+02  0.2203406E+02  0.1246409E+03
Ar  774  0.2230412E+02  0.3262906E+02  0.2416832E+02  0.3701606E+02
Ar  775  0.1731377E+02  0.3066227E+02  0.2308516E+02  0.5598890E+03
Ar  776  0.1474345E+02  0.3486100E+02  0.2455742E+02  0.6579971E+03
Ar  777  0.1567261E+02  0.3397658E+02  0.2841279E+02  0.7566663E+03
Ar  778  0.2066896E+02  0.3483700E+02  0.2675886E+02  0.2488424E+03
Ar  779  0.1844744E+02  0.3186682E+02  0.2760768E+02  0.9962210E+03
Ar  780  0.1801832E+02  0.3672731E+02  0.2609206E+02  0.8792376E+02
Ar  781  0.1707473E+02  0.3295533E+02  0.3168775E+02  0.2535999E+03
Ar  782  0.1830263E+02  0.3601145E+02  0.2951703E+02  0.1692684E+03
Ar  783  0.2017820E+02  0.3191869E+02  0.3049308E+02  0.3816521E+03
Ar  784  0.1574596E+02  0.3639339E+02  0.3153254E+02  0.6316180E+03
Ar  785  0.2063445E+02  0.2284225E+01  0.3228740E+01  0.8898873E+03
Ar  786  0.2765343E+02  0.2313656E+01  0.2446980E+01  0.1280219E+03
Ar  787  0.2416780E+02  0.3693301E+02  0.1296268E+01  0.1851864E+03
Ar  788  0.1918841E+02  0.2982413E+01  0.6277809E+01  0.1690000E+04
Ar  789  0.2045641E+02  0.3166854E+02  0.4821721E+01  0.1457255E+03
Ar  790  0.2466549E+02  0.1238404E+01  0.4237394E+01  0.2137006E+03
Ar  791  0.2401766E+02  0.3643649E+02  0.9828494E+01  0.3313219E+03
Ar  792  0.2338843E+02  0.3596974E+02  0.5408145E+01  0.8254195E+03
Ar  793  0.2197454E+02  0.8779718E+00  0.1350297E+02  0.8772532E+02
Ar  794  0.2189427E+02  0.1398917E+01  0.8763488E+01  0.8538856E+03
Ar  795  0.2473639E+02  0.3634584E+02  0.1463328E+02  0.3445565E+03
Ar  796  0.2111980E+02  0.3748125E+01  0.1470266E+02  0.1171980E+04
Ar  797  0.1983971E+02  0.3615833E+02  0.1468762E+02  0.1844970E+03
Ar  798  0.2226466E+02  0.3126451E+01  0.1932896E+02  0.3009111E+03
Ar  799  0.1870118E+02  0.4243790E+01  0.1709627E+02  0.5275688E+03
Ar  800  0.1888984E+02  0.2531504E+01  0.2284490E+02  0.2549443E+03
Ar  801  0.1629087E+02  0.3403229E+02  0.2122598E+02  0.3053790E+03
Ar  802  0.2481289E+02  0.1340128E+01  0.2079649E+02  0.2410557E+03
Ar  803  0.2568406E+02  0.3891665E+00  0.2460846E+02  0.4239897E+03
Ar  804  0.2257619E+02  0.2521699E+01  0.2297452E+02  0.4304516E+03
Ar  805  0.2342600E+02  0.3652196E+02  0.2726406E+02  0.1500766E+03
Ar  806  0.2841512E+02  0.2579555E+01  0.2629894E+02  0.4448003E+03
Ar  807  0.2669466E+02  0.3032130E-01  0.3161173E+02  0.5216040E+03
Ar  808  0.2295330E+02  0.3202429E+01  0.3060824E+02  0.3631440E+03
Ar  809  0.2387906E+02  0.1274833E+01  0.3631917E+02  0.3157608E+03
Ar  810  0.1944255E+02  0.3596996E+02  0.3313559E+02  0.3449241E+03
Ar  811  0.2679579E+02  0.3341950E+02  0.3380696E+02  0.3122404E+03
Ar  812  0.2521571E+02  0.3975308E+01  0.1154289E+01  0.9842385E+02
Ar  813  0.2602998E+02  0.5288576E+01  0.4327131E+01  0.3481646E+03
Ar  814  0.2747277E+02  0.8492496E+01  0.2926677E+01  0.4055138E+03
Ar  815  0.2852462E+02  0.6648464E+01  0.3832847E+00  0.2402812E+03
Ar  816  0.2373728E+02  0.8978471E+01  0.3070835E+01  0.3749253E+03
Ar  817  0.2245769E+02  0.5707555E+01  0.2937489E+01  0.1917396E+03
Ar  818  0.2438361E+02  0.1069131E+02  0.6353956E+01  0.4912803E+03
Ar  819  0.2686947E+02  0.8346117E+01  0.6408014E+01  0.6062249E+02
Ar  820  0.2377312E+02  0.7051028E+01  0.5990201E+01  0.2596404E+03
Ar  821  0.2391723E+02  0.3918526E+01  0.6691599E+01  0.1821625E+03
Ar  822  0.2338477E+02  0.7325225E+01  0.1024505E+02  0.1184804E+03
Ar  823  0.2467357E+02  0.5084578E+01  0.1492271E+02  0.3719128E+02
Ar  824  0.1947706E+02  0.3527837E+01  0.1183297E+02  0.1619016E+03
Ar  825  0.2215414E+02  0.6062536E+01  0.1744380E+02  0.3930336E+03
Ar  826  0.2501974E+02  0.8634020E+01  0.1639656E+02  0.3286909E+03
Ar  827  0.2315971E+02  0.6139010E+01  0.2237779E+02  0.5752105E+03
Ar  828  0.2294632E+02  0.9260178E+01  0.1900681E+02  0.4496588E+03
Ar  829  0.1945013E+02  0.3557548E+02  0.2244225E+02  0.4345780E+03
Ar  830  0.2498789E+02  0.9234111E+01  0.2213518E+02  0.4786597E+03
Ar  831  0.2535987E+02  0.3945045E+01  0.2438548E+02  0.3246485E+03
Ar  832  0.2005942E+02  0.6617426E+01  0.2445779E+02  0.2313077E+03
Ar  833  0.2312083E+02  0.2577680E+01  0.2667336E+02  0.1478057E+03
Ar  834  0.2530526E+02  0.5304211E+01  0.2832549E+02  0.3804744E+03
Ar  835  0.2655111E+02  0.2279969E+01  0.2918702E+02  0.1065267E+03
Ar  836  0.1969239E+02  0.7202367E+01  0.3092968E+02  0.1218917E+04
Ar  837  0.2355965E+02  0.4501752E+01  0.3571101E+02  0.1404582E+03
Ar  838  0.2383125E+02  0.6435884E+01  0.3241300E+02  0.2227786E+02
Ar  839  0.2474588E+02  0.2189360E+01  0.3328787E+02  0.1868387E+02
Ar  840  0.2217509E+02  0.7364630E+01  0.3517281E+02  0.1058275E+03
Ar  841  0.1976346E+02  0.1129254E+02  0.1337771E+01  0.1826175E+03
Ar  842  0.2480108E+02  0.1328696E+02  0.3629983E+02  0.4362372E+03
Ar  843  0.2603005E+02  0.1039710E+02  0.3714999E+02  0.3769658E+03
Ar  844  0.2350371E+02  0.1212108E+02  0.1536683E+01  0.6736621E+03
Ar  845  0.2151310E+02  0.1074646E+02  0.4640121E+01  0.1744989E+03
Ar  846  0.2394786E+02  0.1381659E+02  0.4574808E+01  0.1229183E+03
Ar  847  0.2168235E+02  0.1304996E+02  0.7358360E+01  0.1462062E+03
Ar  848  0.2285200E+02  0.1556983E+02  0.9933156E+01  0.1068214E+04
Ar  849  0.2534244E+02  0.1026782E+02  0.9741341E+01  0.1710552E+02
Ar  850  0.2149110E+02  0.9118194E+01  0.1586578E+02  0.6645141E+03
Ar  851  0.2217370E+02  0.6692860E+01  0.1348819E+02  0.3817779E+03
Ar  852  0.2219421E+02  0.1228128E+02  0.1528710E+02  0.9961162E+03
Ar  853  0.2023640E+02  0.1114350E+02  0.1782503E+02  0.7076945E+01
Ar  854  0.2202686E+02  0.1570557E+02  0.1660888E+02  0.1156940E+03
Ar  855  0.2628052E+02  0.1112393E+02  0.1993623E+02  0.5983622E+03
Ar  856  0.1736393E+02  0.1086940E+02  0.2016711E+02  0.1517445E+03
Ar  857  0.1735536E+02  0.7072485E+01  0.2229832E+02  0.2645939E+03
Ar  858  0.2112385E+02  0.1146314E+02  0.2138968E+02  0.4607891E+03
Ar  859  0.2207441E+02  0.9738680E+01  0.2389590E+02  0.1660568E+03
Ar  860  0.2017032E+02  0.1235379E+02  0.2577984E+02  0.2072577E+03
Ar  861  0.2172359E+02  0.5324638E+01  0.2816807E+02  0.4534777E+03
Ar  862  0.2323024E+02  0.1060474E+02  0.2678491E+02  0.4082999E+02
Ar  863  0.2377117E+02  0.8611915E+01  0.2973006E+02  0.1008427E+03
Ar  864  0.2341057E+02  0.1261414E+02  0.2980711E+02  0.2176482E+03
Ar  865  0.2382405E+02  0.1108115E+02  0.3366016E+02  0.2751286E+03
Ar  866  0.2209058E+02  0.1055416E+02  0.3647374E+02  0.1488786E+03
Ar  867  0.2552831E+02  0.8470616E+01  0.3459797E+02  0.5992459E+03
Ar  868  0.2080389E+02  0.1307474E+02  0.3439506E+02  0.1132065E+04
Ar  869  0.2329577E+02  0.1618277E+02  0.3481397E+02  0.1725721E+03
Ar  870  0.2013253E+02  0.1721052E+02  0.3584042E+02  0.6947835E+02
Ar  871  0.2321442E+02  0.1615812E+02  0.5494102E+00  0.1631841E+03
Ar  872  0.2140537E+02  0.2275307E+02  0.3123342E+01  0.2578638E+03
Ar  873  0.2245659E+02  0.1817086E+02  0.3653506E+01  0.5011653E+03
Ar  874  0.2296329E+02  0.2000504E+02  0.6204113E+01  0.4693237E+03
Ar  875  0.2360750E+02  0.1656590E+02  0.6827693E+01  0.8696365E+03
Ar  876  0.2227463E+02  0.2053056E+02  0.9607077E+01  0.3365853E+03
Ar  877  0.2104905E+02  0.1489849E+02  0.1341246E+02  0.3404576E+03
Ar  878  0.2533848E+02  0.1856417E+02  0.9554781E+01  0.3301546E+03
Ar  879  0.2332850E+02  0.1763433E+02  0.1310409E+02  0.3056279E+03
Ar  880  0.2115650E+02  0.2142421E+02  0.1295087E+02  0.5982336E+03
Ar  881  0.2036168E+02  0.1555454E+02  0.1973817E+02  0.5703664E+03
Ar  882  0.2383893E+02  0.1871221E+02  0.1622364E+02  0.4045975E+03
Ar  883  0.2696223E+02  0.1432197E+02  0.2060001E+02  0.6254023E+02
Ar  884  0.2293646E+02  0.1818726E+02  0.1937296E+02  0.1968259E+03
Ar  885  0.2252387E+02  0.1398964E+02  0.2297853E+02  0.1877168E+03
Ar  886  0.2344536E+02  0.1310384E+02  0.1987862E+02  0.8480387E+02
Ar  887  0.2325263E+02  0.1452741E+02  0.2629261E+02  0.1511532E+03
Ar  888  0.2006244E+02  0.1581885E+02  0.2534535E+02  0.5586014E+03
Ar  889  0.1979728E+02  0.1370501E+02  0.3012421E+02  0.1194374E+03
Ar  890  0.2509904E+02  0.1799567E+02  0.2711713E+02  0.1976797E+03
Ar  891  0.2321059E+02  0.1613078E+02  0.2980168E+02  0.2672805E+03
Ar  892  0.1751100E+02  0.1895413E+02  0.3416697E+02  0.2241304E+03
Ar  893  0.2067528E+02  0.1574689E+02  0.3262211E+02  0.2485163E+03
Ar  894  0.2592853E+02  0.1770684E+02  0.3246469E+02  0.3069435E+03
Ar  895  0.2424958E+02  0.1410052E+02  0.3254504E+02  0.1155333E+03
Ar  896  0.2256558E+02  0.1849741E+02  0.3214799E+02  0.2120387E+03
Ar  897  0.2301314E+02  0.2233628E+02  0.3564542E+02  0.5318625E+03
Ar  898  0.2438438E+02  0.2104015E+02  0.3029956E+01  0.2591083E+03
Ar  899  0.2572966E+02  0.1858221E+02  0.6083300E+00  0.3062211E+03
Ar  900  0.2205548E+02  0.2562162E+02  0.6570974E+00  0.7720064E+01
Ar  901  0.2282264E+02  0.2485376E+02  0.5918229E+01  0.2467856E+03
Ar  902  0.2422477E+02  0.2749206E+02  0.4565388E+01  0.1937086E+03
Ar  903  0.2355407E+02  0.2358657E+02  0.9672359E+01  0.1161630E+03
Ar  904  0.2400524E+02  0.2713375E+02  0.8113199E+01  0.1179839E+03
Ar  905  0.2011028E+02  0.2432956E+02  0.1027045E+02  0.2685203E+03
Ar  906  0.2547298E+02  0.2609722E+02  0.1114732E+02  0.4733835E+02
Ar  907  0.2454709E+02  0.2220116E+02  0.1536135E+02  0.4337359E+03
Ar  908  0.2393196E+02  0.2674412E+02  0.1584918E+02  0.8440396E+03
Ar  909  0.2081133E+02  0.2107755E+02  0.1638389E+02  0.2159088E+03
Ar  910  0.2445581E+02  0.2149501E+02  0.1870714E+02  0.8007615E+02
Ar  911  0.2622603E+02  0.1846092E+02  0.1951893E+02  0.9755776E+03
Ar  912  0.2258381E+02  0.2247993E+02  0.2177479E+02  0.2943135E+03
Ar  913  0.2275016E+02  0.1731665E+02  0.2464760E+02  0.2440379E+03
Ar  914  0.2423285E+02  0.2529535E+02  0.2392397E+02  0.1143083E+04
Ar  915  0.2319484E+02  0.2128563E+02  0.2481977E+02  0.2660038E+03
Ar  916  0.2051006E+02  0.2324960E+02  0.2534490E+02  0.3304220E+03
Ar  917  0.2152432E+02  0.1954137E+02  0.2719176E+02  0.1114223E+03
Ar  918  0.2454104E+02  0.2356201E+02  0.2705840E+02  0.2968480E+03
Ar  919  0.2364255E+02  0.2277586E+02  0.3231005E+02  0.4392466E+02
Ar  920  0.2254598E+02  0.2612219E+02  0.2779751E+02  0.1201348E+03
Ar  921  0.2029216E+02  0.2021552E+02  0.3040650E+02  0.2220793E+03
Ar  922  0.2815434E+02  0.2469623E+02  0.3759848E+02  0.4726467E+03
Ar  923  0.2247959E+02  0.2599339E+02  0.3392513E+02  0.5279396E+03
Ar  924  0.2156154E+02  0.1941888E+02  0.4147981E+00  0.6186492E+03
Ar  925  0.2238401E+02  0.2873876E+02  0.3673746E+02  0.4183298E+03
Ar  926  0.2264539E+02  0.2949238E+02  0.2472401E+01  0.2077451E+02
Ar  927  0.2522881E+02  0.2420404E+02  0.2202202E+01  0.3921778E+03
Ar  928  0.1900027E+02  0.2733665E+02  0.2168310E+01  0.1666011E+03
Ar  929  0.2048618E+02  0.2822818E+02  0.4877853E+01  0.4231320E+03
Ar  930  0.2525766E+02  0.3193621E+02  0.3429320E+01  0.1833853E+03
Ar  931  0.2569857E+02  0.2972966E+02  0.6731191E+01  0.2965371E+03
Ar  932  0.2396705E+02  0.3115976E+02  0.1168684E+02  0.5497403E+02
Ar  933  0.2228459E+02  0.2443514E+02  0.1395880E+02  0.3787891E+03
Ar  934  0.2735544E+02  0.2866885E+02  0.1023720E+02  0.1980642E+03
Ar  935  0.2579060E+02  0.2883691E+02  0.1365436E+02  0.1477305E+03
Ar  936  0.2472980E+02  0.3174361E+02  0.1520352E+02  0.4474231E+03
Ar  937  0.2243063E+02  0.2803426E+02  0.1889146E+02  0.4057013E+03
Ar  938  0.2535432E+02  0.2944134E+02  0.1767764E+02  0.1590975E+03
Ar  939  0.2162287E+02  0.2597756E+02  0.2159232E+02  0.2243266E+03
Ar  940  0.1768600E+02  0.3050937E+02  0.1937124E+02  0.4396008E+02
Ar  941  0.1950904E+02  0.2833744E+02  0.2163666E+02  0.3117361E+03
Ar  942  0.2249480E+02  0.3072355E+02  0.2065174E+02  0.4134509E+03
Ar  943  0.2341475E+02  0.2909937E+02  0.2355741E+02  0.7729151E+03
Ar  944  0.2001516E+02  0.2999619E+02  0.2514106E+02  0.5016012E+03
Ar  945  0.2006901E+02  0.2665109E+02  0.2503304E+02  0.8361650E+03
Ar  946  0.2661959E+02  0.2764064E+02  0.2485375E+02  0.7422464E+02
Ar  947  0.2697397E+02  0.2245429E+02  0.3026421E+02  0.6039859E+03
Ar  948  0.2377138E+02  0.2932786E+02  0.2733878E+02  0.3209066E+03
Ar  949  0.2446199E+02  0.2591697E+02  0.3116852E+02  0.1659858E+03
Ar  950  0.2416500E+02  0.2895111E+02  0.3296921E+02  0.3369066E+03
Ar  951  0.2486829E+02  0.2520615E+02  0.3632621E+02  0.1294145E+03
Ar  952  0.1873988E+02  0.2983198E+02  0.3690785E+02  0.3913448E+02
Ar  953  0.2120833E+02  0.3234100E+02  0.3754892E+02  0.3949852E+03
Ar  954  0.2131137E+02  0.3583265E+02  0.3594456E+02  0.1194190E+03
Ar  955  0.2434074E+02  0.3387670E+02  0.5422912E-01  0.5460097E+03
Ar  956  0.2263685E+02  0.3395870E+02  0.2989749E+01  0.1519033E+03
Ar  957  0.1826952E+02  0.3397157E+02  0.3481006E+01  0.1765707E+03
Ar  958  0.2386486E+02  0.3269451E+02  0.6191035E+01  0.7708339E+03
Ar  959  0.2706790E+02  0.3192215E+02  0.9562708E+01  0.1477627E+04
Ar  960  0.2159890E+02  0.3365237E+02  0.8982587E+01  0.3332627E+03
Ar  961  0.1990924E+02  0.3018602E+02  0.1119487E+02  0.2062322E+03
Ar  962  0.2552665E+02  0.3395736E+02  0.1176379E+02  0.4201539E+03
Ar  963  0.2702987E+02  0.3392006E+02  0.1625202E+02  0.4049289E+03
Ar  964  0.2243276E+02  0.3471727E+02  0.1270790E+02  0.3034223E+03
Ar  965  0.2126256E+02  0.3130291E+02  0.1714585E+02  0.4624968E+03
Ar  966  0.2134646E+02  0.4812078E+00  0.1716543E+02  0.2999002E+03
Ar  967  0.2249167E+02  0.3486547E+02  0.1704564E+02  0.4694234E+02
Ar  968  0.2553282E+02  0.3584522E+02  0.2128537E+02  0.5646442E+03
Ar  969  0.2254074E+02  0.3436666E+02  0.2061073E+02  0.1137388E+03
Ar  970  0.2278249E+02  0.3635206E+02  0.2352387E+02  0.4760815E+03
Ar  971  0.2522795E+02  0.3211927E+02  0.2230420E+02  0.7193020E+03
Ar  972  0.2396258E+02  0.3291723E+02  0.2770484E+02  0.1440256E+03
Ar  973  0.2566308E+02  0.3104307E+02  0.2532828E+02  0.2051840E+03
Ar  974  0.2745971E+02  0.3280172E+02  0.2870223E+02  0.3632050E+03
Ar  975  0.2601299E+02  0.3463740E+02  0.3095586E+02  0.1796285E+03
Ar  976  0.2363058E+02  0.3762126E+02  0.3065031E+02  0.8878477E+03
Ar  977  0.2193540E+02  0.3473146E+02  0.2992989E+02  0.7627071E+03
Ar  978  0.2717526E+02  0.2961002E+02  0.2842861E+02  0.6587125E+02
Ar  979  0.2225519E+02  0.2871767E+02  0.3036438E+02  0.4315145E+03
Ar  980  0.1892841E+02  0.3273626E+02  0.3478386E+02  0.6101783E+03
Ar  981  0.2595052E+02  0.3653768E+02  0.3633855E+02  0.3958886E+03
Ar  982  0.3144686E+02  0.1813996E+01  0.1221450E+01  0.3178720E+03
Ar  983  0.3414105E+02  0.3767008E+02  0.3704934E+02  0.3524839E+03
Ar  984  0.2934220E+02  0.1348685E+00  0.4737469E+01  0.5516099E+03
Ar  985  0.2629195E+02  0.2003981E+00  0.7075394E+01  0.2050306E+03
Ar  986  0.3104391E+02  0.2783677E+01  0.4713591E+01  0.2464892E+03
Ar  987  0.2864929E+02  0.3709276E+02  0.9822062E+01  0.1065325E+03
Ar  988  0.2568181E+02  0.5407225E+01  0.9103585E+01  0.1442650E+03
Ar  989  0.2550748E+02  0.2174395E+01  0.1029189E+02  0.2425673E+03
Ar  990  0.2893645E+02  0.2808810E+01  0.9735608E+01  0.4377691E+03
Ar  991  0.2734948E+02  0.8315210E+00  0.1340879E+02  0.1144812E+03
Ar  992  0.2255968E+02  0.4033259E+01  0.1150016E+02  0.4113833E+03
Ar  993  0.2458575E+02  0.1810355E+01  0.1692888E+02  0.2159646E+03
Ar  994  0.2938205E+02  0.2425115E+01  0.1656859E+02  0.1507598E+03
Ar  995  0.2929690E+02  0.3758593E+02  0.1973087E+02  0.3006058E+03
Ar  996  0.2722739E+02  0.2648647E+01  0.1912967E+02  0.6163485E+03
Ar  997  0.2164117E+02  0.3748077E+02  0.2049460E+02  0.4133908E+02
Ar  998  0.2989966E+02  0.4338293E+01  0.2066625E+02  0.7851320E+02
Ar  999  0.2850510E+02  0.3632000E+02  0.2362496E+02  0.1075811E+04
Ar 1000  0.2970069E+02  0.3537375E+02  0.2731394E+02  0.5603652E+03
Ar 1001  0.2658067E+02  0.3617946E+02  0.2783294E+02  0.4649942E+02
Ar 1002  0.2945624E+02  0.5139824E+01  0.2392926E+02  0.3778850E+03
Ar 1003  0.3283860E+02  0.3709385E+02  0.2828576E+02  0.2183610E+02
Ar 1004  0.2858769E+02  0.5732286E+01  0.2745556E+02  0.3249151E+03
Ar 1005  0.2904021E+02  0.1972714E+01  0.3304641E+02  0.4866909E+03
Ar 1006  0.3350430E+02  0.9843930E+00  0.3091654E+02  0.3290563E+03
Ar 1007  0.2917073E+02  0.2771075E+00  0.3680630E+02  0.5143940E+03
Ar 1008  0.2870301E+02  0.3569097E+01  0.3657374E+02  0.6724083E+02
Ar 1009  0.3166617E+02  0.4800565E+01  0.3545915E+02  0.1407953E+03
Ar 1010  0.3246572E+02  0.7933410E+01  0.3633310E+02  0.1444904E+03
Ar 1011  0.2926545E+02  0.5772502E+01  0.3765727E+01  0.2089360E+03
Ar 1012  0.2912163E+02  0.7296014E+01  0.3454945E+02  0.1974056E+03
Ar 1013  0.2808097E+02  0.2927521E+01  0.6035781E+01  0.2647268E+03
Ar 1014  0.3158029E+02  0.5064407E+01  0.1161089E+01  0.7556648E+03
Ar 1015  0.2897603E+02  0.5508236E+01  0.7993284E+01  0.3151574E+03
Ar 1016  0.3144614E+02  0.8131325E+01  0.1840274E+01  0.2327374E+03
Ar 1017  0.2544578E+02  0.7722411E+01  0.1268603E+02  0.7809184E+03
Ar 1018  0.2799026E+02  0.8183360E+01  0.1067430E+02  0.1164192E+04
Ar 1019  0.2776719E+02  0.4215028E+01  0.1306581E+02  0.7056809E+03
Ar 1020  0.2847740E+02  0.7253112E+01  0.1415645E+02  0.1292946E+03
Ar 1021  0.2911486E+02  0.5614660E+01  0.1729640E+02  0.1215429E+03
Ar 1022  0.3093134E+02  0.4847975E+01  0.1471467E+02  0.1271560E+03
Ar 1023  0.3248093E+02  0.5607239E+01  0.1768341E+02  0.6354886E+02
Ar 1024  0.2612739E+02  0.5901340E+01  0.1797804E+02  0.3271783E+03
Ar 1025  0.2642539E+02  0.5485618E+01  0.2132263E+02  0.1734579E+03
Ar 1026  0.2775572E+02  0.8182737E+01  0.1988619E+02  0.4732668E+03
Ar 1027  0.2668948E+02  0.7239297E+01  0.2472664E+02  0.6747680E+02
Ar 1028  0.1961770E+02  0.8829283E+01  0.2704781E+02  0.1373499E+03
Ar 1029  0.2335665E+02  0.6942742E+01  0.2572721E+02  0.1240778E+03
Ar 1030  0.3124633E+02  0.6571856E+01  0.2876301E+02  0.9687735E+02
Ar 1031  0.3174611E+02  0.4018130E+01  0.3189811E+02  0.2406075E+03
Ar 1032  0.2833763E+02  0.5490876E+01  0.3069378E+02  0.9179440E+03
Ar 1033  0.2994353E+02  0.4276267E+00  0.2971949E+02  0.2233249E+02
Ar 1034  0.3185364E+02  0.7938374E+01  0.3233309E+02  0.8232944E+02
Ar 1035  0.3220575E+02  0.1149121E+01  0.3436526E+02  0.1842360E+03
Ar 1036  0.2643923E+02  0.5278020E+01  0.3408344E+02  0.4526398E+03
Ar 1037  0.2908284E+02  0.9962501E+01  0.2602117E+00  0.5042796E+03
Ar 1038  0.2882107E+02  0.1369429E+02  0.3665787E+02  0.6475632E+02
Ar 1039  0.3211905E+02  0.1138359E+02  0.5836532E+00  0.3589824E+03
Ar 1040  0.2671442E+02  0.1399294E+02  0.1275373E+01  0.7597506E+02
Ar 1041  0.2737781E+02  0.1203064E+02  0.3690201E+01  0.4682762E+03
Ar 1042  0.3089267E+02  0.1191319E+02  0.4572937E+01  0.2443012E+03
Ar 1043  0.2830635E+02  0.1137764E+02  0.7476004E+01  0.2967093E+03
Ar 1044  0.2827426E+02  0.1413898E+02  0.5918080E+01  0.1026710E+04
Ar 1045  0.2193196E+02  0.9891954E+01  0.1191819E+02  0.7030521E+03
Ar 1046  0.2528583E+02  0.1401337E+02  0.8456059E+01  0.1550716E+03
Ar 1047  0.2561245E+02  0.1071489E+02  0.1366801E+02  0.4965007E+03
Ar 1048  0.2514212E+02  0.1249963E+02  0.1691326E+02  0.3761974E+02
Ar 1049  0.2788436E+02  0.9850228E+01  0.1714904E+02  0.5646976E+03
Ar 1050  0.2821250E+02  0.1399256E+02  0.1404431E+02  0.3027786E+03
Ar 1051  0.3093273E+02  0.1169125E+02  0.1640530E+02  0.4582096E+03
Ar 1052  0.2524804E+02  0.1579689E+02  0.1748091E+02  0.4290027E+03
Ar 1053  0.2490949E+02  0.1191564E+02  0.2395842E+02  0.8396791E+03
Ar 1054  0.2825297E+02  0.1075563E+02  0.2277758E+02  0.2965452E+03
Ar 1055  0.2673789E+02  0.8892315E+01  0.2783918E+02  0.2898410E+03
Ar 1056  0.2937863E+02  0.1314238E+02  0.2474328E+02  0.1461191E+03
Ar 1057  0.2653911E+02  0.1123487E+02  0.3048775E+02  0.1023542E+03
Ar 1058  0.2880288E+02  0.1313405E+02  0.2891748E+02  0.3349896E+03
Ar 1059  0.2995906E+02  0.1037330E+02  0.3017755E+02  0.1746869E+03
Ar 1060  0.2630445E+02  0.1257039E+02  0.2684194E+02  0.1694810E+03
Ar 1061  0.2744545E+02  0.8173367E+01  0.3192032E+02  0.6025859E+03
Ar 1062  0.3115775E+02  0.1453741E+02  0.3101987E+02  0.1990011E+03
Ar 1063  0.3088979E+02  0.1041367E+02  0.3465628E+02  0.6049014E+03
Ar 1064  0.2715090E+02  0.1187563E+02  0.3416360E+02  0.1620709E+04
Ar 1065  0.2634536E+02  0.1588981E+02  0.3551251E+02  0.2897964E+03
Ar 1066  0.2856883E+02  0.1692043E+02  0.1256787E+01  0.1766296E+03
Ar 1067  0.2993730E+02  0.1382322E+02  0.1928252E+01  0.6519150E+03
Ar 1068  0.2845489E+02  0.2079112E+02  0.2627349E+01  0.5308975E+02
Ar 1069  0.2605139E+02  0.1674119E+02  0.4178587E+01  0.7918037E+02
Ar 1070  0.2920547E+02  0.1827430E+02  0.4796824E+01  0.1476369E+03
Ar 1071  0.2761466E+02  0.1688185E+02  0.8350831E+01  0.6281023E+02
Ar 1072  0.2641281E+02  0.2176168E+02  0.9039254E+01  0.1507929E+03
Ar 1073  0.2384247E+02  0.1254209E+02  0.1144071E+02  0.1292956E+03
Ar 1074  0.2831246E+02  0.1974986E+02  0.1096823E+02  0.4687142E+03
Ar 1075  0.2614807E+02  0.1590272E+02  0.1137214E+02  0.8287666E+03
Ar 1076  0.2653395E+02  0.1825363E+02  0.1349733E+02  0.3172344E+03
Ar 1077  0.2478149E+02  0.1455972E+02  0.1411461E+02  0.3739302E+03
Ar 1078  0.2824477E+02  0.1705677E+02  0.1637002E+02  0.1686725E+03
Ar 1079  0.3413871E+02  0.1446980E+02  0.1567531E+02  0.1418085E+03
Ar 1080  0.2925205E+02  0.1387869E+02  0.1785975E+02  0.2782784E+03
Ar 1081  0.3244161E+02  0.1464613E+02  0.1906119E+02  0.7720330E+03
Ar 1082  0.2861562E+02  0.1733133E+02  0.2228717E+02  0.3473750E+03
Ar 1083  0.2840490E+02  0.1622882E+02  0.2642662E+02  0.1784863E+03
Ar 1084  0.2591853E+02  0.1998354E+02  0.2301501E+02  0.1558984E+03
Ar 1085  0.2637297E+02  0.1507535E+02  0.2399854E+02  0.3358977E+03
Ar 1086  0.2749487E+02  0.1947405E+02  0.3000422E+02  0.1429490E+03
Ar 1087  0.2650539E+02  0.1559112E+02  0.2921469E+02  0.2869749E+03
Ar 1088  0.2396638E+02  0.2039133E+02  0.2946271E+02  0.1851387E+03
Ar 1089  0.2802746E+02  0.1479204E+02  0.3195212E+02  0.6651385E+03
Ar 1090  0.3006346E+02  0.2099486E+02  0.2812466E+02  0.1092847E+03
Ar 1091  0.2972730E+02  0.1670529E+02  0.3406717E+02  0.8221986E+02
Ar 1092  0.2408387E+02  0.1928880E+02  0.3558386E+02  0.3982317E+03
Ar 1093  0.2684400E+02  0.2168804E+02  0.3775278E+02  0.4882253E+03
Ar 1094  0.3159178E+02  0.2568619E+02  0.3682008E+02  0.3010163E+02
Ar 1095  0.3091742E+02  0.2225595E+02  0.3963439E+01  0.1306447E+03
Ar 1096  0.3119737E+02  0.2223296E+02  0.5222416E+00  0.3057740E+03
Ar 1097  0.2656166E+02  0.1988875E+02  0.5589838E+01  0.7102525E+03
Ar 1098  0.2805180E+02  0.2415740E+02  0.3985377E+01  0.1943525E+03
Ar 1099  0.2876628E+02  0.2266126E+02  0.6787736E+01  0.9167716E+03
Ar 1100  0.2593919E+02  0.2462897E+02  0.6458275E+01  0.1633627E+03
Ar 1101  0.2496349E+02  0.2076411E+02  0.1226598E+02  0.6554598E+01
Ar 1102  0.2777114E+02  0.2308300E+02  0.1198803E+02  0.3045830E+03
Ar 1103  0.2792610E+02  0.2122063E+02  0.1466834E+02  0.1228460E+04
Ar 1104  0.2605413E+02  0.2514926E+02  0.1424604E+02  0.2517002E+03
Ar 1105  0.2771020E+02  0.2080281E+02  0.1798946E+02  0.9364836E+03
Ar 1106  0.2665407E+02  0.2386695E+02  0.1731389E+02  0.6500584E+03
Ar 1107  0.3073177E+02  0.1814775E+02  0.1913755E+02  0.1137720E+04
Ar 1108  0.2699481E+02  0.2352929E+02  0.2082423E+02  0.1230872E+03
Ar 1109  0.2821644E+02  0.2371638E+02  0.2402180E+02  0.2774759E+02
Ar 1110  0.2889459E+02  0.2061893E+02  0.2140317E+02  0.4074669E+02
Ar 1111  0.2870785E+02  0.2012588E+02  0.2487785E+02  0.1001279E+03
Ar 1112  0.3152378E+02  0.2211203E+02  0.2523130E+02  0.9201292E+03
Ar 1113  0.2645207E+02  0.2117206E+02  0.2669379E+02  0.3291122E+03
Ar 1114  0.2839050E+02  0.2376365E+02  0.2759744E+02  0.1373337E+03
Ar 1115  0.2942687E+02  0.1992942E+02  0.3275747E+02  0.5559735E+03
Ar 1116  0.2935607E+02  0.2271141E+02  0.3435836E+02  0.9011590E+02
Ar 1117  0.2593840E+02  0.2149669E+02  0.3421165E+02  0.3168256E+03
Ar 1118  0.3256058E+02  0.2604196E+02  0.3294164E+02  0.3085477E+03
Ar 1119  0.3215367E+02  0.2154605E+02  0.3475643E+02  0.1109126E+04
Ar 1120  0.2981405E+02  0.2427082E+02  0.3095923E+02  0.4113985E+02
Ar 1121  0.2918609E+02  0.2860848E+02  0.4124531E+00  0.2514128E+02
Ar 1122  0.2201350E+02  0.3354748E+02  0.3309184E+02  0.9663661E+03
Ar 1123  0.3054446E+02  0.2632162E+02  0.2292686E+01  0.9559802E+02
Ar 1124  0.2595371E+02  0.3042214E+02  0.4172730E+00  0.9372181E+03
Ar 1125  0.2718890E+02  0.2842567E+02  0.3243545E+01  0.2077706E+03
Ar 1126  0.3184269E+02  0.3194829E+02  0.3359543E+01  0.4077168E+03
Ar 1127  0.2829199E+02  0.2767248E+02  0.6619636E+01  0.3224850E+03
Ar 1128  0.2826627E+02  0.3165826E+02  0.6055228E+01  0.1576328E+03
Ar 1129  0.2884252E+02  0.2534878E+02  0.9609496E+01  0.2574846E+02
Ar 1130  0.2986129E+02  0.3008008E+02  0.8580901E+01  0.5955614E+03
Ar 1131  0.2907317E+02  0.2758484E+02  0.1292271E+02  0.9888421E+02
Ar 1132  0.2839394E+02  0.3136793E+02  0.1338022E+02  0.6645436E+02
Ar 1133  0.2815403E+02  0.2802412E+02  0.1666482E+02  0.6637325E+03
Ar 1134  0.2924668E+02  0.3138336E+02  0.1661004E+02  0.4726056E+03
Ar 1135  0.2911857E+02  0.2569911E+02  0.1876441E+02  0.4082064E+03
Ar 1136  0.2465293E+02  0.2523292E+02  0.1972171E+02  0.1641718E+03
Ar 1137  0.2777831E+02  0.2658191E+02  0.2161496E+02  0.4901134E+03
Ar 1138  0.3113289E+02  0.2744512E+02  0.2107226E+02  0.1801943E+02
Ar 1139  0.3042558E+02  0.2397994E+02  0.2157549E+02  0.7816537E+02
Ar 1140  0.2530754E+02  0.2852462E+02  0.2105700E+02  0.8487545E+03
Ar 1141  0.3195945E+02  0.2555921E+02  0.2413876E+02  0.3806796E+03
Ar 1142  0.3020031E+02  0.2809940E+02  0.2507872E+02  0.2265403E+03
Ar 1143  0.3070053E+02  0.2893586E+02  0.3125917E+02  0.2187608E+03
Ar 1144  0.2960654E+02  0.2674163E+02  0.2838878E+02  0.1979251E+03
Ar 1145  0.2673496E+02  0.2455725E+02  0.3310565E+02  0.8880858E+03
Ar 1146  0.2584432E+02  0.2644409E+02  0.2779959E+02  0.4633732E+03
Ar 1147  0.2932054E+02  0.2689691E+02  0.3415502E+02  0.2559684E+03
Ar 1148  0.2644919E+02  0.2784179E+02  0.3531062E+02  0.2906988E+03
Ar 1149  0.2414733E+02  0.3601987E+02  0.3360402E+02  0.3781396E+03
Ar 1150  0.2857370E+02  0.3442325E+02  0.3660383E+02  0.3407881E+03
Ar 1151  0.2851178E+02  0.3257290E+02  0.2349827E+01  0.2110629E+03
Ar 1152  0.2821455E+02  0.3632898E+02  0.1845354E+01  0.4656400E+03
Ar 1153  0.2697981E+02  0.3495812E+02  0.4702421E+01  0.1439955E+03
Ar 1154  0.3003434E+02  0.3524134E+02  0.6507996E+01  0.1803764E+03
Ar 1155  0.2683774E+02  0.3486704E+02  0.7913156E+01  0.3321326E+03
Ar 1156  0.2836079E+02  0.3552384E+02  0.1276554E+02  0.2961988E+03
Ar 1157  0.3138781E+02  0.3360838E+02  0.1413055E+02  0.1652232E+03
Ar 1158  0.3377412E+02  0.3483790E+02  0.1224942E+02  0.2788109E+03
Ar 1159  0.3178608E+02  0.3311283E+02  0.1816143E+02  0.4619867E+02
Ar 1160  0.2883390E+02  0.3697725E+02  0.1581926E+02  0.1000140E+03
Ar 1161  0.2875880E+02  0.3362372E+02  0.1969593E+02  0.3720844E+03
Ar 1162  0.3233953E+02  0.3688268E+02  0.1826192E+02  0.7591519E+03
Ar 1163  0.2828156E+02  0.2990550E+02  0.1954958E+02  0.5106884E+03
Ar 1164  0.2583701E+02  0.3652620E+02  0.1769510E+02  0.2618396E+03
Ar 1165  0.2498639E+02  0.3315837E+02  0.1875348E+02  0.5014499E+03
Ar 1166  0.2955792E+02  0.3321194E+02  0.2299463E+02  0.5329171E+03
Ar 1167  0.2907030E+02  0.3122096E+02  0.2608060E+02  0.4046895E+03
Ar 1168  0.2590081E+02  0.3435281E+02  0.2507824E+02  0.5448150E+03
Ar 1169  0.2808184E+02  0.2992190E+02  0.2294545E+02  0.3850035E+03
Ar 1170  0.3230198E+02  0.3380363E+02  0.2862875E+02  0.5734048E+03
Ar 1171  0.3264303E+02  0.3580967E+02  0.3194160E+02  0.1755198E+03
Ar 1172  0.2797906E+02  0.3103948E+02  0.3189385E+02  0.3533973E+03
Ar 1173  0.2443996E+02  0.3155052E+02  0.3108748E+02  0.1455517E+04
Ar 1174  0.3083485E+02  0.3267123E+02  0.3379338E+02  0.1501031E+03
Ar 1175  0.3318815E+02  0.3211112E+02  0.3137016E+02  0.1692081E+03
Ar 1176  0.2469613E+02  0.3126134E+02  0.3521619E+02  0.5705076E+03
Ar 1177  0.3239939E+02  0.3525687E+02  0.3522045E+02  0.1633529E+04
Ar 1178  0.4612230E+00  0.7359134E+00  0.3647766E+02  0.1664815E+03
Ar 1179  0.3593184E+02  0.3553271E+02  0.1101491E+01  0.3455076E+03
Ar 1180  0.3592595E+02  0.1272763E+01  0.2294987E+01  0.1470818E+03
Ar 1181  0.3336680E+02  0.3689712E+02  0.7129956E+01  0.2132582E+03
Ar 1182  0.3541461E+02  0.1647585E+01  0.6756143E+01  0.8929419E+02
Ar 1183  0.3539766E+02  0.2912308E+01  0.1056651E+02  0.6318224E+02
Ar 1184  0.3179407E+02  0.2477212E+01  0.7735536E+01  0.5384121E+03
Ar 1185  0.3255317E+02  0.3732729E+02  0.1028122E+02  0.1102826E+03
Ar 1186  0.3409421E+02  0.4945245E+01  0.1386737E+02  0.5334667E+03
Ar 1187  0.3764046E+02  0.3438530E+02  0.1692090E+02  0.4313107E+03
Ar 1188  0.3061342E+02  0.2121495E+01  0.1262729E+02  0.1983250E+03
Ar 1189  0.3527090E+02  0.5063392E+00  0.1679560E+02  0.6321005E+03
Ar 1190  0.3421214E+02  0.1421911E+01  0.1334924E+02  0.2082941E+03
Ar 1191  0.1472437E+01  0.3727414E+02  0.1902843E+02  0.2973788E+03
Ar 1192  0.3299342E+02  0.2650180E+01  0.1623879E+02  0.1060369E+03
Ar 1193  0.3481454E+02  0.3719156E+02  0.2068184E+02  0.2400550E+03
Ar 1194  0.3476525E+02  0.2408788E+01  0.2286963E+02  0.2683432E+03
Ar 1195  0.3498307E+02  0.3608509E+02  0.2356809E+02  0.1643447E+03
Ar 1196  0.2770240E+02  0.2067927E+01  0.2257610E+02  0.1191623E+03
Ar 1197  0.3140364E+02  0.1324624E+01  0.2579276E+02  0.2305399E+03
Ar 1198  0.3134433E+02  0.5963267E+00  0.2230718E+02  0.3335167E+03
Ar 1199  0.3519033E+02  0.1465144E+01  0.2582193E+02  0.1000518E+03
Ar 1200  0.3247297E+02  0.3450875E+01  0.2872434E+02  0.1952146E+03
Ar 1201  0.2916369E+02  0.3593426E+02  0.3381237E+02  0.1225328E+02
Ar 1202  0.3647184E+02  0.3973710E+01  0.3176373E+02  0.1976756E+03
Ar 1203  0.3606215E+02  0.2698352E+01  0.3482976E+02  0.1506303E+03
Ar 1204  0.3445786E+02  0.3158370E+01  0.3772637E+02  0.2194780E+03
Ar 1205  0.3436442E+02  0.3844260E+01  0.4419844E+01  0.2056406E+03
Ar 1206  0.3623560E+02  0.8496945E+01  0.3573844E+02  0.1830229E+02
Ar 1207  0.3667940E+02  0.7289295E+01  0.6394527E+01  0.3562022E+03
Ar 1208  0.3422250E+02  0.7798354E+01  0.3790823E+01  0.7898228E+03
Ar 1209  0.3212526E+02  0.5921991E+01  0.6190838E+01  0.5704666E+03
Ar 1210  0.3381679E+02  0.9210279E+01  0.6790424E+01  0.2930625E+03
Ar 1211  0.3440588E+02  0.5313964E+01  0.8691524E+01  0.1604948E+03
Ar 1212  0.3004977E+02  0.8538766E+01  0.5350632E+01  0.3843678E+02
Ar 1213  0.3151909E+02  0.5364111E+01  0.1106272E+02  0.7159419E+03
Ar 1214  0.3076898E+02  0.8415873E+01  0.9414669E+01  0.3500853E+03
Ar 1215  0.3216898E+02  0.7993367E+01  0.1343970E+02  0.2830275E+03
Ar 1216  0.3437970E+02  0.8251559E+01  0.1649555E+02  0.3819105E+02
Ar 1217  0.3674551E+02  0.3987292E+01  0.1630717E+02  0.3549630E+03
Ar 1218  0.7559897E+00  0.6919223E+01  0.1723187E+02  0.1150063E+03
Ar 1219  0.3715201E+02  0.9793336E+01  0.1935721E+02  0.1175789E+03
Ar 1220  0.3074199E+02  0.8470299E+01  0.1712571E+02  0.2055917E+02
Ar 1221  0.3260394E+02  0.2490050E+01  0.1968468E+02  0.6500651E+02
Ar 1222  0.3688224E+02  0.6075685E+01  0.2054696E+02  0.7206990E+03
Ar 1223  0.3610938E+02  0.2689608E+01  0.1944085E+02  0.5742921E+02
Ar 1224  0.3083317E+02  0.8242753E+01  0.2248288E+02  0.5353986E+02
Ar 1225  0.3288833E+02  0.5716764E+01  0.2132858E+02  0.5845079E+03
Ar 1226  0.3309148E+02  0.6141685E+01  0.2514268E+02  0.4346840E+03
Ar 1227  0.3636047E+02  0.3740694E+01  0.2795236E+02  0.7472156E+03
Ar 1228  0.3369392E+02  0.9360919E+01  0.2893193E+02  0.2200462E+03
Ar 1229  0.3439617E+02  0.5967177E+01  0.3013932E+02  0.3674439E+03
Ar 1230  0.1255415E+01  0.7078038E+01  0.3042195E+02  0.2331125E+03
Ar 1231  0.3454856E+02  0.5611489E+01  0.3431827E+02  0.1897123E+03
Ar 1232  0.3592939E+02  0.8694350E+01  0.3180979E+02  0.8671886E+02
Ar 1233  0.3146559E+02  0.1384678E+02  0.3424834E+02  0.1289937E+04
Ar 1234  0.3532449E+02  0.1405175E+02  0.5111707E+00  0.3899250E+03
Ar 1235  0.3493790E+02  0.6847215E+01  0.7596685E+00  0.1121769E+03
Ar 1236  0.3182932E+02  0.1565149E+02  0.3748728E+02  0.4073153E+03
Ar 1237  0.3404966E+02  0.1304744E+02  0.4058661E+01  0.1769803E+03
Ar 1238  0.3328804E+02  0.1640831E+02  0.3638666E+01  0.8556151E+03
Ar 1239  0.3201451E+02  0.1182954E+02  0.7793589E+01  0.2967639E+03
Ar 1240  0.3008854E+02  0.1439392E+02  0.9139011E+01  0.1021449E+03
Ar 1241  0.2797031E+02  0.1239374E+02  0.1043214E+02  0.2758515E+03
Ar 1242  0.3367870E+02  0.1488701E+02  0.9860509E+01  0.2704235E+03
Ar 1243  0.3310334E+02  0.1041110E+02  0.1133071E+02  0.1123889E+03
Ar 1244  0.3173336E+02  0.1349467E+02  0.1276104E+02  0.8100132E+02
Ar 1245  0.2921382E+02  0.1054872E+02  0.1341796E+02  0.8540673E+02
Ar 1246  0.3373414E+02  0.1118562E+02  0.1455958E+02  0.5532052E+03
Ar 1247  0.3680528E+02  0.1138601E+02  0.1348183E+02  0.8881727E+02
Ar 1248  0.3397893E+02  0.1178090E+02  0.1803773E+02  0.2175558E+03
Ar 1249  0.3335707E+02  0.9014240E+01  0.1982870E+02  0.2422030E+03
Ar 1250  0.3022539E+02  0.1071997E+02  0.2011609E+02  0.3167013E+03
Ar 1251  0.3446646E+02  0.8319086E+01  0.2285541E+02  0.4108518E+03
Ar 1252  0.2923132E+02  0.9140281E+01  0.2561109E+02  0.1543337E+03
Ar 1253  0.3160840E+02  0.1160575E+02  0.2709432E+02  0.6052852E+03
Ar 1254  0.3611144E+02  0.1297089E+02  0.2409229E+02  0.2015401E+03
Ar 1255  0.3433671E+02  0.9937904E+01  0.2584358E+02  0.7428472E+03
Ar 1256  0.3461760E+02  0.1355291E+02  0.2775469E+02  0.5042060E+03
Ar 1257  0.3300854E+02  0.1139986E+02  0.3187098E+02  0.1233005E+04
Ar 1258  0.3651543E+02  0.1144145E+02  0.3016772E+02  0.7382118E+03
Ar 1259  0.3405286E+02  0.1158828E+02  0.3536079E+02  0.1236099E+03
Ar 1260  0.3508390E+02  0.1408507E+02  0.3144726E+02  0.3737621E+03
Ar 1261  0.3082488E+02  0.1899812E+02  0.3627240E+02  0.1699426E+03
Ar 1262  0.3742900E+02  0.2170436E+02  0.3627045E+02  0.1556040E+03
Ar 1263  0.3438475E+02  0.1728074E+02  0.5311076E+00  0.8283338E+03
Ar 1264  0.3121773E+02  0.1893393E+02  0.2069048E+01  0.2172380E+03
Ar 1265  0.3120937E+02  0.1536327E+02  0.5833437E+01  0.6841749E+03
Ar 1266  0.3349837E+02  0.1983225E+02  0.4285364E+01  0.2308803E+03
Ar 1267  0.3262037E+02  0.1837545E+02  0.6831495E+01  0.1330295E+03
Ar 1268  0.2963851E+02  0.1964909E+02  0.7799979E+01  0.1030936E+03
Ar 1269  0.3207161E+02  0.1847407E+02  0.1029828E+02  0.1998787E+03
Ar 1270  0.3724530E+02  0.1718628E+02  0.1062362E+02  0.4075779E+03
Ar 1271  0.3344596E+02  0.1710792E+02  0.1286270E+02  0.9599278E+02
Ar 1272  0.3006124E+02  0.1629961E+02  0.1195094E+02  0.3205441E+03
Ar 1273  0.3126033E+02  0.1565678E+02  0.1500365E+02  0.1965198E+03
Ar 1274  0.3454747E+02  0.1964193E+02  0.1478346E+02  0.4269598E+03
Ar 1275  0.3587204E+02  0.1537255E+02  0.1990340E+02  0.5221988E+03
Ar 1276  0.3395419E+02  0.1727822E+02  0.1748212E+02  0.2845907E+03
Ar 1277  0.3042410E+02  0.1436648E+02  0.2204263E+02  0.4395997E+03
Ar 1278  0.3444777E+02  0.1853986E+02  0.2067601E+02  0.3148154E+03
Ar 1279  0.3209449E+02  0.1197464E+02  0.2362161E+02  0.8782886E+02
Ar 1280  0.3434728E+02  0.1554670E+02  0.2297695E+02  0.7342661E+02
Ar 1281  0.3157359E+02  0.1754996E+02  0.2774675E+02  0.2920749E+03
Ar 1282  0.3456579E+02  0.1686663E+02  0.2637311E+02  0.7008729E+02
Ar 1283  0.3317606E+02  0.1661948E+02  0.3308626E+02  0.1287395E+04
Ar 1284  0.3320401E+02  0.2046198E+02  0.2788484E+02  0.1372231E+03
Ar 1285  0.3412215E+02  0.1944223E+02  0.3180479E+02  0.2201002E+02
Ar 1286  0.3418156E+02  0.1656648E+02  0.2951696E+02  0.6249971E+03
Ar 1287  0.3449197E+02  0.1955430E+02  0.3577140E+02  0.2715462E+03
Ar 1288  0.3133106E+02  0.1809319E+02  0.3092386E+02  0.1060455E+04
Ar 1289  0.2775732E+02  0.1913924E+02  0.3581695E+02  0.5795651E+03
Ar 1290  0.3457911E+02  0.2359231E+02  0.3613422E+02  0.1202498E+03
Ar 1291  0.3476230E+02  0.2128503E+02  0.1138516E+01  0.5684663E+03
Ar 1292  0.3316005E+02  0.2407646E+02  0.2535918E+01  0.2293950E+03
Ar 1293  0.3087530E+02  0.2538266E+02  0.5842894E+01  0.4982110E+03
Ar 1294  0.3470425E+02  0.2579528E+02  0.6070933E+01  0.1135995E+04
Ar 1295  0.3399068E+02  0.2176291E+02  0.8189687E+01  0.3535036E+03
Ar 1296  0.3269681E+02  0.2496643E+02  0.8793182E+01  0.3421084E+03
Ar 1297  0.3114969E+02  0.2181190E+02  0.9810415E+01  0.3320031E+03
Ar 1298  0.3463136E+02  0.2216663E+02  0.1155923E+02  0.1110315E+03
Ar 1299  0.3141317E+02  0.2034605E+02  0.1318751E+02  0.9406268E+03
Ar 1300  0.3156126E+02  0.2390972E+02  0.1231724E+02  0.4460690E+02
Ar 1301  0.3173262E+02  0.1927091E+02  0.1615811E+02  0.2246478E+03
Ar 1302  0.3308636E+02  0.2287511E+02  0.1515659E+02  0.7570560E+02
Ar 1303  0.3434665E+02  0.2242094E+02  0.1855454E+02  0.7879965E+02
Ar 1304  0.3071718E+02  0.2225463E+02  0.1785861E+02  0.4012105E+03
Ar 1305  0.3225706E+02  0.2073105E+02  0.2164902E+02  0.4836119E+02
Ar 1306  0.3421580E+02  0.2370887E+02  0.2211354E+02  0.6753710E+02
Ar 1307  0.3413501E+01  0.1843487E+02  0.2772097E+02  0.7088325E+03
Ar 1308  0.3187965E+02  0.2422989E+02  0.2817632E+02  0.1449455E+03
Ar 1309  0.3176031E+02  0.1785435E+02  0.2306070E+02  0.5525198E+02
Ar 1310  0.3494193E+02  0.2404133E+02  0.2649648E+02  0.1326999E+03
Ar 1311  0.3611188E+02  0.2192138E+02  0.2931503E+02  0.1054080E+03
Ar 1312  0.3439828E+02  0.1996652E+02  0.2440905E+02  0.5396263E+03
Ar 1313  0.3235670E+02  0.2189196E+02  0.3091414E+02  0.2988558E+03
Ar 1314  0.3655296E+02  0.2643904E+02  0.3430527E+02  0.2794556E+03
Ar 1315  0.3540762E+02  0.2278526E+02  0.3285023E+02  0.1318582E+02
Ar 1316  0.3219563E+02  0.2917516E+02  0.3475259E+02  0.2445038E+03
Ar 1317  0.3284459E+02  0.2956463E+02  0.6724036E+00  0.3743388E+03
Ar 1318  0.3609843E+02  0.3049316E+02  0.5471686E+00  0.3205490E+02
Ar 1319  0.3537505E+02  0.2798314E+02  0.3168676E+01  0.3019080E+03
Ar 1320  0.3384683E+02  0.3304612E+02  0.1245167E+01  0.2424157E+03
Ar 1321  0.3244891E+02  0.2858525E+02  0.4669012E+01  0.2899345E+03
Ar 1322  0.3591639E+02  0.2964708E+02  0.5688062E+01  0.6329582E+03
Ar 1323  0.3422834E+02  0.2826166E+02  0.8954880E+01  0.2494241E+03
Ar 1324  0.3276326E+02  0.3101224E+02  0.6807595E+01  0.1556407E+03
Ar 1325  0.3139711E+02  0.2732840E+02  0.1062450E+02  0.3286824E+03
Ar 1326  0.3484274E+02  0.3167419E+02  0.1028196E+02  0.8405141E+03
Ar 1327  0.3174461E+02  0.2630665E+02  0.1523086E+02  0.1668221E+03
Ar 1328  0.3203689E+02  0.2963687E+02  0.1448235E+02  0.5778159E+02
Ar 1329  0.2915804E+02  0.2422499E+02  0.1485381E+02  0.3101857E+03
Ar 1330  0.3447194E+02  0.3206157E+02  0.1597988E+02  0.1004068E+04
Ar 1331  0.3494533E+02  0.2781411E+02  0.2068621E+02  0.2396132E+02
Ar 1332  0.3169396E+02  0.2919554E+02  0.1787752E+02  0.9227328E+02
Ar 1333  0.8526543E-01  0.2070877E+02  0.2685536E+02  0.5816270E+03
Ar 1334  0.3717493E+02  0.3094089E+02  0.2088420E+02  0.7112440E+03
Ar 1335  0.3574292E+02  0.2658057E+02  0.2372720E+02  0.4677372E+03
Ar 1336  0.3333483E+02  0.2896969E+02  0.2365136E+02  0.4694012E+03
Ar 1337  0.3382301E+02  0.2778402E+02  0.2729520E+02  0.2582730E+03
Ar 1338  0.3698810E+02  0.3012149E+02  0.2520335E+02  0.7944953E+03
Ar 1339  0.3429276E+02  0.2860588E+02  0.3099210E+02  0.4438990E+02
Ar 1340  0.3151113E+02  0.3036100E+02  0.2841427E+02  0.2361501E+03
Ar 1341  0.2727513E+02  0.2737732E+02  0.3137279E+02  0.4775540E+01
Ar 1342  0.3524530E+02  0.2916809E+02  0.3552566E+02  0.1505493E+03
Ar 1343  0.3475991E+02  0.2655035E+02  0.3291600E-01  0.4012525E+03
Ar 1344  0.3366343E+02  0.3225911E+02  0.3568828E+02  0.2928842E+03
Ar 1345  0.2856726E+02  0.3084093E+02  0.3544696E+02  0.6185546E+03
Ar 1346  0.1569965E+01  0.3549317E+02  0.3575493E+01  0.3713731E+03
Ar 1347  0.3493186E+02  0.3249346E+02  0.4646290E+01  0.5410485E+03
Ar 1348  0.3305877E+02  0.4414926E+00  0.4154331E+01  0.4756284E+03
Ar 1349  0.3258761E+02  0.3505015E+02  0.4350428E+01  0.1241624E+04
Ar 1350  0.3598046E+02  0.3602257E+02  0.4557899E+01  0.5461188E+03
Ar 1351  0.3595374E+02  0.3396389E+02  0.7724475E+01  0.2080952E+03
Ar 1352  0.3267431E+02  0.3422814E+02  0.8710866E+01  0.4743970E+02
Ar 1353  0.2995422E+02  0.3385014E+02  0.1040236E+02  0.9872966E+02
Ar 1354  0.3598520E+02  0.3701465E+02  0.9556845E+01  0.2268946E+03
Ar 1355  0.3170662E+02  0.3060591E+02  0.1148288E+02  0.1501471E+03
Ar 1356  0.3387126E+02  0.3533015E+02  0.1573932E+02  0.1424227E+03
Ar 1357  0.3478877E+02  0.3423151E+02  0.1922558E+02  0.5444942E+03
Ar 1358  0.4989235E-01  0.3421187E+02  0.2076965E+02  0.8703716E+03
Ar 1359  0.3461873E+02  0.3071528E+02  0.1882858E+02  0.2801369E+02
Ar 1360  0.3207171E+02  0.3494441E+02  0.2151917E+02  0.4157420E+03
Ar 1361  0.3098272E+02  0.3116474E+02  0.2084318E+02  0.5113946E+03
Ar 1362  0.1289984E+01  0.3502794E+02  0.2358797E+02  0.4076344E+03
Ar 1363  0.3646883E+02  0.3319774E+02  0.2407642E+02  0.1525192E+03
Ar 1364  0.3403119E+02  0.3187082E+02  0.2216391E+02  0.4113395E+03
Ar 1365  0.3286088E+02  0.3174505E+02  0.2576515E+02  0.9585758E+02
Ar 1366  0.3204737E+02  0.3555256E+02  0.2519995E+02  0.2874988E+03
Ar 1367  0.3598619E+02  0.3170259E+02  0.2807219E+02  0.4994976E+03
Ar 1368  0.3000836E+02  0.3414310E+02  0.3090170E+02  0.5333058E+03
Ar 1369  0.3090055E+02  0.3247575E+02  0.3774195E+02  0.1435634E+03
Ar 1370  0.3637531E+02  0.5140229E+00  0.2918038E+02  0.3367515E+03
Ar 1371  0.3645676E+02  0.3075024E+02  0.3225337E+02  0.8731268E+03
Ar 1372  0.3172488E+02  0.3594022E+02  0.8718102E+00  0.2512434E+03
