        1372
Lattice="  0.3778015E+02  0.0000000E+00  0.0000000E+00  0.0000000E+00  0.3778015E+02  0.0000000E+00  0.0000000E+00  0.0000000E+00  0.3778015E+02" Properties=species:S:1:id:I:1:pos:R:3:tempK:R:1
Ar    1  0.2679241E+00  0.3763022E+02  0.1766064E+00  0.5724466E+03
Ar    2  0.3250676E+01  0.3325992E+01  0.3776729E+02  0.6912800E+01
Ar    3  0.3404317E+01  0.7832393E+00  0.1873269E+01  0.2313279E+03
Ar    4  0.6265396E+00  0.2356610E+01  0.2612094E+01  0.1564115E+03
Ar    5  0.5896591E+00  0.3769880E+02  0.5499679E+01  0.1598257E+03
Ar    6  0.3060607E+01  0.2376093E+01  0.5147001E+01  0.1472245E+03
Ar    7  0.2965505E+01  0.3764798E+02  0.7834386E+01  0.1422121E+03
Ar    8  0.4712629E+00  0.3151849E+01  0.7587881E+01  0.6929587E+02
Ar    9  0.7006918E+00  0.2995227E+00  0.1072262E+02  0.4544055E+03
Ar   10  0.2859725E+01  0.3110185E+01  0.1045324E+02  0.3178287E+02
Ar   11  0.2794506E+01  0.5106735E+00  0.1395862E+02  0.2321999E+03
Ar   12  0.4388949E+00  0.2893854E+01  0.1306530E+02  0.6437789E+03
Ar   13  0.3751882E+02  0.6483696E+00  0.1630328E+02  0.1892408E+03
Ar   14  0.2750389E+01  0.2833801E+01  0.1602929E+02  0.3793455E+03
Ar   15  0.2564763E+01  0.6245653E+00  0.1925269E+02  0.1368962E+03
Ar   16  0.3751798E+00  0.3390541E+01  0.1876940E+02  0.1139087E+03
Ar   17  0.3766583E+02  0.1642659E+00  0.2151394E+02  0.6991267E+03
Ar   18  0.3144202E+01  0.2878628E+01  0.2141133E+02  0.1492759E+03
Ar   19  0.2224609E+01  0.3669468E+00  0.2427024E+02  0.8856645E+02
Ar   20  0.2787977E+00  0.3223350E+01  0.2409240E+02  0.2104430E+03
Ar   21  0.3196457E+00  0.2740002E+00  0.2678472E+02  0.8295507E+02
Ar   22  0.3027193E+01  0.2479280E+01  0.2697317E+02  0.5128636E+02
Ar   23  0.3056011E+01  0.3743952E+02  0.2940181E+02  0.9944373E+02
Ar   24  0.6633086E+00  0.2858962E+01  0.2970864E+02  0.6040805E+02
Ar   25  0.5001323E+00  0.3766481E+02  0.3237945E+02  0.4013340E+03
Ar   26  0.2837393E+01  0.2384981E+01  0.3302660E+02  0.2784732E+02
Ar   27  0.2348623E+01  0.3698568E+00  0.3568180E+02  0.8303167E+03
Ar   28  0.3760314E+02  0.3064635E+01  0.3502086E+02  0.9046945E+02
Ar   29  0.3612217E+00  0.5688061E+01  0.3763268E+02  0.8665517E+02
Ar   30  0.2651800E+01  0.7964765E+01  0.5488629E+00  0.2038313E+03
Ar   31  0.3376472E+01  0.5131721E+01  0.2830276E+01  0.6153377E+03
Ar   32  0.1573731E+00  0.7754863E+01  0.2824590E+01  0.2871397E+03
Ar   33  0.7132031E+00  0.4981516E+01  0.4912308E+01  0.1418758E+03
Ar   34  0.2969764E+01  0.7770346E+01  0.5426379E+01  0.5013414E+02
Ar   35  0.3121169E+01  0.5857543E+01  0.8205245E+01  0.1827829E+03
Ar   36  0.3749426E+02  0.7910170E+01  0.7915003E+01  0.2678310E+03
Ar   37  0.4749953E+00  0.5461565E+01  0.1061547E+02  0.1569549E+03
Ar   38  0.2499174E+01  0.8639667E+01  0.1104397E+02  0.1005163E+03
Ar   39  0.2674696E+01  0.5395161E+01  0.1365185E+02  0.3609858E+03
Ar   40  0.3774945E+02  0.7924854E+01  0.1322127E+02  0.2633968E+02
Ar   41  0.1722008E+00  0.5400425E+01  0.1617801E+02  0.2126590E+03
Ar   42  0.2919291E+01  0.8139246E+01  0.1584185E+02  0.5406008E+03
Ar   43  0.3054447E+01  0.5444908E+01  0.1931862E+02  0.3236663E+02
Ar   44  0.3745499E+02  0.7762668E+01  0.1856303E+02  0.1458218E+03
Ar   45  0.3745098E+02  0.6081024E+01  0.2201874E+02  0.2923175E+03
Ar   46  0.2295100E+01  0.8210473E+01  0.2117102E+02  0.1836388E+02
Ar   47  0.2905780E+01  0.6298391E+01  0.2439778E+02  0.3953307E+03
Ar   48  0.3752136E+02  0.8244413E+01  0.2460442E+02  0.2255816E+03
Ar   49  0.3771177E+02  0.5945526E+01  0.2713572E+02  0.5275733E+03
Ar   50  0.2682373E+01  0.8686362E+01  0.2711488E+02  0.3564890E+03
Ar   51  0.2760269E+01  0.6396852E+01  0.2948240E+02  0.3447242E+03
Ar   52  0.3751044E+02  0.8975802E+01  0.2953524E+02  0.1880523E+03
Ar   53  0.3742863E+02  0.5726657E+01  0.3183031E+02  0.1477043E+04
Ar   54  0.3415699E+01  0.8553056E+01  0.3267343E+02  0.2227505E+03
Ar   55  0.2480439E+01  0.5295627E+01  0.3506155E+02  0.1484141E+03
Ar   56  0.7998736E-01  0.8124430E+01  0.3521231E+02  0.2880155E+03
Ar   57  0.3262382E+00  0.1064819E+02  0.3771796E+02  0.3656317E+03
Ar   58  0.2637272E+01  0.1371866E+02  0.1772551E+00  0.1759746E+03
Ar   59  0.2796587E+01  0.1118442E+02  0.2662212E+01  0.3330575E+03
Ar   60  0.4600995E-01  0.1338011E+02  0.2354167E+01  0.1175993E+03
Ar   61  0.4153116E+00  0.1036284E+02  0.5342527E+01  0.3545342E+03
Ar   62  0.2909881E+01  0.1330832E+02  0.5433319E+01  0.3552491E+03
Ar   63  0.2791625E+01  0.1079967E+02  0.7798984E+01  0.8896942E+03
Ar   64  0.3735088E+02  0.1291399E+02  0.7524186E+01  0.4708555E+03
Ar   65  0.3736850E+02  0.1048744E+02  0.1038022E+02  0.3053726E+03
Ar   66  0.2211995E+01  0.1315974E+02  0.1053863E+02  0.5099746E+03
Ar   67  0.2832314E+01  0.1072145E+02  0.1349169E+02  0.3143051E+03
Ar   68  0.3777040E+02  0.1328161E+02  0.1353547E+02  0.6009586E+03
Ar   69  0.3771129E+02  0.1079260E+02  0.1602168E+02  0.6287027E+03
Ar   70  0.2458469E+01  0.1345825E+02  0.1590913E+02  0.8210248E+03
Ar   71  0.2304197E+01  0.1068613E+02  0.1847321E+02  0.3381374E+03
Ar   72  0.2128267E-01  0.1340944E+02  0.1905146E+02  0.6369220E+02
Ar   73  0.3764468E+02  0.1048562E+02  0.2118127E+02  0.5706558E+03
Ar   74  0.2851968E+01  0.1319551E+02  0.2165623E+02  0.1909641E+03
Ar   75  0.2236907E+01  0.1054857E+02  0.2399160E+02  0.1576960E+03
Ar   76  0.3758070E+02  0.1363287E+02  0.2426755E+02  0.7398602E+03
Ar   77  0.3741109E+02  0.1096899E+02  0.2667183E+02  0.2222140E+03
Ar   78  0.3138999E+01  0.1301296E+02  0.2639804E+02  0.4918808E+02
Ar   79  0.2281471E+01  0.1163891E+02  0.2946296E+02  0.1110778E+03
Ar   80  0.3706824E+02  0.1335383E+02  0.3011214E+02  0.2434934E+03
Ar   81  0.3753331E+02  0.1070261E+02  0.3224366E+02  0.3539671E+02
Ar   82  0.2123997E+01  0.1355442E+02  0.3232737E+02  0.2252939E+03
Ar   83  0.3143788E+01  0.1117759E+02  0.3547570E+02  0.6321629E+02
Ar   84  0.3724334E+02  0.1271026E+02  0.3533303E+02  0.2293706E+02
Ar   85  0.3753339E+02  0.1572317E+02  0.3777075E+02  0.5173791E+03
Ar   86  0.2405480E+01  0.1848512E+02  0.5553268E+00  0.6798608E+03
Ar   87  0.2756173E+01  0.1575043E+02  0.2889081E+01  0.1562840E+03
Ar   88  0.3742329E+02  0.1818061E+02  0.2658210E+01  0.1881877E+03
Ar   89  0.3741059E+02  0.1580098E+02  0.5645700E+01  0.3298797E+03
Ar   90  0.1765768E+01  0.1858253E+02  0.5328633E+01  0.5253841E+02
Ar   91  0.2412461E+01  0.1615100E+02  0.8607497E+01  0.6336869E+03
Ar   92  0.3745039E+02  0.1841235E+02  0.8663579E+01  0.2314312E+03
Ar   93  0.3766731E+02  0.1607366E+02  0.1117646E+02  0.3809060E+03
Ar   94  0.2520220E+01  0.1846299E+02  0.1124942E+02  0.1986870E+03
Ar   95  0.2142895E+01  0.1577457E+02  0.1359028E+02  0.2578488E+03
Ar   96  0.3736337E+02  0.1849127E+02  0.1356561E+02  0.2952503E+03
Ar   97  0.3708242E+02  0.1612666E+02  0.1613271E+02  0.3191695E+03
Ar   98  0.2037194E+01  0.1936663E+02  0.1619782E+02  0.4491721E+03
Ar   99  0.2131216E+01  0.1679375E+02  0.1859397E+02  0.1915856E+03
Ar  100  0.3739730E+02  0.1866496E+02  0.1939794E+02  0.2418079E+03
Ar  101  0.3727416E+02  0.1579823E+02  0.2154548E+02  0.1277285E+03
Ar  102  0.2761537E+01  0.1907281E+02  0.2134852E+02  0.7298353E+03
Ar  103  0.2514226E+01  0.1652560E+02  0.2388644E+02  0.1241029E+03
Ar  104  0.3731529E+02  0.1853404E+02  0.2420785E+02  0.2561735E+03
Ar  105  0.1481362E+00  0.1621446E+02  0.2665870E+02  0.1387812E+03
Ar  106  0.2914983E+01  0.1917396E+02  0.2646213E+02  0.2767172E+03
Ar  107  0.2452483E+01  0.1563654E+02  0.2971029E+02  0.9336520E+02
Ar  108  0.7679266E+00  0.1861942E+02  0.2905630E+02  0.1051362E+03
Ar  109  0.3724637E+02  0.1600704E+02  0.3236240E+02  0.6995775E+03
Ar  110  0.2763474E+01  0.1880942E+02  0.3200756E+02  0.7157506E+03
Ar  111  0.2169462E+01  0.1610596E+02  0.3489059E+02  0.2936715E+03
Ar  112  0.3727377E+02  0.1925509E+02  0.3514940E+02  0.5543421E+02
Ar  113  0.3748374E+02  0.2149732E+02  0.5328051E+00  0.3321921E+03
Ar  114  0.2813275E+01  0.2419004E+02  0.1567672E+00  0.6365989E+02
Ar  115  0.2296545E+01  0.2168100E+02  0.2960945E+01  0.1737381E+03
Ar  116  0.2520750E+00  0.2489625E+02  0.3582480E+01  0.1322448E+03
Ar  117  0.3757104E+02  0.2181314E+02  0.5735041E+01  0.2885888E+03
Ar  118  0.2581399E+01  0.2414354E+02  0.6632503E+01  0.4359800E+03
Ar  119  0.2596583E+01  0.2104166E+02  0.7907330E+01  0.2929574E+02
Ar  120  0.3757430E+02  0.2446270E+02  0.8349398E+01  0.3118465E+03
Ar  121  0.3760960E+02  0.2132773E+02  0.1119341E+02  0.2054154E+03
Ar  122  0.2559569E+01  0.2420350E+02  0.1059610E+02  0.7444090E+02
Ar  123  0.3006228E+01  0.2163112E+02  0.1323670E+02  0.2737219E+03
Ar  124  0.5313594E+00  0.2469345E+02  0.1346514E+02  0.2569890E+02
Ar  125  0.3764262E+02  0.2230579E+02  0.1609832E+02  0.4484887E+02
Ar  126  0.2797649E+01  0.2455491E+02  0.1595157E+02  0.2343894E+03
Ar  127  0.3174463E+01  0.2159529E+02  0.1903315E+02  0.1560971E+03
Ar  128  0.3738954E+02  0.2449437E+02  0.1883374E+02  0.3691229E+03
Ar  129  0.1500020E+00  0.2113395E+02  0.2171769E+02  0.7728973E+02
Ar  130  0.2993678E+01  0.2442555E+02  0.2165932E+02  0.1475157E+03
Ar  131  0.3109108E+01  0.2153219E+02  0.2370007E+02  0.3803837E+03
Ar  132  0.3746288E+02  0.2380168E+02  0.2367062E+02  0.4998402E+03
Ar  133  0.3738462E+02  0.2141144E+02  0.2710707E+02  0.2975046E+03
Ar  134  0.3230041E+01  0.2398216E+02  0.2679145E+02  0.1874337E+03
Ar  135  0.2428186E+01  0.2152403E+02  0.2952252E+02  0.4460460E+03
Ar  136  0.3677795E+02  0.2386114E+02  0.2964703E+02  0.1165540E+04
Ar  137  0.4955539E-01  0.2197365E+02  0.3259533E+02  0.7900918E+02
Ar  138  0.2487706E+01  0.2389612E+02  0.3230860E+02  0.3885500E+03
Ar  139  0.2641774E+01  0.2178983E+02  0.3516088E+02  0.1571480E+03
Ar  140  0.3755403E+02  0.2365997E+02  0.3588593E+02  0.3670877E+03
Ar  141  0.3426972E+00  0.2650437E+02  0.2908622E+00  0.6860396E+03
Ar  142  0.2449918E+01  0.2965388E+02  0.3766364E+02  0.5407141E+02
Ar  143  0.3183716E+01  0.2692652E+02  0.3061666E+01  0.8499266E+02
Ar  144  0.3749171E+02  0.2947936E+02  0.3744362E+01  0.2166674E+03
Ar  145  0.3710756E+02  0.2699543E+02  0.6029799E+01  0.4607689E+02
Ar  146  0.3162342E+01  0.2973642E+02  0.5183005E+01  0.8862154E+02
Ar  147  0.2603256E+01  0.2725028E+02  0.7719297E+01  0.8421535E+03
Ar  148  0.2914912E+00  0.3006515E+02  0.8371111E+01  0.2636475E+03
Ar  149  0.5110185E+00  0.2703269E+02  0.1055967E+02  0.1959669E+03
Ar  150  0.3296113E+01  0.2911334E+02  0.1053047E+02  0.6124805E+02
Ar  151  0.2976409E+01  0.2677868E+02  0.1328714E+02  0.2060931E+03
Ar  152  0.3758849E+02  0.2935322E+02  0.1344747E+02  0.7917162E+02
Ar  153  0.3736085E+02  0.2744390E+02  0.1635053E+02  0.8400389E+03
Ar  154  0.2764672E+01  0.2946270E+02  0.1588892E+02  0.8765105E+02
Ar  155  0.2306360E+01  0.2677128E+02  0.1861974E+02  0.3185000E+03
Ar  156  0.3742338E+02  0.2973455E+02  0.1873774E+02  0.3561581E+03
Ar  157  0.2786945E+00  0.2707354E+02  0.2118958E+02  0.5368156E+03
Ar  158  0.2395100E+01  0.2953698E+02  0.2125031E+02  0.4748010E+03
Ar  159  0.2382033E+01  0.2665105E+02  0.2412857E+02  0.1754556E+03
Ar  160  0.3744307E+02  0.2984967E+02  0.2404468E+02  0.4468962E+03
Ar  161  0.1917360E+00  0.2709814E+02  0.2676364E+02  0.1413645E+03
Ar  162  0.2623967E+01  0.2938028E+02  0.2636972E+02  0.7479984E+02
Ar  163  0.3031315E+01  0.2616861E+02  0.2960909E+02  0.5664311E+03
Ar  164  0.6532781E+00  0.2863154E+02  0.2962523E+02  0.1333349E+03
Ar  165  0.3658528E+02  0.2685799E+02  0.3225843E+02  0.1337091E+03
Ar  166  0.2606145E+01  0.2899417E+02  0.3229692E+02  0.2639196E+03
Ar  167  0.2565262E+01  0.2612762E+02  0.3471504E+02  0.3396426E+03
Ar  168  0.2262586E+00  0.2894781E+02  0.3548355E+02  0.2095850E+03
Ar  169  0.3774646E+02  0.3267990E+02  0.5199173E+00  0.3647252E+02
Ar  170  0.2592320E+01  0.3471855E+02  0.4866066E+00  0.1726213E+03
Ar  171  0.2584818E+01  0.3237945E+02  0.2995043E+01  0.3137740E+03
Ar  172  0.3494551E+02  0.3550407E+02  0.6590329E+00  0.3576068E+03
Ar  173  0.3768070E+02  0.3278563E+02  0.5795012E+01  0.4704640E+02
Ar  174  0.2922832E+01  0.3504393E+02  0.4950323E+01  0.2513520E+03
Ar  175  0.2340748E+01  0.3300625E+02  0.8084629E+01  0.4790824E+03
Ar  176  0.3773771E+02  0.3530959E+02  0.8353735E+01  0.4720548E+02
Ar  177  0.3776132E+02  0.3227792E+02  0.1096701E+02  0.2684315E+03
Ar  178  0.2525840E+01  0.3481736E+02  0.1094222E+02  0.1975376E+03
Ar  179  0.2994690E+01  0.3233875E+02  0.1331631E+02  0.1460191E+03
Ar  180  0.3776672E+02  0.3511068E+02  0.1364882E+02  0.8349288E+02
Ar  181  0.3774522E+02  0.3199641E+02  0.1556352E+02  0.1983664E+03
Ar  182  0.2684798E+01  0.3528937E+02  0.1622345E+02  0.3322032E+03
Ar  183  0.2415630E+01  0.3279868E+02  0.1860951E+02  0.7983339E+02
Ar  184  0.3757052E+02  0.3553258E+02  0.1819230E+02  0.8771402E+02
Ar  185  0.3746395E+02  0.3277236E+02  0.2090666E+02  0.2730465E+03
Ar  186  0.3097087E+01  0.3518064E+02  0.2138530E+02  0.7059268E+03
Ar  187  0.2399645E+01  0.3272223E+02  0.2359047E+02  0.2074415E+03
Ar  188  0.3770874E+02  0.3546706E+02  0.2448709E+02  0.5697613E+03
Ar  189  0.8734887E-01  0.3199442E+02  0.2650035E+02  0.1557990E+03
Ar  190  0.2808377E+01  0.3459963E+02  0.2685536E+02  0.9191885E+02
Ar  191  0.2451233E+01  0.3184096E+02  0.2936698E+02  0.1067808E+03
Ar  192  0.5937848E+00  0.3522542E+02  0.2981630E+02  0.4782714E+03
Ar  193  0.1012106E+01  0.3199980E+02  0.3289851E+02  0.8905987E+02
Ar  194  0.3037585E+01  0.3506500E+02  0.3247571E+02  0.1016179E+03
Ar  195  0.2323994E+01  0.3241333E+02  0.3570472E+02  0.5668391E+02
Ar  196  0.6964594E-01  0.3518609E+02  0.3555929E+02  0.1120789E+03
Ar  197  0.5794470E+01  0.1437264E+00  0.3751086E+02  0.6721637E+02
Ar  198  0.7944714E+01  0.2898221E+01  0.3760893E+02  0.2668980E+03
Ar  199  0.8352905E+01  0.5707281E+00  0.2530878E+01  0.4097834E+03
Ar  200  0.6034314E+01  0.2998550E+01  0.2929278E+01  0.1873663E+03
Ar  201  0.5483605E+01  0.3767291E+02  0.4762587E+01  0.2448645E+03
Ar  202  0.8360384E+01  0.3758200E+01  0.5558804E+01  0.2448132E+03
Ar  203  0.8266997E+01  0.3752846E+02  0.7523019E+01  0.1687608E+03
Ar  204  0.5662287E+01  0.2285387E+01  0.8682508E+01  0.2924453E+03
Ar  205  0.5272279E+01  0.3692300E+02  0.1013305E+02  0.3357146E+03
Ar  206  0.8340889E+01  0.2896003E+01  0.1055902E+02  0.1528181E+03
Ar  207  0.8094477E+01  0.3766286E+02  0.1260677E+02  0.2972583E+03
Ar  208  0.5629968E+01  0.2331512E+01  0.1300246E+02  0.4971164E+03
Ar  209  0.4956041E+01  0.3789630E+00  0.1670813E+02  0.1560740E+03
Ar  210  0.8058926E+01  0.3082117E+01  0.1633621E+02  0.1035201E+04
Ar  211  0.7947138E+01  0.2340914E-01  0.1863315E+02  0.6286318E+02
Ar  212  0.5300623E+01  0.3000355E+01  0.1858179E+02  0.4714818E+03
Ar  213  0.5123886E+01  0.4603243E-01  0.2181355E+02  0.7852186E+03
Ar  214  0.8213220E+01  0.2613738E+01  0.2121340E+02  0.1360954E+03
Ar  215  0.7638722E+01  0.6882625E+00  0.2406783E+02  0.1380683E+01
Ar  216  0.5144423E+01  0.3360962E+01  0.2418526E+02  0.2853227E+03
Ar  217  0.5198701E+01  0.3725856E+02  0.2655904E+02  0.4423216E+03
Ar  218  0.7263989E+01  0.2744101E+01  0.2760506E+02  0.3204298E+03
Ar  219  0.7266833E+01  0.3753624E+02  0.2947845E+02  0.1339107E+03
Ar  220  0.4905571E+01  0.3038714E+01  0.3006140E+02  0.2776686E+03
Ar  221  0.5591272E+01  0.1743470E+00  0.3273532E+02  0.1486970E+03
Ar  222  0.8041143E+01  0.3267988E+01  0.3247802E+02  0.1904219E+03
Ar  223  0.8112488E+01  0.2295879E+00  0.3514640E+02  0.6660114E+03
Ar  224  0.5927524E+01  0.3277051E+01  0.3516395E+02  0.1879870E+03
Ar  225  0.5554051E+01  0.5997350E+01  0.3231051E+00  0.2617737E+03
Ar  226  0.7943709E+01  0.8976575E+01  0.2271871E+00  0.1639106E+03
Ar  227  0.8087230E+01  0.6429504E+01  0.2464326E+01  0.1353082E+03
Ar  228  0.5320225E+01  0.8320361E+01  0.3079964E+01  0.6976026E+03
Ar  229  0.5308791E+01  0.5060158E+01  0.5640870E+01  0.1067100E+03
Ar  230  0.7730991E+01  0.8346976E+01  0.5903493E+01  0.1311013E+03
Ar  231  0.8114821E+01  0.6122902E+01  0.8298141E+01  0.4207962E+03
Ar  232  0.5122507E+01  0.8619587E+01  0.8528885E+01  0.6187455E+03
Ar  233  0.5381639E+01  0.5617390E+01  0.1094899E+02  0.1531025E+03
Ar  234  0.7819918E+01  0.8710379E+01  0.1102595E+02  0.5934791E+03
Ar  235  0.8308014E+01  0.5466160E+01  0.1323460E+02  0.1222663E+03
Ar  236  0.5377321E+01  0.8347829E+01  0.1325030E+02  0.2196431E+03
Ar  237  0.5628758E+01  0.5841769E+01  0.1628921E+02  0.3423405E+03
Ar  238  0.8244090E+01  0.8202842E+01  0.1641694E+02  0.3796883E+02
Ar  239  0.8268482E+01  0.5593681E+01  0.1898902E+02  0.3239307E+03
Ar  240  0.5530346E+01  0.8222544E+01  0.1884911E+02  0.3027846E+03
Ar  241  0.5985769E+01  0.5271444E+01  0.2156504E+02  0.4609538E+02
Ar  242  0.7570545E+01  0.8300451E+01  0.2183906E+02  0.1048126E+03
Ar  243  0.8125445E+01  0.5343539E+01  0.2418823E+02  0.1034692E+03
Ar  244  0.5330306E+01  0.8618743E+01  0.2486174E+02  0.3046201E+03
Ar  245  0.5587905E+01  0.5903292E+01  0.2725126E+02  0.1302600E+03
Ar  246  0.8428699E+01  0.8257588E+01  0.2695370E+02  0.4370931E+03
Ar  247  0.8357374E+01  0.5757895E+01  0.2925378E+02  0.1312478E+03
Ar  248  0.4941865E+01  0.8809545E+01  0.2943775E+02  0.3304792E+03
Ar  249  0.5593823E+01  0.6048797E+01  0.3250205E+02  0.1018035E+03
Ar  250  0.7924893E+01  0.8724313E+01  0.3272883E+02  0.1918292E+03
Ar  251  0.8147241E+01  0.5989770E+01  0.3556788E+02  0.7782930E+02
Ar  252  0.5929701E+01  0.8511230E+01  0.3532806E+02  0.7974338E+02
Ar  253  0.5211707E+01  0.1092226E+02  0.1346133E+00  0.7060194E+03
Ar  254  0.8301847E+01  0.1353430E+02  0.2452645E+00  0.2515513E+03
Ar  255  0.8099169E+01  0.1075807E+02  0.2945614E+01  0.3264736E+03
Ar  256  0.5564018E+01  0.1344829E+02  0.3185970E+01  0.2909286E+03
Ar  257  0.5428780E+01  0.1068251E+02  0.5544092E+01  0.4916202E+03
Ar  258  0.8143755E+01  0.1348345E+02  0.5599097E+01  0.1579792E+03
Ar  259  0.7559767E+01  0.1115617E+02  0.8553859E+01  0.1077955E+03
Ar  260  0.5365986E+01  0.1400710E+02  0.8531155E+01  0.1184147E+03
Ar  261  0.5152643E+01  0.1142197E+02  0.1079562E+02  0.5685826E+03
Ar  262  0.8595502E+01  0.1381975E+02  0.1047358E+02  0.1772688E+03
Ar  263  0.8172899E+01  0.1088490E+02  0.1371776E+02  0.1221771E+03
Ar  264  0.5579305E+01  0.1357903E+02  0.1333153E+02  0.2496458E+03
Ar  265  0.5111973E+01  0.1117068E+02  0.1611008E+02  0.2496911E+03
Ar  266  0.7610216E+01  0.1357085E+02  0.1625209E+02  0.2205166E+03
Ar  267  0.8456008E+01  0.1064666E+02  0.1931637E+02  0.3806536E+03
Ar  268  0.4578623E+01  0.1335842E+02  0.1826934E+02  0.6217864E+02
Ar  269  0.5271327E+01  0.1057978E+02  0.2144451E+02  0.1776912E+03
Ar  270  0.8269434E+01  0.1327474E+02  0.2154713E+02  0.1484289E+03
Ar  271  0.8219749E+01  0.1109372E+02  0.2407351E+02  0.2454426E+03
Ar  272  0.5650405E+01  0.1357257E+02  0.2383745E+02  0.4257306E+02
Ar  273  0.6054760E+01  0.1118147E+02  0.2699938E+02  0.8377664E+03
Ar  274  0.8526273E+01  0.1381710E+02  0.2752443E+02  0.6282199E+02
Ar  275  0.7505391E+01  0.1129883E+02  0.2986071E+02  0.3973766E+03
Ar  276  0.5371648E+01  0.1400662E+02  0.2979672E+02  0.6928821E+03
Ar  277  0.5373645E+01  0.1173286E+02  0.3265207E+02  0.1579742E+03
Ar  278  0.8319961E+01  0.1402136E+02  0.3247317E+02  0.7857760E+02
Ar  279  0.8444508E+01  0.1115933E+02  0.3518669E+02  0.3463894E+03
Ar  280  0.5326832E+01  0.1366533E+02  0.3524634E+02  0.1586594E+03
Ar  281  0.5389351E+01  0.1581979E+02  0.3763707E+02  0.1804974E+03
Ar  282  0.8164447E+01  0.1862671E+02  0.4424345E+00  0.7146957E+03
Ar  283  0.7948623E+01  0.1616229E+02  0.3124279E+01  0.1673904E+03
Ar  284  0.5269528E+01  0.1852182E+02  0.2917214E+01  0.1775099E+03
Ar  285  0.5095280E+01  0.1607411E+02  0.5287100E+01  0.6401999E+02
Ar  286  0.8265597E+01  0.1875183E+02  0.5340148E+01  0.2702067E+03
Ar  287  0.8136542E+01  0.1614875E+02  0.7782596E+01  0.5089849E+02
Ar  288  0.5504698E+01  0.1855596E+02  0.8233886E+01  0.7897626E+03
Ar  289  0.5741493E+01  0.1616330E+02  0.1120044E+02  0.3685006E+03
Ar  290  0.8272322E+01  0.1844599E+02  0.1027655E+02  0.2328834E+03
Ar  291  0.8499137E+01  0.1615036E+02  0.1327261E+02  0.3536111E+03
Ar  292  0.6298493E+01  0.1885066E+02  0.1339616E+02  0.1591353E+03
Ar  293  0.5110074E+01  0.1649378E+02  0.1594423E+02  0.3528045E+03
Ar  294  0.8212546E+01  0.1928477E+02  0.1599977E+02  0.1219870E+03
Ar  295  0.8268454E+01  0.1600922E+02  0.1906970E+02  0.3140330E+03
Ar  296  0.5694518E+01  0.1872176E+02  0.1839537E+02  0.5726187E+03
Ar  297  0.5494554E+01  0.1617507E+02  0.2144101E+02  0.2307040E+03
Ar  298  0.8058980E+01  0.1883381E+02  0.2156336E+02  0.1293594E+03
Ar  299  0.8673054E+01  0.1598221E+02  0.2415113E+02  0.1214969E+03
Ar  300  0.5757825E+01  0.1854532E+02  0.2467070E+02  0.1299586E+02
Ar  301  0.5869448E+01  0.1589532E+02  0.2685547E+02  0.7598443E+03
Ar  302  0.7870134E+01  0.1895940E+02  0.2718999E+02  0.3896442E+03
Ar  303  0.8140236E+01  0.1657083E+02  0.2970139E+02  0.1975924E+03
Ar  304  0.4715263E+01  0.1805068E+02  0.2963135E+02  0.2629518E+03
Ar  305  0.5391731E+01  0.1602832E+02  0.3290857E+02  0.3101245E+03
Ar  306  0.8140513E+01  0.1875068E+02  0.3284468E+02  0.8571014E+02
Ar  307  0.8502269E+01  0.1579874E+02  0.3558719E+02  0.6280101E+02
Ar  308  0.4762443E+01  0.1836505E+02  0.3569156E+02  0.4771532E+03
Ar  309  0.5845308E+01  0.2132143E+02  0.4624565E-01  0.3104320E+03
Ar  310  0.7951470E+01  0.2424920E+02  0.3759660E+02  0.1968296E+02
Ar  311  0.7928720E+01  0.2141549E+02  0.2718375E+01  0.2441595E+03
Ar  312  0.5097082E+01  0.2407532E+02  0.2823349E+01  0.6379943E+03
Ar  313  0.4720393E+01  0.2105016E+02  0.5333444E+01  0.3969102E+01
Ar  314  0.8240759E+01  0.2454407E+02  0.4628120E+01  0.8642260E+03
Ar  315  0.8005955E+01  0.2123131E+02  0.7691658E+01  0.8757351E+03
Ar  316  0.5796555E+01  0.2358574E+02  0.8092144E+01  0.9055690E+02
Ar  317  0.5137742E+01  0.2124442E+02  0.1026500E+02  0.1669486E+03
Ar  318  0.8228420E+01  0.2434898E+02  0.1017182E+02  0.6544299E+02
Ar  319  0.7958441E+01  0.2203509E+02  0.1304497E+02  0.8157267E+02
Ar  320  0.5449666E+01  0.2431613E+02  0.1297116E+02  0.2661013E+03
Ar  321  0.5529581E+01  0.2148859E+02  0.1606070E+02  0.2798216E+03
Ar  322  0.7899789E+01  0.2427486E+02  0.1608854E+02  0.5970335E+03
Ar  323  0.7883903E+01  0.2150159E+02  0.1889366E+02  0.2043133E+03
Ar  324  0.5317972E+01  0.2460843E+02  0.1905060E+02  0.3222426E+03
Ar  325  0.5671081E+01  0.2143049E+02  0.2168269E+02  0.1371029E+02
Ar  326  0.8077687E+01  0.2367594E+02  0.2162734E+02  0.2465948E+03
Ar  327  0.7984931E+01  0.2081384E+02  0.2400841E+02  0.5147533E+02
Ar  328  0.5897191E+01  0.2360361E+02  0.2419077E+02  0.5432420E+02
Ar  329  0.5347387E+01  0.2133178E+02  0.2693257E+02  0.3118621E+03
Ar  330  0.7850746E+01  0.2353756E+02  0.2678863E+02  0.1845150E+03
Ar  331  0.7681232E+01  0.2090872E+02  0.3001715E+02  0.2636440E+03
Ar  332  0.5403857E+01  0.2401347E+02  0.2955541E+02  0.8885696E+03
Ar  333  0.5486333E+01  0.2099276E+02  0.3301613E+02  0.1177606E+03
Ar  334  0.7622136E+01  0.2428659E+02  0.3208710E+02  0.1558720E+03
Ar  335  0.8305147E+01  0.2186860E+02  0.3496959E+02  0.1441552E+03
Ar  336  0.5273447E+01  0.2405363E+02  0.3522728E+02  0.3899914E+03
Ar  337  0.5078152E+01  0.2666996E+02  0.3747779E+02  0.5953393E+02
Ar  338  0.7816464E+01  0.2979652E+02  0.3764923E+02  0.4444685E+03
Ar  339  0.7428788E+01  0.2664605E+02  0.2081043E+01  0.1592516E+03
Ar  340  0.5523630E+01  0.2977064E+02  0.2385099E+01  0.2641283E+03
Ar  341  0.5404838E+01  0.2632383E+02  0.6108270E+01  0.2434781E+02
Ar  342  0.8256543E+01  0.2921232E+02  0.5205135E+01  0.5439341E+03
Ar  343  0.8063154E+01  0.2675697E+02  0.7589703E+01  0.7093577E+03
Ar  344  0.5632337E+01  0.2937677E+02  0.7758577E+01  0.1196981E+03
Ar  345  0.5310160E+01  0.2660625E+02  0.1007294E+02  0.1388501E+03
Ar  346  0.8083099E+01  0.2916274E+02  0.1039890E+02  0.4430615E+02
Ar  347  0.7914045E+01  0.2702129E+02  0.1306052E+02  0.1273537E+02
Ar  348  0.5466406E+01  0.2927259E+02  0.1329524E+02  0.1557239E+03
Ar  349  0.5727643E+01  0.2705217E+02  0.1578821E+02  0.9441238E+02
Ar  350  0.8005900E+01  0.2942592E+02  0.1664344E+02  0.3667473E+03
Ar  351  0.8351699E+01  0.2625774E+02  0.1896260E+02  0.1172702E+03
Ar  352  0.4963475E+01  0.2887407E+02  0.1916882E+02  0.1913366E+03
Ar  353  0.5935120E+01  0.2650932E+02  0.2191871E+02  0.5633419E+02
Ar  354  0.8019740E+01  0.2921559E+02  0.2145604E+02  0.3049595E+02
Ar  355  0.8483115E+01  0.2668018E+02  0.2476405E+02  0.2141175E+03
Ar  356  0.5018922E+01  0.2942855E+02  0.2385639E+02  0.1441168E+04
Ar  357  0.5773708E+01  0.2737520E+02  0.2692383E+02  0.2782854E+03
Ar  358  0.8780778E+01  0.2961652E+02  0.2731052E+02  0.4439906E+03
Ar  359  0.8390608E+01  0.2663476E+02  0.2932458E+02  0.8420311E+02
Ar  360  0.4907702E+01  0.2905875E+02  0.2972217E+02  0.7308769E+02
Ar  361  0.5087227E+01  0.2689514E+02  0.3229796E+02  0.4671725E+02
Ar  362  0.8111832E+01  0.2920713E+02  0.3254956E+02  0.1381396E+03
Ar  363  0.7213262E+01  0.2701394E+02  0.3506272E+02  0.7443108E+03
Ar  364  0.4914160E+01  0.2959893E+02  0.3482297E+02  0.1747160E+03
Ar  365  0.5448121E+01  0.3205369E+02  0.3730693E+02  0.2568525E+03
Ar  366  0.7601475E+01  0.3508188E+02  0.1763721E+00  0.2179163E+03
Ar  367  0.7918219E+01  0.3216343E+02  0.2271246E+01  0.1596352E+03
Ar  368  0.5304518E+01  0.3470261E+02  0.2579002E+01  0.3837710E+02
Ar  369  0.5808224E+01  0.3182011E+02  0.5069856E+01  0.2250538E+03
Ar  370  0.7965642E+01  0.3554307E+02  0.4884375E+01  0.1567295E+03
Ar  371  0.7840646E+01  0.3220985E+02  0.7883028E+01  0.2883429E+03
Ar  372  0.5768572E+01  0.3499990E+02  0.7224229E+01  0.2887152E+03
Ar  373  0.5298194E+01  0.3210582E+02  0.1076925E+02  0.1514668E+03
Ar  374  0.7860228E+01  0.3454396E+02  0.1102988E+02  0.1403130E+03
Ar  375  0.7626405E+01  0.3181489E+02  0.1322735E+02  0.3133613E+03
Ar  376  0.5745927E+01  0.3602945E+02  0.1366196E+02  0.9084064E+00
Ar  377  0.5493727E+01  0.3195015E+02  0.1620224E+02  0.4144980E+03
Ar  378  0.8190935E+01  0.3530690E+02  0.1558486E+02  0.3168649E+03
Ar  379  0.8552052E+01  0.3175965E+02  0.1933779E+02  0.6389890E+02
Ar  380  0.5681077E+01  0.3460246E+02  0.1853139E+02  0.2794836E+03
Ar  381  0.5026320E+01  0.3187908E+02  0.2088534E+02  0.2450655E+03
Ar  382  0.7415787E+01  0.3474848E+02  0.2147376E+02  0.1633861E+03
Ar  383  0.7610429E+01  0.3167965E+02  0.2379023E+02  0.6190497E+02
Ar  384  0.5370484E+01  0.3467716E+02  0.2410808E+02  0.1532417E+03
Ar  385  0.5594088E+01  0.3175768E+02  0.2682105E+02  0.3949607E+03
Ar  386  0.7566189E+01  0.3474021E+02  0.2688426E+02  0.4964589E+03
Ar  387  0.7509959E+01  0.3239298E+02  0.2956449E+02  0.1604184E+03
Ar  388  0.5287941E+01  0.3492529E+02  0.2937819E+02  0.4161959E+03
Ar  389  0.4896846E+01  0.3198584E+02  0.3187312E+02  0.3603596E+03
Ar  390  0.7461470E+01  0.3488549E+02  0.3226884E+02  0.1798051E+03
Ar  391  0.8343603E+01  0.3218229E+02  0.3477739E+02  0.5692925E+02
Ar  392  0.4941369E+01  0.3511844E+02  0.3567052E+02  0.2851913E+03
Ar  393  0.1060839E+02  0.3338336E+00  0.9295349E-01  0.7988949E+02
Ar  394  0.1349896E+02  0.2624078E+01  0.3773189E+02  0.5779835E+03
Ar  395  0.1297476E+02  0.3774164E+02  0.2461192E+01  0.6796595E+03
Ar  396  0.1098327E+02  0.2874687E+01  0.2663913E+01  0.3038911E+02
Ar  397  0.1109326E+02  0.2843310E+00  0.5321030E+01  0.2653407E+03
Ar  398  0.1377694E+02  0.2850453E+01  0.5591531E+01  0.2734874E+03
Ar  399  0.1391319E+02  0.2821089E+00  0.8181850E+01  0.4544751E+03
Ar  400  0.1099087E+02  0.3095578E+01  0.8014015E+01  0.2166993E+02
Ar  401  0.1059997E+02  0.1857252E+00  0.1023455E+02  0.4846456E+03
Ar  402  0.1378018E+02  0.3065240E+01  0.1033485E+02  0.2046119E+03
Ar  403  0.1325346E+02  0.3730932E+00  0.1311854E+02  0.2179949E+03
Ar  404  0.1088137E+02  0.2965890E+01  0.1323206E+02  0.1003251E+03
Ar  405  0.1044440E+02  0.3519982E+00  0.1539572E+02  0.3913488E+03
Ar  406  0.1375976E+02  0.2956538E+01  0.1610894E+02  0.3164318E+03
Ar  407  0.1357151E+02  0.1591709E+00  0.1876346E+02  0.3799263E+02
Ar  408  0.1094152E+02  0.2835782E+01  0.1855793E+02  0.5588605E+02
Ar  409  0.1084679E+02  0.3755383E+02  0.2096726E+02  0.9476814E+02
Ar  410  0.1387566E+02  0.3250269E+01  0.2144605E+02  0.1451422E+03
Ar  411  0.1299118E+02  0.6946653E+00  0.2374640E+02  0.5171899E+03
Ar  412  0.1021845E+02  0.2866944E+01  0.2454924E+02  0.1102269E+03
Ar  413  0.1045995E+02  0.3733747E+02  0.2710111E+02  0.2925275E+03
Ar  414  0.1288356E+02  0.2279320E+01  0.2677531E+02  0.2156397E+03
Ar  415  0.1317363E+02  0.2964585E+00  0.2995433E+02  0.4327286E+03
Ar  416  0.1019714E+02  0.2336308E+01  0.2948451E+02  0.6772308E+02
Ar  417  0.1066656E+02  0.3744890E+02  0.3266013E+02  0.1388359E+02
Ar  418  0.1340426E+02  0.2292939E+01  0.3235841E+02  0.5952365E+03
Ar  419  0.1353216E+02  0.3750516E+02  0.3548761E+02  0.1342806E+03
Ar  420  0.1077183E+02  0.2407615E+01  0.3503761E+02  0.9133616E+02
Ar  421  0.1051214E+02  0.5399286E+01  0.3065221E+00  0.3700709E+03
Ar  422  0.1368061E+02  0.8398251E+01  0.8024536E-01  0.3413603E+03
Ar  423  0.1368887E+02  0.5453458E+01  0.2416062E+01  0.6424547E+02
Ar  424  0.1120373E+02  0.8240246E+01  0.2615348E+01  0.8456298E+02
Ar  425  0.1054395E+02  0.6083244E+01  0.5320338E+01  0.2338696E+02
Ar  426  0.1339395E+02  0.7918005E+01  0.5209710E+01  0.1643108E+02
Ar  427  0.1384145E+02  0.5863094E+01  0.7902997E+01  0.1642147E+03
Ar  428  0.1063388E+02  0.8377236E+01  0.8664650E+01  0.3366181E+03
Ar  429  0.1103187E+02  0.5620131E+01  0.1055119E+02  0.6038608E+03
Ar  430  0.1370055E+02  0.8520102E+01  0.1025168E+02  0.2564965E+03
Ar  431  0.1353719E+02  0.5285454E+01  0.1313877E+02  0.4097983E+03
Ar  432  0.1109993E+02  0.8256068E+01  0.1310074E+02  0.1549284E+03
Ar  433  0.1104134E+02  0.5533083E+01  0.1589929E+02  0.3167825E+03
Ar  434  0.1382499E+02  0.8122290E+01  0.1618030E+02  0.3644996E+03
Ar  435  0.1328331E+02  0.5606113E+01  0.1901505E+02  0.6806593E+03
Ar  436  0.1151850E+02  0.8535775E+01  0.1898658E+02  0.1036109E+02
Ar  437  0.1082455E+02  0.5756270E+01  0.2165400E+02  0.9265381E+02
Ar  438  0.1406552E+02  0.8308662E+01  0.2149555E+02  0.3149574E+03
Ar  439  0.1332018E+02  0.5601450E+01  0.2412307E+02  0.2924818E+03
Ar  440  0.1066139E+02  0.8311672E+01  0.2427799E+02  0.1492127E+03
Ar  441  0.1046255E+02  0.5354114E+01  0.2704917E+02  0.2888416E+03
Ar  442  0.1320079E+02  0.8004555E+01  0.2745017E+02  0.2102834E+03
Ar  443  0.1294564E+02  0.4885363E+01  0.2940148E+02  0.1169540E+03
Ar  444  0.1049059E+02  0.7997508E+01  0.3030257E+02  0.2868325E+03
Ar  445  0.1049032E+02  0.6068641E+01  0.3285519E+02  0.1433983E+03
Ar  446  0.1367721E+02  0.7457841E+01  0.3251339E+02  0.1303811E+03
Ar  447  0.1304219E+02  0.5772336E+01  0.3568032E+02  0.1714503E+03
Ar  448  0.1089125E+02  0.8318014E+01  0.3512429E+02  0.3585013E+03
Ar  449  0.1091168E+02  0.1088611E+02  0.5018814E+00  0.2065139E+03
Ar  450  0.1366480E+02  0.1334987E+02  0.3757026E+02  0.2303588E+03
Ar  451  0.1367091E+02  0.1114627E+02  0.2564887E+01  0.3584655E+03
Ar  452  0.1100725E+02  0.1334495E+02  0.2961197E+01  0.2393561E+03
Ar  453  0.1052202E+02  0.1091951E+02  0.5260746E+01  0.8088033E+02
Ar  454  0.1357235E+02  0.1327302E+02  0.5637263E+01  0.1399442E+03
Ar  455  0.1308311E+02  0.1070418E+02  0.7642203E+01  0.7128272E+02
Ar  456  0.1072206E+02  0.1322517E+02  0.7970989E+01  0.1049201E+03
Ar  457  0.1044012E+02  0.1090389E+02  0.1071871E+02  0.1993289E+02
Ar  458  0.1353035E+02  0.1387031E+02  0.1062894E+02  0.9066922E+03
Ar  459  0.1307178E+02  0.1099048E+02  0.1322194E+02  0.3098446E+03
Ar  460  0.1078558E+02  0.1352907E+02  0.1384238E+02  0.7366778E+02
Ar  461  0.1122234E+02  0.1057253E+02  0.1643749E+02  0.5518408E+02
Ar  462  0.1374966E+02  0.1355407E+02  0.1578241E+02  0.2079660E+03
Ar  463  0.1410513E+02  0.1126232E+02  0.1915554E+02  0.1529395E+03
Ar  464  0.1124651E+02  0.1317197E+02  0.1833284E+02  0.7984905E+03
Ar  465  0.1104869E+02  0.1092241E+02  0.2187191E+02  0.4631537E+03
Ar  466  0.1314409E+02  0.1387453E+02  0.2149064E+02  0.1662772E+03
Ar  467  0.1293762E+02  0.1065456E+02  0.2452582E+02  0.1376107E+03
Ar  468  0.1132556E+02  0.1390878E+02  0.2423388E+02  0.6208647E+03
Ar  469  0.1101998E+02  0.1069932E+02  0.2724513E+02  0.3237361E+03
Ar  470  0.1344409E+02  0.1367560E+02  0.2778048E+02  0.2543332E+03
Ar  471  0.1397253E+02  0.1096003E+02  0.3031472E+02  0.2362777E+03
Ar  472  0.1059407E+02  0.1277686E+02  0.3031013E+02  0.2718851E+03
Ar  473  0.1059614E+02  0.1064413E+02  0.3254779E+02  0.8688026E+03
Ar  474  0.1387462E+02  0.1401206E+02  0.3228457E+02  0.3157394E+03
Ar  475  0.1349131E+02  0.1061809E+02  0.3530083E+02  0.5039752E+03
Ar  476  0.1127491E+02  0.1350965E+02  0.3471856E+02  0.3376367E+03
Ar  477  0.1113364E+02  0.1578139E+02  0.3776815E+02  0.7936378E+02
Ar  478  0.1396993E+02  0.1908681E+02  0.3776805E+02  0.4651493E+02
Ar  479  0.1372763E+02  0.1567805E+02  0.2582254E+01  0.2005354E+03
Ar  480  0.1091060E+02  0.1876801E+02  0.2820420E+01  0.1851102E+03
Ar  481  0.1048608E+02  0.1592567E+02  0.5441520E+01  0.1413771E+03
Ar  482  0.1355065E+02  0.1884360E+02  0.5202012E+01  0.2356313E+03
Ar  483  0.1432130E+02  0.1624441E+02  0.7720007E+01  0.1461920E+03
Ar  484  0.1118453E+02  0.1859636E+02  0.7362934E+01  0.2058959E+03
Ar  485  0.1105202E+02  0.1638664E+02  0.1053391E+02  0.1716987E+03
Ar  486  0.1344003E+02  0.1938131E+02  0.1066793E+02  0.1931553E+03
Ar  487  0.1315012E+02  0.1624200E+02  0.1352505E+02  0.1241316E+03
Ar  488  0.1069220E+02  0.1927709E+02  0.1305939E+02  0.3704295E+03
Ar  489  0.1025220E+02  0.1640510E+02  0.1620803E+02  0.6226535E+02
Ar  490  0.1270699E+02  0.1892932E+02  0.1606769E+02  0.3321770E+03
Ar  491  0.1329462E+02  0.1612886E+02  0.1817013E+02  0.1527400E+03
Ar  492  0.1083235E+02  0.1912149E+02  0.1885490E+02  0.1191165E+03
Ar  493  0.1087535E+02  0.1675859E+02  0.2133533E+02  0.3358344E+03
Ar  494  0.1392820E+02  0.1890003E+02  0.2117224E+02  0.1923889E+03
Ar  495  0.1389951E+02  0.1651510E+02  0.2431610E+02  0.8330216E+02
Ar  496  0.1108975E+02  0.1910433E+02  0.2500600E+02  0.5621857E+03
Ar  497  0.1115662E+02  0.1649364E+02  0.2727669E+02  0.5389337E+03
Ar  498  0.1373801E+02  0.1907247E+02  0.2758958E+02  0.4067494E+03
Ar  499  0.1314627E+02  0.1658786E+02  0.3012089E+02  0.3691009E+02
Ar  500  0.1069288E+02  0.1928702E+02  0.2965595E+02  0.1445733E+03
Ar  501  0.1081573E+02  0.1664025E+02  0.3255655E+02  0.5265753E+03
Ar  502  0.1348297E+02  0.1882262E+02  0.3283582E+02  0.5826652E+02
Ar  503  0.1352962E+02  0.1610575E+02  0.3532653E+02  0.1734300E+02
Ar  504  0.1070961E+02  0.1837836E+02  0.3568866E+02  0.1416795E+03
Ar  505  0.1095157E+02  0.2109479E+02  0.4487441E+00  0.3363369E+03
Ar  506  0.1388778E+02  0.2431066E+02  0.3751996E+02  0.1186559E+03
Ar  507  0.1383706E+02  0.2168014E+02  0.2481609E+01  0.2138799E+03
Ar  508  0.1096836E+02  0.2407788E+02  0.2021701E+01  0.9034880E+03
Ar  509  0.1124615E+02  0.2197101E+02  0.5713676E+01  0.6575246E+02
Ar  510  0.1401961E+02  0.2439310E+02  0.5038465E+01  0.1301875E+03
Ar  511  0.1395473E+02  0.2172315E+02  0.7918187E+01  0.7271626E+02
Ar  512  0.1090279E+02  0.2491421E+02  0.7714674E+01  0.3411643E+03
Ar  513  0.1056128E+02  0.2141885E+02  0.1059420E+02  0.2123009E+03
Ar  514  0.1318836E+02  0.2385687E+02  0.1027852E+02  0.1670857E+03
Ar  515  0.1339883E+02  0.2134646E+02  0.1339214E+02  0.9195445E+02
Ar  516  0.1042412E+02  0.2478311E+02  0.1275992E+02  0.1048549E+03
Ar  517  0.1101360E+02  0.2238566E+02  0.1585446E+02  0.4859951E+02
Ar  518  0.1372039E+02  0.2419478E+02  0.1588820E+02  0.1524858E+03
Ar  519  0.1335633E+02  0.2131869E+02  0.1858184E+02  0.4392246E+03
Ar  520  0.1079906E+02  0.2395086E+02  0.1876463E+02  0.2535080E+03
Ar  521  0.1060566E+02  0.2164212E+02  0.2180761E+02  0.2258787E+03
Ar  522  0.1301463E+02  0.2379527E+02  0.2174162E+02  0.1798223E+03
Ar  523  0.1383011E+02  0.2173923E+02  0.2394265E+02  0.1387242E+03
Ar  524  0.1111236E+02  0.2432351E+02  0.2465762E+02  0.4175416E+03
Ar  525  0.1072600E+02  0.2162198E+02  0.2707275E+02  0.4807647E+03
Ar  526  0.1351056E+02  0.2384091E+02  0.2726506E+02  0.2011868E+03
Ar  527  0.1324392E+02  0.2148493E+02  0.3000122E+02  0.3236914E+03
Ar  528  0.1067112E+02  0.2389509E+02  0.2984167E+02  0.4904523E+03
Ar  529  0.1095828E+02  0.2137430E+02  0.3283515E+02  0.5392680E+02
Ar  530  0.1359412E+02  0.2414417E+02  0.3257856E+02  0.2444643E+03
Ar  531  0.1393100E+02  0.2156560E+02  0.3504547E+02  0.2347608E+03
Ar  532  0.1061315E+02  0.2425354E+02  0.3524701E+02  0.5331537E+03
Ar  533  0.1078527E+02  0.2692204E+02  0.3748395E+02  0.2342541E+02
Ar  534  0.1316349E+02  0.2994963E+02  0.5418592E-01  0.5636197E+03
Ar  535  0.1363181E+02  0.2734292E+02  0.2383172E+01  0.1979759E+03
Ar  536  0.1078982E+02  0.2945302E+02  0.2774985E+01  0.1023321E+03
Ar  537  0.1092980E+02  0.2632287E+02  0.4642746E+01  0.8550076E+02
Ar  538  0.1372251E+02  0.2951753E+02  0.5265585E+01  0.5940117E+03
Ar  539  0.1367450E+02  0.2694816E+02  0.7363648E+01  0.4900455E+03
Ar  540  0.1035531E+02  0.2959207E+02  0.7809822E+01  0.1185842E+03
Ar  541  0.1144712E+02  0.2692923E+02  0.1047320E+02  0.1444495E+03
Ar  542  0.1382874E+02  0.2963894E+02  0.1032386E+02  0.1358177E+03
Ar  543  0.1355849E+02  0.2710584E+02  0.1343518E+02  0.1858694E+03
Ar  544  0.1042242E+02  0.2907497E+02  0.1302016E+02  0.4430357E+03
Ar  545  0.1078643E+02  0.2659411E+02  0.1595404E+02  0.4974454E+03
Ar  546  0.1306637E+02  0.2939699E+02  0.1575074E+02  0.3315963E+03
Ar  547  0.1360776E+02  0.2645166E+02  0.1854630E+02  0.6919192E+03
Ar  548  0.1078130E+02  0.2897425E+02  0.1879846E+02  0.2139096E+03
Ar  549  0.1039844E+02  0.2611619E+02  0.2183626E+02  0.2577012E+03
Ar  550  0.1287692E+02  0.2952867E+02  0.2168135E+02  0.6391198E+03
Ar  551  0.1321606E+02  0.2687278E+02  0.2409943E+02  0.4308057E+03
Ar  552  0.1057128E+02  0.2969625E+02  0.2435580E+02  0.4178796E+03
Ar  553  0.1094124E+02  0.2646348E+02  0.2728857E+02  0.5163433E+02
Ar  554  0.1343862E+02  0.2923586E+02  0.2674282E+02  0.9370449E+02
Ar  555  0.1407149E+02  0.2648001E+02  0.2953255E+02  0.2147708E+03
Ar  556  0.1124231E+02  0.2899065E+02  0.3026766E+02  0.1360614E+03
Ar  557  0.1024599E+02  0.2658988E+02  0.3295512E+02  0.2385876E+02
Ar  558  0.1320085E+02  0.2938377E+02  0.3280885E+02  0.1047598E+04
Ar  559  0.1357550E+02  0.2715503E+02  0.3558173E+02  0.1328682E+03
Ar  560  0.1047445E+02  0.2933786E+02  0.3518022E+02  0.5339821E+03
Ar  561  0.1076047E+02  0.3262785E+02  0.1042669E-01  0.8236520E+02
Ar  562  0.1371903E+02  0.3505320E+02  0.3636248E+00  0.7343896E+03
Ar  563  0.1330237E+02  0.3215076E+02  0.2639709E+01  0.6973302E+02
Ar  564  0.1080619E+02  0.3534417E+02  0.2669903E+01  0.3752172E+02
Ar  565  0.1045315E+02  0.3276089E+02  0.4768848E+01  0.3467341E+03
Ar  566  0.1375676E+02  0.3488600E+02  0.5178026E+01  0.4373967E+03
Ar  567  0.1264933E+02  0.3217859E+02  0.7496207E+01  0.2100249E+03
Ar  568  0.1035165E+02  0.3445546E+02  0.8558524E+01  0.8109991E+02
Ar  569  0.1019969E+02  0.3180768E+02  0.1072989E+02  0.4287111E+02
Ar  570  0.1327331E+02  0.3573784E+02  0.1073132E+02  0.3933522E+03
Ar  571  0.1289211E+02  0.3175281E+02  0.1306349E+02  0.1467181E+03
Ar  572  0.1074765E+02  0.3484252E+02  0.1303309E+02  0.8899858E+01
Ar  573  0.1032202E+02  0.3207977E+02  0.1589003E+02  0.2071809E+03
Ar  574  0.1341629E+02  0.3541146E+02  0.1580441E+02  0.1377789E+03
Ar  575  0.1242503E+02  0.3206128E+02  0.1877389E+02  0.1973254E+03
Ar  576  0.1052218E+02  0.3499973E+02  0.1904622E+02  0.3015374E+03
Ar  577  0.1057183E+02  0.3260383E+02  0.2187667E+02  0.9458645E+02
Ar  578  0.1407247E+02  0.3556619E+02  0.2115287E+02  0.5117202E+03
Ar  579  0.1289400E+02  0.3276065E+02  0.2402680E+02  0.3436038E+03
Ar  580  0.1003237E+02  0.3547171E+02  0.2399626E+02  0.2474822E+03
Ar  581  0.1028510E+02  0.3252201E+02  0.2679701E+02  0.2282713E+03
Ar  582  0.1332649E+02  0.3440794E+02  0.2739335E+02  0.8233537E+02
Ar  583  0.1295098E+02  0.3172740E+02  0.3028827E+02  0.6006387E+03
Ar  584  0.1015040E+02  0.3523547E+02  0.3006988E+02  0.2335555E+03
Ar  585  0.1002328E+02  0.3197883E+02  0.3187606E+02  0.4808845E+03
Ar  586  0.1279432E+02  0.3501068E+02  0.3236139E+02  0.1021402E+03
Ar  587  0.1272896E+02  0.3246815E+02  0.3433207E+02  0.3113658E+03
Ar  588  0.1037220E+02  0.3525961E+02  0.3558259E+02  0.3461562E+03
Ar  589  0.1605205E+02  0.3756453E+02  0.3616010E+00  0.6165252E+03
Ar  590  0.1903067E+02  0.1089898E+01  0.3765440E+02  0.4368467E+03
Ar  591  0.1905224E+02  0.3712092E+02  0.2949467E+01  0.5170997E+02
Ar  592  0.1686184E+02  0.2613844E+01  0.2750938E+01  0.2575340E+03
Ar  593  0.1609010E+02  0.1012387E+00  0.5032331E+01  0.1447884E+03
Ar  594  0.1925455E+02  0.2691763E+01  0.4941124E+01  0.5196352E+02
Ar  595  0.1864199E+02  0.3770176E+02  0.7725833E+01  0.3178087E+03
Ar  596  0.1646653E+02  0.2850502E+01  0.7504050E+01  0.7084198E+02
Ar  597  0.1629115E+02  0.2410356E+00  0.1104348E+02  0.7567424E+02
Ar  598  0.1845981E+02  0.2556652E+01  0.1081035E+02  0.1092671E+02
Ar  599  0.1891510E+02  0.2213517E-01  0.1338015E+02  0.2072714E+03
Ar  600  0.1682105E+02  0.3024163E+01  0.1415430E+02  0.1312986E+03
Ar  601  0.1618460E+02  0.3743717E+02  0.1578194E+02  0.1620289E+03
Ar  602  0.1931064E+02  0.3491279E+01  0.1656122E+02  0.7084747E+02
Ar  603  0.1818367E+02  0.3754584E+02  0.1887300E+02  0.6964329E+03
Ar  604  0.1645985E+02  0.3065121E+01  0.1870278E+02  0.1641900E+03
Ar  605  0.1596573E+02  0.5304021E+00  0.2204602E+02  0.1005608E+04
Ar  606  0.1954026E+02  0.2406449E+01  0.2142866E+02  0.2790570E+03
Ar  607  0.1940983E+02  0.3756668E+02  0.2425537E+02  0.5016991E+02
Ar  608  0.1627951E+02  0.2307773E+01  0.2476486E+02  0.2952633E+03
Ar  609  0.1607077E+02  0.3712130E+02  0.2720962E+02  0.2833921E+03
Ar  610  0.1923115E+02  0.2868666E+01  0.2649080E+02  0.1185534E+03
Ar  611  0.1904923E+02  0.3724348E+02  0.2979493E+02  0.1445839E+03
Ar  612  0.1623127E+02  0.2266329E+01  0.2924562E+02  0.6983536E+02
Ar  613  0.1597734E+02  0.1735746E+00  0.3214170E+02  0.5329656E+02
Ar  614  0.1888710E+02  0.1981509E+01  0.3222662E+02  0.6732106E+02
Ar  615  0.1896060E+02  0.3707737E+02  0.3419362E+02  0.3535645E+02
Ar  616  0.1588412E+02  0.2429869E+01  0.3539041E+02  0.8435134E+03
Ar  617  0.1639791E+02  0.4891143E+01  0.3761653E+02  0.3076339E+03
Ar  618  0.1867598E+02  0.8058780E+01  0.3775516E+02  0.4679390E+03
Ar  619  0.1880945E+02  0.5662830E+01  0.2629169E+01  0.1286484E+03
Ar  620  0.1597286E+02  0.8377951E+01  0.2708593E+01  0.1792962E+03
Ar  621  0.1592246E+02  0.5598613E+01  0.5400897E+01  0.1566329E+03
Ar  622  0.1878259E+02  0.7775998E+01  0.5623550E+01  0.2561817E+03
Ar  623  0.1923257E+02  0.5729888E+01  0.8163480E+01  0.7358885E+02
Ar  624  0.1641398E+02  0.8431884E+01  0.7867959E+01  0.6928674E+02
Ar  625  0.1620981E+02  0.5961180E+01  0.1087359E+02  0.2814220E+03
Ar  626  0.1903471E+02  0.8000759E+01  0.1085164E+02  0.2699969E+03
Ar  627  0.1878450E+02  0.5585442E+01  0.1371917E+02  0.1981918E+03
Ar  628  0.1582531E+02  0.8386023E+01  0.1333947E+02  0.3464053E+03
Ar  629  0.1632116E+02  0.5766653E+01  0.1620185E+02  0.1426057E+03
Ar  630  0.1873171E+02  0.8213900E+01  0.1645082E+02  0.1713453E+03
Ar  631  0.1905301E+02  0.5485986E+01  0.1942914E+02  0.2791204E+02
Ar  632  0.1603850E+02  0.8389029E+01  0.1884447E+02  0.9922561E+02
Ar  633  0.1580781E+02  0.5783563E+01  0.2138893E+02  0.1049441E+03
Ar  634  0.1828013E+02  0.8540940E+01  0.2160220E+02  0.4635903E+03
Ar  635  0.1895101E+02  0.5673346E+01  0.2352624E+02  0.9531541E+02
Ar  636  0.1643534E+02  0.8640921E+01  0.2454797E+02  0.1845810E+03
Ar  637  0.1533755E+02  0.5503949E+01  0.2687311E+02  0.1485660E+04
Ar  638  0.1870156E+02  0.8011458E+01  0.2714504E+02  0.2009368E+03
Ar  639  0.1826691E+02  0.5237348E+01  0.2950710E+02  0.9100604E+02
Ar  640  0.1593765E+02  0.8006107E+01  0.2998229E+02  0.8183900E+02
Ar  641  0.1601312E+02  0.4346632E+01  0.3191229E+02  0.1657667E+02
Ar  642  0.1818749E+02  0.6905295E+01  0.3239348E+02  0.2615826E+03
Ar  643  0.1861128E+02  0.4358860E+01  0.3490459E+02  0.2151153E+03
Ar  644  0.1606779E+02  0.7861828E+01  0.3524982E+02  0.2632106E+03
Ar  645  0.1647455E+02  0.1110419E+02  0.3770234E+02  0.1708878E+03
Ar  646  0.1900820E+02  0.1391956E+02  0.3765521E+02  0.5439989E+02
Ar  647  0.1856856E+02  0.1030149E+02  0.2974375E+01  0.2773671E+03
Ar  648  0.1650389E+02  0.1324410E+02  0.2718629E+01  0.3696672E+03
Ar  649  0.1627538E+02  0.1078163E+02  0.5626845E+01  0.2114939E+03
Ar  650  0.1883167E+02  0.1309067E+02  0.5412119E+01  0.3034217E+03
Ar  651  0.1852188E+02  0.1077982E+02  0.8426075E+01  0.2036682E+03
Ar  652  0.1634755E+02  0.1326363E+02  0.8476271E+01  0.1224420E+03
Ar  653  0.1590768E+02  0.1137005E+02  0.1118155E+02  0.1516609E+03
Ar  654  0.1905115E+02  0.1360899E+02  0.1066389E+02  0.1221452E+03
Ar  655  0.1907436E+02  0.1038492E+02  0.1356418E+02  0.3130397E+03
Ar  656  0.1644291E+02  0.1404866E+02  0.1342920E+02  0.1003400E+04
Ar  657  0.1628567E+02  0.1085043E+02  0.1591746E+02  0.2752552E+03
Ar  658  0.1882937E+02  0.1356783E+02  0.1622930E+02  0.5026546E+02
Ar  659  0.1834269E+02  0.1102846E+02  0.1860591E+02  0.3695770E+03
Ar  660  0.1620864E+02  0.1379462E+02  0.1862282E+02  0.7264365E+02
Ar  661  0.1612509E+02  0.1102281E+02  0.2223772E+02  0.2705896E+03
Ar  662  0.1908839E+02  0.1357067E+02  0.2150882E+02  0.1721572E+03
Ar  663  0.1886914E+02  0.1109075E+02  0.2455990E+02  0.5459788E+03
Ar  664  0.1595371E+02  0.1370749E+02  0.2490835E+02  0.5658200E+03
Ar  665  0.1543472E+02  0.1090552E+02  0.2699100E+02  0.8232539E+02
Ar  666  0.1879388E+02  0.1414827E+02  0.2696973E+02  0.2352598E+03
Ar  667  0.1827406E+02  0.1051955E+02  0.2949591E+02  0.4051810E+02
Ar  668  0.1612554E+02  0.1386360E+02  0.2967135E+02  0.4597656E+03
Ar  669  0.1681038E+02  0.1093033E+02  0.3322262E+02  0.7756285E+03
Ar  670  0.1854181E+02  0.1367780E+02  0.3222724E+02  0.1262787E+03
Ar  671  0.1983048E+02  0.1092135E+02  0.3500180E+02  0.1703151E+03
Ar  672  0.1614540E+02  0.1370944E+02  0.3488430E+02  0.1694989E+03
Ar  673  0.1661231E+02  0.1614888E+02  0.3376604E+00  0.1565927E+03
Ar  674  0.1904697E+02  0.1895864E+02  0.3758134E+02  0.5598378E+02
Ar  675  0.1934955E+02  0.1607535E+02  0.2733039E+01  0.4960015E+02
Ar  676  0.1663674E+02  0.1919074E+02  0.3077468E+01  0.6915400E+02
Ar  677  0.1659053E+02  0.1587644E+02  0.5314572E+01  0.2710060E+03
Ar  678  0.1933200E+02  0.1908117E+02  0.5698632E+01  0.8492915E+02
Ar  679  0.1930014E+02  0.1660225E+02  0.8231278E+01  0.1635955E+03
Ar  680  0.1662433E+02  0.1888381E+02  0.7990363E+01  0.2472886E+03
Ar  681  0.1619054E+02  0.1624106E+02  0.1068100E+02  0.6590946E+02
Ar  682  0.1849080E+02  0.1858028E+02  0.1150456E+02  0.4085088E+03
Ar  683  0.1877548E+02  0.1631924E+02  0.1417055E+02  0.1845096E+03
Ar  684  0.1557336E+02  0.1852568E+02  0.1343093E+02  0.1035354E+03
Ar  685  0.1611317E+02  0.1634814E+02  0.1616836E+02  0.9727270E+03
Ar  686  0.1924305E+02  0.1891483E+02  0.1617081E+02  0.2858319E+03
Ar  687  0.1898043E+02  0.1634086E+02  0.1853887E+02  0.6103870E+01
Ar  688  0.1670151E+02  0.1885450E+02  0.1886645E+02  0.1617371E+03
Ar  689  0.1620307E+02  0.1576970E+02  0.2194150E+02  0.5010751E+03
Ar  690  0.1924422E+02  0.1948521E+02  0.2190305E+02  0.1895302E+02
Ar  691  0.1904671E+02  0.1660026E+02  0.2388444E+02  0.1564561E+03
Ar  692  0.1636594E+02  0.1909189E+02  0.2431665E+02  0.2143321E+03
Ar  693  0.1625631E+02  0.1664247E+02  0.2727763E+02  0.6455872E+02
Ar  694  0.1893234E+02  0.1905170E+02  0.2702106E+02  0.1300224E+03
Ar  695  0.1858790E+02  0.1653646E+02  0.2944247E+02  0.9211802E+02
Ar  696  0.1635943E+02  0.1906725E+02  0.3010755E+02  0.6340617E+03
Ar  697  0.1609317E+02  0.1643132E+02  0.3220373E+02  0.3851309E+03
Ar  698  0.1874259E+02  0.1893886E+02  0.3272912E+02  0.9033605E+02
Ar  699  0.1883318E+02  0.1596966E+02  0.3469472E+02  0.8032719E+02
Ar  700  0.1627973E+02  0.1892989E+02  0.3509974E+02  0.4584646E+02
Ar  701  0.1641261E+02  0.2119387E+02  0.1519230E+00  0.3242772E+03
Ar  702  0.1868169E+02  0.2428539E+02  0.3768076E+02  0.1432991E+03
Ar  703  0.1884057E+02  0.2205214E+02  0.2611479E+01  0.1365056E+03
Ar  704  0.1625770E+02  0.2435438E+02  0.2392496E+01  0.4973518E+03
Ar  705  0.1657678E+02  0.2179698E+02  0.5387458E+01  0.2000224E+03
Ar  706  0.1886700E+02  0.2469343E+02  0.5241392E+01  0.2911877E+03
Ar  707  0.1884938E+02  0.2178423E+02  0.7960839E+01  0.2105779E+03
Ar  708  0.1647482E+02  0.2442812E+02  0.8169955E+01  0.1166190E+03
Ar  709  0.1618204E+02  0.2134384E+02  0.1087687E+02  0.1419196E+03
Ar  710  0.1894273E+02  0.2407184E+02  0.1094053E+02  0.8074550E+03
Ar  711  0.1910924E+02  0.2115163E+02  0.1372118E+02  0.1350196E+03
Ar  712  0.1574396E+02  0.2413859E+02  0.1307492E+02  0.2164507E+02
Ar  713  0.1596888E+02  0.2129442E+02  0.1632588E+02  0.1923090E+03
Ar  714  0.1816922E+02  0.2421691E+02  0.1596691E+02  0.6144248E+03
Ar  715  0.1863734E+02  0.2171148E+02  0.1833908E+02  0.1237492E+03
Ar  716  0.1596581E+02  0.2376318E+02  0.1887348E+02  0.4311662E+02
Ar  717  0.1644976E+02  0.2192937E+02  0.2147245E+02  0.3635450E+03
Ar  718  0.1906320E+02  0.2409556E+02  0.2162668E+02  0.1073810E+03
Ar  719  0.1885898E+02  0.2179914E+02  0.2469281E+02  0.6677734E+02
Ar  720  0.1594202E+02  0.2439515E+02  0.2409923E+02  0.3208561E+03
Ar  721  0.1631289E+02  0.2120707E+02  0.2707647E+02  0.1141857E+03
Ar  722  0.1908995E+02  0.2442971E+02  0.2685527E+02  0.1311457E+03
Ar  723  0.1924753E+02  0.2184818E+02  0.2977537E+02  0.2350204E+03
Ar  724  0.1627192E+02  0.2388354E+02  0.2953013E+02  0.7722348E+02
Ar  725  0.1649388E+02  0.2158208E+02  0.3280259E+02  0.1642659E+03
Ar  726  0.1851488E+02  0.2478083E+02  0.3211049E+02  0.5093736E+03
Ar  727  0.1929649E+02  0.2231850E+02  0.3456841E+02  0.6280115E+02
Ar  728  0.1600726E+02  0.2438004E+02  0.3461950E+02  0.1392588E+03
Ar  729  0.1620150E+02  0.2715136E+02  0.3757210E+02  0.1700896E+03
Ar  730  0.1917057E+02  0.2984434E+02  0.3731249E+02  0.2294861E+03
Ar  731  0.1901296E+02  0.2714379E+02  0.2253055E+01  0.3381250E+03
Ar  732  0.1645688E+02  0.3002000E+02  0.2045423E+01  0.5222945E+02
Ar  733  0.1631357E+02  0.2736301E+02  0.4582097E+01  0.1791432E+03
Ar  734  0.1862193E+02  0.2986502E+02  0.4614412E+01  0.4586828E+01
Ar  735  0.1938574E+02  0.2647751E+02  0.8406409E+01  0.4759301E+03
Ar  736  0.1697434E+02  0.2905361E+02  0.7614670E+01  0.8839236E+02
Ar  737  0.1588519E+02  0.2678874E+02  0.1065940E+02  0.1045049E+03
Ar  738  0.1862409E+02  0.2979667E+02  0.1066042E+02  0.3738835E+03
Ar  739  0.1891691E+02  0.2678081E+02  0.1364876E+02  0.9585609E+02
Ar  740  0.1610939E+02  0.2950131E+02  0.1319444E+02  0.8618392E+02
Ar  741  0.1606777E+02  0.2703223E+02  0.1592720E+02  0.2219365E+03
Ar  742  0.1890194E+02  0.2975200E+02  0.1610852E+02  0.2095217E+03
Ar  743  0.1819516E+02  0.2677804E+02  0.1854415E+02  0.9241117E+03
Ar  744  0.1544071E+02  0.2982385E+02  0.1887857E+02  0.2440326E+02
Ar  745  0.1565988E+02  0.2631146E+02  0.2101728E+02  0.6467486E+02
Ar  746  0.1817095E+02  0.2995321E+02  0.2066554E+02  0.1802046E+03
Ar  747  0.1893783E+02  0.2684691E+02  0.2408355E+02  0.5908338E+02
Ar  748  0.1508064E+02  0.3009499E+02  0.2393671E+02  0.5123586E+03
Ar  749  0.1589729E+02  0.2659899E+02  0.2673076E+02  0.5804426E+02
Ar  750  0.1853643E+02  0.2932581E+02  0.2704018E+02  0.1374909E+03
Ar  751  0.1852090E+02  0.2708914E+02  0.2956325E+02  0.1865326E+03
Ar  752  0.1582018E+02  0.2959996E+02  0.2962117E+02  0.1715152E+03
Ar  753  0.1596309E+02  0.2709283E+02  0.3237458E+02  0.8270406E+02
Ar  754  0.1919002E+02  0.2899354E+02  0.3247913E+02  0.9454940E+03
Ar  755  0.1883680E+02  0.2652997E+02  0.3516833E+02  0.5870471E+03
Ar  756  0.1660005E+02  0.2931433E+02  0.3508419E+02  0.1111710E+03
Ar  757  0.1514373E+02  0.3231013E+02  0.3679223E+02  0.1715263E+03
Ar  758  0.1849454E+02  0.3494043E+02  0.3756530E+02  0.7620302E+03
Ar  759  0.1919900E+02  0.3239435E+02  0.2695831E+01  0.7832131E+02
Ar  760  0.1613827E+02  0.3408758E+02  0.2456029E+01  0.1458851E+03
Ar  761  0.1605230E+02  0.3198302E+02  0.5645204E+01  0.1058109E+03
Ar  762  0.1843672E+02  0.3487484E+02  0.5381298E+01  0.1508911E+03
Ar  763  0.1906218E+02  0.3291940E+02  0.8054654E+01  0.1246406E+03
Ar  764  0.1583799E+02  0.3492074E+02  0.7994388E+01  0.5087041E+03
Ar  765  0.1636701E+02  0.3263124E+02  0.1038723E+02  0.1461409E+03
Ar  766  0.1878394E+02  0.3570338E+02  0.1050651E+02  0.6417266E+02
Ar  767  0.1864791E+02  0.3219227E+02  0.1308137E+02  0.2021943E+03
Ar  768  0.1590921E+02  0.3507061E+02  0.1282390E+02  0.8937130E+02
Ar  769  0.1519820E+02  0.3206891E+02  0.1588713E+02  0.2392103E+02
Ar  770  0.1865123E+02  0.3455137E+02  0.1604544E+02  0.6173763E+03
Ar  771  0.1842766E+02  0.3284687E+02  0.1909409E+02  0.9320266E+02
Ar  772  0.1581342E+02  0.3472737E+02  0.1829912E+02  0.1067476E+01
Ar  773  0.1555603E+02  0.3247157E+02  0.2127761E+02  0.5082912E+03
Ar  774  0.1810661E+02  0.3506469E+02  0.2194097E+02  0.5254681E+03
Ar  775  0.1816511E+02  0.3261672E+02  0.2466401E+02  0.8382799E+02
Ar  776  0.1536605E+02  0.3521433E+02  0.2434592E+02  0.3102556E+02
Ar  777  0.1610610E+02  0.3209754E+02  0.2739816E+02  0.6777791E+03
Ar  778  0.1904549E+02  0.3508078E+02  0.2681018E+02  0.3575555E+03
Ar  779  0.1881479E+02  0.3225945E+02  0.2934432E+02  0.1528054E+03
Ar  780  0.1579616E+02  0.3476415E+02  0.3020249E+02  0.5280818E+02
Ar  781  0.1663141E+02  0.3157069E+02  0.3252149E+02  0.6501838E+02
Ar  782  0.1888686E+02  0.3420785E+02  0.3190127E+02  0.9276218E+01
Ar  783  0.1934717E+02  0.3260813E+02  0.3522907E+02  0.2925930E+03
Ar  784  0.1624201E+02  0.3478598E+02  0.3452269E+02  0.8495692E+02
Ar  785  0.2195957E+02  0.3745428E+02  0.3737389E+02  0.1221902E+03
Ar  786  0.2383271E+02  0.2605777E+01  0.3758388E+02  0.4963578E+03
Ar  787  0.2428486E+02  0.9816191E-01  0.2744262E+01  0.5363314E+03
Ar  788  0.2136349E+02  0.2463337E+01  0.2456729E+01  0.2672978E+02
Ar  789  0.2141409E+02  0.1302162E-01  0.5269538E+01  0.6847380E+03
Ar  790  0.2358196E+02  0.3174859E+01  0.5252369E+01  0.1610670E+03
Ar  791  0.2432112E+02  0.7266991E+00  0.7842392E+01  0.9029901E+02
Ar  792  0.2145053E+02  0.2612000E+01  0.8159254E+01  0.3234927E+02
Ar  793  0.2161148E+02  0.2637632E-03  0.9975920E+01  0.3489343E+03
Ar  794  0.2396862E+02  0.3101112E+01  0.1090544E+02  0.1273035E+03
Ar  795  0.2393587E+02  0.2237018E+00  0.1362738E+02  0.3524418E+03
Ar  796  0.2079110E+02  0.2778631E+01  0.1342245E+02  0.3485331E+03
Ar  797  0.2069643E+02  0.3204269E+00  0.1621179E+02  0.2494054E+03
Ar  798  0.2338753E+02  0.3159984E+01  0.1561813E+02  0.2263176E+03
Ar  799  0.2432425E+02  0.3725504E+02  0.1910554E+02  0.3241111E+03
Ar  800  0.2225554E+02  0.2843847E+01  0.1873354E+02  0.2489496E+03
Ar  801  0.2204419E+02  0.3746009E+02  0.2144099E+02  0.7450716E+02
Ar  802  0.2442974E+02  0.2357991E+01  0.2142866E+02  0.1168585E+03
Ar  803  0.2475241E+02  0.3727295E+02  0.2497088E+02  0.5066793E+02
Ar  804  0.2218745E+02  0.2035920E+01  0.2393707E+02  0.1209503E+03
Ar  805  0.2155096E+02  0.3769755E+02  0.2715592E+02  0.5097688E+03
Ar  806  0.2421537E+02  0.2875579E+01  0.2752684E+02  0.5599527E+02
Ar  807  0.2442644E+02  0.3692964E+02  0.2944105E+02  0.4402463E+03
Ar  808  0.2109517E+02  0.2658354E+01  0.2951160E+02  0.3426829E+03
Ar  809  0.2216456E+02  0.3726039E+02  0.3210781E+02  0.8505333E+02
Ar  810  0.2414760E+02  0.2574285E+01  0.3290746E+02  0.1780399E+02
Ar  811  0.2454770E+02  0.3753723E+02  0.3510768E+02  0.1676089E+03
Ar  812  0.2155813E+02  0.2276381E+01  0.3512427E+02  0.7795863E+02
Ar  813  0.2097281E+02  0.4976768E+01  0.3729697E+02  0.5414083E+03
Ar  814  0.2347478E+02  0.7827753E+01  0.3728411E+02  0.3378095E+02
Ar  815  0.2385881E+02  0.5778205E+01  0.2798040E+01  0.1262178E+03
Ar  816  0.2157034E+02  0.8379510E+01  0.2791711E+01  0.5841733E+02
Ar  817  0.2152037E+02  0.5873953E+01  0.5545039E+01  0.2181260E+03
Ar  818  0.2417083E+02  0.7905653E+01  0.5411011E+01  0.2302076E+03
Ar  819  0.2412771E+02  0.5539161E+01  0.8026870E+01  0.2301142E+03
Ar  820  0.2212783E+02  0.8121158E+01  0.8198268E+01  0.1870612E+03
Ar  821  0.2173512E+02  0.5557214E+01  0.1055137E+02  0.2953012E+03
Ar  822  0.2402555E+02  0.8831921E+01  0.1128675E+02  0.1001680E+03
Ar  823  0.2465019E+02  0.5765996E+01  0.1368226E+02  0.2568287E+03
Ar  824  0.2176675E+02  0.7838682E+01  0.1359960E+02  0.2971079E+03
Ar  825  0.2202508E+02  0.5795578E+01  0.1680648E+02  0.3873680E+02
Ar  826  0.2491256E+02  0.8190113E+01  0.1651524E+02  0.2708828E+03
Ar  827  0.2482592E+02  0.5362161E+01  0.1846530E+02  0.2437915E+03
Ar  828  0.2235522E+02  0.9408156E+01  0.1878547E+02  0.2620025E+03
Ar  829  0.2261709E+02  0.5269027E+01  0.2108958E+02  0.4181056E+03
Ar  830  0.2408308E+02  0.8383636E+01  0.2194646E+02  0.2837813E+02
Ar  831  0.2438310E+02  0.5512347E+01  0.2471947E+02  0.2780008E+02
Ar  832  0.2093212E+02  0.8241615E+01  0.2415339E+02  0.1889822E+03
Ar  833  0.2151773E+02  0.5184927E+01  0.2727980E+02  0.1479855E+04
Ar  834  0.2365861E+02  0.8199142E+01  0.2704370E+02  0.2161453E+03
Ar  835  0.2418897E+02  0.4999446E+01  0.3000775E+02  0.1839793E+03
Ar  836  0.2111003E+02  0.7195197E+01  0.3003821E+02  0.9804893E+02
Ar  837  0.2135990E+02  0.4702222E+01  0.3230596E+02  0.2248869E+03
Ar  838  0.2377965E+02  0.7631689E+01  0.3231453E+02  0.7627932E+02
Ar  839  0.2364704E+02  0.5230327E+01  0.3519952E+02  0.6635471E+03
Ar  840  0.2099902E+02  0.7473786E+01  0.3465176E+02  0.7802882E+03
Ar  841  0.2144356E+02  0.1096102E+02  0.3612776E+00  0.6478031E+03
Ar  842  0.2465439E+02  0.1340622E+02  0.1896690E+00  0.4825118E+03
Ar  843  0.2397627E+02  0.1110972E+02  0.3063463E+01  0.2548613E+03
Ar  844  0.2155987E+02  0.1344087E+02  0.2896903E+01  0.1384847E+03
Ar  845  0.2098932E+02  0.1076151E+02  0.5436574E+01  0.4184857E+03
Ar  846  0.2453260E+02  0.1342021E+02  0.5267505E+01  0.5018629E+03
Ar  847  0.2439585E+02  0.1094598E+02  0.7868773E+01  0.4396369E+03
Ar  848  0.2199977E+02  0.1377587E+02  0.7896138E+01  0.5707010E+03
Ar  849  0.2130745E+02  0.1099932E+02  0.1083358E+02  0.2218307E+03
Ar  850  0.2430285E+02  0.1342426E+02  0.1101299E+02  0.2755727E+03
Ar  851  0.2430504E+02  0.1120032E+02  0.1368266E+02  0.2214754E+03
Ar  852  0.2103864E+02  0.1362232E+02  0.1351153E+02  0.8748705E+02
Ar  853  0.2169991E+02  0.1087355E+02  0.1598420E+02  0.6760761E+03
Ar  854  0.2399291E+02  0.1428637E+02  0.1565749E+02  0.3913541E+03
Ar  855  0.2510275E+02  0.1175369E+02  0.1801601E+02  0.1788196E+03
Ar  856  0.2118624E+02  0.1295054E+02  0.1872490E+02  0.4266373E+03
Ar  857  0.2151871E+02  0.1059980E+02  0.2192505E+02  0.6884692E+02
Ar  858  0.2355295E+02  0.1363818E+02  0.2111979E+02  0.1136153E+03
Ar  859  0.2425090E+02  0.1191934E+02  0.2451135E+02  0.4477466E+02
Ar  860  0.2139049E+02  0.1413711E+02  0.2405224E+02  0.6821903E+02
Ar  861  0.2082196E+02  0.1063274E+02  0.2717789E+02  0.5991782E+02
Ar  862  0.2428916E+02  0.1399637E+02  0.2734345E+02  0.2690912E+03
Ar  863  0.2425708E+02  0.1026392E+02  0.2971447E+02  0.9362518E+02
Ar  864  0.2083570E+02  0.1371112E+02  0.2970354E+02  0.3461378E+02
Ar  865  0.2128477E+02  0.1093382E+02  0.3149516E+02  0.4542767E+02
Ar  866  0.2398469E+02  0.1364829E+02  0.3194405E+02  0.1836718E+03
Ar  867  0.2313307E+02  0.1056274E+02  0.3442107E+02  0.1285713E+03
Ar  868  0.2143578E+02  0.1385155E+02  0.3494119E+02  0.1992653E+03
Ar  869  0.2112633E+02  0.1634672E+02  0.3759217E+02  0.6068892E+02
Ar  870  0.2413892E+02  0.1866326E+02  0.3752663E+02  0.3580419E+03
Ar  871  0.2444419E+02  0.1639231E+02  0.3319506E+01  0.7149786E+03
Ar  872  0.2175229E+02  0.1870214E+02  0.2352713E+01  0.4508835E+03
Ar  873  0.2187942E+02  0.1638160E+02  0.5639574E+01  0.1033458E+03
Ar  874  0.2422743E+02  0.1902910E+02  0.5687581E+01  0.6921387E+03
Ar  875  0.2419151E+02  0.1636823E+02  0.8997581E+01  0.2925288E+03
Ar  876  0.2197309E+02  0.1933962E+02  0.8292614E+01  0.2031209E+03
Ar  877  0.2122598E+02  0.1661636E+02  0.1140221E+02  0.6967274E+02
Ar  878  0.2453547E+02  0.1953336E+02  0.1065070E+02  0.6144252E+03
Ar  879  0.2405858E+02  0.1608592E+02  0.1293425E+02  0.4677571E+03
Ar  880  0.2227649E+02  0.1929535E+02  0.1341488E+02  0.6821095E+03
Ar  881  0.2188005E+02  0.1669082E+02  0.1622000E+02  0.4533919E+02
Ar  882  0.2444450E+02  0.1938200E+02  0.1609967E+02  0.1599286E+03
Ar  883  0.2414843E+02  0.1677453E+02  0.1872785E+02  0.2882947E+03
Ar  884  0.2145999E+02  0.1942737E+02  0.1918636E+02  0.3883317E+03
Ar  885  0.2195106E+02  0.1649680E+02  0.2155471E+02  0.1219016E+03
Ar  886  0.2412236E+02  0.1906256E+02  0.2139354E+02  0.2343159E+03
Ar  887  0.2423339E+02  0.1679157E+02  0.2444697E+02  0.6659538E+03
Ar  888  0.2200209E+02  0.1924527E+02  0.2428385E+02  0.4505128E+03
Ar  889  0.2171067E+02  0.1632360E+02  0.2683459E+02  0.6344093E+03
Ar  890  0.2451885E+02  0.1919306E+02  0.2685875E+02  0.2801620E+03
Ar  891  0.2403568E+02  0.1635719E+02  0.2975614E+02  0.2982260E+02
Ar  892  0.2168293E+02  0.1923708E+02  0.2962589E+02  0.3690062E+03
Ar  893  0.2171810E+02  0.1679583E+02  0.3234991E+02  0.9063244E+02
Ar  894  0.2423163E+02  0.1886236E+02  0.3266084E+02  0.2076315E+03
Ar  895  0.2392159E+02  0.1628481E+02  0.3501881E+02  0.6219675E+03
Ar  896  0.2118060E+02  0.1943183E+02  0.3498374E+02  0.1597398E+03
Ar  897  0.2136743E+02  0.2155319E+02  0.2182333E+00  0.3900677E+03
Ar  898  0.2561158E+02  0.2417794E+02  0.3737036E+02  0.4713167E+02
Ar  899  0.2465420E+02  0.2114222E+02  0.2265992E+01  0.4740217E+03
Ar  900  0.2224025E+02  0.2438007E+02  0.2475768E+01  0.5819900E+03
Ar  901  0.2180601E+02  0.2144356E+02  0.4812849E+01  0.6801969E+02
Ar  902  0.2398480E+02  0.2462915E+02  0.5223998E+01  0.6039955E+02
Ar  903  0.2497090E+02  0.2147536E+02  0.8002040E+01  0.3643335E+03
Ar  904  0.2151725E+02  0.2426525E+02  0.7847366E+01  0.1488422E+03
Ar  905  0.2206301E+02  0.2222107E+02  0.1019770E+02  0.2350573E+03
Ar  906  0.2434004E+02  0.2452580E+02  0.1088633E+02  0.1530249E+03
Ar  907  0.2415394E+02  0.2213561E+02  0.1347690E+02  0.9334616E+02
Ar  908  0.2142265E+02  0.2415266E+02  0.1376417E+02  0.1251605E+03
Ar  909  0.2180343E+02  0.2144215E+02  0.1615787E+02  0.1110401E+03
Ar  910  0.2454487E+02  0.2509312E+02  0.1656201E+02  0.6145114E+03
Ar  911  0.2466014E+02  0.2207379E+02  0.1917246E+02  0.2685320E+03
Ar  912  0.2193856E+02  0.2408628E+02  0.1880953E+02  0.4430958E+03
Ar  913  0.2154717E+02  0.2181813E+02  0.2166793E+02  0.8196453E+02
Ar  914  0.2426509E+02  0.2430666E+02  0.2210083E+02  0.6285952E+03
Ar  915  0.2425647E+02  0.2151881E+02  0.2433013E+02  0.7686196E+02
Ar  916  0.2170991E+02  0.2407177E+02  0.2471484E+02  0.9216599E+02
Ar  917  0.2161840E+02  0.2151607E+02  0.2691308E+02  0.1087934E+03
Ar  918  0.2481387E+02  0.2472881E+02  0.2732588E+02  0.7196141E+02
Ar  919  0.2462936E+02  0.2192274E+02  0.2986231E+02  0.2645390E+03
Ar  920  0.2148255E+02  0.2491878E+02  0.2879702E+02  0.4349541E+03
Ar  921  0.2184300E+02  0.2219143E+02  0.3163423E+02  0.1945832E+03
Ar  922  0.2453059E+02  0.2447963E+02  0.3248090E+02  0.1158485E+03
Ar  923  0.2483259E+02  0.2185608E+02  0.3498531E+02  0.1882442E+03
Ar  924  0.2205985E+02  0.2456455E+02  0.3568290E+02  0.6033078E+03
Ar  925  0.2160090E+02  0.2726508E+02  0.4140358E+00  0.2700957E+03
Ar  926  0.2485075E+02  0.2962793E+02  0.3758299E+02  0.4647086E+03
Ar  927  0.2461187E+02  0.2683908E+02  0.1914822E+01  0.5946081E+03
Ar  928  0.2238063E+02  0.2980631E+02  0.2921641E+01  0.5475746E+03
Ar  929  0.2138338E+02  0.2697870E+02  0.5714482E+01  0.6431472E+02
Ar  930  0.2485757E+02  0.2972869E+02  0.5252660E+01  0.9916211E+02
Ar  931  0.2388910E+02  0.2703457E+02  0.7984100E+01  0.1182381E+04
Ar  932  0.2131350E+02  0.2948461E+02  0.8176933E+01  0.9911741E+02
Ar  933  0.2154424E+02  0.2694147E+02  0.1120036E+02  0.6755675E+02
Ar  934  0.2416384E+02  0.3000263E+02  0.1103294E+02  0.9848850E+02
Ar  935  0.2369818E+02  0.2735711E+02  0.1391475E+02  0.1625639E+02
Ar  936  0.2129041E+02  0.3036364E+02  0.1351147E+02  0.4741928E+03
Ar  937  0.2132164E+02  0.2630972E+02  0.1655580E+02  0.1316244E+03
Ar  938  0.2470606E+02  0.2999508E+02  0.1642451E+02  0.1553817E+03
Ar  939  0.2417071E+02  0.2696233E+02  0.1954830E+02  0.5446820E+03
Ar  940  0.2119859E+02  0.2903343E+02  0.1880171E+02  0.1797524E+03
Ar  941  0.2162509E+02  0.2641894E+02  0.2197625E+02  0.3718006E+03
Ar  942  0.2468058E+02  0.3013597E+02  0.2140740E+02  0.2337697E+02
Ar  943  0.2492810E+02  0.2677875E+02  0.2445207E+02  0.8723487E+02
Ar  944  0.2077962E+02  0.2980495E+02  0.2396506E+02  0.4186591E+03
Ar  945  0.2203292E+02  0.2765723E+02  0.2651823E+02  0.9419772E+02
Ar  946  0.2494662E+02  0.2981351E+02  0.2657940E+02  0.2726112E+03
Ar  947  0.2435018E+02  0.2707355E+02  0.2958913E+02  0.8154980E+02
Ar  948  0.2153988E+02  0.2948093E+02  0.2944709E+02  0.2704383E+03
Ar  949  0.2202093E+02  0.2660748E+02  0.3208441E+02  0.2508745E+02
Ar  950  0.2525740E+02  0.2983615E+02  0.3231635E+02  0.2013881E+03
Ar  951  0.2535880E+02  0.2752167E+02  0.3459431E+02  0.2524261E+03
Ar  952  0.2175415E+02  0.2892358E+02  0.3494411E+02  0.8412666E+02
Ar  953  0.2162938E+02  0.3264683E+02  0.3776337E+02  0.4372667E+02
Ar  954  0.2433003E+02  0.3487979E+02  0.3766654E+02  0.3200378E+02
Ar  955  0.2465049E+02  0.3235492E+02  0.2367614E+01  0.1434411E+03
Ar  956  0.2156502E+02  0.3464227E+02  0.2712201E+01  0.2227618E+03
Ar  957  0.2188295E+02  0.3224880E+02  0.5605674E+01  0.1970902E+03
Ar  958  0.2431820E+02  0.3482528E+02  0.5310046E+01  0.2172506E+03
Ar  959  0.2460443E+02  0.3228908E+02  0.8125461E+01  0.4666050E+03
Ar  960  0.2276100E+02  0.3513385E+02  0.8355640E+01  0.1138948E+03
Ar  961  0.2138034E+02  0.3296167E+02  0.1081907E+02  0.1807056E+03
Ar  962  0.2431460E+02  0.3548517E+02  0.1111242E+02  0.3852011E+02
Ar  963  0.2421719E+02  0.3274524E+02  0.1338994E+02  0.2787306E+03
Ar  964  0.2098857E+02  0.3472197E+02  0.1330043E+02  0.3654324E+03
Ar  965  0.2170795E+02  0.3201064E+02  0.1670177E+02  0.4603536E+03
Ar  966  0.2377870E+02  0.3529437E+02  0.1626014E+02  0.2921121E+03
Ar  967  0.2467447E+02  0.3321129E+02  0.1894256E+02  0.1792796E+03
Ar  968  0.2076662E+02  0.3534900E+02  0.1875212E+02  0.8742230E+02
Ar  969  0.2150011E+02  0.3290011E+02  0.2138382E+02  0.4241769E+02
Ar  970  0.2457604E+02  0.3493952E+02  0.2156525E+02  0.6997750E+02
Ar  971  0.2429792E+02  0.3218181E+02  0.2397360E+02  0.4480627E+02
Ar  972  0.2207513E+02  0.3547039E+02  0.2403373E+02  0.3575143E+03
Ar  973  0.2120334E+02  0.3228572E+02  0.2674206E+02  0.5055494E+03
Ar  974  0.2511573E+02  0.3447735E+02  0.2695731E+02  0.1499295E+03
Ar  975  0.2421782E+02  0.3192494E+02  0.2950395E+02  0.1388942E+03
Ar  976  0.2181498E+02  0.3451041E+02  0.2975224E+02  0.2396273E+03
Ar  977  0.2180386E+02  0.3164361E+02  0.3264461E+02  0.6825501E+03
Ar  978  0.2460903E+02  0.3467796E+02  0.3249288E+02  0.1774571E+03
Ar  979  0.2409546E+02  0.3216118E+02  0.3511573E+02  0.8356221E+03
Ar  980  0.2175765E+02  0.3498177E+02  0.3479930E+02  0.2531952E+03
Ar  981  0.2728495E+02  0.3764509E+02  0.2353905E+00  0.4310089E+03
Ar  982  0.2955921E+02  0.2381531E+01  0.3760343E+02  0.2685029E+03
Ar  983  0.2970433E+02  0.3677464E+00  0.2910694E+01  0.6625948E+03
Ar  984  0.2628023E+02  0.3019622E+01  0.2126549E+01  0.8451930E+02
Ar  985  0.2667831E+02  0.4691398E+00  0.5202576E+01  0.1949875E+02
Ar  986  0.2956360E+02  0.2773500E+01  0.5682189E+01  0.1598640E+03
Ar  987  0.3040082E+02  0.3776221E+02  0.8200124E+01  0.8528101E+02
Ar  988  0.2692081E+02  0.3012468E+01  0.8119953E+01  0.3003120E+03
Ar  989  0.2674928E+02  0.7732279E+00  0.1058555E+02  0.1656411E+03
Ar  990  0.2936737E+02  0.2856344E+01  0.1051583E+02  0.1834475E+01
Ar  991  0.2948176E+02  0.2347128E+00  0.1310593E+02  0.3993821E+02
Ar  992  0.2685254E+02  0.2761514E+01  0.1336824E+02  0.7291668E+03
Ar  993  0.2626727E+02  0.3232087E+00  0.1636483E+02  0.1126052E+03
Ar  994  0.2952881E+02  0.2684636E+01  0.1571562E+02  0.1870422E+03
Ar  995  0.2938359E+02  0.4711309E+00  0.1895250E+02  0.2829413E+03
Ar  996  0.2685816E+02  0.2262947E+01  0.1903054E+02  0.2383406E+03
Ar  997  0.2741373E+02  0.3764669E+02  0.2203316E+02  0.4904369E+03
Ar  998  0.2974234E+02  0.3295446E+01  0.2175308E+02  0.8901594E+03
Ar  999  0.2961874E+02  0.3753899E+02  0.2456666E+02  0.2676860E+03
Ar 1000  0.2678067E+02  0.2296367E+01  0.2458128E+02  0.7578494E+02
Ar 1001  0.2761860E+02  0.3755711E+02  0.2748584E+02  0.1112266E+04
Ar 1002  0.2983861E+02  0.2446864E+01  0.2718393E+02  0.5066011E+03
Ar 1003  0.3059261E+02  0.3737047E+02  0.3013671E+02  0.1985232E+03
Ar 1004  0.2695926E+02  0.2369490E+01  0.3015146E+02  0.1718523E+03
Ar 1005  0.2703380E+02  0.3693340E+02  0.3180411E+02  0.1094707E+03
Ar 1006  0.3003442E+02  0.2389524E+01  0.3211736E+02  0.1998536E+03
Ar 1007  0.2980053E+02  0.3771566E+02  0.3456813E+02  0.7229176E+03
Ar 1008  0.2722820E+02  0.2609152E+01  0.3498019E+02  0.1934414E+03
Ar 1009  0.2631708E+02  0.5314171E+01  0.3706665E+02  0.1350337E+03
Ar 1010  0.2882549E+02  0.7702753E+01  0.3754613E+02  0.2068758E+03
Ar 1011  0.2950660E+02  0.5042786E+01  0.3044517E+01  0.3959723E+03
Ar 1012  0.2683761E+02  0.7455927E+01  0.3102432E+01  0.2457504E+03
Ar 1013  0.2661672E+02  0.5359524E+01  0.5580382E+01  0.1209527E+03
Ar 1014  0.2913983E+02  0.8294369E+01  0.5649010E+01  0.3718828E+03
Ar 1015  0.2965497E+02  0.5714073E+01  0.8198432E+01  0.2543527E+03
Ar 1016  0.2684008E+02  0.8265871E+01  0.8047527E+01  0.2650233E+03
Ar 1017  0.2660614E+02  0.5786829E+01  0.1093622E+02  0.3672761E+03
Ar 1018  0.2930345E+02  0.8071833E+01  0.1055724E+02  0.1035851E+03
Ar 1019  0.2940429E+02  0.5272799E+01  0.1358195E+02  0.1386261E+03
Ar 1020  0.2720396E+02  0.8431403E+01  0.1357130E+02  0.6496431E+03
Ar 1021  0.2716564E+02  0.5413328E+01  0.1603364E+02  0.5229406E+03
Ar 1022  0.3035344E+02  0.8016704E+01  0.1534494E+02  0.1849342E+03
Ar 1023  0.2955342E+02  0.4892616E+01  0.1844331E+02  0.1250874E+03
Ar 1024  0.2672279E+02  0.8256967E+01  0.1930580E+02  0.1197878E+03
Ar 1025  0.2673758E+02  0.4844719E+01  0.2141901E+02  0.4433654E+03
Ar 1026  0.2923154E+02  0.7516875E+01  0.2158601E+02  0.1986055E+03
Ar 1027  0.2896835E+02  0.5393086E+01  0.2429563E+02  0.1501988E+03
Ar 1028  0.2707190E+02  0.8753560E+01  0.2396002E+02  0.3207630E+02
Ar 1029  0.2734810E+02  0.5149507E+01  0.2741627E+02  0.5588852E+02
Ar 1030  0.2916961E+02  0.8318134E+01  0.2714220E+02  0.9397818E+03
Ar 1031  0.2994777E+02  0.5200882E+01  0.3009514E+02  0.8018167E+02
Ar 1032  0.2649786E+02  0.7805370E+01  0.2960205E+02  0.3189875E+03
Ar 1033  0.2698769E+02  0.5186843E+01  0.3199343E+02  0.2068520E+03
Ar 1034  0.2934080E+02  0.8130757E+01  0.3202380E+02  0.5260544E+03
Ar 1035  0.3013571E+02  0.4867311E+01  0.3455712E+02  0.1515807E+03
Ar 1036  0.2654131E+02  0.7483142E+01  0.3460741E+02  0.4384053E+03
Ar 1037  0.2614106E+02  0.1019577E+02  0.3663906E+02  0.2125638E+03
Ar 1038  0.2884645E+02  0.1288469E+02  0.3765161E+02  0.3482347E+03
Ar 1039  0.2899203E+02  0.1044178E+02  0.2640186E+01  0.5145682E+03
Ar 1040  0.2685086E+02  0.1348584E+02  0.2551894E+01  0.9956416E+03
Ar 1041  0.2656741E+02  0.1056367E+02  0.5327992E+01  0.8671186E+02
Ar 1042  0.2926800E+02  0.1304193E+02  0.5526646E+01  0.1402148E+03
Ar 1043  0.2922366E+02  0.1092879E+02  0.8237138E+01  0.3060660E+03
Ar 1044  0.2681547E+02  0.1366742E+02  0.8776717E+01  0.4569765E+03
Ar 1045  0.2704823E+02  0.1072892E+02  0.1094462E+02  0.6768035E+03
Ar 1046  0.2985252E+02  0.1291524E+02  0.1094439E+02  0.2498895E+03
Ar 1047  0.3029072E+02  0.1060905E+02  0.1314917E+02  0.1328061E+03
Ar 1048  0.2681280E+02  0.1423174E+02  0.1365439E+02  0.1116096E+03
Ar 1049  0.2730270E+02  0.1103197E+02  0.1584601E+02  0.2705346E+02
Ar 1050  0.2995236E+02  0.1366822E+02  0.1533684E+02  0.2013925E+03
Ar 1051  0.2890789E+02  0.1092313E+02  0.1892923E+02  0.2087617E+03
Ar 1052  0.2671437E+02  0.1435712E+02  0.1873941E+02  0.1239197E+03
Ar 1053  0.2641411E+02  0.1165906E+02  0.2153538E+02  0.1488881E+03
Ar 1054  0.2945248E+02  0.1369264E+02  0.2077829E+02  0.1392553E+03
Ar 1055  0.2926167E+02  0.1132157E+02  0.2416575E+02  0.3431966E+03
Ar 1056  0.2679958E+02  0.1390355E+02  0.2424425E+02  0.1297514E+03
Ar 1057  0.2610420E+02  0.1074833E+02  0.2703460E+02  0.4526719E+02
Ar 1058  0.2948025E+02  0.1313333E+02  0.2723603E+02  0.1186738E+03
Ar 1059  0.2990940E+02  0.1056163E+02  0.2956947E+02  0.8727113E+02
Ar 1060  0.2676243E+02  0.1360432E+02  0.2932773E+02  0.3806721E+03
Ar 1061  0.2645663E+02  0.1112752E+02  0.3208287E+02  0.3873317E+03
Ar 1062  0.2969601E+02  0.1299535E+02  0.3250708E+02  0.3211400E+03
Ar 1063  0.2940925E+02  0.1015069E+02  0.3485555E+02  0.1267388E+02
Ar 1064  0.2687400E+02  0.1315090E+02  0.3477357E+02  0.5695513E+03
Ar 1065  0.2695339E+02  0.1622490E+02  0.2754270E+00  0.4488675E+03
Ar 1066  0.2979076E+02  0.1802289E+02  0.3276606E+00  0.2694157E+03
Ar 1067  0.2985745E+02  0.1583975E+02  0.2761940E+01  0.3911929E+03
Ar 1068  0.2683770E+02  0.1863258E+02  0.3222176E+01  0.1348035E+03
Ar 1069  0.2676991E+02  0.1644553E+02  0.6239505E+01  0.6826515E+03
Ar 1070  0.2954881E+02  0.1847051E+02  0.6006057E+01  0.4829358E+03
Ar 1071  0.3009376E+02  0.1612698E+02  0.8323786E+01  0.4931220E+02
Ar 1072  0.2744079E+02  0.1908778E+02  0.8572257E+01  0.1208890E+04
Ar 1073  0.2714703E+02  0.1661736E+02  0.1120846E+02  0.1007351E+03
Ar 1074  0.3005690E+02  0.1943581E+02  0.1136035E+02  0.5365696E+03
Ar 1075  0.2989629E+02  0.1642670E+02  0.1348777E+02  0.8812762E+03
Ar 1076  0.2706644E+02  0.1956426E+02  0.1340505E+02  0.1987340E+03
Ar 1077  0.2662911E+02  0.1670518E+02  0.1624292E+02  0.4366833E+03
Ar 1078  0.3016409E+02  0.1892172E+02  0.1652938E+02  0.1821682E+03
Ar 1079  0.2924636E+02  0.1654667E+02  0.1882788E+02  0.1822346E+03
Ar 1080  0.2691080E+02  0.1935964E+02  0.1846518E+02  0.2631316E+03
Ar 1081  0.2690806E+02  0.1629438E+02  0.2132507E+02  0.2093610E+03
Ar 1082  0.2939641E+02  0.1876887E+02  0.2193523E+02  0.4115027E+03
Ar 1083  0.2905589E+02  0.1633498E+02  0.2430566E+02  0.7160534E+02
Ar 1084  0.2723430E+02  0.1932143E+02  0.2486650E+02  0.2880477E+03
Ar 1085  0.2721902E+02  0.1662113E+02  0.2708942E+02  0.3179686E+03
Ar 1086  0.2997786E+02  0.1910697E+02  0.2717089E+02  0.3491614E+03
Ar 1087  0.2973060E+02  0.1580789E+02  0.2960547E+02  0.2954831E+03
Ar 1088  0.2655050E+02  0.1904758E+02  0.2956085E+02  0.3162422E+03
Ar 1089  0.2673349E+02  0.1599386E+02  0.3224387E+02  0.2153661E+03
Ar 1090  0.3000593E+02  0.1843298E+02  0.3231973E+02  0.3527180E+03
Ar 1091  0.2994999E+02  0.1574500E+02  0.3526624E+02  0.2963219E+03
Ar 1092  0.2747855E+02  0.1874370E+02  0.3530572E+02  0.3008392E+03
Ar 1093  0.2763127E+02  0.2083920E+02  0.3052112E+00  0.2104839E+02
Ar 1094  0.3012358E+02  0.2400709E+02  0.1101242E+01  0.2637282E+03
Ar 1095  0.2995482E+02  0.2057414E+02  0.3069319E+01  0.1743339E+03
Ar 1096  0.2764619E+02  0.2502957E+02  0.2943541E+01  0.1648169E+03
Ar 1097  0.2640502E+02  0.2203958E+02  0.4889721E+01  0.3514485E+03
Ar 1098  0.3009313E+02  0.2384520E+02  0.5918126E+01  0.4938269E+01
Ar 1099  0.3013027E+02  0.2117941E+02  0.8182361E+01  0.6017147E+03
Ar 1100  0.2664039E+02  0.2424387E+02  0.7688375E+01  0.4264785E+03
Ar 1101  0.2699573E+02  0.2210116E+02  0.1102165E+02  0.8831450E+02
Ar 1102  0.2942436E+02  0.2421588E+02  0.9621246E+01  0.1596803E+03
Ar 1103  0.2978055E+02  0.2174563E+02  0.1437283E+02  0.5840452E+03
Ar 1104  0.2662154E+02  0.2507350E+02  0.1363829E+02  0.7825719E+02
Ar 1105  0.2658898E+02  0.2208124E+02  0.1616869E+02  0.2689060E+03
Ar 1106  0.2959672E+02  0.2448977E+02  0.1637301E+02  0.2169563E+03
Ar 1107  0.2941615E+02  0.2180678E+02  0.1849909E+02  0.3525263E+03
Ar 1108  0.2718534E+02  0.2441429E+02  0.1923887E+02  0.7333117E+03
Ar 1109  0.2716702E+02  0.2135653E+02  0.2166431E+02  0.2550774E+03
Ar 1110  0.2959959E+02  0.2382834E+02  0.2197161E+02  0.1099736E+03
Ar 1111  0.2994796E+02  0.2176130E+02  0.2455431E+02  0.6020526E+03
Ar 1112  0.2708030E+02  0.2397461E+02  0.2459313E+02  0.2864935E+03
Ar 1113  0.2765746E+02  0.2185403E+02  0.2779274E+02  0.1934653E+03
Ar 1114  0.2988682E+02  0.2446934E+02  0.2709602E+02  0.2675203E+03
Ar 1115  0.3005027E+02  0.2163738E+02  0.3056352E+02  0.1495619E+03
Ar 1116  0.2720355E+02  0.2449635E+02  0.2995983E+02  0.3278740E+03
Ar 1117  0.2707597E+02  0.2138064E+02  0.3250562E+02  0.3176778E+03
Ar 1118  0.3031757E+02  0.2442544E+02  0.3258711E+02  0.2657554E+03
Ar 1119  0.2998418E+02  0.2116048E+02  0.3507615E+02  0.8579162E+02
Ar 1120  0.2761768E+02  0.2466943E+02  0.3448512E+02  0.2629620E+02
Ar 1121  0.2746134E+02  0.2736241E+02  0.3771276E+02  0.1668366E+03
Ar 1122  0.3019020E+02  0.2984843E+02  0.1162884E+00  0.1987049E+03
Ar 1123  0.3010051E+02  0.2758522E+02  0.3791469E+01  0.4955038E+02
Ar 1124  0.2777873E+02  0.2965834E+02  0.2799203E+01  0.1531487E+03
Ar 1125  0.2718718E+02  0.2710072E+02  0.5847856E+01  0.4087985E+02
Ar 1126  0.2989900E+02  0.3006958E+02  0.5862032E+01  0.2093394E+03
Ar 1127  0.2913292E+02  0.2747066E+02  0.8540609E+01  0.2199589E+03
Ar 1128  0.2755884E+02  0.3025604E+02  0.8498567E+01  0.8822830E+02
Ar 1129  0.2707232E+02  0.2668145E+02  0.1074557E+02  0.3487871E+02
Ar 1130  0.2971901E+02  0.2977163E+02  0.1138158E+02  0.1236928E+03
Ar 1131  0.3008049E+02  0.2687791E+02  0.1373999E+02  0.8656471E+02
Ar 1132  0.2704755E+02  0.3032814E+02  0.1380677E+02  0.1103409E+03
Ar 1133  0.2730517E+02  0.2719327E+02  0.1679140E+02  0.1700861E+03
Ar 1134  0.2959327E+02  0.2955500E+02  0.1630718E+02  0.7925995E+02
Ar 1135  0.2980621E+02  0.2731621E+02  0.1942303E+02  0.2018327E+03
Ar 1136  0.2770883E+02  0.2992150E+02  0.1924898E+02  0.2835742E+03
Ar 1137  0.2722332E+02  0.2696237E+02  0.2198689E+02  0.2626438E+03
Ar 1138  0.3004169E+02  0.2995908E+02  0.2176544E+02  0.1151216E+03
Ar 1139  0.2982269E+02  0.2685416E+02  0.2443704E+02  0.3384400E+03
Ar 1140  0.2776465E+02  0.2970063E+02  0.2418057E+02  0.2117675E+03
Ar 1141  0.2732932E+02  0.2712569E+02  0.2703472E+02  0.3766408E+03
Ar 1142  0.3065601E+02  0.2991594E+02  0.2663218E+02  0.1966029E+03
Ar 1143  0.3016044E+02  0.2699173E+02  0.2983834E+02  0.1256578E+03
Ar 1144  0.2734503E+02  0.3065017E+02  0.2980955E+02  0.2155563E+03
Ar 1145  0.2760075E+02  0.2722945E+02  0.3185141E+02  0.2791406E+03
Ar 1146  0.3006579E+02  0.3012892E+02  0.3202139E+02  0.3790034E+03
Ar 1147  0.3039531E+02  0.2713496E+02  0.3502419E+02  0.3540968E+03
Ar 1148  0.2754460E+02  0.2986678E+02  0.3508284E+02  0.1297106E+03
Ar 1149  0.2744927E+02  0.3240929E+02  0.3775043E+02  0.2656386E+03
Ar 1150  0.3001924E+02  0.3526774E+02  0.1322999E+00  0.2069003E+03
Ar 1151  0.2977656E+02  0.3224459E+02  0.2787812E+01  0.9077662E+02
Ar 1152  0.2644129E+02  0.3545126E+02  0.2614974E+01  0.1322660E+03
Ar 1153  0.2706439E+02  0.3267167E+02  0.5214175E+01  0.5811932E+03
Ar 1154  0.2969690E+02  0.3599096E+02  0.5446752E+01  0.1541629E+03
Ar 1155  0.2938793E+02  0.3352343E+02  0.7962042E+01  0.7450666E+03
Ar 1156  0.2672926E+02  0.3582497E+02  0.7817783E+01  0.8447432E+02
Ar 1157  0.2657995E+02  0.3264576E+02  0.1104269E+02  0.2156333E+03
Ar 1158  0.2933077E+02  0.3513754E+02  0.1100567E+02  0.5746823E+03
Ar 1159  0.2918375E+02  0.3269397E+02  0.1373399E+02  0.1353733E+03
Ar 1160  0.2692115E+02  0.3560576E+02  0.1371320E+02  0.7256423E+03
Ar 1161  0.2700466E+02  0.3243231E+02  0.1652820E+02  0.8078869E+02
Ar 1162  0.2959558E+02  0.3541767E+02  0.1597251E+02  0.3040454E+03
Ar 1163  0.3014753E+02  0.3259631E+02  0.1915814E+02  0.3930552E+03
Ar 1164  0.2770949E+02  0.3516277E+02  0.1945607E+02  0.2553489E+03
Ar 1165  0.2768970E+02  0.3273379E+02  0.2200037E+02  0.1230745E+03
Ar 1166  0.3016948E+02  0.3514784E+02  0.2207781E+02  0.1838591E+02
Ar 1167  0.3092260E+02  0.3241596E+02  0.2414611E+02  0.2018498E+03
Ar 1168  0.2747784E+02  0.3507556E+02  0.2425760E+02  0.1114372E+04
Ar 1169  0.2822944E+02  0.3239642E+02  0.2696187E+02  0.2316349E+03
Ar 1170  0.3012377E+02  0.3496676E+02  0.2684418E+02  0.1476768E+03
Ar 1171  0.3081579E+02  0.3250362E+02  0.2959878E+02  0.1433588E+03
Ar 1172  0.2754590E+02  0.3470015E+02  0.2922151E+02  0.3733271E+03
Ar 1173  0.2753585E+02  0.3291908E+02  0.3228016E+02  0.3870809E+03
Ar 1174  0.3024463E+02  0.3508588E+02  0.3277436E+02  0.3207426E+03
Ar 1175  0.3274224E+02  0.3258043E+02  0.3269006E+02  0.4232575E+02
Ar 1176  0.2756369E+02  0.3508231E+02  0.3536677E+02  0.2288667E+03
Ar 1177  0.3275293E+02  0.1389246E+00  0.4817115E+00  0.2757638E+03
Ar 1178  0.3563925E+02  0.2875189E+01  0.8419775E-01  0.2212751E+03
Ar 1179  0.3552041E+02  0.5209471E+00  0.3268198E+01  0.3515826E+02
Ar 1180  0.3248982E+02  0.2784774E+01  0.2887703E+01  0.2052273E+03
Ar 1181  0.3255824E+02  0.6718853E+00  0.5591573E+01  0.1576094E+03
Ar 1182  0.3519548E+02  0.2987005E+01  0.5732141E+01  0.1436506E+04
Ar 1183  0.3526938E+02  0.3767597E+02  0.7993092E+01  0.2825313E+03
Ar 1184  0.3249088E+02  0.2391978E+01  0.8465072E+01  0.1435576E+03
Ar 1185  0.3284399E+02  0.3748053E+02  0.1148808E+02  0.4765644E+03
Ar 1186  0.3561537E+02  0.2507413E+01  0.1022721E+02  0.6006024E+02
Ar 1187  0.3545259E+02  0.6637813E+00  0.1296430E+02  0.1917660E+03
Ar 1188  0.3216175E+02  0.2973209E+01  0.1356821E+02  0.3173692E+03
Ar 1189  0.3197124E+02  0.3769703E+02  0.1511970E+02  0.1835237E+03
Ar 1190  0.3490352E+02  0.3246077E+01  0.1593664E+02  0.5335806E+03
Ar 1191  0.3538876E+02  0.4214027E+00  0.1898642E+02  0.1950376E+03
Ar 1192  0.3219080E+02  0.2200837E+01  0.1833231E+02  0.4105626E+03
Ar 1193  0.3245151E+02  0.4634138E+00  0.2124273E+02  0.1491133E+03
Ar 1194  0.3546764E+02  0.2786425E+01  0.2157806E+02  0.2854062E+03
Ar 1195  0.3576537E+02  0.8680849E+00  0.2469937E+02  0.4118953E+03
Ar 1196  0.3258416E+02  0.2421268E+01  0.2413934E+02  0.3330259E+02
Ar 1197  0.3323311E+02  0.3767401E+02  0.2723291E+02  0.1178558E+03
Ar 1198  0.3580148E+02  0.2684463E+01  0.2730919E+02  0.7980278E+02
Ar 1199  0.3548491E+02  0.3771289E+02  0.2990423E+02  0.2565416E+03
Ar 1200  0.3282421E+02  0.2310344E+01  0.2967470E+02  0.5334766E+03
Ar 1201  0.3356169E+02  0.3717440E+02  0.3281339E+02  0.6072108E+02
Ar 1202  0.3547306E+02  0.2763066E+01  0.3251566E+02  0.9402392E+02
Ar 1203  0.3521922E+02  0.3775099E+02  0.3551162E+02  0.1983466E+03
Ar 1204  0.3277696E+02  0.2335042E+01  0.3497173E+02  0.8076956E+03
Ar 1205  0.3218271E+02  0.4672006E+01  0.2596297E+00  0.3517552E+03
Ar 1206  0.3509119E+02  0.8400826E+01  0.3557460E+00  0.1379170E+03
Ar 1207  0.3491433E+02  0.5445451E+01  0.2667167E+01  0.1599106E+03
Ar 1208  0.3136874E+02  0.7979837E+01  0.2784153E+01  0.4878062E+03
Ar 1209  0.3182617E+02  0.5555008E+01  0.5383696E+01  0.3361848E+03
Ar 1210  0.3501556E+02  0.7636114E+01  0.5356540E+01  0.2600415E+03
Ar 1211  0.3467909E+02  0.5452192E+01  0.8207075E+01  0.4976116E+03
Ar 1212  0.3213013E+02  0.8166403E+01  0.8378832E+01  0.2089816E+02
Ar 1213  0.3201723E+02  0.4995875E+01  0.1068264E+02  0.4479535E+03
Ar 1214  0.3533833E+02  0.7904529E+01  0.1070791E+02  0.3081959E+03
Ar 1215  0.3491275E+02  0.5123381E+01  0.1256013E+02  0.3763352E+03
Ar 1216  0.3290196E+02  0.8270088E+01  0.1333184E+02  0.5456975E+03
Ar 1217  0.3212131E+02  0.5441724E+01  0.1649929E+02  0.6304571E+02
Ar 1218  0.3522495E+02  0.7245845E+01  0.1550279E+02  0.4335431E+01
Ar 1219  0.3442141E+02  0.5563990E+01  0.1931155E+02  0.2658741E+03
Ar 1220  0.3221824E+02  0.8090840E+01  0.1906319E+02  0.3906081E+02
Ar 1221  0.3226760E+02  0.5710263E+01  0.2252617E+02  0.4801830E+03
Ar 1222  0.3465796E+02  0.8424595E+01  0.2234849E+02  0.6376653E+02
Ar 1223  0.3518931E+02  0.5352851E+01  0.2471558E+02  0.2295519E+03
Ar 1224  0.3212736E+02  0.8397434E+01  0.2476735E+02  0.7470332E+03
Ar 1225  0.3214811E+02  0.5436638E+01  0.2714156E+02  0.1482571E+03
Ar 1226  0.3456618E+02  0.8213481E+01  0.2686626E+02  0.1770469E+03
Ar 1227  0.3507532E+02  0.5458006E+01  0.2910518E+02  0.3185205E+03
Ar 1228  0.3212662E+02  0.7832389E+01  0.2978469E+02  0.1360900E+03
Ar 1229  0.3287342E+02  0.5144386E+01  0.3224296E+02  0.3843884E+03
Ar 1230  0.3469900E+02  0.8220637E+01  0.3233016E+02  0.1366911E+03
Ar 1231  0.3496715E+02  0.5684597E+01  0.3576860E+02  0.1417362E+03
Ar 1232  0.3199537E+02  0.7437136E+01  0.3562417E+02  0.1152777E+03
Ar 1233  0.3164536E+02  0.1031810E+02  0.3766233E+02  0.1631716E+03
Ar 1234  0.3513384E+02  0.1283905E+02  0.2910417E+00  0.5163889E+03
Ar 1235  0.3536006E+02  0.1081130E+02  0.2859573E+01  0.1067939E+03
Ar 1236  0.3249307E+02  0.1278109E+02  0.2804683E+01  0.8188427E+02
Ar 1237  0.3274973E+02  0.1013434E+02  0.5401522E+01  0.3713693E+03
Ar 1238  0.3484685E+02  0.1316902E+02  0.5422917E+01  0.2838245E+03
Ar 1239  0.3495018E+02  0.1044554E+02  0.7951711E+01  0.2331325E+02
Ar 1240  0.3205820E+02  0.1320741E+02  0.8265472E+01  0.5115349E+03
Ar 1241  0.3287168E+02  0.1076495E+02  0.1093329E+02  0.2528886E+03
Ar 1242  0.3490401E+02  0.1310123E+02  0.1049578E+02  0.1259762E+04
Ar 1243  0.3520387E+02  0.1079992E+02  0.1357036E+02  0.2782687E+03
Ar 1244  0.3247715E+02  0.1355699E+02  0.1335495E+02  0.1432134E+03
Ar 1245  0.3244827E+02  0.1075291E+02  0.1615018E+02  0.2457761E+02
Ar 1246  0.3503894E+02  0.1351865E+02  0.1619492E+02  0.3731309E+02
Ar 1247  0.3488056E+02  0.1099649E+02  0.1910219E+02  0.2093487E+03
Ar 1248  0.3170788E+02  0.1304865E+02  0.1860471E+02  0.3623403E+03
Ar 1249  0.3173890E+02  0.1092168E+02  0.2179767E+02  0.2622453E+03
Ar 1250  0.3433805E+02  0.1375637E+02  0.2142904E+02  0.7111165E+02
Ar 1251  0.3433666E+02  0.1117032E+02  0.2423047E+02  0.4784259E+03
Ar 1252  0.3208145E+02  0.1385793E+02  0.2431755E+02  0.1188815E+03
Ar 1253  0.3226465E+02  0.1092288E+02  0.2738630E+02  0.4352284E+03
Ar 1254  0.3537406E+02  0.1383474E+02  0.2703511E+02  0.3566790E+03
Ar 1255  0.3460386E+02  0.1038268E+02  0.2955458E+02  0.1159295E+03
Ar 1256  0.3222256E+02  0.1299026E+02  0.3028470E+02  0.7641691E+02
Ar 1257  0.3187535E+02  0.9945498E+01  0.3277484E+02  0.4332291E+03
Ar 1258  0.3476346E+02  0.1258277E+02  0.3304667E+02  0.3224468E+03
Ar 1259  0.3481096E+02  0.1044985E+02  0.3553748E+02  0.3043421E+03
Ar 1260  0.3197412E+02  0.1282396E+02  0.3499337E+02  0.3027482E+03
Ar 1261  0.3247143E+02  0.1531029E+02  0.3775020E+02  0.3581818E+02
Ar 1262  0.3497783E+02  0.1811193E+02  0.3777189E+02  0.9937002E+02
Ar 1263  0.3504049E+02  0.1573862E+02  0.2616104E+01  0.2783535E+03
Ar 1264  0.3241424E+02  0.1822644E+02  0.3044511E+01  0.1061361E+04
Ar 1265  0.3265927E+02  0.1591767E+02  0.5573631E+01  0.5690489E+03
Ar 1266  0.3529291E+02  0.1849785E+02  0.5682597E+01  0.2679743E+03
Ar 1267  0.3463999E+02  0.1567626E+02  0.8289109E+01  0.1691893E+03
Ar 1268  0.3271893E+02  0.1902140E+02  0.8265755E+01  0.4044096E+03
Ar 1269  0.3232149E+02  0.1637519E+02  0.1078627E+02  0.1245393E+03
Ar 1270  0.3473584E+02  0.1914438E+02  0.1101930E+02  0.3041072E+03
Ar 1271  0.3484973E+02  0.1567837E+02  0.1355464E+02  0.7161859E+03
Ar 1272  0.3255032E+02  0.1904896E+02  0.1380265E+02  0.1195894E+03
Ar 1273  0.3201310E+02  0.1590655E+02  0.1646937E+02  0.2049698E+03
Ar 1274  0.3497130E+02  0.1878033E+02  0.1604210E+02  0.7544791E+02
Ar 1275  0.3499834E+02  0.1593862E+02  0.1891638E+02  0.3944740E+03
Ar 1276  0.3282055E+02  0.1873869E+02  0.1872663E+02  0.5876710E+03
Ar 1277  0.3182239E+02  0.1626638E+02  0.2134671E+02  0.9671105E+02
Ar 1278  0.3440544E+02  0.1854052E+02  0.2173728E+02  0.3185583E+03
Ar 1279  0.3472230E+02  0.1622610E+02  0.2427656E+02  0.1334096E+03
Ar 1280  0.3179345E+02  0.1837864E+02  0.2414901E+02  0.3863045E+03
Ar 1281  0.3202873E+02  0.1586908E+02  0.2718728E+02  0.3266629E+03
Ar 1282  0.3494789E+02  0.1880432E+02  0.2679900E+02  0.2674961E+02
Ar 1283  0.3513655E+02  0.1644469E+02  0.2895936E+02  0.2026299E+03
Ar 1284  0.3228640E+02  0.1846213E+02  0.2969490E+02  0.3553717E+03
Ar 1285  0.3246854E+02  0.1609489E+02  0.3207426E+02  0.6037105E+03
Ar 1286  0.3494345E+02  0.1858843E+02  0.3259415E+02  0.7435960E+02
Ar 1287  0.3502340E+02  0.1575515E+02  0.3502461E+02  0.2637703E+03
Ar 1288  0.3246121E+02  0.1843047E+02  0.3535187E+02  0.5767935E+03
Ar 1289  0.3265032E+02  0.2125280E+02  0.4890100E+00  0.6349738E+03
Ar 1290  0.3497294E+02  0.2415013E+02  0.8122217E+00  0.9703337E+02
Ar 1291  0.3524160E+02  0.2181530E+02  0.3209948E+01  0.1683917E+02
Ar 1292  0.3256184E+02  0.2459251E+02  0.3494554E+01  0.1620109E+03
Ar 1293  0.3282834E+02  0.2142545E+02  0.5656955E+01  0.3385072E+03
Ar 1294  0.3512762E+02  0.2417547E+02  0.5470951E+01  0.2352441E+03
Ar 1295  0.3557619E+02  0.2104942E+02  0.8312968E+01  0.1465879E+03
Ar 1296  0.3262730E+02  0.2406562E+02  0.8831485E+01  0.5138973E+03
Ar 1297  0.3196567E+02  0.2196277E+02  0.1134397E+02  0.5324126E+03
Ar 1298  0.3483718E+02  0.2350467E+02  0.1124860E+02  0.5266009E+03
Ar 1299  0.3520422E+02  0.2141027E+02  0.1400181E+02  0.7011581E+03
Ar 1300  0.3258187E+02  0.2418947E+02  0.1416135E+02  0.4111937E+02
Ar 1301  0.3266384E+02  0.2155530E+02  0.1666967E+02  0.2141792E+03
Ar 1302  0.3526370E+02  0.2431986E+02  0.1612569E+02  0.1185565E+04
Ar 1303  0.3522001E+02  0.2169938E+02  0.1875269E+02  0.1175482E+03
Ar 1304  0.3185112E+02  0.2400483E+02  0.1892318E+02  0.5963371E+03
Ar 1305  0.3198444E+02  0.2120829E+02  0.2105330E+02  0.4235920E+03
Ar 1306  0.3508216E+02  0.2343595E+02  0.2140287E+02  0.6583319E+03
Ar 1307  0.3487956E+02  0.2129289E+02  0.2482753E+02  0.3925023E+03
Ar 1308  0.3294505E+02  0.2361068E+02  0.2392214E+02  0.3273237E+03
Ar 1309  0.3207152E+02  0.2164972E+02  0.2757675E+02  0.1266986E+03
Ar 1310  0.3550058E+02  0.2466585E+02  0.2656821E+02  0.5777632E+03
Ar 1311  0.3487823E+02  0.2110204E+02  0.2956534E+02  0.7466589E+03
Ar 1312  0.3251992E+02  0.2446805E+02  0.2956777E+02  0.3030413E+03
Ar 1313  0.3278458E+02  0.2130427E+02  0.3268382E+02  0.8753511E+02
Ar 1314  0.3497603E+02  0.2412839E+02  0.3348040E+02  0.3405639E+03
Ar 1315  0.3494143E+02  0.2153493E+02  0.3556202E+02  0.3723708E+03
Ar 1316  0.3195735E+02  0.2388544E+02  0.3598981E+02  0.2379043E+03
Ar 1317  0.3234648E+02  0.2698109E+02  0.6789780E+00  0.7156484E+03
Ar 1318  0.3540139E+02  0.2935089E+02  0.5273812E-01  0.5956170E+02
Ar 1319  0.3533212E+02  0.2676458E+02  0.2578130E+01  0.5195151E+02
Ar 1320  0.3287501E+02  0.3016081E+02  0.3412019E+01  0.1582389E+03
Ar 1321  0.3295586E+02  0.2713768E+02  0.5894514E+01  0.9438550E+02
Ar 1322  0.3550419E+02  0.2997416E+02  0.6480186E+01  0.1293752E+04
Ar 1323  0.3494397E+02  0.2680064E+02  0.9024600E+01  0.1392660E+03
Ar 1324  0.3238376E+02  0.2967559E+02  0.8308083E+01  0.2657347E+03
Ar 1325  0.3201337E+02  0.2701960E+02  0.1089802E+02  0.2246058E+02
Ar 1326  0.3473805E+02  0.2998850E+02  0.1092842E+02  0.2187999E+03
Ar 1327  0.3485787E+02  0.2760669E+02  0.1307252E+02  0.5058939E+03
Ar 1328  0.3260201E+02  0.2989574E+02  0.1361168E+02  0.2068749E+03
Ar 1329  0.3263221E+02  0.2689621E+02  0.1607830E+02  0.1273351E+03
Ar 1330  0.3488992E+02  0.2973734E+02  0.1650568E+02  0.2103682E+03
Ar 1331  0.3475562E+02  0.2648364E+02  0.1889411E+02  0.2102551E+03
Ar 1332  0.3235280E+02  0.2962290E+02  0.1883946E+02  0.2633520E+03
Ar 1333  0.3237149E+02  0.2675948E+02  0.2161523E+02  0.8605607E+02
Ar 1334  0.3464454E+02  0.3003148E+02  0.2122364E+02  0.5851848E+02
Ar 1335  0.3545555E+02  0.2675796E+02  0.2347102E+02  0.2608456E+03
Ar 1336  0.3263660E+02  0.2904668E+02  0.2382837E+02  0.1553345E+03
Ar 1337  0.3247346E+02  0.2675038E+02  0.2678911E+02  0.2683403E+03
Ar 1338  0.3502836E+02  0.2931418E+02  0.2684188E+02  0.2028275E+03
Ar 1339  0.3505906E+02  0.2707392E+02  0.2926852E+02  0.1068691E+03
Ar 1340  0.3304468E+02  0.2964133E+02  0.2952499E+02  0.4647145E+03
Ar 1341  0.3319273E+02  0.2704278E+02  0.3245008E+02  0.9342828E+02
Ar 1342  0.3568880E+02  0.3018510E+02  0.3230098E+02  0.1060624E+03
Ar 1343  0.3541206E+02  0.2664475E+02  0.3593684E+02  0.1733093E+03
Ar 1344  0.3266695E+02  0.3003735E+02  0.3541985E+02  0.3463854E+03
Ar 1345  0.3038199E+02  0.3274240E+02  0.3526996E+02  0.1169580E+03
Ar 1346  0.2070819E+00  0.3527829E+02  0.2957969E+01  0.6844561E+03
Ar 1347  0.3505431E+02  0.3234104E+02  0.2860708E+01  0.3787193E+02
Ar 1348  0.3237126E+02  0.3517453E+02  0.3207982E+01  0.5798374E+03
Ar 1349  0.3294828E+02  0.3233210E+02  0.6111861E+01  0.3529283E+03
Ar 1350  0.3556976E+02  0.3535060E+02  0.5680842E+01  0.4114395E+03
Ar 1351  0.3498055E+02  0.3249665E+02  0.8751459E+01  0.5764980E+02
Ar 1352  0.3278026E+02  0.3549934E+02  0.7968925E+01  0.3769321E+03
Ar 1353  0.3201116E+02  0.3238470E+02  0.1057224E+02  0.1139860E+03
Ar 1354  0.3515705E+02  0.3500893E+02  0.1089018E+02  0.7825977E+03
Ar 1355  0.3486830E+02  0.3256899E+02  0.1326823E+02  0.1341437E+03
Ar 1356  0.3198431E+02  0.3455453E+02  0.1368841E+02  0.6286334E+02
Ar 1357  0.3181399E+02  0.3221642E+02  0.1628891E+02  0.1333922E+04
Ar 1358  0.3506514E+02  0.3535775E+02  0.1546092E+02  0.7508104E+02
Ar 1359  0.3461315E+02  0.3261387E+02  0.1834560E+02  0.8299204E+03
Ar 1360  0.3173077E+02  0.3557959E+02  0.1865292E+02  0.1035560E+03
Ar 1361  0.3282513E+02  0.3312709E+02  0.2115604E+02  0.1705354E+03
Ar 1362  0.3532697E+02  0.3554740E+02  0.2118689E+02  0.6703776E+03
Ar 1363  0.3516980E+02  0.3237783E+02  0.2382739E+02  0.2638377E+03
Ar 1364  0.3341533E+02  0.3603928E+02  0.2381072E+02  0.1083130E+03
Ar 1365  0.3357673E+02  0.3288239E+02  0.2693949E+02  0.1828155E+03
Ar 1366  0.3594762E+02  0.3524596E+02  0.2710818E+02  0.2795759E+03
Ar 1367  0.3591209E+02  0.3147551E+02  0.2928154E+02  0.1697843E+03
Ar 1368  0.3346588E+02  0.3514179E+02  0.2986007E+02  0.2824372E+02
Ar 1369  0.3271405E+02  0.3268936E+02  0.4109794E+00  0.2139033E+03
Ar 1370  0.3601802E+02  0.3486495E+02  0.3260305E+02  0.5104977E+03
Ar 1371  0.3614513E+02  0.3217424E+02  0.3530226E+02  0.2331879E+03
Ar 1372  0.3275717E+02  0.3528103E+02  0.3544457E+02  0.2367849E+03
