        1372
Lattice="  0.3778015E+02  0.0000000E+00  0.0000000E+00  0.0000000E+00  0.3778015E+02  0.0000000E+00  0.0000000E+00  0.0000000E+00  0.3778015E+02" Properties=species:S:1:id:I:1:pos:R:3:tempK:R:1
Ar    1  0.3965783E+00  0.3732656E+02  0.9023038E+00  0.3331234E+03
Ar    2  0.2495275E+01  0.2908871E+01  0.1520409E+01  0.7158591E+02
Ar    3  0.3174846E+01  0.3777311E+02  0.3322646E+01  0.2671348E+03
Ar    4  0.3191129E-01  0.2379969E+01  0.3893730E+01  0.7526249E+03
Ar    5  0.3728340E+02  0.3708927E+02  0.5977761E+01  0.1252979E+03
Ar    6  0.2448206E+01  0.2236884E+01  0.6204920E+01  0.2915797E+03
Ar    7  0.1796010E+01  0.3724939E+02  0.8531124E+01  0.4209411E+03
Ar    8  0.1844421E+00  0.1750546E+01  0.1004551E+02  0.1618082E+03
Ar    9  0.3538352E+02  0.9850940E+00  0.1266411E+02  0.5417489E+03
Ar   10  0.5449665E+01  0.3560837E+01  0.1102365E+02  0.3961463E+03
Ar   11  0.2438378E+01  0.1509069E+01  0.1267852E+02  0.4721365E+03
Ar   12  0.3740609E+02  0.3700253E+01  0.1264028E+02  0.4300655E+03
Ar   13  0.3757626E+02  0.1220257E+01  0.1540123E+02  0.7018388E+03
Ar   14  0.5640807E+01  0.3516067E+01  0.1426439E+02  0.4663261E+02
Ar   15  0.4920448E+01  0.1579210E+01  0.1684890E+02  0.3550350E+03
Ar   16  0.3724417E+02  0.3187991E+01  0.1852416E+02  0.3543676E+03
Ar   17  0.5329713E-01  0.4760956E+00  0.2109279E+02  0.4923493E+02
Ar   18  0.2672456E+01  0.6236067E+00  0.1902535E+02  0.1452010E+04
Ar   19  0.3383457E+01  0.3035960E+00  0.2317501E+02  0.5316726E+03
Ar   20  0.5811848E+00  0.2800401E+01  0.2431527E+02  0.2859286E+03
Ar   21  0.5139749E+00  0.6228537E+00  0.2704317E+02  0.4043583E+03
Ar   22  0.3659080E+01  0.1958722E+01  0.2623661E+02  0.2097301E+03
Ar   23  0.2163575E+01  0.5297436E+00  0.2977627E+02  0.2629604E+03
Ar   24  0.3681853E+02  0.1470721E+01  0.3048122E+02  0.4946482E+03
Ar   25  0.8254246E-01  0.3756169E+02  0.3284656E+02  0.4966366E+03
Ar   26  0.2299212E+01  0.2688019E+01  0.3215283E+02  0.1907074E+03
Ar   27  0.3444763E+01  0.9904518E+00  0.3554125E+02  0.1783901E+03
Ar   28  0.2104653E+00  0.2597381E+01  0.3598180E+02  0.2424268E+03
Ar   29  0.3765043E+02  0.5583411E+01  0.7623625E+00  0.2766228E+02
Ar   30  0.3061474E+01  0.7909736E+01  0.9003218E+00  0.2522485E+03
Ar   31  0.2036919E+01  0.5165419E+01  0.4198536E+01  0.4266590E+03
Ar   32  0.3690616E+02  0.8389941E+01  0.2808796E+01  0.1254516E+04
Ar   33  0.4495039E+00  0.4753367E+01  0.7532325E+01  0.7112555E+03
Ar   34  0.2223479E+01  0.8350449E+01  0.5157325E+01  0.6295861E+03
Ar   35  0.3503935E+01  0.6014660E+01  0.8676352E+01  0.3301227E+03
Ar   36  0.3745179E+02  0.8465366E+01  0.7645214E+01  0.3915716E+03
Ar   37  0.3720219E+02  0.6217384E+01  0.1021841E+02  0.1231202E+04
Ar   38  0.2849348E+01  0.8445315E+01  0.1058335E+02  0.6963071E+02
Ar   39  0.2335313E+01  0.5286977E+01  0.1274362E+02  0.7352896E+03
Ar   40  0.3749251E+02  0.8999144E+01  0.1191121E+02  0.2216248E+03
Ar   41  0.1809359E+01  0.3930947E+01  0.1565324E+02  0.2351546E+03
Ar   42  0.2296687E+01  0.9024307E+01  0.1479981E+02  0.5252207E+03
Ar   43  0.3804835E+01  0.4766266E+01  0.1879361E+02  0.1316199E+03
Ar   44  0.2156020E+01  0.7219966E+01  0.1796019E+02  0.2714864E+03
Ar   45  0.4450841E+00  0.5656270E+01  0.2073932E+02  0.2870537E+03
Ar   46  0.2897976E+01  0.7432457E+01  0.2208758E+02  0.2552222E+03
Ar   47  0.3174433E+01  0.3517916E+01  0.2171001E+02  0.3723965E+03
Ar   48  0.8617510E-01  0.9715308E+01  0.2395439E+02  0.6568366E+02
Ar   49  0.1268706E+00  0.6098722E+01  0.2562956E+02  0.6237101E+03
Ar   50  0.3527262E+01  0.5373445E+01  0.2510840E+02  0.9747950E+03
Ar   51  0.1986241E+01  0.4029496E+01  0.2889356E+02  0.3196783E+02
Ar   52  0.2664061E+01  0.7631700E+01  0.2766270E+02  0.7409765E+03
Ar   53  0.3720104E+02  0.4456937E+01  0.3239406E+02  0.2201575E+03
Ar   54  0.2428093E+01  0.7012871E+01  0.3145761E+02  0.1000479E+04
Ar   55  0.2276139E+01  0.5086828E+01  0.3440865E+02  0.5298477E+03
Ar   56  0.2514076E+00  0.8019391E+01  0.3488668E+02  0.5118427E+03
Ar   57  0.2244235E+00  0.1082964E+02  0.3751231E+02  0.3084860E+03
Ar   58  0.3177988E+01  0.1376255E+02  0.3777325E+02  0.5310935E+03
Ar   59  0.2615633E+01  0.1087202E+02  0.2380305E+01  0.5195861E+03
Ar   60  0.2057494E+00  0.1338661E+02  0.2636827E+01  0.4179125E+03
Ar   61  0.3732870E+02  0.1106913E+02  0.5707492E+01  0.4900446E+02
Ar   62  0.2338548E+01  0.1336388E+02  0.5475734E+01  0.5926481E+03
Ar   63  0.2500866E+01  0.1083698E+02  0.8254950E+01  0.1049683E+03
Ar   64  0.3666955E+02  0.1414098E+02  0.7194149E+01  0.6596765E+03
Ar   65  0.3690708E+02  0.1181827E+02  0.9612134E+01  0.1057010E+04
Ar   66  0.2046440E+01  0.1397778E+02  0.9523555E+01  0.1564063E+03
Ar   67  0.2710997E+01  0.1177015E+02  0.1197876E+02  0.1399036E+03
Ar   68  0.3723694E+02  0.1375393E+02  0.1254117E+02  0.4884958E+03
Ar   69  0.3759654E+02  0.1140405E+02  0.1515134E+02  0.2028427E+03
Ar   70  0.2529366E+01  0.1381643E+02  0.1486167E+02  0.5492623E+01
Ar   71  0.2737974E+01  0.1114573E+02  0.1790175E+02  0.2720920E+03
Ar   72  0.2263006E+00  0.1373593E+02  0.1765456E+02  0.3718919E+03
Ar   73  0.3600039E+02  0.1182146E+02  0.2187121E+02  0.1904657E+03
Ar   74  0.1641003E+01  0.1181252E+02  0.2137910E+02  0.2025402E+03
Ar   75  0.3257038E+01  0.1011896E+02  0.2513470E+02  0.3087049E+03
Ar   76  0.4069121E+00  0.1326364E+02  0.2463656E+02  0.9623841E+02
Ar   77  0.5703949E+00  0.1127175E+02  0.2704317E+02  0.1218764E+04
Ar   78  0.4430847E+01  0.1346743E+02  0.2347812E+02  0.3394482E+03
Ar   79  0.3500552E+01  0.1292541E+02  0.2695750E+02  0.3118093E+03
Ar   80  0.1596257E+01  0.1344727E+02  0.3061598E+02  0.1128587E+03
Ar   81  0.8496097E+00  0.1105128E+02  0.3293729E+02  0.3269380E+03
Ar   82  0.3586825E+01  0.1413212E+02  0.3318346E+02  0.2481038E+03
Ar   83  0.2978970E+01  0.1118269E+02  0.3559285E+02  0.5966191E+02
Ar   84  0.3838487E+00  0.1403944E+02  0.3537239E+02  0.3916324E+03
Ar   85  0.6929156E+00  0.1655382E+02  0.1169525E+00  0.2613586E+03
Ar   86  0.3035105E+01  0.1880944E+02  0.9696969E+00  0.2403340E+03
Ar   87  0.2458573E+01  0.1586904E+02  0.3007182E+01  0.1306324E+03
Ar   88  0.3725598E+02  0.1978451E+02  0.2882899E+01  0.7084139E+03
Ar   89  0.3692819E+02  0.1680611E+02  0.4298581E+01  0.4883767E+03
Ar   90  0.2396663E+01  0.1908732E+02  0.5147653E+01  0.3234146E+03
Ar   91  0.2432575E+01  0.1687852E+02  0.7482580E+01  0.5691799E+03
Ar   92  0.3697847E+02  0.1907540E+02  0.7417768E+01  0.8428419E+03
Ar   93  0.3709887E+02  0.1657925E+02  0.9778871E+01  0.3724352E+03
Ar   94  0.3154435E+01  0.1882715E+02  0.1001880E+02  0.2096400E+03
Ar   95  0.1790689E+01  0.1664827E+02  0.1246386E+02  0.4098709E+03
Ar   96  0.3726106E+02  0.1893292E+02  0.1295207E+02  0.4576535E+03
Ar   97  0.4709636E-01  0.1638464E+02  0.1530830E+02  0.9621170E+03
Ar   98  0.2906986E+01  0.1867585E+02  0.1568566E+02  0.2739800E+03
Ar   99  0.2054686E+01  0.1615037E+02  0.1833599E+02  0.1100956E+03
Ar  100  0.3714305E+02  0.1843308E+02  0.1784861E+02  0.1539107E+03
Ar  101  0.3753017E+02  0.1463831E+02  0.2109229E+02  0.5867891E+03
Ar  102  0.1517097E+01  0.1869267E+02  0.2074138E+02  0.4703116E+03
Ar  103  0.2305000E+01  0.1621265E+02  0.2342087E+02  0.5722881E+03
Ar  104  0.3312604E+02  0.1537058E+02  0.2540520E+02  0.2311696E+03
Ar  105  0.5126695E+00  0.1530255E+02  0.2699883E+02  0.5275771E+02
Ar  106  0.3568169E+01  0.2050213E+02  0.2982596E+02  0.2002892E+03
Ar  107  0.3121342E+01  0.1690171E+02  0.2952328E+02  0.2230625E+03
Ar  108  0.2457330E+01  0.1798817E+02  0.2630561E+02  0.9064934E+03
Ar  109  0.6303681E+00  0.1659379E+02  0.3271546E+02  0.3861899E+02
Ar  110  0.2678219E+00  0.1893661E+02  0.3025030E+02  0.3817601E+03
Ar  111  0.2835238E+01  0.1681487E+02  0.3555238E+02  0.3523565E+02
Ar  112  0.4743906E+00  0.2001043E+02  0.3649112E+02  0.2683018E+03
Ar  113  0.3659393E+02  0.2248106E+02  0.1353888E+01  0.7436771E+03
Ar  114  0.2653221E+01  0.2414836E+02  0.7516430E+00  0.5969979E+03
Ar  115  0.3183940E+01  0.2232988E+02  0.3303514E+01  0.1656274E+03
Ar  116  0.3046657E+00  0.2468010E+02  0.3342813E+01  0.1135428E+03
Ar  117  0.1598225E+00  0.2170971E+02  0.5601111E+01  0.1061692E+03
Ar  118  0.2815679E+01  0.2547832E+02  0.5548925E+01  0.1262737E+03
Ar  119  0.3721009E+01  0.2260435E+02  0.7804481E+01  0.1665812E+03
Ar  120  0.2321486E+00  0.2439881E+02  0.8301215E+01  0.1039724E+03
Ar  121  0.2578880E-01  0.2124940E+02  0.1016568E+02  0.4655273E+03
Ar  122  0.2230877E+01  0.2430008E+02  0.1119989E+02  0.3281364E+03
Ar  123  0.2900291E+01  0.2109052E+02  0.1225951E+02  0.3504739E+03
Ar  124  0.3704701E+02  0.2316793E+02  0.1356169E+02  0.1738436E+03
Ar  125  0.3207301E-01  0.2080229E+02  0.1554832E+02  0.5209162E+03
Ar  126  0.3744769E+02  0.2385527E+02  0.1771548E+02  0.2399425E+03
Ar  127  0.1190633E+01  0.2128408E+02  0.1875354E+02  0.3656081E+03
Ar  128  0.3480658E+02  0.2688254E+02  0.1823468E+02  0.3503551E+03
Ar  129  0.3655683E+02  0.2205531E+02  0.2240420E+02  0.9152687E+03
Ar  130  0.1579646E+01  0.2351268E+02  0.2093681E+02  0.3755526E+03
Ar  131  0.1589462E+01  0.2095028E+02  0.2386343E+02  0.4449244E+03
Ar  132  0.9430669E+00  0.2441582E+02  0.2459412E+02  0.4392541E+03
Ar  133  0.3677000E+02  0.1684032E+02  0.2435409E+02  0.7264470E+03
Ar  134  0.3837676E+01  0.2423781E+02  0.2717040E+02  0.4196273E+03
Ar  135  0.3495348E+02  0.2525738E+02  0.2928564E+02  0.6052073E+03
Ar  136  0.1138316E+01  0.2088113E+02  0.2728429E+02  0.3642770E+03
Ar  137  0.3673874E+02  0.2220629E+02  0.3343590E+02  0.5674629E+02
Ar  138  0.3003731E+01  0.2412830E+02  0.3249373E+02  0.1540956E+03
Ar  139  0.3348611E+01  0.2189404E+02  0.3524383E+02  0.3862414E+03
Ar  140  0.3759914E+02  0.2373329E+02  0.3646971E+02  0.1765248E+03
Ar  141  0.3740196E+02  0.2735865E+02  0.1168024E+01  0.1969845E+03
Ar  142  0.1778651E+01  0.2942903E+02  0.3607293E+02  0.2498596E+03
Ar  143  0.2772478E+01  0.2751157E+02  0.1907180E+01  0.3815293E+03
Ar  144  0.1167222E+00  0.2987101E+02  0.3425377E+01  0.4962523E+03
Ar  145  0.3711698E+02  0.2759718E+02  0.6317918E+01  0.4968498E+03
Ar  146  0.3159955E+01  0.2881235E+02  0.4899111E+01  0.1520561E+03
Ar  147  0.2684424E+01  0.2717151E+02  0.8491662E+01  0.2545939E+03
Ar  148  0.3738407E+02  0.2997933E+02  0.9561217E+01  0.1708819E+03
Ar  149  0.4142671E+00  0.2708452E+02  0.1176392E+02  0.1754777E+03
Ar  150  0.2679039E+01  0.2974567E+02  0.1148346E+02  0.5262968E+02
Ar  151  0.2117531E+01  0.2474399E+02  0.1504527E+02  0.1036166E+04
Ar  152  0.1071352E+00  0.3046779E+02  0.1422823E+02  0.1868852E+03
Ar  153  0.3727486E+02  0.2695700E+02  0.1587257E+02  0.5802913E+03
Ar  154  0.2655284E+01  0.2844775E+02  0.1533464E+02  0.2581998E+03
Ar  155  0.2179734E+01  0.2651754E+02  0.1834198E+02  0.1492858E+03
Ar  156  0.3745015E+02  0.2846559E+02  0.1881394E+02  0.9890001E+03
Ar  157  0.3775788E+02  0.2708675E+02  0.2190448E+02  0.6524343E+03
Ar  158  0.1952452E+01  0.2961317E+02  0.2086754E+02  0.2189121E+03
Ar  159  0.3324114E+01  0.2665346E+02  0.2445535E+02  0.4150468E+02
Ar  160  0.6994770E+00  0.2902638E+02  0.2452093E+02  0.4540633E+03
Ar  161  0.8227476E-01  0.2700054E+02  0.2794653E+02  0.7505853E+02
Ar  162  0.2626406E+00  0.3194448E+02  0.2657376E+02  0.9401936E+02
Ar  163  0.2712170E+01  0.2902999E+02  0.2720047E+02  0.8976848E+03
Ar  164  0.3757422E+02  0.2978227E+02  0.3015769E+02  0.1756723E+03
Ar  165  0.1227533E+01  0.2737713E+02  0.3275048E+02  0.4877890E+03
Ar  166  0.3490064E+01  0.2651378E+02  0.2999134E+02  0.1439615E+03
Ar  167  0.2406854E+01  0.2596428E+02  0.3568528E+02  0.1427863E+03
Ar  168  0.3749433E+02  0.3176440E+02  0.3522647E+02  0.1429239E+03
Ar  169  0.2694074E+00  0.3321596E+02  0.4293673E+00  0.3790374E+03
Ar  170  0.4938725E+01  0.3233762E+02  0.3757537E+02  0.2274167E+03
Ar  171  0.2889437E+01  0.3141603E+02  0.2582812E+01  0.6133816E+03
Ar  172  0.3501386E+02  0.3446319E+02  0.2593117E+00  0.4175268E+03
Ar  173  0.9388923E-01  0.3232655E+02  0.6540802E+01  0.3085401E+03
Ar  174  0.3106524E+01  0.3412860E+02  0.6773689E+01  0.6647139E+02
Ar  175  0.2600314E+01  0.3080814E+02  0.8017792E+01  0.4365078E+03
Ar  176  0.2240413E+00  0.3439161E+02  0.9094461E+01  0.1534194E+03
Ar  177  0.3713063E+02  0.3329437E+02  0.1210567E+02  0.5040584E+03
Ar  178  0.3320726E+01  0.3372411E+02  0.1037113E+02  0.8992393E+03
Ar  179  0.2843932E+01  0.3268959E+02  0.1402460E+02  0.4468589E+03
Ar  180  0.3623518E+00  0.3630670E+02  0.1305032E+02  0.1452687E+03
Ar  181  0.3738919E+02  0.3359777E+02  0.1587379E+02  0.7396119E+03
Ar  182  0.5252034E+01  0.3284118E+02  0.1683422E+02  0.7977034E+03
Ar  183  0.2092781E+01  0.3104700E+02  0.1748670E+02  0.3011043E+03
Ar  184  0.1016873E+00  0.3635961E+02  0.1783939E+02  0.5052902E+03
Ar  185  0.2022910E+00  0.3326253E+02  0.1989515E+02  0.2589568E+03
Ar  186  0.2982454E+01  0.3514592E+02  0.2037991E+02  0.4394976E+02
Ar  187  0.1808481E+01  0.3247331E+02  0.2301809E+02  0.6153450E+03
Ar  188  0.1243987E+01  0.3521287E+02  0.2482584E+02  0.3732990E+03
Ar  189  0.3563400E+02  0.3526466E+02  0.2647661E+02  0.6260872E+03
Ar  190  0.3883417E+01  0.3618377E+02  0.2666742E+02  0.5651135E+03
Ar  191  0.2669812E+01  0.3180975E+02  0.2915540E+02  0.9890464E+03
Ar  192  0.1098838E+01  0.3489699E+02  0.2851993E+02  0.7300864E+02
Ar  193  0.7478916E+00  0.3279201E+02  0.3206319E+02  0.6594748E+03
Ar  194  0.2667770E+01  0.3524060E+02  0.3202112E+02  0.7978282E+03
Ar  195  0.3437944E+01  0.3009773E+02  0.3294758E+02  0.1075154E+03
Ar  196  0.1019805E+01  0.3531455E+02  0.3528646E+02  0.6089282E+02
Ar  197  0.3362754E+01  0.3508323E+02  0.6580460E+00  0.6109779E+03
Ar  198  0.5621624E+01  0.1378544E+01  0.9632250E+00  0.2940927E+03
Ar  199  0.8117703E+01  0.1374845E+00  0.4306387E+01  0.2101565E+03
Ar  200  0.5309674E+01  0.2570500E+01  0.4505320E+01  0.1253666E+03
Ar  201  0.4528495E+01  0.3754088E+02  0.6709474E+01  0.4897320E+03
Ar  202  0.8725616E+01  0.3003168E+01  0.5892322E+01  0.1015311E+03
Ar  203  0.7940417E+01  0.3704061E+02  0.7913916E+01  0.1892958E+03
Ar  204  0.5672383E+01  0.3213247E+01  0.7931650E+01  0.1471588E+03
Ar  205  0.4488964E+01  0.3766902E+02  0.1043876E+02  0.6410982E+03
Ar  206  0.9174798E+01  0.3272569E+01  0.9370876E+01  0.4974397E+03
Ar  207  0.1023292E+02  0.3721290E+02  0.1401365E+02  0.1375669E+03
Ar  208  0.7658140E+01  0.6390356E+00  0.1130951E+02  0.8825074E+03
Ar  209  0.3050912E+01  0.3590374E+02  0.1566448E+02  0.3280274E+03
Ar  210  0.8979777E+01  0.2384396E+01  0.1482178E+02  0.3355471E+03
Ar  211  0.6599168E+01  0.3720481E+02  0.1496526E+02  0.5005129E+03
Ar  212  0.7450859E+01  0.4311663E+01  0.1776368E+02  0.1933241E+03
Ar  213  0.5682368E+01  0.9761989E+00  0.2046288E+02  0.2323244E+03
Ar  214  0.8115764E+01  0.2942794E+01  0.2071919E+02  0.4286506E+03
Ar  215  0.7454174E+01  0.6389712E+00  0.2400868E+02  0.4176335E+03
Ar  216  0.5939002E+01  0.3427551E+01  0.2385404E+02  0.3446321E+03
Ar  217  0.6754650E+01  0.3542092E+00  0.2740189E+02  0.3958301E+03
Ar  218  0.9670867E+01  0.3288248E+01  0.2937645E+02  0.2834279E+03
Ar  219  0.7809612E+01  0.5777072E+00  0.3147461E+02  0.1553107E+03
Ar  220  0.5703775E+01  0.2683166E+01  0.2963295E+02  0.2584487E+03
Ar  221  0.4726322E+01  0.2632268E+00  0.3233515E+02  0.3403016E+03
Ar  222  0.8896446E+01  0.3383940E+01  0.3277083E+02  0.1804768E+03
Ar  223  0.7645416E+01  0.3703137E+02  0.3525672E+02  0.5641880E+02
Ar  224  0.5687137E+01  0.4076481E+01  0.3626696E+02  0.1916844E+03
Ar  225  0.5315856E+01  0.5029089E+01  0.2139289E+01  0.5530222E+03
Ar  226  0.7147261E+01  0.7530491E+01  0.3757173E+02  0.8125006E+03
Ar  227  0.8742712E+01  0.5545018E+01  0.3026596E+01  0.3639832E+03
Ar  228  0.5954249E+01  0.8230279E+01  0.2931283E+01  0.1982428E+03
Ar  229  0.5847430E+01  0.6234657E+01  0.5514617E+01  0.7253529E+02
Ar  230  0.8221156E+01  0.9507623E+01  0.5458380E+01  0.3976361E+03
Ar  231  0.8056728E+01  0.6704072E+01  0.7708573E+01  0.5257189E+03
Ar  232  0.6105183E+01  0.9367233E+01  0.8224472E+01  0.2219869E+03
Ar  233  0.6207584E+01  0.6791907E+01  0.1084596E+02  0.5099663E+03
Ar  234  0.9580328E+01  0.9628725E+01  0.1170390E+02  0.9848854E+02
Ar  235  0.9049241E+01  0.6121116E+01  0.1322620E+02  0.5486506E+03
Ar  236  0.5736191E+01  0.8625307E+01  0.1392135E+02  0.1334190E+03
Ar  237  0.5037388E+01  0.6090269E+01  0.1602443E+02  0.2639294E+03
Ar  238  0.8105701E+01  0.8836705E+01  0.1686638E+02  0.5040310E+03
Ar  239  0.8691317E+01  0.6522701E+01  0.2003488E+02  0.3813362E+03
Ar  240  0.5393137E+01  0.8201432E+01  0.1900931E+02  0.6273384E+03
Ar  241  0.6007127E+01  0.5855320E+01  0.2158517E+02  0.2194587E+02
Ar  242  0.8598499E+01  0.9231284E+01  0.2193459E+02  0.1057144E+03
Ar  243  0.9103732E+01  0.5526838E+01  0.2398093E+02  0.4791759E+03
Ar  244  0.5942502E+01  0.7625104E+01  0.2443720E+02  0.1198568E+03
Ar  245  0.6745923E+01  0.5273094E+01  0.2744238E+02  0.5539213E+03
Ar  246  0.8693529E+01  0.8935447E+01  0.2730821E+02  0.4320081E+02
Ar  247  0.7918531E+01  0.5859082E+01  0.3043459E+02  0.1489108E+03
Ar  248  0.5278342E+01  0.7802819E+01  0.2987068E+02  0.2437238E+03
Ar  249  0.4956421E+01  0.4606312E+01  0.3231275E+02  0.2547829E+03
Ar  250  0.7825662E+01  0.7896961E+01  0.3375492E+02  0.3884713E+03
Ar  251  0.9195749E+01  0.5145099E+01  0.3536453E+02  0.1029693E+03
Ar  252  0.4411660E+01  0.7939444E+01  0.3522431E+02  0.7096841E+03
Ar  253  0.6036398E+01  0.1070551E+02  0.1998875E+00  0.2593772E+03
Ar  254  0.8868216E+01  0.1351363E+02  0.6116475E+00  0.3388599E+03
Ar  255  0.8257941E+01  0.1109454E+02  0.2740130E+01  0.6507617E+03
Ar  256  0.5559441E+01  0.1355204E+02  0.2866844E+01  0.1305235E+04
Ar  257  0.5052383E+01  0.1068045E+02  0.5400596E+01  0.3102543E+03
Ar  258  0.7859572E+01  0.1302231E+02  0.5633017E+01  0.1928118E+03
Ar  259  0.8688491E+01  0.1166566E+02  0.8725651E+01  0.2196344E+03
Ar  260  0.5260470E+01  0.1300047E+02  0.8208672E+01  0.1096612E+04
Ar  261  0.6109749E+01  0.1119413E+02  0.1111148E+02  0.9555015E+02
Ar  262  0.7815078E+01  0.1418742E+02  0.1054364E+02  0.1372212E+03
Ar  263  0.8439427E+01  0.1172386E+02  0.1367429E+02  0.5601108E+03
Ar  264  0.5597882E+01  0.1416578E+02  0.1324052E+02  0.3780275E+03
Ar  265  0.4689407E+01  0.1140857E+02  0.1530221E+02  0.4044279E+03
Ar  266  0.7445418E+01  0.1352101E+02  0.1642812E+02  0.2278489E+03
Ar  267  0.7805373E+01  0.1111044E+02  0.1925742E+02  0.8004093E+02
Ar  268  0.4930879E+01  0.1358758E+02  0.1882675E+02  0.2434206E+03
Ar  269  0.4777781E+01  0.1072423E+02  0.2161421E+02  0.1091105E+03
Ar  270  0.7906408E+01  0.1400863E+02  0.2124715E+02  0.3951579E+03
Ar  271  0.7033892E+01  0.1052188E+02  0.2426577E+02  0.5699711E+03
Ar  272  0.5511475E+01  0.9641979E+01  0.2721744E+02  0.5073451E+03
Ar  273  0.2641413E+01  0.1018004E+02  0.2992379E+02  0.2843675E+02
Ar  274  0.8505583E+01  0.1228417E+02  0.2677911E+02  0.7514936E+02
Ar  275  0.7802397E+01  0.9901995E+01  0.3071319E+02  0.1358124E+03
Ar  276  0.5475642E+01  0.1222744E+02  0.2946185E+02  0.1195010E+03
Ar  277  0.4782769E+01  0.1034293E+02  0.3250175E+02  0.1647021E+03
Ar  278  0.6817998E+01  0.1326304E+02  0.3243888E+02  0.3452854E+03
Ar  279  0.7366788E+01  0.1095144E+02  0.3463886E+02  0.4013578E+03
Ar  280  0.6151566E+01  0.1359481E+02  0.3636902E+02  0.3378880E+03
Ar  281  0.5707169E+01  0.1649225E+02  0.6809662E+00  0.4280779E+02
Ar  282  0.8959891E+01  0.1838842E+02  0.7624379E+00  0.1533319E+03
Ar  283  0.8452694E+01  0.1615724E+02  0.4032472E+01  0.6791316E+02
Ar  284  0.5572844E+01  0.1894939E+02  0.3208502E+01  0.3556509E+03
Ar  285  0.5357516E+01  0.1553915E+02  0.5286148E+01  0.6033806E+03
Ar  286  0.8419776E+01  0.1940863E+02  0.5626322E+01  0.2918573E+03
Ar  287  0.7452259E+01  0.1590202E+02  0.7826009E+01  0.2370188E+03
Ar  288  0.5352877E+01  0.1898041E+02  0.7011973E+01  0.1458605E+03
Ar  289  0.4918891E+01  0.1585699E+02  0.1037473E+02  0.4797908E+03
Ar  290  0.7507661E+01  0.1817852E+02  0.1006360E+02  0.1433844E+03
Ar  291  0.8808309E+01  0.1530951E+02  0.1413891E+02  0.7948939E+02
Ar  292  0.4564760E+01  0.1803297E+02  0.1326194E+02  0.2403171E+03
Ar  293  0.5642931E+01  0.1663327E+02  0.1598862E+02  0.6057783E+03
Ar  294  0.8088859E+01  0.1888962E+02  0.1590471E+02  0.4780985E+03
Ar  295  0.8046282E+01  0.1683764E+02  0.1858134E+02  0.2033970E+03
Ar  296  0.4826567E+01  0.1905101E+02  0.1864128E+02  0.1597527E+03
Ar  297  0.5091108E+01  0.1659438E+02  0.2087864E+02  0.1133433E+04
Ar  298  0.9113940E+01  0.1792610E+02  0.2192564E+02  0.2664295E+02
Ar  299  0.8062028E+01  0.1543198E+02  0.2466023E+02  0.5210426E+03
Ar  300  0.5293134E+01  0.1764501E+02  0.2457630E+02  0.3769213E+03
Ar  301  0.5885466E+01  0.1484302E+02  0.2736386E+02  0.2344817E+03
Ar  302  0.7504218E+01  0.1808178E+02  0.2703934E+02  0.6995266E+03
Ar  303  0.4923415E+01  0.1704552E+02  0.3290010E+02  0.4238603E+02
Ar  304  0.6690110E+01  0.1669530E+02  0.3009469E+02  0.1236101E+03
Ar  305  0.2143845E+01  0.1948944E+02  0.3296941E+02  0.2980541E+03
Ar  306  0.8563089E+01  0.1895691E+02  0.3322491E+02  0.6369548E+03
Ar  307  0.7313530E+01  0.1581894E+02  0.3444142E+02  0.6130780E+02
Ar  308  0.5924128E+01  0.1895983E+02  0.3573782E+02  0.1381305E+03
Ar  309  0.5640113E+01  0.2168114E+02  0.6476603E+00  0.2564614E+03
Ar  310  0.8538111E+01  0.2445910E+02  0.3744571E+02  0.2797182E+03
Ar  311  0.8898179E+01  0.2182044E+02  0.2470271E+01  0.5834201E+02
Ar  312  0.6381544E+01  0.2440356E+02  0.2518060E+01  0.4230305E+03
Ar  313  0.5984916E+01  0.2229447E+02  0.5294823E+01  0.1545282E+03
Ar  314  0.8863058E+01  0.2447176E+02  0.4576275E+01  0.2245600E+03
Ar  315  0.8677510E+01  0.2203825E+02  0.7877215E+01  0.2199912E+03
Ar  316  0.5910998E+01  0.2494080E+02  0.7865852E+01  0.3558229E+03
Ar  317  0.5586841E+01  0.2125072E+02  0.1023784E+02  0.3979067E+03
Ar  318  0.8658059E+01  0.2562053E+02  0.1087382E+02  0.3194741E+03
Ar  319  0.7691911E+01  0.2080717E+02  0.1304978E+02  0.1491987E+03
Ar  320  0.5193222E+01  0.2395351E+02  0.1267511E+02  0.1114460E+04
Ar  321  0.5154704E+01  0.2124859E+02  0.1542221E+02  0.1499029E+03
Ar  322  0.7950525E+01  0.2406542E+02  0.1549615E+02  0.6231301E+03
Ar  323  0.7182945E+01  0.2181596E+02  0.1824003E+02  0.1713629E+03
Ar  324  0.3801769E+01  0.2317389E+02  0.1792469E+02  0.3115415E+03
Ar  325  0.5742885E+01  0.2047096E+02  0.2176550E+02  0.1217963E+03
Ar  326  0.7196385E+01  0.2394224E+02  0.2139210E+02  0.3478259E+03
Ar  327  0.7940236E+01  0.2097223E+02  0.2411314E+02  0.1578723E+03
Ar  328  0.4203666E+01  0.2318801E+02  0.2350304E+02  0.4751521E+03
Ar  329  0.4704667E+01  0.2059398E+02  0.2573509E+02  0.2999235E+03
Ar  330  0.6884243E+01  0.2458817E+02  0.2506275E+02  0.7234649E+02
Ar  331  0.7084767E+01  0.2056903E+02  0.2948342E+02  0.2680385E+02
Ar  332  0.6301039E+00  0.2216764E+02  0.3066049E+02  0.5297754E+03
Ar  333  0.5529380E+01  0.2108656E+02  0.3273770E+02  0.2158117E+03
Ar  334  0.5681864E+01  0.2387214E+02  0.3011039E+02  0.2121383E+03
Ar  335  0.7829110E+01  0.2192981E+02  0.3551704E+02  0.2606090E+03
Ar  336  0.5575501E+01  0.2416644E+02  0.3610554E+02  0.3595921E+03
Ar  337  0.6345236E+01  0.2704084E+02  0.9957901E-01  0.6880931E+03
Ar  338  0.8696832E+01  0.2992027E+02  0.3776291E+02  0.1031154E+04
Ar  339  0.9016716E+01  0.2713896E+02  0.1989465E+01  0.1428188E+04
Ar  340  0.5765408E+01  0.2982159E+02  0.2189997E+01  0.8090516E+02
Ar  341  0.5968922E+01  0.2713286E+02  0.4912891E+01  0.5360759E+03
Ar  342  0.8499840E+01  0.2955876E+02  0.4086494E+01  0.2730723E+03
Ar  343  0.8616474E+01  0.2657603E+02  0.7493685E+01  0.5165578E+03
Ar  344  0.6083721E+01  0.2923743E+02  0.7441672E+01  0.1740070E+03
Ar  345  0.4958697E+01  0.2748561E+02  0.1081691E+02  0.7615906E+02
Ar  346  0.8130859E+01  0.2913892E+02  0.1116241E+02  0.6920248E+03
Ar  347  0.7956405E+01  0.2704392E+02  0.1384664E+02  0.2973018E+03
Ar  348  0.5854412E+01  0.2988258E+02  0.1402160E+02  0.7369007E+02
Ar  349  0.5165645E+01  0.2600221E+02  0.1524494E+02  0.1392154E+04
Ar  350  0.8344692E+01  0.3140474E+02  0.1674345E+02  0.2315623E+03
Ar  351  0.7332256E+01  0.2610210E+02  0.1804705E+02  0.2844204E+03
Ar  352  0.4884881E+01  0.2886098E+02  0.1767943E+02  0.8708618E+03
Ar  353  0.5497994E+01  0.2759223E+02  0.2123576E+02  0.1811580E+03
Ar  354  0.8205757E+01  0.2997847E+02  0.2014789E+02  0.6654776E+03
Ar  355  0.7706882E+01  0.2771914E+02  0.2403190E+02  0.5072279E+01
Ar  356  0.4576099E+01  0.2966104E+02  0.2397168E+02  0.6154804E+03
Ar  357  0.5905627E+01  0.2719569E+02  0.2735514E+02  0.2303034E+03
Ar  358  0.6898462E+01  0.3083431E+02  0.2685749E+02  0.2798021E+02
Ar  359  0.7751445E+01  0.2662555E+02  0.3060870E+02  0.1223078E+04
Ar  360  0.5226737E+01  0.2973642E+02  0.3000508E+02  0.7566835E+03
Ar  361  0.5174628E+01  0.2699523E+02  0.3306793E+02  0.1000577E+03
Ar  362  0.8219986E+01  0.2986986E+02  0.3224125E+02  0.4139274E+03
Ar  363  0.7503553E+01  0.2441252E+02  0.3313976E+02  0.3579105E+03
Ar  364  0.5679193E+01  0.2962174E+02  0.3599296E+02  0.4513040E+03
Ar  365  0.3092147E+01  0.3253759E+02  0.3519721E+02  0.1852754E+03
Ar  366  0.6852915E+01  0.3532857E+02  0.2970798E+00  0.1800063E+03
Ar  367  0.7957533E+01  0.3261921E+02  0.2516077E+01  0.7476695E+03
Ar  368  0.5157893E+01  0.3543394E+02  0.3926370E+01  0.1627588E+03
Ar  369  0.5536586E+01  0.3189099E+02  0.5282650E+01  0.2833043E+03
Ar  370  0.8506850E+01  0.3437748E+02  0.5619123E+01  0.2043950E+03
Ar  371  0.8540762E+01  0.3185316E+02  0.7827904E+01  0.3414260E+03
Ar  372  0.5959556E+01  0.3460526E+02  0.8292076E+01  0.6029669E+02
Ar  373  0.6365625E+01  0.3200102E+02  0.1059040E+02  0.2146207E+03
Ar  374  0.8492419E+01  0.3491592E+02  0.1080149E+02  0.4734388E+03
Ar  375  0.9159028E+01  0.3202122E+02  0.1285406E+02  0.2648555E+03
Ar  376  0.5934903E+01  0.3406729E+02  0.1308671E+02  0.9235881E+03
Ar  377  0.7298913E+01  0.3326806E+02  0.1971771E+02  0.5609093E+03
Ar  378  0.8589234E+01  0.3492641E+02  0.1607823E+02  0.2572693E+03
Ar  379  0.1126358E+02  0.3557638E+02  0.1870588E+02  0.7753429E+02
Ar  380  0.5372857E+01  0.3568907E+02  0.1819282E+02  0.5082991E+02
Ar  381  0.4656380E+01  0.3160546E+02  0.2128265E+02  0.5255777E+03
Ar  382  0.7185558E+01  0.3608513E+02  0.2135732E+02  0.4539422E+02
Ar  383  0.7541439E+01  0.3228798E+02  0.2347697E+02  0.1714452E+03
Ar  384  0.4505985E+01  0.3435263E+02  0.2348596E+02  0.2793706E+03
Ar  385  0.3977632E+01  0.3249482E+02  0.2596109E+02  0.8002110E+02
Ar  386  0.6724590E+01  0.3490521E+02  0.2648423E+02  0.4035808E+03
Ar  387  0.7776745E+01  0.3259161E+02  0.2966033E+02  0.1780187E+03
Ar  388  0.5009113E+01  0.3495112E+02  0.2958706E+02  0.2129483E+03
Ar  389  0.5626992E+01  0.3245004E+02  0.3214411E+02  0.4733795E+03
Ar  390  0.7512056E+01  0.3502889E+02  0.3243795E+02  0.1823987E+01
Ar  391  0.7676298E+01  0.3241882E+02  0.3499670E+02  0.5839866E+03
Ar  392  0.4835493E+01  0.3565489E+02  0.3512818E+02  0.2273992E+03
Ar  393  0.1160707E+02  0.3721886E+02  0.3710487E+02  0.2522498E+03
Ar  394  0.1436790E+02  0.1154851E+01  0.3762242E+02  0.6121046E+03
Ar  395  0.1327262E+02  0.3495375E+02  0.2365579E+01  0.2555347E+03
Ar  396  0.9290124E+01  0.2812787E+01  0.5592764E+00  0.1394859E+03
Ar  397  0.1072260E+02  0.5728040E+00  0.6987188E+01  0.3550205E+03
Ar  398  0.1152919E+02  0.8681765E+00  0.2965479E+01  0.5535023E+03
Ar  399  0.1291390E+02  0.3623746E+02  0.8651526E+01  0.7487233E+03
Ar  400  0.1178391E+02  0.3935219E+01  0.6872548E+01  0.6926435E+02
Ar  401  0.1073660E+02  0.3772174E+02  0.1033397E+02  0.5430075E+03
Ar  402  0.1341434E+02  0.2781639E+01  0.9714057E+01  0.3464633E+03
Ar  403  0.1355121E+02  0.3774152E+02  0.1308022E+02  0.7060858E+02
Ar  404  0.1098832E+02  0.2526037E+01  0.1244637E+02  0.2469788E+03
Ar  405  0.1224113E+02  0.1184103E+01  0.1687856E+02  0.2496330E+03
Ar  406  0.1514323E+02  0.2337042E+01  0.1616175E+02  0.1808913E+03
Ar  407  0.1422061E+02  0.3742746E+02  0.1943695E+02  0.4519427E+03
Ar  408  0.1135116E+02  0.3484346E+01  0.1871603E+02  0.1319563E+03
Ar  409  0.1080985E+02  0.7133087E+00  0.2053026E+02  0.1082028E+04
Ar  410  0.1385265E+02  0.2286964E+01  0.2103287E+02  0.5500337E+01
Ar  411  0.1182299E+02  0.7946153E+00  0.2423615E+02  0.2913736E+03
Ar  412  0.9231658E+01  0.2993448E+01  0.2612968E+02  0.4338620E+03
Ar  413  0.1048491E+02  0.3749193E+02  0.2717796E+02  0.5766765E+03
Ar  414  0.1277137E+02  0.2849254E+01  0.2738847E+02  0.1832867E+03
Ar  415  0.1135396E+02  0.6530732E+00  0.3028563E+02  0.5289772E+03
Ar  416  0.1314038E+02  0.3548555E+01  0.3063891E+02  0.2973837E+03
Ar  417  0.1052492E+02  0.3680900E+02  0.3308314E+02  0.2829213E+03
Ar  418  0.1510057E+02  0.2110091E+01  0.3322771E+02  0.3116697E+03
Ar  419  0.1420119E+02  0.3683664E+02  0.3444130E+02  0.1432029E+03
Ar  420  0.1201825E+02  0.2168464E+01  0.3412240E+02  0.2408083E+03
Ar  421  0.1185489E+02  0.5774227E+01  0.8186811E+00  0.4665007E+03
Ar  422  0.1315825E+02  0.8428054E+01  0.3700821E+02  0.1196624E+03
Ar  423  0.1356237E+02  0.3449585E+01  0.2529155E+01  0.1039921E+04
Ar  424  0.1101368E+02  0.8888456E+01  0.2515274E+01  0.5256526E+03
Ar  425  0.1175462E+02  0.5767424E+01  0.4084839E+01  0.6448903E+03
Ar  426  0.1391270E+02  0.8318627E+01  0.5629215E+01  0.9150135E+02
Ar  427  0.1493476E+02  0.5338450E+01  0.7619770E+01  0.6825558E+02
Ar  428  0.1147748E+02  0.7454989E+01  0.7467971E+01  0.4929077E+03
Ar  429  0.1166828E+02  0.5592478E+01  0.1035493E+02  0.7250727E+03
Ar  430  0.1415758E+02  0.7817052E+01  0.1071272E+02  0.4270806E+03
Ar  431  0.1251466E+02  0.4499535E+01  0.1467587E+02  0.6039681E+03
Ar  432  0.1060821E+02  0.8564867E+01  0.1453182E+02  0.4908474E+03
Ar  433  0.1007329E+02  0.5994073E+01  0.1661635E+02  0.8503235E+02
Ar  434  0.1410182E+02  0.8049868E+01  0.1500669E+02  0.5554963E+03
Ar  435  0.1343858E+02  0.5988711E+01  0.1819999E+02  0.2482801E+03
Ar  436  0.1090312E+02  0.8825455E+01  0.1894072E+02  0.6237918E+03
Ar  437  0.1172079E+02  0.4253279E+01  0.2167303E+02  0.1624581E+03
Ar  438  0.1225116E+02  0.7754589E+01  0.2192955E+02  0.1772649E+03
Ar  439  0.1252792E+02  0.5592870E+01  0.2491354E+02  0.4026745E+03
Ar  440  0.1028176E+02  0.8605918E+01  0.2467017E+02  0.4825113E+03
Ar  441  0.1067709E+02  0.5756948E+01  0.2768371E+02  0.2122773E+03
Ar  442  0.1279217E+02  0.9597951E+01  0.2686643E+02  0.5949963E+03
Ar  443  0.1350108E+02  0.6860200E+01  0.2985811E+02  0.1088091E+03
Ar  444  0.1069282E+02  0.8576485E+01  0.2992067E+02  0.1702485E+03
Ar  445  0.1127103E+02  0.5952674E+01  0.3249215E+02  0.4896926E+02
Ar  446  0.1296469E+02  0.8440008E+01  0.3362957E+02  0.5735728E+03
Ar  447  0.1347941E+02  0.5022670E+01  0.3562449E+02  0.1850078E+03
Ar  448  0.9876337E+01  0.9658159E+01  0.3668131E+02  0.1399135E+03
Ar  449  0.1153712E+02  0.1171521E+02  0.6926325E+00  0.3225627E+03
Ar  450  0.1458227E+02  0.1408229E+02  0.3966735E+00  0.1664744E+03
Ar  451  0.1401070E+02  0.1068953E+02  0.3375666E+01  0.5352770E+03
Ar  452  0.1149316E+02  0.1325175E+02  0.3714244E+01  0.3567539E+03
Ar  453  0.1131398E+02  0.1060705E+02  0.5726197E+01  0.3861179E+03
Ar  454  0.1451444E+02  0.1484406E+02  0.5571573E+01  0.2043325E+03
Ar  455  0.1301047E+02  0.1056894E+02  0.9096643E+01  0.7172600E+02
Ar  456  0.1140451E+02  0.1371943E+02  0.7730796E+01  0.1459617E+03
Ar  457  0.1080106E+02  0.1277914E+02  0.1119386E+02  0.2420196E+03
Ar  458  0.1425734E+02  0.1411844E+02  0.1102310E+02  0.9516918E+02
Ar  459  0.1365658E+02  0.1071840E+02  0.1241140E+02  0.4595126E+03
Ar  460  0.1216858E+02  0.1407800E+02  0.1431355E+02  0.2325511E+03
Ar  461  0.1021192E+02  0.1167099E+02  0.1643797E+02  0.1734591E+03
Ar  462  0.1350566E+02  0.1156024E+02  0.1614831E+02  0.1691947E+03
Ar  463  0.1456398E+02  0.1015980E+02  0.1876107E+02  0.5051084E+03
Ar  464  0.1076605E+02  0.1455813E+02  0.1782880E+02  0.1662132E+02
Ar  465  0.1089027E+02  0.1256858E+02  0.2046307E+02  0.4785932E+03
Ar  466  0.1466706E+02  0.1316391E+02  0.2059118E+02  0.6617777E+03
Ar  467  0.1362895E+02  0.1134055E+02  0.2287335E+02  0.2007129E+03
Ar  468  0.1158030E+02  0.1557764E+02  0.2426966E+02  0.2707749E+03
Ar  469  0.1022216E+02  0.1198080E+02  0.2409542E+02  0.3605234E+03
Ar  470  0.1309600E+02  0.1352276E+02  0.2708020E+02  0.8133561E+03
Ar  471  0.1215832E+02  0.1165875E+02  0.2970862E+02  0.3780962E+02
Ar  472  0.8923682E+01  0.1384142E+02  0.2967597E+02  0.2028492E+03
Ar  473  0.1022324E+02  0.1181547E+02  0.3244707E+02  0.3848991E+02
Ar  474  0.1294207E+02  0.1408369E+02  0.3267718E+02  0.3420093E+03
Ar  475  0.1354485E+02  0.1125397E+02  0.3521661E+02  0.6492233E+03
Ar  476  0.1025509E+02  0.1362356E+02  0.3505503E+02  0.7807237E+03
Ar  477  0.1118039E+02  0.1587215E+02  0.1614069E+01  0.2909159E+03
Ar  478  0.1322871E+02  0.1912174E+02  0.1562756E+00  0.3586728E+03
Ar  479  0.1383251E+02  0.1778449E+02  0.3179376E+01  0.1493208E+03
Ar  480  0.1124088E+02  0.1941809E+02  0.2976355E+01  0.4791209E+02
Ar  481  0.1145791E+02  0.1646838E+02  0.5238290E+01  0.8286318E+02
Ar  482  0.1316074E+02  0.1963956E+02  0.5910623E+01  0.5074233E+02
Ar  483  0.1357363E+02  0.1692983E+02  0.8724671E+01  0.2272866E+03
Ar  484  0.1075816E+02  0.1866046E+02  0.8176097E+01  0.2698474E+03
Ar  485  0.1060909E+02  0.1624697E+02  0.1123314E+02  0.4897039E+03
Ar  486  0.1415756E+02  0.2077234E+02  0.1170173E+02  0.5903624E+03
Ar  487  0.1393072E+02  0.1762604E+02  0.1288551E+02  0.2777097E+03
Ar  488  0.1055421E+02  0.1937076E+02  0.1226761E+02  0.4237769E+03
Ar  489  0.1116812E+02  0.1745391E+02  0.1519547E+02  0.1980672E+03
Ar  490  0.1399805E+02  0.1916332E+02  0.1680716E+02  0.6970048E+02
Ar  491  0.1415059E+02  0.1536479E+02  0.1785532E+02  0.3751859E+03
Ar  492  0.1084879E+02  0.1889843E+02  0.1859216E+02  0.3763554E+03
Ar  493  0.1214312E+02  0.1559410E+02  0.2099383E+02  0.3195783E+02
Ar  494  0.1228202E+02  0.1964561E+02  0.2214011E+02  0.2997995E+03
Ar  495  0.1482217E+02  0.1599934E+02  0.2314844E+02  0.2869649E+03
Ar  496  0.1088788E+02  0.1855107E+02  0.2495965E+02  0.3674609E+02
Ar  497  0.1059783E+02  0.1576099E+02  0.2723011E+02  0.3103838E+03
Ar  498  0.1296755E+02  0.1865692E+02  0.2750497E+02  0.1969388E+03
Ar  499  0.1308201E+02  0.1586532E+02  0.2952704E+02  0.6073527E+03
Ar  500  0.9884185E+01  0.1845749E+02  0.2949339E+02  0.4566298E+02
Ar  501  0.1019367E+02  0.1591667E+02  0.3187479E+02  0.9648943E+03
Ar  502  0.1354783E+02  0.1772585E+02  0.3248772E+02  0.4366698E+03
Ar  503  0.1389318E+02  0.1644653E+02  0.3589808E+02  0.5536891E+02
Ar  504  0.1072919E+02  0.1750367E+02  0.3569641E+02  0.9695886E+02
Ar  505  0.1102257E+02  0.2148516E+02  0.3756068E+02  0.2736757E+03
Ar  506  0.1320826E+02  0.2412844E+02  0.3704089E+02  0.6943669E+03
Ar  507  0.1360399E+02  0.2194847E+02  0.2629569E+01  0.1894833E+03
Ar  508  0.1162746E+02  0.2462079E+02  0.2069265E+01  0.1234038E+03
Ar  509  0.1131438E+02  0.2209484E+02  0.5399102E+01  0.2909492E+03
Ar  510  0.1381095E+02  0.2520033E+02  0.4600069E+01  0.4503001E+03
Ar  511  0.1351843E+02  0.2198459E+02  0.8319658E+01  0.5560524E+03
Ar  512  0.1147250E+02  0.2485986E+02  0.7850397E+01  0.1367383E+03
Ar  513  0.1042694E+02  0.2226439E+02  0.1065416E+02  0.5196092E+03
Ar  514  0.1459393E+02  0.2449650E+02  0.1148830E+02  0.4281983E+03
Ar  515  0.1302913E+02  0.2218642E+02  0.1469765E+02  0.2254064E+03
Ar  516  0.1100800E+02  0.2565464E+02  0.1378095E+02  0.5356068E+03
Ar  517  0.1041476E+02  0.2180375E+02  0.1690499E+02  0.3685489E+03
Ar  518  0.1343348E+02  0.2526655E+02  0.1646043E+02  0.3255495E+02
Ar  519  0.1306953E+02  0.2151895E+02  0.1873212E+02  0.1740486E+03
Ar  520  0.9807328E+01  0.2405325E+02  0.1946678E+02  0.1265170E+03
Ar  521  0.9565955E+01  0.2143896E+02  0.2132004E+02  0.1528653E+03
Ar  522  0.1296199E+02  0.2362460E+02  0.2132600E+02  0.7230298E+03
Ar  523  0.1132088E+02  0.2180337E+02  0.2471258E+02  0.2492393E+03
Ar  524  0.9941840E+01  0.2480524E+02  0.2369582E+02  0.1033681E+03
Ar  525  0.1092635E+02  0.2162137E+02  0.2796651E+02  0.1031199E+04
Ar  526  0.1348807E+02  0.2399954E+02  0.2890921E+02  0.1323109E+03
Ar  527  0.1273846E+02  0.2082013E+02  0.3036411E+02  0.3246459E+03
Ar  528  0.8078443E+01  0.2392174E+02  0.2789122E+02  0.8202669E+03
Ar  529  0.9634368E+01  0.2313800E+02  0.3080722E+02  0.2269177E+03
Ar  530  0.1269572E+02  0.2410340E+02  0.3209665E+02  0.2667565E+03
Ar  531  0.1156181E+02  0.2075546E+02  0.3394419E+02  0.5976350E+03
Ar  532  0.1065189E+02  0.2453545E+02  0.3508987E+02  0.2857421E+03
Ar  533  0.8202354E+01  0.2749573E+02  0.3510685E+02  0.8656920E+02
Ar  534  0.1111784E+02  0.2713659E+02  0.3747947E+02  0.2134161E+03
Ar  535  0.1396317E+02  0.2713836E+02  0.1328696E+01  0.1141013E+03
Ar  536  0.1196643E+02  0.2949305E+02  0.2343878E+01  0.2509789E+03
Ar  537  0.1159877E+02  0.2782517E+02  0.4908877E+01  0.3001627E+03
Ar  538  0.1363499E+02  0.2980060E+02  0.7042486E+01  0.5969479E+03
Ar  539  0.1415068E+02  0.2671582E+02  0.8432367E+01  0.1439227E+03
Ar  540  0.1056541E+02  0.2911590E+02  0.7867018E+01  0.3509917E+03
Ar  541  0.1165187E+02  0.2710185E+02  0.1081794E+02  0.2073651E+03
Ar  542  0.1486213E+02  0.2992367E+02  0.1006989E+02  0.4065491E+03
Ar  543  0.1381133E+02  0.2763739E+02  0.1343861E+02  0.2257169E+03
Ar  544  0.1111506E+02  0.2927506E+02  0.1415911E+02  0.3729133E+03
Ar  545  0.1091992E+02  0.2731966E+02  0.1726013E+02  0.7646543E+02
Ar  546  0.1416413E+02  0.2940732E+02  0.1636679E+02  0.1306993E+03
Ar  547  0.1311945E+02  0.2714319E+02  0.1998880E+02  0.6777455E+02
Ar  548  0.1099204E+02  0.3041968E+02  0.1812877E+02  0.9172949E+02
Ar  549  0.9866120E+01  0.2706660E+02  0.2108670E+02  0.9600699E+03
Ar  550  0.1272363E+02  0.3039104E+02  0.2118223E+02  0.3545590E+03
Ar  551  0.1221006E+02  0.2719612E+02  0.2340590E+02  0.4007767E+03
Ar  552  0.1005372E+02  0.2985734E+02  0.2566752E+02  0.6914598E+03
Ar  553  0.9928844E+01  0.2695682E+02  0.2750066E+02  0.5110396E+03
Ar  554  0.1286221E+02  0.3022998E+02  0.2794560E+02  0.2425355E+03
Ar  555  0.1272620E+02  0.2715648E+02  0.2983793E+02  0.1667512E+03
Ar  556  0.9688975E+01  0.2971414E+02  0.2916752E+02  0.6411455E+02
Ar  557  0.1073073E+02  0.2681759E+02  0.3266482E+02  0.4230929E+03
Ar  558  0.1297832E+02  0.2958432E+02  0.3204242E+02  0.2137999E+03
Ar  559  0.1386469E+02  0.2651526E+02  0.3458993E+02  0.1493453E+02
Ar  560  0.1068083E+02  0.3039858E+02  0.3471597E+02  0.4203905E+03
Ar  561  0.1224304E+02  0.3205805E+02  0.3759000E+02  0.6246995E+03
Ar  562  0.1558867E+02  0.3519618E+02  0.3709914E+02  0.1627529E+03
Ar  563  0.1583146E+02  0.3174865E+02  0.7014180E-01  0.4089075E+03
Ar  564  0.9987732E+01  0.3540422E+02  0.2182739E+01  0.1410604E+03
Ar  565  0.1104550E+02  0.3250428E+02  0.3745292E+01  0.1959557E+03
Ar  566  0.1192018E+02  0.3528527E+02  0.5168540E+01  0.1788225E+03
Ar  567  0.1424137E+02  0.3267168E+02  0.5484248E+01  0.8002366E+03
Ar  568  0.1168841E+02  0.3306981E+02  0.7888130E+01  0.2079804E+03
Ar  569  0.1151842E+02  0.3099590E+02  0.1100619E+02  0.6575386E+02
Ar  570  0.1414880E+02  0.3381715E+02  0.1042046E+02  0.1767191E+03
Ar  571  0.1391632E+02  0.3128544E+02  0.1326725E+02  0.4953709E+03
Ar  572  0.1159674E+02  0.3445706E+02  0.1269734E+02  0.1395017E+03
Ar  573  0.1165879E+02  0.3242362E+02  0.1565001E+02  0.6848919E+03
Ar  574  0.1301073E+02  0.3552299E+02  0.1593138E+02  0.6345737E+03
Ar  575  0.1319010E+02  0.3285956E+02  0.1867824E+02  0.1119707E+03
Ar  576  0.8301002E+01  0.3975151E-01  0.1805758E+02  0.8409906E+02
Ar  577  0.1040815E+02  0.3300307E+02  0.2093480E+02  0.1853744E+03
Ar  578  0.1275648E+02  0.3553161E+02  0.2191807E+02  0.3859457E+03
Ar  579  0.1300179E+02  0.3266958E+02  0.2428206E+02  0.1424450E+03
Ar  580  0.1003158E+02  0.3516786E+02  0.2410289E+02  0.5471759E+03
Ar  581  0.9781207E+01  0.3273712E+02  0.2688270E+02  0.9735004E+02
Ar  582  0.1250575E+02  0.3472035E+02  0.2720476E+02  0.2460326E+03
Ar  583  0.1261148E+02  0.3255874E+02  0.2992604E+02  0.3572535E+03
Ar  584  0.9826091E+01  0.3540974E+02  0.2963343E+02  0.8486930E+03
Ar  585  0.1043014E+02  0.3299347E+02  0.3209952E+02  0.2033265E+03
Ar  586  0.1371228E+02  0.3613001E+02  0.3075040E+02  0.4394286E+02
Ar  587  0.1397847E+02  0.3340754E+02  0.3489782E+02  0.3435788E+03
Ar  588  0.1033100E+02  0.3437069E+02  0.3576118E+02  0.4909324E+03
Ar  589  0.1712294E+02  0.3769488E+02  0.3537138E+02  0.6962040E+03
Ar  590  0.2116721E+02  0.5517392E+01  0.1133570E+01  0.1486283E+03
Ar  591  0.1858764E+02  0.3722879E+02  0.1155133E+01  0.2420189E+03
Ar  592  0.1592928E+02  0.5570430E+00  0.2711693E+01  0.4094643E+03
Ar  593  0.1544969E+02  0.3574513E+02  0.5259070E+01  0.4111070E+03
Ar  594  0.1829433E+02  0.9328540E+00  0.5261696E+01  0.2225959E+03
Ar  595  0.1813217E+02  0.3729407E+02  0.8280559E+01  0.1403231E+03
Ar  596  0.1501286E+02  0.7586833E+00  0.6921064E+01  0.6446832E+01
Ar  597  0.1608044E+02  0.3695869E+02  0.1095063E+02  0.3244755E+03
Ar  598  0.2024253E+02  0.3085626E+01  0.1089423E+02  0.3611759E+03
Ar  599  0.1885415E+02  0.1061711E+00  0.1274005E+02  0.1570353E+03
Ar  600  0.1517235E+02  0.3419572E+01  0.1296365E+02  0.6497086E+03
Ar  601  0.1651784E+02  0.3715925E+02  0.1647678E+02  0.6381102E+03
Ar  602  0.1878579E+02  0.2516642E+01  0.1650883E+02  0.2568679E+03
Ar  603  0.1925704E+02  0.3719033E+02  0.2001242E+02  0.1137553E+03
Ar  604  0.1741002E+02  0.2174164E+01  0.1968811E+02  0.4588531E+03
Ar  605  0.1669640E+02  0.7485765E-01  0.2222011E+02  0.2472598E+03
Ar  606  0.1837964E+02  0.2940066E+01  0.2396548E+02  0.5400637E+03
Ar  607  0.1830002E+02  0.3656371E+02  0.2643871E+02  0.1598057E+04
Ar  608  0.1507380E+02  0.2404472E+01  0.2497295E+02  0.6182450E+03
Ar  609  0.1448996E+02  0.3732882E+02  0.2686706E+02  0.7450171E+03
Ar  610  0.1848919E+02  0.2643144E+01  0.2720609E+02  0.4870801E+03
Ar  611  0.2024415E+02  0.8395889E+00  0.2964349E+02  0.9681703E+02
Ar  612  0.1566515E+02  0.2618803E+01  0.2913658E+02  0.9409418E+03
Ar  613  0.1736371E+02  0.3247811E+00  0.3132562E+02  0.3593202E+03
Ar  614  0.1811893E+02  0.3776854E+01  0.3120281E+02  0.5766619E+02
Ar  615  0.2022632E+02  0.3762908E+02  0.3359382E+02  0.5518313E+03
Ar  616  0.1696514E+02  0.3919752E+01  0.3596400E+02  0.2690483E+03
Ar  617  0.1647625E+02  0.7112473E+01  0.3675361E+02  0.4129501E+03
Ar  618  0.1968945E+02  0.8727622E+01  0.4324766E+00  0.1335586E+03
Ar  619  0.1670565E+02  0.3844403E+01  0.1293795E+01  0.7407055E+03
Ar  620  0.1544621E+02  0.7385434E+01  0.2591817E+01  0.1826805E+03
Ar  621  0.1612557E+02  0.3566341E+01  0.4857793E+01  0.1015969E+03
Ar  622  0.1807006E+02  0.6715735E+01  0.5898317E+01  0.3576128E+03
Ar  623  0.1792026E+02  0.3113472E+01  0.7971890E+01  0.2015855E+03
Ar  624  0.1622672E+02  0.8143686E+01  0.8083401E+01  0.2178014E+03
Ar  625  0.1651621E+02  0.4859787E+01  0.1043779E+02  0.8983250E+02
Ar  626  0.1922626E+02  0.7095401E+01  0.9824844E+01  0.1380305E+03
Ar  627  0.1842553E+02  0.4684262E+01  0.1388311E+02  0.3227140E+03
Ar  628  0.1643530E+02  0.7217615E+01  0.1274825E+02  0.2363648E+02
Ar  629  0.1579059E+02  0.5538636E+01  0.1566898E+02  0.1135239E+04
Ar  630  0.1992940E+02  0.7966765E+01  0.1526868E+02  0.6897033E+03
Ar  631  0.1855307E+02  0.5576437E+01  0.1808717E+02  0.5053928E+03
Ar  632  0.1573064E+02  0.7170597E+01  0.2028652E+02  0.4660866E+03
Ar  633  0.1561657E+02  0.4871704E+01  0.2266803E+02  0.2584977E+03
Ar  634  0.1913400E+02  0.8386235E+01  0.2127020E+02  0.2212346E+03
Ar  635  0.1813409E+02  0.6619066E+01  0.2436540E+02  0.1610488E+03
Ar  636  0.1511068E+02  0.8483802E+01  0.2461712E+02  0.8285341E+02
Ar  637  0.1589861E+02  0.5304071E+01  0.2717710E+02  0.3435170E+03
Ar  638  0.1725178E+02  0.8203267E+01  0.2756807E+02  0.4685795E+03
Ar  639  0.1945238E+02  0.5956561E+01  0.2810419E+02  0.3944042E+03
Ar  640  0.1523706E+02  0.9601539E+01  0.3062775E+02  0.4250025E+03
Ar  641  0.1539706E+02  0.5724801E+01  0.3307316E+02  0.1820048E+03
Ar  642  0.1799353E+02  0.7415781E+01  0.3122642E+02  0.2045399E+03
Ar  643  0.1942959E+02  0.7427579E+01  0.3502660E+02  0.4658703E+03
Ar  644  0.1623572E+02  0.9182967E+01  0.3365348E+02  0.1353594E+03
Ar  645  0.1557977E+02  0.1074285E+02  0.3507234E+00  0.4709116E+03
Ar  646  0.1809595E+02  0.1333612E+02  0.7456479E+00  0.2114331E+02
Ar  647  0.1903106E+02  0.9465615E+01  0.3823225E+01  0.4605311E+02
Ar  648  0.1652286E+02  0.1277930E+02  0.3762443E+01  0.2289727E+03
Ar  649  0.1583604E+02  0.1133634E+02  0.6884325E+01  0.8863157E+02
Ar  650  0.1919924E+02  0.1416115E+02  0.5319685E+01  0.4243663E+03
Ar  651  0.1982519E+02  0.9934617E+01  0.8094730E+01  0.9973212E+03
Ar  652  0.1744731E+02  0.1377895E+02  0.8391788E+01  0.1705277E+02
Ar  653  0.1678640E+02  0.1058035E+02  0.1092621E+02  0.2292579E+03
Ar  654  0.1945151E+02  0.1261489E+02  0.1147222E+02  0.1756443E+03
Ar  655  0.1931073E+02  0.9713818E+01  0.1259776E+02  0.3327567E+03
Ar  656  0.1922297E+02  0.1578691E+02  0.1275593E+02  0.7793437E+03
Ar  657  0.1671573E+02  0.1107074E+02  0.1446789E+02  0.3222325E+03
Ar  658  0.1917799E+02  0.1303716E+02  0.1492503E+02  0.1923233E+03
Ar  659  0.1792152E+02  0.9448491E+01  0.1780191E+02  0.2430033E+03
Ar  660  0.1712137E+02  0.1298195E+02  0.1845564E+02  0.6324950E+03
Ar  661  0.1713357E+02  0.1045223E+02  0.2278494E+02  0.9904243E+02
Ar  662  0.1899428E+02  0.1315457E+02  0.2131072E+02  0.4013476E+03
Ar  663  0.1923159E+02  0.1014795E+02  0.2533435E+02  0.2129275E+03
Ar  664  0.1662590E+02  0.1334205E+02  0.2445034E+02  0.1270803E+03
Ar  665  0.1564400E+02  0.1127136E+02  0.2756333E+02  0.2932604E+03
Ar  666  0.1905305E+02  0.1351939E+02  0.2697574E+02  0.4500901E+03
Ar  667  0.2098835E+02  0.8938539E+01  0.2904577E+02  0.7358786E+03
Ar  668  0.1565740E+02  0.1357568E+02  0.2995235E+02  0.5130951E+02
Ar  669  0.1585055E+02  0.1227952E+02  0.3308835E+02  0.8045524E+03
Ar  670  0.1990540E+02  0.1207028E+02  0.3015342E+02  0.6796485E+03
Ar  671  0.1835559E+02  0.1100426E+02  0.3552292E+02  0.4672038E+02
Ar  672  0.1811267E+02  0.1451244E+02  0.3532215E+02  0.2591505E+03
Ar  673  0.1649244E+02  0.1683617E+02  0.9813906E+00  0.3509974E+03
Ar  674  0.1839072E+02  0.1947540E+02  0.3708463E+02  0.4544854E+03
Ar  675  0.1951021E+02  0.1665657E+02  0.2520213E+01  0.1727333E+03
Ar  676  0.1662085E+02  0.1998787E+02  0.3332158E+01  0.1335219E+03
Ar  677  0.1688872E+02  0.1701470E+02  0.6035835E+01  0.3996782E+03
Ar  678  0.1954843E+02  0.1890791E+02  0.6334987E+01  0.3569185E+03
Ar  679  0.2000134E+02  0.1593388E+02  0.9035805E+01  0.4289303E+03
Ar  680  0.1658288E+02  0.2041837E+02  0.9551141E+01  0.9579012E+02
Ar  681  0.1661429E+02  0.1719009E+02  0.1003794E+02  0.5648472E+03
Ar  682  0.1994695E+02  0.1865630E+02  0.1149114E+02  0.5949069E+03
Ar  683  0.2165690E+02  0.1787955E+02  0.1501428E+02  0.3407690E+03
Ar  684  0.1719795E+02  0.1819419E+02  0.1360211E+02  0.6558745E+03
Ar  685  0.1587142E+02  0.1505278E+02  0.1388945E+02  0.6906914E+02
Ar  686  0.1827000E+02  0.2006326E+02  0.1598015E+02  0.8054514E+02
Ar  687  0.1740845E+02  0.1694528E+02  0.1744921E+02  0.5296022E+03
Ar  688  0.1562542E+02  0.1936737E+02  0.1991777E+02  0.1658987E+04
Ar  689  0.1707225E+02  0.1629878E+02  0.2063749E+02  0.6622092E+03
Ar  690  0.1762200E+02  0.1883945E+02  0.2291096E+02  0.2412554E+03
Ar  691  0.1842151E+02  0.1621434E+02  0.2519798E+02  0.7349740E+02
Ar  692  0.1463812E+02  0.1940091E+02  0.2440363E+02  0.3643158E+03
Ar  693  0.1580115E+02  0.1592648E+02  0.2750125E+02  0.2249143E+03
Ar  694  0.1756170E+02  0.1885741E+02  0.2718751E+02  0.1419179E+03
Ar  695  0.1862922E+02  0.1523538E+02  0.2989911E+02  0.4934360E+03
Ar  696  0.1526802E+02  0.1888948E+02  0.3018648E+02  0.9794539E+03
Ar  697  0.1635949E+02  0.1606575E+02  0.3208453E+02  0.2792004E+03
Ar  698  0.1832389E+02  0.2074685E+02  0.3340132E+02  0.6534445E+02
Ar  699  0.1921109E+02  0.1766253E+02  0.3422336E+02  0.1899812E+03
Ar  700  0.1501067E+02  0.1961077E+02  0.3465767E+02  0.9463531E+03
Ar  701  0.1579238E+02  0.2139237E+02  0.3739827E+02  0.4192134E+03
Ar  702  0.1663166E+02  0.2563591E+02  0.3672989E+02  0.5330765E+03
Ar  703  0.1899790E+02  0.2202015E+02  0.4971078E+01  0.9433545E+02
Ar  704  0.1640843E+02  0.2372307E+02  0.1984242E+01  0.1137058E+03
Ar  705  0.1560329E+02  0.2214708E+02  0.5892874E+01  0.2890398E+03
Ar  706  0.1950258E+02  0.2544474E+02  0.5649480E+01  0.2933531E+03
Ar  707  0.1990988E+02  0.2119218E+02  0.8808828E+01  0.1983474E+03
Ar  708  0.1692223E+02  0.2428614E+02  0.8356683E+01  0.2141010E+03
Ar  709  0.1721234E+02  0.2181246E+02  0.1281611E+02  0.2245559E+03
Ar  710  0.1970429E+02  0.2441549E+02  0.1060568E+02  0.6210916E+03
Ar  711  0.2093716E+02  0.2150322E+02  0.1483626E+02  0.6133068E+02
Ar  712  0.1654466E+02  0.2588978E+02  0.1454939E+02  0.2041194E+03
Ar  713  0.1597502E+02  0.2254500E+02  0.1614609E+02  0.6809455E+03
Ar  714  0.1878671E+02  0.2497271E+02  0.1739475E+02  0.1803005E+03
Ar  715  0.1842050E+02  0.2133791E+02  0.1937122E+02  0.1071416E+03
Ar  716  0.1555957E+02  0.2373062E+02  0.1926208E+02  0.6675933E+03
Ar  717  0.1602453E+02  0.2195610E+02  0.2279276E+02  0.4946644E+03
Ar  718  0.1894318E+02  0.2365029E+02  0.2169404E+02  0.5197238E+03
Ar  719  0.1919366E+02  0.2114226E+02  0.2464497E+02  0.2486437E+03
Ar  720  0.1289749E+02  0.2493567E+02  0.2588687E+02  0.1818474E+03
Ar  721  0.1512040E+02  0.2192650E+02  0.2647931E+02  0.9485041E+02
Ar  722  0.1718114E+02  0.2443612E+02  0.2539748E+02  0.2094437E+03
Ar  723  0.1940131E+02  0.2245335E+02  0.2881381E+02  0.1020399E+04
Ar  724  0.1590878E+02  0.2630954E+02  0.2782130E+02  0.6120595E+03
Ar  725  0.1600038E+02  0.2249049E+02  0.3036009E+02  0.3659586E+03
Ar  726  0.1857977E+02  0.2430357E+02  0.3150643E+02  0.2650688E+03
Ar  727  0.1903656E+02  0.2336984E+02  0.3530506E+02  0.2992368E+02
Ar  728  0.1572695E+02  0.2307975E+02  0.3397989E+02  0.4028165E+03
Ar  729  0.1382957E+02  0.2928749E+02  0.3631680E+02  0.1987445E+03
Ar  730  0.1732107E+02  0.2903509E+02  0.3749470E+02  0.6253361E+03
Ar  731  0.1826260E+02  0.2642861E+02  0.2031602E+01  0.7256627E+03
Ar  732  0.1532345E+02  0.3016918E+02  0.2636297E+01  0.1959305E+03
Ar  733  0.1614945E+02  0.2739155E+02  0.4826189E+01  0.5938509E+02
Ar  734  0.1928915E+02  0.2849176E+02  0.5499478E+01  0.3368571E+03
Ar  735  0.1923655E+02  0.2699428E+02  0.8651807E+01  0.3864252E+03
Ar  736  0.1741895E+02  0.2985230E+02  0.7719447E+01  0.2000773E+03
Ar  737  0.1661209E+02  0.2747428E+02  0.1065646E+02  0.2558588E+02
Ar  738  0.2141278E+02  0.2873410E+02  0.1076035E+02  0.5550635E+03
Ar  739  0.1929635E+02  0.2704395E+02  0.1293005E+02  0.1045641E+04
Ar  740  0.1697264E+02  0.2943187E+02  0.1416418E+02  0.3792133E+03
Ar  741  0.1600225E+02  0.2732941E+02  0.1805767E+02  0.9245344E+03
Ar  742  0.1828841E+02  0.3056651E+02  0.1696695E+02  0.3521572E+03
Ar  743  0.1809716E+02  0.2740928E+02  0.2033496E+02  0.4409607E+03
Ar  744  0.1600582E+02  0.3086143E+02  0.1911743E+02  0.6374188E+03
Ar  745  0.1611999E+02  0.2549882E+02  0.2249195E+02  0.1666791E+03
Ar  746  0.1885219E+02  0.3087626E+02  0.2262914E+02  0.1880165E+03
Ar  747  0.1796819E+02  0.2765130E+02  0.2510145E+02  0.3427321E+03
Ar  748  0.1578471E+02  0.2873246E+02  0.2222347E+02  0.5091022E+03
Ar  749  0.1485460E+02  0.2944155E+02  0.2531438E+02  0.5425824E+03
Ar  750  0.1802771E+02  0.3025343E+02  0.2731950E+02  0.4509883E+03
Ar  751  0.1964293E+02  0.2578219E+02  0.2772137E+02  0.2272028E+02
Ar  752  0.1581558E+02  0.2946702E+02  0.2953190E+02  0.1127685E+03
Ar  753  0.1559536E+02  0.2585230E+02  0.3181858E+02  0.1759624E+03
Ar  754  0.1880083E+02  0.2814888E+02  0.3120094E+02  0.1524391E+04
Ar  755  0.1938551E+02  0.2628037E+02  0.3428349E+02  0.1077657E+03
Ar  756  0.1651159E+02  0.2846592E+02  0.3383069E+02  0.4806980E+03
Ar  757  0.1769883E+02  0.3210861E+02  0.3503315E+02  0.1060179E+03
Ar  758  0.1960802E+02  0.3456941E+02  0.3691174E+02  0.4154468E+03
Ar  759  0.1893587E+02  0.3166242E+02  0.1161322E+01  0.8166817E+02
Ar  760  0.1656268E+02  0.3385271E+02  0.2461487E+01  0.8778478E+03
Ar  761  0.1807948E+02  0.3164224E+02  0.4801671E+01  0.1801042E+03
Ar  762  0.1916703E+02  0.3529489E+02  0.4302653E+01  0.5533645E+03
Ar  763  0.1965540E+02  0.3255864E+02  0.7568826E+01  0.3978805E+02
Ar  764  0.1685146E+02  0.3367158E+02  0.7356165E+01  0.4617877E+03
Ar  765  0.1817763E+02  0.3098431E+02  0.1080534E+02  0.9517639E+02
Ar  766  0.1820595E+02  0.3439417E+02  0.1152039E+02  0.2596087E+03
Ar  767  0.1934014E+02  0.3178362E+02  0.1397634E+02  0.3570719E+03
Ar  768  0.1598626E+02  0.3505298E+02  0.1378066E+02  0.1223190E+03
Ar  769  0.1520762E+02  0.3246474E+02  0.1610502E+02  0.1855965E+03
Ar  770  0.1837908E+02  0.3444087E+02  0.1653837E+02  0.2238595E+02
Ar  771  0.1923091E+02  0.3344041E+02  0.2022486E+02  0.2914964E+03
Ar  772  0.1612335E+02  0.3461258E+02  0.1960331E+02  0.8966837E+02
Ar  773  0.1564108E+02  0.3217959E+02  0.2190231E+02  0.2524253E+03
Ar  774  0.1968755E+02  0.3476347E+02  0.2366847E+02  0.9292846E+03
Ar  775  0.1773580E+02  0.3275677E+02  0.2522768E+02  0.4013823E+03
Ar  776  0.1554587E+02  0.3503858E+02  0.2426098E+02  0.1044738E+03
Ar  777  0.1534287E+02  0.3289827E+02  0.2828842E+02  0.2718504E+03
Ar  778  0.2061697E+02  0.3379198E+02  0.2752610E+02  0.2203813E+03
Ar  779  0.1862952E+02  0.3215400E+02  0.3054455E+02  0.2143978E+03
Ar  780  0.1730785E+02  0.3540016E+02  0.2942685E+02  0.3907997E+02
Ar  781  0.1583483E+02  0.3179221E+02  0.3228694E+02  0.3963757E+02
Ar  782  0.2059697E+02  0.3539091E+02  0.3054513E+02  0.6449037E+02
Ar  783  0.2037582E+02  0.3033569E+02  0.3371238E+02  0.5894576E+03
Ar  784  0.1733637E+02  0.3529442E+02  0.3338539E+02  0.2560760E+02
Ar  785  0.2022989E+02  0.2273341E+01  0.3737150E+02  0.5681363E+02
Ar  786  0.2362614E+02  0.1396672E+01  0.1624808E+01  0.1739880E+03
Ar  787  0.2492535E+02  0.3672857E+02  0.3583541E+01  0.7466728E+03
Ar  788  0.2088141E+02  0.9975124E+00  0.3614298E+01  0.2553689E+03
Ar  789  0.2222141E+02  0.3621819E+02  0.5626620E+01  0.3878849E+03
Ar  790  0.2394253E+02  0.2513950E+01  0.5336691E+01  0.2848318E+03
Ar  791  0.2440186E+02  0.3749752E+02  0.9213867E+01  0.2182733E+03
Ar  792  0.2139498E+02  0.1001895E+01  0.7793496E+01  0.5655463E+03
Ar  793  0.2232542E+02  0.3737619E+02  0.1177086E+02  0.1870809E+03
Ar  794  0.2394462E+02  0.2588340E+01  0.1093985E+02  0.1494460E+03
Ar  795  0.2545209E+02  0.3767151E+02  0.1360580E+02  0.2323355E+03
Ar  796  0.2177977E+02  0.1839104E+01  0.1411643E+02  0.3844515E+03
Ar  797  0.2039150E+02  0.3748370E+02  0.1609771E+02  0.1581074E+03
Ar  798  0.2478904E+02  0.2046027E+01  0.1604733E+02  0.2781936E+02
Ar  799  0.2252193E+02  0.6392595E+00  0.1860321E+02  0.4058474E+03
Ar  800  0.2063664E+02  0.3530294E+01  0.1953819E+02  0.1230981E+03
Ar  801  0.2097942E+02  0.3012011E+00  0.2264451E+02  0.6394863E+02
Ar  802  0.2823675E+02  0.4097958E+01  0.2363820E+02  0.4466634E+03
Ar  803  0.2469099E+02  0.6601175E+00  0.2391124E+02  0.4213558E+02
Ar  804  0.2174166E+02  0.2601570E+01  0.2467755E+02  0.3998453E+03
Ar  805  0.2142746E+02  0.3748125E+02  0.2636867E+02  0.3529672E+03
Ar  806  0.2521427E+02  0.2367719E+01  0.2752283E+02  0.1009752E+02
Ar  807  0.2553196E+02  0.1180839E+01  0.3201514E+02  0.1103065E+03
Ar  808  0.2189928E+02  0.2991503E+01  0.3167905E+02  0.8235896E+03
Ar  809  0.2334974E+02  0.1412989E+01  0.3481033E+02  0.9375730E+03
Ar  810  0.2358920E+02  0.3598520E+02  0.3263214E+02  0.1476463E+03
Ar  811  0.2626751E+02  0.3610099E+02  0.3469452E+02  0.1997780E+03
Ar  812  0.2366854E+02  0.4124128E+01  0.3656849E+02  0.6440008E+03
Ar  813  0.2437184E+02  0.5127296E+01  0.2421955E+01  0.5611188E+02
Ar  814  0.2519458E+02  0.7934357E+01  0.6914659E+00  0.5620573E+03
Ar  815  0.2751023E+02  0.4910805E+01  0.3728980E+02  0.1233645E+03
Ar  816  0.2202496E+02  0.8712081E+01  0.2926846E+01  0.8161917E+02
Ar  817  0.2062654E+02  0.4321217E+01  0.4372242E+01  0.5211126E+03
Ar  818  0.2516475E+02  0.8302597E+01  0.4626580E+01  0.1649370E+03
Ar  819  0.2459535E+02  0.5346755E+01  0.6797035E+01  0.2886719E+03
Ar  820  0.2181168E+02  0.7316039E+01  0.5678244E+01  0.9946972E+03
Ar  821  0.2115387E+02  0.4974217E+01  0.7778112E+01  0.3276401E+03
Ar  822  0.2370223E+02  0.6553033E+01  0.1026356E+02  0.4982581E+03
Ar  823  0.2394455E+02  0.4541801E+01  0.1366478E+02  0.1068905E+03
Ar  824  0.2125088E+02  0.5851856E+01  0.1254282E+02  0.8972659E+02
Ar  825  0.2154323E+02  0.4110433E+01  0.1647516E+02  0.2901642E+03
Ar  826  0.2352024E+02  0.7538489E+01  0.1574238E+02  0.1180600E+04
Ar  827  0.2409880E+02  0.4676291E+01  0.1855526E+02  0.6697548E+03
Ar  828  0.2146313E+02  0.7406977E+01  0.1911355E+02  0.6454378E+03
Ar  829  0.2378493E+02  0.2796866E+01  0.2153543E+02  0.4303124E+02
Ar  830  0.2373362E+02  0.8503511E+01  0.2121129E+02  0.1611599E+03
Ar  831  0.2395694E+02  0.5068211E+01  0.2583908E+02  0.1562781E+04
Ar  832  0.2202555E+02  0.6014729E+01  0.2251323E+02  0.2471808E+03
Ar  833  0.2185460E+02  0.3304317E+01  0.2794771E+02  0.3707872E+03
Ar  834  0.2404700E+02  0.7748458E+01  0.2841384E+02  0.2148458E+03
Ar  835  0.2454047E+02  0.4851615E+01  0.2986468E+02  0.7490977E+03
Ar  836  0.2150782E+02  0.6008169E+01  0.3066259E+02  0.3175440E+02
Ar  837  0.2099344E+02  0.4223859E+01  0.3471820E+02  0.1151296E+03
Ar  838  0.2396079E+02  0.7501370E+01  0.3281302E+02  0.6300309E+03
Ar  839  0.2526226E+02  0.4438269E+01  0.3341358E+02  0.2857781E+03
Ar  840  0.2240640E+02  0.7497314E+01  0.3634692E+02  0.2257612E+03
Ar  841  0.2255877E+02  0.1087217E+02  0.3734347E+02  0.7170145E+03
Ar  842  0.2401576E+02  0.1385728E+02  0.5629063E-01  0.2705814E+03
Ar  843  0.2462744E+02  0.1141422E+02  0.2965197E+01  0.1101133E+03
Ar  844  0.2137367E+02  0.1286142E+02  0.2373421E+01  0.5069502E+02
Ar  845  0.2254520E+02  0.1148232E+02  0.5529634E+01  0.5338132E+03
Ar  846  0.2444676E+02  0.1436818E+02  0.4624525E+01  0.6390012E+03
Ar  847  0.2525604E+02  0.1208289E+02  0.7633010E+01  0.2679399E+02
Ar  848  0.2168026E+02  0.1306903E+02  0.8325377E+01  0.1211317E+03
Ar  849  0.2315991E+02  0.9260234E+01  0.8470264E+01  0.1893899E+03
Ar  850  0.2301473E+02  0.1209636E+02  0.1132587E+02  0.1334930E+03
Ar  851  0.2268714E+02  0.9045607E+01  0.1262460E+02  0.1543934E+03
Ar  852  0.2237366E+02  0.1395348E+02  0.1428740E+02  0.2641718E+03
Ar  853  0.2166247E+02  0.1119466E+02  0.1598506E+02  0.1286058E+03
Ar  854  0.2359314E+02  0.1413094E+02  0.1788941E+02  0.1849261E+03
Ar  855  0.2492006E+02  0.1030228E+02  0.1815605E+02  0.5021538E+03
Ar  856  0.2066584E+02  0.1089935E+02  0.1929275E+02  0.4485074E+03
Ar  857  0.1879238E+02  0.5258357E+01  0.2145162E+02  0.6071943E+03
Ar  858  0.2285101E+02  0.1357648E+02  0.2111387E+02  0.4524069E+03
Ar  859  0.2117284E+02  0.1053948E+02  0.2246457E+02  0.1841136E+03
Ar  860  0.2089486E+02  0.1379373E+02  0.2418316E+02  0.1024281E+03
Ar  861  0.2185482E+02  0.7433401E+01  0.2574580E+02  0.4127337E+03
Ar  862  0.2405881E+02  0.1160907E+02  0.2346063E+02  0.1813152E+03
Ar  863  0.2344830E+02  0.1086554E+02  0.3053021E+02  0.1663711E+04
Ar  864  0.2299381E+02  0.1442158E+02  0.3099780E+02  0.3595120E+03
Ar  865  0.2118072E+02  0.9526042E+01  0.3277013E+02  0.5148014E+03
Ar  866  0.2295203E+02  0.1193018E+02  0.3419140E+02  0.3547967E+03
Ar  867  0.2545630E+02  0.9633233E+01  0.3577076E+02  0.2161192E+03
Ar  868  0.2016104E+02  0.1426256E+02  0.3290634E+02  0.3784232E+03
Ar  869  0.2103726E+02  0.1440980E+02  0.3695388E+02  0.1485371E+02
Ar  870  0.2143707E+02  0.1837345E+02  0.3922598E+00  0.3143663E+03
Ar  871  0.2412783E+02  0.1668056E+02  0.2322342E+01  0.5414873E+02
Ar  872  0.2121335E+02  0.2012416E+02  0.3217412E+01  0.6212917E+03
Ar  873  0.2171760E+02  0.1628672E+02  0.5105549E+01  0.6449051E+03
Ar  874  0.2383130E+02  0.2034502E+02  0.6203680E+01  0.1455165E+03
Ar  875  0.2461019E+02  0.1557086E+02  0.8328219E+01  0.4289025E+03
Ar  876  0.2284197E+02  0.1835150E+02  0.9382872E+01  0.3880694E+03
Ar  877  0.2238138E+02  0.1526006E+02  0.1141280E+02  0.3066372E+03
Ar  878  0.2609187E+02  0.1826909E+02  0.1008258E+02  0.3087133E+03
Ar  879  0.2506203E+02  0.1603170E+02  0.1428706E+02  0.9225439E+03
Ar  880  0.2422265E+02  0.1929990E+02  0.1307435E+02  0.4411614E+03
Ar  881  0.2003441E+02  0.1490922E+02  0.1815097E+02  0.1611527E+03
Ar  882  0.2413530E+02  0.1778407E+02  0.1710854E+02  0.1591696E+03
Ar  883  0.2609686E+02  0.1396682E+02  0.2118652E+02  0.3485099E+03
Ar  884  0.2099131E+02  0.1863629E+02  0.1829704E+02  0.4965015E+03
Ar  885  0.2030190E+02  0.1689072E+02  0.2141843E+02  0.2780479E+03
Ar  886  0.2407505E+02  0.1747451E+02  0.2062024E+02  0.2022815E+03
Ar  887  0.2386396E+02  0.1538013E+02  0.2384710E+02  0.7868877E+02
Ar  888  0.2171139E+02  0.1837297E+02  0.2437411E+02  0.3378542E+03
Ar  889  0.2162550E+02  0.1586534E+02  0.2759293E+02  0.3745215E+02
Ar  890  0.2496318E+02  0.1813843E+02  0.2624961E+02  0.4023462E+03
Ar  891  0.2499228E+02  0.1673071E+02  0.2981369E+02  0.3058408E+03
Ar  892  0.1899789E+02  0.1863257E+02  0.3094726E+02  0.6058000E+03
Ar  893  0.2194310E+02  0.1757762E+02  0.3134293E+02  0.6153184E+02
Ar  894  0.2516777E+02  0.1911720E+02  0.3331845E+02  0.2134855E+03
Ar  895  0.2330161E+02  0.1599999E+02  0.3471779E+02  0.8831769E+03
Ar  896  0.2192141E+02  0.1973544E+02  0.3459692E+02  0.1769559E+02
Ar  897  0.2193707E+02  0.2184259E+02  0.3715517E+02  0.1154023E+03
Ar  898  0.2426050E+02  0.2357848E+02  0.1352187E+01  0.5786368E+03
Ar  899  0.2460342E+02  0.2041405E+02  0.2964843E+01  0.3092559E+03
Ar  900  0.2129321E+02  0.2438236E+02  0.3123951E+01  0.1140687E+03
Ar  901  0.2176275E+02  0.2336996E+02  0.7327420E+01  0.4614593E+03
Ar  902  0.2485688E+02  0.2428362E+02  0.6040467E+01  0.1702339E+03
Ar  903  0.2421409E+02  0.2247314E+02  0.9017906E+01  0.2903102E+02
Ar  904  0.2239917E+02  0.2593618E+02  0.9325518E+01  0.8957335E+03
Ar  905  0.2184499E+02  0.2203302E+02  0.1155871E+02  0.2953417E+03
Ar  906  0.2527152E+02  0.2541048E+02  0.1103596E+02  0.3521471E+02
Ar  907  0.2417022E+02  0.2285875E+02  0.1425044E+02  0.6026212E+03
Ar  908  0.2201386E+02  0.2476321E+02  0.1599806E+02  0.5392855E+03
Ar  909  0.2337181E+02  0.2102892E+02  0.1738576E+02  0.3829122E+03
Ar  910  0.2476909E+02  0.2445693E+02  0.1834929E+02  0.6941862E+02
Ar  911  0.2396562E+02  0.2137080E+02  0.2089027E+02  0.5824558E+02
Ar  912  0.2126642E+02  0.2356284E+02  0.1947884E+02  0.2817674E+03
Ar  913  0.2080907E+02  0.2021319E+02  0.2157591E+02  0.4115776E+03
Ar  914  0.2373844E+02  0.2477977E+02  0.2213366E+02  0.3511223E+03
Ar  915  0.2286532E+02  0.2146191E+02  0.2454363E+02  0.2814061E+03
Ar  916  0.2119951E+02  0.2437480E+02  0.2441922E+02  0.2949183E+03
Ar  917  0.2097156E+02  0.1900789E+02  0.2764317E+02  0.1566499E+03
Ar  918  0.2496491E+02  0.2567212E+02  0.2551270E+02  0.2030066E+03
Ar  919  0.2437020E+02  0.2264742E+02  0.3085098E+02  0.4785276E+03
Ar  920  0.2240063E+02  0.2368272E+02  0.2772459E+02  0.1628955E+03
Ar  921  0.2133475E+02  0.2107301E+02  0.3139913E+02  0.4756234E+03
Ar  922  0.2720581E+02  0.2468863E+02  0.3573441E+02  0.4510464E+03
Ar  923  0.2263861E+02  0.2411328E+02  0.3449127E+02  0.3161048E+03
Ar  924  0.1931654E+02  0.2210722E+02  0.1501085E+01  0.4551250E+02
Ar  925  0.2112081E+02  0.2516981E+02  0.3776266E+02  0.5846605E+03
Ar  926  0.2393104E+02  0.3011399E+02  0.1796525E+01  0.4984970E+03
Ar  927  0.2452584E+02  0.2674055E+02  0.2698299E+01  0.1066792E+04
Ar  928  0.2121266E+02  0.2878543E+02  0.2538987E+01  0.9575469E+03
Ar  929  0.2309985E+02  0.2726000E+02  0.5726255E+01  0.1231001E+03
Ar  930  0.2482087E+02  0.3009592E+02  0.5975421E+01  0.4493727E+03
Ar  931  0.2528808E+02  0.2758573E+02  0.8309427E+01  0.1343179E+03
Ar  932  0.2200465E+02  0.2977491E+02  0.7609237E+01  0.3092856E+03
Ar  933  0.2265833E+02  0.2631770E+02  0.1328575E+02  0.1605187E+03
Ar  934  0.2491140E+02  0.2898837E+02  0.1175614E+02  0.4442236E+03
Ar  935  0.2556272E+02  0.2691116E+02  0.1542646E+02  0.1062936E+03
Ar  936  0.2244679E+02  0.3036609E+02  0.1375830E+02  0.7800976E+03
Ar  937  0.2206189E+02  0.2838079E+02  0.1641285E+02  0.8874169E+02
Ar  938  0.2535365E+02  0.2991553E+02  0.1699545E+02  0.1830812E+03
Ar  939  0.2240736E+02  0.2694304E+02  0.1979283E+02  0.4211913E+03
Ar  940  0.2063386E+02  0.3007676E+02  0.1933473E+02  0.4421122E+03
Ar  941  0.2079039E+02  0.2739777E+02  0.2285300E+02  0.5917275E+03
Ar  942  0.2408652E+02  0.3034959E+02  0.2062859E+02  0.3554137E+03
Ar  943  0.2427955E+02  0.2785059E+02  0.2310185E+02  0.1114290E+04
Ar  944  0.2099561E+02  0.3120235E+02  0.2507620E+02  0.1669350E+03
Ar  945  0.2245669E+02  0.2758968E+02  0.2661999E+02  0.5033846E+03
Ar  946  0.2544061E+02  0.2880826E+02  0.2675888E+02  0.1131593E+04
Ar  947  0.2320184E+02  0.2768571E+02  0.3008344E+02  0.4915877E+03
Ar  948  0.2144656E+02  0.3024302E+02  0.2988291E+02  0.1648482E+03
Ar  949  0.2185175E+02  0.2475489E+02  0.3081416E+02  0.8731180E+02
Ar  950  0.2315076E+02  0.2823013E+02  0.3365667E+02  0.3539939E+03
Ar  951  0.2413920E+02  0.2693849E+02  0.3670548E+02  0.2582741E+03
Ar  952  0.2112264E+02  0.2941187E+02  0.3675702E+02  0.1332102E+03
Ar  953  0.2228095E+02  0.3289716E+02  0.8464984E-01  0.1124156E+03
Ar  954  0.2253365E+02  0.3600941E+02  0.3617813E+02  0.8941916E+02
Ar  955  0.2459857E+02  0.3349198E+02  0.3538461E+01  0.1057828E+04
Ar  956  0.2211244E+02  0.3575913E+02  0.1947741E+01  0.2689815E+02
Ar  957  0.2109902E+02  0.3198405E+02  0.3743430E+01  0.1551583E+02
Ar  958  0.2453192E+02  0.3393874E+02  0.6984624E+01  0.7986407E+02
Ar  959  0.2425857E+02  0.3132173E+02  0.9508882E+01  0.3086490E+03
Ar  960  0.2085805E+02  0.3539664E+02  0.9273409E+01  0.2947865E+02
Ar  961  0.2099875E+02  0.3246809E+02  0.1092578E+02  0.2557925E+03
Ar  962  0.2375772E+02  0.3429246E+02  0.1100365E+02  0.5269580E+02
Ar  963  0.2526842E+02  0.3264150E+02  0.1477112E+02  0.2636241E+03
Ar  964  0.2203393E+02  0.3468950E+02  0.1404308E+02  0.3441336E+02
Ar  965  0.2200506E+02  0.3209694E+02  0.1687249E+02  0.8349530E+02
Ar  966  0.2441863E+02  0.3567254E+02  0.1655039E+02  0.2966783E+03
Ar  967  0.2436850E+02  0.3319838E+02  0.1964402E+02  0.2306758E+03
Ar  968  0.2151986E+02  0.3534177E+02  0.1851849E+02  0.4736305E+03
Ar  969  0.2191785E+02  0.3232093E+02  0.2199821E+02  0.9865297E+02
Ar  970  0.2352620E+02  0.3548811E+02  0.2179747E+02  0.1112383E+03
Ar  971  0.2424858E+02  0.3138294E+02  0.2417492E+02  0.3915062E+03
Ar  972  0.2311737E+02  0.3440782E+02  0.2497149E+02  0.1004166E+04
Ar  973  0.2370651E+02  0.3193145E+02  0.2756329E+02  0.3964624E+03
Ar  974  0.2528366E+02  0.3467793E+02  0.2782655E+02  0.2382750E+03
Ar  975  0.2617341E+02  0.3430416E+02  0.3099069E+02  0.8062657E+03
Ar  976  0.2320505E+02  0.3689833E+02  0.2931608E+02  0.8194880E+02
Ar  977  0.2307956E+02  0.3271238E+02  0.3103331E+02  0.1291878E+03
Ar  978  0.2694486E+02  0.3142304E+02  0.2855713E+02  0.2054009E+03
Ar  979  0.2425099E+02  0.3104519E+02  0.3518506E+02  0.2336160E+03
Ar  980  0.2106305E+02  0.3399810E+02  0.3358114E+02  0.1664830E+03
Ar  981  0.2650186E+02  0.3716321E+02  0.5841427E+00  0.2335122E+03
Ar  982  0.3030936E+02  0.2519920E+01  0.1322061E+00  0.1105627E+04
Ar  983  0.2967380E+02  0.3741874E+02  0.1863155E+01  0.1654259E+03
Ar  984  0.2708194E+02  0.2576921E+01  0.2723577E+01  0.8361551E+03
Ar  985  0.2662210E+02  0.3714590E+02  0.6501850E+01  0.1552968E+03
Ar  986  0.2978553E+02  0.1352587E+01  0.5065386E+01  0.9445956E+02
Ar  987  0.2934190E+02  0.4610057E+00  0.8306071E+01  0.2645077E+03
Ar  988  0.2648136E+02  0.2550880E+01  0.8054696E+01  0.3130954E+03
Ar  989  0.2710551E+02  0.5191278E+00  0.1088539E+02  0.6578172E+02
Ar  990  0.2962485E+02  0.3377710E+01  0.1046668E+02  0.9220185E+02
Ar  991  0.2955632E+02  0.6235605E+00  0.1345987E+02  0.3673952E+03
Ar  992  0.2658152E+02  0.3119338E+01  0.1263967E+02  0.2545093E+03
Ar  993  0.2774000E+02  0.1069208E+00  0.1669507E+02  0.9495013E+03
Ar  994  0.2944618E+02  0.3119860E+01  0.1589915E+02  0.2486078E+02
Ar  995  0.3056155E+02  0.1091384E+01  0.1884697E+02  0.5320724E+03
Ar  996  0.2703029E+02  0.3218258E+01  0.1909099E+02  0.1065142E+03
Ar  997  0.2736574E+02  0.1157429E+01  0.2245354E+02  0.6318191E+03
Ar  998  0.3009012E+02  0.3762589E+01  0.2040410E+02  0.9596846E+03
Ar  999  0.3038786E+02  0.3720787E+02  0.2283947E+02  0.3901847E+03
Ar 1000  0.2795380E+02  0.9018785E-01  0.2662184E+02  0.8232809E+02
Ar 1001  0.2764300E+02  0.3675709E+02  0.2981708E+02  0.8199461E+03
Ar 1002  0.3000919E+02  0.5990397E+01  0.2579529E+02  0.8489512E+01
Ar 1003  0.3015254E+02  0.1053345E+01  0.2868006E+02  0.9806866E+02
Ar 1004  0.2673132E+02  0.5428768E+01  0.2752619E+02  0.8060972E+03
Ar 1005  0.2872094E+02  0.4405172E+00  0.3289217E+02  0.2559118E+03
Ar 1006  0.3190128E+02  0.2046999E+01  0.3197755E+02  0.9954757E+03
Ar 1007  0.3044461E+02  0.3767474E+02  0.3594337E+02  0.3689593E+02
Ar 1008  0.2676938E+02  0.1716633E+01  0.3561562E+02  0.2553724E+03
Ar 1009  0.3161029E+02  0.5480273E+01  0.3692905E+02  0.5732669E+03
Ar 1010  0.3186619E+02  0.8903489E+01  0.3641805E+02  0.3450042E+03
Ar 1011  0.2989871E+02  0.4389839E+01  0.2663046E+01  0.1597837E+03
Ar 1012  0.2887740E+02  0.8241618E+01  0.3251958E+00  0.6637101E+03
Ar 1013  0.2751876E+02  0.5753182E+01  0.4654209E+01  0.6721557E+03
Ar 1014  0.3015696E+02  0.8166233E+01  0.4714027E+01  0.1030901E+04
Ar 1015  0.2913089E+02  0.5216364E+01  0.7516571E+01  0.7279278E+03
Ar 1016  0.2690755E+02  0.8714750E+01  0.7509090E+01  0.7072361E+03
Ar 1017  0.2702716E+02  0.5622495E+01  0.1024708E+02  0.5007677E+02
Ar 1018  0.2929092E+02  0.7891262E+01  0.1083517E+02  0.4942444E+01
Ar 1019  0.2884339E+02  0.5335861E+01  0.1372459E+02  0.3538617E+03
Ar 1020  0.2605079E+02  0.7088305E+01  0.1316818E+02  0.2189158E+02
Ar 1021  0.2646826E+02  0.5388645E+01  0.1607878E+02  0.6262231E+03
Ar 1022  0.3033867E+02  0.8244906E+01  0.1413343E+02  0.2958115E+03
Ar 1023  0.2965125E+02  0.5646651E+01  0.1793771E+02  0.6183801E+03
Ar 1024  0.2734998E+02  0.7811060E+01  0.1963571E+02  0.3155561E+03
Ar 1025  0.2565686E+02  0.5764205E+01  0.2146111E+02  0.1503706E+03
Ar 1026  0.3032792E+02  0.8162090E+01  0.2092765E+02  0.8880902E+02
Ar 1027  0.2875198E+02  0.8724753E+01  0.2357468E+02  0.1628970E+03
Ar 1028  0.2333736E+02  0.1087487E+02  0.2684964E+02  0.9495131E+02
Ar 1029  0.2577288E+02  0.8629873E+01  0.2502849E+02  0.2117887E+03
Ar 1030  0.2974159E+02  0.7909597E+01  0.2888541E+02  0.1368234E+03
Ar 1031  0.3020372E+02  0.4776067E+01  0.3077690E+02  0.2885991E+03
Ar 1032  0.2730146E+02  0.6527572E+01  0.3062519E+02  0.1599129E+03
Ar 1033  0.2773780E+02  0.2820636E+01  0.3031219E+02  0.6050966E+03
Ar 1034  0.3124524E+02  0.6641763E+01  0.3360919E+02  0.7769020E+02
Ar 1035  0.2943163E+02  0.3513279E+01  0.3477274E+02  0.4861335E+03
Ar 1036  0.2752197E+02  0.7088244E+01  0.3464202E+02  0.4607178E+03
Ar 1037  0.2678459E+02  0.1118508E+02  0.4961126E+00  0.7066120E+03
Ar 1038  0.2923950E+02  0.1343173E+02  0.3676589E+02  0.1374313E+03
Ar 1039  0.3071592E+02  0.1170504E+02  0.9371834E+00  0.1068258E+03
Ar 1040  0.2732855E+02  0.1422215E+02  0.2048194E+01  0.8532842E+03
Ar 1041  0.2806241E+02  0.1116969E+02  0.4087183E+01  0.8630870E+02
Ar 1042  0.3032088E+02  0.1403155E+02  0.3475701E+01  0.1269694E+03
Ar 1043  0.2935586E+02  0.1141641E+02  0.7892858E+01  0.2491019E+03
Ar 1044  0.2845220E+02  0.1399071E+02  0.6064933E+01  0.3772521E+03
Ar 1045  0.2606165E+02  0.1008063E+02  0.1125485E+02  0.5651328E+01
Ar 1046  0.2905390E+02  0.1360663E+02  0.1109618E+02  0.7183730E+02
Ar 1047  0.2886183E+02  0.1084642E+02  0.1284510E+02  0.3670499E+03
Ar 1048  0.2557046E+02  0.1258912E+02  0.1504162E+02  0.1350013E+03
Ar 1049  0.2680645E+02  0.9126760E+01  0.1548861E+02  0.7446047E+02
Ar 1050  0.2984596E+02  0.1333501E+02  0.1625496E+02  0.7860205E+03
Ar 1051  0.2910382E+02  0.1030319E+02  0.1783506E+02  0.7082384E+02
Ar 1052  0.2678162E+02  0.1293977E+02  0.1789015E+02  0.1548565E+03
Ar 1053  0.2690719E+02  0.1083747E+02  0.2079240E+02  0.3419428E+03
Ar 1054  0.2964042E+02  0.1298077E+02  0.2077708E+02  0.1210553E+03
Ar 1055  0.2640071E+02  0.1094835E+02  0.2889312E+02  0.7037862E+03
Ar 1056  0.2736172E+02  0.1288442E+02  0.2426762E+02  0.5880321E+03
Ar 1057  0.2734360E+02  0.1329428E+02  0.3174295E+02  0.1565941E+03
Ar 1058  0.3007358E+02  0.1268323E+02  0.2864505E+02  0.2453914E+03
Ar 1059  0.2981498E+02  0.1000281E+02  0.3133403E+02  0.1777491E+03
Ar 1060  0.2466482E+02  0.1387067E+02  0.2769551E+02  0.3011670E+03
Ar 1061  0.2658502E+02  0.1023576E+02  0.3266810E+02  0.1563389E+03
Ar 1062  0.3042528E+02  0.1365535E+02  0.3319792E+02  0.2082012E+01
Ar 1063  0.2896543E+02  0.1006805E+02  0.3492000E+02  0.1143505E+02
Ar 1064  0.2606533E+02  0.1349731E+02  0.3474941E+02  0.1253914E+03
Ar 1065  0.2628325E+02  0.1630308E+02  0.3688939E+02  0.7091121E+03
Ar 1066  0.2796756E+02  0.1938771E+02  0.3546504E+02  0.2984667E+03
Ar 1067  0.2963328E+02  0.1684635E+02  0.1061706E+01  0.2317212E+03
Ar 1068  0.2725317E+02  0.1892139E+02  0.1018756E+01  0.2857321E+03
Ar 1069  0.2592150E+02  0.1726466E+02  0.5694576E+01  0.2850225E+03
Ar 1070  0.2989596E+02  0.1833719E+02  0.4420529E+01  0.5205282E+03
Ar 1071  0.2864002E+02  0.1672868E+02  0.8037082E+01  0.4943311E+03
Ar 1072  0.2691831E+02  0.2093316E+02  0.7717627E+01  0.8756310E+02
Ar 1073  0.2594735E+02  0.1453057E+02  0.1136335E+02  0.5918142E+02
Ar 1074  0.2923539E+02  0.1956964E+02  0.1067155E+02  0.3105776E+03
Ar 1075  0.2875736E+02  0.1574266E+02  0.1418585E+02  0.7283497E+03
Ar 1076  0.2730043E+02  0.1878883E+02  0.1399454E+02  0.1002871E+04
Ar 1077  0.2688859E+02  0.1621895E+02  0.1740310E+02  0.3614875E+03
Ar 1078  0.2941739E+02  0.1891395E+02  0.1678390E+02  0.7062346E+02
Ar 1079  0.3034122E+02  0.1583705E+02  0.1901849E+02  0.1308994E+04
Ar 1080  0.2647210E+02  0.1928121E+02  0.1918972E+02  0.7339602E+03
Ar 1081  0.2803887E+02  0.1685162E+02  0.2117387E+02  0.6146230E+03
Ar 1082  0.2850870E+02  0.2011875E+02  0.2268872E+02  0.3319166E+02
Ar 1083  0.3054831E+02  0.1743792E+02  0.2645812E+02  0.4468115E+02
Ar 1084  0.2533521E+02  0.1918694E+02  0.2318080E+02  0.3534570E+03
Ar 1085  0.2745945E+02  0.1633097E+02  0.2429695E+02  0.1375313E+03
Ar 1086  0.2762609E+02  0.1837082E+02  0.2924922E+02  0.3522044E+03
Ar 1087  0.2758229E+02  0.1523510E+02  0.2779179E+02  0.2533901E+03
Ar 1088  0.2402689E+02  0.1975724E+02  0.2965424E+02  0.6515210E+03
Ar 1089  0.2695828E+02  0.1640005E+02  0.3312388E+02  0.6611184E+03
Ar 1090  0.3083138E+02  0.1802958E+02  0.3020109E+02  0.4708571E+03
Ar 1091  0.2981121E+02  0.1666622E+02  0.3497470E+02  0.1216042E+03
Ar 1092  0.2453629E+02  0.1915418E+02  0.3686384E+02  0.2657857E+03
Ar 1093  0.2770129E+02  0.2205355E+02  0.3775629E+02  0.3195343E+03
Ar 1094  0.3072995E+02  0.2484850E+02  0.8819730E-01  0.1657110E+03
Ar 1095  0.2989031E+02  0.2260476E+02  0.2244360E+01  0.2553698E+03
Ar 1096  0.2725237E+02  0.2508018E+02  0.1897991E+01  0.9032393E+03
Ar 1097  0.2770786E+02  0.2097453E+02  0.4307526E+01  0.4564285E+01
Ar 1098  0.2878182E+02  0.2413710E+02  0.5558992E+01  0.5916862E+03
Ar 1099  0.3020388E+02  0.2245941E+02  0.8282515E+01  0.1373062E+03
Ar 1100  0.2748232E+02  0.2480764E+02  0.8328136E+01  0.5103516E+03
Ar 1101  0.2608419E+02  0.2127259E+02  0.1164741E+02  0.2718933E+03
Ar 1102  0.2887951E+02  0.2434219E+02  0.1119017E+02  0.4698049E+03
Ar 1103  0.2982563E+02  0.2155582E+02  0.1374181E+02  0.3551566E+03
Ar 1104  0.2710036E+02  0.2372512E+02  0.1422738E+02  0.6925657E+03
Ar 1105  0.2660868E+02  0.2122780E+02  0.1635292E+02  0.1828245E+03
Ar 1106  0.2947723E+02  0.2287308E+02  0.1686642E+02  0.3188496E+03
Ar 1107  0.3043795E+02  0.2036213E+02  0.1955698E+02  0.2006565E+03
Ar 1108  0.2783511E+02  0.2307164E+02  0.1982706E+02  0.2540283E+03
Ar 1109  0.2634246E+02  0.2247079E+02  0.2347962E+02  0.1664657E+03
Ar 1110  0.3027645E+02  0.2268194E+02  0.2248426E+02  0.1125741E+03
Ar 1111  0.2762705E+02  0.1968554E+02  0.2593387E+02  0.1687488E+03
Ar 1112  0.2849341E+02  0.2398162E+02  0.2540576E+02  0.2618512E+03
Ar 1113  0.2529983E+02  0.2210723E+02  0.2666404E+02  0.2364317E+03
Ar 1114  0.2605061E+02  0.2510664E+02  0.2883871E+02  0.5645852E+03
Ar 1115  0.2806073E+02  0.2198971E+02  0.2893582E+02  0.2637489E+02
Ar 1116  0.2825401E+02  0.2179406E+02  0.3276973E+02  0.3631711E+02
Ar 1117  0.2509426E+02  0.2216776E+02  0.3491110E+02  0.6463738E+02
Ar 1118  0.3212460E+02  0.2603464E+02  0.3164211E+02  0.2538961E+03
Ar 1119  0.3050532E+02  0.2350729E+02  0.3457303E+02  0.2298851E+03
Ar 1120  0.2878003E+02  0.2566038E+02  0.3195529E+02  0.6174320E+03
Ar 1121  0.2713133E+02  0.2800133E+02  0.3767363E+02  0.2137519E+03
Ar 1122  0.2725525E+02  0.3100441E+02  0.3698963E+02  0.3542921E+03
Ar 1123  0.2973479E+02  0.2863595E+02  0.2695303E+01  0.5150487E+02
Ar 1124  0.2708873E+02  0.3069473E+02  0.2926149E+01  0.1972203E+03
Ar 1125  0.2684220E+02  0.2692563E+02  0.5151403E+01  0.4886802E+03
Ar 1126  0.2872296E+02  0.2923153E+02  0.5959693E+01  0.2564061E+03
Ar 1127  0.3014366E+02  0.2759933E+02  0.8318300E+01  0.1925984E+03
Ar 1128  0.2744216E+02  0.3048011E+02  0.8831763E+01  0.1205161E+03
Ar 1129  0.2773372E+02  0.2748087E+02  0.1039061E+02  0.7122510E+02
Ar 1130  0.3000481E+02  0.2937180E+02  0.1184535E+02  0.4381140E+03
Ar 1131  0.2956015E+02  0.2642646E+02  0.1365646E+02  0.4863578E+03
Ar 1132  0.2752868E+02  0.2937410E+02  0.1405553E+02  0.1867802E+02
Ar 1133  0.2796904E+02  0.2594481E+02  0.1728134E+02  0.4051484E+03
Ar 1134  0.2885186E+02  0.2935617E+02  0.1806129E+02  0.9692125E+03
Ar 1135  0.3007760E+02  0.2583279E+02  0.2024715E+02  0.9115570E+02
Ar 1136  0.2595127E+02  0.2748896E+02  0.1961585E+02  0.3537100E+03
Ar 1137  0.2743222E+02  0.2597376E+02  0.2280923E+02  0.4247993E+03
Ar 1138  0.3022135E+02  0.2840586E+02  0.2201876E+02  0.5325051E+03
Ar 1139  0.3116439E+02  0.2563926E+02  0.2363002E+02  0.2592465E+02
Ar 1140  0.2720062E+02  0.2926473E+02  0.2209210E+02  0.4061126E+03
Ar 1141  0.2856891E+02  0.2755138E+02  0.2654685E+02  0.5458191E+03
Ar 1142  0.3009513E+02  0.3062799E+02  0.2716679E+02  0.1560687E+03
Ar 1143  0.3100056E+02  0.2863701E+02  0.2980822E+02  0.1885856E+03
Ar 1144  0.2697585E+02  0.2830138E+02  0.2995640E+02  0.2258687E+03
Ar 1145  0.2506972E+02  0.2594004E+02  0.3208383E+02  0.4150338E+03
Ar 1146  0.2903565E+02  0.2954346E+02  0.3221072E+02  0.2489996E+03
Ar 1147  0.2955491E+02  0.2710523E+02  0.3569882E+02  0.1112572E+03
Ar 1148  0.2653260E+02  0.2813649E+02  0.3430562E+02  0.2349851E+03
Ar 1149  0.2534671E+02  0.3368224E+02  0.3715809E+02  0.1762942E+03
Ar 1150  0.2839581E+02  0.3447319E+02  0.3764694E+02  0.9821207E+02
Ar 1151  0.3003905E+02  0.3200023E+02  0.3859570E+01  0.5179421E+03
Ar 1152  0.2768900E+02  0.3471364E+02  0.3132305E+01  0.7447719E+02
Ar 1153  0.2747931E+02  0.3237005E+02  0.5850117E+01  0.6865397E+03
Ar 1154  0.2994578E+02  0.3548932E+02  0.6184574E+01  0.5278809E+03
Ar 1155  0.2984288E+02  0.3248487E+02  0.9098413E+01  0.7397748E+03
Ar 1156  0.2661170E+02  0.3488435E+02  0.9237080E+01  0.1184313E+04
Ar 1157  0.2683550E+02  0.3258920E+02  0.1193338E+02  0.3825061E+02
Ar 1158  0.2961858E+02  0.3556194E+02  0.1066282E+02  0.1170170E+03
Ar 1159  0.2961101E+02  0.3252487E+02  0.1435902E+02  0.1565355E+03
Ar 1160  0.2778295E+02  0.3529019E+02  0.1419334E+02  0.4546915E+03
Ar 1161  0.2741748E+02  0.3282878E+02  0.1754791E+02  0.7670788E+03
Ar 1162  0.3016631E+02  0.3498781E+02  0.1728543E+02  0.1446206E+03
Ar 1163  0.2957121E+02  0.3196791E+02  0.2028057E+02  0.1245498E+03
Ar 1164  0.2563080E+02  0.3770644E+02  0.1916040E+02  0.2648514E+03
Ar 1165  0.2701479E+02  0.3301417E+02  0.2196371E+02  0.6344419E+03
Ar 1166  0.2851493E+02  0.3586817E+02  0.1992329E+02  0.1153575E+03
Ar 1167  0.2990687E+02  0.3316755E+02  0.2381718E+02  0.9025596E+03
Ar 1168  0.2670463E+02  0.3538811E+02  0.2468942E+02  0.1282499E+03
Ar 1169  0.2767184E+02  0.3105725E+02  0.2486973E+02  0.5068634E+03
Ar 1170  0.2883469E+02  0.3462500E+02  0.2730505E+02  0.1177164E+04
Ar 1171  0.3213563E+02  0.3477470E+02  0.2905895E+02  0.2133944E+03
Ar 1172  0.3018920E+02  0.3229862E+02  0.3066273E+02  0.7088955E+02
Ar 1173  0.2519394E+02  0.3038857E+02  0.3164939E+02  0.1233983E+03
Ar 1174  0.2931506E+02  0.3493124E+02  0.3431896E+02  0.1026573E+04
Ar 1175  0.3328785E+02  0.3319083E+02  0.3230418E+02  0.3147793E+02
Ar 1176  0.2727251E+02  0.3209828E+02  0.3336626E+02  0.7757732E+03
Ar 1177  0.3348087E+02  0.3756322E+02  0.6406793E+00  0.1723177E+03
Ar 1178  0.3587963E+02  0.2107089E+01  0.1042354E+01  0.6682771E+03
Ar 1179  0.3589668E+02  0.3644758E+02  0.2988879E+01  0.3228787E+03
Ar 1180  0.3283124E+02  0.2075197E+01  0.3056209E+01  0.6926469E+02
Ar 1181  0.3361963E+02  0.3773417E+02  0.5999567E+01  0.3939536E+03
Ar 1182  0.3549275E+02  0.2733746E+01  0.6636131E+01  0.7286374E+03
Ar 1183  0.3558022E+02  0.3739244E+02  0.8942944E+01  0.5298136E+03
Ar 1184  0.3172307E+02  0.2876957E+01  0.7835920E+01  0.7461891E+03
Ar 1185  0.3248177E+02  0.5151967E+00  0.1066105E+02  0.2244110E+03
Ar 1186  0.3463251E+02  0.3650654E+01  0.1005214E+02  0.2438663E+03
Ar 1187  0.3552773E+02  0.3607770E+02  0.1515506E+02  0.1337409E+03
Ar 1188  0.3196966E+02  0.2917862E+01  0.1289699E+02  0.1835052E+03
Ar 1189  0.3197305E+02  0.3770095E+02  0.1571681E+02  0.2584859E+03
Ar 1190  0.3545401E+02  0.3303985E+01  0.1541034E+02  0.1661359E+03
Ar 1191  0.3515829E+02  0.3416887E+00  0.1842195E+02  0.4415350E+03
Ar 1192  0.3315062E+02  0.3426257E+01  0.1827323E+02  0.2555361E+03
Ar 1193  0.3371696E+02  0.6351356E+00  0.2188750E+02  0.5933933E+03
Ar 1194  0.3515853E+02  0.3897157E+01  0.2115418E+02  0.2852087E+03
Ar 1195  0.3620913E+02  0.3751086E+02  0.2421660E+02  0.6502060E+03
Ar 1196  0.3185393E+02  0.4236030E+01  0.2308669E+02  0.2388847E+03
Ar 1197  0.3078049E+02  0.1986226E+01  0.2533678E+02  0.1068061E+03
Ar 1198  0.3413272E+02  0.2581394E+01  0.2473429E+02  0.4645419E+02
Ar 1199  0.3423883E+02  0.8384833E+00  0.2788678E+02  0.3655750E+02
Ar 1200  0.3223569E+02  0.3705290E+01  0.2841545E+02  0.2343043E+03
Ar 1201  0.3321856E+02  0.3639957E+02  0.3383807E+02  0.5986985E+03
Ar 1202  0.3533374E+02  0.1840501E+01  0.3393032E+02  0.4382905E+03
Ar 1203  0.3617292E+02  0.3739001E+02  0.3609876E+02  0.2167253E+03
Ar 1204  0.3358565E+02  0.2380217E+01  0.3663393E+02  0.1375964E+04
Ar 1205  0.3406333E+02  0.5515077E+01  0.1500772E+01  0.1606163E+03
Ar 1206  0.3537550E+02  0.8050595E+01  0.3744051E+02  0.3216573E+03
Ar 1207  0.3602552E+02  0.5902477E+01  0.4592470E+01  0.1410384E+03
Ar 1208  0.3251449E+02  0.8643515E+01  0.2197615E+01  0.4451716E+03
Ar 1209  0.3169960E+02  0.5002114E+01  0.5192070E+01  0.2451888E+03
Ar 1210  0.3453299E+02  0.8778711E+01  0.5397351E+01  0.2825746E+03
Ar 1211  0.3399363E+02  0.5936648E+01  0.7734174E+01  0.7492517E+03
Ar 1212  0.3144211E+02  0.8361456E+01  0.8042742E+01  0.1612669E+03
Ar 1213  0.3192196E+02  0.5748116E+01  0.1043917E+02  0.2698631E+03
Ar 1214  0.3411578E+02  0.9029729E+01  0.1075263E+02  0.9421518E+02
Ar 1215  0.3478453E+02  0.5479592E+01  0.1289210E+02  0.4355702E+02
Ar 1216  0.3415277E+02  0.8522480E+01  0.1434392E+02  0.1959536E+03
Ar 1217  0.3273174E+02  0.5658289E+01  0.1538454E+02  0.2878172E+03
Ar 1218  0.3732809E+02  0.6384532E+01  0.1462909E+02  0.9283242E+02
Ar 1219  0.3542264E+02  0.5888491E+01  0.1791031E+02  0.1315560E+03
Ar 1220  0.3252993E+02  0.8309963E+01  0.1775558E+02  0.1047939E+03
Ar 1221  0.3281221E+02  0.6206336E+01  0.2046562E+02  0.1173809E+03
Ar 1222  0.3754560E+02  0.8979182E+01  0.1966544E+02  0.1928058E+03
Ar 1223  0.3555594E+02  0.7400882E+01  0.2265210E+02  0.8770287E+02
Ar 1224  0.3236774E+02  0.8262240E+01  0.2429192E+02  0.4440849E+03
Ar 1225  0.3398671E+02  0.6300980E+01  0.2731368E+02  0.2986649E+02
Ar 1226  0.3601268E+02  0.9122291E+01  0.2694203E+02  0.4163146E+03
Ar 1227  0.3665016E+02  0.3450481E+01  0.2708317E+02  0.2542452E+03
Ar 1228  0.3283886E+02  0.8088121E+01  0.3057503E+02  0.2893805E+03
Ar 1229  0.3412003E+02  0.5065218E+01  0.3074869E+02  0.1597892E+03
Ar 1230  0.3705979E+02  0.6764517E+01  0.2946963E+02  0.5058957E+03
Ar 1231  0.3426760E+02  0.5749564E+01  0.3478875E+02  0.1105751E+04
Ar 1232  0.3567187E+02  0.8534874E+01  0.3268223E+02  0.1222981E+04
Ar 1233  0.3234973E+02  0.1232439E+02  0.3617403E+02  0.3991733E+03
Ar 1234  0.3568551E+02  0.1300847E+02  0.2654945E+00  0.8017606E+03
Ar 1235  0.3491438E+02  0.1137800E+02  0.2818698E+01  0.7528926E+02
Ar 1236  0.3258538E+02  0.1480739E+02  0.9989105E+00  0.5943762E+03
Ar 1237  0.3179826E+02  0.1110312E+02  0.4730095E+01  0.1186102E+03
Ar 1238  0.3488863E+02  0.1409213E+02  0.4273283E+01  0.6854654E+03
Ar 1239  0.3404042E+02  0.1164189E+02  0.7436510E+01  0.6806954E+02
Ar 1240  0.3179885E+02  0.1402481E+02  0.6906761E+01  0.2948200E+03
Ar 1241  0.3161491E+02  0.1109488E+02  0.1077860E+02  0.3700951E+03
Ar 1242  0.3370941E+02  0.1396600E+02  0.1008705E+02  0.3841435E+03
Ar 1243  0.3438736E+02  0.1158730E+02  0.1318992E+02  0.2727701E+03
Ar 1244  0.3170362E+02  0.1365528E+02  0.1317396E+02  0.7235798E+03
Ar 1245  0.3216139E+02  0.1115005E+02  0.1557008E+02  0.1240808E+03
Ar 1246  0.3524122E+02  0.1426220E+02  0.1545582E+02  0.1380986E+03
Ar 1247  0.3520794E+02  0.1072468E+02  0.1729865E+02  0.2876898E+03
Ar 1248  0.3231853E+02  0.1314341E+02  0.1867389E+02  0.9546422E+03
Ar 1249  0.3349363E+02  0.9606747E+01  0.2086410E+02  0.6591421E+02
Ar 1250  0.3321372E+02  0.1407468E+02  0.2173556E+02  0.1010784E+03
Ar 1251  0.3426607E+02  0.1142807E+02  0.2500012E+02  0.2123115E+03
Ar 1252  0.2838410E+02  0.1024118E+02  0.2633136E+02  0.3073654E+03
Ar 1253  0.3279646E+02  0.1041146E+02  0.2785613E+02  0.6160183E+02
Ar 1254  0.3497805E+02  0.1347498E+02  0.2787521E+02  0.2267580E+03
Ar 1255  0.3672554E+02  0.1059284E+02  0.2981203E+02  0.9307236E+03
Ar 1256  0.3312943E+02  0.1228497E+02  0.3058367E+02  0.1415902E+03
Ar 1257  0.3247468E+02  0.1013580E+02  0.3342293E+02  0.4640086E+03
Ar 1258  0.3584025E+02  0.1287622E+02  0.3292513E+02  0.9608999E+02
Ar 1259  0.3518662E+02  0.1089489E+02  0.3543138E+02  0.8836941E+03
Ar 1260  0.3421648E+02  0.1479333E+02  0.3525307E+02  0.3974536E+03
Ar 1261  0.3268443E+02  0.1773378E+02  0.3624652E+02  0.2295998E+02
Ar 1262  0.3499745E+02  0.2031965E+02  0.3696497E+02  0.1631922E+03
Ar 1263  0.3532317E+02  0.1708312E+02  0.8247883E+00  0.1300208E+04
Ar 1264  0.3250810E+02  0.1960988E+02  0.1822338E+01  0.3189109E+02
Ar 1265  0.3250849E+02  0.1690484E+02  0.3636056E+01  0.4199752E+03
Ar 1266  0.3438132E+02  0.1995946E+02  0.4810941E+01  0.9820889E+02
Ar 1267  0.3422174E+02  0.1671126E+02  0.6525960E+01  0.5060277E+03
Ar 1268  0.3096612E+02  0.1954579E+02  0.7533092E+01  0.2566427E+03
Ar 1269  0.3139499E+02  0.1643130E+02  0.9994715E+01  0.3351905E+03
Ar 1270  0.3395303E+02  0.1917124E+02  0.9448861E+01  0.1751755E+03
Ar 1271  0.3454563E+02  0.1626000E+02  0.1273095E+02  0.5260755E+03
Ar 1272  0.3200661E+02  0.1840701E+02  0.1303623E+02  0.2818701E+03
Ar 1273  0.3206612E+02  0.1613550E+02  0.1599559E+02  0.2905189E+03
Ar 1274  0.3467801E+02  0.1792896E+02  0.1534662E+02  0.1888982E+03
Ar 1275  0.3523184E+02  0.1559859E+02  0.1850826E+02  0.1708124E+03
Ar 1276  0.3289318E+02  0.1836701E+02  0.1884768E+02  0.5389416E+03
Ar 1277  0.3059583E+02  0.1513958E+02  0.2332194E+02  0.2919128E+03
Ar 1278  0.3571853E+02  0.1801597E+02  0.2095306E+02  0.3869311E+02
Ar 1279  0.3097408E+02  0.1152408E+02  0.2350059E+02  0.1589713E+03
Ar 1280  0.3317050E+02  0.1863090E+02  0.2412713E+02  0.3177361E+03
Ar 1281  0.3219683E+02  0.1525085E+02  0.2951742E+02  0.4191502E+03
Ar 1282  0.3492411E+02  0.1753626E+02  0.2779225E+02  0.3762176E+03
Ar 1283  0.3235802E+02  0.1638760E+02  0.3310087E+02  0.8513077E+03
Ar 1284  0.3288150E+02  0.2039280E+02  0.2862348E+02  0.6431991E+03
Ar 1285  0.3492138E+02  0.1835906E+02  0.3184800E+02  0.8999770E+03
Ar 1286  0.3623260E+02  0.1558591E+02  0.3034625E+02  0.3224588E+03
Ar 1287  0.3652516E+02  0.1752849E+02  0.3552461E+02  0.2111533E+03
Ar 1288  0.3069371E+02  0.1967978E+02  0.3336934E+02  0.9740580E+01
Ar 1289  0.3160038E+02  0.2133155E+02  0.3720410E+02  0.5461985E+03
Ar 1290  0.3471080E+02  0.2543513E+02  0.4427758E+00  0.3004373E+03
Ar 1291  0.3335373E+02  0.2289108E+02  0.2273018E+01  0.5787274E+03
Ar 1292  0.3215360E+02  0.2579376E+02  0.3574647E+01  0.3549182E+03
Ar 1293  0.3172246E+02  0.2209770E+02  0.5375766E+01  0.2919547E+03
Ar 1294  0.3498327E+02  0.2421112E+02  0.4782212E+01  0.4947894E+02
Ar 1295  0.3471394E+02  0.2285204E+02  0.8153457E+01  0.1541167E+03
Ar 1296  0.3244170E+02  0.2507586E+02  0.7362505E+01  0.4080813E+03
Ar 1297  0.3237827E+02  0.2254496E+02  0.1047944E+02  0.3211873E+03
Ar 1298  0.3566503E+02  0.2407566E+02  0.1086835E+02  0.2431949E+03
Ar 1299  0.3419031E+02  0.2099114E+02  0.1308734E+02  0.8767683E+02
Ar 1300  0.3175139E+02  0.2405637E+02  0.1377030E+02  0.2518662E+02
Ar 1301  0.3228955E+02  0.2090838E+02  0.1652319E+02  0.7571396E+03
Ar 1302  0.3458280E+02  0.2397843E+02  0.1600198E+02  0.2336508E+03
Ar 1303  0.3522982E+02  0.2105019E+02  0.1851675E+02  0.3911370E+02
Ar 1304  0.3213966E+02  0.2318275E+02  0.1905890E+02  0.4515084E+02
Ar 1305  0.3332090E+02  0.2091592E+02  0.2166502E+02  0.8369730E+03
Ar 1306  0.3538138E+02  0.2474064E+02  0.2091319E+02  0.2722658E+03
Ar 1307  0.3574730E+02  0.2039450E+02  0.2576492E+02  0.7750343E+03
Ar 1308  0.2958066E+02  0.2514843E+02  0.2855836E+02  0.7607480E+02
Ar 1309  0.3118340E+02  0.2134498E+02  0.2548764E+02  0.1758723E+03
Ar 1310  0.3640148E+02  0.2346973E+02  0.2693855E+02  0.3097679E+03
Ar 1311  0.3503830E+02  0.2216357E+02  0.3041840E+02  0.5803420E+02
Ar 1312  0.3262061E+02  0.2354018E+02  0.2768950E+02  0.1238027E+02
Ar 1313  0.3147577E+02  0.2244409E+02  0.3114271E+02  0.1493673E+03
Ar 1314  0.3558046E+02  0.2574716E+02  0.3254210E+02  0.2912632E+03
Ar 1315  0.3356056E+02  0.2245262E+02  0.3471369E+02  0.5145618E+03
Ar 1316  0.3301918E+02  0.2585167E+02  0.3518481E+02  0.5652495E+02
Ar 1317  0.3247159E+02  0.2846224E+02  0.4067658E+00  0.9805036E+03
Ar 1318  0.3538263E+02  0.3049200E+02  0.5558505E+00  0.9745593E+02
Ar 1319  0.3495932E+02  0.2752159E+02  0.3494039E+01  0.3226744E+02
Ar 1320  0.3301881E+02  0.3054815E+02  0.3200104E+01  0.3094787E+03
Ar 1321  0.3243051E+02  0.2837361E+02  0.6061953E+01  0.1904266E+03
Ar 1322  0.3522460E+02  0.3031089E+02  0.6663265E+01  0.4650719E+03
Ar 1323  0.3478824E+02  0.2749602E+02  0.9005457E+01  0.1013924E+03
Ar 1324  0.3230436E+02  0.2992752E+02  0.9397657E+01  0.6762263E+02
Ar 1325  0.3212856E+02  0.2640514E+02  0.1106801E+02  0.1959851E+03
Ar 1326  0.3509710E+02  0.2934987E+02  0.1226240E+02  0.1773720E+03
Ar 1327  0.3449249E+02  0.2617132E+02  0.1350184E+02  0.3837338E+03
Ar 1328  0.3092690E+02  0.2939839E+02  0.1516667E+02  0.5658517E+03
Ar 1329  0.3187169E+02  0.2607400E+02  0.1659851E+02  0.5736832E+03
Ar 1330  0.3432265E+02  0.2948385E+02  0.1573642E+02  0.1096573E+03
Ar 1331  0.3352891E+02  0.2771406E+02  0.2225831E+02  0.2755171E+03
Ar 1332  0.3218310E+02  0.2926595E+02  0.1905596E+02  0.5319068E+03
Ar 1333  0.3396279E+02  0.2412418E+02  0.2458578E+02  0.4574733E+03
Ar 1334  0.3597692E+02  0.3023158E+02  0.2202253E+02  0.7808486E+02
Ar 1335  0.3593243E+02  0.2664288E+02  0.2482763E+02  0.5405305E+03
Ar 1336  0.3180655E+02  0.3029224E+02  0.2429828E+02  0.3030690E+03
Ar 1337  0.3251741E+02  0.2676629E+02  0.2688121E+02  0.3064526E+03
Ar 1338  0.3516176E+02  0.2965955E+02  0.2655706E+02  0.1484928E+03
Ar 1339  0.3460499E+02  0.2852780E+02  0.3003604E+02  0.9049460E+03
Ar 1340  0.3314026E+02  0.3129692E+02  0.2973162E+02  0.2131963E+03
Ar 1341  0.3247677E+02  0.2952839E+02  0.3283067E+02  0.1664444E+03
Ar 1342  0.3563033E+02  0.3042453E+02  0.3306508E+02  0.4908358E+03
Ar 1343  0.3584579E+02  0.2795847E+02  0.3582129E+02  0.5290321E+03
Ar 1344  0.3381036E+02  0.3172046E+02  0.3541702E+02  0.2964384E+03
Ar 1345  0.3013942E+02  0.3092150E+02  0.3501714E+02  0.9450411E+02
Ar 1346  0.1080994E+01  0.3463953E+02  0.3759653E+01  0.5218553E+03
Ar 1347  0.3562595E+02  0.3239442E+02  0.3671628E+01  0.2568546E+03
Ar 1348  0.3182693E+02  0.3512225E+02  0.2911372E+01  0.3937686E+03
Ar 1349  0.3222477E+02  0.3209383E+02  0.6263405E+01  0.5305678E+03
Ar 1350  0.3480786E+02  0.3451084E+02  0.6270456E+01  0.2964813E+03
Ar 1351  0.3471810E+02  0.3240638E+02  0.9458265E+01  0.4580870E+03
Ar 1352  0.3261611E+02  0.3532295E+02  0.8779060E+01  0.9680293E+03
Ar 1353  0.3234654E+02  0.3229785E+02  0.1209793E+02  0.4279232E+03
Ar 1354  0.3414039E+02  0.3518448E+02  0.1188899E+02  0.1954684E+03
Ar 1355  0.3443956E+02  0.3267653E+02  0.1492210E+02  0.1045319E+03
Ar 1356  0.3149640E+02  0.3511882E+02  0.1405985E+02  0.4619024E+02
Ar 1357  0.3183969E+02  0.3210426E+02  0.1738382E+02  0.5292767E+03
Ar 1358  0.3451503E+02  0.3432247E+02  0.1798543E+02  0.4946397E+03
Ar 1359  0.3518761E+02  0.3119500E+02  0.1879537E+02  0.8262682E+03
Ar 1360  0.3179818E+02  0.3571379E+02  0.2024266E+02  0.5304530E+03
Ar 1361  0.3303036E+02  0.3225142E+02  0.2075413E+02  0.2823325E+03
Ar 1362  0.3592831E+02  0.3528046E+02  0.2126550E+02  0.3599719E+03
Ar 1363  0.3660803E+02  0.3316326E+02  0.2366736E+02  0.9964688E+02
Ar 1364  0.3310198E+02  0.3490804E+02  0.2357826E+02  0.7664141E+02
Ar 1365  0.3324781E+02  0.3216846E+02  0.2636762E+02  0.1692674E+03
Ar 1366  0.3169330E+02  0.3650357E+02  0.2604250E+02  0.1435815E+03
Ar 1367  0.3641349E+02  0.3261986E+02  0.2929483E+02  0.9141575E+02
Ar 1368  0.3077545E+02  0.3608433E+02  0.3165608E+02  0.4878899E+03
Ar 1369  0.3079189E+02  0.3138857E+02  0.5050619E+00  0.6460515E+02
Ar 1370  0.3458797E+02  0.3658446E+02  0.3075358E+02  0.2757012E+03
Ar 1371  0.3603367E+02  0.3471323E+02  0.3368482E+02  0.3477083E+03
Ar 1372  0.3157313E+02  0.3461620E+02  0.3705222E+02  0.6643341E+02
