        1372
Lattice="  0.3778015E+02  0.0000000E+00  0.0000000E+00  0.0000000E+00  0.3778015E+02  0.0000000E+00  0.0000000E+00  0.0000000E+00  0.3778015E+02" Properties=species:S:1:id:I:1:pos:R:3:tempK:R:1
Ar    1  0.4281516E+00  0.4281516E+00  0.4281516E+00  0.1199018E+02
Ar    2  0.2682424E+01  0.2682424E+01  0.3700205E+02  0.1027307E+03
Ar    3  0.2682424E+01  0.3700205E+02  0.2682424E+01  0.1027307E+03
Ar    4  0.3700205E+02  0.2682424E+01  0.2682424E+01  0.1027307E+03
Ar    5  0.3770171E+02  0.3770171E+02  0.5569899E+01  0.4939477E+02
Ar    6  0.2633214E+01  0.2633214E+01  0.5478564E+01  0.3103114E+01
Ar    7  0.2503701E+01  0.3771063E+02  0.8144021E+01  0.4171254E+02
Ar    8  0.3771063E+02  0.2503701E+01  0.8144021E+01  0.4171254E+02
Ar    9  0.1401761E+00  0.1401761E+00  0.1090237E+02  0.1073636E+03
Ar   10  0.2727413E+01  0.2727413E+01  0.1152160E+02  0.2134840E+03
Ar   11  0.2763880E+01  0.2979855E-02  0.1386266E+02  0.3360608E+02
Ar   12  0.2979855E-02  0.2763880E+01  0.1386266E+02  0.3360608E+02
Ar   13  0.3727857E+02  0.3727857E+02  0.1608753E+02  0.3840203E+02
Ar   14  0.2777759E+01  0.2777759E+01  0.1611214E+02  0.2956632E+02
Ar   15  0.2748776E+01  0.3718121E+02  0.1897180E+02  0.9040015E+01
Ar   16  0.3718121E+02  0.2748776E+01  0.1897180E+02  0.9040015E+01
Ar   17  0.3756715E+02  0.3756715E+02  0.2215656E+02  0.9703395E+02
Ar   18  0.2620332E+01  0.2620332E+01  0.2093425E+02  0.1151136E+03
Ar   19  0.2764253E+01  0.3777475E+02  0.2430804E+02  0.4408311E+02
Ar   20  0.3777475E+02  0.2764253E+01  0.2430804E+02  0.4408311E+02
Ar   21  0.3735028E+02  0.3735028E+02  0.2706408E+02  0.1046029E+03
Ar   22  0.2617170E+01  0.2617170E+01  0.2714490E+02  0.6955259E+02
Ar   23  0.2586916E+01  0.3735133E+02  0.2956297E+02  0.8931718E+02
Ar   24  0.3735133E+02  0.2586916E+01  0.2956297E+02  0.8931718E+02
Ar   25  0.3764057E+02  0.3764057E+02  0.3248644E+02  0.1275964E+03
Ar   26  0.2521669E+01  0.2521669E+01  0.3201040E+02  0.1133843E+03
Ar   27  0.2758962E+01  0.3757854E+02  0.3461288E+02  0.1064880E+03
Ar   28  0.3757854E+02  0.2758962E+01  0.3461288E+02  0.1064880E+03
Ar   29  0.3770171E+02  0.5569899E+01  0.3770171E+02  0.4939477E+02
Ar   30  0.2503701E+01  0.8144021E+01  0.3771063E+02  0.4171254E+02
Ar   31  0.2633214E+01  0.5478564E+01  0.2633214E+01  0.3103114E+01
Ar   32  0.3771063E+02  0.8144021E+01  0.2503701E+01  0.4171254E+02
Ar   33  0.3698806E+02  0.5427069E+01  0.5427069E+01  0.1001794E+03
Ar   34  0.2670911E+01  0.8902789E+01  0.5410747E+01  0.9553305E+02
Ar   35  0.2670911E+01  0.5410747E+01  0.8902789E+01  0.9553305E+02
Ar   36  0.4380810E+00  0.7672343E+01  0.7672343E+01  0.1243087E+02
Ar   37  0.3758270E+02  0.5327895E+01  0.1125889E+02  0.1069373E+03
Ar   38  0.2763247E+01  0.8278165E+01  0.1125630E+02  0.1014077E+03
Ar   39  0.2507667E+01  0.5580737E+01  0.1387951E+02  0.1211290E+03
Ar   40  0.3763961E+02  0.8230002E+01  0.1338224E+02  0.1172461E+03
Ar   41  0.3735356E+02  0.5497941E+01  0.1633701E+02  0.9285114E+02
Ar   42  0.2596887E+01  0.8527463E+01  0.1631550E+02  0.9368598E+02
Ar   43  0.2603304E+01  0.5463959E+01  0.1874806E+02  0.5789825E+02
Ar   44  0.3733480E+02  0.8521359E+01  0.1882182E+02  0.1022785E+03
Ar   45  0.6714357E-02  0.5329557E+01  0.2156353E+02  0.4191487E+02
Ar   46  0.2765199E+01  0.8104866E+01  0.2158037E+02  0.3967506E+02
Ar   47  0.2624513E+01  0.5447599E+01  0.2492486E+02  0.1267930E+03
Ar   48  0.3756156E+02  0.8297771E+01  0.2370631E+02  0.9062225E+02
Ar   49  0.3719211E+02  0.5352240E+01  0.2688960E+02  0.9373237E+01
Ar   50  0.2729568E+01  0.8667792E+01  0.2690137E+02  0.6970291E+01
Ar   51  0.2803987E+01  0.5317603E+01  0.2976441E+02  0.2662125E+02
Ar   52  0.3728834E+02  0.8584678E+01  0.2982779E+02  0.4008672E+02
Ar   53  0.3447423E-02  0.5328853E+01  0.3197760E+02  0.3087134E+02
Ar   54  0.2758889E+01  0.8082808E+01  0.3198517E+02  0.3113764E+02
Ar   55  0.2732448E+01  0.5371799E+01  0.3431973E+02  0.2099385E+03
Ar   56  0.1413206E+00  0.7957596E+01  0.3495558E+02  0.1262111E+03
Ar   57  0.1401761E+00  0.1090237E+02  0.1401761E+00  0.1073636E+03
Ar   58  0.2763880E+01  0.1386266E+02  0.2979855E-02  0.3360608E+02
Ar   59  0.2727413E+01  0.1152160E+02  0.2727413E+01  0.2134840E+03
Ar   60  0.2979855E-02  0.1386266E+02  0.2763880E+01  0.3360608E+02
Ar   61  0.3758270E+02  0.1125889E+02  0.5327895E+01  0.1069373E+03
Ar   62  0.2507667E+01  0.1387951E+02  0.5580737E+01  0.1211290E+03
Ar   63  0.2763247E+01  0.1125630E+02  0.8278165E+01  0.1014077E+03
Ar   64  0.3763961E+02  0.1338224E+02  0.8230002E+01  0.1172461E+03
Ar   65  0.3737950E+02  0.1081290E+02  0.1081290E+02  0.5408204E+01
Ar   66  0.2598390E+01  0.1341842E+02  0.1087110E+02  0.8735124E+01
Ar   67  0.2598390E+01  0.1087110E+02  0.1341842E+02  0.8735124E+01
Ar   68  0.1112565E+00  0.1335180E+02  0.1335180E+02  0.1792617E+03
Ar   69  0.3765882E+02  0.1095589E+02  0.1613829E+02  0.5100985E+02
Ar   70  0.2954258E+01  0.1357209E+02  0.1598011E+02  0.1361708E+03
Ar   71  0.2524643E+01  0.1098109E+02  0.1885105E+02  0.9764405E+02
Ar   72  0.3762076E+02  0.1344226E+02  0.1879435E+02  0.7169582E+02
Ar   73  0.4197229E-01  0.1098960E+02  0.2147123E+02  0.1060247E+03
Ar   74  0.2729056E+01  0.1343753E+02  0.2152132E+02  0.3834601E+02
Ar   75  0.2543581E+01  0.1084555E+02  0.2411418E+02  0.9670198E+02
Ar   76  0.1609574E-01  0.1361414E+02  0.2412700E+02  0.1583129E+02
Ar   77  0.3751556E+02  0.1105364E+02  0.2690748E+02  0.2784327E+03
Ar   78  0.2851643E+01  0.1339378E+02  0.2693738E+02  0.1385320E+03
Ar   79  0.2730739E+01  0.1071019E+02  0.2965230E+02  0.1155168E+03
Ar   80  0.3761598E+02  0.1363609E+02  0.2940199E+02  0.1786672E+03
Ar   81  0.1748727E+00  0.1122799E+02  0.3225564E+02  0.1151442E+03
Ar   82  0.2943502E+01  0.1335405E+02  0.3252831E+02  0.1907214E+03
Ar   83  0.2597799E+01  0.1073496E+02  0.3513664E+02  0.5588530E+02
Ar   84  0.1471259E+00  0.1363830E+02  0.3465973E+02  0.1089675E+03
Ar   85  0.3727857E+02  0.1608753E+02  0.3727857E+02  0.3840203E+02
Ar   86  0.2748776E+01  0.1897180E+02  0.3718121E+02  0.9040015E+01
Ar   87  0.2777759E+01  0.1611214E+02  0.2777759E+01  0.2956632E+02
Ar   88  0.3718121E+02  0.1897180E+02  0.2748776E+01  0.9040015E+01
Ar   89  0.3735356E+02  0.1633701E+02  0.5497941E+01  0.9285114E+02
Ar   90  0.2603304E+01  0.1874806E+02  0.5463959E+01  0.5789825E+02
Ar   91  0.2596887E+01  0.1631550E+02  0.8527463E+01  0.9368598E+02
Ar   92  0.3733480E+02  0.1882182E+02  0.8521359E+01  0.1022785E+03
Ar   93  0.3765882E+02  0.1613829E+02  0.1095589E+02  0.5100985E+02
Ar   94  0.2524643E+01  0.1885105E+02  0.1098109E+02  0.9764405E+02
Ar   95  0.2954258E+01  0.1598011E+02  0.1357209E+02  0.1361708E+03
Ar   96  0.3762076E+02  0.1879435E+02  0.1344226E+02  0.7169582E+02
Ar   97  0.1125373E-02  0.1597605E+02  0.1597605E+02  0.7010012E+02
Ar   98  0.2483255E+01  0.1877800E+02  0.1598424E+02  0.1386631E+02
Ar   99  0.2483255E+01  0.1598424E+02  0.1877800E+02  0.1386631E+02
Ar  100  0.3775421E+02  0.1864067E+02  0.1864067E+02  0.1835545E+01
Ar  101  0.3759885E+02  0.1623712E+02  0.2145364E+02  0.5924991E+02
Ar  102  0.2673858E+01  0.1897345E+02  0.2168292E+02  0.1931921E+03
Ar  103  0.2733434E+01  0.1597101E+02  0.2418270E+02  0.7070404E+02
Ar  104  0.3754300E+02  0.1889848E+02  0.2417764E+02  0.2383859E+02
Ar  105  0.1447988E+00  0.1619014E+02  0.2671867E+02  0.4470974E+02
Ar  106  0.3155259E+01  0.1871991E+02  0.2714286E+02  0.1154934E+02
Ar  107  0.2750144E+01  0.1611568E+02  0.2978786E+02  0.5318809E+02
Ar  108  0.1638580E+00  0.1916212E+02  0.2969482E+02  0.4037669E+02
Ar  109  0.3760872E+02  0.1646426E+02  0.3223028E+02  0.1796658E+03
Ar  110  0.2871307E+01  0.1894133E+02  0.3249643E+02  0.1328470E+03
Ar  111  0.2752020E+01  0.1621504E+02  0.3515407E+02  0.1142763E+03
Ar  112  0.3752105E+02  0.1896325E+02  0.3480815E+02  0.2786270E+03
Ar  113  0.3756715E+02  0.2215656E+02  0.3756715E+02  0.9703395E+02
Ar  114  0.2764253E+01  0.2430804E+02  0.3777475E+02  0.4408311E+02
Ar  115  0.2620332E+01  0.2093425E+02  0.2620332E+01  0.1151136E+03
Ar  116  0.3777475E+02  0.2430804E+02  0.2764253E+01  0.4408311E+02
Ar  117  0.6714357E-02  0.2156353E+02  0.5329557E+01  0.4191487E+02
Ar  118  0.2624513E+01  0.2492486E+02  0.5447599E+01  0.1267930E+03
Ar  119  0.2765199E+01  0.2158037E+02  0.8104866E+01  0.3967506E+02
Ar  120  0.3756156E+02  0.2370631E+02  0.8297771E+01  0.9062225E+02
Ar  121  0.4197229E-01  0.2147123E+02  0.1098960E+02  0.1060247E+03
Ar  122  0.2543581E+01  0.2411418E+02  0.1084555E+02  0.9670198E+02
Ar  123  0.2729056E+01  0.2152132E+02  0.1343753E+02  0.3834601E+02
Ar  124  0.1609574E-01  0.2412700E+02  0.1361414E+02  0.1583129E+02
Ar  125  0.3759885E+02  0.2145364E+02  0.1623712E+02  0.5924991E+02
Ar  126  0.2733434E+01  0.2418270E+02  0.1597101E+02  0.7070404E+02
Ar  127  0.2673858E+01  0.2168292E+02  0.1897345E+02  0.1931921E+03
Ar  128  0.3754300E+02  0.2417764E+02  0.1889848E+02  0.2383859E+02
Ar  129  0.3764120E+02  0.2167089E+02  0.2167089E+02  0.2784360E+02
Ar  130  0.2498184E+01  0.2442361E+02  0.2146330E+02  0.1224790E+03
Ar  131  0.2498184E+01  0.2146330E+02  0.2442361E+02  0.1224790E+03
Ar  132  0.3763002E+02  0.2419699E+02  0.2419699E+02  0.3152558E+02
Ar  133  0.3753298E+02  0.2171122E+02  0.2699148E+02  0.2971055E+02
Ar  134  0.2652782E+01  0.2420837E+02  0.2691952E+02  0.2065558E+03
Ar  135  0.2743260E+01  0.2168953E+02  0.2993284E+02  0.7066817E+02
Ar  136  0.3760196E+02  0.2442351E+02  0.2967501E+02  0.6156332E+02
Ar  137  0.2380400E-01  0.2173537E+02  0.3227809E+02  0.1953280E+02
Ar  138  0.2720847E+01  0.2436001E+02  0.3244020E+02  0.4092749E+02
Ar  139  0.2540865E+01  0.2176348E+02  0.3503202E+02  0.9710612E+02
Ar  140  0.4875696E-01  0.2441150E+02  0.3488252E+02  0.1058504E+03
Ar  141  0.3735028E+02  0.2706408E+02  0.3735028E+02  0.1046029E+03
Ar  142  0.2586916E+01  0.2956297E+02  0.3735133E+02  0.8931718E+02
Ar  143  0.2617170E+01  0.2714490E+02  0.2617170E+01  0.6955259E+02
Ar  144  0.3735133E+02  0.2956297E+02  0.2586916E+01  0.8931718E+02
Ar  145  0.3719211E+02  0.2688960E+02  0.5352240E+01  0.9373237E+01
Ar  146  0.2803987E+01  0.2976441E+02  0.5317603E+01  0.2662125E+02
Ar  147  0.2729568E+01  0.2690137E+02  0.8667792E+01  0.6970291E+01
Ar  148  0.3728834E+02  0.2982779E+02  0.8584678E+01  0.4008672E+02
Ar  149  0.3751556E+02  0.2690748E+02  0.1105364E+02  0.2784327E+03
Ar  150  0.2730739E+01  0.2965230E+02  0.1071019E+02  0.1155168E+03
Ar  151  0.2851643E+01  0.2693738E+02  0.1339378E+02  0.1385320E+03
Ar  152  0.3761598E+02  0.2940199E+02  0.1363609E+02  0.1786672E+03
Ar  153  0.1447988E+00  0.2671867E+02  0.1619014E+02  0.4470974E+02
Ar  154  0.2750144E+01  0.2978786E+02  0.1611568E+02  0.5318809E+02
Ar  155  0.3155259E+01  0.2714286E+02  0.1871991E+02  0.1154934E+02
Ar  156  0.1638580E+00  0.2969482E+02  0.1916212E+02  0.4037669E+02
Ar  157  0.3753298E+02  0.2699148E+02  0.2171122E+02  0.2971055E+02
Ar  158  0.2743260E+01  0.2993284E+02  0.2168953E+02  0.7066817E+02
Ar  159  0.2652782E+01  0.2691952E+02  0.2420837E+02  0.2065558E+03
Ar  160  0.3760196E+02  0.2967501E+02  0.2442351E+02  0.6156332E+02
Ar  161  0.3772883E+02  0.2724119E+02  0.2724119E+02  0.8713952E+00
Ar  162  0.2500163E+01  0.2987234E+02  0.2707370E+02  0.1413926E+02
Ar  163  0.2500163E+01  0.2707370E+02  0.2987234E+02  0.1413926E+02
Ar  164  0.4719761E-01  0.2988176E+02  0.2988176E+02  0.7462541E+02
Ar  165  0.3761286E+02  0.2707520E+02  0.3242979E+02  0.7195628E+02
Ar  166  0.2956666E+01  0.2989603E+02  0.3231365E+02  0.1342134E+03
Ar  167  0.2523958E+01  0.2703956E+02  0.3489265E+02  0.1052019E+03
Ar  168  0.3766587E+02  0.2972890E+02  0.3492073E+02  0.5262277E+02
Ar  169  0.3764057E+02  0.3248644E+02  0.3764057E+02  0.1275964E+03
Ar  170  0.2758962E+01  0.3461288E+02  0.3757854E+02  0.1064880E+03
Ar  171  0.2521669E+01  0.3201040E+02  0.2521669E+01  0.1133843E+03
Ar  172  0.3757854E+02  0.3461288E+02  0.2758962E+01  0.1064880E+03
Ar  173  0.3447423E-02  0.3197760E+02  0.5328853E+01  0.3087134E+02
Ar  174  0.2732448E+01  0.3431973E+02  0.5371799E+01  0.2099385E+03
Ar  175  0.2758889E+01  0.3198517E+02  0.8082808E+01  0.3113764E+02
Ar  176  0.1413206E+00  0.3495558E+02  0.7957596E+01  0.1262111E+03
Ar  177  0.1748727E+00  0.3225564E+02  0.1122799E+02  0.1151442E+03
Ar  178  0.2597799E+01  0.3513664E+02  0.1073496E+02  0.5588530E+02
Ar  179  0.2943502E+01  0.3252831E+02  0.1335405E+02  0.1907214E+03
Ar  180  0.1471259E+00  0.3465973E+02  0.1363830E+02  0.1089675E+03
Ar  181  0.3760872E+02  0.3223028E+02  0.1646426E+02  0.1796658E+03
Ar  182  0.2752020E+01  0.3515407E+02  0.1621504E+02  0.1142763E+03
Ar  183  0.2871307E+01  0.3249643E+02  0.1894133E+02  0.1328470E+03
Ar  184  0.3752105E+02  0.3480815E+02  0.1896325E+02  0.2786270E+03
Ar  185  0.2380400E-01  0.3227809E+02  0.2173537E+02  0.1953280E+02
Ar  186  0.2540865E+01  0.3503202E+02  0.2176348E+02  0.9710612E+02
Ar  187  0.2720847E+01  0.3244020E+02  0.2436001E+02  0.4092749E+02
Ar  188  0.4875696E-01  0.3488252E+02  0.2441150E+02  0.1058504E+03
Ar  189  0.3761286E+02  0.3242979E+02  0.2707520E+02  0.7195628E+02
Ar  190  0.2523958E+01  0.3489265E+02  0.2703956E+02  0.1052019E+03
Ar  191  0.2956666E+01  0.3231365E+02  0.2989603E+02  0.1342134E+03
Ar  192  0.3766587E+02  0.3492073E+02  0.2972890E+02  0.5262277E+02
Ar  193  0.7908705E-01  0.3251561E+02  0.3251561E+02  0.1763570E+03
Ar  194  0.2590159E+01  0.3499538E+02  0.3245612E+02  0.7549801E+01
Ar  195  0.2590159E+01  0.3245612E+02  0.3499538E+02  0.7549801E+01
Ar  196  0.3737768E+02  0.3505271E+02  0.3505271E+02  0.5453991E+01
Ar  197  0.5569899E+01  0.3770171E+02  0.3770171E+02  0.4939477E+02
Ar  198  0.8144021E+01  0.2503701E+01  0.3771063E+02  0.4171254E+02
Ar  199  0.8144021E+01  0.3771063E+02  0.2503701E+01  0.4171254E+02
Ar  200  0.5478564E+01  0.2633214E+01  0.2633214E+01  0.3103114E+01
Ar  201  0.5427069E+01  0.3698806E+02  0.5427069E+01  0.1001794E+03
Ar  202  0.8902789E+01  0.2670911E+01  0.5410747E+01  0.9553305E+02
Ar  203  0.7672343E+01  0.4380810E+00  0.7672343E+01  0.1243087E+02
Ar  204  0.5410747E+01  0.2670911E+01  0.8902789E+01  0.9553305E+02
Ar  205  0.5327895E+01  0.3758270E+02  0.1125889E+02  0.1069373E+03
Ar  206  0.8278165E+01  0.2763247E+01  0.1125630E+02  0.1014077E+03
Ar  207  0.8230002E+01  0.3763961E+02  0.1338224E+02  0.1172461E+03
Ar  208  0.5580737E+01  0.2507667E+01  0.1387951E+02  0.1211290E+03
Ar  209  0.5497941E+01  0.3735356E+02  0.1633701E+02  0.9285114E+02
Ar  210  0.8527463E+01  0.2596887E+01  0.1631550E+02  0.9368598E+02
Ar  211  0.8521359E+01  0.3733480E+02  0.1882182E+02  0.1022785E+03
Ar  212  0.5463959E+01  0.2603304E+01  0.1874806E+02  0.5789825E+02
Ar  213  0.5329557E+01  0.6714357E-02  0.2156353E+02  0.4191487E+02
Ar  214  0.8104866E+01  0.2765199E+01  0.2158037E+02  0.3967506E+02
Ar  215  0.8297771E+01  0.3756156E+02  0.2370631E+02  0.9062225E+02
Ar  216  0.5447599E+01  0.2624513E+01  0.2492486E+02  0.1267930E+03
Ar  217  0.5352240E+01  0.3719211E+02  0.2688960E+02  0.9373237E+01
Ar  218  0.8667792E+01  0.2729568E+01  0.2690137E+02  0.6970291E+01
Ar  219  0.8584678E+01  0.3728834E+02  0.2982779E+02  0.4008672E+02
Ar  220  0.5317603E+01  0.2803987E+01  0.2976441E+02  0.2662125E+02
Ar  221  0.5328853E+01  0.3447423E-02  0.3197760E+02  0.3087134E+02
Ar  222  0.8082808E+01  0.2758889E+01  0.3198517E+02  0.3113764E+02
Ar  223  0.7957596E+01  0.1413206E+00  0.3495558E+02  0.1262111E+03
Ar  224  0.5371799E+01  0.2732448E+01  0.3431973E+02  0.2099385E+03
Ar  225  0.5427069E+01  0.5427069E+01  0.3698806E+02  0.1001794E+03
Ar  226  0.7672343E+01  0.7672343E+01  0.4380810E+00  0.1243087E+02
Ar  227  0.8902789E+01  0.5410747E+01  0.2670911E+01  0.9553305E+02
Ar  228  0.5410747E+01  0.8902789E+01  0.2670911E+01  0.9553305E+02
Ar  229  0.5483403E+01  0.5483403E+01  0.5483403E+01  0.8391157E+00
Ar  230  0.8186128E+01  0.8186128E+01  0.5592752E+01  0.5654439E+02
Ar  231  0.8186128E+01  0.5592752E+01  0.8186128E+01  0.5654439E+02
Ar  232  0.5592752E+01  0.8186128E+01  0.8186128E+01  0.5654439E+02
Ar  233  0.5359360E+01  0.5359360E+01  0.1151515E+02  0.2252531E+03
Ar  234  0.7955033E+01  0.7955033E+01  0.1093844E+02  0.1105112E+03
Ar  235  0.8089149E+01  0.5327088E+01  0.1387513E+02  0.2966330E+02
Ar  236  0.5327088E+01  0.8089149E+01  0.1387513E+02  0.2966330E+02
Ar  237  0.5303541E+01  0.5303541E+01  0.1610119E+02  0.1924997E+02
Ar  238  0.8589121E+01  0.8589121E+01  0.1606816E+02  0.4564430E+02
Ar  239  0.8686293E+01  0.5332779E+01  0.1897810E+02  0.9353960E+01
Ar  240  0.5332779E+01  0.8686293E+01  0.1897810E+02  0.9353960E+01
Ar  241  0.5484351E+01  0.5484351E+01  0.2093854E+02  0.1200701E+03
Ar  242  0.8306321E+01  0.8306321E+01  0.2219697E+02  0.1166038E+03
Ar  243  0.8088703E+01  0.5306014E+01  0.2430886E+02  0.3994057E+02
Ar  244  0.5306014E+01  0.8088703E+01  0.2430886E+02  0.3994057E+02
Ar  245  0.5491459E+01  0.5491459E+01  0.2712227E+02  0.5566048E+02
Ar  246  0.8535906E+01  0.8535906E+01  0.2704987E+02  0.1191950E+03
Ar  247  0.8521601E+01  0.5486341E+01  0.2953868E+02  0.9824322E+02
Ar  248  0.5486341E+01  0.8521601E+01  0.2953868E+02  0.9824322E+02
Ar  249  0.5572010E+01  0.5572010E+01  0.3201585E+02  0.1005167E+03
Ar  250  0.8229237E+01  0.8229237E+01  0.3247724E+02  0.1248103E+03
Ar  251  0.8300220E+01  0.5336990E+01  0.3460999E+02  0.1008324E+03
Ar  252  0.5336990E+01  0.8300220E+01  0.3460999E+02  0.1008324E+03
Ar  253  0.5327895E+01  0.1125889E+02  0.3758270E+02  0.1069373E+03
Ar  254  0.8230002E+01  0.1338224E+02  0.3763961E+02  0.1172461E+03
Ar  255  0.8278165E+01  0.1125630E+02  0.2763247E+01  0.1014077E+03
Ar  256  0.5580737E+01  0.1387951E+02  0.2507667E+01  0.1211290E+03
Ar  257  0.5359360E+01  0.1151515E+02  0.5359360E+01  0.2252531E+03
Ar  258  0.8089149E+01  0.1387513E+02  0.5327088E+01  0.2966330E+02
Ar  259  0.7955033E+01  0.1093844E+02  0.7955033E+01  0.1105112E+03
Ar  260  0.5327088E+01  0.1387513E+02  0.8089149E+01  0.2966330E+02
Ar  261  0.5496157E+01  0.1073494E+02  0.1073494E+02  0.4398541E+02
Ar  262  0.7932728E+01  0.1363603E+02  0.1122937E+02  0.1076346E+03
Ar  263  0.7932728E+01  0.1122937E+02  0.1363603E+02  0.1076346E+03
Ar  264  0.5147101E+01  0.1335190E+02  0.1335190E+02  0.1877341E+03
Ar  265  0.5341314E+01  0.1070671E+02  0.1622879E+02  0.9550220E+02
Ar  266  0.8249133E+01  0.1364027E+02  0.1646210E+02  0.1738054E+03
Ar  267  0.8358117E+01  0.1105013E+02  0.1896692E+02  0.2784440E+03
Ar  268  0.5237463E+01  0.1340358E+02  0.1893849E+02  0.1418784E+03
Ar  269  0.5547851E+01  0.1084147E+02  0.2177903E+02  0.9189989E+02
Ar  270  0.8067419E+01  0.1362706E+02  0.2173006E+02  0.1371158E+02
Ar  271  0.8051041E+01  0.1100344E+02  0.2441692E+02  0.1105572E+03
Ar  272  0.5362618E+01  0.1343978E+02  0.2435465E+02  0.3449317E+02
Ar  273  0.5561368E+01  0.1098110E+02  0.2702431E+02  0.1022097E+03
Ar  274  0.8257859E+01  0.1343372E+02  0.2710064E+02  0.7245814E+02
Ar  275  0.8218334E+01  0.1094469E+02  0.2975887E+02  0.5488529E+02
Ar  276  0.5133657E+01  0.1355955E+02  0.2990066E+02  0.1332413E+03
Ar  277  0.5504460E+01  0.1088491E+02  0.3244264E+02  0.7522068E+01
Ar  278  0.8005094E+01  0.1335417E+02  0.3252796E+02  0.1817857E+03
Ar  279  0.8488361E+01  0.1080899E+02  0.3505449E+02  0.6069315E+01
Ar  280  0.5500468E+01  0.1341723E+02  0.3499888E+02  0.8619818E+01
Ar  281  0.5497941E+01  0.1633701E+02  0.3735356E+02  0.9285114E+02
Ar  282  0.8521359E+01  0.1882182E+02  0.3733480E+02  0.1022785E+03
Ar  283  0.8527463E+01  0.1631550E+02  0.2596887E+01  0.9368598E+02
Ar  284  0.5463959E+01  0.1874806E+02  0.2603304E+01  0.5789825E+02
Ar  285  0.5303541E+01  0.1610119E+02  0.5303541E+01  0.1924997E+02
Ar  286  0.8686293E+01  0.1897810E+02  0.5332779E+01  0.9353960E+01
Ar  287  0.8589121E+01  0.1606816E+02  0.8589121E+01  0.4564430E+02
Ar  288  0.5332779E+01  0.1897810E+02  0.8686293E+01  0.9353960E+01
Ar  289  0.5341314E+01  0.1622879E+02  0.1070671E+02  0.9550220E+02
Ar  290  0.8358117E+01  0.1896692E+02  0.1105013E+02  0.2784440E+03
Ar  291  0.8249133E+01  0.1646210E+02  0.1364027E+02  0.1738054E+03
Ar  292  0.5237463E+01  0.1893849E+02  0.1340358E+02  0.1418784E+03
Ar  293  0.5375058E+01  0.1610123E+02  0.1610123E+02  0.6385997E+02
Ar  294  0.7950398E+01  0.1914872E+02  0.1618723E+02  0.4060992E+02
Ar  295  0.7950398E+01  0.1618723E+02  0.1914872E+02  0.4060992E+02
Ar  296  0.4938812E+01  0.1872257E+02  0.1872257E+02  0.1081391E+02
Ar  297  0.5354539E+01  0.1598213E+02  0.2169694E+02  0.7422571E+02
Ar  298  0.8311069E+01  0.1889213E+02  0.2169595E+02  0.2552496E+02
Ar  299  0.8281246E+01  0.1621278E+02  0.2443121E+02  0.5881294E+02
Ar  300  0.5442746E+01  0.1896489E+02  0.2420780E+02  0.2030550E+03
Ar  301  0.5608071E+01  0.1597781E+02  0.2710307E+02  0.1659834E+02
Ar  302  0.8126399E+01  0.1863713E+02  0.2724821E+02  0.6253756E+00
Ar  303  0.8079779E+01  0.1597978E+02  0.2990477E+02  0.6780761E+02
Ar  304  0.5597407E+01  0.1878420E+02  0.2988417E+02  0.1391500E+02
Ar  305  0.5142378E+01  0.1596371E+02  0.3232659E+02  0.1366342E+03
Ar  306  0.8252539E+01  0.1878742E+02  0.3244683E+02  0.6966126E+02
Ar  307  0.8212674E+01  0.1612548E+02  0.3493072E+02  0.4579924E+02
Ar  308  0.5584271E+01  0.1884957E+02  0.3490899E+02  0.9610849E+02
Ar  309  0.5329557E+01  0.2156353E+02  0.6714357E-02  0.4191487E+02
Ar  310  0.8297771E+01  0.2370631E+02  0.3756156E+02  0.9062225E+02
Ar  311  0.8104866E+01  0.2158037E+02  0.2765199E+01  0.3967506E+02
Ar  312  0.5447599E+01  0.2492486E+02  0.2624513E+01  0.1267930E+03
Ar  313  0.5484351E+01  0.2093854E+02  0.5484351E+01  0.1200701E+03
Ar  314  0.8088703E+01  0.2430886E+02  0.5306014E+01  0.3994057E+02
Ar  315  0.8306321E+01  0.2219697E+02  0.8306321E+01  0.1166038E+03
Ar  316  0.5306014E+01  0.2430886E+02  0.8088703E+01  0.3994057E+02
Ar  317  0.5547851E+01  0.2177903E+02  0.1084147E+02  0.9189989E+02
Ar  318  0.8051041E+01  0.2441692E+02  0.1100344E+02  0.1105572E+03
Ar  319  0.8067419E+01  0.2173006E+02  0.1362706E+02  0.1371158E+02
Ar  320  0.5362618E+01  0.2435465E+02  0.1343978E+02  0.3449317E+02
Ar  321  0.5354539E+01  0.2169694E+02  0.1598213E+02  0.7422571E+02
Ar  322  0.8281246E+01  0.2443121E+02  0.1621278E+02  0.5881294E+02
Ar  323  0.8311069E+01  0.2169595E+02  0.1889213E+02  0.2552496E+02
Ar  324  0.5442746E+01  0.2420780E+02  0.1896489E+02  0.2030550E+03
Ar  325  0.5570480E+01  0.2148081E+02  0.2148081E+02  0.1174883E+03
Ar  326  0.8241771E+01  0.2421355E+02  0.2168648E+02  0.2735485E+02
Ar  327  0.8241771E+01  0.2168648E+02  0.2421355E+02  0.2735485E+02
Ar  328  0.5591281E+01  0.2442709E+02  0.2442709E+02  0.1205119E+03
Ar  329  0.5411017E+01  0.2167822E+02  0.2691625E+02  0.2052273E+03
Ar  330  0.8340685E+01  0.2416075E+02  0.2699553E+02  0.3116054E+02
Ar  331  0.8281761E+01  0.2144297E+02  0.2968085E+02  0.6102650E+02
Ar  332  0.5360940E+01  0.2418604E+02  0.2992426E+02  0.7586190E+02
Ar  333  0.5386744E+01  0.2151189E+02  0.3244098E+02  0.3300949E+02
Ar  334  0.8068684E+01  0.2415384E+02  0.3227319E+02  0.1935294E+02
Ar  335  0.8052914E+01  0.2147794E+02  0.3489417E+02  0.1063030E+03
Ar  336  0.5530487E+01  0.2408686E+02  0.3502883E+02  0.8407893E+02
Ar  337  0.5352240E+01  0.2688960E+02  0.3719211E+02  0.9373237E+01
Ar  338  0.8584678E+01  0.2982779E+02  0.3728834E+02  0.4008672E+02
Ar  339  0.8667792E+01  0.2690137E+02  0.2729568E+01  0.6970291E+01
Ar  340  0.5317603E+01  0.2976441E+02  0.2803987E+01  0.2662125E+02
Ar  341  0.5491459E+01  0.2712227E+02  0.5491459E+01  0.5566048E+02
Ar  342  0.8521601E+01  0.2953868E+02  0.5486341E+01  0.9824322E+02
Ar  343  0.8535906E+01  0.2704987E+02  0.8535906E+01  0.1191950E+03
Ar  344  0.5486341E+01  0.2953868E+02  0.8521601E+01  0.9824322E+02
Ar  345  0.5561368E+01  0.2702431E+02  0.1098110E+02  0.1022097E+03
Ar  346  0.8218334E+01  0.2975887E+02  0.1094469E+02  0.5488529E+02
Ar  347  0.8257859E+01  0.2710064E+02  0.1343372E+02  0.7245814E+02
Ar  348  0.5133657E+01  0.2990066E+02  0.1355955E+02  0.1332413E+03
Ar  349  0.5608071E+01  0.2710307E+02  0.1597781E+02  0.1659834E+02
Ar  350  0.8079779E+01  0.2990477E+02  0.1597978E+02  0.6780761E+02
Ar  351  0.8126399E+01  0.2724821E+02  0.1863713E+02  0.6253756E+00
Ar  352  0.5597407E+01  0.2988417E+02  0.1878420E+02  0.1391500E+02
Ar  353  0.5411017E+01  0.2691625E+02  0.2167822E+02  0.2052273E+03
Ar  354  0.8281761E+01  0.2968085E+02  0.2144297E+02  0.6102650E+02
Ar  355  0.8340685E+01  0.2699553E+02  0.2416075E+02  0.3116054E+02
Ar  356  0.5360940E+01  0.2992426E+02  0.2418604E+02  0.7586190E+02
Ar  357  0.4966782E+01  0.2713449E+02  0.2713449E+02  0.1516896E+02
Ar  358  0.7948362E+01  0.2969556E+02  0.2672287E+02  0.4371190E+02
Ar  359  0.7948362E+01  0.2672287E+02  0.2969556E+02  0.4371190E+02
Ar  360  0.5367221E+01  0.2975826E+02  0.2975826E+02  0.5606296E+02
Ar  361  0.5249592E+01  0.2693607E+02  0.3248886E+02  0.1416473E+03
Ar  362  0.8254438E+01  0.2941021E+02  0.3223007E+02  0.1746986E+03
Ar  363  0.8345840E+01  0.2691195E+02  0.3479863E+02  0.2712025E+03
Ar  364  0.5344946E+01  0.2965438E+02  0.3517026E+02  0.9958862E+02
Ar  365  0.5328853E+01  0.3197760E+02  0.3447423E-02  0.3087134E+02
Ar  366  0.7957596E+01  0.3495558E+02  0.1413206E+00  0.1262111E+03
Ar  367  0.8082808E+01  0.3198517E+02  0.2758889E+01  0.3113764E+02
Ar  368  0.5371799E+01  0.3431973E+02  0.2732448E+01  0.2099385E+03
Ar  369  0.5572010E+01  0.3201585E+02  0.5572010E+01  0.1005167E+03
Ar  370  0.8300220E+01  0.3460999E+02  0.5336990E+01  0.1008324E+03
Ar  371  0.8229237E+01  0.3247724E+02  0.8229237E+01  0.1248103E+03
Ar  372  0.5336990E+01  0.3460999E+02  0.8300220E+01  0.1008324E+03
Ar  373  0.5504460E+01  0.3244264E+02  0.1088491E+02  0.7522068E+01
Ar  374  0.8488361E+01  0.3505449E+02  0.1080899E+02  0.6069315E+01
Ar  375  0.8005094E+01  0.3252796E+02  0.1335417E+02  0.1817857E+03
Ar  376  0.5500468E+01  0.3499888E+02  0.1341723E+02  0.8619818E+01
Ar  377  0.5142378E+01  0.3232659E+02  0.1596371E+02  0.1366342E+03
Ar  378  0.8212674E+01  0.3493072E+02  0.1612548E+02  0.4579924E+02
Ar  379  0.8252539E+01  0.3244683E+02  0.1878742E+02  0.6966126E+02
Ar  380  0.5584271E+01  0.3490899E+02  0.1884957E+02  0.9610849E+02
Ar  381  0.5386744E+01  0.3244098E+02  0.2151189E+02  0.3300949E+02
Ar  382  0.8052914E+01  0.3489417E+02  0.2147794E+02  0.1063030E+03
Ar  383  0.8068684E+01  0.3227319E+02  0.2415384E+02  0.1935294E+02
Ar  384  0.5530487E+01  0.3502883E+02  0.2408686E+02  0.8407893E+02
Ar  385  0.5249592E+01  0.3248886E+02  0.2693607E+02  0.1416473E+03
Ar  386  0.8345840E+01  0.3479863E+02  0.2691195E+02  0.2712025E+03
Ar  387  0.8254438E+01  0.3223007E+02  0.2941021E+02  0.1746986E+03
Ar  388  0.5344946E+01  0.3517026E+02  0.2965438E+02  0.9958862E+02
Ar  389  0.5148506E+01  0.3251005E+02  0.3251005E+02  0.2022424E+03
Ar  390  0.7921840E+01  0.3464083E+02  0.3224323E+02  0.1051956E+03
Ar  391  0.7921840E+01  0.3224323E+02  0.3464083E+02  0.1051956E+03
Ar  392  0.5494985E+01  0.3513309E+02  0.3513309E+02  0.5784148E+02
Ar  393  0.1090237E+02  0.1401761E+00  0.1401761E+00  0.1073636E+03
Ar  394  0.1386266E+02  0.2763880E+01  0.2979855E-02  0.3360608E+02
Ar  395  0.1386266E+02  0.2979855E-02  0.2763880E+01  0.3360608E+02
Ar  396  0.1152160E+02  0.2727413E+01  0.2727413E+01  0.2134840E+03
Ar  397  0.1125889E+02  0.3758270E+02  0.5327895E+01  0.1069373E+03
Ar  398  0.1387951E+02  0.2507667E+01  0.5580737E+01  0.1211290E+03
Ar  399  0.1338224E+02  0.3763961E+02  0.8230002E+01  0.1172461E+03
Ar  400  0.1125630E+02  0.2763247E+01  0.8278165E+01  0.1014077E+03
Ar  401  0.1081290E+02  0.3737950E+02  0.1081290E+02  0.5408204E+01
Ar  402  0.1341842E+02  0.2598390E+01  0.1087110E+02  0.8735124E+01
Ar  403  0.1335180E+02  0.1112565E+00  0.1335180E+02  0.1792617E+03
Ar  404  0.1087110E+02  0.2598390E+01  0.1341842E+02  0.8735124E+01
Ar  405  0.1095589E+02  0.3765882E+02  0.1613829E+02  0.5100985E+02
Ar  406  0.1357209E+02  0.2954258E+01  0.1598011E+02  0.1361708E+03
Ar  407  0.1344226E+02  0.3762076E+02  0.1879435E+02  0.7169582E+02
Ar  408  0.1098109E+02  0.2524643E+01  0.1885105E+02  0.9764405E+02
Ar  409  0.1098960E+02  0.4197229E-01  0.2147123E+02  0.1060247E+03
Ar  410  0.1343753E+02  0.2729056E+01  0.2152132E+02  0.3834601E+02
Ar  411  0.1361414E+02  0.1609574E-01  0.2412700E+02  0.1583129E+02
Ar  412  0.1084555E+02  0.2543581E+01  0.2411418E+02  0.9670198E+02
Ar  413  0.1105364E+02  0.3751556E+02  0.2690748E+02  0.2784327E+03
Ar  414  0.1339378E+02  0.2851643E+01  0.2693738E+02  0.1385320E+03
Ar  415  0.1363609E+02  0.3761598E+02  0.2940199E+02  0.1786672E+03
Ar  416  0.1071019E+02  0.2730739E+01  0.2965230E+02  0.1155168E+03
Ar  417  0.1122799E+02  0.1748727E+00  0.3225564E+02  0.1151442E+03
Ar  418  0.1335405E+02  0.2943502E+01  0.3252831E+02  0.1907214E+03
Ar  419  0.1363830E+02  0.1471259E+00  0.3465973E+02  0.1089675E+03
Ar  420  0.1073496E+02  0.2597799E+01  0.3513664E+02  0.5588530E+02
Ar  421  0.1125889E+02  0.5327895E+01  0.3758270E+02  0.1069373E+03
Ar  422  0.1338224E+02  0.8230002E+01  0.3763961E+02  0.1172461E+03
Ar  423  0.1387951E+02  0.5580737E+01  0.2507667E+01  0.1211290E+03
Ar  424  0.1125630E+02  0.8278165E+01  0.2763247E+01  0.1014077E+03
Ar  425  0.1151515E+02  0.5359360E+01  0.5359360E+01  0.2252531E+03
Ar  426  0.1387513E+02  0.8089149E+01  0.5327088E+01  0.2966330E+02
Ar  427  0.1387513E+02  0.5327088E+01  0.8089149E+01  0.2966330E+02
Ar  428  0.1093844E+02  0.7955033E+01  0.7955033E+01  0.1105112E+03
Ar  429  0.1073494E+02  0.5496157E+01  0.1073494E+02  0.4398541E+02
Ar  430  0.1363603E+02  0.7932728E+01  0.1122937E+02  0.1076346E+03
Ar  431  0.1335190E+02  0.5147101E+01  0.1335190E+02  0.1877341E+03
Ar  432  0.1122937E+02  0.7932728E+01  0.1363603E+02  0.1076346E+03
Ar  433  0.1070671E+02  0.5341314E+01  0.1622879E+02  0.9550220E+02
Ar  434  0.1364027E+02  0.8249133E+01  0.1646210E+02  0.1738054E+03
Ar  435  0.1340358E+02  0.5237463E+01  0.1893849E+02  0.1418784E+03
Ar  436  0.1105013E+02  0.8358117E+01  0.1896692E+02  0.2784440E+03
Ar  437  0.1084147E+02  0.5547851E+01  0.2177903E+02  0.9189989E+02
Ar  438  0.1362706E+02  0.8067419E+01  0.2173006E+02  0.1371158E+02
Ar  439  0.1343978E+02  0.5362618E+01  0.2435465E+02  0.3449317E+02
Ar  440  0.1100344E+02  0.8051041E+01  0.2441692E+02  0.1105572E+03
Ar  441  0.1098110E+02  0.5561368E+01  0.2702431E+02  0.1022097E+03
Ar  442  0.1343372E+02  0.8257859E+01  0.2710064E+02  0.7245814E+02
Ar  443  0.1355955E+02  0.5133657E+01  0.2990066E+02  0.1332413E+03
Ar  444  0.1094469E+02  0.8218334E+01  0.2975887E+02  0.5488529E+02
Ar  445  0.1088491E+02  0.5504460E+01  0.3244264E+02  0.7522068E+01
Ar  446  0.1335417E+02  0.8005094E+01  0.3252796E+02  0.1817857E+03
Ar  447  0.1341723E+02  0.5500468E+01  0.3499888E+02  0.8619818E+01
Ar  448  0.1080899E+02  0.8488361E+01  0.3505449E+02  0.6069315E+01
Ar  449  0.1081290E+02  0.1081290E+02  0.3737950E+02  0.5408204E+01
Ar  450  0.1335180E+02  0.1335180E+02  0.1112565E+00  0.1792617E+03
Ar  451  0.1341842E+02  0.1087110E+02  0.2598390E+01  0.8735124E+01
Ar  452  0.1087110E+02  0.1341842E+02  0.2598390E+01  0.8735124E+01
Ar  453  0.1073494E+02  0.1073494E+02  0.5496157E+01  0.4398541E+02
Ar  454  0.1335190E+02  0.1335190E+02  0.5147101E+01  0.1877341E+03
Ar  455  0.1363603E+02  0.1122937E+02  0.7932728E+01  0.1076346E+03
Ar  456  0.1122937E+02  0.1363603E+02  0.7932728E+01  0.1076346E+03
Ar  457  0.1077266E+02  0.1077266E+02  0.1077266E+02  0.9430512E+01
Ar  458  0.1337830E+02  0.1337830E+02  0.1091032E+02  0.1177369E+03
Ar  459  0.1337830E+02  0.1091032E+02  0.1337830E+02  0.1177369E+03
Ar  460  0.1091032E+02  0.1337830E+02  0.1337830E+02  0.1177369E+03
Ar  461  0.1117144E+02  0.1117144E+02  0.1648686E+02  0.1726316E+03
Ar  462  0.1369195E+02  0.1369195E+02  0.1622911E+02  0.9139533E+02
Ar  463  0.1353885E+02  0.1096457E+02  0.1922956E+02  0.3081986E+02
Ar  464  0.1096457E+02  0.1353885E+02  0.1922956E+02  0.3081986E+02
Ar  465  0.1085777E+02  0.1085777E+02  0.2162149E+02  0.1687453E+02
Ar  466  0.1338729E+02  0.1338729E+02  0.2179645E+02  0.2547574E+03
Ar  467  0.1336135E+02  0.1070267E+02  0.2435785E+02  0.9292591E+02
Ar  468  0.1070267E+02  0.1336135E+02  0.2435785E+02  0.9292591E+02
Ar  469  0.1098157E+02  0.1098157E+02  0.2706933E+02  0.7899304E+01
Ar  470  0.1360134E+02  0.1360134E+02  0.2682145E+02  0.2950251E+03
Ar  471  0.1364319E+02  0.1093934E+02  0.2975387E+02  0.1362588E+03
Ar  472  0.1093934E+02  0.1364319E+02  0.2975387E+02  0.1362588E+03
Ar  473  0.1087436E+02  0.1087436E+02  0.3221008E+02  0.1737239E+03
Ar  474  0.1368907E+02  0.1368907E+02  0.3220493E+02  0.2264259E+03
Ar  475  0.1365790E+02  0.1087507E+02  0.3501516E+02  0.1618545E+03
Ar  476  0.1087507E+02  0.1365790E+02  0.3501516E+02  0.1618545E+03
Ar  477  0.1095589E+02  0.1613829E+02  0.3765882E+02  0.5100985E+02
Ar  478  0.1344226E+02  0.1879435E+02  0.3762076E+02  0.7169582E+02
Ar  479  0.1357209E+02  0.1598011E+02  0.2954258E+01  0.1361708E+03
Ar  480  0.1098109E+02  0.1885105E+02  0.2524643E+01  0.9764405E+02
Ar  481  0.1070671E+02  0.1622879E+02  0.5341314E+01  0.9550220E+02
Ar  482  0.1340358E+02  0.1893849E+02  0.5237463E+01  0.1418784E+03
Ar  483  0.1364027E+02  0.1646210E+02  0.8249133E+01  0.1738054E+03
Ar  484  0.1105013E+02  0.1896692E+02  0.8358117E+01  0.2784440E+03
Ar  485  0.1117144E+02  0.1648686E+02  0.1117144E+02  0.1726316E+03
Ar  486  0.1353885E+02  0.1922956E+02  0.1096457E+02  0.3081986E+02
Ar  487  0.1369195E+02  0.1622911E+02  0.1369195E+02  0.9139533E+02
Ar  488  0.1096457E+02  0.1922956E+02  0.1353885E+02  0.3081986E+02
Ar  489  0.1100268E+02  0.1613780E+02  0.1613780E+02  0.4648954E+02
Ar  490  0.1347473E+02  0.1923398E+02  0.1611522E+02  0.2094854E+03
Ar  491  0.1347473E+02  0.1611522E+02  0.1923398E+02  0.2094854E+03
Ar  492  0.1065909E+02  0.1904688E+02  0.1904688E+02  0.1580914E+03
Ar  493  0.1091637E+02  0.1611245E+02  0.2172729E+02  0.4566954E+02
Ar  494  0.1349808E+02  0.1868574E+02  0.2161643E+02  0.1978872E+02
Ar  495  0.1363270E+02  0.1625958E+02  0.2442603E+02  0.1007294E+03
Ar  496  0.1091818E+02  0.1898023E+02  0.2435306E+02  0.1936955E+02
Ar  497  0.1084059E+02  0.1632933E+02  0.2705108E+02  0.1163721E+03
Ar  498  0.1380990E+02  0.1876318E+02  0.2711244E+02  0.2615005E+02
Ar  499  0.1326639E+02  0.1611475E+02  0.2976834E+02  0.7376713E+02
Ar  500  0.1083315E+02  0.1879943E+02  0.2953334E+02  0.1188717E+03
Ar  501  0.1093001E+02  0.1612676E+02  0.3224255E+02  0.1283055E+03
Ar  502  0.1359012E+02  0.1904597E+02  0.3228994E+02  0.2955982E+03
Ar  503  0.1362623E+02  0.1612109E+02  0.3495338E+02  0.1261581E+03
Ar  504  0.1097746E+02  0.1883846E+02  0.3490265E+02  0.1022744E+02
Ar  505  0.1098960E+02  0.2147123E+02  0.4197229E-01  0.1060247E+03
Ar  506  0.1361414E+02  0.2412700E+02  0.1609574E-01  0.1583129E+02
Ar  507  0.1343753E+02  0.2152132E+02  0.2729056E+01  0.3834601E+02
Ar  508  0.1084555E+02  0.2411418E+02  0.2543581E+01  0.9670198E+02
Ar  509  0.1084147E+02  0.2177903E+02  0.5547851E+01  0.9189989E+02
Ar  510  0.1343978E+02  0.2435465E+02  0.5362618E+01  0.3449317E+02
Ar  511  0.1362706E+02  0.2173006E+02  0.8067419E+01  0.1371158E+02
Ar  512  0.1100344E+02  0.2441692E+02  0.8051041E+01  0.1105572E+03
Ar  513  0.1085777E+02  0.2162149E+02  0.1085777E+02  0.1687453E+02
Ar  514  0.1336135E+02  0.2435785E+02  0.1070267E+02  0.9292591E+02
Ar  515  0.1338729E+02  0.2179645E+02  0.1338729E+02  0.2547574E+03
Ar  516  0.1070267E+02  0.2435785E+02  0.1336135E+02  0.9292591E+02
Ar  517  0.1091637E+02  0.2172729E+02  0.1611245E+02  0.4566954E+02
Ar  518  0.1363270E+02  0.2442603E+02  0.1625958E+02  0.1007294E+03
Ar  519  0.1349808E+02  0.2161643E+02  0.1868574E+02  0.1978872E+02
Ar  520  0.1091818E+02  0.2435306E+02  0.1898023E+02  0.1936955E+02
Ar  521  0.1124706E+02  0.2145423E+02  0.2145423E+02  0.3043680E+02
Ar  522  0.1396622E+02  0.2435531E+02  0.2152197E+02  0.1425950E+03
Ar  523  0.1396622E+02  0.2152197E+02  0.2435531E+02  0.1425950E+03
Ar  524  0.1125399E+02  0.2442509E+02  0.2442509E+02  0.2228857E+02
Ar  525  0.1093432E+02  0.2150685E+02  0.2688375E+02  0.2196344E+02
Ar  526  0.1349252E+02  0.2426235E+02  0.2718812E+02  0.1236885E+02
Ar  527  0.1362177E+02  0.2144186E+02  0.2962102E+02  0.1031534E+03
Ar  528  0.1091282E+02  0.2415826E+02  0.2975694E+02  0.4147946E+02
Ar  529  0.1069515E+02  0.2152985E+02  0.3251273E+02  0.9391072E+02
Ar  530  0.1337640E+02  0.2407449E+02  0.3248425E+02  0.2460850E+03
Ar  531  0.1335188E+02  0.2153454E+02  0.3516719E+02  0.1017466E+03
Ar  532  0.1085096E+02  0.2426911E+02  0.3500326E+02  0.1230570E+02
Ar  533  0.1105364E+02  0.2690748E+02  0.3751556E+02  0.2784327E+03
Ar  534  0.1363609E+02  0.2940199E+02  0.3761598E+02  0.1786672E+03
Ar  535  0.1339378E+02  0.2693738E+02  0.2851643E+01  0.1385320E+03
Ar  536  0.1071019E+02  0.2965230E+02  0.2730739E+01  0.1155168E+03
Ar  537  0.1098110E+02  0.2702431E+02  0.5561368E+01  0.1022097E+03
Ar  538  0.1355955E+02  0.2990066E+02  0.5133657E+01  0.1332413E+03
Ar  539  0.1343372E+02  0.2710064E+02  0.8257859E+01  0.7245814E+02
Ar  540  0.1094469E+02  0.2975887E+02  0.8218334E+01  0.5488529E+02
Ar  541  0.1098157E+02  0.2706933E+02  0.1098157E+02  0.7899304E+01
Ar  542  0.1364319E+02  0.2975387E+02  0.1093934E+02  0.1362588E+03
Ar  543  0.1360134E+02  0.2682145E+02  0.1360134E+02  0.2950251E+03
Ar  544  0.1093934E+02  0.2975387E+02  0.1364319E+02  0.1362588E+03
Ar  545  0.1084059E+02  0.2705108E+02  0.1632933E+02  0.1163721E+03
Ar  546  0.1326639E+02  0.2976834E+02  0.1611475E+02  0.7376713E+02
Ar  547  0.1380990E+02  0.2711244E+02  0.1876318E+02  0.2615005E+02
Ar  548  0.1083315E+02  0.2953334E+02  0.1879943E+02  0.1188717E+03
Ar  549  0.1093432E+02  0.2688375E+02  0.2150685E+02  0.2196344E+02
Ar  550  0.1362177E+02  0.2962102E+02  0.2144186E+02  0.1031534E+03
Ar  551  0.1349252E+02  0.2718812E+02  0.2426235E+02  0.1236885E+02
Ar  552  0.1091282E+02  0.2975694E+02  0.2415826E+02  0.4147946E+02
Ar  553  0.1065753E+02  0.2682144E+02  0.2682144E+02  0.1261330E+03
Ar  554  0.1348633E+02  0.2976442E+02  0.2664076E+02  0.1837253E+03
Ar  555  0.1348633E+02  0.2664076E+02  0.2976442E+02  0.1837253E+03
Ar  556  0.1099972E+02  0.2975074E+02  0.2975074E+02  0.4373075E+02
Ar  557  0.1098518E+02  0.2666608E+02  0.3233988E+02  0.3465464E+02
Ar  558  0.1369558E+02  0.2963344E+02  0.3216260E+02  0.1022354E+03
Ar  559  0.1353365E+02  0.2665463E+02  0.3491611E+02  0.3422894E+02
Ar  560  0.1117072E+02  0.2941134E+02  0.3471641E+02  0.1856047E+03
Ar  561  0.1122799E+02  0.3225564E+02  0.1748727E+00  0.1151442E+03
Ar  562  0.1363830E+02  0.3465973E+02  0.1471259E+00  0.1089675E+03
Ar  563  0.1335405E+02  0.3252831E+02  0.2943502E+01  0.1907214E+03
Ar  564  0.1073496E+02  0.3513664E+02  0.2597799E+01  0.5588530E+02
Ar  565  0.1088491E+02  0.3244264E+02  0.5504460E+01  0.7522068E+01
Ar  566  0.1341723E+02  0.3499888E+02  0.5500468E+01  0.8619818E+01
Ar  567  0.1335417E+02  0.3252796E+02  0.8005094E+01  0.1817857E+03
Ar  568  0.1080899E+02  0.3505449E+02  0.8488361E+01  0.6069315E+01
Ar  569  0.1087436E+02  0.3221008E+02  0.1087436E+02  0.1737239E+03
Ar  570  0.1365790E+02  0.3501516E+02  0.1087507E+02  0.1618545E+03
Ar  571  0.1368907E+02  0.3220493E+02  0.1368907E+02  0.2264259E+03
Ar  572  0.1087507E+02  0.3501516E+02  0.1365790E+02  0.1618545E+03
Ar  573  0.1093001E+02  0.3224255E+02  0.1612676E+02  0.1283055E+03
Ar  574  0.1362623E+02  0.3495338E+02  0.1612109E+02  0.1261581E+03
Ar  575  0.1359012E+02  0.3228994E+02  0.1904597E+02  0.2955982E+03
Ar  576  0.1097746E+02  0.3490265E+02  0.1883846E+02  0.1022744E+02
Ar  577  0.1069515E+02  0.3251273E+02  0.2152985E+02  0.9391072E+02
Ar  578  0.1335188E+02  0.3516719E+02  0.2153454E+02  0.1017466E+03
Ar  579  0.1337640E+02  0.3248425E+02  0.2407449E+02  0.2460850E+03
Ar  580  0.1085096E+02  0.3500326E+02  0.2426911E+02  0.1230570E+02
Ar  581  0.1098518E+02  0.3233988E+02  0.2666608E+02  0.3465464E+02
Ar  582  0.1353365E+02  0.3491611E+02  0.2665463E+02  0.3422894E+02
Ar  583  0.1369558E+02  0.3216260E+02  0.2963344E+02  0.1022354E+03
Ar  584  0.1117072E+02  0.3471641E+02  0.2941134E+02  0.1856047E+03
Ar  585  0.1088880E+02  0.3248850E+02  0.3248850E+02  0.1063969E+03
Ar  586  0.1335954E+02  0.3496388E+02  0.3249045E+02  0.1090229E+03
Ar  587  0.1335954E+02  0.3249045E+02  0.3496388E+02  0.1090229E+03
Ar  588  0.1078365E+02  0.3508152E+02  0.3508152E+02  0.1305406E+02
Ar  589  0.1608753E+02  0.3727857E+02  0.3727857E+02  0.3840203E+02
Ar  590  0.1897180E+02  0.2748776E+01  0.3718121E+02  0.9040015E+01
Ar  591  0.1897180E+02  0.3718121E+02  0.2748776E+01  0.9040015E+01
Ar  592  0.1611214E+02  0.2777759E+01  0.2777759E+01  0.2956632E+02
Ar  593  0.1633701E+02  0.3735356E+02  0.5497941E+01  0.9285114E+02
Ar  594  0.1874806E+02  0.2603304E+01  0.5463959E+01  0.5789825E+02
Ar  595  0.1882182E+02  0.3733480E+02  0.8521359E+01  0.1022785E+03
Ar  596  0.1631550E+02  0.2596887E+01  0.8527463E+01  0.9368598E+02
Ar  597  0.1613829E+02  0.3765882E+02  0.1095589E+02  0.5100985E+02
Ar  598  0.1885105E+02  0.2524643E+01  0.1098109E+02  0.9764405E+02
Ar  599  0.1879435E+02  0.3762076E+02  0.1344226E+02  0.7169582E+02
Ar  600  0.1598011E+02  0.2954258E+01  0.1357209E+02  0.1361708E+03
Ar  601  0.1597605E+02  0.1125373E-02  0.1597605E+02  0.7010012E+02
Ar  602  0.1877800E+02  0.2483255E+01  0.1598424E+02  0.1386631E+02
Ar  603  0.1864067E+02  0.3775421E+02  0.1864067E+02  0.1835545E+01
Ar  604  0.1598424E+02  0.2483255E+01  0.1877800E+02  0.1386631E+02
Ar  605  0.1623712E+02  0.3759885E+02  0.2145364E+02  0.5924991E+02
Ar  606  0.1897345E+02  0.2673858E+01  0.2168292E+02  0.1931921E+03
Ar  607  0.1889848E+02  0.3754300E+02  0.2417764E+02  0.2383859E+02
Ar  608  0.1597101E+02  0.2733434E+01  0.2418270E+02  0.7070404E+02
Ar  609  0.1619014E+02  0.1447988E+00  0.2671867E+02  0.4470974E+02
Ar  610  0.1871991E+02  0.3155259E+01  0.2714286E+02  0.1154934E+02
Ar  611  0.1916212E+02  0.1638580E+00  0.2969482E+02  0.4037669E+02
Ar  612  0.1611568E+02  0.2750144E+01  0.2978786E+02  0.5318809E+02
Ar  613  0.1646426E+02  0.3760872E+02  0.3223028E+02  0.1796658E+03
Ar  614  0.1894133E+02  0.2871307E+01  0.3249643E+02  0.1328470E+03
Ar  615  0.1896325E+02  0.3752105E+02  0.3480815E+02  0.2786270E+03
Ar  616  0.1621504E+02  0.2752020E+01  0.3515407E+02  0.1142763E+03
Ar  617  0.1633701E+02  0.5497941E+01  0.3735356E+02  0.9285114E+02
Ar  618  0.1882182E+02  0.8521359E+01  0.3733480E+02  0.1022785E+03
Ar  619  0.1874806E+02  0.5463959E+01  0.2603304E+01  0.5789825E+02
Ar  620  0.1631550E+02  0.8527463E+01  0.2596887E+01  0.9368598E+02
Ar  621  0.1610119E+02  0.5303541E+01  0.5303541E+01  0.1924997E+02
Ar  622  0.1897810E+02  0.8686293E+01  0.5332779E+01  0.9353960E+01
Ar  623  0.1897810E+02  0.5332779E+01  0.8686293E+01  0.9353960E+01
Ar  624  0.1606816E+02  0.8589121E+01  0.8589121E+01  0.4564430E+02
Ar  625  0.1622879E+02  0.5341314E+01  0.1070671E+02  0.9550220E+02
Ar  626  0.1896692E+02  0.8358117E+01  0.1105013E+02  0.2784440E+03
Ar  627  0.1893849E+02  0.5237463E+01  0.1340358E+02  0.1418784E+03
Ar  628  0.1646210E+02  0.8249133E+01  0.1364027E+02  0.1738054E+03
Ar  629  0.1610123E+02  0.5375058E+01  0.1610123E+02  0.6385997E+02
Ar  630  0.1914872E+02  0.7950398E+01  0.1618723E+02  0.4060992E+02
Ar  631  0.1872257E+02  0.4938812E+01  0.1872257E+02  0.1081391E+02
Ar  632  0.1618723E+02  0.7950398E+01  0.1914872E+02  0.4060992E+02
Ar  633  0.1598213E+02  0.5354539E+01  0.2169694E+02  0.7422571E+02
Ar  634  0.1889213E+02  0.8311069E+01  0.2169595E+02  0.2552496E+02
Ar  635  0.1896489E+02  0.5442746E+01  0.2420780E+02  0.2030550E+03
Ar  636  0.1621278E+02  0.8281246E+01  0.2443121E+02  0.5881294E+02
Ar  637  0.1597781E+02  0.5608071E+01  0.2710307E+02  0.1659834E+02
Ar  638  0.1863713E+02  0.8126399E+01  0.2724821E+02  0.6253756E+00
Ar  639  0.1878420E+02  0.5597407E+01  0.2988417E+02  0.1391500E+02
Ar  640  0.1597978E+02  0.8079779E+01  0.2990477E+02  0.6780761E+02
Ar  641  0.1596371E+02  0.5142378E+01  0.3232659E+02  0.1366342E+03
Ar  642  0.1878742E+02  0.8252539E+01  0.3244683E+02  0.6966126E+02
Ar  643  0.1884957E+02  0.5584271E+01  0.3490899E+02  0.9610849E+02
Ar  644  0.1612548E+02  0.8212674E+01  0.3493072E+02  0.4579924E+02
Ar  645  0.1613829E+02  0.1095589E+02  0.3765882E+02  0.5100985E+02
Ar  646  0.1879435E+02  0.1344226E+02  0.3762076E+02  0.7169582E+02
Ar  647  0.1885105E+02  0.1098109E+02  0.2524643E+01  0.9764405E+02
Ar  648  0.1598011E+02  0.1357209E+02  0.2954258E+01  0.1361708E+03
Ar  649  0.1622879E+02  0.1070671E+02  0.5341314E+01  0.9550220E+02
Ar  650  0.1893849E+02  0.1340358E+02  0.5237463E+01  0.1418784E+03
Ar  651  0.1896692E+02  0.1105013E+02  0.8358117E+01  0.2784440E+03
Ar  652  0.1646210E+02  0.1364027E+02  0.8249133E+01  0.1738054E+03
Ar  653  0.1648686E+02  0.1117144E+02  0.1117144E+02  0.1726316E+03
Ar  654  0.1922956E+02  0.1353885E+02  0.1096457E+02  0.3081986E+02
Ar  655  0.1922956E+02  0.1096457E+02  0.1353885E+02  0.3081986E+02
Ar  656  0.1622911E+02  0.1369195E+02  0.1369195E+02  0.9139533E+02
Ar  657  0.1613780E+02  0.1100268E+02  0.1613780E+02  0.4648954E+02
Ar  658  0.1923398E+02  0.1347473E+02  0.1611522E+02  0.2094854E+03
Ar  659  0.1904688E+02  0.1065909E+02  0.1904688E+02  0.1580914E+03
Ar  660  0.1611522E+02  0.1347473E+02  0.1923398E+02  0.2094854E+03
Ar  661  0.1611245E+02  0.1091637E+02  0.2172729E+02  0.4566954E+02
Ar  662  0.1868574E+02  0.1349808E+02  0.2161643E+02  0.1978872E+02
Ar  663  0.1898023E+02  0.1091818E+02  0.2435306E+02  0.1936955E+02
Ar  664  0.1625958E+02  0.1363270E+02  0.2442603E+02  0.1007294E+03
Ar  665  0.1632933E+02  0.1084059E+02  0.2705108E+02  0.1163721E+03
Ar  666  0.1876318E+02  0.1380990E+02  0.2711244E+02  0.2615005E+02
Ar  667  0.1879943E+02  0.1083315E+02  0.2953334E+02  0.1188717E+03
Ar  668  0.1611475E+02  0.1326639E+02  0.2976834E+02  0.7376713E+02
Ar  669  0.1612676E+02  0.1093001E+02  0.3224255E+02  0.1283055E+03
Ar  670  0.1904597E+02  0.1359012E+02  0.3228994E+02  0.2955982E+03
Ar  671  0.1883846E+02  0.1097746E+02  0.3490265E+02  0.1022744E+02
Ar  672  0.1612109E+02  0.1362623E+02  0.3495338E+02  0.1261581E+03
Ar  673  0.1597605E+02  0.1597605E+02  0.1125373E-02  0.7010012E+02
Ar  674  0.1864067E+02  0.1864067E+02  0.3775421E+02  0.1835545E+01
Ar  675  0.1877800E+02  0.1598424E+02  0.2483255E+01  0.1386631E+02
Ar  676  0.1598424E+02  0.1877800E+02  0.2483255E+01  0.1386631E+02
Ar  677  0.1610123E+02  0.1610123E+02  0.5375058E+01  0.6385997E+02
Ar  678  0.1872257E+02  0.1872257E+02  0.4938812E+01  0.1081391E+02
Ar  679  0.1914872E+02  0.1618723E+02  0.7950398E+01  0.4060992E+02
Ar  680  0.1618723E+02  0.1914872E+02  0.7950398E+01  0.4060992E+02
Ar  681  0.1613780E+02  0.1613780E+02  0.1100268E+02  0.4648954E+02
Ar  682  0.1904688E+02  0.1904688E+02  0.1065909E+02  0.1580914E+03
Ar  683  0.1923398E+02  0.1611522E+02  0.1347473E+02  0.2094854E+03
Ar  684  0.1611522E+02  0.1923398E+02  0.1347473E+02  0.2094854E+03
Ar  685  0.1628165E+02  0.1628165E+02  0.1628165E+02  0.1744068E+01
Ar  686  0.1866388E+02  0.1866388E+02  0.1621832E+02  0.4500578E+01
Ar  687  0.1866388E+02  0.1621832E+02  0.1866388E+02  0.4500578E+01
Ar  688  0.1621832E+02  0.1866388E+02  0.1866388E+02  0.4500578E+01
Ar  689  0.1619576E+02  0.1619576E+02  0.2197300E+02  0.4565353E+02
Ar  690  0.1876809E+02  0.1876809E+02  0.2144437E+02  0.1442330E+03
Ar  691  0.1887609E+02  0.1636485E+02  0.2440772E+02  0.5386579E+02
Ar  692  0.1636485E+02  0.1887609E+02  0.2440772E+02  0.5386579E+02
Ar  693  0.1596374E+02  0.1596374E+02  0.2724485E+02  0.6148173E+02
Ar  694  0.1885865E+02  0.1885865E+02  0.2701498E+02  0.4727810E+02
Ar  695  0.1864689E+02  0.1595635E+02  0.2991874E+02  0.6434238E+02
Ar  696  0.1595635E+02  0.1864689E+02  0.2991874E+02  0.6434238E+02
Ar  697  0.1611327E+02  0.1611327E+02  0.3263666E+02  0.7528071E+02
Ar  698  0.1876276E+02  0.1876276E+02  0.3208050E+02  0.3044841E+02
Ar  699  0.1881606E+02  0.1633930E+02  0.3504517E+02  0.1097542E+03
Ar  700  0.1633930E+02  0.1881606E+02  0.3504517E+02  0.1097542E+03
Ar  701  0.1623712E+02  0.2145364E+02  0.3759885E+02  0.5924991E+02
Ar  702  0.1889848E+02  0.2417764E+02  0.3754300E+02  0.2383859E+02
Ar  703  0.1897345E+02  0.2168292E+02  0.2673858E+01  0.1931921E+03
Ar  704  0.1597101E+02  0.2418270E+02  0.2733434E+01  0.7070404E+02
Ar  705  0.1598213E+02  0.2169694E+02  0.5354539E+01  0.7422571E+02
Ar  706  0.1896489E+02  0.2420780E+02  0.5442746E+01  0.2030550E+03
Ar  707  0.1889213E+02  0.2169595E+02  0.8311069E+01  0.2552496E+02
Ar  708  0.1621278E+02  0.2443121E+02  0.8281246E+01  0.5881294E+02
Ar  709  0.1611245E+02  0.2172729E+02  0.1091637E+02  0.4566954E+02
Ar  710  0.1898023E+02  0.2435306E+02  0.1091818E+02  0.1936955E+02
Ar  711  0.1868574E+02  0.2161643E+02  0.1349808E+02  0.1978872E+02
Ar  712  0.1625958E+02  0.2442603E+02  0.1363270E+02  0.1007294E+03
Ar  713  0.1619576E+02  0.2197300E+02  0.1619576E+02  0.4565353E+02
Ar  714  0.1887609E+02  0.2440772E+02  0.1636485E+02  0.5386579E+02
Ar  715  0.1876809E+02  0.2144437E+02  0.1876809E+02  0.1442330E+03
Ar  716  0.1636485E+02  0.2440772E+02  0.1887609E+02  0.5386579E+02
Ar  717  0.1648618E+02  0.2132544E+02  0.2132544E+02  0.1727705E+03
Ar  718  0.1883030E+02  0.2410288E+02  0.2175333E+02  0.3115431E+02
Ar  719  0.1883030E+02  0.2175333E+02  0.2410288E+02  0.3115431E+02
Ar  720  0.1648362E+02  0.2453485E+02  0.2453485E+02  0.1702988E+03
Ar  721  0.1635432E+02  0.2147209E+02  0.2703065E+02  0.5143386E+02
Ar  722  0.1875404E+02  0.2441007E+02  0.2710254E+02  0.1619626E+03
Ar  723  0.1886719E+02  0.2148827E+02  0.2953185E+02  0.5412032E+02
Ar  724  0.1619331E+02  0.2389975E+02  0.2970074E+02  0.4350803E+02
Ar  725  0.1625528E+02  0.2143126E+02  0.3226767E+02  0.1049069E+03
Ar  726  0.1868709E+02  0.2427003E+02  0.3237025E+02  0.1549394E+02
Ar  727  0.1898598E+02  0.2151189E+02  0.3494804E+02  0.2303116E+02
Ar  728  0.1612409E+02  0.2413142E+02  0.3494787E+02  0.5089093E+02
Ar  729  0.1619014E+02  0.2671867E+02  0.1447988E+00  0.4470974E+02
Ar  730  0.1916212E+02  0.2969482E+02  0.1638580E+00  0.4037669E+02
Ar  731  0.1871991E+02  0.2714286E+02  0.3155259E+01  0.1154934E+02
Ar  732  0.1611568E+02  0.2978786E+02  0.2750144E+01  0.5318809E+02
Ar  733  0.1597781E+02  0.2710307E+02  0.5608071E+01  0.1659834E+02
Ar  734  0.1878420E+02  0.2988417E+02  0.5597407E+01  0.1391500E+02
Ar  735  0.1863713E+02  0.2724821E+02  0.8126399E+01  0.6253756E+00
Ar  736  0.1597978E+02  0.2990477E+02  0.8079779E+01  0.6780761E+02
Ar  737  0.1632933E+02  0.2705108E+02  0.1084059E+02  0.1163721E+03
Ar  738  0.1879943E+02  0.2953334E+02  0.1083315E+02  0.1188717E+03
Ar  739  0.1876318E+02  0.2711244E+02  0.1380990E+02  0.2615005E+02
Ar  740  0.1611475E+02  0.2976834E+02  0.1326639E+02  0.7376713E+02
Ar  741  0.1596374E+02  0.2724485E+02  0.1596374E+02  0.6148173E+02
Ar  742  0.1864689E+02  0.2991874E+02  0.1595635E+02  0.6434238E+02
Ar  743  0.1885865E+02  0.2701498E+02  0.1885865E+02  0.4727810E+02
Ar  744  0.1595635E+02  0.2991874E+02  0.1864689E+02  0.6434238E+02
Ar  745  0.1635432E+02  0.2703065E+02  0.2147209E+02  0.5143386E+02
Ar  746  0.1886719E+02  0.2953185E+02  0.2148827E+02  0.5412032E+02
Ar  747  0.1875404E+02  0.2710254E+02  0.2441007E+02  0.1619626E+03
Ar  748  0.1619331E+02  0.2970074E+02  0.2389975E+02  0.4350803E+02
Ar  749  0.1622932E+02  0.2721310E+02  0.2721310E+02  0.8799449E+01
Ar  750  0.1864763E+02  0.2969440E+02  0.2723166E+02  0.9341842E+01
Ar  751  0.1864763E+02  0.2723166E+02  0.2969440E+02  0.9341842E+01
Ar  752  0.1624836E+02  0.2959906E+02  0.2959906E+02  0.4291259E+01
Ar  753  0.1609863E+02  0.2663917E+02  0.3240585E+02  0.2109613E+03
Ar  754  0.1924445E+02  0.2975995E+02  0.3239755E+02  0.2023310E+03
Ar  755  0.1905093E+02  0.2682718E+02  0.3520529E+02  0.1573683E+03
Ar  756  0.1611269E+02  0.2975857E+02  0.3487278E+02  0.3916489E+02
Ar  757  0.1646426E+02  0.3223028E+02  0.3760872E+02  0.1796658E+03
Ar  758  0.1896325E+02  0.3480815E+02  0.3752105E+02  0.2786270E+03
Ar  759  0.1894133E+02  0.3249643E+02  0.2871307E+01  0.1328470E+03
Ar  760  0.1621504E+02  0.3515407E+02  0.2752020E+01  0.1142763E+03
Ar  761  0.1596371E+02  0.3232659E+02  0.5142378E+01  0.1366342E+03
Ar  762  0.1884957E+02  0.3490899E+02  0.5584271E+01  0.9610849E+02
Ar  763  0.1878742E+02  0.3244683E+02  0.8252539E+01  0.6966126E+02
Ar  764  0.1612548E+02  0.3493072E+02  0.8212674E+01  0.4579924E+02
Ar  765  0.1612676E+02  0.3224255E+02  0.1093001E+02  0.1283055E+03
Ar  766  0.1883846E+02  0.3490265E+02  0.1097746E+02  0.1022744E+02
Ar  767  0.1904597E+02  0.3228994E+02  0.1359012E+02  0.2955982E+03
Ar  768  0.1612109E+02  0.3495338E+02  0.1362623E+02  0.1261581E+03
Ar  769  0.1611327E+02  0.3263666E+02  0.1611327E+02  0.7528071E+02
Ar  770  0.1881606E+02  0.3504517E+02  0.1633930E+02  0.1097542E+03
Ar  771  0.1876276E+02  0.3208050E+02  0.1876276E+02  0.3044841E+02
Ar  772  0.1633930E+02  0.3504517E+02  0.1881606E+02  0.1097542E+03
Ar  773  0.1625528E+02  0.3226767E+02  0.2143126E+02  0.1049069E+03
Ar  774  0.1898598E+02  0.3494804E+02  0.2151189E+02  0.2303116E+02
Ar  775  0.1868709E+02  0.3237025E+02  0.2427003E+02  0.1549394E+02
Ar  776  0.1612409E+02  0.3494787E+02  0.2413142E+02  0.5089093E+02
Ar  777  0.1609863E+02  0.3240585E+02  0.2663917E+02  0.2109613E+03
Ar  778  0.1905093E+02  0.3520529E+02  0.2682718E+02  0.1573683E+03
Ar  779  0.1924445E+02  0.3239755E+02  0.2975995E+02  0.2023310E+03
Ar  780  0.1611269E+02  0.3487278E+02  0.2975857E+02  0.3916489E+02
Ar  781  0.1623408E+02  0.3217092E+02  0.3217092E+02  0.1029186E+03
Ar  782  0.1923116E+02  0.3489766E+02  0.3234269E+02  0.2880654E+02
Ar  783  0.1923116E+02  0.3234269E+02  0.3489766E+02  0.2880654E+02
Ar  784  0.1647483E+02  0.3472330E+02  0.3472330E+02  0.1636803E+03
Ar  785  0.2215656E+02  0.3756715E+02  0.3756715E+02  0.9703395E+02
Ar  786  0.2430804E+02  0.2764253E+01  0.3777475E+02  0.4408311E+02
Ar  787  0.2430804E+02  0.3777475E+02  0.2764253E+01  0.4408311E+02
Ar  788  0.2093425E+02  0.2620332E+01  0.2620332E+01  0.1151136E+03
Ar  789  0.2156353E+02  0.6714357E-02  0.5329557E+01  0.4191487E+02
Ar  790  0.2492486E+02  0.2624513E+01  0.5447599E+01  0.1267930E+03
Ar  791  0.2370631E+02  0.3756156E+02  0.8297771E+01  0.9062225E+02
Ar  792  0.2158037E+02  0.2765199E+01  0.8104866E+01  0.3967506E+02
Ar  793  0.2147123E+02  0.4197229E-01  0.1098960E+02  0.1060247E+03
Ar  794  0.2411418E+02  0.2543581E+01  0.1084555E+02  0.9670198E+02
Ar  795  0.2412700E+02  0.1609574E-01  0.1361414E+02  0.1583129E+02
Ar  796  0.2152132E+02  0.2729056E+01  0.1343753E+02  0.3834601E+02
Ar  797  0.2145364E+02  0.3759885E+02  0.1623712E+02  0.5924991E+02
Ar  798  0.2418270E+02  0.2733434E+01  0.1597101E+02  0.7070404E+02
Ar  799  0.2417764E+02  0.3754300E+02  0.1889848E+02  0.2383859E+02
Ar  800  0.2168292E+02  0.2673858E+01  0.1897345E+02  0.1931921E+03
Ar  801  0.2167089E+02  0.3764120E+02  0.2167089E+02  0.2784360E+02
Ar  802  0.2442361E+02  0.2498184E+01  0.2146330E+02  0.1224790E+03
Ar  803  0.2419699E+02  0.3763002E+02  0.2419699E+02  0.3152558E+02
Ar  804  0.2146330E+02  0.2498184E+01  0.2442361E+02  0.1224790E+03
Ar  805  0.2171122E+02  0.3753298E+02  0.2699148E+02  0.2971055E+02
Ar  806  0.2420837E+02  0.2652782E+01  0.2691952E+02  0.2065558E+03
Ar  807  0.2442351E+02  0.3760196E+02  0.2967501E+02  0.6156332E+02
Ar  808  0.2168953E+02  0.2743260E+01  0.2993284E+02  0.7066817E+02
Ar  809  0.2173537E+02  0.2380400E-01  0.3227809E+02  0.1953280E+02
Ar  810  0.2436001E+02  0.2720847E+01  0.3244020E+02  0.4092749E+02
Ar  811  0.2441150E+02  0.4875696E-01  0.3488252E+02  0.1058504E+03
Ar  812  0.2176348E+02  0.2540865E+01  0.3503202E+02  0.9710612E+02
Ar  813  0.2156353E+02  0.5329557E+01  0.6714357E-02  0.4191487E+02
Ar  814  0.2370631E+02  0.8297771E+01  0.3756156E+02  0.9062225E+02
Ar  815  0.2492486E+02  0.5447599E+01  0.2624513E+01  0.1267930E+03
Ar  816  0.2158037E+02  0.8104866E+01  0.2765199E+01  0.3967506E+02
Ar  817  0.2093854E+02  0.5484351E+01  0.5484351E+01  0.1200701E+03
Ar  818  0.2430886E+02  0.8088703E+01  0.5306014E+01  0.3994057E+02
Ar  819  0.2430886E+02  0.5306014E+01  0.8088703E+01  0.3994057E+02
Ar  820  0.2219697E+02  0.8306321E+01  0.8306321E+01  0.1166038E+03
Ar  821  0.2177903E+02  0.5547851E+01  0.1084147E+02  0.9189989E+02
Ar  822  0.2441692E+02  0.8051041E+01  0.1100344E+02  0.1105572E+03
Ar  823  0.2435465E+02  0.5362618E+01  0.1343978E+02  0.3449317E+02
Ar  824  0.2173006E+02  0.8067419E+01  0.1362706E+02  0.1371158E+02
Ar  825  0.2169694E+02  0.5354539E+01  0.1598213E+02  0.7422571E+02
Ar  826  0.2443121E+02  0.8281246E+01  0.1621278E+02  0.5881294E+02
Ar  827  0.2420780E+02  0.5442746E+01  0.1896489E+02  0.2030550E+03
Ar  828  0.2169595E+02  0.8311069E+01  0.1889213E+02  0.2552496E+02
Ar  829  0.2148081E+02  0.5570480E+01  0.2148081E+02  0.1174883E+03
Ar  830  0.2421355E+02  0.8241771E+01  0.2168648E+02  0.2735485E+02
Ar  831  0.2442709E+02  0.5591281E+01  0.2442709E+02  0.1205119E+03
Ar  832  0.2168648E+02  0.8241771E+01  0.2421355E+02  0.2735485E+02
Ar  833  0.2167822E+02  0.5411017E+01  0.2691625E+02  0.2052273E+03
Ar  834  0.2416075E+02  0.8340685E+01  0.2699553E+02  0.3116054E+02
Ar  835  0.2418604E+02  0.5360940E+01  0.2992426E+02  0.7586190E+02
Ar  836  0.2144297E+02  0.8281761E+01  0.2968085E+02  0.6102650E+02
Ar  837  0.2151189E+02  0.5386744E+01  0.3244098E+02  0.3300949E+02
Ar  838  0.2415384E+02  0.8068684E+01  0.3227319E+02  0.1935294E+02
Ar  839  0.2408686E+02  0.5530487E+01  0.3502883E+02  0.8407893E+02
Ar  840  0.2147794E+02  0.8052914E+01  0.3489417E+02  0.1063030E+03
Ar  841  0.2147123E+02  0.1098960E+02  0.4197229E-01  0.1060247E+03
Ar  842  0.2412700E+02  0.1361414E+02  0.1609574E-01  0.1583129E+02
Ar  843  0.2411418E+02  0.1084555E+02  0.2543581E+01  0.9670198E+02
Ar  844  0.2152132E+02  0.1343753E+02  0.2729056E+01  0.3834601E+02
Ar  845  0.2177903E+02  0.1084147E+02  0.5547851E+01  0.9189989E+02
Ar  846  0.2435465E+02  0.1343978E+02  0.5362618E+01  0.3449317E+02
Ar  847  0.2441692E+02  0.1100344E+02  0.8051041E+01  0.1105572E+03
Ar  848  0.2173006E+02  0.1362706E+02  0.8067419E+01  0.1371158E+02
Ar  849  0.2162149E+02  0.1085777E+02  0.1085777E+02  0.1687453E+02
Ar  850  0.2435785E+02  0.1336135E+02  0.1070267E+02  0.9292591E+02
Ar  851  0.2435785E+02  0.1070267E+02  0.1336135E+02  0.9292591E+02
Ar  852  0.2179645E+02  0.1338729E+02  0.1338729E+02  0.2547574E+03
Ar  853  0.2172729E+02  0.1091637E+02  0.1611245E+02  0.4566954E+02
Ar  854  0.2442603E+02  0.1363270E+02  0.1625958E+02  0.1007294E+03
Ar  855  0.2435306E+02  0.1091818E+02  0.1898023E+02  0.1936955E+02
Ar  856  0.2161643E+02  0.1349808E+02  0.1868574E+02  0.1978872E+02
Ar  857  0.2145423E+02  0.1124706E+02  0.2145423E+02  0.3043680E+02
Ar  858  0.2435531E+02  0.1396622E+02  0.2152197E+02  0.1425950E+03
Ar  859  0.2442509E+02  0.1125399E+02  0.2442509E+02  0.2228857E+02
Ar  860  0.2152197E+02  0.1396622E+02  0.2435531E+02  0.1425950E+03
Ar  861  0.2150685E+02  0.1093432E+02  0.2688375E+02  0.2196344E+02
Ar  862  0.2426235E+02  0.1349252E+02  0.2718812E+02  0.1236885E+02
Ar  863  0.2415826E+02  0.1091282E+02  0.2975694E+02  0.4147946E+02
Ar  864  0.2144186E+02  0.1362177E+02  0.2962102E+02  0.1031534E+03
Ar  865  0.2152985E+02  0.1069515E+02  0.3251273E+02  0.9391072E+02
Ar  866  0.2407449E+02  0.1337640E+02  0.3248425E+02  0.2460850E+03
Ar  867  0.2426911E+02  0.1085096E+02  0.3500326E+02  0.1230570E+02
Ar  868  0.2153454E+02  0.1335188E+02  0.3516719E+02  0.1017466E+03
Ar  869  0.2145364E+02  0.1623712E+02  0.3759885E+02  0.5924991E+02
Ar  870  0.2417764E+02  0.1889848E+02  0.3754300E+02  0.2383859E+02
Ar  871  0.2418270E+02  0.1597101E+02  0.2733434E+01  0.7070404E+02
Ar  872  0.2168292E+02  0.1897345E+02  0.2673858E+01  0.1931921E+03
Ar  873  0.2169694E+02  0.1598213E+02  0.5354539E+01  0.7422571E+02
Ar  874  0.2420780E+02  0.1896489E+02  0.5442746E+01  0.2030550E+03
Ar  875  0.2443121E+02  0.1621278E+02  0.8281246E+01  0.5881294E+02
Ar  876  0.2169595E+02  0.1889213E+02  0.8311069E+01  0.2552496E+02
Ar  877  0.2172729E+02  0.1611245E+02  0.1091637E+02  0.4566954E+02
Ar  878  0.2435306E+02  0.1898023E+02  0.1091818E+02  0.1936955E+02
Ar  879  0.2442603E+02  0.1625958E+02  0.1363270E+02  0.1007294E+03
Ar  880  0.2161643E+02  0.1868574E+02  0.1349808E+02  0.1978872E+02
Ar  881  0.2197300E+02  0.1619576E+02  0.1619576E+02  0.4565353E+02
Ar  882  0.2440772E+02  0.1887609E+02  0.1636485E+02  0.5386579E+02
Ar  883  0.2440772E+02  0.1636485E+02  0.1887609E+02  0.5386579E+02
Ar  884  0.2144437E+02  0.1876809E+02  0.1876809E+02  0.1442330E+03
Ar  885  0.2132544E+02  0.1648618E+02  0.2132544E+02  0.1727705E+03
Ar  886  0.2410288E+02  0.1883030E+02  0.2175333E+02  0.3115431E+02
Ar  887  0.2453485E+02  0.1648362E+02  0.2453485E+02  0.1702988E+03
Ar  888  0.2175333E+02  0.1883030E+02  0.2410288E+02  0.3115431E+02
Ar  889  0.2147209E+02  0.1635432E+02  0.2703065E+02  0.5143386E+02
Ar  890  0.2441007E+02  0.1875404E+02  0.2710254E+02  0.1619626E+03
Ar  891  0.2389975E+02  0.1619331E+02  0.2970074E+02  0.4350803E+02
Ar  892  0.2148827E+02  0.1886719E+02  0.2953185E+02  0.5412032E+02
Ar  893  0.2143126E+02  0.1625528E+02  0.3226767E+02  0.1049069E+03
Ar  894  0.2427003E+02  0.1868709E+02  0.3237025E+02  0.1549394E+02
Ar  895  0.2413142E+02  0.1612409E+02  0.3494787E+02  0.5089093E+02
Ar  896  0.2151189E+02  0.1898598E+02  0.3494804E+02  0.2303116E+02
Ar  897  0.2167089E+02  0.2167089E+02  0.3764120E+02  0.2784360E+02
Ar  898  0.2419699E+02  0.2419699E+02  0.3763002E+02  0.3152558E+02
Ar  899  0.2442361E+02  0.2146330E+02  0.2498184E+01  0.1224790E+03
Ar  900  0.2146330E+02  0.2442361E+02  0.2498184E+01  0.1224790E+03
Ar  901  0.2148081E+02  0.2148081E+02  0.5570480E+01  0.1174883E+03
Ar  902  0.2442709E+02  0.2442709E+02  0.5591281E+01  0.1205119E+03
Ar  903  0.2421355E+02  0.2168648E+02  0.8241771E+01  0.2735485E+02
Ar  904  0.2168648E+02  0.2421355E+02  0.8241771E+01  0.2735485E+02
Ar  905  0.2145423E+02  0.2145423E+02  0.1124706E+02  0.3043680E+02
Ar  906  0.2442509E+02  0.2442509E+02  0.1125399E+02  0.2228857E+02
Ar  907  0.2435531E+02  0.2152197E+02  0.1396622E+02  0.1425950E+03
Ar  908  0.2152197E+02  0.2435531E+02  0.1396622E+02  0.1425950E+03
Ar  909  0.2132544E+02  0.2132544E+02  0.1648618E+02  0.1727705E+03
Ar  910  0.2453485E+02  0.2453485E+02  0.1648362E+02  0.1702988E+03
Ar  911  0.2410288E+02  0.2175333E+02  0.1883030E+02  0.3115431E+02
Ar  912  0.2175333E+02  0.2410288E+02  0.1883030E+02  0.3115431E+02
Ar  913  0.2138680E+02  0.2138680E+02  0.2138680E+02  0.9015019E+03
Ar  914  0.2453999E+02  0.2453999E+02  0.2135849E+02  0.9559967E+03
Ar  915  0.2453999E+02  0.2135849E+02  0.2453999E+02  0.9559967E+03
Ar  916  0.2135849E+02  0.2453999E+02  0.2453999E+02  0.9559967E+03
Ar  917  0.2176840E+02  0.2176840E+02  0.2705369E+02  0.2925792E+02
Ar  918  0.2411342E+02  0.2411342E+02  0.2708590E+02  0.2736189E+02
Ar  919  0.2454104E+02  0.2131102E+02  0.2937995E+02  0.1771979E+03
Ar  920  0.2131102E+02  0.2454104E+02  0.2937995E+02  0.1771979E+03
Ar  921  0.2153173E+02  0.2153173E+02  0.3190695E+02  0.1664067E+03
Ar  922  0.2435727E+02  0.2435727E+02  0.3190488E+02  0.1480478E+03
Ar  923  0.2441405E+02  0.2145215E+02  0.3462678E+02  0.3251328E+02
Ar  924  0.2145215E+02  0.2441405E+02  0.3462678E+02  0.3251328E+02
Ar  925  0.2171122E+02  0.2699148E+02  0.3753298E+02  0.2971055E+02
Ar  926  0.2442351E+02  0.2967501E+02  0.3760196E+02  0.6156332E+02
Ar  927  0.2420837E+02  0.2691952E+02  0.2652782E+01  0.2065558E+03
Ar  928  0.2168953E+02  0.2993284E+02  0.2743260E+01  0.7066817E+02
Ar  929  0.2167822E+02  0.2691625E+02  0.5411017E+01  0.2052273E+03
Ar  930  0.2418604E+02  0.2992426E+02  0.5360940E+01  0.7586190E+02
Ar  931  0.2416075E+02  0.2699553E+02  0.8340685E+01  0.3116054E+02
Ar  932  0.2144297E+02  0.2968085E+02  0.8281761E+01  0.6102650E+02
Ar  933  0.2150685E+02  0.2688375E+02  0.1093432E+02  0.2196344E+02
Ar  934  0.2415826E+02  0.2975694E+02  0.1091282E+02  0.4147946E+02
Ar  935  0.2426235E+02  0.2718812E+02  0.1349252E+02  0.1236885E+02
Ar  936  0.2144186E+02  0.2962102E+02  0.1362177E+02  0.1031534E+03
Ar  937  0.2147209E+02  0.2703065E+02  0.1635432E+02  0.5143386E+02
Ar  938  0.2389975E+02  0.2970074E+02  0.1619331E+02  0.4350803E+02
Ar  939  0.2441007E+02  0.2710254E+02  0.1875404E+02  0.1619626E+03
Ar  940  0.2148827E+02  0.2953185E+02  0.1886719E+02  0.5412032E+02
Ar  941  0.2176840E+02  0.2705369E+02  0.2176840E+02  0.2925792E+02
Ar  942  0.2454104E+02  0.2937995E+02  0.2131102E+02  0.1771979E+03
Ar  943  0.2411342E+02  0.2708590E+02  0.2411342E+02  0.2736189E+02
Ar  944  0.2131102E+02  0.2937995E+02  0.2454104E+02  0.1771979E+03
Ar  945  0.2145203E+02  0.2709503E+02  0.2709503E+02  0.1575757E+03
Ar  946  0.2439273E+02  0.2952741E+02  0.2701030E+02  0.5232176E+02
Ar  947  0.2439273E+02  0.2701030E+02  0.2952741E+02  0.5232176E+02
Ar  948  0.2198104E+02  0.2967779E+02  0.2967779E+02  0.4424536E+02
Ar  949  0.2162852E+02  0.2718553E+02  0.3237944E+02  0.1402278E+02
Ar  950  0.2443103E+02  0.2961239E+02  0.3224764E+02  0.1001827E+03
Ar  951  0.2436362E+02  0.2688907E+02  0.3494666E+02  0.2098432E+02
Ar  952  0.2173512E+02  0.2976752E+02  0.3496775E+02  0.5311366E+02
Ar  953  0.2173537E+02  0.3227809E+02  0.2380400E-01  0.1953280E+02
Ar  954  0.2441150E+02  0.3488252E+02  0.4875696E-01  0.1058504E+03
Ar  955  0.2436001E+02  0.3244020E+02  0.2720847E+01  0.4092749E+02
Ar  956  0.2176348E+02  0.3503202E+02  0.2540865E+01  0.9710612E+02
Ar  957  0.2151189E+02  0.3244098E+02  0.5386744E+01  0.3300949E+02
Ar  958  0.2408686E+02  0.3502883E+02  0.5530487E+01  0.8407893E+02
Ar  959  0.2415384E+02  0.3227319E+02  0.8068684E+01  0.1935294E+02
Ar  960  0.2147794E+02  0.3489417E+02  0.8052914E+01  0.1063030E+03
Ar  961  0.2152985E+02  0.3251273E+02  0.1069515E+02  0.9391072E+02
Ar  962  0.2426911E+02  0.3500326E+02  0.1085096E+02  0.1230570E+02
Ar  963  0.2407449E+02  0.3248425E+02  0.1337640E+02  0.2460850E+03
Ar  964  0.2153454E+02  0.3516719E+02  0.1335188E+02  0.1017466E+03
Ar  965  0.2143126E+02  0.3226767E+02  0.1625528E+02  0.1049069E+03
Ar  966  0.2413142E+02  0.3494787E+02  0.1612409E+02  0.5089093E+02
Ar  967  0.2427003E+02  0.3237025E+02  0.1868709E+02  0.1549394E+02
Ar  968  0.2151189E+02  0.3494804E+02  0.1898598E+02  0.2303116E+02
Ar  969  0.2153173E+02  0.3190695E+02  0.2153173E+02  0.1664067E+03
Ar  970  0.2441405E+02  0.3462678E+02  0.2145215E+02  0.3251328E+02
Ar  971  0.2435727E+02  0.3190488E+02  0.2435727E+02  0.1480478E+03
Ar  972  0.2145215E+02  0.3462678E+02  0.2441405E+02  0.3251328E+02
Ar  973  0.2162852E+02  0.3237944E+02  0.2718553E+02  0.1402278E+02
Ar  974  0.2436362E+02  0.3494666E+02  0.2688907E+02  0.2098432E+02
Ar  975  0.2443103E+02  0.3224764E+02  0.2961239E+02  0.1001827E+03
Ar  976  0.2173512E+02  0.3496775E+02  0.2976752E+02  0.5311366E+02
Ar  977  0.2182297E+02  0.3248998E+02  0.3248998E+02  0.2423559E+03
Ar  978  0.2434663E+02  0.3517407E+02  0.3252550E+02  0.8999795E+02
Ar  979  0.2434663E+02  0.3252550E+02  0.3517407E+02  0.8999795E+02
Ar  980  0.2163364E+02  0.3502411E+02  0.3502411E+02  0.1093911E+02
Ar  981  0.2706408E+02  0.3735028E+02  0.3735028E+02  0.1046029E+03
Ar  982  0.2956297E+02  0.2586916E+01  0.3735133E+02  0.8931718E+02
Ar  983  0.2956297E+02  0.3735133E+02  0.2586916E+01  0.8931718E+02
Ar  984  0.2714490E+02  0.2617170E+01  0.2617170E+01  0.6955259E+02
Ar  985  0.2688960E+02  0.3719211E+02  0.5352240E+01  0.9373237E+01
Ar  986  0.2976441E+02  0.2803987E+01  0.5317603E+01  0.2662125E+02
Ar  987  0.2982779E+02  0.3728834E+02  0.8584678E+01  0.4008672E+02
Ar  988  0.2690137E+02  0.2729568E+01  0.8667792E+01  0.6970291E+01
Ar  989  0.2690748E+02  0.3751556E+02  0.1105364E+02  0.2784327E+03
Ar  990  0.2965230E+02  0.2730739E+01  0.1071019E+02  0.1155168E+03
Ar  991  0.2940199E+02  0.3761598E+02  0.1363609E+02  0.1786672E+03
Ar  992  0.2693738E+02  0.2851643E+01  0.1339378E+02  0.1385320E+03
Ar  993  0.2671867E+02  0.1447988E+00  0.1619014E+02  0.4470974E+02
Ar  994  0.2978786E+02  0.2750144E+01  0.1611568E+02  0.5318809E+02
Ar  995  0.2969482E+02  0.1638580E+00  0.1916212E+02  0.4037669E+02
Ar  996  0.2714286E+02  0.3155259E+01  0.1871991E+02  0.1154934E+02
Ar  997  0.2699148E+02  0.3753298E+02  0.2171122E+02  0.2971055E+02
Ar  998  0.2993284E+02  0.2743260E+01  0.2168953E+02  0.7066817E+02
Ar  999  0.2967501E+02  0.3760196E+02  0.2442351E+02  0.6156332E+02
Ar 1000  0.2691952E+02  0.2652782E+01  0.2420837E+02  0.2065558E+03
Ar 1001  0.2724119E+02  0.3772883E+02  0.2724119E+02  0.8713952E+00
Ar 1002  0.2987234E+02  0.2500163E+01  0.2707370E+02  0.1413926E+02
Ar 1003  0.2988176E+02  0.4719761E-01  0.2988176E+02  0.7462541E+02
Ar 1004  0.2707370E+02  0.2500163E+01  0.2987234E+02  0.1413926E+02
Ar 1005  0.2707520E+02  0.3761286E+02  0.3242979E+02  0.7195628E+02
Ar 1006  0.2989603E+02  0.2956666E+01  0.3231365E+02  0.1342134E+03
Ar 1007  0.2972890E+02  0.3766587E+02  0.3492073E+02  0.5262277E+02
Ar 1008  0.2703956E+02  0.2523958E+01  0.3489265E+02  0.1052019E+03
Ar 1009  0.2688960E+02  0.5352240E+01  0.3719211E+02  0.9373237E+01
Ar 1010  0.2982779E+02  0.8584678E+01  0.3728834E+02  0.4008672E+02
Ar 1011  0.2976441E+02  0.5317603E+01  0.2803987E+01  0.2662125E+02
Ar 1012  0.2690137E+02  0.8667792E+01  0.2729568E+01  0.6970291E+01
Ar 1013  0.2712227E+02  0.5491459E+01  0.5491459E+01  0.5566048E+02
Ar 1014  0.2953868E+02  0.8521601E+01  0.5486341E+01  0.9824322E+02
Ar 1015  0.2953868E+02  0.5486341E+01  0.8521601E+01  0.9824322E+02
Ar 1016  0.2704987E+02  0.8535906E+01  0.8535906E+01  0.1191950E+03
Ar 1017  0.2702431E+02  0.5561368E+01  0.1098110E+02  0.1022097E+03
Ar 1018  0.2975887E+02  0.8218334E+01  0.1094469E+02  0.5488529E+02
Ar 1019  0.2990066E+02  0.5133657E+01  0.1355955E+02  0.1332413E+03
Ar 1020  0.2710064E+02  0.8257859E+01  0.1343372E+02  0.7245814E+02
Ar 1021  0.2710307E+02  0.5608071E+01  0.1597781E+02  0.1659834E+02
Ar 1022  0.2990477E+02  0.8079779E+01  0.1597978E+02  0.6780761E+02
Ar 1023  0.2988417E+02  0.5597407E+01  0.1878420E+02  0.1391500E+02
Ar 1024  0.2724821E+02  0.8126399E+01  0.1863713E+02  0.6253756E+00
Ar 1025  0.2691625E+02  0.5411017E+01  0.2167822E+02  0.2052273E+03
Ar 1026  0.2968085E+02  0.8281761E+01  0.2144297E+02  0.6102650E+02
Ar 1027  0.2992426E+02  0.5360940E+01  0.2418604E+02  0.7586190E+02
Ar 1028  0.2699553E+02  0.8340685E+01  0.2416075E+02  0.3116054E+02
Ar 1029  0.2713449E+02  0.4966782E+01  0.2713449E+02  0.1516896E+02
Ar 1030  0.2969556E+02  0.7948362E+01  0.2672287E+02  0.4371190E+02
Ar 1031  0.2975826E+02  0.5367221E+01  0.2975826E+02  0.5606296E+02
Ar 1032  0.2672287E+02  0.7948362E+01  0.2969556E+02  0.4371190E+02
Ar 1033  0.2693607E+02  0.5249592E+01  0.3248886E+02  0.1416473E+03
Ar 1034  0.2941021E+02  0.8254438E+01  0.3223007E+02  0.1746986E+03
Ar 1035  0.2965438E+02  0.5344946E+01  0.3517026E+02  0.9958862E+02
Ar 1036  0.2691195E+02  0.8345840E+01  0.3479863E+02  0.2712025E+03
Ar 1037  0.2690748E+02  0.1105364E+02  0.3751556E+02  0.2784327E+03
Ar 1038  0.2940199E+02  0.1363609E+02  0.3761598E+02  0.1786672E+03
Ar 1039  0.2965230E+02  0.1071019E+02  0.2730739E+01  0.1155168E+03
Ar 1040  0.2693738E+02  0.1339378E+02  0.2851643E+01  0.1385320E+03
Ar 1041  0.2702431E+02  0.1098110E+02  0.5561368E+01  0.1022097E+03
Ar 1042  0.2990066E+02  0.1355955E+02  0.5133657E+01  0.1332413E+03
Ar 1043  0.2975887E+02  0.1094469E+02  0.8218334E+01  0.5488529E+02
Ar 1044  0.2710064E+02  0.1343372E+02  0.8257859E+01  0.7245814E+02
Ar 1045  0.2706933E+02  0.1098157E+02  0.1098157E+02  0.7899304E+01
Ar 1046  0.2975387E+02  0.1364319E+02  0.1093934E+02  0.1362588E+03
Ar 1047  0.2975387E+02  0.1093934E+02  0.1364319E+02  0.1362588E+03
Ar 1048  0.2682145E+02  0.1360134E+02  0.1360134E+02  0.2950251E+03
Ar 1049  0.2705108E+02  0.1084059E+02  0.1632933E+02  0.1163721E+03
Ar 1050  0.2976834E+02  0.1326639E+02  0.1611475E+02  0.7376713E+02
Ar 1051  0.2953334E+02  0.1083315E+02  0.1879943E+02  0.1188717E+03
Ar 1052  0.2711244E+02  0.1380990E+02  0.1876318E+02  0.2615005E+02
Ar 1053  0.2688375E+02  0.1093432E+02  0.2150685E+02  0.2196344E+02
Ar 1054  0.2962102E+02  0.1362177E+02  0.2144186E+02  0.1031534E+03
Ar 1055  0.2975694E+02  0.1091282E+02  0.2415826E+02  0.4147946E+02
Ar 1056  0.2718812E+02  0.1349252E+02  0.2426235E+02  0.1236885E+02
Ar 1057  0.2682144E+02  0.1065753E+02  0.2682144E+02  0.1261330E+03
Ar 1058  0.2976442E+02  0.1348633E+02  0.2664076E+02  0.1837253E+03
Ar 1059  0.2975074E+02  0.1099972E+02  0.2975074E+02  0.4373075E+02
Ar 1060  0.2664076E+02  0.1348633E+02  0.2976442E+02  0.1837253E+03
Ar 1061  0.2666608E+02  0.1098518E+02  0.3233988E+02  0.3465464E+02
Ar 1062  0.2963344E+02  0.1369558E+02  0.3216260E+02  0.1022354E+03
Ar 1063  0.2941134E+02  0.1117072E+02  0.3471641E+02  0.1856047E+03
Ar 1064  0.2665463E+02  0.1353365E+02  0.3491611E+02  0.3422894E+02
Ar 1065  0.2671867E+02  0.1619014E+02  0.1447988E+00  0.4470974E+02
Ar 1066  0.2969482E+02  0.1916212E+02  0.1638580E+00  0.4037669E+02
Ar 1067  0.2978786E+02  0.1611568E+02  0.2750144E+01  0.5318809E+02
Ar 1068  0.2714286E+02  0.1871991E+02  0.3155259E+01  0.1154934E+02
Ar 1069  0.2710307E+02  0.1597781E+02  0.5608071E+01  0.1659834E+02
Ar 1070  0.2988417E+02  0.1878420E+02  0.5597407E+01  0.1391500E+02
Ar 1071  0.2990477E+02  0.1597978E+02  0.8079779E+01  0.6780761E+02
Ar 1072  0.2724821E+02  0.1863713E+02  0.8126399E+01  0.6253756E+00
Ar 1073  0.2705108E+02  0.1632933E+02  0.1084059E+02  0.1163721E+03
Ar 1074  0.2953334E+02  0.1879943E+02  0.1083315E+02  0.1188717E+03
Ar 1075  0.2976834E+02  0.1611475E+02  0.1326639E+02  0.7376713E+02
Ar 1076  0.2711244E+02  0.1876318E+02  0.1380990E+02  0.2615005E+02
Ar 1077  0.2724485E+02  0.1596374E+02  0.1596374E+02  0.6148173E+02
Ar 1078  0.2991874E+02  0.1864689E+02  0.1595635E+02  0.6434238E+02
Ar 1079  0.2991874E+02  0.1595635E+02  0.1864689E+02  0.6434238E+02
Ar 1080  0.2701498E+02  0.1885865E+02  0.1885865E+02  0.4727810E+02
Ar 1081  0.2703065E+02  0.1635432E+02  0.2147209E+02  0.5143386E+02
Ar 1082  0.2953185E+02  0.1886719E+02  0.2148827E+02  0.5412032E+02
Ar 1083  0.2970074E+02  0.1619331E+02  0.2389975E+02  0.4350803E+02
Ar 1084  0.2710254E+02  0.1875404E+02  0.2441007E+02  0.1619626E+03
Ar 1085  0.2721310E+02  0.1622932E+02  0.2721310E+02  0.8799449E+01
Ar 1086  0.2969440E+02  0.1864763E+02  0.2723166E+02  0.9341842E+01
Ar 1087  0.2959906E+02  0.1624836E+02  0.2959906E+02  0.4291259E+01
Ar 1088  0.2723166E+02  0.1864763E+02  0.2969440E+02  0.9341842E+01
Ar 1089  0.2663917E+02  0.1609863E+02  0.3240585E+02  0.2109613E+03
Ar 1090  0.2975995E+02  0.1924445E+02  0.3239755E+02  0.2023310E+03
Ar 1091  0.2975857E+02  0.1611269E+02  0.3487278E+02  0.3916489E+02
Ar 1092  0.2682718E+02  0.1905093E+02  0.3520529E+02  0.1573683E+03
Ar 1093  0.2699148E+02  0.2171122E+02  0.3753298E+02  0.2971055E+02
Ar 1094  0.2967501E+02  0.2442351E+02  0.3760196E+02  0.6156332E+02
Ar 1095  0.2993284E+02  0.2168953E+02  0.2743260E+01  0.7066817E+02
Ar 1096  0.2691952E+02  0.2420837E+02  0.2652782E+01  0.2065558E+03
Ar 1097  0.2691625E+02  0.2167822E+02  0.5411017E+01  0.2052273E+03
Ar 1098  0.2992426E+02  0.2418604E+02  0.5360940E+01  0.7586190E+02
Ar 1099  0.2968085E+02  0.2144297E+02  0.8281761E+01  0.6102650E+02
Ar 1100  0.2699553E+02  0.2416075E+02  0.8340685E+01  0.3116054E+02
Ar 1101  0.2688375E+02  0.2150685E+02  0.1093432E+02  0.2196344E+02
Ar 1102  0.2975694E+02  0.2415826E+02  0.1091282E+02  0.4147946E+02
Ar 1103  0.2962102E+02  0.2144186E+02  0.1362177E+02  0.1031534E+03
Ar 1104  0.2718812E+02  0.2426235E+02  0.1349252E+02  0.1236885E+02
Ar 1105  0.2703065E+02  0.2147209E+02  0.1635432E+02  0.5143386E+02
Ar 1106  0.2970074E+02  0.2389975E+02  0.1619331E+02  0.4350803E+02
Ar 1107  0.2953185E+02  0.2148827E+02  0.1886719E+02  0.5412032E+02
Ar 1108  0.2710254E+02  0.2441007E+02  0.1875404E+02  0.1619626E+03
Ar 1109  0.2705369E+02  0.2176840E+02  0.2176840E+02  0.2925792E+02
Ar 1110  0.2937995E+02  0.2454104E+02  0.2131102E+02  0.1771979E+03
Ar 1111  0.2937995E+02  0.2131102E+02  0.2454104E+02  0.1771979E+03
Ar 1112  0.2708590E+02  0.2411342E+02  0.2411342E+02  0.2736189E+02
Ar 1113  0.2709503E+02  0.2145203E+02  0.2709503E+02  0.1575757E+03
Ar 1114  0.2952741E+02  0.2439273E+02  0.2701030E+02  0.5232176E+02
Ar 1115  0.2967779E+02  0.2198104E+02  0.2967779E+02  0.4424536E+02
Ar 1116  0.2701030E+02  0.2439273E+02  0.2952741E+02  0.5232176E+02
Ar 1117  0.2718553E+02  0.2162852E+02  0.3237944E+02  0.1402278E+02
Ar 1118  0.2961239E+02  0.2443103E+02  0.3224764E+02  0.1001827E+03
Ar 1119  0.2976752E+02  0.2173512E+02  0.3496775E+02  0.5311366E+02
Ar 1120  0.2688907E+02  0.2436362E+02  0.3494666E+02  0.2098432E+02
Ar 1121  0.2724119E+02  0.2724119E+02  0.3772883E+02  0.8713952E+00
Ar 1122  0.2988176E+02  0.2988176E+02  0.4719761E-01  0.7462541E+02
Ar 1123  0.2987234E+02  0.2707370E+02  0.2500163E+01  0.1413926E+02
Ar 1124  0.2707370E+02  0.2987234E+02  0.2500163E+01  0.1413926E+02
Ar 1125  0.2713449E+02  0.2713449E+02  0.4966782E+01  0.1516896E+02
Ar 1126  0.2975826E+02  0.2975826E+02  0.5367221E+01  0.5606296E+02
Ar 1127  0.2969556E+02  0.2672287E+02  0.7948362E+01  0.4371190E+02
Ar 1128  0.2672287E+02  0.2969556E+02  0.7948362E+01  0.4371190E+02
Ar 1129  0.2682144E+02  0.2682144E+02  0.1065753E+02  0.1261330E+03
Ar 1130  0.2975074E+02  0.2975074E+02  0.1099972E+02  0.4373075E+02
Ar 1131  0.2976442E+02  0.2664076E+02  0.1348633E+02  0.1837253E+03
Ar 1132  0.2664076E+02  0.2976442E+02  0.1348633E+02  0.1837253E+03
Ar 1133  0.2721310E+02  0.2721310E+02  0.1622932E+02  0.8799449E+01
Ar 1134  0.2959906E+02  0.2959906E+02  0.1624836E+02  0.4291259E+01
Ar 1135  0.2969440E+02  0.2723166E+02  0.1864763E+02  0.9341842E+01
Ar 1136  0.2723166E+02  0.2969440E+02  0.1864763E+02  0.9341842E+01
Ar 1137  0.2709503E+02  0.2709503E+02  0.2145203E+02  0.1575757E+03
Ar 1138  0.2967779E+02  0.2967779E+02  0.2198104E+02  0.4424536E+02
Ar 1139  0.2952741E+02  0.2701030E+02  0.2439273E+02  0.5232176E+02
Ar 1140  0.2701030E+02  0.2952741E+02  0.2439273E+02  0.5232176E+02
Ar 1141  0.2703066E+02  0.2703066E+02  0.2703066E+02  0.3711800E+02
Ar 1142  0.2990368E+02  0.2990368E+02  0.2723477E+02  0.5402490E+02
Ar 1143  0.2990368E+02  0.2723477E+02  0.2990368E+02  0.5402490E+02
Ar 1144  0.2723477E+02  0.2990368E+02  0.2990368E+02  0.5402490E+02
Ar 1145  0.2712038E+02  0.2712038E+02  0.3206368E+02  0.2899002E+02
Ar 1146  0.2975737E+02  0.2975737E+02  0.3261178E+02  0.8061090E+02
Ar 1147  0.2955216E+02  0.2705948E+02  0.3503774E+02  0.1215017E+03
Ar 1148  0.2705948E+02  0.2955216E+02  0.3503774E+02  0.1215017E+03
Ar 1149  0.2707520E+02  0.3242979E+02  0.3761286E+02  0.7195628E+02
Ar 1150  0.2972890E+02  0.3492073E+02  0.3766587E+02  0.5262277E+02
Ar 1151  0.2989603E+02  0.3231365E+02  0.2956666E+01  0.1342134E+03
Ar 1152  0.2703956E+02  0.3489265E+02  0.2523958E+01  0.1052019E+03
Ar 1153  0.2693607E+02  0.3248886E+02  0.5249592E+01  0.1416473E+03
Ar 1154  0.2965438E+02  0.3517026E+02  0.5344946E+01  0.9958862E+02
Ar 1155  0.2941021E+02  0.3223007E+02  0.8254438E+01  0.1746986E+03
Ar 1156  0.2691195E+02  0.3479863E+02  0.8345840E+01  0.2712025E+03
Ar 1157  0.2666608E+02  0.3233988E+02  0.1098518E+02  0.3465464E+02
Ar 1158  0.2941134E+02  0.3471641E+02  0.1117072E+02  0.1856047E+03
Ar 1159  0.2963344E+02  0.3216260E+02  0.1369558E+02  0.1022354E+03
Ar 1160  0.2665463E+02  0.3491611E+02  0.1353365E+02  0.3422894E+02
Ar 1161  0.2663917E+02  0.3240585E+02  0.1609863E+02  0.2109613E+03
Ar 1162  0.2975857E+02  0.3487278E+02  0.1611269E+02  0.3916489E+02
Ar 1163  0.2975995E+02  0.3239755E+02  0.1924445E+02  0.2023310E+03
Ar 1164  0.2682718E+02  0.3520529E+02  0.1905093E+02  0.1573683E+03
Ar 1165  0.2718553E+02  0.3237944E+02  0.2162852E+02  0.1402278E+02
Ar 1166  0.2976752E+02  0.3496775E+02  0.2173512E+02  0.5311366E+02
Ar 1167  0.2961239E+02  0.3224764E+02  0.2443103E+02  0.1001827E+03
Ar 1168  0.2688907E+02  0.3494666E+02  0.2436362E+02  0.2098432E+02
Ar 1169  0.2712038E+02  0.3206368E+02  0.2712038E+02  0.2899002E+02
Ar 1170  0.2955216E+02  0.3503774E+02  0.2705948E+02  0.1215017E+03
Ar 1171  0.2975737E+02  0.3261178E+02  0.2975737E+02  0.8061090E+02
Ar 1172  0.2705948E+02  0.3503774E+02  0.2955216E+02  0.1215017E+03
Ar 1173  0.2682822E+02  0.3226940E+02  0.3226940E+02  0.2815240E+03
Ar 1174  0.2975331E+02  0.3495106E+02  0.3223441E+02  0.1302007E+03
Ar 1175  0.2975331E+02  0.3223441E+02  0.3495106E+02  0.1302007E+03
Ar 1176  0.2704246E+02  0.3490296E+02  0.3490296E+02  0.8356565E+01
Ar 1177  0.3248644E+02  0.3764057E+02  0.3764057E+02  0.1275964E+03
Ar 1178  0.3461288E+02  0.2758962E+01  0.3757854E+02  0.1064880E+03
Ar 1179  0.3461288E+02  0.3757854E+02  0.2758962E+01  0.1064880E+03
Ar 1180  0.3201040E+02  0.2521669E+01  0.2521669E+01  0.1133843E+03
Ar 1181  0.3197760E+02  0.3447423E-02  0.5328853E+01  0.3087134E+02
Ar 1182  0.3431973E+02  0.2732448E+01  0.5371799E+01  0.2099385E+03
Ar 1183  0.3495558E+02  0.1413206E+00  0.7957596E+01  0.1262111E+03
Ar 1184  0.3198517E+02  0.2758889E+01  0.8082808E+01  0.3113764E+02
Ar 1185  0.3225564E+02  0.1748727E+00  0.1122799E+02  0.1151442E+03
Ar 1186  0.3513664E+02  0.2597799E+01  0.1073496E+02  0.5588530E+02
Ar 1187  0.3465973E+02  0.1471259E+00  0.1363830E+02  0.1089675E+03
Ar 1188  0.3252831E+02  0.2943502E+01  0.1335405E+02  0.1907214E+03
Ar 1189  0.3223028E+02  0.3760872E+02  0.1646426E+02  0.1796658E+03
Ar 1190  0.3515407E+02  0.2752020E+01  0.1621504E+02  0.1142763E+03
Ar 1191  0.3480815E+02  0.3752105E+02  0.1896325E+02  0.2786270E+03
Ar 1192  0.3249643E+02  0.2871307E+01  0.1894133E+02  0.1328470E+03
Ar 1193  0.3227809E+02  0.2380400E-01  0.2173537E+02  0.1953280E+02
Ar 1194  0.3503202E+02  0.2540865E+01  0.2176348E+02  0.9710612E+02
Ar 1195  0.3488252E+02  0.4875696E-01  0.2441150E+02  0.1058504E+03
Ar 1196  0.3244020E+02  0.2720847E+01  0.2436001E+02  0.4092749E+02
Ar 1197  0.3242979E+02  0.3761286E+02  0.2707520E+02  0.7195628E+02
Ar 1198  0.3489265E+02  0.2523958E+01  0.2703956E+02  0.1052019E+03
Ar 1199  0.3492073E+02  0.3766587E+02  0.2972890E+02  0.5262277E+02
Ar 1200  0.3231365E+02  0.2956666E+01  0.2989603E+02  0.1342134E+03
Ar 1201  0.3251561E+02  0.7908705E-01  0.3251561E+02  0.1763570E+03
Ar 1202  0.3499538E+02  0.2590159E+01  0.3245612E+02  0.7549801E+01
Ar 1203  0.3505271E+02  0.3737768E+02  0.3505271E+02  0.5453991E+01
Ar 1204  0.3245612E+02  0.2590159E+01  0.3499538E+02  0.7549801E+01
Ar 1205  0.3197760E+02  0.5328853E+01  0.3447423E-02  0.3087134E+02
Ar 1206  0.3495558E+02  0.7957596E+01  0.1413206E+00  0.1262111E+03
Ar 1207  0.3431973E+02  0.5371799E+01  0.2732448E+01  0.2099385E+03
Ar 1208  0.3198517E+02  0.8082808E+01  0.2758889E+01  0.3113764E+02
Ar 1209  0.3201585E+02  0.5572010E+01  0.5572010E+01  0.1005167E+03
Ar 1210  0.3460999E+02  0.8300220E+01  0.5336990E+01  0.1008324E+03
Ar 1211  0.3460999E+02  0.5336990E+01  0.8300220E+01  0.1008324E+03
Ar 1212  0.3247724E+02  0.8229237E+01  0.8229237E+01  0.1248103E+03
Ar 1213  0.3244264E+02  0.5504460E+01  0.1088491E+02  0.7522068E+01
Ar 1214  0.3505449E+02  0.8488361E+01  0.1080899E+02  0.6069315E+01
Ar 1215  0.3499888E+02  0.5500468E+01  0.1341723E+02  0.8619818E+01
Ar 1216  0.3252796E+02  0.8005094E+01  0.1335417E+02  0.1817857E+03
Ar 1217  0.3232659E+02  0.5142378E+01  0.1596371E+02  0.1366342E+03
Ar 1218  0.3493072E+02  0.8212674E+01  0.1612548E+02  0.4579924E+02
Ar 1219  0.3490899E+02  0.5584271E+01  0.1884957E+02  0.9610849E+02
Ar 1220  0.3244683E+02  0.8252539E+01  0.1878742E+02  0.6966126E+02
Ar 1221  0.3244098E+02  0.5386744E+01  0.2151189E+02  0.3300949E+02
Ar 1222  0.3489417E+02  0.8052914E+01  0.2147794E+02  0.1063030E+03
Ar 1223  0.3502883E+02  0.5530487E+01  0.2408686E+02  0.8407893E+02
Ar 1224  0.3227319E+02  0.8068684E+01  0.2415384E+02  0.1935294E+02
Ar 1225  0.3248886E+02  0.5249592E+01  0.2693607E+02  0.1416473E+03
Ar 1226  0.3479863E+02  0.8345840E+01  0.2691195E+02  0.2712025E+03
Ar 1227  0.3517026E+02  0.5344946E+01  0.2965438E+02  0.9958862E+02
Ar 1228  0.3223007E+02  0.8254438E+01  0.2941021E+02  0.1746986E+03
Ar 1229  0.3251005E+02  0.5148506E+01  0.3251005E+02  0.2022424E+03
Ar 1230  0.3464083E+02  0.7921840E+01  0.3224323E+02  0.1051956E+03
Ar 1231  0.3513309E+02  0.5494985E+01  0.3513309E+02  0.5784148E+02
Ar 1232  0.3224323E+02  0.7921840E+01  0.3464083E+02  0.1051956E+03
Ar 1233  0.3225564E+02  0.1122799E+02  0.1748727E+00  0.1151442E+03
Ar 1234  0.3465973E+02  0.1363830E+02  0.1471259E+00  0.1089675E+03
Ar 1235  0.3513664E+02  0.1073496E+02  0.2597799E+01  0.5588530E+02
Ar 1236  0.3252831E+02  0.1335405E+02  0.2943502E+01  0.1907214E+03
Ar 1237  0.3244264E+02  0.1088491E+02  0.5504460E+01  0.7522068E+01
Ar 1238  0.3499888E+02  0.1341723E+02  0.5500468E+01  0.8619818E+01
Ar 1239  0.3505449E+02  0.1080899E+02  0.8488361E+01  0.6069315E+01
Ar 1240  0.3252796E+02  0.1335417E+02  0.8005094E+01  0.1817857E+03
Ar 1241  0.3221008E+02  0.1087436E+02  0.1087436E+02  0.1737239E+03
Ar 1242  0.3501516E+02  0.1365790E+02  0.1087507E+02  0.1618545E+03
Ar 1243  0.3501516E+02  0.1087507E+02  0.1365790E+02  0.1618545E+03
Ar 1244  0.3220493E+02  0.1368907E+02  0.1368907E+02  0.2264259E+03
Ar 1245  0.3224255E+02  0.1093001E+02  0.1612676E+02  0.1283055E+03
Ar 1246  0.3495338E+02  0.1362623E+02  0.1612109E+02  0.1261581E+03
Ar 1247  0.3490265E+02  0.1097746E+02  0.1883846E+02  0.1022744E+02
Ar 1248  0.3228994E+02  0.1359012E+02  0.1904597E+02  0.2955982E+03
Ar 1249  0.3251273E+02  0.1069515E+02  0.2152985E+02  0.9391072E+02
Ar 1250  0.3516719E+02  0.1335188E+02  0.2153454E+02  0.1017466E+03
Ar 1251  0.3500326E+02  0.1085096E+02  0.2426911E+02  0.1230570E+02
Ar 1252  0.3248425E+02  0.1337640E+02  0.2407449E+02  0.2460850E+03
Ar 1253  0.3233988E+02  0.1098518E+02  0.2666608E+02  0.3465464E+02
Ar 1254  0.3491611E+02  0.1353365E+02  0.2665463E+02  0.3422894E+02
Ar 1255  0.3471641E+02  0.1117072E+02  0.2941134E+02  0.1856047E+03
Ar 1256  0.3216260E+02  0.1369558E+02  0.2963344E+02  0.1022354E+03
Ar 1257  0.3248850E+02  0.1088880E+02  0.3248850E+02  0.1063969E+03
Ar 1258  0.3496388E+02  0.1335954E+02  0.3249045E+02  0.1090229E+03
Ar 1259  0.3508152E+02  0.1078365E+02  0.3508152E+02  0.1305406E+02
Ar 1260  0.3249045E+02  0.1335954E+02  0.3496388E+02  0.1090229E+03
Ar 1261  0.3223028E+02  0.1646426E+02  0.3760872E+02  0.1796658E+03
Ar 1262  0.3480815E+02  0.1896325E+02  0.3752105E+02  0.2786270E+03
Ar 1263  0.3515407E+02  0.1621504E+02  0.2752020E+01  0.1142763E+03
Ar 1264  0.3249643E+02  0.1894133E+02  0.2871307E+01  0.1328470E+03
Ar 1265  0.3232659E+02  0.1596371E+02  0.5142378E+01  0.1366342E+03
Ar 1266  0.3490899E+02  0.1884957E+02  0.5584271E+01  0.9610849E+02
Ar 1267  0.3493072E+02  0.1612548E+02  0.8212674E+01  0.4579924E+02
Ar 1268  0.3244683E+02  0.1878742E+02  0.8252539E+01  0.6966126E+02
Ar 1269  0.3224255E+02  0.1612676E+02  0.1093001E+02  0.1283055E+03
Ar 1270  0.3490265E+02  0.1883846E+02  0.1097746E+02  0.1022744E+02
Ar 1271  0.3495338E+02  0.1612109E+02  0.1362623E+02  0.1261581E+03
Ar 1272  0.3228994E+02  0.1904597E+02  0.1359012E+02  0.2955982E+03
Ar 1273  0.3263666E+02  0.1611327E+02  0.1611327E+02  0.7528071E+02
Ar 1274  0.3504517E+02  0.1881606E+02  0.1633930E+02  0.1097542E+03
Ar 1275  0.3504517E+02  0.1633930E+02  0.1881606E+02  0.1097542E+03
Ar 1276  0.3208050E+02  0.1876276E+02  0.1876276E+02  0.3044841E+02
Ar 1277  0.3226767E+02  0.1625528E+02  0.2143126E+02  0.1049069E+03
Ar 1278  0.3494804E+02  0.1898598E+02  0.2151189E+02  0.2303116E+02
Ar 1279  0.3494787E+02  0.1612409E+02  0.2413142E+02  0.5089093E+02
Ar 1280  0.3237025E+02  0.1868709E+02  0.2427003E+02  0.1549394E+02
Ar 1281  0.3240585E+02  0.1609863E+02  0.2663917E+02  0.2109613E+03
Ar 1282  0.3520529E+02  0.1905093E+02  0.2682718E+02  0.1573683E+03
Ar 1283  0.3487278E+02  0.1611269E+02  0.2975857E+02  0.3916489E+02
Ar 1284  0.3239755E+02  0.1924445E+02  0.2975995E+02  0.2023310E+03
Ar 1285  0.3217092E+02  0.1623408E+02  0.3217092E+02  0.1029186E+03
Ar 1286  0.3489766E+02  0.1923116E+02  0.3234269E+02  0.2880654E+02
Ar 1287  0.3472330E+02  0.1647483E+02  0.3472330E+02  0.1636803E+03
Ar 1288  0.3234269E+02  0.1923116E+02  0.3489766E+02  0.2880654E+02
Ar 1289  0.3227809E+02  0.2173537E+02  0.2380400E-01  0.1953280E+02
Ar 1290  0.3488252E+02  0.2441150E+02  0.4875696E-01  0.1058504E+03
Ar 1291  0.3503202E+02  0.2176348E+02  0.2540865E+01  0.9710612E+02
Ar 1292  0.3244020E+02  0.2436001E+02  0.2720847E+01  0.4092749E+02
Ar 1293  0.3244098E+02  0.2151189E+02  0.5386744E+01  0.3300949E+02
Ar 1294  0.3502883E+02  0.2408686E+02  0.5530487E+01  0.8407893E+02
Ar 1295  0.3489417E+02  0.2147794E+02  0.8052914E+01  0.1063030E+03
Ar 1296  0.3227319E+02  0.2415384E+02  0.8068684E+01  0.1935294E+02
Ar 1297  0.3251273E+02  0.2152985E+02  0.1069515E+02  0.9391072E+02
Ar 1298  0.3500326E+02  0.2426911E+02  0.1085096E+02  0.1230570E+02
Ar 1299  0.3516719E+02  0.2153454E+02  0.1335188E+02  0.1017466E+03
Ar 1300  0.3248425E+02  0.2407449E+02  0.1337640E+02  0.2460850E+03
Ar 1301  0.3226767E+02  0.2143126E+02  0.1625528E+02  0.1049069E+03
Ar 1302  0.3494787E+02  0.2413142E+02  0.1612409E+02  0.5089093E+02
Ar 1303  0.3494804E+02  0.2151189E+02  0.1898598E+02  0.2303116E+02
Ar 1304  0.3237025E+02  0.2427003E+02  0.1868709E+02  0.1549394E+02
Ar 1305  0.3190695E+02  0.2153173E+02  0.2153173E+02  0.1664067E+03
Ar 1306  0.3462678E+02  0.2441405E+02  0.2145215E+02  0.3251328E+02
Ar 1307  0.3462678E+02  0.2145215E+02  0.2441405E+02  0.3251328E+02
Ar 1308  0.3190488E+02  0.2435727E+02  0.2435727E+02  0.1480478E+03
Ar 1309  0.3237944E+02  0.2162852E+02  0.2718553E+02  0.1402278E+02
Ar 1310  0.3494666E+02  0.2436362E+02  0.2688907E+02  0.2098432E+02
Ar 1311  0.3496775E+02  0.2173512E+02  0.2976752E+02  0.5311366E+02
Ar 1312  0.3224764E+02  0.2443103E+02  0.2961239E+02  0.1001827E+03
Ar 1313  0.3248998E+02  0.2182297E+02  0.3248998E+02  0.2423559E+03
Ar 1314  0.3517407E+02  0.2434663E+02  0.3252550E+02  0.8999795E+02
Ar 1315  0.3502411E+02  0.2163364E+02  0.3502411E+02  0.1093911E+02
Ar 1316  0.3252550E+02  0.2434663E+02  0.3517407E+02  0.8999795E+02
Ar 1317  0.3242979E+02  0.2707520E+02  0.3761286E+02  0.7195628E+02
Ar 1318  0.3492073E+02  0.2972890E+02  0.3766587E+02  0.5262277E+02
Ar 1319  0.3489265E+02  0.2703956E+02  0.2523958E+01  0.1052019E+03
Ar 1320  0.3231365E+02  0.2989603E+02  0.2956666E+01  0.1342134E+03
Ar 1321  0.3248886E+02  0.2693607E+02  0.5249592E+01  0.1416473E+03
Ar 1322  0.3517026E+02  0.2965438E+02  0.5344946E+01  0.9958862E+02
Ar 1323  0.3479863E+02  0.2691195E+02  0.8345840E+01  0.2712025E+03
Ar 1324  0.3223007E+02  0.2941021E+02  0.8254438E+01  0.1746986E+03
Ar 1325  0.3233988E+02  0.2666608E+02  0.1098518E+02  0.3465464E+02
Ar 1326  0.3471641E+02  0.2941134E+02  0.1117072E+02  0.1856047E+03
Ar 1327  0.3491611E+02  0.2665463E+02  0.1353365E+02  0.3422894E+02
Ar 1328  0.3216260E+02  0.2963344E+02  0.1369558E+02  0.1022354E+03
Ar 1329  0.3240585E+02  0.2663917E+02  0.1609863E+02  0.2109613E+03
Ar 1330  0.3487278E+02  0.2975857E+02  0.1611269E+02  0.3916489E+02
Ar 1331  0.3520529E+02  0.2682718E+02  0.1905093E+02  0.1573683E+03
Ar 1332  0.3239755E+02  0.2975995E+02  0.1924445E+02  0.2023310E+03
Ar 1333  0.3237944E+02  0.2718553E+02  0.2162852E+02  0.1402278E+02
Ar 1334  0.3496775E+02  0.2976752E+02  0.2173512E+02  0.5311366E+02
Ar 1335  0.3494666E+02  0.2688907E+02  0.2436362E+02  0.2098432E+02
Ar 1336  0.3224764E+02  0.2961239E+02  0.2443103E+02  0.1001827E+03
Ar 1337  0.3206368E+02  0.2712038E+02  0.2712038E+02  0.2899002E+02
Ar 1338  0.3503774E+02  0.2955216E+02  0.2705948E+02  0.1215017E+03
Ar 1339  0.3503774E+02  0.2705948E+02  0.2955216E+02  0.1215017E+03
Ar 1340  0.3261178E+02  0.2975737E+02  0.2975737E+02  0.8061090E+02
Ar 1341  0.3226940E+02  0.2682822E+02  0.3226940E+02  0.2815240E+03
Ar 1342  0.3495106E+02  0.2975331E+02  0.3223441E+02  0.1302007E+03
Ar 1343  0.3490296E+02  0.2704246E+02  0.3490296E+02  0.8356565E+01
Ar 1344  0.3223441E+02  0.2975331E+02  0.3495106E+02  0.1302007E+03
Ar 1345  0.3251561E+02  0.3251561E+02  0.7908705E-01  0.1763570E+03
Ar 1346  0.3505271E+02  0.3505271E+02  0.3737768E+02  0.5453991E+01
Ar 1347  0.3499538E+02  0.3245612E+02  0.2590159E+01  0.7549801E+01
Ar 1348  0.3245612E+02  0.3499538E+02  0.2590159E+01  0.7549801E+01
Ar 1349  0.3251005E+02  0.3251005E+02  0.5148506E+01  0.2022424E+03
Ar 1350  0.3513309E+02  0.3513309E+02  0.5494985E+01  0.5784148E+02
Ar 1351  0.3464083E+02  0.3224323E+02  0.7921840E+01  0.1051956E+03
Ar 1352  0.3224323E+02  0.3464083E+02  0.7921840E+01  0.1051956E+03
Ar 1353  0.3248850E+02  0.3248850E+02  0.1088880E+02  0.1063969E+03
Ar 1354  0.3508152E+02  0.3508152E+02  0.1078365E+02  0.1305406E+02
Ar 1355  0.3496388E+02  0.3249045E+02  0.1335954E+02  0.1090229E+03
Ar 1356  0.3249045E+02  0.3496388E+02  0.1335954E+02  0.1090229E+03
Ar 1357  0.3217092E+02  0.3217092E+02  0.1623408E+02  0.1029186E+03
Ar 1358  0.3472330E+02  0.3472330E+02  0.1647483E+02  0.1636803E+03
Ar 1359  0.3489766E+02  0.3234269E+02  0.1923116E+02  0.2880654E+02
Ar 1360  0.3234269E+02  0.3489766E+02  0.1923116E+02  0.2880654E+02
Ar 1361  0.3248998E+02  0.3248998E+02  0.2182297E+02  0.2423559E+03
Ar 1362  0.3502411E+02  0.3502411E+02  0.2163364E+02  0.1093911E+02
Ar 1363  0.3517407E+02  0.3252550E+02  0.2434663E+02  0.8999795E+02
Ar 1364  0.3252550E+02  0.3517407E+02  0.2434663E+02  0.8999795E+02
Ar 1365  0.3226940E+02  0.3226940E+02  0.2682822E+02  0.2815240E+03
Ar 1366  0.3490296E+02  0.3490296E+02  0.2704246E+02  0.8356565E+01
Ar 1367  0.3495106E+02  0.3223441E+02  0.2975331E+02  0.1302007E+03
Ar 1368  0.3223441E+02  0.3495106E+02  0.2975331E+02  0.1302007E+03
Ar 1369  0.3218557E+02  0.3218557E+02  0.3218557E+02  0.2340446E+03
Ar 1370  0.3502377E+02  0.3502377E+02  0.3220656E+02  0.1698061E+03
Ar 1371  0.3502377E+02  0.3220656E+02  0.3502377E+02  0.1698061E+03
Ar 1372  0.3220656E+02  0.3502377E+02  0.3502377E+02  0.1698061E+03
