        1372
Lattice="  0.3778015E+02  0.0000000E+00  0.0000000E+00  0.0000000E+00  0.3778015E+02  0.0000000E+00  0.0000000E+00  0.0000000E+00  0.3778015E+02" Properties=species:S:1:id:I:1:pos:R:3:tempK:R:1
Ar    1  0.3971443E+00  0.3971443E+00  0.3971443E+00  0.5493895E+02
Ar    2  0.2923708E+01  0.2923708E+01  0.7053031E-01  0.1348744E+03
Ar    3  0.2923708E+01  0.7053031E-01  0.2923708E+01  0.1348744E+03
Ar    4  0.7053031E-01  0.2923708E+01  0.2923708E+01  0.1348744E+03
Ar    5  0.3405058E+00  0.3405058E+00  0.5768841E+01  0.3169206E+02
Ar    6  0.3018840E+01  0.3018840E+01  0.5469488E+01  0.1409264E+03
Ar    7  0.2883859E+01  0.6032902E-01  0.8444778E+01  0.1371012E+03
Ar    8  0.6032902E-01  0.2883859E+01  0.8444778E+01  0.1371012E+03
Ar    9  0.1112861E-01  0.1112861E-01  0.1129720E+02  0.1117742E+03
Ar   10  0.3032331E+01  0.3032331E+01  0.1043390E+02  0.2949382E+02
Ar   11  0.2620268E+01  0.1884836E-01  0.1384698E+02  0.4428758E+02
Ar   12  0.1884836E-01  0.2620268E+01  0.1384698E+02  0.4428758E+02
Ar   13  0.3944815E-01  0.3944815E-01  0.1662171E+02  0.1235085E+03
Ar   14  0.2670780E+01  0.2670780E+01  0.1666681E+02  0.1367084E+03
Ar   15  0.2693690E+01  0.3748730E+02  0.1909567E+02  0.2540463E+02
Ar   16  0.3748730E+02  0.2693690E+01  0.1909567E+02  0.2540463E+02
Ar   17  0.5954890E-01  0.5954890E-01  0.2208908E+02  0.2531181E+02
Ar   18  0.2691911E+01  0.2691911E+01  0.2209683E+02  0.1574357E+03
Ar   19  0.3146625E+01  0.1508391E+00  0.2436040E+02  0.8551115E+02
Ar   20  0.1508391E+00  0.3146625E+01  0.2436040E+02  0.8551115E+02
Ar   21  0.9163788E-01  0.9163788E-01  0.2727298E+02  0.5955758E+02
Ar   22  0.2679969E+01  0.2679969E+01  0.2782110E+02  0.7885020E+02
Ar   23  0.3251695E+01  0.3773482E+02  0.3007588E+02  0.2286218E+03
Ar   24  0.3773482E+02  0.3251695E+01  0.3007588E+02  0.2286218E+03
Ar   25  0.2161508E+00  0.2161508E+00  0.3222431E+02  0.3086636E+03
Ar   26  0.2622947E+01  0.2622947E+01  0.3226246E+02  0.1173543E+03
Ar   27  0.2762133E+01  0.3477282E+00  0.3513429E+02  0.1120579E+03
Ar   28  0.3477282E+00  0.2762133E+01  0.3513429E+02  0.1120579E+03
Ar   29  0.3405058E+00  0.5768841E+01  0.3405058E+00  0.3169206E+02
Ar   30  0.2883859E+01  0.8444778E+01  0.6032902E-01  0.1371012E+03
Ar   31  0.3018840E+01  0.5469488E+01  0.3018840E+01  0.1409264E+03
Ar   32  0.6032902E-01  0.8444778E+01  0.2883859E+01  0.1371012E+03
Ar   33  0.3116057E+00  0.5415485E+01  0.5415485E+01  0.3253143E+03
Ar   34  0.2889231E+01  0.8036958E+01  0.5471942E+01  0.1670899E+03
Ar   35  0.2889231E+01  0.5471942E+01  0.8036958E+01  0.1670899E+03
Ar   36  0.3750798E+02  0.7842376E+01  0.7842376E+01  0.1337974E+03
Ar   37  0.3755448E+02  0.5554860E+01  0.1092108E+02  0.2534655E+03
Ar   38  0.2655151E+01  0.7982398E+01  0.1055233E+02  0.1581031E+03
Ar   39  0.2741291E+01  0.5370138E+01  0.1366709E+02  0.3837425E+03
Ar   40  0.4235910E+00  0.7865149E+01  0.1377942E+02  0.8393466E+02
Ar   41  0.3773638E+02  0.5558291E+01  0.1638321E+02  0.6934222E+02
Ar   42  0.2819243E+01  0.7450290E+01  0.1633983E+02  0.3078530E+03
Ar   43  0.2743032E+01  0.5136806E+01  0.1909438E+02  0.1098816E+03
Ar   44  0.3753633E+02  0.7823666E+01  0.1927200E+02  0.1769274E+02
Ar   45  0.2589001E-01  0.5447106E+01  0.2156589E+02  0.4978755E+02
Ar   46  0.2234058E+01  0.8131089E+01  0.2171086E+02  0.1161051E+03
Ar   47  0.2520422E+01  0.5636741E+01  0.2445043E+02  0.4742327E+02
Ar   48  0.3752048E+02  0.8033207E+01  0.2443879E+02  0.9773013E+02
Ar   49  0.2439740E-01  0.5603462E+01  0.2717213E+02  0.3001070E+03
Ar   50  0.2404896E+01  0.8521212E+01  0.2695305E+02  0.3227551E+02
Ar   51  0.2594692E+01  0.5641583E+01  0.2983835E+02  0.1052976E+02
Ar   52  0.2290583E-01  0.8026943E+01  0.2974638E+02  0.4064151E+01
Ar   53  0.3766822E+02  0.5514084E+01  0.3270705E+02  0.1279281E+03
Ar   54  0.2587206E+01  0.8056114E+01  0.3261897E+02  0.2035737E+02
Ar   55  0.2709801E+01  0.5332336E+01  0.3519522E+02  0.3038471E+02
Ar   56  0.3771536E+02  0.8206427E+01  0.3517749E+02  0.1727786E+03
Ar   57  0.1112861E-01  0.1129720E+02  0.1112861E-01  0.1117742E+03
Ar   58  0.2620268E+01  0.1384698E+02  0.1884836E-01  0.4428758E+02
Ar   59  0.3032331E+01  0.1043390E+02  0.3032331E+01  0.2949382E+02
Ar   60  0.1884836E-01  0.1384698E+02  0.2620268E+01  0.4428758E+02
Ar   61  0.3755448E+02  0.1092108E+02  0.5554860E+01  0.2534655E+03
Ar   62  0.2741291E+01  0.1366709E+02  0.5370138E+01  0.3837425E+03
Ar   63  0.2655151E+01  0.1055233E+02  0.7982398E+01  0.1581031E+03
Ar   64  0.4235910E+00  0.1377942E+02  0.7865149E+01  0.8393466E+02
Ar   65  0.1113187E+00  0.1066238E+02  0.1066238E+02  0.2183549E+03
Ar   66  0.2852712E+01  0.1314053E+02  0.1047505E+02  0.8112188E+02
Ar   67  0.2852712E+01  0.1047505E+02  0.1314053E+02  0.8112188E+02
Ar   68  0.9567869E-01  0.1346503E+02  0.1346503E+02  0.2009974E+03
Ar   69  0.1420588E+00  0.1049294E+02  0.1623907E+02  0.1592686E+03
Ar   70  0.2970241E+01  0.1311323E+02  0.1584329E+02  0.1229160E+03
Ar   71  0.2511159E+01  0.1043168E+02  0.1922038E+02  0.1028683E+03
Ar   72  0.3765912E+02  0.1351057E+02  0.1873719E+02  0.1161603E+03
Ar   73  0.3742085E+02  0.1074348E+02  0.2162040E+02  0.7332634E+02
Ar   74  0.2338338E+01  0.1367295E+02  0.2154151E+02  0.1622742E+03
Ar   75  0.2394536E+01  0.1091708E+02  0.2418604E+02  0.2680831E+03
Ar   76  0.3745461E+02  0.1338515E+02  0.2428645E+02  0.5770894E+02
Ar   77  0.3773467E+02  0.1091863E+02  0.2685148E+02  0.4459845E+02
Ar   78  0.2632282E+01  0.1348003E+02  0.2732687E+02  0.8725476E+02
Ar   79  0.2558823E+01  0.1093204E+02  0.2992647E+02  0.1600097E+03
Ar   80  0.3773291E+02  0.1336350E+02  0.2974115E+02  0.1409733E+02
Ar   81  0.2119772E-03  0.1067663E+02  0.3250722E+02  0.9112141E+02
Ar   82  0.2438962E+01  0.1324132E+02  0.3253363E+02  0.3978409E+02
Ar   83  0.2487897E+01  0.1067370E+02  0.3517063E+02  0.7915699E+02
Ar   84  0.2203951E+00  0.1356822E+02  0.3502307E+02  0.2109394E+03
Ar   85  0.3944815E-01  0.1662171E+02  0.3944815E-01  0.1235085E+03
Ar   86  0.2693690E+01  0.1909567E+02  0.3748730E+02  0.2540463E+02
Ar   87  0.2670780E+01  0.1666681E+02  0.2670780E+01  0.1367084E+03
Ar   88  0.3748730E+02  0.1909567E+02  0.2693690E+01  0.2540463E+02
Ar   89  0.3773638E+02  0.1638321E+02  0.5558291E+01  0.6934222E+02
Ar   90  0.2743032E+01  0.1909438E+02  0.5136806E+01  0.1098816E+03
Ar   91  0.2819243E+01  0.1633983E+02  0.7450290E+01  0.3078530E+03
Ar   92  0.3753633E+02  0.1927200E+02  0.7823666E+01  0.1769274E+02
Ar   93  0.1420588E+00  0.1623907E+02  0.1049294E+02  0.1592686E+03
Ar   94  0.2511159E+01  0.1922038E+02  0.1043168E+02  0.1028683E+03
Ar   95  0.2970241E+01  0.1584329E+02  0.1311323E+02  0.1229160E+03
Ar   96  0.3765912E+02  0.1873719E+02  0.1351057E+02  0.1161603E+03
Ar   97  0.2481011E-01  0.1604035E+02  0.1604035E+02  0.2166693E+03
Ar   98  0.2836532E+01  0.1900016E+02  0.1649906E+02  0.7438323E+01
Ar   99  0.2836532E+01  0.1649906E+02  0.1900016E+02  0.7438323E+01
Ar  100  0.3105398E-01  0.1901527E+02  0.1901527E+02  0.5416843E+02
Ar  101  0.3769334E+02  0.1616256E+02  0.2148700E+02  0.1021994E+03
Ar  102  0.2756771E+01  0.1887912E+02  0.2178507E+02  0.1527047E+03
Ar  103  0.2685411E+01  0.1641994E+02  0.2432846E+02  0.9251825E+02
Ar  104  0.3749077E+02  0.1853877E+02  0.2434879E+02  0.1782395E+03
Ar  105  0.3724806E+02  0.1608508E+02  0.2715628E+02  0.7409820E+02
Ar  106  0.2548822E+01  0.1873262E+02  0.2717366E+02  0.1593154E+03
Ar  107  0.2326905E+01  0.1620966E+02  0.2956137E+02  0.1264318E+03
Ar  108  0.3764649E+02  0.1896747E+02  0.2962821E+02  0.5968570E+02
Ar  109  0.3755594E+02  0.1632687E+02  0.3249786E+02  0.1808789E+03
Ar  110  0.2621429E+01  0.1886054E+02  0.3227210E+02  0.1004091E+03
Ar  111  0.2510948E+01  0.1646461E+02  0.3476759E+02  0.2322643E+03
Ar  112  0.6960859E-01  0.1913409E+02  0.3523248E+02  0.3277678E+02
Ar  113  0.5954890E-01  0.2208908E+02  0.5954890E-01  0.2531181E+02
Ar  114  0.3146625E+01  0.2436040E+02  0.1508391E+00  0.8551115E+02
Ar  115  0.2691911E+01  0.2209683E+02  0.2691911E+01  0.1574357E+03
Ar  116  0.1508391E+00  0.2436040E+02  0.3146625E+01  0.8551115E+02
Ar  117  0.2589001E-01  0.2156589E+02  0.5447106E+01  0.4978755E+02
Ar  118  0.2520422E+01  0.2445043E+02  0.5636741E+01  0.4742327E+02
Ar  119  0.2234058E+01  0.2171086E+02  0.8131089E+01  0.1161051E+03
Ar  120  0.3752048E+02  0.2443879E+02  0.8033207E+01  0.9773013E+02
Ar  121  0.3742085E+02  0.2162040E+02  0.1074348E+02  0.7332634E+02
Ar  122  0.2394536E+01  0.2418604E+02  0.1091708E+02  0.2680831E+03
Ar  123  0.2338338E+01  0.2154151E+02  0.1367295E+02  0.1622742E+03
Ar  124  0.3745461E+02  0.2428645E+02  0.1338515E+02  0.5770894E+02
Ar  125  0.3769334E+02  0.2148700E+02  0.1616256E+02  0.1021994E+03
Ar  126  0.2685411E+01  0.2432846E+02  0.1641994E+02  0.9251825E+02
Ar  127  0.2756771E+01  0.2178507E+02  0.1887912E+02  0.1527047E+03
Ar  128  0.3749077E+02  0.2434879E+02  0.1853877E+02  0.1782395E+03
Ar  129  0.3713838E+02  0.2161315E+02  0.2161315E+02  0.4735877E+02
Ar  130  0.2282909E+01  0.2443386E+02  0.2158258E+02  0.5185761E+02
Ar  131  0.2282909E+01  0.2158258E+02  0.2443386E+02  0.5185761E+02
Ar  132  0.3734803E+02  0.2444980E+02  0.2444980E+02  0.6125535E+02
Ar  133  0.3765458E+02  0.2156584E+02  0.2715691E+02  0.8751220E+02
Ar  134  0.2332991E+01  0.2402622E+02  0.2700591E+02  0.6121477E+02
Ar  135  0.2697018E+01  0.2151642E+02  0.2986355E+02  0.7673491E+01
Ar  136  0.3772984E+02  0.2455647E+02  0.2993451E+02  0.3702648E+02
Ar  137  0.1261191E+00  0.2158185E+02  0.3268656E+02  0.1994846E+02
Ar  138  0.2618133E+01  0.2456801E+02  0.3267643E+02  0.7279042E+02
Ar  139  0.2633872E+01  0.2163363E+02  0.3497680E+02  0.1382739E+03
Ar  140  0.1065383E-01  0.2461173E+02  0.3515274E+02  0.1825509E+03
Ar  141  0.9163788E-01  0.2727298E+02  0.9163788E-01  0.5955758E+02
Ar  142  0.3251695E+01  0.3007588E+02  0.3773482E+02  0.2286218E+03
Ar  143  0.2679969E+01  0.2782110E+02  0.2679969E+01  0.7885020E+02
Ar  144  0.3773482E+02  0.3007588E+02  0.3251695E+01  0.2286218E+03
Ar  145  0.2439740E-01  0.2717213E+02  0.5603462E+01  0.3001070E+03
Ar  146  0.2594692E+01  0.2983835E+02  0.5641583E+01  0.1052976E+02
Ar  147  0.2404896E+01  0.2695305E+02  0.8521212E+01  0.3227551E+02
Ar  148  0.2290583E-01  0.2974638E+02  0.8026943E+01  0.4064151E+01
Ar  149  0.3773467E+02  0.2685148E+02  0.1091863E+02  0.4459845E+02
Ar  150  0.2558823E+01  0.2992647E+02  0.1093204E+02  0.1600097E+03
Ar  151  0.2632282E+01  0.2732687E+02  0.1348003E+02  0.8725476E+02
Ar  152  0.3773291E+02  0.2974115E+02  0.1336350E+02  0.1409733E+02
Ar  153  0.3724806E+02  0.2715628E+02  0.1608508E+02  0.7409820E+02
Ar  154  0.2326905E+01  0.2956137E+02  0.1620966E+02  0.1264318E+03
Ar  155  0.2548822E+01  0.2717366E+02  0.1873262E+02  0.1593154E+03
Ar  156  0.3764649E+02  0.2962821E+02  0.1896747E+02  0.5968570E+02
Ar  157  0.3765458E+02  0.2715691E+02  0.2156584E+02  0.8751220E+02
Ar  158  0.2697018E+01  0.2986355E+02  0.2151642E+02  0.7673491E+01
Ar  159  0.2332991E+01  0.2700591E+02  0.2402622E+02  0.6121477E+02
Ar  160  0.3772984E+02  0.2993451E+02  0.2455647E+02  0.3702648E+02
Ar  161  0.3755255E+02  0.2729168E+02  0.2729168E+02  0.1166972E+01
Ar  162  0.2542736E+01  0.3020902E+02  0.2710778E+02  0.2019101E+02
Ar  163  0.2542736E+01  0.2710778E+02  0.3020902E+02  0.2019101E+02
Ar  164  0.5374697E-01  0.2985165E+02  0.2985165E+02  0.5130192E+02
Ar  165  0.2879571E+00  0.2715412E+02  0.3284311E+02  0.4601743E+02
Ar  166  0.2730017E+01  0.2999482E+02  0.3284344E+02  0.8428904E+02
Ar  167  0.2933820E+01  0.2717169E+02  0.3558030E+02  0.3275810E+02
Ar  168  0.2947503E+00  0.2968878E+02  0.3529746E+02  0.8224631E+02
Ar  169  0.2161508E+00  0.3222431E+02  0.2161508E+00  0.3086636E+03
Ar  170  0.2762133E+01  0.3513429E+02  0.3477282E+00  0.1120579E+03
Ar  171  0.2622947E+01  0.3226246E+02  0.2622947E+01  0.1173543E+03
Ar  172  0.3477282E+00  0.3513429E+02  0.2762133E+01  0.1120579E+03
Ar  173  0.3766822E+02  0.3270705E+02  0.5514084E+01  0.1279281E+03
Ar  174  0.2709801E+01  0.3519522E+02  0.5332336E+01  0.3038471E+02
Ar  175  0.2587206E+01  0.3261897E+02  0.8056114E+01  0.2035737E+02
Ar  176  0.3771536E+02  0.3517749E+02  0.8206427E+01  0.1727786E+03
Ar  177  0.2119771E-03  0.3250722E+02  0.1067663E+02  0.9112141E+02
Ar  178  0.2487897E+01  0.3517063E+02  0.1067370E+02  0.7915699E+02
Ar  179  0.2438962E+01  0.3253363E+02  0.1324132E+02  0.3978409E+02
Ar  180  0.2203951E+00  0.3502307E+02  0.1356822E+02  0.2109394E+03
Ar  181  0.3755594E+02  0.3249786E+02  0.1632687E+02  0.1808789E+03
Ar  182  0.2510948E+01  0.3476759E+02  0.1646461E+02  0.2322643E+03
Ar  183  0.2621429E+01  0.3227210E+02  0.1886054E+02  0.1004091E+03
Ar  184  0.6960859E-01  0.3523248E+02  0.1913409E+02  0.3277678E+02
Ar  185  0.1261191E+00  0.3268656E+02  0.2158185E+02  0.1994846E+02
Ar  186  0.2633872E+01  0.3497680E+02  0.2163363E+02  0.1382739E+03
Ar  187  0.2618133E+01  0.3267643E+02  0.2456801E+02  0.7279042E+02
Ar  188  0.1065383E-01  0.3515274E+02  0.2461173E+02  0.1825509E+03
Ar  189  0.2879571E+00  0.3284311E+02  0.2715412E+02  0.4601743E+02
Ar  190  0.2933820E+01  0.3558030E+02  0.2717169E+02  0.3275810E+02
Ar  191  0.2730017E+01  0.3284344E+02  0.2999482E+02  0.8428904E+02
Ar  192  0.2947503E+00  0.3529746E+02  0.2968878E+02  0.8224631E+02
Ar  193  0.6948046E+00  0.3268976E+02  0.3268976E+02  0.3297965E+02
Ar  194  0.3109087E+01  0.3522265E+02  0.3292062E+02  0.9984420E+01
Ar  195  0.3109087E+01  0.3292062E+02  0.3522265E+02  0.9984420E+01
Ar  196  0.2377823E+00  0.3511702E+02  0.3511702E+02  0.5467099E+03
Ar  197  0.5768841E+01  0.3405058E+00  0.3405058E+00  0.3169206E+02
Ar  198  0.8444778E+01  0.2883859E+01  0.6032902E-01  0.1371012E+03
Ar  199  0.8444778E+01  0.6032902E-01  0.2883859E+01  0.1371012E+03
Ar  200  0.5469488E+01  0.3018840E+01  0.3018840E+01  0.1409264E+03
Ar  201  0.5415485E+01  0.3116057E+00  0.5415485E+01  0.3253143E+03
Ar  202  0.8036958E+01  0.2889231E+01  0.5471942E+01  0.1670899E+03
Ar  203  0.7842376E+01  0.3750798E+02  0.7842376E+01  0.1337974E+03
Ar  204  0.5471942E+01  0.2889231E+01  0.8036958E+01  0.1670899E+03
Ar  205  0.5554860E+01  0.3755448E+02  0.1092108E+02  0.2534655E+03
Ar  206  0.7982398E+01  0.2655151E+01  0.1055233E+02  0.1581031E+03
Ar  207  0.7865149E+01  0.4235910E+00  0.1377942E+02  0.8393466E+02
Ar  208  0.5370138E+01  0.2741291E+01  0.1366709E+02  0.3837425E+03
Ar  209  0.5558291E+01  0.3773638E+02  0.1638321E+02  0.6934222E+02
Ar  210  0.7450290E+01  0.2819243E+01  0.1633983E+02  0.3078530E+03
Ar  211  0.7823666E+01  0.3753633E+02  0.1927200E+02  0.1769274E+02
Ar  212  0.5136806E+01  0.2743032E+01  0.1909438E+02  0.1098816E+03
Ar  213  0.5447106E+01  0.2589001E-01  0.2156589E+02  0.4978755E+02
Ar  214  0.8131089E+01  0.2234058E+01  0.2171086E+02  0.1161051E+03
Ar  215  0.8033207E+01  0.3752048E+02  0.2443879E+02  0.9773013E+02
Ar  216  0.5636741E+01  0.2520422E+01  0.2445043E+02  0.4742327E+02
Ar  217  0.5603462E+01  0.2439740E-01  0.2717213E+02  0.3001070E+03
Ar  218  0.8521212E+01  0.2404896E+01  0.2695305E+02  0.3227551E+02
Ar  219  0.8026943E+01  0.2290583E-01  0.2974638E+02  0.4064151E+01
Ar  220  0.5641583E+01  0.2594692E+01  0.2983835E+02  0.1052976E+02
Ar  221  0.5514084E+01  0.3766822E+02  0.3270705E+02  0.1279281E+03
Ar  222  0.8056114E+01  0.2587206E+01  0.3261897E+02  0.2035737E+02
Ar  223  0.8206427E+01  0.3771536E+02  0.3517749E+02  0.1727786E+03
Ar  224  0.5332336E+01  0.2709801E+01  0.3519522E+02  0.3038471E+02
Ar  225  0.5415485E+01  0.5415485E+01  0.3116057E+00  0.3253143E+03
Ar  226  0.7842376E+01  0.7842376E+01  0.3750798E+02  0.1337974E+03
Ar  227  0.8036958E+01  0.5471942E+01  0.2889231E+01  0.1670899E+03
Ar  228  0.5471942E+01  0.8036958E+01  0.2889231E+01  0.1670899E+03
Ar  229  0.5716691E+01  0.5716691E+01  0.5716691E+01  0.3455981E+02
Ar  230  0.8361358E+01  0.8361358E+01  0.5594209E+01  0.9377844E+02
Ar  231  0.8361358E+01  0.5594209E+01  0.8361358E+01  0.9377844E+02
Ar  232  0.5594209E+01  0.8361358E+01  0.8361358E+01  0.9377844E+02
Ar  233  0.5680108E+01  0.5680108E+01  0.1106282E+02  0.9139124E+02
Ar  234  0.8037579E+01  0.8037579E+01  0.1133898E+02  0.2326855E+03
Ar  235  0.7988503E+01  0.5299166E+01  0.1364266E+02  0.2158368E+03
Ar  236  0.5299166E+01  0.7988503E+01  0.1364266E+02  0.2158368E+03
Ar  237  0.5255149E+01  0.5255149E+01  0.1636276E+02  0.1322325E+03
Ar  238  0.7568511E+01  0.7568511E+01  0.1666684E+02  0.2205627E+03
Ar  239  0.8027004E+01  0.4973814E+01  0.1973436E+02  0.1275915E+03
Ar  240  0.4973814E+01  0.8027004E+01  0.1973436E+02  0.1275915E+03
Ar  241  0.5206500E+01  0.5206500E+01  0.2196484E+02  0.3307253E+03
Ar  242  0.7986462E+01  0.7986462E+01  0.2196710E+02  0.2339425E+03
Ar  243  0.7909900E+01  0.5206897E+01  0.2439514E+02  0.3630933E+03
Ar  244  0.5206897E+01  0.7909900E+01  0.2439514E+02  0.3630933E+03
Ar  245  0.5222408E+01  0.5222408E+01  0.2671080E+02  0.3555570E+02
Ar  246  0.7586639E+01  0.7586639E+01  0.2704501E+02  0.7893086E+02
Ar  247  0.8122322E+01  0.5195565E+01  0.2966969E+02  0.5880651E+02
Ar  248  0.5195565E+01  0.8122322E+01  0.2966969E+02  0.5880651E+02
Ar  249  0.5309219E+01  0.5309219E+01  0.3216663E+02  0.3236269E+03
Ar  250  0.8025748E+01  0.8025748E+01  0.3245954E+02  0.1232048E+03
Ar  251  0.7748283E+01  0.5203313E+01  0.3516249E+02  0.1561074E+03
Ar  252  0.5203313E+01  0.7748283E+01  0.3516249E+02  0.1561074E+03
Ar  253  0.5554860E+01  0.1092108E+02  0.3755448E+02  0.2534655E+03
Ar  254  0.7865149E+01  0.1377942E+02  0.4235910E+00  0.8393466E+02
Ar  255  0.7982398E+01  0.1055233E+02  0.2655151E+01  0.1581031E+03
Ar  256  0.5370138E+01  0.1366709E+02  0.2741291E+01  0.3837425E+03
Ar  257  0.5680108E+01  0.1106282E+02  0.5680108E+01  0.9139124E+02
Ar  258  0.7988503E+01  0.1364266E+02  0.5299166E+01  0.2158368E+03
Ar  259  0.8037579E+01  0.1133898E+02  0.8037579E+01  0.2326855E+03
Ar  260  0.5299166E+01  0.1364266E+02  0.7988503E+01  0.2158368E+03
Ar  261  0.5538439E+01  0.1073427E+02  0.1073427E+02  0.7787641E+02
Ar  262  0.7743020E+01  0.1412075E+02  0.1074753E+02  0.3273912E+02
Ar  263  0.7743020E+01  0.1074753E+02  0.1412075E+02  0.3273912E+02
Ar  264  0.5446287E+01  0.1371669E+02  0.1371669E+02  0.1802666E+03
Ar  265  0.4839996E+01  0.1029974E+02  0.1630275E+02  0.1917438E+03
Ar  266  0.7735431E+01  0.1360184E+02  0.1638468E+02  0.1886947E+03
Ar  267  0.7944142E+01  0.1080627E+02  0.1908361E+02  0.4084810E+01
Ar  268  0.5275583E+01  0.1329775E+02  0.1875361E+02  0.2763787E+02
Ar  269  0.5503605E+01  0.1053683E+02  0.2197707E+02  0.5992594E+02
Ar  270  0.7958034E+01  0.1325143E+02  0.2206110E+02  0.8157004E+02
Ar  271  0.8063986E+01  0.1065090E+02  0.2495075E+02  0.3011180E+03
Ar  272  0.5078085E+01  0.1344609E+02  0.2458186E+02  0.8673695E+02
Ar  273  0.5083792E+01  0.1072516E+02  0.2692250E+02  0.3951322E+02
Ar  274  0.7843981E+01  0.1317720E+02  0.2714633E+02  0.7322660E+02
Ar  275  0.7866342E+01  0.1040846E+02  0.2991850E+02  0.1651533E+03
Ar  276  0.5296004E+01  0.1290899E+02  0.2967792E+02  0.1925477E+02
Ar  277  0.5247923E+01  0.1044126E+02  0.3248727E+02  0.2174787E+03
Ar  278  0.7764362E+01  0.1345131E+02  0.3289594E+02  0.2819751E+03
Ar  279  0.8105136E+01  0.1070047E+02  0.3505857E+02  0.3321111E+03
Ar  280  0.5244081E+01  0.1364700E+02  0.3523956E+02  0.2225330E+03
Ar  281  0.5558291E+01  0.1638321E+02  0.3773638E+02  0.6934222E+02
Ar  282  0.7823666E+01  0.1927200E+02  0.3753633E+02  0.1769274E+02
Ar  283  0.7450290E+01  0.1633983E+02  0.2819243E+01  0.3078530E+03
Ar  284  0.5136806E+01  0.1909438E+02  0.2743032E+01  0.1098816E+03
Ar  285  0.5255149E+01  0.1636276E+02  0.5255149E+01  0.1322325E+03
Ar  286  0.8027004E+01  0.1973436E+02  0.4973814E+01  0.1275915E+03
Ar  287  0.7568511E+01  0.1666684E+02  0.7568511E+01  0.2205627E+03
Ar  288  0.4973814E+01  0.1973436E+02  0.8027004E+01  0.1275915E+03
Ar  289  0.4839996E+01  0.1630275E+02  0.1029974E+02  0.1917437E+03
Ar  290  0.7944142E+01  0.1908361E+02  0.1080627E+02  0.4084810E+01
Ar  291  0.7735431E+01  0.1638468E+02  0.1360184E+02  0.1886947E+03
Ar  292  0.5275583E+01  0.1875361E+02  0.1329775E+02  0.2763787E+02
Ar  293  0.5408486E+01  0.1650846E+02  0.1650846E+02  0.7568643E+03
Ar  294  0.8060233E+01  0.1941694E+02  0.1616983E+02  0.1053390E+03
Ar  295  0.8060233E+01  0.1616983E+02  0.1941694E+02  0.1053390E+03
Ar  296  0.5509689E+01  0.1910554E+02  0.1910554E+02  0.1789306E+03
Ar  297  0.5393492E+01  0.1623553E+02  0.2194200E+02  0.3253832E+02
Ar  298  0.8180818E+01  0.1879331E+02  0.2202948E+02  0.3370420E+03
Ar  299  0.8144376E+01  0.1587102E+02  0.2449872E+02  0.6768247E+02
Ar  300  0.5210795E+01  0.1910669E+02  0.2438953E+02  0.1117761E+03
Ar  301  0.5274047E+01  0.1601786E+02  0.2707725E+02  0.4901447E+02
Ar  302  0.7903044E+01  0.1852337E+02  0.2714480E+02  0.1818962E+03
Ar  303  0.7664551E+01  0.1594135E+02  0.3000917E+02  0.6148824E+02
Ar  304  0.5339739E+01  0.1882141E+02  0.2994190E+02  0.5813855E+02
Ar  305  0.4912893E+01  0.1592324E+02  0.3230682E+02  0.4389662E+02
Ar  306  0.7705001E+01  0.1875921E+02  0.3293059E+02  0.2953672E+03
Ar  307  0.8004011E+01  0.1622461E+02  0.3529098E+02  0.6184908E+02
Ar  308  0.5209293E+01  0.1885605E+02  0.3509104E+02  0.4812018E+02
Ar  309  0.5447106E+01  0.2156589E+02  0.2589001E-01  0.4978755E+02
Ar  310  0.8033207E+01  0.2443879E+02  0.3752048E+02  0.9773013E+02
Ar  311  0.8131089E+01  0.2171086E+02  0.2234058E+01  0.1161051E+03
Ar  312  0.5636741E+01  0.2445043E+02  0.2520422E+01  0.4742327E+02
Ar  313  0.5206500E+01  0.2196484E+02  0.5206500E+01  0.3307253E+03
Ar  314  0.7909900E+01  0.2439514E+02  0.5206897E+01  0.3630933E+03
Ar  315  0.7986462E+01  0.2196710E+02  0.7986462E+01  0.2339425E+03
Ar  316  0.5206897E+01  0.2439514E+02  0.7909900E+01  0.3630933E+03
Ar  317  0.5503605E+01  0.2197707E+02  0.1053683E+02  0.5992594E+02
Ar  318  0.8063986E+01  0.2495075E+02  0.1065090E+02  0.3011180E+03
Ar  319  0.7958034E+01  0.2206110E+02  0.1325143E+02  0.8157004E+02
Ar  320  0.5078085E+01  0.2458186E+02  0.1344609E+02  0.8673695E+02
Ar  321  0.5393492E+01  0.2194200E+02  0.1623553E+02  0.3253832E+02
Ar  322  0.8144376E+01  0.2449872E+02  0.1587102E+02  0.6768247E+02
Ar  323  0.8180818E+01  0.2202948E+02  0.1879331E+02  0.3370420E+03
Ar  324  0.5210795E+01  0.2438953E+02  0.1910669E+02  0.1117761E+03
Ar  325  0.5317482E+01  0.2131815E+02  0.2131815E+02  0.1181398E+03
Ar  326  0.8174333E+01  0.2480334E+02  0.2148245E+02  0.7197175E+02
Ar  327  0.8174333E+01  0.2148245E+02  0.2480334E+02  0.7197175E+02
Ar  328  0.5051051E+01  0.2404649E+02  0.2404649E+02  0.9990290E+02
Ar  329  0.5149355E+01  0.2150045E+02  0.2713039E+02  0.5995560E+02
Ar  330  0.7680429E+01  0.2403274E+02  0.2707225E+02  0.3457834E+02
Ar  331  0.7512216E+01  0.2135968E+02  0.2980429E+02  0.1553608E+03
Ar  332  0.5040078E+01  0.2425055E+02  0.2941026E+02  0.3175289E+02
Ar  333  0.5416555E+01  0.2166268E+02  0.3252292E+02  0.2042705E+01
Ar  334  0.8233474E+01  0.2430210E+02  0.3232246E+02  0.2765780E+02
Ar  335  0.7804767E+01  0.2198950E+02  0.3519983E+02  0.5312322E+02
Ar  336  0.5260049E+01  0.2447345E+02  0.3517834E+02  0.5495213E+02
Ar  337  0.5603462E+01  0.2717213E+02  0.2439740E-01  0.3001070E+03
Ar  338  0.8026943E+01  0.2974638E+02  0.2290583E-01  0.4064151E+01
Ar  339  0.8521212E+01  0.2695305E+02  0.2404896E+01  0.3227551E+02
Ar  340  0.5641583E+01  0.2983835E+02  0.2594692E+01  0.1052976E+02
Ar  341  0.5222408E+01  0.2671080E+02  0.5222408E+01  0.3555570E+02
Ar  342  0.8122322E+01  0.2966969E+02  0.5195565E+01  0.5880651E+02
Ar  343  0.7586639E+01  0.2704501E+02  0.7586639E+01  0.7893086E+02
Ar  344  0.5195565E+01  0.2966969E+02  0.8122322E+01  0.5880651E+02
Ar  345  0.5083792E+01  0.2692250E+02  0.1072516E+02  0.3951322E+02
Ar  346  0.7866342E+01  0.2991850E+02  0.1040846E+02  0.1651533E+03
Ar  347  0.7843981E+01  0.2714633E+02  0.1317720E+02  0.7322660E+02
Ar  348  0.5296004E+01  0.2967792E+02  0.1290899E+02  0.1925477E+02
Ar  349  0.5274047E+01  0.2707725E+02  0.1601786E+02  0.4901447E+02
Ar  350  0.7664551E+01  0.3000917E+02  0.1594135E+02  0.6148824E+02
Ar  351  0.7903044E+01  0.2714480E+02  0.1852337E+02  0.1818962E+03
Ar  352  0.5339739E+01  0.2994190E+02  0.1882141E+02  0.5813855E+02
Ar  353  0.5149355E+01  0.2713039E+02  0.2150045E+02  0.5995560E+02
Ar  354  0.7512216E+01  0.2980429E+02  0.2135968E+02  0.1553608E+03
Ar  355  0.7680429E+01  0.2707225E+02  0.2403274E+02  0.3457834E+02
Ar  356  0.5040078E+01  0.2941026E+02  0.2425055E+02  0.3175289E+02
Ar  357  0.4532293E+01  0.2693111E+02  0.2693111E+02  0.1034222E+03
Ar  358  0.7998348E+01  0.2932253E+02  0.2689114E+02  0.1098747E+03
Ar  359  0.7998348E+01  0.2689114E+02  0.2932253E+02  0.1098747E+03
Ar  360  0.5645736E+01  0.2948006E+02  0.2948006E+02  0.7026979E+02
Ar  361  0.5502338E+01  0.2674345E+02  0.3233845E+02  0.2585201E+03
Ar  362  0.8038694E+01  0.2973430E+02  0.3228667E+02  0.8521965E+02
Ar  363  0.8065368E+01  0.2727264E+02  0.3487863E+02  0.1958346E+03
Ar  364  0.5452470E+01  0.2977391E+02  0.3501498E+02  0.1146007E+03
Ar  365  0.5514084E+01  0.3270705E+02  0.3766822E+02  0.1279281E+03
Ar  366  0.8206427E+01  0.3517749E+02  0.3771536E+02  0.1727786E+03
Ar  367  0.8056114E+01  0.3261897E+02  0.2587206E+01  0.2035737E+02
Ar  368  0.5332336E+01  0.3519522E+02  0.2709801E+01  0.3038471E+02
Ar  369  0.5309219E+01  0.3216663E+02  0.5309219E+01  0.3236269E+03
Ar  370  0.7748283E+01  0.3516249E+02  0.5203313E+01  0.1561074E+03
Ar  371  0.8025748E+01  0.3245954E+02  0.8025748E+01  0.1232048E+03
Ar  372  0.5203313E+01  0.3516249E+02  0.7748283E+01  0.1561074E+03
Ar  373  0.5247923E+01  0.3248727E+02  0.1044126E+02  0.2174787E+03
Ar  374  0.8105136E+01  0.3505857E+02  0.1070047E+02  0.3321111E+03
Ar  375  0.7764362E+01  0.3289594E+02  0.1345131E+02  0.2819751E+03
Ar  376  0.5244081E+01  0.3523956E+02  0.1364700E+02  0.2225330E+03
Ar  377  0.4912893E+01  0.3230682E+02  0.1592324E+02  0.4389662E+02
Ar  378  0.8004011E+01  0.3529098E+02  0.1622461E+02  0.6184908E+02
Ar  379  0.7705001E+01  0.3293059E+02  0.1875921E+02  0.2953672E+03
Ar  380  0.5209293E+01  0.3509104E+02  0.1885605E+02  0.4812018E+02
Ar  381  0.5416555E+01  0.3252292E+02  0.2166268E+02  0.2042705E+01
Ar  382  0.7804767E+01  0.3519983E+02  0.2198950E+02  0.5312322E+02
Ar  383  0.8233474E+01  0.3232246E+02  0.2430210E+02  0.2765780E+02
Ar  384  0.5260049E+01  0.3517834E+02  0.2447345E+02  0.5495213E+02
Ar  385  0.5502338E+01  0.3233845E+02  0.2674345E+02  0.2585201E+03
Ar  386  0.8065368E+01  0.3487863E+02  0.2727264E+02  0.1958346E+03
Ar  387  0.8038694E+01  0.3228667E+02  0.2973430E+02  0.8521965E+02
Ar  388  0.5452470E+01  0.3501498E+02  0.2977391E+02  0.1146007E+03
Ar  389  0.5381383E+01  0.3221506E+02  0.3221506E+02  0.4247484E+02
Ar  390  0.8375112E+01  0.3502568E+02  0.3250525E+02  0.2652649E+01
Ar  391  0.8375112E+01  0.3250525E+02  0.3502568E+02  0.2652649E+01
Ar  392  0.5890193E+01  0.3475998E+02  0.3475998E+02  0.1402952E+02
Ar  393  0.1129720E+02  0.1112861E-01  0.1112861E-01  0.1117742E+03
Ar  394  0.1384698E+02  0.2620268E+01  0.1884836E-01  0.4428758E+02
Ar  395  0.1384698E+02  0.1884836E-01  0.2620268E+01  0.4428758E+02
Ar  396  0.1043390E+02  0.3032331E+01  0.3032331E+01  0.2949382E+02
Ar  397  0.1092108E+02  0.3755448E+02  0.5554860E+01  0.2534655E+03
Ar  398  0.1366709E+02  0.2741291E+01  0.5370138E+01  0.3837425E+03
Ar  399  0.1377942E+02  0.4235910E+00  0.7865149E+01  0.8393466E+02
Ar  400  0.1055233E+02  0.2655151E+01  0.7982398E+01  0.1581031E+03
Ar  401  0.1066238E+02  0.1113187E+00  0.1066238E+02  0.2183549E+03
Ar  402  0.1314053E+02  0.2852712E+01  0.1047505E+02  0.8112188E+02
Ar  403  0.1346503E+02  0.9567869E-01  0.1346503E+02  0.2009974E+03
Ar  404  0.1047505E+02  0.2852712E+01  0.1314053E+02  0.8112188E+02
Ar  405  0.1049294E+02  0.1420588E+00  0.1623907E+02  0.1592686E+03
Ar  406  0.1311323E+02  0.2970241E+01  0.1584329E+02  0.1229160E+03
Ar  407  0.1351057E+02  0.3765912E+02  0.1873719E+02  0.1161603E+03
Ar  408  0.1043168E+02  0.2511159E+01  0.1922038E+02  0.1028683E+03
Ar  409  0.1074348E+02  0.3742085E+02  0.2162040E+02  0.7332634E+02
Ar  410  0.1367295E+02  0.2338338E+01  0.2154151E+02  0.1622742E+03
Ar  411  0.1338515E+02  0.3745461E+02  0.2428645E+02  0.5770894E+02
Ar  412  0.1091708E+02  0.2394536E+01  0.2418604E+02  0.2680831E+03
Ar  413  0.1091863E+02  0.3773467E+02  0.2685148E+02  0.4459845E+02
Ar  414  0.1348003E+02  0.2632282E+01  0.2732687E+02  0.8725477E+02
Ar  415  0.1336350E+02  0.3773291E+02  0.2974115E+02  0.1409733E+02
Ar  416  0.1093204E+02  0.2558823E+01  0.2992647E+02  0.1600097E+03
Ar  417  0.1067663E+02  0.2119771E-03  0.3250722E+02  0.9112141E+02
Ar  418  0.1324132E+02  0.2438962E+01  0.3253363E+02  0.3978409E+02
Ar  419  0.1356822E+02  0.2203951E+00  0.3502307E+02  0.2109394E+03
Ar  420  0.1067370E+02  0.2487897E+01  0.3517063E+02  0.7915699E+02
Ar  421  0.1092108E+02  0.5554860E+01  0.3755448E+02  0.2534655E+03
Ar  422  0.1377942E+02  0.7865149E+01  0.4235910E+00  0.8393466E+02
Ar  423  0.1366709E+02  0.5370138E+01  0.2741291E+01  0.3837425E+03
Ar  424  0.1055233E+02  0.7982398E+01  0.2655151E+01  0.1581031E+03
Ar  425  0.1106282E+02  0.5680108E+01  0.5680108E+01  0.9139124E+02
Ar  426  0.1364266E+02  0.7988503E+01  0.5299166E+01  0.2158368E+03
Ar  427  0.1364266E+02  0.5299166E+01  0.7988503E+01  0.2158368E+03
Ar  428  0.1133898E+02  0.8037579E+01  0.8037579E+01  0.2326855E+03
Ar  429  0.1073427E+02  0.5538439E+01  0.1073427E+02  0.7787641E+02
Ar  430  0.1412075E+02  0.7743020E+01  0.1074753E+02  0.3273912E+02
Ar  431  0.1371669E+02  0.5446287E+01  0.1371669E+02  0.1802666E+03
Ar  432  0.1074753E+02  0.7743020E+01  0.1412075E+02  0.3273912E+02
Ar  433  0.1029974E+02  0.4839996E+01  0.1630275E+02  0.1917437E+03
Ar  434  0.1360184E+02  0.7735431E+01  0.1638468E+02  0.1886947E+03
Ar  435  0.1329775E+02  0.5275583E+01  0.1875361E+02  0.2763787E+02
Ar  436  0.1080627E+02  0.7944142E+01  0.1908361E+02  0.4084810E+01
Ar  437  0.1053683E+02  0.5503605E+01  0.2197707E+02  0.5992594E+02
Ar  438  0.1325143E+02  0.7958034E+01  0.2206110E+02  0.8157004E+02
Ar  439  0.1344609E+02  0.5078085E+01  0.2458186E+02  0.8673695E+02
Ar  440  0.1065090E+02  0.8063986E+01  0.2495075E+02  0.3011180E+03
Ar  441  0.1072516E+02  0.5083792E+01  0.2692250E+02  0.3951322E+02
Ar  442  0.1317720E+02  0.7843981E+01  0.2714633E+02  0.7322660E+02
Ar  443  0.1290899E+02  0.5296004E+01  0.2967792E+02  0.1925477E+02
Ar  444  0.1040846E+02  0.7866342E+01  0.2991850E+02  0.1651533E+03
Ar  445  0.1044126E+02  0.5247923E+01  0.3248727E+02  0.2174787E+03
Ar  446  0.1345131E+02  0.7764362E+01  0.3289594E+02  0.2819751E+03
Ar  447  0.1364700E+02  0.5244081E+01  0.3523956E+02  0.2225330E+03
Ar  448  0.1070047E+02  0.8105136E+01  0.3505857E+02  0.3321111E+03
Ar  449  0.1066238E+02  0.1066238E+02  0.1113187E+00  0.2183549E+03
Ar  450  0.1346503E+02  0.1346503E+02  0.9567869E-01  0.2009974E+03
Ar  451  0.1314053E+02  0.1047505E+02  0.2852712E+01  0.8112188E+02
Ar  452  0.1047505E+02  0.1314053E+02  0.2852712E+01  0.8112188E+02
Ar  453  0.1073427E+02  0.1073427E+02  0.5538439E+01  0.7787641E+02
Ar  454  0.1371669E+02  0.1371669E+02  0.5446287E+01  0.1802666E+03
Ar  455  0.1412075E+02  0.1074753E+02  0.7743020E+01  0.3273912E+02
Ar  456  0.1074753E+02  0.1412075E+02  0.7743020E+01  0.3273912E+02
Ar  457  0.1044575E+02  0.1044575E+02  0.1044575E+02  0.4296953E+03
Ar  458  0.1341920E+02  0.1341920E+02  0.1054849E+02  0.1516298E+03
Ar  459  0.1341920E+02  0.1054849E+02  0.1341920E+02  0.1516298E+03
Ar  460  0.1054849E+02  0.1341920E+02  0.1341920E+02  0.1516298E+03
Ar  461  0.1014779E+02  0.1014779E+02  0.1660401E+02  0.4458654E+02
Ar  462  0.1314809E+02  0.1314809E+02  0.1598811E+02  0.2385004E+03
Ar  463  0.1356048E+02  0.1065557E+02  0.1890638E+02  0.3572588E+03
Ar  464  0.1065557E+02  0.1356048E+02  0.1890638E+02  0.3572588E+03
Ar  465  0.1080769E+02  0.1080769E+02  0.2205543E+02  0.1525924E+03
Ar  466  0.1324430E+02  0.1324430E+02  0.2156214E+02  0.9531936E+02
Ar  467  0.1358709E+02  0.1081626E+02  0.2465536E+02  0.3417083E+02
Ar  468  0.1081626E+02  0.1358709E+02  0.2465536E+02  0.3417083E+02
Ar  469  0.1106073E+02  0.1106073E+02  0.2704203E+02  0.2148395E+03
Ar  470  0.1350146E+02  0.1350146E+02  0.2734541E+02  0.6744121E+03
Ar  471  0.1345504E+02  0.1042851E+02  0.3007842E+02  0.2365898E+03
Ar  472  0.1042851E+02  0.1345504E+02  0.3007842E+02  0.2365898E+03
Ar  473  0.1053740E+02  0.1053740E+02  0.3268424E+02  0.2067465E+03
Ar  474  0.1327405E+02  0.1327405E+02  0.3249126E+02  0.2033745E+03
Ar  475  0.1352308E+02  0.1088401E+02  0.3540378E+02  0.1652574E+03
Ar  476  0.1088401E+02  0.1352308E+02  0.3540378E+02  0.1652574E+03
Ar  477  0.1049294E+02  0.1623907E+02  0.1420588E+00  0.1592686E+03
Ar  478  0.1351057E+02  0.1873719E+02  0.3765912E+02  0.1161603E+03
Ar  479  0.1311323E+02  0.1584329E+02  0.2970241E+01  0.1229160E+03
Ar  480  0.1043168E+02  0.1922038E+02  0.2511159E+01  0.1028683E+03
Ar  481  0.1029974E+02  0.1630275E+02  0.4839996E+01  0.1917437E+03
Ar  482  0.1329775E+02  0.1875361E+02  0.5275583E+01  0.2763787E+02
Ar  483  0.1360184E+02  0.1638468E+02  0.7735431E+01  0.1886947E+03
Ar  484  0.1080627E+02  0.1908361E+02  0.7944142E+01  0.4084810E+01
Ar  485  0.1014779E+02  0.1660401E+02  0.1014779E+02  0.4458654E+02
Ar  486  0.1356048E+02  0.1890638E+02  0.1065557E+02  0.3572588E+03
Ar  487  0.1314809E+02  0.1598811E+02  0.1314809E+02  0.2385004E+03
Ar  488  0.1065557E+02  0.1890638E+02  0.1356048E+02  0.3572588E+03
Ar  489  0.1046675E+02  0.1589772E+02  0.1589772E+02  0.4804605E+02
Ar  490  0.1339215E+02  0.1892674E+02  0.1584328E+02  0.2571232E+02
Ar  491  0.1339215E+02  0.1584328E+02  0.1892674E+02  0.2571232E+02
Ar  492  0.1036187E+02  0.1836621E+02  0.1836621E+02  0.1556603E+03
Ar  493  0.1051135E+02  0.1572536E+02  0.2181013E+02  0.3231360E+01
Ar  494  0.1295578E+02  0.1862957E+02  0.2180240E+02  0.4765237E+02
Ar  495  0.1335288E+02  0.1611021E+02  0.2459171E+02  0.7129902E+02
Ar  496  0.1080941E+02  0.1885863E+02  0.2441350E+02  0.7973734E+02
Ar  497  0.1078694E+02  0.1577102E+02  0.2738680E+02  0.1299702E+03
Ar  498  0.1335983E+02  0.1861380E+02  0.2718166E+02  0.3021761E+02
Ar  499  0.1315600E+02  0.1588372E+02  0.3009996E+02  0.1627960E+03
Ar  500  0.1016199E+02  0.1836833E+02  0.3002286E+02  0.8017347E+02
Ar  501  0.1050934E+02  0.1606816E+02  0.3277657E+02  0.5355122E+02
Ar  502  0.1360832E+02  0.1861571E+02  0.3250221E+02  0.9408488E+02
Ar  503  0.1355327E+02  0.1617227E+02  0.3510254E+02  0.2044220E+03
Ar  504  0.1073178E+02  0.1886439E+02  0.3529482E+02  0.2495822E+02
Ar  505  0.1074348E+02  0.2162040E+02  0.3742085E+02  0.7332634E+02
Ar  506  0.1338515E+02  0.2428645E+02  0.3745461E+02  0.5770894E+02
Ar  507  0.1367295E+02  0.2154151E+02  0.2338338E+01  0.1622742E+03
Ar  508  0.1091708E+02  0.2418604E+02  0.2394536E+01  0.2680831E+03
Ar  509  0.1053683E+02  0.2197707E+02  0.5503605E+01  0.5992594E+02
Ar  510  0.1344609E+02  0.2458186E+02  0.5078085E+01  0.8673695E+02
Ar  511  0.1325143E+02  0.2206110E+02  0.7958034E+01  0.8157004E+02
Ar  512  0.1065090E+02  0.2495075E+02  0.8063986E+01  0.3011180E+03
Ar  513  0.1080769E+02  0.2205543E+02  0.1080769E+02  0.1525924E+03
Ar  514  0.1358709E+02  0.2465536E+02  0.1081626E+02  0.3417083E+02
Ar  515  0.1324430E+02  0.2156214E+02  0.1324430E+02  0.9531936E+02
Ar  516  0.1081626E+02  0.2465536E+02  0.1358709E+02  0.3417083E+02
Ar  517  0.1051135E+02  0.2181013E+02  0.1572536E+02  0.3231360E+01
Ar  518  0.1335288E+02  0.2459171E+02  0.1611021E+02  0.7129902E+02
Ar  519  0.1295578E+02  0.2180240E+02  0.1862957E+02  0.4765237E+02
Ar  520  0.1080941E+02  0.2441350E+02  0.1885863E+02  0.7973734E+02
Ar  521  0.1107391E+02  0.2156537E+02  0.2156537E+02  0.4496798E+02
Ar  522  0.1340099E+02  0.2428573E+02  0.2149812E+02  0.3681142E+02
Ar  523  0.1340099E+02  0.2149812E+02  0.2428573E+02  0.3681142E+02
Ar  524  0.1023134E+02  0.2444718E+02  0.2444718E+02  0.5324718E+02
Ar  525  0.1045827E+02  0.2130579E+02  0.2744233E+02  0.5783910E+02
Ar  526  0.1343320E+02  0.2400235E+02  0.2710261E+02  0.2927968E+02
Ar  527  0.1317421E+02  0.2096302E+02  0.2971613E+02  0.2580547E+02
Ar  528  0.1070169E+02  0.2402179E+02  0.2988636E+02  0.5090567E+02
Ar  529  0.1075505E+02  0.2127267E+02  0.3250802E+02  0.7497121E+02
Ar  530  0.1378071E+02  0.2452184E+02  0.3228576E+02  0.3070863E+03
Ar  531  0.1359472E+02  0.2145047E+02  0.3505330E+02  0.3851517E+02
Ar  532  0.1061593E+02  0.2445877E+02  0.3482988E+02  0.4636080E+02
Ar  533  0.1091863E+02  0.2685148E+02  0.3773467E+02  0.4459845E+02
Ar  534  0.1336350E+02  0.2974115E+02  0.3773291E+02  0.1409733E+02
Ar  535  0.1348003E+02  0.2732687E+02  0.2632282E+01  0.8725476E+02
Ar  536  0.1093204E+02  0.2992647E+02  0.2558823E+01  0.1600097E+03
Ar  537  0.1072516E+02  0.2692250E+02  0.5083792E+01  0.3951322E+02
Ar  538  0.1290899E+02  0.2967792E+02  0.5296004E+01  0.1925477E+02
Ar  539  0.1317720E+02  0.2714633E+02  0.7843981E+01  0.7322660E+02
Ar  540  0.1040846E+02  0.2991850E+02  0.7866342E+01  0.1651533E+03
Ar  541  0.1106073E+02  0.2704203E+02  0.1106073E+02  0.2148395E+03
Ar  542  0.1345504E+02  0.3007842E+02  0.1042851E+02  0.2365898E+03
Ar  543  0.1350146E+02  0.2734541E+02  0.1350146E+02  0.6744121E+03
Ar  544  0.1042851E+02  0.3007842E+02  0.1345504E+02  0.2365898E+03
Ar  545  0.1078694E+02  0.2738680E+02  0.1577102E+02  0.1299702E+03
Ar  546  0.1315600E+02  0.3009996E+02  0.1588372E+02  0.1627960E+03
Ar  547  0.1335983E+02  0.2718166E+02  0.1861380E+02  0.3021761E+02
Ar  548  0.1016199E+02  0.3002286E+02  0.1836833E+02  0.8017347E+02
Ar  549  0.1045827E+02  0.2744233E+02  0.2130579E+02  0.5783910E+02
Ar  550  0.1317421E+02  0.2971613E+02  0.2096302E+02  0.2580547E+02
Ar  551  0.1343320E+02  0.2710261E+02  0.2400235E+02  0.2927968E+02
Ar  552  0.1070169E+02  0.2988636E+02  0.2402179E+02  0.5090567E+02
Ar  553  0.1109995E+02  0.2683736E+02  0.2683736E+02  0.9080543E+02
Ar  554  0.1362204E+02  0.2990986E+02  0.2706002E+02  0.1585655E+03
Ar  555  0.1362204E+02  0.2706002E+02  0.2990986E+02  0.1585655E+03
Ar  556  0.1057211E+02  0.2928049E+02  0.2928049E+02  0.2188487E+03
Ar  557  0.1066693E+02  0.2716404E+02  0.3262955E+02  0.1295118E+03
Ar  558  0.1355116E+02  0.2959335E+02  0.3238788E+02  0.1847035E+02
Ar  559  0.1326256E+02  0.2687433E+02  0.3493527E+02  0.1266459E+03
Ar  560  0.1072914E+02  0.2974770E+02  0.3501426E+02  0.1675846E+02
Ar  561  0.1067663E+02  0.3250722E+02  0.2119771E-03  0.9112141E+02
Ar  562  0.1356822E+02  0.3502307E+02  0.2203951E+00  0.2109394E+03
Ar  563  0.1324132E+02  0.3253363E+02  0.2438962E+01  0.3978409E+02
Ar  564  0.1067370E+02  0.3517063E+02  0.2487897E+01  0.7915699E+02
Ar  565  0.1044126E+02  0.3248727E+02  0.5247923E+01  0.2174787E+03
Ar  566  0.1364700E+02  0.3523956E+02  0.5244081E+01  0.2225330E+03
Ar  567  0.1345131E+02  0.3289594E+02  0.7764362E+01  0.2819751E+03
Ar  568  0.1070047E+02  0.3505857E+02  0.8105136E+01  0.3321111E+03
Ar  569  0.1053740E+02  0.3268424E+02  0.1053740E+02  0.2067465E+03
Ar  570  0.1352308E+02  0.3540378E+02  0.1088401E+02  0.1652574E+03
Ar  571  0.1327405E+02  0.3249126E+02  0.1327405E+02  0.2033745E+03
Ar  572  0.1088401E+02  0.3540378E+02  0.1352308E+02  0.1652574E+03
Ar  573  0.1050934E+02  0.3277657E+02  0.1606816E+02  0.5355122E+02
Ar  574  0.1355327E+02  0.3510254E+02  0.1617227E+02  0.2044220E+03
Ar  575  0.1360832E+02  0.3250221E+02  0.1861571E+02  0.9408488E+02
Ar  576  0.1073178E+02  0.3529482E+02  0.1886439E+02  0.2495822E+02
Ar  577  0.1075505E+02  0.3250802E+02  0.2127267E+02  0.7497121E+02
Ar  578  0.1359472E+02  0.3505330E+02  0.2145047E+02  0.3851517E+02
Ar  579  0.1378071E+02  0.3228576E+02  0.2452184E+02  0.3070863E+03
Ar  580  0.1061593E+02  0.3482988E+02  0.2445877E+02  0.4636080E+02
Ar  581  0.1066693E+02  0.3262955E+02  0.2716404E+02  0.1295118E+03
Ar  582  0.1326256E+02  0.3493527E+02  0.2687433E+02  0.1266459E+03
Ar  583  0.1355116E+02  0.3238788E+02  0.2959335E+02  0.1847035E+02
Ar  584  0.1072914E+02  0.3501426E+02  0.2974770E+02  0.1675846E+02
Ar  585  0.1106198E+02  0.3195394E+02  0.3195394E+02  0.1554965E+02
Ar  586  0.1322875E+02  0.3537758E+02  0.3245008E+02  0.2988244E+02
Ar  587  0.1322875E+02  0.3245008E+02  0.3537758E+02  0.2988244E+02
Ar  588  0.1074555E+02  0.3518623E+02  0.3518623E+02  0.7613402E+01
Ar  589  0.1662171E+02  0.3944815E-01  0.3944815E-01  0.1235085E+03
Ar  590  0.1909567E+02  0.2693690E+01  0.3748730E+02  0.2540463E+02
Ar  591  0.1909567E+02  0.3748730E+02  0.2693690E+01  0.2540463E+02
Ar  592  0.1666681E+02  0.2670780E+01  0.2670780E+01  0.1367084E+03
Ar  593  0.1638321E+02  0.3773638E+02  0.5558291E+01  0.6934222E+02
Ar  594  0.1909438E+02  0.2743032E+01  0.5136806E+01  0.1098816E+03
Ar  595  0.1927200E+02  0.3753633E+02  0.7823666E+01  0.1769274E+02
Ar  596  0.1633983E+02  0.2819243E+01  0.7450290E+01  0.3078530E+03
Ar  597  0.1623907E+02  0.1420588E+00  0.1049294E+02  0.1592686E+03
Ar  598  0.1922038E+02  0.2511159E+01  0.1043168E+02  0.1028683E+03
Ar  599  0.1873719E+02  0.3765912E+02  0.1351057E+02  0.1161603E+03
Ar  600  0.1584329E+02  0.2970241E+01  0.1311323E+02  0.1229160E+03
Ar  601  0.1604035E+02  0.2481011E-01  0.1604035E+02  0.2166693E+03
Ar  602  0.1900016E+02  0.2836532E+01  0.1649906E+02  0.7438323E+01
Ar  603  0.1901527E+02  0.3105398E-01  0.1901527E+02  0.5416843E+02
Ar  604  0.1649906E+02  0.2836532E+01  0.1900016E+02  0.7438323E+01
Ar  605  0.1616256E+02  0.3769334E+02  0.2148700E+02  0.1021994E+03
Ar  606  0.1887912E+02  0.2756771E+01  0.2178507E+02  0.1527047E+03
Ar  607  0.1853877E+02  0.3749077E+02  0.2434879E+02  0.1782395E+03
Ar  608  0.1641994E+02  0.2685411E+01  0.2432846E+02  0.9251825E+02
Ar  609  0.1608508E+02  0.3724806E+02  0.2715628E+02  0.7409820E+02
Ar  610  0.1873262E+02  0.2548822E+01  0.2717366E+02  0.1593154E+03
Ar  611  0.1896747E+02  0.3764649E+02  0.2962821E+02  0.5968570E+02
Ar  612  0.1620966E+02  0.2326905E+01  0.2956137E+02  0.1264318E+03
Ar  613  0.1632687E+02  0.3755594E+02  0.3249786E+02  0.1808789E+03
Ar  614  0.1886054E+02  0.2621429E+01  0.3227210E+02  0.1004091E+03
Ar  615  0.1913409E+02  0.6960859E-01  0.3523248E+02  0.3277678E+02
Ar  616  0.1646461E+02  0.2510948E+01  0.3476759E+02  0.2322643E+03
Ar  617  0.1638321E+02  0.5558291E+01  0.3773638E+02  0.6934222E+02
Ar  618  0.1927200E+02  0.7823666E+01  0.3753633E+02  0.1769274E+02
Ar  619  0.1909438E+02  0.5136806E+01  0.2743032E+01  0.1098816E+03
Ar  620  0.1633983E+02  0.7450290E+01  0.2819243E+01  0.3078530E+03
Ar  621  0.1636276E+02  0.5255149E+01  0.5255149E+01  0.1322325E+03
Ar  622  0.1973436E+02  0.8027004E+01  0.4973814E+01  0.1275915E+03
Ar  623  0.1973436E+02  0.4973814E+01  0.8027004E+01  0.1275915E+03
Ar  624  0.1666684E+02  0.7568511E+01  0.7568511E+01  0.2205627E+03
Ar  625  0.1630275E+02  0.4839996E+01  0.1029974E+02  0.1917437E+03
Ar  626  0.1908361E+02  0.7944142E+01  0.1080627E+02  0.4084810E+01
Ar  627  0.1875361E+02  0.5275583E+01  0.1329775E+02  0.2763787E+02
Ar  628  0.1638468E+02  0.7735431E+01  0.1360184E+02  0.1886947E+03
Ar  629  0.1650846E+02  0.5408486E+01  0.1650846E+02  0.7568643E+03
Ar  630  0.1941694E+02  0.8060233E+01  0.1616983E+02  0.1053390E+03
Ar  631  0.1910554E+02  0.5509689E+01  0.1910554E+02  0.1789306E+03
Ar  632  0.1616983E+02  0.8060233E+01  0.1941694E+02  0.1053390E+03
Ar  633  0.1623553E+02  0.5393492E+01  0.2194200E+02  0.3253832E+02
Ar  634  0.1879331E+02  0.8180818E+01  0.2202948E+02  0.3370420E+03
Ar  635  0.1910669E+02  0.5210795E+01  0.2438953E+02  0.1117761E+03
Ar  636  0.1587102E+02  0.8144376E+01  0.2449872E+02  0.6768247E+02
Ar  637  0.1601786E+02  0.5274047E+01  0.2707725E+02  0.4901447E+02
Ar  638  0.1852337E+02  0.7903044E+01  0.2714480E+02  0.1818962E+03
Ar  639  0.1882141E+02  0.5339739E+01  0.2994190E+02  0.5813855E+02
Ar  640  0.1594135E+02  0.7664551E+01  0.3000917E+02  0.6148824E+02
Ar  641  0.1592324E+02  0.4912893E+01  0.3230682E+02  0.4389662E+02
Ar  642  0.1875921E+02  0.7705001E+01  0.3293059E+02  0.2953672E+03
Ar  643  0.1885605E+02  0.5209293E+01  0.3509104E+02  0.4812018E+02
Ar  644  0.1622461E+02  0.8004011E+01  0.3529098E+02  0.6184908E+02
Ar  645  0.1623907E+02  0.1049294E+02  0.1420588E+00  0.1592686E+03
Ar  646  0.1873719E+02  0.1351057E+02  0.3765912E+02  0.1161603E+03
Ar  647  0.1922038E+02  0.1043168E+02  0.2511159E+01  0.1028683E+03
Ar  648  0.1584329E+02  0.1311323E+02  0.2970241E+01  0.1229160E+03
Ar  649  0.1630275E+02  0.1029974E+02  0.4839996E+01  0.1917437E+03
Ar  650  0.1875361E+02  0.1329775E+02  0.5275583E+01  0.2763787E+02
Ar  651  0.1908361E+02  0.1080627E+02  0.7944142E+01  0.4084810E+01
Ar  652  0.1638468E+02  0.1360184E+02  0.7735431E+01  0.1886947E+03
Ar  653  0.1660401E+02  0.1014779E+02  0.1014779E+02  0.4458654E+02
Ar  654  0.1890638E+02  0.1356048E+02  0.1065557E+02  0.3572588E+03
Ar  655  0.1890638E+02  0.1065557E+02  0.1356048E+02  0.3572588E+03
Ar  656  0.1598811E+02  0.1314809E+02  0.1314809E+02  0.2385004E+03
Ar  657  0.1589772E+02  0.1046675E+02  0.1589772E+02  0.4804605E+02
Ar  658  0.1892674E+02  0.1339215E+02  0.1584328E+02  0.2571232E+02
Ar  659  0.1836621E+02  0.1036187E+02  0.1836621E+02  0.1556603E+03
Ar  660  0.1584328E+02  0.1339215E+02  0.1892674E+02  0.2571232E+02
Ar  661  0.1572536E+02  0.1051135E+02  0.2181013E+02  0.3231360E+01
Ar  662  0.1862957E+02  0.1295578E+02  0.2180240E+02  0.4765237E+02
Ar  663  0.1885863E+02  0.1080941E+02  0.2441350E+02  0.7973734E+02
Ar  664  0.1611021E+02  0.1335288E+02  0.2459171E+02  0.7129902E+02
Ar  665  0.1577102E+02  0.1078694E+02  0.2738680E+02  0.1299702E+03
Ar  666  0.1861380E+02  0.1335983E+02  0.2718166E+02  0.3021761E+02
Ar  667  0.1836833E+02  0.1016199E+02  0.3002286E+02  0.8017347E+02
Ar  668  0.1588372E+02  0.1315600E+02  0.3009996E+02  0.1627960E+03
Ar  669  0.1606816E+02  0.1050934E+02  0.3277657E+02  0.5355122E+02
Ar  670  0.1861571E+02  0.1360832E+02  0.3250221E+02  0.9408488E+02
Ar  671  0.1886439E+02  0.1073178E+02  0.3529482E+02  0.2495822E+02
Ar  672  0.1617227E+02  0.1355327E+02  0.3510254E+02  0.2044220E+03
Ar  673  0.1604035E+02  0.1604035E+02  0.2481011E-01  0.2166693E+03
Ar  674  0.1901527E+02  0.1901527E+02  0.3105398E-01  0.5416843E+02
Ar  675  0.1900016E+02  0.1649906E+02  0.2836532E+01  0.7438323E+01
Ar  676  0.1649906E+02  0.1900016E+02  0.2836532E+01  0.7438323E+01
Ar  677  0.1650846E+02  0.1650846E+02  0.5408486E+01  0.7568643E+03
Ar  678  0.1910554E+02  0.1910554E+02  0.5509689E+01  0.1789306E+03
Ar  679  0.1941694E+02  0.1616983E+02  0.8060233E+01  0.1053390E+03
Ar  680  0.1616983E+02  0.1941694E+02  0.8060233E+01  0.1053390E+03
Ar  681  0.1589772E+02  0.1589772E+02  0.1046675E+02  0.4804605E+02
Ar  682  0.1836621E+02  0.1836621E+02  0.1036187E+02  0.1556603E+03
Ar  683  0.1892674E+02  0.1584328E+02  0.1339215E+02  0.2571232E+02
Ar  684  0.1584328E+02  0.1892674E+02  0.1339215E+02  0.2571232E+02
Ar  685  0.1547888E+02  0.1547888E+02  0.1547888E+02  0.4288586E+01
Ar  686  0.1882276E+02  0.1882276E+02  0.1605002E+02  0.1063237E+02
Ar  687  0.1882276E+02  0.1605002E+02  0.1882276E+02  0.1063237E+02
Ar  688  0.1605002E+02  0.1882276E+02  0.1882276E+02  0.1063237E+02
Ar  689  0.1593750E+02  0.1593750E+02  0.2212450E+02  0.2137475E+03
Ar  690  0.1837569E+02  0.1837569E+02  0.2165703E+02  0.5874624E+01
Ar  691  0.1891641E+02  0.1596004E+02  0.2442303E+02  0.1754001E+03
Ar  692  0.1596004E+02  0.1891641E+02  0.2442303E+02  0.1754001E+03
Ar  693  0.1615167E+02  0.1615167E+02  0.2702453E+02  0.3182223E+02
Ar  694  0.1890296E+02  0.1890296E+02  0.2726167E+02  0.7259964E+02
Ar  695  0.1863924E+02  0.1620125E+02  0.2977572E+02  0.1501419E+03
Ar  696  0.1620125E+02  0.1863924E+02  0.2977572E+02  0.1501419E+03
Ar  697  0.1614246E+02  0.1614246E+02  0.3244677E+02  0.5745890E+02
Ar  698  0.1855565E+02  0.1855565E+02  0.3222506E+02  0.2838085E+02
Ar  699  0.1866000E+02  0.1618121E+02  0.3511532E+02  0.9284368E+02
Ar  700  0.1618121E+02  0.1866000E+02  0.3511532E+02  0.9284368E+02
Ar  701  0.1616256E+02  0.2148700E+02  0.3769334E+02  0.1021994E+03
Ar  702  0.1853877E+02  0.2434879E+02  0.3749077E+02  0.1782395E+03
Ar  703  0.1887912E+02  0.2178507E+02  0.2756771E+01  0.1527047E+03
Ar  704  0.1641994E+02  0.2432846E+02  0.2685411E+01  0.9251825E+02
Ar  705  0.1623553E+02  0.2194200E+02  0.5393492E+01  0.3253832E+02
Ar  706  0.1910669E+02  0.2438953E+02  0.5210795E+01  0.1117761E+03
Ar  707  0.1879331E+02  0.2202948E+02  0.8180818E+01  0.3370420E+03
Ar  708  0.1587102E+02  0.2449872E+02  0.8144376E+01  0.6768247E+02
Ar  709  0.1572536E+02  0.2181013E+02  0.1051135E+02  0.3231360E+01
Ar  710  0.1885863E+02  0.2441350E+02  0.1080941E+02  0.7973734E+02
Ar  711  0.1862957E+02  0.2180240E+02  0.1295578E+02  0.4765237E+02
Ar  712  0.1611021E+02  0.2459171E+02  0.1335288E+02  0.7129902E+02
Ar  713  0.1593750E+02  0.2212450E+02  0.1593750E+02  0.2137475E+03
Ar  714  0.1891641E+02  0.2442303E+02  0.1596004E+02  0.1754001E+03
Ar  715  0.1837569E+02  0.2165703E+02  0.1837569E+02  0.5874624E+01
Ar  716  0.1596004E+02  0.2442303E+02  0.1891641E+02  0.1754001E+03
Ar  717  0.1542823E+02  0.2139161E+02  0.2139161E+02  0.5633885E+02
Ar  718  0.1870245E+02  0.2418777E+02  0.2130920E+02  0.9389469E+02
Ar  719  0.1870245E+02  0.2130920E+02  0.2418777E+02  0.9389469E+02
Ar  720  0.1602731E+02  0.2384375E+02  0.2384375E+02  0.8879738E+02
Ar  721  0.1603208E+02  0.2134589E+02  0.2751126E+02  0.5584673E+02
Ar  722  0.1869258E+02  0.2399863E+02  0.2705835E+02  0.1197731E+03
Ar  723  0.1867485E+02  0.2127552E+02  0.2975056E+02  0.2960802E+03
Ar  724  0.1631439E+02  0.2444049E+02  0.2987941E+02  0.2844026E+03
Ar  725  0.1588493E+02  0.2132253E+02  0.3238534E+02  0.1166332E+03
Ar  726  0.1862195E+02  0.2388365E+02  0.3238911E+02  0.3147311E+03
Ar  727  0.1861696E+02  0.2165351E+02  0.3514825E+02  0.6293069E+02
Ar  728  0.1606463E+02  0.2442440E+02  0.3491442E+02  0.4723539E+02
Ar  729  0.1608508E+02  0.2715628E+02  0.3724806E+02  0.7409820E+02
Ar  730  0.1896747E+02  0.2962821E+02  0.3764649E+02  0.5968570E+02
Ar  731  0.1873262E+02  0.2717366E+02  0.2548822E+01  0.1593154E+03
Ar  732  0.1620966E+02  0.2956137E+02  0.2326905E+01  0.1264318E+03
Ar  733  0.1601786E+02  0.2707725E+02  0.5274047E+01  0.4901447E+02
Ar  734  0.1882141E+02  0.2994190E+02  0.5339739E+01  0.5813855E+02
Ar  735  0.1852337E+02  0.2714480E+02  0.7903044E+01  0.1818962E+03
Ar  736  0.1594135E+02  0.3000917E+02  0.7664551E+01  0.6148824E+02
Ar  737  0.1577102E+02  0.2738680E+02  0.1078694E+02  0.1299702E+03
Ar  738  0.1836833E+02  0.3002286E+02  0.1016199E+02  0.8017347E+02
Ar  739  0.1861380E+02  0.2718166E+02  0.1335983E+02  0.3021761E+02
Ar  740  0.1588372E+02  0.3009996E+02  0.1315600E+02  0.1627960E+03
Ar  741  0.1615167E+02  0.2702453E+02  0.1615167E+02  0.3182223E+02
Ar  742  0.1863924E+02  0.2977572E+02  0.1620125E+02  0.1501419E+03
Ar  743  0.1890296E+02  0.2726167E+02  0.1890296E+02  0.7259964E+02
Ar  744  0.1620125E+02  0.2977572E+02  0.1863924E+02  0.1501419E+03
Ar  745  0.1603208E+02  0.2751126E+02  0.2134589E+02  0.5584673E+02
Ar  746  0.1867485E+02  0.2975056E+02  0.2127552E+02  0.2960802E+03
Ar  747  0.1869258E+02  0.2705835E+02  0.2399863E+02  0.1197731E+03
Ar  748  0.1631439E+02  0.2987941E+02  0.2444049E+02  0.2844026E+03
Ar  749  0.1618965E+02  0.2738274E+02  0.2738274E+02  0.7561614E+02
Ar  750  0.1881390E+02  0.2993941E+02  0.2706541E+02  0.3834606E+02
Ar  751  0.1881390E+02  0.2706541E+02  0.2993941E+02  0.3834606E+02
Ar  752  0.1598652E+02  0.3025516E+02  0.3025516E+02  0.7401045E+02
Ar  753  0.1633604E+02  0.2722176E+02  0.3236627E+02  0.7271537E+02
Ar  754  0.1917646E+02  0.2971001E+02  0.3218956E+02  0.1184521E+03
Ar  755  0.1920593E+02  0.2739769E+02  0.3502965E+02  0.1498948E+03
Ar  756  0.1666104E+02  0.2985362E+02  0.3501353E+02  0.1420061E+03
Ar  757  0.1632687E+02  0.3249786E+02  0.3755594E+02  0.1808789E+03
Ar  758  0.1913409E+02  0.3523248E+02  0.6960859E-01  0.3277678E+02
Ar  759  0.1886054E+02  0.3227210E+02  0.2621429E+01  0.1004091E+03
Ar  760  0.1646461E+02  0.3476759E+02  0.2510948E+01  0.2322643E+03
Ar  761  0.1592324E+02  0.3230682E+02  0.4912893E+01  0.4389662E+02
Ar  762  0.1885605E+02  0.3509104E+02  0.5209293E+01  0.4812018E+02
Ar  763  0.1875921E+02  0.3293059E+02  0.7705001E+01  0.2953672E+03
Ar  764  0.1622461E+02  0.3529098E+02  0.8004011E+01  0.6184908E+02
Ar  765  0.1606816E+02  0.3277657E+02  0.1050934E+02  0.5355122E+02
Ar  766  0.1886439E+02  0.3529482E+02  0.1073178E+02  0.2495822E+02
Ar  767  0.1861571E+02  0.3250221E+02  0.1360832E+02  0.9408488E+02
Ar  768  0.1617227E+02  0.3510254E+02  0.1355327E+02  0.2044220E+03
Ar  769  0.1614246E+02  0.3244677E+02  0.1614246E+02  0.5745890E+02
Ar  770  0.1866000E+02  0.3511532E+02  0.1618121E+02  0.9284368E+02
Ar  771  0.1855565E+02  0.3222506E+02  0.1855565E+02  0.2838085E+02
Ar  772  0.1618121E+02  0.3511532E+02  0.1866000E+02  0.9284368E+02
Ar  773  0.1588493E+02  0.3238534E+02  0.2132253E+02  0.1166332E+03
Ar  774  0.1861696E+02  0.3514825E+02  0.2165351E+02  0.6293069E+02
Ar  775  0.1862195E+02  0.3238911E+02  0.2388365E+02  0.3147311E+03
Ar  776  0.1606463E+02  0.3491442E+02  0.2442440E+02  0.4723539E+02
Ar  777  0.1633604E+02  0.3236627E+02  0.2722176E+02  0.7271537E+02
Ar  778  0.1920593E+02  0.3502965E+02  0.2739769E+02  0.1498948E+03
Ar  779  0.1917646E+02  0.3218956E+02  0.2971001E+02  0.1184521E+03
Ar  780  0.1666104E+02  0.3501353E+02  0.2985362E+02  0.1420061E+03
Ar  781  0.1615220E+02  0.3281928E+02  0.3281928E+02  0.1232730E+01
Ar  782  0.1914145E+02  0.3522568E+02  0.3259489E+02  0.2342881E+03
Ar  783  0.1914145E+02  0.3259489E+02  0.3522568E+02  0.2342881E+03
Ar  784  0.1571715E+02  0.3507158E+02  0.3507158E+02  0.2082838E+03
Ar  785  0.2208908E+02  0.5954890E-01  0.5954890E-01  0.2531181E+02
Ar  786  0.2436040E+02  0.3146625E+01  0.1508391E+00  0.8551115E+02
Ar  787  0.2436040E+02  0.1508391E+00  0.3146625E+01  0.8551115E+02
Ar  788  0.2209683E+02  0.2691911E+01  0.2691911E+01  0.1574357E+03
Ar  789  0.2156589E+02  0.2589001E-01  0.5447106E+01  0.4978755E+02
Ar  790  0.2445043E+02  0.2520422E+01  0.5636741E+01  0.4742327E+02
Ar  791  0.2443879E+02  0.3752048E+02  0.8033207E+01  0.9773013E+02
Ar  792  0.2171086E+02  0.2234058E+01  0.8131089E+01  0.1161051E+03
Ar  793  0.2162040E+02  0.3742085E+02  0.1074348E+02  0.7332634E+02
Ar  794  0.2418604E+02  0.2394536E+01  0.1091708E+02  0.2680831E+03
Ar  795  0.2428645E+02  0.3745461E+02  0.1338515E+02  0.5770894E+02
Ar  796  0.2154151E+02  0.2338338E+01  0.1367295E+02  0.1622742E+03
Ar  797  0.2148700E+02  0.3769334E+02  0.1616256E+02  0.1021994E+03
Ar  798  0.2432846E+02  0.2685411E+01  0.1641994E+02  0.9251825E+02
Ar  799  0.2434879E+02  0.3749077E+02  0.1853877E+02  0.1782395E+03
Ar  800  0.2178507E+02  0.2756771E+01  0.1887912E+02  0.1527047E+03
Ar  801  0.2161315E+02  0.3713838E+02  0.2161315E+02  0.4735877E+02
Ar  802  0.2443386E+02  0.2282909E+01  0.2158258E+02  0.5185761E+02
Ar  803  0.2444980E+02  0.3734803E+02  0.2444980E+02  0.6125535E+02
Ar  804  0.2158258E+02  0.2282909E+01  0.2443386E+02  0.5185761E+02
Ar  805  0.2156584E+02  0.3765458E+02  0.2715691E+02  0.8751220E+02
Ar  806  0.2402622E+02  0.2332991E+01  0.2700591E+02  0.6121477E+02
Ar  807  0.2455647E+02  0.3772984E+02  0.2993451E+02  0.3702648E+02
Ar  808  0.2151642E+02  0.2697018E+01  0.2986355E+02  0.7673491E+01
Ar  809  0.2158185E+02  0.1261191E+00  0.3268656E+02  0.1994846E+02
Ar  810  0.2456801E+02  0.2618133E+01  0.3267643E+02  0.7279042E+02
Ar  811  0.2461173E+02  0.1065383E-01  0.3515274E+02  0.1825509E+03
Ar  812  0.2163363E+02  0.2633872E+01  0.3497680E+02  0.1382739E+03
Ar  813  0.2156589E+02  0.5447106E+01  0.2589001E-01  0.4978755E+02
Ar  814  0.2443879E+02  0.8033207E+01  0.3752048E+02  0.9773013E+02
Ar  815  0.2445043E+02  0.5636741E+01  0.2520422E+01  0.4742327E+02
Ar  816  0.2171086E+02  0.8131089E+01  0.2234058E+01  0.1161051E+03
Ar  817  0.2196484E+02  0.5206500E+01  0.5206500E+01  0.3307253E+03
Ar  818  0.2439514E+02  0.7909900E+01  0.5206897E+01  0.3630933E+03
Ar  819  0.2439514E+02  0.5206897E+01  0.7909900E+01  0.3630933E+03
Ar  820  0.2196710E+02  0.7986462E+01  0.7986462E+01  0.2339425E+03
Ar  821  0.2197707E+02  0.5503605E+01  0.1053683E+02  0.5992594E+02
Ar  822  0.2495075E+02  0.8063986E+01  0.1065090E+02  0.3011180E+03
Ar  823  0.2458186E+02  0.5078085E+01  0.1344609E+02  0.8673695E+02
Ar  824  0.2206110E+02  0.7958034E+01  0.1325143E+02  0.8157004E+02
Ar  825  0.2194200E+02  0.5393492E+01  0.1623553E+02  0.3253832E+02
Ar  826  0.2449872E+02  0.8144376E+01  0.1587102E+02  0.6768247E+02
Ar  827  0.2438953E+02  0.5210795E+01  0.1910669E+02  0.1117761E+03
Ar  828  0.2202948E+02  0.8180818E+01  0.1879331E+02  0.3370420E+03
Ar  829  0.2131815E+02  0.5317482E+01  0.2131815E+02  0.1181398E+03
Ar  830  0.2480334E+02  0.8174333E+01  0.2148245E+02  0.7197175E+02
Ar  831  0.2404649E+02  0.5051051E+01  0.2404649E+02  0.9990290E+02
Ar  832  0.2148245E+02  0.8174333E+01  0.2480334E+02  0.7197175E+02
Ar  833  0.2150045E+02  0.5149355E+01  0.2713039E+02  0.5995560E+02
Ar  834  0.2403274E+02  0.7680429E+01  0.2707225E+02  0.3457834E+02
Ar  835  0.2425055E+02  0.5040078E+01  0.2941026E+02  0.3175290E+02
Ar  836  0.2135968E+02  0.7512216E+01  0.2980429E+02  0.1553608E+03
Ar  837  0.2166268E+02  0.5416555E+01  0.3252292E+02  0.2042705E+01
Ar  838  0.2430210E+02  0.8233474E+01  0.3232246E+02  0.2765780E+02
Ar  839  0.2447345E+02  0.5260049E+01  0.3517834E+02  0.5495213E+02
Ar  840  0.2198950E+02  0.7804767E+01  0.3519983E+02  0.5312322E+02
Ar  841  0.2162040E+02  0.1074348E+02  0.3742085E+02  0.7332634E+02
Ar  842  0.2428645E+02  0.1338515E+02  0.3745461E+02  0.5770894E+02
Ar  843  0.2418604E+02  0.1091708E+02  0.2394536E+01  0.2680831E+03
Ar  844  0.2154151E+02  0.1367295E+02  0.2338338E+01  0.1622742E+03
Ar  845  0.2197707E+02  0.1053683E+02  0.5503605E+01  0.5992594E+02
Ar  846  0.2458186E+02  0.1344609E+02  0.5078085E+01  0.8673695E+02
Ar  847  0.2495075E+02  0.1065090E+02  0.8063986E+01  0.3011180E+03
Ar  848  0.2206110E+02  0.1325143E+02  0.7958034E+01  0.8157004E+02
Ar  849  0.2205543E+02  0.1080769E+02  0.1080769E+02  0.1525924E+03
Ar  850  0.2465536E+02  0.1358709E+02  0.1081626E+02  0.3417083E+02
Ar  851  0.2465536E+02  0.1081626E+02  0.1358709E+02  0.3417083E+02
Ar  852  0.2156214E+02  0.1324430E+02  0.1324430E+02  0.9531936E+02
Ar  853  0.2181013E+02  0.1051135E+02  0.1572536E+02  0.3231360E+01
Ar  854  0.2459171E+02  0.1335288E+02  0.1611021E+02  0.7129902E+02
Ar  855  0.2441350E+02  0.1080941E+02  0.1885863E+02  0.7973734E+02
Ar  856  0.2180240E+02  0.1295578E+02  0.1862957E+02  0.4765237E+02
Ar  857  0.2156537E+02  0.1107391E+02  0.2156537E+02  0.4496798E+02
Ar  858  0.2428573E+02  0.1340099E+02  0.2149812E+02  0.3681142E+02
Ar  859  0.2444718E+02  0.1023134E+02  0.2444718E+02  0.5324718E+02
Ar  860  0.2149812E+02  0.1340099E+02  0.2428573E+02  0.3681142E+02
Ar  861  0.2130579E+02  0.1045827E+02  0.2744233E+02  0.5783910E+02
Ar  862  0.2400235E+02  0.1343320E+02  0.2710261E+02  0.2927968E+02
Ar  863  0.2402179E+02  0.1070169E+02  0.2988636E+02  0.5090567E+02
Ar  864  0.2096302E+02  0.1317421E+02  0.2971613E+02  0.2580547E+02
Ar  865  0.2127267E+02  0.1075505E+02  0.3250802E+02  0.7497121E+02
Ar  866  0.2452184E+02  0.1378071E+02  0.3228576E+02  0.3070863E+03
Ar  867  0.2445877E+02  0.1061593E+02  0.3482988E+02  0.4636080E+02
Ar  868  0.2145047E+02  0.1359472E+02  0.3505330E+02  0.3851517E+02
Ar  869  0.2148700E+02  0.1616256E+02  0.3769334E+02  0.1021994E+03
Ar  870  0.2434879E+02  0.1853877E+02  0.3749077E+02  0.1782395E+03
Ar  871  0.2432846E+02  0.1641994E+02  0.2685411E+01  0.9251825E+02
Ar  872  0.2178507E+02  0.1887912E+02  0.2756771E+01  0.1527047E+03
Ar  873  0.2194200E+02  0.1623553E+02  0.5393492E+01  0.3253832E+02
Ar  874  0.2438953E+02  0.1910669E+02  0.5210795E+01  0.1117761E+03
Ar  875  0.2449872E+02  0.1587102E+02  0.8144376E+01  0.6768247E+02
Ar  876  0.2202948E+02  0.1879331E+02  0.8180818E+01  0.3370420E+03
Ar  877  0.2181013E+02  0.1572536E+02  0.1051135E+02  0.3231360E+01
Ar  878  0.2441350E+02  0.1885863E+02  0.1080941E+02  0.7973734E+02
Ar  879  0.2459171E+02  0.1611021E+02  0.1335288E+02  0.7129902E+02
Ar  880  0.2180240E+02  0.1862957E+02  0.1295578E+02  0.4765237E+02
Ar  881  0.2212450E+02  0.1593750E+02  0.1593750E+02  0.2137475E+03
Ar  882  0.2442303E+02  0.1891641E+02  0.1596004E+02  0.1754001E+03
Ar  883  0.2442303E+02  0.1596004E+02  0.1891641E+02  0.1754001E+03
Ar  884  0.2165703E+02  0.1837569E+02  0.1837569E+02  0.5874624E+01
Ar  885  0.2139161E+02  0.1542823E+02  0.2139161E+02  0.5633885E+02
Ar  886  0.2418777E+02  0.1870245E+02  0.2130920E+02  0.9389469E+02
Ar  887  0.2384375E+02  0.1602731E+02  0.2384375E+02  0.8879738E+02
Ar  888  0.2130920E+02  0.1870245E+02  0.2418777E+02  0.9389469E+02
Ar  889  0.2134589E+02  0.1603208E+02  0.2751126E+02  0.5584673E+02
Ar  890  0.2399863E+02  0.1869258E+02  0.2705835E+02  0.1197731E+03
Ar  891  0.2444049E+02  0.1631439E+02  0.2987941E+02  0.2844026E+03
Ar  892  0.2127552E+02  0.1867485E+02  0.2975056E+02  0.2960802E+03
Ar  893  0.2132253E+02  0.1588493E+02  0.3238534E+02  0.1166332E+03
Ar  894  0.2388365E+02  0.1862195E+02  0.3238911E+02  0.3147311E+03
Ar  895  0.2442440E+02  0.1606463E+02  0.3491442E+02  0.4723539E+02
Ar  896  0.2165351E+02  0.1861696E+02  0.3514825E+02  0.6293069E+02
Ar  897  0.2161315E+02  0.2161315E+02  0.3713838E+02  0.4735877E+02
Ar  898  0.2444980E+02  0.2444980E+02  0.3734803E+02  0.6125535E+02
Ar  899  0.2443386E+02  0.2158258E+02  0.2282909E+01  0.5185761E+02
Ar  900  0.2158258E+02  0.2443386E+02  0.2282909E+01  0.5185761E+02
Ar  901  0.2131815E+02  0.2131815E+02  0.5317482E+01  0.1181398E+03
Ar  902  0.2404649E+02  0.2404649E+02  0.5051051E+01  0.9990290E+02
Ar  903  0.2480334E+02  0.2148245E+02  0.8174333E+01  0.7197175E+02
Ar  904  0.2148245E+02  0.2480334E+02  0.8174333E+01  0.7197175E+02
Ar  905  0.2156537E+02  0.2156537E+02  0.1107391E+02  0.4496798E+02
Ar  906  0.2444718E+02  0.2444718E+02  0.1023134E+02  0.5324718E+02
Ar  907  0.2428573E+02  0.2149812E+02  0.1340099E+02  0.3681142E+02
Ar  908  0.2149812E+02  0.2428573E+02  0.1340099E+02  0.3681142E+02
Ar  909  0.2139161E+02  0.2139161E+02  0.1542823E+02  0.5633885E+02
Ar  910  0.2384375E+02  0.2384375E+02  0.1602731E+02  0.8879738E+02
Ar  911  0.2418777E+02  0.2130920E+02  0.1870245E+02  0.9389469E+02
Ar  912  0.2130920E+02  0.2418777E+02  0.1870245E+02  0.9389469E+02
Ar  913  0.2132655E+02  0.2132655E+02  0.2132655E+02  0.1702840E+00
Ar  914  0.2387857E+02  0.2387857E+02  0.2119876E+02  0.1629559E+02
Ar  915  0.2387857E+02  0.2119876E+02  0.2387857E+02  0.1629559E+02
Ar  916  0.2119876E+02  0.2387857E+02  0.2387857E+02  0.1629559E+02
Ar  917  0.2159100E+02  0.2159100E+02  0.2632496E+02  0.4402158E+02
Ar  918  0.2396471E+02  0.2396471E+02  0.2649691E+02  0.7107772E+02
Ar  919  0.2378205E+02  0.2128305E+02  0.2967781E+02  0.7028677E+02
Ar  920  0.2128305E+02  0.2378205E+02  0.2967781E+02  0.7028677E+02
Ar  921  0.2124175E+02  0.2124175E+02  0.3252243E+02  0.6297954E+02
Ar  922  0.2392636E+02  0.2392636E+02  0.3210684E+02  0.5533614E+03
Ar  923  0.2453007E+02  0.2123305E+02  0.3493858E+02  0.8692050E+02
Ar  924  0.2123305E+02  0.2453007E+02  0.3493858E+02  0.8692050E+02
Ar  925  0.2156584E+02  0.2715691E+02  0.3765458E+02  0.8751220E+02
Ar  926  0.2455647E+02  0.2993451E+02  0.3772984E+02  0.3702648E+02
Ar  927  0.2402622E+02  0.2700591E+02  0.2332991E+01  0.6121477E+02
Ar  928  0.2151642E+02  0.2986355E+02  0.2697018E+01  0.7673491E+01
Ar  929  0.2150045E+02  0.2713039E+02  0.5149355E+01  0.5995560E+02
Ar  930  0.2425055E+02  0.2941026E+02  0.5040078E+01  0.3175289E+02
Ar  931  0.2403274E+02  0.2707225E+02  0.7680429E+01  0.3457834E+02
Ar  932  0.2135968E+02  0.2980429E+02  0.7512216E+01  0.1553608E+03
Ar  933  0.2130579E+02  0.2744233E+02  0.1045827E+02  0.5783910E+02
Ar  934  0.2402179E+02  0.2988636E+02  0.1070169E+02  0.5090567E+02
Ar  935  0.2400235E+02  0.2710261E+02  0.1343320E+02  0.2927968E+02
Ar  936  0.2096302E+02  0.2971613E+02  0.1317421E+02  0.2580547E+02
Ar  937  0.2134589E+02  0.2751126E+02  0.1603208E+02  0.5584673E+02
Ar  938  0.2444049E+02  0.2987941E+02  0.1631439E+02  0.2844026E+03
Ar  939  0.2399863E+02  0.2705835E+02  0.1869258E+02  0.1197731E+03
Ar  940  0.2127552E+02  0.2975056E+02  0.1867485E+02  0.2960802E+03
Ar  941  0.2159100E+02  0.2632496E+02  0.2159100E+02  0.4402158E+02
Ar  942  0.2378205E+02  0.2967781E+02  0.2128305E+02  0.7028677E+02
Ar  943  0.2396471E+02  0.2649691E+02  0.2396471E+02  0.7107772E+02
Ar  944  0.2128305E+02  0.2967781E+02  0.2378205E+02  0.7028677E+02
Ar  945  0.2158186E+02  0.2671936E+02  0.2671936E+02  0.3027961E+03
Ar  946  0.2417609E+02  0.2941551E+02  0.2672245E+02  0.2491047E+03
Ar  947  0.2417609E+02  0.2672245E+02  0.2941551E+02  0.2491047E+03
Ar  948  0.2177796E+02  0.2974750E+02  0.2974750E+02  0.2458672E+03
Ar  949  0.2182483E+02  0.2716705E+02  0.3235429E+02  0.6001356E+01
Ar  950  0.2442354E+02  0.2998586E+02  0.3266218E+02  0.1802237E+03
Ar  951  0.2432020E+02  0.2733661E+02  0.3536625E+02  0.1891935E+03
Ar  952  0.2184613E+02  0.2964709E+02  0.3522181E+02  0.2025804E+03
Ar  953  0.2158185E+02  0.3268656E+02  0.1261191E+00  0.1994846E+02
Ar  954  0.2461173E+02  0.3515274E+02  0.1065383E-01  0.1825509E+03
Ar  955  0.2456801E+02  0.3267643E+02  0.2618133E+01  0.7279042E+02
Ar  956  0.2163363E+02  0.3497680E+02  0.2633872E+01  0.1382739E+03
Ar  957  0.2166268E+02  0.3252292E+02  0.5416555E+01  0.2042705E+01
Ar  958  0.2447345E+02  0.3517834E+02  0.5260049E+01  0.5495213E+02
Ar  959  0.2430210E+02  0.3232246E+02  0.8233474E+01  0.2765780E+02
Ar  960  0.2198950E+02  0.3519983E+02  0.7804767E+01  0.5312323E+02
Ar  961  0.2127267E+02  0.3250802E+02  0.1075505E+02  0.7497121E+02
Ar  962  0.2445877E+02  0.3482988E+02  0.1061593E+02  0.4636080E+02
Ar  963  0.2452184E+02  0.3228576E+02  0.1378071E+02  0.3070863E+03
Ar  964  0.2145047E+02  0.3505330E+02  0.1359472E+02  0.3851517E+02
Ar  965  0.2132253E+02  0.3238534E+02  0.1588493E+02  0.1166332E+03
Ar  966  0.2442440E+02  0.3491442E+02  0.1606463E+02  0.4723539E+02
Ar  967  0.2388365E+02  0.3238911E+02  0.1862195E+02  0.3147311E+03
Ar  968  0.2165351E+02  0.3514825E+02  0.1861696E+02  0.6293069E+02
Ar  969  0.2124175E+02  0.3252243E+02  0.2124175E+02  0.6297954E+02
Ar  970  0.2453007E+02  0.3493858E+02  0.2123305E+02  0.8692050E+02
Ar  971  0.2392636E+02  0.3210684E+02  0.2392636E+02  0.5533614E+03
Ar  972  0.2123305E+02  0.3493858E+02  0.2453007E+02  0.8692050E+02
Ar  973  0.2182483E+02  0.3235429E+02  0.2716705E+02  0.6001356E+01
Ar  974  0.2432020E+02  0.3536625E+02  0.2733661E+02  0.1891935E+03
Ar  975  0.2442354E+02  0.3266218E+02  0.2998586E+02  0.1802237E+03
Ar  976  0.2184613E+02  0.3522181E+02  0.2964709E+02  0.2025804E+03
Ar  977  0.2166262E+02  0.3280458E+02  0.3280458E+02  0.2079024E+02
Ar  978  0.2441513E+02  0.3520229E+02  0.3246304E+02  0.8538172E+02
Ar  979  0.2441513E+02  0.3246304E+02  0.3520229E+02  0.8538172E+02
Ar  980  0.2194737E+02  0.3524465E+02  0.3524465E+02  0.4905426E+02
Ar  981  0.2727298E+02  0.9163788E-01  0.9163788E-01  0.5955758E+02
Ar  982  0.3007588E+02  0.3251695E+01  0.3773482E+02  0.2286218E+03
Ar  983  0.3007588E+02  0.3773482E+02  0.3251695E+01  0.2286218E+03
Ar  984  0.2782110E+02  0.2679969E+01  0.2679969E+01  0.7885020E+02
Ar  985  0.2717213E+02  0.2439740E-01  0.5603462E+01  0.3001070E+03
Ar  986  0.2983835E+02  0.2594692E+01  0.5641583E+01  0.1052976E+02
Ar  987  0.2974638E+02  0.2290583E-01  0.8026943E+01  0.4064151E+01
Ar  988  0.2695305E+02  0.2404896E+01  0.8521212E+01  0.3227551E+02
Ar  989  0.2685148E+02  0.3773467E+02  0.1091863E+02  0.4459845E+02
Ar  990  0.2992647E+02  0.2558823E+01  0.1093204E+02  0.1600097E+03
Ar  991  0.2974115E+02  0.3773291E+02  0.1336350E+02  0.1409733E+02
Ar  992  0.2732687E+02  0.2632282E+01  0.1348003E+02  0.8725477E+02
Ar  993  0.2715628E+02  0.3724806E+02  0.1608508E+02  0.7409820E+02
Ar  994  0.2956137E+02  0.2326905E+01  0.1620966E+02  0.1264318E+03
Ar  995  0.2962821E+02  0.3764649E+02  0.1896747E+02  0.5968570E+02
Ar  996  0.2717366E+02  0.2548822E+01  0.1873262E+02  0.1593154E+03
Ar  997  0.2715691E+02  0.3765458E+02  0.2156584E+02  0.8751220E+02
Ar  998  0.2986355E+02  0.2697018E+01  0.2151642E+02  0.7673491E+01
Ar  999  0.2993451E+02  0.3772984E+02  0.2455647E+02  0.3702648E+02
Ar 1000  0.2700591E+02  0.2332991E+01  0.2402622E+02  0.6121477E+02
Ar 1001  0.2729168E+02  0.3755255E+02  0.2729168E+02  0.1166972E+01
Ar 1002  0.3020902E+02  0.2542736E+01  0.2710778E+02  0.2019101E+02
Ar 1003  0.2985165E+02  0.5374697E-01  0.2985165E+02  0.5130192E+02
Ar 1004  0.2710778E+02  0.2542736E+01  0.3020902E+02  0.2019101E+02
Ar 1005  0.2715412E+02  0.2879571E+00  0.3284311E+02  0.4601743E+02
Ar 1006  0.2999482E+02  0.2730017E+01  0.3284344E+02  0.8428904E+02
Ar 1007  0.2968878E+02  0.2947503E+00  0.3529746E+02  0.8224631E+02
Ar 1008  0.2717169E+02  0.2933820E+01  0.3558030E+02  0.3275810E+02
Ar 1009  0.2717213E+02  0.5603462E+01  0.2439740E-01  0.3001070E+03
Ar 1010  0.2974638E+02  0.8026943E+01  0.2290583E-01  0.4064151E+01
Ar 1011  0.2983835E+02  0.5641583E+01  0.2594692E+01  0.1052976E+02
Ar 1012  0.2695305E+02  0.8521212E+01  0.2404896E+01  0.3227551E+02
Ar 1013  0.2671080E+02  0.5222408E+01  0.5222408E+01  0.3555570E+02
Ar 1014  0.2966969E+02  0.8122322E+01  0.5195565E+01  0.5880651E+02
Ar 1015  0.2966969E+02  0.5195565E+01  0.8122322E+01  0.5880651E+02
Ar 1016  0.2704501E+02  0.7586639E+01  0.7586639E+01  0.7893086E+02
Ar 1017  0.2692250E+02  0.5083792E+01  0.1072516E+02  0.3951322E+02
Ar 1018  0.2991850E+02  0.7866342E+01  0.1040846E+02  0.1651533E+03
Ar 1019  0.2967792E+02  0.5296004E+01  0.1290899E+02  0.1925477E+02
Ar 1020  0.2714633E+02  0.7843981E+01  0.1317720E+02  0.7322660E+02
Ar 1021  0.2707725E+02  0.5274047E+01  0.1601786E+02  0.4901447E+02
Ar 1022  0.3000917E+02  0.7664551E+01  0.1594135E+02  0.6148824E+02
Ar 1023  0.2994190E+02  0.5339739E+01  0.1882141E+02  0.5813855E+02
Ar 1024  0.2714480E+02  0.7903044E+01  0.1852337E+02  0.1818962E+03
Ar 1025  0.2713039E+02  0.5149355E+01  0.2150045E+02  0.5995560E+02
Ar 1026  0.2980429E+02  0.7512216E+01  0.2135968E+02  0.1553608E+03
Ar 1027  0.2941026E+02  0.5040078E+01  0.2425055E+02  0.3175289E+02
Ar 1028  0.2707225E+02  0.7680429E+01  0.2403274E+02  0.3457834E+02
Ar 1029  0.2693111E+02  0.4532293E+01  0.2693111E+02  0.1034222E+03
Ar 1030  0.2932253E+02  0.7998348E+01  0.2689114E+02  0.1098747E+03
Ar 1031  0.2948006E+02  0.5645736E+01  0.2948006E+02  0.7026979E+02
Ar 1032  0.2689114E+02  0.7998348E+01  0.2932253E+02  0.1098747E+03
Ar 1033  0.2674345E+02  0.5502338E+01  0.3233845E+02  0.2585201E+03
Ar 1034  0.2973430E+02  0.8038694E+01  0.3228667E+02  0.8521965E+02
Ar 1035  0.2977391E+02  0.5452470E+01  0.3501498E+02  0.1146007E+03
Ar 1036  0.2727264E+02  0.8065368E+01  0.3487863E+02  0.1958346E+03
Ar 1037  0.2685148E+02  0.1091863E+02  0.3773467E+02  0.4459845E+02
Ar 1038  0.2974115E+02  0.1336350E+02  0.3773291E+02  0.1409733E+02
Ar 1039  0.2992647E+02  0.1093204E+02  0.2558823E+01  0.1600097E+03
Ar 1040  0.2732687E+02  0.1348003E+02  0.2632282E+01  0.8725476E+02
Ar 1041  0.2692250E+02  0.1072516E+02  0.5083792E+01  0.3951322E+02
Ar 1042  0.2967792E+02  0.1290899E+02  0.5296004E+01  0.1925477E+02
Ar 1043  0.2991850E+02  0.1040846E+02  0.7866342E+01  0.1651533E+03
Ar 1044  0.2714633E+02  0.1317720E+02  0.7843981E+01  0.7322660E+02
Ar 1045  0.2704203E+02  0.1106073E+02  0.1106073E+02  0.2148395E+03
Ar 1046  0.3007842E+02  0.1345504E+02  0.1042851E+02  0.2365898E+03
Ar 1047  0.3007842E+02  0.1042851E+02  0.1345504E+02  0.2365898E+03
Ar 1048  0.2734541E+02  0.1350146E+02  0.1350146E+02  0.6744121E+03
Ar 1049  0.2738680E+02  0.1078694E+02  0.1577102E+02  0.1299702E+03
Ar 1050  0.3009996E+02  0.1315600E+02  0.1588372E+02  0.1627960E+03
Ar 1051  0.3002286E+02  0.1016199E+02  0.1836833E+02  0.8017347E+02
Ar 1052  0.2718166E+02  0.1335983E+02  0.1861380E+02  0.3021761E+02
Ar 1053  0.2744233E+02  0.1045827E+02  0.2130579E+02  0.5783910E+02
Ar 1054  0.2971613E+02  0.1317421E+02  0.2096302E+02  0.2580547E+02
Ar 1055  0.2988636E+02  0.1070169E+02  0.2402179E+02  0.5090567E+02
Ar 1056  0.2710261E+02  0.1343320E+02  0.2400235E+02  0.2927968E+02
Ar 1057  0.2683736E+02  0.1109995E+02  0.2683736E+02  0.9080543E+02
Ar 1058  0.2990986E+02  0.1362204E+02  0.2706002E+02  0.1585655E+03
Ar 1059  0.2928049E+02  0.1057211E+02  0.2928049E+02  0.2188487E+03
Ar 1060  0.2706002E+02  0.1362204E+02  0.2990986E+02  0.1585655E+03
Ar 1061  0.2716404E+02  0.1066693E+02  0.3262955E+02  0.1295118E+03
Ar 1062  0.2959335E+02  0.1355116E+02  0.3238788E+02  0.1847035E+02
Ar 1063  0.2974770E+02  0.1072914E+02  0.3501426E+02  0.1675846E+02
Ar 1064  0.2687433E+02  0.1326256E+02  0.3493527E+02  0.1266459E+03
Ar 1065  0.2715628E+02  0.1608508E+02  0.3724806E+02  0.7409820E+02
Ar 1066  0.2962821E+02  0.1896747E+02  0.3764649E+02  0.5968570E+02
Ar 1067  0.2956137E+02  0.1620966E+02  0.2326905E+01  0.1264318E+03
Ar 1068  0.2717366E+02  0.1873262E+02  0.2548822E+01  0.1593154E+03
Ar 1069  0.2707725E+02  0.1601786E+02  0.5274047E+01  0.4901447E+02
Ar 1070  0.2994190E+02  0.1882141E+02  0.5339739E+01  0.5813855E+02
Ar 1071  0.3000917E+02  0.1594135E+02  0.7664551E+01  0.6148824E+02
Ar 1072  0.2714480E+02  0.1852337E+02  0.7903044E+01  0.1818962E+03
Ar 1073  0.2738680E+02  0.1577102E+02  0.1078694E+02  0.1299702E+03
Ar 1074  0.3002286E+02  0.1836833E+02  0.1016199E+02  0.8017347E+02
Ar 1075  0.3009996E+02  0.1588372E+02  0.1315600E+02  0.1627960E+03
Ar 1076  0.2718166E+02  0.1861380E+02  0.1335983E+02  0.3021761E+02
Ar 1077  0.2702453E+02  0.1615167E+02  0.1615167E+02  0.3182223E+02
Ar 1078  0.2977572E+02  0.1863924E+02  0.1620125E+02  0.1501419E+03
Ar 1079  0.2977572E+02  0.1620125E+02  0.1863924E+02  0.1501419E+03
Ar 1080  0.2726167E+02  0.1890296E+02  0.1890296E+02  0.7259964E+02
Ar 1081  0.2751126E+02  0.1603208E+02  0.2134589E+02  0.5584673E+02
Ar 1082  0.2975056E+02  0.1867485E+02  0.2127552E+02  0.2960802E+03
Ar 1083  0.2987941E+02  0.1631439E+02  0.2444049E+02  0.2844026E+03
Ar 1084  0.2705835E+02  0.1869258E+02  0.2399863E+02  0.1197731E+03
Ar 1085  0.2738274E+02  0.1618965E+02  0.2738274E+02  0.7561614E+02
Ar 1086  0.2993941E+02  0.1881390E+02  0.2706541E+02  0.3834606E+02
Ar 1087  0.3025516E+02  0.1598652E+02  0.3025516E+02  0.7401045E+02
Ar 1088  0.2706541E+02  0.1881390E+02  0.2993941E+02  0.3834606E+02
Ar 1089  0.2722176E+02  0.1633604E+02  0.3236627E+02  0.7271537E+02
Ar 1090  0.2971001E+02  0.1917646E+02  0.3218956E+02  0.1184521E+03
Ar 1091  0.2985362E+02  0.1666104E+02  0.3501353E+02  0.1420061E+03
Ar 1092  0.2739769E+02  0.1920593E+02  0.3502965E+02  0.1498948E+03
Ar 1093  0.2715691E+02  0.2156584E+02  0.3765458E+02  0.8751220E+02
Ar 1094  0.2993451E+02  0.2455647E+02  0.3772984E+02  0.3702648E+02
Ar 1095  0.2986355E+02  0.2151642E+02  0.2697018E+01  0.7673491E+01
Ar 1096  0.2700591E+02  0.2402622E+02  0.2332991E+01  0.6121477E+02
Ar 1097  0.2713039E+02  0.2150045E+02  0.5149355E+01  0.5995560E+02
Ar 1098  0.2941026E+02  0.2425055E+02  0.5040078E+01  0.3175289E+02
Ar 1099  0.2980429E+02  0.2135968E+02  0.7512216E+01  0.1553608E+03
Ar 1100  0.2707225E+02  0.2403274E+02  0.7680429E+01  0.3457834E+02
Ar 1101  0.2744233E+02  0.2130579E+02  0.1045827E+02  0.5783910E+02
Ar 1102  0.2988636E+02  0.2402179E+02  0.1070169E+02  0.5090567E+02
Ar 1103  0.2971613E+02  0.2096302E+02  0.1317421E+02  0.2580547E+02
Ar 1104  0.2710261E+02  0.2400235E+02  0.1343320E+02  0.2927968E+02
Ar 1105  0.2751126E+02  0.2134589E+02  0.1603208E+02  0.5584673E+02
Ar 1106  0.2987941E+02  0.2444049E+02  0.1631439E+02  0.2844026E+03
Ar 1107  0.2975056E+02  0.2127552E+02  0.1867485E+02  0.2960802E+03
Ar 1108  0.2705835E+02  0.2399863E+02  0.1869258E+02  0.1197731E+03
Ar 1109  0.2632496E+02  0.2159100E+02  0.2159100E+02  0.4402158E+02
Ar 1110  0.2967781E+02  0.2378205E+02  0.2128305E+02  0.7028677E+02
Ar 1111  0.2967781E+02  0.2128305E+02  0.2378205E+02  0.7028677E+02
Ar 1112  0.2649691E+02  0.2396471E+02  0.2396471E+02  0.7107772E+02
Ar 1113  0.2671936E+02  0.2158186E+02  0.2671936E+02  0.3027961E+03
Ar 1114  0.2941551E+02  0.2417609E+02  0.2672245E+02  0.2491047E+03
Ar 1115  0.2974750E+02  0.2177796E+02  0.2974750E+02  0.2458672E+03
Ar 1116  0.2672245E+02  0.2417609E+02  0.2941551E+02  0.2491047E+03
Ar 1117  0.2716705E+02  0.2182483E+02  0.3235429E+02  0.6001356E+01
Ar 1118  0.2998586E+02  0.2442354E+02  0.3266218E+02  0.1802237E+03
Ar 1119  0.2964709E+02  0.2184613E+02  0.3522181E+02  0.2025804E+03
Ar 1120  0.2733661E+02  0.2432020E+02  0.3536625E+02  0.1891935E+03
Ar 1121  0.2729168E+02  0.2729168E+02  0.3755255E+02  0.1166972E+01
Ar 1122  0.2985165E+02  0.2985165E+02  0.5374697E-01  0.5130192E+02
Ar 1123  0.3020902E+02  0.2710778E+02  0.2542736E+01  0.2019101E+02
Ar 1124  0.2710778E+02  0.3020902E+02  0.2542736E+01  0.2019101E+02
Ar 1125  0.2693111E+02  0.2693111E+02  0.4532293E+01  0.1034222E+03
Ar 1126  0.2948006E+02  0.2948006E+02  0.5645736E+01  0.7026979E+02
Ar 1127  0.2932253E+02  0.2689114E+02  0.7998348E+01  0.1098747E+03
Ar 1128  0.2689114E+02  0.2932253E+02  0.7998348E+01  0.1098747E+03
Ar 1129  0.2683736E+02  0.2683736E+02  0.1109995E+02  0.9080543E+02
Ar 1130  0.2928049E+02  0.2928049E+02  0.1057211E+02  0.2188487E+03
Ar 1131  0.2990986E+02  0.2706002E+02  0.1362204E+02  0.1585655E+03
Ar 1132  0.2706002E+02  0.2990986E+02  0.1362204E+02  0.1585655E+03
Ar 1133  0.2738274E+02  0.2738274E+02  0.1618965E+02  0.7561614E+02
Ar 1134  0.3025516E+02  0.3025516E+02  0.1598652E+02  0.7401045E+02
Ar 1135  0.2993941E+02  0.2706541E+02  0.1881390E+02  0.3834606E+02
Ar 1136  0.2706541E+02  0.2993941E+02  0.1881390E+02  0.3834606E+02
Ar 1137  0.2671936E+02  0.2671936E+02  0.2158186E+02  0.3027961E+03
Ar 1138  0.2974750E+02  0.2974750E+02  0.2177796E+02  0.2458672E+03
Ar 1139  0.2941551E+02  0.2672245E+02  0.2417609E+02  0.2491047E+03
Ar 1140  0.2672245E+02  0.2941551E+02  0.2417609E+02  0.2491047E+03
Ar 1141  0.2685193E+02  0.2685193E+02  0.2685193E+02  0.2128056E+03
Ar 1142  0.2960941E+02  0.2960941E+02  0.2713338E+02  0.8376665E+02
Ar 1143  0.2960941E+02  0.2713338E+02  0.2960941E+02  0.8376665E+02
Ar 1144  0.2713338E+02  0.2960941E+02  0.2960941E+02  0.8376665E+02
Ar 1145  0.2723913E+02  0.2723913E+02  0.3271196E+02  0.2855169E+03
Ar 1146  0.3018110E+02  0.3018110E+02  0.3303345E+02  0.1258619E+02
Ar 1147  0.3017664E+02  0.2714871E+02  0.3519762E+02  0.2431213E+03
Ar 1148  0.2714871E+02  0.3017664E+02  0.3519762E+02  0.2431213E+03
Ar 1149  0.2715412E+02  0.3284311E+02  0.2879571E+00  0.4601743E+02
Ar 1150  0.2968878E+02  0.3529746E+02  0.2947503E+00  0.8224631E+02
Ar 1151  0.2999482E+02  0.3284344E+02  0.2730017E+01  0.8428904E+02
Ar 1152  0.2717169E+02  0.3558030E+02  0.2933820E+01  0.3275810E+02
Ar 1153  0.2674345E+02  0.3233845E+02  0.5502338E+01  0.2585201E+03
Ar 1154  0.2977391E+02  0.3501498E+02  0.5452470E+01  0.1146007E+03
Ar 1155  0.2973430E+02  0.3228667E+02  0.8038694E+01  0.8521965E+02
Ar 1156  0.2727264E+02  0.3487863E+02  0.8065368E+01  0.1958346E+03
Ar 1157  0.2716404E+02  0.3262955E+02  0.1066693E+02  0.1295118E+03
Ar 1158  0.2974770E+02  0.3501426E+02  0.1072914E+02  0.1675846E+02
Ar 1159  0.2959335E+02  0.3238788E+02  0.1355116E+02  0.1847035E+02
Ar 1160  0.2687433E+02  0.3493527E+02  0.1326256E+02  0.1266459E+03
Ar 1161  0.2722176E+02  0.3236627E+02  0.1633604E+02  0.7271537E+02
Ar 1162  0.2985362E+02  0.3501353E+02  0.1666104E+02  0.1420061E+03
Ar 1163  0.2971001E+02  0.3218956E+02  0.1917646E+02  0.1184521E+03
Ar 1164  0.2739769E+02  0.3502965E+02  0.1920593E+02  0.1498948E+03
Ar 1165  0.2716705E+02  0.3235429E+02  0.2182483E+02  0.6001356E+01
Ar 1166  0.2964709E+02  0.3522181E+02  0.2184613E+02  0.2025804E+03
Ar 1167  0.2998586E+02  0.3266218E+02  0.2442354E+02  0.1802237E+03
Ar 1168  0.2733661E+02  0.3536625E+02  0.2432020E+02  0.1891935E+03
Ar 1169  0.2723913E+02  0.3271196E+02  0.2723913E+02  0.2855169E+03
Ar 1170  0.3017664E+02  0.3519762E+02  0.2714871E+02  0.2431213E+03
Ar 1171  0.3018110E+02  0.3303345E+02  0.3018110E+02  0.1258619E+02
Ar 1172  0.2714871E+02  0.3519762E+02  0.3017664E+02  0.2431213E+03
Ar 1173  0.2758399E+02  0.3212987E+02  0.3212987E+02  0.1238284E+03
Ar 1174  0.3012441E+02  0.3559763E+02  0.3279244E+02  0.2373846E+02
Ar 1175  0.3012441E+02  0.3279244E+02  0.3559763E+02  0.2373846E+02
Ar 1176  0.2714262E+02  0.3526842E+02  0.3526842E+02  0.1692637E+03
Ar 1177  0.3222431E+02  0.2161508E+00  0.2161508E+00  0.3086636E+03
Ar 1178  0.3513429E+02  0.2762133E+01  0.3477282E+00  0.1120579E+03
Ar 1179  0.3513429E+02  0.3477282E+00  0.2762133E+01  0.1120579E+03
Ar 1180  0.3226246E+02  0.2622947E+01  0.2622947E+01  0.1173543E+03
Ar 1181  0.3270705E+02  0.3766822E+02  0.5514084E+01  0.1279281E+03
Ar 1182  0.3519522E+02  0.2709801E+01  0.5332336E+01  0.3038471E+02
Ar 1183  0.3517749E+02  0.3771536E+02  0.8206427E+01  0.1727786E+03
Ar 1184  0.3261897E+02  0.2587206E+01  0.8056114E+01  0.2035737E+02
Ar 1185  0.3250722E+02  0.2119771E-03  0.1067663E+02  0.9112141E+02
Ar 1186  0.3517063E+02  0.2487897E+01  0.1067370E+02  0.7915699E+02
Ar 1187  0.3502307E+02  0.2203951E+00  0.1356822E+02  0.2109394E+03
Ar 1188  0.3253363E+02  0.2438962E+01  0.1324132E+02  0.3978409E+02
Ar 1189  0.3249786E+02  0.3755594E+02  0.1632687E+02  0.1808789E+03
Ar 1190  0.3476759E+02  0.2510948E+01  0.1646461E+02  0.2322643E+03
Ar 1191  0.3523248E+02  0.6960859E-01  0.1913409E+02  0.3277678E+02
Ar 1192  0.3227210E+02  0.2621429E+01  0.1886054E+02  0.1004091E+03
Ar 1193  0.3268656E+02  0.1261191E+00  0.2158185E+02  0.1994846E+02
Ar 1194  0.3497680E+02  0.2633872E+01  0.2163363E+02  0.1382739E+03
Ar 1195  0.3515274E+02  0.1065383E-01  0.2461173E+02  0.1825509E+03
Ar 1196  0.3267643E+02  0.2618133E+01  0.2456801E+02  0.7279042E+02
Ar 1197  0.3284311E+02  0.2879571E+00  0.2715412E+02  0.4601743E+02
Ar 1198  0.3558030E+02  0.2933820E+01  0.2717169E+02  0.3275810E+02
Ar 1199  0.3529746E+02  0.2947503E+00  0.2968878E+02  0.8224631E+02
Ar 1200  0.3284344E+02  0.2730017E+01  0.2999482E+02  0.8428904E+02
Ar 1201  0.3268976E+02  0.6948046E+00  0.3268976E+02  0.3297965E+02
Ar 1202  0.3522265E+02  0.3109087E+01  0.3292062E+02  0.9984420E+01
Ar 1203  0.3511702E+02  0.2377823E+00  0.3511702E+02  0.5467099E+03
Ar 1204  0.3292062E+02  0.3109087E+01  0.3522265E+02  0.9984420E+01
Ar 1205  0.3270705E+02  0.5514084E+01  0.3766822E+02  0.1279281E+03
Ar 1206  0.3517749E+02  0.8206427E+01  0.3771536E+02  0.1727786E+03
Ar 1207  0.3519522E+02  0.5332336E+01  0.2709801E+01  0.3038471E+02
Ar 1208  0.3261897E+02  0.8056114E+01  0.2587206E+01  0.2035737E+02
Ar 1209  0.3216663E+02  0.5309219E+01  0.5309219E+01  0.3236269E+03
Ar 1210  0.3516249E+02  0.7748283E+01  0.5203313E+01  0.1561074E+03
Ar 1211  0.3516249E+02  0.5203313E+01  0.7748283E+01  0.1561074E+03
Ar 1212  0.3245954E+02  0.8025748E+01  0.8025748E+01  0.1232048E+03
Ar 1213  0.3248727E+02  0.5247923E+01  0.1044126E+02  0.2174787E+03
Ar 1214  0.3505857E+02  0.8105136E+01  0.1070047E+02  0.3321111E+03
Ar 1215  0.3523956E+02  0.5244081E+01  0.1364700E+02  0.2225330E+03
Ar 1216  0.3289594E+02  0.7764362E+01  0.1345131E+02  0.2819751E+03
Ar 1217  0.3230682E+02  0.4912893E+01  0.1592324E+02  0.4389662E+02
Ar 1218  0.3529098E+02  0.8004011E+01  0.1622461E+02  0.6184908E+02
Ar 1219  0.3509104E+02  0.5209293E+01  0.1885605E+02  0.4812018E+02
Ar 1220  0.3293059E+02  0.7705001E+01  0.1875921E+02  0.2953672E+03
Ar 1221  0.3252292E+02  0.5416555E+01  0.2166268E+02  0.2042705E+01
Ar 1222  0.3519983E+02  0.7804767E+01  0.2198950E+02  0.5312322E+02
Ar 1223  0.3517834E+02  0.5260049E+01  0.2447345E+02  0.5495213E+02
Ar 1224  0.3232246E+02  0.8233474E+01  0.2430210E+02  0.2765780E+02
Ar 1225  0.3233845E+02  0.5502338E+01  0.2674345E+02  0.2585201E+03
Ar 1226  0.3487863E+02  0.8065368E+01  0.2727264E+02  0.1958346E+03
Ar 1227  0.3501498E+02  0.5452470E+01  0.2977391E+02  0.1146007E+03
Ar 1228  0.3228667E+02  0.8038694E+01  0.2973430E+02  0.8521965E+02
Ar 1229  0.3221506E+02  0.5381383E+01  0.3221506E+02  0.4247484E+02
Ar 1230  0.3502568E+02  0.8375112E+01  0.3250525E+02  0.2652649E+01
Ar 1231  0.3475998E+02  0.5890193E+01  0.3475998E+02  0.1402952E+02
Ar 1232  0.3250525E+02  0.8375112E+01  0.3502568E+02  0.2652649E+01
Ar 1233  0.3250722E+02  0.1067663E+02  0.2119772E-03  0.9112141E+02
Ar 1234  0.3502307E+02  0.1356822E+02  0.2203951E+00  0.2109394E+03
Ar 1235  0.3517063E+02  0.1067370E+02  0.2487897E+01  0.7915699E+02
Ar 1236  0.3253363E+02  0.1324132E+02  0.2438962E+01  0.3978409E+02
Ar 1237  0.3248727E+02  0.1044126E+02  0.5247923E+01  0.2174787E+03
Ar 1238  0.3523956E+02  0.1364700E+02  0.5244081E+01  0.2225330E+03
Ar 1239  0.3505857E+02  0.1070047E+02  0.8105136E+01  0.3321111E+03
Ar 1240  0.3289594E+02  0.1345131E+02  0.7764362E+01  0.2819751E+03
Ar 1241  0.3268424E+02  0.1053740E+02  0.1053740E+02  0.2067465E+03
Ar 1242  0.3540378E+02  0.1352308E+02  0.1088401E+02  0.1652574E+03
Ar 1243  0.3540378E+02  0.1088401E+02  0.1352308E+02  0.1652574E+03
Ar 1244  0.3249126E+02  0.1327405E+02  0.1327405E+02  0.2033745E+03
Ar 1245  0.3277657E+02  0.1050934E+02  0.1606816E+02  0.5355122E+02
Ar 1246  0.3510254E+02  0.1355327E+02  0.1617227E+02  0.2044220E+03
Ar 1247  0.3529482E+02  0.1073178E+02  0.1886439E+02  0.2495822E+02
Ar 1248  0.3250221E+02  0.1360832E+02  0.1861571E+02  0.9408488E+02
Ar 1249  0.3250802E+02  0.1075505E+02  0.2127267E+02  0.7497121E+02
Ar 1250  0.3505330E+02  0.1359472E+02  0.2145047E+02  0.3851517E+02
Ar 1251  0.3482988E+02  0.1061593E+02  0.2445877E+02  0.4636080E+02
Ar 1252  0.3228576E+02  0.1378071E+02  0.2452184E+02  0.3070863E+03
Ar 1253  0.3262955E+02  0.1066693E+02  0.2716404E+02  0.1295118E+03
Ar 1254  0.3493527E+02  0.1326256E+02  0.2687433E+02  0.1266459E+03
Ar 1255  0.3501426E+02  0.1072914E+02  0.2974770E+02  0.1675846E+02
Ar 1256  0.3238788E+02  0.1355116E+02  0.2959335E+02  0.1847035E+02
Ar 1257  0.3195394E+02  0.1106198E+02  0.3195394E+02  0.1554965E+02
Ar 1258  0.3537758E+02  0.1322875E+02  0.3245008E+02  0.2988244E+02
Ar 1259  0.3518623E+02  0.1074555E+02  0.3518623E+02  0.7613402E+01
Ar 1260  0.3245008E+02  0.1322875E+02  0.3537758E+02  0.2988244E+02
Ar 1261  0.3249786E+02  0.1632687E+02  0.3755594E+02  0.1808789E+03
Ar 1262  0.3523248E+02  0.1913409E+02  0.6960859E-01  0.3277678E+02
Ar 1263  0.3476759E+02  0.1646461E+02  0.2510948E+01  0.2322643E+03
Ar 1264  0.3227210E+02  0.1886054E+02  0.2621429E+01  0.1004091E+03
Ar 1265  0.3230682E+02  0.1592324E+02  0.4912893E+01  0.4389662E+02
Ar 1266  0.3509104E+02  0.1885605E+02  0.5209293E+01  0.4812018E+02
Ar 1267  0.3529098E+02  0.1622461E+02  0.8004011E+01  0.6184908E+02
Ar 1268  0.3293059E+02  0.1875921E+02  0.7705001E+01  0.2953672E+03
Ar 1269  0.3277657E+02  0.1606816E+02  0.1050934E+02  0.5355122E+02
Ar 1270  0.3529482E+02  0.1886439E+02  0.1073178E+02  0.2495822E+02
Ar 1271  0.3510254E+02  0.1617227E+02  0.1355327E+02  0.2044220E+03
Ar 1272  0.3250221E+02  0.1861571E+02  0.1360832E+02  0.9408488E+02
Ar 1273  0.3244677E+02  0.1614246E+02  0.1614246E+02  0.5745890E+02
Ar 1274  0.3511532E+02  0.1866000E+02  0.1618121E+02  0.9284368E+02
Ar 1275  0.3511532E+02  0.1618121E+02  0.1866000E+02  0.9284368E+02
Ar 1276  0.3222506E+02  0.1855565E+02  0.1855565E+02  0.2838085E+02
Ar 1277  0.3238534E+02  0.1588493E+02  0.2132253E+02  0.1166332E+03
Ar 1278  0.3514825E+02  0.1861696E+02  0.2165351E+02  0.6293069E+02
Ar 1279  0.3491442E+02  0.1606463E+02  0.2442440E+02  0.4723539E+02
Ar 1280  0.3238911E+02  0.1862195E+02  0.2388365E+02  0.3147311E+03
Ar 1281  0.3236627E+02  0.1633604E+02  0.2722176E+02  0.7271537E+02
Ar 1282  0.3502965E+02  0.1920593E+02  0.2739769E+02  0.1498948E+03
Ar 1283  0.3501353E+02  0.1666104E+02  0.2985362E+02  0.1420061E+03
Ar 1284  0.3218956E+02  0.1917646E+02  0.2971001E+02  0.1184521E+03
Ar 1285  0.3281928E+02  0.1615220E+02  0.3281928E+02  0.1232730E+01
Ar 1286  0.3522568E+02  0.1914145E+02  0.3259489E+02  0.2342881E+03
Ar 1287  0.3507158E+02  0.1571715E+02  0.3507158E+02  0.2082838E+03
Ar 1288  0.3259489E+02  0.1914145E+02  0.3522568E+02  0.2342881E+03
Ar 1289  0.3268656E+02  0.2158185E+02  0.1261191E+00  0.1994846E+02
Ar 1290  0.3515274E+02  0.2461173E+02  0.1065383E-01  0.1825509E+03
Ar 1291  0.3497680E+02  0.2163363E+02  0.2633872E+01  0.1382739E+03
Ar 1292  0.3267643E+02  0.2456801E+02  0.2618133E+01  0.7279042E+02
Ar 1293  0.3252292E+02  0.2166268E+02  0.5416555E+01  0.2042705E+01
Ar 1294  0.3517834E+02  0.2447345E+02  0.5260049E+01  0.5495213E+02
Ar 1295  0.3519983E+02  0.2198950E+02  0.7804767E+01  0.5312322E+02
Ar 1296  0.3232246E+02  0.2430210E+02  0.8233474E+01  0.2765780E+02
Ar 1297  0.3250802E+02  0.2127267E+02  0.1075505E+02  0.7497121E+02
Ar 1298  0.3482988E+02  0.2445877E+02  0.1061593E+02  0.4636080E+02
Ar 1299  0.3505330E+02  0.2145047E+02  0.1359472E+02  0.3851517E+02
Ar 1300  0.3228576E+02  0.2452184E+02  0.1378071E+02  0.3070863E+03
Ar 1301  0.3238534E+02  0.2132253E+02  0.1588493E+02  0.1166332E+03
Ar 1302  0.3491442E+02  0.2442440E+02  0.1606463E+02  0.4723539E+02
Ar 1303  0.3514825E+02  0.2165351E+02  0.1861696E+02  0.6293069E+02
Ar 1304  0.3238911E+02  0.2388365E+02  0.1862195E+02  0.3147311E+03
Ar 1305  0.3252243E+02  0.2124175E+02  0.2124175E+02  0.6297954E+02
Ar 1306  0.3493858E+02  0.2453007E+02  0.2123305E+02  0.8692050E+02
Ar 1307  0.3493858E+02  0.2123305E+02  0.2453007E+02  0.8692050E+02
Ar 1308  0.3210684E+02  0.2392636E+02  0.2392636E+02  0.5533614E+03
Ar 1309  0.3235429E+02  0.2182483E+02  0.2716705E+02  0.6001356E+01
Ar 1310  0.3536625E+02  0.2432020E+02  0.2733661E+02  0.1891935E+03
Ar 1311  0.3522181E+02  0.2184613E+02  0.2964709E+02  0.2025804E+03
Ar 1312  0.3266218E+02  0.2442354E+02  0.2998586E+02  0.1802237E+03
Ar 1313  0.3280458E+02  0.2166262E+02  0.3280458E+02  0.2079024E+02
Ar 1314  0.3520229E+02  0.2441513E+02  0.3246304E+02  0.8538172E+02
Ar 1315  0.3524465E+02  0.2194737E+02  0.3524465E+02  0.4905426E+02
Ar 1316  0.3246304E+02  0.2441513E+02  0.3520229E+02  0.8538172E+02
Ar 1317  0.3284311E+02  0.2715412E+02  0.2879571E+00  0.4601743E+02
Ar 1318  0.3529746E+02  0.2968878E+02  0.2947503E+00  0.8224631E+02
Ar 1319  0.3558030E+02  0.2717169E+02  0.2933820E+01  0.3275810E+02
Ar 1320  0.3284344E+02  0.2999482E+02  0.2730017E+01  0.8428904E+02
Ar 1321  0.3233845E+02  0.2674345E+02  0.5502338E+01  0.2585201E+03
Ar 1322  0.3501498E+02  0.2977391E+02  0.5452470E+01  0.1146007E+03
Ar 1323  0.3487863E+02  0.2727264E+02  0.8065368E+01  0.1958346E+03
Ar 1324  0.3228667E+02  0.2973430E+02  0.8038694E+01  0.8521965E+02
Ar 1325  0.3262955E+02  0.2716404E+02  0.1066693E+02  0.1295118E+03
Ar 1326  0.3501426E+02  0.2974770E+02  0.1072914E+02  0.1675846E+02
Ar 1327  0.3493527E+02  0.2687433E+02  0.1326256E+02  0.1266459E+03
Ar 1328  0.3238788E+02  0.2959335E+02  0.1355116E+02  0.1847035E+02
Ar 1329  0.3236627E+02  0.2722176E+02  0.1633604E+02  0.7271537E+02
Ar 1330  0.3501353E+02  0.2985362E+02  0.1666104E+02  0.1420061E+03
Ar 1331  0.3502965E+02  0.2739769E+02  0.1920593E+02  0.1498948E+03
Ar 1332  0.3218956E+02  0.2971001E+02  0.1917646E+02  0.1184521E+03
Ar 1333  0.3235429E+02  0.2716705E+02  0.2182483E+02  0.6001356E+01
Ar 1334  0.3522181E+02  0.2964709E+02  0.2184613E+02  0.2025804E+03
Ar 1335  0.3536625E+02  0.2733661E+02  0.2432020E+02  0.1891935E+03
Ar 1336  0.3266218E+02  0.2998586E+02  0.2442354E+02  0.1802237E+03
Ar 1337  0.3271196E+02  0.2723913E+02  0.2723913E+02  0.2855169E+03
Ar 1338  0.3519762E+02  0.3017664E+02  0.2714871E+02  0.2431213E+03
Ar 1339  0.3519762E+02  0.2714871E+02  0.3017664E+02  0.2431213E+03
Ar 1340  0.3303345E+02  0.3018110E+02  0.3018110E+02  0.1258619E+02
Ar 1341  0.3212987E+02  0.2758399E+02  0.3212987E+02  0.1238284E+03
Ar 1342  0.3559763E+02  0.3012441E+02  0.3279244E+02  0.2373846E+02
Ar 1343  0.3526842E+02  0.2714262E+02  0.3526842E+02  0.1692637E+03
Ar 1344  0.3279244E+02  0.3012441E+02  0.3559763E+02  0.2373846E+02
Ar 1345  0.3268976E+02  0.3268976E+02  0.6948046E+00  0.3297965E+02
Ar 1346  0.3511702E+02  0.3511702E+02  0.2377823E+00  0.5467099E+03
Ar 1347  0.3522265E+02  0.3292062E+02  0.3109087E+01  0.9984420E+01
Ar 1348  0.3292062E+02  0.3522265E+02  0.3109087E+01  0.9984420E+01
Ar 1349  0.3221506E+02  0.3221506E+02  0.5381383E+01  0.4247484E+02
Ar 1350  0.3475998E+02  0.3475998E+02  0.5890193E+01  0.1402952E+02
Ar 1351  0.3502568E+02  0.3250525E+02  0.8375112E+01  0.2652649E+01
Ar 1352  0.3250525E+02  0.3502568E+02  0.8375112E+01  0.2652649E+01
Ar 1353  0.3195394E+02  0.3195394E+02  0.1106198E+02  0.1554965E+02
Ar 1354  0.3518623E+02  0.3518623E+02  0.1074555E+02  0.7613402E+01
Ar 1355  0.3537758E+02  0.3245008E+02  0.1322875E+02  0.2988244E+02
Ar 1356  0.3245008E+02  0.3537758E+02  0.1322875E+02  0.2988244E+02
Ar 1357  0.3281928E+02  0.3281928E+02  0.1615220E+02  0.1232730E+01
Ar 1358  0.3507158E+02  0.3507158E+02  0.1571715E+02  0.2082838E+03
Ar 1359  0.3522568E+02  0.3259489E+02  0.1914145E+02  0.2342881E+03
Ar 1360  0.3259489E+02  0.3522568E+02  0.1914145E+02  0.2342881E+03
Ar 1361  0.3280458E+02  0.3280458E+02  0.2166262E+02  0.2079024E+02
Ar 1362  0.3524465E+02  0.3524465E+02  0.2194737E+02  0.4905426E+02
Ar 1363  0.3520229E+02  0.3246304E+02  0.2441513E+02  0.8538172E+02
Ar 1364  0.3246304E+02  0.3520229E+02  0.2441513E+02  0.8538172E+02
Ar 1365  0.3212987E+02  0.3212987E+02  0.2758399E+02  0.1238284E+03
Ar 1366  0.3526842E+02  0.3526842E+02  0.2714262E+02  0.1692637E+03
Ar 1367  0.3559763E+02  0.3279244E+02  0.3012441E+02  0.2373846E+02
Ar 1368  0.3279244E+02  0.3559763E+02  0.3012441E+02  0.2373846E+02
Ar 1369  0.3261156E+02  0.3261156E+02  0.3261156E+02  0.9390189E+01
Ar 1370  0.3526015E+02  0.3526015E+02  0.3265196E+02  0.3909608E+02
Ar 1371  0.3526015E+02  0.3265196E+02  0.3526015E+02  0.3909608E+02
Ar 1372  0.3265196E+02  0.3526015E+02  0.3526015E+02  0.3909608E+02
