        1372
Lattice="  0.3778015E+02  0.0000000E+00  0.0000000E+00  0.0000000E+00  0.3778015E+02  0.0000000E+00  0.0000000E+00  0.0000000E+00  0.3778015E+02" Properties=species:S:1:id:I:1:pos:R:3:tempK:R:1
Ar    1  0.3756283E+02  0.4481397E-01  0.9444090E+00  0.1575346E+03
Ar    2  0.2570385E+01  0.3474770E+01  0.2686488E+00  0.3187107E+02
Ar    3  0.3139679E+01  0.2358076E+00  0.2513814E+01  0.6640637E+03
Ar    4  0.3771702E+02  0.3097359E+01  0.2676651E+01  0.2716472E+03
Ar    5  0.3776578E+02  0.3729582E+02  0.5102975E+01  0.4078168E+02
Ar    6  0.2925068E+01  0.2722535E+01  0.5284291E+01  0.1138039E+03
Ar    7  0.2903568E+01  0.4145312E+00  0.8242781E+01  0.1602895E+01
Ar    8  0.3734572E+02  0.2718204E+01  0.7916088E+01  0.5822186E+03
Ar    9  0.2492122E+00  0.3742325E+02  0.1116693E+02  0.1384508E+03
Ar   10  0.2858288E+01  0.2712428E+01  0.1090773E+02  0.6113967E+02
Ar   11  0.2916965E+01  0.3777407E+02  0.1338570E+02  0.1687311E+03
Ar   12  0.3745116E+02  0.2702661E+01  0.1368086E+02  0.2154501E+03
Ar   13  0.8840287E-01  0.3759739E+02  0.1660640E+02  0.2038398E+03
Ar   14  0.2198578E+01  0.2615337E+01  0.1629623E+02  0.1662229E+03
Ar   15  0.3229716E+01  0.1185462E-01  0.1849283E+02  0.2159848E+03
Ar   16  0.1858105E+00  0.1999818E+01  0.1912563E+02  0.1063848E+03
Ar   17  0.3776834E+02  0.3702799E+02  0.2167476E+02  0.2446173E+03
Ar   18  0.2314749E+01  0.2089995E+01  0.2175060E+02  0.1106071E+03
Ar   19  0.2811414E+01  0.5862808E-01  0.2464213E+02  0.4991030E+02
Ar   20  0.1009084E+00  0.2218035E+01  0.2466530E+02  0.1366107E+03
Ar   21  0.9926888E-01  0.3752720E+02  0.2717536E+02  0.3720489E+03
Ar   22  0.2812880E+01  0.2835963E+01  0.2740098E+02  0.8146039E+02
Ar   23  0.2609873E+01  0.3735958E+02  0.2996742E+02  0.3288664E+02
Ar   24  0.3761999E+02  0.2581549E+01  0.3054053E+02  0.1777463E+02
Ar   25  0.3756096E+02  0.3747458E+02  0.3244753E+02  0.2178630E+03
Ar   26  0.3205387E+01  0.2858977E+01  0.3270652E+02  0.1861398E+03
Ar   27  0.2710967E+01  0.3032993E+00  0.3484966E+02  0.1548826E+03
Ar   28  0.1823817E+00  0.2880340E+01  0.3492685E+02  0.6364240E+02
Ar   29  0.3776621E+02  0.5584014E+01  0.3715727E+02  0.2847724E+03
Ar   30  0.3188482E+01  0.7931787E+01  0.4105181E-01  0.6060059E+03
Ar   31  0.2652996E+01  0.5650474E+01  0.2597214E+01  0.1444359E+02
Ar   32  0.2167918E+00  0.8219196E+01  0.2359578E+01  0.2706299E+03
Ar   33  0.1702018E+00  0.5701072E+01  0.5162261E+01  0.1800237E+03
Ar   34  0.2844064E+01  0.8408764E+01  0.5412845E+01  0.1194290E+03
Ar   35  0.2958513E+01  0.5712061E+01  0.7656353E+01  0.3014127E+03
Ar   36  0.3760529E+02  0.8145571E+01  0.7645439E+01  0.1608892E+02
Ar   37  0.3746814E+02  0.5236980E+01  0.1096123E+02  0.6951747E+02
Ar   38  0.2516740E+01  0.8332018E+01  0.1012684E+02  0.2501065E+02
Ar   39  0.2553342E+01  0.5178268E+01  0.1334062E+02  0.2198779E+03
Ar   40  0.3755525E+02  0.7792385E+01  0.1335344E+02  0.1408066E+03
Ar   41  0.3753340E+02  0.5482253E+01  0.1619925E+02  0.8516918E+03
Ar   42  0.1962977E+01  0.8274637E+01  0.1580172E+02  0.9937904E+02
Ar   43  0.2293803E+01  0.5114003E+01  0.1893604E+02  0.2928839E+02
Ar   44  0.3732719E+02  0.8184895E+01  0.1914967E+02  0.1211721E+03
Ar   45  0.1874136E+00  0.5303922E+01  0.2177854E+02  0.1484808E+03
Ar   46  0.2488332E+01  0.7883072E+01  0.2145747E+02  0.1473037E+03
Ar   47  0.2680374E+01  0.5043019E+01  0.2454645E+02  0.6250799E+02
Ar   48  0.3504485E+00  0.7799055E+01  0.2449220E+02  0.1536515E+03
Ar   49  0.3766066E+02  0.5506218E+01  0.2750348E+02  0.2864947E+03
Ar   50  0.2731075E+01  0.7917724E+01  0.2744344E+02  0.1801046E+03
Ar   51  0.2809372E+01  0.4923600E+01  0.2993800E+02  0.3467281E+02
Ar   52  0.8060553E-01  0.8154593E+01  0.3020003E+02  0.2034192E+03
Ar   53  0.3773983E+02  0.5506183E+01  0.3246414E+02  0.5265603E+03
Ar   54  0.3101750E+01  0.7781094E+01  0.3238238E+02  0.3526031E+03
Ar   55  0.2788415E+01  0.5654298E+01  0.3499424E+02  0.5853743E+02
Ar   56  0.9249531E-01  0.7787587E+01  0.3467454E+02  0.2801559E+03
Ar   57  0.5524746E+00  0.1040267E+02  0.3748377E+02  0.4328725E+03
Ar   58  0.2499957E+01  0.1326076E+02  0.3661177E+02  0.2256250E+03
Ar   59  0.2616414E+01  0.1065966E+02  0.2626356E+01  0.6130645E+03
Ar   60  0.1349987E+00  0.1371088E+02  0.2730950E+01  0.1902625E+03
Ar   61  0.2849988E+00  0.1097465E+02  0.5107329E+01  0.1176634E+03
Ar   62  0.2469999E+01  0.1362295E+02  0.5257544E+01  0.2310915E+03
Ar   63  0.2696006E+01  0.1095620E+02  0.7850152E+01  0.1855115E+03
Ar   64  0.7046473E-01  0.1399442E+02  0.8101768E+01  0.9537036E+03
Ar   65  0.3754070E+02  0.1080651E+02  0.1060609E+02  0.4509504E+03
Ar   66  0.2574191E+01  0.1348236E+02  0.1086427E+02  0.2341041E+03
Ar   67  0.2499806E+01  0.1052701E+02  0.1282292E+02  0.3576975E+03
Ar   68  0.3741496E+02  0.1332087E+02  0.1332406E+02  0.1143981E+03
Ar   69  0.3776202E+02  0.1093901E+02  0.1613947E+02  0.1309084E+03
Ar   70  0.2975339E+01  0.1282681E+02  0.1549875E+02  0.3492288E+03
Ar   71  0.2207614E+01  0.1029397E+02  0.1869444E+02  0.1726477E+03
Ar   72  0.3772878E+02  0.1341705E+02  0.1822295E+02  0.4816109E+03
Ar   73  0.3776260E+02  0.1104582E+02  0.2241949E+02  0.3180219E+03
Ar   74  0.2263892E+01  0.1345479E+02  0.2125085E+02  0.1102139E+03
Ar   75  0.2486612E+01  0.1045178E+02  0.2490588E+02  0.1229888E+03
Ar   76  0.3742353E+02  0.1382232E+02  0.2513379E+02  0.3145902E+03
Ar   77  0.2175741E+00  0.1086285E+02  0.2771906E+02  0.9410495E+01
Ar   78  0.2982705E+01  0.1381851E+02  0.2737640E+02  0.1135301E+03
Ar   79  0.2964809E+01  0.1105578E+02  0.2998054E+02  0.1503384E+03
Ar   80  0.7395471E-01  0.1385456E+02  0.3053778E+02  0.9367094E+02
Ar   81  0.3774191E+02  0.1100114E+02  0.3297409E+02  0.1676026E+03
Ar   82  0.2502067E+01  0.1334284E+02  0.3329758E+02  0.2365856E+03
Ar   83  0.2912676E+01  0.1011495E+02  0.3476257E+02  0.3142897E+03
Ar   84  0.3708432E+02  0.1362310E+02  0.3490237E+02  0.1689078E+03
Ar   85  0.3078421E+00  0.1608188E+02  0.6678045E-01  0.4335981E+02
Ar   86  0.2761956E+01  0.1893806E+02  0.2394152E+00  0.2312889E+03
Ar   87  0.2540347E+01  0.1635265E+02  0.2884291E+01  0.1626153E+02
Ar   88  0.3748690E+02  0.1939533E+02  0.2180143E+01  0.1415675E+03
Ar   89  0.2912397E-01  0.1644373E+02  0.5497090E+01  0.7792906E+03
Ar   90  0.2492798E+01  0.1900099E+02  0.5125570E+01  0.1094707E+03
Ar   91  0.3006859E+01  0.1626377E+02  0.7899712E+01  0.1212002E+03
Ar   92  0.1518697E+00  0.1901776E+02  0.7898464E+01  0.2945215E+03
Ar   93  0.7301021E-01  0.1657056E+02  0.1086942E+02  0.2862924E+03
Ar   94  0.2814710E+01  0.1889016E+02  0.1031709E+02  0.1308133E+03
Ar   95  0.3299547E+01  0.1591885E+02  0.1328172E+02  0.3348087E+03
Ar   96  0.6502688E+00  0.1865624E+02  0.1379336E+02  0.2152107E+03
Ar   97  0.1156529E+01  0.1566887E+02  0.1608041E+02  0.3710758E+02
Ar   98  0.3398835E+01  0.1872209E+02  0.1598501E+02  0.1982251E+03
Ar   99  0.2899981E+01  0.1600136E+02  0.1876441E+02  0.9065302E+03
Ar  100  0.6339811E+00  0.1847349E+02  0.1831946E+02  0.2298198E+03
Ar  101  0.3762076E+02  0.1564900E+02  0.2179567E+02  0.1393164E+03
Ar  102  0.2540927E+01  0.1815086E+02  0.2136734E+02  0.1726081E+03
Ar  103  0.2150658E+01  0.1594015E+02  0.2410827E+02  0.1094442E+03
Ar  104  0.3738562E+02  0.1835679E+02  0.2438707E+02  0.1514187E+03
Ar  105  0.3762144E+02  0.1591990E+02  0.2789672E+02  0.4835176E+03
Ar  106  0.2254923E+01  0.1845485E+02  0.2665440E+02  0.2568270E+03
Ar  107  0.2858558E+01  0.1612218E+02  0.3026049E+02  0.8432744E+02
Ar  108  0.1716255E+00  0.1889332E+02  0.2981206E+02  0.4387118E+03
Ar  109  0.3348011E+00  0.1635414E+02  0.3288462E+02  0.1026461E+03
Ar  110  0.2924728E+01  0.1899191E+02  0.3292150E+02  0.4929881E+03
Ar  111  0.3457382E+01  0.1636897E+02  0.3545131E+02  0.2468612E+03
Ar  112  0.1158567E+00  0.1904307E+02  0.3551737E+02  0.1780124E+02
Ar  113  0.3773458E+02  0.2198167E+02  0.3758879E+02  0.5241139E+03
Ar  114  0.2816907E+01  0.2439122E+02  0.1175869E+00  0.7742851E+02
Ar  115  0.2435291E+01  0.2154299E+02  0.2575347E+01  0.9279526E+02
Ar  116  0.3737641E+02  0.2430658E+02  0.2482498E+01  0.1125346E+03
Ar  117  0.3767595E+02  0.2180705E+02  0.5073933E+01  0.3427991E+02
Ar  118  0.2826180E+01  0.2412829E+02  0.5625941E+01  0.8080536E+02
Ar  119  0.2771421E+01  0.2184634E+02  0.8169128E+01  0.4267055E+02
Ar  120  0.3419615E-02  0.2428274E+02  0.8205331E+01  0.3715532E+02
Ar  121  0.3775503E+02  0.2134218E+02  0.1106992E+02  0.3144984E+03
Ar  122  0.2845027E+01  0.2427918E+02  0.1100329E+02  0.5864915E+02
Ar  123  0.2902831E+01  0.2147107E+02  0.1338457E+02  0.5163689E+03
Ar  124  0.2289069E+00  0.2401916E+02  0.1365954E+02  0.1845037E+03
Ar  125  0.4226636E+00  0.2120739E+02  0.1617101E+02  0.4133420E+03
Ar  126  0.2699086E+01  0.2407564E+02  0.1623675E+02  0.2702695E+03
Ar  127  0.2940457E+01  0.2102881E+02  0.1861815E+02  0.5868150E+02
Ar  128  0.2099416E+00  0.2415208E+02  0.1881155E+02  0.1743003E+03
Ar  129  0.5318337E+00  0.2141028E+02  0.2142649E+02  0.1653282E+03
Ar  130  0.2888684E+01  0.2401369E+02  0.2135402E+02  0.3202083E+02
Ar  131  0.2700683E+01  0.2099201E+02  0.2403628E+02  0.2089963E+03
Ar  132  0.2701887E+00  0.2401416E+02  0.2354303E+02  0.2961186E+03
Ar  133  0.1695820E+00  0.2130156E+02  0.2626861E+02  0.4204402E+03
Ar  134  0.2464410E+01  0.2380031E+02  0.2632655E+02  0.8623002E+02
Ar  135  0.2354301E+01  0.2163709E+02  0.2938960E+02  0.8869478E+02
Ar  136  0.5490226E-01  0.2466196E+02  0.2899089E+02  0.4179997E+03
Ar  137  0.9595031E-01  0.2168208E+02  0.3250070E+02  0.3350080E+03
Ar  138  0.2280105E+01  0.2417831E+02  0.3200483E+02  0.2238247E+03
Ar  139  0.2457605E+01  0.2194201E+02  0.3532071E+02  0.1914153E+03
Ar  140  0.5637496E-01  0.2453834E+02  0.3512564E+02  0.2798853E+03
Ar  141  0.3760708E+02  0.2696100E+02  0.3724065E+02  0.3827826E+03
Ar  142  0.2814612E+01  0.2961915E+02  0.3757364E+02  0.3071836E+03
Ar  143  0.1907833E+01  0.2690117E+02  0.2519996E+01  0.8027773E+02
Ar  144  0.1092050E+00  0.2994303E+02  0.2675253E+01  0.1485914E+03
Ar  145  0.1992534E+00  0.2678017E+02  0.5817505E+01  0.3426756E+02
Ar  146  0.2723304E+01  0.2945050E+02  0.5548797E+01  0.3349240E+03
Ar  147  0.3059789E+01  0.2738263E+02  0.8189974E+01  0.5384282E+02
Ar  148  0.1182828E-02  0.2941252E+02  0.7819638E+01  0.3069569E+03
Ar  149  0.7363781E+00  0.2690509E+02  0.1025721E+02  0.3841281E+03
Ar  150  0.3284678E+01  0.2974899E+02  0.1146942E+02  0.2472927E+03
Ar  151  0.2610617E+01  0.2674522E+02  0.1326773E+02  0.1868193E+03
Ar  152  0.6218893E+00  0.2964192E+02  0.1393900E+02  0.1888109E+03
Ar  153  0.1484102E+00  0.2654190E+02  0.1639239E+02  0.6145403E+02
Ar  154  0.3166901E+01  0.2922400E+02  0.1589014E+02  0.1125495E+03
Ar  155  0.3004533E+01  0.2700570E+02  0.1841748E+02  0.1073434E+02
Ar  156  0.2737778E+00  0.2946352E+02  0.1883169E+02  0.1203859E+03
Ar  157  0.3087887E+00  0.2692282E+02  0.2100271E+02  0.4621205E+02
Ar  158  0.3370255E+01  0.2918881E+02  0.2141617E+02  0.6153549E+02
Ar  159  0.3020464E+01  0.2676834E+02  0.2375738E+02  0.3056080E+03
Ar  160  0.2436094E+00  0.2926871E+02  0.2392128E+02  0.1267653E+03
Ar  161  0.3777960E+02  0.2698641E+02  0.2640701E+02  0.1443691E+03
Ar  162  0.2424806E+01  0.2930286E+02  0.2690415E+02  0.4867921E+03
Ar  163  0.2791572E+01  0.2658870E+02  0.2920893E+02  0.6184380E+03
Ar  164  0.2331575E+00  0.2886910E+02  0.2965247E+02  0.1247859E+03
Ar  165  0.1352439E+00  0.2688522E+02  0.3277135E+02  0.3662048E+03
Ar  166  0.2917391E+01  0.2953089E+02  0.3221501E+02  0.2986905E+02
Ar  167  0.2920905E+01  0.2682035E+02  0.3540759E+02  0.7868462E+02
Ar  168  0.3771077E+02  0.2985062E+02  0.3444963E+02  0.3029339E+03
Ar  169  0.3734096E+02  0.3242845E+02  0.3735413E+02  0.3036422E+03
Ar  170  0.1806327E+01  0.3523883E+02  0.3689654E+02  0.8289380E+02
Ar  171  0.2751605E+01  0.3240965E+02  0.2023984E+01  0.3829759E+03
Ar  172  0.3756574E+02  0.3448994E+02  0.2609436E+01  0.3704445E+03
Ar  173  0.2347960E+00  0.3238197E+02  0.4883252E+01  0.1164440E+03
Ar  174  0.2991407E+01  0.3486638E+02  0.4927142E+01  0.3992566E+03
Ar  175  0.2715967E+01  0.3211818E+02  0.8488676E+01  0.6406798E+02
Ar  176  0.7535121E+00  0.3508755E+02  0.8448258E+01  0.2420691E+03
Ar  177  0.2578349E+00  0.3203946E+02  0.1117246E+02  0.8229495E+02
Ar  178  0.2701680E+01  0.3473494E+02  0.1131189E+02  0.5117157E+02
Ar  179  0.2946994E+01  0.3250341E+02  0.1366371E+02  0.1341880E+03
Ar  180  0.9926776E-02  0.3489510E+02  0.1346356E+02  0.1457737E+03
Ar  181  0.5899875E+00  0.3260004E+02  0.1641560E+02  0.2926918E+03
Ar  182  0.3007461E+01  0.3539794E+02  0.1601157E+02  0.2166886E+03
Ar  183  0.2253645E+01  0.3277944E+02  0.1961141E+02  0.4822962E+02
Ar  184  0.3756058E+02  0.3504868E+02  0.1864990E+02  0.5599309E+03
Ar  185  0.3727635E+02  0.3202561E+02  0.2172249E+02  0.9777385E+02
Ar  186  0.3012035E+01  0.3540588E+02  0.2190516E+02  0.3062701E+02
Ar  187  0.2607479E+01  0.3226615E+02  0.2437973E+02  0.3734374E+03
Ar  188  0.2716370E+00  0.3478221E+02  0.2468538E+02  0.5350863E+03
Ar  189  0.3706623E+02  0.3156987E+02  0.2689435E+02  0.1035400E+03
Ar  190  0.2728757E+01  0.3471659E+02  0.2732195E+02  0.2391448E+03
Ar  191  0.2990592E+01  0.3181659E+02  0.2943269E+02  0.1765791E+03
Ar  192  0.1801025E-01  0.3492437E+02  0.3000096E+02  0.1297336E+03
Ar  193  0.3042873E+00  0.3225273E+02  0.3199418E+02  0.4133430E+02
Ar  194  0.2687748E+01  0.3493113E+02  0.3254138E+02  0.1176917E+03
Ar  195  0.2769927E+01  0.3189504E+02  0.3480901E+02  0.1963981E+03
Ar  196  0.3706924E+02  0.3466009E+02  0.3443014E+02  0.1386788E+03
Ar  197  0.5309065E+01  0.2752311E+00  0.3734163E+02  0.1263416E+03
Ar  198  0.8103878E+01  0.2794817E+01  0.3867618E+00  0.4736934E+03
Ar  199  0.8033043E+01  0.3735183E+02  0.2641931E+01  0.7607179E+02
Ar  200  0.5948700E+01  0.2267342E+01  0.2914870E+01  0.7607814E+02
Ar  201  0.5153638E+01  0.2594122E-01  0.5528008E+01  0.2175653E+03
Ar  202  0.8234909E+01  0.2863047E+01  0.5526454E+01  0.2002308E+03
Ar  203  0.8477734E+01  0.3575047E+00  0.7944959E+01  0.2245913E+02
Ar  204  0.5497505E+01  0.3277248E+01  0.7955021E+01  0.8225855E+03
Ar  205  0.5573876E+01  0.1477354E+00  0.1066493E+02  0.2131625E+03
Ar  206  0.7974757E+01  0.2726435E+01  0.1078518E+02  0.1363440E+03
Ar  207  0.8436968E+01  0.4864755E+00  0.1338886E+02  0.1014051E+03
Ar  208  0.5207197E+01  0.2808301E+01  0.1361408E+02  0.3459458E+03
Ar  209  0.5923296E+01  0.1767618E+00  0.1622333E+02  0.4151432E+02
Ar  210  0.7813761E+01  0.2687727E+01  0.1659504E+02  0.8004513E+02
Ar  211  0.8168417E+01  0.1929044E+00  0.1903408E+02  0.1033024E+03
Ar  212  0.5104979E+01  0.2897330E+01  0.1966790E+02  0.7231496E+02
Ar  213  0.5456488E+01  0.2089959E+00  0.2166643E+02  0.5366813E+03
Ar  214  0.7851814E+01  0.2623135E+01  0.2169094E+02  0.1370502E+03
Ar  215  0.7876056E+01  0.2364514E+00  0.2469493E+02  0.1359425E+03
Ar  216  0.5252031E+01  0.2614847E+01  0.2421898E+02  0.8520570E+02
Ar  217  0.5409797E+01  0.3714508E+02  0.2786143E+02  0.6612515E+02
Ar  218  0.7822952E+01  0.2865777E+01  0.2695793E+02  0.2703297E+03
Ar  219  0.8368939E+01  0.3764051E+02  0.2970721E+02  0.2411553E+03
Ar  220  0.5396901E+01  0.2421163E+01  0.3021191E+02  0.1123544E+03
Ar  221  0.5810506E+01  0.3688852E+02  0.3180447E+02  0.4304755E+03
Ar  222  0.7773808E+01  0.2701916E+01  0.3247330E+02  0.2229046E+03
Ar  223  0.7824350E+01  0.3763210E+02  0.3465805E+02  0.1663021E+03
Ar  224  0.5261091E+01  0.2911982E+01  0.3541930E+02  0.8165661E+03
Ar  225  0.5538137E+01  0.5252777E+01  0.3776917E+02  0.4492766E+02
Ar  226  0.8028516E+01  0.7556845E+01  0.1495240E+00  0.2612281E+03
Ar  227  0.8156494E+01  0.5384153E+01  0.2718022E+01  0.1039387E+03
Ar  228  0.5321985E+01  0.8608744E+01  0.2790576E+01  0.2882947E+02
Ar  229  0.5293871E+01  0.5594224E+01  0.4724732E+01  0.1316530E+03
Ar  230  0.8356968E+01  0.8272753E+01  0.5361825E+01  0.2017403E+03
Ar  231  0.7965516E+01  0.5934635E+01  0.7795812E+01  0.3418207E+02
Ar  232  0.5272998E+01  0.8501300E+01  0.8076377E+01  0.2714866E+03
Ar  233  0.5035834E+01  0.5430960E+01  0.1092056E+02  0.7545462E+02
Ar  234  0.7600173E+01  0.8327806E+01  0.1050290E+02  0.2967579E+03
Ar  235  0.7978265E+01  0.5654210E+01  0.1282469E+02  0.7857715E+01
Ar  236  0.4775158E+01  0.8042867E+01  0.1327773E+02  0.1656499E+03
Ar  237  0.5254730E+01  0.4971385E+01  0.1685324E+02  0.3956178E+03
Ar  238  0.8246250E+01  0.7797248E+01  0.1603406E+02  0.1549789E+03
Ar  239  0.8231099E+01  0.5047917E+01  0.1931842E+02  0.3442052E+03
Ar  240  0.5020419E+01  0.7595070E+01  0.1890109E+02  0.9599242E+02
Ar  241  0.5535196E+01  0.5629880E+01  0.2171645E+02  0.3674686E+03
Ar  242  0.8196363E+01  0.8666413E+01  0.2138394E+02  0.1324163E+03
Ar  243  0.7872009E+01  0.5370604E+01  0.2462303E+02  0.6732470E+03
Ar  244  0.5232926E+01  0.8076524E+01  0.2410661E+02  0.2241843E+03
Ar  245  0.5503845E+01  0.5758631E+01  0.2697626E+02  0.3860352E+03
Ar  246  0.8242040E+01  0.8048430E+01  0.2703097E+02  0.1317418E+03
Ar  247  0.8105027E+01  0.5129272E+01  0.2965760E+02  0.2391828E+03
Ar  248  0.5664933E+01  0.7842615E+01  0.3013913E+02  0.1467616E+03
Ar  249  0.5891585E+01  0.5755537E+01  0.3287298E+02  0.6006341E+03
Ar  250  0.8657115E+01  0.7818054E+01  0.3238749E+02  0.2855837E+03
Ar  251  0.8172530E+01  0.5112079E+01  0.3520444E+02  0.1890746E+03
Ar  252  0.5809255E+01  0.8323761E+01  0.3519896E+02  0.2855688E+03
Ar  253  0.5495905E+01  0.1095968E+02  0.1885569E+00  0.3772145E+03
Ar  254  0.7780445E+01  0.1341461E+02  0.1514295E+00  0.1259676E+02
Ar  255  0.8129082E+01  0.1118565E+02  0.2765508E+01  0.6975466E+02
Ar  256  0.4934338E+01  0.1361503E+02  0.2796818E+01  0.2666043E+03
Ar  257  0.5583670E+01  0.1077620E+02  0.5465437E+01  0.3932136E+03
Ar  258  0.8215324E+01  0.1326630E+02  0.6184107E+01  0.1091838E+03
Ar  259  0.8209707E+01  0.1081227E+02  0.8288748E+01  0.1194432E+03
Ar  260  0.5481492E+01  0.1341681E+02  0.7695427E+01  0.2171212E+03
Ar  261  0.5166981E+01  0.1070762E+02  0.1053077E+02  0.8327385E+01
Ar  262  0.8009453E+01  0.1384130E+02  0.1060044E+02  0.1853905E+03
Ar  263  0.8113969E+01  0.1083927E+02  0.1320300E+02  0.4542733E+03
Ar  264  0.5464249E+01  0.1284541E+02  0.1333186E+02  0.1224524E+03
Ar  265  0.5886246E+01  0.1026171E+02  0.1651549E+02  0.4626007E+03
Ar  266  0.8065016E+01  0.1312036E+02  0.1603125E+02  0.6283787E+02
Ar  267  0.8611486E+01  0.1135828E+02  0.1909379E+02  0.4018972E+03
Ar  268  0.5017089E+01  0.1330999E+02  0.1911295E+02  0.4365123E+03
Ar  269  0.5409852E+01  0.1064806E+02  0.2145393E+02  0.4330906E+02
Ar  270  0.8212612E+01  0.1367682E+02  0.2204788E+02  0.6602232E+02
Ar  271  0.7318143E+01  0.1109816E+02  0.2444750E+02  0.5686881E+03
Ar  272  0.4850982E+01  0.1331254E+02  0.2444061E+02  0.4273207E+03
Ar  273  0.5505776E+01  0.1060725E+02  0.2700301E+02  0.5572163E+01
Ar  274  0.7852853E+01  0.1345277E+02  0.2682650E+02  0.2833804E+02
Ar  275  0.7959475E+01  0.1068866E+02  0.2962034E+02  0.1397470E+03
Ar  276  0.5325827E+01  0.1349226E+02  0.2993853E+02  0.6761446E+02
Ar  277  0.5273181E+01  0.1099485E+02  0.3255686E+02  0.1413190E+03
Ar  278  0.7972604E+01  0.1338034E+02  0.3234444E+02  0.8783024E+02
Ar  279  0.8327607E+01  0.1106789E+02  0.3549194E+02  0.5242292E+02
Ar  280  0.5729221E+01  0.1338799E+02  0.3514481E+02  0.1850436E+03
Ar  281  0.4924381E+01  0.1613998E+02  0.6749454E+00  0.1695315E+03
Ar  282  0.7762759E+01  0.1920483E+02  0.1013229E+00  0.6607490E+03
Ar  283  0.8045950E+01  0.1590715E+02  0.2933072E+01  0.7675911E+02
Ar  284  0.5315925E+01  0.1927191E+02  0.2913539E+01  0.1144742E+03
Ar  285  0.5318652E+01  0.1644021E+02  0.5159197E+01  0.1922523E+02
Ar  286  0.7803050E+01  0.1928984E+02  0.5435164E+01  0.4391681E+03
Ar  287  0.7929940E+01  0.1616953E+02  0.8115200E+01  0.1668330E+03
Ar  288  0.5208066E+01  0.1903089E+02  0.7669356E+01  0.1326541E+03
Ar  289  0.5419013E+01  0.1638554E+02  0.1058504E+02  0.1767059E+03
Ar  290  0.7701410E+01  0.1903939E+02  0.1040333E+02  0.1785681E+03
Ar  291  0.7774972E+01  0.1580614E+02  0.1332422E+02  0.1061976E+03
Ar  292  0.5830007E+01  0.1865438E+02  0.1307609E+02  0.1097655E+03
Ar  293  0.5568235E+01  0.1566366E+02  0.1615851E+02  0.3549778E+03
Ar  294  0.7743130E+01  0.1826795E+02  0.1607073E+02  0.4431751E+03
Ar  295  0.7909191E+01  0.1578508E+02  0.1890148E+02  0.3098749E+02
Ar  296  0.5416734E+01  0.1865519E+02  0.1902225E+02  0.1510194E+03
Ar  297  0.5471210E+01  0.1585518E+02  0.2167264E+02  0.1590493E+03
Ar  298  0.8487546E+01  0.1908446E+02  0.2237337E+02  0.2616928E+03
Ar  299  0.8166825E+01  0.1630109E+02  0.2440027E+02  0.4023395E+03
Ar  300  0.5224596E+01  0.1849665E+02  0.2434986E+02  0.7021113E+02
Ar  301  0.5566290E+01  0.1607540E+02  0.2689460E+02  0.2527882E+02
Ar  302  0.7631376E+01  0.1871571E+02  0.2716477E+02  0.2088283E+03
Ar  303  0.7692327E+01  0.1635046E+02  0.2992199E+02  0.4159749E+03
Ar  304  0.4892053E+01  0.1899452E+02  0.2979980E+02  0.2612837E+02
Ar  305  0.5341396E+01  0.1611962E+02  0.3260733E+02  0.9370661E+02
Ar  306  0.7577974E+01  0.1896734E+02  0.3259553E+02  0.2763605E+03
Ar  307  0.8079175E+01  0.1611534E+02  0.3501153E+02  0.8134951E+02
Ar  308  0.5306197E+01  0.1958403E+02  0.3559920E+02  0.3255132E+03
Ar  309  0.5549610E+01  0.2225255E+02  0.6815195E-01  0.1815967E+03
Ar  310  0.8604868E+01  0.2437015E+02  0.3746591E+02  0.2053810E+03
Ar  311  0.7920133E+01  0.2166462E+02  0.2853246E+01  0.2644370E+03
Ar  312  0.4831842E+01  0.2448432E+02  0.2865657E+01  0.7928476E+03
Ar  313  0.5405517E+01  0.2194913E+02  0.5660261E+01  0.9268678E+02
Ar  314  0.8688897E+01  0.2405266E+02  0.5605386E+01  0.5874742E+03
Ar  315  0.8214855E+01  0.2144882E+02  0.7829224E+01  0.1011649E+03
Ar  316  0.5568523E+01  0.2419621E+02  0.8286987E+01  0.5488738E+01
Ar  317  0.5607026E+01  0.2157697E+02  0.1083963E+02  0.6179248E+02
Ar  318  0.8342055E+01  0.2436384E+02  0.1068774E+02  0.1295919E+03
Ar  319  0.8082613E+01  0.2129149E+02  0.1343604E+02  0.2218961E+02
Ar  320  0.5677752E+01  0.2404732E+02  0.1352571E+02  0.6410665E+03
Ar  321  0.5840869E+01  0.2138911E+02  0.1635664E+02  0.1217539E+03
Ar  322  0.8365827E+01  0.2458624E+02  0.1636045E+02  0.8880245E+02
Ar  323  0.8019883E+01  0.2168853E+02  0.1918430E+02  0.9590343E+02
Ar  324  0.5394465E+01  0.2407721E+02  0.1884183E+02  0.3385643E+03
Ar  325  0.5818645E+01  0.2110158E+02  0.2202849E+02  0.2477944E+03
Ar  326  0.8406154E+01  0.2390139E+02  0.2194471E+02  0.3300602E+03
Ar  327  0.8428919E+01  0.2125950E+02  0.2463309E+02  0.1862928E+03
Ar  328  0.5389123E+01  0.2414939E+02  0.2427129E+02  0.5464399E+03
Ar  329  0.5134700E+01  0.2134416E+02  0.2679208E+02  0.1815877E+03
Ar  330  0.8067733E+01  0.2404731E+02  0.2731009E+02  0.3918043E+03
Ar  331  0.7906323E+01  0.2146342E+02  0.2961511E+02  0.1518806E+03
Ar  332  0.5143822E+01  0.2393768E+02  0.2952054E+02  0.3678151E+03
Ar  333  0.5064872E+01  0.2220581E+02  0.3216088E+02  0.2543838E+03
Ar  334  0.8008235E+01  0.2396838E+02  0.3247032E+02  0.1384368E+03
Ar  335  0.7989960E+01  0.2164725E+02  0.3502618E+02  0.4079924E+02
Ar  336  0.5498524E+01  0.2435614E+02  0.3530116E+02  0.5488546E+02
Ar  337  0.5698562E+01  0.2676027E+02  0.7713432E-01  0.1829719E+03
Ar  338  0.8200165E+01  0.2963404E+02  0.3769333E+02  0.4928303E+02
Ar  339  0.8152031E+01  0.2672237E+02  0.2904497E+01  0.9995902E+02
Ar  340  0.5812249E+01  0.2931264E+02  0.2382660E+01  0.5155309E+02
Ar  341  0.5492069E+01  0.2646513E+02  0.5778549E+01  0.1159170E+03
Ar  342  0.8136110E+01  0.2954335E+02  0.5164847E+01  0.1805152E+03
Ar  343  0.8532683E+01  0.2691288E+02  0.8260777E+01  0.2351069E+03
Ar  344  0.5917161E+01  0.2958519E+02  0.8735809E+01  0.3138285E+03
Ar  345  0.5784695E+01  0.2698855E+02  0.1141579E+02  0.3758972E+03
Ar  346  0.8658985E+01  0.2986669E+02  0.1097546E+02  0.1905838E+03
Ar  347  0.8523580E+01  0.2746786E+02  0.1344735E+02  0.3067050E+03
Ar  348  0.5943306E+01  0.3002432E+02  0.1365029E+02  0.1772353E+03
Ar  349  0.5654387E+01  0.2693201E+02  0.1569796E+02  0.3124897E+03
Ar  350  0.8748974E+01  0.2924282E+02  0.1676772E+02  0.1244262E+03
Ar  351  0.8556170E+01  0.2677768E+02  0.1919230E+02  0.3486409E+03
Ar  352  0.5716726E+01  0.2983892E+02  0.1838052E+02  0.3344813E+02
Ar  353  0.5911837E+01  0.2638493E+02  0.2170323E+02  0.7429654E+02
Ar  354  0.8562315E+01  0.2989942E+02  0.2090930E+02  0.1821475E+03
Ar  355  0.8501915E+01  0.2714743E+02  0.2399169E+02  0.3923753E+03
Ar  356  0.6094073E+01  0.2957741E+02  0.2420537E+02  0.3136765E+02
Ar  357  0.5341198E+01  0.2714809E+02  0.2641864E+02  0.1497804E+03
Ar  358  0.8288715E+01  0.2972206E+02  0.2690531E+02  0.2688314E+02
Ar  359  0.7820483E+01  0.2630376E+02  0.2974783E+02  0.8650539E+02
Ar  360  0.5547915E+01  0.2886276E+02  0.2982070E+02  0.8237142E+02
Ar  361  0.5407679E+01  0.2641960E+02  0.3244111E+02  0.1201921E+02
Ar  362  0.8146395E+01  0.2986851E+02  0.3203673E+02  0.4417760E+02
Ar  363  0.8301707E+01  0.2694322E+02  0.3500075E+02  0.1304358E+03
Ar  364  0.6074844E+01  0.2978996E+02  0.3457697E+02  0.9904608E+02
Ar  365  0.5714423E+01  0.3226871E+02  0.3773223E+02  0.1685380E+03
Ar  366  0.8012449E+01  0.3520107E+02  0.3742295E+02  0.1947738E+03
Ar  367  0.8152675E+01  0.3271538E+02  0.2840700E+01  0.3790965E+03
Ar  368  0.5431527E+01  0.3481998E+02  0.2219422E+01  0.1181328E+03
Ar  369  0.5027246E+01  0.3193781E+02  0.5394040E+01  0.3682126E+03
Ar  370  0.7923019E+01  0.3510748E+02  0.5416273E+01  0.1378992E+03
Ar  371  0.7780391E+01  0.3303811E+02  0.8262415E+01  0.2790966E+03
Ar  372  0.4769759E+01  0.3495677E+02  0.7987365E+01  0.1699602E+03
Ar  373  0.5492904E+01  0.3224789E+02  0.1116502E+02  0.2627956E+03
Ar  374  0.8099317E+01  0.3529491E+02  0.1070458E+02  0.1907338E+03
Ar  375  0.8479269E+01  0.3231022E+02  0.1422645E+02  0.1723562E+03
Ar  376  0.5705979E+01  0.3538987E+02  0.1316174E+02  0.1375741E+03
Ar  377  0.5856413E+01  0.3298245E+02  0.1620957E+02  0.1171560E+03
Ar  378  0.8417920E+01  0.3536831E+02  0.1625260E+02  0.1117650E+02
Ar  379  0.8177524E+01  0.3301001E+02  0.1901887E+02  0.1739595E+03
Ar  380  0.5509812E+01  0.3539772E+02  0.1891128E+02  0.5127107E+03
Ar  381  0.5316158E+01  0.3186169E+02  0.2114846E+02  0.3645053E+03
Ar  382  0.7394296E+01  0.3495485E+02  0.2197265E+02  0.4294255E+03
Ar  383  0.8548811E+01  0.3211548E+02  0.2390924E+02  0.1866914E+03
Ar  384  0.5250305E+01  0.3474318E+02  0.2458915E+02  0.7498322E+02
Ar  385  0.5046889E+01  0.3163783E+02  0.2662117E+02  0.1308244E+03
Ar  386  0.7872552E+01  0.3488077E+02  0.2696752E+02  0.6998055E+02
Ar  387  0.8140312E+01  0.3218454E+02  0.2949799E+02  0.5269574E+02
Ar  388  0.5463386E+01  0.3441337E+02  0.2945364E+02  0.4235454E+02
Ar  389  0.5231495E+01  0.3281173E+02  0.3249627E+02  0.6885711E+02
Ar  390  0.8136457E+01  0.3470854E+02  0.3242124E+02  0.4486319E+02
Ar  391  0.8408653E+01  0.3204604E+02  0.3527779E+02  0.2344604E+03
Ar  392  0.5067505E+01  0.3490790E+02  0.3555802E+02  0.3824034E+02
Ar  393  0.1061509E+02  0.3747143E+02  0.3764142E+02  0.2336139E+03
Ar  394  0.1324571E+02  0.2411465E+01  0.3769823E+02  0.1182196E+03
Ar  395  0.1348844E+02  0.3691362E+02  0.2622138E+01  0.5886144E+03
Ar  396  0.1050731E+02  0.2163003E+01  0.2779300E+01  0.2323356E+02
Ar  397  0.1108201E+02  0.3753460E+02  0.5627124E+01  0.1234163E+03
Ar  398  0.1343605E+02  0.2595399E+01  0.5129193E+01  0.7639134E+02
Ar  399  0.1356570E+02  0.3758846E+02  0.7927566E+01  0.7270228E+02
Ar  400  0.1107267E+02  0.2663172E+01  0.8266516E+01  0.1719307E+03
Ar  401  0.1077460E+02  0.3772442E+02  0.1072464E+02  0.3977060E+02
Ar  402  0.1349697E+02  0.2753815E+01  0.1086365E+02  0.1208823E+03
Ar  403  0.1351576E+02  0.3761360E+02  0.1315152E+02  0.3316833E+03
Ar  404  0.1133340E+02  0.2520614E+01  0.1357625E+02  0.1256375E+03
Ar  405  0.1072773E+02  0.3308136E+00  0.1611684E+02  0.2015878E+03
Ar  406  0.1345192E+02  0.2623099E+01  0.1620597E+02  0.7107333E+02
Ar  407  0.1392496E+02  0.1704114E+00  0.1947839E+02  0.1347769E+02
Ar  408  0.1122534E+02  0.2608302E+01  0.1876700E+02  0.2756311E+03
Ar  409  0.1101977E+02  0.1778713E+00  0.2211002E+02  0.1343244E+03
Ar  410  0.1354748E+02  0.3071816E+01  0.2157424E+02  0.2071794E+03
Ar  411  0.1336410E+02  0.4941920E+00  0.2474999E+02  0.8948772E+02
Ar  412  0.1070657E+02  0.3041345E+01  0.2384705E+02  0.5900224E+02
Ar  413  0.1054751E+02  0.2673509E+00  0.2684671E+02  0.6690324E+02
Ar  414  0.1356132E+02  0.2928545E+01  0.2738923E+02  0.2655098E+02
Ar  415  0.1299506E+02  0.3755410E+02  0.2971777E+02  0.5339055E+02
Ar  416  0.1084802E+02  0.2792227E+01  0.2961044E+02  0.1597531E+03
Ar  417  0.1068815E+02  0.3738562E+02  0.3233095E+02  0.1387771E+03
Ar  418  0.1362399E+02  0.2334569E+01  0.3237343E+02  0.7736203E+02
Ar  419  0.1317149E+02  0.3768561E+02  0.3461900E+02  0.2904634E+03
Ar  420  0.1063232E+02  0.2607018E+01  0.3561453E+02  0.4447528E+03
Ar  421  0.1094252E+02  0.5427143E+01  0.3777490E+02  0.2665376E+02
Ar  422  0.1344765E+02  0.8337238E+01  0.3127397E+00  0.2924234E+03
Ar  423  0.1320753E+02  0.4790045E+01  0.2339582E+01  0.2437990E+03
Ar  424  0.1064733E+02  0.7896516E+01  0.2773017E+01  0.5283090E+00
Ar  425  0.1072952E+02  0.5662947E+01  0.5388039E+01  0.2602985E+02
Ar  426  0.1308560E+02  0.8309303E+01  0.5470201E+01  0.1689984E+03
Ar  427  0.1310859E+02  0.5305687E+01  0.7688014E+01  0.3230611E+03
Ar  428  0.1094574E+02  0.8460944E+01  0.8382103E+01  0.5770166E+03
Ar  429  0.1087261E+02  0.5212501E+01  0.1033365E+02  0.1439514E+03
Ar  430  0.1372162E+02  0.8332408E+01  0.1071272E+02  0.1367557E+03
Ar  431  0.1302414E+02  0.5871778E+01  0.1308986E+02  0.5073367E+03
Ar  432  0.1056217E+02  0.8152865E+01  0.1299552E+02  0.6344268E+03
Ar  433  0.1061310E+02  0.5251721E+01  0.1609077E+02  0.5309208E+03
Ar  434  0.1300177E+02  0.8306126E+01  0.1568716E+02  0.5786246E+02
Ar  435  0.1308296E+02  0.5780212E+01  0.1882374E+02  0.2534097E+03
Ar  436  0.1087047E+02  0.8216044E+01  0.1910740E+02  0.1949787E+02
Ar  437  0.1064282E+02  0.5677449E+01  0.2173575E+02  0.1735086E+03
Ar  438  0.1369515E+02  0.8572882E+01  0.2133327E+02  0.3247204E+02
Ar  439  0.1375534E+02  0.6033476E+01  0.2427139E+02  0.5907272E+02
Ar  440  0.1050399E+02  0.8137340E+01  0.2413391E+02  0.3335635E+02
Ar  441  0.1092293E+02  0.5633971E+01  0.2689358E+02  0.2835874E+03
Ar  442  0.1341284E+02  0.8344294E+01  0.2671201E+02  0.1911490E+03
Ar  443  0.1331806E+02  0.5554445E+01  0.2988042E+02  0.5428866E+02
Ar  444  0.1064000E+02  0.7838347E+01  0.2974868E+02  0.2452881E+03
Ar  445  0.1094740E+02  0.5058403E+01  0.3245989E+02  0.1608063E+03
Ar  446  0.1289730E+02  0.8146627E+01  0.3238364E+02  0.1565978E+03
Ar  447  0.1340509E+02  0.5391912E+01  0.3531159E+02  0.2667798E+02
Ar  448  0.1103776E+02  0.7962709E+01  0.3559138E+02  0.4348870E+02
Ar  449  0.1066329E+02  0.1056702E+02  0.2977736E+00  0.1685639E+03
Ar  450  0.1297630E+02  0.1367946E+02  0.3728985E+02  0.4785461E+03
Ar  451  0.1352351E+02  0.1062197E+02  0.2860268E+01  0.9415548E+02
Ar  452  0.1096493E+02  0.1367151E+02  0.3205325E+01  0.1694050E+03
Ar  453  0.1066907E+02  0.1073330E+02  0.4768649E+01  0.9374804E+02
Ar  454  0.1357921E+02  0.1320614E+02  0.5231759E+01  0.1646260E+02
Ar  455  0.1359211E+02  0.1091312E+02  0.8612812E+01  0.9707111E+02
Ar  456  0.1121524E+02  0.1312997E+02  0.7881840E+01  0.3271391E+03
Ar  457  0.1077288E+02  0.1124440E+02  0.1091363E+02  0.2051633E+03
Ar  458  0.1313644E+02  0.1411604E+02  0.1083422E+02  0.9824773E+02
Ar  459  0.1320949E+02  0.1100060E+02  0.1314818E+02  0.5294580E+02
Ar  460  0.1021823E+02  0.1340038E+02  0.1376292E+02  0.2027799E+02
Ar  461  0.1027529E+02  0.1048746E+02  0.1597431E+02  0.5833368E+03
Ar  462  0.1312191E+02  0.1355135E+02  0.1557998E+02  0.3163903E+03
Ar  463  0.1341802E+02  0.1123337E+02  0.1916144E+02  0.2024633E+03
Ar  464  0.1099280E+02  0.1342884E+02  0.1899393E+02  0.4666715E+02
Ar  465  0.1087073E+02  0.1084728E+02  0.2179615E+02  0.1115695E+03
Ar  466  0.1343318E+02  0.1404991E+02  0.2183616E+02  0.3895254E+03
Ar  467  0.1349321E+02  0.1150557E+02  0.2425465E+02  0.2348233E+03
Ar  468  0.1097294E+02  0.1353296E+02  0.2444566E+02  0.8069619E+02
Ar  469  0.1044735E+02  0.1094918E+02  0.2756894E+02  0.9189385E+02
Ar  470  0.1332407E+02  0.1328444E+02  0.2730209E+02  0.2028523E+03
Ar  471  0.1336060E+02  0.1057175E+02  0.2967741E+02  0.3815597E+02
Ar  472  0.1096352E+02  0.1336261E+02  0.3005103E+02  0.2038379E+03
Ar  473  0.1021043E+02  0.1074476E+02  0.3227832E+02  0.5865249E+03
Ar  474  0.1367202E+02  0.1306031E+02  0.3260701E+02  0.1304702E+03
Ar  475  0.1342237E+02  0.1054034E+02  0.3529948E+02  0.1176427E+03
Ar  476  0.1062336E+02  0.1351480E+02  0.3466726E+02  0.3762237E+03
Ar  477  0.1007620E+02  0.1623232E+02  0.3737714E+02  0.1390389E+03
Ar  478  0.1338940E+02  0.1884768E+02  0.4309501E-01  0.3239913E+02
Ar  479  0.1320282E+02  0.1634090E+02  0.2357939E+01  0.3807041E+03
Ar  480  0.1044705E+02  0.1838047E+02  0.2947860E+01  0.2654129E+02
Ar  481  0.1058300E+02  0.1589381E+02  0.5875325E+01  0.2232182E+03
Ar  482  0.1342765E+02  0.1850625E+02  0.5406566E+01  0.9339280E+02
Ar  483  0.1327996E+02  0.1573064E+02  0.7747090E+01  0.6981214E+03
Ar  484  0.1118616E+02  0.1875066E+02  0.8191789E+01  0.1617070E+03
Ar  485  0.1045898E+02  0.1649729E+02  0.1060845E+02  0.3258727E+03
Ar  486  0.1369854E+02  0.1825813E+02  0.1068609E+02  0.5028160E+02
Ar  487  0.1355632E+02  0.1624232E+02  0.1388973E+02  0.1897449E+03
Ar  488  0.1040979E+02  0.1877719E+02  0.1357435E+02  0.2599997E+03
Ar  489  0.1085404E+02  0.1620388E+02  0.1618735E+02  0.2041368E+03
Ar  490  0.1366804E+02  0.1896882E+02  0.1601542E+02  0.3675019E+02
Ar  491  0.1305351E+02  0.1630190E+02  0.1895437E+02  0.1085623E+03
Ar  492  0.1021230E+02  0.1872849E+02  0.1914566E+02  0.9055103E+02
Ar  493  0.1064274E+02  0.1626362E+02  0.2184946E+02  0.3249222E+02
Ar  494  0.1310647E+02  0.1910530E+02  0.2157683E+02  0.1384435E+03
Ar  495  0.1350723E+02  0.1608292E+02  0.2487677E+02  0.3502439E+02
Ar  496  0.1125713E+02  0.1907812E+02  0.2479838E+02  0.4807297E+03
Ar  497  0.1060053E+02  0.1593036E+02  0.2740644E+02  0.5181615E+02
Ar  498  0.1381111E+02  0.1937391E+02  0.2717735E+02  0.1195327E+03
Ar  499  0.1381798E+02  0.1594113E+02  0.2960287E+02  0.1873626E+03
Ar  500  0.1059249E+02  0.1878256E+02  0.2950612E+02  0.1943744E+03
Ar  501  0.1045183E+02  0.1632857E+02  0.3227339E+02  0.1154321E+03
Ar  502  0.1331643E+02  0.1878971E+02  0.3197834E+02  0.1529521E+03
Ar  503  0.1304798E+02  0.1587176E+02  0.3476629E+02  0.5997998E+03
Ar  504  0.1033916E+02  0.1884885E+02  0.3495210E+02  0.1214992E+03
Ar  505  0.1083434E+02  0.2151414E+02  0.3757045E+02  0.5125542E+03
Ar  506  0.1364242E+02  0.2435990E+02  0.4861609E-01  0.7436395E+01
Ar  507  0.1342108E+02  0.2116759E+02  0.2702026E+01  0.3375789E+03
Ar  508  0.1087673E+02  0.2390494E+02  0.2667476E+01  0.1260337E+02
Ar  509  0.1076127E+02  0.2120088E+02  0.4972066E+01  0.3542945E+03
Ar  510  0.1330326E+02  0.2387646E+02  0.5321032E+01  0.1090304E+03
Ar  511  0.1358258E+02  0.2154894E+02  0.7731964E+01  0.1276693E+03
Ar  512  0.1096049E+02  0.2391809E+02  0.8318979E+01  0.8000643E+02
Ar  513  0.1040170E+02  0.2131599E+02  0.1105686E+02  0.4814742E+03
Ar  514  0.1349334E+02  0.2369845E+02  0.1077055E+02  0.3607365E+03
Ar  515  0.1333189E+02  0.2136153E+02  0.1320837E+02  0.5537552E+01
Ar  516  0.1104090E+02  0.2423128E+02  0.1358746E+02  0.2019326E+03
Ar  517  0.1103449E+02  0.2160400E+02  0.1682039E+02  0.2081084E+03
Ar  518  0.1374819E+02  0.2397816E+02  0.1647775E+02  0.2870679E+03
Ar  519  0.1346716E+02  0.2127799E+02  0.1894604E+02  0.5567368E+03
Ar  520  0.1121685E+02  0.2402380E+02  0.1900277E+02  0.1614946E+03
Ar  521  0.1096938E+02  0.2189258E+02  0.2196524E+02  0.7598134E+02
Ar  522  0.1382746E+02  0.2405544E+02  0.2144230E+02  0.5498324E+02
Ar  523  0.1331970E+02  0.2191436E+02  0.2457509E+02  0.3595725E+03
Ar  524  0.1085709E+02  0.2443715E+02  0.2457730E+02  0.6982328E+02
Ar  525  0.1091127E+02  0.2184539E+02  0.2719438E+02  0.1079066E+03
Ar  526  0.1403632E+02  0.2434875E+02  0.2714673E+02  0.1652734E+03
Ar  527  0.1338281E+02  0.2180930E+02  0.2959587E+02  0.2015720E+03
Ar  528  0.1045101E+02  0.2414660E+02  0.2983324E+02  0.8267176E+02
Ar  529  0.1032380E+02  0.2124506E+02  0.3214971E+02  0.6822956E+02
Ar  530  0.1312110E+02  0.2457579E+02  0.3244724E+02  0.1089533E+03
Ar  531  0.1321499E+02  0.2164927E+02  0.3479994E+02  0.5733812E+03
Ar  532  0.1107667E+02  0.2450457E+02  0.3497827E+02  0.2757495E+03
Ar  533  0.1084066E+02  0.2717966E+02  0.1103134E+00  0.1468977E+03
Ar  534  0.1374640E+02  0.2955598E+02  0.2576535E+00  0.2124624E+03
Ar  535  0.1354203E+02  0.2713121E+02  0.2710192E+01  0.3067308E+03
Ar  536  0.1060798E+02  0.3044539E+02  0.2807729E+01  0.1496075E+03
Ar  537  0.1069842E+02  0.2684513E+02  0.5150220E+01  0.5506698E+03
Ar  538  0.1338931E+02  0.2978708E+02  0.5638561E+01  0.4186554E+03
Ar  539  0.1342551E+02  0.2640717E+02  0.7659208E+01  0.3085090E+02
Ar  540  0.1102337E+02  0.2944670E+02  0.8528373E+01  0.1782626E+03
Ar  541  0.1105358E+02  0.2677004E+02  0.1093709E+02  0.6618765E+03
Ar  542  0.1410941E+02  0.2957091E+02  0.1041881E+02  0.2596806E+02
Ar  543  0.1416878E+02  0.2713941E+02  0.1325543E+02  0.1682087E+02
Ar  544  0.1123076E+02  0.2957595E+02  0.1365295E+02  0.3243440E+03
Ar  545  0.1133604E+02  0.2702298E+02  0.1599208E+02  0.1604840E+03
Ar  546  0.1387896E+02  0.2995202E+02  0.1545926E+02  0.5181262E+03
Ar  547  0.1398326E+02  0.2663561E+02  0.1910494E+02  0.3250541E+02
Ar  548  0.1199664E+02  0.2921328E+02  0.1903093E+02  0.1729129E+03
Ar  549  0.1117554E+02  0.2675233E+02  0.2143699E+02  0.1522974E+03
Ar  550  0.1401025E+02  0.2977636E+02  0.2178508E+02  0.1467428E+03
Ar  551  0.1346863E+02  0.2684087E+02  0.2479262E+02  0.4934167E+03
Ar  552  0.1104252E+02  0.2947493E+02  0.2390336E+02  0.6641109E+02
Ar  553  0.1060741E+02  0.2696966E+02  0.2698312E+02  0.3360217E+03
Ar  554  0.1303530E+02  0.3017923E+02  0.2672328E+02  0.1194186E+03
Ar  555  0.1320062E+02  0.2698682E+02  0.2952891E+02  0.2286990E+03
Ar  556  0.1104797E+02  0.2987851E+02  0.2965394E+02  0.9304079E+02
Ar  557  0.1074941E+02  0.2711893E+02  0.3213465E+02  0.1257804E+03
Ar  558  0.1313232E+02  0.2968931E+02  0.3237447E+02  0.8494337E+02
Ar  559  0.1350991E+02  0.2688117E+02  0.3530592E+02  0.2312556E+02
Ar  560  0.1099256E+02  0.2987816E+02  0.3529647E+02  0.3205192E+03
Ar  561  0.1075601E+02  0.3248159E+02  0.3761476E+02  0.3321930E+03
Ar  562  0.1350079E+02  0.3505047E+02  0.3759013E+02  0.1030107E+03
Ar  563  0.1390064E+02  0.3224024E+02  0.3138982E+01  0.3123958E+03
Ar  564  0.1054625E+02  0.3497580E+02  0.2776718E+01  0.3709317E+02
Ar  565  0.1044145E+02  0.3243047E+02  0.5683363E+01  0.9863192E+02
Ar  566  0.1357435E+02  0.3489971E+02  0.5547490E+01  0.4027236E+03
Ar  567  0.1371586E+02  0.3239158E+02  0.8327410E+01  0.8357332E+02
Ar  568  0.1087152E+02  0.3500646E+02  0.8210722E+01  0.8450034E+03
Ar  569  0.1124520E+02  0.3225455E+02  0.1068570E+02  0.3960450E+03
Ar  570  0.1331157E+02  0.3494679E+02  0.1087428E+02  0.4477134E+02
Ar  571  0.1329606E+02  0.3236651E+02  0.1343287E+02  0.5034601E+03
Ar  572  0.1064282E+02  0.3490479E+02  0.1328861E+02  0.4128470E+01
Ar  573  0.1089516E+02  0.3206451E+02  0.1689454E+02  0.3878442E+03
Ar  574  0.1305473E+02  0.3506103E+02  0.1618311E+02  0.2088719E+03
Ar  575  0.1394659E+02  0.3221379E+02  0.1838304E+02  0.1093903E+03
Ar  576  0.1145570E+02  0.3605127E+02  0.1907892E+02  0.1193650E+03
Ar  577  0.1104372E+02  0.3243409E+02  0.2092822E+02  0.1306039E+03
Ar  578  0.1337403E+02  0.3491298E+02  0.2189182E+02  0.4788276E+02
Ar  579  0.1330784E+02  0.3268179E+02  0.2445153E+02  0.5754670E+02
Ar  580  0.1036401E+02  0.3530748E+02  0.2416729E+02  0.2298146E+03
Ar  581  0.1057696E+02  0.3259132E+02  0.2714907E+02  0.3451728E+01
Ar  582  0.1348094E+02  0.3542057E+02  0.2663670E+02  0.4939866E+02
Ar  583  0.1334159E+02  0.3246780E+02  0.2985203E+02  0.9038045E+02
Ar  584  0.1057110E+02  0.3495669E+02  0.2971207E+02  0.4015026E+03
Ar  585  0.1121678E+02  0.3253351E+02  0.3303973E+02  0.1035785E+03
Ar  586  0.1352006E+02  0.3481789E+02  0.3245643E+02  0.1331664E+03
Ar  587  0.1393785E+02  0.3243114E+02  0.3510496E+02  0.2269529E+03
Ar  588  0.1058760E+02  0.3525040E+02  0.3499987E+02  0.2456110E+03
Ar  589  0.1632586E+02  0.3757629E+02  0.9473991E-01  0.2047681E+03
Ar  590  0.1857133E+02  0.2814012E+01  0.2217123E+00  0.3887383E+02
Ar  591  0.1869343E+02  0.6339839E-01  0.2506935E+01  0.1079227E+03
Ar  592  0.1583992E+02  0.2474196E+01  0.2690627E+01  0.1766211E+03
Ar  593  0.1617548E+02  0.1846945E+00  0.5124290E+01  0.1736207E+03
Ar  594  0.1886704E+02  0.3013075E+01  0.5225263E+01  0.3636375E+02
Ar  595  0.1864265E+02  0.1397183E+00  0.7855295E+01  0.4774217E+03
Ar  596  0.1605728E+02  0.2933091E+01  0.8029124E+01  0.2604857E+03
Ar  597  0.1630589E+02  0.5434120E+00  0.1092656E+02  0.1544977E+03
Ar  598  0.1879014E+02  0.2892178E+01  0.1042802E+02  0.4932136E+02
Ar  599  0.1878931E+02  0.1884212E+00  0.1343771E+02  0.1890782E+03
Ar  600  0.1596806E+02  0.2791470E+01  0.1341255E+02  0.2581246E+03
Ar  601  0.1563490E+02  0.3742955E+02  0.1585750E+02  0.8548342E+02
Ar  602  0.1849267E+02  0.2505822E+01  0.1609180E+02  0.2623149E+03
Ar  603  0.1838744E+02  0.8037480E-01  0.1887647E+02  0.5400824E+02
Ar  604  0.1579292E+02  0.2826576E+01  0.1850178E+02  0.1697427E+02
Ar  605  0.1613581E+02  0.1677933E-01  0.2222925E+02  0.2862186E+02
Ar  606  0.1854328E+02  0.2326609E+01  0.2179897E+02  0.1224184E+03
Ar  607  0.1861673E+02  0.4532593E+00  0.2453117E+02  0.3945279E+03
Ar  608  0.1604851E+02  0.3076480E+01  0.2423014E+02  0.3261103E+03
Ar  609  0.1620869E+02  0.1035459E+00  0.2727327E+02  0.1225984E+03
Ar  610  0.1860692E+02  0.2769706E+01  0.2772235E+02  0.1083096E+03
Ar  611  0.1863085E+02  0.3736225E+02  0.2997725E+02  0.5225249E+02
Ar  612  0.1622176E+02  0.2724724E+01  0.2980659E+02  0.1669968E+03
Ar  613  0.1611880E+02  0.6490819E-01  0.3247586E+02  0.1346877E+03
Ar  614  0.1894719E+02  0.3054355E+01  0.3168610E+02  0.4628472E+02
Ar  615  0.1915137E+02  0.3175915E+00  0.3530906E+02  0.1615686E+03
Ar  616  0.1575709E+02  0.2153571E+01  0.3535969E+02  0.1316119E+03
Ar  617  0.1594298E+02  0.5090404E+01  0.3747221E+02  0.1403123E+03
Ar  618  0.1898190E+02  0.8369077E+01  0.3769491E+02  0.2686348E+03
Ar  619  0.1826264E+02  0.5331902E+01  0.2423050E+01  0.3191960E+03
Ar  620  0.1610439E+02  0.7928420E+01  0.2796406E+01  0.6551684E+03
Ar  621  0.1585001E+02  0.5503579E+01  0.5478250E+01  0.1821129E+02
Ar  622  0.1893640E+02  0.7780032E+01  0.5319377E+01  0.7669627E+02
Ar  623  0.1907814E+02  0.5482869E+01  0.7664941E+01  0.1051094E+03
Ar  624  0.1608859E+02  0.8101580E+01  0.8087269E+01  0.1184191E+03
Ar  625  0.1587826E+02  0.5347745E+01  0.1060481E+02  0.7815009E+02
Ar  626  0.1845848E+02  0.8485503E+01  0.1127729E+02  0.2199722E+03
Ar  627  0.1856942E+02  0.5300434E+01  0.1353135E+02  0.3835631E+02
Ar  628  0.1620880E+02  0.8593003E+01  0.1381656E+02  0.1702129E+03
Ar  629  0.1571328E+02  0.5618124E+01  0.1567517E+02  0.1180763E+03
Ar  630  0.1883350E+02  0.7595416E+01  0.1646278E+02  0.1580641E+03
Ar  631  0.1859173E+02  0.5016568E+01  0.1904223E+02  0.1273729E+03
Ar  632  0.1563633E+02  0.7809859E+01  0.1839057E+02  0.4721168E+03
Ar  633  0.1611450E+02  0.5472107E+01  0.2138249E+02  0.1570427E+03
Ar  634  0.1824475E+02  0.7836575E+01  0.2190234E+02  0.1587424E+03
Ar  635  0.1865631E+02  0.5271416E+01  0.2481544E+02  0.4155037E+02
Ar  636  0.1631662E+02  0.8489941E+01  0.2479601E+02  0.1871812E+03
Ar  637  0.1621275E+02  0.5903824E+01  0.2750209E+02  0.1640399E+03
Ar  638  0.1903801E+02  0.8521677E+01  0.2725054E+02  0.8444945E+02
Ar  639  0.1926368E+02  0.5924028E+01  0.2962890E+02  0.1328690E+02
Ar  640  0.1584081E+02  0.8034711E+01  0.3024293E+02  0.2079671E+03
Ar  641  0.1573714E+02  0.5238584E+01  0.3251184E+02  0.6635796E+03
Ar  642  0.1849827E+02  0.8043877E+01  0.3262854E+02  0.7330706E+02
Ar  643  0.1825956E+02  0.5071169E+01  0.3498961E+02  0.1455516E+03
Ar  644  0.1623748E+02  0.7852125E+01  0.3526285E+02  0.3712064E+02
Ar  645  0.1618617E+02  0.1046195E+02  0.7902726E-01  0.2140419E+03
Ar  646  0.1859441E+02  0.1338265E+02  0.1804994E+00  0.1551375E+02
Ar  647  0.1845428E+02  0.1093378E+02  0.2918718E+01  0.2225923E+03
Ar  648  0.1536364E+02  0.1331208E+02  0.1899412E+01  0.1625790E+03
Ar  649  0.1623638E+02  0.1039005E+02  0.5655577E+01  0.2150580E+03
Ar  650  0.1891931E+02  0.1333655E+02  0.5407702E+01  0.4235745E+03
Ar  651  0.1930596E+02  0.1075575E+02  0.8198076E+01  0.1886786E+03
Ar  652  0.1652082E+02  0.1312273E+02  0.7946575E+01  0.3255141E+03
Ar  653  0.1615538E+02  0.1090861E+02  0.1096396E+02  0.1644989E+03
Ar  654  0.1900794E+02  0.1338946E+02  0.1139209E+02  0.6821752E+02
Ar  655  0.1972145E+02  0.1054719E+02  0.1368808E+02  0.1307945E+03
Ar  656  0.1586564E+02  0.1386276E+02  0.1349705E+02  0.6811153E+02
Ar  657  0.1577966E+02  0.1133814E+02  0.1568803E+02  0.2283435E+03
Ar  658  0.1883053E+02  0.1396854E+02  0.1583904E+02  0.1315922E+02
Ar  659  0.1841794E+02  0.1111446E+02  0.1800275E+02  0.3392566E+03
Ar  660  0.1630640E+02  0.1337585E+02  0.1933946E+02  0.2903223E+03
Ar  661  0.1631729E+02  0.1080412E+02  0.2173719E+02  0.5500062E+02
Ar  662  0.1899860E+02  0.1342583E+02  0.2170145E+02  0.2634563E+03
Ar  663  0.1854882E+02  0.1126262E+02  0.2441605E+02  0.1100481E+03
Ar  664  0.1612421E+02  0.1419624E+02  0.2444310E+02  0.4261007E+03
Ar  665  0.1596077E+02  0.1112648E+02  0.2696163E+02  0.1111921E+03
Ar  666  0.1868703E+02  0.1418250E+02  0.2739111E+02  0.1175129E+03
Ar  667  0.1862297E+02  0.1077735E+02  0.3006545E+02  0.7327452E+02
Ar  668  0.1609207E+02  0.1358050E+02  0.2944281E+02  0.1465220E+03
Ar  669  0.1613269E+02  0.1052982E+02  0.3223957E+02  0.4214926E+02
Ar  670  0.1834600E+02  0.1335198E+02  0.3218174E+02  0.7481206E+03
Ar  671  0.1834885E+02  0.1068810E+02  0.3498172E+02  0.2678356E+03
Ar  672  0.1609719E+02  0.1338873E+02  0.3505366E+02  0.1183711E+03
Ar  673  0.1561514E+02  0.1610236E+02  0.3727100E+02  0.1231232E+03
Ar  674  0.1835366E+02  0.1852960E+02  0.6812893E-01  0.1952066E+03
Ar  675  0.1816377E+02  0.1624799E+02  0.2697139E+01  0.4581508E+02
Ar  676  0.1595104E+02  0.1912443E+02  0.3073400E+01  0.8768577E+02
Ar  677  0.1592536E+02  0.1548704E+02  0.5322042E+01  0.6463735E+02
Ar  678  0.1901778E+02  0.1834647E+02  0.5402776E+01  0.2435825E+03
Ar  679  0.1889394E+02  0.1585346E+02  0.8279902E+01  0.3912540E+03
Ar  680  0.1593318E+02  0.1885499E+02  0.8058794E+01  0.1337749E+03
Ar  681  0.1630594E+02  0.1588557E+02  0.1062788E+02  0.5072776E+02
Ar  682  0.1849208E+02  0.1849058E+02  0.1075514E+02  0.3420771E+03
Ar  683  0.1938579E+02  0.1632129E+02  0.1361111E+02  0.3922287E+03
Ar  684  0.1638245E+02  0.1907795E+02  0.1398428E+02  0.1073704E+03
Ar  685  0.1563766E+02  0.1590920E+02  0.1679923E+02  0.4094989E+03
Ar  686  0.1900652E+02  0.1859277E+02  0.1651636E+02  0.4347028E+03
Ar  687  0.1901773E+02  0.1592369E+02  0.1892476E+02  0.9253898E+02
Ar  688  0.1622041E+02  0.1875204E+02  0.1901938E+02  0.1351269E+03
Ar  689  0.1605172E+02  0.1647269E+02  0.2176001E+02  0.2364613E+03
Ar  690  0.1889827E+02  0.1848784E+02  0.2133173E+02  0.5572247E+02
Ar  691  0.1912295E+02  0.1640284E+02  0.2407162E+02  0.2009360E+03
Ar  692  0.1645378E+02  0.1876392E+02  0.2408351E+02  0.1916863E+03
Ar  693  0.1635985E+02  0.1644897E+02  0.2747056E+02  0.1856299E+03
Ar  694  0.1872124E+02  0.1877383E+02  0.2698130E+02  0.1873248E+03
Ar  695  0.1910295E+02  0.1674826E+02  0.3034591E+02  0.9597113E+02
Ar  696  0.1640149E+02  0.1893338E+02  0.2970238E+02  0.1750897E+03
Ar  697  0.1594470E+02  0.1580479E+02  0.3241514E+02  0.2098422E+03
Ar  698  0.1920938E+02  0.1932898E+02  0.3247289E+02  0.1282680E+03
Ar  699  0.1849494E+02  0.1630178E+02  0.3476266E+02  0.4090506E+02
Ar  700  0.1543872E+02  0.1925899E+02  0.3500894E+02  0.9132330E+02
Ar  701  0.1629120E+02  0.2168041E+02  0.4194298E-01  0.1830476E+03
Ar  702  0.1881698E+02  0.2441799E+02  0.2229818E+00  0.1426218E+02
Ar  703  0.1888142E+02  0.2089660E+02  0.2872753E+01  0.4594287E+03
Ar  704  0.1621617E+02  0.2384370E+02  0.2975920E+01  0.1222116E+03
Ar  705  0.1633863E+02  0.2107264E+02  0.5712429E+01  0.1871766E+03
Ar  706  0.1943955E+02  0.2368103E+02  0.5188655E+01  0.1094425E+03
Ar  707  0.1914675E+02  0.2145163E+02  0.7891744E+01  0.1067707E+03
Ar  708  0.1656594E+02  0.2420595E+02  0.7594948E+01  0.6129925E+02
Ar  709  0.1642220E+02  0.2129556E+02  0.1067914E+02  0.2413082E+03
Ar  710  0.1918264E+02  0.2440732E+02  0.1073451E+02  0.2979076E+01
Ar  711  0.1875046E+02  0.2159202E+02  0.1386415E+02  0.2175519E+02
Ar  712  0.1654863E+02  0.2400386E+02  0.1300188E+02  0.1275626E+03
Ar  713  0.1641565E+02  0.2139365E+02  0.1656154E+02  0.7523864E+03
Ar  714  0.1895139E+02  0.2466282E+02  0.1631040E+02  0.1741419E+03
Ar  715  0.1861263E+02  0.2151097E+02  0.1940100E+02  0.2100441E+03
Ar  716  0.1638096E+02  0.2390966E+02  0.1944422E+02  0.4028107E+03
Ar  717  0.1586166E+02  0.2110701E+02  0.2192014E+02  0.2739883E+03
Ar  718  0.1917993E+02  0.2415223E+02  0.2167226E+02  0.2621838E+03
Ar  719  0.1934093E+02  0.2146897E+02  0.2417680E+02  0.2373310E+03
Ar  720  0.1610400E+02  0.2404488E+02  0.2404513E+02  0.4884204E+03
Ar  721  0.1619440E+02  0.2179072E+02  0.2710721E+02  0.2761277E+03
Ar  722  0.1880092E+02  0.2422530E+02  0.2632812E+02  0.1244785E+03
Ar  723  0.1923931E+02  0.2148881E+02  0.2901221E+02  0.1202604E+03
Ar  724  0.1663771E+02  0.2403184E+02  0.2972402E+02  0.2047419E+03
Ar  725  0.1568010E+02  0.2207995E+02  0.3239399E+02  0.9122885E+02
Ar  726  0.1876937E+02  0.2436454E+02  0.3253485E+02  0.3038318E+03
Ar  727  0.1880987E+02  0.2166009E+02  0.3484078E+02  0.7813110E+02
Ar  728  0.1631891E+02  0.2418894E+02  0.3519340E+02  0.2969391E+02
Ar  729  0.1596370E+02  0.2697411E+02  0.3717545E+00  0.6849035E+02
Ar  730  0.1825984E+02  0.2944380E+02  0.4627420E+00  0.3042396E+03
Ar  731  0.1895443E+02  0.2686692E+02  0.2622225E+01  0.3318878E+03
Ar  732  0.1583225E+02  0.2969092E+02  0.3214723E+01  0.2854644E+02
Ar  733  0.1633048E+02  0.2700729E+02  0.5671122E+01  0.2842438E+02
Ar  734  0.1935907E+02  0.2969320E+02  0.5314992E+01  0.1381173E+03
Ar  735  0.1905019E+02  0.2677110E+02  0.8005282E+01  0.2094115E+03
Ar  736  0.1706037E+02  0.2952320E+02  0.8068674E+01  0.1728375E+03
Ar  737  0.1609821E+02  0.2673198E+02  0.1031084E+02  0.1152245E+03
Ar  738  0.1939792E+02  0.3002338E+02  0.1085497E+02  0.5526172E+03
Ar  739  0.1878562E+02  0.2666266E+02  0.1359771E+02  0.3249996E+03
Ar  740  0.1732121E+02  0.3007328E+02  0.1359364E+02  0.2376560E+03
Ar  741  0.1627844E+02  0.2683460E+02  0.1632087E+02  0.4084993E+03
Ar  742  0.1921472E+02  0.2958164E+02  0.1612310E+02  0.5647608E+02
Ar  743  0.1827351E+02  0.2669062E+02  0.1905685E+02  0.2996434E+03
Ar  744  0.1602884E+02  0.2952241E+02  0.1865423E+02  0.5365800E+02
Ar  745  0.1585050E+02  0.2700264E+02  0.2217120E+02  0.1270756E+03
Ar  746  0.1836448E+02  0.2938359E+02  0.2136013E+02  0.1253875E+03
Ar  747  0.1891814E+02  0.2666062E+02  0.2359440E+02  0.1272328E+03
Ar  748  0.1653248E+02  0.2959651E+02  0.2443533E+02  0.1344346E+03
Ar  749  0.1606098E+02  0.2727708E+02  0.2710175E+02  0.6591912E+02
Ar  750  0.1878396E+02  0.2967454E+02  0.2706283E+02  0.1749275E+03
Ar  751  0.1864304E+02  0.2683886E+02  0.2946285E+02  0.1102247E+03
Ar  752  0.1572947E+02  0.2961980E+02  0.2993326E+02  0.4501193E+02
Ar  753  0.1621170E+02  0.2710660E+02  0.3246429E+02  0.6249016E+02
Ar  754  0.1895811E+02  0.2995197E+02  0.3244333E+02  0.2876465E+03
Ar  755  0.1869179E+02  0.2691709E+02  0.3558935E+02  0.1543155E+03
Ar  756  0.1612266E+02  0.2970434E+02  0.3477987E+02  0.5012220E+03
Ar  757  0.1649729E+02  0.3257875E+02  0.1427305E+00  0.2358194E+03
Ar  758  0.1925646E+02  0.3502959E+02  0.2733878E+00  0.5891520E+03
Ar  759  0.1889660E+02  0.3217352E+02  0.2774672E+01  0.1962511E+03
Ar  760  0.1621524E+02  0.3511700E+02  0.2788481E+01  0.1924875E+03
Ar  761  0.1679212E+02  0.3221073E+02  0.5494126E+01  0.1488258E+03
Ar  762  0.1911903E+02  0.3494010E+02  0.5369338E+01  0.9265413E+02
Ar  763  0.1901835E+02  0.3265133E+02  0.8229534E+01  0.1774505E+03
Ar  764  0.1614398E+02  0.3509765E+02  0.7710499E+01  0.2713254E+03
Ar  765  0.1668461E+02  0.3228278E+02  0.1085702E+02  0.2233215E+03
Ar  766  0.1923505E+02  0.3510940E+02  0.1100844E+02  0.6438299E+03
Ar  767  0.1962482E+02  0.3281385E+02  0.1329437E+02  0.4683961E+03
Ar  768  0.1677905E+02  0.3539489E+02  0.1310259E+02  0.2081469E+03
Ar  769  0.1622146E+02  0.3246511E+02  0.1548099E+02  0.1972388E+03
Ar  770  0.1871877E+02  0.3519605E+02  0.1599790E+02  0.6863022E+03
Ar  771  0.1835109E+02  0.3236491E+02  0.1836779E+02  0.9045069E+02
Ar  772  0.1577034E+02  0.3504009E+02  0.1937793E+02  0.1190034E+03
Ar  773  0.1610633E+02  0.3276340E+02  0.2188995E+02  0.7358106E+03
Ar  774  0.1887698E+02  0.3509553E+02  0.2204835E+02  0.1834499E+02
Ar  775  0.1857971E+02  0.3232747E+02  0.2452418E+02  0.8780050E+02
Ar  776  0.1600983E+02  0.3544463E+02  0.2463302E+02  0.1846011E+03
Ar  777  0.1590009E+02  0.3223859E+02  0.2720553E+02  0.1413175E+03
Ar  778  0.1879741E+02  0.3505908E+02  0.2749298E+02  0.1114744E+03
Ar  779  0.1811415E+02  0.3214423E+02  0.2961918E+02  0.8888942E+02
Ar  780  0.1570731E+02  0.3491547E+02  0.2974145E+02  0.8360079E+02
Ar  781  0.1622748E+02  0.3224014E+02  0.3225112E+02  0.6152003E+02
Ar  782  0.1901543E+02  0.3484719E+02  0.3242095E+02  0.7875972E+02
Ar  783  0.1894417E+02  0.3247055E+02  0.3504467E+02  0.3893352E+03
Ar  784  0.1657545E+02  0.3518555E+02  0.3498644E+02  0.1717687E+03
Ar  785  0.2138857E+02  0.9492451E-01  0.1909500E+00  0.7832892E+02
Ar  786  0.2420086E+02  0.2709625E+01  0.3746059E+02  0.1153441E+03
Ar  787  0.2445623E+02  0.3493787E+00  0.2572680E+01  0.2659181E+03
Ar  788  0.2122694E+02  0.2677246E+01  0.2596331E+01  0.9370825E+02
Ar  789  0.2153572E+02  0.3255951E+00  0.5317095E+01  0.2072786E+03
Ar  790  0.2382594E+02  0.2935502E+01  0.4856625E+01  0.8291411E+02
Ar  791  0.2472401E+02  0.7208709E+00  0.7720842E+01  0.4599955E+02
Ar  792  0.2151279E+02  0.2973631E+01  0.7947794E+01  0.1166339E+03
Ar  793  0.2126088E+02  0.7508322E+00  0.1081322E+02  0.4037366E+02
Ar  794  0.2447317E+02  0.2921338E+01  0.1149602E+02  0.5459584E+03
Ar  795  0.2500037E+02  0.3758409E+02  0.1378545E+02  0.7870201E+02
Ar  796  0.2183770E+02  0.2751510E+01  0.1347867E+02  0.6668814E+02
Ar  797  0.2154187E+02  0.7892544E+00  0.1639632E+02  0.7918692E+02
Ar  798  0.2476733E+02  0.2858456E+01  0.1625642E+02  0.2091748E+03
Ar  799  0.2429853E+02  0.6334923E+00  0.1874564E+02  0.4791415E+02
Ar  800  0.2121076E+02  0.2586459E+01  0.1937770E+02  0.6730135E+01
Ar  801  0.2186453E+02  0.1783348E-01  0.2161845E+02  0.3241267E+03
Ar  802  0.2378625E+02  0.2901363E+01  0.2223515E+02  0.9224041E+02
Ar  803  0.2395515E+02  0.1297157E+00  0.2466223E+02  0.9338857E+02
Ar  804  0.2150535E+02  0.3048783E+01  0.2496739E+02  0.2029205E+03
Ar  805  0.2122960E+02  0.4268124E-01  0.2720141E+02  0.1060575E+02
Ar  806  0.2407212E+02  0.3100358E+01  0.2703514E+02  0.8792923E+02
Ar  807  0.2439856E+02  0.7933070E-01  0.2956507E+02  0.2748888E+03
Ar  808  0.2177853E+02  0.2576613E+01  0.2940188E+02  0.5095915E+03
Ar  809  0.2110420E+02  0.4758741E+00  0.3258857E+02  0.2990202E+03
Ar  810  0.2438755E+02  0.2358435E+01  0.3231409E+02  0.4352801E+03
Ar  811  0.2374736E+02  0.3758890E+02  0.3465732E+02  0.6461110E+02
Ar  812  0.2108743E+02  0.3026995E+01  0.3481251E+02  0.3122318E+02
Ar  813  0.2186002E+02  0.5572501E+01  0.3738796E+02  0.2477956E+03
Ar  814  0.2427138E+02  0.8245511E+01  0.3743432E+02  0.1405931E+03
Ar  815  0.2399692E+02  0.5834820E+01  0.2639739E+01  0.2285252E+03
Ar  816  0.2159251E+02  0.8433200E+01  0.2620009E+01  0.2364120E+03
Ar  817  0.2151523E+02  0.5724670E+01  0.5098947E+01  0.5166838E+02
Ar  818  0.2411678E+02  0.8550822E+01  0.5053918E+01  0.7414392E+02
Ar  819  0.2447019E+02  0.5702246E+01  0.7342932E+01  0.1503790E+03
Ar  820  0.2159280E+02  0.8258598E+01  0.7977985E+01  0.1655999E+03
Ar  821  0.2164712E+02  0.5615420E+01  0.1031753E+02  0.2364679E+03
Ar  822  0.2440853E+02  0.7689510E+01  0.1068094E+02  0.1030327E+03
Ar  823  0.2499466E+02  0.5701407E+01  0.1346861E+02  0.9652076E+02
Ar  824  0.2187338E+02  0.7812199E+01  0.1416747E+02  0.1469158E+03
Ar  825  0.2166697E+02  0.5364508E+01  0.1672035E+02  0.4065359E+02
Ar  826  0.2440070E+02  0.7589656E+01  0.1671112E+02  0.6160258E+03
Ar  827  0.2433922E+02  0.4809196E+01  0.1904606E+02  0.4212945E+03
Ar  828  0.2085688E+02  0.8054762E+01  0.1892790E+02  0.1954149E+03
Ar  829  0.2120648E+02  0.5650828E+01  0.2176866E+02  0.1805104E+02
Ar  830  0.2374897E+02  0.8248537E+01  0.2104448E+02  0.6164636E+03
Ar  831  0.2441072E+02  0.5812127E+01  0.2394524E+02  0.2323805E+03
Ar  832  0.2121549E+02  0.8522670E+01  0.2451731E+02  0.1259954E+03
Ar  833  0.2165406E+02  0.6089061E+01  0.2698048E+02  0.2039021E+03
Ar  834  0.2458616E+02  0.7907813E+01  0.2676109E+02  0.2401201E+03
Ar  835  0.2410087E+02  0.4946249E+01  0.3005932E+02  0.3779143E+03
Ar  836  0.2198633E+02  0.8533867E+01  0.3006123E+02  0.2662475E+03
Ar  837  0.2149083E+02  0.5725598E+01  0.3233632E+02  0.5598041E+01
Ar  838  0.2426099E+02  0.8239631E+01  0.3264214E+02  0.4266604E+02
Ar  839  0.2458079E+02  0.5554774E+01  0.3467246E+02  0.1909183E+03
Ar  840  0.2148748E+02  0.8689316E+01  0.3508605E+02  0.3838983E+03
Ar  841  0.2128128E+02  0.1104467E+02  0.3740739E+02  0.6816022E+02
Ar  842  0.2421876E+02  0.1324511E+02  0.4025342E-01  0.3863520E+03
Ar  843  0.2400701E+02  0.1094109E+02  0.2301928E+01  0.7628206E+02
Ar  844  0.2164413E+02  0.1387829E+02  0.2845129E+01  0.1876658E+03
Ar  845  0.2153269E+02  0.1081195E+02  0.5234845E+01  0.1460202E+03
Ar  846  0.2421887E+02  0.1348692E+02  0.5099291E+01  0.5461914E+03
Ar  847  0.2414342E+02  0.1039683E+02  0.7871429E+01  0.2084497E+03
Ar  848  0.2163701E+02  0.1343873E+02  0.8152028E+01  0.1590565E+03
Ar  849  0.2171727E+02  0.1000337E+02  0.1108297E+02  0.4130183E+03
Ar  850  0.2458585E+02  0.1311878E+02  0.1111810E+02  0.1487068E+03
Ar  851  0.2489449E+02  0.9857192E+01  0.1316229E+02  0.1200894E+03
Ar  852  0.2209253E+02  0.1322947E+02  0.1398894E+02  0.1514336E+03
Ar  853  0.2178954E+02  0.1045105E+02  0.1656003E+02  0.5746414E+03
Ar  854  0.2455494E+02  0.1365310E+02  0.1634605E+02  0.1608863E+03
Ar  855  0.2444043E+02  0.1092507E+02  0.1870448E+02  0.3976192E+03
Ar  856  0.2141060E+02  0.1296454E+02  0.1905166E+02  0.3230850E+02
Ar  857  0.2140717E+02  0.1084760E+02  0.2179123E+02  0.1266847E+03
Ar  858  0.2390764E+02  0.1326622E+02  0.2178081E+02  0.2961467E+02
Ar  859  0.2423465E+02  0.1072096E+02  0.2405090E+02  0.1203923E+03
Ar  860  0.2142122E+02  0.1345833E+02  0.2476827E+02  0.1616926E+03
Ar  861  0.2228567E+02  0.1078118E+02  0.2707618E+02  0.3185819E+03
Ar  862  0.2449020E+02  0.1371596E+02  0.2724006E+02  0.6289782E+02
Ar  863  0.2414379E+02  0.1148194E+02  0.3004195E+02  0.2267828E+03
Ar  864  0.2120734E+02  0.1371943E+02  0.2996018E+02  0.1332825E+03
Ar  865  0.2143305E+02  0.1120618E+02  0.3258776E+02  0.1891869E+03
Ar  866  0.2442907E+02  0.1382276E+02  0.3278970E+02  0.2722061E+03
Ar  867  0.2439421E+02  0.1094054E+02  0.3482250E+02  0.2298031E+02
Ar  868  0.2102154E+02  0.1362700E+02  0.3511467E+02  0.5067454E+03
Ar  869  0.2115355E+02  0.1630108E+02  0.3750011E+02  0.1312678E+03
Ar  870  0.2422746E+02  0.1865109E+02  0.3742902E+02  0.1920154E+03
Ar  871  0.2440041E+02  0.1579534E+02  0.2348238E+01  0.8367490E+02
Ar  872  0.2132178E+02  0.1826860E+02  0.2411914E+01  0.1493213E+03
Ar  873  0.2141447E+02  0.1587071E+02  0.5952009E+01  0.2959263E+02
Ar  874  0.2408092E+02  0.1839360E+02  0.5153407E+01  0.7574083E+03
Ar  875  0.2436091E+02  0.1635022E+02  0.8243676E+01  0.6461908E+02
Ar  876  0.2132490E+02  0.1856467E+02  0.8620093E+01  0.3054002E+03
Ar  877  0.2166255E+02  0.1598835E+02  0.1118126E+02  0.1621903E+03
Ar  878  0.2396328E+02  0.1905847E+02  0.1094570E+02  0.1022235E+03
Ar  879  0.2428900E+02  0.1613502E+02  0.1352117E+02  0.2220029E+02
Ar  880  0.2151810E+02  0.1893855E+02  0.1417301E+02  0.3474406E+03
Ar  881  0.2178519E+02  0.1592867E+02  0.1638056E+02  0.3653578E+03
Ar  882  0.2418297E+02  0.1865207E+02  0.1659314E+02  0.2268986E+03
Ar  883  0.2450352E+02  0.1568859E+02  0.1924715E+02  0.1830717E+03
Ar  884  0.2187045E+02  0.1871493E+02  0.1931206E+02  0.1457476E+03
Ar  885  0.2175906E+02  0.1597541E+02  0.2189656E+02  0.3082547E+03
Ar  886  0.2418222E+02  0.1908632E+02  0.2166636E+02  0.5162022E+03
Ar  887  0.2486137E+02  0.1621854E+02  0.2426184E+02  0.2676174E+03
Ar  888  0.2139160E+02  0.1890929E+02  0.2409443E+02  0.4043324E+03
Ar  889  0.2152146E+02  0.1633994E+02  0.2714367E+02  0.4740403E+03
Ar  890  0.2464518E+02  0.1880518E+02  0.2639941E+02  0.1524689E+02
Ar  891  0.2360390E+02  0.1645073E+02  0.2991307E+02  0.1407646E+03
Ar  892  0.2176905E+02  0.1917669E+02  0.2965738E+02  0.1240962E+03
Ar  893  0.2132711E+02  0.1639307E+02  0.3271472E+02  0.7089453E+02
Ar  894  0.2371105E+02  0.1903287E+02  0.3248189E+02  0.3268905E+03
Ar  895  0.2404864E+02  0.1613293E+02  0.3497654E+02  0.8144831E+02
Ar  896  0.2121186E+02  0.1957424E+02  0.3515426E+02  0.1150884E+03
Ar  897  0.2131432E+02  0.2193783E+02  0.2108458E+00  0.7333956E+02
Ar  898  0.2428151E+02  0.2413008E+02  0.2970535E-01  0.4314186E+02
Ar  899  0.2382851E+02  0.2113327E+02  0.2493489E+01  0.3476668E+03
Ar  900  0.2177392E+02  0.2487222E+02  0.2371310E+01  0.9141407E+02
Ar  901  0.2164443E+02  0.2093125E+02  0.5254413E+01  0.2135239E+03
Ar  902  0.2385508E+02  0.2412779E+02  0.4875722E+01  0.6612408E+03
Ar  903  0.2374144E+02  0.2142647E+02  0.8086028E+01  0.2329360E+03
Ar  904  0.2146470E+02  0.2422041E+02  0.8137821E+01  0.1530434E+02
Ar  905  0.2136803E+02  0.2143040E+02  0.1077623E+02  0.1002181E+03
Ar  906  0.2349619E+02  0.2420162E+02  0.1072667E+02  0.6121193E+02
Ar  907  0.2432536E+02  0.2149847E+02  0.1397549E+02  0.5240762E+02
Ar  908  0.2151221E+02  0.2384277E+02  0.1373997E+02  0.3985760E+03
Ar  909  0.2165210E+02  0.2160321E+02  0.1641485E+02  0.1877524E+03
Ar  910  0.2423439E+02  0.2410401E+02  0.1656515E+02  0.2113976E+03
Ar  911  0.2432505E+02  0.2132326E+02  0.1844110E+02  0.2858038E+03
Ar  912  0.2151917E+02  0.2397193E+02  0.1912093E+02  0.1780777E+03
Ar  913  0.2143219E+02  0.2141881E+02  0.2157813E+02  0.2380071E+02
Ar  914  0.2436782E+02  0.2440943E+02  0.2138446E+02  0.8069006E+02
Ar  915  0.2393799E+02  0.2168514E+02  0.2416129E+02  0.4940718E+01
Ar  916  0.2171039E+02  0.2425878E+02  0.2391429E+02  0.9601163E+02
Ar  917  0.2204854E+02  0.2198656E+02  0.2688619E+02  0.3738725E+03
Ar  918  0.2424124E+02  0.2488009E+02  0.2635585E+02  0.2967827E+03
Ar  919  0.2392203E+02  0.2195962E+02  0.2952304E+02  0.1989978E+03
Ar  920  0.2124563E+02  0.2448695E+02  0.2949364E+02  0.2662858E+03
Ar  921  0.2161542E+02  0.2201392E+02  0.3214940E+02  0.1060098E+03
Ar  922  0.2445826E+02  0.2442991E+02  0.3206147E+02  0.3748725E+03
Ar  923  0.2476436E+02  0.2202582E+02  0.3492314E+02  0.1467545E+03
Ar  924  0.2170983E+02  0.2413767E+02  0.3479025E+02  0.1254643E+03
Ar  925  0.2144541E+02  0.2707046E+02  0.3732412E+02  0.2565102E+03
Ar  926  0.2424850E+02  0.2929307E+02  0.3725094E+02  0.2387747E+03
Ar  927  0.2430578E+02  0.2707174E+02  0.2356976E+01  0.3549569E+03
Ar  928  0.2134500E+02  0.2997551E+02  0.2038599E+01  0.1525905E+03
Ar  929  0.2158748E+02  0.2667303E+02  0.5354374E+01  0.2878045E+02
Ar  930  0.2446392E+02  0.2989197E+02  0.4707232E+01  0.1462250E+03
Ar  931  0.2419750E+02  0.2709160E+02  0.8091357E+01  0.6174896E+02
Ar  932  0.2147880E+02  0.2941615E+02  0.8060856E+01  0.1927745E+03
Ar  933  0.2156551E+02  0.2709490E+02  0.1099657E+02  0.3898877E+02
Ar  934  0.2495424E+02  0.2926538E+02  0.1072503E+02  0.4053175E+02
Ar  935  0.2409180E+02  0.2701152E+02  0.1381279E+02  0.5103147E+03
Ar  936  0.2190028E+02  0.2975054E+02  0.1332976E+02  0.1831249E+03
Ar  937  0.2155269E+02  0.2698092E+02  0.1630898E+02  0.2299934E+03
Ar  938  0.2445974E+02  0.3033570E+02  0.1590636E+02  0.3470479E+02
Ar  939  0.2428872E+02  0.2736142E+02  0.1857664E+02  0.3259141E+03
Ar  940  0.2117934E+02  0.2973570E+02  0.1908274E+02  0.3022284E+03
Ar  941  0.2182955E+02  0.2673645E+02  0.2129773E+02  0.1341258E+02
Ar  942  0.2415435E+02  0.2979726E+02  0.2138248E+02  0.1296146E+03
Ar  943  0.2457327E+02  0.2695977E+02  0.2371633E+02  0.4885475E+02
Ar  944  0.2142332E+02  0.2919044E+02  0.2340059E+02  0.1104019E+03
Ar  945  0.2156734E+02  0.2695805E+02  0.2616643E+02  0.3626674E+03
Ar  946  0.2379030E+02  0.2970239E+02  0.2642424E+02  0.1061332E+03
Ar  947  0.2363516E+02  0.2671498E+02  0.2925488E+02  0.1401386E+03
Ar  948  0.2162045E+02  0.3014745E+02  0.3002991E+02  0.2533480E+03
Ar  949  0.2111306E+02  0.2698612E+02  0.3227114E+02  0.2026437E+03
Ar  950  0.2424884E+02  0.2979629E+02  0.3292577E+02  0.2846128E+03
Ar  951  0.2417555E+02  0.2666815E+02  0.3484334E+02  0.2300934E+03
Ar  952  0.2130455E+02  0.2988966E+02  0.3502304E+02  0.3567377E+03
Ar  953  0.2132090E+02  0.3254998E+02  0.3758559E+02  0.7768879E+02
Ar  954  0.2401940E+02  0.3515014E+02  0.1695673E-01  0.8585641E+02
Ar  955  0.2422653E+02  0.3232158E+02  0.2323254E+01  0.4294177E+02
Ar  956  0.2173478E+02  0.3563299E+02  0.2720534E+01  0.8217440E+02
Ar  957  0.2171935E+02  0.3216573E+02  0.5628188E+01  0.2330205E+03
Ar  958  0.2494301E+02  0.3507990E+02  0.4455591E+01  0.1507829E+03
Ar  959  0.2493553E+02  0.3252267E+02  0.7861222E+01  0.4543870E+03
Ar  960  0.2181072E+02  0.3590312E+02  0.8032486E+01  0.1061520E+03
Ar  961  0.2194329E+02  0.3221528E+02  0.1056780E+02  0.2012918E+03
Ar  962  0.2485910E+02  0.3566100E+02  0.1085765E+02  0.2127725E+03
Ar  963  0.2379817E+02  0.3293642E+02  0.1394564E+02  0.3073057E+03
Ar  964  0.2210071E+02  0.3593225E+02  0.1398241E+02  0.2149135E+03
Ar  965  0.2136205E+02  0.3216323E+02  0.1624755E+02  0.4440008E+02
Ar  966  0.2382559E+02  0.3560584E+02  0.1670839E+02  0.3816167E+03
Ar  967  0.2449972E+02  0.3283612E+02  0.1900886E+02  0.4004527E+03
Ar  968  0.2082318E+02  0.3522873E+02  0.1867184E+02  0.6031512E+03
Ar  969  0.2126069E+02  0.3273721E+02  0.2139703E+02  0.5339518E+03
Ar  970  0.2408958E+02  0.3534225E+02  0.2153427E+02  0.6001392E+03
Ar  971  0.2384087E+02  0.3270297E+02  0.2383457E+02  0.1719226E+03
Ar  972  0.2127498E+02  0.3496296E+02  0.2449486E+02  0.3017771E+02
Ar  973  0.2172622E+02  0.3234998E+02  0.2660811E+02  0.2633801E+02
Ar  974  0.2363874E+02  0.3533155E+02  0.2714250E+02  0.1147632E+03
Ar  975  0.2381299E+02  0.3289403E+02  0.2968921E+02  0.8445518E+03
Ar  976  0.2189569E+02  0.3563799E+02  0.3050331E+02  0.1531609E+03
Ar  977  0.2195059E+02  0.3249861E+02  0.3284201E+02  0.1409819E+02
Ar  978  0.2513860E+02  0.3465481E+02  0.3215851E+02  0.1740399E+03
Ar  979  0.2420507E+02  0.3227513E+02  0.3532757E+02  0.7280303E+01
Ar  980  0.2159082E+02  0.3495907E+02  0.3504574E+02  0.4101633E+03
Ar  981  0.2663171E+02  0.3746702E+02  0.3774872E+02  0.2012188E+03
Ar  982  0.2990420E+02  0.2546593E+01  0.3742618E+02  0.3661280E+02
Ar  983  0.2976272E+02  0.3753361E+02  0.1963360E+01  0.2762016E+03
Ar  984  0.2725862E+02  0.2655733E+01  0.2137660E+01  0.6454049E+03
Ar  985  0.2713589E+02  0.3774192E+02  0.4881617E+01  0.1057167E+03
Ar  986  0.3006518E+02  0.1980948E+01  0.4894971E+01  0.1685522E+03
Ar  987  0.2964573E+02  0.3752152E+02  0.8106612E+01  0.2399688E+03
Ar  988  0.2763900E+02  0.2678552E+01  0.7544350E+01  0.1185277E+03
Ar  989  0.2686666E+02  0.6108021E+00  0.1063029E+02  0.4963416E+03
Ar  990  0.3036738E+02  0.3076204E+01  0.1016811E+02  0.3738068E+03
Ar  991  0.3031876E+02  0.8372029E-02  0.1309699E+02  0.7324847E+03
Ar  992  0.2759421E+02  0.2634616E+01  0.1392298E+02  0.5629267E+02
Ar  993  0.2707968E+02  0.1247307E+00  0.1647548E+02  0.2220356E+03
Ar  994  0.2980463E+02  0.2902036E+01  0.1718635E+02  0.3292339E+02
Ar  995  0.2996987E+02  0.5117308E+00  0.1990655E+02  0.1288061E+03
Ar  996  0.2726357E+02  0.2727782E+01  0.1939987E+02  0.2218094E+03
Ar  997  0.2702305E+02  0.3768655E+02  0.2168542E+02  0.6576776E+03
Ar  998  0.2984398E+02  0.3234549E+01  0.2198218E+02  0.7072874E+02
Ar  999  0.2955081E+02  0.5026464E+00  0.2440913E+02  0.2564431E+03
Ar 1000  0.2654617E+02  0.2663923E+01  0.2422193E+02  0.3005553E+03
Ar 1001  0.2667661E+02  0.9588657E-01  0.2699031E+02  0.2294316E+03
Ar 1002  0.2977327E+02  0.2541892E+01  0.2665241E+02  0.1940722E+02
Ar 1003  0.2984406E+02  0.3758194E+02  0.3006150E+02  0.1693905E+03
Ar 1004  0.2740105E+02  0.2499800E+01  0.2944889E+02  0.4981330E+03
Ar 1005  0.2697161E+02  0.3764668E+02  0.3267330E+02  0.1918157E+03
Ar 1006  0.3004597E+02  0.2903112E+01  0.3173258E+02  0.3567265E+02
Ar 1007  0.2975853E+02  0.3694175E+00  0.3463093E+02  0.1824852E+03
Ar 1008  0.2663810E+02  0.2655397E+01  0.3480487E+02  0.8139237E+02
Ar 1009  0.2668758E+02  0.5280236E+01  0.1291330E+00  0.1605503E+03
Ar 1010  0.2965880E+02  0.8026693E+01  0.3762130E+02  0.6651246E+03
Ar 1011  0.2962398E+02  0.5660053E+01  0.2628660E+01  0.2005761E+03
Ar 1012  0.2708166E+02  0.8021746E+01  0.2389317E+01  0.2443542E+03
Ar 1013  0.2687262E+02  0.5042962E+01  0.4493531E+01  0.1756419E+03
Ar 1014  0.2973825E+02  0.7881599E+01  0.5059912E+01  0.4965056E+01
Ar 1015  0.3010967E+02  0.5564224E+01  0.8065764E+01  0.2487142E+03
Ar 1016  0.2702471E+02  0.7963973E+01  0.7958158E+01  0.6629058E+02
Ar 1017  0.2714092E+02  0.4823009E+01  0.1016754E+02  0.1926558E+03
Ar 1018  0.2985287E+02  0.8034274E+01  0.1038431E+02  0.1102231E+03
Ar 1019  0.3045544E+02  0.5198076E+01  0.1347547E+02  0.1174974E+03
Ar 1020  0.2767527E+02  0.8024859E+01  0.1291459E+02  0.2967299E+03
Ar 1021  0.2790411E+02  0.5724796E+01  0.1668203E+02  0.2729836E+02
Ar 1022  0.3064921E+02  0.8149715E+01  0.1604925E+02  0.4246774E+03
Ar 1023  0.3044618E+02  0.5350914E+01  0.1944436E+02  0.8480691E+02
Ar 1024  0.2691982E+02  0.8458801E+01  0.1923649E+02  0.3830960E+02
Ar 1025  0.2655280E+02  0.5175078E+01  0.2156885E+02  0.1273333E+03
Ar 1026  0.2958481E+02  0.7970984E+01  0.2182896E+02  0.3140502E+03
Ar 1027  0.2937749E+02  0.5700948E+01  0.2412658E+02  0.1199391E+03
Ar 1028  0.2693584E+02  0.8384316E+01  0.2416329E+02  0.5862962E+02
Ar 1029  0.2671682E+02  0.5402179E+01  0.2726398E+02  0.1983156E+03
Ar 1030  0.2935343E+02  0.8497224E+01  0.2711859E+02  0.1539918E+03
Ar 1031  0.2963859E+02  0.5608594E+01  0.2904892E+02  0.1333663E+03
Ar 1032  0.2649536E+02  0.8101501E+01  0.3019463E+02  0.2474358E+03
Ar 1033  0.2679397E+02  0.5051084E+01  0.3219264E+02  0.6099560E+02
Ar 1034  0.2956847E+02  0.8245275E+01  0.3239927E+02  0.2697060E+03
Ar 1035  0.2909993E+02  0.5277680E+01  0.3467986E+02  0.3803083E+03
Ar 1036  0.2708400E+02  0.7930375E+01  0.3476299E+02  0.1664711E+03
Ar 1037  0.2707786E+02  0.1077575E+02  0.3751213E+02  0.3139903E+03
Ar 1038  0.2982243E+02  0.1318941E+02  0.3753008E+02  0.6254631E+02
Ar 1039  0.3022700E+02  0.1089772E+02  0.2575714E+01  0.1787173E+03
Ar 1040  0.2681279E+02  0.1323856E+02  0.2538789E+01  0.2175589E+03
Ar 1041  0.2681466E+02  0.1041200E+02  0.4874594E+01  0.3746674E+02
Ar 1042  0.2931794E+02  0.1326792E+02  0.5835181E+01  0.4368527E+02
Ar 1043  0.2978607E+02  0.1095140E+02  0.7999870E+01  0.3947193E+02
Ar 1044  0.2633474E+02  0.1303976E+02  0.8076748E+01  0.2218374E+03
Ar 1045  0.2712032E+02  0.1068573E+02  0.1046250E+02  0.3867829E+03
Ar 1046  0.2945657E+02  0.1395634E+02  0.1070705E+02  0.6491760E+02
Ar 1047  0.2996640E+02  0.1092116E+02  0.1338730E+02  0.4945891E+02
Ar 1048  0.2669394E+02  0.1322833E+02  0.1372246E+02  0.5844405E+02
Ar 1049  0.2713486E+02  0.9357421E+01  0.1586774E+02  0.1601979E+03
Ar 1050  0.2992082E+02  0.1340624E+02  0.1591582E+02  0.1094884E+03
Ar 1051  0.3017183E+02  0.1037763E+02  0.1868143E+02  0.1661692E+02
Ar 1052  0.2709431E+02  0.1323175E+02  0.1895712E+02  0.5915461E+03
Ar 1053  0.2752102E+02  0.1113450E+02  0.2168772E+02  0.2640342E+03
Ar 1054  0.3015983E+02  0.1380435E+02  0.2133179E+02  0.2250839E+03
Ar 1055  0.3009334E+02  0.1131257E+02  0.2419193E+02  0.1503947E+03
Ar 1056  0.2733621E+02  0.1372496E+02  0.2439421E+02  0.4519457E+02
Ar 1057  0.2661759E+02  0.1054005E+02  0.2707034E+02  0.2590790E+03
Ar 1058  0.2923933E+02  0.1342929E+02  0.2729107E+02  0.3176585E+03
Ar 1059  0.2955107E+02  0.1095805E+02  0.2995222E+02  0.3036444E+03
Ar 1060  0.2704595E+02  0.1346235E+02  0.2994036E+02  0.3435682E+03
Ar 1061  0.2689487E+02  0.1107672E+02  0.3238809E+02  0.8437098E+02
Ar 1062  0.3019952E+02  0.1400188E+02  0.3260224E+02  0.3484084E+02
Ar 1063  0.3007221E+02  0.1048245E+02  0.3537988E+02  0.1899444E+03
Ar 1064  0.2737353E+02  0.1345136E+02  0.3500844E+02  0.2304801E+03
Ar 1065  0.2766789E+02  0.1575776E+02  0.7542780E-02  0.3739808E+02
Ar 1066  0.2957373E+02  0.1886958E+02  0.3773715E+02  0.2879075E+03
Ar 1067  0.2965216E+02  0.1589771E+02  0.2849887E+01  0.3007708E+03
Ar 1068  0.2648254E+02  0.1869180E+02  0.2427372E+01  0.6856233E+03
Ar 1069  0.2705640E+02  0.1596733E+02  0.5630797E+01  0.1073350E+03
Ar 1070  0.2941004E+02  0.1875219E+02  0.5031673E+01  0.6823459E+02
Ar 1071  0.2955940E+02  0.1656895E+02  0.8084808E+01  0.9026323E+02
Ar 1072  0.2689066E+02  0.1895118E+02  0.8405188E+01  0.6803874E+02
Ar 1073  0.2692926E+02  0.1678932E+02  0.1135018E+02  0.8548887E+02
Ar 1074  0.2957801E+02  0.1966320E+02  0.1094930E+02  0.3699913E+03
Ar 1075  0.2957777E+02  0.1629909E+02  0.1362208E+02  0.2393504E+03
Ar 1076  0.2738606E+02  0.1910853E+02  0.1381755E+02  0.1530095E+03
Ar 1077  0.2707657E+02  0.1595848E+02  0.1628641E+02  0.3178798E+03
Ar 1078  0.2999026E+02  0.1939397E+02  0.1624392E+02  0.3137106E+03
Ar 1079  0.2987126E+02  0.1648836E+02  0.1855557E+02  0.4470412E+02
Ar 1080  0.2712224E+02  0.1915944E+02  0.1890166E+02  0.3085091E+03
Ar 1081  0.2749210E+02  0.1612076E+02  0.2122597E+02  0.4313467E+03
Ar 1082  0.3015264E+02  0.1901968E+02  0.2162069E+02  0.4837446E+03
Ar 1083  0.2959827E+02  0.1658832E+02  0.2411357E+02  0.9199278E+02
Ar 1084  0.2730386E+02  0.1929161E+02  0.2389442E+02  0.2310161E+03
Ar 1085  0.2689646E+02  0.1599834E+02  0.2747485E+02  0.4127016E+02
Ar 1086  0.2950171E+02  0.1935844E+02  0.2706132E+02  0.8974420E+02
Ar 1087  0.3017109E+02  0.1690634E+02  0.2979481E+02  0.1938367E+03
Ar 1088  0.2650000E+02  0.1961242E+02  0.2925468E+02  0.2674559E+02
Ar 1089  0.2682060E+02  0.1648777E+02  0.3170575E+02  0.3356706E+03
Ar 1090  0.2954921E+02  0.1911324E+02  0.3310817E+02  0.7035338E+02
Ar 1091  0.2984372E+02  0.1615385E+02  0.3502095E+02  0.1330219E+03
Ar 1092  0.2661115E+02  0.1883504E+02  0.3477408E+02  0.1201930E+03
Ar 1093  0.2668809E+02  0.2167568E+02  0.3175923E+00  0.2622741E+03
Ar 1094  0.2986517E+02  0.2404272E+02  0.2915806E+00  0.9491085E+02
Ar 1095  0.2959480E+02  0.2168189E+02  0.2691420E+01  0.6408655E+02
Ar 1096  0.2687930E+02  0.2431523E+02  0.2525707E+01  0.8532769E+02
Ar 1097  0.2654781E+02  0.2121606E+02  0.4566875E+01  0.5049902E+03
Ar 1098  0.3007791E+02  0.2443871E+02  0.4949609E+01  0.8011503E+02
Ar 1099  0.3009570E+02  0.2187671E+02  0.8152110E+01  0.4592449E+03
Ar 1100  0.2721235E+02  0.2402856E+02  0.7258029E+01  0.2973795E+02
Ar 1101  0.2644153E+02  0.2172529E+02  0.1079423E+02  0.1581886E+03
Ar 1102  0.2984403E+02  0.2446981E+02  0.1085040E+02  0.6067602E+02
Ar 1103  0.2919177E+02  0.2216930E+02  0.1355788E+02  0.1282777E+03
Ar 1104  0.2656614E+02  0.2440596E+02  0.1308840E+02  0.5836428E+02
Ar 1105  0.2707516E+02  0.2150896E+02  0.1630024E+02  0.1512809E+02
Ar 1106  0.3005727E+02  0.2446101E+02  0.1614917E+02  0.1365845E+03
Ar 1107  0.2973735E+02  0.2209386E+02  0.1860497E+02  0.8195419E+02
Ar 1108  0.2721257E+02  0.2439873E+02  0.1881662E+02  0.5116734E+02
Ar 1109  0.2687423E+02  0.2209476E+02  0.2094095E+02  0.1253795E+03
Ar 1110  0.2991725E+02  0.2458235E+02  0.2148100E+02  0.2534221E+03
Ar 1111  0.2982348E+02  0.2146332E+02  0.2432666E+02  0.2893066E+03
Ar 1112  0.2678446E+02  0.2384505E+02  0.2429157E+02  0.4879122E+03
Ar 1113  0.2672730E+02  0.2185348E+02  0.2677251E+02  0.4698256E+02
Ar 1114  0.2952595E+02  0.2384902E+02  0.2697072E+02  0.8505307E+02
Ar 1115  0.2956324E+02  0.2161811E+02  0.2988715E+02  0.3718116E+03
Ar 1116  0.2672815E+02  0.2433753E+02  0.2934078E+02  0.4694285E+03
Ar 1117  0.2694804E+02  0.2190204E+02  0.3251732E+02  0.1565764E+03
Ar 1118  0.2948105E+02  0.2440915E+02  0.3172124E+02  0.4817422E+03
Ar 1119  0.2897344E+02  0.2179008E+02  0.3534045E+02  0.6451425E+03
Ar 1120  0.2712545E+02  0.2491575E+02  0.3453981E+02  0.2168949E+03
Ar 1121  0.2736445E+02  0.2630914E+02  0.3742304E+02  0.2180159E+03
Ar 1122  0.2960751E+02  0.2910259E+02  0.3725014E+02  0.7196114E+02
Ar 1123  0.2980299E+02  0.2678437E+02  0.2306953E+01  0.1030368E+03
Ar 1124  0.2684146E+02  0.2956258E+02  0.1687748E+01  0.1200662E+03
Ar 1125  0.2733828E+02  0.2651359E+02  0.4873629E+01  0.2551667E+03
Ar 1126  0.2954426E+02  0.2909737E+02  0.5197039E+01  0.1119975E+03
Ar 1127  0.2935986E+02  0.2652910E+02  0.7943003E+01  0.9178612E+02
Ar 1128  0.2678522E+02  0.2924609E+02  0.7910249E+01  0.1760511E+03
Ar 1129  0.2671634E+02  0.2629748E+02  0.1027621E+02  0.4845752E+03
Ar 1130  0.2889247E+02  0.2941431E+02  0.1073571E+02  0.9172939E+02
Ar 1131  0.2938934E+02  0.2702419E+02  0.1316807E+02  0.6216622E+02
Ar 1132  0.2682721E+02  0.2955469E+02  0.1375217E+02  0.2595062E+03
Ar 1133  0.2725278E+02  0.2719676E+02  0.1592306E+02  0.3081073E+03
Ar 1134  0.2948902E+02  0.3032599E+02  0.1593707E+02  0.2594815E+02
Ar 1135  0.2916184E+02  0.2782428E+02  0.1867772E+02  0.8304451E+02
Ar 1136  0.2685626E+02  0.3039274E+02  0.1865485E+02  0.1030967E+02
Ar 1137  0.2674632E+02  0.2716786E+02  0.2120873E+02  0.1800975E+03
Ar 1138  0.2910652E+02  0.2962560E+02  0.2180790E+02  0.1308265E+03
Ar 1139  0.2866512E+02  0.2701757E+02  0.2425123E+02  0.1398205E+03
Ar 1140  0.2663305E+02  0.3018103E+02  0.2417545E+02  0.1398060E+03
Ar 1141  0.2613066E+02  0.2744768E+02  0.2701476E+02  0.9343197E+02
Ar 1142  0.2898049E+02  0.2995172E+02  0.2747662E+02  0.3785305E+02
Ar 1143  0.2977912E+02  0.2675853E+02  0.2891370E+02  0.2028856E+03
Ar 1144  0.2631469E+02  0.3020648E+02  0.3007339E+02  0.7490936E+02
Ar 1145  0.2674671E+02  0.2708532E+02  0.3163479E+02  0.1575500E+03
Ar 1146  0.2921706E+02  0.2926512E+02  0.3186096E+02  0.1572851E+03
Ar 1147  0.2948493E+02  0.2694914E+02  0.3460737E+02  0.2218482E+03
Ar 1148  0.2709087E+02  0.2940906E+02  0.3485896E+02  0.3008849E+03
Ar 1149  0.2808244E+02  0.3224555E+02  0.3704240E+02  0.1968222E+03
Ar 1150  0.2989571E+02  0.3511159E+02  0.3683620E+02  0.1504193E+03
Ar 1151  0.2967954E+02  0.3149860E+02  0.2414977E+01  0.8850200E+02
Ar 1152  0.2753691E+02  0.3463337E+02  0.2214288E+01  0.2518600E+03
Ar 1153  0.2705886E+02  0.3218157E+02  0.5093248E+01  0.1673497E+03
Ar 1154  0.3015470E+02  0.3537079E+02  0.4873908E+01  0.3234294E+03
Ar 1155  0.2943143E+02  0.3225719E+02  0.7927818E+01  0.1887605E+03
Ar 1156  0.2682955E+02  0.3555307E+02  0.7644853E+01  0.3682364E+02
Ar 1157  0.2677286E+02  0.3258978E+02  0.1089704E+02  0.3470619E+03
Ar 1158  0.2968524E+02  0.3517033E+02  0.1045196E+02  0.3069252E+02
Ar 1159  0.2973070E+02  0.3205943E+02  0.1306641E+02  0.6436203E+02
Ar 1160  0.2763352E+02  0.3507786E+02  0.1332431E+02  0.9926427E+02
Ar 1161  0.2710013E+02  0.3311640E+02  0.1633599E+02  0.3347257E+03
Ar 1162  0.2977565E+02  0.3551765E+02  0.1648390E+02  0.2237296E+03
Ar 1163  0.2985154E+02  0.3265226E+02  0.1900221E+02  0.6668254E+02
Ar 1164  0.2739123E+02  0.3547751E+02  0.1893816E+02  0.8355553E+02
Ar 1165  0.2694060E+02  0.3284827E+02  0.2172317E+02  0.1493708E+03
Ar 1166  0.2974420E+02  0.3510362E+02  0.2268198E+02  0.2401877E+03
Ar 1167  0.2917520E+02  0.3256470E+02  0.2485423E+02  0.2276338E+03
Ar 1168  0.2607441E+02  0.3535834E+02  0.2478919E+02  0.6230897E+03
Ar 1169  0.2616345E+02  0.3220701E+02  0.2661830E+02  0.1196522E+03
Ar 1170  0.2956309E+02  0.3554788E+02  0.2670793E+02  0.2733269E+03
Ar 1171  0.2933855E+02  0.3260199E+02  0.2987727E+02  0.2146086E+03
Ar 1172  0.2691191E+02  0.3484399E+02  0.2882149E+02  0.3752857E+03
Ar 1173  0.2736039E+02  0.3239138E+02  0.3308698E+02  0.1792060E+03
Ar 1174  0.2924646E+02  0.3526827E+02  0.3253421E+02  0.5175937E+03
Ar 1175  0.3095531E+02  0.3241793E+02  0.3379951E+02  0.1095853E+03
Ar 1176  0.2652898E+02  0.3484255E+02  0.3551066E+02  0.3432477E+02
Ar 1177  0.3245440E+02  0.1130391E+00  0.3758939E+02  0.2186592E+03
Ar 1178  0.3538236E+02  0.2640982E+01  0.7878530E-01  0.2810951E+03
Ar 1179  0.3457762E+02  0.2437801E+00  0.3116842E+01  0.8351990E+02
Ar 1180  0.3217910E+02  0.2754123E+01  0.2179650E+01  0.3089262E+02
Ar 1181  0.3263917E+02  0.6854643E-01  0.5740652E+01  0.1630940E+03
Ar 1182  0.3455704E+02  0.2990362E+01  0.5540130E+01  0.1695725E+03
Ar 1183  0.3532994E+02  0.3716674E+02  0.8374059E+01  0.3480145E+03
Ar 1184  0.3322885E+02  0.2254129E+01  0.8426683E+01  0.1191243E+03
Ar 1185  0.3277301E+02  0.3722147E+02  0.1084663E+02  0.1731835E+03
Ar 1186  0.3582004E+02  0.1967826E+01  0.1071195E+02  0.2360750E+02
Ar 1187  0.3479688E+02  0.1456861E+00  0.1361445E+02  0.2931686E+03
Ar 1188  0.3271121E+02  0.2822768E+01  0.1385594E+02  0.1773425E+03
Ar 1189  0.3233649E+02  0.3399113E+00  0.1639607E+02  0.5434609E+02
Ar 1190  0.3536455E+02  0.2555389E+01  0.1650331E+02  0.1092324E+03
Ar 1191  0.3519604E+02  0.2143964E+00  0.1895153E+02  0.4124407E+03
Ar 1192  0.3290901E+02  0.2814828E+01  0.1956320E+02  0.1464024E+03
Ar 1193  0.3230762E+02  0.8640632E-02  0.2224258E+02  0.1312254E+03
Ar 1194  0.3559188E+02  0.2098127E+01  0.2173226E+02  0.2715332E+03
Ar 1195  0.3543376E+02  0.3763788E+02  0.2456749E+02  0.5259860E+03
Ar 1196  0.3270480E+02  0.2812314E+01  0.2456095E+02  0.2540020E+02
Ar 1197  0.3237528E+02  0.7868106E-01  0.2707809E+02  0.2209074E+03
Ar 1198  0.3525534E+02  0.2413021E+01  0.2733485E+02  0.1471096E+03
Ar 1199  0.3479150E+02  0.1701792E+00  0.3006631E+02  0.6640703E+02
Ar 1200  0.3253043E+02  0.3258404E+01  0.2915644E+02  0.3880338E+03
Ar 1201  0.3263811E+02  0.2103489E+00  0.3254053E+02  0.4119057E+02
Ar 1202  0.3493922E+02  0.3095063E+01  0.3250324E+02  0.3473019E+03
Ar 1203  0.3550455E+02  0.1751719E+00  0.3496947E+02  0.8869152E+02
Ar 1204  0.3243010E+02  0.3167074E+01  0.3481041E+02  0.2132552E+03
Ar 1205  0.3181126E+02  0.5288560E+01  0.3759940E+02  0.1343575E+03
Ar 1206  0.3549286E+02  0.7935871E+01  0.3753018E+02  0.3995151E+03
Ar 1207  0.3471843E+02  0.5194081E+01  0.2374137E+01  0.2593473E+03
Ar 1208  0.3234694E+02  0.7971078E+01  0.2564478E+01  0.1485477E+03
Ar 1209  0.3201185E+02  0.5327316E+01  0.5411369E+01  0.1200962E+03
Ar 1210  0.3496236E+02  0.8039505E+01  0.5068426E+01  0.4436940E+03
Ar 1211  0.3480006E+02  0.5566472E+01  0.7924421E+01  0.7316687E+03
Ar 1212  0.3268544E+02  0.8281148E+01  0.7740039E+01  0.1093869E+03
Ar 1213  0.3305353E+02  0.5266521E+01  0.1083924E+02  0.1599645E+03
Ar 1214  0.3511972E+02  0.8295019E+01  0.1048925E+02  0.2584922E+03
Ar 1215  0.3496477E+02  0.5763586E+01  0.1378666E+02  0.6195368E+02
Ar 1216  0.3275972E+02  0.8173423E+01  0.1323416E+02  0.4473056E+03
Ar 1217  0.3254140E+02  0.5124477E+01  0.1632199E+02  0.5462093E+02
Ar 1218  0.3514583E+02  0.8248112E+01  0.1635438E+02  0.9447264E+02
Ar 1219  0.3538501E+02  0.5302798E+01  0.1928701E+02  0.1159477E+03
Ar 1220  0.3306218E+02  0.8097922E+01  0.1932075E+02  0.3014150E+02
Ar 1221  0.3263342E+02  0.5721886E+01  0.2224134E+02  0.6108495E+02
Ar 1222  0.3534311E+02  0.8492582E+01  0.2184772E+02  0.1397985E+03
Ar 1223  0.3565742E+02  0.5051352E+01  0.2428540E+02  0.1074536E+03
Ar 1224  0.3236922E+02  0.8692489E+01  0.2419662E+02  0.2367320E+03
Ar 1225  0.3230207E+02  0.5408105E+01  0.2619116E+02  0.2551666E+03
Ar 1226  0.3531483E+02  0.8013030E+01  0.2679879E+02  0.2177457E+03
Ar 1227  0.3500447E+02  0.5308485E+01  0.2987074E+02  0.3068008E+03
Ar 1228  0.3235109E+02  0.7889572E+01  0.2934926E+02  0.1394506E+03
Ar 1229  0.3227254E+02  0.5722788E+01  0.3216076E+02  0.1996197E+03
Ar 1230  0.3525251E+02  0.8201088E+01  0.3257756E+02  0.2120708E+02
Ar 1231  0.3471992E+02  0.5595944E+01  0.3532455E+02  0.9841645E+02
Ar 1232  0.3207258E+02  0.7738483E+01  0.3503361E+02  0.4770912E+03
Ar 1233  0.3268652E+02  0.1030567E+02  0.3760390E+02  0.2470479E+03
Ar 1234  0.3487366E+02  0.1356618E+02  0.3758081E+02  0.1004035E+03
Ar 1235  0.3524703E+02  0.1052350E+02  0.2591553E+01  0.2292533E+03
Ar 1236  0.3275972E+02  0.1373714E+02  0.2892089E+01  0.4977201E+02
Ar 1237  0.3245529E+02  0.1134012E+02  0.5670667E+01  0.1149660E+03
Ar 1238  0.3533774E+02  0.1389630E+02  0.5478098E+01  0.4703840E+02
Ar 1239  0.3533439E+02  0.1093986E+02  0.7880344E+01  0.6277725E+03
Ar 1240  0.3219512E+02  0.1408308E+02  0.8316186E+01  0.3286231E+03
Ar 1241  0.3223091E+02  0.1058277E+02  0.1048361E+02  0.5304042E+02
Ar 1242  0.3491657E+02  0.1360211E+02  0.1047495E+02  0.4913347E+02
Ar 1243  0.3490531E+02  0.1093960E+02  0.1346703E+02  0.1748454E+03
Ar 1244  0.3216878E+02  0.1363087E+02  0.1307849E+02  0.7145898E+02
Ar 1245  0.3257303E+02  0.1078220E+02  0.1596124E+02  0.1068439E+03
Ar 1246  0.3516345E+02  0.1347020E+02  0.1592208E+02  0.3792146E+02
Ar 1247  0.3515440E+02  0.1100643E+02  0.1910739E+02  0.2601183E+03
Ar 1248  0.3204864E+02  0.1349100E+02  0.1865314E+02  0.1355490E+03
Ar 1249  0.3232251E+02  0.1083531E+02  0.2135434E+02  0.2669731E+02
Ar 1250  0.3503535E+02  0.1354835E+02  0.2138863E+02  0.2685528E+03
Ar 1251  0.3518479E+02  0.1080430E+02  0.2513658E+02  0.2747069E+03
Ar 1252  0.3263741E+02  0.1373221E+02  0.2429174E+02  0.1459792E+03
Ar 1253  0.3222576E+02  0.1128587E+02  0.2727465E+02  0.3773792E+02
Ar 1254  0.3517890E+02  0.1294829E+02  0.2819492E+02  0.6832257E+03
Ar 1255  0.3512990E+02  0.1007623E+02  0.2981982E+02  0.1057176E+03
Ar 1256  0.3175394E+02  0.1378281E+02  0.2954077E+02  0.2516730E+03
Ar 1257  0.3227237E+02  0.1094010E+02  0.3243792E+02  0.2910580E+03
Ar 1258  0.3463548E+02  0.1330785E+02  0.3224854E+02  0.3788295E+03
Ar 1259  0.3527513E+02  0.1067744E+02  0.3519225E+02  0.7062030E+02
Ar 1260  0.3236254E+02  0.1347780E+02  0.3501055E+02  0.5022620E+02
Ar 1261  0.3238739E+02  0.1602709E+02  0.3771621E+02  0.7599786E+03
Ar 1262  0.3499900E+02  0.1932750E+02  0.1489447E-01  0.4410928E+03
Ar 1263  0.3480816E+02  0.1673238E+02  0.2449167E+01  0.5169444E+03
Ar 1264  0.3215295E+02  0.1910466E+02  0.2726027E+01  0.3664858E+03
Ar 1265  0.3252925E+02  0.1619835E+02  0.5313470E+01  0.3963371E+03
Ar 1266  0.3506974E+02  0.1930930E+02  0.4814680E+01  0.5451291E+02
Ar 1267  0.3534921E+02  0.1672108E+02  0.7958744E+01  0.1578565E+03
Ar 1268  0.3250733E+02  0.1893765E+02  0.8006161E+01  0.3271378E+03
Ar 1269  0.3213710E+02  0.1658425E+02  0.1060142E+02  0.5234543E+02
Ar 1270  0.3514073E+02  0.1924056E+02  0.1051140E+02  0.2682794E+02
Ar 1271  0.3560507E+02  0.1621712E+02  0.1382739E+02  0.1530968E+03
Ar 1272  0.3285422E+02  0.1912386E+02  0.1330462E+02  0.5428457E+02
Ar 1273  0.3261143E+02  0.1634351E+02  0.1565629E+02  0.3899036E+02
Ar 1274  0.3533297E+02  0.1914945E+02  0.1649092E+02  0.1337948E+03
Ar 1275  0.3521513E+02  0.1608279E+02  0.1848602E+02  0.8661834E+02
Ar 1276  0.3241491E+02  0.1895414E+02  0.1869159E+02  0.2834266E+03
Ar 1277  0.3262783E+02  0.1642073E+02  0.2108335E+02  0.3028980E+03
Ar 1278  0.3555424E+02  0.1868792E+02  0.2152391E+02  0.4204682E+03
Ar 1279  0.3497317E+02  0.1620330E+02  0.2386886E+02  0.9823396E+02
Ar 1280  0.3247499E+02  0.1907609E+02  0.2388758E+02  0.1156635E+03
Ar 1281  0.3357644E+02  0.1597392E+02  0.2679627E+02  0.3047479E+03
Ar 1282  0.3539453E+02  0.1904616E+02  0.2687984E+02  0.7019908E+02
Ar 1283  0.3465036E+02  0.1603509E+02  0.3011310E+02  0.2721244E+03
Ar 1284  0.3298651E+02  0.1921154E+02  0.2971007E+02  0.7244800E+02
Ar 1285  0.3229732E+02  0.1693130E+02  0.3253979E+02  0.1682067E+03
Ar 1286  0.3492962E+02  0.1950735E+02  0.3271695E+02  0.2796269E+02
Ar 1287  0.3537987E+02  0.1685302E+02  0.3545460E+02  0.3480712E+03
Ar 1288  0.3220478E+02  0.1948035E+02  0.3510491E+02  0.1153261E+03
Ar 1289  0.3238687E+02  0.2176000E+02  0.1720451E+00  0.1190042E+03
Ar 1290  0.3478014E+02  0.2452528E+02  0.3770920E+02  0.1372234E+03
Ar 1291  0.3499542E+02  0.2208829E+02  0.2349842E+01  0.5612997E+02
Ar 1292  0.3238428E+02  0.2438162E+02  0.2689985E+01  0.5843145E+02
Ar 1293  0.3203186E+02  0.2148599E+02  0.5159277E+01  0.4427044E+03
Ar 1294  0.3497099E+02  0.2454832E+02  0.5175863E+01  0.4980029E+03
Ar 1295  0.3534930E+02  0.2197523E+02  0.8062173E+01  0.1296861E+03
Ar 1296  0.3268786E+02  0.2405484E+02  0.8318220E+01  0.4603999E+03
Ar 1297  0.3253843E+02  0.2158475E+02  0.1054639E+02  0.1856103E+03
Ar 1298  0.3525439E+02  0.2484888E+02  0.1064389E+02  0.2248322E+02
Ar 1299  0.3522002E+02  0.2174623E+02  0.1366260E+02  0.3241615E+03
Ar 1300  0.3234597E+02  0.2404916E+02  0.1299758E+02  0.3763765E+03
Ar 1301  0.3258726E+02  0.2163426E+02  0.1625549E+02  0.1852695E+03
Ar 1302  0.3536055E+02  0.2382883E+02  0.1649088E+02  0.3738340E+03
Ar 1303  0.3559283E+02  0.2145579E+02  0.1913718E+02  0.1344012E+03
Ar 1304  0.3202354E+02  0.2529544E+02  0.1878902E+02  0.9761901E+02
Ar 1305  0.3234088E+02  0.2197404E+02  0.2058693E+02  0.2605194E+03
Ar 1306  0.3506189E+02  0.2433870E+02  0.2087358E+02  0.5676687E+02
Ar 1307  0.3553201E+02  0.2154480E+02  0.2364389E+02  0.1266899E+03
Ar 1308  0.3262275E+02  0.2387644E+02  0.2448998E+02  0.7369913E+02
Ar 1309  0.3264124E+02  0.2106388E+02  0.2701701E+02  0.9613349E+02
Ar 1310  0.3501078E+02  0.2428117E+02  0.2683901E+02  0.4366127E+03
Ar 1311  0.3573335E+02  0.2174697E+02  0.2945043E+02  0.3775414E+02
Ar 1312  0.3214593E+02  0.2432608E+02  0.2902164E+02  0.8021553E+02
Ar 1313  0.3264625E+02  0.2240136E+02  0.3207497E+02  0.1085868E+03
Ar 1314  0.3550133E+02  0.2454518E+02  0.3190177E+02  0.7630228E+02
Ar 1315  0.3480704E+02  0.2205823E+02  0.3495675E+02  0.1037411E+03
Ar 1316  0.3244505E+02  0.2470495E+02  0.3495644E+02  0.3242364E+02
Ar 1317  0.3243298E+02  0.2739700E+02  0.1306627E+00  0.4388148E+02
Ar 1318  0.3496822E+02  0.2954297E+02  0.3775086E+02  0.2956732E+03
Ar 1319  0.3521609E+02  0.2727047E+02  0.2939915E+01  0.1860781E+03
Ar 1320  0.3250165E+02  0.2965717E+02  0.2486201E+01  0.8265205E+02
Ar 1321  0.3229798E+02  0.2704582E+02  0.4774110E+01  0.4264295E+03
Ar 1322  0.3527235E+02  0.3009565E+02  0.5800291E+01  0.7810886E+02
Ar 1323  0.3450475E+02  0.2703167E+02  0.7882194E+01  0.1919498E+03
Ar 1324  0.3202066E+02  0.2921027E+02  0.7997317E+01  0.1477815E+03
Ar 1325  0.3222733E+02  0.2733750E+02  0.1119748E+02  0.1041111E+03
Ar 1326  0.3588885E+02  0.2908459E+02  0.1197632E+02  0.3254560E+03
Ar 1327  0.3497814E+02  0.2603536E+02  0.1426908E+02  0.2885701E+02
Ar 1328  0.3273032E+02  0.3036806E+02  0.1386748E+02  0.3271797E+03
Ar 1329  0.3207110E+02  0.2780917E+02  0.1609166E+02  0.1548562E+03
Ar 1330  0.3522319E+02  0.2966999E+02  0.1638644E+02  0.9550693E+02
Ar 1331  0.3468704E+02  0.2726167E+02  0.1888175E+02  0.1216139E+03
Ar 1332  0.3206389E+02  0.2978644E+02  0.1932537E+02  0.7605272E+02
Ar 1333  0.3255855E+02  0.2673213E+02  0.2253127E+02  0.3562245E+03
Ar 1334  0.3476091E+02  0.2954717E+02  0.2230255E+02  0.3210101E+03
Ar 1335  0.3573324E+02  0.2646374E+02  0.2372695E+02  0.2704821E+03
Ar 1336  0.3152097E+02  0.2998585E+02  0.2492188E+02  0.5656412E+02
Ar 1337  0.3195609E+02  0.2698690E+02  0.2614214E+02  0.5630635E+03
Ar 1338  0.3458442E+02  0.2898638E+02  0.2633352E+02  0.7348012E+01
Ar 1339  0.3481030E+02  0.2710937E+02  0.2914734E+02  0.2373798E+03
Ar 1340  0.3224098E+02  0.2944031E+02  0.2931902E+02  0.8910449E+02
Ar 1341  0.3233039E+02  0.2682005E+02  0.3183428E+02  0.1030014E+03
Ar 1342  0.3498960E+02  0.2942858E+02  0.3169690E+02  0.3583806E+02
Ar 1343  0.3496559E+02  0.2766416E+02  0.3478986E+02  0.1347978E+03
Ar 1344  0.3201388E+02  0.2930493E+02  0.3466979E+02  0.1183500E+03
Ar 1345  0.3196289E+02  0.3186881E+02  0.3732640E+02  0.8550097E+02
Ar 1346  0.3396078E+02  0.3473275E+02  0.4270548E+01  0.1526841E+03
Ar 1347  0.3497815E+02  0.3199628E+02  0.2569813E+01  0.3331823E+02
Ar 1348  0.3183918E+02  0.3469960E+02  0.1708769E+01  0.8665037E+02
Ar 1349  0.3211996E+02  0.3176548E+02  0.5081958E+01  0.6851630E+02
Ar 1350  0.3576138E+02  0.3371391E+02  0.7148655E+01  0.6589123E+01
Ar 1351  0.3545498E+02  0.3107622E+02  0.9060603E+01  0.7520505E+02
Ar 1352  0.3230248E+02  0.3502953E+02  0.8027820E+01  0.2688207E+03
Ar 1353  0.3255881E+02  0.3222982E+02  0.1080302E+02  0.2200777E+03
Ar 1354  0.3531215E+02  0.3438281E+02  0.1069303E+02  0.1822155E+03
Ar 1355  0.3503543E+02  0.3260151E+02  0.1406609E+02  0.1662535E+03
Ar 1356  0.3236639E+02  0.3489774E+02  0.1365424E+02  0.1601594E+03
Ar 1357  0.3216896E+02  0.3272690E+02  0.1646671E+02  0.4591978E+03
Ar 1358  0.3520121E+02  0.3567000E+02  0.1592157E+02  0.8596992E+02
Ar 1359  0.3506161E+02  0.3188400E+02  0.1885974E+02  0.4708238E+02
Ar 1360  0.3205837E+02  0.3525917E+02  0.1896816E+02  0.4154083E+03
Ar 1361  0.3181779E+02  0.3233920E+02  0.2225258E+02  0.7874071E+02
Ar 1362  0.3510006E+02  0.3471883E+02  0.2149301E+02  0.3344213E+03
Ar 1363  0.3487185E+02  0.3258178E+02  0.2443441E+02  0.3728020E+03
Ar 1364  0.3224614E+02  0.3480845E+02  0.2481168E+02  0.4337882E+02
Ar 1365  0.3200340E+02  0.3237215E+02  0.2747023E+02  0.1853101E+03
Ar 1366  0.3546415E+02  0.3489505E+02  0.2730751E+02  0.7039747E+02
Ar 1367  0.3529064E+02  0.3224919E+02  0.2976629E+02  0.9361081E+02
Ar 1368  0.3185266E+02  0.3485068E+02  0.2960582E+02  0.1266159E+03
Ar 1369  0.3519455E+02  0.3518556E+02  0.3771225E+02  0.3033567E+03
Ar 1370  0.3482391E+02  0.3483922E+02  0.3187274E+02  0.2775306E+03
Ar 1371  0.3471205E+02  0.3152214E+02  0.3455471E+02  0.4071609E+02
Ar 1372  0.3304598E+02  0.3538421E+02  0.3508011E+02  0.1708518E+03
