        1372
Lattice="  0.3778015E+02  0.0000000E+00  0.0000000E+00  0.0000000E+00  0.3778015E+02  0.0000000E+00  0.0000000E+00  0.0000000E+00  0.3778015E+02" Properties=species:S:1:id:I:1:pos:R:3:tempK:R:1
Ar    1  0.3755657E+02  0.4135363E+00  0.3771650E+02  0.4875718E+03
Ar    2  0.2833758E+01  0.2817343E+01  0.3484707E+00  0.6871295E+03
Ar    3  0.2644280E+01  0.5422031E+00  0.3430091E+01  0.2161815E+03
Ar    4  0.3752201E+02  0.2596014E+01  0.2276309E+01  0.3168501E+03
Ar    5  0.3771511E+02  0.6560134E+00  0.5260704E+01  0.1226311E+03
Ar    6  0.2977876E+01  0.2334527E+01  0.6246319E+01  0.1856079E+03
Ar    7  0.2712362E+01  0.3751810E+02  0.8375606E+01  0.3781591E+03
Ar    8  0.3775510E+02  0.2644250E+01  0.8416694E+01  0.7240221E+02
Ar    9  0.1625235E+00  0.3676286E+02  0.1077476E+02  0.1372949E+02
Ar   10  0.2437184E+01  0.3244008E+01  0.1064196E+02  0.3820880E+02
Ar   11  0.2996778E+01  0.3674131E+00  0.1255689E+02  0.6894832E+02
Ar   12  0.5916620E+00  0.2513001E+01  0.1419287E+02  0.7912893E+03
Ar   13  0.3774344E+02  0.1294374E+00  0.1624264E+02  0.3208379E+02
Ar   14  0.2536963E+01  0.3245273E+01  0.1667845E+02  0.1538236E+03
Ar   15  0.2854590E+01  0.2102252E+00  0.1907314E+02  0.4289445E+03
Ar   16  0.3771102E+02  0.2624274E+01  0.1900819E+02  0.1115410E+03
Ar   17  0.3775278E+02  0.3763104E+02  0.2204094E+02  0.1142690E+03
Ar   18  0.2345309E+01  0.2845339E+01  0.2129668E+02  0.9897760E+02
Ar   19  0.2323195E+01  0.3773837E+02  0.2474238E+02  0.2821805E+03
Ar   20  0.3772695E+02  0.2704366E+01  0.2403573E+02  0.4432209E+03
Ar   21  0.3745606E+02  0.7231662E+00  0.2688418E+02  0.1295648E+03
Ar   22  0.2499469E+01  0.3004265E+01  0.2677660E+02  0.7032634E+03
Ar   23  0.2381011E+01  0.3052200E+00  0.2892463E+02  0.3900079E+02
Ar   24  0.6087744E-01  0.2888204E+01  0.2978503E+02  0.6761684E+02
Ar   25  0.7043628E+00  0.4980797E+00  0.3234784E+02  0.4466880E+03
Ar   26  0.2548153E+01  0.3143893E+01  0.3249944E+02  0.1037639E+02
Ar   27  0.2503882E+01  0.5783468E+00  0.3547188E+02  0.3245984E+03
Ar   28  0.3725881E+02  0.2530348E+01  0.3504944E+02  0.2286259E+02
Ar   29  0.3733820E+02  0.5839000E+01  0.6583009E-01  0.1756984E+03
Ar   30  0.2802666E+01  0.8002341E+01  0.2934941E+00  0.1529907E+03
Ar   31  0.2915323E+01  0.5283955E+01  0.2514886E+01  0.3766876E+03
Ar   32  0.4745257E+00  0.7909393E+01  0.2933810E+01  0.2982279E+03
Ar   33  0.4954471E+00  0.4608187E+01  0.5844576E+01  0.5221382E+03
Ar   34  0.3209271E+01  0.8492743E+01  0.5169269E+01  0.5506158E+03
Ar   35  0.3681840E+01  0.5234313E+01  0.7825464E+01  0.7820509E+02
Ar   36  0.7138407E+00  0.7350803E+01  0.8078071E+01  0.2305149E+03
Ar   37  0.3773358E+02  0.5411350E+01  0.1058009E+02  0.2036373E+03
Ar   38  0.2945444E+01  0.7974026E+01  0.1050264E+02  0.1580456E+04
Ar   39  0.2760773E+01  0.5340234E+01  0.1329736E+02  0.4738301E+02
Ar   40  0.4399828E+00  0.8132829E+01  0.1313778E+02  0.2432912E+03
Ar   41  0.3765801E+02  0.5697331E+01  0.1591918E+02  0.6698276E+03
Ar   42  0.2831115E+01  0.7798594E+01  0.1597510E+02  0.4639410E+03
Ar   43  0.3226616E+01  0.5800117E+01  0.1941401E+02  0.2344527E+03
Ar   44  0.2747520E+00  0.8201763E+01  0.1920720E+02  0.2952834E+03
Ar   45  0.9002880E-01  0.5255811E+01  0.2170861E+02  0.5724120E+03
Ar   46  0.2577501E+01  0.8305212E+01  0.2173727E+02  0.1234749E+04
Ar   47  0.2739769E+01  0.5280464E+01  0.2397036E+02  0.8889853E+02
Ar   48  0.3733706E+02  0.8219798E+01  0.2390792E+02  0.2395942E+02
Ar   49  0.3714194E+02  0.5570659E+01  0.2682000E+02  0.9091739E+02
Ar   50  0.2444818E+01  0.8483378E+01  0.2665317E+02  0.1687073E+03
Ar   51  0.2766459E+01  0.5415908E+01  0.2945316E+02  0.4618923E+03
Ar   52  0.2750496E+00  0.7847474E+01  0.2964734E+02  0.2977841E+03
Ar   53  0.3773223E+02  0.5842578E+01  0.3269104E+02  0.3019072E+03
Ar   54  0.2750117E+01  0.7674276E+01  0.3257914E+02  0.2537917E+03
Ar   55  0.1762730E+01  0.4737639E+01  0.3537622E+02  0.2291531E+03
Ar   56  0.3301806E+00  0.8171309E+01  0.3518976E+02  0.4531624E+03
Ar   57  0.3770839E+02  0.1091228E+02  0.6652458E-01  0.2622481E+03
Ar   58  0.2519347E+01  0.1399095E+02  0.2498979E+00  0.9876762E+02
Ar   59  0.2906413E+01  0.1096421E+02  0.2260226E+01  0.1459430E+03
Ar   60  0.1733369E+00  0.1327309E+02  0.2784002E+01  0.3076307E+03
Ar   61  0.1211551E+00  0.1061303E+02  0.5207315E+01  0.1911506E+03
Ar   62  0.2525673E+01  0.1299391E+02  0.5043998E+01  0.2901318E+03
Ar   63  0.2920925E+01  0.1075558E+02  0.7913539E+01  0.9819230E+02
Ar   64  0.4313321E+00  0.1352381E+02  0.7811055E+01  0.1395775E+02
Ar   65  0.4853082E+00  0.1083671E+02  0.1024447E+02  0.4039580E+02
Ar   66  0.2866597E+01  0.1395769E+02  0.1042262E+02  0.1514820E+03
Ar   67  0.2902511E+01  0.1066595E+02  0.1327236E+02  0.1276863E+03
Ar   68  0.3773398E+02  0.1314271E+02  0.1267682E+02  0.9894674E+02
Ar   69  0.5174299E+00  0.1062121E+02  0.1561215E+02  0.1744997E+03
Ar   70  0.2827902E+01  0.1322135E+02  0.1586510E+02  0.1017794E+03
Ar   71  0.3389600E+01  0.1036670E+02  0.1866515E+02  0.1658393E+03
Ar   72  0.2838816E+00  0.1299361E+02  0.1877916E+02  0.1630490E+03
Ar   73  0.1670788E+00  0.1088215E+02  0.2142819E+02  0.1283193E+03
Ar   74  0.2803141E+01  0.1305638E+02  0.2114038E+02  0.4837014E+03
Ar   75  0.2453433E+01  0.1132787E+02  0.2418807E+02  0.4600411E+03
Ar   76  0.3747319E+02  0.1359367E+02  0.2393061E+02  0.8775434E+02
Ar   77  0.3719160E+02  0.1139657E+02  0.2650912E+02  0.9449074E+01
Ar   78  0.2854262E+01  0.1359148E+02  0.2736996E+02  0.2362942E+03
Ar   79  0.1999901E+01  0.1088902E+02  0.2958736E+02  0.1943902E+03
Ar   80  0.3773618E+02  0.1365573E+02  0.2906403E+02  0.1818959E+03
Ar   81  0.2069760E+00  0.1117411E+02  0.3278507E+02  0.1922536E+03
Ar   82  0.2616801E+01  0.1352724E+02  0.3233057E+02  0.3816335E+03
Ar   83  0.2593827E+01  0.1090291E+02  0.3584766E+02  0.5643324E+03
Ar   84  0.3330709E+00  0.1367577E+02  0.3517305E+02  0.3549515E+03
Ar   85  0.3751998E+02  0.1625176E+02  0.5968574E+00  0.5367543E+03
Ar   86  0.3017007E+01  0.1932409E+02  0.6083297E+00  0.1906259E+03
Ar   87  0.2613850E+01  0.1619559E+02  0.3028568E+01  0.1696802E+03
Ar   88  0.1599884E+00  0.1913300E+02  0.3001981E+01  0.5950124E+02
Ar   89  0.3759120E+02  0.1617550E+02  0.4818003E+01  0.1560442E+02
Ar   90  0.2584073E+01  0.1939132E+02  0.5619042E+01  0.9780604E+02
Ar   91  0.2273499E+01  0.1686547E+02  0.7787146E+01  0.1162857E+03
Ar   92  0.3749321E+02  0.1896828E+02  0.7626617E+01  0.6125729E+03
Ar   93  0.2918515E+00  0.1632654E+02  0.1044431E+02  0.1632803E+03
Ar   94  0.2845793E+01  0.1931130E+02  0.1056852E+02  0.1523818E+03
Ar   95  0.3064726E+01  0.1611963E+02  0.1345943E+02  0.1115049E+03
Ar   96  0.5810793E+00  0.1876931E+02  0.1317685E+02  0.9203634E+02
Ar   97  0.3764068E+02  0.1565864E+02  0.1576675E+02  0.3362762E+03
Ar   98  0.2813392E+01  0.1938777E+02  0.1599202E+02  0.2012800E+03
Ar   99  0.3246857E+01  0.1569867E+02  0.1882273E+02  0.1538297E+03
Ar  100  0.3505434E+00  0.1852360E+02  0.1850156E+02  0.1906615E+03
Ar  101  0.1694539E+00  0.1567058E+02  0.2108850E+02  0.3762239E+03
Ar  102  0.3031866E+01  0.1927940E+02  0.2139363E+02  0.5257253E+03
Ar  103  0.2230621E+01  0.1571212E+02  0.2409508E+02  0.4169643E+02
Ar  104  0.1266898E+00  0.1858204E+02  0.2333957E+02  0.7330065E+03
Ar  105  0.1426665E+00  0.1634398E+02  0.2684242E+02  0.4087345E+03
Ar  106  0.2836657E+01  0.1859955E+02  0.2621530E+02  0.4929852E+02
Ar  107  0.3155991E+01  0.1608129E+02  0.2998544E+02  0.1378194E+03
Ar  108  0.3762450E+02  0.1835518E+02  0.2963407E+02  0.4824692E+03
Ar  109  0.3765874E+02  0.1590395E+02  0.3213401E+02  0.1838366E+03
Ar  110  0.1883941E+01  0.1849795E+02  0.3248373E+02  0.8941671E+02
Ar  111  0.2462965E+01  0.1703934E+02  0.3582152E+02  0.2322391E+03
Ar  112  0.1154879E+00  0.1937429E+02  0.3571735E+02  0.2835571E+03
Ar  113  0.3741906E+02  0.2206883E+02  0.3953333E+00  0.1141297E+03
Ar  114  0.2628133E+01  0.2445641E+02  0.2597094E+00  0.2418891E+03
Ar  115  0.2523208E+01  0.2180634E+02  0.3092226E+01  0.1248884E+03
Ar  116  0.3748275E+02  0.2471528E+02  0.2740772E+01  0.2105343E+03
Ar  117  0.3754121E+02  0.2188935E+02  0.5474165E+01  0.1468329E+03
Ar  118  0.2621253E+01  0.2444702E+02  0.5365541E+01  0.1031705E+03
Ar  119  0.2059469E+01  0.2205627E+02  0.8322413E+01  0.2144453E+03
Ar  120  0.1239043E+00  0.2464739E+02  0.8371433E+01  0.1945543E+02
Ar  121  0.3761149E+02  0.2138000E+02  0.1069809E+02  0.3268046E+02
Ar  122  0.2013227E+01  0.2473273E+02  0.1139159E+02  0.8659508E+02
Ar  123  0.2275482E+01  0.2237360E+02  0.1366256E+02  0.8575947E+02
Ar  124  0.6073001E-02  0.2532088E+02  0.1420447E+02  0.1995314E+03
Ar  125  0.3759687E+02  0.2218187E+02  0.1641155E+02  0.2966936E+02
Ar  126  0.2795643E+01  0.2464731E+02  0.1676243E+02  0.4676674E+03
Ar  127  0.2872999E+01  0.2153154E+02  0.1837911E+02  0.4213475E+02
Ar  128  0.3718946E+02  0.2425667E+02  0.1892123E+02  0.8895258E+02
Ar  129  0.3753485E+02  0.2132344E+02  0.2057260E+02  0.7891819E+02
Ar  130  0.2566927E+01  0.2353343E+02  0.2114032E+02  0.8730236E+02
Ar  131  0.2429929E+01  0.2164603E+02  0.2409750E+02  0.7040444E+03
Ar  132  0.3731714E+02  0.2427293E+02  0.2417958E+02  0.1207656E+03
Ar  133  0.3762348E+02  0.2114220E+02  0.2647977E+02  0.4837147E+03
Ar  134  0.2381917E+01  0.2434131E+02  0.2662099E+02  0.3560508E+03
Ar  135  0.1764742E+01  0.2121978E+02  0.2972840E+02  0.7208753E+02
Ar  136  0.3731125E+02  0.2367031E+02  0.2908075E+02  0.8804683E+02
Ar  137  0.3744151E+02  0.2100501E+02  0.3244005E+02  0.2332743E+03
Ar  138  0.1859870E+01  0.2411700E+02  0.3273221E+02  0.5466386E+03
Ar  139  0.2517264E+01  0.2158768E+02  0.3608377E+02  0.5696687E+02
Ar  140  0.3673863E+02  0.2417599E+02  0.3554504E+02  0.2127498E+03
Ar  141  0.3760953E+02  0.2688909E+02  0.3694719E-02  0.2301779E+03
Ar  142  0.2608516E+01  0.2982173E+02  0.4756825E+00  0.1532720E+03
Ar  143  0.2179235E+01  0.2680024E+02  0.2563319E+01  0.1128111E+03
Ar  144  0.3755699E+02  0.2941207E+02  0.2744824E+01  0.3892068E+02
Ar  145  0.3772072E+02  0.2722084E+02  0.5172383E+01  0.8772454E+02
Ar  146  0.2280292E+01  0.2998392E+02  0.5097078E+01  0.6035609E+03
Ar  147  0.2520023E+01  0.2728173E+02  0.7717671E+01  0.1335590E+03
Ar  148  0.1966748E+00  0.3023726E+02  0.7702230E+01  0.1085460E+03
Ar  149  0.3774546E+02  0.2776242E+02  0.1073014E+02  0.4709737E+03
Ar  150  0.2919590E+01  0.2980697E+02  0.1094063E+02  0.7868610E+02
Ar  151  0.2798358E+01  0.2727706E+02  0.1347543E+02  0.2487466E+03
Ar  152  0.5282315E+00  0.2964054E+02  0.1387706E+02  0.4746410E+02
Ar  153  0.4526721E-01  0.2690827E+02  0.1714353E+02  0.3842851E+03
Ar  154  0.2878360E+01  0.2955549E+02  0.1673829E+02  0.2563917E+03
Ar  155  0.2685119E+01  0.2708169E+02  0.1921524E+02  0.4980615E+03
Ar  156  0.3727012E+02  0.3002023E+02  0.1940882E+02  0.2719185E+03
Ar  157  0.3744772E+02  0.2704578E+02  0.2144859E+02  0.5153395E+03
Ar  158  0.2570632E+01  0.2986081E+02  0.2257568E+02  0.1276810E+03
Ar  159  0.2347516E+01  0.2651057E+02  0.2364580E+02  0.8307589E+02
Ar  160  0.3739327E+02  0.3014588E+02  0.2421793E+02  0.1027677E+03
Ar  161  0.3774498E+02  0.2714066E+02  0.2658596E+02  0.2626568E+03
Ar  162  0.2469069E+01  0.2942682E+02  0.2640809E+02  0.3410043E+03
Ar  163  0.3001456E+01  0.2713815E+02  0.2923119E+02  0.3345516E+03
Ar  164  0.3762028E+02  0.2882725E+02  0.2959284E+02  0.5879929E+03
Ar  165  0.3703905E+02  0.2601240E+02  0.3224668E+02  0.5113889E+02
Ar  166  0.2263885E+01  0.2960040E+02  0.3215791E+02  0.3906218E+02
Ar  167  0.2272786E+01  0.2665491E+02  0.3517392E+02  0.6894993E+02
Ar  168  0.3764853E+02  0.2930508E+02  0.3517638E+02  0.9721743E+02
Ar  169  0.3770324E+02  0.3257998E+02  0.3762881E+02  0.1411963E+03
Ar  170  0.2076691E+01  0.3520274E+02  0.3765652E+02  0.1304676E+03
Ar  171  0.2594545E+01  0.3267527E+02  0.2834458E+01  0.5774741E+03
Ar  172  0.3570630E+02  0.3535806E+02  0.3311337E+00  0.5605678E+03
Ar  173  0.2204771E+00  0.3266439E+02  0.5474530E+01  0.2233693E+03
Ar  174  0.2638007E+01  0.3494559E+02  0.5887493E+01  0.6635538E+03
Ar  175  0.2855865E+01  0.3237319E+02  0.8290609E+01  0.2505161E+03
Ar  176  0.3744042E+02  0.3550982E+02  0.7485486E+01  0.1855198E+03
Ar  177  0.5417757E+00  0.3244071E+02  0.1114228E+02  0.1634636E+03
Ar  178  0.2913276E+01  0.3481166E+02  0.1054856E+02  0.1014644E+03
Ar  179  0.2978654E+01  0.3266395E+02  0.1391725E+02  0.2034507E+03
Ar  180  0.3195611E+00  0.3451464E+02  0.1366284E+02  0.1428825E+03
Ar  181  0.1415165E+00  0.3257816E+02  0.1675388E+02  0.5068874E+02
Ar  182  0.2396665E+01  0.3572677E+02  0.1619540E+02  0.9364651E+02
Ar  183  0.2702797E+01  0.3220593E+02  0.1938458E+02  0.3583581E+03
Ar  184  0.3767814E+02  0.3556899E+02  0.1863470E+02  0.3251285E+03
Ar  185  0.3773453E+02  0.3308556E+02  0.2168744E+02  0.8722646E+02
Ar  186  0.2890498E+01  0.3516207E+02  0.2170293E+02  0.3762381E+03
Ar  187  0.2022501E+01  0.3254431E+02  0.2474871E+02  0.1002111E+03
Ar  188  0.3755617E+02  0.3517018E+02  0.2441402E+02  0.3682769E+02
Ar  189  0.6681304E-01  0.3177583E+02  0.2781127E+02  0.2518408E+03
Ar  190  0.2540119E+01  0.3503780E+02  0.2678822E+02  0.1748005E+02
Ar  191  0.2396231E+01  0.3293948E+02  0.2978796E+02  0.4354680E+03
Ar  192  0.3341286E+00  0.3553332E+02  0.3022734E+02  0.2445133E+02
Ar  193  0.1130346E+00  0.3251028E+02  0.3267113E+02  0.3017380E+03
Ar  194  0.2647026E+01  0.3494194E+02  0.3258180E+02  0.1144622E+03
Ar  195  0.2400711E+01  0.3187392E+02  0.3528024E+02  0.1446569E+03
Ar  196  0.3970979E-01  0.3535918E+02  0.3461183E+02  0.3245876E+03
Ar  197  0.5336761E+01  0.3745794E+02  0.2028892E+00  0.3900517E+03
Ar  198  0.8016561E+01  0.2660774E+01  0.6147158E+00  0.2056441E+03
Ar  199  0.8331231E+01  0.3765255E+02  0.2860486E+01  0.1162383E+03
Ar  200  0.5456629E+01  0.2999843E+01  0.3392866E+01  0.1597208E+02
Ar  201  0.5834177E+01  0.1584810E+00  0.5915470E+01  0.8464376E+01
Ar  202  0.8585582E+01  0.2788973E+01  0.5690524E+01  0.3184420E+03
Ar  203  0.8676483E+01  0.4543338E+00  0.8230540E+01  0.3442607E+03
Ar  204  0.6289074E+01  0.2329919E+01  0.8667617E+01  0.6854056E+02
Ar  205  0.6365378E+01  0.3751458E+02  0.1071122E+02  0.3075849E+03
Ar  206  0.8637765E+01  0.3002445E+01  0.1138998E+02  0.7067036E+02
Ar  207  0.8464270E+01  0.4090004E+00  0.1391127E+02  0.1179226E+03
Ar  208  0.5100960E+01  0.2948562E+01  0.1387848E+02  0.5463795E+03
Ar  209  0.5232525E+01  0.6744153E+00  0.1632384E+02  0.3536060E+03
Ar  210  0.8436792E+01  0.2222029E+01  0.1695739E+02  0.5160832E+03
Ar  211  0.8160441E+01  0.3767138E+02  0.1951892E+02  0.2075423E+03
Ar  212  0.5400953E+01  0.3151808E+01  0.1952417E+02  0.1657091E+03
Ar  213  0.5271604E+01  0.3759286E+02  0.2161021E+02  0.1956475E+03
Ar  214  0.7955866E+01  0.3026941E+01  0.2243557E+02  0.2739281E+03
Ar  215  0.8431580E+01  0.8607464E-01  0.2464066E+02  0.2063509E+03
Ar  216  0.5079244E+01  0.2886168E+01  0.2462944E+02  0.3702852E+03
Ar  217  0.5706200E+01  0.2585323E+00  0.2702323E+02  0.8155585E+02
Ar  218  0.8011289E+01  0.2855085E+01  0.2678324E+02  0.7246115E+03
Ar  219  0.7441486E+01  0.3426821E-01  0.3028999E+02  0.2596344E+03
Ar  220  0.5503326E+01  0.2704231E+01  0.2921272E+02  0.2110586E+03
Ar  221  0.4662231E+01  0.3771094E+02  0.3228438E+02  0.6166572E+03
Ar  222  0.8047913E+01  0.2586927E+01  0.3270254E+02  0.2790387E+03
Ar  223  0.8085213E+01  0.2935242E-01  0.3532447E+02  0.4614342E+03
Ar  224  0.4841253E+01  0.3281951E+01  0.3517642E+02  0.3316080E+03
Ar  225  0.5708675E+01  0.5432481E+01  0.5274750E+00  0.1721395E+03
Ar  226  0.8427842E+01  0.8051806E+01  0.1285809E+00  0.3714525E+03
Ar  227  0.8284266E+01  0.5380590E+01  0.2970802E+01  0.1150002E+03
Ar  228  0.5479411E+01  0.8439891E+01  0.2513754E+01  0.1854382E+03
Ar  229  0.5828617E+01  0.5833891E+01  0.5234805E+01  0.6281039E+02
Ar  230  0.8380737E+01  0.8425128E+01  0.4715565E+01  0.1015846E+03
Ar  231  0.7752772E+01  0.5426412E+01  0.7938960E+01  0.1420009E+03
Ar  232  0.5492254E+01  0.8096475E+01  0.7704095E+01  0.2371968E+03
Ar  233  0.5413633E+01  0.5475309E+01  0.1079001E+02  0.5619326E+02
Ar  234  0.8222265E+01  0.8141820E+01  0.1077380E+02  0.2797844E+03
Ar  235  0.8295364E+01  0.5533499E+01  0.1358342E+02  0.8809862E+02
Ar  236  0.5472284E+01  0.7868478E+01  0.1342914E+02  0.1632028E+03
Ar  237  0.6240185E+01  0.5019792E+01  0.1657520E+02  0.1366658E+03
Ar  238  0.8324031E+01  0.7828906E+01  0.1617139E+02  0.1207791E+03
Ar  239  0.8045652E+01  0.5409274E+01  0.1962344E+02  0.3301655E+03
Ar  240  0.6110829E+01  0.8024274E+01  0.1921332E+02  0.5971558E+02
Ar  241  0.5724208E+01  0.6049048E+01  0.2194962E+02  0.1313356E+03
Ar  242  0.8945134E+01  0.8242747E+01  0.2187897E+02  0.4980763E+03
Ar  243  0.8966100E+01  0.5681498E+01  0.2424318E+02  0.4733411E+03
Ar  244  0.5761737E+01  0.8383913E+01  0.2454247E+02  0.9624100E+02
Ar  245  0.5092019E+01  0.5850333E+01  0.2656783E+02  0.4700258E+03
Ar  246  0.8684044E+01  0.8331819E+01  0.2673982E+02  0.1458920E+03
Ar  247  0.8394683E+01  0.5785766E+01  0.2975819E+02  0.1038596E+03
Ar  248  0.5301005E+01  0.8391777E+01  0.3007279E+02  0.1685161E+03
Ar  249  0.5308288E+01  0.5132898E+01  0.3208056E+02  0.1142365E+03
Ar  250  0.8031653E+01  0.7746837E+01  0.3249976E+02  0.1639715E+03
Ar  251  0.7944285E+01  0.5413020E+01  0.3527130E+02  0.5586417E+03
Ar  252  0.5166954E+01  0.7864441E+01  0.3564328E+02  0.4042657E+03
Ar  253  0.5628939E+01  0.1088220E+02  0.3753275E+02  0.1147657E+03
Ar  254  0.8261662E+01  0.1349855E+02  0.2205366E-01  0.3364532E+02
Ar  255  0.8156033E+01  0.1117770E+02  0.2549584E+01  0.8754319E+02
Ar  256  0.5313489E+01  0.1352050E+02  0.2604342E+01  0.2967954E+03
Ar  257  0.5597557E+01  0.1111518E+02  0.5240970E+01  0.1614637E+03
Ar  258  0.8165953E+01  0.1316974E+02  0.5672595E+01  0.2045859E+03
Ar  259  0.8144585E+01  0.1077925E+02  0.8074263E+01  0.5736200E+02
Ar  260  0.5392386E+01  0.1385528E+02  0.8011199E+01  0.2066383E+03
Ar  261  0.5299185E+01  0.1054233E+02  0.1076945E+02  0.1612461E+03
Ar  262  0.8450474E+01  0.1322955E+02  0.1042548E+02  0.2394490E+03
Ar  263  0.8252017E+01  0.1065575E+02  0.1336069E+02  0.2119090E+03
Ar  264  0.5439676E+01  0.1333390E+02  0.1334750E+02  0.4089908E+03
Ar  265  0.5698440E+01  0.1059260E+02  0.1598697E+02  0.1650532E+02
Ar  266  0.8085813E+01  0.1314215E+02  0.1561441E+02  0.4918275E+03
Ar  267  0.8723581E+01  0.1091207E+02  0.1949387E+02  0.2058444E+03
Ar  268  0.5711168E+01  0.1268567E+02  0.1892920E+02  0.1089582E+03
Ar  269  0.5740264E+01  0.1052142E+02  0.2173291E+02  0.6551591E+02
Ar  270  0.8236816E+01  0.1324334E+02  0.2175239E+02  0.1166667E+03
Ar  271  0.8451151E+01  0.1078432E+02  0.2437697E+02  0.6634829E+02
Ar  272  0.5106553E+01  0.1336040E+02  0.2422759E+02  0.1618156E+03
Ar  273  0.5021361E+01  0.1090395E+02  0.2749938E+02  0.1582543E+03
Ar  274  0.7840909E+01  0.1336795E+02  0.2703730E+02  0.1591597E+03
Ar  275  0.8025482E+01  0.1060518E+02  0.2904023E+02  0.3674284E+03
Ar  276  0.5535173E+01  0.1365095E+02  0.2972034E+02  0.3327362E+03
Ar  277  0.5144563E+01  0.1100755E+02  0.3271585E+02  0.6437500E+02
Ar  278  0.7602711E+01  0.1341878E+02  0.3274616E+02  0.3972843E+03
Ar  279  0.8486398E+01  0.1075286E+02  0.3517257E+02  0.1594452E+03
Ar  280  0.5035958E+01  0.1371946E+02  0.3526802E+02  0.1037986E+03
Ar  281  0.5399797E+01  0.1666573E+02  0.5305512E+00  0.1221006E+03
Ar  282  0.8499380E+01  0.1952611E+02  0.3763166E+00  0.2189299E+03
Ar  283  0.8203496E+01  0.1668548E+02  0.2380565E+01  0.1990777E+03
Ar  284  0.5235158E+01  0.1883903E+02  0.3114260E+01  0.2698330E+03
Ar  285  0.5625350E+01  0.1647567E+02  0.5429653E+01  0.1174236E+02
Ar  286  0.8070073E+01  0.1961085E+02  0.5320919E+01  0.4929287E+03
Ar  287  0.8303918E+01  0.1618367E+02  0.8247813E+01  0.1076545E+04
Ar  288  0.5508918E+01  0.1893296E+02  0.7938662E+01  0.2123634E+03
Ar  289  0.5945768E+01  0.1640199E+02  0.1086472E+02  0.1785636E+03
Ar  290  0.7990348E+01  0.1926219E+02  0.1045998E+02  0.3070276E+03
Ar  291  0.8388280E+01  0.1589622E+02  0.1290813E+02  0.4427507E+02
Ar  292  0.5648779E+01  0.1848325E+02  0.1361081E+02  0.3389506E+03
Ar  293  0.5371886E+01  0.1563756E+02  0.1611984E+02  0.3826780E+03
Ar  294  0.8590614E+01  0.1842696E+02  0.1599006E+02  0.4900164E+03
Ar  295  0.7778670E+01  0.1565517E+02  0.1870550E+02  0.8594261E+03
Ar  296  0.5886255E+01  0.1875424E+02  0.1825104E+02  0.6458687E+02
Ar  297  0.4835416E+01  0.1575892E+02  0.2172269E+02  0.1453025E+03
Ar  298  0.7824088E+01  0.1822029E+02  0.2125240E+02  0.9089738E+02
Ar  299  0.8057609E+01  0.1580737E+02  0.2405094E+02  0.4395574E+03
Ar  300  0.5376377E+01  0.1844973E+02  0.2398578E+02  0.3460232E+03
Ar  301  0.5437728E+01  0.1606455E+02  0.2682613E+02  0.4137954E+02
Ar  302  0.7922880E+01  0.1868941E+02  0.2629460E+02  0.8276505E+03
Ar  303  0.7889330E+01  0.1618528E+02  0.2978907E+02  0.1151681E+03
Ar  304  0.4699810E+01  0.1924611E+02  0.2952256E+02  0.5589512E+03
Ar  305  0.5508839E+01  0.1720128E+02  0.3234866E+02  0.3237747E+03
Ar  306  0.8309165E+01  0.1894304E+02  0.3262980E+02  0.5098538E+03
Ar  307  0.7926023E+01  0.1654061E+02  0.3541475E+02  0.2193600E+03
Ar  308  0.5987204E+01  0.1904773E+02  0.3594946E+02  0.7310000E+03
Ar  309  0.5734049E+01  0.2186542E+02  0.8833858E+00  0.1755966E+03
Ar  310  0.7658027E+01  0.2521294E+02  0.3759962E+02  0.3584174E+03
Ar  311  0.8834813E+01  0.2190184E+02  0.2851898E+01  0.2981433E+02
Ar  312  0.5068476E+01  0.2451916E+02  0.3009638E+01  0.1119565E+03
Ar  313  0.5176680E+01  0.2183128E+02  0.5802102E+01  0.3608432E+03
Ar  314  0.8162920E+01  0.2406820E+02  0.5304063E+01  0.3479067E+03
Ar  315  0.8218390E+01  0.2170648E+02  0.8196149E+01  0.1850542E+03
Ar  316  0.4699250E+01  0.2452663E+02  0.8331816E+01  0.1504236E+03
Ar  317  0.5188303E+01  0.2147269E+02  0.1031494E+02  0.3259174E+03
Ar  318  0.8762397E+01  0.2512937E+02  0.1067424E+02  0.1649869E+03
Ar  319  0.8095417E+01  0.2216062E+02  0.1268743E+02  0.2089749E+03
Ar  320  0.5231205E+01  0.2440953E+02  0.1345718E+02  0.3362481E+03
Ar  321  0.6582605E+01  0.2195161E+02  0.1604505E+02  0.2559003E+03
Ar  322  0.8330821E+01  0.2475900E+02  0.1666066E+02  0.3691094E+03
Ar  323  0.8527709E+01  0.2147042E+02  0.1898523E+02  0.1227831E+03
Ar  324  0.5747859E+01  0.2420176E+02  0.1898037E+02  0.8991381E+02
Ar  325  0.5600826E+01  0.2180424E+02  0.2112875E+02  0.4414742E+03
Ar  326  0.8353105E+01  0.2452967E+02  0.2147170E+02  0.2001890E+02
Ar  327  0.8125802E+01  0.2192229E+02  0.2462930E+02  0.1234574E+03
Ar  328  0.5404622E+01  0.2414693E+02  0.2448776E+02  0.7421854E+03
Ar  329  0.4861658E+01  0.2163706E+02  0.2683363E+02  0.7509973E+03
Ar  330  0.7419170E+01  0.2385978E+02  0.2773090E+02  0.9185863E+02
Ar  331  0.7854101E+01  0.2111640E+02  0.2931183E+02  0.2616850E+03
Ar  332  0.3926038E+01  0.2375556E+02  0.2956343E+02  0.2351668E+03
Ar  333  0.4565844E+01  0.2114437E+02  0.3302278E+02  0.8607314E+02
Ar  334  0.7404678E+01  0.2407030E+02  0.3171237E+02  0.1486630E+03
Ar  335  0.7869112E+01  0.2218780E+02  0.3543246E+02  0.1051558E+02
Ar  336  0.5290339E+01  0.2437551E+02  0.3532760E+02  0.6100702E+02
Ar  337  0.4736508E+01  0.2747392E+02  0.4416901E-01  0.4002801E+02
Ar  338  0.7787221E+01  0.2982110E+02  0.3774058E+02  0.7266933E+03
Ar  339  0.8159186E+01  0.2707248E+02  0.3182736E+01  0.1998467E+03
Ar  340  0.5391387E+01  0.2972859E+02  0.3257736E+01  0.5825437E+03
Ar  341  0.5162311E+01  0.2710370E+02  0.5068996E+01  0.1815275E+03
Ar  342  0.8565375E+01  0.2988735E+02  0.5607268E+01  0.2745184E+03
Ar  343  0.7786532E+01  0.2669462E+02  0.7663641E+01  0.1672390E+03
Ar  344  0.5384951E+01  0.2929431E+02  0.8420419E+01  0.3044848E+03
Ar  345  0.5717620E+01  0.2718963E+02  0.1085720E+02  0.2715616E+03
Ar  346  0.8067246E+01  0.2993334E+02  0.1101542E+02  0.1926284E+03
Ar  347  0.7867018E+01  0.2656275E+02  0.1370221E+02  0.1566055E+03
Ar  348  0.5344863E+01  0.2983995E+02  0.1401653E+02  0.3593092E+03
Ar  349  0.5596145E+01  0.2708210E+02  0.1670908E+02  0.4011810E+02
Ar  350  0.7788986E+01  0.2977199E+02  0.1668362E+02  0.6538693E+03
Ar  351  0.8097566E+01  0.2705043E+02  0.1926673E+02  0.2325720E+03
Ar  352  0.4927300E+01  0.2982614E+02  0.1960410E+02  0.3058536E+03
Ar  353  0.5377456E+01  0.2708201E+02  0.2172946E+02  0.7443460E+02
Ar  354  0.8070146E+01  0.2959801E+02  0.2147123E+02  0.3301870E+03
Ar  355  0.8009731E+01  0.2703622E+02  0.2410241E+02  0.2485074E+03
Ar  356  0.5384470E+01  0.2968962E+02  0.2442118E+02  0.5931101E+03
Ar  357  0.5211883E+01  0.2694545E+02  0.2660204E+02  0.3478342E+03
Ar  358  0.7915758E+01  0.2930686E+02  0.2677619E+02  0.3882405E+03
Ar  359  0.8280533E+01  0.2720414E+02  0.2954361E+02  0.1027064E+03
Ar  360  0.5110291E+01  0.2991378E+02  0.2920434E+02  0.1875002E+03
Ar  361  0.4786756E+01  0.2711588E+02  0.3211993E+02  0.6800792E+03
Ar  362  0.8159163E+01  0.3035450E+02  0.3205468E+02  0.1334527E+03
Ar  363  0.8145132E+01  0.2708073E+02  0.3456318E+02  0.2129483E+02
Ar  364  0.5617154E+01  0.2944199E+02  0.3487085E+02  0.8638593E+02
Ar  365  0.5020682E+01  0.3254970E+02  0.3347629E+00  0.9876953E+02
Ar  366  0.7887329E+01  0.3451629E+02  0.3582989E+00  0.5907889E+03
Ar  367  0.8348055E+01  0.3229404E+02  0.2829821E+01  0.2828571E+03
Ar  368  0.5665666E+01  0.3518359E+02  0.3496648E+01  0.9796769E+02
Ar  369  0.5569219E+01  0.3264745E+02  0.5787051E+01  0.2740981E+03
Ar  370  0.8204826E+01  0.3526539E+02  0.6113486E+01  0.4344219E+03
Ar  371  0.7864201E+01  0.3238721E+02  0.8055871E+01  0.4247103E+03
Ar  372  0.5239041E+01  0.3491922E+02  0.8083088E+01  0.1606961E+03
Ar  373  0.5310500E+01  0.3215088E+02  0.1115271E+02  0.1000028E+03
Ar  374  0.7918660E+01  0.3447993E+02  0.1104854E+02  0.3612599E+02
Ar  375  0.7845484E+01  0.3271653E+02  0.1396468E+02  0.1375031E+03
Ar  376  0.5583696E+01  0.3521240E+02  0.1325562E+02  0.1784088E+02
Ar  377  0.5632134E+01  0.3253928E+02  0.1673688E+02  0.7597045E+02
Ar  378  0.8024497E+01  0.3550313E+02  0.1638765E+02  0.1616436E+03
Ar  379  0.8492735E+01  0.3245185E+02  0.1932408E+02  0.1870069E+03
Ar  380  0.5290325E+01  0.3494850E+02  0.1905947E+02  0.9071665E+02
Ar  381  0.5585916E+01  0.3227976E+02  0.2169977E+02  0.3163974E+02
Ar  382  0.8125838E+01  0.3516831E+02  0.2187726E+02  0.9868319E+02
Ar  383  0.7649170E+01  0.3215307E+02  0.2470526E+02  0.3883820E+03
Ar  384  0.5020828E+01  0.3448179E+02  0.2418252E+02  0.2063133E+03
Ar  385  0.4852992E+01  0.3254708E+02  0.2690340E+02  0.8860455E+02
Ar  386  0.8080552E+01  0.3508633E+02  0.2686913E+02  0.3499481E+03
Ar  387  0.8037377E+01  0.3257963E+02  0.2882175E+02  0.4425636E+03
Ar  388  0.4936219E+01  0.3542663E+02  0.2935514E+02  0.2358007E+03
Ar  389  0.4937090E+01  0.3194781E+02  0.3216662E+02  0.5807400E+03
Ar  390  0.7809336E+01  0.3485213E+02  0.3241334E+02  0.1499424E+03
Ar  391  0.7776020E+01  0.3258314E+02  0.3511267E+02  0.1471704E+03
Ar  392  0.4956099E+01  0.3495433E+02  0.3556279E+02  0.2849978E+03
Ar  393  0.1083977E+02  0.3947359E+00  0.3764911E+02  0.2288760E+03
Ar  394  0.1354548E+02  0.2899278E+01  0.2959460E+00  0.3091388E+03
Ar  395  0.1361407E+02  0.2918157E+00  0.2745320E+01  0.2202885E+03
Ar  396  0.1093779E+02  0.3117733E+01  0.2475100E+01  0.1807581E+02
Ar  397  0.1113040E+02  0.2535319E+00  0.5450884E+01  0.9285016E+02
Ar  398  0.1366418E+02  0.3272145E+01  0.5358512E+01  0.1337495E+03
Ar  399  0.1363680E+02  0.3761189E+02  0.7722812E+01  0.2975615E+02
Ar  400  0.1095610E+02  0.3262327E+01  0.8086295E+01  0.1085634E+03
Ar  401  0.1087098E+02  0.5773908E-01  0.1053483E+02  0.4197507E+03
Ar  402  0.1415098E+02  0.2723789E+01  0.1026433E+02  0.3254983E+03
Ar  403  0.1363921E+02  0.3776562E+02  0.1312468E+02  0.8044495E+02
Ar  404  0.1137894E+02  0.2898569E+01  0.1381548E+02  0.5470492E+03
Ar  405  0.1124052E+02  0.3774889E+02  0.1688626E+02  0.5792153E+03
Ar  406  0.1354564E+02  0.2572660E+01  0.1646835E+02  0.1713364E+03
Ar  407  0.1360428E+02  0.3758367E+02  0.1953644E+02  0.1691490E+03
Ar  408  0.1173213E+02  0.2962214E+01  0.1937879E+02  0.2009508E+03
Ar  409  0.1033284E+02  0.8379388E+00  0.2175096E+02  0.5521638E+03
Ar  410  0.1378879E+02  0.2476921E+01  0.2192768E+02  0.1299367E+03
Ar  411  0.1329996E+02  0.3750527E+02  0.2488768E+02  0.4508412E+03
Ar  412  0.1144284E+02  0.2717910E+01  0.2462464E+02  0.1970246E+03
Ar  413  0.1064470E+02  0.3747610E+02  0.2761180E+02  0.3181847E+03
Ar  414  0.1345998E+02  0.2932796E+01  0.2764646E+02  0.2704496E+03
Ar  415  0.1317652E+02  0.3758387E+02  0.2983902E+02  0.1919623E+03
Ar  416  0.1033180E+02  0.2347938E+01  0.2961647E+02  0.1086898E+03
Ar  417  0.1033562E+02  0.3733830E+02  0.3242034E+02  0.1624575E+03
Ar  418  0.1322736E+02  0.3225741E+01  0.3265517E+02  0.1738135E+03
Ar  419  0.1313619E+02  0.2455890E+00  0.3517473E+02  0.5396181E+02
Ar  420  0.1054633E+02  0.3055645E+01  0.3519160E+02  0.4666225E+02
Ar  421  0.1111445E+02  0.5397776E+01  0.3752339E+02  0.1055953E+03
Ar  422  0.1333201E+02  0.8112233E+01  0.3749407E+02  0.1867300E+03
Ar  423  0.1339369E+02  0.5813419E+01  0.2495692E+01  0.7189763E+03
Ar  424  0.1121031E+02  0.8228255E+01  0.2581384E+01  0.4059239E+03
Ar  425  0.1097223E+02  0.5411595E+01  0.5332138E+01  0.1999033E+03
Ar  426  0.1329734E+02  0.8630748E+01  0.5525719E+01  0.8585709E+02
Ar  427  0.1364213E+02  0.5459086E+01  0.8163192E+01  0.1973713E+03
Ar  428  0.1083301E+02  0.8221733E+01  0.8010654E+01  0.3928838E+03
Ar  429  0.1074480E+02  0.5776715E+01  0.1080494E+02  0.1859143E+03
Ar  430  0.1340447E+02  0.7986925E+01  0.1070887E+02  0.1444484E+03
Ar  431  0.1351233E+02  0.5487418E+01  0.1300645E+02  0.2699943E+03
Ar  432  0.1073701E+02  0.8228621E+01  0.1339045E+02  0.2274178E+03
Ar  433  0.1122481E+02  0.5986200E+01  0.1611112E+02  0.2470082E+03
Ar  434  0.1417240E+02  0.8444681E+01  0.1589309E+02  0.1496427E+03
Ar  435  0.1397765E+02  0.5459414E+01  0.1861048E+02  0.2482411E+03
Ar  436  0.1119980E+02  0.8329312E+01  0.1892052E+02  0.2797397E+03
Ar  437  0.1213570E+02  0.5653317E+01  0.2146383E+02  0.2625518E+02
Ar  438  0.1405441E+02  0.8267748E+01  0.2201565E+02  0.2700602E+03
Ar  439  0.1418051E+02  0.5115145E+01  0.2471860E+02  0.3042378E+03
Ar  440  0.1165907E+02  0.7683268E+01  0.2436958E+02  0.7525879E+02
Ar  441  0.1087050E+02  0.5718910E+01  0.2752844E+02  0.5500467E+03
Ar  442  0.1362487E+02  0.8145450E+01  0.2743153E+02  0.3449113E+03
Ar  443  0.1376931E+02  0.5697796E+01  0.3013703E+02  0.3694477E+03
Ar  444  0.1055164E+02  0.8491803E+01  0.2981588E+02  0.1970830E+03
Ar  445  0.1084219E+02  0.5833774E+01  0.3250838E+02  0.8232974E+02
Ar  446  0.1317930E+02  0.8610701E+01  0.3241903E+02  0.3230320E+02
Ar  447  0.1342811E+02  0.5917076E+01  0.3461894E+02  0.2574784E+03
Ar  448  0.1062413E+02  0.8409128E+01  0.3503293E+02  0.3875287E+02
Ar  449  0.1083378E+02  0.1077747E+02  0.2265259E+00  0.7291947E+02
Ar  450  0.1329978E+02  0.1389585E+02  0.3755839E+02  0.5206857E+02
Ar  451  0.1336042E+02  0.1113007E+02  0.2406392E+01  0.1597761E+03
Ar  452  0.1049329E+02  0.1406732E+02  0.2555788E+01  0.4858596E+02
Ar  453  0.1099925E+02  0.1132906E+02  0.4935114E+01  0.2906063E+02
Ar  454  0.1344523E+02  0.1368214E+02  0.4942227E+01  0.3584426E+03
Ar  455  0.1357575E+02  0.1110036E+02  0.8175998E+01  0.7773920E+01
Ar  456  0.1104548E+02  0.1395788E+02  0.8413251E+01  0.6889788E+03
Ar  457  0.1085506E+02  0.1085100E+02  0.1038965E+02  0.2451214E+03
Ar  458  0.1347761E+02  0.1374222E+02  0.1094579E+02  0.2396669E+03
Ar  459  0.1389246E+02  0.1111946E+02  0.1350065E+02  0.1639652E+03
Ar  460  0.1120639E+02  0.1362198E+02  0.1352309E+02  0.1968492E+03
Ar  461  0.1130160E+02  0.1105794E+02  0.1602364E+02  0.4370256E+03
Ar  462  0.1384030E+02  0.1397570E+02  0.1618308E+02  0.3964763E+03
Ar  463  0.1371980E+02  0.1105175E+02  0.1918294E+02  0.2926000E+03
Ar  464  0.1130569E+02  0.1351681E+02  0.1873012E+02  0.3293007E+03
Ar  465  0.1133626E+02  0.1071298E+02  0.2179964E+02  0.4439449E+03
Ar  466  0.1380086E+02  0.1375176E+02  0.2174651E+02  0.6672906E+02
Ar  467  0.1389658E+02  0.1039597E+02  0.2447408E+02  0.1271684E+03
Ar  468  0.1105930E+02  0.1338577E+02  0.2428558E+02  0.8484242E+02
Ar  469  0.1093381E+02  0.1097656E+02  0.2688444E+02  0.1719429E+03
Ar  470  0.1348721E+02  0.1401820E+02  0.2736893E+02  0.1777216E+03
Ar  471  0.1309440E+02  0.1106065E+02  0.2996499E+02  0.4351248E+03
Ar  472  0.1099151E+02  0.1385209E+02  0.2954921E+02  0.4745631E+02
Ar  473  0.1070066E+02  0.1123548E+02  0.3236318E+02  0.1714604E+03
Ar  474  0.1390688E+02  0.1389631E+02  0.3212879E+02  0.4038759E+03
Ar  475  0.1327869E+02  0.1157005E+02  0.3492796E+02  0.6541523E+02
Ar  476  0.1042398E+02  0.1371564E+02  0.3501360E+02  0.7676443E+02
Ar  477  0.1073666E+02  0.1669273E+02  0.6324683E-01  0.1952930E+03
Ar  478  0.1292368E+02  0.1943459E+02  0.1573398E-01  0.2765944E+03
Ar  479  0.1371307E+02  0.1665119E+02  0.2560551E+01  0.9093334E+03
Ar  480  0.1095864E+02  0.1898727E+02  0.3046730E+01  0.9934320E+03
Ar  481  0.1100448E+02  0.1632227E+02  0.5303857E+01  0.3334482E+03
Ar  482  0.1344688E+02  0.1914273E+02  0.5620433E+01  0.1916277E+03
Ar  483  0.1383652E+02  0.1665359E+02  0.7941491E+01  0.8339871E+02
Ar  484  0.1087184E+02  0.1913940E+02  0.8233959E+01  0.5218239E+02
Ar  485  0.1073829E+02  0.1681008E+02  0.1095638E+02  0.2439786E+03
Ar  486  0.1338322E+02  0.1920716E+02  0.1056117E+02  0.1198750E+03
Ar  487  0.1379714E+02  0.1665943E+02  0.1345123E+02  0.7879743E+03
Ar  488  0.1023381E+02  0.1944313E+02  0.1328953E+02  0.2111208E+03
Ar  489  0.1085144E+02  0.1604544E+02  0.1595195E+02  0.6272164E+03
Ar  490  0.1274552E+02  0.1861261E+02  0.1626315E+02  0.1250272E+03
Ar  491  0.1334962E+02  0.1655155E+02  0.1896054E+02  0.6597026E+02
Ar  492  0.1053015E+02  0.1868085E+02  0.1923809E+02  0.2253964E+03
Ar  493  0.1093164E+02  0.1591853E+02  0.2203001E+02  0.9722204E+02
Ar  494  0.1333731E+02  0.1853636E+02  0.2207336E+02  0.1063863E+04
Ar  495  0.1332294E+02  0.1609883E+02  0.2444596E+02  0.1213641E+03
Ar  496  0.1063008E+02  0.1903754E+02  0.2383946E+02  0.1381497E+03
Ar  497  0.1049773E+02  0.1613646E+02  0.2684646E+02  0.1925379E+03
Ar  498  0.1289909E+02  0.1867762E+02  0.2704212E+02  0.2357441E+03
Ar  499  0.1376665E+02  0.1655658E+02  0.3000545E+02  0.2615013E+03
Ar  500  0.1067295E+02  0.1857290E+02  0.2987759E+02  0.1592060E+03
Ar  501  0.1071093E+02  0.1594783E+02  0.3238188E+02  0.1421010E+03
Ar  502  0.1281691E+02  0.1945448E+02  0.3263083E+02  0.1025065E+03
Ar  503  0.1371674E+02  0.1601057E+02  0.3466214E+02  0.7387591E+02
Ar  504  0.1062467E+02  0.1900355E+02  0.3514871E+02  0.1005444E+03
Ar  505  0.1076644E+02  0.2230982E+02  0.3777079E+02  0.6081109E+03
Ar  506  0.1376374E+02  0.2458995E+02  0.3722243E+02  0.2593168E+02
Ar  507  0.1384010E+02  0.2155522E+02  0.2472033E+01  0.4511077E+03
Ar  508  0.1139079E+02  0.2459805E+02  0.2660370E+01  0.2920419E+02
Ar  509  0.1125749E+02  0.2236590E+02  0.5305993E+01  0.1185857E+03
Ar  510  0.1436344E+02  0.2448618E+02  0.5802690E+01  0.2275013E+02
Ar  511  0.1323266E+02  0.2221163E+02  0.8409286E+01  0.5956928E+02
Ar  512  0.1093196E+02  0.2465154E+02  0.8018350E+01  0.1045740E+03
Ar  513  0.1071524E+02  0.2176399E+02  0.1051887E+02  0.2745716E+03
Ar  514  0.1362586E+02  0.2485391E+02  0.1096503E+02  0.2752216E+03
Ar  515  0.1326310E+02  0.2191176E+02  0.1361159E+02  0.6044202E+03
Ar  516  0.1105110E+02  0.2448651E+02  0.1323484E+02  0.2014253E+03
Ar  517  0.1041613E+02  0.2182995E+02  0.1578408E+02  0.1577159E+03
Ar  518  0.1348566E+02  0.2453776E+02  0.1538628E+02  0.2291756E+02
Ar  519  0.1325145E+02  0.2094341E+02  0.1872825E+02  0.9527524E+02
Ar  520  0.1148264E+02  0.2403710E+02  0.1877779E+02  0.4585373E+02
Ar  521  0.1069414E+02  0.2180156E+02  0.2149094E+02  0.1840993E+03
Ar  522  0.1353150E+02  0.2400132E+02  0.2140617E+02  0.1446674E+03
Ar  523  0.1348527E+02  0.2170090E+02  0.2417574E+02  0.2079722E+03
Ar  524  0.1047705E+02  0.2432892E+02  0.2426744E+02  0.1951292E+03
Ar  525  0.1032257E+02  0.2113777E+02  0.2711067E+02  0.5985561E+02
Ar  526  0.1310836E+02  0.2424639E+02  0.2678888E+02  0.1984937E+03
Ar  527  0.1256205E+02  0.2162135E+02  0.2947346E+02  0.2623404E+03
Ar  528  0.1112828E+02  0.2465393E+02  0.2961275E+02  0.1472428E+02
Ar  529  0.1013044E+02  0.2166782E+02  0.3238949E+02  0.2494020E+03
Ar  530  0.1320997E+02  0.2476526E+02  0.3225402E+02  0.6595681E+03
Ar  531  0.1286776E+02  0.2168149E+02  0.3517548E+02  0.1199086E+03
Ar  532  0.1050147E+02  0.2461566E+02  0.3413832E+02  0.1750976E+03
Ar  533  0.1071341E+02  0.2702292E+02  0.3769009E+02  0.8698427E+02
Ar  534  0.1334561E+02  0.2936407E+02  0.1920415E+00  0.2391673E+03
Ar  535  0.1394046E+02  0.2727303E+02  0.2744680E+01  0.6836748E+03
Ar  536  0.1080534E+02  0.2990106E+02  0.2425832E+01  0.3572458E+03
Ar  537  0.1096969E+02  0.2724252E+02  0.5262130E+01  0.3512829E+03
Ar  538  0.1382084E+02  0.3015872E+02  0.5291720E+01  0.1980961E+03
Ar  539  0.1334311E+02  0.2743440E+02  0.8048123E+01  0.2657565E+03
Ar  540  0.1077542E+02  0.2987013E+02  0.8345141E+01  0.3522148E+03
Ar  541  0.1115344E+02  0.2756235E+02  0.1148823E+02  0.2315289E+03
Ar  542  0.1371537E+02  0.3037758E+02  0.1006268E+02  0.1874030E+03
Ar  543  0.1411369E+02  0.2703887E+02  0.1320268E+02  0.4429141E+03
Ar  544  0.1001394E+02  0.2998434E+02  0.1390661E+02  0.3779700E+03
Ar  545  0.1095654E+02  0.2745763E+02  0.1602734E+02  0.2178337E+03
Ar  546  0.1385182E+02  0.2970031E+02  0.1641225E+02  0.1226207E+03
Ar  547  0.1331933E+02  0.2730859E+02  0.1883975E+02  0.5570067E+03
Ar  548  0.1087282E+02  0.2975119E+02  0.1918672E+02  0.2945931E+03
Ar  549  0.1075379E+02  0.2693560E+02  0.2145163E+02  0.1893368E+03
Ar  550  0.1375489E+02  0.2905942E+02  0.2183049E+02  0.6292109E+02
Ar  551  0.1325268E+02  0.2672104E+02  0.2418669E+02  0.2942156E+03
Ar  552  0.1051043E+02  0.2917383E+02  0.2429462E+02  0.6021368E+03
Ar  553  0.1052743E+02  0.2642649E+02  0.2684031E+02  0.1556932E+03
Ar  554  0.1327727E+02  0.2924663E+02  0.2698205E+02  0.3764039E+02
Ar  555  0.1315641E+02  0.2751885E+02  0.2990906E+02  0.1210310E+02
Ar  556  0.1054806E+02  0.3023190E+02  0.2989954E+02  0.5436059E+03
Ar  557  0.1038101E+02  0.2746090E+02  0.3215190E+02  0.2581266E+03
Ar  558  0.1306729E+02  0.3033633E+02  0.3238212E+02  0.8353312E+03
Ar  559  0.1327555E+02  0.2739915E+02  0.3507003E+02  0.8366072E+02
Ar  560  0.1043663E+02  0.2976635E+02  0.3520379E+02  0.9151965E+02
Ar  561  0.1027952E+02  0.3210782E+02  0.5704864E-01  0.3181346E+02
Ar  562  0.1350275E+02  0.3537090E+02  0.3777412E+02  0.1340536E+03
Ar  563  0.1321769E+02  0.3216791E+02  0.2567457E+01  0.5278925E+02
Ar  564  0.1107300E+02  0.3534252E+02  0.2388435E+01  0.1360693E+03
Ar  565  0.1086547E+02  0.3332538E+02  0.5198699E+01  0.2533893E+03
Ar  566  0.1355474E+02  0.3526904E+02  0.5326111E+01  0.8081388E+02
Ar  567  0.1297305E+02  0.3275983E+02  0.7579844E+01  0.2506326E+02
Ar  568  0.1076543E+02  0.3501103E+02  0.8397480E+01  0.6780872E+03
Ar  569  0.1054704E+02  0.3261818E+02  0.1098625E+02  0.1815176E+03
Ar  570  0.1303968E+02  0.3479281E+02  0.1061118E+02  0.1383080E+03
Ar  571  0.1344286E+02  0.3205316E+02  0.1339428E+02  0.3349108E+02
Ar  572  0.1042146E+02  0.3528995E+02  0.1388549E+02  0.4648943E+03
Ar  573  0.1096405E+02  0.3230754E+02  0.1681407E+02  0.1460520E+03
Ar  574  0.1325812E+02  0.3474158E+02  0.1702079E+02  0.4135721E+03
Ar  575  0.1418133E+02  0.3213610E+02  0.1917909E+02  0.7294469E+02
Ar  576  0.1085651E+02  0.3505054E+02  0.1930575E+02  0.6945394E+02
Ar  577  0.1070780E+02  0.3244241E+02  0.2163619E+02  0.5636506E+02
Ar  578  0.1358946E+02  0.3500327E+02  0.2199871E+02  0.9000744E+03
Ar  579  0.1318929E+02  0.3266418E+02  0.2440489E+02  0.8676600E+02
Ar  580  0.1079313E+02  0.3544412E+02  0.2450413E+02  0.3706452E+03
Ar  581  0.1064051E+02  0.3234264E+02  0.2664447E+02  0.4751580E+02
Ar  582  0.1339070E+02  0.3471800E+02  0.2765710E+02  0.5940873E+03
Ar  583  0.1391147E+02  0.3201817E+02  0.2968394E+02  0.1414289E+03
Ar  584  0.1073560E+02  0.3472416E+02  0.3002515E+02  0.1842297E+03
Ar  585  0.1077684E+02  0.3273630E+02  0.3298904E+02  0.1081834E+03
Ar  586  0.1332499E+02  0.3494349E+02  0.3287472E+02  0.6427492E+03
Ar  587  0.1409737E+02  0.3279183E+02  0.3580178E+02  0.7608209E+02
Ar  588  0.1092852E+02  0.3526713E+02  0.3548361E+02  0.2623710E+03
Ar  589  0.1607758E+02  0.5294707E+00  0.3737324E+02  0.1507199E+03
Ar  590  0.1868576E+02  0.2846058E+01  0.3718789E+02  0.4182224E+03
Ar  591  0.1919321E+02  0.3763410E+02  0.2536957E+01  0.2017051E+03
Ar  592  0.1645089E+02  0.2910276E+01  0.2731209E+01  0.4859421E+03
Ar  593  0.1630410E+02  0.1167875E+01  0.5458589E+01  0.5166643E+03
Ar  594  0.1934754E+02  0.3341846E+01  0.4693265E+01  0.1020851E+03
Ar  595  0.1865462E+02  0.6412547E-01  0.7871820E+01  0.1335256E+03
Ar  596  0.1673996E+02  0.3836745E+01  0.7612779E+01  0.1332423E+03
Ar  597  0.1623790E+02  0.3716652E+02  0.1053399E+02  0.2150329E+03
Ar  598  0.1851056E+02  0.2709625E+01  0.1076085E+02  0.9013536E+02
Ar  599  0.1828905E+02  0.3765136E+02  0.1328402E+02  0.4185993E+02
Ar  600  0.1601480E+02  0.2746392E+01  0.1339983E+02  0.1483470E+03
Ar  601  0.1574418E+02  0.1031083E+00  0.1622249E+02  0.1875428E+03
Ar  602  0.1865505E+02  0.1843381E+01  0.1633169E+02  0.4876716E+03
Ar  603  0.1884663E+02  0.3739372E+02  0.1947516E+02  0.1956770E+03
Ar  604  0.1611283E+02  0.2539510E+01  0.1914866E+02  0.7774052E+02
Ar  605  0.1618986E+02  0.3764659E+02  0.2200551E+02  0.2171345E+03
Ar  606  0.1879096E+02  0.2308710E+01  0.2208627E+02  0.4846033E+03
Ar  607  0.1851972E+02  0.3760036E+02  0.2486125E+02  0.1683780E+03
Ar  608  0.1600463E+02  0.2192030E+01  0.2463700E+02  0.2755522E+02
Ar  609  0.1569410E+02  0.1289766E+00  0.2784932E+02  0.5641376E+03
Ar  610  0.1861980E+02  0.2728975E+01  0.2791815E+02  0.3700967E+03
Ar  611  0.1874379E+02  0.3752229E+02  0.3017892E+02  0.1210064E+03
Ar  612  0.1587225E+02  0.2744976E+01  0.3048947E+02  0.8541282E+02
Ar  613  0.1539652E+02  0.1351332E+00  0.3263963E+02  0.1210274E+03
Ar  614  0.1878130E+02  0.2637840E+01  0.3228896E+02  0.1115064E+02
Ar  615  0.1908424E+02  0.3768728E+02  0.3471394E+02  0.2746653E+02
Ar  616  0.1650284E+02  0.2531854E+01  0.3448669E+02  0.2169491E+03
Ar  617  0.1612850E+02  0.5982570E+01  0.3717401E+02  0.1576793E+03
Ar  618  0.1866604E+02  0.8730289E+01  0.3695004E+02  0.1790239E+03
Ar  619  0.1879640E+02  0.6005301E+01  0.1981965E+01  0.5899674E+03
Ar  620  0.1627083E+02  0.8649092E+01  0.2421138E+01  0.2710167E+03
Ar  621  0.1594460E+02  0.6030563E+01  0.5144696E+01  0.3514772E+03
Ar  622  0.1920824E+02  0.8456835E+01  0.4412712E+01  0.3298687E+02
Ar  623  0.1921653E+02  0.6070258E+01  0.7236908E+01  0.1272002E+03
Ar  624  0.1600409E+02  0.8303359E+01  0.7787045E+01  0.3809130E+03
Ar  625  0.1615327E+02  0.5734847E+01  0.1090422E+02  0.4662934E+03
Ar  626  0.1871774E+02  0.8056633E+01  0.1048796E+02  0.1096183E+03
Ar  627  0.1872588E+02  0.5357062E+01  0.1323649E+02  0.1883001E+02
Ar  628  0.1633273E+02  0.8226156E+01  0.1342881E+02  0.2643645E+03
Ar  629  0.1634824E+02  0.5332990E+01  0.1596231E+02  0.1206301E+03
Ar  630  0.1899442E+02  0.8662135E+01  0.1672715E+02  0.3893635E+03
Ar  631  0.1877576E+02  0.5318074E+01  0.1915001E+02  0.2565200E+03
Ar  632  0.1621312E+02  0.8248516E+01  0.1911141E+02  0.1367339E+03
Ar  633  0.1648774E+02  0.4869612E+01  0.2179452E+02  0.1384637E+03
Ar  634  0.1892083E+02  0.8204682E+01  0.2121958E+02  0.1877274E+03
Ar  635  0.1863000E+02  0.5166611E+01  0.2444613E+02  0.1513139E+03
Ar  636  0.1649982E+02  0.7846592E+01  0.2454805E+02  0.2142078E+03
Ar  637  0.1618385E+02  0.5541798E+01  0.2723500E+02  0.4127658E+03
Ar  638  0.1916957E+02  0.7745347E+01  0.2677442E+02  0.2698772E+03
Ar  639  0.1926188E+02  0.5884986E+01  0.3004544E+02  0.2010355E+03
Ar  640  0.1642668E+02  0.8093328E+01  0.2983773E+02  0.1151702E+04
Ar  641  0.1615651E+02  0.5462987E+01  0.3268888E+02  0.2078660E+03
Ar  642  0.1898632E+02  0.8168195E+01  0.3248363E+02  0.5823249E+03
Ar  643  0.1870066E+02  0.5711533E+01  0.3506090E+02  0.4029901E+03
Ar  644  0.1613427E+02  0.8506682E+01  0.3429925E+02  0.8599057E+02
Ar  645  0.1587331E+02  0.1068641E+02  0.3699115E+02  0.1241956E+03
Ar  646  0.1851895E+02  0.1380046E+02  0.3735671E+02  0.2933821E+03
Ar  647  0.1875644E+02  0.1062164E+02  0.1909018E+01  0.3361108E+03
Ar  648  0.1582294E+02  0.1353011E+02  0.2491553E+01  0.4105728E+03
Ar  649  0.1596754E+02  0.1064472E+02  0.5407814E+01  0.1038977E+03
Ar  650  0.1838079E+02  0.1337211E+02  0.4900437E+01  0.2175643E+03
Ar  651  0.1869980E+02  0.1093972E+02  0.8060788E+01  0.2382282E+03
Ar  652  0.1628636E+02  0.1369405E+02  0.7759345E+01  0.9922383E+02
Ar  653  0.1609827E+02  0.1124034E+02  0.1053241E+02  0.6401413E+03
Ar  654  0.1871832E+02  0.1396611E+02  0.1079437E+02  0.5057046E+03
Ar  655  0.1901259E+02  0.1083700E+02  0.1308247E+02  0.4773120E+03
Ar  656  0.1662102E+02  0.1353171E+02  0.1336755E+02  0.6179790E+03
Ar  657  0.1604215E+02  0.1139874E+02  0.1673643E+02  0.5919821E+03
Ar  658  0.1899995E+02  0.1299597E+02  0.1578897E+02  0.1465276E+03
Ar  659  0.1865737E+02  0.1151261E+02  0.1897003E+02  0.1533885E+03
Ar  660  0.1616889E+02  0.1374692E+02  0.1900010E+02  0.1108954E+03
Ar  661  0.1646008E+02  0.1085049E+02  0.2246890E+02  0.3567261E+02
Ar  662  0.1904530E+02  0.1328289E+02  0.2223327E+02  0.3228573E+03
Ar  663  0.1930282E+02  0.1071516E+02  0.2482264E+02  0.2923902E+02
Ar  664  0.1619673E+02  0.1392653E+02  0.2459712E+02  0.1534724E+03
Ar  665  0.1621582E+02  0.1046760E+02  0.2707901E+02  0.5694792E+02
Ar  666  0.1881513E+02  0.1332661E+02  0.2762560E+02  0.3588786E+03
Ar  667  0.1900609E+02  0.1026428E+02  0.2934802E+02  0.7553384E+03
Ar  668  0.1592477E+02  0.1311556E+02  0.2945655E+02  0.4286555E+03
Ar  669  0.1574960E+02  0.1099596E+02  0.3225409E+02  0.3036179E+03
Ar  670  0.1880090E+02  0.1334883E+02  0.3147661E+02  0.4933652E+03
Ar  671  0.1915328E+02  0.1111019E+02  0.3469373E+02  0.3020646E+03
Ar  672  0.1677290E+02  0.1364550E+02  0.3421199E+02  0.1454104E+03
Ar  673  0.1597042E+02  0.1643638E+02  0.3743569E+02  0.1623179E+03
Ar  674  0.1890946E+02  0.1836798E+02  0.3677229E+02  0.5712440E+03
Ar  675  0.1868689E+02  0.1604448E+02  0.2274499E+01  0.5406506E+02
Ar  676  0.1673329E+02  0.1880229E+02  0.2694422E+01  0.2335501E+03
Ar  677  0.1624651E+02  0.1618010E+02  0.4767007E+01  0.4540515E+03
Ar  678  0.1879557E+02  0.1879990E+02  0.5321446E+01  0.2543183E+03
Ar  679  0.1870132E+02  0.1619570E+02  0.8300833E+01  0.4334283E+03
Ar  680  0.1643869E+02  0.1994736E+02  0.8188092E+01  0.4821604E+03
Ar  681  0.1600696E+02  0.1675835E+02  0.1063820E+02  0.9337915E+02
Ar  682  0.1916312E+02  0.1882929E+02  0.1086977E+02  0.6914361E+03
Ar  683  0.1873245E+02  0.1635969E+02  0.1340016E+02  0.4065103E+03
Ar  684  0.1659290E+02  0.1879018E+02  0.1400478E+02  0.2004811E+03
Ar  685  0.1598008E+02  0.1666373E+02  0.1681722E+02  0.2089057E+03
Ar  686  0.1888477E+02  0.1879864E+02  0.1677935E+02  0.3430315E+03
Ar  687  0.1910933E+02  0.1607312E+02  0.1909074E+02  0.1299514E+03
Ar  688  0.1627317E+02  0.1911904E+02  0.1907271E+02  0.3990355E+03
Ar  689  0.1665797E+02  0.1664531E+02  0.2143513E+02  0.9233291E+02
Ar  690  0.1943662E+02  0.1909020E+02  0.2164587E+02  0.1134525E+03
Ar  691  0.1890496E+02  0.1625373E+02  0.2435533E+02  0.3314136E+03
Ar  692  0.1637757E+02  0.1872756E+02  0.2440478E+02  0.9772913E+02
Ar  693  0.1618081E+02  0.1633413E+02  0.2723922E+02  0.9609743E+02
Ar  694  0.1892271E+02  0.1898758E+02  0.2696530E+02  0.2976837E+03
Ar  695  0.1893854E+02  0.1643459E+02  0.2891128E+02  0.2587353E+03
Ar  696  0.1583942E+02  0.1923738E+02  0.2941824E+02  0.5024578E+03
Ar  697  0.1662351E+02  0.1626910E+02  0.3200106E+02  0.8316623E+02
Ar  698  0.1891389E+02  0.1935335E+02  0.3286363E+02  0.2507946E+03
Ar  699  0.1958183E+02  0.1589235E+02  0.3406402E+02  0.4881997E+02
Ar  700  0.1591424E+02  0.1966365E+02  0.3496453E+02  0.8131033E+03
Ar  701  0.1598826E+02  0.2168976E+02  0.3757083E+02  0.5836127E+03
Ar  702  0.1948083E+02  0.2443886E+02  0.3768523E+02  0.1391579E+03
Ar  703  0.1865345E+02  0.2181121E+02  0.2139097E+01  0.1324398E+03
Ar  704  0.1652040E+02  0.2492066E+02  0.3248580E+01  0.2911971E+03
Ar  705  0.1613589E+02  0.2178978E+02  0.5112439E+01  0.2101926E+03
Ar  706  0.1879519E+02  0.2408802E+02  0.5620920E+01  0.1254209E+02
Ar  707  0.1937082E+02  0.2158650E+02  0.8077933E+01  0.1248384E+02
Ar  708  0.1613805E+02  0.2433946E+02  0.9010738E+01  0.2067412E+03
Ar  709  0.1600527E+02  0.2151943E+02  0.1149490E+02  0.1615376E+02
Ar  710  0.1912053E+02  0.2416452E+02  0.1035617E+02  0.1003820E+03
Ar  711  0.1922223E+02  0.2150781E+02  0.1383895E+02  0.1628548E+03
Ar  712  0.1658166E+02  0.2393485E+02  0.1405071E+02  0.1901517E+03
Ar  713  0.1627280E+02  0.2158526E+02  0.1645427E+02  0.9735734E+02
Ar  714  0.1934140E+02  0.2413296E+02  0.1661764E+02  0.1300019E+03
Ar  715  0.1848176E+02  0.2198300E+02  0.1966123E+02  0.9218608E+02
Ar  716  0.1592000E+02  0.2431031E+02  0.1880031E+02  0.2056555E+03
Ar  717  0.1599147E+02  0.2155454E+02  0.2204684E+02  0.4390966E+03
Ar  718  0.1890976E+02  0.2481579E+02  0.2218999E+02  0.2028594E+03
Ar  719  0.1936748E+02  0.2180100E+02  0.2432580E+02  0.1184335E+03
Ar  720  0.1583187E+02  0.2465216E+02  0.2458712E+02  0.5860630E+03
Ar  721  0.1602192E+02  0.2182636E+02  0.2643653E+02  0.1904202E+03
Ar  722  0.1926304E+02  0.2407855E+02  0.2740199E+02  0.3734211E+03
Ar  723  0.1835079E+02  0.2141997E+02  0.2965437E+02  0.1947613E+03
Ar  724  0.1561503E+02  0.2438483E+02  0.2984519E+02  0.4275332E+03
Ar  725  0.1518255E+02  0.2187817E+02  0.3194715E+02  0.1533453E+03
Ar  726  0.1868068E+02  0.2463904E+02  0.3224922E+02  0.2446159E+03
Ar  727  0.1884844E+02  0.2228381E+02  0.3508608E+02  0.2842958E+03
Ar  728  0.1619332E+02  0.2458370E+02  0.3511288E+02  0.3111826E+02
Ar  729  0.1628735E+02  0.2661620E+02  0.1299182E+00  0.3608400E+02
Ar  730  0.1878340E+02  0.2957362E+02  0.3979596E-01  0.1333226E+03
Ar  731  0.1914833E+02  0.2709838E+02  0.2545202E+01  0.6488998E+01
Ar  732  0.1652936E+02  0.2952438E+02  0.2491159E+01  0.1438915E+03
Ar  733  0.1656101E+02  0.2727571E+02  0.5288084E+01  0.1517211E+03
Ar  734  0.1907405E+02  0.2954649E+02  0.5887097E+01  0.7039245E+02
Ar  735  0.1918026E+02  0.2727149E+02  0.8138980E+01  0.1731379E+03
Ar  736  0.1643515E+02  0.2991017E+02  0.7803360E+01  0.1328764E+03
Ar  737  0.1604492E+02  0.2783861E+02  0.1066884E+02  0.4430468E+03
Ar  738  0.1861899E+02  0.2999126E+02  0.1069178E+02  0.5341442E+03
Ar  739  0.1868579E+02  0.2686321E+02  0.1365333E+02  0.5108176E+03
Ar  740  0.1581454E+02  0.2987273E+02  0.1352749E+02  0.1099778E+03
Ar  741  0.1586282E+02  0.2702175E+02  0.1613827E+02  0.6492434E+02
Ar  742  0.1810574E+02  0.2970046E+02  0.1627469E+02  0.3764178E+03
Ar  743  0.1940177E+02  0.2725339E+02  0.1898250E+02  0.3127082E+03
Ar  744  0.1662774E+02  0.2969225E+02  0.1940354E+02  0.8224402E+01
Ar  745  0.1606280E+02  0.2668963E+02  0.2122814E+02  0.3350275E+03
Ar  746  0.1882581E+02  0.2976050E+02  0.2210226E+02  0.4864199E+03
Ar  747  0.1833016E+02  0.2696261E+02  0.2450956E+02  0.7051308E+02
Ar  748  0.1589771E+02  0.2940034E+02  0.2470882E+02  0.2395485E+03
Ar  749  0.1541639E+02  0.2670762E+02  0.2729926E+02  0.1155192E+03
Ar  750  0.1897554E+02  0.2949685E+02  0.2722654E+02  0.2943338E+03
Ar  751  0.1892326E+02  0.2661850E+02  0.2932203E+02  0.4858398E+03
Ar  752  0.1593118E+02  0.2933038E+02  0.3011593E+02  0.2280620E+03
Ar  753  0.1587907E+02  0.2699878E+02  0.3265765E+02  0.6880756E+02
Ar  754  0.1875439E+02  0.2964103E+02  0.3269422E+02  0.1622450E+03
Ar  755  0.1876253E+02  0.2697879E+02  0.3520929E+02  0.6886363E+03
Ar  756  0.1587183E+02  0.2959923E+02  0.3539260E+02  0.3337220E+02
Ar  757  0.1653809E+02  0.3305978E+02  0.4300553E+00  0.1002574E+03
Ar  758  0.1917445E+02  0.3552531E+02  0.3728745E+02  0.2496360E+03
Ar  759  0.1920204E+02  0.3185599E+02  0.2658831E+01  0.1326559E+03
Ar  760  0.1607356E+02  0.3557677E+02  0.2713432E+01  0.1426989E+02
Ar  761  0.1643943E+02  0.3282330E+02  0.4815503E+01  0.3200350E+02
Ar  762  0.1923546E+02  0.3541501E+02  0.5301757E+01  0.1424159E+02
Ar  763  0.1905584E+02  0.3303108E+02  0.7576088E+01  0.5948576E+03
Ar  764  0.1628258E+02  0.3506048E+02  0.7536913E+01  0.3814116E+02
Ar  765  0.1595490E+02  0.3253085E+02  0.1130131E+02  0.1787326E+03
Ar  766  0.1868637E+02  0.3480998E+02  0.1077399E+02  0.6280303E+03
Ar  767  0.1918695E+02  0.3252355E+02  0.1498406E+02  0.3950158E+03
Ar  768  0.1595097E+02  0.3475482E+02  0.1407142E+02  0.4055894E+03
Ar  769  0.1615894E+02  0.3277897E+02  0.1672945E+02  0.2461896E+03
Ar  770  0.1851919E+02  0.3539077E+02  0.1669789E+02  0.2764577E+03
Ar  771  0.1891908E+02  0.3242130E+02  0.1897865E+02  0.2486960E+03
Ar  772  0.1614631E+02  0.3501414E+02  0.1963640E+02  0.3650860E+03
Ar  773  0.1640124E+02  0.3218064E+02  0.2168530E+02  0.1037148E+03
Ar  774  0.1859878E+02  0.3466212E+02  0.2229006E+02  0.1515041E+03
Ar  775  0.1897123E+02  0.3247046E+02  0.2521343E+02  0.9778035E+02
Ar  776  0.1588153E+02  0.3522444E+02  0.2511757E+02  0.4518069E+03
Ar  777  0.1631763E+02  0.3181184E+02  0.2723985E+02  0.4309749E+03
Ar  778  0.1837236E+02  0.3547045E+02  0.2777003E+02  0.4252353E+02
Ar  779  0.1873900E+02  0.3193595E+02  0.2989088E+02  0.6116239E+03
Ar  780  0.1599688E+02  0.3531756E+02  0.2993627E+02  0.2146117E+03
Ar  781  0.1620592E+02  0.3232159E+02  0.3254988E+02  0.5606064E+02
Ar  782  0.1919698E+02  0.3469303E+02  0.3237712E+02  0.1961501E+03
Ar  783  0.1870420E+02  0.3255157E+02  0.3492943E+02  0.1721340E+03
Ar  784  0.1625892E+02  0.3560104E+02  0.3515071E+02  0.1101504E+03
Ar  785  0.2178367E+02  0.8884743E-01  0.3755650E+02  0.1694556E+03
Ar  786  0.2444729E+02  0.2020031E+01  0.3776666E+02  0.2270525E+03
Ar  787  0.2393526E+02  0.3720897E+02  0.2700042E+01  0.7372687E+03
Ar  788  0.2178790E+02  0.2646931E+01  0.2239491E+01  0.2521389E+03
Ar  789  0.2175929E+02  0.3762128E+02  0.5669031E+01  0.2034183E+03
Ar  790  0.2396318E+02  0.2252539E+01  0.4774261E+01  0.6618562E+03
Ar  791  0.2446359E+02  0.3750253E+02  0.8024012E+01  0.1899737E+03
Ar  792  0.2097281E+02  0.3226675E+01  0.8053835E+01  0.1260896E+02
Ar  793  0.2083945E+02  0.1120404E+00  0.1077724E+02  0.1921171E+03
Ar  794  0.2376837E+02  0.2175794E+01  0.1084515E+02  0.2192705E+03
Ar  795  0.2377032E+02  0.3723927E+02  0.1283997E+02  0.7776359E+02
Ar  796  0.2120835E+02  0.1975889E+01  0.1341603E+02  0.1163206E+02
Ar  797  0.2148262E+02  0.3747544E+02  0.1622863E+02  0.2678185E+02
Ar  798  0.2426699E+02  0.2320005E+01  0.1635886E+02  0.1002170E+03
Ar  799  0.2446445E+02  0.3757275E+02  0.1905816E+02  0.2843353E+03
Ar  800  0.2164873E+02  0.2376482E+01  0.1884538E+02  0.1365078E+02
Ar  801  0.2142930E+02  0.3766253E+02  0.2200519E+02  0.1029574E+04
Ar  802  0.2426198E+02  0.2581853E+01  0.2117265E+02  0.2278980E+03
Ar  803  0.2382409E+02  0.3772690E+02  0.2553175E+02  0.2440972E+03
Ar  804  0.2189115E+02  0.2601537E+01  0.2374706E+02  0.3569605E+03
Ar  805  0.2123172E+02  0.3758453E+02  0.2796686E+02  0.6511588E+03
Ar  806  0.2407213E+02  0.2899819E+01  0.2747002E+02  0.2871484E+03
Ar  807  0.2485933E+02  0.1417345E+00  0.2941128E+02  0.1650666E+03
Ar  808  0.2154385E+02  0.2845502E+01  0.2966288E+02  0.6305211E+02
Ar  809  0.2209956E+02  0.2947562E-01  0.3226600E+02  0.2059991E+03
Ar  810  0.2419034E+02  0.2791425E+01  0.3222192E+02  0.2269293E+03
Ar  811  0.2481456E+02  0.3766240E+02  0.3508887E+02  0.7840210E+03
Ar  812  0.2177564E+02  0.2274478E+01  0.3482968E+02  0.5835199E+03
Ar  813  0.2140850E+02  0.5231146E+01  0.3749871E+02  0.5542826E+03
Ar  814  0.2436164E+02  0.8027641E+01  0.3740528E+02  0.7869173E+02
Ar  815  0.2471925E+02  0.5196088E+01  0.2914988E+01  0.1972110E+03
Ar  816  0.2173800E+02  0.8391136E+01  0.1620033E+01  0.2069039E+03
Ar  817  0.2184852E+02  0.6194215E+01  0.4744323E+01  0.1282288E+03
Ar  818  0.2451255E+02  0.8969690E+01  0.4993698E+01  0.1161163E+03
Ar  819  0.2363304E+02  0.5530977E+01  0.7557663E+01  0.4730610E+02
Ar  820  0.2158143E+02  0.8460886E+01  0.7584635E+01  0.1285282E+03
Ar  821  0.2143082E+02  0.4842110E+01  0.1084762E+02  0.1069971E+03
Ar  822  0.2434346E+02  0.7728511E+01  0.1096779E+02  0.1821601E+03
Ar  823  0.2398629E+02  0.5250312E+01  0.1340446E+02  0.1675147E+03
Ar  824  0.2091420E+02  0.8157947E+01  0.1368725E+02  0.2273482E+03
Ar  825  0.2145081E+02  0.6201897E+01  0.1656354E+02  0.6336440E+03
Ar  826  0.2431600E+02  0.8134248E+01  0.1569269E+02  0.6134572E+02
Ar  827  0.2484516E+02  0.5707549E+01  0.1870130E+02  0.1004700E+03
Ar  828  0.2172597E+02  0.8587213E+01  0.1909018E+02  0.1277248E+03
Ar  829  0.2221108E+02  0.5450504E+01  0.2104714E+02  0.2244749E+03
Ar  830  0.2446776E+02  0.8556522E+01  0.2136665E+02  0.2071990E+03
Ar  831  0.2450925E+02  0.5307323E+01  0.2391847E+02  0.3415582E+03
Ar  832  0.2164285E+02  0.7929782E+01  0.2469107E+02  0.8480605E+02
Ar  833  0.2159301E+02  0.4837856E+01  0.2669240E+02  0.3959463E+03
Ar  834  0.2461527E+02  0.7890175E+01  0.2711866E+02  0.1556633E+03
Ar  835  0.2367942E+02  0.5671290E+01  0.2983132E+02  0.3951829E+02
Ar  836  0.2153908E+02  0.8232655E+01  0.2920946E+02  0.7588961E+02
Ar  837  0.2162630E+02  0.5139586E+01  0.3287865E+02  0.8423258E+02
Ar  838  0.2394614E+02  0.8037892E+01  0.3240643E+02  0.2012754E+03
Ar  839  0.2413455E+02  0.4613819E+01  0.3551759E+02  0.3391215E+03
Ar  840  0.2158291E+02  0.8144101E+01  0.3537944E+02  0.7125823E+02
Ar  841  0.2158625E+02  0.1101475E+02  0.3720820E+02  0.3501156E+03
Ar  842  0.2409765E+02  0.1345099E+02  0.3741620E+02  0.1962753E+03
Ar  843  0.2399526E+02  0.1076754E+02  0.2216617E+01  0.5647221E+03
Ar  844  0.2113418E+02  0.1336612E+02  0.2048894E+01  0.6130828E+03
Ar  845  0.2136360E+02  0.1145116E+02  0.5338465E+01  0.4657108E+02
Ar  846  0.2414695E+02  0.1357249E+02  0.5421445E+01  0.2838290E+03
Ar  847  0.2465195E+02  0.1108760E+02  0.8355572E+01  0.2626989E+03
Ar  848  0.2169262E+02  0.1357871E+02  0.8507620E+01  0.5149251E+02
Ar  849  0.2181417E+02  0.1044255E+02  0.1052762E+02  0.2558552E+03
Ar  850  0.2453796E+02  0.1322967E+02  0.1079021E+02  0.1603080E+03
Ar  851  0.2450845E+02  0.1084532E+02  0.1382610E+02  0.1403312E+03
Ar  852  0.2155662E+02  0.1339377E+02  0.1309437E+02  0.2851164E+03
Ar  853  0.2179713E+02  0.1058340E+02  0.1619826E+02  0.1220497E+03
Ar  854  0.2465251E+02  0.1354747E+02  0.1634685E+02  0.5617908E+03
Ar  855  0.2465473E+02  0.1089322E+02  0.1861246E+02  0.4504132E+03
Ar  856  0.2163966E+02  0.1278615E+02  0.1897635E+02  0.4533538E+02
Ar  857  0.2126605E+02  0.1066734E+02  0.2206148E+02  0.1031008E+03
Ar  858  0.2408695E+02  0.1380448E+02  0.2162421E+02  0.2775847E+03
Ar  859  0.2420703E+02  0.1065275E+02  0.2446882E+02  0.3110449E+03
Ar  860  0.2185517E+02  0.1324766E+02  0.2425367E+02  0.1082477E+03
Ar  861  0.2182122E+02  0.1097853E+02  0.2732393E+02  0.3938605E+03
Ar  862  0.2470719E+02  0.1342000E+02  0.2650189E+02  0.7616124E+03
Ar  863  0.2432995E+02  0.1082241E+02  0.2974070E+02  0.5418608E+03
Ar  864  0.2224253E+02  0.1335881E+02  0.3000903E+02  0.1467812E+03
Ar  865  0.2137804E+02  0.1065294E+02  0.3187224E+02  0.4220205E+03
Ar  866  0.2449474E+02  0.1335702E+02  0.3227887E+02  0.2025095E+03
Ar  867  0.2438643E+02  0.1073292E+02  0.3429156E+02  0.3605820E+03
Ar  868  0.2160996E+02  0.1339006E+02  0.3427612E+02  0.3616668E+03
Ar  869  0.2144011E+02  0.1612198E+02  0.3713293E+02  0.6922202E+02
Ar  870  0.2445596E+02  0.1893677E+02  0.2560561E+00  0.7952198E+03
Ar  871  0.2406753E+02  0.1571851E+02  0.1961217E+01  0.4435473E+03
Ar  872  0.2158839E+02  0.1851653E+02  0.2553466E+01  0.5923168E+03
Ar  873  0.2130514E+02  0.1629294E+02  0.5775969E+01  0.2928520E+03
Ar  874  0.2425766E+02  0.1860873E+02  0.5236200E+01  0.2171081E+02
Ar  875  0.2407175E+02  0.1596676E+02  0.8125720E+01  0.3524142E+02
Ar  876  0.2152028E+02  0.1906099E+02  0.7603853E+01  0.8912791E+02
Ar  877  0.2156703E+02  0.1659343E+02  0.1035012E+02  0.3111898E+03
Ar  878  0.2440987E+02  0.1928340E+02  0.9864675E+01  0.2573746E+03
Ar  879  0.2409818E+02  0.1573699E+02  0.1379846E+02  0.2765171E+03
Ar  880  0.2160151E+02  0.1874805E+02  0.1340503E+02  0.5147764E+03
Ar  881  0.2144680E+02  0.1566463E+02  0.1646723E+02  0.1522178E+03
Ar  882  0.2453537E+02  0.1907674E+02  0.1626842E+02  0.1340950E+03
Ar  883  0.2448387E+02  0.1582598E+02  0.1904174E+02  0.4708153E+03
Ar  884  0.2161418E+02  0.1946057E+02  0.1835365E+02  0.3662970E+03
Ar  885  0.2149227E+02  0.1611366E+02  0.2196037E+02  0.1834165E+03
Ar  886  0.2373766E+02  0.1886930E+02  0.2085145E+02  0.2556294E+03
Ar  887  0.2418558E+02  0.1629029E+02  0.2471015E+02  0.3386588E+03
Ar  888  0.2189561E+02  0.1867959E+02  0.2423434E+02  0.9067938E+02
Ar  889  0.2134449E+02  0.1566483E+02  0.2690909E+02  0.1749939E+03
Ar  890  0.2383637E+02  0.1880906E+02  0.2705082E+02  0.9660468E+02
Ar  891  0.2476414E+02  0.1571656E+02  0.2912360E+02  0.3423153E+02
Ar  892  0.2097772E+02  0.1921880E+02  0.3010960E+02  0.1562868E+03
Ar  893  0.2255612E+02  0.1610189E+02  0.3254047E+02  0.1110326E+03
Ar  894  0.2418718E+02  0.1859709E+02  0.3136083E+02  0.1312971E+03
Ar  895  0.2402596E+02  0.1587494E+02  0.3529778E+02  0.7430551E+02
Ar  896  0.2187283E+02  0.1861712E+02  0.3484871E+02  0.1469711E+03
Ar  897  0.2155409E+02  0.2132044E+02  0.3730268E+02  0.1283373E+03
Ar  898  0.2464740E+02  0.2429877E+02  0.3765171E+02  0.2632302E+03
Ar  899  0.2441062E+02  0.2133058E+02  0.2661828E+01  0.4156908E+03
Ar  900  0.2184044E+02  0.2373890E+02  0.2180961E+01  0.1373377E+03
Ar  901  0.2134540E+02  0.2150507E+02  0.5016894E+01  0.1088813E+03
Ar  902  0.2470350E+02  0.2415037E+02  0.5244341E+01  0.2766559E+03
Ar  903  0.2425360E+02  0.2198486E+02  0.7773754E+01  0.4507168E+03
Ar  904  0.2191010E+02  0.2417917E+02  0.8338296E+01  0.2764869E+03
Ar  905  0.2180996E+02  0.2123554E+02  0.1067358E+02  0.3080497E+02
Ar  906  0.2427884E+02  0.2389332E+02  0.1065521E+02  0.3277706E+02
Ar  907  0.2433157E+02  0.2118067E+02  0.1324745E+02  0.1046171E+03
Ar  908  0.2164495E+02  0.2410747E+02  0.1333903E+02  0.2811884E+03
Ar  909  0.2209295E+02  0.2179859E+02  0.1588974E+02  0.1290283E+03
Ar  910  0.2445774E+02  0.2411657E+02  0.1702507E+02  0.2775346E+02
Ar  911  0.2369762E+02  0.2171255E+02  0.1915232E+02  0.1246676E+03
Ar  912  0.2135205E+02  0.2424904E+02  0.1920423E+02  0.1357105E+04
Ar  913  0.2187607E+02  0.2163436E+02  0.2193892E+02  0.5116674E+02
Ar  914  0.2414077E+02  0.2426733E+02  0.2161751E+02  0.7445790E+02
Ar  915  0.2449525E+02  0.2113349E+02  0.2452638E+02  0.8232410E+02
Ar  916  0.2196501E+02  0.2417296E+02  0.2462816E+02  0.8931536E+02
Ar  917  0.2133803E+02  0.2151412E+02  0.2731572E+02  0.7649148E+03
Ar  918  0.2479947E+02  0.2389919E+02  0.2696928E+02  0.5626637E+02
Ar  919  0.2433338E+02  0.2185879E+02  0.2948068E+02  0.1610915E+03
Ar  920  0.2185423E+02  0.2416482E+02  0.3004267E+02  0.9944811E+02
Ar  921  0.2193882E+02  0.2123951E+02  0.3240764E+02  0.3393542E+03
Ar  922  0.2461561E+02  0.2399744E+02  0.3252218E+02  0.3460016E+03
Ar  923  0.2474670E+02  0.2193196E+02  0.3515791E+02  0.2990527E+03
Ar  924  0.2179878E+02  0.2423151E+02  0.3434367E+02  0.1357268E+04
Ar  925  0.2193812E+02  0.2648167E+02  0.3723112E+02  0.7698080E+03
Ar  926  0.2391568E+02  0.2922585E+02  0.4099470E-01  0.7362379E+03
Ar  927  0.2386554E+02  0.2655610E+02  0.2785916E+01  0.7707986E+02
Ar  928  0.2188717E+02  0.2907266E+02  0.2684525E+01  0.2949564E+03
Ar  929  0.2172982E+02  0.2656301E+02  0.5573537E+01  0.2251063E+03
Ar  930  0.2435421E+02  0.2946149E+02  0.5658174E+01  0.1604565E+03
Ar  931  0.2433043E+02  0.2662089E+02  0.8522446E+01  0.8905039E+02
Ar  932  0.2156477E+02  0.2961911E+02  0.8051552E+01  0.9812583E+02
Ar  933  0.2115165E+02  0.2675713E+02  0.1097118E+02  0.2583595E+03
Ar  934  0.2396905E+02  0.2929172E+02  0.1105423E+02  0.1742805E+03
Ar  935  0.2376934E+02  0.2698848E+02  0.1365203E+02  0.3284975E+03
Ar  936  0.2134196E+02  0.2972002E+02  0.1345281E+02  0.4159187E+02
Ar  937  0.2161311E+02  0.2684526E+02  0.1633684E+02  0.1145774E+03
Ar  938  0.2450278E+02  0.2922086E+02  0.1661696E+02  0.3165951E+03
Ar  939  0.2397617E+02  0.2719925E+02  0.1940741E+02  0.2120172E+03
Ar  940  0.2114346E+02  0.3003950E+02  0.1750214E+02  0.8339918E+02
Ar  941  0.2164597E+02  0.2724061E+02  0.2184446E+02  0.2274102E+03
Ar  942  0.2394158E+02  0.3002786E+02  0.2163882E+02  0.2993605E+02
Ar  943  0.2432163E+02  0.2655320E+02  0.2492400E+02  0.1261896E+03
Ar  944  0.2179970E+02  0.2909111E+02  0.2454440E+02  0.1247485E+03
Ar  945  0.2169893E+02  0.2682465E+02  0.2749280E+02  0.3499935E+03
Ar  946  0.2462054E+02  0.2962368E+02  0.2674905E+02  0.5026749E+02
Ar  947  0.2445082E+02  0.2685519E+02  0.2934834E+02  0.4982682E+02
Ar  948  0.2196892E+02  0.2953401E+02  0.2963207E+02  0.2783611E+03
Ar  949  0.2136427E+02  0.2742216E+02  0.3210123E+02  0.1146480E+03
Ar  950  0.2436992E+02  0.2932590E+02  0.3200011E+02  0.2270194E+03
Ar  951  0.2430310E+02  0.2677456E+02  0.3461778E+02  0.3997063E+03
Ar  952  0.2144491E+02  0.2956437E+02  0.3546329E+02  0.1130361E+03
Ar  953  0.2185411E+02  0.3240161E+02  0.3748137E+02  0.1227769E+03
Ar  954  0.2456046E+02  0.3467564E+02  0.3749314E+02  0.3628587E+03
Ar  955  0.2373975E+02  0.3192847E+02  0.2378937E+01  0.9141269E+02
Ar  956  0.2118893E+02  0.3460405E+02  0.2355249E+01  0.1008374E+03
Ar  957  0.2153541E+02  0.3178986E+02  0.5015752E+01  0.1014484E+03
Ar  958  0.2421742E+02  0.3484921E+02  0.5374990E+01  0.6026449E+03
Ar  959  0.2405979E+02  0.3201679E+02  0.8009204E+01  0.5311759E+03
Ar  960  0.2171149E+02  0.3501756E+02  0.7804112E+01  0.2045762E+03
Ar  961  0.2181376E+02  0.3212609E+02  0.1081822E+02  0.5902376E+02
Ar  962  0.2397276E+02  0.3471997E+02  0.1032178E+02  0.1624064E+03
Ar  963  0.2408641E+02  0.3210271E+02  0.1370356E+02  0.1949281E+03
Ar  964  0.2083851E+02  0.3535361E+02  0.1328025E+02  0.4035924E+03
Ar  965  0.2185604E+02  0.3387872E+02  0.1621559E+02  0.1644870E+03
Ar  966  0.2465142E+02  0.3597089E+02  0.1593721E+02  0.4939271E+02
Ar  967  0.2414802E+02  0.3270750E+02  0.1892158E+02  0.3559796E+03
Ar  968  0.2159171E+02  0.3515226E+02  0.1940190E+02  0.9874486E+02
Ar  969  0.2117378E+02  0.3226111E+02  0.2216039E+02  0.7682241E+03
Ar  970  0.2417867E+02  0.3584904E+02  0.2245620E+02  0.2957104E+03
Ar  971  0.2449867E+02  0.3247037E+02  0.2447109E+02  0.5782977E+03
Ar  972  0.2166455E+02  0.3489957E+02  0.2473654E+02  0.1484651E+02
Ar  973  0.2154265E+02  0.3210737E+02  0.2715540E+02  0.5347508E+03
Ar  974  0.2449084E+02  0.3445899E+02  0.2701605E+02  0.2409126E+03
Ar  975  0.2486921E+02  0.3214970E+02  0.2940922E+02  0.2471705E+03
Ar  976  0.2231020E+02  0.3486469E+02  0.3030002E+02  0.2919999E+03
Ar  977  0.2177165E+02  0.3215859E+02  0.3226272E+02  0.9261964E+01
Ar  978  0.2489866E+02  0.3508858E+02  0.3247873E+02  0.1261026E+03
Ar  979  0.2443717E+02  0.3185449E+02  0.3492780E+02  0.4139393E+03
Ar  980  0.2217582E+02  0.3508922E+02  0.3466223E+02  0.2548289E+03
Ar  981  0.2682036E+02  0.3728503E+02  0.2313529E+00  0.5056342E+03
Ar  982  0.2980311E+02  0.2739221E+01  0.3763658E+02  0.2004770E+03
Ar  983  0.3049437E+02  0.3731020E+02  0.3174781E+01  0.2976871E+03
Ar  984  0.2715393E+02  0.2450086E+01  0.2789135E+01  0.2872303E+02
Ar  985  0.2755482E+02  0.1369457E+00  0.5504037E+01  0.5123306E+03
Ar  986  0.3000742E+02  0.2835045E+01  0.5276059E+01  0.3194198E+03
Ar  987  0.2968859E+02  0.3756854E+02  0.8258726E+01  0.4900405E+02
Ar  988  0.2718236E+02  0.2851560E+01  0.8259311E+01  0.7458817E+03
Ar  989  0.2716767E+02  0.3735243E+02  0.1051718E+02  0.3070501E+03
Ar  990  0.2953238E+02  0.2283554E+01  0.1090416E+02  0.3328135E+02
Ar  991  0.3012644E+02  0.1542729E+00  0.1344072E+02  0.2059096E+03
Ar  992  0.2701206E+02  0.2391868E+01  0.1395618E+02  0.1437630E+03
Ar  993  0.2731742E+02  0.1219874E+00  0.1629508E+02  0.1095722E+03
Ar  994  0.2989167E+02  0.2783605E+01  0.1588112E+02  0.1796326E+03
Ar  995  0.2964513E+02  0.3744144E+02  0.1896581E+02  0.1660893E+03
Ar  996  0.2700001E+02  0.2308306E+01  0.1884531E+02  0.2849354E+03
Ar  997  0.2727320E+02  0.3771256E+02  0.2208800E+02  0.2598425E+03
Ar  998  0.2965533E+02  0.2546202E+01  0.2152038E+02  0.1097629E+03
Ar  999  0.2965108E+02  0.8868021E-01  0.2438142E+02  0.9877225E+02
Ar 1000  0.2644203E+02  0.2637158E+01  0.2498681E+02  0.1300711E+03
Ar 1001  0.2715205E+02  0.3734204E+02  0.2684583E+02  0.3311130E+02
Ar 1002  0.2931321E+02  0.2343803E+01  0.2707086E+02  0.4979453E+03
Ar 1003  0.2974870E+02  0.9632311E-02  0.2995409E+02  0.2873990E+03
Ar 1004  0.2712837E+02  0.3049564E+01  0.3015207E+02  0.9736448E+02
Ar 1005  0.2690844E+02  0.1750289E+00  0.3242179E+02  0.6391602E+03
Ar 1006  0.2960564E+02  0.2365785E+01  0.3285332E+02  0.1611725E+03
Ar 1007  0.2947873E+02  0.3730097E+02  0.3497465E+02  0.2428950E+03
Ar 1008  0.2678747E+02  0.2521588E+01  0.3531771E+02  0.3048355E+03
Ar 1009  0.2678526E+02  0.4980247E+01  0.3195259E+00  0.1412730E+03
Ar 1010  0.2932886E+02  0.7503241E+01  0.2885043E+00  0.3786830E+03
Ar 1011  0.2941814E+02  0.4870847E+01  0.2908745E+01  0.5513113E+03
Ar 1012  0.2656225E+02  0.8002729E+01  0.2467983E+01  0.3997746E+03
Ar 1013  0.2706257E+02  0.4951688E+01  0.5585178E+01  0.9761622E+02
Ar 1014  0.2933805E+02  0.8197813E+01  0.5045566E+01  0.5763421E+03
Ar 1015  0.3005884E+02  0.4980725E+01  0.8931356E+01  0.1044620E+03
Ar 1016  0.2680763E+02  0.7163071E+01  0.8224183E+01  0.1958514E+03
Ar 1017  0.2670294E+02  0.5007725E+01  0.1094118E+02  0.4842488E+02
Ar 1018  0.2942173E+02  0.7746226E+01  0.1091659E+02  0.2107563E+03
Ar 1019  0.2990547E+02  0.5213683E+01  0.1322244E+02  0.2026311E+03
Ar 1020  0.2706974E+02  0.7016832E+01  0.1374959E+02  0.1550144E+03
Ar 1021  0.2724452E+02  0.5279715E+01  0.1654696E+02  0.1065842E+03
Ar 1022  0.2988696E+02  0.7900911E+01  0.1599077E+02  0.5466307E+03
Ar 1023  0.3021755E+02  0.5294911E+01  0.1866056E+02  0.4873236E+02
Ar 1024  0.2707250E+02  0.8141877E+01  0.1904613E+02  0.5429868E+03
Ar 1025  0.2786634E+02  0.5269408E+01  0.2111861E+02  0.1008129E+03
Ar 1026  0.3001205E+02  0.8088818E+01  0.2129661E+02  0.7405760E+02
Ar 1027  0.2916162E+02  0.4971912E+01  0.2413925E+02  0.2607874E+03
Ar 1028  0.2693250E+02  0.7642773E+01  0.2457897E+02  0.4780086E+03
Ar 1029  0.2711993E+02  0.5090572E+01  0.2726485E+02  0.3879127E+03
Ar 1030  0.2987067E+02  0.7645021E+01  0.2638491E+02  0.9170440E+02
Ar 1031  0.2969885E+02  0.5265572E+01  0.2946594E+02  0.5692380E+03
Ar 1032  0.2717219E+02  0.8041001E+01  0.2989023E+02  0.6274413E+03
Ar 1033  0.2644747E+02  0.5435682E+01  0.3235734E+02  0.2896190E+03
Ar 1034  0.2943627E+02  0.7906062E+01  0.3220711E+02  0.1721640E+03
Ar 1035  0.2971019E+02  0.5291503E+01  0.3501632E+02  0.3241374E+03
Ar 1036  0.2647403E+02  0.7580651E+01  0.3495186E+02  0.6290857E+03
Ar 1037  0.2687312E+02  0.1032486E+02  0.3744110E+02  0.1342198E+03
Ar 1038  0.2969982E+02  0.1349763E+02  0.3733220E+02  0.3514879E+03
Ar 1039  0.2962888E+02  0.1082830E+02  0.2499582E+01  0.5630147E+02
Ar 1040  0.2688054E+02  0.1330941E+02  0.2198683E+01  0.2099621E+03
Ar 1041  0.2731680E+02  0.1090168E+02  0.5370253E+01  0.2165215E+02
Ar 1042  0.2985694E+02  0.1334646E+02  0.4695977E+01  0.3813815E+03
Ar 1043  0.2915083E+02  0.1062625E+02  0.8324571E+01  0.1928133E+03
Ar 1044  0.2738698E+02  0.1388487E+02  0.8071046E+01  0.4082546E+03
Ar 1045  0.2648730E+02  0.1000884E+02  0.1117221E+02  0.5258803E+02
Ar 1046  0.2967391E+02  0.1345524E+02  0.1116842E+02  0.4919164E+02
Ar 1047  0.2953044E+02  0.1094664E+02  0.1332309E+02  0.6324199E+03
Ar 1048  0.2714961E+02  0.1335510E+02  0.1341215E+02  0.4945207E+02
Ar 1049  0.2708551E+02  0.1091072E+02  0.1600533E+02  0.3875732E+03
Ar 1050  0.2993538E+02  0.1319403E+02  0.1590601E+02  0.4989392E+02
Ar 1051  0.2927015E+02  0.1063191E+02  0.1891905E+02  0.2605802E+03
Ar 1052  0.2717478E+02  0.1369287E+02  0.1908355E+02  0.3319747E+03
Ar 1053  0.2700976E+02  0.1061698E+02  0.2165028E+02  0.2897918E+02
Ar 1054  0.2994152E+02  0.1399138E+02  0.2127337E+02  0.3489809E+03
Ar 1055  0.2988377E+02  0.1080083E+02  0.2362299E+02  0.4618583E+02
Ar 1056  0.2693602E+02  0.1343566E+02  0.2375063E+02  0.1611202E+03
Ar 1057  0.2701073E+02  0.1043049E+02  0.2631850E+02  0.1096830E+03
Ar 1058  0.2957097E+02  0.1285808E+02  0.2630478E+02  0.7334478E+02
Ar 1059  0.2993766E+02  0.1012797E+02  0.2901018E+02  0.1985678E+03
Ar 1060  0.2730682E+02  0.1305359E+02  0.2884496E+02  0.8030340E+02
Ar 1061  0.2695443E+02  0.1085219E+02  0.3195238E+02  0.5487141E+03
Ar 1062  0.2962161E+02  0.1342891E+02  0.3194993E+02  0.1744895E+03
Ar 1063  0.2957820E+02  0.1048561E+02  0.3503072E+02  0.2976378E+02
Ar 1064  0.2728415E+02  0.1329796E+02  0.3474151E+02  0.3397078E+03
Ar 1065  0.2711240E+02  0.1585402E+02  0.3748255E+02  0.1727949E+03
Ar 1066  0.2923630E+02  0.1861235E+02  0.3633297E+02  0.9143453E+01
Ar 1067  0.2999294E+02  0.1576094E+02  0.2245979E+01  0.5527732E+03
Ar 1068  0.2704159E+02  0.1787526E+02  0.2539200E+01  0.1185811E+03
Ar 1069  0.2783834E+02  0.1617185E+02  0.5082220E+01  0.2415443E+03
Ar 1070  0.3039126E+02  0.1911177E+02  0.6235452E+01  0.6656763E+02
Ar 1071  0.3008155E+02  0.1569686E+02  0.7957458E+01  0.6088396E+02
Ar 1072  0.2729053E+02  0.1791002E+02  0.7871556E+01  0.3916333E+03
Ar 1073  0.2707099E+02  0.1597662E+02  0.1102040E+02  0.4061838E+03
Ar 1074  0.3022454E+02  0.1872571E+02  0.9952458E+01  0.6272020E+00
Ar 1075  0.2964171E+02  0.1593839E+02  0.1377316E+02  0.4351123E+03
Ar 1076  0.2791090E+02  0.1872250E+02  0.1272010E+02  0.2773604E+03
Ar 1077  0.2715502E+02  0.1647179E+02  0.1596704E+02  0.7167163E+03
Ar 1078  0.3017615E+02  0.1871579E+02  0.1607940E+02  0.3429547E+03
Ar 1079  0.2957448E+02  0.1660770E+02  0.1860626E+02  0.1717069E+03
Ar 1080  0.2663582E+02  0.1916068E+02  0.1911610E+02  0.5335779E+03
Ar 1081  0.2734201E+02  0.1595783E+02  0.2154338E+02  0.4848694E+03
Ar 1082  0.2961663E+02  0.1921251E+02  0.2150421E+02  0.1121010E+03
Ar 1083  0.2996516E+02  0.1657267E+02  0.2366818E+02  0.2025690E+03
Ar 1084  0.2731972E+02  0.1883052E+02  0.2405848E+02  0.2276567E+03
Ar 1085  0.2717933E+02  0.1590955E+02  0.2628135E+02  0.4342154E+03
Ar 1086  0.2955117E+02  0.1879074E+02  0.2673005E+02  0.8908550E+02
Ar 1087  0.2847191E+02  0.1602140E+02  0.2970700E+02  0.2263548E+03
Ar 1088  0.2673113E+02  0.1873735E+02  0.2888598E+02  0.3655722E+03
Ar 1089  0.2667233E+02  0.1589265E+02  0.3254207E+02  0.7881861E+02
Ar 1090  0.2939035E+02  0.1820941E+02  0.3238792E+02  0.5870116E+02
Ar 1091  0.2977246E+02  0.1577552E+02  0.3465693E+02  0.8636703E+02
Ar 1092  0.2624841E+02  0.1865335E+02  0.3500233E+02  0.5450730E+02
Ar 1093  0.2743252E+02  0.2137677E+02  0.2146794E+00  0.2557889E+02
Ar 1094  0.2987579E+02  0.2435035E+02  0.1477068E+00  0.2787822E+03
Ar 1095  0.3013308E+02  0.2142699E+02  0.3018725E+01  0.1463842E+03
Ar 1096  0.2718535E+02  0.2368046E+02  0.2424917E+01  0.4333530E+02
Ar 1097  0.2749599E+02  0.2108535E+02  0.5315618E+01  0.7403734E+02
Ar 1098  0.2920055E+02  0.2407656E+02  0.5030661E+01  0.6822355E+03
Ar 1099  0.2998710E+02  0.2201899E+02  0.8185610E+01  0.2290454E+02
Ar 1100  0.2712403E+02  0.2433474E+02  0.8096631E+01  0.1670986E+03
Ar 1101  0.2759265E+02  0.2158820E+02  0.1048298E+02  0.7865404E+02
Ar 1102  0.3021992E+02  0.2463698E+02  0.1036214E+02  0.7080439E+03
Ar 1103  0.2999441E+02  0.2181887E+02  0.1288138E+02  0.3477013E+03
Ar 1104  0.2665727E+02  0.2378514E+02  0.1342597E+02  0.2102813E+03
Ar 1105  0.2740867E+02  0.2077801E+02  0.1553079E+02  0.1274078E+03
Ar 1106  0.2894697E+02  0.2422276E+02  0.1632182E+02  0.4672226E+02
Ar 1107  0.2950080E+02  0.2140329E+02  0.1851344E+02  0.1654882E+03
Ar 1108  0.2699716E+02  0.2399971E+02  0.1946637E+02  0.4412284E+03
Ar 1109  0.2665202E+02  0.2131552E+02  0.2181978E+02  0.2313630E+03
Ar 1110  0.2934111E+02  0.2389036E+02  0.2175343E+02  0.3598592E+03
Ar 1111  0.3007868E+02  0.2125893E+02  0.2412269E+02  0.3556570E+03
Ar 1112  0.2709259E+02  0.2438760E+02  0.2449637E+02  0.6282189E+02
Ar 1113  0.2736618E+02  0.2140297E+02  0.2698916E+02  0.3152544E+03
Ar 1114  0.2998562E+02  0.2408589E+02  0.2694003E+02  0.9528909E+02
Ar 1115  0.2981633E+02  0.2132353E+02  0.2942137E+02  0.1847424E+03
Ar 1116  0.2713204E+02  0.2413185E+02  0.2963686E+02  0.3905394E+03
Ar 1117  0.2699707E+02  0.2098917E+02  0.3196352E+02  0.9281520E+02
Ar 1118  0.2971690E+02  0.2418080E+02  0.3202409E+02  0.1971934E+03
Ar 1119  0.2966465E+02  0.2155979E+02  0.3483853E+02  0.6133271E+03
Ar 1120  0.2726786E+02  0.2433109E+02  0.3500965E+02  0.2391709E+02
Ar 1121  0.2683401E+02  0.2669098E+02  0.9370034E-02  0.1117503E+04
Ar 1122  0.2975482E+02  0.2934331E+02  0.1776892E+00  0.5817715E+03
Ar 1123  0.2940565E+02  0.2660113E+02  0.2844323E+01  0.6310411E+02
Ar 1124  0.2627101E+02  0.2945545E+02  0.2575752E+01  0.3548085E+03
Ar 1125  0.2655939E+02  0.2694435E+02  0.5949772E+01  0.5414017E+03
Ar 1126  0.2964203E+02  0.2968828E+02  0.4815297E+01  0.6142028E+02
Ar 1127  0.2966404E+02  0.2704233E+02  0.6769243E+01  0.1691818E+03
Ar 1128  0.2725390E+02  0.2885885E+02  0.8807580E+01  0.3955810E+03
Ar 1129  0.2668540E+02  0.2627137E+02  0.1105733E+02  0.7485976E+03
Ar 1130  0.3030422E+02  0.2841203E+02  0.1043435E+02  0.1961623E+03
Ar 1131  0.2925866E+02  0.2658835E+02  0.1321049E+02  0.2241746E+03
Ar 1132  0.2652216E+02  0.2932973E+02  0.1310490E+02  0.5398437E+03
Ar 1133  0.2695616E+02  0.2679102E+02  0.1537678E+02  0.4204561E+02
Ar 1134  0.2852043E+02  0.2978838E+02  0.1658804E+02  0.1586814E+03
Ar 1135  0.2845147E+02  0.2705785E+02  0.1912952E+02  0.3859517E+02
Ar 1136  0.2665391E+02  0.2981656E+02  0.1924937E+02  0.1044984E+02
Ar 1137  0.2698777E+02  0.2723728E+02  0.2197796E+02  0.2008878E+03
Ar 1138  0.3002791E+02  0.2907781E+02  0.2205763E+02  0.1358418E+03
Ar 1139  0.2942404E+02  0.2687330E+02  0.2423317E+02  0.2467111E+03
Ar 1140  0.2749751E+02  0.2985570E+02  0.2413419E+02  0.9860441E+03
Ar 1141  0.2741983E+02  0.2680156E+02  0.2711322E+02  0.1486017E+03
Ar 1142  0.3023355E+02  0.2967647E+02  0.2656436E+02  0.3786145E+03
Ar 1143  0.3005376E+02  0.2680574E+02  0.2981832E+02  0.2264319E+03
Ar 1144  0.2723295E+02  0.2927183E+02  0.2955437E+02  0.3478369E+03
Ar 1145  0.2708606E+02  0.2681686E+02  0.3223901E+02  0.8805796E+03
Ar 1146  0.2988741E+02  0.2979782E+02  0.3267667E+02  0.2057437E+03
Ar 1147  0.3054512E+02  0.2648664E+02  0.3482482E+02  0.3567309E+02
Ar 1148  0.2738365E+02  0.2909505E+02  0.3502229E+02  0.1145132E+03
Ar 1149  0.2640556E+02  0.3196944E+02  0.3738494E+02  0.2086438E+03
Ar 1150  0.2983288E+02  0.3495803E+02  0.3758049E+02  0.2063221E+03
Ar 1151  0.2884856E+02  0.3216457E+02  0.2169895E+01  0.1718829E+03
Ar 1152  0.2716875E+02  0.3534845E+02  0.2878355E+01  0.3933275E+02
Ar 1153  0.2700333E+02  0.3193756E+02  0.5328830E+01  0.1604413E+03
Ar 1154  0.2948205E+02  0.3473483E+02  0.5923035E+01  0.2432811E+03
Ar 1155  0.3010228E+02  0.3212912E+02  0.8117223E+01  0.8779110E+02
Ar 1156  0.2636246E+02  0.3471955E+02  0.7907980E+01  0.1446404E+03
Ar 1157  0.2651289E+02  0.3222687E+02  0.1111054E+02  0.3035893E+03
Ar 1158  0.2976883E+02  0.3495675E+02  0.1078177E+02  0.3404810E+03
Ar 1159  0.2896530E+02  0.3170194E+02  0.1354495E+02  0.3660078E+03
Ar 1160  0.2680731E+02  0.3525005E+02  0.1324938E+02  0.1868048E+03
Ar 1161  0.2682344E+02  0.3283968E+02  0.1644411E+02  0.2920029E+02
Ar 1162  0.2938587E+02  0.3540891E+02  0.1643632E+02  0.2201769E+03
Ar 1163  0.2941215E+02  0.3256891E+02  0.1916006E+02  0.4623502E+03
Ar 1164  0.2729264E+02  0.3530862E+02  0.1904314E+02  0.5565289E+03
Ar 1165  0.2626619E+02  0.3309859E+02  0.2166487E+02  0.5841670E+03
Ar 1166  0.2946934E+02  0.3509618E+02  0.2224747E+02  0.1161063E+03
Ar 1167  0.2994453E+02  0.3211930E+02  0.2458034E+02  0.2776590E+03
Ar 1168  0.2707281E+02  0.3509962E+02  0.2452513E+02  0.9802386E+02
Ar 1169  0.2719990E+02  0.3189063E+02  0.2684312E+02  0.1586105E+03
Ar 1170  0.2980994E+02  0.3488832E+02  0.2695572E+02  0.2862481E+03
Ar 1171  0.2975056E+02  0.3181444E+02  0.2975643E+02  0.7682550E+02
Ar 1172  0.2709770E+02  0.3509405E+02  0.2956490E+02  0.1952900E+03
Ar 1173  0.2684701E+02  0.3224215E+02  0.3240242E+02  0.4546308E+03
Ar 1174  0.2944187E+02  0.3489168E+02  0.3188980E+02  0.4681057E+03
Ar 1175  0.3249219E+02  0.3220985E+02  0.3250159E+02  0.8514546E+02
Ar 1176  0.2726370E+02  0.3466374E+02  0.3506353E+02  0.2196673E+03
Ar 1177  0.3186981E+02  0.3771667E+02  0.1224206E+00  0.7702174E+03
Ar 1178  0.3472395E+02  0.2931832E+01  0.3773776E+02  0.6326970E+02
Ar 1179  0.3424752E+02  0.1978343E+00  0.2875972E+01  0.1181768E+03
Ar 1180  0.3269737E+02  0.3566258E+01  0.2890863E+01  0.4380691E+02
Ar 1181  0.3232108E+02  0.3744356E+02  0.5900511E+01  0.8605474E+02
Ar 1182  0.3485936E+02  0.2580632E+01  0.5678912E+01  0.1443948E+03
Ar 1183  0.3504810E+02  0.1597034E+00  0.8593333E+01  0.3664564E+03
Ar 1184  0.3273404E+02  0.2318236E+01  0.9254032E+01  0.2281898E+03
Ar 1185  0.3261035E+02  0.3718148E+02  0.1124607E+02  0.1414464E+03
Ar 1186  0.3589005E+02  0.2337757E+01  0.1155411E+02  0.2100369E+03
Ar 1187  0.3525726E+02  0.3757648E+02  0.1354528E+02  0.3491534E+03
Ar 1188  0.3257770E+02  0.2429404E+01  0.1362323E+02  0.4850569E+02
Ar 1189  0.3220488E+02  0.3742483E+02  0.1657146E+02  0.7879290E+02
Ar 1190  0.3516748E+02  0.2547121E+01  0.1603230E+02  0.3569444E+03
Ar 1191  0.3503778E+02  0.1688110E+00  0.1837230E+02  0.1524104E+03
Ar 1192  0.3227797E+02  0.2716020E+01  0.1910421E+02  0.1517074E+02
Ar 1193  0.3191286E+02  0.3743075E+02  0.2188635E+02  0.9826385E+02
Ar 1194  0.3468069E+02  0.1990466E+01  0.2141259E+02  0.5455810E+03
Ar 1195  0.3459364E+02  0.3770153E+02  0.2460064E+02  0.7880443E+02
Ar 1196  0.3218449E+02  0.2736425E+01  0.2394344E+02  0.5349071E+03
Ar 1197  0.3190197E+02  0.3769192E+02  0.2711936E+02  0.1019802E+03
Ar 1198  0.3485443E+02  0.2837036E+01  0.2700493E+02  0.3831069E+03
Ar 1199  0.3454959E+02  0.3775560E+02  0.2996176E+02  0.2978672E+02
Ar 1200  0.3182892E+02  0.2518075E+01  0.2981340E+02  0.7976216E+02
Ar 1201  0.3202322E+02  0.3759016E+02  0.3243432E+02  0.7236637E+02
Ar 1202  0.3493700E+02  0.2663313E+01  0.3213681E+02  0.7058411E+03
Ar 1203  0.3501041E+02  0.3764878E+02  0.3508073E+02  0.2227822E+03
Ar 1204  0.3202912E+02  0.2074855E+01  0.3513122E+02  0.9966814E+02
Ar 1205  0.3178832E+02  0.5265707E+01  0.1131290E+00  0.2141828E+03
Ar 1206  0.3451867E+02  0.8130806E+01  0.4945987E+00  0.1108884E+03
Ar 1207  0.3535429E+02  0.5629918E+01  0.2827067E+01  0.2252305E+03
Ar 1208  0.3226552E+02  0.7881759E+01  0.2728636E+01  0.3082579E+03
Ar 1209  0.3246136E+02  0.5286903E+01  0.5826932E+01  0.5540332E+03
Ar 1210  0.3538947E+02  0.7606621E+01  0.5640050E+01  0.2658021E+03
Ar 1211  0.3496117E+02  0.5067998E+01  0.8069126E+01  0.6142723E+02
Ar 1212  0.3196681E+02  0.8291681E+01  0.8014954E+01  0.3013246E+03
Ar 1213  0.3315053E+02  0.5308435E+01  0.1123833E+02  0.2083987E+03
Ar 1214  0.3464708E+02  0.8276290E+01  0.1129858E+02  0.4528746E+03
Ar 1215  0.3525692E+02  0.5392759E+01  0.1360618E+02  0.5103579E+02
Ar 1216  0.3245180E+02  0.8470129E+01  0.1383507E+02  0.1848821E+03
Ar 1217  0.3257408E+02  0.5319047E+01  0.1596217E+02  0.4804757E+03
Ar 1218  0.3523507E+02  0.8331271E+01  0.1624194E+02  0.1067306E+03
Ar 1219  0.3514687E+02  0.5339593E+01  0.1915264E+02  0.8565625E+03
Ar 1220  0.3254036E+02  0.7802649E+01  0.1870279E+02  0.1079319E+03
Ar 1221  0.3244038E+02  0.5507615E+01  0.2172565E+02  0.1121146E+02
Ar 1222  0.3516703E+02  0.8425359E+01  0.2117898E+02  0.1985425E+03
Ar 1223  0.3534841E+02  0.5193894E+01  0.2359805E+02  0.1026209E+03
Ar 1224  0.3276859E+02  0.7924034E+01  0.2435001E+02  0.3618585E+03
Ar 1225  0.3241289E+02  0.5525879E+01  0.2728865E+02  0.7682390E+03
Ar 1226  0.3546408E+02  0.8295660E+01  0.2661915E+02  0.3756612E+03
Ar 1227  0.3562090E+02  0.5848295E+01  0.2976159E+02  0.1345114E+02
Ar 1228  0.3255930E+02  0.8438308E+01  0.2948392E+02  0.2598011E+02
Ar 1229  0.3229876E+02  0.5599491E+01  0.3177559E+02  0.1455670E+03
Ar 1230  0.3519833E+02  0.8980099E+01  0.3175182E+02  0.9668831E+02
Ar 1231  0.3463936E+02  0.4917486E+01  0.3462194E+02  0.2673127E+03
Ar 1232  0.3244723E+02  0.8283353E+01  0.3507026E+02  0.1853485E+03
Ar 1233  0.3200629E+02  0.1049712E+02  0.3761368E+02  0.1246214E+03
Ar 1234  0.3477051E+02  0.1347110E+02  0.5163943E-01  0.1655860E+03
Ar 1235  0.3551006E+02  0.1088363E+02  0.2307178E+01  0.4065419E+02
Ar 1236  0.3233358E+02  0.1324219E+02  0.2528339E+01  0.1147496E+02
Ar 1237  0.3282688E+02  0.1012396E+02  0.5269217E+01  0.1182094E+02
Ar 1238  0.3515051E+02  0.1338502E+02  0.5128068E+01  0.6069313E+03
Ar 1239  0.3540586E+02  0.1039110E+02  0.7714925E+01  0.2664805E+02
Ar 1240  0.3227270E+02  0.1297598E+02  0.7704821E+01  0.1567413E+02
Ar 1241  0.3185012E+02  0.1086995E+02  0.1058696E+02  0.2496633E+03
Ar 1242  0.3489926E+02  0.1280882E+02  0.1007509E+02  0.8250503E+02
Ar 1243  0.3524841E+02  0.1070974E+02  0.1340041E+02  0.6100103E+03
Ar 1244  0.3266474E+02  0.1307891E+02  0.1339068E+02  0.3459493E+03
Ar 1245  0.3269471E+02  0.1049412E+02  0.1636364E+02  0.1305580E+03
Ar 1246  0.3526623E+02  0.1319170E+02  0.1584143E+02  0.8317718E+02
Ar 1247  0.3544187E+02  0.1097666E+02  0.1833944E+02  0.3732056E+03
Ar 1248  0.3239740E+02  0.1352656E+02  0.1861950E+02  0.6656237E+03
Ar 1249  0.3265778E+02  0.1086260E+02  0.2070478E+02  0.1287343E+03
Ar 1250  0.3509584E+02  0.1324902E+02  0.2114487E+02  0.1840257E+03
Ar 1251  0.3477066E+02  0.1098365E+02  0.2382478E+02  0.3315506E+02
Ar 1252  0.3201567E+02  0.1365790E+02  0.2417563E+02  0.3030016E+03
Ar 1253  0.3232914E+02  0.1078356E+02  0.2675466E+02  0.3234758E+03
Ar 1254  0.3483743E+02  0.1398646E+02  0.2671029E+02  0.2735908E+03
Ar 1255  0.3470945E+02  0.1126012E+02  0.2920728E+02  0.2317316E+03
Ar 1256  0.3191194E+02  0.1367378E+02  0.2932213E+02  0.2346284E+02
Ar 1257  0.3191581E+02  0.1103799E+02  0.3229467E+02  0.3763853E+03
Ar 1258  0.3495221E+02  0.1315141E+02  0.3211589E+02  0.7487373E+02
Ar 1259  0.3490820E+02  0.1084923E+02  0.3495421E+02  0.1624072E+03
Ar 1260  0.3238945E+02  0.1347244E+02  0.3522194E+02  0.7072487E+03
Ar 1261  0.3264307E+02  0.1633632E+02  0.3730628E+02  0.4197901E+03
Ar 1262  0.3506112E+02  0.1893707E+02  0.2001796E-01  0.1407073E+03
Ar 1263  0.3445505E+02  0.1601547E+02  0.2613064E+01  0.1218994E+03
Ar 1264  0.3184384E+02  0.1837694E+02  0.2189280E+01  0.5981214E+03
Ar 1265  0.3256532E+02  0.1578608E+02  0.5517145E+01  0.5343658E+03
Ar 1266  0.3399385E+02  0.1889470E+02  0.4633982E+01  0.3714401E+03
Ar 1267  0.3548380E+02  0.1561291E+02  0.7646334E+01  0.6734680E+02
Ar 1268  0.3296847E+02  0.1827961E+02  0.8293686E+01  0.2266053E+03
Ar 1269  0.3258307E+02  0.1597782E+02  0.1051913E+02  0.7294198E+02
Ar 1270  0.3532248E+02  0.1850573E+02  0.1090500E+02  0.1207812E+03
Ar 1271  0.3528176E+02  0.1550065E+02  0.1315717E+02  0.2899758E+03
Ar 1272  0.3238234E+02  0.1898853E+02  0.1367976E+02  0.9933554E+02
Ar 1273  0.3303762E+02  0.1610660E+02  0.1604076E+02  0.1256256E+04
Ar 1274  0.3536739E+02  0.1894021E+02  0.1583414E+02  0.1230436E+03
Ar 1275  0.3550484E+02  0.1547121E+02  0.1872807E+02  0.1158830E+03
Ar 1276  0.3270943E+02  0.1862884E+02  0.1847392E+02  0.4205135E+03
Ar 1277  0.3288398E+02  0.1634232E+02  0.2105291E+02  0.2704332E+03
Ar 1278  0.3559553E+02  0.1832578E+02  0.2097553E+02  0.7523277E+01
Ar 1279  0.3532237E+02  0.1610527E+02  0.2420953E+02  0.1974992E+03
Ar 1280  0.3268395E+02  0.1854927E+02  0.2389344E+02  0.3527798E+03
Ar 1281  0.3167825E+02  0.1634721E+02  0.2683644E+02  0.4373071E+03
Ar 1282  0.3496843E+02  0.1864629E+02  0.2650566E+02  0.1146577E+03
Ar 1283  0.3503892E+02  0.1571452E+02  0.2977835E+02  0.3388103E+03
Ar 1284  0.3259948E+02  0.1841734E+02  0.2937581E+02  0.2272000E+03
Ar 1285  0.3256522E+02  0.1573039E+02  0.3255656E+02  0.5139152E+03
Ar 1286  0.3522374E+02  0.1849510E+02  0.3224852E+02  0.1871908E+03
Ar 1287  0.3535022E+02  0.1608390E+02  0.3499923E+02  0.9027795E+02
Ar 1288  0.3227887E+02  0.1902118E+02  0.3486369E+02  0.1917190E+03
Ar 1289  0.3212021E+02  0.2122348E+02  0.5622174E+00  0.2946840E+03
Ar 1290  0.3440470E+02  0.2420087E+02  0.1359110E+00  0.4688587E+03
Ar 1291  0.3501689E+02  0.2183607E+02  0.3014144E+01  0.6996434E+03
Ar 1292  0.3241758E+02  0.2430573E+02  0.2925411E+01  0.2744928E+03
Ar 1293  0.3219371E+02  0.2217974E+02  0.5801144E+01  0.1126299E+03
Ar 1294  0.3521253E+02  0.2521016E+02  0.5658611E+01  0.4605495E+02
Ar 1295  0.3545082E+02  0.2213771E+02  0.7916751E+01  0.3901722E+03
Ar 1296  0.3279936E+02  0.2539523E+02  0.8152601E+01  0.1532173E+03
Ar 1297  0.3267233E+02  0.2185807E+02  0.1047251E+02  0.6506900E+02
Ar 1298  0.3477230E+02  0.2457466E+02  0.1141604E+02  0.9917609E+03
Ar 1299  0.3550683E+02  0.2130820E+02  0.1331031E+02  0.2750277E+02
Ar 1300  0.3225297E+02  0.2455967E+02  0.1342398E+02  0.2185213E+03
Ar 1301  0.3182239E+02  0.2175156E+02  0.1590583E+02  0.4082210E+02
Ar 1302  0.3421840E+02  0.2431638E+02  0.1616531E+02  0.2146592E+02
Ar 1303  0.3474237E+02  0.2158060E+02  0.1816111E+02  0.3578371E+03
Ar 1304  0.3175393E+02  0.2421402E+02  0.1923238E+02  0.1412588E+03
Ar 1305  0.3277496E+02  0.2109165E+02  0.2155446E+02  0.4289770E+03
Ar 1306  0.3498968E+02  0.2385040E+02  0.2130592E+02  0.7504025E+02
Ar 1307  0.3545863E+02  0.2127824E+02  0.2378884E+02  0.1246801E+03
Ar 1308  0.3251428E+02  0.2404007E+02  0.2340291E+02  0.1032658E+03
Ar 1309  0.3238150E+02  0.2118986E+02  0.2685752E+02  0.2284159E+03
Ar 1310  0.3480951E+02  0.2392484E+02  0.2648533E+02  0.4349445E+03
Ar 1311  0.3514015E+02  0.2092226E+02  0.2912490E+02  0.6566686E+03
Ar 1312  0.3268329E+02  0.2382448E+02  0.2938495E+02  0.7906907E+02
Ar 1313  0.3262714E+02  0.2119268E+02  0.3120326E+02  0.3696049E+03
Ar 1314  0.3509406E+02  0.2325023E+02  0.3205445E+02  0.1572452E+03
Ar 1315  0.3502377E+02  0.2109900E+02  0.3485187E+02  0.1075442E+03
Ar 1316  0.3270306E+02  0.2393208E+02  0.3463771E+02  0.1476822E+03
Ar 1317  0.3225110E+02  0.2713799E+02  0.5103226E-02  0.3953650E+03
Ar 1318  0.3526692E+02  0.2985978E+02  0.6846141E-01  0.5613836E+02
Ar 1319  0.3470763E+02  0.2701822E+02  0.2730391E+01  0.1579145E+03
Ar 1320  0.3230575E+02  0.2986649E+02  0.2807261E+01  0.1606252E+03
Ar 1321  0.3234547E+02  0.2718338E+02  0.4994673E+01  0.2837843E+03
Ar 1322  0.3503158E+02  0.2980839E+02  0.5279855E+01  0.1255914E+03
Ar 1323  0.3559076E+02  0.2745682E+02  0.7914900E+01  0.2560804E+03
Ar 1324  0.3310775E+02  0.2956023E+02  0.8260234E+01  0.5024285E+02
Ar 1325  0.3367834E+02  0.2785840E+02  0.1142269E+02  0.5343087E+02
Ar 1326  0.3548643E+02  0.3037899E+02  0.1072894E+02  0.3530487E+03
Ar 1327  0.3515345E+02  0.2767709E+02  0.1442534E+02  0.2244834E+02
Ar 1328  0.3166711E+02  0.2964636E+02  0.1394044E+02  0.4110980E+03
Ar 1329  0.3140332E+02  0.2727088E+02  0.1645207E+02  0.8803092E+02
Ar 1330  0.3500175E+02  0.3031165E+02  0.1670638E+02  0.3525430E+03
Ar 1331  0.3461729E+02  0.2748920E+02  0.1842184E+02  0.8417204E+03
Ar 1332  0.3113156E+02  0.2961409E+02  0.1878739E+02  0.5667328E+03
Ar 1333  0.3239301E+02  0.2699610E+02  0.2106280E+02  0.2085564E+02
Ar 1334  0.3479580E+02  0.2942680E+02  0.2162207E+02  0.2477499E+03
Ar 1335  0.3520495E+02  0.2692377E+02  0.2430188E+02  0.1468363E+03
Ar 1336  0.3277084E+02  0.3000288E+02  0.2456723E+02  0.9240853E+02
Ar 1337  0.3250657E+02  0.2663938E+02  0.2652458E+02  0.5594501E+03
Ar 1338  0.3470591E+02  0.2950550E+02  0.2717001E+02  0.1273172E+03
Ar 1339  0.3485988E+02  0.2650537E+02  0.2914415E+02  0.9057460E+01
Ar 1340  0.3231449E+02  0.2952877E+02  0.3041120E+02  0.2417688E+03
Ar 1341  0.3268288E+02  0.2632225E+02  0.3209222E+02  0.6228514E+03
Ar 1342  0.3533689E+02  0.2967579E+02  0.3242100E+02  0.1587974E+03
Ar 1343  0.3445076E+02  0.2695513E+02  0.3506905E+02  0.3087219E+03
Ar 1344  0.3251338E+02  0.2962715E+02  0.3495827E+02  0.4161486E+03
Ar 1345  0.2963131E+02  0.3198659E+02  0.3557122E+02  0.1694699E+03
Ar 1346  0.3136237E+00  0.3546038E+02  0.3367624E+01  0.3499775E+03
Ar 1347  0.3499547E+02  0.3232874E+02  0.2782411E+01  0.3282060E+03
Ar 1348  0.3252711E+02  0.3473540E+02  0.2236815E+01  0.1568124E+03
Ar 1349  0.3240276E+02  0.3258976E+02  0.5353883E+01  0.1925503E+03
Ar 1350  0.3497279E+02  0.3523244E+02  0.5022885E+01  0.2691625E+03
Ar 1351  0.3511175E+02  0.3252527E+02  0.7861086E+01  0.6258580E+03
Ar 1352  0.3299278E+02  0.3497467E+02  0.8574735E+01  0.1035224E+02
Ar 1353  0.3253665E+02  0.3236069E+02  0.1131001E+02  0.1282731E+03
Ar 1354  0.3502108E+02  0.3476396E+02  0.1146691E+02  0.1442765E+03
Ar 1355  0.3531193E+02  0.3211423E+02  0.1373722E+02  0.1623245E+03
Ar 1356  0.3184704E+02  0.3485717E+02  0.1377810E+02  0.5679543E+03
Ar 1357  0.3171656E+02  0.3259465E+02  0.1662231E+02  0.7179049E+03
Ar 1358  0.3518557E+02  0.3517283E+02  0.1627512E+02  0.3820372E+03
Ar 1359  0.3491255E+02  0.3257170E+02  0.1912892E+02  0.4637710E+03
Ar 1360  0.3243556E+02  0.3488830E+02  0.1939278E+02  0.1619850E+03
Ar 1361  0.3201834E+02  0.3218606E+02  0.2165305E+02  0.8363535E+03
Ar 1362  0.3500761E+02  0.3575315E+02  0.2175798E+02  0.3591638E+03
Ar 1363  0.3507535E+02  0.3247723E+02  0.2375146E+02  0.5842718E+02
Ar 1364  0.3259265E+02  0.3474121E+02  0.2449445E+02  0.8077204E+02
Ar 1365  0.3228511E+02  0.3227830E+02  0.2728123E+02  0.4921475E+03
Ar 1366  0.3507078E+02  0.3549710E+02  0.2724327E+02  0.2335401E+03
Ar 1367  0.3517452E+02  0.3235992E+02  0.2984329E+02  0.9827016E+01
Ar 1368  0.3220815E+02  0.3449885E+02  0.2969722E+02  0.2788606E+03
Ar 1369  0.3242209E+02  0.3202465E+02  0.3763516E+02  0.3075364E+03
Ar 1370  0.3505918E+02  0.3528888E+02  0.3230354E+02  0.3228661E+03
Ar 1371  0.3524988E+02  0.3226660E+02  0.3519455E+02  0.5881425E+02
Ar 1372  0.3235124E+02  0.3498425E+02  0.3522841E+02  0.6048867E+03
