        1372
Lattice="  0.3778015E+02  0.0000000E+00  0.0000000E+00  0.0000000E+00  0.3778015E+02  0.0000000E+00  0.0000000E+00  0.0000000E+00  0.3778015E+02" Properties=species:S:1:id:I:1:pos:R:3:tempK:R:1
Ar    1  0.2919429E+01  0.3448456E+02  0.1173019E+01  0.3174895E+02
Ar    2  0.1450670E+01  0.6170515E+01  0.1607842E+01  0.2392359E+03
Ar    3  0.4398058E+00  0.1550906E+01  0.4775506E+01  0.9958628E+03
Ar    4  0.3521515E+02  0.5099255E+01  0.3714545E+01  0.1101322E+04
Ar    5  0.3689348E+02  0.3753473E+02  0.7644287E+01  0.8638403E+02
Ar    6  0.5597457E+01  0.4379084E+01  0.7046026E+01  0.5369296E+03
Ar    7  0.2157171E+01  0.3629403E+02  0.7115120E+01  0.1313288E+03
Ar    8  0.1200296E+01  0.4863426E+01  0.6875650E+01  0.8495846E+03
Ar    9  0.3042030E+02  0.3590580E+02  0.1714861E+02  0.5032446E+03
Ar   10  0.8459599E+01  0.4850775E+01  0.8726961E+01  0.7105529E+03
Ar   11  0.3061770E+01  0.1512538E+01  0.1178275E+02  0.8360730E+03
Ar   12  0.2295907E+01  0.1478091E+01  0.8245715E+01  0.8385291E+03
Ar   13  0.3770407E+02  0.3663700E+02  0.1712331E+02  0.4934398E+03
Ar   14  0.6317626E+01  0.3068043E+01  0.1295194E+02  0.1330876E+03
Ar   15  0.6892493E+01  0.7282503E+01  0.1474682E+02  0.1407779E+03
Ar   16  0.2912305E+01  0.4132986E+01  0.1740922E+02  0.5343257E+03
Ar   17  0.2270691E+01  0.6411876E+00  0.2092464E+02  0.3619368E+03
Ar   18  0.3915829E+01  0.1138212E+01  0.1784854E+02  0.1383478E+03
Ar   19  0.4828052E+01  0.2347630E+01  0.2216520E+02  0.3145608E+03
Ar   20  0.1852869E+01  0.3171553E+01  0.2448952E+02  0.9751032E+02
Ar   21  0.1507810E+01  0.4413649E+01  0.2774949E+02  0.4298013E+03
Ar   22  0.7616974E+01  0.3774372E+02  0.2635053E+02  0.1439021E+03
Ar   23  0.4491170E+01  0.3653618E+02  0.2327419E+02  0.1803850E+03
Ar   24  0.2113804E+01  0.1165563E+01  0.2955505E+02  0.9667676E+03
Ar   25  0.3642590E+02  0.4165390E-01  0.3219905E+02  0.5793226E+03
Ar   26  0.5351288E+01  0.3400737E+01  0.2980147E+02  0.5019063E+03
Ar   27  0.2073072E+01  0.1081874E+01  0.3283509E+02  0.1113361E+04
Ar   28  0.9309542E+00  0.3435944E+01  0.3546766E+02  0.2419070E+03
Ar   29  0.3670770E+02  0.6021353E+01  0.3675257E+02  0.9809596E+02
Ar   30  0.1829692E+01  0.9213566E+01  0.3446691E+00  0.1373886E+03
Ar   31  0.2237440E+01  0.7221883E+01  0.4821847E+01  0.6604811E+02
Ar   32  0.4548239E+01  0.8868979E+01  0.2217197E+01  0.3673943E+03
Ar   33  0.1901601E+00  0.7397773E+01  0.9496333E+01  0.2259580E+02
Ar   34  0.1316539E+01  0.9613700E+01  0.7096912E+01  0.9683881E+02
Ar   35  0.3282621E+01  0.5625775E+01  0.1373331E+02  0.1482485E+03
Ar   36  0.2331137E+01  0.4807558E+01  0.9983513E+01  0.1469688E+03
Ar   37  0.3687320E+02  0.2232223E+01  0.1385536E+02  0.5211210E+03
Ar   38  0.3721456E+01  0.7644536E+01  0.9284879E+01  0.2512648E+03
Ar   39  0.1903228E+00  0.5687559E+01  0.1562522E+02  0.1615751E+03
Ar   40  0.3415989E+02  0.1315443E+02  0.8918968E+01  0.1014039E+04
Ar   41  0.6202852E+01  0.4210175E+01  0.1595065E+02  0.8399087E+03
Ar   42  0.5382033E+01  0.8986249E+01  0.2018467E+02  0.1957739E+03
Ar   43  0.7427607E+01  0.7087672E+01  0.1807607E+02  0.1382996E+04
Ar   44  0.2590840E+01  0.6847539E+01  0.1893413E+02  0.1071428E+04
Ar   45  0.7698422E+01  0.4450243E+01  0.2147190E+02  0.4318269E+03
Ar   46  0.4119713E+01  0.5740326E+01  0.2255356E+02  0.1739184E+03
Ar   47  0.1985087E+01  0.6850186E+01  0.2596424E+02  0.8099473E+03
Ar   48  0.3637322E+02  0.7577364E+01  0.2647267E+02  0.4385181E+03
Ar   49  0.3608828E+02  0.4684430E+01  0.2410118E+02  0.1285472E+03
Ar   50  0.4435498E+01  0.9287587E+01  0.2736384E+02  0.1094842E+03
Ar   51  0.3715672E+00  0.7032822E+01  0.2258270E+02  0.1256686E+03
Ar   52  0.3640545E+02  0.1101298E+02  0.2794936E+02  0.4120622E+02
Ar   53  0.1619344E+01  0.6781660E+01  0.3474985E+02  0.1278660E+03
Ar   54  0.1607433E+01  0.1323127E+02  0.3103265E+02  0.1315012E+03
Ar   55  0.3817790E+01  0.4260821E+01  0.3256759E+02  0.7773851E+03
Ar   56  0.3599037E+01  0.9966896E+01  0.3218109E+02  0.1045856E+03
Ar   57  0.3679797E+01  0.1041563E+02  0.3554181E+02  0.2919689E+03
Ar   58  0.3688459E+02  0.1188081E+02  0.2325059E-01  0.6198580E+03
Ar   59  0.8049378E+00  0.1168704E+02  0.3451212E+02  0.1082057E+03
Ar   60  0.2551216E+01  0.1295240E+02  0.6697990E+01  0.6407284E+03
Ar   61  0.3718852E+02  0.1229645E+02  0.6412503E+01  0.2147753E+03
Ar   62  0.4572141E+01  0.1229710E+02  0.3990442E+01  0.4426596E+03
Ar   63  0.1071196E+01  0.1353194E+02  0.1003050E+02  0.7891147E+03
Ar   64  0.3360373E+02  0.1652008E+02  0.7206375E+01  0.7729551E+03
Ar   65  0.3110801E+02  0.1493417E+02  0.9307128E+01  0.2969328E+03
Ar   66  0.3737578E+02  0.9126437E+01  0.1437558E+02  0.9092500E+03
Ar   67  0.9552869E-01  0.5603066E+01  0.1232174E+02  0.4364959E+03
Ar   68  0.3490192E+02  0.9706914E+01  0.1207347E+02  0.9177449E+03
Ar   69  0.3719029E+02  0.1269621E+02  0.1568090E+02  0.2827400E+03
Ar   70  0.8885782E+00  0.1003160E+02  0.1127959E+02  0.1548637E+04
Ar   71  0.2316869E+01  0.1069210E+02  0.1787022E+02  0.5823381E+03
Ar   72  0.3616385E+02  0.1333909E+02  0.1194175E+02  0.2631329E+03
Ar   73  0.3393106E+02  0.9412383E+01  0.2112649E+02  0.6158939E+03
Ar   74  0.1022957E+01  0.9479815E+01  0.2055908E+02  0.4540935E+03
Ar   75  0.3372682E+00  0.1256640E+02  0.2311642E+02  0.1769322E+03
Ar   76  0.3565557E+02  0.1475361E+02  0.1881832E+02  0.2222806E+03
Ar   77  0.3542557E+02  0.1065456E+02  0.2469167E+02  0.7181892E+03
Ar   78  0.3688857E+01  0.1336208E+02  0.2536936E+02  0.2482841E+03
Ar   79  0.1095101E+01  0.1606194E+02  0.2516197E+02  0.3764849E+03
Ar   80  0.3754991E+02  0.1595041E+02  0.2969488E+02  0.1677406E+02
Ar   81  0.3579856E+02  0.1356700E+02  0.3374016E+02  0.4017024E+03
Ar   82  0.7179799E+00  0.1604680E+02  0.3296420E+02  0.1314997E+03
Ar   83  0.2543577E+01  0.1550511E+02  0.3637242E+02  0.4025772E+03
Ar   84  0.3361307E+02  0.1105037E+02  0.3944166E+00  0.3282140E+03
Ar   85  0.3510056E+02  0.1662811E+02  0.3209496E+02  0.1481245E+03
Ar   86  0.4395164E+01  0.1585332E+02  0.5755504E+01  0.3167270E+03
Ar   87  0.1423263E+00  0.1297437E+02  0.2910577E+01  0.1054116E+04
Ar   88  0.1772815E+01  0.1775409E+02  0.2665491E+01  0.1421096E+03
Ar   89  0.2071775E+00  0.1604925E+02  0.5999183E+01  0.6512540E+03
Ar   90  0.2325179E+01  0.1864620E+02  0.6190634E+01  0.1385982E+03
Ar   91  0.4377497E+01  0.1442279E+02  0.1149423E+02  0.3553712E+03
Ar   92  0.7830623E+00  0.1657317E+02  0.1137836E+02  0.3658180E+03
Ar   93  0.3375762E+02  0.1590518E+02  0.1082703E+02  0.1781664E+03
Ar   94  0.1731194E+01  0.1907547E+02  0.9415419E+01  0.1413991E+04
Ar   95  0.2737099E+01  0.1435176E+02  0.1685994E+02  0.6827779E+02
Ar   96  0.3731246E+02  0.2166046E+02  0.1040523E+02  0.4991765E+03
Ar   97  0.3495518E+02  0.1946170E+02  0.1217942E+02  0.6827496E+02
Ar   98  0.3751217E+02  0.1631041E+02  0.1682032E+02  0.1112766E+02
Ar   99  0.1099699E+01  0.1346718E+02  0.1951880E+02  0.1416092E+03
Ar  100  0.3686705E+02  0.1941435E+02  0.1490875E+02  0.7577516E+03
Ar  101  0.3559207E+02  0.1587125E+02  0.1413458E+02  0.2733688E+03
Ar  102  0.1805717E+01  0.1702234E+02  0.1958678E+02  0.6723287E+03
Ar  103  0.3252970E+01  0.1498091E+02  0.2199906E+02  0.3751892E+03
Ar  104  0.3163589E+02  0.1330413E+02  0.2461366E+02  0.2985877E+03
Ar  105  0.3754558E+02  0.1573566E+02  0.2190949E+02  0.2377690E+03
Ar  106  0.6826706E+01  0.1933622E+02  0.3546788E+02  0.1604344E+03
Ar  107  0.5659738E+01  0.2117542E+02  0.3261803E+02  0.1528436E+03
Ar  108  0.7397655E+01  0.2479799E+02  0.2757995E+02  0.7752087E+03
Ar  109  0.3634581E+02  0.1865797E+02  0.3465560E+02  0.8344690E+02
Ar  110  0.3905308E+01  0.1970883E+02  0.2978419E+02  0.3300481E+03
Ar  111  0.3727335E+02  0.1499790E+02  0.3616596E+02  0.3610137E+03
Ar  112  0.3429672E+02  0.1628156E+02  0.3609259E+02  0.3999751E+03
Ar  113  0.1349536E+01  0.2120264E+02  0.2236301E+01  0.5396865E+03
Ar  114  0.2405322E+01  0.2367882E+02  0.2604614E+00  0.2716373E+03
Ar  115  0.1687274E+01  0.2507543E+02  0.3608355E+01  0.4517202E+03
Ar  116  0.3649854E+02  0.2694571E+02  0.2646166E+01  0.5071763E+03
Ar  117  0.3522594E+02  0.2267714E+02  0.3125400E+01  0.4242144E+03
Ar  118  0.6761731E+01  0.2344680E+02  0.7197894E+01  0.3109095E+03
Ar  119  0.3551961E+01  0.2188826E+02  0.7977113E+01  0.6007711E+03
Ar  120  0.7080005E+00  0.2425858E+02  0.8875038E+01  0.9645444E+02
Ar  121  0.7448037E+00  0.2197381E+02  0.5892588E+01  0.5406242E+03
Ar  122  0.3906477E+01  0.2125952E+02  0.1123940E+02  0.1084758E+03
Ar  123  0.2152556E+01  0.1998082E+02  0.1344740E+02  0.2723399E+03
Ar  124  0.1556770E+01  0.2353882E+02  0.1271345E+02  0.3702627E+03
Ar  125  0.3246270E+01  0.2322088E+02  0.1667386E+02  0.3402775E+03
Ar  126  0.3427016E+02  0.2386101E+02  0.2000477E+02  0.7825598E+03
Ar  127  0.3719494E+02  0.1947950E+02  0.1882080E+02  0.7696800E+03
Ar  128  0.3273460E+02  0.2874072E+02  0.1600848E+02  0.7234734E+02
Ar  129  0.3495489E+02  0.2237628E+02  0.2320866E+02  0.5024324E+03
Ar  130  0.3763469E+02  0.2245281E+02  0.2118510E+02  0.2664231E+03
Ar  131  0.3911139E+01  0.2001859E+02  0.2288843E+02  0.8902459E+02
Ar  132  0.4639751E+00  0.2179076E+02  0.2482943E+02  0.1193671E+04
Ar  133  0.9450936E+00  0.1913198E+02  0.2218497E+02  0.1033077E+04
Ar  134  0.3209552E+01  0.2237373E+02  0.2783151E+02  0.1874558E+03
Ar  135  0.8796929E+00  0.2673240E+02  0.3220685E+02  0.1909555E+03
Ar  136  0.8017565E+00  0.2231947E+02  0.3155786E+02  0.5573631E+03
Ar  137  0.3693124E+02  0.2258930E+02  0.3468916E+02  0.5978740E+03
Ar  138  0.2551705E+01  0.2482211E+02  0.3421308E+02  0.4542133E+03
Ar  139  0.9409004E+00  0.1844179E+02  0.3724854E+02  0.1426851E+03
Ar  140  0.3659936E+02  0.2375573E+02  0.2827813E+00  0.1222830E+03
Ar  141  0.3602967E+02  0.3024717E+02  0.1424219E+01  0.1499310E+03
Ar  142  0.4220683E+01  0.2985610E+02  0.9391791E+00  0.1938434E+03
Ar  143  0.3814541E+01  0.2786025E+02  0.3628906E+01  0.3153480E+03
Ar  144  0.1279016E+01  0.3026562E+02  0.3559323E+01  0.2886934E+03
Ar  145  0.3793162E+01  0.2524943E+02  0.6576202E+01  0.2868082E+03
Ar  146  0.7139336E+01  0.2767220E+02  0.5660465E+01  0.3665082E+02
Ar  147  0.4585697E+01  0.2490235E+02  0.9731345E+01  0.2812397E+03
Ar  148  0.3245879E+01  0.2937508E+02  0.6592780E+01  0.6401684E+03
Ar  149  0.3399282E+02  0.3025607E+02  0.1022728E+02  0.2847773E+03
Ar  150  0.2337253E+01  0.2729857E+02  0.8653598E+01  0.9132717E+03
Ar  151  0.1016609E+01  0.2542981E+02  0.1922751E+02  0.4352499E+03
Ar  152  0.3686468E+02  0.2772077E+02  0.1100006E+02  0.4205219E+02
Ar  153  0.3092881E+02  0.2709541E+02  0.1156120E+02  0.5971513E+03
Ar  154  0.3607229E+02  0.2553178E+02  0.1395313E+02  0.2167780E+03
Ar  155  0.8313084E+01  0.2638068E+02  0.2068503E+02  0.1187159E+03
Ar  156  0.3420871E+02  0.2835449E+02  0.1297367E+02  0.5939773E+03
Ar  157  0.3695860E+02  0.2532039E+02  0.2300360E+02  0.1934430E+03
Ar  158  0.3021972E+01  0.2381259E+02  0.2219210E+02  0.1671102E+03
Ar  159  0.2131834E+01  0.2518297E+02  0.2556501E+02  0.3632836E+03
Ar  160  0.1975107E+01  0.2881935E+02  0.2501355E+02  0.2430170E+02
Ar  161  0.2252270E+01  0.2537397E+02  0.2960964E+02  0.3451843E+03
Ar  162  0.4110698E+00  0.3163666E+02  0.2464415E+02  0.7467167E+02
Ar  163  0.4671129E+01  0.2991162E+02  0.2693804E+02  0.5154782E+03
Ar  164  0.3338372E+00  0.3022188E+02  0.3178110E+02  0.1023479E+04
Ar  165  0.5291578E+01  0.2796760E+02  0.3334127E+02  0.2887545E+03
Ar  166  0.5071930E+01  0.2402522E+02  0.3096440E+02  0.8205195E+03
Ar  167  0.3582224E+01  0.3033278E+02  0.3512522E+02  0.9775608E+03
Ar  168  0.1202698E+01  0.3561622E+02  0.3337836E+02  0.2816580E+03
Ar  169  0.3752544E+02  0.3316524E+02  0.3372427E+01  0.1695463E+03
Ar  170  0.6407142E+01  0.3604889E+02  0.3566164E+02  0.3650469E+03
Ar  171  0.3573422E+01  0.3325030E+02  0.6630513E+01  0.6275344E+03
Ar  172  0.3731733E+02  0.3470604E+02  0.2513292E+00  0.2030365E+03
Ar  173  0.3753831E+02  0.3309613E+02  0.6811258E+01  0.3744968E+02
Ar  174  0.6077112E+01  0.3530681E+02  0.3635985E+01  0.2652188E+03
Ar  175  0.4892779E+01  0.3202861E+02  0.9499396E+01  0.5342519E+03
Ar  176  0.2072381E+01  0.3391102E+02  0.9920904E+01  0.2641177E+03
Ar  177  0.3709756E-01  0.3070311E+02  0.1202584E+02  0.1947225E+03
Ar  178  0.3340687E+01  0.3205169E+02  0.1345644E+02  0.1176214E+03
Ar  179  0.2264693E+01  0.3452761E+02  0.1521488E+02  0.5248958E+03
Ar  180  0.3617232E+02  0.3520489E+02  0.1411797E+02  0.3399098E+03
Ar  181  0.3420600E+02  0.3167931E+02  0.1337961E+02  0.1647287E+03
Ar  182  0.4090711E+01  0.3162092E+02  0.1706907E+02  0.8092724E+02
Ar  183  0.2045758E+01  0.2840816E+02  0.2144525E+02  0.5041506E+01
Ar  184  0.1833442E+01  0.4433262E+00  0.1493130E+02  0.2279900E+03
Ar  185  0.3726962E+02  0.3165899E+02  0.2093250E+02  0.1955180E+03
Ar  186  0.2956296E+01  0.3561859E+02  0.1834305E+02  0.2104031E+03
Ar  187  0.3030092E+01  0.3209380E+02  0.2038622E+02  0.2084433E+03
Ar  188  0.1153871E+00  0.3611242E+02  0.2495726E+02  0.1581853E+03
Ar  189  0.3548394E+02  0.3321021E+02  0.2542627E+02  0.6713329E+03
Ar  190  0.3284728E+01  0.3367349E+02  0.2444438E+02  0.6289297E+03
Ar  191  0.4744271E+01  0.3256696E+02  0.2899601E+02  0.7539930E+03
Ar  192  0.1454980E+01  0.3177661E+02  0.2777026E+02  0.4018739E+03
Ar  193  0.2821782E+01  0.3533876E+02  0.2715791E+02  0.4787201E+03
Ar  194  0.4393319E+01  0.3580113E+02  0.3183068E+02  0.3198424E+02
Ar  195  0.3298963E+01  0.3257226E+02  0.3217488E+02  0.7017729E+03
Ar  196  0.3369023E+02  0.3569416E+02  0.3707052E+02  0.1210504E+03
Ar  197  0.2160252E+01  0.5997776E+00  0.1424048E+01  0.7995491E+03
Ar  198  0.7700446E+01  0.1540348E+01  0.3720088E+02  0.9446020E+02
Ar  199  0.1263001E+02  0.1180373E+01  0.6661247E+01  0.6998742E+02
Ar  200  0.2891063E+01  0.3603939E+01  0.2780301E+01  0.1165931E+03
Ar  201  0.4206872E+01  0.1525014E+01  0.5120535E+01  0.6378873E+03
Ar  202  0.7526687E+01  0.7441228E+01  0.5746795E+01  0.4156496E+03
Ar  203  0.9856550E+01  0.3475543E+02  0.8950468E+01  0.1118480E+04
Ar  204  0.7929811E+01  0.2170328E+01  0.5273203E+01  0.5565259E+02
Ar  205  0.5644410E+01  0.2261488E+01  0.9897392E+01  0.1042087E+03
Ar  206  0.1146428E+02  0.5590192E+01  0.1070196E+02  0.5291975E+03
Ar  207  0.1114535E+02  0.3652442E+02  0.1219859E+02  0.1070002E+03
Ar  208  0.7508470E+01  0.1399697E+00  0.1202069E+02  0.4833180E+03
Ar  209  0.9328212E+00  0.3625434E+02  0.1241451E+02  0.3722380E+03
Ar  210  0.6263205E+01  0.7974975E+00  0.1536353E+02  0.6901785E+03
Ar  211  0.4802823E+01  0.3637401E+02  0.1386849E+02  0.2095264E+03
Ar  212  0.3995048E+01  0.7762120E+01  0.1641048E+02  0.8588472E+03
Ar  213  0.9127935E+01  0.3552625E+02  0.1830966E+02  0.2666063E+03
Ar  214  0.5473032E+01  0.4150087E+01  0.1927012E+02  0.4113104E+03
Ar  215  0.8072587E+01  0.9561886E+00  0.2192783E+02  0.4701838E+03
Ar  216  0.9029767E+01  0.5872371E+01  0.2480590E+02  0.6765611E+02
Ar  217  0.1025800E+02  0.3666791E+02  0.2432148E+02  0.9599180E+03
Ar  218  0.6709159E+01  0.8052593E+01  0.3073246E+02  0.8519752E+02
Ar  219  0.6891201E+01  0.3042123E+00  0.3032522E+02  0.7108628E+03
Ar  220  0.3114343E+00  0.3646247E+01  0.3124326E+02  0.1925917E+03
Ar  221  0.3747593E+01  0.8373306E+00  0.2628766E+02  0.7119068E+03
Ar  222  0.6288867E+01  0.4258098E+01  0.3499858E+02  0.7623795E+03
Ar  223  0.6630984E+01  0.2955093E+01  0.2053756E+01  0.6172113E+03
Ar  224  0.5416290E+01  0.7411694E+00  0.3368217E+02  0.9592453E+03
Ar  225  0.4185691E+01  0.2614846E+01  0.3694326E+02  0.7275399E+03
Ar  226  0.4870687E+01  0.5736488E+01  0.3774206E+02  0.1881550E+03
Ar  227  0.5166830E+01  0.6101240E+01  0.3933337E+01  0.2615478E+03
Ar  228  0.4574684E+01  0.9249333E+01  0.6137100E+01  0.3555989E+03
Ar  229  0.5981028E+01  0.5649232E+01  0.1082353E+02  0.4347752E+03
Ar  230  0.1032694E+02  0.8727211E+01  0.3714248E+02  0.9684743E+03
Ar  231  0.7147754E+01  0.8888095E+01  0.9255136E+01  0.1946174E+03
Ar  232  0.4016690E+01  0.1091517E+02  0.8725412E+01  0.1491374E+03
Ar  233  0.1027045E+02  0.1036811E+02  0.1045979E+02  0.1318449E+03
Ar  234  0.1163697E+02  0.1038915E+02  0.1371131E+02  0.1101639E+04
Ar  235  0.8651103E+01  0.7610649E+01  0.1185378E+02  0.1970741E+03
Ar  236  0.9534176E+01  0.1319024E+02  0.1274524E+02  0.1828208E+03
Ar  237  0.4317870E+01  0.9009543E+01  0.1294385E+02  0.1807761E+03
Ar  238  0.8055458E+01  0.1031443E+02  0.1378741E+02  0.1193117E+04
Ar  239  0.9383649E+01  0.7822563E+01  0.2163705E+02  0.6088637E+03
Ar  240  0.1013194E+02  0.5311355E+01  0.1775244E+02  0.8319497E+02
Ar  241  0.3450630E+01  0.9010178E+01  0.2334489E+02  0.4186434E+03
Ar  242  0.5814762E+01  0.1086288E+02  0.2493022E+02  0.2991020E+03
Ar  243  0.6026777E+01  0.7372847E+01  0.2469122E+02  0.2492914E+03
Ar  244  0.7675892E+00  0.1005949E+02  0.2540802E+02  0.6067309E+03
Ar  245  0.7653469E+01  0.6585211E+01  0.2745087E+02  0.8309012E+03
Ar  246  0.1034049E+02  0.1252098E+02  0.2804757E+02  0.1179659E+02
Ar  247  0.8186185E+01  0.9942412E+01  0.2757094E+02  0.4827464E+03
Ar  248  0.1659166E+01  0.9718655E+01  0.2920697E+02  0.5120073E+03
Ar  249  0.3446057E+01  0.6152241E+01  0.2952503E+02  0.1744193E+03
Ar  250  0.9794815E+01  0.1255563E+02  0.3528412E+02  0.1555660E+03
Ar  251  0.7160107E+01  0.8585108E+01  0.3715493E+02  0.1087665E+03
Ar  252  0.4656424E+01  0.7346969E+01  0.3407523E+02  0.8767281E+03
Ar  253  0.8043078E+01  0.8958522E+01  0.2728787E+01  0.9366231E+02
Ar  254  0.7959272E+01  0.1456774E+02  0.7797820E+00  0.6666873E+03
Ar  255  0.5822853E+01  0.1321428E+02  0.3598723E+02  0.3967429E+03
Ar  256  0.2899196E+01  0.1230729E+02  0.4161388E+00  0.1318873E+04
Ar  257  0.8967764E+01  0.1400204E+02  0.4784692E+01  0.2872106E+03
Ar  258  0.6607105E+01  0.1154809E+02  0.9941431E+00  0.2037933E+03
Ar  259  0.1137959E+02  0.9567275E+01  0.5462757E+01  0.2173881E+03
Ar  260  0.7296173E+01  0.1141734E+02  0.5951641E+01  0.4179987E+03
Ar  261  0.6362560E+01  0.1151842E+02  0.1124049E+02  0.1720108E+03
Ar  262  0.9817941E+01  0.1358290E+02  0.8859560E+01  0.1704724E+03
Ar  263  0.8853393E+01  0.1546947E+02  0.1498344E+02  0.2334642E+02
Ar  264  0.5582931E+01  0.1429988E+02  0.1487225E+02  0.3684345E+03
Ar  265  0.6613206E+01  0.1054658E+02  0.1656189E+02  0.5040242E+03
Ar  266  0.1058173E+02  0.1276297E+02  0.1647305E+02  0.4075605E+03
Ar  267  0.7347177E+01  0.1078055E+02  0.2214944E+02  0.1646978E+03
Ar  268  0.3484307E+02  0.1056305E+02  0.1803309E+02  0.8344999E+03
Ar  269  0.3531215E+01  0.1187873E+02  0.2194436E+02  0.1511061E+03
Ar  270  0.5021645E+01  0.1234681E+02  0.1890664E+02  0.3242558E+03
Ar  271  0.4179828E+01  0.1353221E+02  0.2901383E+02  0.5663319E+02
Ar  272  0.3040587E+01  0.1655459E+02  0.2815152E+02  0.2580992E+03
Ar  273  0.9934341E+00  0.1326679E+02  0.2743155E+02  0.1504413E+03
Ar  274  0.1088704E+02  0.1433389E+02  0.2473839E+02  0.3480251E+03
Ar  275  0.6159635E+01  0.1130571E+02  0.2984367E+02  0.7009409E+02
Ar  276  0.3937823E+01  0.1565863E+02  0.3125897E+02  0.2962005E+03
Ar  277  0.5180553E+01  0.1285595E+02  0.3255328E+02  0.1164009E+04
Ar  278  0.7764185E+01  0.1459562E+02  0.2959022E+02  0.2217850E+03
Ar  279  0.7156098E+01  0.9673447E+01  0.3359792E+02  0.8114421E+03
Ar  280  0.3539029E+01  0.1492927E+02  0.2167259E+01  0.7196159E+02
Ar  281  0.3648294E+02  0.1577839E+02  0.8794303E+01  0.9440858E+03
Ar  282  0.8204321E+01  0.1836454E+02  0.5569565E+00  0.2134540E+02
Ar  283  0.4819247E+01  0.1735298E+02  0.1565180E-01  0.4011684E+03
Ar  284  0.4017854E+01  0.2072738E+02  0.3806101E+01  0.1390662E+03
Ar  285  0.6493055E+01  0.1368953E+02  0.8645808E+01  0.1908652E+03
Ar  286  0.6715024E+01  0.1691847E+02  0.3657914E+01  0.1737348E+03
Ar  287  0.3500990E+01  0.1550575E+02  0.8710892E+01  0.1026014E+03
Ar  288  0.5293923E+01  0.1793163E+02  0.1073476E+02  0.2087881E+03
Ar  289  0.2173696E+01  0.1166224E+02  0.1441040E+02  0.4551195E+03
Ar  290  0.1116642E+02  0.1670851E+02  0.7204270E+01  0.4351230E+03
Ar  291  0.7430311E+01  0.1557700E+02  0.1165475E+02  0.1071417E+04
Ar  292  0.4831206E+01  0.1812932E+02  0.1403345E+02  0.3133129E+03
Ar  293  0.5348176E+01  0.2123016E+02  0.1540241E+02  0.3728184E+03
Ar  294  0.7746508E+01  0.1887180E+02  0.1563871E+02  0.2424654E+03
Ar  295  0.9041269E+01  0.1767435E+02  0.1839003E+02  0.8875877E+02
Ar  296  0.5372789E+01  0.1736526E+02  0.2029795E+02  0.1774055E+03
Ar  297  0.5081334E+01  0.1667676E+02  0.2386002E+02  0.1801015E+03
Ar  298  0.9865332E+01  0.1764916E+02  0.2560737E+02  0.5192316E+03
Ar  299  0.1310462E+02  0.1363358E+02  0.2198814E+02  0.2804338E+02
Ar  300  0.3691333E+01  0.1948655E+02  0.2616777E+02  0.6183058E+03
Ar  301  0.7250222E+01  0.1421403E+02  0.2585625E+02  0.3573877E+03
Ar  302  0.7211716E+01  0.2091753E+02  0.2596493E+02  0.4853586E+03
Ar  303  0.7137434E+01  0.1782595E+02  0.3192535E+02  0.1555043E+02
Ar  304  0.6465074E+01  0.1723641E+02  0.2766574E+02  0.2027175E+03
Ar  305  0.2031676E+01  0.1899199E+02  0.3317520E+02  0.3103578E+03
Ar  306  0.6833077E+01  0.2126130E+02  0.2932364E+02  0.8333099E+03
Ar  307  0.1003247E+02  0.2062663E+02  0.3683591E+02  0.1506157E+03
Ar  308  0.5208880E+01  0.1646952E+02  0.3466800E+02  0.8252692E+03
Ar  309  0.9592456E+01  0.2195346E+02  0.2062393E+01  0.9474559E+03
Ar  310  0.8067465E+01  0.2431335E+02  0.3142860E-01  0.1215901E+03
Ar  311  0.1131166E+02  0.2110154E+02  0.4783740E+01  0.6799274E+02
Ar  312  0.8336829E+01  0.2432921E+02  0.4223158E+01  0.4699557E+02
Ar  313  0.5441094E+01  0.1871279E+02  0.7160471E+01  0.1039095E+03
Ar  314  0.7260256E+01  0.2079705E+02  0.4460737E+01  0.1944859E+03
Ar  315  0.9413637E+01  0.1948956E+02  0.7191612E+01  0.2816778E+03
Ar  316  0.6892659E+01  0.2069528E+02  0.9165048E+01  0.8633600E+02
Ar  317  0.6511210E+01  0.2331353E+02  0.1295078E+02  0.3810029E+02
Ar  318  0.9854125E+01  0.2162323E+02  0.1099455E+02  0.1177931E+04
Ar  319  0.7086298E+01  0.2023002E+02  0.1248359E+02  0.1788630E+03
Ar  320  0.1576231E+01  0.2608333E+02  0.1573333E+02  0.7954171E+03
Ar  321  0.5427136E+01  0.2395801E+02  0.1949809E+02  0.5246560E+03
Ar  322  0.1091338E+02  0.2227037E+02  0.1443225E+02  0.3448773E+03
Ar  323  0.8436241E+01  0.2206268E+02  0.1702199E+02  0.6593934E+03
Ar  324  0.8559786E+01  0.2719047E+02  0.1735815E+02  0.1605981E+03
Ar  325  0.2862880E+01  0.2116739E+02  0.1937480E+02  0.1172305E+03
Ar  326  0.6694115E+01  0.2190761E+02  0.2200203E+02  0.4576729E+03
Ar  327  0.6436744E+01  0.2018921E+02  0.1887426E+02  0.3042430E+03
Ar  328  0.4906874E+01  0.2357952E+02  0.2497780E+02  0.5566831E+03
Ar  329  0.1000165E+02  0.2300216E+02  0.2794864E+02  0.7322694E+03
Ar  330  0.8610327E+01  0.2418907E+02  0.2457871E+02  0.3998392E+03
Ar  331  0.5393482E+01  0.2334720E+02  0.3582797E+02  0.2599484E+03
Ar  332  0.3685101E+02  0.2180722E+02  0.2866586E+02  0.4700396E+02
Ar  333  0.2424615E+01  0.2099841E+02  0.3594157E+02  0.8524189E+03
Ar  334  0.4771029E+01  0.2623135E+02  0.3748575E+02  0.1257415E+03
Ar  335  0.1227335E+02  0.1906656E+02  0.3067113E+02  0.3198961E+03
Ar  336  0.5648812E+01  0.2131162E+02  0.8114229E+00  0.3379493E+03
Ar  337  0.5182025E+01  0.2411862E+02  0.3134869E+01  0.3425542E+03
Ar  338  0.8523886E+01  0.3531684E+02  0.1355159E+01  0.1216793E+03
Ar  339  0.1055748E+02  0.2711892E+02  0.3648697E+02  0.1093954E+03
Ar  340  0.7597856E+01  0.3189058E+02  0.3253751E+01  0.6937375E+03
Ar  341  0.6850525E+01  0.2752076E+02  0.2153473E+01  0.2783386E+03
Ar  342  0.9489297E+01  0.2865487E+02  0.7232470E+01  0.3706491E+03
Ar  343  0.9332330E+01  0.2554687E+02  0.9016457E+01  0.4873295E+02
Ar  344  0.6485841E+01  0.2791485E+02  0.9080296E+01  0.3528990E+03
Ar  345  0.3601500E+01  0.2591907E+02  0.1277747E+02  0.6045767E+03
Ar  346  0.6455213E+01  0.2744952E+02  0.1241689E+02  0.2645417E+03
Ar  347  0.6139856E+01  0.2460391E+02  0.1627447E+02  0.2033704E+03
Ar  348  0.3660054E+02  0.2880531E+02  0.1542946E+02  0.7576023E+03
Ar  349  0.3776759E+01  0.2696923E+02  0.1841208E+02  0.2629873E+03
Ar  350  0.5911030E+01  0.2849346E+02  0.1570166E+02  0.5878882E+02
Ar  351  0.4825172E+01  0.2699057E+02  0.2330338E+02  0.2465109E+03
Ar  352  0.6363362E+01  0.2924405E+02  0.1882916E+02  0.2081995E+03
Ar  353  0.4286511E+01  0.2664683E+02  0.2729002E+02  0.1583421E+04
Ar  354  0.7830544E+01  0.2934642E+02  0.2231830E+02  0.6173759E+03
Ar  355  0.7447322E+01  0.2745692E+02  0.2506631E+02  0.2241881E+03
Ar  356  0.4907424E+01  0.3071621E+02  0.2311209E+02  0.4055364E+03
Ar  357  0.6669009E+01  0.2695229E+02  0.3022381E+02  0.2768187E+03
Ar  358  0.9853090E+01  0.3428041E+02  0.2810392E+02  0.3599817E+03
Ar  359  0.8228625E+01  0.2555632E+02  0.3435755E+02  0.1001823E+03
Ar  360  0.3184776E+01  0.2896674E+02  0.3047095E+02  0.2807653E+03
Ar  361  0.1730931E+01  0.2679370E+02  0.2194210E+00  0.2586314E+03
Ar  362  0.9944133E+01  0.2920239E+02  0.3225860E+02  0.1555717E+03
Ar  363  0.8612034E+01  0.2236237E+02  0.3368033E+02  0.3608045E+03
Ar  364  0.7012381E+01  0.2922151E+02  0.3650608E+02  0.7334683E+03
Ar  365  0.3219751E+01  0.3350002E+02  0.3546624E+02  0.5336829E+03
Ar  366  0.8718153E+01  0.3084941E+00  0.2730027E+01  0.1576743E+03
Ar  367  0.7247008E+01  0.3405177E+02  0.6962956E+01  0.6910444E+03
Ar  368  0.5190940E+01  0.3744452E+02  0.7402620E+00  0.1431958E+03
Ar  369  0.6397903E+01  0.3077555E+02  0.6341164E+01  0.1260779E+02
Ar  370  0.8465194E+01  0.3157993E+02  0.9406586E+01  0.1061945E+03
Ar  371  0.6302658E+01  0.3075204E+02  0.1249371E+02  0.3904692E+03
Ar  372  0.4482866E+01  0.3612417E+02  0.1064599E+02  0.7185835E+02
Ar  373  0.3628417E+01  0.2937991E+02  0.1080298E+02  0.2938003E+03
Ar  374  0.5754838E+01  0.3743163E+02  0.7609067E+01  0.3975701E+02
Ar  375  0.1176193E+02  0.3091793E+02  0.7896810E+01  0.4622764E+03
Ar  376  0.7310373E+01  0.3159682E+02  0.1634404E+02  0.1144685E+04
Ar  377  0.2190186E+01  0.2918392E+02  0.1494305E+02  0.2038020E+03
Ar  378  0.9341630E+01  0.3205913E+02  0.1354713E+02  0.1432819E+03
Ar  379  0.8822079E+01  0.3515367E+02  0.1475481E+02  0.1828500E+03
Ar  380  0.5950923E+01  0.3504193E+02  0.1698355E+02  0.2716533E+03
Ar  381  0.1536524E+01  0.3001230E+02  0.1840794E+02  0.2781456E+02
Ar  382  0.6690074E+01  0.3290897E+02  0.2019418E+02  0.4851334E+03
Ar  383  0.9993531E+01  0.3300123E+02  0.2415296E+02  0.5313850E+03
Ar  384  0.6147568E+01  0.3682693E+02  0.1969885E+02  0.2040268E+03
Ar  385  0.7212360E+01  0.3160871E+02  0.2596597E+02  0.1691000E+03
Ar  386  0.7589278E+01  0.3524551E+02  0.2291392E+02  0.3387172E+03
Ar  387  0.8301811E+01  0.3126783E+02  0.2941468E+02  0.2095008E+03
Ar  388  0.5981746E+01  0.3479713E+02  0.2627790E+02  0.1161017E+04
Ar  389  0.6307509E+01  0.3061169E+02  0.3191084E+02  0.2324328E+03
Ar  390  0.1091814E+02  0.3703203E+02  0.3620098E+02  0.3409590E+03
Ar  391  0.3959137E+01  0.3205277E+02  0.3627798E+01  0.3126188E+03
Ar  392  0.2303404E+01  0.3702396E+02  0.3617237E+02  0.2369081E+03
Ar  393  0.1089075E+02  0.4699111E+01  0.6493643E+01  0.6063405E+03
Ar  394  0.1208557E+02  0.5723961E+01  0.4150841E+00  0.2485525E+03
Ar  395  0.1002853E+02  0.3629840E+02  0.5623735E+01  0.4559777E+03
Ar  396  0.8584158E+01  0.5895943E+01  0.9796422E+00  0.2140897E+03
Ar  397  0.1273159E+02  0.1851367E+01  0.1059319E+02  0.5203038E+03
Ar  398  0.1588979E+02  0.1735196E+01  0.5013236E+01  0.9530689E+02
Ar  399  0.1527197E+02  0.3411481E+02  0.1175679E+02  0.3110970E+03
Ar  400  0.1339728E+02  0.8093596E+01  0.9702982E+01  0.3312167E+03
Ar  401  0.9368922E+01  0.1023095E+01  0.8720589E+01  0.1490412E+03
Ar  402  0.1312259E+02  0.3453950E+01  0.1442008E+02  0.7772758E+03
Ar  403  0.1580892E+02  0.2088659E+01  0.1321352E+02  0.1681640E+03
Ar  404  0.9544674E+01  0.2760997E+01  0.1162647E+02  0.1895130E+03
Ar  405  0.1024559E+02  0.1220883E+01  0.1477106E+02  0.9316702E+02
Ar  406  0.1900884E+02  0.4041569E+01  0.1966167E+02  0.3205402E+03
Ar  407  0.1242390E+02  0.3584704E+02  0.1773563E+02  0.3201026E+03
Ar  408  0.8108108E+01  0.2061098E+01  0.1836748E+02  0.8812189E+02
Ar  409  0.1089158E+02  0.3531598E+01  0.2059292E+02  0.1403506E+03
Ar  410  0.1073943E+02  0.2392725E+00  0.2014985E+02  0.3300335E+03
Ar  411  0.1665188E+02  0.3640234E+02  0.2345605E+02  0.6797160E+02
Ar  412  0.5887132E+01  0.3171984E+01  0.2595921E+02  0.8640215E+03
Ar  413  0.1280044E+02  0.3604247E+02  0.2254870E+02  0.4290147E+03
Ar  414  0.1409809E+02  0.3637035E+02  0.2826734E+02  0.2032098E+03
Ar  415  0.9154652E+01  0.3618340E+02  0.3352370E+02  0.8287551E+03
Ar  416  0.8841682E+01  0.2264743E+01  0.3211328E+02  0.1312804E+03
Ar  417  0.1183600E+02  0.1636356E+01  0.3332202E+02  0.9087919E+03
Ar  418  0.1558688E+02  0.2525696E+01  0.3374644E+02  0.9105112E+02
Ar  419  0.1172175E+02  0.5142680E+01  0.3450544E+02  0.2474238E+03
Ar  420  0.9425399E+01  0.3821784E+01  0.3599895E+02  0.3082252E+03
Ar  421  0.1058302E+02  0.6036299E+01  0.3546539E+01  0.1937938E+03
Ar  422  0.1631760E+02  0.9629765E+01  0.1500363E-01  0.3625808E+03
Ar  423  0.1313179E+02  0.3745121E+01  0.3902318E+01  0.1109766E+03
Ar  424  0.1008604E+02  0.1161516E+02  0.1190533E+01  0.3096294E+03
Ar  425  0.1353981E+02  0.6787142E+01  0.5404649E+01  0.3721690E+03
Ar  426  0.1782592E+02  0.4471169E+01  0.5706310E+01  0.3578862E+02
Ar  427  0.1437581E+02  0.3895790E+01  0.7503052E+01  0.9148419E+02
Ar  428  0.1039902E+02  0.7675573E+01  0.8027869E+01  0.7647923E+02
Ar  429  0.1336861E+02  0.6204110E+01  0.1701931E+02  0.3096909E+02
Ar  430  0.1277547E+02  0.7416113E+01  0.1374399E+02  0.4098871E+03
Ar  431  0.1236636E+02  0.2534637E+01  0.1757403E+02  0.3573618E+03
Ar  432  0.1444456E+02  0.1143362E+02  0.1525130E+02  0.3714940E+03
Ar  433  0.1011593E+02  0.8492983E+01  0.1606297E+02  0.1272883E+03
Ar  434  0.1583822E+02  0.9189526E+01  0.1687727E+02  0.6443828E+02
Ar  435  0.8376891E+01  0.1170623E+02  0.1926206E+02  0.4453431E+03
Ar  436  0.1207490E+02  0.1003926E+02  0.1825417E+02  0.2171456E+03
Ar  437  0.9744829E+01  0.2470536E+01  0.2425892E+02  0.1709458E+03
Ar  438  0.9265084E+01  0.1063423E+02  0.2445545E+02  0.3888131E+03
Ar  439  0.1194613E+02  0.3712845E+01  0.2624859E+02  0.8680442E+03
Ar  440  0.1256145E+02  0.1148688E+02  0.2517673E+02  0.3915557E+03
Ar  441  0.1134350E+02  0.1719171E+00  0.2732325E+02  0.8296087E+02
Ar  442  0.8770751E+01  0.3308905E+01  0.2887191E+02  0.4486555E+03
Ar  443  0.1430722E+02  0.6930073E+01  0.2797183E+02  0.8278224E+03
Ar  444  0.1152855E+02  0.1272936E+02  0.3236590E+02  0.3516005E+03
Ar  445  0.8507050E+01  0.6621278E+01  0.3445187E+02  0.5494345E+02
Ar  446  0.1142980E+02  0.9514975E+01  0.3397237E+02  0.2458332E+03
Ar  447  0.1395070E+02  0.7861259E+01  0.3604945E+02  0.7365109E+03
Ar  448  0.1273031E+02  0.1123017E+02  0.3657322E+02  0.5159521E+03
Ar  449  0.1249102E+02  0.1458346E+02  0.3592846E+02  0.7665180E+03
Ar  450  0.1506534E+02  0.1334540E+02  0.8749312E+00  0.3313064E+03
Ar  451  0.1252786E+02  0.8639835E+01  0.2119436E+01  0.3879462E+03
Ar  452  0.1331860E+02  0.1575515E+02  0.4799754E+01  0.1563086E+03
Ar  453  0.1268950E+02  0.1198557E+02  0.3347829E+01  0.7299504E+03
Ar  454  0.1316889E+02  0.1242412E+02  0.1122181E+02  0.4369480E+03
Ar  455  0.1267347E+02  0.1233973E+02  0.6960692E+01  0.7601602E+03
Ar  456  0.7793950E+01  0.1654469E+02  0.7232677E+01  0.5312016E+03
Ar  457  0.1664344E+02  0.1278192E+02  0.1217341E+02  0.1709874E+03
Ar  458  0.1763305E+02  0.1252799E+02  0.8584832E+01  0.7763704E+03
Ar  459  0.2005313E+02  0.1113043E+02  0.1098260E+02  0.3135109E+03
Ar  460  0.1294974E+02  0.1423958E+02  0.1449123E+02  0.3945270E+02
Ar  461  0.3343578E+01  0.1848307E+02  0.1710267E+02  0.2959646E+03
Ar  462  0.6419996E+01  0.1536766E+02  0.1783609E+02  0.4356587E+03
Ar  463  0.1173759E+02  0.1069157E+02  0.2206589E+02  0.4285800E+03
Ar  464  0.1274320E+02  0.1686262E+02  0.1686818E+02  0.3132746E+03
Ar  465  0.1343994E+02  0.1359428E+02  0.1843302E+02  0.5287265E+02
Ar  466  0.1633771E+02  0.1261821E+02  0.2092081E+02  0.3402055E+03
Ar  467  0.1520759E+02  0.1075308E+02  0.2355458E+02  0.1152437E+04
Ar  468  0.1042913E+02  0.1401698E+02  0.2005416E+02  0.1970635E+04
Ar  469  0.7289972E+01  0.1425024E+02  0.2135292E+02  0.2880993E+03
Ar  470  0.1565304E+02  0.1399455E+02  0.2445849E+02  0.4212836E+02
Ar  471  0.1394830E+02  0.1582159E+02  0.3028345E+02  0.5703123E+03
Ar  472  0.1122779E+02  0.1597627E+02  0.2820680E+02  0.1581427E+03
Ar  473  0.8065683E+01  0.1463558E+02  0.3331836E+02  0.2797795E+03
Ar  474  0.1475176E+02  0.9976318E+01  0.3348443E+02  0.3313750E+03
Ar  475  0.1540638E+02  0.1283163E+02  0.3531405E+02  0.4950106E+02
Ar  476  0.9623383E+01  0.1660055E+02  0.3565344E+02  0.8022813E+03
Ar  477  0.1008358E+02  0.1598459E+02  0.3143735E+02  0.1850609E+03
Ar  478  0.1342524E+02  0.1982389E+02  0.3373069E+02  0.8168585E+03
Ar  479  0.1700090E+02  0.1548156E+02  0.3687595E+02  0.7405243E+03
Ar  480  0.1132319E+02  0.1480168E+02  0.1457264E+01  0.4304349E+02
Ar  481  0.1050019E+02  0.1789499E+02  0.3513510E+01  0.3756186E+03
Ar  482  0.1361688E+02  0.1904625E+02  0.5648716E+01  0.4299251E+03
Ar  483  0.1391251E+02  0.1533747E+02  0.8562661E+01  0.3262949E+03
Ar  484  0.1305485E+02  0.1908924E+02  0.9150121E+01  0.4019899E+03
Ar  485  0.1502279E+02  0.1733335E+02  0.1125194E+02  0.5220178E+03
Ar  486  0.1698642E+02  0.1666499E+02  0.8203931E+01  0.1241252E+03
Ar  487  0.1966205E+02  0.1473373E+02  0.1070282E+02  0.8709229E+03
Ar  488  0.9014218E+01  0.1794147E+02  0.1035092E+02  0.7435573E+03
Ar  489  0.1122223E+02  0.1782155E+02  0.1418270E+02  0.9302442E+03
Ar  490  0.1751286E+02  0.1648048E+02  0.1364970E+02  0.3186940E+03
Ar  491  0.1200694E+02  0.1553438E+02  0.1147261E+02  0.3282966E+03
Ar  492  0.1117662E+02  0.2024056E+02  0.1679273E+02  0.1992118E+03
Ar  493  0.1698704E+02  0.1828317E+02  0.1814789E+02  0.5175844E+03
Ar  494  0.9833990E+01  0.1659698E+02  0.2214096E+02  0.6794055E+03
Ar  495  0.1782193E+02  0.1599432E+02  0.2601668E+02  0.1084707E+03
Ar  496  0.1628245E+02  0.1609339E+02  0.2184693E+02  0.2423765E+03
Ar  497  0.1440306E+02  0.1959206E+02  0.2148590E+02  0.2740317E+03
Ar  498  0.1462673E+02  0.1645881E+02  0.2659765E+02  0.1639454E+03
Ar  499  0.1018908E+02  0.1918348E+02  0.3348719E+02  0.1641141E+03
Ar  500  0.1287740E+02  0.1808297E+02  0.2400399E+02  0.4693387E+03
Ar  501  0.8979737E+01  0.1851275E+02  0.2935329E+02  0.1206254E+03
Ar  502  0.1604245E+02  0.1820483E+02  0.3101252E+02  0.5271757E+03
Ar  503  0.1792182E+02  0.1098216E+02  0.3300607E+02  0.1097604E+03
Ar  504  0.1267593E+02  0.1820536E+02  0.3658046E+02  0.1468201E+03
Ar  505  0.1120616E+02  0.2494957E+02  0.9287058E+00  0.1772307E+03
Ar  506  0.1404945E+02  0.2527500E+02  0.3696354E+02  0.7767119E+03
Ar  507  0.1595174E+02  0.1987288E+02  0.3672257E+02  0.1925604E+03
Ar  508  0.1216296E+02  0.3025584E+02  0.2933225E+01  0.2851002E+03
Ar  509  0.1310085E+02  0.1997708E+02  0.2255751E+01  0.1061243E+04
Ar  510  0.1366296E+02  0.2658275E+02  0.2341436E+01  0.3040932E+03
Ar  511  0.1492735E+02  0.2203436E+02  0.1008945E+02  0.1682546E+03
Ar  512  0.1137254E+02  0.2537910E+02  0.5943867E+01  0.1160264E+04
Ar  513  0.1156164E+02  0.2279629E+02  0.8042980E+01  0.3308492E+03
Ar  514  0.1528194E+02  0.2522562E+02  0.9084943E+01  0.1422559E+03
Ar  515  0.1516220E+02  0.1859751E+02  0.1525674E+02  0.1527440E+03
Ar  516  0.1337499E+02  0.2397082E+02  0.1209099E+02  0.8317674E+02
Ar  517  0.1356310E+02  0.1998351E+02  0.1282417E+02  0.1275042E+03
Ar  518  0.1661681E+02  0.2505941E+02  0.1331938E+02  0.3645392E+03
Ar  519  0.1472024E+02  0.2088219E+02  0.1798690E+02  0.8574485E+02
Ar  520  0.1197652E+02  0.2617859E+02  0.2032562E+02  0.2139466E+03
Ar  521  0.7309865E+01  0.1878102E+02  0.2313468E+02  0.9325394E+03
Ar  522  0.1670008E+02  0.2277961E+02  0.2455353E+02  0.6157910E+03
Ar  523  0.1344275E+02  0.2217658E+02  0.2524839E+02  0.1533097E+03
Ar  524  0.1101161E+02  0.2662529E+02  0.2346571E+02  0.6092933E+03
Ar  525  0.1034639E+02  0.2125496E+02  0.2381486E+02  0.3939129E+03
Ar  526  0.1493095E+02  0.2470830E+02  0.3172642E+02  0.5898399E+03
Ar  527  0.1183485E+02  0.1956082E+02  0.2735855E+02  0.3061645E+03
Ar  528  0.8523742E+01  0.2440970E+02  0.3089256E+02  0.5669549E+02
Ar  529  0.1424593E+02  0.2320896E+02  0.2884973E+02  0.9561580E+02
Ar  530  0.1273186E+02  0.2827094E+02  0.3376013E+02  0.2624353E+03
Ar  531  0.1317563E+02  0.2199126E+02  0.3717482E+02  0.1634322E+03
Ar  532  0.1135983E+02  0.2436165E+02  0.3439844E+02  0.4658897E+03
Ar  533  0.6177130E+01  0.3352390E+02  0.3742472E+02  0.4434919E+03
Ar  534  0.1299034E+02  0.2885455E+02  0.5221895E-01  0.3495996E+03
Ar  535  0.1615645E+02  0.2809951E+02  0.3758466E+02  0.1336367E+03
Ar  536  0.9477023E+01  0.3034676E+02  0.1152494E+01  0.9206988E+02
Ar  537  0.9990054E+01  0.2741725E+02  0.3214920E+01  0.5181847E+03
Ar  538  0.1712504E+02  0.2913264E+02  0.6193726E+01  0.3076787E+03
Ar  539  0.1526550E+02  0.2608081E+02  0.5908757E+01  0.5375860E+03
Ar  540  0.1245644E+02  0.2697579E+02  0.9517947E+01  0.8624993E+03
Ar  541  0.9279885E+01  0.2817165E+02  0.1103508E+02  0.1654669E+03
Ar  542  0.1223950E+02  0.2993245E+02  0.1141848E+02  0.7578191E+03
Ar  543  0.1486760E+02  0.2788643E+02  0.1350383E+02  0.1209001E+03
Ar  544  0.9510853E+01  0.2548936E+02  0.1308077E+02  0.1475635E+03
Ar  545  0.1421764E+02  0.2319494E+02  0.1557067E+02  0.8495782E+03
Ar  546  0.1300832E+02  0.2621406E+02  0.1566643E+02  0.3621417E+02
Ar  547  0.1483533E+02  0.2533379E+02  0.1844525E+02  0.7872859E+02
Ar  548  0.9535095E+01  0.2285032E+02  0.2039653E+02  0.5085308E+03
Ar  549  0.1097149E+02  0.2945840E+02  0.2208424E+02  0.6934636E+03
Ar  550  0.1061786E+02  0.3256869E+02  0.1689089E+02  0.1641582E+03
Ar  551  0.1361146E+02  0.3137775E+02  0.2425330E+02  0.1432744E+04
Ar  552  0.9100932E+01  0.3091401E+02  0.1937301E+02  0.3796958E+02
Ar  553  0.1172415E+02  0.2582434E+02  0.2685713E+02  0.1455786E+03
Ar  554  0.9341096E+01  0.2830812E+02  0.2884235E+02  0.4380015E+03
Ar  555  0.1159351E+02  0.2593501E+02  0.3107770E+02  0.2142154E+03
Ar  556  0.7265817E+01  0.3461745E+02  0.3029483E+02  0.5514525E+03
Ar  557  0.1050778E+02  0.3032296E+02  0.3549180E+02  0.1661299E+03
Ar  558  0.9382739E+01  0.3290776E+02  0.3240208E+02  0.9666729E+01
Ar  559  0.1277407E+02  0.3180147E+02  0.3344086E+02  0.4363013E+03
Ar  560  0.9832544E+01  0.3360411E+02  0.3625857E+02  0.1830282E+03
Ar  561  0.6484711E+01  0.3354673E+02  0.3388548E+02  0.2204395E+03
Ar  562  0.1312237E+02  0.2610084E+01  0.3685759E+02  0.4208489E+02
Ar  563  0.1485656E+02  0.3720359E+02  0.3273100E+02  0.2678476E+03
Ar  564  0.1280983E+02  0.3446245E+02  0.7126645E+01  0.7571454E+02
Ar  565  0.1548264E+02  0.3328317E+02  0.8468141E+01  0.2286490E+03
Ar  566  0.1566088E+02  0.3713200E+02  0.7530320E+01  0.2662879E+03
Ar  567  0.1495865E+02  0.3657242E+02  0.4220389E+01  0.4235826E+02
Ar  568  0.1500068E+02  0.3155088E+02  0.5663133E+01  0.4086123E+03
Ar  569  0.1365752E+02  0.3657243E+02  0.1030551E+02  0.1838527E+03
Ar  570  0.1486743E+02  0.2948171E+02  0.8583605E+01  0.9529916E+03
Ar  571  0.1275234E+02  0.3021227E+02  0.1474173E+02  0.1145967E+03
Ar  572  0.7594993E+01  0.3457704E+02  0.1128450E+02  0.6549736E+02
Ar  573  0.9693907E+01  0.2844890E+02  0.1448772E+02  0.8560124E+03
Ar  574  0.1754039E+02  0.4902704E+00  0.1651201E+02  0.8688754E+02
Ar  575  0.1415376E+02  0.3264052E+02  0.1691743E+02  0.4010096E+03
Ar  576  0.1047354E+02  0.3429751E+02  0.2097110E+02  0.9411748E+02
Ar  577  0.1271662E+02  0.3416326E+02  0.1447209E+02  0.7039657E+03
Ar  578  0.2004731E+02  0.3346408E+02  0.2567855E+02  0.2116068E+03
Ar  579  0.1538843E+02  0.3528022E+02  0.2012792E+02  0.1754234E+03
Ar  580  0.1328911E+02  0.3219178E+02  0.2069474E+02  0.3847611E+02
Ar  581  0.1093073E+02  0.2935622E+02  0.2582914E+02  0.1869848E+03
Ar  582  0.1236472E+02  0.3414368E+02  0.2618935E+02  0.1069247E+03
Ar  583  0.1148470E+02  0.3177825E+02  0.3017719E+02  0.7747185E+03
Ar  584  0.1061664E+02  0.3717270E+02  0.3038078E+02  0.4651804E+03
Ar  585  0.1216523E+02  0.3486230E+02  0.3368557E+02  0.4599165E+03
Ar  586  0.1449998E+02  0.3707873E+02  0.3634266E+02  0.2957643E+03
Ar  587  0.1393557E+02  0.3438705E+02  0.3094305E+02  0.4202203E+03
Ar  588  0.1062560E+02  0.2588927E+01  0.9063974E+00  0.4331756E+02
Ar  589  0.1599254E+02  0.5010830E+01  0.3740760E+02  0.5511253E+03
Ar  590  0.2548605E+02  0.5633855E+01  0.2805628E+01  0.2028254E+03
Ar  591  0.1886146E+02  0.3590997E+01  0.3451976E+02  0.1898240E+03
Ar  592  0.1958795E+02  0.2097654E+01  0.4219448E+01  0.3381007E+03
Ar  593  0.1325861E+02  0.5325870E+00  0.1964899E+01  0.1320656E+03
Ar  594  0.1837136E+02  0.8930976E+00  0.6809802E+01  0.3273758E+03
Ar  595  0.2073034E+02  0.9833824E+00  0.9453373E+01  0.2259104E+02
Ar  596  0.1687742E+02  0.6723778E+00  0.1019928E+02  0.1392877E+03
Ar  597  0.1737440E+02  0.3661135E+02  0.1311878E+02  0.2907335E+03
Ar  598  0.1823826E+02  0.3284572E+01  0.9100087E+01  0.2152920E+03
Ar  599  0.2097494E+02  0.3668280E+02  0.1326794E+02  0.3271667E+02
Ar  600  0.9778726E+01  0.5316697E+01  0.1390044E+02  0.5653582E+03
Ar  601  0.1897792E+02  0.3721595E+02  0.1953494E+02  0.6213853E+03
Ar  602  0.2065618E+02  0.2539888E+01  0.1610414E+02  0.2969303E+03
Ar  603  0.2269499E+02  0.8854572E+00  0.1823839E+02  0.3305700E+03
Ar  604  0.1284489E+02  0.1517085E+01  0.2260351E+02  0.6446744E+03
Ar  605  0.1505532E+02  0.7925731E+00  0.1897838E+02  0.3338291E+03
Ar  606  0.2139391E+02  0.1702772E+01  0.2665072E+02  0.9578080E+03
Ar  607  0.2415076E+02  0.3282866E+01  0.2554265E+02  0.1890982E+03
Ar  608  0.1422900E+02  0.5478569E+00  0.2536853E+02  0.3009781E+03
Ar  609  0.1783993E+02  0.6276631E+00  0.2645972E+02  0.2973181E+03
Ar  610  0.1481550E+02  0.3438118E+01  0.2797240E+02  0.2487291E+03
Ar  611  0.2205842E+02  0.3758194E+02  0.3055521E+02  0.2336599E+03
Ar  612  0.1161756E+02  0.4221023E+01  0.3038955E+02  0.3008264E+03
Ar  613  0.1673518E+02  0.8094367E+00  0.3015448E+02  0.1987054E+03
Ar  614  0.1760559E+02  0.5553627E+01  0.2866200E+02  0.5301374E+03
Ar  615  0.2133774E+02  0.3566680E+02  0.3454468E+02  0.6053312E+02
Ar  616  0.1896659E+02  0.2303774E+00  0.3274597E+02  0.3393122E+02
Ar  617  0.1702390E+02  0.4144643E+01  0.3156854E+02  0.4281414E+03
Ar  618  0.2339744E+02  0.7777780E+01  0.4492309E+01  0.6787489E+03
Ar  619  0.2137668E+02  0.5410384E+01  0.3654462E+02  0.3297025E+03
Ar  620  0.1573282E+02  0.7040389E+01  0.2964499E+01  0.1074306E+04
Ar  621  0.2188347E+02  0.7904359E+01  0.1319699E+01  0.6456575E+02
Ar  622  0.2017127E+02  0.6941265E+01  0.4977076E+01  0.3681150E+03
Ar  623  0.2148024E+02  0.4981474E+01  0.7452192E+01  0.1218327E+04
Ar  624  0.1531938E+02  0.1023831E+02  0.8074257E+01  0.4978049E+03
Ar  625  0.1757746E+02  0.4873746E+01  0.1201469E+02  0.1042473E+03
Ar  626  0.2052765E+02  0.4480968E+01  0.1067863E+02  0.4148741E+03
Ar  627  0.1461851E+02  0.4683640E+01  0.1111724E+02  0.4757003E+03
Ar  628  0.1664484E+02  0.6667239E+01  0.1473255E+02  0.3408496E+02
Ar  629  0.1635575E+02  0.3752564E+01  0.1729288E+02  0.4907464E+03
Ar  630  0.1700689E+02  0.6999801E+01  0.1918273E+02  0.8141151E+02
Ar  631  0.1794577E+02  0.4940024E+01  0.2302403E+02  0.2496009E+03
Ar  632  0.1502215E+02  0.3805580E+01  0.2036286E+02  0.2938869E+03
Ar  633  0.1242909E+02  0.6992837E+01  0.1999305E+02  0.7997757E+02
Ar  634  0.1839834E+02  0.8165750E+01  0.2220076E+02  0.2127572E+03
Ar  635  0.1223868E+02  0.7339376E+01  0.2380236E+02  0.8926718E+03
Ar  636  0.1412022E+02  0.4586695E+01  0.2367795E+02  0.7058532E+02
Ar  637  0.1866203E+02  0.3886307E+01  0.2612532E+02  0.4765005E+03
Ar  638  0.1100404E+02  0.8377709E+01  0.2712880E+02  0.9840061E+02
Ar  639  0.1974516E+02  0.3090150E+01  0.3008829E+02  0.6056469E+02
Ar  640  0.9685121E+01  0.9730399E+01  0.3113501E+02  0.8749258E+02
Ar  641  0.9718202E+01  0.6624603E+01  0.2998618E+02  0.1009407E+03
Ar  642  0.1289358E+02  0.9673374E+01  0.2994380E+02  0.5761838E+02
Ar  643  0.1842085E+02  0.8717514E+01  0.3569687E+02  0.1736680E+03
Ar  644  0.1621020E+02  0.5873424E+01  0.3430233E+02  0.1040045E+03
Ar  645  0.1881668E+02  0.9530367E+01  0.2095608E+01  0.5854759E+03
Ar  646  0.1854166E+02  0.1355115E+02  0.2470225E+01  0.7784974E+03
Ar  647  0.1628103E+02  0.6616672E+01  0.8341116E+01  0.2445945E+03
Ar  648  0.1543547E+02  0.1647155E+02  0.2007317E+01  0.7813444E+03
Ar  649  0.1571801E+02  0.1053469E+02  0.3136053E+01  0.5505059E+03
Ar  650  0.1979105E+02  0.1691954E+02  0.3179684E+01  0.1341103E+03
Ar  651  0.2131374E+02  0.9694421E+01  0.6476320E+01  0.9949865E+03
Ar  652  0.1605319E+02  0.1370807E+02  0.5003582E+01  0.2142116E+04
Ar  653  0.1731425E+02  0.8791943E+01  0.5927666E+01  0.2564246E+03
Ar  654  0.2107692E+02  0.1291195E+02  0.8336129E+01  0.7666280E+03
Ar  655  0.1956329E+02  0.7689077E+01  0.9307309E+01  0.1225149E+04
Ar  656  0.1987980E+02  0.7882916E+01  0.1309395E+02  0.3398915E+03
Ar  657  0.1680991E+02  0.7992621E+01  0.1148090E+02  0.3050863E+03
Ar  658  0.1748205E+02  0.1017084E+02  0.1403009E+02  0.4978137E+03
Ar  659  0.1485817E+02  0.1002761E+02  0.1977770E+02  0.5576609E+02
Ar  660  0.1917318E+02  0.1475820E+02  0.1843725E+02  0.3871578E+03
Ar  661  0.1507289E+02  0.7040394E+01  0.2191470E+02  0.6893053E+03
Ar  662  0.1607976E+02  0.7963507E+01  0.2497969E+02  0.1102723E+02
Ar  663  0.1838928E+02  0.1098515E+02  0.2425526E+02  0.2762960E+03
Ar  664  0.1937213E+02  0.1408184E+02  0.2188479E+02  0.2228451E+03
Ar  665  0.1472436E+02  0.1007794E+02  0.2738726E+02  0.7450615E+03
Ar  666  0.1656810E+02  0.8304525E+01  0.3094789E+02  0.1078772E+03
Ar  667  0.1425547E+02  0.5976359E+01  0.3134108E+02  0.4016887E+03
Ar  668  0.1519198E+02  0.1222212E+02  0.3136715E+02  0.1541425E+03
Ar  669  0.1951304E+02  0.1193426E+02  0.3022163E+02  0.1406476E+03
Ar  670  0.2191407E+02  0.9933837E+01  0.3207485E+02  0.2535443E+03
Ar  671  0.2249367E+02  0.8253544E+01  0.3487940E+02  0.4799799E+03
Ar  672  0.2063153E+02  0.1234855E+02  0.3446713E+02  0.1664056E+03
Ar  673  0.1391607E+02  0.1633017E+02  0.3363828E+02  0.1480565E+03
Ar  674  0.1930689E+02  0.2082534E+02  0.3633887E+02  0.2878449E+03
Ar  675  0.2379511E+02  0.1411316E+02  0.3762408E+02  0.5406166E+03
Ar  676  0.1620031E+02  0.1987861E+02  0.3781119E+01  0.2539155E+03
Ar  677  0.1679313E+02  0.1670324E+02  0.5146343E+01  0.7928927E+02
Ar  678  0.1857222E+02  0.1908797E+02  0.1179000E+01  0.1566938E+03
Ar  679  0.1984621E+02  0.2005031E+02  0.6893633E+01  0.4863952E+03
Ar  680  0.1662994E+02  0.1982882E+02  0.8009155E+01  0.5290261E+02
Ar  681  0.1879710E+02  0.1163904E+02  0.5191547E+01  0.2567443E+03
Ar  682  0.1912822E+02  0.1828630E+02  0.1064817E+02  0.8214082E+03
Ar  683  0.2115428E+02  0.1625464E+02  0.1375420E+02  0.6579282E+03
Ar  684  0.1873832E+02  0.1899920E+02  0.1513078E+02  0.8924939E+03
Ar  685  0.1580069E+02  0.1512812E+02  0.1601269E+02  0.5774578E+03
Ar  686  0.2040835E+02  0.1776790E+02  0.1755702E+02  0.2223380E+03
Ar  687  0.1908088E+02  0.1350844E+02  0.1502827E+02  0.5333678E+03
Ar  688  0.1082520E+02  0.1969947E+02  0.2030407E+02  0.3547017E+03
Ar  689  0.1315664E+02  0.1685939E+02  0.2022496E+02  0.1954405E+03
Ar  690  0.1910649E+02  0.1762965E+02  0.2055353E+02  0.9314326E+03
Ar  691  0.1767815E+02  0.1264778E+02  0.2710384E+02  0.1019594E+04
Ar  692  0.1652831E+02  0.1903269E+02  0.2417793E+02  0.7174323E+03
Ar  693  0.1357952E+02  0.1346667E+02  0.2762942E+02  0.7874817E+02
Ar  694  0.2137508E+02  0.1849137E+02  0.2784848E+02  0.5558724E+03
Ar  695  0.1803474E+02  0.1927205E+02  0.2705039E+02  0.4538409E+03
Ar  696  0.1508379E+02  0.2002595E+02  0.2828025E+02  0.2630334E+03
Ar  697  0.1746124E+02  0.1472983E+02  0.2980933E+02  0.7848268E+03
Ar  698  0.1894867E+02  0.2591262E+02  0.3734352E+02  0.3202158E+03
Ar  699  0.1864290E+02  0.1464786E+02  0.3323791E+02  0.6260866E+03
Ar  700  0.1701902E+02  0.2333000E+02  0.3666587E+02  0.3581572E+03
Ar  701  0.1891716E+02  0.2251925E+02  0.1386350E+01  0.5322951E+03
Ar  702  0.1631636E+02  0.2601857E+02  0.3431691E+02  0.2729242E+03
Ar  703  0.1767899E+02  0.2335713E+02  0.6144581E+01  0.8677465E+02
Ar  704  0.1513951E+02  0.2306755E+02  0.2552628E+01  0.3729469E+03
Ar  705  0.1433355E+02  0.2238991E+02  0.6140448E+01  0.4048990E+03
Ar  706  0.1920084E+02  0.2702819E+02  0.5017462E+01  0.5338882E+03
Ar  707  0.2113116E+02  0.2437320E+02  0.5775340E+01  0.5790071E+03
Ar  708  0.1934828E+02  0.2159946E+02  0.1011751E+02  0.4377377E+03
Ar  709  0.2214992E+02  0.1859732E+02  0.9224896E+01  0.1655020E+03
Ar  710  0.1746733E+02  0.2811636E+02  0.1062614E+02  0.3507413E+02
Ar  711  0.2029547E+02  0.2427057E+02  0.1329933E+02  0.4296876E+03
Ar  712  0.1690036E+02  0.2057947E+02  0.1269071E+02  0.5974380E+02
Ar  713  0.1787139E+02  0.2258209E+02  0.1558766E+02  0.6729119E+02
Ar  714  0.2183325E+02  0.2259918E+02  0.1958242E+02  0.1011441E+04
Ar  715  0.1644032E+02  0.2330393E+02  0.2045084E+02  0.3282423E+03
Ar  716  0.1169025E+02  0.2347252E+02  0.1782362E+02  0.4510821E+03
Ar  717  0.1781663E+02  0.2401034E+02  0.2721224E+02  0.5891563E+03
Ar  718  0.1653606E+02  0.2595701E+02  0.2214466E+02  0.3683689E+03
Ar  719  0.1933463E+02  0.2132269E+02  0.2195680E+02  0.7954690E+02
Ar  720  0.1385617E+02  0.2805921E+02  0.2311457E+02  0.2926642E+02
Ar  721  0.1466670E+02  0.2308468E+02  0.3444718E+02  0.2165016E+03
Ar  722  0.1614978E+02  0.2186202E+02  0.3122202E+02  0.1670544E+03
Ar  723  0.1934575E+02  0.2159786E+02  0.2910591E+02  0.8883267E+02
Ar  724  0.1451497E+02  0.2794888E+02  0.2649440E+02  0.8077602E+02
Ar  725  0.1832194E+02  0.2293931E+02  0.3342295E+02  0.4471486E+03
Ar  726  0.1625585E+02  0.2820359E+02  0.3196935E+02  0.1419826E+03
Ar  727  0.1889845E+02  0.2833829E+02  0.3516145E+02  0.2189101E+03
Ar  728  0.1053822E+02  0.2177317E+02  0.3109640E+02  0.3572293E+03
Ar  729  0.1239222E+02  0.3515995E+02  0.6007781E+00  0.7302213E+02
Ar  730  0.1439962E+02  0.3252573E+02  0.8878814E+00  0.3170686E+03
Ar  731  0.1783770E+02  0.2522220E+02  0.2617805E+01  0.3772037E+03
Ar  732  0.1000576E+02  0.3130459E+02  0.5235895E+01  0.7078979E+03
Ar  733  0.1306925E+02  0.2829363E+02  0.5581960E+01  0.2396246E+03
Ar  734  0.1840122E+02  0.3162266E+02  0.4331388E+01  0.5154465E+03
Ar  735  0.2073984E+02  0.2998555E+02  0.1161837E+02  0.7769825E+03
Ar  736  0.2093450E+02  0.2870873E+02  0.8210004E+01  0.1395701E+04
Ar  737  0.1840377E+02  0.2842160E+02  0.1446297E+02  0.1976851E+03
Ar  738  0.2119086E+02  0.2681591E+02  0.1105129E+02  0.3196274E+03
Ar  739  0.2123001E+02  0.2695220E+02  0.1503063E+02  0.6241814E+03
Ar  740  0.1764767E+02  0.2568124E+02  0.1633366E+02  0.4735692E+03
Ar  741  0.1905010E+02  0.2460215E+02  0.1894890E+02  0.3854276E+03
Ar  742  0.2191063E+02  0.3031177E+02  0.1505228E+02  0.1750520E+03
Ar  743  0.1460670E+02  0.2921997E+02  0.1979203E+02  0.4137073E+03
Ar  744  0.1143192E+02  0.2910614E+02  0.1752507E+02  0.1916765E+03
Ar  745  0.1291324E+02  0.2329635E+02  0.2246613E+02  0.4477395E+03
Ar  746  0.2237996E+02  0.3383394E+02  0.2305303E+02  0.2845729E+03
Ar  747  0.1710209E+02  0.3061103E+02  0.2546334E+02  0.3992165E+03
Ar  748  0.1594007E+02  0.3312692E+02  0.2304351E+02  0.1170585E+02
Ar  749  0.1415338E+02  0.3138227E+02  0.2772253E+02  0.1503774E+03
Ar  750  0.1927671E+02  0.2742482E+02  0.2759107E+02  0.1684554E+02
Ar  751  0.1867549E+02  0.2545584E+02  0.3092305E+02  0.1655241E+04
Ar  752  0.1339705E+02  0.2890506E+02  0.3041780E+02  0.2701094E+03
Ar  753  0.1594258E+02  0.2634175E+02  0.2900862E+02  0.3002796E+03
Ar  754  0.1933602E+02  0.2893376E+02  0.3065232E+02  0.1622002E+03
Ar  755  0.1512214E+02  0.3022173E+02  0.3515768E+02  0.2023870E+03
Ar  756  0.1698681E+02  0.2971330E+02  0.2865580E+02  0.5907457E+03
Ar  757  0.1521324E+02  0.3381926E+02  0.3531227E+02  0.3927176E+03
Ar  758  0.1677191E+02  0.3619670E+01  0.2503491E+01  0.8328517E+03
Ar  759  0.1873115E+02  0.3462332E+02  0.3741406E+02  0.1106291E+04
Ar  760  0.1711334E+02  0.4070077E+00  0.1818467E+01  0.4401176E+02
Ar  761  0.1197318E+02  0.3384076E+02  0.3988389E+01  0.8097673E+03
Ar  762  0.2052601E+02  0.3568809E+02  0.2838720E+01  0.2040652E+03
Ar  763  0.1838417E+02  0.3131870E+02  0.8169002E+01  0.3071526E+03
Ar  764  0.1819535E+02  0.3551021E+02  0.9483651E+01  0.3908494E+02
Ar  765  0.1563264E+02  0.3076480E+02  0.1132741E+02  0.2528487E+03
Ar  766  0.1881551E+02  0.3353963E+02  0.1521970E+02  0.1414858E+03
Ar  767  0.1847797E+02  0.3095576E+02  0.1721279E+02  0.8691883E+03
Ar  768  0.1399147E+02  0.3101449E+00  0.1548634E+02  0.1378920E+04
Ar  769  0.1562966E+02  0.2857527E+02  0.1648138E+02  0.1948340E+03
Ar  770  0.1881857E+02  0.3401094E+02  0.2183946E+02  0.3127024E+03
Ar  771  0.1599633E+02  0.3147771E+02  0.1449993E+02  0.2764202E+03
Ar  772  0.1196534E+02  0.3319220E+02  0.1116066E+02  0.4337522E+03
Ar  773  0.1671395E+02  0.3174044E+02  0.1990058E+02  0.1166241E+03
Ar  774  0.2565393E+02  0.3390769E+02  0.2554494E+02  0.7109012E+03
Ar  775  0.1700275E+02  0.2951091E+02  0.2226060E+02  0.7630425E+03
Ar  776  0.1649462E+02  0.3368581E+02  0.2688930E+02  0.1147992E+03
Ar  777  0.1747211E+02  0.3529784E+02  0.2990091E+02  0.1147500E+04
Ar  778  0.2281341E+02  0.3580916E+02  0.2625331E+02  0.3210230E+03
Ar  779  0.1927618E+02  0.3258589E+02  0.2883757E+02  0.3657626E+03
Ar  780  0.2024629E+02  0.3608025E+02  0.2822511E+02  0.3981353E+02
Ar  781  0.1587222E+02  0.3160511E+02  0.3153146E+02  0.1934628E+03
Ar  782  0.2096391E+02  0.3409141E+02  0.3161888E+02  0.4364804E+03
Ar  783  0.2289086E+02  0.3033349E+02  0.3016297E+02  0.5080029E+02
Ar  784  0.1334674E+02  0.1206020E+01  0.3040607E+02  0.5064760E+03
Ar  785  0.1865516E+02  0.5978489E+01  0.1215280E+01  0.2738226E+03
Ar  786  0.2806481E+02  0.3039600E+01  0.2792636E+01  0.1341000E+04
Ar  787  0.2222983E+02  0.2810557E+00  0.1337609E+00  0.5803310E+02
Ar  788  0.2090744E+02  0.3605259E+02  0.6822753E+01  0.5624411E+03
Ar  789  0.1752984E+02  0.3440133E+02  0.6112870E+01  0.8176923E+03
Ar  790  0.2012877E+02  0.2971135E+01  0.7491087E+00  0.7089467E+02
Ar  791  0.2431020E+02  0.3552717E+02  0.1266067E+02  0.1227872E+04
Ar  792  0.2091782E+02  0.3265899E+02  0.6024823E+01  0.1049275E+03
Ar  793  0.2057915E+02  0.3672408E+02  0.1636479E+02  0.3009194E+03
Ar  794  0.2224272E+02  0.1848286E+01  0.1294412E+02  0.1457148E+03
Ar  795  0.2485412E+02  0.3717939E+00  0.1589650E+02  0.8228862E+03
Ar  796  0.2101748E+02  0.4934540E+01  0.1418461E+02  0.1459094E+03
Ar  797  0.2031648E+02  0.3403104E+02  0.1854040E+02  0.3222819E+03
Ar  798  0.2129834E+02  0.4784514E+01  0.2305637E+02  0.2880825E+03
Ar  799  0.1931336E+02  0.5720169E+01  0.1685695E+02  0.4161985E+03
Ar  800  0.1981826E+02  0.1716565E+01  0.2260522E+02  0.4169474E+03
Ar  801  0.1586967E+02  0.3507106E+02  0.1626250E+02  0.4753576E+03
Ar  802  0.2382339E+02  0.2983624E+01  0.2168646E+02  0.8943829E+02
Ar  803  0.2606428E+02  0.5685186E+01  0.2727818E+02  0.9286039E+03
Ar  804  0.2570973E+02  0.6136211E+01  0.2108447E+02  0.4677333E+03
Ar  805  0.2486168E+02  0.3691123E+02  0.2877218E+02  0.1441047E+03
Ar  806  0.2815373E+02  0.1921266E+01  0.2823168E+02  0.6248540E+03
Ar  807  0.2749616E+02  0.3664635E+02  0.3415829E+02  0.3365795E+02
Ar  808  0.2229713E+02  0.4347669E+01  0.3237134E+02  0.5329076E+03
Ar  809  0.2231341E+02  0.1469141E+01  0.3422435E+02  0.1347151E+04
Ar  810  0.1747836E+02  0.3407729E+02  0.3296177E+02  0.1240638E+03
Ar  811  0.2632945E+02  0.3355145E+02  0.3507711E+02  0.1181836E+03
Ar  812  0.2434525E+02  0.3197297E+01  0.7036588E+00  0.9288978E+03
Ar  813  0.2493232E+02  0.1997197E+01  0.4625810E+01  0.1020794E+04
Ar  814  0.3120993E+02  0.5156386E+01  0.3367893E+01  0.7530923E+03
Ar  815  0.2734334E+02  0.4724513E+01  0.3732262E+02  0.3913643E+03
Ar  816  0.2834931E+02  0.6755078E+01  0.2118092E+01  0.5430191E+02
Ar  817  0.2215321E+02  0.4308664E+01  0.3571363E+01  0.1854600E+03
Ar  818  0.2448447E+02  0.1239677E+02  0.4635801E+01  0.4715666E+03
Ar  819  0.2999991E+02  0.7329930E+01  0.5540142E+01  0.8397819E+02
Ar  820  0.2467837E+02  0.5007862E+01  0.6033016E+01  0.3969036E+03
Ar  821  0.2219324E+02  0.1812187E+01  0.6411574E+01  0.9443705E+02
Ar  822  0.2355744E+02  0.7859440E+01  0.8204778E+01  0.2941350E+02
Ar  823  0.2217495E+02  0.7306926E+01  0.1580566E+02  0.4459564E+03
Ar  824  0.1911899E+02  0.2002993E+01  0.1307163E+02  0.9022786E+03
Ar  825  0.2201954E+02  0.4372731E+01  0.1924774E+02  0.8819644E+02
Ar  826  0.2603966E+02  0.9927856E+01  0.1746279E+02  0.2140884E+03
Ar  827  0.2113014E+02  0.7611960E+01  0.2027862E+02  0.2204711E+03
Ar  828  0.2281220E+02  0.9718803E+01  0.1839097E+02  0.9918071E+02
Ar  829  0.2011930E+02  0.3674910E+02  0.2449845E+02  0.1376929E+03
Ar  830  0.2460058E+02  0.9178019E+01  0.2120448E+02  0.1884803E+03
Ar  831  0.2721969E+02  0.6940641E+01  0.2425197E+02  0.8825122E+02
Ar  832  0.2162613E+02  0.5200983E+01  0.2728062E+02  0.2661788E+03
Ar  833  0.2343092E+02  0.2924502E+01  0.2937674E+02  0.1600503E+04
Ar  834  0.2746900E+02  0.9716033E+01  0.2678827E+02  0.2925406E+03
Ar  835  0.2530589E+02  0.1235519E+01  0.3208035E+02  0.1626946E+03
Ar  836  0.1934534E+02  0.6626264E+01  0.3271933E+02  0.6860724E+03
Ar  837  0.2502401E+02  0.6224231E+01  0.3351136E+02  0.8987256E+03
Ar  838  0.2344670E+02  0.7129278E+01  0.3018676E+02  0.2085162E+03
Ar  839  0.2503314E+02  0.3127710E+01  0.3509475E+02  0.2959488E+03
Ar  840  0.2454035E+02  0.6970711E+01  0.3763378E+02  0.6752171E+03
Ar  841  0.1828267E+02  0.1218318E+02  0.3715560E+02  0.4179373E+03
Ar  842  0.2510814E+02  0.1082107E+02  0.3626941E+02  0.3250705E+03
Ar  843  0.2836686E+02  0.9320780E+01  0.3733185E+02  0.2402404E+03
Ar  844  0.2521359E+02  0.9993934E+01  0.1905840E+01  0.2439226E+02
Ar  845  0.2183495E+02  0.1059753E+02  0.3290923E+01  0.3234629E+03
Ar  846  0.2431486E+02  0.1592031E+02  0.3044278E+01  0.1530243E+03
Ar  847  0.2146548E+02  0.1390944E+02  0.4146432E+01  0.1682412E+02
Ar  848  0.2042072E+02  0.1589746E+02  0.7131850E+01  0.3771162E+03
Ar  849  0.2449500E+02  0.1156288E+02  0.8043616E+01  0.1867175E+03
Ar  850  0.2500842E+02  0.9088857E+01  0.1361464E+02  0.1109524E+03
Ar  851  0.2391017E+02  0.5694568E+01  0.1247427E+02  0.3256527E+02
Ar  852  0.2157392E+02  0.1060216E+02  0.1449070E+02  0.4337610E+03
Ar  853  0.1926815E+02  0.9315663E+01  0.1715806E+02  0.4796387E+03
Ar  854  0.2164137E+02  0.1297718E+02  0.1787370E+02  0.4794897E+03
Ar  855  0.2784460E+02  0.8893534E+01  0.1999365E+02  0.2962275E+03
Ar  856  0.1736977E+02  0.1217492E+02  0.1738031E+02  0.1152273E+03
Ar  857  0.1635079E+02  0.1853424E+01  0.2277992E+02  0.2432381E+03
Ar  858  0.2144985E+02  0.1073748E+02  0.2309037E+02  0.5255631E+03
Ar  859  0.2036962E+02  0.7845969E+01  0.2543406E+02  0.1996686E+03
Ar  860  0.1799303E+02  0.9328806E+01  0.2765352E+02  0.2686580E+03
Ar  861  0.2406784E+02  0.9133285E+01  0.2753490E+02  0.3745682E+03
Ar  862  0.2124904E+02  0.1102706E+02  0.2684083E+02  0.3298686E+03
Ar  863  0.2772250E+02  0.1100739E+02  0.2980673E+02  0.9212738E+03
Ar  864  0.2369219E+02  0.1164719E+02  0.2991264E+02  0.2780023E+03
Ar  865  0.2530974E+02  0.1071557E+02  0.3289665E+02  0.3702056E+03
Ar  866  0.2174739E+02  0.1123300E+02  0.3754604E+02  0.6789729E+03
Ar  867  0.2918959E+02  0.5460801E+01  0.3287457E+02  0.6332851E+02
Ar  868  0.2155087E+02  0.1478254E+02  0.3147776E+02  0.2598302E+03
Ar  869  0.2400339E+02  0.1733774E+02  0.3564065E+02  0.8323026E+03
Ar  870  0.2037021E+02  0.1490737E+02  0.3746074E+02  0.1254609E+03
Ar  871  0.2647255E+02  0.1524840E+02  0.3584483E+02  0.3435559E+03
Ar  872  0.2121189E+02  0.2536203E+02  0.2240056E+01  0.9541125E+02
Ar  873  0.2208397E+02  0.1866760E+02  0.2058126E+00  0.6856392E+02
Ar  874  0.2072770E+02  0.2143656E+02  0.3767085E+01  0.3168966E+03
Ar  875  0.2236488E+02  0.1801534E+02  0.5149992E+01  0.1402957E+03
Ar  876  0.2294168E+02  0.2098554E+02  0.7045795E+01  0.3534769E+03
Ar  877  0.2248977E+02  0.1316267E+02  0.1272218E+02  0.4926909E+02
Ar  878  0.2557312E+02  0.1868511E+02  0.6137068E+01  0.2943413E+03
Ar  879  0.2325487E+02  0.1847775E+02  0.1247402E+02  0.3606539E+03
Ar  880  0.2127773E+02  0.2095487E+02  0.1319446E+02  0.9805280E+02
Ar  881  0.1954732E+02  0.1156234E+02  0.1981072E+02  0.3601055E+03
Ar  882  0.2370630E+02  0.2017927E+02  0.1534374E+02  0.3670943E+03
Ar  883  0.2398635E+02  0.1352050E+02  0.2251773E+02  0.2157906E+03
Ar  884  0.2214457E+02  0.1977262E+02  0.2145466E+02  0.1195949E+04
Ar  885  0.2354162E+02  0.1658884E+02  0.2438271E+02  0.5269165E+03
Ar  886  0.2514043E+02  0.1299570E+02  0.1942867E+02  0.1966196E+03
Ar  887  0.2460721E+02  0.1341849E+02  0.2604382E+02  0.2434736E+04
Ar  888  0.2109096E+02  0.1397621E+02  0.2465265E+02  0.4931563E+03
Ar  889  0.2029976E+02  0.1470223E+02  0.2782901E+02  0.7486710E+02
Ar  890  0.2003028E+02  0.1745054E+02  0.3082171E+02  0.7540842E+03
Ar  891  0.2444335E+02  0.1560250E+02  0.2908898E+02  0.9858922E+02
Ar  892  0.2038445E+02  0.1743344E+02  0.3534192E+02  0.4467678E+03
Ar  893  0.1756876E+02  0.1870595E+02  0.3370846E+02  0.4300903E+03
Ar  894  0.2629211E+02  0.2122595E+02  0.3109522E+02  0.2882216E+03
Ar  895  0.2375099E+02  0.1733465E+02  0.3222762E+02  0.4265150E+03
Ar  896  0.2317887E+02  0.2018858E+02  0.3034110E+02  0.1768552E+03
Ar  897  0.2154514E+02  0.2380326E+02  0.3518339E+02  0.8010375E+02
Ar  898  0.2231172E+02  0.2216939E+02  0.4539722E+00  0.3556562E+03
Ar  899  0.2630833E+02  0.1754417E+02  0.5545654E+00  0.4841862E+02
Ar  900  0.1961429E+02  0.2844490E+02  0.1501934E+01  0.1297009E+03
Ar  901  0.2323196E+02  0.2668733E+02  0.5114952E+01  0.1007233E+03
Ar  902  0.2638194E+02  0.2712449E+02  0.3256270E+01  0.2370996E+03
Ar  903  0.2332781E+02  0.2626842E+02  0.8440755E+01  0.4660780E+03
Ar  904  0.2421802E+02  0.3055870E+02  0.8464248E+01  0.3148188E+03
Ar  905  0.1868254E+02  0.2567862E+02  0.8634036E+01  0.4564350E+03
Ar  906  0.2468243E+02  0.2545391E+02  0.1129911E+02  0.9011295E+03
Ar  907  0.2108408E+02  0.2239324E+02  0.1630329E+02  0.6269724E+02
Ar  908  0.2244978E+02  0.2564004E+02  0.1787115E+02  0.4400081E+03
Ar  909  0.1904279E+02  0.2096838E+02  0.1859041E+02  0.7063200E+03
Ar  910  0.2393532E+02  0.1841029E+02  0.1884904E+02  0.5793600E+02
Ar  911  0.2534537E+02  0.1844238E+02  0.2232750E+02  0.1194321E+03
Ar  912  0.2235683E+02  0.2274492E+02  0.2351939E+02  0.3297410E+03
Ar  913  0.2015976E+02  0.1805696E+02  0.2374279E+02  0.1154541E+03
Ar  914  0.2464668E+02  0.2415391E+02  0.2534738E+02  0.1522775E+03
Ar  915  0.2332323E+02  0.1987717E+02  0.2489070E+02  0.5147245E+03
Ar  916  0.2149629E+02  0.2458414E+02  0.2820632E+02  0.2303669E+03
Ar  917  0.2005263E+02  0.2150894E+02  0.2564405E+02  0.2758484E+03
Ar  918  0.2508117E+02  0.2527237E+02  0.3012045E+02  0.4518508E+03
Ar  919  0.2189868E+02  0.2303044E+02  0.3101151E+02  0.6686968E+02
Ar  920  0.2220774E+02  0.2658493E+02  0.2486538E+02  0.1136241E+03
Ar  921  0.2077597E+02  0.1991283E+02  0.3301293E+02  0.5859674E+03
Ar  922  0.2983361E+02  0.2536448E+02  0.1493967E+01  0.2455749E+02
Ar  923  0.2112906E+02  0.2627618E+02  0.3322727E+02  0.7936296E+02
Ar  924  0.2368553E+02  0.2106770E+02  0.3516819E+02  0.6913753E+03
Ar  925  0.2277775E+02  0.2749653E+02  0.3681127E+02  0.2349639E+03
Ar  926  0.2077296E+02  0.3190246E+02  0.1857327E+01  0.1718929E+02
Ar  927  0.2413447E+02  0.2361784E+02  0.3936665E+01  0.3398547E+03
Ar  928  0.1628271E+02  0.2892971E+02  0.2881238E+01  0.2260427E+03
Ar  929  0.2110637E+02  0.2970462E+02  0.4433152E+01  0.8366810E+02
Ar  930  0.2630546E+02  0.3013795E+02  0.1895340E+01  0.2961460E+03
Ar  931  0.2441701E+02  0.2974560E+02  0.5401221E+01  0.1806700E+03
Ar  932  0.2204342E+02  0.3325608E+02  0.1325378E+02  0.3008308E+03
Ar  933  0.2247820E+02  0.2300514E+02  0.9920571E+01  0.1701307E+03
Ar  934  0.2557129E+02  0.2991113E+02  0.1156698E+02  0.2150301E+03
Ar  935  0.2421896E+02  0.2791907E+02  0.1398086E+02  0.4905409E+02
Ar  936  0.2525895E+02  0.3190161E+02  0.1479917E+02  0.3543566E+03
Ar  937  0.2109685E+02  0.2851921E+02  0.1841443E+02  0.3820927E+03
Ar  938  0.2413099E+02  0.2851196E+02  0.1715563E+02  0.1241453E+03
Ar  939  0.1935062E+02  0.2439889E+02  0.2371338E+02  0.1726314E+03
Ar  940  0.1771168E+02  0.2803091E+02  0.1921759E+02  0.6014581E+02
Ar  941  0.2017892E+02  0.3111233E+02  0.2095029E+02  0.1144214E+04
Ar  942  0.2324389E+02  0.3053871E+02  0.2426120E+02  0.3654746E+03
Ar  943  0.1973544E+02  0.2728510E+02  0.2215070E+02  0.4434906E+03
Ar  944  0.2018186E+02  0.2953263E+02  0.2439059E+02  0.3493526E+03
Ar  945  0.1732905E+02  0.2668943E+02  0.2508239E+02  0.9911269E+02
Ar  946  0.2982706E+02  0.2667318E+02  0.2295166E+02  0.7213770E+03
Ar  947  0.2800646E+02  0.2538006E+02  0.3236534E+02  0.1267364E+03
Ar  948  0.2617088E+02  0.2755398E+02  0.2460423E+02  0.3434028E+02
Ar  949  0.2202700E+02  0.2686687E+02  0.3032924E+02  0.1106320E+03
Ar  950  0.2151832E+02  0.2968286E+02  0.3310422E+02  0.3944083E+03
Ar  951  0.2451436E+02  0.2519386E+02  0.9122906E+00  0.5698865E+03
Ar  952  0.1771056E+02  0.3132168E+02  0.3732485E+02  0.3767596E+03
Ar  953  0.2089005E+02  0.3054305E+02  0.3665756E+02  0.4033825E+03
Ar  954  0.1843392E+02  0.3119614E+00  0.3623652E+02  0.9927010E+02
Ar  955  0.2355879E+02  0.3457005E+02  0.7574083E-01  0.4005041E+03
Ar  956  0.2384940E+02  0.3308937E+02  0.4066660E+01  0.1171938E+04
Ar  957  0.1706444E+02  0.3424468E+02  0.2713458E+01  0.1794437E+03
Ar  958  0.2130839E+02  0.3250909E+02  0.9313056E+01  0.4441449E+02
Ar  959  0.2448847E+02  0.3397610E+02  0.7506413E+01  0.2059747E+03
Ar  960  0.2186052E+02  0.3548438E+02  0.1027498E+02  0.1783789E+03
Ar  961  0.1863203E+02  0.3231060E+02  0.1223490E+02  0.2033926E+03
Ar  962  0.2483364E+02  0.3320164E+02  0.1053093E+02  0.1222672E+03
Ar  963  0.2709031E+02  0.3545473E+02  0.1520307E+02  0.2502200E+03
Ar  964  0.2305155E+02  0.3469470E+02  0.1645436E+02  0.1737287E+03
Ar  965  0.2304546E+02  0.3156387E+02  0.1840555E+02  0.3276645E+03
Ar  966  0.2372651E+02  0.4358812E+01  0.1598026E+02  0.1084608E+04
Ar  967  0.2167484E+02  0.3714094E+02  0.2123682E+02  0.1013682E+03
Ar  968  0.2915255E+02  0.3559039E+02  0.2371472E+02  0.2081121E+03
Ar  969  0.2551526E+02  0.3600674E+02  0.2281763E+02  0.1641517E+03
Ar  970  0.2636352E+02  0.6876066E+00  0.2539146E+02  0.1683507E+03
Ar  971  0.2509052E+02  0.3235641E+02  0.2202828E+02  0.9108346E+02
Ar  972  0.2132217E+02  0.3068597E+02  0.2726745E+02  0.9946643E+02
Ar  973  0.2761609E+02  0.3050203E+02  0.2408452E+02  0.4483582E+03
Ar  974  0.2979581E+02  0.3416214E+02  0.2941608E+02  0.9198902E+02
Ar  975  0.2672943E+02  0.3374210E+02  0.3046284E+02  0.1621952E+03
Ar  976  0.2450796E+02  0.3529640E+02  0.3217710E+02  0.2174625E+03
Ar  977  0.2241646E+02  0.3346754E+02  0.2866770E+02  0.1344628E+03
Ar  978  0.2609391E+02  0.3139764E+02  0.2772937E+02  0.2825559E+03
Ar  979  0.2407398E+02  0.2770450E+02  0.2758758E+02  0.1269969E+03
Ar  980  0.1897024E+02  0.3149808E+02  0.3395274E+02  0.1098240E+03
Ar  981  0.2754889E+02  0.3524873E+02  0.3760015E+02  0.1374187E+03
Ar  982  0.3181715E+02  0.1131505E+01  0.3189998E+01  0.1174542E+03
Ar  983  0.3396772E+02  0.1504232E+01  0.3431612E+00  0.8014293E+02
Ar  984  0.2803679E+02  0.3777038E+02  0.5542150E+01  0.6048444E+03
Ar  985  0.2397696E+02  0.3654881E+02  0.5086920E+01  0.9445705E+03
Ar  986  0.3253228E+02  0.3679653E+02  0.6877962E+01  0.4228681E+03
Ar  987  0.2963616E+02  0.3549331E+02  0.1290803E+02  0.6409380E+03
Ar  988  0.2804450E+02  0.4728709E+01  0.5633624E+01  0.1959665E+03
Ar  989  0.2418680E+02  0.3776074E+02  0.8116495E+01  0.8211067E+03
Ar  990  0.2653763E+02  0.2616933E+01  0.7509299E+01  0.4117823E+02
Ar  991  0.2598496E+02  0.2895963E+01  0.1361551E+02  0.2088510E+03
Ar  992  0.2332695E+02  0.3354892E+01  0.9673681E+01  0.5317006E+03
Ar  993  0.2557096E+02  0.3194323E+01  0.1862323E+02  0.9851093E+03
Ar  994  0.2923708E+02  0.6262061E+01  0.1808317E+02  0.8148746E+02
Ar  995  0.2802147E+02  0.1500215E+01  0.2226048E+02  0.2096649E+03
Ar  996  0.2892119E+02  0.3438927E+01  0.1962217E+02  0.4736684E+02
Ar  997  0.2306257E+02  0.5964580E+00  0.2390192E+02  0.3691663E+02
Ar  998  0.3156126E+02  0.1257894E+01  0.2101845E+02  0.2658130E+03
Ar  999  0.2823679E+02  0.3597469E+02  0.2699025E+02  0.3462462E+03
Ar 1000  0.3074899E+02  0.3755471E+02  0.2911578E+02  0.7332430E+03
Ar 1001  0.2790388E+02  0.3694440E+02  0.3055554E+02  0.1896220E+03
Ar 1002  0.3097313E+02  0.3770207E+01  0.2353521E+02  0.1388613E+02
Ar 1003  0.3679564E+02  0.3448568E+02  0.3074401E+02  0.6102200E+03
Ar 1004  0.3009430E+02  0.5352287E+01  0.2684112E+02  0.1573225E+03
Ar 1005  0.3064933E+02  0.3764512E+02  0.3655638E+02  0.8707024E+02
Ar 1006  0.3328097E+02  0.2128537E+01  0.3094115E+02  0.1797896E+03
Ar 1007  0.2914505E+02  0.3694133E+02  0.2298647E+01  0.2921112E+03
Ar 1008  0.2772184E+02  0.1271926E+01  0.3691873E+02  0.3509747E+03
Ar 1009  0.3180064E+02  0.3534321E+01  0.3416300E+02  0.3215383E+03
Ar 1010  0.3389482E+02  0.5053416E+01  0.5582845E+00  0.3744589E+02
Ar 1011  0.3564680E+02  0.4880998E+01  0.7291064E+01  0.2489294E+03
Ar 1012  0.2796716E+02  0.2495689E+01  0.3381462E+02  0.6688340E+02
Ar 1013  0.3107011E+02  0.2584431E+01  0.6561906E+01  0.9779227E+03
Ar 1014  0.3064347E+02  0.3313323E+01  0.2977766E+00  0.1791113E+03
Ar 1015  0.2960910E+02  0.6848266E+01  0.9260694E+01  0.2005901E+03
Ar 1016  0.3341606E+02  0.7882551E+01  0.3474584E+01  0.3027843E+03
Ar 1017  0.2654242E+02  0.5890314E+01  0.8428137E+01  0.2670129E+03
Ar 1018  0.2638603E+02  0.9330834E+01  0.8639064E+01  0.3932716E+03
Ar 1019  0.2903297E+02  0.3191965E+01  0.9849851E+01  0.1175057E+03
Ar 1020  0.2636842E+02  0.6373682E+01  0.1532038E+02  0.3108317E+03
Ar 1021  0.3127127E+02  0.2430613E+01  0.1763820E+02  0.1109250E+04
Ar 1022  0.2894340E+02  0.4346094E+01  0.1466164E+02  0.5127900E+03
Ar 1023  0.3451454E+02  0.3718228E+01  0.1234627E+02  0.7533565E+03
Ar 1024  0.2484021E+02  0.6468950E+01  0.1803712E+02  0.6155847E+03
Ar 1025  0.2919355E+02  0.5862443E+01  0.2146911E+02  0.9433422E+02
Ar 1026  0.2998333E+02  0.8811404E+01  0.1551251E+02  0.5171342E+02
Ar 1027  0.2719928E+02  0.1150791E+02  0.2229543E+02  0.1132846E+03
Ar 1028  0.2085757E+02  0.8530398E+01  0.2877870E+02  0.4974287E+03
Ar 1029  0.2338750E+02  0.7169615E+01  0.2472986E+02  0.6096807E+03
Ar 1030  0.3392535E+02  0.9591861E+01  0.3014241E+02  0.1637536E+03
Ar 1031  0.3001974E+02  0.3054126E+01  0.3075739E+02  0.2947863E+03
Ar 1032  0.2632542E+02  0.4677558E+01  0.3095607E+02  0.2877856E+03
Ar 1033  0.3068983E+02  0.3326951E+00  0.3295009E+02  0.8240051E+03
Ar 1034  0.3166111E+02  0.7611421E+01  0.3267736E+02  0.5873312E+03
Ar 1035  0.3345881E+02  0.8188250E-01  0.3450088E+02  0.3762372E+03
Ar 1036  0.2681803E+02  0.7796525E+01  0.2982243E+02  0.7496630E+03
Ar 1037  0.3137654E+02  0.8397196E+01  0.9815395E+00  0.5157224E+03
Ar 1038  0.2961646E+02  0.1228667E+02  0.3772985E+02  0.5956337E+03
Ar 1039  0.3107596E+02  0.1120915E+02  0.3050045E+01  0.2593915E+03
Ar 1040  0.2658185E+02  0.1376915E+02  0.1539507E+01  0.6856218E+03
Ar 1041  0.2774774E+02  0.1025440E+02  0.4020066E+01  0.9351568E+03
Ar 1042  0.3290809E+02  0.1084413E+02  0.5973102E+01  0.7503635E+02
Ar 1043  0.2637507E+02  0.7893061E+01  0.5407985E+01  0.4733536E+03
Ar 1044  0.2776263E+02  0.1378288E+02  0.5579610E+01  0.6716183E+03
Ar 1045  0.2250015E+02  0.8612682E+01  0.1151234E+02  0.1848618E+03
Ar 1046  0.2403116E+02  0.1532369E+02  0.6786260E+01  0.4552665E+02
Ar 1047  0.2587638E+02  0.1330389E+02  0.1224896E+02  0.3283516E+03
Ar 1048  0.2321639E+02  0.1555177E+02  0.1699149E+02  0.1303247E+03
Ar 1049  0.2678698E+02  0.1459005E+02  0.1557307E+02  0.6724195E+03
Ar 1050  0.2738892E+02  0.1656774E+02  0.1310983E+02  0.4115793E+03
Ar 1051  0.2942273E+02  0.1352744E+02  0.1221386E+02  0.5512000E+03
Ar 1052  0.2208955E+02  0.1632002E+02  0.2103694E+02  0.8355083E+02
Ar 1053  0.2463120E+02  0.1039987E+02  0.2411107E+02  0.7438643E+03
Ar 1054  0.2917527E+02  0.1418119E+02  0.2129239E+02  0.5719553E+02
Ar 1055  0.3093194E+02  0.1033918E+02  0.2927125E+02  0.2112208E+03
Ar 1056  0.2758640E+02  0.1427108E+02  0.2414597E+02  0.1384350E+03
Ar 1057  0.2374446E+02  0.1398526E+02  0.3399082E+02  0.1558625E+03
Ar 1058  0.2968398E+02  0.1405048E+02  0.3045310E+02  0.5321038E+03
Ar 1059  0.3089892E+02  0.1178466E+02  0.3264602E+02  0.3664240E+02
Ar 1060  0.2882443E+02  0.1260384E+02  0.2699770E+02  0.8880092E+02
Ar 1061  0.2985322E+02  0.6872323E+01  0.2986225E+02  0.2871204E+03
Ar 1062  0.3196808E+02  0.1572523E+02  0.2838592E+02  0.3252255E+03
Ar 1063  0.3097059E+02  0.6235914E+01  0.3603818E+02  0.1888600E+03
Ar 1064  0.2758656E+02  0.8322507E+01  0.3366211E+02  0.6005000E+02
Ar 1065  0.2810050E+02  0.1142473E+02  0.3430316E+02  0.7822602E+02
Ar 1066  0.2958750E+02  0.1809000E+02  0.2212792E+01  0.1511276E+03
Ar 1067  0.2974805E+02  0.1460053E+02  0.3092553E+01  0.1316137E+03
Ar 1068  0.2715356E+02  0.2014942E+02  0.3443828E+01  0.5709821E+03
Ar 1069  0.2742289E+02  0.1670338E+02  0.4146905E+01  0.4721958E+03
Ar 1070  0.2973125E+02  0.1664408E+02  0.6987776E+01  0.4796261E+03
Ar 1071  0.2509899E+02  0.2058221E+02  0.1007275E+02  0.2725005E+03
Ar 1072  0.2762684E+02  0.2004255E+02  0.8106962E+01  0.6298563E+03
Ar 1073  0.2437499E+02  0.1584094E+02  0.1398650E+02  0.2420003E+03
Ar 1074  0.2823617E+02  0.2089983E+02  0.1130390E+02  0.1755658E+03
Ar 1075  0.2320462E+02  0.1540870E+02  0.1036060E+02  0.1373638E+02
Ar 1076  0.2617976E+02  0.1940268E+02  0.1351845E+02  0.3369964E+03
Ar 1077  0.2397222E+02  0.1241772E+02  0.1566367E+02  0.2540018E+03
Ar 1078  0.2667708E+02  0.1783191E+02  0.1688368E+02  0.9756185E+02
Ar 1079  0.3280652E+02  0.1264421E+02  0.1270761E+02  0.3179693E+03
Ar 1080  0.2847261E+02  0.1298088E+02  0.1803419E+02  0.7111309E+02
Ar 1081  0.3024770E+02  0.1622355E+02  0.1674433E+02  0.1474238E+03
Ar 1082  0.2635035E+02  0.1630938E+02  0.1998839E+02  0.8217323E+03
Ar 1083  0.2764730E+02  0.1561278E+02  0.2793372E+02  0.1288581E+03
Ar 1084  0.2540064E+02  0.1854831E+02  0.2723794E+02  0.6574691E+02
Ar 1085  0.2764660E+02  0.1785172E+02  0.2460852E+02  0.2359798E+03
Ar 1086  0.2839215E+02  0.1983782E+02  0.2875374E+02  0.2876392E+03
Ar 1087  0.2626715E+02  0.1390693E+02  0.3161547E+02  0.6461221E+03
Ar 1088  0.2348843E+02  0.2189717E+02  0.2797946E+02  0.8106232E+02
Ar 1089  0.2726389E+02  0.1729533E+02  0.3062946E+02  0.3691373E+03
Ar 1090  0.3001139E+02  0.2250694E+02  0.3001093E+02  0.2812166E+03
Ar 1091  0.3000696E+02  0.1578248E+02  0.3673947E+02  0.4906404E+03
Ar 1092  0.2657711E+02  0.1878090E+02  0.3377537E+02  0.3544409E+03
Ar 1093  0.2553386E+02  0.2122604E+02  0.2177821E+00  0.2627543E+03
Ar 1094  0.3338277E+02  0.2771717E+02  0.1847287E+01  0.1195893E+03
Ar 1095  0.3023492E+02  0.2041297E+02  0.4939814E+01  0.3677223E+03
Ar 1096  0.2967434E+02  0.2176134E+02  0.1703995E+01  0.1909523E+03
Ar 1097  0.2373196E+02  0.2022748E+02  0.2787081E+01  0.9064266E+02
Ar 1098  0.2706195E+02  0.2384789E+02  0.2154696E+01  0.3968816E+03
Ar 1099  0.2870010E+02  0.2340926E+02  0.5027132E+01  0.2713290E+03
Ar 1100  0.2592543E+02  0.2213294E+02  0.6120517E+01  0.5351245E+03
Ar 1101  0.2707381E+02  0.2364969E+02  0.9340980E+01  0.5475077E+02
Ar 1102  0.2806139E+02  0.2384937E+02  0.1306774E+02  0.1718865E+03
Ar 1103  0.2491019E+02  0.2247894E+02  0.1311088E+02  0.3809892E+03
Ar 1104  0.2561388E+02  0.2485178E+02  0.1545434E+02  0.8983418E+03
Ar 1105  0.2741494E+02  0.2141903E+02  0.1667234E+02  0.1827974E+03
Ar 1106  0.2463867E+02  0.2345877E+02  0.1836127E+02  0.4541281E+03
Ar 1107  0.3071437E+02  0.1702710E+02  0.1999733E+02  0.2943890E+03
Ar 1108  0.2607461E+02  0.2060424E+02  0.1994438E+02  0.5908763E+03
Ar 1109  0.2602796E+02  0.2145316E+02  0.2358543E+02  0.4428942E+03
Ar 1110  0.2884865E+02  0.1972988E+02  0.2217917E+02  0.6097571E+03
Ar 1111  0.2909922E+02  0.2122915E+02  0.2519765E+02  0.2092344E+03
Ar 1112  0.3206383E+02  0.2190604E+02  0.2526673E+02  0.4707938E+02
Ar 1113  0.2689093E+02  0.2246415E+02  0.2758659E+02  0.2110491E+02
Ar 1114  0.2800268E+02  0.2463620E+02  0.2454674E+02  0.1374302E+03
Ar 1115  0.2999055E+02  0.2019147E+02  0.3247682E+02  0.4041465E+03
Ar 1116  0.2739544E+02  0.2482992E+02  0.3650897E+02  0.2064735E+03
Ar 1117  0.2477688E+02  0.2456707E+02  0.3364432E+02  0.1928370E+03
Ar 1118  0.3345323E+02  0.2579252E+02  0.3422467E+02  0.1020689E+04
Ar 1119  0.3040216E+02  0.2285135E+02  0.3613983E+02  0.5559057E+03
Ar 1120  0.3015263E+02  0.2604257E+02  0.3552603E+02  0.1843861E+03
Ar 1121  0.2985263E+02  0.2883136E+02  0.5848582E+00  0.3288843E+03
Ar 1122  0.2246052E+02  0.3223406E+02  0.3431790E+02  0.1408954E+03
Ar 1123  0.2991497E+02  0.2673818E+02  0.4525338E+01  0.1006426E+04
Ar 1124  0.2308686E+02  0.2895890E+02  0.2086363E+01  0.2824240E+03
Ar 1125  0.2847657E+02  0.3003620E+02  0.4736372E+01  0.2188560E+03
Ar 1126  0.3212484E+02  0.2982912E+02  0.4247004E+01  0.2909428E+02
Ar 1127  0.2694964E+02  0.2602992E+02  0.6361259E+01  0.1976702E+03
Ar 1128  0.3042828E+02  0.3150465E+02  0.7251672E+01  0.7296614E+02
Ar 1129  0.3045981E+02  0.2205297E+02  0.8286186E+01  0.2579203E+03
Ar 1130  0.2691824E+02  0.2859612E+02  0.8583197E+01  0.4799322E+03
Ar 1131  0.2753424E+02  0.2702779E+02  0.1174671E+02  0.5338323E+03
Ar 1132  0.2875330E+02  0.3151861E+02  0.1613199E+02  0.2930345E+02
Ar 1133  0.2708965E+02  0.2815161E+02  0.1550025E+02  0.2152694E+03
Ar 1134  0.2607649E+02  0.3143616E+02  0.1869633E+02  0.1314228E+04
Ar 1135  0.2605736E+02  0.2687309E+02  0.1885456E+02  0.3426449E+03
Ar 1136  0.2335638E+02  0.2550014E+02  0.2165808E+02  0.1127687E+03
Ar 1137  0.2656717E+02  0.2480405E+02  0.2115773E+02  0.2685469E+03
Ar 1138  0.3151857E+02  0.2650267E+02  0.1965270E+02  0.8016223E+02
Ar 1139  0.2949256E+02  0.2298249E+02  0.2056985E+02  0.3294292E+03
Ar 1140  0.2307234E+02  0.2883143E+02  0.2147257E+02  0.8841797E+03
Ar 1141  0.3101717E+02  0.2434130E+02  0.2721206E+02  0.2083021E+03
Ar 1142  0.2974398E+02  0.2818955E+02  0.2669940E+02  0.8144574E+03
Ar 1143  0.3208047E+02  0.2871206E+02  0.3271682E+02  0.5019989E+02
Ar 1144  0.2946499E+02  0.2763661E+02  0.3005587E+02  0.2896151E+03
Ar 1145  0.2463141E+02  0.2824884E+02  0.3360235E+02  0.2040091E+03
Ar 1146  0.2785050E+02  0.2572074E+02  0.2785385E+02  0.4505379E+03
Ar 1147  0.3219133E+02  0.2855667E+02  0.3613917E+02  0.2867810E+03
Ar 1148  0.2667359E+02  0.2823366E+02  0.3686665E+02  0.2745269E+03
Ar 1149  0.2474304E+02  0.3708150E+02  0.3600496E+02  0.1495846E+03
Ar 1150  0.2869480E+02  0.3143855E+02  0.3661055E+02  0.6260325E+03
Ar 1151  0.2842308E+02  0.3259068E+02  0.2390738E+01  0.4206579E+03
Ar 1152  0.2541927E+02  0.3745338E+02  0.1834399E+01  0.5460872E+03
Ar 1153  0.2716297E+02  0.3212273E+02  0.7197519E+01  0.1887472E+03
Ar 1154  0.2968777E+02  0.3523644E+02  0.7138546E+01  0.5737588E+03
Ar 1155  0.2758303E+02  0.3702720E+02  0.9308605E+01  0.1957523E+03
Ar 1156  0.2500138E+02  0.6903534E+00  0.1141687E+02  0.5541661E+03
Ar 1157  0.2851511E+02  0.3206449E+02  0.1300114E+02  0.3241900E+03
Ar 1158  0.3138910E+02  0.3299637E+02  0.1447153E+02  0.3234599E+03
Ar 1159  0.2713260E+02  0.3449876E+02  0.1843900E+02  0.1033107E+03
Ar 1160  0.2846742E+02  0.1126727E+01  0.1630098E+02  0.6179509E+02
Ar 1161  0.2841949E+02  0.3304536E+02  0.2158346E+02  0.5969984E+03
Ar 1162  0.2919330E+02  0.3620437E+02  0.2025094E+02  0.2211682E+03
Ar 1163  0.2705846E+02  0.2827713E+02  0.2151104E+02  0.1620526E+04
Ar 1164  0.2617145E+02  0.3776748E+02  0.1969384E+02  0.1798108E+03
Ar 1165  0.2404909E+02  0.3450500E+02  0.1967973E+02  0.1543902E+03
Ar 1166  0.3305838E+02  0.3099087E+02  0.2584884E+02  0.6344706E+03
Ar 1167  0.3426863E+02  0.3364933E+02  0.2879416E+02  0.1963944E+03
Ar 1168  0.2951712E+02  0.3217350E+02  0.2663494E+02  0.1704099E+03
Ar 1169  0.3323096E+02  0.2808829E+02  0.2327088E+02  0.2626246E+03
Ar 1170  0.3553217E+02  0.2818862E+02  0.3124608E+02  0.3765182E+03
Ar 1171  0.3484124E+02  0.3479994E+02  0.3378069E+02  0.6497048E+03
Ar 1172  0.2888952E+02  0.3069430E+02  0.2950074E+02  0.2852095E+03
Ar 1173  0.2591437E+02  0.3105833E+02  0.3239632E+02  0.5050189E+02
Ar 1174  0.2905719E+02  0.3243759E+02  0.3312784E+02  0.9329185E+02
Ar 1175  0.3205135E+02  0.3229905E+02  0.3165602E+02  0.1830252E+03
Ar 1176  0.2446203E+02  0.3110627E+02  0.3718944E+02  0.1672825E+03
Ar 1177  0.3101935E+02  0.3395435E+02  0.3695224E+02  0.3997171E+03
Ar 1178  0.3670971E+02  0.1661679E-01  0.3572654E+02  0.4610907E+02
Ar 1179  0.3618805E+02  0.3722920E+02  0.2288324E+01  0.1021084E+03
Ar 1180  0.3735890E+02  0.2857040E+01  0.1473488E+01  0.2180974E+03
Ar 1181  0.3476901E+02  0.3560583E+02  0.9065076E+01  0.1165725E+03
Ar 1182  0.3396430E+02  0.1416192E+01  0.8923800E+01  0.5150731E+03
Ar 1183  0.3713375E+02  0.3155253E+01  0.9890638E+01  0.3534258E+03
Ar 1184  0.3119983E+02  0.3739974E+02  0.1015051E+02  0.7042950E+03
Ar 1185  0.3349055E+02  0.3641771E+02  0.1254873E+02  0.9357968E+03
Ar 1186  0.3128773E+02  0.5846659E+01  0.1198244E+02  0.1533231E+03
Ar 1187  0.3746328E+02  0.3311957E+02  0.1664439E+02  0.6309547E+03
Ar 1188  0.2819594E+02  0.9438162E+00  0.1208331E+02  0.5613647E+03
Ar 1189  0.3243735E+02  0.3607419E+02  0.1965894E+02  0.6128510E+03
Ar 1190  0.3393401E+02  0.1941758E+01  0.1524714E+02  0.3587731E+03
Ar 1191  0.3687325E+02  0.3650198E+02  0.2013409E+02  0.1167992E+03
Ar 1192  0.3472622E+02  0.7583550E+00  0.1821679E+02  0.5386047E+03
Ar 1193  0.3305784E+02  0.3685573E+02  0.2319231E+02  0.5631390E+03
Ar 1194  0.3616027E+02  0.5638138E+00  0.2294148E+02  0.3244858E+03
Ar 1195  0.3539012E+02  0.3437692E+02  0.2249106E+02  0.6438345E+03
Ar 1196  0.2747919E+02  0.3623259E+01  0.2460199E+02  0.2074912E+03
Ar 1197  0.3381113E+02  0.3746285E+02  0.2686789E+02  0.1174785E+03
Ar 1198  0.3021451E+02  0.8684936E+00  0.2522442E+02  0.5214105E+03
Ar 1199  0.3675387E+02  0.1968878E+01  0.2629255E+02  0.4676122E+03
Ar 1200  0.3191619E+02  0.2680188E+01  0.2777264E+02  0.1504724E+03
Ar 1201  0.3086032E+02  0.3507559E+02  0.3392158E+02  0.3544742E+03
Ar 1202  0.3561079E+02  0.4045858E+01  0.2865522E+02  0.4835040E+03
Ar 1203  0.3622987E+02  0.5966807E+01  0.3303312E+02  0.1942713E+03
Ar 1204  0.3514730E+02  0.3086770E+01  0.3384690E+02  0.5915433E+03
Ar 1205  0.3467411E+02  0.1712348E+01  0.5454208E+01  0.6721240E+02
Ar 1206  0.3682156E+02  0.9068209E+01  0.3545721E+02  0.1389023E+03
Ar 1207  0.3451860E+02  0.6797228E+01  0.1028449E+02  0.7450583E+02
Ar 1208  0.1489687E+01  0.1026167E+02  0.3786731E+01  0.4041660E+03
Ar 1209  0.3638813E+02  0.7850108E+01  0.5888757E+01  0.2378495E+03
Ar 1210  0.3543374E+02  0.9713457E+01  0.8450729E+01  0.9904984E+02
Ar 1211  0.3238539E+02  0.4793799E+01  0.8948220E+01  0.1117317E+03
Ar 1212  0.3295681E+02  0.6832030E+01  0.6796357E+01  0.4230788E+03
Ar 1213  0.3172803E+02  0.2035904E+01  0.1265168E+02  0.2099810E+03
Ar 1214  0.3229494E+02  0.9525117E+01  0.8779604E+01  0.9233170E+02
Ar 1215  0.2775213E+02  0.7204061E+01  0.1229321E+02  0.1791134E+03
Ar 1216  0.3215854E+02  0.5485449E+01  0.1508994E+02  0.2636232E+03
Ar 1217  0.3767885E+02  0.2094354E+01  0.1779755E+02  0.3753908E+03
Ar 1218  0.3468847E+02  0.4152009E+01  0.1745831E+02  0.6980195E+02
Ar 1219  0.3734947E+02  0.8177477E+01  0.1786004E+02  0.2929701E+02
Ar 1220  0.3365879E+02  0.7565038E+01  0.1768728E+02  0.1248576E+03
Ar 1221  0.3510938E+02  0.2988159E+01  0.2105254E+02  0.7660949E+03
Ar 1222  0.3523440E+02  0.6520529E+01  0.2075203E+02  0.3994642E+03
Ar 1223  0.1142169E+01  0.4154114E+01  0.2095960E+02  0.1589268E+03
Ar 1224  0.3121612E+02  0.7817279E+01  0.2000207E+02  0.2513174E+03
Ar 1225  0.3377438E+02  0.2173639E+01  0.2493219E+02  0.4801808E+03
Ar 1226  0.3262978E+02  0.8779933E+01  0.2625513E+02  0.6088285E+02
Ar 1227  0.3341485E+02  0.5602369E+01  0.2615017E+02  0.3984407E+02
Ar 1228  0.3414708E+02  0.1058890E+02  0.3346102E+02  0.1024802E+04
Ar 1229  0.3332087E+02  0.6037707E+01  0.2970140E+02  0.3083554E+03
Ar 1230  0.3698187E+02  0.6964059E+01  0.2993492E+02  0.6251003E+03
Ar 1231  0.3395250E+02  0.7281519E+01  0.3529555E+02  0.1186077E+04
Ar 1232  0.5146173E+00  0.8870352E+01  0.3227378E+02  0.8457092E+02
Ar 1233  0.3260290E+02  0.1329306E+02  0.3544813E+02  0.2993205E+03
Ar 1234  0.3264256E+02  0.1430721E+02  0.1402336E+01  0.1213747E+03
Ar 1235  0.3597084E+02  0.8389076E+01  0.1078028E+01  0.1008687E+04
Ar 1236  0.3285070E+02  0.1817398E+02  0.5085371E+00  0.1230642E+03
Ar 1237  0.3476330E+02  0.1100453E+02  0.3487942E+01  0.3682627E+03
Ar 1238  0.3462861E+02  0.1450272E+02  0.4764469E+01  0.1441978E+04
Ar 1239  0.2898791E+02  0.1087779E+02  0.7326618E+01  0.2518777E+02
Ar 1240  0.2623355E+02  0.1743927E+02  0.9605937E+01  0.4555101E+03
Ar 1241  0.2765716E+02  0.1407671E+02  0.9417816E+01  0.9217967E+02
Ar 1242  0.2971275E+02  0.1795988E+02  0.1043483E+02  0.5698853E+02
Ar 1243  0.2805999E+02  0.1080832E+02  0.1105577E+02  0.8438674E+03
Ar 1244  0.3136605E+02  0.1618958E+02  0.1319200E+02  0.2441523E+03
Ar 1245  0.2748901E+02  0.1160608E+02  0.1491353E+02  0.3134840E+03
Ar 1246  0.3077503E+02  0.9334694E+01  0.1205742E+02  0.1836362E+03
Ar 1247  0.3474876E+02  0.7196848E+01  0.1403607E+02  0.1734239E+03
Ar 1248  0.3344796E+02  0.1001429E+02  0.1488972E+02  0.3470055E+03
Ar 1249  0.3213579E+02  0.4670745E+01  0.1989726E+02  0.1463672E+04
Ar 1250  0.3125451E+02  0.1072772E+02  0.1802491E+02  0.7622942E+03
Ar 1251  0.3271585E+02  0.6512440E+01  0.2283032E+02  0.2149772E+02
Ar 1252  0.2979760E+02  0.1048983E+02  0.2442276E+02  0.2242697E+03
Ar 1253  0.3432499E+02  0.1415679E+02  0.3009400E+02  0.1286804E+03
Ar 1254  0.3528830E+02  0.1277045E+02  0.2135280E+02  0.3175708E+03
Ar 1255  0.3273398E+02  0.1252269E+02  0.2771393E+02  0.1755634E+03
Ar 1256  0.3609656E+02  0.1468228E+02  0.2620438E+02  0.4085217E+03
Ar 1257  0.3210542E+02  0.1507084E+02  0.3242823E+02  0.5379190E+03
Ar 1258  0.3653122E+02  0.1149419E+02  0.3102199E+02  0.6825501E+03
Ar 1259  0.3153283E+02  0.9448854E+01  0.3557349E+02  0.2665610E+03
Ar 1260  0.3488069E+02  0.1742730E+02  0.2811067E+02  0.3001827E+03
Ar 1261  0.2870800E+02  0.1915159E+02  0.3666377E+02  0.2002346E+03
Ar 1262  0.3596447E+02  0.2004703E+02  0.6670894E+00  0.5329079E+03
Ar 1263  0.3550643E+02  0.1635173E+02  0.2166089E+01  0.1697146E+03
Ar 1264  0.3200833E+02  0.1723324E+02  0.4154639E+01  0.6107682E+02
Ar 1265  0.3148128E+02  0.1399457E+02  0.5632620E+01  0.4094589E+03
Ar 1266  0.3565643E+02  0.1940130E+02  0.4471773E+01  0.8671505E+02
Ar 1267  0.3600625E+02  0.1954543E+02  0.7848688E+01  0.3496532E+03
Ar 1268  0.3256141E+02  0.1907793E+02  0.8898443E+01  0.9368740E+03
Ar 1269  0.3383920E+02  0.2227269E+02  0.9872975E+01  0.1289549E+04
Ar 1270  0.1424740E+01  0.1457135E+02  0.1382266E+02  0.4148891E+03
Ar 1271  0.3300705E+02  0.1985696E+02  0.1506411E+02  0.1987788E+03
Ar 1272  0.3148171E+02  0.2036723E+02  0.1197163E+02  0.1498439E+03
Ar 1273  0.2937852E+02  0.1890103E+02  0.1450355E+02  0.1713436E+03
Ar 1274  0.3427568E+02  0.2240268E+02  0.1361470E+02  0.1658972E+03
Ar 1275  0.3336826E+02  0.1329766E+02  0.1591835E+02  0.3089467E+03
Ar 1276  0.3359045E+02  0.1751904E+02  0.1779651E+02  0.5893020E+03
Ar 1277  0.3203822E+02  0.1414675E+02  0.1928926E+02  0.6525026E+03
Ar 1278  0.3448296E+02  0.1897726E+02  0.2116190E+02  0.1369503E+03
Ar 1279  0.3126253E+02  0.1141827E+02  0.2186579E+02  0.3073334E+03
Ar 1280  0.3351415E+02  0.1548719E+02  0.2295825E+02  0.9386843E+03
Ar 1281  0.3004346E+02  0.1786089E+02  0.2646366E+02  0.8908655E+03
Ar 1282  0.3620306E+02  0.1775012E+02  0.2428784E+02  0.1652397E+03
Ar 1283  0.2916063E+02  0.1560259E+02  0.3362780E+02  0.1755057E+03
Ar 1284  0.3331487E+02  0.2250923E+02  0.2926760E+02  0.5490331E+02
Ar 1285  0.3403476E+02  0.2080583E+02  0.3195374E+02  0.7985350E+03
Ar 1286  0.3224100E+02  0.1964217E+02  0.2808494E+02  0.6992413E+03
Ar 1287  0.3215600E+02  0.1843467E+02  0.3452421E+02  0.4487183E+02
Ar 1288  0.3112053E+02  0.1800943E+02  0.3069806E+02  0.3632097E+03
Ar 1289  0.2742708E+02  0.2200828E+02  0.3495506E+02  0.1129672E+03
Ar 1290  0.3274758E+02  0.2506810E+02  0.3771805E+02  0.1436176E+04
Ar 1291  0.3305484E+02  0.2149509E+02  0.7566323E+00  0.1337164E+03
Ar 1292  0.3196991E+02  0.2351641E+02  0.3210239E+01  0.5955075E+03
Ar 1293  0.2973585E+02  0.2587561E+02  0.8142831E+01  0.1772818E+03
Ar 1294  0.3596955E+02  0.2421524E+02  0.6875211E+01  0.1975988E+03
Ar 1295  0.3334527E+02  0.2200932E+02  0.5978760E+01  0.6428022E+03
Ar 1296  0.3303935E+02  0.2505552E+02  0.8113993E+01  0.2672853E+03
Ar 1297  0.3118895E+02  0.2364565E+02  0.1184922E+02  0.3798998E+03
Ar 1298  0.3530752E+02  0.2474695E+02  0.1087452E+02  0.3188507E+03
Ar 1299  0.3015955E+02  0.2194499E+02  0.1506986E+02  0.3312122E+03
Ar 1300  0.2967265E+02  0.2616888E+02  0.1465695E+02  0.6500904E+03
Ar 1301  0.2988864E+02  0.1975155E+02  0.1786237E+02  0.1113610E+03
Ar 1302  0.3742308E+02  0.2245603E+02  0.1671324E+02  0.5535379E+03
Ar 1303  0.3450368E+02  0.2144745E+02  0.1768694E+02  0.2672643E+03
Ar 1304  0.3160523E+02  0.2301227E+02  0.1793049E+02  0.6965534E+03
Ar 1305  0.3234484E+02  0.2144459E+02  0.2142699E+02  0.2470340E+03
Ar 1306  0.3243032E+02  0.2456236E+02  0.2252681E+02  0.4812128E+03
Ar 1307  0.2894100E+00  0.1868445E+02  0.2777394E+02  0.9001389E+02
Ar 1308  0.3306121E+02  0.2568869E+02  0.3007263E+02  0.3106537E+03
Ar 1309  0.3021802E+02  0.1634071E+02  0.2343058E+02  0.1264392E+03
Ar 1310  0.3486746E+02  0.2384594E+02  0.2603258E+02  0.4619858E+03
Ar 1311  0.3707530E+02  0.1912991E+02  0.3079129E+02  0.2793219E+03
Ar 1312  0.3293385E+02  0.1837812E+02  0.2399883E+02  0.6310247E+02
Ar 1313  0.3168815E+02  0.2358157E+02  0.3284272E+02  0.1446220E+03
Ar 1314  0.3698445E+02  0.2592579E+02  0.3461597E+02  0.3485822E+02
Ar 1315  0.3382332E+02  0.2236803E+02  0.3538592E+02  0.1821364E+03
Ar 1316  0.3524663E+02  0.2931189E+02  0.3455553E+02  0.8486645E+03
Ar 1317  0.3509984E+02  0.3249963E+02  0.3663035E+02  0.3151493E+03
Ar 1318  0.1123778E+01  0.3193043E+02  0.3856675E-01  0.1241653E+03
Ar 1319  0.3407262E+02  0.2598452E+02  0.4848850E+01  0.1936467E+03
Ar 1320  0.3483782E+02  0.3388532E+02  0.2282010E+01  0.5107571E+03
Ar 1321  0.3190222E+02  0.2809570E+02  0.7482611E+01  0.1910208E+03
Ar 1322  0.8792942E+00  0.2753775E+02  0.5476284E+01  0.2297383E+03
Ar 1323  0.3532379E+02  0.2780573E+02  0.7740139E+01  0.4829592E+03
Ar 1324  0.3415199E+02  0.3285422E+02  0.7395271E+01  0.6181108E+03
Ar 1325  0.3009099E+02  0.3046318E+02  0.1072108E+02  0.2258218E+03
Ar 1326  0.5263932E+00  0.3019445E+02  0.8810462E+01  0.4449511E+03
Ar 1327  0.3275031E+02  0.2532350E+02  0.1516408E+02  0.5581634E+03
Ar 1328  0.3363548E+02  0.3179412E+02  0.1666334E+02  0.5092229E+02
Ar 1329  0.2860530E+02  0.2484979E+02  0.1798272E+02  0.2133287E+03
Ar 1330  0.3076928E+02  0.3265950E+02  0.1900232E+02  0.1109702E+03
Ar 1331  0.3549330E+02  0.2587043E+02  0.1718593E+02  0.1393581E+03
Ar 1332  0.2960557E+02  0.2834381E+02  0.1776963E+02  0.1794412E+03
Ar 1333  0.3476082E+02  0.2010868E+02  0.2586103E+02  0.6963899E+02
Ar 1334  0.3487675E+02  0.2736480E+02  0.2025792E+02  0.1293012E+03
Ar 1335  0.3657260E+02  0.2697099E+02  0.2567315E+02  0.1320696E+03
Ar 1336  0.3243505E+02  0.2983500E+02  0.1941652E+02  0.8151017E+03
Ar 1337  0.3518300E+02  0.2369747E+02  0.3183198E+02  0.7325863E+03
Ar 1338  0.4679587E+00  0.2849485E+02  0.2883337E+02  0.1034931E+04
Ar 1339  0.4968334E+00  0.2905925E+02  0.3623993E+02  0.7946247E+03
Ar 1340  0.3224317E+02  0.2939968E+02  0.2950492E+02  0.4629757E+03
Ar 1341  0.2589462E+02  0.2864542E+02  0.3010343E+02  0.2620712E+03
Ar 1342  0.3502639E+02  0.3150010E+02  0.3168567E+02  0.5897542E+03
Ar 1343  0.3566956E+02  0.2707209E+02  0.3728339E+02  0.2544741E+03
Ar 1344  0.3260076E+02  0.3217388E+02  0.3491424E+02  0.6174365E+02
Ar 1345  0.2836227E+02  0.2869244E+02  0.3354447E+02  0.2972172E+03
Ar 1346  0.1394024E+01  0.3585279E+02  0.3770351E+01  0.3374132E+03
Ar 1347  0.3518382E+02  0.3019736E+02  0.5162701E+01  0.8385290E+02
Ar 1348  0.3202955E+02  0.3572197E+02  0.1983514E+01  0.3647716E+03
Ar 1349  0.3197406E+02  0.3312711E+02  0.4594516E+01  0.1543856E+03
Ar 1350  0.3536733E+02  0.3580110E+02  0.5227710E+01  0.1272486E+03
Ar 1351  0.3662119E+02  0.3338566E+02  0.1080539E+02  0.1383979E+03
Ar 1352  0.3206119E+02  0.3346827E+02  0.1062651E+02  0.2688428E+03
Ar 1353  0.2838068E+02  0.3369982E+02  0.9938980E+01  0.2807146E+03
Ar 1354  0.3625580E+02  0.3766818E+02  0.1107360E+02  0.9205899E+03
Ar 1355  0.3012261E+02  0.2919397E+02  0.1421196E+02  0.1785332E+04
Ar 1356  0.3391160E+02  0.3481340E+02  0.1608120E+02  0.4066434E+03
Ar 1357  0.3491962E+02  0.3346362E+02  0.1908300E+02  0.8329854E+02
Ar 1358  0.3650909E+02  0.2869866E+02  0.2288654E+02  0.3596369E+03
Ar 1359  0.3577637E+02  0.3020274E+02  0.1848262E+02  0.1094570E+03
Ar 1360  0.3192518E+02  0.3355281E+02  0.2331688E+02  0.3371061E+03
Ar 1361  0.2978887E+02  0.3012030E+02  0.2122580E+02  0.3779117E+03
Ar 1362  0.1111431E+01  0.3480615E+02  0.2177719E+02  0.3304105E+03
Ar 1363  0.3585881E+02  0.2999707E+02  0.2723289E+02  0.6467481E+03
Ar 1364  0.3443252E+02  0.3105211E+02  0.2237773E+02  0.4803622E+03
Ar 1365  0.3349213E+02  0.2710473E+02  0.2704855E+02  0.1216870E+03
Ar 1366  0.3157324E+02  0.3527571E+02  0.2618569E+02  0.2108742E+02
Ar 1367  0.3676738E+02  0.2532849E+02  0.2882690E+02  0.3468629E+03
Ar 1368  0.3333916E+02  0.3647823E+02  0.3098296E+02  0.5500235E+03
Ar 1369  0.3249706E+02  0.3130720E+02  0.9504508E+00  0.8877289E+03
Ar 1370  0.3689032E+02  0.3711102E+02  0.2883302E+02  0.1049213E+03
Ar 1371  0.3314685E+00  0.3202553E+02  0.3430070E+02  0.9860129E+03
Ar 1372  0.2683362E+02  0.3483339E+02  0.4111978E+01  0.2438460E+03
