         864
Lattice="  0.1000000E+03  0.0000000E+00  0.0000000E+00  0.0000000E+00  0.1000000E+03  0.0000000E+00  0.0000000E+00  0.0000000E+00  0.1000000E+03" Properties=species:S:1:id:I:1:pos:R:3:tempK:R:1
Ar    1  0.0000000E+00  0.0000000E+00  0.0000000E+00  0.0000000E+00
Ar    2  0.2644610E+01  0.2644610E+01  0.0000000E+00  0.0000000E+00
Ar    3  0.2644610E+01  0.0000000E+00  0.2644610E+01  0.0000000E+00
Ar    4  0.0000000E+00  0.2644610E+01  0.2644610E+01  0.0000000E+00
Ar    5  0.0000000E+00  0.0000000E+00  0.5289220E+01  0.0000000E+00
Ar    6  0.2644610E+01  0.2644610E+01  0.5289220E+01  0.0000000E+00
Ar    7  0.2644610E+01  0.0000000E+00  0.7933831E+01  0.0000000E+00
Ar    8  0.0000000E+00  0.2644610E+01  0.7933831E+01  0.0000000E+00
Ar    9  0.0000000E+00  0.0000000E+00  0.1057844E+02  0.0000000E+00
Ar   10  0.2644610E+01  0.2644610E+01  0.1057844E+02  0.0000000E+00
Ar   11  0.2644610E+01  0.0000000E+00  0.1322305E+02  0.0000000E+00
Ar   12  0.0000000E+00  0.2644610E+01  0.1322305E+02  0.0000000E+00
Ar   13  0.0000000E+00  0.0000000E+00  0.1586766E+02  0.0000000E+00
Ar   14  0.2644610E+01  0.2644610E+01  0.1586766E+02  0.0000000E+00
Ar   15  0.2644610E+01  0.0000000E+00  0.1851227E+02  0.0000000E+00
Ar   16  0.0000000E+00  0.2644610E+01  0.1851227E+02  0.0000000E+00
Ar   17  0.0000000E+00  0.0000000E+00  0.2115688E+02  0.0000000E+00
Ar   18  0.2644610E+01  0.2644610E+01  0.2115688E+02  0.0000000E+00
Ar   19  0.2644610E+01  0.0000000E+00  0.2380149E+02  0.0000000E+00
Ar   20  0.0000000E+00  0.2644610E+01  0.2380149E+02  0.0000000E+00
Ar   21  0.0000000E+00  0.0000000E+00  0.2644610E+02  0.0000000E+00
Ar   22  0.2644610E+01  0.2644610E+01  0.2644610E+02  0.0000000E+00
Ar   23  0.2644610E+01  0.0000000E+00  0.2909071E+02  0.0000000E+00
Ar   24  0.0000000E+00  0.2644610E+01  0.2909071E+02  0.0000000E+00
Ar   25  0.0000000E+00  0.5289220E+01  0.0000000E+00  0.0000000E+00
Ar   26  0.2644610E+01  0.7933831E+01  0.0000000E+00  0.0000000E+00
Ar   27  0.2644610E+01  0.5289220E+01  0.2644610E+01  0.0000000E+00
Ar   28  0.0000000E+00  0.7933831E+01  0.2644610E+01  0.0000000E+00
Ar   29  0.0000000E+00  0.5289220E+01  0.5289220E+01  0.0000000E+00
Ar   30  0.2644610E+01  0.7933831E+01  0.5289220E+01  0.0000000E+00
Ar   31  0.2644610E+01  0.5289220E+01  0.7933831E+01  0.0000000E+00
Ar   32  0.0000000E+00  0.7933831E+01  0.7933831E+01  0.0000000E+00
Ar   33  0.0000000E+00  0.5289220E+01  0.1057844E+02  0.0000000E+00
Ar   34  0.2644610E+01  0.7933831E+01  0.1057844E+02  0.0000000E+00
Ar   35  0.2644610E+01  0.5289220E+01  0.1322305E+02  0.0000000E+00
Ar   36  0.0000000E+00  0.7933831E+01  0.1322305E+02  0.0000000E+00
Ar   37  0.0000000E+00  0.5289220E+01  0.1586766E+02  0.0000000E+00
Ar   38  0.2644610E+01  0.7933831E+01  0.1586766E+02  0.0000000E+00
Ar   39  0.2644610E+01  0.5289220E+01  0.1851227E+02  0.0000000E+00
Ar   40  0.0000000E+00  0.7933831E+01  0.1851227E+02  0.0000000E+00
Ar   41  0.0000000E+00  0.5289220E+01  0.2115688E+02  0.0000000E+00
Ar   42  0.2644610E+01  0.7933831E+01  0.2115688E+02  0.0000000E+00
Ar   43  0.2644610E+01  0.5289220E+01  0.2380149E+02  0.0000000E+00
Ar   44  0.0000000E+00  0.7933831E+01  0.2380149E+02  0.0000000E+00
Ar   45  0.0000000E+00  0.5289220E+01  0.2644610E+02  0.0000000E+00
Ar   46  0.2644610E+01  0.7933831E+01  0.2644610E+02  0.0000000E+00
Ar   47  0.2644610E+01  0.5289220E+01  0.2909071E+02  0.0000000E+00
Ar   48  0.0000000E+00  0.7933831E+01  0.2909071E+02  0.0000000E+00
Ar   49  0.0000000E+00  0.1057844E+02  0.0000000E+00  0.0000000E+00
Ar   50  0.2644610E+01  0.1322305E+02  0.0000000E+00  0.0000000E+00
Ar   51  0.2644610E+01  0.1057844E+02  0.2644610E+01  0.0000000E+00
Ar   52  0.0000000E+00  0.1322305E+02  0.2644610E+01  0.0000000E+00
Ar   53  0.0000000E+00  0.1057844E+02  0.5289220E+01  0.0000000E+00
Ar   54  0.2644610E+01  0.1322305E+02  0.5289220E+01  0.0000000E+00
Ar   55  0.2644610E+01  0.1057844E+02  0.7933831E+01  0.0000000E+00
Ar   56  0.0000000E+00  0.1322305E+02  0.7933831E+01  0.0000000E+00
Ar   57  0.0000000E+00  0.1057844E+02  0.1057844E+02  0.0000000E+00
Ar   58  0.2644610E+01  0.1322305E+02  0.1057844E+02  0.0000000E+00
Ar   59  0.2644610E+01  0.1057844E+02  0.1322305E+02  0.0000000E+00
Ar   60  0.0000000E+00  0.1322305E+02  0.1322305E+02  0.0000000E+00
Ar   61  0.0000000E+00  0.1057844E+02  0.1586766E+02  0.0000000E+00
Ar   62  0.2644610E+01  0.1322305E+02  0.1586766E+02  0.0000000E+00
Ar   63  0.2644610E+01  0.1057844E+02  0.1851227E+02  0.0000000E+00
Ar   64  0.0000000E+00  0.1322305E+02  0.1851227E+02  0.0000000E+00
Ar   65  0.0000000E+00  0.1057844E+02  0.2115688E+02  0.0000000E+00
Ar   66  0.2644610E+01  0.1322305E+02  0.2115688E+02  0.0000000E+00
Ar   67  0.2644610E+01  0.1057844E+02  0.2380149E+02  0.0000000E+00
Ar   68  0.0000000E+00  0.1322305E+02  0.2380149E+02  0.0000000E+00
Ar   69  0.0000000E+00  0.1057844E+02  0.2644610E+02  0.0000000E+00
Ar   70  0.2644610E+01  0.1322305E+02  0.2644610E+02  0.0000000E+00
Ar   71  0.2644610E+01  0.1057844E+02  0.2909071E+02  0.0000000E+00
Ar   72  0.0000000E+00  0.1322305E+02  0.2909071E+02  0.0000000E+00
Ar   73  0.0000000E+00  0.1586766E+02  0.0000000E+00  0.0000000E+00
Ar   74  0.2644610E+01  0.1851227E+02  0.0000000E+00  0.0000000E+00
Ar   75  0.2644610E+01  0.1586766E+02  0.2644610E+01  0.0000000E+00
Ar   76  0.0000000E+00  0.1851227E+02  0.2644610E+01  0.0000000E+00
Ar   77  0.0000000E+00  0.1586766E+02  0.5289220E+01  0.0000000E+00
Ar   78  0.2644610E+01  0.1851227E+02  0.5289220E+01  0.0000000E+00
Ar   79  0.2644610E+01  0.1586766E+02  0.7933831E+01  0.0000000E+00
Ar   80  0.0000000E+00  0.1851227E+02  0.7933831E+01  0.0000000E+00
Ar   81  0.0000000E+00  0.1586766E+02  0.1057844E+02  0.0000000E+00
Ar   82  0.2644610E+01  0.1851227E+02  0.1057844E+02  0.0000000E+00
Ar   83  0.2644610E+01  0.1586766E+02  0.1322305E+02  0.0000000E+00
Ar   84  0.0000000E+00  0.1851227E+02  0.1322305E+02  0.0000000E+00
Ar   85  0.0000000E+00  0.1586766E+02  0.1586766E+02  0.0000000E+00
Ar   86  0.2644610E+01  0.1851227E+02  0.1586766E+02  0.0000000E+00
Ar   87  0.2644610E+01  0.1586766E+02  0.1851227E+02  0.0000000E+00
Ar   88  0.0000000E+00  0.1851227E+02  0.1851227E+02  0.0000000E+00
Ar   89  0.0000000E+00  0.1586766E+02  0.2115688E+02  0.0000000E+00
Ar   90  0.2644610E+01  0.1851227E+02  0.2115688E+02  0.0000000E+00
Ar   91  0.2644610E+01  0.1586766E+02  0.2380149E+02  0.0000000E+00
Ar   92  0.0000000E+00  0.1851227E+02  0.2380149E+02  0.0000000E+00
Ar   93  0.0000000E+00  0.1586766E+02  0.2644610E+02  0.0000000E+00
Ar   94  0.2644610E+01  0.1851227E+02  0.2644610E+02  0.0000000E+00
Ar   95  0.2644610E+01  0.1586766E+02  0.2909071E+02  0.0000000E+00
Ar   96  0.0000000E+00  0.1851227E+02  0.2909071E+02  0.0000000E+00
Ar   97  0.0000000E+00  0.2115688E+02  0.0000000E+00  0.0000000E+00
Ar   98  0.2644610E+01  0.2380149E+02  0.0000000E+00  0.0000000E+00
Ar   99  0.2644610E+01  0.2115688E+02  0.2644610E+01  0.0000000E+00
Ar  100  0.0000000E+00  0.2380149E+02  0.2644610E+01  0.0000000E+00
Ar  101  0.0000000E+00  0.2115688E+02  0.5289220E+01  0.0000000E+00
Ar  102  0.2644610E+01  0.2380149E+02  0.5289220E+01  0.0000000E+00
Ar  103  0.2644610E+01  0.2115688E+02  0.7933831E+01  0.0000000E+00
Ar  104  0.0000000E+00  0.2380149E+02  0.7933831E+01  0.0000000E+00
Ar  105  0.0000000E+00  0.2115688E+02  0.1057844E+02  0.0000000E+00
Ar  106  0.2644610E+01  0.2380149E+02  0.1057844E+02  0.0000000E+00
Ar  107  0.2644610E+01  0.2115688E+02  0.1322305E+02  0.0000000E+00
Ar  108  0.0000000E+00  0.2380149E+02  0.1322305E+02  0.0000000E+00
Ar  109  0.0000000E+00  0.2115688E+02  0.1586766E+02  0.0000000E+00
Ar  110  0.2644610E+01  0.2380149E+02  0.1586766E+02  0.0000000E+00
Ar  111  0.2644610E+01  0.2115688E+02  0.1851227E+02  0.0000000E+00
Ar  112  0.0000000E+00  0.2380149E+02  0.1851227E+02  0.0000000E+00
Ar  113  0.0000000E+00  0.2115688E+02  0.2115688E+02  0.0000000E+00
Ar  114  0.2644610E+01  0.2380149E+02  0.2115688E+02  0.0000000E+00
Ar  115  0.2644610E+01  0.2115688E+02  0.2380149E+02  0.0000000E+00
Ar  116  0.0000000E+00  0.2380149E+02  0.2380149E+02  0.0000000E+00
Ar  117  0.0000000E+00  0.2115688E+02  0.2644610E+02  0.0000000E+00
Ar  118  0.2644610E+01  0.2380149E+02  0.2644610E+02  0.0000000E+00
Ar  119  0.2644610E+01  0.2115688E+02  0.2909071E+02  0.0000000E+00
Ar  120  0.0000000E+00  0.2380149E+02  0.2909071E+02  0.0000000E+00
Ar  121  0.0000000E+00  0.2644610E+02  0.0000000E+00  0.0000000E+00
Ar  122  0.2644610E+01  0.2909071E+02  0.0000000E+00  0.0000000E+00
Ar  123  0.2644610E+01  0.2644610E+02  0.2644610E+01  0.0000000E+00
Ar  124  0.0000000E+00  0.2909071E+02  0.2644610E+01  0.0000000E+00
Ar  125  0.0000000E+00  0.2644610E+02  0.5289220E+01  0.0000000E+00
Ar  126  0.2644610E+01  0.2909071E+02  0.5289220E+01  0.0000000E+00
Ar  127  0.2644610E+01  0.2644610E+02  0.7933831E+01  0.0000000E+00
Ar  128  0.0000000E+00  0.2909071E+02  0.7933831E+01  0.0000000E+00
Ar  129  0.0000000E+00  0.2644610E+02  0.1057844E+02  0.0000000E+00
Ar  130  0.2644610E+01  0.2909071E+02  0.1057844E+02  0.0000000E+00
Ar  131  0.2644610E+01  0.2644610E+02  0.1322305E+02  0.0000000E+00
Ar  132  0.0000000E+00  0.2909071E+02  0.1322305E+02  0.0000000E+00
Ar  133  0.0000000E+00  0.2644610E+02  0.1586766E+02  0.0000000E+00
Ar  134  0.2644610E+01  0.2909071E+02  0.1586766E+02  0.0000000E+00
Ar  135  0.2644610E+01  0.2644610E+02  0.1851227E+02  0.0000000E+00
Ar  136  0.0000000E+00  0.2909071E+02  0.1851227E+02  0.0000000E+00
Ar  137  0.0000000E+00  0.2644610E+02  0.2115688E+02  0.0000000E+00
Ar  138  0.2644610E+01  0.2909071E+02  0.2115688E+02  0.0000000E+00
Ar  139  0.2644610E+01  0.2644610E+02  0.2380149E+02  0.0000000E+00
Ar  140  0.0000000E+00  0.2909071E+02  0.2380149E+02  0.0000000E+00
Ar  141  0.0000000E+00  0.2644610E+02  0.2644610E+02  0.0000000E+00
Ar  142  0.2644610E+01  0.2909071E+02  0.2644610E+02  0.0000000E+00
Ar  143  0.2644610E+01  0.2644610E+02  0.2909071E+02  0.0000000E+00
Ar  144  0.0000000E+00  0.2909071E+02  0.2909071E+02  0.0000000E+00
Ar  145  0.5289220E+01  0.0000000E+00  0.0000000E+00  0.0000000E+00
Ar  146  0.7933831E+01  0.2644610E+01  0.0000000E+00  0.0000000E+00
Ar  147  0.7933831E+01  0.0000000E+00  0.2644610E+01  0.0000000E+00
Ar  148  0.5289220E+01  0.2644610E+01  0.2644610E+01  0.0000000E+00
Ar  149  0.5289220E+01  0.0000000E+00  0.5289220E+01  0.0000000E+00
Ar  150  0.7933831E+01  0.2644610E+01  0.5289220E+01  0.0000000E+00
Ar  151  0.7933831E+01  0.0000000E+00  0.7933831E+01  0.0000000E+00
Ar  152  0.5289220E+01  0.2644610E+01  0.7933831E+01  0.0000000E+00
Ar  153  0.5289220E+01  0.0000000E+00  0.1057844E+02  0.0000000E+00
Ar  154  0.7933831E+01  0.2644610E+01  0.1057844E+02  0.0000000E+00
Ar  155  0.7933831E+01  0.0000000E+00  0.1322305E+02  0.0000000E+00
Ar  156  0.5289220E+01  0.2644610E+01  0.1322305E+02  0.0000000E+00
Ar  157  0.5289220E+01  0.0000000E+00  0.1586766E+02  0.0000000E+00
Ar  158  0.7933831E+01  0.2644610E+01  0.1586766E+02  0.0000000E+00
Ar  159  0.7933831E+01  0.0000000E+00  0.1851227E+02  0.0000000E+00
Ar  160  0.5289220E+01  0.2644610E+01  0.1851227E+02  0.0000000E+00
Ar  161  0.5289220E+01  0.0000000E+00  0.2115688E+02  0.0000000E+00
Ar  162  0.7933831E+01  0.2644610E+01  0.2115688E+02  0.0000000E+00
Ar  163  0.7933831E+01  0.0000000E+00  0.2380149E+02  0.0000000E+00
Ar  164  0.5289220E+01  0.2644610E+01  0.2380149E+02  0.0000000E+00
Ar  165  0.5289220E+01  0.0000000E+00  0.2644610E+02  0.0000000E+00
Ar  166  0.7933831E+01  0.2644610E+01  0.2644610E+02  0.0000000E+00
Ar  167  0.7933831E+01  0.0000000E+00  0.2909071E+02  0.0000000E+00
Ar  168  0.5289220E+01  0.2644610E+01  0.2909071E+02  0.0000000E+00
Ar  169  0.5289220E+01  0.5289220E+01  0.0000000E+00  0.0000000E+00
Ar  170  0.7933831E+01  0.7933831E+01  0.0000000E+00  0.0000000E+00
Ar  171  0.7933831E+01  0.5289220E+01  0.2644610E+01  0.0000000E+00
Ar  172  0.5289220E+01  0.7933831E+01  0.2644610E+01  0.0000000E+00
Ar  173  0.5289220E+01  0.5289220E+01  0.5289220E+01  0.0000000E+00
Ar  174  0.7933831E+01  0.7933831E+01  0.5289220E+01  0.0000000E+00
Ar  175  0.7933831E+01  0.5289220E+01  0.7933831E+01  0.0000000E+00
Ar  176  0.5289220E+01  0.7933831E+01  0.7933831E+01  0.0000000E+00
Ar  177  0.5289220E+01  0.5289220E+01  0.1057844E+02  0.0000000E+00
Ar  178  0.7933831E+01  0.7933831E+01  0.1057844E+02  0.0000000E+00
Ar  179  0.7933831E+01  0.5289220E+01  0.1322305E+02  0.0000000E+00
Ar  180  0.5289220E+01  0.7933831E+01  0.1322305E+02  0.0000000E+00
Ar  181  0.5289220E+01  0.5289220E+01  0.1586766E+02  0.0000000E+00
Ar  182  0.7933831E+01  0.7933831E+01  0.1586766E+02  0.0000000E+00
Ar  183  0.7933831E+01  0.5289220E+01  0.1851227E+02  0.0000000E+00
Ar  184  0.5289220E+01  0.7933831E+01  0.1851227E+02  0.0000000E+00
Ar  185  0.5289220E+01  0.5289220E+01  0.2115688E+02  0.0000000E+00
Ar  186  0.7933831E+01  0.7933831E+01  0.2115688E+02  0.0000000E+00
Ar  187  0.7933831E+01  0.5289220E+01  0.2380149E+02  0.0000000E+00
Ar  188  0.5289220E+01  0.7933831E+01  0.2380149E+02  0.0000000E+00
Ar  189  0.5289220E+01  0.5289220E+01  0.2644610E+02  0.0000000E+00
Ar  190  0.7933831E+01  0.7933831E+01  0.2644610E+02  0.0000000E+00
Ar  191  0.7933831E+01  0.5289220E+01  0.2909071E+02  0.0000000E+00
Ar  192  0.5289220E+01  0.7933831E+01  0.2909071E+02  0.0000000E+00
Ar  193  0.5289220E+01  0.1057844E+02  0.0000000E+00  0.0000000E+00
Ar  194  0.7933831E+01  0.1322305E+02  0.0000000E+00  0.0000000E+00
Ar  195  0.7933831E+01  0.1057844E+02  0.2644610E+01  0.0000000E+00
Ar  196  0.5289220E+01  0.1322305E+02  0.2644610E+01  0.0000000E+00
Ar  197  0.5289220E+01  0.1057844E+02  0.5289220E+01  0.0000000E+00
Ar  198  0.7933831E+01  0.1322305E+02  0.5289220E+01  0.0000000E+00
Ar  199  0.7933831E+01  0.1057844E+02  0.7933831E+01  0.0000000E+00
Ar  200  0.5289220E+01  0.1322305E+02  0.7933831E+01  0.0000000E+00
Ar  201  0.5289220E+01  0.1057844E+02  0.1057844E+02  0.0000000E+00
Ar  202  0.7933831E+01  0.1322305E+02  0.1057844E+02  0.0000000E+00
Ar  203  0.7933831E+01  0.1057844E+02  0.1322305E+02  0.0000000E+00
Ar  204  0.5289220E+01  0.1322305E+02  0.1322305E+02  0.0000000E+00
Ar  205  0.5289220E+01  0.1057844E+02  0.1586766E+02  0.0000000E+00
Ar  206  0.7933831E+01  0.1322305E+02  0.1586766E+02  0.0000000E+00
Ar  207  0.7933831E+01  0.1057844E+02  0.1851227E+02  0.0000000E+00
Ar  208  0.5289220E+01  0.1322305E+02  0.1851227E+02  0.0000000E+00
Ar  209  0.5289220E+01  0.1057844E+02  0.2115688E+02  0.0000000E+00
Ar  210  0.7933831E+01  0.1322305E+02  0.2115688E+02  0.0000000E+00
Ar  211  0.7933831E+01  0.1057844E+02  0.2380149E+02  0.0000000E+00
Ar  212  0.5289220E+01  0.1322305E+02  0.2380149E+02  0.0000000E+00
Ar  213  0.5289220E+01  0.1057844E+02  0.2644610E+02  0.0000000E+00
Ar  214  0.7933831E+01  0.1322305E+02  0.2644610E+02  0.0000000E+00
Ar  215  0.7933831E+01  0.1057844E+02  0.2909071E+02  0.0000000E+00
Ar  216  0.5289220E+01  0.1322305E+02  0.2909071E+02  0.0000000E+00
Ar  217  0.5289220E+01  0.1586766E+02  0.0000000E+00  0.0000000E+00
Ar  218  0.7933831E+01  0.1851227E+02  0.0000000E+00  0.0000000E+00
Ar  219  0.7933831E+01  0.1586766E+02  0.2644610E+01  0.0000000E+00
Ar  220  0.5289220E+01  0.1851227E+02  0.2644610E+01  0.0000000E+00
Ar  221  0.5289220E+01  0.1586766E+02  0.5289220E+01  0.0000000E+00
Ar  222  0.7933831E+01  0.1851227E+02  0.5289220E+01  0.0000000E+00
Ar  223  0.7933831E+01  0.1586766E+02  0.7933831E+01  0.0000000E+00
Ar  224  0.5289220E+01  0.1851227E+02  0.7933831E+01  0.0000000E+00
Ar  225  0.5289220E+01  0.1586766E+02  0.1057844E+02  0.0000000E+00
Ar  226  0.7933831E+01  0.1851227E+02  0.1057844E+02  0.0000000E+00
Ar  227  0.7933831E+01  0.1586766E+02  0.1322305E+02  0.0000000E+00
Ar  228  0.5289220E+01  0.1851227E+02  0.1322305E+02  0.0000000E+00
Ar  229  0.5289220E+01  0.1586766E+02  0.1586766E+02  0.0000000E+00
Ar  230  0.7933831E+01  0.1851227E+02  0.1586766E+02  0.0000000E+00
Ar  231  0.7933831E+01  0.1586766E+02  0.1851227E+02  0.0000000E+00
Ar  232  0.5289220E+01  0.1851227E+02  0.1851227E+02  0.0000000E+00
Ar  233  0.5289220E+01  0.1586766E+02  0.2115688E+02  0.0000000E+00
Ar  234  0.7933831E+01  0.1851227E+02  0.2115688E+02  0.0000000E+00
Ar  235  0.7933831E+01  0.1586766E+02  0.2380149E+02  0.0000000E+00
Ar  236  0.5289220E+01  0.1851227E+02  0.2380149E+02  0.0000000E+00
Ar  237  0.5289220E+01  0.1586766E+02  0.2644610E+02  0.0000000E+00
Ar  238  0.7933831E+01  0.1851227E+02  0.2644610E+02  0.0000000E+00
Ar  239  0.7933831E+01  0.1586766E+02  0.2909071E+02  0.0000000E+00
Ar  240  0.5289220E+01  0.1851227E+02  0.2909071E+02  0.0000000E+00
Ar  241  0.5289220E+01  0.2115688E+02  0.0000000E+00  0.0000000E+00
Ar  242  0.7933831E+01  0.2380149E+02  0.0000000E+00  0.0000000E+00
Ar  243  0.7933831E+01  0.2115688E+02  0.2644610E+01  0.0000000E+00
Ar  244  0.5289220E+01  0.2380149E+02  0.2644610E+01  0.0000000E+00
Ar  245  0.5289220E+01  0.2115688E+02  0.5289220E+01  0.0000000E+00
Ar  246  0.7933831E+01  0.2380149E+02  0.5289220E+01  0.0000000E+00
Ar  247  0.7933831E+01  0.2115688E+02  0.7933831E+01  0.0000000E+00
Ar  248  0.5289220E+01  0.2380149E+02  0.7933831E+01  0.0000000E+00
Ar  249  0.5289220E+01  0.2115688E+02  0.1057844E+02  0.0000000E+00
Ar  250  0.7933831E+01  0.2380149E+02  0.1057844E+02  0.0000000E+00
Ar  251  0.7933831E+01  0.2115688E+02  0.1322305E+02  0.0000000E+00
Ar  252  0.5289220E+01  0.2380149E+02  0.1322305E+02  0.0000000E+00
Ar  253  0.5289220E+01  0.2115688E+02  0.1586766E+02  0.0000000E+00
Ar  254  0.7933831E+01  0.2380149E+02  0.1586766E+02  0.0000000E+00
Ar  255  0.7933831E+01  0.2115688E+02  0.1851227E+02  0.0000000E+00
Ar  256  0.5289220E+01  0.2380149E+02  0.1851227E+02  0.0000000E+00
Ar  257  0.5289220E+01  0.2115688E+02  0.2115688E+02  0.0000000E+00
Ar  258  0.7933831E+01  0.2380149E+02  0.2115688E+02  0.0000000E+00
Ar  259  0.7933831E+01  0.2115688E+02  0.2380149E+02  0.0000000E+00
Ar  260  0.5289220E+01  0.2380149E+02  0.2380149E+02  0.0000000E+00
Ar  261  0.5289220E+01  0.2115688E+02  0.2644610E+02  0.0000000E+00
Ar  262  0.7933831E+01  0.2380149E+02  0.2644610E+02  0.0000000E+00
Ar  263  0.7933831E+01  0.2115688E+02  0.2909071E+02  0.0000000E+00
Ar  264  0.5289220E+01  0.2380149E+02  0.2909071E+02  0.0000000E+00
Ar  265  0.5289220E+01  0.2644610E+02  0.0000000E+00  0.0000000E+00
Ar  266  0.7933831E+01  0.2909071E+02  0.0000000E+00  0.0000000E+00
Ar  267  0.7933831E+01  0.2644610E+02  0.2644610E+01  0.0000000E+00
Ar  268  0.5289220E+01  0.2909071E+02  0.2644610E+01  0.0000000E+00
Ar  269  0.5289220E+01  0.2644610E+02  0.5289220E+01  0.0000000E+00
Ar  270  0.7933831E+01  0.2909071E+02  0.5289220E+01  0.0000000E+00
Ar  271  0.7933831E+01  0.2644610E+02  0.7933831E+01  0.0000000E+00
Ar  272  0.5289220E+01  0.2909071E+02  0.7933831E+01  0.0000000E+00
Ar  273  0.5289220E+01  0.2644610E+02  0.1057844E+02  0.0000000E+00
Ar  274  0.7933831E+01  0.2909071E+02  0.1057844E+02  0.0000000E+00
Ar  275  0.7933831E+01  0.2644610E+02  0.1322305E+02  0.0000000E+00
Ar  276  0.5289220E+01  0.2909071E+02  0.1322305E+02  0.0000000E+00
Ar  277  0.5289220E+01  0.2644610E+02  0.1586766E+02  0.0000000E+00
Ar  278  0.7933831E+01  0.2909071E+02  0.1586766E+02  0.0000000E+00
Ar  279  0.7933831E+01  0.2644610E+02  0.1851227E+02  0.0000000E+00
Ar  280  0.5289220E+01  0.2909071E+02  0.1851227E+02  0.0000000E+00
Ar  281  0.5289220E+01  0.2644610E+02  0.2115688E+02  0.0000000E+00
Ar  282  0.7933831E+01  0.2909071E+02  0.2115688E+02  0.0000000E+00
Ar  283  0.7933831E+01  0.2644610E+02  0.2380149E+02  0.0000000E+00
Ar  284  0.5289220E+01  0.2909071E+02  0.2380149E+02  0.0000000E+00
Ar  285  0.5289220E+01  0.2644610E+02  0.2644610E+02  0.0000000E+00
Ar  286  0.7933831E+01  0.2909071E+02  0.2644610E+02  0.0000000E+00
Ar  287  0.7933831E+01  0.2644610E+02  0.2909071E+02  0.0000000E+00
Ar  288  0.5289220E+01  0.2909071E+02  0.2909071E+02  0.0000000E+00
Ar  289  0.1057844E+02  0.0000000E+00  0.0000000E+00  0.0000000E+00
Ar  290  0.1322305E+02  0.2644610E+01  0.0000000E+00  0.0000000E+00
Ar  291  0.1322305E+02  0.0000000E+00  0.2644610E+01  0.0000000E+00
Ar  292  0.1057844E+02  0.2644610E+01  0.2644610E+01  0.0000000E+00
Ar  293  0.1057844E+02  0.0000000E+00  0.5289220E+01  0.0000000E+00
Ar  294  0.1322305E+02  0.2644610E+01  0.5289220E+01  0.0000000E+00
Ar  295  0.1322305E+02  0.0000000E+00  0.7933831E+01  0.0000000E+00
Ar  296  0.1057844E+02  0.2644610E+01  0.7933831E+01  0.0000000E+00
Ar  297  0.1057844E+02  0.0000000E+00  0.1057844E+02  0.0000000E+00
Ar  298  0.1322305E+02  0.2644610E+01  0.1057844E+02  0.0000000E+00
Ar  299  0.1322305E+02  0.0000000E+00  0.1322305E+02  0.0000000E+00
Ar  300  0.1057844E+02  0.2644610E+01  0.1322305E+02  0.0000000E+00
Ar  301  0.1057844E+02  0.0000000E+00  0.1586766E+02  0.0000000E+00
Ar  302  0.1322305E+02  0.2644610E+01  0.1586766E+02  0.0000000E+00
Ar  303  0.1322305E+02  0.0000000E+00  0.1851227E+02  0.0000000E+00
Ar  304  0.1057844E+02  0.2644610E+01  0.1851227E+02  0.0000000E+00
Ar  305  0.1057844E+02  0.0000000E+00  0.2115688E+02  0.0000000E+00
Ar  306  0.1322305E+02  0.2644610E+01  0.2115688E+02  0.0000000E+00
Ar  307  0.1322305E+02  0.0000000E+00  0.2380149E+02  0.0000000E+00
Ar  308  0.1057844E+02  0.2644610E+01  0.2380149E+02  0.0000000E+00
Ar  309  0.1057844E+02  0.0000000E+00  0.2644610E+02  0.0000000E+00
Ar  310  0.1322305E+02  0.2644610E+01  0.2644610E+02  0.0000000E+00
Ar  311  0.1322305E+02  0.0000000E+00  0.2909071E+02  0.0000000E+00
Ar  312  0.1057844E+02  0.2644610E+01  0.2909071E+02  0.0000000E+00
Ar  313  0.1057844E+02  0.5289220E+01  0.0000000E+00  0.0000000E+00
Ar  314  0.1322305E+02  0.7933831E+01  0.0000000E+00  0.0000000E+00
Ar  315  0.1322305E+02  0.5289220E+01  0.2644610E+01  0.0000000E+00
Ar  316  0.1057844E+02  0.7933831E+01  0.2644610E+01  0.0000000E+00
Ar  317  0.1057844E+02  0.5289220E+01  0.5289220E+01  0.0000000E+00
Ar  318  0.1322305E+02  0.7933831E+01  0.5289220E+01  0.0000000E+00
Ar  319  0.1322305E+02  0.5289220E+01  0.7933831E+01  0.0000000E+00
Ar  320  0.1057844E+02  0.7933831E+01  0.7933831E+01  0.0000000E+00
Ar  321  0.1057844E+02  0.5289220E+01  0.1057844E+02  0.0000000E+00
Ar  322  0.1322305E+02  0.7933831E+01  0.1057844E+02  0.0000000E+00
Ar  323  0.1322305E+02  0.5289220E+01  0.1322305E+02  0.0000000E+00
Ar  324  0.1057844E+02  0.7933831E+01  0.1322305E+02  0.0000000E+00
Ar  325  0.1057844E+02  0.5289220E+01  0.1586766E+02  0.0000000E+00
Ar  326  0.1322305E+02  0.7933831E+01  0.1586766E+02  0.0000000E+00
Ar  327  0.1322305E+02  0.5289220E+01  0.1851227E+02  0.0000000E+00
Ar  328  0.1057844E+02  0.7933831E+01  0.1851227E+02  0.0000000E+00
Ar  329  0.1057844E+02  0.5289220E+01  0.2115688E+02  0.0000000E+00
Ar  330  0.1322305E+02  0.7933831E+01  0.2115688E+02  0.0000000E+00
Ar  331  0.1322305E+02  0.5289220E+01  0.2380149E+02  0.0000000E+00
Ar  332  0.1057844E+02  0.7933831E+01  0.2380149E+02  0.0000000E+00
Ar  333  0.1057844E+02  0.5289220E+01  0.2644610E+02  0.0000000E+00
Ar  334  0.1322305E+02  0.7933831E+01  0.2644610E+02  0.0000000E+00
Ar  335  0.1322305E+02  0.5289220E+01  0.2909071E+02  0.0000000E+00
Ar  336  0.1057844E+02  0.7933831E+01  0.2909071E+02  0.0000000E+00
Ar  337  0.1057844E+02  0.1057844E+02  0.0000000E+00  0.0000000E+00
Ar  338  0.1322305E+02  0.1322305E+02  0.0000000E+00  0.0000000E+00
Ar  339  0.1322305E+02  0.1057844E+02  0.2644610E+01  0.0000000E+00
Ar  340  0.1057844E+02  0.1322305E+02  0.2644610E+01  0.0000000E+00
Ar  341  0.1057844E+02  0.1057844E+02  0.5289220E+01  0.0000000E+00
Ar  342  0.1322305E+02  0.1322305E+02  0.5289220E+01  0.0000000E+00
Ar  343  0.1322305E+02  0.1057844E+02  0.7933831E+01  0.0000000E+00
Ar  344  0.1057844E+02  0.1322305E+02  0.7933831E+01  0.0000000E+00
Ar  345  0.1057844E+02  0.1057844E+02  0.1057844E+02  0.0000000E+00
Ar  346  0.1322305E+02  0.1322305E+02  0.1057844E+02  0.0000000E+00
Ar  347  0.1322305E+02  0.1057844E+02  0.1322305E+02  0.0000000E+00
Ar  348  0.1057844E+02  0.1322305E+02  0.1322305E+02  0.0000000E+00
Ar  349  0.1057844E+02  0.1057844E+02  0.1586766E+02  0.0000000E+00
Ar  350  0.1322305E+02  0.1322305E+02  0.1586766E+02  0.0000000E+00
Ar  351  0.1322305E+02  0.1057844E+02  0.1851227E+02  0.0000000E+00
Ar  352  0.1057844E+02  0.1322305E+02  0.1851227E+02  0.0000000E+00
Ar  353  0.1057844E+02  0.1057844E+02  0.2115688E+02  0.0000000E+00
Ar  354  0.1322305E+02  0.1322305E+02  0.2115688E+02  0.0000000E+00
Ar  355  0.1322305E+02  0.1057844E+02  0.2380149E+02  0.0000000E+00
Ar  356  0.1057844E+02  0.1322305E+02  0.2380149E+02  0.0000000E+00
Ar  357  0.1057844E+02  0.1057844E+02  0.2644610E+02  0.0000000E+00
Ar  358  0.1322305E+02  0.1322305E+02  0.2644610E+02  0.0000000E+00
Ar  359  0.1322305E+02  0.1057844E+02  0.2909071E+02  0.0000000E+00
Ar  360  0.1057844E+02  0.1322305E+02  0.2909071E+02  0.0000000E+00
Ar  361  0.1057844E+02  0.1586766E+02  0.0000000E+00  0.0000000E+00
Ar  362  0.1322305E+02  0.1851227E+02  0.0000000E+00  0.0000000E+00
Ar  363  0.1322305E+02  0.1586766E+02  0.2644610E+01  0.0000000E+00
Ar  364  0.1057844E+02  0.1851227E+02  0.2644610E+01  0.0000000E+00
Ar  365  0.1057844E+02  0.1586766E+02  0.5289220E+01  0.0000000E+00
Ar  366  0.1322305E+02  0.1851227E+02  0.5289220E+01  0.0000000E+00
Ar  367  0.1322305E+02  0.1586766E+02  0.7933831E+01  0.0000000E+00
Ar  368  0.1057844E+02  0.1851227E+02  0.7933831E+01  0.0000000E+00
Ar  369  0.1057844E+02  0.1586766E+02  0.1057844E+02  0.0000000E+00
Ar  370  0.1322305E+02  0.1851227E+02  0.1057844E+02  0.0000000E+00
Ar  371  0.1322305E+02  0.1586766E+02  0.1322305E+02  0.0000000E+00
Ar  372  0.1057844E+02  0.1851227E+02  0.1322305E+02  0.0000000E+00
Ar  373  0.1057844E+02  0.1586766E+02  0.1586766E+02  0.0000000E+00
Ar  374  0.1322305E+02  0.1851227E+02  0.1586766E+02  0.0000000E+00
Ar  375  0.1322305E+02  0.1586766E+02  0.1851227E+02  0.0000000E+00
Ar  376  0.1057844E+02  0.1851227E+02  0.1851227E+02  0.0000000E+00
Ar  377  0.1057844E+02  0.1586766E+02  0.2115688E+02  0.0000000E+00
Ar  378  0.1322305E+02  0.1851227E+02  0.2115688E+02  0.0000000E+00
Ar  379  0.1322305E+02  0.1586766E+02  0.2380149E+02  0.0000000E+00
Ar  380  0.1057844E+02  0.1851227E+02  0.2380149E+02  0.0000000E+00
Ar  381  0.1057844E+02  0.1586766E+02  0.2644610E+02  0.0000000E+00
Ar  382  0.1322305E+02  0.1851227E+02  0.2644610E+02  0.0000000E+00
Ar  383  0.1322305E+02  0.1586766E+02  0.2909071E+02  0.0000000E+00
Ar  384  0.1057844E+02  0.1851227E+02  0.2909071E+02  0.0000000E+00
Ar  385  0.1057844E+02  0.2115688E+02  0.0000000E+00  0.0000000E+00
Ar  386  0.1322305E+02  0.2380149E+02  0.0000000E+00  0.0000000E+00
Ar  387  0.1322305E+02  0.2115688E+02  0.2644610E+01  0.0000000E+00
Ar  388  0.1057844E+02  0.2380149E+02  0.2644610E+01  0.0000000E+00
Ar  389  0.1057844E+02  0.2115688E+02  0.5289220E+01  0.0000000E+00
Ar  390  0.1322305E+02  0.2380149E+02  0.5289220E+01  0.0000000E+00
Ar  391  0.1322305E+02  0.2115688E+02  0.7933831E+01  0.0000000E+00
Ar  392  0.1057844E+02  0.2380149E+02  0.7933831E+01  0.0000000E+00
Ar  393  0.1057844E+02  0.2115688E+02  0.1057844E+02  0.0000000E+00
Ar  394  0.1322305E+02  0.2380149E+02  0.1057844E+02  0.0000000E+00
Ar  395  0.1322305E+02  0.2115688E+02  0.1322305E+02  0.0000000E+00
Ar  396  0.1057844E+02  0.2380149E+02  0.1322305E+02  0.0000000E+00
Ar  397  0.1057844E+02  0.2115688E+02  0.1586766E+02  0.0000000E+00
Ar  398  0.1322305E+02  0.2380149E+02  0.1586766E+02  0.0000000E+00
Ar  399  0.1322305E+02  0.2115688E+02  0.1851227E+02  0.0000000E+00
Ar  400  0.1057844E+02  0.2380149E+02  0.1851227E+02  0.0000000E+00
Ar  401  0.1057844E+02  0.2115688E+02  0.2115688E+02  0.0000000E+00
Ar  402  0.1322305E+02  0.2380149E+02  0.2115688E+02  0.0000000E+00
Ar  403  0.1322305E+02  0.2115688E+02  0.2380149E+02  0.0000000E+00
Ar  404  0.1057844E+02  0.2380149E+02  0.2380149E+02  0.0000000E+00
Ar  405  0.1057844E+02  0.2115688E+02  0.2644610E+02  0.0000000E+00
Ar  406  0.1322305E+02  0.2380149E+02  0.2644610E+02  0.0000000E+00
Ar  407  0.1322305E+02  0.2115688E+02  0.2909071E+02  0.0000000E+00
Ar  408  0.1057844E+02  0.2380149E+02  0.2909071E+02  0.0000000E+00
Ar  409  0.1057844E+02  0.2644610E+02  0.0000000E+00  0.0000000E+00
Ar  410  0.1322305E+02  0.2909071E+02  0.0000000E+00  0.0000000E+00
Ar  411  0.1322305E+02  0.2644610E+02  0.2644610E+01  0.0000000E+00
Ar  412  0.1057844E+02  0.2909071E+02  0.2644610E+01  0.0000000E+00
Ar  413  0.1057844E+02  0.2644610E+02  0.5289220E+01  0.0000000E+00
Ar  414  0.1322305E+02  0.2909071E+02  0.5289220E+01  0.0000000E+00
Ar  415  0.1322305E+02  0.2644610E+02  0.7933831E+01  0.0000000E+00
Ar  416  0.1057844E+02  0.2909071E+02  0.7933831E+01  0.0000000E+00
Ar  417  0.1057844E+02  0.2644610E+02  0.1057844E+02  0.0000000E+00
Ar  418  0.1322305E+02  0.2909071E+02  0.1057844E+02  0.0000000E+00
Ar  419  0.1322305E+02  0.2644610E+02  0.1322305E+02  0.0000000E+00
Ar  420  0.1057844E+02  0.2909071E+02  0.1322305E+02  0.0000000E+00
Ar  421  0.1057844E+02  0.2644610E+02  0.1586766E+02  0.0000000E+00
Ar  422  0.1322305E+02  0.2909071E+02  0.1586766E+02  0.0000000E+00
Ar  423  0.1322305E+02  0.2644610E+02  0.1851227E+02  0.0000000E+00
Ar  424  0.1057844E+02  0.2909071E+02  0.1851227E+02  0.0000000E+00
Ar  425  0.1057844E+02  0.2644610E+02  0.2115688E+02  0.0000000E+00
Ar  426  0.1322305E+02  0.2909071E+02  0.2115688E+02  0.0000000E+00
Ar  427  0.1322305E+02  0.2644610E+02  0.2380149E+02  0.0000000E+00
Ar  428  0.1057844E+02  0.2909071E+02  0.2380149E+02  0.0000000E+00
Ar  429  0.1057844E+02  0.2644610E+02  0.2644610E+02  0.0000000E+00
Ar  430  0.1322305E+02  0.2909071E+02  0.2644610E+02  0.0000000E+00
Ar  431  0.1322305E+02  0.2644610E+02  0.2909071E+02  0.0000000E+00
Ar  432  0.1057844E+02  0.2909071E+02  0.2909071E+02  0.0000000E+00
Ar  433  0.1586766E+02  0.0000000E+00  0.0000000E+00  0.0000000E+00
Ar  434  0.1851227E+02  0.2644610E+01  0.0000000E+00  0.0000000E+00
Ar  435  0.1851227E+02  0.0000000E+00  0.2644610E+01  0.0000000E+00
Ar  436  0.1586766E+02  0.2644610E+01  0.2644610E+01  0.0000000E+00
Ar  437  0.1586766E+02  0.0000000E+00  0.5289220E+01  0.0000000E+00
Ar  438  0.1851227E+02  0.2644610E+01  0.5289220E+01  0.0000000E+00
Ar  439  0.1851227E+02  0.0000000E+00  0.7933831E+01  0.0000000E+00
Ar  440  0.1586766E+02  0.2644610E+01  0.7933831E+01  0.0000000E+00
Ar  441  0.1586766E+02  0.0000000E+00  0.1057844E+02  0.0000000E+00
Ar  442  0.1851227E+02  0.2644610E+01  0.1057844E+02  0.0000000E+00
Ar  443  0.1851227E+02  0.0000000E+00  0.1322305E+02  0.0000000E+00
Ar  444  0.1586766E+02  0.2644610E+01  0.1322305E+02  0.0000000E+00
Ar  445  0.1586766E+02  0.0000000E+00  0.1586766E+02  0.0000000E+00
Ar  446  0.1851227E+02  0.2644610E+01  0.1586766E+02  0.0000000E+00
Ar  447  0.1851227E+02  0.0000000E+00  0.1851227E+02  0.0000000E+00
Ar  448  0.1586766E+02  0.2644610E+01  0.1851227E+02  0.0000000E+00
Ar  449  0.1586766E+02  0.0000000E+00  0.2115688E+02  0.0000000E+00
Ar  450  0.1851227E+02  0.2644610E+01  0.2115688E+02  0.0000000E+00
Ar  451  0.1851227E+02  0.0000000E+00  0.2380149E+02  0.0000000E+00
Ar  452  0.1586766E+02  0.2644610E+01  0.2380149E+02  0.0000000E+00
Ar  453  0.1586766E+02  0.0000000E+00  0.2644610E+02  0.0000000E+00
Ar  454  0.1851227E+02  0.2644610E+01  0.2644610E+02  0.0000000E+00
Ar  455  0.1851227E+02  0.0000000E+00  0.2909071E+02  0.0000000E+00
Ar  456  0.1586766E+02  0.2644610E+01  0.2909071E+02  0.0000000E+00
Ar  457  0.1586766E+02  0.5289220E+01  0.0000000E+00  0.0000000E+00
Ar  458  0.1851227E+02  0.7933831E+01  0.0000000E+00  0.0000000E+00
Ar  459  0.1851227E+02  0.5289220E+01  0.2644610E+01  0.0000000E+00
Ar  460  0.1586766E+02  0.7933831E+01  0.2644610E+01  0.0000000E+00
Ar  461  0.1586766E+02  0.5289220E+01  0.5289220E+01  0.0000000E+00
Ar  462  0.1851227E+02  0.7933831E+01  0.5289220E+01  0.0000000E+00
Ar  463  0.1851227E+02  0.5289220E+01  0.7933831E+01  0.0000000E+00
Ar  464  0.1586766E+02  0.7933831E+01  0.7933831E+01  0.0000000E+00
Ar  465  0.1586766E+02  0.5289220E+01  0.1057844E+02  0.0000000E+00
Ar  466  0.1851227E+02  0.7933831E+01  0.1057844E+02  0.0000000E+00
Ar  467  0.1851227E+02  0.5289220E+01  0.1322305E+02  0.0000000E+00
Ar  468  0.1586766E+02  0.7933831E+01  0.1322305E+02  0.0000000E+00
Ar  469  0.1586766E+02  0.5289220E+01  0.1586766E+02  0.0000000E+00
Ar  470  0.1851227E+02  0.7933831E+01  0.1586766E+02  0.0000000E+00
Ar  471  0.1851227E+02  0.5289220E+01  0.1851227E+02  0.0000000E+00
Ar  472  0.1586766E+02  0.7933831E+01  0.1851227E+02  0.0000000E+00
Ar  473  0.1586766E+02  0.5289220E+01  0.2115688E+02  0.0000000E+00
Ar  474  0.1851227E+02  0.7933831E+01  0.2115688E+02  0.0000000E+00
Ar  475  0.1851227E+02  0.5289220E+01  0.2380149E+02  0.0000000E+00
Ar  476  0.1586766E+02  0.7933831E+01  0.2380149E+02  0.0000000E+00
Ar  477  0.1586766E+02  0.5289220E+01  0.2644610E+02  0.0000000E+00
Ar  478  0.1851227E+02  0.7933831E+01  0.2644610E+02  0.0000000E+00
Ar  479  0.1851227E+02  0.5289220E+01  0.2909071E+02  0.0000000E+00
Ar  480  0.1586766E+02  0.7933831E+01  0.2909071E+02  0.0000000E+00
Ar  481  0.1586766E+02  0.1057844E+02  0.0000000E+00  0.0000000E+00
Ar  482  0.1851227E+02  0.1322305E+02  0.0000000E+00  0.0000000E+00
Ar  483  0.1851227E+02  0.1057844E+02  0.2644610E+01  0.0000000E+00
Ar  484  0.1586766E+02  0.1322305E+02  0.2644610E+01  0.0000000E+00
Ar  485  0.1586766E+02  0.1057844E+02  0.5289220E+01  0.0000000E+00
Ar  486  0.1851227E+02  0.1322305E+02  0.5289220E+01  0.0000000E+00
Ar  487  0.1851227E+02  0.1057844E+02  0.7933831E+01  0.0000000E+00
Ar  488  0.1586766E+02  0.1322305E+02  0.7933831E+01  0.0000000E+00
Ar  489  0.1586766E+02  0.1057844E+02  0.1057844E+02  0.0000000E+00
Ar  490  0.1851227E+02  0.1322305E+02  0.1057844E+02  0.0000000E+00
Ar  491  0.1851227E+02  0.1057844E+02  0.1322305E+02  0.0000000E+00
Ar  492  0.1586766E+02  0.1322305E+02  0.1322305E+02  0.0000000E+00
Ar  493  0.1586766E+02  0.1057844E+02  0.1586766E+02  0.0000000E+00
Ar  494  0.1851227E+02  0.1322305E+02  0.1586766E+02  0.0000000E+00
Ar  495  0.1851227E+02  0.1057844E+02  0.1851227E+02  0.0000000E+00
Ar  496  0.1586766E+02  0.1322305E+02  0.1851227E+02  0.0000000E+00
Ar  497  0.1586766E+02  0.1057844E+02  0.2115688E+02  0.0000000E+00
Ar  498  0.1851227E+02  0.1322305E+02  0.2115688E+02  0.0000000E+00
Ar  499  0.1851227E+02  0.1057844E+02  0.2380149E+02  0.0000000E+00
Ar  500  0.1586766E+02  0.1322305E+02  0.2380149E+02  0.0000000E+00
Ar  501  0.1586766E+02  0.1057844E+02  0.2644610E+02  0.0000000E+00
Ar  502  0.1851227E+02  0.1322305E+02  0.2644610E+02  0.0000000E+00
Ar  503  0.1851227E+02  0.1057844E+02  0.2909071E+02  0.0000000E+00
Ar  504  0.1586766E+02  0.1322305E+02  0.2909071E+02  0.0000000E+00
Ar  505  0.1586766E+02  0.1586766E+02  0.0000000E+00  0.0000000E+00
Ar  506  0.1851227E+02  0.1851227E+02  0.0000000E+00  0.0000000E+00
Ar  507  0.1851227E+02  0.1586766E+02  0.2644610E+01  0.0000000E+00
Ar  508  0.1586766E+02  0.1851227E+02  0.2644610E+01  0.0000000E+00
Ar  509  0.1586766E+02  0.1586766E+02  0.5289220E+01  0.0000000E+00
Ar  510  0.1851227E+02  0.1851227E+02  0.5289220E+01  0.0000000E+00
Ar  511  0.1851227E+02  0.1586766E+02  0.7933831E+01  0.0000000E+00
Ar  512  0.1586766E+02  0.1851227E+02  0.7933831E+01  0.0000000E+00
Ar  513  0.1586766E+02  0.1586766E+02  0.1057844E+02  0.0000000E+00
Ar  514  0.1851227E+02  0.1851227E+02  0.1057844E+02  0.0000000E+00
Ar  515  0.1851227E+02  0.1586766E+02  0.1322305E+02  0.0000000E+00
Ar  516  0.1586766E+02  0.1851227E+02  0.1322305E+02  0.0000000E+00
Ar  517  0.1586766E+02  0.1586766E+02  0.1586766E+02  0.0000000E+00
Ar  518  0.1851227E+02  0.1851227E+02  0.1586766E+02  0.0000000E+00
Ar  519  0.1851227E+02  0.1586766E+02  0.1851227E+02  0.0000000E+00
Ar  520  0.1586766E+02  0.1851227E+02  0.1851227E+02  0.0000000E+00
Ar  521  0.1586766E+02  0.1586766E+02  0.2115688E+02  0.0000000E+00
Ar  522  0.1851227E+02  0.1851227E+02  0.2115688E+02  0.0000000E+00
Ar  523  0.1851227E+02  0.1586766E+02  0.2380149E+02  0.0000000E+00
Ar  524  0.1586766E+02  0.1851227E+02  0.2380149E+02  0.0000000E+00
Ar  525  0.1586766E+02  0.1586766E+02  0.2644610E+02  0.0000000E+00
Ar  526  0.1851227E+02  0.1851227E+02  0.2644610E+02  0.0000000E+00
Ar  527  0.1851227E+02  0.1586766E+02  0.2909071E+02  0.0000000E+00
Ar  528  0.1586766E+02  0.1851227E+02  0.2909071E+02  0.0000000E+00
Ar  529  0.1586766E+02  0.2115688E+02  0.0000000E+00  0.0000000E+00
Ar  530  0.1851227E+02  0.2380149E+02  0.0000000E+00  0.0000000E+00
Ar  531  0.1851227E+02  0.2115688E+02  0.2644610E+01  0.0000000E+00
Ar  532  0.1586766E+02  0.2380149E+02  0.2644610E+01  0.0000000E+00
Ar  533  0.1586766E+02  0.2115688E+02  0.5289220E+01  0.0000000E+00
Ar  534  0.1851227E+02  0.2380149E+02  0.5289220E+01  0.0000000E+00
Ar  535  0.1851227E+02  0.2115688E+02  0.7933831E+01  0.0000000E+00
Ar  536  0.1586766E+02  0.2380149E+02  0.7933831E+01  0.0000000E+00
Ar  537  0.1586766E+02  0.2115688E+02  0.1057844E+02  0.0000000E+00
Ar  538  0.1851227E+02  0.2380149E+02  0.1057844E+02  0.0000000E+00
Ar  539  0.1851227E+02  0.2115688E+02  0.1322305E+02  0.0000000E+00
Ar  540  0.1586766E+02  0.2380149E+02  0.1322305E+02  0.0000000E+00
Ar  541  0.1586766E+02  0.2115688E+02  0.1586766E+02  0.0000000E+00
Ar  542  0.1851227E+02  0.2380149E+02  0.1586766E+02  0.0000000E+00
Ar  543  0.1851227E+02  0.2115688E+02  0.1851227E+02  0.0000000E+00
Ar  544  0.1586766E+02  0.2380149E+02  0.1851227E+02  0.0000000E+00
Ar  545  0.1586766E+02  0.2115688E+02  0.2115688E+02  0.0000000E+00
Ar  546  0.1851227E+02  0.2380149E+02  0.2115688E+02  0.0000000E+00
Ar  547  0.1851227E+02  0.2115688E+02  0.2380149E+02  0.0000000E+00
Ar  548  0.1586766E+02  0.2380149E+02  0.2380149E+02  0.0000000E+00
Ar  549  0.1586766E+02  0.2115688E+02  0.2644610E+02  0.0000000E+00
Ar  550  0.1851227E+02  0.2380149E+02  0.2644610E+02  0.0000000E+00
Ar  551  0.1851227E+02  0.2115688E+02  0.2909071E+02  0.0000000E+00
Ar  552  0.1586766E+02  0.2380149E+02  0.2909071E+02  0.0000000E+00
Ar  553  0.1586766E+02  0.2644610E+02  0.0000000E+00  0.0000000E+00
Ar  554  0.1851227E+02  0.2909071E+02  0.0000000E+00  0.0000000E+00
Ar  555  0.1851227E+02  0.2644610E+02  0.2644610E+01  0.0000000E+00
Ar  556  0.1586766E+02  0.2909071E+02  0.2644610E+01  0.0000000E+00
Ar  557  0.1586766E+02  0.2644610E+02  0.5289220E+01  0.0000000E+00
Ar  558  0.1851227E+02  0.2909071E+02  0.5289220E+01  0.0000000E+00
Ar  559  0.1851227E+02  0.2644610E+02  0.7933831E+01  0.0000000E+00
Ar  560  0.1586766E+02  0.2909071E+02  0.7933831E+01  0.0000000E+00
Ar  561  0.1586766E+02  0.2644610E+02  0.1057844E+02  0.0000000E+00
Ar  562  0.1851227E+02  0.2909071E+02  0.1057844E+02  0.0000000E+00
Ar  563  0.1851227E+02  0.2644610E+02  0.1322305E+02  0.0000000E+00
Ar  564  0.1586766E+02  0.2909071E+02  0.1322305E+02  0.0000000E+00
Ar  565  0.1586766E+02  0.2644610E+02  0.1586766E+02  0.0000000E+00
Ar  566  0.1851227E+02  0.2909071E+02  0.1586766E+02  0.0000000E+00
Ar  567  0.1851227E+02  0.2644610E+02  0.1851227E+02  0.0000000E+00
Ar  568  0.1586766E+02  0.2909071E+02  0.1851227E+02  0.0000000E+00
Ar  569  0.1586766E+02  0.2644610E+02  0.2115688E+02  0.0000000E+00
Ar  570  0.1851227E+02  0.2909071E+02  0.2115688E+02  0.0000000E+00
Ar  571  0.1851227E+02  0.2644610E+02  0.2380149E+02  0.0000000E+00
Ar  572  0.1586766E+02  0.2909071E+02  0.2380149E+02  0.0000000E+00
Ar  573  0.1586766E+02  0.2644610E+02  0.2644610E+02  0.0000000E+00
Ar  574  0.1851227E+02  0.2909071E+02  0.2644610E+02  0.0000000E+00
Ar  575  0.1851227E+02  0.2644610E+02  0.2909071E+02  0.0000000E+00
Ar  576  0.1586766E+02  0.2909071E+02  0.2909071E+02  0.0000000E+00
Ar  577  0.2115688E+02  0.0000000E+00  0.0000000E+00  0.0000000E+00
Ar  578  0.2380149E+02  0.2644610E+01  0.0000000E+00  0.0000000E+00
Ar  579  0.2380149E+02  0.0000000E+00  0.2644610E+01  0.0000000E+00
Ar  580  0.2115688E+02  0.2644610E+01  0.2644610E+01  0.0000000E+00
Ar  581  0.2115688E+02  0.0000000E+00  0.5289220E+01  0.0000000E+00
Ar  582  0.2380149E+02  0.2644610E+01  0.5289220E+01  0.0000000E+00
Ar  583  0.2380149E+02  0.0000000E+00  0.7933831E+01  0.0000000E+00
Ar  584  0.2115688E+02  0.2644610E+01  0.7933831E+01  0.0000000E+00
Ar  585  0.2115688E+02  0.0000000E+00  0.1057844E+02  0.0000000E+00
Ar  586  0.2380149E+02  0.2644610E+01  0.1057844E+02  0.0000000E+00
Ar  587  0.2380149E+02  0.0000000E+00  0.1322305E+02  0.0000000E+00
Ar  588  0.2115688E+02  0.2644610E+01  0.1322305E+02  0.0000000E+00
Ar  589  0.2115688E+02  0.0000000E+00  0.1586766E+02  0.0000000E+00
Ar  590  0.2380149E+02  0.2644610E+01  0.1586766E+02  0.0000000E+00
Ar  591  0.2380149E+02  0.0000000E+00  0.1851227E+02  0.0000000E+00
Ar  592  0.2115688E+02  0.2644610E+01  0.1851227E+02  0.0000000E+00
Ar  593  0.2115688E+02  0.0000000E+00  0.2115688E+02  0.0000000E+00
Ar  594  0.2380149E+02  0.2644610E+01  0.2115688E+02  0.0000000E+00
Ar  595  0.2380149E+02  0.0000000E+00  0.2380149E+02  0.0000000E+00
Ar  596  0.2115688E+02  0.2644610E+01  0.2380149E+02  0.0000000E+00
Ar  597  0.2115688E+02  0.0000000E+00  0.2644610E+02  0.0000000E+00
Ar  598  0.2380149E+02  0.2644610E+01  0.2644610E+02  0.0000000E+00
Ar  599  0.2380149E+02  0.0000000E+00  0.2909071E+02  0.0000000E+00
Ar  600  0.2115688E+02  0.2644610E+01  0.2909071E+02  0.0000000E+00
Ar  601  0.2115688E+02  0.5289220E+01  0.0000000E+00  0.0000000E+00
Ar  602  0.2380149E+02  0.7933831E+01  0.0000000E+00  0.0000000E+00
Ar  603  0.2380149E+02  0.5289220E+01  0.2644610E+01  0.0000000E+00
Ar  604  0.2115688E+02  0.7933831E+01  0.2644610E+01  0.0000000E+00
Ar  605  0.2115688E+02  0.5289220E+01  0.5289220E+01  0.0000000E+00
Ar  606  0.2380149E+02  0.7933831E+01  0.5289220E+01  0.0000000E+00
Ar  607  0.2380149E+02  0.5289220E+01  0.7933831E+01  0.0000000E+00
Ar  608  0.2115688E+02  0.7933831E+01  0.7933831E+01  0.0000000E+00
Ar  609  0.2115688E+02  0.5289220E+01  0.1057844E+02  0.0000000E+00
Ar  610  0.2380149E+02  0.7933831E+01  0.1057844E+02  0.0000000E+00
Ar  611  0.2380149E+02  0.5289220E+01  0.1322305E+02  0.0000000E+00
Ar  612  0.2115688E+02  0.7933831E+01  0.1322305E+02  0.0000000E+00
Ar  613  0.2115688E+02  0.5289220E+01  0.1586766E+02  0.0000000E+00
Ar  614  0.2380149E+02  0.7933831E+01  0.1586766E+02  0.0000000E+00
Ar  615  0.2380149E+02  0.5289220E+01  0.1851227E+02  0.0000000E+00
Ar  616  0.2115688E+02  0.7933831E+01  0.1851227E+02  0.0000000E+00
Ar  617  0.2115688E+02  0.5289220E+01  0.2115688E+02  0.0000000E+00
Ar  618  0.2380149E+02  0.7933831E+01  0.2115688E+02  0.0000000E+00
Ar  619  0.2380149E+02  0.5289220E+01  0.2380149E+02  0.0000000E+00
Ar  620  0.2115688E+02  0.7933831E+01  0.2380149E+02  0.0000000E+00
Ar  621  0.2115688E+02  0.5289220E+01  0.2644610E+02  0.0000000E+00
Ar  622  0.2380149E+02  0.7933831E+01  0.2644610E+02  0.0000000E+00
Ar  623  0.2380149E+02  0.5289220E+01  0.2909071E+02  0.0000000E+00
Ar  624  0.2115688E+02  0.7933831E+01  0.2909071E+02  0.0000000E+00
Ar  625  0.2115688E+02  0.1057844E+02  0.0000000E+00  0.0000000E+00
Ar  626  0.2380149E+02  0.1322305E+02  0.0000000E+00  0.0000000E+00
Ar  627  0.2380149E+02  0.1057844E+02  0.2644610E+01  0.0000000E+00
Ar  628  0.2115688E+02  0.1322305E+02  0.2644610E+01  0.0000000E+00
Ar  629  0.2115688E+02  0.1057844E+02  0.5289220E+01  0.0000000E+00
Ar  630  0.2380149E+02  0.1322305E+02  0.5289220E+01  0.0000000E+00
Ar  631  0.2380149E+02  0.1057844E+02  0.7933831E+01  0.0000000E+00
Ar  632  0.2115688E+02  0.1322305E+02  0.7933831E+01  0.0000000E+00
Ar  633  0.2115688E+02  0.1057844E+02  0.1057844E+02  0.0000000E+00
Ar  634  0.2380149E+02  0.1322305E+02  0.1057844E+02  0.0000000E+00
Ar  635  0.2380149E+02  0.1057844E+02  0.1322305E+02  0.0000000E+00
Ar  636  0.2115688E+02  0.1322305E+02  0.1322305E+02  0.0000000E+00
Ar  637  0.2115688E+02  0.1057844E+02  0.1586766E+02  0.0000000E+00
Ar  638  0.2380149E+02  0.1322305E+02  0.1586766E+02  0.0000000E+00
Ar  639  0.2380149E+02  0.1057844E+02  0.1851227E+02  0.0000000E+00
Ar  640  0.2115688E+02  0.1322305E+02  0.1851227E+02  0.0000000E+00
Ar  641  0.2115688E+02  0.1057844E+02  0.2115688E+02  0.0000000E+00
Ar  642  0.2380149E+02  0.1322305E+02  0.2115688E+02  0.0000000E+00
Ar  643  0.2380149E+02  0.1057844E+02  0.2380149E+02  0.0000000E+00
Ar  644  0.2115688E+02  0.1322305E+02  0.2380149E+02  0.0000000E+00
Ar  645  0.2115688E+02  0.1057844E+02  0.2644610E+02  0.0000000E+00
Ar  646  0.2380149E+02  0.1322305E+02  0.2644610E+02  0.0000000E+00
Ar  647  0.2380149E+02  0.1057844E+02  0.2909071E+02  0.0000000E+00
Ar  648  0.2115688E+02  0.1322305E+02  0.2909071E+02  0.0000000E+00
Ar  649  0.2115688E+02  0.1586766E+02  0.0000000E+00  0.0000000E+00
Ar  650  0.2380149E+02  0.1851227E+02  0.0000000E+00  0.0000000E+00
Ar  651  0.2380149E+02  0.1586766E+02  0.2644610E+01  0.0000000E+00
Ar  652  0.2115688E+02  0.1851227E+02  0.2644610E+01  0.0000000E+00
Ar  653  0.2115688E+02  0.1586766E+02  0.5289220E+01  0.0000000E+00
Ar  654  0.2380149E+02  0.1851227E+02  0.5289220E+01  0.0000000E+00
Ar  655  0.2380149E+02  0.1586766E+02  0.7933831E+01  0.0000000E+00
Ar  656  0.2115688E+02  0.1851227E+02  0.7933831E+01  0.0000000E+00
Ar  657  0.2115688E+02  0.1586766E+02  0.1057844E+02  0.0000000E+00
Ar  658  0.2380149E+02  0.1851227E+02  0.1057844E+02  0.0000000E+00
Ar  659  0.2380149E+02  0.1586766E+02  0.1322305E+02  0.0000000E+00
Ar  660  0.2115688E+02  0.1851227E+02  0.1322305E+02  0.0000000E+00
Ar  661  0.2115688E+02  0.1586766E+02  0.1586766E+02  0.0000000E+00
Ar  662  0.2380149E+02  0.1851227E+02  0.1586766E+02  0.0000000E+00
Ar  663  0.2380149E+02  0.1586766E+02  0.1851227E+02  0.0000000E+00
Ar  664  0.2115688E+02  0.1851227E+02  0.1851227E+02  0.0000000E+00
Ar  665  0.2115688E+02  0.1586766E+02  0.2115688E+02  0.0000000E+00
Ar  666  0.2380149E+02  0.1851227E+02  0.2115688E+02  0.0000000E+00
Ar  667  0.2380149E+02  0.1586766E+02  0.2380149E+02  0.0000000E+00
Ar  668  0.2115688E+02  0.1851227E+02  0.2380149E+02  0.0000000E+00
Ar  669  0.2115688E+02  0.1586766E+02  0.2644610E+02  0.0000000E+00
Ar  670  0.2380149E+02  0.1851227E+02  0.2644610E+02  0.0000000E+00
Ar  671  0.2380149E+02  0.1586766E+02  0.2909071E+02  0.0000000E+00
Ar  672  0.2115688E+02  0.1851227E+02  0.2909071E+02  0.0000000E+00
Ar  673  0.2115688E+02  0.2115688E+02  0.0000000E+00  0.0000000E+00
Ar  674  0.2380149E+02  0.2380149E+02  0.0000000E+00  0.0000000E+00
Ar  675  0.2380149E+02  0.2115688E+02  0.2644610E+01  0.0000000E+00
Ar  676  0.2115688E+02  0.2380149E+02  0.2644610E+01  0.0000000E+00
Ar  677  0.2115688E+02  0.2115688E+02  0.5289220E+01  0.0000000E+00
Ar  678  0.2380149E+02  0.2380149E+02  0.5289220E+01  0.0000000E+00
Ar  679  0.2380149E+02  0.2115688E+02  0.7933831E+01  0.0000000E+00
Ar  680  0.2115688E+02  0.2380149E+02  0.7933831E+01  0.0000000E+00
Ar  681  0.2115688E+02  0.2115688E+02  0.1057844E+02  0.0000000E+00
Ar  682  0.2380149E+02  0.2380149E+02  0.1057844E+02  0.0000000E+00
Ar  683  0.2380149E+02  0.2115688E+02  0.1322305E+02  0.0000000E+00
Ar  684  0.2115688E+02  0.2380149E+02  0.1322305E+02  0.0000000E+00
Ar  685  0.2115688E+02  0.2115688E+02  0.1586766E+02  0.0000000E+00
Ar  686  0.2380149E+02  0.2380149E+02  0.1586766E+02  0.0000000E+00
Ar  687  0.2380149E+02  0.2115688E+02  0.1851227E+02  0.0000000E+00
Ar  688  0.2115688E+02  0.2380149E+02  0.1851227E+02  0.0000000E+00
Ar  689  0.2115688E+02  0.2115688E+02  0.2115688E+02  0.0000000E+00
Ar  690  0.2380149E+02  0.2380149E+02  0.2115688E+02  0.0000000E+00
Ar  691  0.2380149E+02  0.2115688E+02  0.2380149E+02  0.0000000E+00
Ar  692  0.2115688E+02  0.2380149E+02  0.2380149E+02  0.0000000E+00
Ar  693  0.2115688E+02  0.2115688E+02  0.2644610E+02  0.0000000E+00
Ar  694  0.2380149E+02  0.2380149E+02  0.2644610E+02  0.0000000E+00
Ar  695  0.2380149E+02  0.2115688E+02  0.2909071E+02  0.0000000E+00
Ar  696  0.2115688E+02  0.2380149E+02  0.2909071E+02  0.0000000E+00
Ar  697  0.2115688E+02  0.2644610E+02  0.0000000E+00  0.0000000E+00
Ar  698  0.2380149E+02  0.2909071E+02  0.0000000E+00  0.0000000E+00
Ar  699  0.2380149E+02  0.2644610E+02  0.2644610E+01  0.0000000E+00
Ar  700  0.2115688E+02  0.2909071E+02  0.2644610E+01  0.0000000E+00
Ar  701  0.2115688E+02  0.2644610E+02  0.5289220E+01  0.0000000E+00
Ar  702  0.2380149E+02  0.2909071E+02  0.5289220E+01  0.0000000E+00
Ar  703  0.2380149E+02  0.2644610E+02  0.7933831E+01  0.0000000E+00
Ar  704  0.2115688E+02  0.2909071E+02  0.7933831E+01  0.0000000E+00
Ar  705  0.2115688E+02  0.2644610E+02  0.1057844E+02  0.0000000E+00
Ar  706  0.2380149E+02  0.2909071E+02  0.1057844E+02  0.0000000E+00
Ar  707  0.2380149E+02  0.2644610E+02  0.1322305E+02  0.0000000E+00
Ar  708  0.2115688E+02  0.2909071E+02  0.1322305E+02  0.0000000E+00
Ar  709  0.2115688E+02  0.2644610E+02  0.1586766E+02  0.0000000E+00
Ar  710  0.2380149E+02  0.2909071E+02  0.1586766E+02  0.0000000E+00
Ar  711  0.2380149E+02  0.2644610E+02  0.1851227E+02  0.0000000E+00
Ar  712  0.2115688E+02  0.2909071E+02  0.1851227E+02  0.0000000E+00
Ar  713  0.2115688E+02  0.2644610E+02  0.2115688E+02  0.0000000E+00
Ar  714  0.2380149E+02  0.2909071E+02  0.2115688E+02  0.0000000E+00
Ar  715  0.2380149E+02  0.2644610E+02  0.2380149E+02  0.0000000E+00
Ar  716  0.2115688E+02  0.2909071E+02  0.2380149E+02  0.0000000E+00
Ar  717  0.2115688E+02  0.2644610E+02  0.2644610E+02  0.0000000E+00
Ar  718  0.2380149E+02  0.2909071E+02  0.2644610E+02  0.0000000E+00
Ar  719  0.2380149E+02  0.2644610E+02  0.2909071E+02  0.0000000E+00
Ar  720  0.2115688E+02  0.2909071E+02  0.2909071E+02  0.0000000E+00
Ar  721  0.2644610E+02  0.0000000E+00  0.0000000E+00  0.0000000E+00
Ar  722  0.2909071E+02  0.2644610E+01  0.0000000E+00  0.0000000E+00
Ar  723  0.2909071E+02  0.0000000E+00  0.2644610E+01  0.0000000E+00
Ar  724  0.2644610E+02  0.2644610E+01  0.2644610E+01  0.0000000E+00
Ar  725  0.2644610E+02  0.0000000E+00  0.5289220E+01  0.0000000E+00
Ar  726  0.2909071E+02  0.2644610E+01  0.5289220E+01  0.0000000E+00
Ar  727  0.2909071E+02  0.0000000E+00  0.7933831E+01  0.0000000E+00
Ar  728  0.2644610E+02  0.2644610E+01  0.7933831E+01  0.0000000E+00
Ar  729  0.2644610E+02  0.0000000E+00  0.1057844E+02  0.0000000E+00
Ar  730  0.2909071E+02  0.2644610E+01  0.1057844E+02  0.0000000E+00
Ar  731  0.2909071E+02  0.0000000E+00  0.1322305E+02  0.0000000E+00
Ar  732  0.2644610E+02  0.2644610E+01  0.1322305E+02  0.0000000E+00
Ar  733  0.2644610E+02  0.0000000E+00  0.1586766E+02  0.0000000E+00
Ar  734  0.2909071E+02  0.2644610E+01  0.1586766E+02  0.0000000E+00
Ar  735  0.2909071E+02  0.0000000E+00  0.1851227E+02  0.0000000E+00
Ar  736  0.2644610E+02  0.2644610E+01  0.1851227E+02  0.0000000E+00
Ar  737  0.2644610E+02  0.0000000E+00  0.2115688E+02  0.0000000E+00
Ar  738  0.2909071E+02  0.2644610E+01  0.2115688E+02  0.0000000E+00
Ar  739  0.2909071E+02  0.0000000E+00  0.2380149E+02  0.0000000E+00
Ar  740  0.2644610E+02  0.2644610E+01  0.2380149E+02  0.0000000E+00
Ar  741  0.2644610E+02  0.0000000E+00  0.2644610E+02  0.0000000E+00
Ar  742  0.2909071E+02  0.2644610E+01  0.2644610E+02  0.0000000E+00
Ar  743  0.2909071E+02  0.0000000E+00  0.2909071E+02  0.0000000E+00
Ar  744  0.2644610E+02  0.2644610E+01  0.2909071E+02  0.0000000E+00
Ar  745  0.2644610E+02  0.5289220E+01  0.0000000E+00  0.0000000E+00
Ar  746  0.2909071E+02  0.7933831E+01  0.0000000E+00  0.0000000E+00
Ar  747  0.2909071E+02  0.5289220E+01  0.2644610E+01  0.0000000E+00
Ar  748  0.2644610E+02  0.7933831E+01  0.2644610E+01  0.0000000E+00
Ar  749  0.2644610E+02  0.5289220E+01  0.5289220E+01  0.0000000E+00
Ar  750  0.2909071E+02  0.7933831E+01  0.5289220E+01  0.0000000E+00
Ar  751  0.2909071E+02  0.5289220E+01  0.7933831E+01  0.0000000E+00
Ar  752  0.2644610E+02  0.7933831E+01  0.7933831E+01  0.0000000E+00
Ar  753  0.2644610E+02  0.5289220E+01  0.1057844E+02  0.0000000E+00
Ar  754  0.2909071E+02  0.7933831E+01  0.1057844E+02  0.0000000E+00
Ar  755  0.2909071E+02  0.5289220E+01  0.1322305E+02  0.0000000E+00
Ar  756  0.2644610E+02  0.7933831E+01  0.1322305E+02  0.0000000E+00
Ar  757  0.2644610E+02  0.5289220E+01  0.1586766E+02  0.0000000E+00
Ar  758  0.2909071E+02  0.7933831E+01  0.1586766E+02  0.0000000E+00
Ar  759  0.2909071E+02  0.5289220E+01  0.1851227E+02  0.0000000E+00
Ar  760  0.2644610E+02  0.7933831E+01  0.1851227E+02  0.0000000E+00
Ar  761  0.2644610E+02  0.5289220E+01  0.2115688E+02  0.0000000E+00
Ar  762  0.2909071E+02  0.7933831E+01  0.2115688E+02  0.0000000E+00
Ar  763  0.2909071E+02  0.5289220E+01  0.2380149E+02  0.0000000E+00
Ar  764  0.2644610E+02  0.7933831E+01  0.2380149E+02  0.0000000E+00
Ar  765  0.2644610E+02  0.5289220E+01  0.2644610E+02  0.0000000E+00
Ar  766  0.2909071E+02  0.7933831E+01  0.2644610E+02  0.0000000E+00
Ar  767  0.2909071E+02  0.5289220E+01  0.2909071E+02  0.0000000E+00
Ar  768  0.2644610E+02  0.7933831E+01  0.2909071E+02  0.0000000E+00
Ar  769  0.2644610E+02  0.1057844E+02  0.0000000E+00  0.0000000E+00
Ar  770  0.2909071E+02  0.1322305E+02  0.0000000E+00  0.0000000E+00
Ar  771  0.2909071E+02  0.1057844E+02  0.2644610E+01  0.0000000E+00
Ar  772  0.2644610E+02  0.1322305E+02  0.2644610E+01  0.0000000E+00
Ar  773  0.2644610E+02  0.1057844E+02  0.5289220E+01  0.0000000E+00
Ar  774  0.2909071E+02  0.1322305E+02  0.5289220E+01  0.0000000E+00
Ar  775  0.2909071E+02  0.1057844E+02  0.7933831E+01  0.0000000E+00
Ar  776  0.2644610E+02  0.1322305E+02  0.7933831E+01  0.0000000E+00
Ar  777  0.2644610E+02  0.1057844E+02  0.1057844E+02  0.0000000E+00
Ar  778  0.2909071E+02  0.1322305E+02  0.1057844E+02  0.0000000E+00
Ar  779  0.2909071E+02  0.1057844E+02  0.1322305E+02  0.0000000E+00
Ar  780  0.2644610E+02  0.1322305E+02  0.1322305E+02  0.0000000E+00
Ar  781  0.2644610E+02  0.1057844E+02  0.1586766E+02  0.0000000E+00
Ar  782  0.2909071E+02  0.1322305E+02  0.1586766E+02  0.0000000E+00
Ar  783  0.2909071E+02  0.1057844E+02  0.1851227E+02  0.0000000E+00
Ar  784  0.2644610E+02  0.1322305E+02  0.1851227E+02  0.0000000E+00
Ar  785  0.2644610E+02  0.1057844E+02  0.2115688E+02  0.0000000E+00
Ar  786  0.2909071E+02  0.1322305E+02  0.2115688E+02  0.0000000E+00
Ar  787  0.2909071E+02  0.1057844E+02  0.2380149E+02  0.0000000E+00
Ar  788  0.2644610E+02  0.1322305E+02  0.2380149E+02  0.0000000E+00
Ar  789  0.2644610E+02  0.1057844E+02  0.2644610E+02  0.0000000E+00
Ar  790  0.2909071E+02  0.1322305E+02  0.2644610E+02  0.0000000E+00
Ar  791  0.2909071E+02  0.1057844E+02  0.2909071E+02  0.0000000E+00
Ar  792  0.2644610E+02  0.1322305E+02  0.2909071E+02  0.0000000E+00
Ar  793  0.2644610E+02  0.1586766E+02  0.0000000E+00  0.0000000E+00
Ar  794  0.2909071E+02  0.1851227E+02  0.0000000E+00  0.0000000E+00
Ar  795  0.2909071E+02  0.1586766E+02  0.2644610E+01  0.0000000E+00
Ar  796  0.2644610E+02  0.1851227E+02  0.2644610E+01  0.0000000E+00
Ar  797  0.2644610E+02  0.1586766E+02  0.5289220E+01  0.0000000E+00
Ar  798  0.2909071E+02  0.1851227E+02  0.5289220E+01  0.0000000E+00
Ar  799  0.2909071E+02  0.1586766E+02  0.7933831E+01  0.0000000E+00
Ar  800  0.2644610E+02  0.1851227E+02  0.7933831E+01  0.0000000E+00
Ar  801  0.2644610E+02  0.1586766E+02  0.1057844E+02  0.0000000E+00
Ar  802  0.2909071E+02  0.1851227E+02  0.1057844E+02  0.0000000E+00
Ar  803  0.2909071E+02  0.1586766E+02  0.1322305E+02  0.0000000E+00
Ar  804  0.2644610E+02  0.1851227E+02  0.1322305E+02  0.0000000E+00
Ar  805  0.2644610E+02  0.1586766E+02  0.1586766E+02  0.0000000E+00
Ar  806  0.2909071E+02  0.1851227E+02  0.1586766E+02  0.0000000E+00
Ar  807  0.2909071E+02  0.1586766E+02  0.1851227E+02  0.0000000E+00
Ar  808  0.2644610E+02  0.1851227E+02  0.1851227E+02  0.0000000E+00
Ar  809  0.2644610E+02  0.1586766E+02  0.2115688E+02  0.0000000E+00
Ar  810  0.2909071E+02  0.1851227E+02  0.2115688E+02  0.0000000E+00
Ar  811  0.2909071E+02  0.1586766E+02  0.2380149E+02  0.0000000E+00
Ar  812  0.2644610E+02  0.1851227E+02  0.2380149E+02  0.0000000E+00
Ar  813  0.2644610E+02  0.1586766E+02  0.2644610E+02  0.0000000E+00
Ar  814  0.2909071E+02  0.1851227E+02  0.2644610E+02  0.0000000E+00
Ar  815  0.2909071E+02  0.1586766E+02  0.2909071E+02  0.0000000E+00
Ar  816  0.2644610E+02  0.1851227E+02  0.2909071E+02  0.0000000E+00
Ar  817  0.2644610E+02  0.2115688E+02  0.0000000E+00  0.0000000E+00
Ar  818  0.2909071E+02  0.2380149E+02  0.0000000E+00  0.0000000E+00
Ar  819  0.2909071E+02  0.2115688E+02  0.2644610E+01  0.0000000E+00
Ar  820  0.2644610E+02  0.2380149E+02  0.2644610E+01  0.0000000E+00
Ar  821  0.2644610E+02  0.2115688E+02  0.5289220E+01  0.0000000E+00
Ar  822  0.2909071E+02  0.2380149E+02  0.5289220E+01  0.0000000E+00
Ar  823  0.2909071E+02  0.2115688E+02  0.7933831E+01  0.0000000E+00
Ar  824  0.2644610E+02  0.2380149E+02  0.7933831E+01  0.0000000E+00
Ar  825  0.2644610E+02  0.2115688E+02  0.1057844E+02  0.0000000E+00
Ar  826  0.2909071E+02  0.2380149E+02  0.1057844E+02  0.0000000E+00
Ar  827  0.2909071E+02  0.2115688E+02  0.1322305E+02  0.0000000E+00
Ar  828  0.2644610E+02  0.2380149E+02  0.1322305E+02  0.0000000E+00
Ar  829  0.2644610E+02  0.2115688E+02  0.1586766E+02  0.0000000E+00
Ar  830  0.2909071E+02  0.2380149E+02  0.1586766E+02  0.0000000E+00
Ar  831  0.2909071E+02  0.2115688E+02  0.1851227E+02  0.0000000E+00
Ar  832  0.2644610E+02  0.2380149E+02  0.1851227E+02  0.0000000E+00
Ar  833  0.2644610E+02  0.2115688E+02  0.2115688E+02  0.0000000E+00
Ar  834  0.2909071E+02  0.2380149E+02  0.2115688E+02  0.0000000E+00
Ar  835  0.2909071E+02  0.2115688E+02  0.2380149E+02  0.0000000E+00
Ar  836  0.2644610E+02  0.2380149E+02  0.2380149E+02  0.0000000E+00
Ar  837  0.2644610E+02  0.2115688E+02  0.2644610E+02  0.0000000E+00
Ar  838  0.2909071E+02  0.2380149E+02  0.2644610E+02  0.0000000E+00
Ar  839  0.2909071E+02  0.2115688E+02  0.2909071E+02  0.0000000E+00
Ar  840  0.2644610E+02  0.2380149E+02  0.2909071E+02  0.0000000E+00
Ar  841  0.2644610E+02  0.2644610E+02  0.0000000E+00  0.0000000E+00
Ar  842  0.2909071E+02  0.2909071E+02  0.0000000E+00  0.0000000E+00
Ar  843  0.2909071E+02  0.2644610E+02  0.2644610E+01  0.0000000E+00
Ar  844  0.2644610E+02  0.2909071E+02  0.2644610E+01  0.0000000E+00
Ar  845  0.2644610E+02  0.2644610E+02  0.5289220E+01  0.0000000E+00
Ar  846  0.2909071E+02  0.2909071E+02  0.5289220E+01  0.0000000E+00
Ar  847  0.2909071E+02  0.2644610E+02  0.7933831E+01  0.0000000E+00
Ar  848  0.2644610E+02  0.2909071E+02  0.7933831E+01  0.0000000E+00
Ar  849  0.2644610E+02  0.2644610E+02  0.1057844E+02  0.0000000E+00
Ar  850  0.2909071E+02  0.2909071E+02  0.1057844E+02  0.0000000E+00
Ar  851  0.2909071E+02  0.2644610E+02  0.1322305E+02  0.0000000E+00
Ar  852  0.2644610E+02  0.2909071E+02  0.1322305E+02  0.0000000E+00
Ar  853  0.2644610E+02  0.2644610E+02  0.1586766E+02  0.0000000E+00
Ar  854  0.2909071E+02  0.2909071E+02  0.1586766E+02  0.0000000E+00
Ar  855  0.2909071E+02  0.2644610E+02  0.1851227E+02  0.0000000E+00
Ar  856  0.2644610E+02  0.2909071E+02  0.1851227E+02  0.0000000E+00
Ar  857  0.2644610E+02  0.2644610E+02  0.2115688E+02  0.0000000E+00
Ar  858  0.2909071E+02  0.2909071E+02  0.2115688E+02  0.0000000E+00
Ar  859  0.2909071E+02  0.2644610E+02  0.2380149E+02  0.0000000E+00
Ar  860  0.2644610E+02  0.2909071E+02  0.2380149E+02  0.0000000E+00
Ar  861  0.2644610E+02  0.2644610E+02  0.2644610E+02  0.0000000E+00
Ar  862  0.2909071E+02  0.2909071E+02  0.2644610E+02  0.0000000E+00
Ar  863  0.2909071E+02  0.2644610E+02  0.2909071E+02  0.0000000E+00
Ar  864  0.2644610E+02  0.2909071E+02  0.2909071E+02  0.0000000E+00
