         864
Lattice="  0.1000000E+03  0.0000000E+00  0.0000000E+00  0.0000000E+00  0.1000000E+03  0.0000000E+00  0.0000000E+00  0.0000000E+00  0.1000000E+03" Properties=species:S:1:id:I:1:pos:R:3:tempK:R:1
Ar    1  0.2513653E+00  0.2513653E+00  0.2513653E+00  0.8793122E+00
Ar    2  0.2875224E+01  0.2875224E+01  0.1918612E+00  0.2284270E+01
Ar    3  0.2875224E+01  0.1918612E+00  0.2875224E+01  0.2284270E+01
Ar    4  0.1918612E+00  0.2875224E+01  0.2875224E+01  0.2284270E+01
Ar    5  0.1642223E+00  0.1642223E+00  0.5464100E+01  0.1460984E+01
Ar    6  0.2855785E+01  0.2855785E+01  0.5488017E+01  0.5091577E+00
Ar    7  0.2835130E+01  0.1374221E+00  0.8065877E+01  0.1048389E+01
Ar    8  0.1374221E+00  0.2835130E+01  0.8065877E+01  0.1048389E+01
Ar    9  0.1189483E+00  0.1189483E+00  0.1064764E+02  0.3890976E+00
Ar   10  0.2805841E+01  0.2805841E+01  0.1065806E+02  0.1699528E+01
Ar   11  0.2766372E+01  0.8385244E-01  0.1325033E+02  0.1390417E+01
Ar   12  0.8385244E-01  0.2766372E+01  0.1325033E+02  0.1390417E+01
Ar   13  0.1023051E+00  0.1023051E+00  0.1583826E+02  0.1110797E+01
Ar   14  0.2794855E+01  0.2794855E+01  0.1584678E+02  0.7616843E-01
Ar   15  0.2805441E+01  0.1139512E+00  0.1843390E+02  0.1191456E+01
Ar   16  0.1139512E+00  0.2805441E+01  0.1843390E+02  0.1191456E+01
Ar   17  0.1381515E+00  0.1381515E+00  0.2104528E+02  0.7198522E+00
Ar   18  0.2819603E+01  0.2819603E+01  0.2099668E+02  0.9252434E+00
Ar   19  0.2840241E+01  0.1645322E+00  0.2361404E+02  0.9522116E+00
Ar   20  0.1645322E+00  0.2840241E+01  0.2361404E+02  0.9522116E+00
Ar   21  0.2127850E+00  0.2127850E+00  0.2621716E+02  0.2023795E+01
Ar   22  0.2883442E+01  0.2883442E+01  0.2620727E+02  0.3123677E+00
Ar   23  0.2873553E+01  0.2127848E+00  0.2887793E+02  0.2023801E+01
Ar   24  0.2127848E+00  0.2873553E+01  0.2887793E+02  0.2023801E+01
Ar   25  0.1642223E+00  0.5464100E+01  0.1642223E+00  0.1460984E+01
Ar   26  0.2835130E+01  0.8065877E+01  0.1374221E+00  0.1048389E+01
Ar   27  0.2855785E+01  0.5488017E+01  0.2855785E+01  0.5091577E+00
Ar   28  0.1374221E+00  0.8065877E+01  0.2835130E+01  0.1048389E+01
Ar   29  0.1341207E+00  0.5468616E+01  0.5468616E+01  0.2002690E+00
Ar   30  0.2818446E+01  0.8086470E+01  0.5470589E+01  0.1224817E+00
Ar   31  0.2818446E+01  0.5470589E+01  0.8086470E+01  0.1224817E+00
Ar   32  0.8689471E-01  0.8061947E+01  0.8061947E+01  0.3481036E+00
Ar   33  0.8137305E-01  0.5436849E+01  0.1067535E+02  0.3955465E+00
Ar   34  0.2757640E+01  0.8068559E+01  0.1065785E+02  0.7300472E+00
Ar   35  0.2776945E+01  0.5440036E+01  0.1324687E+02  0.3013715E+00
Ar   36  0.2998172E-01  0.8044287E+01  0.1325253E+02  0.9542779E+00
Ar   37  0.5178815E-01  0.5416076E+01  0.1583568E+02  0.1158511E+01
Ar   38  0.2743331E+01  0.8067053E+01  0.1584882E+02  0.3637540E+00
Ar   39  0.2794150E+01  0.5450287E+01  0.1842647E+02  0.2043159E+00
Ar   40  0.6136107E-01  0.8055995E+01  0.1842424E+02  0.5166025E+00
Ar   41  0.1114616E+00  0.5454378E+01  0.2102333E+02  0.4417387E+00
Ar   42  0.2779185E+01  0.8076719E+01  0.2101399E+02  0.2722862E+00
Ar   43  0.2847062E+01  0.5484216E+01  0.2360649E+02  0.5136441E-01
Ar   44  0.1114617E+00  0.8067378E+01  0.2363633E+02  0.4417351E+00
Ar   45  0.1645324E+00  0.5476667E+01  0.2625047E+02  0.9522276E+00
Ar   46  0.2819603E+01  0.8094026E+01  0.2627111E+02  0.9252369E+00
Ar   47  0.2840241E+01  0.5476667E+01  0.2892618E+02  0.9522098E+00
Ar   48  0.1381514E+00  0.8045428E+01  0.2895256E+02  0.7198344E+00
Ar   49  0.1189483E+00  0.1064764E+02  0.1189483E+00  0.3890976E+00
Ar   50  0.2766372E+01  0.1325033E+02  0.8385244E-01  0.1390417E+01
Ar   51  0.2805841E+01  0.1065806E+02  0.2805841E+01  0.1699528E+01
Ar   52  0.8385244E-01  0.1325033E+02  0.2766372E+01  0.1390417E+01
Ar   53  0.8137305E-01  0.1067535E+02  0.5436849E+01  0.3955465E+00
Ar   54  0.2776945E+01  0.1324687E+02  0.5440036E+01  0.3013715E+00
Ar   55  0.2757640E+01  0.1065785E+02  0.8068559E+01  0.7300472E+00
Ar   56  0.2998172E-01  0.1325253E+02  0.8044287E+01  0.9542779E+00
Ar   57  0.3124732E-01  0.1065924E+02  0.1065924E+02  0.8174887E+00
Ar   58  0.2726105E+01  0.1323738E+02  0.1064616E+02  0.1453952E+00
Ar   59  0.2726105E+01  0.1064616E+02  0.1323738E+02  0.1453952E+00
Ar   60 -0.3509634E-01  0.1324974E+02  0.1324974E+02  0.1130262E+01
Ar   61 -0.1353055E-02  0.1065289E+02  0.1583954E+02  0.1092047E+01
Ar   62  0.2709771E+01  0.1323302E+02  0.1585769E+02  0.9443703E-01
Ar   63  0.2742948E+01  0.1064435E+02  0.1844636E+02  0.8869813E+00
Ar   64 -0.1353158E-02  0.1325118E+02  0.1843782E+02  0.1092040E+01
Ar   65  0.6136101E-01  0.1066647E+02  0.2103471E+02  0.5165867E+00
Ar   66  0.2743331E+01  0.1324189E+02  0.2102366E+02  0.3637689E+00
Ar   67  0.2794150E+01  0.1066424E+02  0.2364042E+02  0.2043033E+00
Ar   68  0.5178818E-01  0.1325503E+02  0.2367463E+02  0.1158504E+01
Ar   69  0.1139513E+00  0.1065681E+02  0.2628527E+02  0.1191455E+01
Ar   70  0.2794855E+01  0.1324393E+02  0.2629586E+02  0.7617570E-01
Ar   71  0.2805440E+01  0.1065681E+02  0.2897676E+02  0.1191442E+01
Ar   72  0.1023051E+00  0.1325245E+02  0.2898841E+02  0.1110764E+01
Ar   73  0.1023051E+00  0.1583826E+02  0.1023051E+00  0.1110797E+01
Ar   74  0.2805441E+01  0.1843390E+02  0.1139512E+00  0.1191456E+01
Ar   75  0.2794855E+01  0.1584678E+02  0.2794855E+01  0.7616843E-01
Ar   76  0.1139512E+00  0.1843390E+02  0.2805441E+01  0.1191456E+01
Ar   77  0.5178815E-01  0.1583568E+02  0.5416076E+01  0.1158511E+01
Ar   78  0.2794150E+01  0.1842647E+02  0.5450287E+01  0.2043159E+00
Ar   79  0.2743331E+01  0.1584882E+02  0.8067053E+01  0.3637540E+00
Ar   80  0.6136107E-01  0.1842424E+02  0.8055995E+01  0.5166025E+00
Ar   81 -0.1353055E-02  0.1583954E+02  0.1065289E+02  0.1092047E+01
Ar   82  0.2742948E+01  0.1844636E+02  0.1064435E+02  0.8869813E+00
Ar   83  0.2709771E+01  0.1585769E+02  0.1323302E+02  0.9443703E-01
Ar   84 -0.1353158E-02  0.1843782E+02  0.1325118E+02  0.1092040E+01
Ar   85 -0.3509646E-01  0.1584097E+02  0.1584097E+02  0.1130275E+01
Ar   86  0.2726105E+01  0.1844455E+02  0.1585333E+02  0.1454003E+00
Ar   87  0.2726105E+01  0.1585333E+02  0.1844455E+02  0.1454003E+00
Ar   88  0.3124722E-01  0.1843147E+02  0.1843147E+02  0.8175033E+00
Ar   89  0.2998163E-01  0.1583818E+02  0.2104642E+02  0.9542957E+00
Ar   90  0.2757640E+01  0.1843286E+02  0.2102215E+02  0.7300577E+00
Ar   91  0.2776945E+01  0.1584384E+02  0.2365067E+02  0.3013570E+00
Ar   92  0.8137307E-01  0.1841536E+02  0.2365386E+02  0.3955508E+00
Ar   93  0.8385266E-01  0.1584038E+02  0.2632434E+02  0.1390457E+01
Ar   94  0.2805841E+01  0.1843265E+02  0.2628487E+02  0.1699557E+01
Ar   95  0.2766372E+01  0.1584038E+02  0.2900686E+02  0.1390443E+01
Ar   96  0.1189483E+00  0.1844307E+02  0.2897176E+02  0.3890949E+00
Ar   97  0.1381515E+00  0.2104528E+02  0.1381515E+00  0.7198522E+00
Ar   98  0.2840241E+01  0.2361404E+02  0.1645322E+00  0.9522116E+00
Ar   99  0.2819603E+01  0.2099668E+02  0.2819603E+01  0.9252434E+00
Ar  100  0.1645322E+00  0.2361404E+02  0.2840241E+01  0.9522116E+00
Ar  101  0.1114616E+00  0.2102333E+02  0.5454378E+01  0.4417387E+00
Ar  102  0.2847062E+01  0.2360649E+02  0.5484216E+01  0.5136441E-01
Ar  103  0.2779185E+01  0.2101399E+02  0.8076719E+01  0.2722862E+00
Ar  104  0.1114617E+00  0.2363633E+02  0.8067378E+01  0.4417351E+00
Ar  105  0.6136101E-01  0.2103471E+02  0.1066647E+02  0.5165867E+00
Ar  106  0.2794150E+01  0.2364042E+02  0.1066424E+02  0.2043033E+00
Ar  107  0.2743331E+01  0.2102366E+02  0.1324189E+02  0.3637689E+00
Ar  108  0.5178818E-01  0.2367463E+02  0.1325503E+02  0.1158504E+01
Ar  109  0.2998163E-01  0.2104642E+02  0.1583818E+02  0.9542957E+00
Ar  110  0.2776945E+01  0.2365067E+02  0.1584384E+02  0.3013570E+00
Ar  111  0.2757640E+01  0.2102215E+02  0.1843286E+02  0.7300577E+00
Ar  112  0.8137307E-01  0.2365386E+02  0.1841536E+02  0.3955508E+00
Ar  113  0.8689453E-01  0.2102876E+02  0.2102876E+02  0.3481052E+00
Ar  114  0.2818447E+01  0.2362012E+02  0.2100424E+02  0.1224860E+00
Ar  115  0.2818447E+01  0.2100424E+02  0.2362012E+02  0.1224860E+00
Ar  116  0.1341207E+00  0.2362209E+02  0.2362209E+02  0.2002568E+00
Ar  117  0.1374222E+00  0.2102483E+02  0.2625558E+02  0.1048394E+01
Ar  118  0.2855785E+01  0.2360269E+02  0.2623492E+02  0.5091509E+00
Ar  119  0.2835130E+01  0.2102483E+02  0.2895329E+02  0.1048375E+01
Ar  120  0.1642224E+00  0.2362661E+02  0.2892649E+02  0.1460984E+01
Ar  121  0.2127850E+00  0.2621716E+02  0.2127850E+00  0.2023795E+01
Ar  122  0.2873553E+01  0.2887793E+02  0.2127848E+00  0.2023801E+01
Ar  123  0.2883442E+01  0.2620727E+02  0.2883442E+01  0.3123677E+00
Ar  124  0.2127848E+00  0.2887793E+02  0.2873553E+01  0.2023801E+01
Ar  125  0.1645324E+00  0.2625047E+02  0.5476667E+01  0.9522276E+00
Ar  126  0.2840241E+01  0.2892618E+02  0.5476667E+01  0.9522098E+00
Ar  127  0.2819603E+01  0.2627111E+02  0.8094026E+01  0.9252369E+00
Ar  128  0.1381514E+00  0.2895256E+02  0.8045428E+01  0.7198344E+00
Ar  129  0.1139513E+00  0.2628527E+02  0.1065681E+02  0.1191455E+01
Ar  130  0.2805440E+01  0.2897676E+02  0.1065681E+02  0.1191442E+01
Ar  131  0.2794855E+01  0.2629586E+02  0.1324393E+02  0.7617570E-01
Ar  132  0.1023051E+00  0.2898841E+02  0.1325245E+02  0.1110764E+01
Ar  133  0.8385266E-01  0.2632434E+02  0.1584038E+02  0.1390457E+01
Ar  134  0.2766372E+01  0.2900686E+02  0.1584038E+02  0.1390443E+01
Ar  135  0.2805841E+01  0.2628487E+02  0.1843265E+02  0.1699557E+01
Ar  136  0.1189483E+00  0.2897176E+02  0.1844307E+02  0.3890949E+00
Ar  137  0.1374222E+00  0.2625558E+02  0.2102483E+02  0.1048394E+01
Ar  138  0.2835130E+01  0.2895329E+02  0.2102483E+02  0.1048375E+01
Ar  139  0.2855785E+01  0.2623492E+02  0.2360269E+02  0.5091509E+00
Ar  140  0.1642224E+00  0.2892649E+02  0.2362661E+02  0.1460984E+01
Ar  141  0.1918615E+00  0.2621549E+02  0.2621549E+02  0.2284272E+01
Ar  142  0.2875224E+01  0.2889885E+02  0.2621549E+02  0.2284252E+01
Ar  143  0.2875224E+01  0.2621549E+02  0.2889885E+02  0.2284252E+01
Ar  144  0.2513655E+00  0.2883934E+02  0.2883934E+02  0.8792908E+00
Ar  145  0.5464100E+01  0.1642223E+00  0.1642223E+00  0.1460984E+01
Ar  146  0.8065877E+01  0.2835130E+01  0.1374221E+00  0.1048389E+01
Ar  147  0.8065877E+01  0.1374221E+00  0.2835130E+01  0.1048389E+01
Ar  148  0.5488017E+01  0.2855785E+01  0.2855785E+01  0.5091577E+00
Ar  149  0.5468616E+01  0.1341207E+00  0.5468616E+01  0.2002690E+00
Ar  150  0.8086470E+01  0.2818446E+01  0.5470589E+01  0.1224817E+00
Ar  151  0.8061947E+01  0.8689471E-01  0.8061947E+01  0.3481036E+00
Ar  152  0.5470589E+01  0.2818446E+01  0.8086470E+01  0.1224817E+00
Ar  153  0.5436849E+01  0.8137305E-01  0.1067535E+02  0.3955465E+00
Ar  154  0.8068559E+01  0.2757640E+01  0.1065785E+02  0.7300472E+00
Ar  155  0.8044287E+01  0.2998172E-01  0.1325253E+02  0.9542779E+00
Ar  156  0.5440036E+01  0.2776945E+01  0.1324687E+02  0.3013715E+00
Ar  157  0.5416076E+01  0.5178815E-01  0.1583568E+02  0.1158511E+01
Ar  158  0.8067053E+01  0.2743331E+01  0.1584882E+02  0.3637540E+00
Ar  159  0.8055995E+01  0.6136107E-01  0.1842424E+02  0.5166025E+00
Ar  160  0.5450287E+01  0.2794150E+01  0.1842647E+02  0.2043159E+00
Ar  161  0.5454378E+01  0.1114616E+00  0.2102333E+02  0.4417387E+00
Ar  162  0.8076719E+01  0.2779185E+01  0.2101399E+02  0.2722862E+00
Ar  163  0.8067378E+01  0.1114617E+00  0.2363633E+02  0.4417351E+00
Ar  164  0.5484216E+01  0.2847062E+01  0.2360649E+02  0.5136441E-01
Ar  165  0.5476667E+01  0.1645324E+00  0.2625047E+02  0.9522276E+00
Ar  166  0.8094026E+01  0.2819603E+01  0.2627111E+02  0.9252369E+00
Ar  167  0.8045428E+01  0.1381514E+00  0.2895256E+02  0.7198344E+00
Ar  168  0.5476667E+01  0.2840241E+01  0.2892618E+02  0.9522098E+00
Ar  169  0.5468616E+01  0.5468616E+01  0.1341207E+00  0.2002690E+00
Ar  170  0.8061947E+01  0.8061947E+01  0.8689471E-01  0.3481036E+00
Ar  171  0.8086470E+01  0.5470589E+01  0.2818446E+01  0.1224817E+00
Ar  172  0.5470589E+01  0.8086470E+01  0.2818446E+01  0.1224817E+00
Ar  173  0.5473742E+01  0.5473742E+01  0.5473742E+01  0.1688138E+00
Ar  174  0.8075895E+01  0.8075895E+01  0.5452312E+01  0.5540697E+00
Ar  175  0.8075895E+01  0.5452312E+01  0.8075895E+01  0.5540697E+00
Ar  176  0.5452312E+01  0.8075895E+01  0.8075895E+01  0.5540697E+00
Ar  177  0.5444890E+01  0.5444890E+01  0.1066945E+02  0.2455960E+00
Ar  178  0.8054416E+01  0.8054416E+01  0.1066635E+02  0.1258705E+01
Ar  179  0.8053319E+01  0.5413878E+01  0.1325207E+02  0.4490653E+00
Ar  180  0.5413878E+01  0.8053319E+01  0.1325207E+02  0.4490653E+00
Ar  181  0.5426842E+01  0.5426842E+01  0.1583765E+02  0.2153572E+00
Ar  182  0.8044969E+01  0.8044969E+01  0.1584150E+02  0.1766931E+01
Ar  183  0.8059083E+01  0.5431531E+01  0.1842552E+02  0.5798010E+00
Ar  184  0.5431531E+01  0.8059083E+01  0.1842552E+02  0.5798010E+00
Ar  185  0.5464231E+01  0.5464231E+01  0.2100611E+02  0.8660585E-01
Ar  186  0.8071035E+01  0.8071035E+01  0.2101968E+02  0.1385800E+01
Ar  187  0.8084602E+01  0.5464231E+01  0.2362648E+02  0.8658777E-01
Ar  188  0.5464231E+01  0.8084602E+01  0.2362648E+02  0.8658777E-01
Ar  189  0.5484216E+01  0.5484216E+01  0.2624365E+02  0.5135420E-01
Ar  190  0.8076719E+01  0.8076719E+01  0.2631153E+02  0.2722843E+00
Ar  191  0.8067379E+01  0.5454378E+01  0.2897925E+02  0.4417402E+00
Ar  192  0.5454378E+01  0.8067379E+01  0.2897925E+02  0.4417402E+00
Ar  193  0.5436849E+01  0.1067535E+02  0.8137305E-01  0.3955465E+00
Ar  194  0.8044287E+01  0.1325253E+02  0.2998172E-01  0.9542779E+00
Ar  195  0.8068559E+01  0.1065785E+02  0.2757640E+01  0.7300472E+00
Ar  196  0.5440036E+01  0.1324687E+02  0.2776945E+01  0.3013715E+00
Ar  197  0.5444890E+01  0.1066945E+02  0.5444890E+01  0.2455960E+00
Ar  198  0.8053319E+01  0.1325207E+02  0.5413878E+01  0.4490653E+00
Ar  199  0.8054416E+01  0.1066635E+02  0.8054416E+01  0.1258705E+01
Ar  200  0.5413878E+01  0.1325207E+02  0.8053319E+01  0.4490653E+00
Ar  201  0.5415043E+01  0.1065612E+02  0.1065612E+02  0.6354572E+00
Ar  202  0.8029731E+01  0.1324937E+02  0.1064982E+02  0.1378832E+01
Ar  203  0.8029731E+01  0.1064982E+02  0.1324937E+02  0.1378832E+01
Ar  204  0.5371983E+01  0.1324571E+02  0.1324571E+02  0.4284759E-01
Ar  205  0.5395536E+01  0.1065043E+02  0.1584574E+02  0.3859903E+00
Ar  206  0.8017122E+01  0.1324710E+02  0.1584361E+02  0.1526785E+01
Ar  207  0.8039583E+01  0.1065565E+02  0.1843506E+02  0.1050082E+01
Ar  208  0.5395536E+01  0.1324497E+02  0.1844028E+02  0.3859728E+00
Ar  209  0.5431531E+01  0.1066519E+02  0.2103163E+02  0.5798554E+00
Ar  210  0.8044969E+01  0.1324921E+02  0.2104574E+02  0.1766950E+01
Ar  211  0.8059083E+01  0.1066519E+02  0.2365918E+02  0.5798175E+00
Ar  212  0.5426842E+01  0.1325306E+02  0.2366387E+02  0.2153838E+00
Ar  213  0.5450287E+01  0.1066424E+02  0.2629656E+02  0.2043205E+00
Ar  214  0.8067053E+01  0.1324189E+02  0.2634738E+02  0.3637532E+00
Ar  215  0.8055996E+01  0.1066647E+02  0.2902935E+02  0.5165875E+00
Ar  216  0.5416076E+01  0.1325503E+02  0.2903892E+02  0.1158505E+01
Ar  217  0.5416076E+01  0.1583568E+02  0.5178815E-01  0.1158511E+01
Ar  218  0.8055995E+01  0.1842424E+02  0.6136107E-01  0.5166025E+00
Ar  219  0.8067053E+01  0.1584882E+02  0.2743331E+01  0.3637540E+00
Ar  220  0.5450287E+01  0.1842647E+02  0.2794150E+01  0.2043159E+00
Ar  221  0.5426842E+01  0.1583765E+02  0.5426842E+01  0.2153572E+00
Ar  222  0.8059083E+01  0.1842552E+02  0.5431531E+01  0.5798010E+00
Ar  223  0.8044969E+01  0.1584150E+02  0.8044969E+01  0.1766931E+01
Ar  224  0.5431531E+01  0.1842552E+02  0.8059083E+01  0.5798010E+00
Ar  225  0.5395536E+01  0.1584574E+02  0.1065043E+02  0.3859903E+00
Ar  226  0.8039583E+01  0.1843506E+02  0.1065565E+02  0.1050082E+01
Ar  227  0.8017122E+01  0.1584361E+02  0.1324710E+02  0.1526785E+01
Ar  228  0.5395536E+01  0.1844028E+02  0.1324497E+02  0.3859728E+00
Ar  229  0.5371983E+01  0.1584500E+02  0.1584500E+02  0.4284612E-01
Ar  230  0.8029731E+01  0.1844089E+02  0.1584134E+02  0.1378836E+01
Ar  231  0.8029731E+01  0.1584134E+02  0.1844089E+02  0.1378836E+01
Ar  232  0.5415042E+01  0.1843459E+02  0.1843459E+02  0.6354309E+00
Ar  233  0.5413878E+01  0.1583864E+02  0.2103739E+02  0.4491069E+00
Ar  234  0.8054416E+01  0.1842436E+02  0.2103630E+02  0.1258722E+01
Ar  235  0.8053319E+01  0.1583864E+02  0.2367683E+02  0.4490689E+00
Ar  236  0.5444890E+01  0.1842126E+02  0.2364582E+02  0.2455776E+00
Ar  237  0.5440036E+01  0.1584384E+02  0.2631377E+02  0.3013635E+00
Ar  238  0.8068559E+01  0.1843286E+02  0.2633307E+02  0.7300493E+00
Ar  239  0.8044287E+01  0.1583818E+02  0.2906073E+02  0.9542978E+00
Ar  240  0.5436849E+01  0.1841536E+02  0.2900934E+02  0.3955546E+00
Ar  241  0.5454378E+01  0.2102333E+02  0.1114616E+00  0.4417387E+00
Ar  242  0.8067378E+01  0.2363633E+02  0.1114617E+00  0.4417351E+00
Ar  243  0.8076719E+01  0.2101399E+02  0.2779185E+01  0.2722862E+00
Ar  244  0.5484216E+01  0.2360649E+02  0.2847062E+01  0.5136441E-01
Ar  245  0.5464231E+01  0.2100611E+02  0.5464231E+01  0.8660585E-01
Ar  246  0.8084602E+01  0.2362648E+02  0.5464231E+01  0.8658777E-01
Ar  247  0.8071035E+01  0.2101968E+02  0.8071035E+01  0.1385800E+01
Ar  248  0.5464231E+01  0.2362648E+02  0.8084602E+01  0.8658777E-01
Ar  249  0.5431531E+01  0.2103163E+02  0.1066519E+02  0.5798554E+00
Ar  250  0.8059083E+01  0.2365918E+02  0.1066519E+02  0.5798175E+00
Ar  251  0.8044969E+01  0.2104574E+02  0.1324921E+02  0.1766950E+01
Ar  252  0.5426842E+01  0.2366387E+02  0.1325306E+02  0.2153838E+00
Ar  253  0.5413878E+01  0.2103739E+02  0.1583864E+02  0.4491069E+00
Ar  254  0.8053319E+01  0.2367683E+02  0.1583864E+02  0.4490689E+00
Ar  255  0.8054416E+01  0.2103630E+02  0.1842436E+02  0.1258722E+01
Ar  256  0.5444890E+01  0.2364582E+02  0.1842126E+02  0.2455776E+00
Ar  257  0.5452312E+01  0.2101482E+02  0.2101482E+02  0.5541340E+00
Ar  258  0.8075895E+01  0.2363840E+02  0.2101482E+02  0.5540923E+00
Ar  259  0.8075895E+01  0.2101482E+02  0.2363840E+02  0.5540923E+00
Ar  260  0.5473742E+01  0.2361697E+02  0.2361697E+02  0.1688430E+00
Ar  261  0.5470589E+01  0.2100424E+02  0.2627226E+02  0.1224901E+00
Ar  262  0.8086470E+01  0.2362012E+02  0.2627226E+02  0.1224708E+00
Ar  263  0.8061947E+01  0.2102876E+02  0.2900382E+02  0.3481026E+00
Ar  264  0.5468616E+01  0.2362209E+02  0.2895659E+02  0.2002633E+00
Ar  265  0.5476667E+01  0.2625047E+02  0.1645324E+00  0.9522276E+00
Ar  266  0.8045428E+01  0.2895256E+02  0.1381514E+00  0.7198344E+00
Ar  267  0.8094026E+01  0.2627111E+02  0.2819603E+01  0.9252369E+00
Ar  268  0.5476667E+01  0.2892618E+02  0.2840241E+01  0.9522098E+00
Ar  269  0.5484216E+01  0.2624365E+02  0.5484216E+01  0.5135420E-01
Ar  270  0.8067379E+01  0.2897925E+02  0.5454378E+01  0.4417402E+00
Ar  271  0.8076719E+01  0.2631153E+02  0.8076719E+01  0.2722843E+00
Ar  272  0.5454378E+01  0.2897925E+02  0.8067379E+01  0.4417402E+00
Ar  273  0.5450287E+01  0.2629656E+02  0.1066424E+02  0.2043205E+00
Ar  274  0.8055996E+01  0.2902935E+02  0.1066647E+02  0.5165875E+00
Ar  275  0.8067053E+01  0.2634738E+02  0.1324189E+02  0.3637532E+00
Ar  276  0.5416076E+01  0.2903892E+02  0.1325503E+02  0.1158505E+01
Ar  277  0.5440036E+01  0.2631377E+02  0.1584384E+02  0.3013635E+00
Ar  278  0.8044287E+01  0.2906073E+02  0.1583818E+02  0.9542978E+00
Ar  279  0.8068559E+01  0.2633307E+02  0.1843286E+02  0.7300493E+00
Ar  280  0.5436849E+01  0.2900934E+02  0.1841536E+02  0.3955546E+00
Ar  281  0.5470589E+01  0.2627226E+02  0.2100424E+02  0.1224901E+00
Ar  282  0.8061947E+01  0.2900382E+02  0.2102876E+02  0.3481026E+00
Ar  283  0.8086470E+01  0.2627226E+02  0.2362012E+02  0.1224708E+00
Ar  284  0.5468616E+01  0.2895659E+02  0.2362209E+02  0.2002633E+00
Ar  285  0.5488017E+01  0.2623493E+02  0.2623493E+02  0.5091853E+00
Ar  286  0.8065877E+01  0.2895329E+02  0.2625558E+02  0.1048401E+01
Ar  287  0.8065877E+01  0.2625558E+02  0.2895329E+02  0.1048401E+01
Ar  288  0.5464100E+01  0.2892649E+02  0.2892649E+02  0.1460965E+01
Ar  289  0.1064764E+02  0.1189483E+00  0.1189483E+00  0.3890976E+00
Ar  290  0.1325033E+02  0.2766372E+01  0.8385244E-01  0.1390417E+01
Ar  291  0.1325033E+02  0.8385244E-01  0.2766372E+01  0.1390417E+01
Ar  292  0.1065806E+02  0.2805841E+01  0.2805841E+01  0.1699528E+01
Ar  293  0.1067535E+02  0.8137305E-01  0.5436849E+01  0.3955465E+00
Ar  294  0.1324687E+02  0.2776945E+01  0.5440036E+01  0.3013715E+00
Ar  295  0.1325253E+02  0.2998172E-01  0.8044287E+01  0.9542779E+00
Ar  296  0.1065785E+02  0.2757640E+01  0.8068559E+01  0.7300472E+00
Ar  297  0.1065924E+02  0.3124732E-01  0.1065924E+02  0.8174887E+00
Ar  298  0.1323738E+02  0.2726105E+01  0.1064616E+02  0.1453952E+00
Ar  299  0.1324974E+02 -0.3509634E-01  0.1324974E+02  0.1130262E+01
Ar  300  0.1064616E+02  0.2726105E+01  0.1323738E+02  0.1453952E+00
Ar  301  0.1065289E+02 -0.1353055E-02  0.1583954E+02  0.1092047E+01
Ar  302  0.1323302E+02  0.2709771E+01  0.1585769E+02  0.9443703E-01
Ar  303  0.1325118E+02 -0.1353158E-02  0.1843782E+02  0.1092040E+01
Ar  304  0.1064435E+02  0.2742948E+01  0.1844636E+02  0.8869813E+00
Ar  305  0.1066647E+02  0.6136101E-01  0.2103471E+02  0.5165867E+00
Ar  306  0.1324189E+02  0.2743331E+01  0.2102366E+02  0.3637689E+00
Ar  307  0.1325503E+02  0.5178818E-01  0.2367463E+02  0.1158504E+01
Ar  308  0.1066424E+02  0.2794150E+01  0.2364042E+02  0.2043033E+00
Ar  309  0.1065681E+02  0.1139513E+00  0.2628527E+02  0.1191455E+01
Ar  310  0.1324393E+02  0.2794855E+01  0.2629586E+02  0.7617570E-01
Ar  311  0.1325245E+02  0.1023051E+00  0.2898841E+02  0.1110764E+01
Ar  312  0.1065681E+02  0.2805440E+01  0.2897676E+02  0.1191442E+01
Ar  313  0.1067535E+02  0.5436849E+01  0.8137305E-01  0.3955465E+00
Ar  314  0.1325253E+02  0.8044287E+01  0.2998172E-01  0.9542779E+00
Ar  315  0.1324687E+02  0.5440036E+01  0.2776945E+01  0.3013715E+00
Ar  316  0.1065785E+02  0.8068559E+01  0.2757640E+01  0.7300472E+00
Ar  317  0.1066945E+02  0.5444890E+01  0.5444890E+01  0.2455960E+00
Ar  318  0.1325207E+02  0.8053319E+01  0.5413878E+01  0.4490653E+00
Ar  319  0.1325207E+02  0.5413878E+01  0.8053319E+01  0.4490653E+00
Ar  320  0.1066635E+02  0.8054416E+01  0.8054416E+01  0.1258705E+01
Ar  321  0.1065612E+02  0.5415043E+01  0.1065612E+02  0.6354572E+00
Ar  322  0.1324937E+02  0.8029731E+01  0.1064982E+02  0.1378832E+01
Ar  323  0.1324571E+02  0.5371983E+01  0.1324571E+02  0.4284759E-01
Ar  324  0.1064982E+02  0.8029731E+01  0.1324937E+02  0.1378832E+01
Ar  325  0.1065043E+02  0.5395536E+01  0.1584574E+02  0.3859903E+00
Ar  326  0.1324710E+02  0.8017122E+01  0.1584361E+02  0.1526785E+01
Ar  327  0.1324497E+02  0.5395536E+01  0.1844028E+02  0.3859728E+00
Ar  328  0.1065565E+02  0.8039583E+01  0.1843506E+02  0.1050082E+01
Ar  329  0.1066519E+02  0.5431531E+01  0.2103163E+02  0.5798554E+00
Ar  330  0.1324921E+02  0.8044969E+01  0.2104574E+02  0.1766950E+01
Ar  331  0.1325306E+02  0.5426842E+01  0.2366387E+02  0.2153838E+00
Ar  332  0.1066519E+02  0.8059083E+01  0.2365918E+02  0.5798175E+00
Ar  333  0.1066424E+02  0.5450287E+01  0.2629656E+02  0.2043205E+00
Ar  334  0.1324189E+02  0.8067053E+01  0.2634738E+02  0.3637532E+00
Ar  335  0.1325503E+02  0.5416076E+01  0.2903892E+02  0.1158505E+01
Ar  336  0.1066647E+02  0.8055996E+01  0.2902935E+02  0.5165875E+00
Ar  337  0.1065924E+02  0.1065924E+02  0.3124732E-01  0.8174887E+00
Ar  338  0.1324974E+02  0.1324974E+02 -0.3509634E-01  0.1130262E+01
Ar  339  0.1323738E+02  0.1064616E+02  0.2726105E+01  0.1453952E+00
Ar  340  0.1064616E+02  0.1323738E+02  0.2726105E+01  0.1453952E+00
Ar  341  0.1065612E+02  0.1065612E+02  0.5415043E+01  0.6354572E+00
Ar  342  0.1324571E+02  0.1324571E+02  0.5371983E+01  0.4284759E-01
Ar  343  0.1324937E+02  0.1064982E+02  0.8029731E+01  0.1378832E+01
Ar  344  0.1064982E+02  0.1324937E+02  0.8029731E+01  0.1378832E+01
Ar  345  0.1064559E+02  0.1064559E+02  0.1064559E+02  0.5632170E+00
Ar  346  0.1324352E+02  0.1324352E+02  0.1063241E+02  0.5079500E+00
Ar  347  0.1324352E+02  0.1063241E+02  0.1324352E+02  0.5079500E+00
Ar  348  0.1063241E+02  0.1324352E+02  0.1324352E+02  0.5079500E+00
Ar  349  0.1063922E+02  0.1063922E+02  0.1584567E+02  0.5855965E+00
Ar  350  0.1324109E+02  0.1324109E+02  0.1584962E+02  0.1974260E+00
Ar  351  0.1324504E+02  0.1063922E+02  0.1845149E+02  0.5855924E+00
Ar  352  0.1063922E+02  0.1324504E+02  0.1845149E+02  0.5855924E+00
Ar  353  0.1065565E+02  0.1065565E+02  0.2105113E+02  0.1050112E+01
Ar  354  0.1324710E+02  0.1324710E+02  0.2107359E+02  0.1526795E+01
Ar  355  0.1324497E+02  0.1065043E+02  0.2369517E+02  0.3859858E+00
Ar  356  0.1065043E+02  0.1324497E+02  0.2369517E+02  0.3859858E+00
Ar  357  0.1064435E+02  0.1064435E+02  0.2634776E+02  0.8869622E+00
Ar  358  0.1323302E+02  0.1323302E+02  0.2638094E+02  0.9443626E-01
Ar  359  0.1325118E+02  0.1065289E+02  0.2909206E+02  0.1092038E+01
Ar  360  0.1065289E+02  0.1325118E+02  0.2909206E+02  0.1092038E+01
Ar  361  0.1065289E+02  0.1583954E+02 -0.1353055E-02  0.1092047E+01
Ar  362  0.1325118E+02  0.1843782E+02 -0.1353158E-02  0.1092040E+01
Ar  363  0.1323302E+02  0.1585769E+02  0.2709771E+01  0.9443703E-01
Ar  364  0.1064435E+02  0.1844636E+02  0.2742948E+01  0.8869813E+00
Ar  365  0.1065043E+02  0.1584574E+02  0.5395536E+01  0.3859903E+00
Ar  366  0.1324497E+02  0.1844028E+02  0.5395536E+01  0.3859728E+00
Ar  367  0.1324710E+02  0.1584361E+02  0.8017122E+01  0.1526785E+01
Ar  368  0.1065565E+02  0.1843506E+02  0.8039583E+01  0.1050082E+01
Ar  369  0.1063922E+02  0.1584567E+02  0.1063922E+02  0.5855965E+00
Ar  370  0.1324504E+02  0.1845149E+02  0.1063922E+02  0.5855924E+00
Ar  371  0.1324109E+02  0.1584962E+02  0.1324109E+02  0.1974260E+00
Ar  372  0.1063922E+02  0.1845149E+02  0.1324504E+02  0.5855924E+00
Ar  373  0.1063241E+02  0.1584719E+02  0.1584719E+02  0.5079611E+00
Ar  374  0.1324352E+02  0.1845830E+02  0.1584719E+02  0.5079561E+00
Ar  375  0.1324352E+02  0.1584719E+02  0.1845830E+02  0.5079561E+00
Ar  376  0.1064559E+02  0.1844512E+02  0.1844512E+02  0.5632379E+00
Ar  377  0.1064982E+02  0.1584134E+02  0.2106098E+02  0.1378869E+01
Ar  378  0.1324937E+02  0.1844089E+02  0.2106098E+02  0.1378852E+01
Ar  379  0.1324571E+02  0.1584500E+02  0.2371873E+02  0.4284406E-01
Ar  380  0.1065612E+02  0.1843459E+02  0.2367567E+02  0.6354377E+00
Ar  381  0.1064616E+02  0.1585333E+02  0.2636461E+02  0.1453953E+00
Ar  382  0.1323738E+02  0.1844455E+02  0.2636461E+02  0.1453969E+00
Ar  383  0.1324974E+02  0.1584097E+02  0.2912581E+02  0.1130273E+01
Ar  384  0.1065924E+02  0.1843147E+02  0.2905946E+02  0.8174983E+00
Ar  385  0.1066647E+02  0.2103471E+02  0.6136101E-01  0.5165867E+00
Ar  386  0.1325503E+02  0.2367463E+02  0.5178818E-01  0.1158504E+01
Ar  387  0.1324189E+02  0.2102366E+02  0.2743331E+01  0.3637689E+00
Ar  388  0.1066424E+02  0.2364042E+02  0.2794150E+01  0.2043033E+00
Ar  389  0.1066519E+02  0.2103163E+02  0.5431531E+01  0.5798554E+00
Ar  390  0.1325306E+02  0.2366387E+02  0.5426842E+01  0.2153838E+00
Ar  391  0.1324921E+02  0.2104574E+02  0.8044969E+01  0.1766950E+01
Ar  392  0.1066519E+02  0.2365918E+02  0.8059083E+01  0.5798175E+00
Ar  393  0.1065565E+02  0.2105113E+02  0.1065565E+02  0.1050112E+01
Ar  394  0.1324497E+02  0.2369517E+02  0.1065043E+02  0.3859858E+00
Ar  395  0.1324710E+02  0.2107359E+02  0.1324710E+02  0.1526795E+01
Ar  396  0.1065043E+02  0.2369517E+02  0.1324497E+02  0.3859858E+00
Ar  397  0.1064982E+02  0.2106098E+02  0.1584134E+02  0.1378869E+01
Ar  398  0.1324571E+02  0.2371873E+02  0.1584500E+02  0.4284406E-01
Ar  399  0.1324937E+02  0.2106098E+02  0.1844089E+02  0.1378852E+01
Ar  400  0.1065612E+02  0.2367567E+02  0.1843459E+02  0.6354377E+00
Ar  401  0.1066635E+02  0.2103630E+02  0.2103630E+02  0.1258762E+01
Ar  402  0.1325207E+02  0.2367683E+02  0.2103739E+02  0.4490919E+00
Ar  403  0.1325207E+02  0.2103739E+02  0.2367683E+02  0.4490919E+00
Ar  404  0.1066945E+02  0.2364582E+02  0.2364582E+02  0.2456029E+00
Ar  405  0.1065785E+02  0.2102215E+02  0.2633307E+02  0.7300709E+00
Ar  406  0.1324687E+02  0.2365067E+02  0.2631377E+02  0.3013537E+00
Ar  407  0.1325253E+02  0.2104642E+02  0.2906073E+02  0.9542859E+00
Ar  408  0.1067535E+02  0.2365386E+02  0.2900934E+02  0.3955450E+00
Ar  409  0.1065681E+02  0.2628527E+02  0.1139513E+00  0.1191455E+01
Ar  410  0.1325245E+02  0.2898841E+02  0.1023051E+00  0.1110764E+01
Ar  411  0.1324393E+02  0.2629586E+02  0.2794855E+01  0.7617570E-01
Ar  412  0.1065681E+02  0.2897676E+02  0.2805440E+01  0.1191442E+01
Ar  413  0.1066424E+02  0.2629656E+02  0.5450287E+01  0.2043205E+00
Ar  414  0.1325503E+02  0.2903892E+02  0.5416076E+01  0.1158505E+01
Ar  415  0.1324189E+02  0.2634738E+02  0.8067053E+01  0.3637532E+00
Ar  416  0.1066647E+02  0.2902935E+02  0.8055996E+01  0.5165875E+00
Ar  417  0.1064435E+02  0.2634776E+02  0.1064435E+02  0.8869622E+00
Ar  418  0.1325118E+02  0.2909206E+02  0.1065289E+02  0.1092038E+01
Ar  419  0.1323302E+02  0.2638094E+02  0.1323302E+02  0.9443626E-01
Ar  420  0.1065289E+02  0.2909206E+02  0.1325118E+02  0.1092038E+01
Ar  421  0.1064616E+02  0.2636461E+02  0.1585333E+02  0.1453953E+00
Ar  422  0.1324974E+02  0.2912581E+02  0.1584097E+02  0.1130273E+01
Ar  423  0.1323738E+02  0.2636461E+02  0.1844455E+02  0.1453969E+00
Ar  424  0.1065924E+02  0.2905946E+02  0.1843147E+02  0.8174983E+00
Ar  425  0.1065785E+02  0.2633307E+02  0.2102215E+02  0.7300709E+00
Ar  426  0.1325253E+02  0.2906073E+02  0.2104642E+02  0.9542859E+00
Ar  427  0.1324687E+02  0.2631377E+02  0.2365067E+02  0.3013537E+00
Ar  428  0.1067535E+02  0.2900934E+02  0.2365386E+02  0.3955450E+00
Ar  429  0.1065806E+02  0.2628487E+02  0.2628487E+02  0.1699521E+01
Ar  430  0.1325033E+02  0.2900686E+02  0.2632434E+02  0.1390435E+01
Ar  431  0.1325033E+02  0.2632434E+02  0.2900686E+02  0.1390435E+01
Ar  432  0.1064764E+02  0.2897176E+02  0.2897176E+02  0.3890913E+00
Ar  433  0.1583826E+02  0.1023051E+00  0.1023051E+00  0.1110797E+01
Ar  434  0.1843390E+02  0.2805441E+01  0.1139512E+00  0.1191456E+01
Ar  435  0.1843390E+02  0.1139512E+00  0.2805441E+01  0.1191456E+01
Ar  436  0.1584678E+02  0.2794855E+01  0.2794855E+01  0.7616843E-01
Ar  437  0.1583568E+02  0.5178815E-01  0.5416076E+01  0.1158511E+01
Ar  438  0.1842647E+02  0.2794150E+01  0.5450287E+01  0.2043159E+00
Ar  439  0.1842424E+02  0.6136107E-01  0.8055995E+01  0.5166025E+00
Ar  440  0.1584882E+02  0.2743331E+01  0.8067053E+01  0.3637540E+00
Ar  441  0.1583954E+02 -0.1353055E-02  0.1065289E+02  0.1092047E+01
Ar  442  0.1844636E+02  0.2742948E+01  0.1064435E+02  0.8869813E+00
Ar  443  0.1843782E+02 -0.1353158E-02  0.1325118E+02  0.1092040E+01
Ar  444  0.1585769E+02  0.2709771E+01  0.1323302E+02  0.9443703E-01
Ar  445  0.1584097E+02 -0.3509646E-01  0.1584097E+02  0.1130275E+01
Ar  446  0.1844455E+02  0.2726105E+01  0.1585333E+02  0.1454003E+00
Ar  447  0.1843147E+02  0.3124722E-01  0.1843147E+02  0.8175033E+00
Ar  448  0.1585333E+02  0.2726105E+01  0.1844455E+02  0.1454003E+00
Ar  449  0.1583818E+02  0.2998163E-01  0.2104642E+02  0.9542957E+00
Ar  450  0.1843286E+02  0.2757640E+01  0.2102215E+02  0.7300577E+00
Ar  451  0.1841536E+02  0.8137307E-01  0.2365386E+02  0.3955508E+00
Ar  452  0.1584384E+02  0.2776945E+01  0.2365067E+02  0.3013570E+00
Ar  453  0.1584038E+02  0.8385266E-01  0.2632434E+02  0.1390457E+01
Ar  454  0.1843265E+02  0.2805841E+01  0.2628487E+02  0.1699557E+01
Ar  455  0.1844307E+02  0.1189483E+00  0.2897176E+02  0.3890949E+00
Ar  456  0.1584038E+02  0.2766372E+01  0.2900686E+02  0.1390443E+01
Ar  457  0.1583568E+02  0.5416076E+01  0.5178815E-01  0.1158511E+01
Ar  458  0.1842424E+02  0.8055995E+01  0.6136107E-01  0.5166025E+00
Ar  459  0.1842647E+02  0.5450287E+01  0.2794150E+01  0.2043159E+00
Ar  460  0.1584882E+02  0.8067053E+01  0.2743331E+01  0.3637540E+00
Ar  461  0.1583765E+02  0.5426842E+01  0.5426842E+01  0.2153572E+00
Ar  462  0.1842552E+02  0.8059083E+01  0.5431531E+01  0.5798010E+00
Ar  463  0.1842552E+02  0.5431531E+01  0.8059083E+01  0.5798010E+00
Ar  464  0.1584150E+02  0.8044969E+01  0.8044969E+01  0.1766931E+01
Ar  465  0.1584574E+02  0.5395536E+01  0.1065043E+02  0.3859903E+00
Ar  466  0.1843506E+02  0.8039583E+01  0.1065565E+02  0.1050082E+01
Ar  467  0.1844028E+02  0.5395536E+01  0.1324497E+02  0.3859728E+00
Ar  468  0.1584361E+02  0.8017122E+01  0.1324710E+02  0.1526785E+01
Ar  469  0.1584500E+02  0.5371983E+01  0.1584500E+02  0.4284612E-01
Ar  470  0.1844089E+02  0.8029731E+01  0.1584134E+02  0.1378836E+01
Ar  471  0.1843459E+02  0.5415042E+01  0.1843459E+02  0.6354309E+00
Ar  472  0.1584134E+02  0.8029731E+01  0.1844089E+02  0.1378836E+01
Ar  473  0.1583864E+02  0.5413878E+01  0.2103739E+02  0.4491069E+00
Ar  474  0.1842436E+02  0.8054416E+01  0.2103630E+02  0.1258722E+01
Ar  475  0.1842126E+02  0.5444890E+01  0.2364582E+02  0.2455776E+00
Ar  476  0.1583864E+02  0.8053319E+01  0.2367683E+02  0.4490689E+00
Ar  477  0.1584384E+02  0.5440036E+01  0.2631377E+02  0.3013635E+00
Ar  478  0.1843286E+02  0.8068559E+01  0.2633307E+02  0.7300493E+00
Ar  479  0.1841536E+02  0.5436849E+01  0.2900934E+02  0.3955546E+00
Ar  480  0.1583818E+02  0.8044287E+01  0.2906073E+02  0.9542978E+00
Ar  481  0.1583954E+02  0.1065289E+02 -0.1353055E-02  0.1092047E+01
Ar  482  0.1843782E+02  0.1325118E+02 -0.1353158E-02  0.1092040E+01
Ar  483  0.1844636E+02  0.1064435E+02  0.2742948E+01  0.8869813E+00
Ar  484  0.1585769E+02  0.1323302E+02  0.2709771E+01  0.9443703E-01
Ar  485  0.1584574E+02  0.1065043E+02  0.5395536E+01  0.3859903E+00
Ar  486  0.1844028E+02  0.1324497E+02  0.5395536E+01  0.3859728E+00
Ar  487  0.1843506E+02  0.1065565E+02  0.8039583E+01  0.1050082E+01
Ar  488  0.1584361E+02  0.1324710E+02  0.8017122E+01  0.1526785E+01
Ar  489  0.1584567E+02  0.1063922E+02  0.1063922E+02  0.5855965E+00
Ar  490  0.1845149E+02  0.1324504E+02  0.1063922E+02  0.5855924E+00
Ar  491  0.1845149E+02  0.1063922E+02  0.1324504E+02  0.5855924E+00
Ar  492  0.1584962E+02  0.1324109E+02  0.1324109E+02  0.1974260E+00
Ar  493  0.1584719E+02  0.1063241E+02  0.1584719E+02  0.5079611E+00
Ar  494  0.1845830E+02  0.1324352E+02  0.1584719E+02  0.5079561E+00
Ar  495  0.1844512E+02  0.1064559E+02  0.1844512E+02  0.5632379E+00
Ar  496  0.1584719E+02  0.1324352E+02  0.1845830E+02  0.5079561E+00
Ar  497  0.1584134E+02  0.1064982E+02  0.2106098E+02  0.1378869E+01
Ar  498  0.1844089E+02  0.1324937E+02  0.2106098E+02  0.1378852E+01
Ar  499  0.1843459E+02  0.1065612E+02  0.2367567E+02  0.6354377E+00
Ar  500  0.1584500E+02  0.1324571E+02  0.2371873E+02  0.4284406E-01
Ar  501  0.1585333E+02  0.1064616E+02  0.2636461E+02  0.1453953E+00
Ar  502  0.1844455E+02  0.1323738E+02  0.2636461E+02  0.1453969E+00
Ar  503  0.1843147E+02  0.1065924E+02  0.2905946E+02  0.8174983E+00
Ar  504  0.1584097E+02  0.1324974E+02  0.2912581E+02  0.1130273E+01
Ar  505  0.1584097E+02  0.1584097E+02 -0.3509646E-01  0.1130275E+01
Ar  506  0.1843147E+02  0.1843147E+02  0.3124722E-01  0.8175033E+00
Ar  507  0.1844455E+02  0.1585333E+02  0.2726105E+01  0.1454003E+00
Ar  508  0.1585333E+02  0.1844455E+02  0.2726105E+01  0.1454003E+00
Ar  509  0.1584500E+02  0.1584500E+02  0.5371983E+01  0.4284612E-01
Ar  510  0.1843459E+02  0.1843459E+02  0.5415042E+01  0.6354309E+00
Ar  511  0.1844089E+02  0.1584134E+02  0.8029731E+01  0.1378836E+01
Ar  512  0.1584134E+02  0.1844089E+02  0.8029731E+01  0.1378836E+01
Ar  513  0.1584719E+02  0.1584719E+02  0.1063241E+02  0.5079611E+00
Ar  514  0.1844512E+02  0.1844512E+02  0.1064559E+02  0.5632379E+00
Ar  515  0.1845830E+02  0.1584719E+02  0.1324352E+02  0.5079561E+00
Ar  516  0.1584719E+02  0.1845830E+02  0.1324352E+02  0.5079561E+00
Ar  517  0.1584962E+02  0.1584962E+02  0.1584962E+02  0.1974283E+00
Ar  518  0.1845149E+02  0.1845149E+02  0.1584567E+02  0.5856052E+00
Ar  519  0.1845149E+02  0.1584567E+02  0.1845149E+02  0.5856052E+00
Ar  520  0.1584567E+02  0.1845149E+02  0.1845149E+02  0.5856052E+00
Ar  521  0.1584361E+02  0.1584361E+02  0.2107359E+02  0.1526809E+01
Ar  522  0.1843506E+02  0.1843506E+02  0.2105113E+02  0.1050102E+01
Ar  523  0.1844028E+02  0.1584574E+02  0.2369517E+02  0.3859655E+00
Ar  524  0.1584574E+02  0.1844028E+02  0.2369517E+02  0.3859655E+00
Ar  525  0.1585769E+02  0.1585769E+02  0.2638094E+02  0.9444113E-01
Ar  526  0.1844636E+02  0.1844636E+02  0.2634776E+02  0.8869821E+00
Ar  527  0.1843782E+02  0.1583954E+02  0.2909206E+02  0.1092054E+01
Ar  528  0.1583954E+02  0.1843782E+02  0.2909206E+02  0.1092054E+01
Ar  529  0.1583818E+02  0.2104642E+02  0.2998163E-01  0.9542957E+00
Ar  530  0.1841536E+02  0.2365386E+02  0.8137307E-01  0.3955508E+00
Ar  531  0.1843286E+02  0.2102215E+02  0.2757640E+01  0.7300577E+00
Ar  532  0.1584384E+02  0.2365067E+02  0.2776945E+01  0.3013570E+00
Ar  533  0.1583864E+02  0.2103739E+02  0.5413878E+01  0.4491069E+00
Ar  534  0.1842126E+02  0.2364582E+02  0.5444890E+01  0.2455776E+00
Ar  535  0.1842436E+02  0.2103630E+02  0.8054416E+01  0.1258722E+01
Ar  536  0.1583864E+02  0.2367683E+02  0.8053319E+01  0.4490689E+00
Ar  537  0.1584134E+02  0.2106098E+02  0.1064982E+02  0.1378869E+01
Ar  538  0.1843459E+02  0.2367567E+02  0.1065612E+02  0.6354377E+00
Ar  539  0.1844089E+02  0.2106098E+02  0.1324937E+02  0.1378852E+01
Ar  540  0.1584500E+02  0.2371873E+02  0.1324571E+02  0.4284406E-01
Ar  541  0.1584361E+02  0.2107359E+02  0.1584361E+02  0.1526809E+01
Ar  542  0.1844028E+02  0.2369517E+02  0.1584574E+02  0.3859655E+00
Ar  543  0.1843506E+02  0.2105113E+02  0.1843506E+02  0.1050102E+01
Ar  544  0.1584574E+02  0.2369517E+02  0.1844028E+02  0.3859655E+00
Ar  545  0.1584150E+02  0.2104574E+02  0.2104574E+02  0.1766978E+01
Ar  546  0.1842552E+02  0.2365918E+02  0.2103163E+02  0.5798298E+00
Ar  547  0.1842552E+02  0.2103163E+02  0.2365918E+02  0.5798298E+00
Ar  548  0.1583765E+02  0.2366387E+02  0.2366387E+02  0.2153915E+00
Ar  549  0.1584882E+02  0.2102366E+02  0.2634738E+02  0.3637736E+00
Ar  550  0.1842647E+02  0.2364042E+02  0.2629656E+02  0.2043119E+00
Ar  551  0.1842424E+02  0.2103471E+02  0.2902935E+02  0.5166010E+00
Ar  552  0.1583568E+02  0.2367463E+02  0.2903892E+02  0.1158512E+01
Ar  553  0.1584038E+02  0.2632434E+02  0.8385266E-01  0.1390457E+01
Ar  554  0.1844307E+02  0.2897176E+02  0.1189483E+00  0.3890949E+00
Ar  555  0.1843265E+02  0.2628487E+02  0.2805841E+01  0.1699557E+01
Ar  556  0.1584038E+02  0.2900686E+02  0.2766372E+01  0.1390443E+01
Ar  557  0.1584384E+02  0.2631377E+02  0.5440036E+01  0.3013635E+00
Ar  558  0.1841536E+02  0.2900934E+02  0.5436849E+01  0.3955546E+00
Ar  559  0.1843286E+02  0.2633307E+02  0.8068559E+01  0.7300493E+00
Ar  560  0.1583818E+02  0.2906073E+02  0.8044287E+01  0.9542978E+00
Ar  561  0.1585333E+02  0.2636461E+02  0.1064616E+02  0.1453953E+00
Ar  562  0.1843147E+02  0.2905946E+02  0.1065924E+02  0.8174983E+00
Ar  563  0.1844455E+02  0.2636461E+02  0.1323738E+02  0.1453969E+00
Ar  564  0.1584097E+02  0.2912581E+02  0.1324974E+02  0.1130273E+01
Ar  565  0.1585769E+02  0.2638094E+02  0.1585769E+02  0.9444113E-01
Ar  566  0.1843782E+02  0.2909206E+02  0.1583954E+02  0.1092054E+01
Ar  567  0.1844636E+02  0.2634776E+02  0.1844636E+02  0.8869821E+00
Ar  568  0.1583954E+02  0.2909206E+02  0.1843782E+02  0.1092054E+01
Ar  569  0.1584882E+02  0.2634738E+02  0.2102366E+02  0.3637736E+00
Ar  570  0.1842424E+02  0.2902935E+02  0.2103471E+02  0.5166010E+00
Ar  571  0.1842647E+02  0.2629656E+02  0.2364042E+02  0.2043119E+00
Ar  572  0.1583568E+02  0.2903892E+02  0.2367463E+02  0.1158512E+01
Ar  573  0.1584678E+02  0.2629586E+02  0.2629586E+02  0.7616862E-01
Ar  574  0.1843390E+02  0.2897676E+02  0.2628527E+02  0.1191466E+01
Ar  575  0.1843390E+02  0.2628527E+02  0.2897676E+02  0.1191466E+01
Ar  576  0.1583826E+02  0.2898841E+02  0.2898841E+02  0.1110784E+01
Ar  577  0.2104528E+02  0.1381515E+00  0.1381515E+00  0.7198522E+00
Ar  578  0.2361404E+02  0.2840241E+01  0.1645322E+00  0.9522116E+00
Ar  579  0.2361404E+02  0.1645322E+00  0.2840241E+01  0.9522116E+00
Ar  580  0.2099668E+02  0.2819603E+01  0.2819603E+01  0.9252434E+00
Ar  581  0.2102333E+02  0.1114616E+00  0.5454378E+01  0.4417387E+00
Ar  582  0.2360649E+02  0.2847062E+01  0.5484216E+01  0.5136441E-01
Ar  583  0.2363633E+02  0.1114617E+00  0.8067378E+01  0.4417351E+00
Ar  584  0.2101399E+02  0.2779185E+01  0.8076719E+01  0.2722862E+00
Ar  585  0.2103471E+02  0.6136101E-01  0.1066647E+02  0.5165867E+00
Ar  586  0.2364042E+02  0.2794150E+01  0.1066424E+02  0.2043033E+00
Ar  587  0.2367463E+02  0.5178818E-01  0.1325503E+02  0.1158504E+01
Ar  588  0.2102366E+02  0.2743331E+01  0.1324189E+02  0.3637689E+00
Ar  589  0.2104642E+02  0.2998163E-01  0.1583818E+02  0.9542957E+00
Ar  590  0.2365067E+02  0.2776945E+01  0.1584384E+02  0.3013570E+00
Ar  591  0.2365386E+02  0.8137307E-01  0.1841536E+02  0.3955508E+00
Ar  592  0.2102215E+02  0.2757640E+01  0.1843286E+02  0.7300577E+00
Ar  593  0.2102876E+02  0.8689453E-01  0.2102876E+02  0.3481052E+00
Ar  594  0.2362012E+02  0.2818447E+01  0.2100424E+02  0.1224860E+00
Ar  595  0.2362209E+02  0.1341207E+00  0.2362209E+02  0.2002568E+00
Ar  596  0.2100424E+02  0.2818447E+01  0.2362012E+02  0.1224860E+00
Ar  597  0.2102483E+02  0.1374222E+00  0.2625558E+02  0.1048394E+01
Ar  598  0.2360269E+02  0.2855785E+01  0.2623492E+02  0.5091509E+00
Ar  599  0.2362661E+02  0.1642224E+00  0.2892649E+02  0.1460984E+01
Ar  600  0.2102483E+02  0.2835130E+01  0.2895329E+02  0.1048375E+01
Ar  601  0.2102333E+02  0.5454378E+01  0.1114616E+00  0.4417387E+00
Ar  602  0.2363633E+02  0.8067378E+01  0.1114617E+00  0.4417351E+00
Ar  603  0.2360649E+02  0.5484216E+01  0.2847062E+01  0.5136441E-01
Ar  604  0.2101399E+02  0.8076719E+01  0.2779185E+01  0.2722862E+00
Ar  605  0.2100611E+02  0.5464231E+01  0.5464231E+01  0.8660585E-01
Ar  606  0.2362648E+02  0.8084602E+01  0.5464231E+01  0.8658777E-01
Ar  607  0.2362648E+02  0.5464231E+01  0.8084602E+01  0.8658777E-01
Ar  608  0.2101968E+02  0.8071035E+01  0.8071035E+01  0.1385800E+01
Ar  609  0.2103163E+02  0.5431531E+01  0.1066519E+02  0.5798554E+00
Ar  610  0.2365918E+02  0.8059083E+01  0.1066519E+02  0.5798175E+00
Ar  611  0.2366387E+02  0.5426842E+01  0.1325306E+02  0.2153838E+00
Ar  612  0.2104574E+02  0.8044969E+01  0.1324921E+02  0.1766950E+01
Ar  613  0.2103739E+02  0.5413878E+01  0.1583864E+02  0.4491069E+00
Ar  614  0.2367683E+02  0.8053319E+01  0.1583864E+02  0.4490689E+00
Ar  615  0.2364582E+02  0.5444890E+01  0.1842126E+02  0.2455776E+00
Ar  616  0.2103630E+02  0.8054416E+01  0.1842436E+02  0.1258722E+01
Ar  617  0.2101482E+02  0.5452312E+01  0.2101482E+02  0.5541340E+00
Ar  618  0.2363840E+02  0.8075895E+01  0.2101482E+02  0.5540923E+00
Ar  619  0.2361697E+02  0.5473742E+01  0.2361697E+02  0.1688430E+00
Ar  620  0.2101482E+02  0.8075895E+01  0.2363840E+02  0.5540923E+00
Ar  621  0.2100424E+02  0.5470589E+01  0.2627226E+02  0.1224901E+00
Ar  622  0.2362012E+02  0.8086470E+01  0.2627226E+02  0.1224708E+00
Ar  623  0.2362209E+02  0.5468616E+01  0.2895659E+02  0.2002633E+00
Ar  624  0.2102876E+02  0.8061947E+01  0.2900382E+02  0.3481026E+00
Ar  625  0.2103471E+02  0.1066647E+02  0.6136101E-01  0.5165867E+00
Ar  626  0.2367463E+02  0.1325503E+02  0.5178818E-01  0.1158504E+01
Ar  627  0.2364042E+02  0.1066424E+02  0.2794150E+01  0.2043033E+00
Ar  628  0.2102366E+02  0.1324189E+02  0.2743331E+01  0.3637689E+00
Ar  629  0.2103163E+02  0.1066519E+02  0.5431531E+01  0.5798554E+00
Ar  630  0.2366387E+02  0.1325306E+02  0.5426842E+01  0.2153838E+00
Ar  631  0.2365918E+02  0.1066519E+02  0.8059083E+01  0.5798175E+00
Ar  632  0.2104574E+02  0.1324921E+02  0.8044969E+01  0.1766950E+01
Ar  633  0.2105113E+02  0.1065565E+02  0.1065565E+02  0.1050112E+01
Ar  634  0.2369517E+02  0.1324497E+02  0.1065043E+02  0.3859858E+00
Ar  635  0.2369517E+02  0.1065043E+02  0.1324497E+02  0.3859858E+00
Ar  636  0.2107359E+02  0.1324710E+02  0.1324710E+02  0.1526795E+01
Ar  637  0.2106098E+02  0.1064982E+02  0.1584134E+02  0.1378869E+01
Ar  638  0.2371873E+02  0.1324571E+02  0.1584500E+02  0.4284406E-01
Ar  639  0.2367567E+02  0.1065612E+02  0.1843459E+02  0.6354377E+00
Ar  640  0.2106098E+02  0.1324937E+02  0.1844089E+02  0.1378852E+01
Ar  641  0.2103630E+02  0.1066635E+02  0.2103630E+02  0.1258762E+01
Ar  642  0.2367683E+02  0.1325207E+02  0.2103739E+02  0.4490919E+00
Ar  643  0.2364582E+02  0.1066945E+02  0.2364582E+02  0.2456029E+00
Ar  644  0.2103739E+02  0.1325207E+02  0.2367683E+02  0.4490919E+00
Ar  645  0.2102215E+02  0.1065785E+02  0.2633307E+02  0.7300709E+00
Ar  646  0.2365067E+02  0.1324687E+02  0.2631377E+02  0.3013537E+00
Ar  647  0.2365386E+02  0.1067535E+02  0.2900934E+02  0.3955450E+00
Ar  648  0.2104642E+02  0.1325253E+02  0.2906073E+02  0.9542859E+00
Ar  649  0.2104642E+02  0.1583818E+02  0.2998163E-01  0.9542957E+00
Ar  650  0.2365386E+02  0.1841536E+02  0.8137307E-01  0.3955508E+00
Ar  651  0.2365067E+02  0.1584384E+02  0.2776945E+01  0.3013570E+00
Ar  652  0.2102215E+02  0.1843286E+02  0.2757640E+01  0.7300577E+00
Ar  653  0.2103739E+02  0.1583864E+02  0.5413878E+01  0.4491069E+00
Ar  654  0.2364582E+02  0.1842126E+02  0.5444890E+01  0.2455776E+00
Ar  655  0.2367683E+02  0.1583864E+02  0.8053319E+01  0.4490689E+00
Ar  656  0.2103630E+02  0.1842436E+02  0.8054416E+01  0.1258722E+01
Ar  657  0.2106098E+02  0.1584134E+02  0.1064982E+02  0.1378869E+01
Ar  658  0.2367567E+02  0.1843459E+02  0.1065612E+02  0.6354377E+00
Ar  659  0.2371873E+02  0.1584500E+02  0.1324571E+02  0.4284406E-01
Ar  660  0.2106098E+02  0.1844089E+02  0.1324937E+02  0.1378852E+01
Ar  661  0.2107359E+02  0.1584361E+02  0.1584361E+02  0.1526809E+01
Ar  662  0.2369517E+02  0.1844028E+02  0.1584574E+02  0.3859655E+00
Ar  663  0.2369517E+02  0.1584574E+02  0.1844028E+02  0.3859655E+00
Ar  664  0.2105113E+02  0.1843506E+02  0.1843506E+02  0.1050102E+01
Ar  665  0.2104574E+02  0.1584150E+02  0.2104574E+02  0.1766978E+01
Ar  666  0.2365918E+02  0.1842552E+02  0.2103163E+02  0.5798298E+00
Ar  667  0.2366387E+02  0.1583765E+02  0.2366387E+02  0.2153915E+00
Ar  668  0.2103163E+02  0.1842552E+02  0.2365918E+02  0.5798298E+00
Ar  669  0.2102366E+02  0.1584882E+02  0.2634738E+02  0.3637736E+00
Ar  670  0.2364042E+02  0.1842647E+02  0.2629656E+02  0.2043119E+00
Ar  671  0.2367463E+02  0.1583568E+02  0.2903892E+02  0.1158512E+01
Ar  672  0.2103471E+02  0.1842424E+02  0.2902935E+02  0.5166010E+00
Ar  673  0.2102876E+02  0.2102876E+02  0.8689453E-01  0.3481052E+00
Ar  674  0.2362209E+02  0.2362209E+02  0.1341207E+00  0.2002568E+00
Ar  675  0.2362012E+02  0.2100424E+02  0.2818447E+01  0.1224860E+00
Ar  676  0.2100424E+02  0.2362012E+02  0.2818447E+01  0.1224860E+00
Ar  677  0.2101482E+02  0.2101482E+02  0.5452312E+01  0.5541340E+00
Ar  678  0.2361697E+02  0.2361697E+02  0.5473742E+01  0.1688430E+00
Ar  679  0.2363840E+02  0.2101482E+02  0.8075895E+01  0.5540923E+00
Ar  680  0.2101482E+02  0.2363840E+02  0.8075895E+01  0.5540923E+00
Ar  681  0.2103630E+02  0.2103630E+02  0.1066635E+02  0.1258762E+01
Ar  682  0.2364582E+02  0.2364582E+02  0.1066945E+02  0.2456029E+00
Ar  683  0.2367683E+02  0.2103739E+02  0.1325207E+02  0.4490919E+00
Ar  684  0.2103739E+02  0.2367683E+02  0.1325207E+02  0.4490919E+00
Ar  685  0.2104574E+02  0.2104574E+02  0.1584150E+02  0.1766978E+01
Ar  686  0.2366387E+02  0.2366387E+02  0.1583765E+02  0.2153915E+00
Ar  687  0.2365918E+02  0.2103163E+02  0.1842552E+02  0.5798298E+00
Ar  688  0.2103163E+02  0.2365918E+02  0.1842552E+02  0.5798298E+00
Ar  689  0.2101968E+02  0.2101968E+02  0.2101968E+02  0.1385870E+01
Ar  690  0.2362648E+02  0.2362648E+02  0.2100611E+02  0.8660828E-01
Ar  691  0.2362648E+02  0.2100611E+02  0.2362648E+02  0.8660828E-01
Ar  692  0.2100611E+02  0.2362648E+02  0.2362648E+02  0.8660828E-01
Ar  693  0.2101399E+02  0.2101399E+02  0.2631153E+02  0.2723090E+00
Ar  694  0.2360649E+02  0.2360649E+02  0.2624365E+02  0.5136990E-01
Ar  695  0.2363633E+02  0.2102333E+02  0.2897925E+02  0.4417359E+00
Ar  696  0.2102333E+02  0.2363633E+02  0.2897925E+02  0.4417359E+00
Ar  697  0.2102483E+02  0.2625558E+02  0.1374222E+00  0.1048394E+01
Ar  698  0.2362661E+02  0.2892649E+02  0.1642224E+00  0.1460984E+01
Ar  699  0.2360269E+02  0.2623492E+02  0.2855785E+01  0.5091509E+00
Ar  700  0.2102483E+02  0.2895329E+02  0.2835130E+01  0.1048375E+01
Ar  701  0.2100424E+02  0.2627226E+02  0.5470589E+01  0.1224901E+00
Ar  702  0.2362209E+02  0.2895659E+02  0.5468616E+01  0.2002633E+00
Ar  703  0.2362012E+02  0.2627226E+02  0.8086470E+01  0.1224708E+00
Ar  704  0.2102876E+02  0.2900382E+02  0.8061947E+01  0.3481026E+00
Ar  705  0.2102215E+02  0.2633307E+02  0.1065785E+02  0.7300709E+00
Ar  706  0.2365386E+02  0.2900934E+02  0.1067535E+02  0.3955450E+00
Ar  707  0.2365067E+02  0.2631377E+02  0.1324687E+02  0.3013537E+00
Ar  708  0.2104642E+02  0.2906073E+02  0.1325253E+02  0.9542859E+00
Ar  709  0.2102366E+02  0.2634738E+02  0.1584882E+02  0.3637736E+00
Ar  710  0.2367463E+02  0.2903892E+02  0.1583568E+02  0.1158512E+01
Ar  711  0.2364042E+02  0.2629656E+02  0.1842647E+02  0.2043119E+00
Ar  712  0.2103471E+02  0.2902935E+02  0.1842424E+02  0.5166010E+00
Ar  713  0.2101399E+02  0.2631153E+02  0.2101399E+02  0.2723090E+00
Ar  714  0.2363633E+02  0.2897925E+02  0.2102333E+02  0.4417359E+00
Ar  715  0.2360649E+02  0.2624365E+02  0.2360649E+02  0.5136990E-01
Ar  716  0.2102333E+02  0.2897925E+02  0.2363633E+02  0.4417359E+00
Ar  717  0.2099668E+02  0.2627111E+02  0.2627111E+02  0.9252488E+00
Ar  718  0.2361404E+02  0.2892618E+02  0.2625047E+02  0.9522137E+00
Ar  719  0.2361404E+02  0.2625047E+02  0.2892618E+02  0.9522137E+00
Ar  720  0.2104528E+02  0.2895256E+02  0.2895256E+02  0.7198372E+00
Ar  721  0.2621716E+02  0.2127850E+00  0.2127850E+00  0.2023795E+01
Ar  722  0.2887793E+02  0.2873553E+01  0.2127848E+00  0.2023801E+01
Ar  723  0.2887793E+02  0.2127848E+00  0.2873553E+01  0.2023801E+01
Ar  724  0.2620727E+02  0.2883442E+01  0.2883442E+01  0.3123677E+00
Ar  725  0.2625047E+02  0.1645324E+00  0.5476667E+01  0.9522276E+00
Ar  726  0.2892618E+02  0.2840241E+01  0.5476667E+01  0.9522098E+00
Ar  727  0.2895256E+02  0.1381514E+00  0.8045428E+01  0.7198344E+00
Ar  728  0.2627111E+02  0.2819603E+01  0.8094026E+01  0.9252369E+00
Ar  729  0.2628527E+02  0.1139513E+00  0.1065681E+02  0.1191455E+01
Ar  730  0.2897676E+02  0.2805440E+01  0.1065681E+02  0.1191442E+01
Ar  731  0.2898841E+02  0.1023051E+00  0.1325245E+02  0.1110764E+01
Ar  732  0.2629586E+02  0.2794855E+01  0.1324393E+02  0.7617570E-01
Ar  733  0.2632434E+02  0.8385266E-01  0.1584038E+02  0.1390457E+01
Ar  734  0.2900686E+02  0.2766372E+01  0.1584038E+02  0.1390443E+01
Ar  735  0.2897176E+02  0.1189483E+00  0.1844307E+02  0.3890949E+00
Ar  736  0.2628487E+02  0.2805841E+01  0.1843265E+02  0.1699557E+01
Ar  737  0.2625558E+02  0.1374222E+00  0.2102483E+02  0.1048394E+01
Ar  738  0.2895329E+02  0.2835130E+01  0.2102483E+02  0.1048375E+01
Ar  739  0.2892649E+02  0.1642224E+00  0.2362661E+02  0.1460984E+01
Ar  740  0.2623492E+02  0.2855785E+01  0.2360269E+02  0.5091509E+00
Ar  741  0.2621549E+02  0.1918615E+00  0.2621549E+02  0.2284272E+01
Ar  742  0.2889885E+02  0.2875224E+01  0.2621549E+02  0.2284252E+01
Ar  743  0.2883934E+02  0.2513655E+00  0.2883934E+02  0.8792908E+00
Ar  744  0.2621549E+02  0.2875224E+01  0.2889885E+02  0.2284252E+01
Ar  745  0.2625047E+02  0.5476667E+01  0.1645324E+00  0.9522276E+00
Ar  746  0.2895256E+02  0.8045428E+01  0.1381514E+00  0.7198344E+00
Ar  747  0.2892618E+02  0.5476667E+01  0.2840241E+01  0.9522098E+00
Ar  748  0.2627111E+02  0.8094026E+01  0.2819603E+01  0.9252369E+00
Ar  749  0.2624365E+02  0.5484216E+01  0.5484216E+01  0.5135420E-01
Ar  750  0.2897925E+02  0.8067379E+01  0.5454378E+01  0.4417402E+00
Ar  751  0.2897925E+02  0.5454378E+01  0.8067379E+01  0.4417402E+00
Ar  752  0.2631153E+02  0.8076719E+01  0.8076719E+01  0.2722843E+00
Ar  753  0.2629656E+02  0.5450287E+01  0.1066424E+02  0.2043205E+00
Ar  754  0.2902935E+02  0.8055996E+01  0.1066647E+02  0.5165875E+00
Ar  755  0.2903892E+02  0.5416076E+01  0.1325503E+02  0.1158505E+01
Ar  756  0.2634738E+02  0.8067053E+01  0.1324189E+02  0.3637532E+00
Ar  757  0.2631377E+02  0.5440036E+01  0.1584384E+02  0.3013635E+00
Ar  758  0.2906073E+02  0.8044287E+01  0.1583818E+02  0.9542978E+00
Ar  759  0.2900934E+02  0.5436849E+01  0.1841536E+02  0.3955546E+00
Ar  760  0.2633307E+02  0.8068559E+01  0.1843286E+02  0.7300493E+00
Ar  761  0.2627226E+02  0.5470589E+01  0.2100424E+02  0.1224901E+00
Ar  762  0.2900382E+02  0.8061947E+01  0.2102876E+02  0.3481026E+00
Ar  763  0.2895659E+02  0.5468616E+01  0.2362209E+02  0.2002633E+00
Ar  764  0.2627226E+02  0.8086470E+01  0.2362012E+02  0.1224708E+00
Ar  765  0.2623493E+02  0.5488017E+01  0.2623493E+02  0.5091853E+00
Ar  766  0.2895329E+02  0.8065877E+01  0.2625558E+02  0.1048401E+01
Ar  767  0.2892649E+02  0.5464100E+01  0.2892649E+02  0.1460965E+01
Ar  768  0.2625558E+02  0.8065877E+01  0.2895329E+02  0.1048401E+01
Ar  769  0.2628527E+02  0.1065681E+02  0.1139513E+00  0.1191455E+01
Ar  770  0.2898841E+02  0.1325245E+02  0.1023051E+00  0.1110764E+01
Ar  771  0.2897676E+02  0.1065681E+02  0.2805440E+01  0.1191442E+01
Ar  772  0.2629586E+02  0.1324393E+02  0.2794855E+01  0.7617570E-01
Ar  773  0.2629656E+02  0.1066424E+02  0.5450287E+01  0.2043205E+00
Ar  774  0.2903892E+02  0.1325503E+02  0.5416076E+01  0.1158505E+01
Ar  775  0.2902935E+02  0.1066647E+02  0.8055996E+01  0.5165875E+00
Ar  776  0.2634738E+02  0.1324189E+02  0.8067053E+01  0.3637532E+00
Ar  777  0.2634776E+02  0.1064435E+02  0.1064435E+02  0.8869622E+00
Ar  778  0.2909206E+02  0.1325118E+02  0.1065289E+02  0.1092038E+01
Ar  779  0.2909206E+02  0.1065289E+02  0.1325118E+02  0.1092038E+01
Ar  780  0.2638094E+02  0.1323302E+02  0.1323302E+02  0.9443626E-01
Ar  781  0.2636461E+02  0.1064616E+02  0.1585333E+02  0.1453953E+00
Ar  782  0.2912581E+02  0.1324974E+02  0.1584097E+02  0.1130273E+01
Ar  783  0.2905946E+02  0.1065924E+02  0.1843147E+02  0.8174983E+00
Ar  784  0.2636461E+02  0.1323738E+02  0.1844455E+02  0.1453969E+00
Ar  785  0.2633307E+02  0.1065785E+02  0.2102215E+02  0.7300709E+00
Ar  786  0.2906073E+02  0.1325253E+02  0.2104642E+02  0.9542859E+00
Ar  787  0.2900934E+02  0.1067535E+02  0.2365386E+02  0.3955450E+00
Ar  788  0.2631377E+02  0.1324687E+02  0.2365067E+02  0.3013537E+00
Ar  789  0.2628487E+02  0.1065806E+02  0.2628487E+02  0.1699521E+01
Ar  790  0.2900686E+02  0.1325033E+02  0.2632434E+02  0.1390435E+01
Ar  791  0.2897176E+02  0.1064764E+02  0.2897176E+02  0.3890913E+00
Ar  792  0.2632434E+02  0.1325033E+02  0.2900686E+02  0.1390435E+01
Ar  793  0.2632434E+02  0.1584038E+02  0.8385266E-01  0.1390457E+01
Ar  794  0.2897176E+02  0.1844307E+02  0.1189483E+00  0.3890949E+00
Ar  795  0.2900686E+02  0.1584038E+02  0.2766372E+01  0.1390443E+01
Ar  796  0.2628487E+02  0.1843265E+02  0.2805841E+01  0.1699557E+01
Ar  797  0.2631377E+02  0.1584384E+02  0.5440036E+01  0.3013635E+00
Ar  798  0.2900934E+02  0.1841536E+02  0.5436849E+01  0.3955546E+00
Ar  799  0.2906073E+02  0.1583818E+02  0.8044287E+01  0.9542978E+00
Ar  800  0.2633307E+02  0.1843286E+02  0.8068559E+01  0.7300493E+00
Ar  801  0.2636461E+02  0.1585333E+02  0.1064616E+02  0.1453953E+00
Ar  802  0.2905946E+02  0.1843147E+02  0.1065924E+02  0.8174983E+00
Ar  803  0.2912581E+02  0.1584097E+02  0.1324974E+02  0.1130273E+01
Ar  804  0.2636461E+02  0.1844455E+02  0.1323738E+02  0.1453969E+00
Ar  805  0.2638094E+02  0.1585769E+02  0.1585769E+02  0.9444113E-01
Ar  806  0.2909206E+02  0.1843782E+02  0.1583954E+02  0.1092054E+01
Ar  807  0.2909206E+02  0.1583954E+02  0.1843782E+02  0.1092054E+01
Ar  808  0.2634776E+02  0.1844636E+02  0.1844636E+02  0.8869821E+00
Ar  809  0.2634738E+02  0.1584882E+02  0.2102366E+02  0.3637736E+00
Ar  810  0.2902935E+02  0.1842424E+02  0.2103471E+02  0.5166010E+00
Ar  811  0.2903892E+02  0.1583568E+02  0.2367463E+02  0.1158512E+01
Ar  812  0.2629656E+02  0.1842647E+02  0.2364042E+02  0.2043119E+00
Ar  813  0.2629586E+02  0.1584678E+02  0.2629586E+02  0.7616862E-01
Ar  814  0.2897676E+02  0.1843390E+02  0.2628527E+02  0.1191466E+01
Ar  815  0.2898841E+02  0.1583826E+02  0.2898841E+02  0.1110784E+01
Ar  816  0.2628527E+02  0.1843390E+02  0.2897676E+02  0.1191466E+01
Ar  817  0.2625558E+02  0.2102483E+02  0.1374222E+00  0.1048394E+01
Ar  818  0.2892649E+02  0.2362661E+02  0.1642224E+00  0.1460984E+01
Ar  819  0.2895329E+02  0.2102483E+02  0.2835130E+01  0.1048375E+01
Ar  820  0.2623492E+02  0.2360269E+02  0.2855785E+01  0.5091509E+00
Ar  821  0.2627226E+02  0.2100424E+02  0.5470589E+01  0.1224901E+00
Ar  822  0.2895659E+02  0.2362209E+02  0.5468616E+01  0.2002633E+00
Ar  823  0.2900382E+02  0.2102876E+02  0.8061947E+01  0.3481026E+00
Ar  824  0.2627226E+02  0.2362012E+02  0.8086470E+01  0.1224708E+00
Ar  825  0.2633307E+02  0.2102215E+02  0.1065785E+02  0.7300709E+00
Ar  826  0.2900934E+02  0.2365386E+02  0.1067535E+02  0.3955450E+00
Ar  827  0.2906073E+02  0.2104642E+02  0.1325253E+02  0.9542859E+00
Ar  828  0.2631377E+02  0.2365067E+02  0.1324687E+02  0.3013537E+00
Ar  829  0.2634738E+02  0.2102366E+02  0.1584882E+02  0.3637736E+00
Ar  830  0.2903892E+02  0.2367463E+02  0.1583568E+02  0.1158512E+01
Ar  831  0.2902935E+02  0.2103471E+02  0.1842424E+02  0.5166010E+00
Ar  832  0.2629656E+02  0.2364042E+02  0.1842647E+02  0.2043119E+00
Ar  833  0.2631153E+02  0.2101399E+02  0.2101399E+02  0.2723090E+00
Ar  834  0.2897925E+02  0.2363633E+02  0.2102333E+02  0.4417359E+00
Ar  835  0.2897925E+02  0.2102333E+02  0.2363633E+02  0.4417359E+00
Ar  836  0.2624365E+02  0.2360649E+02  0.2360649E+02  0.5136990E-01
Ar  837  0.2627111E+02  0.2099668E+02  0.2627111E+02  0.9252488E+00
Ar  838  0.2892618E+02  0.2361404E+02  0.2625047E+02  0.9522137E+00
Ar  839  0.2895256E+02  0.2104528E+02  0.2895256E+02  0.7198372E+00
Ar  840  0.2625047E+02  0.2361404E+02  0.2892618E+02  0.9522137E+00
Ar  841  0.2621549E+02  0.2621549E+02  0.1918615E+00  0.2284272E+01
Ar  842  0.2883934E+02  0.2883934E+02  0.2513655E+00  0.8792908E+00
Ar  843  0.2889885E+02  0.2621549E+02  0.2875224E+01  0.2284252E+01
Ar  844  0.2621549E+02  0.2889885E+02  0.2875224E+01  0.2284252E+01
Ar  845  0.2623493E+02  0.2623493E+02  0.5488017E+01  0.5091853E+00
Ar  846  0.2892649E+02  0.2892649E+02  0.5464100E+01  0.1460965E+01
Ar  847  0.2895329E+02  0.2625558E+02  0.8065877E+01  0.1048401E+01
Ar  848  0.2625558E+02  0.2895329E+02  0.8065877E+01  0.1048401E+01
Ar  849  0.2628487E+02  0.2628487E+02  0.1065806E+02  0.1699521E+01
Ar  850  0.2897176E+02  0.2897176E+02  0.1064764E+02  0.3890913E+00
Ar  851  0.2900686E+02  0.2632434E+02  0.1325033E+02  0.1390435E+01
Ar  852  0.2632434E+02  0.2900686E+02  0.1325033E+02  0.1390435E+01
Ar  853  0.2629586E+02  0.2629586E+02  0.1584678E+02  0.7616862E-01
Ar  854  0.2898841E+02  0.2898841E+02  0.1583826E+02  0.1110784E+01
Ar  855  0.2897676E+02  0.2628527E+02  0.1843390E+02  0.1191466E+01
Ar  856  0.2628527E+02  0.2897676E+02  0.1843390E+02  0.1191466E+01
Ar  857  0.2627111E+02  0.2627111E+02  0.2099668E+02  0.9252488E+00
Ar  858  0.2895256E+02  0.2895256E+02  0.2104528E+02  0.7198372E+00
Ar  859  0.2892618E+02  0.2625047E+02  0.2361404E+02  0.9522137E+00
Ar  860  0.2625047E+02  0.2892618E+02  0.2361404E+02  0.9522137E+00
Ar  861  0.2620727E+02  0.2620727E+02  0.2620727E+02  0.3123816E+00
Ar  862  0.2887793E+02  0.2887793E+02  0.2621716E+02  0.2023776E+01
Ar  863  0.2887793E+02  0.2621716E+02  0.2887793E+02  0.2023776E+01
Ar  864  0.2621716E+02  0.2887793E+02  0.2887793E+02  0.2023776E+01
