         864
Lattice="  0.1000000E+03  0.0000000E+00  0.0000000E+00  0.0000000E+00  0.1000000E+03  0.0000000E+00  0.0000000E+00  0.0000000E+00  0.1000000E+03" Properties=species:S:1:id:I:1:pos:R:3:tempK:R:1
Ar    1  0.2779806E+00  0.2779806E+00  0.2779806E+00  0.2306909E+00
Ar    2  0.2918586E+01  0.2918586E+01  0.2304048E+00  0.5348274E+00
Ar    3  0.2918586E+01  0.2304048E+00  0.2918586E+01  0.5348274E+00
Ar    4  0.2304048E+00  0.2918586E+01  0.2918586E+01  0.5348274E+00
Ar    5  0.1801059E+00  0.1801059E+00  0.5454805E+01  0.2820835E+00
Ar    6  0.2875756E+01  0.2875756E+01  0.5499555E+01  0.6756765E-01
Ar    7  0.2843441E+01  0.1481404E+00  0.8056213E+01  0.3382448E+00
Ar    8  0.1481404E+00  0.2843441E+01  0.8056213E+01  0.3382448E+00
Ar    9  0.1139994E+00  0.1139994E+00  0.1059464E+02  0.2029292E+00
Ar   10  0.2814153E+01  0.2814153E+01  0.1067519E+02  0.8303336E-01
Ar   11  0.2809764E+01  0.1116281E+00  0.1323511E+02  0.3766744E+00
Ar   12  0.1116281E+00  0.2809764E+01  0.1323511E+02  0.3766744E+00
Ar   13  0.1105906E+00  0.1105906E+00  0.1586969E+02  0.2008630E+00
Ar   14  0.2783283E+01  0.2783283E+01  0.1585247E+02  0.1655599E+00
Ar   15  0.2807472E+01  0.1178692E+00  0.1845465E+02  0.8194349E+00
Ar   16  0.1178692E+00  0.2807472E+01  0.1845465E+02  0.8194349E+00
Ar   17  0.1388849E+00  0.1388849E+00  0.2107804E+02  0.4830920E-01
Ar   18  0.2863439E+01  0.2863439E+01  0.2099859E+02  0.4325705E+00
Ar   19  0.2900262E+01  0.1862098E+00  0.2359246E+02  0.1198290E+00
Ar   20  0.1862098E+00  0.2900262E+01  0.2359246E+02  0.1198290E+00
Ar   21  0.2321032E+00  0.2321032E+00  0.2619590E+02  0.7436794E-01
Ar   22  0.2890901E+01  0.2890901E+01  0.2619981E+02  0.3705165E-01
Ar   23  0.2894809E+01  0.2321032E+00  0.2885861E+02  0.7437044E-01
Ar   24  0.2321032E+00  0.2894809E+01  0.2885861E+02  0.7437044E-01
Ar   25  0.1801059E+00  0.5454805E+01  0.1801059E+00  0.2820835E+00
Ar   26  0.2843441E+01  0.8056213E+01  0.1481404E+00  0.3382448E+00
Ar   27  0.2875756E+01  0.5499555E+01  0.2875756E+01  0.6756765E-01
Ar   28  0.1481404E+00  0.8056213E+01  0.2843441E+01  0.3382448E+00
Ar   29  0.1685899E+00  0.5519309E+01  0.5519309E+01  0.1468028E+00
Ar   30  0.2824462E+01  0.8100676E+01  0.5481402E+01  0.1037986E+00
Ar   31  0.2824462E+01  0.5481402E+01  0.8100676E+01  0.1037986E+00
Ar   32  0.9251597E-01  0.8087638E+01  0.8087638E+01  0.1195158E+01
Ar   33  0.1032297E+00  0.5435041E+01  0.1065174E+02  0.3085423E+00
Ar   34  0.2768714E+01  0.8076117E+01  0.1068952E+02  0.1039374E+00
Ar   35  0.2769632E+01  0.5427025E+01  0.1326407E+02  0.6711954E-01
Ar   36  0.4119338E-01  0.8034469E+01  0.1324506E+02  0.2483150E+00
Ar   37  0.9292137E-01  0.5419719E+01  0.1584115E+02  0.2177140E+00
Ar   38  0.2755622E+01  0.8055307E+01  0.1581937E+02  0.2131897E+00
Ar   39  0.2804096E+01  0.5457680E+01  0.1840120E+02  0.6457297E-01
Ar   40  0.5673055E-01  0.8058985E+01  0.1842200E+02  0.3321719E+00
Ar   41  0.1374718E+00  0.5474873E+01  0.2099587E+02  0.2782200E-03
Ar   42  0.2803497E+01  0.8089505E+01  0.2100121E+02  0.8860395E-02
Ar   43  0.2846806E+01  0.5496272E+01  0.2359444E+02  0.2456485E+00
Ar   44  0.1374717E+00  0.8094839E+01  0.2361584E+02  0.2783629E-03
Ar   45  0.1862095E+00  0.5498248E+01  0.2619045E+02  0.1198252E+00
Ar   46  0.2863439E+01  0.8092124E+01  0.2622727E+02  0.4325587E+00
Ar   47  0.2900262E+01  0.5498248E+01  0.2890450E+02  0.1198249E+00
Ar   48  0.1388849E+00  0.8012673E+01  0.2895183E+02  0.4831077E-01
Ar   49  0.1139994E+00  0.1059464E+02  0.1139994E+00  0.2029292E+00
Ar   50  0.2809764E+01  0.1323511E+02  0.1116281E+00  0.3766744E+00
Ar   51  0.2814153E+01  0.1067519E+02  0.2814153E+01  0.8303336E-01
Ar   52  0.1116281E+00  0.1323511E+02  0.2809764E+01  0.3766744E+00
Ar   53  0.1032297E+00  0.1065174E+02  0.5435041E+01  0.3085423E+00
Ar   54  0.2769632E+01  0.1326407E+02  0.5427025E+01  0.6711954E-01
Ar   55  0.2768714E+01  0.1068952E+02  0.8076117E+01  0.1039374E+00
Ar   56  0.4119338E-01  0.1324506E+02  0.8034469E+01  0.2483150E+00
Ar   57  0.1607481E-01  0.1065974E+02  0.1065974E+02  0.1314871E+00
Ar   58  0.2713457E+01  0.1326355E+02  0.1068051E+02  0.2739189E+00
Ar   59  0.2713457E+01  0.1068051E+02  0.1326355E+02  0.2739189E+00
Ar   60 -0.2263243E-02  0.1325596E+02  0.1325596E+02  0.9391412E+00
Ar   61  0.1438075E-01  0.1065043E+02  0.1583203E+02  0.2262028E+00
Ar   62  0.2692896E+01  0.1326768E+02  0.1582303E+02  0.4059577E+00
Ar   63  0.2723693E+01  0.1068566E+02  0.1840505E+02  0.5658480E-01
Ar   64  0.1438072E-01  0.1325868E+02  0.1844028E+02  0.2261985E+00
Ar   65  0.5673056E-01  0.1066871E+02  0.2103173E+02  0.3321882E+00
Ar   66  0.2755622E+01  0.1327134E+02  0.2103540E+02  0.2131904E+00
Ar   67  0.2804096E+01  0.1068951E+02  0.2363303E+02  0.6457793E-01
Ar   68  0.9292138E-01  0.1324956E+02  0.2367099E+02  0.2177180E+00
Ar   69  0.1178696E+00  0.1063606E+02  0.2628324E+02  0.8194511E+00
Ar   70  0.2783283E+01  0.1323824E+02  0.2630743E+02  0.1655520E+00
Ar   71  0.2807472E+01  0.1063606E+02  0.2897284E+02  0.8194499E+00
Ar   72  0.1105904E+00  0.1322102E+02  0.2898012E+02  0.2008648E+00
Ar   73  0.1105906E+00  0.1586969E+02  0.1105906E+00  0.2008630E+00
Ar   74  0.2807472E+01  0.1845465E+02  0.1178692E+00  0.8194349E+00
Ar   75  0.2783283E+01  0.1585247E+02  0.2783283E+01  0.1655599E+00
Ar   76  0.1178692E+00  0.1845465E+02  0.2807472E+01  0.8194349E+00
Ar   77  0.9292137E-01  0.1584115E+02  0.5419719E+01  0.2177140E+00
Ar   78  0.2804096E+01  0.1840120E+02  0.5457680E+01  0.6457297E-01
Ar   79  0.2755622E+01  0.1581937E+02  0.8055307E+01  0.2131897E+00
Ar   80  0.5673055E-01  0.1842200E+02  0.8058985E+01  0.3321719E+00
Ar   81  0.1438075E-01  0.1583203E+02  0.1065043E+02  0.2262028E+00
Ar   82  0.2723693E+01  0.1840505E+02  0.1068566E+02  0.5658480E-01
Ar   83  0.2692896E+01  0.1582303E+02  0.1326768E+02  0.4059577E+00
Ar   84  0.1438072E-01  0.1844028E+02  0.1325868E+02  0.2261985E+00
Ar   85 -0.2263216E-02  0.1583475E+02  0.1583475E+02  0.9391383E+00
Ar   86  0.2713457E+01  0.1841020E+02  0.1582716E+02  0.2739090E+00
Ar   87  0.2713457E+01  0.1582716E+02  0.1841020E+02  0.2739090E+00
Ar   88  0.1607430E-01  0.1843097E+02  0.1843097E+02  0.1314752E+00
Ar   89  0.4119326E-01  0.1584565E+02  0.2105624E+02  0.2483157E+00
Ar   90  0.2768714E+01  0.1840119E+02  0.2101459E+02  0.1039358E+00
Ar   91  0.2769632E+01  0.1582664E+02  0.2366368E+02  0.6712533E-01
Ar   92  0.1032295E+00  0.1843897E+02  0.2365567E+02  0.3085368E+00
Ar   93  0.1116283E+00  0.1585560E+02  0.2628095E+02  0.3766753E+00
Ar   94  0.2814153E+01  0.1841552E+02  0.2627656E+02  0.8303357E-01
Ar   95  0.2809764E+01  0.1585560E+02  0.2897908E+02  0.3766774E+00
Ar   96  0.1139995E+00  0.1849607E+02  0.2897671E+02  0.2029291E+00
Ar   97  0.1388849E+00  0.2107804E+02  0.1388849E+00  0.4830920E-01
Ar   98  0.2900262E+01  0.2359246E+02  0.1862098E+00  0.1198290E+00
Ar   99  0.2863439E+01  0.2099859E+02  0.2863439E+01  0.4325705E+00
Ar  100  0.1862098E+00  0.2359246E+02  0.2900262E+01  0.1198290E+00
Ar  101  0.1374718E+00  0.2099587E+02  0.5474873E+01  0.2782200E-03
Ar  102  0.2846806E+01  0.2359444E+02  0.5496272E+01  0.2456485E+00
Ar  103  0.2803497E+01  0.2100121E+02  0.8089505E+01  0.8860395E-02
Ar  104  0.1374717E+00  0.2361584E+02  0.8094839E+01  0.2783629E-03
Ar  105  0.5673056E-01  0.2103173E+02  0.1066871E+02  0.3321882E+00
Ar  106  0.2804096E+01  0.2363303E+02  0.1068951E+02  0.6457793E-01
Ar  107  0.2755622E+01  0.2103540E+02  0.1327134E+02  0.2131904E+00
Ar  108  0.9292138E-01  0.2367099E+02  0.1324956E+02  0.2177180E+00
Ar  109  0.4119326E-01  0.2105624E+02  0.1584565E+02  0.2483157E+00
Ar  110  0.2769632E+01  0.2366368E+02  0.1582664E+02  0.6712533E-01
Ar  111  0.2768714E+01  0.2101459E+02  0.1840119E+02  0.1039358E+00
Ar  112  0.1032295E+00  0.2365567E+02  0.1843897E+02  0.3085368E+00
Ar  113  0.9251583E-01  0.2100307E+02  0.2100307E+02  0.1195181E+01
Ar  114  0.2824463E+01  0.2360931E+02  0.2099003E+02  0.1037990E+00
Ar  115  0.2824463E+01  0.2099003E+02  0.2360931E+02  0.1037990E+00
Ar  116  0.1685897E+00  0.2357140E+02  0.2357140E+02  0.1468079E+00
Ar  117  0.1481406E+00  0.2103450E+02  0.2624727E+02  0.3382529E+00
Ar  118  0.2875757E+01  0.2359116E+02  0.2621495E+02  0.6757054E-01
Ar  119  0.2843441E+01  0.2103450E+02  0.2894257E+02  0.3382591E+00
Ar  120  0.1801059E+00  0.2363591E+02  0.2891060E+02  0.2820832E+00
Ar  121  0.2321032E+00  0.2619590E+02  0.2321032E+00  0.7436794E-01
Ar  122  0.2894809E+01  0.2885861E+02  0.2321032E+00  0.7437044E-01
Ar  123  0.2890901E+01  0.2619981E+02  0.2890901E+01  0.3705165E-01
Ar  124  0.2321032E+00  0.2885861E+02  0.2894809E+01  0.7437044E-01
Ar  125  0.1862095E+00  0.2619045E+02  0.5498248E+01  0.1198252E+00
Ar  126  0.2900262E+01  0.2890450E+02  0.5498248E+01  0.1198249E+00
Ar  127  0.2863439E+01  0.2622727E+02  0.8092124E+01  0.4325587E+00
Ar  128  0.1388849E+00  0.2895183E+02  0.8012673E+01  0.4831077E-01
Ar  129  0.1178696E+00  0.2628324E+02  0.1063606E+02  0.8194511E+00
Ar  130  0.2807472E+01  0.2897284E+02  0.1063606E+02  0.8194499E+00
Ar  131  0.2783283E+01  0.2630743E+02  0.1323824E+02  0.1655520E+00
Ar  132  0.1105904E+00  0.2898012E+02  0.1322102E+02  0.2008648E+00
Ar  133  0.1116283E+00  0.2628095E+02  0.1585560E+02  0.3766753E+00
Ar  134  0.2809764E+01  0.2897908E+02  0.1585560E+02  0.3766774E+00
Ar  135  0.2814153E+01  0.2627656E+02  0.1841552E+02  0.8303357E-01
Ar  136  0.1139995E+00  0.2897671E+02  0.1849607E+02  0.2029291E+00
Ar  137  0.1481406E+00  0.2624727E+02  0.2103450E+02  0.3382529E+00
Ar  138  0.2843441E+01  0.2894257E+02  0.2103450E+02  0.3382591E+00
Ar  139  0.2875757E+01  0.2621495E+02  0.2359116E+02  0.6757054E-01
Ar  140  0.1801059E+00  0.2891060E+02  0.2363591E+02  0.2820832E+00
Ar  141  0.2304047E+00  0.2617212E+02  0.2617212E+02  0.5348525E+00
Ar  142  0.2918586E+01  0.2886031E+02  0.2617212E+02  0.5348376E+00
Ar  143  0.2918586E+01  0.2617212E+02  0.2886031E+02  0.5348376E+00
Ar  144  0.2779802E+00  0.2881273E+02  0.2881273E+02  0.2307173E+00
Ar  145  0.5454805E+01  0.1801059E+00  0.1801059E+00  0.2820835E+00
Ar  146  0.8056213E+01  0.2843441E+01  0.1481404E+00  0.3382448E+00
Ar  147  0.8056213E+01  0.1481404E+00  0.2843441E+01  0.3382448E+00
Ar  148  0.5499555E+01  0.2875756E+01  0.2875756E+01  0.6756765E-01
Ar  149  0.5519309E+01  0.1685899E+00  0.5519309E+01  0.1468028E+00
Ar  150  0.8100676E+01  0.2824462E+01  0.5481402E+01  0.1037986E+00
Ar  151  0.8087638E+01  0.9251597E-01  0.8087638E+01  0.1195158E+01
Ar  152  0.5481402E+01  0.2824462E+01  0.8100676E+01  0.1037986E+00
Ar  153  0.5435041E+01  0.1032297E+00  0.1065174E+02  0.3085423E+00
Ar  154  0.8076117E+01  0.2768714E+01  0.1068952E+02  0.1039374E+00
Ar  155  0.8034469E+01  0.4119338E-01  0.1324506E+02  0.2483150E+00
Ar  156  0.5427025E+01  0.2769632E+01  0.1326407E+02  0.6711954E-01
Ar  157  0.5419719E+01  0.9292137E-01  0.1584115E+02  0.2177140E+00
Ar  158  0.8055307E+01  0.2755622E+01  0.1581937E+02  0.2131897E+00
Ar  159  0.8058985E+01  0.5673055E-01  0.1842200E+02  0.3321719E+00
Ar  160  0.5457680E+01  0.2804096E+01  0.1840120E+02  0.6457297E-01
Ar  161  0.5474873E+01  0.1374718E+00  0.2099587E+02  0.2782200E-03
Ar  162  0.8089505E+01  0.2803497E+01  0.2100121E+02  0.8860395E-02
Ar  163  0.8094839E+01  0.1374717E+00  0.2361584E+02  0.2783629E-03
Ar  164  0.5496272E+01  0.2846806E+01  0.2359444E+02  0.2456485E+00
Ar  165  0.5498248E+01  0.1862095E+00  0.2619045E+02  0.1198252E+00
Ar  166  0.8092124E+01  0.2863439E+01  0.2622727E+02  0.4325587E+00
Ar  167  0.8012673E+01  0.1388849E+00  0.2895183E+02  0.4831077E-01
Ar  168  0.5498248E+01  0.2900262E+01  0.2890450E+02  0.1198249E+00
Ar  169  0.5519309E+01  0.5519309E+01  0.1685899E+00  0.1468028E+00
Ar  170  0.8087638E+01  0.8087638E+01  0.9251597E-01  0.1195158E+01
Ar  171  0.8100676E+01  0.5481402E+01  0.2824462E+01  0.1037986E+00
Ar  172  0.5481402E+01  0.8100676E+01  0.2824462E+01  0.1037986E+00
Ar  173  0.5496826E+01  0.5496826E+01  0.5496826E+01  0.2322586E-02
Ar  174  0.8091010E+01  0.8091010E+01  0.5447049E+01  0.6232351E+00
Ar  175  0.8091010E+01  0.5447049E+01  0.8091010E+01  0.6232351E+00
Ar  176  0.5447049E+01  0.8091010E+01  0.8091010E+01  0.6232351E+00
Ar  177  0.5433885E+01  0.5433885E+01  0.1069207E+02  0.3546466E+00
Ar  178  0.8058310E+01  0.8058310E+01  0.1066687E+02  0.1761443E+00
Ar  179  0.8048145E+01  0.5409758E+01  0.1325923E+02  0.1242342E+00
Ar  180  0.5409758E+01  0.8048145E+01  0.1325923E+02  0.1242342E+00
Ar  181  0.5426593E+01  0.5426593E+01  0.1583156E+02  0.3186378E-01
Ar  182  0.8052973E+01  0.8052973E+01  0.1584267E+02  0.8454435E+00
Ar  183  0.8076989E+01  0.5426370E+01  0.1841769E+02  0.9854217E-01
Ar  184  0.5426370E+01  0.8076989E+01  0.1841769E+02  0.9854217E-01
Ar  185  0.5471357E+01  0.5471357E+01  0.2101008E+02  0.1927781E+00
Ar  186  0.8072289E+01  0.8072289E+01  0.2101842E+02  0.1113476E-01
Ar  187  0.8080628E+01  0.5471357E+01  0.2361935E+02  0.1927720E+00
Ar  188  0.5471357E+01  0.8080628E+01  0.2361935E+02  0.1927720E+00
Ar  189  0.5496271E+01  0.5496271E+01  0.2624390E+02  0.2456465E+00
Ar  190  0.8089505E+01  0.8089505E+01  0.2628721E+02  0.8858439E-02
Ar  191  0.8094838E+01  0.5474873E+01  0.2895324E+02  0.2782979E-03
Ar  192  0.5474873E+01  0.8094838E+01  0.2895324E+02  0.2782979E-03
Ar  193  0.5435041E+01  0.1065174E+02  0.1032297E+00  0.3085423E+00
Ar  194  0.8034469E+01  0.1324506E+02  0.4119338E-01  0.2483150E+00
Ar  195  0.8076117E+01  0.1068952E+02  0.2768714E+01  0.1039374E+00
Ar  196  0.5427025E+01  0.1326407E+02  0.2769632E+01  0.6711954E-01
Ar  197  0.5433885E+01  0.1069207E+02  0.5433885E+01  0.3546466E+00
Ar  198  0.8048145E+01  0.1325923E+02  0.5409758E+01  0.1242342E+00
Ar  199  0.8058310E+01  0.1066687E+02  0.8058310E+01  0.1761443E+00
Ar  200  0.5409758E+01  0.1325923E+02  0.8048145E+01  0.1242342E+00
Ar  201  0.5368321E+01  0.1068520E+02  0.1068520E+02  0.7528559E+00
Ar  202  0.8036227E+01  0.1324374E+02  0.1064728E+02  0.4580789E+00
Ar  203  0.8036227E+01  0.1064728E+02  0.1324374E+02  0.4580789E+00
Ar  204  0.5405131E+01  0.1326152E+02  0.1326152E+02  0.8707836E+00
Ar  205  0.5378337E+01  0.1066941E+02  0.1583237E+02  0.7969367E-01
Ar  206  0.8030129E+01  0.1323285E+02  0.1585786E+02  0.5800937E+00
Ar  207  0.8055619E+01  0.1066317E+02  0.1842754E+02  0.8007659E-01
Ar  208  0.5378337E+01  0.1325834E+02  0.1842130E+02  0.7968714E-01
Ar  209  0.5426370E+01  0.1067302E+02  0.2101372E+02  0.9854590E-01
Ar  210  0.8052973E+01  0.1324804E+02  0.2103774E+02  0.8454001E+00
Ar  211  0.8076989E+01  0.1067302E+02  0.2366434E+02  0.9853786E-01
Ar  212  0.5426593E+01  0.1325915E+02  0.2366412E+02  0.3187051E-01
Ar  213  0.5457680E+01  0.1068951E+02  0.2628661E+02  0.6456972E-01
Ar  214  0.8055307E+01  0.1327134E+02  0.2633509E+02  0.2131797E+00
Ar  215  0.8058985E+01  0.1066871E+02  0.2903398E+02  0.3321918E+00
Ar  216  0.5419719E+01  0.1324956E+02  0.2899779E+02  0.2177152E+00
Ar  217  0.5419719E+01  0.1584115E+02  0.9292137E-01  0.2177140E+00
Ar  218  0.8058985E+01  0.1842200E+02  0.5673055E-01  0.3321719E+00
Ar  219  0.8055307E+01  0.1581937E+02  0.2755622E+01  0.2131897E+00
Ar  220  0.5457680E+01  0.1840120E+02  0.2804096E+01  0.6457297E-01
Ar  221  0.5426593E+01  0.1583156E+02  0.5426593E+01  0.3186378E-01
Ar  222  0.8076989E+01  0.1841769E+02  0.5426370E+01  0.9854217E-01
Ar  223  0.8052973E+01  0.1584267E+02  0.8052973E+01  0.8454435E+00
Ar  224  0.5426370E+01  0.1841769E+02  0.8076989E+01  0.9854217E-01
Ar  225  0.5378337E+01  0.1583237E+02  0.1066941E+02  0.7969367E-01
Ar  226  0.8055619E+01  0.1842754E+02  0.1066317E+02  0.8007659E-01
Ar  227  0.8030129E+01  0.1585786E+02  0.1323285E+02  0.5800937E+00
Ar  228  0.5378337E+01  0.1842130E+02  0.1325834E+02  0.7968714E-01
Ar  229  0.5405131E+01  0.1582918E+02  0.1582918E+02  0.8707741E+00
Ar  230  0.8036227E+01  0.1844343E+02  0.1584697E+02  0.4580843E+00
Ar  231  0.8036227E+01  0.1584697E+02  0.1844343E+02  0.4580843E+00
Ar  232  0.5368320E+01  0.1840551E+02  0.1840551E+02  0.7528916E+00
Ar  233  0.5409758E+01  0.1583148E+02  0.2104257E+02  0.1242203E+00
Ar  234  0.8058310E+01  0.1842384E+02  0.2103240E+02  0.1761320E+00
Ar  235  0.8048145E+01  0.1583148E+02  0.2368095E+02  0.1242366E+00
Ar  236  0.5433885E+01  0.1839864E+02  0.2365683E+02  0.3546334E+00
Ar  237  0.5427025E+01  0.1582665E+02  0.2632108E+02  0.6713198E-01
Ar  238  0.8076117E+01  0.1840119E+02  0.2632200E+02  0.1039356E+00
Ar  239  0.8034470E+01  0.1584565E+02  0.2904952E+02  0.2483146E+00
Ar  240  0.5435041E+01  0.1843897E+02  0.2898748E+02  0.3085267E+00
Ar  241  0.5474873E+01  0.2099587E+02  0.1374718E+00  0.2782200E-03
Ar  242  0.8094839E+01  0.2361584E+02  0.1374717E+00  0.2783629E-03
Ar  243  0.8089505E+01  0.2100121E+02  0.2803497E+01  0.8860395E-02
Ar  244  0.5496272E+01  0.2359444E+02  0.2846806E+01  0.2456485E+00
Ar  245  0.5471357E+01  0.2101008E+02  0.5471357E+01  0.1927781E+00
Ar  246  0.8080628E+01  0.2361935E+02  0.5471357E+01  0.1927720E+00
Ar  247  0.8072289E+01  0.2101842E+02  0.8072289E+01  0.1113476E-01
Ar  248  0.5471357E+01  0.2361935E+02  0.8080628E+01  0.1927720E+00
Ar  249  0.5426370E+01  0.2101372E+02  0.1067302E+02  0.9854590E-01
Ar  250  0.8076989E+01  0.2366434E+02  0.1067302E+02  0.9853786E-01
Ar  251  0.8052973E+01  0.2103774E+02  0.1324804E+02  0.8454001E+00
Ar  252  0.5426593E+01  0.2366412E+02  0.1325915E+02  0.3187051E-01
Ar  253  0.5409758E+01  0.2104257E+02  0.1583148E+02  0.1242203E+00
Ar  254  0.8048145E+01  0.2368095E+02  0.1583148E+02  0.1242366E+00
Ar  255  0.8058310E+01  0.2103240E+02  0.1842384E+02  0.1761320E+00
Ar  256  0.5433885E+01  0.2365683E+02  0.1839864E+02  0.3546334E+00
Ar  257  0.5447049E+01  0.2099970E+02  0.2099970E+02  0.6232355E+00
Ar  258  0.8091010E+01  0.2364366E+02  0.2099970E+02  0.6232079E+00
Ar  259  0.8091010E+01  0.2099970E+02  0.2364366E+02  0.6232079E+00
Ar  260  0.5496825E+01  0.2359388E+02  0.2359388E+02  0.2320987E-02
Ar  261  0.5481403E+01  0.2099003E+02  0.2626625E+02  0.1037950E+00
Ar  262  0.8100676E+01  0.2360931E+02  0.2626625E+02  0.1038026E+00
Ar  263  0.8087639E+01  0.2100307E+02  0.2899819E+02  0.1195181E+01
Ar  264  0.5519309E+01  0.2357140E+02  0.2892212E+02  0.1468074E+00
Ar  265  0.5498248E+01  0.2619045E+02  0.1862095E+00  0.1198252E+00
Ar  266  0.8012673E+01  0.2895183E+02  0.1388849E+00  0.4831077E-01
Ar  267  0.8092124E+01  0.2622727E+02  0.2863439E+01  0.4325587E+00
Ar  268  0.5498248E+01  0.2890450E+02  0.2900262E+01  0.1198249E+00
Ar  269  0.5496271E+01  0.2624390E+02  0.5496271E+01  0.2456465E+00
Ar  270  0.8094838E+01  0.2895324E+02  0.5474873E+01  0.2782979E-03
Ar  271  0.8089505E+01  0.2628721E+02  0.8089505E+01  0.8858439E-02
Ar  272  0.5474873E+01  0.2895324E+02  0.8094838E+01  0.2782979E-03
Ar  273  0.5457680E+01  0.2628661E+02  0.1068951E+02  0.6456972E-01
Ar  274  0.8058985E+01  0.2903398E+02  0.1066871E+02  0.3321918E+00
Ar  275  0.8055307E+01  0.2633509E+02  0.1327134E+02  0.2131797E+00
Ar  276  0.5419719E+01  0.2899779E+02  0.1324956E+02  0.2177152E+00
Ar  277  0.5427025E+01  0.2632108E+02  0.1582665E+02  0.6713198E-01
Ar  278  0.8034470E+01  0.2904952E+02  0.1584565E+02  0.2483146E+00
Ar  279  0.8076117E+01  0.2632200E+02  0.1840119E+02  0.1039356E+00
Ar  280  0.5435041E+01  0.2898748E+02  0.1843897E+02  0.3085267E+00
Ar  281  0.5481403E+01  0.2626625E+02  0.2099003E+02  0.1037950E+00
Ar  282  0.8087639E+01  0.2899819E+02  0.2100307E+02  0.1195181E+01
Ar  283  0.8100676E+01  0.2626625E+02  0.2360931E+02  0.1038026E+00
Ar  284  0.5519309E+01  0.2892212E+02  0.2357140E+02  0.1468074E+00
Ar  285  0.5499555E+01  0.2621495E+02  0.2621495E+02  0.6757824E-01
Ar  286  0.8056212E+01  0.2894257E+02  0.2624727E+02  0.3382560E+00
Ar  287  0.8056212E+01  0.2624727E+02  0.2894257E+02  0.3382560E+00
Ar  288  0.5454805E+01  0.2891060E+02  0.2891060E+02  0.2820996E+00
Ar  289  0.1059464E+02  0.1139994E+00  0.1139994E+00  0.2029292E+00
Ar  290  0.1323511E+02  0.2809764E+01  0.1116281E+00  0.3766744E+00
Ar  291  0.1323511E+02  0.1116281E+00  0.2809764E+01  0.3766744E+00
Ar  292  0.1067519E+02  0.2814153E+01  0.2814153E+01  0.8303336E-01
Ar  293  0.1065174E+02  0.1032297E+00  0.5435041E+01  0.3085423E+00
Ar  294  0.1326407E+02  0.2769632E+01  0.5427025E+01  0.6711954E-01
Ar  295  0.1324506E+02  0.4119338E-01  0.8034469E+01  0.2483150E+00
Ar  296  0.1068952E+02  0.2768714E+01  0.8076117E+01  0.1039374E+00
Ar  297  0.1065974E+02  0.1607481E-01  0.1065974E+02  0.1314871E+00
Ar  298  0.1326355E+02  0.2713457E+01  0.1068051E+02  0.2739189E+00
Ar  299  0.1325596E+02 -0.2263243E-02  0.1325596E+02  0.9391412E+00
Ar  300  0.1068051E+02  0.2713457E+01  0.1326355E+02  0.2739189E+00
Ar  301  0.1065043E+02  0.1438075E-01  0.1583203E+02  0.2262028E+00
Ar  302  0.1326768E+02  0.2692896E+01  0.1582303E+02  0.4059577E+00
Ar  303  0.1325868E+02  0.1438072E-01  0.1844028E+02  0.2261985E+00
Ar  304  0.1068566E+02  0.2723693E+01  0.1840505E+02  0.5658480E-01
Ar  305  0.1066871E+02  0.5673056E-01  0.2103173E+02  0.3321882E+00
Ar  306  0.1327134E+02  0.2755622E+01  0.2103540E+02  0.2131904E+00
Ar  307  0.1324956E+02  0.9292138E-01  0.2367099E+02  0.2177180E+00
Ar  308  0.1068951E+02  0.2804096E+01  0.2363303E+02  0.6457793E-01
Ar  309  0.1063606E+02  0.1178696E+00  0.2628324E+02  0.8194511E+00
Ar  310  0.1323824E+02  0.2783283E+01  0.2630743E+02  0.1655520E+00
Ar  311  0.1322102E+02  0.1105904E+00  0.2898012E+02  0.2008648E+00
Ar  312  0.1063606E+02  0.2807472E+01  0.2897284E+02  0.8194499E+00
Ar  313  0.1065174E+02  0.5435041E+01  0.1032297E+00  0.3085423E+00
Ar  314  0.1324506E+02  0.8034469E+01  0.4119338E-01  0.2483150E+00
Ar  315  0.1326407E+02  0.5427025E+01  0.2769632E+01  0.6711954E-01
Ar  316  0.1068952E+02  0.8076117E+01  0.2768714E+01  0.1039374E+00
Ar  317  0.1069207E+02  0.5433885E+01  0.5433885E+01  0.3546466E+00
Ar  318  0.1325923E+02  0.8048145E+01  0.5409758E+01  0.1242342E+00
Ar  319  0.1325923E+02  0.5409758E+01  0.8048145E+01  0.1242342E+00
Ar  320  0.1066687E+02  0.8058310E+01  0.8058310E+01  0.1761443E+00
Ar  321  0.1068520E+02  0.5368321E+01  0.1068520E+02  0.7528559E+00
Ar  322  0.1324374E+02  0.8036227E+01  0.1064728E+02  0.4580789E+00
Ar  323  0.1326152E+02  0.5405131E+01  0.1326152E+02  0.8707836E+00
Ar  324  0.1064728E+02  0.8036227E+01  0.1324374E+02  0.4580789E+00
Ar  325  0.1066941E+02  0.5378337E+01  0.1583237E+02  0.7969367E-01
Ar  326  0.1323285E+02  0.8030129E+01  0.1585786E+02  0.5800937E+00
Ar  327  0.1325834E+02  0.5378337E+01  0.1842130E+02  0.7968714E-01
Ar  328  0.1066317E+02  0.8055619E+01  0.1842754E+02  0.8007659E-01
Ar  329  0.1067302E+02  0.5426370E+01  0.2101372E+02  0.9854590E-01
Ar  330  0.1324804E+02  0.8052973E+01  0.2103774E+02  0.8454001E+00
Ar  331  0.1325915E+02  0.5426593E+01  0.2366412E+02  0.3187051E-01
Ar  332  0.1067302E+02  0.8076989E+01  0.2366434E+02  0.9853786E-01
Ar  333  0.1068951E+02  0.5457680E+01  0.2628661E+02  0.6456972E-01
Ar  334  0.1327134E+02  0.8055307E+01  0.2633509E+02  0.2131797E+00
Ar  335  0.1324956E+02  0.5419719E+01  0.2899779E+02  0.2177152E+00
Ar  336  0.1066871E+02  0.8058985E+01  0.2903398E+02  0.3321918E+00
Ar  337  0.1065974E+02  0.1065974E+02  0.1607481E-01  0.1314871E+00
Ar  338  0.1325596E+02  0.1325596E+02 -0.2263243E-02  0.9391412E+00
Ar  339  0.1326355E+02  0.1068051E+02  0.2713457E+01  0.2739189E+00
Ar  340  0.1068051E+02  0.1326355E+02  0.2713457E+01  0.2739189E+00
Ar  341  0.1068520E+02  0.1068520E+02  0.5368321E+01  0.7528559E+00
Ar  342  0.1326152E+02  0.1326152E+02  0.5405131E+01  0.8707836E+00
Ar  343  0.1324374E+02  0.1064728E+02  0.8036227E+01  0.4580789E+00
Ar  344  0.1064728E+02  0.1324374E+02  0.8036227E+01  0.4580789E+00
Ar  345  0.1066427E+02  0.1066427E+02  0.1066427E+02  0.1078603E+00
Ar  346  0.1324602E+02  0.1324602E+02  0.1063079E+02  0.3497673E-01
Ar  347  0.1324602E+02  0.1063079E+02  0.1324602E+02  0.3497673E-01
Ar  348  0.1063079E+02  0.1324602E+02  0.1324602E+02  0.3497673E-01
Ar  349  0.1065794E+02  0.1065794E+02  0.1584570E+02  0.8384647E-01
Ar  350  0.1324406E+02  0.1324406E+02  0.1584665E+02  0.3639904E+00
Ar  351  0.1324501E+02  0.1065794E+02  0.1843277E+02  0.8383835E-01
Ar  352  0.1065794E+02  0.1324501E+02  0.1843277E+02  0.8383835E-01
Ar  353  0.1066317E+02  0.1066317E+02  0.2103509E+02  0.8007251E-01
Ar  354  0.1323285E+02  0.1323285E+02  0.2106058E+02  0.5800426E+00
Ar  355  0.1325834E+02  0.1066941E+02  0.2371237E+02  0.7968338E-01
Ar  356  0.1066941E+02  0.1325834E+02  0.2371237E+02  0.7968338E-01
Ar  357  0.1068566E+02  0.1068566E+02  0.2636702E+02  0.5657793E-01
Ar  358  0.1326768E+02  0.1326768E+02  0.2639781E+02  0.4059283E+00
Ar  359  0.1325868E+02  0.1065043E+02  0.2907633E+02  0.2261908E+00
Ar  360  0.1065043E+02  0.1325868E+02  0.2907633E+02  0.2261908E+00
Ar  361  0.1065043E+02  0.1583203E+02  0.1438075E-01  0.2262028E+00
Ar  362  0.1325868E+02  0.1844028E+02  0.1438072E-01  0.2261985E+00
Ar  363  0.1326768E+02  0.1582303E+02  0.2692896E+01  0.4059577E+00
Ar  364  0.1068566E+02  0.1840505E+02  0.2723693E+01  0.5658480E-01
Ar  365  0.1066941E+02  0.1583237E+02  0.5378337E+01  0.7969367E-01
Ar  366  0.1325834E+02  0.1842130E+02  0.5378337E+01  0.7968714E-01
Ar  367  0.1323285E+02  0.1585786E+02  0.8030129E+01  0.5800937E+00
Ar  368  0.1066317E+02  0.1842754E+02  0.8055619E+01  0.8007659E-01
Ar  369  0.1065794E+02  0.1584570E+02  0.1065794E+02  0.8384647E-01
Ar  370  0.1324501E+02  0.1843277E+02  0.1065794E+02  0.8383835E-01
Ar  371  0.1324406E+02  0.1584665E+02  0.1324406E+02  0.3639904E+00
Ar  372  0.1065794E+02  0.1843277E+02  0.1324501E+02  0.8383835E-01
Ar  373  0.1063079E+02  0.1584469E+02  0.1584469E+02  0.3498067E-01
Ar  374  0.1324602E+02  0.1845992E+02  0.1584469E+02  0.3497162E-01
Ar  375  0.1324602E+02  0.1584469E+02  0.1845992E+02  0.3497162E-01
Ar  376  0.1066427E+02  0.1842644E+02  0.1842644E+02  0.1078790E+00
Ar  377  0.1064728E+02  0.1584697E+02  0.2105448E+02  0.4580644E+00
Ar  378  0.1324374E+02  0.1844343E+02  0.2105448E+02  0.4580589E+00
Ar  379  0.1326153E+02  0.1582918E+02  0.2368558E+02  0.8708663E+00
Ar  380  0.1068520E+02  0.1840551E+02  0.2372239E+02  0.7528475E+00
Ar  381  0.1068051E+02  0.1582716E+02  0.2637725E+02  0.2739163E+00
Ar  382  0.1326355E+02  0.1841020E+02  0.2637725E+02  0.2739193E+00
Ar  383  0.1325596E+02  0.1583475E+02  0.2909297E+02  0.9391372E+00
Ar  384  0.1065974E+02  0.1843097E+02  0.2907464E+02  0.1314810E+00
Ar  385  0.1066871E+02  0.2103173E+02  0.5673056E-01  0.3321882E+00
Ar  386  0.1324956E+02  0.2367099E+02  0.9292138E-01  0.2177180E+00
Ar  387  0.1327134E+02  0.2103540E+02  0.2755622E+01  0.2131904E+00
Ar  388  0.1068951E+02  0.2363303E+02  0.2804096E+01  0.6457793E-01
Ar  389  0.1067302E+02  0.2101372E+02  0.5426370E+01  0.9854590E-01
Ar  390  0.1325915E+02  0.2366412E+02  0.5426593E+01  0.3187051E-01
Ar  391  0.1324804E+02  0.2103774E+02  0.8052973E+01  0.8454001E+00
Ar  392  0.1067302E+02  0.2366434E+02  0.8076989E+01  0.9853786E-01
Ar  393  0.1066317E+02  0.2103509E+02  0.1066317E+02  0.8007251E-01
Ar  394  0.1325834E+02  0.2371237E+02  0.1066941E+02  0.7968338E-01
Ar  395  0.1323285E+02  0.2106058E+02  0.1323285E+02  0.5800426E+00
Ar  396  0.1066941E+02  0.2371237E+02  0.1325834E+02  0.7968338E-01
Ar  397  0.1064728E+02  0.2105448E+02  0.1584697E+02  0.4580644E+00
Ar  398  0.1326153E+02  0.2368558E+02  0.1582918E+02  0.8708663E+00
Ar  399  0.1324374E+02  0.2105448E+02  0.1844343E+02  0.4580589E+00
Ar  400  0.1068520E+02  0.2372239E+02  0.1840551E+02  0.7528475E+00
Ar  401  0.1066687E+02  0.2103240E+02  0.2103240E+02  0.1761135E+00
Ar  402  0.1325923E+02  0.2368095E+02  0.2104257E+02  0.1242260E+00
Ar  403  0.1325923E+02  0.2104257E+02  0.2368095E+02  0.1242260E+00
Ar  404  0.1069207E+02  0.2365683E+02  0.2365683E+02  0.3546297E+00
Ar  405  0.1068952E+02  0.2101459E+02  0.2632200E+02  0.1039392E+00
Ar  406  0.1326406E+02  0.2366369E+02  0.2632108E+02  0.6712902E-01
Ar  407  0.1324506E+02  0.2105624E+02  0.2904952E+02  0.2483187E+00
Ar  408  0.1065174E+02  0.2365567E+02  0.2898748E+02  0.3085314E+00
Ar  409  0.1063606E+02  0.2628324E+02  0.1178696E+00  0.8194511E+00
Ar  410  0.1322102E+02  0.2898012E+02  0.1105904E+00  0.2008648E+00
Ar  411  0.1323824E+02  0.2630743E+02  0.2783283E+01  0.1655520E+00
Ar  412  0.1063606E+02  0.2897284E+02  0.2807472E+01  0.8194499E+00
Ar  413  0.1068951E+02  0.2628661E+02  0.5457680E+01  0.6456972E-01
Ar  414  0.1324956E+02  0.2899779E+02  0.5419719E+01  0.2177152E+00
Ar  415  0.1327134E+02  0.2633509E+02  0.8055307E+01  0.2131797E+00
Ar  416  0.1066871E+02  0.2903398E+02  0.8058985E+01  0.3321918E+00
Ar  417  0.1068566E+02  0.2636702E+02  0.1068566E+02  0.5657793E-01
Ar  418  0.1325868E+02  0.2907633E+02  0.1065043E+02  0.2261908E+00
Ar  419  0.1326768E+02  0.2639781E+02  0.1326768E+02  0.4059283E+00
Ar  420  0.1065043E+02  0.2907633E+02  0.1325868E+02  0.2261908E+00
Ar  421  0.1068051E+02  0.2637725E+02  0.1582716E+02  0.2739163E+00
Ar  422  0.1325596E+02  0.2909297E+02  0.1583475E+02  0.9391372E+00
Ar  423  0.1326355E+02  0.2637725E+02  0.1841020E+02  0.2739193E+00
Ar  424  0.1065974E+02  0.2907464E+02  0.1843097E+02  0.1314810E+00
Ar  425  0.1068952E+02  0.2632200E+02  0.2101459E+02  0.1039392E+00
Ar  426  0.1324506E+02  0.2904952E+02  0.2105624E+02  0.2483187E+00
Ar  427  0.1326406E+02  0.2632108E+02  0.2366369E+02  0.6712902E-01
Ar  428  0.1065174E+02  0.2898748E+02  0.2365567E+02  0.3085314E+00
Ar  429  0.1067519E+02  0.2627656E+02  0.2627656E+02  0.8303725E-01
Ar  430  0.1323511E+02  0.2897908E+02  0.2628095E+02  0.3766877E+00
Ar  431  0.1323511E+02  0.2628095E+02  0.2897908E+02  0.3766877E+00
Ar  432  0.1059464E+02  0.2897671E+02  0.2897671E+02  0.2029189E+00
Ar  433  0.1586969E+02  0.1105906E+00  0.1105906E+00  0.2008630E+00
Ar  434  0.1845465E+02  0.2807472E+01  0.1178692E+00  0.8194349E+00
Ar  435  0.1845465E+02  0.1178692E+00  0.2807472E+01  0.8194349E+00
Ar  436  0.1585247E+02  0.2783283E+01  0.2783283E+01  0.1655599E+00
Ar  437  0.1584115E+02  0.9292137E-01  0.5419719E+01  0.2177140E+00
Ar  438  0.1840120E+02  0.2804096E+01  0.5457680E+01  0.6457297E-01
Ar  439  0.1842200E+02  0.5673055E-01  0.8058985E+01  0.3321719E+00
Ar  440  0.1581937E+02  0.2755622E+01  0.8055307E+01  0.2131897E+00
Ar  441  0.1583203E+02  0.1438075E-01  0.1065043E+02  0.2262028E+00
Ar  442  0.1840505E+02  0.2723693E+01  0.1068566E+02  0.5658480E-01
Ar  443  0.1844028E+02  0.1438072E-01  0.1325868E+02  0.2261985E+00
Ar  444  0.1582303E+02  0.2692896E+01  0.1326768E+02  0.4059577E+00
Ar  445  0.1583475E+02 -0.2263216E-02  0.1583475E+02  0.9391383E+00
Ar  446  0.1841020E+02  0.2713457E+01  0.1582716E+02  0.2739090E+00
Ar  447  0.1843097E+02  0.1607430E-01  0.1843097E+02  0.1314752E+00
Ar  448  0.1582716E+02  0.2713457E+01  0.1841020E+02  0.2739090E+00
Ar  449  0.1584565E+02  0.4119326E-01  0.2105624E+02  0.2483157E+00
Ar  450  0.1840119E+02  0.2768714E+01  0.2101459E+02  0.1039358E+00
Ar  451  0.1843897E+02  0.1032295E+00  0.2365567E+02  0.3085368E+00
Ar  452  0.1582664E+02  0.2769632E+01  0.2366368E+02  0.6712533E-01
Ar  453  0.1585560E+02  0.1116283E+00  0.2628095E+02  0.3766753E+00
Ar  454  0.1841552E+02  0.2814153E+01  0.2627656E+02  0.8303357E-01
Ar  455  0.1849607E+02  0.1139995E+00  0.2897671E+02  0.2029291E+00
Ar  456  0.1585560E+02  0.2809764E+01  0.2897908E+02  0.3766774E+00
Ar  457  0.1584115E+02  0.5419719E+01  0.9292137E-01  0.2177140E+00
Ar  458  0.1842200E+02  0.8058985E+01  0.5673055E-01  0.3321719E+00
Ar  459  0.1840120E+02  0.5457680E+01  0.2804096E+01  0.6457297E-01
Ar  460  0.1581937E+02  0.8055307E+01  0.2755622E+01  0.2131897E+00
Ar  461  0.1583156E+02  0.5426593E+01  0.5426593E+01  0.3186378E-01
Ar  462  0.1841769E+02  0.8076989E+01  0.5426370E+01  0.9854217E-01
Ar  463  0.1841769E+02  0.5426370E+01  0.8076989E+01  0.9854217E-01
Ar  464  0.1584267E+02  0.8052973E+01  0.8052973E+01  0.8454435E+00
Ar  465  0.1583237E+02  0.5378337E+01  0.1066941E+02  0.7969367E-01
Ar  466  0.1842754E+02  0.8055619E+01  0.1066317E+02  0.8007659E-01
Ar  467  0.1842130E+02  0.5378337E+01  0.1325834E+02  0.7968714E-01
Ar  468  0.1585786E+02  0.8030129E+01  0.1323285E+02  0.5800937E+00
Ar  469  0.1582918E+02  0.5405131E+01  0.1582918E+02  0.8707741E+00
Ar  470  0.1844343E+02  0.8036227E+01  0.1584697E+02  0.4580843E+00
Ar  471  0.1840551E+02  0.5368320E+01  0.1840551E+02  0.7528916E+00
Ar  472  0.1584697E+02  0.8036227E+01  0.1844343E+02  0.4580843E+00
Ar  473  0.1583148E+02  0.5409758E+01  0.2104257E+02  0.1242203E+00
Ar  474  0.1842384E+02  0.8058310E+01  0.2103240E+02  0.1761320E+00
Ar  475  0.1839864E+02  0.5433885E+01  0.2365683E+02  0.3546334E+00
Ar  476  0.1583148E+02  0.8048145E+01  0.2368095E+02  0.1242366E+00
Ar  477  0.1582665E+02  0.5427025E+01  0.2632108E+02  0.6713198E-01
Ar  478  0.1840119E+02  0.8076117E+01  0.2632200E+02  0.1039356E+00
Ar  479  0.1843897E+02  0.5435041E+01  0.2898748E+02  0.3085267E+00
Ar  480  0.1584565E+02  0.8034470E+01  0.2904952E+02  0.2483146E+00
Ar  481  0.1583203E+02  0.1065043E+02  0.1438075E-01  0.2262028E+00
Ar  482  0.1844028E+02  0.1325868E+02  0.1438072E-01  0.2261985E+00
Ar  483  0.1840505E+02  0.1068566E+02  0.2723693E+01  0.5658480E-01
Ar  484  0.1582303E+02  0.1326768E+02  0.2692896E+01  0.4059577E+00
Ar  485  0.1583237E+02  0.1066941E+02  0.5378337E+01  0.7969367E-01
Ar  486  0.1842130E+02  0.1325834E+02  0.5378337E+01  0.7968714E-01
Ar  487  0.1842754E+02  0.1066317E+02  0.8055619E+01  0.8007659E-01
Ar  488  0.1585786E+02  0.1323285E+02  0.8030129E+01  0.5800937E+00
Ar  489  0.1584570E+02  0.1065794E+02  0.1065794E+02  0.8384647E-01
Ar  490  0.1843277E+02  0.1324501E+02  0.1065794E+02  0.8383835E-01
Ar  491  0.1843277E+02  0.1065794E+02  0.1324501E+02  0.8383835E-01
Ar  492  0.1584665E+02  0.1324406E+02  0.1324406E+02  0.3639904E+00
Ar  493  0.1584469E+02  0.1063079E+02  0.1584469E+02  0.3498067E-01
Ar  494  0.1845992E+02  0.1324602E+02  0.1584469E+02  0.3497162E-01
Ar  495  0.1842644E+02  0.1066427E+02  0.1842644E+02  0.1078790E+00
Ar  496  0.1584469E+02  0.1324602E+02  0.1845992E+02  0.3497162E-01
Ar  497  0.1584697E+02  0.1064728E+02  0.2105448E+02  0.4580644E+00
Ar  498  0.1844343E+02  0.1324374E+02  0.2105448E+02  0.4580589E+00
Ar  499  0.1840551E+02  0.1068520E+02  0.2372239E+02  0.7528475E+00
Ar  500  0.1582918E+02  0.1326153E+02  0.2368558E+02  0.8708663E+00
Ar  501  0.1582716E+02  0.1068051E+02  0.2637725E+02  0.2739163E+00
Ar  502  0.1841020E+02  0.1326355E+02  0.2637725E+02  0.2739193E+00
Ar  503  0.1843097E+02  0.1065974E+02  0.2907464E+02  0.1314810E+00
Ar  504  0.1583475E+02  0.1325596E+02  0.2909297E+02  0.9391372E+00
Ar  505  0.1583475E+02  0.1583475E+02 -0.2263216E-02  0.9391383E+00
Ar  506  0.1843097E+02  0.1843097E+02  0.1607430E-01  0.1314752E+00
Ar  507  0.1841020E+02  0.1582716E+02  0.2713457E+01  0.2739090E+00
Ar  508  0.1582716E+02  0.1841020E+02  0.2713457E+01  0.2739090E+00
Ar  509  0.1582918E+02  0.1582918E+02  0.5405131E+01  0.8707741E+00
Ar  510  0.1840551E+02  0.1840551E+02  0.5368320E+01  0.7528916E+00
Ar  511  0.1844343E+02  0.1584697E+02  0.8036227E+01  0.4580843E+00
Ar  512  0.1584697E+02  0.1844343E+02  0.8036227E+01  0.4580843E+00
Ar  513  0.1584469E+02  0.1584469E+02  0.1063079E+02  0.3498067E-01
Ar  514  0.1842644E+02  0.1842644E+02  0.1066427E+02  0.1078790E+00
Ar  515  0.1845992E+02  0.1584469E+02  0.1324602E+02  0.3497162E-01
Ar  516  0.1584469E+02  0.1845992E+02  0.1324602E+02  0.3497162E-01
Ar  517  0.1584665E+02  0.1584665E+02  0.1584665E+02  0.3639876E+00
Ar  518  0.1843277E+02  0.1843277E+02  0.1584570E+02  0.8382343E-01
Ar  519  0.1843277E+02  0.1584570E+02  0.1843277E+02  0.8382343E-01
Ar  520  0.1584570E+02  0.1843277E+02  0.1843277E+02  0.8382343E-01
Ar  521  0.1585786E+02  0.1585786E+02  0.2106058E+02  0.5800374E+00
Ar  522  0.1842754E+02  0.1842754E+02  0.2103509E+02  0.8006273E-01
Ar  523  0.1842130E+02  0.1583237E+02  0.2371237E+02  0.7967212E-01
Ar  524  0.1583237E+02  0.1842130E+02  0.2371237E+02  0.7967212E-01
Ar  525  0.1582303E+02  0.1582303E+02  0.2639781E+02  0.4059414E+00
Ar  526  0.1840505E+02  0.1840505E+02  0.2636702E+02  0.5657280E-01
Ar  527  0.1844028E+02  0.1583203E+02  0.2907633E+02  0.2261968E+00
Ar  528  0.1583203E+02  0.1844028E+02  0.2907633E+02  0.2261968E+00
Ar  529  0.1584565E+02  0.2105624E+02  0.4119326E-01  0.2483157E+00
Ar  530  0.1843897E+02  0.2365567E+02  0.1032295E+00  0.3085368E+00
Ar  531  0.1840119E+02  0.2101459E+02  0.2768714E+01  0.1039358E+00
Ar  532  0.1582664E+02  0.2366368E+02  0.2769632E+01  0.6712533E-01
Ar  533  0.1583148E+02  0.2104257E+02  0.5409758E+01  0.1242203E+00
Ar  534  0.1839864E+02  0.2365683E+02  0.5433885E+01  0.3546334E+00
Ar  535  0.1842384E+02  0.2103240E+02  0.8058310E+01  0.1761320E+00
Ar  536  0.1583148E+02  0.2368095E+02  0.8048145E+01  0.1242366E+00
Ar  537  0.1584697E+02  0.2105448E+02  0.1064728E+02  0.4580644E+00
Ar  538  0.1840551E+02  0.2372239E+02  0.1068520E+02  0.7528475E+00
Ar  539  0.1844343E+02  0.2105448E+02  0.1324374E+02  0.4580589E+00
Ar  540  0.1582918E+02  0.2368558E+02  0.1326153E+02  0.8708663E+00
Ar  541  0.1585786E+02  0.2106058E+02  0.1585786E+02  0.5800374E+00
Ar  542  0.1842130E+02  0.2371237E+02  0.1583237E+02  0.7967212E-01
Ar  543  0.1842754E+02  0.2103509E+02  0.1842754E+02  0.8006273E-01
Ar  544  0.1583237E+02  0.2371237E+02  0.1842130E+02  0.7967212E-01
Ar  545  0.1584267E+02  0.2103774E+02  0.2103774E+02  0.8453561E+00
Ar  546  0.1841769E+02  0.2366434E+02  0.2101372E+02  0.9853801E-01
Ar  547  0.1841769E+02  0.2101372E+02  0.2366434E+02  0.9853801E-01
Ar  548  0.1583156E+02  0.2366412E+02  0.2366412E+02  0.3186880E-01
Ar  549  0.1581937E+02  0.2103540E+02  0.2633509E+02  0.2131846E+00
Ar  550  0.1840120E+02  0.2363303E+02  0.2628661E+02  0.6457135E-01
Ar  551  0.1842200E+02  0.2103173E+02  0.2903398E+02  0.3321893E+00
Ar  552  0.1584115E+02  0.2367099E+02  0.2899779E+02  0.2177190E+00
Ar  553  0.1585560E+02  0.2628095E+02  0.1116283E+00  0.3766753E+00
Ar  554  0.1849607E+02  0.2897671E+02  0.1139995E+00  0.2029291E+00
Ar  555  0.1841552E+02  0.2627656E+02  0.2814153E+01  0.8303357E-01
Ar  556  0.1585560E+02  0.2897908E+02  0.2809764E+01  0.3766774E+00
Ar  557  0.1582665E+02  0.2632108E+02  0.5427025E+01  0.6713198E-01
Ar  558  0.1843897E+02  0.2898748E+02  0.5435041E+01  0.3085267E+00
Ar  559  0.1840119E+02  0.2632200E+02  0.8076117E+01  0.1039356E+00
Ar  560  0.1584565E+02  0.2904952E+02  0.8034470E+01  0.2483146E+00
Ar  561  0.1582716E+02  0.2637725E+02  0.1068051E+02  0.2739163E+00
Ar  562  0.1843097E+02  0.2907464E+02  0.1065974E+02  0.1314810E+00
Ar  563  0.1841020E+02  0.2637725E+02  0.1326355E+02  0.2739193E+00
Ar  564  0.1583475E+02  0.2909297E+02  0.1325596E+02  0.9391372E+00
Ar  565  0.1582303E+02  0.2639781E+02  0.1582303E+02  0.4059414E+00
Ar  566  0.1844028E+02  0.2907633E+02  0.1583203E+02  0.2261968E+00
Ar  567  0.1840505E+02  0.2636702E+02  0.1840505E+02  0.5657280E-01
Ar  568  0.1583203E+02  0.2907633E+02  0.1844028E+02  0.2261968E+00
Ar  569  0.1581937E+02  0.2633509E+02  0.2103540E+02  0.2131846E+00
Ar  570  0.1842200E+02  0.2903398E+02  0.2103173E+02  0.3321893E+00
Ar  571  0.1840120E+02  0.2628661E+02  0.2363303E+02  0.6457135E-01
Ar  572  0.1584115E+02  0.2899779E+02  0.2367099E+02  0.2177190E+00
Ar  573  0.1585247E+02  0.2630743E+02  0.2630743E+02  0.1655442E+00
Ar  574  0.1845465E+02  0.2897284E+02  0.2628324E+02  0.8194373E+00
Ar  575  0.1845465E+02  0.2628324E+02  0.2897284E+02  0.8194373E+00
Ar  576  0.1586969E+02  0.2898012E+02  0.2898012E+02  0.2008602E+00
Ar  577  0.2107804E+02  0.1388849E+00  0.1388849E+00  0.4830920E-01
Ar  578  0.2359246E+02  0.2900262E+01  0.1862098E+00  0.1198290E+00
Ar  579  0.2359246E+02  0.1862098E+00  0.2900262E+01  0.1198290E+00
Ar  580  0.2099859E+02  0.2863439E+01  0.2863439E+01  0.4325705E+00
Ar  581  0.2099587E+02  0.1374718E+00  0.5474873E+01  0.2782200E-03
Ar  582  0.2359444E+02  0.2846806E+01  0.5496272E+01  0.2456485E+00
Ar  583  0.2361584E+02  0.1374717E+00  0.8094839E+01  0.2783629E-03
Ar  584  0.2100121E+02  0.2803497E+01  0.8089505E+01  0.8860395E-02
Ar  585  0.2103173E+02  0.5673056E-01  0.1066871E+02  0.3321882E+00
Ar  586  0.2363303E+02  0.2804096E+01  0.1068951E+02  0.6457793E-01
Ar  587  0.2367099E+02  0.9292138E-01  0.1324956E+02  0.2177180E+00
Ar  588  0.2103540E+02  0.2755622E+01  0.1327134E+02  0.2131904E+00
Ar  589  0.2105624E+02  0.4119326E-01  0.1584565E+02  0.2483157E+00
Ar  590  0.2366368E+02  0.2769632E+01  0.1582664E+02  0.6712533E-01
Ar  591  0.2365567E+02  0.1032295E+00  0.1843897E+02  0.3085368E+00
Ar  592  0.2101459E+02  0.2768714E+01  0.1840119E+02  0.1039358E+00
Ar  593  0.2100307E+02  0.9251583E-01  0.2100307E+02  0.1195181E+01
Ar  594  0.2360931E+02  0.2824463E+01  0.2099003E+02  0.1037990E+00
Ar  595  0.2357140E+02  0.1685897E+00  0.2357140E+02  0.1468079E+00
Ar  596  0.2099003E+02  0.2824463E+01  0.2360931E+02  0.1037990E+00
Ar  597  0.2103450E+02  0.1481406E+00  0.2624727E+02  0.3382529E+00
Ar  598  0.2359116E+02  0.2875757E+01  0.2621495E+02  0.6757054E-01
Ar  599  0.2363591E+02  0.1801059E+00  0.2891060E+02  0.2820832E+00
Ar  600  0.2103450E+02  0.2843441E+01  0.2894257E+02  0.3382591E+00
Ar  601  0.2099587E+02  0.5474873E+01  0.1374718E+00  0.2782200E-03
Ar  602  0.2361584E+02  0.8094839E+01  0.1374717E+00  0.2783629E-03
Ar  603  0.2359444E+02  0.5496272E+01  0.2846806E+01  0.2456485E+00
Ar  604  0.2100121E+02  0.8089505E+01  0.2803497E+01  0.8860395E-02
Ar  605  0.2101008E+02  0.5471357E+01  0.5471357E+01  0.1927781E+00
Ar  606  0.2361935E+02  0.8080628E+01  0.5471357E+01  0.1927720E+00
Ar  607  0.2361935E+02  0.5471357E+01  0.8080628E+01  0.1927720E+00
Ar  608  0.2101842E+02  0.8072289E+01  0.8072289E+01  0.1113476E-01
Ar  609  0.2101372E+02  0.5426370E+01  0.1067302E+02  0.9854590E-01
Ar  610  0.2366434E+02  0.8076989E+01  0.1067302E+02  0.9853786E-01
Ar  611  0.2366412E+02  0.5426593E+01  0.1325915E+02  0.3187051E-01
Ar  612  0.2103774E+02  0.8052973E+01  0.1324804E+02  0.8454001E+00
Ar  613  0.2104257E+02  0.5409758E+01  0.1583148E+02  0.1242203E+00
Ar  614  0.2368095E+02  0.8048145E+01  0.1583148E+02  0.1242366E+00
Ar  615  0.2365683E+02  0.5433885E+01  0.1839864E+02  0.3546334E+00
Ar  616  0.2103240E+02  0.8058310E+01  0.1842384E+02  0.1761320E+00
Ar  617  0.2099970E+02  0.5447049E+01  0.2099970E+02  0.6232355E+00
Ar  618  0.2364366E+02  0.8091010E+01  0.2099970E+02  0.6232079E+00
Ar  619  0.2359388E+02  0.5496825E+01  0.2359388E+02  0.2320987E-02
Ar  620  0.2099970E+02  0.8091010E+01  0.2364366E+02  0.6232079E+00
Ar  621  0.2099003E+02  0.5481403E+01  0.2626625E+02  0.1037950E+00
Ar  622  0.2360931E+02  0.8100676E+01  0.2626625E+02  0.1038026E+00
Ar  623  0.2357140E+02  0.5519309E+01  0.2892212E+02  0.1468074E+00
Ar  624  0.2100307E+02  0.8087639E+01  0.2899819E+02  0.1195181E+01
Ar  625  0.2103173E+02  0.1066871E+02  0.5673056E-01  0.3321882E+00
Ar  626  0.2367099E+02  0.1324956E+02  0.9292138E-01  0.2177180E+00
Ar  627  0.2363303E+02  0.1068951E+02  0.2804096E+01  0.6457793E-01
Ar  628  0.2103540E+02  0.1327134E+02  0.2755622E+01  0.2131904E+00
Ar  629  0.2101372E+02  0.1067302E+02  0.5426370E+01  0.9854590E-01
Ar  630  0.2366412E+02  0.1325915E+02  0.5426593E+01  0.3187051E-01
Ar  631  0.2366434E+02  0.1067302E+02  0.8076989E+01  0.9853786E-01
Ar  632  0.2103774E+02  0.1324804E+02  0.8052973E+01  0.8454001E+00
Ar  633  0.2103509E+02  0.1066317E+02  0.1066317E+02  0.8007251E-01
Ar  634  0.2371237E+02  0.1325834E+02  0.1066941E+02  0.7968338E-01
Ar  635  0.2371237E+02  0.1066941E+02  0.1325834E+02  0.7968338E-01
Ar  636  0.2106058E+02  0.1323285E+02  0.1323285E+02  0.5800426E+00
Ar  637  0.2105448E+02  0.1064728E+02  0.1584697E+02  0.4580644E+00
Ar  638  0.2368558E+02  0.1326153E+02  0.1582918E+02  0.8708663E+00
Ar  639  0.2372239E+02  0.1068520E+02  0.1840551E+02  0.7528475E+00
Ar  640  0.2105448E+02  0.1324374E+02  0.1844343E+02  0.4580589E+00
Ar  641  0.2103240E+02  0.1066687E+02  0.2103240E+02  0.1761135E+00
Ar  642  0.2368095E+02  0.1325923E+02  0.2104257E+02  0.1242260E+00
Ar  643  0.2365683E+02  0.1069207E+02  0.2365683E+02  0.3546297E+00
Ar  644  0.2104257E+02  0.1325923E+02  0.2368095E+02  0.1242260E+00
Ar  645  0.2101459E+02  0.1068952E+02  0.2632200E+02  0.1039392E+00
Ar  646  0.2366369E+02  0.1326406E+02  0.2632108E+02  0.6712902E-01
Ar  647  0.2365567E+02  0.1065174E+02  0.2898748E+02  0.3085314E+00
Ar  648  0.2105624E+02  0.1324506E+02  0.2904952E+02  0.2483187E+00
Ar  649  0.2105624E+02  0.1584565E+02  0.4119326E-01  0.2483157E+00
Ar  650  0.2365567E+02  0.1843897E+02  0.1032295E+00  0.3085368E+00
Ar  651  0.2366368E+02  0.1582664E+02  0.2769632E+01  0.6712533E-01
Ar  652  0.2101459E+02  0.1840119E+02  0.2768714E+01  0.1039358E+00
Ar  653  0.2104257E+02  0.1583148E+02  0.5409758E+01  0.1242203E+00
Ar  654  0.2365683E+02  0.1839864E+02  0.5433885E+01  0.3546334E+00
Ar  655  0.2368095E+02  0.1583148E+02  0.8048145E+01  0.1242366E+00
Ar  656  0.2103240E+02  0.1842384E+02  0.8058310E+01  0.1761320E+00
Ar  657  0.2105448E+02  0.1584697E+02  0.1064728E+02  0.4580644E+00
Ar  658  0.2372239E+02  0.1840551E+02  0.1068520E+02  0.7528475E+00
Ar  659  0.2368558E+02  0.1582918E+02  0.1326153E+02  0.8708663E+00
Ar  660  0.2105448E+02  0.1844343E+02  0.1324374E+02  0.4580589E+00
Ar  661  0.2106058E+02  0.1585786E+02  0.1585786E+02  0.5800374E+00
Ar  662  0.2371237E+02  0.1842130E+02  0.1583237E+02  0.7967212E-01
Ar  663  0.2371237E+02  0.1583237E+02  0.1842130E+02  0.7967212E-01
Ar  664  0.2103509E+02  0.1842754E+02  0.1842754E+02  0.8006273E-01
Ar  665  0.2103774E+02  0.1584267E+02  0.2103774E+02  0.8453561E+00
Ar  666  0.2366434E+02  0.1841769E+02  0.2101372E+02  0.9853801E-01
Ar  667  0.2366412E+02  0.1583156E+02  0.2366412E+02  0.3186880E-01
Ar  668  0.2101372E+02  0.1841769E+02  0.2366434E+02  0.9853801E-01
Ar  669  0.2103540E+02  0.1581937E+02  0.2633509E+02  0.2131846E+00
Ar  670  0.2363303E+02  0.1840120E+02  0.2628661E+02  0.6457135E-01
Ar  671  0.2367099E+02  0.1584115E+02  0.2899779E+02  0.2177190E+00
Ar  672  0.2103173E+02  0.1842200E+02  0.2903398E+02  0.3321893E+00
Ar  673  0.2100307E+02  0.2100307E+02  0.9251583E-01  0.1195181E+01
Ar  674  0.2357140E+02  0.2357140E+02  0.1685897E+00  0.1468079E+00
Ar  675  0.2360931E+02  0.2099003E+02  0.2824463E+01  0.1037990E+00
Ar  676  0.2099003E+02  0.2360931E+02  0.2824463E+01  0.1037990E+00
Ar  677  0.2099970E+02  0.2099970E+02  0.5447049E+01  0.6232355E+00
Ar  678  0.2359388E+02  0.2359388E+02  0.5496825E+01  0.2320987E-02
Ar  679  0.2364366E+02  0.2099970E+02  0.8091010E+01  0.6232079E+00
Ar  680  0.2099970E+02  0.2364366E+02  0.8091010E+01  0.6232079E+00
Ar  681  0.2103240E+02  0.2103240E+02  0.1066687E+02  0.1761135E+00
Ar  682  0.2365683E+02  0.2365683E+02  0.1069207E+02  0.3546297E+00
Ar  683  0.2368095E+02  0.2104257E+02  0.1325923E+02  0.1242260E+00
Ar  684  0.2104257E+02  0.2368095E+02  0.1325923E+02  0.1242260E+00
Ar  685  0.2103774E+02  0.2103774E+02  0.1584267E+02  0.8453561E+00
Ar  686  0.2366412E+02  0.2366412E+02  0.1583156E+02  0.3186880E-01
Ar  687  0.2366434E+02  0.2101372E+02  0.1841769E+02  0.9853801E-01
Ar  688  0.2101372E+02  0.2366434E+02  0.1841769E+02  0.9853801E-01
Ar  689  0.2101842E+02  0.2101842E+02  0.2101842E+02  0.1114003E-01
Ar  690  0.2361935E+02  0.2361935E+02  0.2101008E+02  0.1927694E+00
Ar  691  0.2361935E+02  0.2101008E+02  0.2361935E+02  0.1927694E+00
Ar  692  0.2101008E+02  0.2361935E+02  0.2361935E+02  0.1927694E+00
Ar  693  0.2100121E+02  0.2100121E+02  0.2628721E+02  0.8857731E-02
Ar  694  0.2359444E+02  0.2359444E+02  0.2624390E+02  0.2456452E+00
Ar  695  0.2361584E+02  0.2099587E+02  0.2895324E+02  0.2781898E-03
Ar  696  0.2099587E+02  0.2361584E+02  0.2895324E+02  0.2781898E-03
Ar  697  0.2103450E+02  0.2624727E+02  0.1481406E+00  0.3382529E+00
Ar  698  0.2363591E+02  0.2891060E+02  0.1801059E+00  0.2820832E+00
Ar  699  0.2359116E+02  0.2621495E+02  0.2875757E+01  0.6757054E-01
Ar  700  0.2103450E+02  0.2894257E+02  0.2843441E+01  0.3382591E+00
Ar  701  0.2099003E+02  0.2626625E+02  0.5481403E+01  0.1037950E+00
Ar  702  0.2357140E+02  0.2892212E+02  0.5519309E+01  0.1468074E+00
Ar  703  0.2360931E+02  0.2626625E+02  0.8100676E+01  0.1038026E+00
Ar  704  0.2100307E+02  0.2899819E+02  0.8087639E+01  0.1195181E+01
Ar  705  0.2101459E+02  0.2632200E+02  0.1068952E+02  0.1039392E+00
Ar  706  0.2365567E+02  0.2898748E+02  0.1065174E+02  0.3085314E+00
Ar  707  0.2366369E+02  0.2632108E+02  0.1326406E+02  0.6712902E-01
Ar  708  0.2105624E+02  0.2904952E+02  0.1324506E+02  0.2483187E+00
Ar  709  0.2103540E+02  0.2633509E+02  0.1581937E+02  0.2131846E+00
Ar  710  0.2367099E+02  0.2899779E+02  0.1584115E+02  0.2177190E+00
Ar  711  0.2363303E+02  0.2628661E+02  0.1840120E+02  0.6457135E-01
Ar  712  0.2103173E+02  0.2903398E+02  0.1842200E+02  0.3321893E+00
Ar  713  0.2100121E+02  0.2628721E+02  0.2100121E+02  0.8857731E-02
Ar  714  0.2361584E+02  0.2895324E+02  0.2099587E+02  0.2781898E-03
Ar  715  0.2359444E+02  0.2624390E+02  0.2359444E+02  0.2456452E+00
Ar  716  0.2099587E+02  0.2895324E+02  0.2361584E+02  0.2781898E-03
Ar  717  0.2099859E+02  0.2622727E+02  0.2622727E+02  0.4325776E+00
Ar  718  0.2359246E+02  0.2890450E+02  0.2619045E+02  0.1198282E+00
Ar  719  0.2359246E+02  0.2619045E+02  0.2890450E+02  0.1198282E+00
Ar  720  0.2107804E+02  0.2895183E+02  0.2895183E+02  0.4831129E-01
Ar  721  0.2619590E+02  0.2321032E+00  0.2321032E+00  0.7436794E-01
Ar  722  0.2885861E+02  0.2894809E+01  0.2321032E+00  0.7437044E-01
Ar  723  0.2885861E+02  0.2321032E+00  0.2894809E+01  0.7437044E-01
Ar  724  0.2619981E+02  0.2890901E+01  0.2890901E+01  0.3705165E-01
Ar  725  0.2619045E+02  0.1862095E+00  0.5498248E+01  0.1198252E+00
Ar  726  0.2890450E+02  0.2900262E+01  0.5498248E+01  0.1198249E+00
Ar  727  0.2895183E+02  0.1388849E+00  0.8012673E+01  0.4831077E-01
Ar  728  0.2622727E+02  0.2863439E+01  0.8092124E+01  0.4325587E+00
Ar  729  0.2628324E+02  0.1178696E+00  0.1063606E+02  0.8194511E+00
Ar  730  0.2897284E+02  0.2807472E+01  0.1063606E+02  0.8194499E+00
Ar  731  0.2898012E+02  0.1105904E+00  0.1322102E+02  0.2008648E+00
Ar  732  0.2630743E+02  0.2783283E+01  0.1323824E+02  0.1655520E+00
Ar  733  0.2628095E+02  0.1116283E+00  0.1585560E+02  0.3766753E+00
Ar  734  0.2897908E+02  0.2809764E+01  0.1585560E+02  0.3766774E+00
Ar  735  0.2897671E+02  0.1139995E+00  0.1849607E+02  0.2029291E+00
Ar  736  0.2627656E+02  0.2814153E+01  0.1841552E+02  0.8303357E-01
Ar  737  0.2624727E+02  0.1481406E+00  0.2103450E+02  0.3382529E+00
Ar  738  0.2894257E+02  0.2843441E+01  0.2103450E+02  0.3382591E+00
Ar  739  0.2891060E+02  0.1801059E+00  0.2363591E+02  0.2820832E+00
Ar  740  0.2621495E+02  0.2875757E+01  0.2359116E+02  0.6757054E-01
Ar  741  0.2617212E+02  0.2304047E+00  0.2617212E+02  0.5348525E+00
Ar  742  0.2886031E+02  0.2918586E+01  0.2617212E+02  0.5348376E+00
Ar  743  0.2881273E+02  0.2779802E+00  0.2881273E+02  0.2307173E+00
Ar  744  0.2617212E+02  0.2918586E+01  0.2886031E+02  0.5348376E+00
Ar  745  0.2619045E+02  0.5498248E+01  0.1862095E+00  0.1198252E+00
Ar  746  0.2895183E+02  0.8012673E+01  0.1388849E+00  0.4831077E-01
Ar  747  0.2890450E+02  0.5498248E+01  0.2900262E+01  0.1198249E+00
Ar  748  0.2622727E+02  0.8092124E+01  0.2863439E+01  0.4325587E+00
Ar  749  0.2624390E+02  0.5496271E+01  0.5496271E+01  0.2456465E+00
Ar  750  0.2895324E+02  0.8094838E+01  0.5474873E+01  0.2782979E-03
Ar  751  0.2895324E+02  0.5474873E+01  0.8094838E+01  0.2782979E-03
Ar  752  0.2628721E+02  0.8089505E+01  0.8089505E+01  0.8858439E-02
Ar  753  0.2628661E+02  0.5457680E+01  0.1068951E+02  0.6456972E-01
Ar  754  0.2903398E+02  0.8058985E+01  0.1066871E+02  0.3321918E+00
Ar  755  0.2899779E+02  0.5419719E+01  0.1324956E+02  0.2177152E+00
Ar  756  0.2633509E+02  0.8055307E+01  0.1327134E+02  0.2131797E+00
Ar  757  0.2632108E+02  0.5427025E+01  0.1582665E+02  0.6713198E-01
Ar  758  0.2904952E+02  0.8034470E+01  0.1584565E+02  0.2483146E+00
Ar  759  0.2898748E+02  0.5435041E+01  0.1843897E+02  0.3085267E+00
Ar  760  0.2632200E+02  0.8076117E+01  0.1840119E+02  0.1039356E+00
Ar  761  0.2626625E+02  0.5481403E+01  0.2099003E+02  0.1037950E+00
Ar  762  0.2899819E+02  0.8087639E+01  0.2100307E+02  0.1195181E+01
Ar  763  0.2892212E+02  0.5519309E+01  0.2357140E+02  0.1468074E+00
Ar  764  0.2626625E+02  0.8100676E+01  0.2360931E+02  0.1038026E+00
Ar  765  0.2621495E+02  0.5499555E+01  0.2621495E+02  0.6757824E-01
Ar  766  0.2894257E+02  0.8056212E+01  0.2624727E+02  0.3382560E+00
Ar  767  0.2891060E+02  0.5454805E+01  0.2891060E+02  0.2820996E+00
Ar  768  0.2624727E+02  0.8056212E+01  0.2894257E+02  0.3382560E+00
Ar  769  0.2628324E+02  0.1063606E+02  0.1178696E+00  0.8194511E+00
Ar  770  0.2898012E+02  0.1322102E+02  0.1105904E+00  0.2008648E+00
Ar  771  0.2897284E+02  0.1063606E+02  0.2807472E+01  0.8194499E+00
Ar  772  0.2630743E+02  0.1323824E+02  0.2783283E+01  0.1655520E+00
Ar  773  0.2628661E+02  0.1068951E+02  0.5457680E+01  0.6456972E-01
Ar  774  0.2899779E+02  0.1324956E+02  0.5419719E+01  0.2177152E+00
Ar  775  0.2903398E+02  0.1066871E+02  0.8058985E+01  0.3321918E+00
Ar  776  0.2633509E+02  0.1327134E+02  0.8055307E+01  0.2131797E+00
Ar  777  0.2636702E+02  0.1068566E+02  0.1068566E+02  0.5657793E-01
Ar  778  0.2907633E+02  0.1325868E+02  0.1065043E+02  0.2261908E+00
Ar  779  0.2907633E+02  0.1065043E+02  0.1325868E+02  0.2261908E+00
Ar  780  0.2639781E+02  0.1326768E+02  0.1326768E+02  0.4059283E+00
Ar  781  0.2637725E+02  0.1068051E+02  0.1582716E+02  0.2739163E+00
Ar  782  0.2909297E+02  0.1325596E+02  0.1583475E+02  0.9391372E+00
Ar  783  0.2907464E+02  0.1065974E+02  0.1843097E+02  0.1314810E+00
Ar  784  0.2637725E+02  0.1326355E+02  0.1841020E+02  0.2739193E+00
Ar  785  0.2632200E+02  0.1068952E+02  0.2101459E+02  0.1039392E+00
Ar  786  0.2904952E+02  0.1324506E+02  0.2105624E+02  0.2483187E+00
Ar  787  0.2898748E+02  0.1065174E+02  0.2365567E+02  0.3085314E+00
Ar  788  0.2632108E+02  0.1326406E+02  0.2366369E+02  0.6712902E-01
Ar  789  0.2627656E+02  0.1067519E+02  0.2627656E+02  0.8303725E-01
Ar  790  0.2897908E+02  0.1323511E+02  0.2628095E+02  0.3766877E+00
Ar  791  0.2897671E+02  0.1059464E+02  0.2897671E+02  0.2029189E+00
Ar  792  0.2628095E+02  0.1323511E+02  0.2897908E+02  0.3766877E+00
Ar  793  0.2628095E+02  0.1585560E+02  0.1116283E+00  0.3766753E+00
Ar  794  0.2897671E+02  0.1849607E+02  0.1139995E+00  0.2029291E+00
Ar  795  0.2897908E+02  0.1585560E+02  0.2809764E+01  0.3766774E+00
Ar  796  0.2627656E+02  0.1841552E+02  0.2814153E+01  0.8303357E-01
Ar  797  0.2632108E+02  0.1582665E+02  0.5427025E+01  0.6713198E-01
Ar  798  0.2898748E+02  0.1843897E+02  0.5435041E+01  0.3085267E+00
Ar  799  0.2904952E+02  0.1584565E+02  0.8034470E+01  0.2483146E+00
Ar  800  0.2632200E+02  0.1840119E+02  0.8076117E+01  0.1039356E+00
Ar  801  0.2637725E+02  0.1582716E+02  0.1068051E+02  0.2739163E+00
Ar  802  0.2907464E+02  0.1843097E+02  0.1065974E+02  0.1314810E+00
Ar  803  0.2909297E+02  0.1583475E+02  0.1325596E+02  0.9391372E+00
Ar  804  0.2637725E+02  0.1841020E+02  0.1326355E+02  0.2739193E+00
Ar  805  0.2639781E+02  0.1582303E+02  0.1582303E+02  0.4059414E+00
Ar  806  0.2907633E+02  0.1844028E+02  0.1583203E+02  0.2261968E+00
Ar  807  0.2907633E+02  0.1583203E+02  0.1844028E+02  0.2261968E+00
Ar  808  0.2636702E+02  0.1840505E+02  0.1840505E+02  0.5657280E-01
Ar  809  0.2633509E+02  0.1581937E+02  0.2103540E+02  0.2131846E+00
Ar  810  0.2903398E+02  0.1842200E+02  0.2103173E+02  0.3321893E+00
Ar  811  0.2899779E+02  0.1584115E+02  0.2367099E+02  0.2177190E+00
Ar  812  0.2628661E+02  0.1840120E+02  0.2363303E+02  0.6457135E-01
Ar  813  0.2630743E+02  0.1585247E+02  0.2630743E+02  0.1655442E+00
Ar  814  0.2897284E+02  0.1845465E+02  0.2628324E+02  0.8194373E+00
Ar  815  0.2898012E+02  0.1586969E+02  0.2898012E+02  0.2008602E+00
Ar  816  0.2628324E+02  0.1845465E+02  0.2897284E+02  0.8194373E+00
Ar  817  0.2624727E+02  0.2103450E+02  0.1481406E+00  0.3382529E+00
Ar  818  0.2891060E+02  0.2363591E+02  0.1801059E+00  0.2820832E+00
Ar  819  0.2894257E+02  0.2103450E+02  0.2843441E+01  0.3382591E+00
Ar  820  0.2621495E+02  0.2359116E+02  0.2875757E+01  0.6757054E-01
Ar  821  0.2626625E+02  0.2099003E+02  0.5481403E+01  0.1037950E+00
Ar  822  0.2892212E+02  0.2357140E+02  0.5519309E+01  0.1468074E+00
Ar  823  0.2899819E+02  0.2100307E+02  0.8087639E+01  0.1195181E+01
Ar  824  0.2626625E+02  0.2360931E+02  0.8100676E+01  0.1038026E+00
Ar  825  0.2632200E+02  0.2101459E+02  0.1068952E+02  0.1039392E+00
Ar  826  0.2898748E+02  0.2365567E+02  0.1065174E+02  0.3085314E+00
Ar  827  0.2904952E+02  0.2105624E+02  0.1324506E+02  0.2483187E+00
Ar  828  0.2632108E+02  0.2366369E+02  0.1326406E+02  0.6712902E-01
Ar  829  0.2633509E+02  0.2103540E+02  0.1581937E+02  0.2131846E+00
Ar  830  0.2899779E+02  0.2367099E+02  0.1584115E+02  0.2177190E+00
Ar  831  0.2903398E+02  0.2103173E+02  0.1842200E+02  0.3321893E+00
Ar  832  0.2628661E+02  0.2363303E+02  0.1840120E+02  0.6457135E-01
Ar  833  0.2628721E+02  0.2100121E+02  0.2100121E+02  0.8857731E-02
Ar  834  0.2895324E+02  0.2361584E+02  0.2099587E+02  0.2781898E-03
Ar  835  0.2895324E+02  0.2099587E+02  0.2361584E+02  0.2781898E-03
Ar  836  0.2624390E+02  0.2359444E+02  0.2359444E+02  0.2456452E+00
Ar  837  0.2622727E+02  0.2099859E+02  0.2622727E+02  0.4325776E+00
Ar  838  0.2890450E+02  0.2359246E+02  0.2619045E+02  0.1198282E+00
Ar  839  0.2895183E+02  0.2107804E+02  0.2895183E+02  0.4831129E-01
Ar  840  0.2619045E+02  0.2359246E+02  0.2890450E+02  0.1198282E+00
Ar  841  0.2617212E+02  0.2617212E+02  0.2304047E+00  0.5348525E+00
Ar  842  0.2881273E+02  0.2881273E+02  0.2779802E+00  0.2307173E+00
Ar  843  0.2886031E+02  0.2617212E+02  0.2918586E+01  0.5348376E+00
Ar  844  0.2617212E+02  0.2886031E+02  0.2918586E+01  0.5348376E+00
Ar  845  0.2621495E+02  0.2621495E+02  0.5499555E+01  0.6757824E-01
Ar  846  0.2891060E+02  0.2891060E+02  0.5454805E+01  0.2820996E+00
Ar  847  0.2894257E+02  0.2624727E+02  0.8056212E+01  0.3382560E+00
Ar  848  0.2624727E+02  0.2894257E+02  0.8056212E+01  0.3382560E+00
Ar  849  0.2627656E+02  0.2627656E+02  0.1067519E+02  0.8303725E-01
Ar  850  0.2897671E+02  0.2897671E+02  0.1059464E+02  0.2029189E+00
Ar  851  0.2897908E+02  0.2628095E+02  0.1323511E+02  0.3766877E+00
Ar  852  0.2628095E+02  0.2897908E+02  0.1323511E+02  0.3766877E+00
Ar  853  0.2630743E+02  0.2630743E+02  0.1585247E+02  0.1655442E+00
Ar  854  0.2898012E+02  0.2898012E+02  0.1586969E+02  0.2008602E+00
Ar  855  0.2897284E+02  0.2628324E+02  0.1845465E+02  0.8194373E+00
Ar  856  0.2628324E+02  0.2897284E+02  0.1845465E+02  0.8194373E+00
Ar  857  0.2622727E+02  0.2622727E+02  0.2099859E+02  0.4325776E+00
Ar  858  0.2895183E+02  0.2895183E+02  0.2107804E+02  0.4831129E-01
Ar  859  0.2890450E+02  0.2619045E+02  0.2359246E+02  0.1198282E+00
Ar  860  0.2619045E+02  0.2890450E+02  0.2359246E+02  0.1198282E+00
Ar  861  0.2619981E+02  0.2619981E+02  0.2619981E+02  0.3705174E-01
Ar  862  0.2885861E+02  0.2885861E+02  0.2619590E+02  0.7437478E-01
Ar  863  0.2885861E+02  0.2619590E+02  0.2885861E+02  0.7437478E-01
Ar  864  0.2619590E+02  0.2885861E+02  0.2885861E+02  0.7437478E-01
