         864
Lattice="  0.1000000E+03  0.0000000E+00  0.0000000E+00  0.0000000E+00  0.1000000E+03  0.0000000E+00  0.0000000E+00  0.0000000E+00  0.1000000E+03" Properties=species:S:1:id:I:1:pos:R:3:tempK:R:1
Ar    1  0.1445398E+00  0.1445398E+00  0.1445398E+00  0.1803300E+01
Ar    2  0.2796693E+01  0.2796693E+01  0.1105630E+00  0.3206005E+01
Ar    3  0.2796693E+01  0.1105630E+00  0.2796693E+01  0.3206005E+01
Ar    4  0.1105630E+00  0.2796693E+01  0.2796693E+01  0.3206005E+01
Ar    5  0.9685509E-01  0.9685509E-01  0.5386649E+01  0.3019204E+01
Ar    6  0.2780889E+01  0.2780889E+01  0.5403525E+01  0.3321224E+01
Ar    7  0.2770386E+01  0.8549125E-01  0.8010804E+01  0.2386524E+01
Ar    8  0.8549125E-01  0.2770386E+01  0.8010804E+01  0.2386524E+01
Ar    9  0.9248032E-01  0.9248032E-01  0.1063903E+02  0.1258372E+01
Ar   10  0.2777783E+01  0.2777783E+01  0.1062572E+02  0.1641096E+01
Ar   11  0.2777489E+01  0.1002487E+00  0.1324236E+02  0.9467425E+00
Ar   12  0.1002487E+00  0.2777489E+01  0.1324236E+02  0.9467425E+00
Ar   13  0.1078188E+00  0.1078188E+00  0.1584744E+02  0.5643318E+00
Ar   14  0.2782307E+01  0.2782307E+01  0.1584946E+02  0.1033553E+01
Ar   15  0.2770229E+01  0.8904476E-01  0.1845856E+02  0.1589927E+01
Ar   16  0.8904476E-01  0.2770229E+01  0.1845856E+02  0.1589927E+01
Ar   17  0.8341942E-01  0.8341942E-01  0.2106895E+02  0.1997893E+01
Ar   18  0.2779567E+01  0.2779567E+01  0.2108239E+02  0.2190380E+01
Ar   19  0.2783096E+01  0.1013373E+00  0.2369248E+02  0.2325421E+01
Ar   20  0.1013373E+00  0.2783096E+01  0.2369248E+02  0.2325421E+01
Ar   21  0.1231064E+00  0.1231064E+00  0.2631483E+02  0.2136869E+01
Ar   22  0.2791961E+01  0.2791961E+01  0.2629875E+02  0.4498220E+01
Ar   23  0.2775882E+01  0.1231062E+00  0.2896760E+02  0.2136888E+01
Ar   24  0.1231062E+00  0.2775882E+01  0.2896760E+02  0.2136888E+01
Ar   25  0.9685509E-01  0.5386649E+01  0.9685509E-01  0.3019204E+01
Ar   26  0.2770386E+01  0.8010804E+01  0.8549125E-01  0.2386524E+01
Ar   27  0.2780889E+01  0.5403525E+01  0.2780889E+01  0.3321224E+01
Ar   28  0.8549125E-01  0.8010804E+01  0.2770386E+01  0.2386524E+01
Ar   29  0.9086836E-01  0.5398989E+01  0.5398989E+01  0.2770443E+01
Ar   30  0.2767272E+01  0.8007171E+01  0.5398117E+01  0.2587580E+01
Ar   31  0.2767272E+01  0.5398117E+01  0.8007171E+01  0.2587580E+01
Ar   32  0.6836183E-01  0.8025293E+01  0.8025293E+01  0.1416652E+01
Ar   33  0.8168658E-01  0.5383295E+01  0.1063650E+02  0.1300282E+01
Ar   34  0.2769791E+01  0.8007820E+01  0.1063459E+02  0.7260253E+00
Ar   35  0.2770039E+01  0.5395917E+01  0.1324281E+02  0.1475562E+01
Ar   36  0.8089627E-01  0.8019796E+01  0.1324627E+02  0.3314878E+00
Ar   37  0.9248244E-01  0.5387011E+01  0.1584691E+02  0.6397488E+00
Ar   38  0.2772101E+01  0.8007487E+01  0.1584492E+02  0.3966294E+00
Ar   39  0.2767819E+01  0.5396026E+01  0.1846006E+02  0.2203342E+01
Ar   40  0.7054839E-01  0.8021559E+01  0.1844518E+02  0.9320755E+00
Ar   41  0.7994224E-01  0.5392451E+01  0.2106938E+02  0.2203912E+01
Ar   42  0.2768310E+01  0.8007260E+01  0.2108345E+02  0.1063370E+01
Ar   43  0.2769772E+01  0.5398461E+01  0.2369225E+02  0.4492643E+01
Ar   44  0.7994238E-01  0.8021330E+01  0.2369826E+02  0.2203912E+01
Ar   45  0.1013376E+00  0.5398229E+01  0.2630761E+02  0.2325395E+01
Ar   46  0.2779567E+01  0.8008316E+01  0.2631114E+02  0.2190380E+01
Ar   47  0.2783096E+01  0.5398229E+01  0.2898937E+02  0.2325430E+01
Ar   48  0.8341962E-01  0.8021758E+01  0.2900729E+02  0.1997935E+01
Ar   49  0.9248032E-01  0.1063903E+02  0.9248032E-01  0.1258372E+01
Ar   50  0.2777489E+01  0.1324236E+02  0.1002487E+00  0.9467425E+00
Ar   51  0.2777783E+01  0.1062572E+02  0.2777783E+01  0.1641096E+01
Ar   52  0.1002487E+00  0.1324236E+02  0.2777489E+01  0.9467425E+00
Ar   53  0.8168658E-01  0.1063650E+02  0.5383295E+01  0.1300282E+01
Ar   54  0.2770039E+01  0.1324281E+02  0.5395917E+01  0.1475562E+01
Ar   55  0.2769791E+01  0.1063459E+02  0.8007820E+01  0.7260253E+00
Ar   56  0.8089627E-01  0.1324627E+02  0.8019796E+01  0.3314878E+00
Ar   57  0.7302498E-01  0.1064921E+02  0.1064921E+02  0.7913224E+00
Ar   58  0.2774699E+01  0.1324699E+02  0.1063590E+02  0.2331523E+00
Ar   59  0.2774699E+01  0.1063590E+02  0.1324699E+02  0.2331523E+00
Ar   60  0.9479792E-01  0.1324993E+02  0.1324993E+02  0.3803410E+00
Ar   61  0.8354311E-01  0.1064788E+02  0.1584131E+02  0.4200698E+00
Ar   62  0.2777681E+01  0.1324711E+02  0.1584360E+02  0.8813155E-01
Ar   63  0.2771870E+01  0.1063568E+02  0.1845503E+02  0.4669282E+00
Ar   64  0.8354304E-01  0.1324940E+02  0.1844283E+02  0.4200750E+00
Ar   65  0.7054842E-01  0.1064553E+02  0.2106915E+02  0.9320568E+00
Ar   66  0.2772101E+01  0.1324579E+02  0.2108322E+02  0.3966192E+00
Ar   67  0.2767819E+01  0.1063065E+02  0.2369468E+02  0.2203350E+01
Ar   68  0.9248250E-01  0.1324380E+02  0.2370370E+02  0.6397258E+00
Ar   69  0.8904505E-01  0.1063215E+02  0.2632048E+02  0.1589907E+01
Ar   70  0.2782307E+01  0.1324125E+02  0.2630840E+02  0.1033536E+01
Ar   71  0.2770229E+01  0.1063215E+02  0.2900167E+02  0.1589937E+01
Ar   72  0.1078192E+00  0.1324327E+02  0.2898289E+02  0.5643281E+00
Ar   73  0.1078188E+00  0.1584744E+02  0.1078188E+00  0.5643318E+00
Ar   74  0.2770229E+01  0.1845856E+02  0.8904476E-01  0.1589927E+01
Ar   75  0.2782307E+01  0.1584946E+02  0.2782307E+01  0.1033553E+01
Ar   76  0.8904476E-01  0.1845856E+02  0.2770229E+01  0.1589927E+01
Ar   77  0.9248244E-01  0.1584691E+02  0.5387011E+01  0.6397488E+00
Ar   78  0.2767819E+01  0.1846006E+02  0.5396026E+01  0.2203342E+01
Ar   79  0.2772101E+01  0.1584492E+02  0.8007487E+01  0.3966294E+00
Ar   80  0.7054839E-01  0.1844518E+02  0.8021559E+01  0.9320755E+00
Ar   81  0.8354311E-01  0.1584131E+02  0.1064788E+02  0.4200698E+00
Ar   82  0.2771870E+01  0.1845503E+02  0.1063568E+02  0.4669282E+00
Ar   83  0.2777681E+01  0.1584360E+02  0.1324711E+02  0.8813155E-01
Ar   84  0.8354304E-01  0.1844283E+02  0.1324940E+02  0.4200750E+00
Ar   85  0.9479777E-01  0.1584078E+02  0.1584078E+02  0.3803378E+00
Ar   86  0.2774699E+01  0.1845481E+02  0.1584372E+02  0.2331512E+00
Ar   87  0.2774699E+01  0.1584372E+02  0.1845481E+02  0.2331512E+00
Ar   88  0.7302471E-01  0.1844150E+02  0.1844150E+02  0.7913424E+00
Ar   89  0.8089605E-01  0.1584444E+02  0.2107091E+02  0.3314920E+00
Ar   90  0.2769791E+01  0.1845612E+02  0.2108289E+02  0.7260149E+00
Ar   91  0.2770040E+01  0.1584790E+02  0.2369479E+02  0.1475573E+01
Ar   92  0.8168642E-01  0.1845421E+02  0.2370741E+02  0.1300285E+01
Ar   93  0.1002488E+00  0.1584835E+02  0.2631322E+02  0.9467439E+00
Ar   94  0.2777783E+01  0.1846499E+02  0.2631293E+02  0.1641071E+01
Ar   95  0.2777489E+01  0.1584835E+02  0.2899046E+02  0.9467656E+00
Ar   96  0.9248009E-01  0.1845168E+02  0.2899823E+02  0.1258383E+01
Ar   97  0.8341942E-01  0.2106895E+02  0.8341942E-01  0.1997893E+01
Ar   98  0.2783096E+01  0.2369248E+02  0.1013373E+00  0.2325421E+01
Ar   99  0.2779567E+01  0.2108239E+02  0.2779567E+01  0.2190380E+01
Ar  100  0.1013373E+00  0.2369248E+02  0.2783096E+01  0.2325421E+01
Ar  101  0.7994224E-01  0.2106938E+02  0.5392451E+01  0.2203912E+01
Ar  102  0.2769772E+01  0.2369225E+02  0.5398461E+01  0.4492643E+01
Ar  103  0.2768310E+01  0.2108345E+02  0.8007260E+01  0.1063370E+01
Ar  104  0.7994238E-01  0.2369826E+02  0.8021330E+01  0.2203912E+01
Ar  105  0.7054842E-01  0.2106915E+02  0.1064553E+02  0.9320568E+00
Ar  106  0.2767819E+01  0.2369468E+02  0.1063065E+02  0.2203350E+01
Ar  107  0.2772101E+01  0.2108322E+02  0.1324579E+02  0.3966192E+00
Ar  108  0.9248250E-01  0.2370370E+02  0.1324380E+02  0.6397258E+00
Ar  109  0.8089605E-01  0.2107091E+02  0.1584444E+02  0.3314920E+00
Ar  110  0.2770040E+01  0.2369479E+02  0.1584790E+02  0.1475573E+01
Ar  111  0.2769791E+01  0.2108289E+02  0.1845612E+02  0.7260149E+00
Ar  112  0.8168642E-01  0.2370741E+02  0.1845421E+02  0.1300285E+01
Ar  113  0.6836157E-01  0.2106542E+02  0.2106542E+02  0.1416631E+01
Ar  114  0.2767272E+01  0.2369259E+02  0.2108354E+02  0.2587594E+01
Ar  115  0.2767272E+01  0.2108354E+02  0.2369259E+02  0.2587594E+01
Ar  116  0.9086838E-01  0.2369172E+02  0.2369172E+02  0.2770422E+01
Ar  117  0.8549134E-01  0.2107991E+02  0.2632032E+02  0.2386495E+01
Ar  118  0.2780889E+01  0.2368719E+02  0.2630982E+02  0.3321264E+01
Ar  119  0.2770386E+01  0.2107991E+02  0.2900522E+02  0.2386535E+01
Ar  120  0.9685523E-01  0.2370406E+02  0.2899386E+02  0.3019209E+01
Ar  121  0.1231064E+00  0.2631483E+02  0.1231064E+00  0.2136869E+01
Ar  122  0.2775882E+01  0.2896760E+02  0.1231062E+00  0.2136888E+01
Ar  123  0.2791961E+01  0.2629875E+02  0.2791961E+01  0.4498220E+01
Ar  124  0.1231062E+00  0.2896760E+02  0.2775882E+01  0.2136888E+01
Ar  125  0.1013376E+00  0.2630761E+02  0.5398229E+01  0.2325395E+01
Ar  126  0.2783096E+01  0.2898937E+02  0.5398229E+01  0.2325430E+01
Ar  127  0.2779567E+01  0.2631114E+02  0.8008316E+01  0.2190380E+01
Ar  128  0.8341962E-01  0.2900729E+02  0.8021758E+01  0.1997935E+01
Ar  129  0.8904505E-01  0.2632048E+02  0.1063215E+02  0.1589907E+01
Ar  130  0.2770229E+01  0.2900167E+02  0.1063215E+02  0.1589937E+01
Ar  131  0.2782307E+01  0.2630840E+02  0.1324125E+02  0.1033536E+01
Ar  132  0.1078192E+00  0.2898289E+02  0.1324327E+02  0.5643281E+00
Ar  133  0.1002488E+00  0.2631322E+02  0.1584835E+02  0.9467439E+00
Ar  134  0.2777489E+01  0.2899046E+02  0.1584835E+02  0.9467656E+00
Ar  135  0.2777783E+01  0.2631293E+02  0.1846499E+02  0.1641071E+01
Ar  136  0.9248009E-01  0.2899823E+02  0.1845168E+02  0.1258383E+01
Ar  137  0.8549134E-01  0.2632032E+02  0.2107991E+02  0.2386495E+01
Ar  138  0.2770386E+01  0.2900522E+02  0.2107991E+02  0.2386535E+01
Ar  139  0.2780889E+01  0.2630982E+02  0.2368719E+02  0.3321264E+01
Ar  140  0.9685523E-01  0.2899386E+02  0.2370406E+02  0.3019209E+01
Ar  141  0.1105633E+00  0.2629402E+02  0.2629402E+02  0.3205939E+01
Ar  142  0.2796693E+01  0.2898015E+02  0.2629402E+02  0.3205981E+01
Ar  143  0.2796693E+01  0.2629402E+02  0.2898015E+02  0.3205981E+01
Ar  144  0.1445397E+00  0.2894617E+02  0.2894617E+02  0.1803361E+01
Ar  145  0.5386649E+01  0.9685509E-01  0.9685509E-01  0.3019204E+01
Ar  146  0.8010804E+01  0.2770386E+01  0.8549125E-01  0.2386524E+01
Ar  147  0.8010804E+01  0.8549125E-01  0.2770386E+01  0.2386524E+01
Ar  148  0.5403525E+01  0.2780889E+01  0.2780889E+01  0.3321224E+01
Ar  149  0.5398989E+01  0.9086836E-01  0.5398989E+01  0.2770443E+01
Ar  150  0.8007171E+01  0.2767272E+01  0.5398117E+01  0.2587580E+01
Ar  151  0.8025293E+01  0.6836183E-01  0.8025293E+01  0.1416652E+01
Ar  152  0.5398117E+01  0.2767272E+01  0.8007171E+01  0.2587580E+01
Ar  153  0.5383295E+01  0.8168658E-01  0.1063650E+02  0.1300282E+01
Ar  154  0.8007820E+01  0.2769791E+01  0.1063459E+02  0.7260253E+00
Ar  155  0.8019796E+01  0.8089627E-01  0.1324627E+02  0.3314878E+00
Ar  156  0.5395917E+01  0.2770039E+01  0.1324281E+02  0.1475562E+01
Ar  157  0.5387011E+01  0.9248244E-01  0.1584691E+02  0.6397488E+00
Ar  158  0.8007487E+01  0.2772101E+01  0.1584492E+02  0.3966294E+00
Ar  159  0.8021559E+01  0.7054839E-01  0.1844518E+02  0.9320755E+00
Ar  160  0.5396026E+01  0.2767819E+01  0.1846006E+02  0.2203342E+01
Ar  161  0.5392451E+01  0.7994224E-01  0.2106938E+02  0.2203912E+01
Ar  162  0.8007260E+01  0.2768310E+01  0.2108345E+02  0.1063370E+01
Ar  163  0.8021330E+01  0.7994238E-01  0.2369826E+02  0.2203912E+01
Ar  164  0.5398461E+01  0.2769772E+01  0.2369225E+02  0.4492643E+01
Ar  165  0.5398229E+01  0.1013376E+00  0.2630761E+02  0.2325395E+01
Ar  166  0.8008316E+01  0.2779567E+01  0.2631114E+02  0.2190380E+01
Ar  167  0.8021758E+01  0.8341962E-01  0.2900729E+02  0.1997935E+01
Ar  168  0.5398229E+01  0.2783096E+01  0.2898937E+02  0.2325430E+01
Ar  169  0.5398989E+01  0.5398989E+01  0.9086836E-01  0.2770443E+01
Ar  170  0.8025293E+01  0.8025293E+01  0.6836183E-01  0.1416652E+01
Ar  171  0.8007171E+01  0.5398117E+01  0.2767272E+01  0.2587580E+01
Ar  172  0.5398117E+01  0.8007171E+01  0.2767272E+01  0.2587580E+01
Ar  173  0.5395905E+01  0.5395905E+01  0.5395905E+01  0.5352007E+01
Ar  174  0.8004707E+01  0.8004707E+01  0.5394790E+01  0.1779882E+01
Ar  175  0.8004707E+01  0.5394790E+01  0.8004707E+01  0.1779882E+01
Ar  176  0.5394790E+01  0.8004707E+01  0.8004707E+01  0.1779882E+01
Ar  177  0.5393697E+01  0.5393697E+01  0.1063178E+02  0.2963056E+01
Ar  178  0.8007558E+01  0.8007558E+01  0.1063728E+02  0.2752390E+00
Ar  179  0.8005362E+01  0.5395281E+01  0.1324707E+02  0.1045173E+01
Ar  180  0.5395281E+01  0.8005362E+01  0.1324707E+02  0.1045173E+01
Ar  181  0.5393713E+01  0.5393713E+01  0.1584560E+02  0.2250717E+01
Ar  182  0.8007941E+01  0.8007941E+01  0.1584180E+02  0.1552287E+00
Ar  183  0.8005321E+01  0.5394937E+01  0.1845631E+02  0.1434199E+01
Ar  184  0.5394937E+01  0.8005321E+01  0.1845631E+02  0.1434199E+01
Ar  185  0.5394632E+01  0.5394632E+01  0.2108712E+02  0.3402085E+01
Ar  186  0.8006296E+01  0.8006296E+01  0.2108441E+02  0.5348414E+00
Ar  187  0.8003589E+01  0.5394632E+01  0.2369608E+02  0.3402096E+01
Ar  188  0.5394632E+01  0.8003589E+01  0.2369608E+02  0.3402096E+01
Ar  189  0.5398461E+01  0.5398461E+01  0.2632094E+02  0.4492590E+01
Ar  190  0.8007260E+01  0.8007260E+01  0.2632240E+02  0.1063377E+01
Ar  191  0.8021330E+01  0.5392451E+01  0.2901077E+02  0.2203945E+01
Ar  192  0.5392451E+01  0.8021330E+01  0.2901077E+02  0.2203945E+01
Ar  193  0.5383295E+01  0.1063650E+02  0.8168658E-01  0.1300282E+01
Ar  194  0.8019796E+01  0.1324627E+02  0.8089627E-01  0.3314878E+00
Ar  195  0.8007820E+01  0.1063459E+02  0.2769791E+01  0.7260253E+00
Ar  196  0.5395917E+01  0.1324281E+02  0.2770039E+01  0.1475562E+01
Ar  197  0.5393697E+01  0.1063178E+02  0.5393697E+01  0.2963056E+01
Ar  198  0.8005362E+01  0.1324707E+02  0.5395281E+01  0.1045173E+01
Ar  199  0.8007558E+01  0.1063728E+02  0.8007558E+01  0.2752390E+00
Ar  200  0.5395281E+01  0.1324707E+02  0.8005362E+01  0.1045173E+01
Ar  201  0.5395697E+01  0.1063592E+02  0.1063592E+02  0.1260484E+01
Ar  202  0.8009916E+01  0.1324996E+02  0.1063988E+02  0.8485530E-01
Ar  203  0.8009916E+01  0.1063988E+02  0.1324996E+02  0.8485530E-01
Ar  204  0.5396808E+01  0.1324830E+02  0.1324830E+02  0.6265460E+00
Ar  205  0.5396207E+01  0.1063648E+02  0.1584265E+02  0.9309573E+00
Ar  206  0.8010593E+01  0.1325036E+02  0.1584035E+02  0.1780559E-01
Ar  207  0.8009389E+01  0.1063923E+02  0.1845148E+02  0.1350301E+00
Ar  208  0.5396207E+01  0.1324806E+02  0.1845423E+02  0.9309605E+00
Ar  209  0.5394936E+01  0.1063440E+02  0.2108539E+02  0.1434189E+01
Ar  210  0.8007941E+01  0.1324891E+02  0.2108277E+02  0.1552234E+00
Ar  211  0.8005321E+01  0.1063440E+02  0.2369577E+02  0.1434191E+01
Ar  212  0.5393713E+01  0.1324511E+02  0.2369700E+02  0.2250728E+01
Ar  213  0.5396026E+01  0.1063065E+02  0.2632289E+02  0.2203305E+01
Ar  214  0.8007487E+01  0.1324579E+02  0.2631861E+02  0.3966252E+00
Ar  215  0.8021559E+01  0.1064553E+02  0.2902016E+02  0.9320770E+00
Ar  216  0.5387011E+01  0.1324380E+02  0.2899823E+02  0.6397434E+00
Ar  217  0.5387011E+01  0.1584691E+02  0.9248244E-01  0.6397488E+00
Ar  218  0.8021559E+01  0.1844518E+02  0.7054839E-01  0.9320755E+00
Ar  219  0.8007487E+01  0.1584492E+02  0.2772101E+01  0.3966294E+00
Ar  220  0.5396026E+01  0.1846006E+02  0.2767819E+01  0.2203342E+01
Ar  221  0.5393713E+01  0.1584560E+02  0.5393713E+01  0.2250717E+01
Ar  222  0.8005321E+01  0.1845631E+02  0.5394937E+01  0.1434199E+01
Ar  223  0.8007941E+01  0.1584180E+02  0.8007941E+01  0.1552287E+00
Ar  224  0.5394937E+01  0.1845631E+02  0.8005321E+01  0.1434199E+01
Ar  225  0.5396207E+01  0.1584265E+02  0.1063648E+02  0.9309573E+00
Ar  226  0.8009389E+01  0.1845148E+02  0.1063923E+02  0.1350301E+00
Ar  227  0.8010593E+01  0.1584035E+02  0.1325036E+02  0.1780559E-01
Ar  228  0.5396207E+01  0.1845423E+02  0.1324806E+02  0.9309605E+00
Ar  229  0.5396808E+01  0.1584241E+02  0.1584241E+02  0.6265395E+00
Ar  230  0.8009916E+01  0.1845083E+02  0.1584075E+02  0.8484833E-01
Ar  231  0.8009916E+01  0.1584075E+02  0.1845083E+02  0.8484833E-01
Ar  232  0.5395697E+01  0.1845479E+02  0.1845479E+02  0.1260486E+01
Ar  233  0.5395281E+01  0.1584364E+02  0.2108535E+02  0.1045163E+01
Ar  234  0.8007558E+01  0.1845343E+02  0.2108315E+02  0.2752292E+00
Ar  235  0.8005362E+01  0.1584364E+02  0.2369543E+02  0.1045164E+01
Ar  236  0.5393697E+01  0.1845893E+02  0.2369701E+02  0.2963065E+01
Ar  237  0.5395917E+01  0.1584790E+02  0.2632067E+02  0.1475537E+01
Ar  238  0.8007820E+01  0.1845612E+02  0.2632092E+02  0.7260201E+00
Ar  239  0.8019796E+01  0.1584444E+02  0.2900981E+02  0.3315040E+00
Ar  240  0.5383295E+01  0.1845421E+02  0.2900902E+02  0.1300309E+01
Ar  241  0.5392451E+01  0.2106938E+02  0.7994224E-01  0.2203912E+01
Ar  242  0.8021330E+01  0.2369826E+02  0.7994238E-01  0.2203912E+01
Ar  243  0.8007260E+01  0.2108345E+02  0.2768310E+01  0.1063370E+01
Ar  244  0.5398461E+01  0.2369225E+02  0.2769772E+01  0.4492643E+01
Ar  245  0.5394632E+01  0.2108712E+02  0.5394632E+01  0.3402085E+01
Ar  246  0.8003589E+01  0.2369608E+02  0.5394632E+01  0.3402096E+01
Ar  247  0.8006296E+01  0.2108441E+02  0.8006296E+01  0.5348414E+00
Ar  248  0.5394632E+01  0.2369608E+02  0.8003589E+01  0.3402096E+01
Ar  249  0.5394936E+01  0.2108539E+02  0.1063440E+02  0.1434189E+01
Ar  250  0.8005321E+01  0.2369577E+02  0.1063440E+02  0.1434191E+01
Ar  251  0.8007941E+01  0.2108277E+02  0.1324891E+02  0.1552234E+00
Ar  252  0.5393713E+01  0.2369700E+02  0.1324511E+02  0.2250728E+01
Ar  253  0.5395281E+01  0.2108535E+02  0.1584364E+02  0.1045163E+01
Ar  254  0.8005362E+01  0.2369543E+02  0.1584364E+02  0.1045164E+01
Ar  255  0.8007558E+01  0.2108315E+02  0.1845343E+02  0.2752292E+00
Ar  256  0.5393697E+01  0.2369701E+02  0.1845893E+02  0.2963065E+01
Ar  257  0.5394790E+01  0.2108600E+02  0.2108600E+02  0.1779864E+01
Ar  258  0.8004707E+01  0.2369592E+02  0.2108600E+02  0.1779867E+01
Ar  259  0.8004707E+01  0.2108600E+02  0.2369592E+02  0.1779867E+01
Ar  260  0.5395904E+01  0.2369481E+02  0.2369481E+02  0.5352050E+01
Ar  261  0.5398117E+01  0.2108354E+02  0.2632344E+02  0.2587547E+01
Ar  262  0.8007171E+01  0.2369259E+02  0.2632344E+02  0.2587599E+01
Ar  263  0.8025293E+01  0.2106542E+02  0.2902235E+02  0.1416661E+01
Ar  264  0.5398989E+01  0.2369172E+02  0.2899984E+02  0.2770453E+01
Ar  265  0.5398229E+01  0.2630761E+02  0.1013376E+00  0.2325395E+01
Ar  266  0.8021758E+01  0.2900729E+02  0.8341962E-01  0.1997935E+01
Ar  267  0.8008316E+01  0.2631114E+02  0.2779567E+01  0.2190380E+01
Ar  268  0.5398229E+01  0.2898937E+02  0.2783096E+01  0.2325430E+01
Ar  269  0.5398461E+01  0.2632094E+02  0.5398461E+01  0.4492590E+01
Ar  270  0.8021330E+01  0.2901077E+02  0.5392451E+01  0.2203945E+01
Ar  271  0.8007260E+01  0.2632240E+02  0.8007260E+01  0.1063377E+01
Ar  272  0.5392451E+01  0.2901077E+02  0.8021330E+01  0.2203945E+01
Ar  273  0.5396026E+01  0.2632289E+02  0.1063065E+02  0.2203305E+01
Ar  274  0.8021559E+01  0.2902016E+02  0.1064553E+02  0.9320770E+00
Ar  275  0.8007487E+01  0.2631861E+02  0.1324579E+02  0.3966252E+00
Ar  276  0.5387011E+01  0.2899823E+02  0.1324380E+02  0.6397434E+00
Ar  277  0.5395917E+01  0.2632067E+02  0.1584790E+02  0.1475537E+01
Ar  278  0.8019796E+01  0.2900981E+02  0.1584444E+02  0.3315040E+00
Ar  279  0.8007820E+01  0.2632092E+02  0.1845612E+02  0.7260201E+00
Ar  280  0.5383295E+01  0.2900902E+02  0.1845421E+02  0.1300309E+01
Ar  281  0.5398117E+01  0.2632344E+02  0.2108354E+02  0.2587547E+01
Ar  282  0.8025293E+01  0.2902235E+02  0.2106542E+02  0.1416661E+01
Ar  283  0.8007171E+01  0.2632344E+02  0.2369259E+02  0.2587599E+01
Ar  284  0.5398989E+01  0.2899984E+02  0.2369172E+02  0.2770453E+01
Ar  285  0.5403525E+01  0.2630982E+02  0.2630982E+02  0.3321181E+01
Ar  286  0.8010804E+01  0.2900522E+02  0.2632032E+02  0.2386513E+01
Ar  287  0.8010804E+01  0.2632032E+02  0.2900522E+02  0.2386513E+01
Ar  288  0.5386649E+01  0.2899386E+02  0.2899386E+02  0.3019262E+01
Ar  289  0.1063903E+02  0.9248032E-01  0.9248032E-01  0.1258372E+01
Ar  290  0.1324236E+02  0.2777489E+01  0.1002487E+00  0.9467425E+00
Ar  291  0.1324236E+02  0.1002487E+00  0.2777489E+01  0.9467425E+00
Ar  292  0.1062572E+02  0.2777783E+01  0.2777783E+01  0.1641096E+01
Ar  293  0.1063650E+02  0.8168658E-01  0.5383295E+01  0.1300282E+01
Ar  294  0.1324281E+02  0.2770039E+01  0.5395917E+01  0.1475562E+01
Ar  295  0.1324627E+02  0.8089627E-01  0.8019796E+01  0.3314878E+00
Ar  296  0.1063459E+02  0.2769791E+01  0.8007820E+01  0.7260253E+00
Ar  297  0.1064921E+02  0.7302498E-01  0.1064921E+02  0.7913224E+00
Ar  298  0.1324699E+02  0.2774699E+01  0.1063590E+02  0.2331523E+00
Ar  299  0.1324993E+02  0.9479792E-01  0.1324993E+02  0.3803410E+00
Ar  300  0.1063590E+02  0.2774699E+01  0.1324699E+02  0.2331523E+00
Ar  301  0.1064788E+02  0.8354311E-01  0.1584131E+02  0.4200698E+00
Ar  302  0.1324711E+02  0.2777681E+01  0.1584360E+02  0.8813155E-01
Ar  303  0.1324940E+02  0.8354304E-01  0.1844283E+02  0.4200750E+00
Ar  304  0.1063568E+02  0.2771870E+01  0.1845503E+02  0.4669282E+00
Ar  305  0.1064553E+02  0.7054842E-01  0.2106915E+02  0.9320568E+00
Ar  306  0.1324579E+02  0.2772101E+01  0.2108322E+02  0.3966192E+00
Ar  307  0.1324380E+02  0.9248250E-01  0.2370370E+02  0.6397258E+00
Ar  308  0.1063065E+02  0.2767819E+01  0.2369468E+02  0.2203350E+01
Ar  309  0.1063215E+02  0.8904505E-01  0.2632048E+02  0.1589907E+01
Ar  310  0.1324125E+02  0.2782307E+01  0.2630840E+02  0.1033536E+01
Ar  311  0.1324327E+02  0.1078192E+00  0.2898289E+02  0.5643281E+00
Ar  312  0.1063215E+02  0.2770229E+01  0.2900167E+02  0.1589937E+01
Ar  313  0.1063650E+02  0.5383295E+01  0.8168658E-01  0.1300282E+01
Ar  314  0.1324627E+02  0.8019796E+01  0.8089627E-01  0.3314878E+00
Ar  315  0.1324281E+02  0.5395917E+01  0.2770039E+01  0.1475562E+01
Ar  316  0.1063459E+02  0.8007820E+01  0.2769791E+01  0.7260253E+00
Ar  317  0.1063178E+02  0.5393697E+01  0.5393697E+01  0.2963056E+01
Ar  318  0.1324707E+02  0.8005362E+01  0.5395281E+01  0.1045173E+01
Ar  319  0.1324707E+02  0.5395281E+01  0.8005362E+01  0.1045173E+01
Ar  320  0.1063728E+02  0.8007558E+01  0.8007558E+01  0.2752390E+00
Ar  321  0.1063592E+02  0.5395697E+01  0.1063592E+02  0.1260484E+01
Ar  322  0.1324996E+02  0.8009916E+01  0.1063988E+02  0.8485530E-01
Ar  323  0.1324830E+02  0.5396808E+01  0.1324830E+02  0.6265460E+00
Ar  324  0.1063988E+02  0.8009916E+01  0.1324996E+02  0.8485530E-01
Ar  325  0.1063648E+02  0.5396207E+01  0.1584265E+02  0.9309573E+00
Ar  326  0.1325036E+02  0.8010593E+01  0.1584035E+02  0.1780559E-01
Ar  327  0.1324806E+02  0.5396207E+01  0.1845423E+02  0.9309605E+00
Ar  328  0.1063923E+02  0.8009389E+01  0.1845148E+02  0.1350301E+00
Ar  329  0.1063440E+02  0.5394936E+01  0.2108539E+02  0.1434189E+01
Ar  330  0.1324891E+02  0.8007941E+01  0.2108277E+02  0.1552234E+00
Ar  331  0.1324511E+02  0.5393713E+01  0.2369700E+02  0.2250728E+01
Ar  332  0.1063440E+02  0.8005321E+01  0.2369577E+02  0.1434191E+01
Ar  333  0.1063065E+02  0.5396026E+01  0.2632289E+02  0.2203305E+01
Ar  334  0.1324579E+02  0.8007487E+01  0.2631861E+02  0.3966252E+00
Ar  335  0.1324380E+02  0.5387011E+01  0.2899823E+02  0.6397434E+00
Ar  336  0.1064553E+02  0.8021559E+01  0.2902016E+02  0.9320770E+00
Ar  337  0.1064921E+02  0.1064921E+02  0.7302498E-01  0.7913224E+00
Ar  338  0.1324993E+02  0.1324993E+02  0.9479792E-01  0.3803410E+00
Ar  339  0.1324699E+02  0.1063590E+02  0.2774699E+01  0.2331523E+00
Ar  340  0.1063590E+02  0.1324699E+02  0.2774699E+01  0.2331523E+00
Ar  341  0.1063592E+02  0.1063592E+02  0.5395697E+01  0.1260484E+01
Ar  342  0.1324830E+02  0.1324830E+02  0.5396808E+01  0.6265460E+00
Ar  343  0.1324996E+02  0.1063988E+02  0.8009916E+01  0.8485530E-01
Ar  344  0.1063988E+02  0.1324996E+02  0.8009916E+01  0.8485530E-01
Ar  345  0.1064121E+02  0.1064121E+02  0.1064121E+02  0.9942341E-01
Ar  346  0.1325151E+02  0.1325151E+02  0.1064299E+02  0.8282426E-01
Ar  347  0.1325151E+02  0.1064299E+02  0.1325151E+02  0.8282426E-01
Ar  348  0.1064299E+02  0.1325151E+02  0.1325151E+02  0.8282426E-01
Ar  349  0.1064207E+02  0.1064207E+02  0.1583954E+02  0.1081977E+00
Ar  350  0.1325192E+02  0.1325192E+02  0.1583879E+02  0.7748752E-02
Ar  351  0.1325117E+02  0.1064207E+02  0.1844864E+02  0.1081884E+00
Ar  352  0.1064207E+02  0.1325117E+02  0.1844864E+02  0.1081884E+00
Ar  353  0.1063923E+02  0.1063923E+02  0.2108132E+02  0.1350284E+00
Ar  354  0.1325036E+02  0.1325036E+02  0.2108012E+02  0.1780293E-01
Ar  355  0.1324806E+02  0.1063648E+02  0.2369450E+02  0.9309584E+00
Ar  356  0.1063648E+02  0.1324806E+02  0.2369450E+02  0.9309584E+00
Ar  357  0.1063568E+02  0.1063568E+02  0.2631884E+02  0.4669115E+00
Ar  358  0.1324711E+02  0.1324711E+02  0.2631303E+02  0.8813136E-01
Ar  359  0.1324940E+02  0.1064788E+02  0.2900717E+02  0.4200680E+00
Ar  360  0.1064788E+02  0.1324940E+02  0.2900717E+02  0.4200680E+00
Ar  361  0.1064788E+02  0.1584131E+02  0.8354311E-01  0.4200698E+00
Ar  362  0.1324940E+02  0.1844283E+02  0.8354304E-01  0.4200750E+00
Ar  363  0.1324711E+02  0.1584360E+02  0.2777681E+01  0.8813155E-01
Ar  364  0.1063568E+02  0.1845503E+02  0.2771870E+01  0.4669282E+00
Ar  365  0.1063648E+02  0.1584265E+02  0.5396207E+01  0.9309573E+00
Ar  366  0.1324806E+02  0.1845423E+02  0.5396207E+01  0.9309605E+00
Ar  367  0.1325036E+02  0.1584035E+02  0.8010593E+01  0.1780559E-01
Ar  368  0.1063923E+02  0.1845148E+02  0.8009389E+01  0.1350301E+00
Ar  369  0.1064207E+02  0.1583954E+02  0.1064207E+02  0.1081977E+00
Ar  370  0.1325117E+02  0.1844864E+02  0.1064207E+02  0.1081884E+00
Ar  371  0.1325192E+02  0.1583879E+02  0.1325192E+02  0.7748752E-02
Ar  372  0.1064207E+02  0.1844864E+02  0.1325117E+02  0.1081884E+00
Ar  373  0.1064299E+02  0.1583920E+02  0.1583920E+02  0.8282505E-01
Ar  374  0.1325151E+02  0.1844772E+02  0.1583920E+02  0.8281291E-01
Ar  375  0.1325151E+02  0.1583920E+02  0.1844772E+02  0.8281291E-01
Ar  376  0.1064121E+02  0.1844950E+02  0.1844950E+02  0.9940926E-01
Ar  377  0.1063988E+02  0.1584075E+02  0.2108079E+02  0.8485061E-01
Ar  378  0.1324996E+02  0.1845083E+02  0.2108079E+02  0.8484403E-01
Ar  379  0.1324830E+02  0.1584241E+02  0.2369390E+02  0.6265399E+00
Ar  380  0.1063592E+02  0.1845479E+02  0.2369501E+02  0.1260480E+01
Ar  381  0.1063590E+02  0.1584372E+02  0.2631601E+02  0.2331388E+00
Ar  382  0.1324699E+02  0.1845481E+02  0.2631601E+02  0.2331482E+00
Ar  383  0.1324993E+02  0.1584078E+02  0.2899591E+02  0.3803344E+00
Ar  384  0.1064921E+02  0.1844150E+02  0.2901769E+02  0.7913370E+00
Ar  385  0.1064553E+02  0.2106915E+02  0.7054842E-01  0.9320568E+00
Ar  386  0.1324380E+02  0.2370370E+02  0.9248250E-01  0.6397258E+00
Ar  387  0.1324579E+02  0.2108322E+02  0.2772101E+01  0.3966192E+00
Ar  388  0.1063065E+02  0.2369468E+02  0.2767819E+01  0.2203350E+01
Ar  389  0.1063440E+02  0.2108539E+02  0.5394936E+01  0.1434189E+01
Ar  390  0.1324511E+02  0.2369700E+02  0.5393713E+01  0.2250728E+01
Ar  391  0.1324891E+02  0.2108277E+02  0.8007941E+01  0.1552234E+00
Ar  392  0.1063440E+02  0.2369577E+02  0.8005321E+01  0.1434191E+01
Ar  393  0.1063923E+02  0.2108132E+02  0.1063923E+02  0.1350284E+00
Ar  394  0.1324806E+02  0.2369450E+02  0.1063648E+02  0.9309584E+00
Ar  395  0.1325036E+02  0.2108012E+02  0.1325036E+02  0.1780293E-01
Ar  396  0.1063648E+02  0.2369450E+02  0.1324806E+02  0.9309584E+00
Ar  397  0.1063988E+02  0.2108079E+02  0.1584075E+02  0.8485061E-01
Ar  398  0.1324830E+02  0.2369390E+02  0.1584241E+02  0.6265399E+00
Ar  399  0.1324996E+02  0.2108079E+02  0.1845083E+02  0.8484403E-01
Ar  400  0.1063592E+02  0.2369501E+02  0.1845479E+02  0.1260480E+01
Ar  401  0.1063728E+02  0.2108315E+02  0.2108315E+02  0.2752232E+00
Ar  402  0.1324707E+02  0.2369543E+02  0.2108535E+02  0.1045163E+01
Ar  403  0.1324707E+02  0.2108535E+02  0.2369543E+02  0.1045163E+01
Ar  404  0.1063178E+02  0.2369701E+02  0.2369701E+02  0.2963063E+01
Ar  405  0.1063459E+02  0.2108289E+02  0.2632092E+02  0.7259945E+00
Ar  406  0.1324281E+02  0.2369479E+02  0.2632067E+02  0.1475579E+01
Ar  407  0.1324627E+02  0.2107091E+02  0.2900981E+02  0.3314926E+00
Ar  408  0.1063650E+02  0.2370741E+02  0.2900902E+02  0.1300284E+01
Ar  409  0.1063215E+02  0.2632048E+02  0.8904505E-01  0.1589907E+01
Ar  410  0.1324327E+02  0.2898289E+02  0.1078192E+00  0.5643281E+00
Ar  411  0.1324125E+02  0.2630840E+02  0.2782307E+01  0.1033536E+01
Ar  412  0.1063215E+02  0.2900167E+02  0.2770229E+01  0.1589937E+01
Ar  413  0.1063065E+02  0.2632289E+02  0.5396026E+01  0.2203305E+01
Ar  414  0.1324380E+02  0.2899823E+02  0.5387011E+01  0.6397434E+00
Ar  415  0.1324579E+02  0.2631861E+02  0.8007487E+01  0.3966252E+00
Ar  416  0.1064553E+02  0.2902016E+02  0.8021559E+01  0.9320770E+00
Ar  417  0.1063568E+02  0.2631884E+02  0.1063568E+02  0.4669115E+00
Ar  418  0.1324940E+02  0.2900717E+02  0.1064788E+02  0.4200680E+00
Ar  419  0.1324711E+02  0.2631303E+02  0.1324711E+02  0.8813136E-01
Ar  420  0.1064788E+02  0.2900717E+02  0.1324940E+02  0.4200680E+00
Ar  421  0.1063590E+02  0.2631601E+02  0.1584372E+02  0.2331388E+00
Ar  422  0.1324993E+02  0.2899591E+02  0.1584078E+02  0.3803344E+00
Ar  423  0.1324699E+02  0.2631601E+02  0.1845481E+02  0.2331482E+00
Ar  424  0.1064921E+02  0.2901769E+02  0.1844150E+02  0.7913370E+00
Ar  425  0.1063459E+02  0.2632092E+02  0.2108289E+02  0.7259945E+00
Ar  426  0.1324627E+02  0.2900981E+02  0.2107091E+02  0.3314926E+00
Ar  427  0.1324281E+02  0.2632067E+02  0.2369479E+02  0.1475579E+01
Ar  428  0.1063650E+02  0.2900902E+02  0.2370741E+02  0.1300284E+01
Ar  429  0.1062572E+02  0.2631293E+02  0.2631293E+02  0.1641047E+01
Ar  430  0.1324236E+02  0.2899046E+02  0.2631322E+02  0.9467281E+00
Ar  431  0.1324236E+02  0.2631322E+02  0.2899046E+02  0.9467281E+00
Ar  432  0.1063903E+02  0.2899823E+02  0.2899823E+02  0.1258400E+01
Ar  433  0.1584744E+02  0.1078188E+00  0.1078188E+00  0.5643318E+00
Ar  434  0.1845856E+02  0.2770229E+01  0.8904476E-01  0.1589927E+01
Ar  435  0.1845856E+02  0.8904476E-01  0.2770229E+01  0.1589927E+01
Ar  436  0.1584946E+02  0.2782307E+01  0.2782307E+01  0.1033553E+01
Ar  437  0.1584691E+02  0.9248244E-01  0.5387011E+01  0.6397488E+00
Ar  438  0.1846006E+02  0.2767819E+01  0.5396026E+01  0.2203342E+01
Ar  439  0.1844518E+02  0.7054839E-01  0.8021559E+01  0.9320755E+00
Ar  440  0.1584492E+02  0.2772101E+01  0.8007487E+01  0.3966294E+00
Ar  441  0.1584131E+02  0.8354311E-01  0.1064788E+02  0.4200698E+00
Ar  442  0.1845503E+02  0.2771870E+01  0.1063568E+02  0.4669282E+00
Ar  443  0.1844283E+02  0.8354304E-01  0.1324940E+02  0.4200750E+00
Ar  444  0.1584360E+02  0.2777681E+01  0.1324711E+02  0.8813155E-01
Ar  445  0.1584078E+02  0.9479777E-01  0.1584078E+02  0.3803378E+00
Ar  446  0.1845481E+02  0.2774699E+01  0.1584372E+02  0.2331512E+00
Ar  447  0.1844150E+02  0.7302471E-01  0.1844150E+02  0.7913424E+00
Ar  448  0.1584372E+02  0.2774699E+01  0.1845481E+02  0.2331512E+00
Ar  449  0.1584444E+02  0.8089605E-01  0.2107091E+02  0.3314920E+00
Ar  450  0.1845612E+02  0.2769791E+01  0.2108289E+02  0.7260149E+00
Ar  451  0.1845421E+02  0.8168642E-01  0.2370741E+02  0.1300285E+01
Ar  452  0.1584790E+02  0.2770040E+01  0.2369479E+02  0.1475573E+01
Ar  453  0.1584835E+02  0.1002488E+00  0.2631322E+02  0.9467439E+00
Ar  454  0.1846499E+02  0.2777783E+01  0.2631293E+02  0.1641071E+01
Ar  455  0.1845168E+02  0.9248009E-01  0.2899823E+02  0.1258383E+01
Ar  456  0.1584835E+02  0.2777489E+01  0.2899046E+02  0.9467656E+00
Ar  457  0.1584691E+02  0.5387011E+01  0.9248244E-01  0.6397488E+00
Ar  458  0.1844518E+02  0.8021559E+01  0.7054839E-01  0.9320755E+00
Ar  459  0.1846006E+02  0.5396026E+01  0.2767819E+01  0.2203342E+01
Ar  460  0.1584492E+02  0.8007487E+01  0.2772101E+01  0.3966294E+00
Ar  461  0.1584560E+02  0.5393713E+01  0.5393713E+01  0.2250717E+01
Ar  462  0.1845631E+02  0.8005321E+01  0.5394937E+01  0.1434199E+01
Ar  463  0.1845631E+02  0.5394937E+01  0.8005321E+01  0.1434199E+01
Ar  464  0.1584180E+02  0.8007941E+01  0.8007941E+01  0.1552287E+00
Ar  465  0.1584265E+02  0.5396207E+01  0.1063648E+02  0.9309573E+00
Ar  466  0.1845148E+02  0.8009389E+01  0.1063923E+02  0.1350301E+00
Ar  467  0.1845423E+02  0.5396207E+01  0.1324806E+02  0.9309605E+00
Ar  468  0.1584035E+02  0.8010593E+01  0.1325036E+02  0.1780559E-01
Ar  469  0.1584241E+02  0.5396808E+01  0.1584241E+02  0.6265395E+00
Ar  470  0.1845083E+02  0.8009916E+01  0.1584075E+02  0.8484833E-01
Ar  471  0.1845479E+02  0.5395697E+01  0.1845479E+02  0.1260486E+01
Ar  472  0.1584075E+02  0.8009916E+01  0.1845083E+02  0.8484833E-01
Ar  473  0.1584364E+02  0.5395281E+01  0.2108535E+02  0.1045163E+01
Ar  474  0.1845343E+02  0.8007558E+01  0.2108315E+02  0.2752292E+00
Ar  475  0.1845893E+02  0.5393697E+01  0.2369701E+02  0.2963065E+01
Ar  476  0.1584364E+02  0.8005362E+01  0.2369543E+02  0.1045164E+01
Ar  477  0.1584790E+02  0.5395917E+01  0.2632067E+02  0.1475537E+01
Ar  478  0.1845612E+02  0.8007820E+01  0.2632092E+02  0.7260201E+00
Ar  479  0.1845421E+02  0.5383295E+01  0.2900902E+02  0.1300309E+01
Ar  480  0.1584444E+02  0.8019796E+01  0.2900981E+02  0.3315040E+00
Ar  481  0.1584131E+02  0.1064788E+02  0.8354311E-01  0.4200698E+00
Ar  482  0.1844283E+02  0.1324940E+02  0.8354304E-01  0.4200750E+00
Ar  483  0.1845503E+02  0.1063568E+02  0.2771870E+01  0.4669282E+00
Ar  484  0.1584360E+02  0.1324711E+02  0.2777681E+01  0.8813155E-01
Ar  485  0.1584265E+02  0.1063648E+02  0.5396207E+01  0.9309573E+00
Ar  486  0.1845423E+02  0.1324806E+02  0.5396207E+01  0.9309605E+00
Ar  487  0.1845148E+02  0.1063923E+02  0.8009389E+01  0.1350301E+00
Ar  488  0.1584035E+02  0.1325036E+02  0.8010593E+01  0.1780559E-01
Ar  489  0.1583954E+02  0.1064207E+02  0.1064207E+02  0.1081977E+00
Ar  490  0.1844864E+02  0.1325117E+02  0.1064207E+02  0.1081884E+00
Ar  491  0.1844864E+02  0.1064207E+02  0.1325117E+02  0.1081884E+00
Ar  492  0.1583879E+02  0.1325192E+02  0.1325192E+02  0.7748752E-02
Ar  493  0.1583920E+02  0.1064299E+02  0.1583920E+02  0.8282505E-01
Ar  494  0.1844772E+02  0.1325151E+02  0.1583920E+02  0.8281291E-01
Ar  495  0.1844950E+02  0.1064121E+02  0.1844950E+02  0.9940926E-01
Ar  496  0.1583920E+02  0.1325151E+02  0.1844772E+02  0.8281291E-01
Ar  497  0.1584075E+02  0.1063988E+02  0.2108079E+02  0.8485061E-01
Ar  498  0.1845083E+02  0.1324996E+02  0.2108079E+02  0.8484403E-01
Ar  499  0.1845479E+02  0.1063592E+02  0.2369501E+02  0.1260480E+01
Ar  500  0.1584241E+02  0.1324830E+02  0.2369390E+02  0.6265399E+00
Ar  501  0.1584372E+02  0.1063590E+02  0.2631601E+02  0.2331388E+00
Ar  502  0.1845481E+02  0.1324699E+02  0.2631601E+02  0.2331482E+00
Ar  503  0.1844150E+02  0.1064921E+02  0.2901769E+02  0.7913370E+00
Ar  504  0.1584078E+02  0.1324993E+02  0.2899591E+02  0.3803344E+00
Ar  505  0.1584078E+02  0.1584078E+02  0.9479777E-01  0.3803378E+00
Ar  506  0.1844150E+02  0.1844150E+02  0.7302471E-01  0.7913424E+00
Ar  507  0.1845481E+02  0.1584372E+02  0.2774699E+01  0.2331512E+00
Ar  508  0.1584372E+02  0.1845481E+02  0.2774699E+01  0.2331512E+00
Ar  509  0.1584241E+02  0.1584241E+02  0.5396808E+01  0.6265395E+00
Ar  510  0.1845479E+02  0.1845479E+02  0.5395697E+01  0.1260486E+01
Ar  511  0.1845083E+02  0.1584075E+02  0.8009916E+01  0.8484833E-01
Ar  512  0.1584075E+02  0.1845083E+02  0.8009916E+01  0.8484833E-01
Ar  513  0.1583920E+02  0.1583920E+02  0.1064299E+02  0.8282505E-01
Ar  514  0.1844950E+02  0.1844950E+02  0.1064121E+02  0.9940926E-01
Ar  515  0.1844772E+02  0.1583920E+02  0.1325151E+02  0.8281291E-01
Ar  516  0.1583920E+02  0.1844772E+02  0.1325151E+02  0.8281291E-01
Ar  517  0.1583879E+02  0.1583879E+02  0.1583879E+02  0.7750692E-02
Ar  518  0.1844864E+02  0.1844864E+02  0.1583954E+02  0.1081791E+00
Ar  519  0.1844864E+02  0.1583954E+02  0.1844864E+02  0.1081791E+00
Ar  520  0.1583954E+02  0.1844864E+02  0.1844864E+02  0.1081791E+00
Ar  521  0.1584035E+02  0.1584035E+02  0.2108012E+02  0.1780298E-01
Ar  522  0.1845148E+02  0.1845148E+02  0.2108132E+02  0.1350190E+00
Ar  523  0.1845423E+02  0.1584265E+02  0.2369450E+02  0.9309522E+00
Ar  524  0.1584265E+02  0.1845423E+02  0.2369450E+02  0.9309522E+00
Ar  525  0.1584360E+02  0.1584360E+02  0.2631303E+02  0.8812345E-01
Ar  526  0.1845503E+02  0.1845503E+02  0.2631884E+02  0.4669205E+00
Ar  527  0.1844283E+02  0.1584131E+02  0.2900717E+02  0.4200769E+00
Ar  528  0.1584131E+02  0.1844283E+02  0.2900717E+02  0.4200769E+00
Ar  529  0.1584444E+02  0.2107091E+02  0.8089605E-01  0.3314920E+00
Ar  530  0.1845421E+02  0.2370741E+02  0.8168642E-01  0.1300285E+01
Ar  531  0.1845612E+02  0.2108289E+02  0.2769791E+01  0.7260149E+00
Ar  532  0.1584790E+02  0.2369479E+02  0.2770040E+01  0.1475573E+01
Ar  533  0.1584364E+02  0.2108535E+02  0.5395281E+01  0.1045163E+01
Ar  534  0.1845893E+02  0.2369701E+02  0.5393697E+01  0.2963065E+01
Ar  535  0.1845343E+02  0.2108315E+02  0.8007558E+01  0.2752292E+00
Ar  536  0.1584364E+02  0.2369543E+02  0.8005362E+01  0.1045164E+01
Ar  537  0.1584075E+02  0.2108079E+02  0.1063988E+02  0.8485061E-01
Ar  538  0.1845479E+02  0.2369501E+02  0.1063592E+02  0.1260480E+01
Ar  539  0.1845083E+02  0.2108079E+02  0.1324996E+02  0.8484403E-01
Ar  540  0.1584241E+02  0.2369390E+02  0.1324830E+02  0.6265399E+00
Ar  541  0.1584035E+02  0.2108012E+02  0.1584035E+02  0.1780298E-01
Ar  542  0.1845423E+02  0.2369450E+02  0.1584265E+02  0.9309522E+00
Ar  543  0.1845148E+02  0.2108132E+02  0.1845148E+02  0.1350190E+00
Ar  544  0.1584265E+02  0.2369450E+02  0.1845423E+02  0.9309522E+00
Ar  545  0.1584180E+02  0.2108277E+02  0.2108277E+02  0.1552170E+00
Ar  546  0.1845631E+02  0.2369577E+02  0.2108539E+02  0.1434188E+01
Ar  547  0.1845631E+02  0.2108539E+02  0.2369577E+02  0.1434188E+01
Ar  548  0.1584560E+02  0.2369700E+02  0.2369700E+02  0.2250724E+01
Ar  549  0.1584492E+02  0.2108322E+02  0.2631861E+02  0.3966062E+00
Ar  550  0.1846006E+02  0.2369468E+02  0.2632289E+02  0.2203360E+01
Ar  551  0.1844518E+02  0.2106915E+02  0.2902016E+02  0.9320811E+00
Ar  552  0.1584691E+02  0.2370370E+02  0.2899823E+02  0.6397508E+00
Ar  553  0.1584835E+02  0.2631322E+02  0.1002488E+00  0.9467439E+00
Ar  554  0.1845168E+02  0.2899823E+02  0.9248009E-01  0.1258383E+01
Ar  555  0.1846499E+02  0.2631293E+02  0.2777783E+01  0.1641071E+01
Ar  556  0.1584835E+02  0.2899046E+02  0.2777489E+01  0.9467656E+00
Ar  557  0.1584790E+02  0.2632067E+02  0.5395917E+01  0.1475537E+01
Ar  558  0.1845421E+02  0.2900902E+02  0.5383295E+01  0.1300309E+01
Ar  559  0.1845612E+02  0.2632092E+02  0.8007820E+01  0.7260201E+00
Ar  560  0.1584444E+02  0.2900981E+02  0.8019796E+01  0.3315040E+00
Ar  561  0.1584372E+02  0.2631601E+02  0.1063590E+02  0.2331388E+00
Ar  562  0.1844150E+02  0.2901769E+02  0.1064921E+02  0.7913370E+00
Ar  563  0.1845481E+02  0.2631601E+02  0.1324699E+02  0.2331482E+00
Ar  564  0.1584078E+02  0.2899591E+02  0.1324993E+02  0.3803344E+00
Ar  565  0.1584360E+02  0.2631303E+02  0.1584360E+02  0.8812345E-01
Ar  566  0.1844283E+02  0.2900717E+02  0.1584131E+02  0.4200769E+00
Ar  567  0.1845503E+02  0.2631884E+02  0.1845503E+02  0.4669205E+00
Ar  568  0.1584131E+02  0.2900717E+02  0.1844283E+02  0.4200769E+00
Ar  569  0.1584492E+02  0.2631861E+02  0.2108322E+02  0.3966062E+00
Ar  570  0.1844518E+02  0.2902016E+02  0.2106915E+02  0.9320811E+00
Ar  571  0.1846006E+02  0.2632289E+02  0.2369468E+02  0.2203360E+01
Ar  572  0.1584691E+02  0.2899823E+02  0.2370370E+02  0.6397508E+00
Ar  573  0.1584946E+02  0.2630840E+02  0.2630840E+02  0.1033513E+01
Ar  574  0.1845856E+02  0.2900167E+02  0.2632048E+02  0.1589914E+01
Ar  575  0.1845856E+02  0.2632048E+02  0.2900167E+02  0.1589914E+01
Ar  576  0.1584744E+02  0.2898289E+02  0.2898289E+02  0.5643575E+00
Ar  577  0.2106895E+02  0.8341942E-01  0.8341942E-01  0.1997893E+01
Ar  578  0.2369248E+02  0.2783096E+01  0.1013373E+00  0.2325421E+01
Ar  579  0.2369248E+02  0.1013373E+00  0.2783096E+01  0.2325421E+01
Ar  580  0.2108239E+02  0.2779567E+01  0.2779567E+01  0.2190380E+01
Ar  581  0.2106938E+02  0.7994224E-01  0.5392451E+01  0.2203912E+01
Ar  582  0.2369225E+02  0.2769772E+01  0.5398461E+01  0.4492643E+01
Ar  583  0.2369826E+02  0.7994238E-01  0.8021330E+01  0.2203912E+01
Ar  584  0.2108345E+02  0.2768310E+01  0.8007260E+01  0.1063370E+01
Ar  585  0.2106915E+02  0.7054842E-01  0.1064553E+02  0.9320568E+00
Ar  586  0.2369468E+02  0.2767819E+01  0.1063065E+02  0.2203350E+01
Ar  587  0.2370370E+02  0.9248250E-01  0.1324380E+02  0.6397258E+00
Ar  588  0.2108322E+02  0.2772101E+01  0.1324579E+02  0.3966192E+00
Ar  589  0.2107091E+02  0.8089605E-01  0.1584444E+02  0.3314920E+00
Ar  590  0.2369479E+02  0.2770040E+01  0.1584790E+02  0.1475573E+01
Ar  591  0.2370741E+02  0.8168642E-01  0.1845421E+02  0.1300285E+01
Ar  592  0.2108289E+02  0.2769791E+01  0.1845612E+02  0.7260149E+00
Ar  593  0.2106542E+02  0.6836157E-01  0.2106542E+02  0.1416631E+01
Ar  594  0.2369259E+02  0.2767272E+01  0.2108354E+02  0.2587594E+01
Ar  595  0.2369172E+02  0.9086838E-01  0.2369172E+02  0.2770422E+01
Ar  596  0.2108354E+02  0.2767272E+01  0.2369259E+02  0.2587594E+01
Ar  597  0.2107991E+02  0.8549134E-01  0.2632032E+02  0.2386495E+01
Ar  598  0.2368719E+02  0.2780889E+01  0.2630982E+02  0.3321264E+01
Ar  599  0.2370406E+02  0.9685523E-01  0.2899386E+02  0.3019209E+01
Ar  600  0.2107991E+02  0.2770386E+01  0.2900522E+02  0.2386535E+01
Ar  601  0.2106938E+02  0.5392451E+01  0.7994224E-01  0.2203912E+01
Ar  602  0.2369826E+02  0.8021330E+01  0.7994238E-01  0.2203912E+01
Ar  603  0.2369225E+02  0.5398461E+01  0.2769772E+01  0.4492643E+01
Ar  604  0.2108345E+02  0.8007260E+01  0.2768310E+01  0.1063370E+01
Ar  605  0.2108712E+02  0.5394632E+01  0.5394632E+01  0.3402085E+01
Ar  606  0.2369608E+02  0.8003589E+01  0.5394632E+01  0.3402096E+01
Ar  607  0.2369608E+02  0.5394632E+01  0.8003589E+01  0.3402096E+01
Ar  608  0.2108441E+02  0.8006296E+01  0.8006296E+01  0.5348414E+00
Ar  609  0.2108539E+02  0.5394936E+01  0.1063440E+02  0.1434189E+01
Ar  610  0.2369577E+02  0.8005321E+01  0.1063440E+02  0.1434191E+01
Ar  611  0.2369700E+02  0.5393713E+01  0.1324511E+02  0.2250728E+01
Ar  612  0.2108277E+02  0.8007941E+01  0.1324891E+02  0.1552234E+00
Ar  613  0.2108535E+02  0.5395281E+01  0.1584364E+02  0.1045163E+01
Ar  614  0.2369543E+02  0.8005362E+01  0.1584364E+02  0.1045164E+01
Ar  615  0.2369701E+02  0.5393697E+01  0.1845893E+02  0.2963065E+01
Ar  616  0.2108315E+02  0.8007558E+01  0.1845343E+02  0.2752292E+00
Ar  617  0.2108600E+02  0.5394790E+01  0.2108600E+02  0.1779864E+01
Ar  618  0.2369592E+02  0.8004707E+01  0.2108600E+02  0.1779867E+01
Ar  619  0.2369481E+02  0.5395904E+01  0.2369481E+02  0.5352050E+01
Ar  620  0.2108600E+02  0.8004707E+01  0.2369592E+02  0.1779867E+01
Ar  621  0.2108354E+02  0.5398117E+01  0.2632344E+02  0.2587547E+01
Ar  622  0.2369259E+02  0.8007171E+01  0.2632344E+02  0.2587599E+01
Ar  623  0.2369172E+02  0.5398989E+01  0.2899984E+02  0.2770453E+01
Ar  624  0.2106542E+02  0.8025293E+01  0.2902235E+02  0.1416661E+01
Ar  625  0.2106915E+02  0.1064553E+02  0.7054842E-01  0.9320568E+00
Ar  626  0.2370370E+02  0.1324380E+02  0.9248250E-01  0.6397258E+00
Ar  627  0.2369468E+02  0.1063065E+02  0.2767819E+01  0.2203350E+01
Ar  628  0.2108322E+02  0.1324579E+02  0.2772101E+01  0.3966192E+00
Ar  629  0.2108539E+02  0.1063440E+02  0.5394936E+01  0.1434189E+01
Ar  630  0.2369700E+02  0.1324511E+02  0.5393713E+01  0.2250728E+01
Ar  631  0.2369577E+02  0.1063440E+02  0.8005321E+01  0.1434191E+01
Ar  632  0.2108277E+02  0.1324891E+02  0.8007941E+01  0.1552234E+00
Ar  633  0.2108132E+02  0.1063923E+02  0.1063923E+02  0.1350284E+00
Ar  634  0.2369450E+02  0.1324806E+02  0.1063648E+02  0.9309584E+00
Ar  635  0.2369450E+02  0.1063648E+02  0.1324806E+02  0.9309584E+00
Ar  636  0.2108012E+02  0.1325036E+02  0.1325036E+02  0.1780293E-01
Ar  637  0.2108079E+02  0.1063988E+02  0.1584075E+02  0.8485061E-01
Ar  638  0.2369390E+02  0.1324830E+02  0.1584241E+02  0.6265399E+00
Ar  639  0.2369501E+02  0.1063592E+02  0.1845479E+02  0.1260480E+01
Ar  640  0.2108079E+02  0.1324996E+02  0.1845083E+02  0.8484403E-01
Ar  641  0.2108315E+02  0.1063728E+02  0.2108315E+02  0.2752232E+00
Ar  642  0.2369543E+02  0.1324707E+02  0.2108535E+02  0.1045163E+01
Ar  643  0.2369701E+02  0.1063178E+02  0.2369701E+02  0.2963063E+01
Ar  644  0.2108535E+02  0.1324707E+02  0.2369543E+02  0.1045163E+01
Ar  645  0.2108289E+02  0.1063459E+02  0.2632092E+02  0.7259945E+00
Ar  646  0.2369479E+02  0.1324281E+02  0.2632067E+02  0.1475579E+01
Ar  647  0.2370741E+02  0.1063650E+02  0.2900902E+02  0.1300284E+01
Ar  648  0.2107091E+02  0.1324627E+02  0.2900981E+02  0.3314926E+00
Ar  649  0.2107091E+02  0.1584444E+02  0.8089605E-01  0.3314920E+00
Ar  650  0.2370741E+02  0.1845421E+02  0.8168642E-01  0.1300285E+01
Ar  651  0.2369479E+02  0.1584790E+02  0.2770040E+01  0.1475573E+01
Ar  652  0.2108289E+02  0.1845612E+02  0.2769791E+01  0.7260149E+00
Ar  653  0.2108535E+02  0.1584364E+02  0.5395281E+01  0.1045163E+01
Ar  654  0.2369701E+02  0.1845893E+02  0.5393697E+01  0.2963065E+01
Ar  655  0.2369543E+02  0.1584364E+02  0.8005362E+01  0.1045164E+01
Ar  656  0.2108315E+02  0.1845343E+02  0.8007558E+01  0.2752292E+00
Ar  657  0.2108079E+02  0.1584075E+02  0.1063988E+02  0.8485061E-01
Ar  658  0.2369501E+02  0.1845479E+02  0.1063592E+02  0.1260480E+01
Ar  659  0.2369390E+02  0.1584241E+02  0.1324830E+02  0.6265399E+00
Ar  660  0.2108079E+02  0.1845083E+02  0.1324996E+02  0.8484403E-01
Ar  661  0.2108012E+02  0.1584035E+02  0.1584035E+02  0.1780298E-01
Ar  662  0.2369450E+02  0.1845423E+02  0.1584265E+02  0.9309522E+00
Ar  663  0.2369450E+02  0.1584265E+02  0.1845423E+02  0.9309522E+00
Ar  664  0.2108132E+02  0.1845148E+02  0.1845148E+02  0.1350190E+00
Ar  665  0.2108277E+02  0.1584180E+02  0.2108277E+02  0.1552170E+00
Ar  666  0.2369577E+02  0.1845631E+02  0.2108539E+02  0.1434188E+01
Ar  667  0.2369700E+02  0.1584560E+02  0.2369700E+02  0.2250724E+01
Ar  668  0.2108539E+02  0.1845631E+02  0.2369577E+02  0.1434188E+01
Ar  669  0.2108322E+02  0.1584492E+02  0.2631861E+02  0.3966062E+00
Ar  670  0.2369468E+02  0.1846006E+02  0.2632289E+02  0.2203360E+01
Ar  671  0.2370370E+02  0.1584691E+02  0.2899823E+02  0.6397508E+00
Ar  672  0.2106915E+02  0.1844518E+02  0.2902016E+02  0.9320811E+00
Ar  673  0.2106542E+02  0.2106542E+02  0.6836157E-01  0.1416631E+01
Ar  674  0.2369172E+02  0.2369172E+02  0.9086838E-01  0.2770422E+01
Ar  675  0.2369259E+02  0.2108354E+02  0.2767272E+01  0.2587594E+01
Ar  676  0.2108354E+02  0.2369259E+02  0.2767272E+01  0.2587594E+01
Ar  677  0.2108600E+02  0.2108600E+02  0.5394790E+01  0.1779864E+01
Ar  678  0.2369481E+02  0.2369481E+02  0.5395904E+01  0.5352050E+01
Ar  679  0.2369592E+02  0.2108600E+02  0.8004707E+01  0.1779867E+01
Ar  680  0.2108600E+02  0.2369592E+02  0.8004707E+01  0.1779867E+01
Ar  681  0.2108315E+02  0.2108315E+02  0.1063728E+02  0.2752232E+00
Ar  682  0.2369701E+02  0.2369701E+02  0.1063178E+02  0.2963063E+01
Ar  683  0.2369543E+02  0.2108535E+02  0.1324707E+02  0.1045163E+01
Ar  684  0.2108535E+02  0.2369543E+02  0.1324707E+02  0.1045163E+01
Ar  685  0.2108277E+02  0.2108277E+02  0.1584180E+02  0.1552170E+00
Ar  686  0.2369700E+02  0.2369700E+02  0.1584560E+02  0.2250724E+01
Ar  687  0.2369577E+02  0.2108539E+02  0.1845631E+02  0.1434188E+01
Ar  688  0.2108539E+02  0.2369577E+02  0.1845631E+02  0.1434188E+01
Ar  689  0.2108441E+02  0.2108441E+02  0.2108441E+02  0.5348231E+00
Ar  690  0.2369608E+02  0.2369608E+02  0.2108712E+02  0.3402089E+01
Ar  691  0.2369608E+02  0.2108712E+02  0.2369608E+02  0.3402089E+01
Ar  692  0.2108712E+02  0.2369608E+02  0.2369608E+02  0.3402089E+01
Ar  693  0.2108345E+02  0.2108345E+02  0.2632240E+02  0.1063337E+01
Ar  694  0.2369225E+02  0.2369225E+02  0.2632094E+02  0.4492658E+01
Ar  695  0.2369826E+02  0.2106938E+02  0.2901077E+02  0.2203921E+01
Ar  696  0.2106938E+02  0.2369826E+02  0.2901077E+02  0.2203921E+01
Ar  697  0.2107991E+02  0.2632032E+02  0.8549134E-01  0.2386495E+01
Ar  698  0.2370406E+02  0.2899386E+02  0.9685523E-01  0.3019209E+01
Ar  699  0.2368719E+02  0.2630982E+02  0.2780889E+01  0.3321264E+01
Ar  700  0.2107991E+02  0.2900522E+02  0.2770386E+01  0.2386535E+01
Ar  701  0.2108354E+02  0.2632344E+02  0.5398117E+01  0.2587547E+01
Ar  702  0.2369172E+02  0.2899984E+02  0.5398989E+01  0.2770453E+01
Ar  703  0.2369259E+02  0.2632344E+02  0.8007171E+01  0.2587599E+01
Ar  704  0.2106542E+02  0.2902235E+02  0.8025293E+01  0.1416661E+01
Ar  705  0.2108289E+02  0.2632092E+02  0.1063459E+02  0.7259945E+00
Ar  706  0.2370741E+02  0.2900902E+02  0.1063650E+02  0.1300284E+01
Ar  707  0.2369479E+02  0.2632067E+02  0.1324281E+02  0.1475579E+01
Ar  708  0.2107091E+02  0.2900981E+02  0.1324627E+02  0.3314926E+00
Ar  709  0.2108322E+02  0.2631861E+02  0.1584492E+02  0.3966062E+00
Ar  710  0.2370370E+02  0.2899823E+02  0.1584691E+02  0.6397508E+00
Ar  711  0.2369468E+02  0.2632289E+02  0.1846006E+02  0.2203360E+01
Ar  712  0.2106915E+02  0.2902016E+02  0.1844518E+02  0.9320811E+00
Ar  713  0.2108345E+02  0.2632240E+02  0.2108345E+02  0.1063337E+01
Ar  714  0.2369826E+02  0.2901077E+02  0.2106938E+02  0.2203921E+01
Ar  715  0.2369225E+02  0.2632094E+02  0.2369225E+02  0.4492658E+01
Ar  716  0.2106938E+02  0.2901077E+02  0.2369826E+02  0.2203921E+01
Ar  717  0.2108239E+02  0.2631114E+02  0.2631114E+02  0.2190325E+01
Ar  718  0.2369248E+02  0.2898937E+02  0.2630761E+02  0.2325411E+01
Ar  719  0.2369248E+02  0.2630761E+02  0.2898937E+02  0.2325411E+01
Ar  720  0.2106895E+02  0.2900729E+02  0.2900729E+02  0.1997944E+01
Ar  721  0.2631483E+02  0.1231064E+00  0.1231064E+00  0.2136869E+01
Ar  722  0.2896760E+02  0.2775882E+01  0.1231062E+00  0.2136888E+01
Ar  723  0.2896760E+02  0.1231062E+00  0.2775882E+01  0.2136888E+01
Ar  724  0.2629875E+02  0.2791961E+01  0.2791961E+01  0.4498220E+01
Ar  725  0.2630761E+02  0.1013376E+00  0.5398229E+01  0.2325395E+01
Ar  726  0.2898937E+02  0.2783096E+01  0.5398229E+01  0.2325430E+01
Ar  727  0.2900729E+02  0.8341962E-01  0.8021758E+01  0.1997935E+01
Ar  728  0.2631114E+02  0.2779567E+01  0.8008316E+01  0.2190380E+01
Ar  729  0.2632048E+02  0.8904505E-01  0.1063215E+02  0.1589907E+01
Ar  730  0.2900167E+02  0.2770229E+01  0.1063215E+02  0.1589937E+01
Ar  731  0.2898289E+02  0.1078192E+00  0.1324327E+02  0.5643281E+00
Ar  732  0.2630840E+02  0.2782307E+01  0.1324125E+02  0.1033536E+01
Ar  733  0.2631322E+02  0.1002488E+00  0.1584835E+02  0.9467439E+00
Ar  734  0.2899046E+02  0.2777489E+01  0.1584835E+02  0.9467656E+00
Ar  735  0.2899823E+02  0.9248009E-01  0.1845168E+02  0.1258383E+01
Ar  736  0.2631293E+02  0.2777783E+01  0.1846499E+02  0.1641071E+01
Ar  737  0.2632032E+02  0.8549134E-01  0.2107991E+02  0.2386495E+01
Ar  738  0.2900522E+02  0.2770386E+01  0.2107991E+02  0.2386535E+01
Ar  739  0.2899386E+02  0.9685523E-01  0.2370406E+02  0.3019209E+01
Ar  740  0.2630982E+02  0.2780889E+01  0.2368719E+02  0.3321264E+01
Ar  741  0.2629402E+02  0.1105633E+00  0.2629402E+02  0.3205939E+01
Ar  742  0.2898015E+02  0.2796693E+01  0.2629402E+02  0.3205981E+01
Ar  743  0.2894617E+02  0.1445397E+00  0.2894617E+02  0.1803361E+01
Ar  744  0.2629402E+02  0.2796693E+01  0.2898015E+02  0.3205981E+01
Ar  745  0.2630761E+02  0.5398229E+01  0.1013376E+00  0.2325395E+01
Ar  746  0.2900729E+02  0.8021758E+01  0.8341962E-01  0.1997935E+01
Ar  747  0.2898937E+02  0.5398229E+01  0.2783096E+01  0.2325430E+01
Ar  748  0.2631114E+02  0.8008316E+01  0.2779567E+01  0.2190380E+01
Ar  749  0.2632094E+02  0.5398461E+01  0.5398461E+01  0.4492590E+01
Ar  750  0.2901077E+02  0.8021330E+01  0.5392451E+01  0.2203945E+01
Ar  751  0.2901077E+02  0.5392451E+01  0.8021330E+01  0.2203945E+01
Ar  752  0.2632240E+02  0.8007260E+01  0.8007260E+01  0.1063377E+01
Ar  753  0.2632289E+02  0.5396026E+01  0.1063065E+02  0.2203305E+01
Ar  754  0.2902016E+02  0.8021559E+01  0.1064553E+02  0.9320770E+00
Ar  755  0.2899823E+02  0.5387011E+01  0.1324380E+02  0.6397434E+00
Ar  756  0.2631861E+02  0.8007487E+01  0.1324579E+02  0.3966252E+00
Ar  757  0.2632067E+02  0.5395917E+01  0.1584790E+02  0.1475537E+01
Ar  758  0.2900981E+02  0.8019796E+01  0.1584444E+02  0.3315040E+00
Ar  759  0.2900902E+02  0.5383295E+01  0.1845421E+02  0.1300309E+01
Ar  760  0.2632092E+02  0.8007820E+01  0.1845612E+02  0.7260201E+00
Ar  761  0.2632344E+02  0.5398117E+01  0.2108354E+02  0.2587547E+01
Ar  762  0.2902235E+02  0.8025293E+01  0.2106542E+02  0.1416661E+01
Ar  763  0.2899984E+02  0.5398989E+01  0.2369172E+02  0.2770453E+01
Ar  764  0.2632344E+02  0.8007171E+01  0.2369259E+02  0.2587599E+01
Ar  765  0.2630982E+02  0.5403525E+01  0.2630982E+02  0.3321181E+01
Ar  766  0.2900522E+02  0.8010804E+01  0.2632032E+02  0.2386513E+01
Ar  767  0.2899386E+02  0.5386649E+01  0.2899386E+02  0.3019262E+01
Ar  768  0.2632032E+02  0.8010804E+01  0.2900522E+02  0.2386513E+01
Ar  769  0.2632048E+02  0.1063215E+02  0.8904505E-01  0.1589907E+01
Ar  770  0.2898289E+02  0.1324327E+02  0.1078192E+00  0.5643281E+00
Ar  771  0.2900167E+02  0.1063215E+02  0.2770229E+01  0.1589937E+01
Ar  772  0.2630840E+02  0.1324125E+02  0.2782307E+01  0.1033536E+01
Ar  773  0.2632289E+02  0.1063065E+02  0.5396026E+01  0.2203305E+01
Ar  774  0.2899823E+02  0.1324380E+02  0.5387011E+01  0.6397434E+00
Ar  775  0.2902016E+02  0.1064553E+02  0.8021559E+01  0.9320770E+00
Ar  776  0.2631861E+02  0.1324579E+02  0.8007487E+01  0.3966252E+00
Ar  777  0.2631884E+02  0.1063568E+02  0.1063568E+02  0.4669115E+00
Ar  778  0.2900717E+02  0.1324940E+02  0.1064788E+02  0.4200680E+00
Ar  779  0.2900717E+02  0.1064788E+02  0.1324940E+02  0.4200680E+00
Ar  780  0.2631303E+02  0.1324711E+02  0.1324711E+02  0.8813136E-01
Ar  781  0.2631601E+02  0.1063590E+02  0.1584372E+02  0.2331388E+00
Ar  782  0.2899591E+02  0.1324993E+02  0.1584078E+02  0.3803344E+00
Ar  783  0.2901769E+02  0.1064921E+02  0.1844150E+02  0.7913370E+00
Ar  784  0.2631601E+02  0.1324699E+02  0.1845481E+02  0.2331482E+00
Ar  785  0.2632092E+02  0.1063459E+02  0.2108289E+02  0.7259945E+00
Ar  786  0.2900981E+02  0.1324627E+02  0.2107091E+02  0.3314926E+00
Ar  787  0.2900902E+02  0.1063650E+02  0.2370741E+02  0.1300284E+01
Ar  788  0.2632067E+02  0.1324281E+02  0.2369479E+02  0.1475579E+01
Ar  789  0.2631293E+02  0.1062572E+02  0.2631293E+02  0.1641047E+01
Ar  790  0.2899046E+02  0.1324236E+02  0.2631322E+02  0.9467281E+00
Ar  791  0.2899823E+02  0.1063903E+02  0.2899823E+02  0.1258400E+01
Ar  792  0.2631322E+02  0.1324236E+02  0.2899046E+02  0.9467281E+00
Ar  793  0.2631322E+02  0.1584835E+02  0.1002488E+00  0.9467439E+00
Ar  794  0.2899823E+02  0.1845168E+02  0.9248009E-01  0.1258383E+01
Ar  795  0.2899046E+02  0.1584835E+02  0.2777489E+01  0.9467656E+00
Ar  796  0.2631293E+02  0.1846499E+02  0.2777783E+01  0.1641071E+01
Ar  797  0.2632067E+02  0.1584790E+02  0.5395917E+01  0.1475537E+01
Ar  798  0.2900902E+02  0.1845421E+02  0.5383295E+01  0.1300309E+01
Ar  799  0.2900981E+02  0.1584444E+02  0.8019796E+01  0.3315040E+00
Ar  800  0.2632092E+02  0.1845612E+02  0.8007820E+01  0.7260201E+00
Ar  801  0.2631601E+02  0.1584372E+02  0.1063590E+02  0.2331388E+00
Ar  802  0.2901769E+02  0.1844150E+02  0.1064921E+02  0.7913370E+00
Ar  803  0.2899591E+02  0.1584078E+02  0.1324993E+02  0.3803344E+00
Ar  804  0.2631601E+02  0.1845481E+02  0.1324699E+02  0.2331482E+00
Ar  805  0.2631303E+02  0.1584360E+02  0.1584360E+02  0.8812345E-01
Ar  806  0.2900717E+02  0.1844283E+02  0.1584131E+02  0.4200769E+00
Ar  807  0.2900717E+02  0.1584131E+02  0.1844283E+02  0.4200769E+00
Ar  808  0.2631884E+02  0.1845503E+02  0.1845503E+02  0.4669205E+00
Ar  809  0.2631861E+02  0.1584492E+02  0.2108322E+02  0.3966062E+00
Ar  810  0.2902016E+02  0.1844518E+02  0.2106915E+02  0.9320811E+00
Ar  811  0.2899823E+02  0.1584691E+02  0.2370370E+02  0.6397508E+00
Ar  812  0.2632289E+02  0.1846006E+02  0.2369468E+02  0.2203360E+01
Ar  813  0.2630840E+02  0.1584946E+02  0.2630840E+02  0.1033513E+01
Ar  814  0.2900167E+02  0.1845856E+02  0.2632048E+02  0.1589914E+01
Ar  815  0.2898289E+02  0.1584744E+02  0.2898289E+02  0.5643575E+00
Ar  816  0.2632048E+02  0.1845856E+02  0.2900167E+02  0.1589914E+01
Ar  817  0.2632032E+02  0.2107991E+02  0.8549134E-01  0.2386495E+01
Ar  818  0.2899386E+02  0.2370406E+02  0.9685523E-01  0.3019209E+01
Ar  819  0.2900522E+02  0.2107991E+02  0.2770386E+01  0.2386535E+01
Ar  820  0.2630982E+02  0.2368719E+02  0.2780889E+01  0.3321264E+01
Ar  821  0.2632344E+02  0.2108354E+02  0.5398117E+01  0.2587547E+01
Ar  822  0.2899984E+02  0.2369172E+02  0.5398989E+01  0.2770453E+01
Ar  823  0.2902235E+02  0.2106542E+02  0.8025293E+01  0.1416661E+01
Ar  824  0.2632344E+02  0.2369259E+02  0.8007171E+01  0.2587599E+01
Ar  825  0.2632092E+02  0.2108289E+02  0.1063459E+02  0.7259945E+00
Ar  826  0.2900902E+02  0.2370741E+02  0.1063650E+02  0.1300284E+01
Ar  827  0.2900981E+02  0.2107091E+02  0.1324627E+02  0.3314926E+00
Ar  828  0.2632067E+02  0.2369479E+02  0.1324281E+02  0.1475579E+01
Ar  829  0.2631861E+02  0.2108322E+02  0.1584492E+02  0.3966062E+00
Ar  830  0.2899823E+02  0.2370370E+02  0.1584691E+02  0.6397508E+00
Ar  831  0.2902016E+02  0.2106915E+02  0.1844518E+02  0.9320811E+00
Ar  832  0.2632289E+02  0.2369468E+02  0.1846006E+02  0.2203360E+01
Ar  833  0.2632240E+02  0.2108345E+02  0.2108345E+02  0.1063337E+01
Ar  834  0.2901077E+02  0.2369826E+02  0.2106938E+02  0.2203921E+01
Ar  835  0.2901077E+02  0.2106938E+02  0.2369826E+02  0.2203921E+01
Ar  836  0.2632094E+02  0.2369225E+02  0.2369225E+02  0.4492658E+01
Ar  837  0.2631114E+02  0.2108239E+02  0.2631114E+02  0.2190325E+01
Ar  838  0.2898937E+02  0.2369248E+02  0.2630761E+02  0.2325411E+01
Ar  839  0.2900729E+02  0.2106895E+02  0.2900729E+02  0.1997944E+01
Ar  840  0.2630761E+02  0.2369248E+02  0.2898937E+02  0.2325411E+01
Ar  841  0.2629402E+02  0.2629402E+02  0.1105633E+00  0.3205939E+01
Ar  842  0.2894617E+02  0.2894617E+02  0.1445397E+00  0.1803361E+01
Ar  843  0.2898015E+02  0.2629402E+02  0.2796693E+01  0.3205981E+01
Ar  844  0.2629402E+02  0.2898015E+02  0.2796693E+01  0.3205981E+01
Ar  845  0.2630982E+02  0.2630982E+02  0.5403525E+01  0.3321181E+01
Ar  846  0.2899386E+02  0.2899386E+02  0.5386649E+01  0.3019262E+01
Ar  847  0.2900522E+02  0.2632032E+02  0.8010804E+01  0.2386513E+01
Ar  848  0.2632032E+02  0.2900522E+02  0.8010804E+01  0.2386513E+01
Ar  849  0.2631293E+02  0.2631293E+02  0.1062572E+02  0.1641047E+01
Ar  850  0.2899823E+02  0.2899823E+02  0.1063903E+02  0.1258400E+01
Ar  851  0.2899046E+02  0.2631322E+02  0.1324236E+02  0.9467281E+00
Ar  852  0.2631322E+02  0.2899046E+02  0.1324236E+02  0.9467281E+00
Ar  853  0.2630840E+02  0.2630840E+02  0.1584946E+02  0.1033513E+01
Ar  854  0.2898289E+02  0.2898289E+02  0.1584744E+02  0.5643575E+00
Ar  855  0.2900167E+02  0.2632048E+02  0.1845856E+02  0.1589914E+01
Ar  856  0.2632048E+02  0.2900167E+02  0.1845856E+02  0.1589914E+01
Ar  857  0.2631114E+02  0.2631114E+02  0.2108239E+02  0.2190325E+01
Ar  858  0.2900729E+02  0.2900729E+02  0.2106895E+02  0.1997944E+01
Ar  859  0.2898937E+02  0.2630761E+02  0.2369248E+02  0.2325411E+01
Ar  860  0.2630761E+02  0.2898937E+02  0.2369248E+02  0.2325411E+01
Ar  861  0.2629875E+02  0.2629875E+02  0.2629875E+02  0.4498143E+01
Ar  862  0.2896760E+02  0.2896760E+02  0.2631483E+02  0.2136922E+01
Ar  863  0.2896760E+02  0.2631483E+02  0.2896760E+02  0.2136922E+01
Ar  864  0.2631483E+02  0.2896760E+02  0.2896760E+02  0.2136922E+01
