         864
Lattice="  0.1000000E+03  0.0000000E+00  0.0000000E+00  0.0000000E+00  0.1000000E+03  0.0000000E+00  0.0000000E+00  0.0000000E+00  0.1000000E+03" Properties=species:S:1:id:I:1:pos:R:3:tempK:R:1
Ar    1  0.2411576E-01  0.2411576E-01  0.2411576E-01  0.7157561E+01
Ar    2  0.2683848E+01  0.2683848E+01 -0.1491599E-01  0.1949604E+01
Ar    3  0.2683848E+01 -0.1491599E-01  0.2683848E+01  0.1949604E+01
Ar    4 -0.1491599E-01  0.2683848E+01  0.2683848E+01  0.1949604E+01
Ar    5 -0.2828555E-01 -0.2828555E-01  0.5302348E+01  0.1193425E+01
Ar    6  0.2675376E+01  0.2675376E+01  0.5313590E+01  0.3452699E+01
Ar    7  0.2676817E+01 -0.1600291E-01  0.7931817E+01  0.6590214E+00
Ar    8 -0.1600291E-01  0.2676817E+01  0.7931817E+01  0.6590214E+00
Ar    9  0.1012476E-01  0.1012476E-01  0.1057878E+02  0.2601356E+00
Ar   10  0.2693386E+01  0.2693386E+01  0.1057735E+02  0.2095502E+00
Ar   11  0.2697681E+01 -0.8223659E-04  0.1321967E+02  0.2675094E+00
Ar   12 -0.8223659E-04  0.2697681E+01  0.1321967E+02  0.2675094E+00
Ar   13  0.1620667E-01  0.1620667E-01  0.1585861E+02  0.1429292E+00
Ar   14  0.2707823E+01  0.2707823E+01  0.1586953E+02  0.2672731E+00
Ar   15  0.2686314E+01 -0.7343318E-02  0.1851833E+02  0.1823228E+00
Ar   16 -0.7343318E-02  0.2686314E+01  0.1851833E+02  0.1823228E+00
Ar   17 -0.1428915E-01 -0.1428915E-01  0.2115904E+02  0.6524873E+00
Ar   18  0.2685586E+01  0.2685586E+01  0.2116312E+02  0.8063374E+00
Ar   19  0.2687769E+01 -0.2426220E-01  0.2379271E+02  0.1605006E+01
Ar   20 -0.2426220E-01  0.2687769E+01  0.2379271E+02  0.1605006E+01
Ar   21 -0.8703162E-02 -0.8703162E-02  0.2642934E+02  0.3420896E+01
Ar   22  0.2692699E+01  0.2692699E+01  0.2639801E+02  0.1262544E+01
Ar   23  0.2661373E+01 -0.8703089E-02  0.2909941E+02  0.3420905E+01
Ar   24 -0.8703089E-02  0.2661373E+01  0.2909941E+02  0.3420905E+01
Ar   25 -0.2828555E-01  0.5302348E+01 -0.2828555E-01  0.1193425E+01
Ar   26  0.2676817E+01  0.7931817E+01 -0.1600291E-01  0.6590214E+00
Ar   27  0.2675376E+01  0.5313590E+01  0.2675376E+01  0.3452699E+01
Ar   28 -0.1600291E-01  0.7931817E+01  0.2676817E+01  0.6590214E+00
Ar   29 -0.2821537E-01  0.5312833E+01  0.5312833E+01  0.9222202E+00
Ar   30  0.2682196E+01  0.7942120E+01  0.5309586E+01  0.2727581E+01
Ar   31  0.2682196E+01  0.5309586E+01  0.7942120E+01  0.2727581E+01
Ar   32  0.1012504E-01  0.7942054E+01  0.7942054E+01  0.5437935E+00
Ar   33  0.2205147E-02  0.5311245E+01  0.1057799E+02  0.1354790E+00
Ar   34  0.2714451E+01  0.7942913E+01  0.1057850E+02  0.3920579E+00
Ar   35  0.2689297E+01  0.5313241E+01  0.1321438E+02  0.5247812E+00
Ar   36  0.2618246E-01  0.7946844E+01  0.1322193E+02  0.3228246E+00
Ar   37  0.3655592E-02  0.5315792E+01  0.1586687E+02  0.8153479E-01
Ar   38  0.2708232E+01  0.7943337E+01  0.1585924E+02  0.6882470E+00
Ar   39  0.2691496E+01  0.5332482E+01  0.1851589E+02  0.1346704E+01
Ar   40  0.2383244E-01  0.7946056E+01  0.1851606E+02  0.5914338E+00
Ar   41 -0.8182279E-02  0.5313767E+01  0.2115523E+02  0.5458335E+00
Ar   42  0.2705731E+01  0.7932697E+01  0.2115801E+02  0.3599211E+00
Ar   43  0.2676803E+01  0.5309922E+01  0.2378079E+02  0.2219944E+01
Ar   44 -0.8182124E-02  0.7935478E+01  0.2377694E+02  0.5458316E+00
Ar   45 -0.2426214E-01  0.5297996E+01  0.2640294E+02  0.1605016E+01
Ar   46  0.2685586E+01  0.7927592E+01  0.2640512E+02  0.8063661E+00
Ar   47  0.2687768E+01  0.5297996E+01  0.2911497E+02  0.1605005E+01
Ar   48 -0.1428938E-01  0.7931669E+01  0.2910500E+02  0.6524818E+00
Ar   49  0.1012476E-01  0.1057878E+02  0.1012476E-01  0.2601356E+00
Ar   50  0.2697681E+01  0.1321967E+02 -0.8223659E-04  0.2675094E+00
Ar   51  0.2693386E+01  0.1057735E+02  0.2693386E+01  0.2095502E+00
Ar   52 -0.8223659E-04  0.1321967E+02  0.2697681E+01  0.2675094E+00
Ar   53  0.2205147E-02  0.1057799E+02  0.5311245E+01  0.1354790E+00
Ar   54  0.2689297E+01  0.1321438E+02  0.5313241E+01  0.5247812E+00
Ar   55  0.2714451E+01  0.1057850E+02  0.7942913E+01  0.3920579E+00
Ar   56  0.2618246E-01  0.1322193E+02  0.7946844E+01  0.3228246E+00
Ar   57  0.3414465E-01  0.1058250E+02  0.1058250E+02  0.1415114E+01
Ar   58  0.2730192E+01  0.1322144E+02  0.1058868E+02  0.6034210E-01
Ar   59  0.2730192E+01  0.1058868E+02  0.1322144E+02  0.6034210E-01
Ar   60  0.4586599E-01  0.1322742E+02  0.1322742E+02  0.2368997E+01
Ar   61  0.3641783E-01  0.1058610E+02  0.1586182E+02  0.1629644E+01
Ar   62  0.2720254E+01  0.1321959E+02  0.1587112E+02  0.9824944E-01
Ar   63  0.2734853E+01  0.1057931E+02  0.1851141E+02  0.5373136E+00
Ar   64  0.3641776E-01  0.1322889E+02  0.1850461E+02  0.1629628E+01
Ar   65  0.2383256E-01  0.1057465E+02  0.2114465E+02  0.5914260E+00
Ar   66  0.2708231E+01  0.1323147E+02  0.2114737E+02  0.6882615E+00
Ar   67  0.2691496E+01  0.1057482E+02  0.2375823E+02  0.1346682E+01
Ar   68  0.3655780E-02  0.1322384E+02  0.2377492E+02  0.8153877E-01
Ar   69 -0.7342968E-02  0.1057238E+02  0.2640440E+02  0.1823266E+00
Ar   70  0.2707823E+01  0.1322118E+02  0.2638289E+02  0.2672731E+00
Ar   71  0.2686314E+01  0.1057238E+02  0.2909805E+02  0.1823220E+00
Ar   72  0.1620621E-01  0.1323210E+02  0.2907450E+02  0.1429241E+00
Ar   73  0.1620667E-01  0.1585861E+02  0.1620667E-01  0.1429292E+00
Ar   74  0.2686314E+01  0.1851833E+02 -0.7343318E-02  0.1823228E+00
Ar   75  0.2707823E+01  0.1586953E+02  0.2707823E+01  0.2672731E+00
Ar   76 -0.7343318E-02  0.1851833E+02  0.2686314E+01  0.1823228E+00
Ar   77  0.3655592E-02  0.1586687E+02  0.5315792E+01  0.8153479E-01
Ar   78  0.2691496E+01  0.1851589E+02  0.5332482E+01  0.1346704E+01
Ar   79  0.2708232E+01  0.1585924E+02  0.7943337E+01  0.6882470E+00
Ar   80  0.2383244E-01  0.1851606E+02  0.7946056E+01  0.5914338E+00
Ar   81  0.3641783E-01  0.1586182E+02  0.1058610E+02  0.1629644E+01
Ar   82  0.2734853E+01  0.1851141E+02  0.1057931E+02  0.5373136E+00
Ar   83  0.2720254E+01  0.1587112E+02  0.1321959E+02  0.9824944E-01
Ar   84  0.3641776E-01  0.1850461E+02  0.1322889E+02  0.1629628E+01
Ar   85  0.4586586E-01  0.1586329E+02  0.1586329E+02  0.2368998E+01
Ar   86  0.2730192E+01  0.1850203E+02  0.1586927E+02  0.6033925E-01
Ar   87  0.2730192E+01  0.1586927E+02  0.1850203E+02  0.6033925E-01
Ar   88  0.3414436E-01  0.1850821E+02  0.1850821E+02  0.1415123E+01
Ar   89  0.2618233E-01  0.1586879E+02  0.2114387E+02  0.3228270E+00
Ar   90  0.2714451E+01  0.1851221E+02  0.2114780E+02  0.3920654E+00
Ar   91  0.2689297E+01  0.1587633E+02  0.2377747E+02  0.5247668E+00
Ar   92  0.2205085E-02  0.1851272E+02  0.2377946E+02  0.1354813E+00
Ar   93 -0.8209987E-04  0.1587104E+02  0.2639303E+02  0.2675111E+00
Ar   94  0.2693386E+01  0.1851336E+02  0.2639732E+02  0.2095471E+00
Ar   95  0.2697681E+01  0.1587104E+02  0.2909079E+02  0.2675159E+00
Ar   96  0.1012470E-01  0.1851193E+02  0.2908059E+02  0.2601420E+00
Ar   97 -0.1428915E-01  0.2115904E+02 -0.1428915E-01  0.6524873E+00
Ar   98  0.2687769E+01  0.2379271E+02 -0.2426220E-01  0.1605006E+01
Ar   99  0.2685586E+01  0.2116312E+02  0.2685586E+01  0.8063374E+00
Ar  100 -0.2426220E-01  0.2379271E+02  0.2687769E+01  0.1605006E+01
Ar  101 -0.8182279E-02  0.2115523E+02  0.5313767E+01  0.5458335E+00
Ar  102  0.2676803E+01  0.2378079E+02  0.5309922E+01  0.2219944E+01
Ar  103  0.2705731E+01  0.2115801E+02  0.7932697E+01  0.3599211E+00
Ar  104 -0.8182124E-02  0.2377694E+02  0.7935478E+01  0.5458316E+00
Ar  105  0.2383256E-01  0.2114465E+02  0.1057465E+02  0.5914260E+00
Ar  106  0.2691496E+01  0.2375823E+02  0.1057482E+02  0.1346682E+01
Ar  107  0.2708231E+01  0.2114737E+02  0.1323147E+02  0.6882615E+00
Ar  108  0.3655780E-02  0.2377492E+02  0.1322384E+02  0.8153877E-01
Ar  109  0.2618233E-01  0.2114387E+02  0.1586879E+02  0.3228270E+00
Ar  110  0.2689297E+01  0.2377747E+02  0.1587633E+02  0.5247668E+00
Ar  111  0.2714451E+01  0.2114780E+02  0.1851221E+02  0.3920654E+00
Ar  112  0.2205085E-02  0.2377946E+02  0.1851272E+02  0.1354813E+00
Ar  113  0.1012506E-01  0.2114866E+02  0.2114866E+02  0.5438080E+00
Ar  114  0.2682196E+01  0.2378112E+02  0.2114859E+02  0.2727558E+01
Ar  115  0.2682196E+01  0.2114859E+02  0.2378112E+02  0.2727558E+01
Ar  116 -0.2821506E-01  0.2377788E+02  0.2377788E+02  0.9222294E+00
Ar  117 -0.1600271E-01  0.2115889E+02  0.2641389E+02  0.6590269E+00
Ar  118  0.2675376E+01  0.2377712E+02  0.2641533E+02  0.3452759E+01
Ar  119  0.2676817E+01  0.2115889E+02  0.2910671E+02  0.6590124E+00
Ar  120 -0.2828559E-01  0.2378836E+02  0.2911900E+02  0.1193402E+01
Ar  121 -0.8703162E-02  0.2642934E+02 -0.8703162E-02  0.3420896E+01
Ar  122  0.2661373E+01  0.2909941E+02 -0.8703089E-02  0.3420905E+01
Ar  123  0.2692699E+01  0.2639801E+02  0.2692699E+01  0.1262544E+01
Ar  124 -0.8703089E-02  0.2909941E+02  0.2661373E+01  0.3420905E+01
Ar  125 -0.2426214E-01  0.2640294E+02  0.5297996E+01  0.1605016E+01
Ar  126  0.2687768E+01  0.2911497E+02  0.5297996E+01  0.1605005E+01
Ar  127  0.2685586E+01  0.2640512E+02  0.7927592E+01  0.8063661E+00
Ar  128 -0.1428938E-01  0.2910500E+02  0.7931669E+01  0.6524818E+00
Ar  129 -0.7342968E-02  0.2640440E+02  0.1057238E+02  0.1823266E+00
Ar  130  0.2686314E+01  0.2909805E+02  0.1057238E+02  0.1823220E+00
Ar  131  0.2707823E+01  0.2638289E+02  0.1322118E+02  0.2672731E+00
Ar  132  0.1620621E-01  0.2907450E+02  0.1323210E+02  0.1429241E+00
Ar  133 -0.8209987E-04  0.2639303E+02  0.1587104E+02  0.2675111E+00
Ar  134  0.2697681E+01  0.2909079E+02  0.1587104E+02  0.2675159E+00
Ar  135  0.2693386E+01  0.2639732E+02  0.1851336E+02  0.2095471E+00
Ar  136  0.1012470E-01  0.2908059E+02  0.1851193E+02  0.2601420E+00
Ar  137 -0.1600271E-01  0.2641389E+02  0.2115889E+02  0.6590269E+00
Ar  138  0.2676817E+01  0.2910671E+02  0.2115889E+02  0.6590124E+00
Ar  139  0.2675376E+01  0.2641533E+02  0.2377712E+02  0.3452759E+01
Ar  140 -0.2828559E-01  0.2911900E+02  0.2378836E+02  0.1193402E+01
Ar  141 -0.1491563E-01  0.2640686E+02  0.2640686E+02  0.1949585E+01
Ar  142  0.2683848E+01  0.2910563E+02  0.2640686E+02  0.1949572E+01
Ar  143  0.2683848E+01  0.2640686E+02  0.2910563E+02  0.1949572E+01
Ar  144  0.2411545E-01  0.2906659E+02  0.2906659E+02  0.7157575E+01
Ar  145  0.5302348E+01 -0.2828555E-01 -0.2828555E-01  0.1193425E+01
Ar  146  0.7931817E+01  0.2676817E+01 -0.1600291E-01  0.6590214E+00
Ar  147  0.7931817E+01 -0.1600291E-01  0.2676817E+01  0.6590214E+00
Ar  148  0.5313590E+01  0.2675376E+01  0.2675376E+01  0.3452699E+01
Ar  149  0.5312833E+01 -0.2821537E-01  0.5312833E+01  0.9222202E+00
Ar  150  0.7942120E+01  0.2682196E+01  0.5309586E+01  0.2727581E+01
Ar  151  0.7942054E+01  0.1012504E-01  0.7942054E+01  0.5437935E+00
Ar  152  0.5309586E+01  0.2682196E+01  0.7942120E+01  0.2727581E+01
Ar  153  0.5311245E+01  0.2205147E-02  0.1057799E+02  0.1354790E+00
Ar  154  0.7942913E+01  0.2714451E+01  0.1057850E+02  0.3920579E+00
Ar  155  0.7946844E+01  0.2618246E-01  0.1322193E+02  0.3228246E+00
Ar  156  0.5313241E+01  0.2689297E+01  0.1321438E+02  0.5247812E+00
Ar  157  0.5315792E+01  0.3655592E-02  0.1586687E+02  0.8153479E-01
Ar  158  0.7943337E+01  0.2708232E+01  0.1585924E+02  0.6882470E+00
Ar  159  0.7946056E+01  0.2383244E-01  0.1851606E+02  0.5914338E+00
Ar  160  0.5332482E+01  0.2691496E+01  0.1851589E+02  0.1346704E+01
Ar  161  0.5313767E+01 -0.8182279E-02  0.2115523E+02  0.5458335E+00
Ar  162  0.7932697E+01  0.2705731E+01  0.2115801E+02  0.3599211E+00
Ar  163  0.7935478E+01 -0.8182124E-02  0.2377694E+02  0.5458316E+00
Ar  164  0.5309922E+01  0.2676803E+01  0.2378079E+02  0.2219944E+01
Ar  165  0.5297996E+01 -0.2426214E-01  0.2640294E+02  0.1605016E+01
Ar  166  0.7927592E+01  0.2685586E+01  0.2640512E+02  0.8063661E+00
Ar  167  0.7931669E+01 -0.1428938E-01  0.2910500E+02  0.6524818E+00
Ar  168  0.5297996E+01  0.2687768E+01  0.2911497E+02  0.1605005E+01
Ar  169  0.5312833E+01  0.5312833E+01 -0.2821537E-01  0.9222202E+00
Ar  170  0.7942054E+01  0.7942054E+01  0.1012504E-01  0.5437935E+00
Ar  171  0.7942120E+01  0.5309586E+01  0.2682196E+01  0.2727581E+01
Ar  172  0.5309586E+01  0.7942120E+01  0.2682196E+01  0.2727581E+01
Ar  173  0.5321594E+01  0.5321594E+01  0.5321594E+01  0.1942602E+01
Ar  174  0.7952877E+01  0.7952877E+01  0.5333280E+01  0.4065354E+00
Ar  175  0.7952877E+01  0.5333280E+01  0.7952877E+01  0.4065354E+00
Ar  176  0.5333280E+01  0.7952877E+01  0.7952877E+01  0.4065354E+00
Ar  177  0.5324236E+01  0.5324236E+01  0.1057862E+02  0.9370302E+00
Ar  178  0.7960725E+01  0.7960725E+01  0.1059809E+02  0.1409802E+00
Ar  179  0.7950779E+01  0.5325474E+01  0.1321651E+02  0.3994400E+00
Ar  180  0.5325474E+01  0.7950779E+01  0.1321651E+02  0.3994400E+00
Ar  181  0.5331548E+01  0.5331548E+01  0.1587987E+02  0.4765049E+00
Ar  182  0.7949349E+01  0.7949349E+01  0.1586704E+02  0.4817391E-01
Ar  183  0.7950339E+01  0.5336339E+01  0.1852192E+02  0.5302363E+00
Ar  184  0.5336339E+01  0.7950339E+01  0.1852192E+02  0.5302363E+00
Ar  185  0.5313915E+01  0.5313915E+01  0.2115290E+02  0.1144833E+01
Ar  186  0.7957798E+01  0.7957798E+01  0.2113291E+02  0.8216410E+00
Ar  187  0.7937809E+01  0.5313915E+01  0.2377679E+02  0.1144791E+01
Ar  188  0.5313915E+01  0.7937809E+01  0.2377679E+02  0.1144791E+01
Ar  189  0.5309922E+01  0.5309922E+01  0.2641391E+02  0.2219988E+01
Ar  190  0.7932697E+01  0.7932697E+01  0.2638498E+02  0.3599541E+00
Ar  191  0.7935478E+01  0.5313767E+01  0.2909889E+02  0.5458163E+00
Ar  192  0.5313767E+01  0.7935478E+01  0.2909889E+02  0.5458163E+00
Ar  193  0.5311245E+01  0.1057799E+02  0.2205147E-02  0.1354790E+00
Ar  194  0.7946844E+01  0.1322193E+02  0.2618246E-01  0.3228246E+00
Ar  195  0.7942913E+01  0.1057850E+02  0.2714451E+01  0.3920579E+00
Ar  196  0.5313241E+01  0.1321438E+02  0.2689297E+01  0.5247812E+00
Ar  197  0.5324236E+01  0.1057862E+02  0.5324236E+01  0.9370302E+00
Ar  198  0.7950779E+01  0.1321651E+02  0.5325474E+01  0.3994400E+00
Ar  199  0.7960725E+01  0.1059809E+02  0.7960725E+01  0.1409802E+00
Ar  200  0.5325474E+01  0.1321651E+02  0.7950779E+01  0.3994400E+00
Ar  201  0.5353677E+01  0.1057198E+02  0.1057198E+02  0.5541805E+00
Ar  202  0.7959732E+01  0.1322594E+02  0.1058731E+02  0.2415533E+00
Ar  203  0.7959732E+01  0.1058731E+02  0.1322594E+02  0.2415533E+00
Ar  204  0.5335931E+01  0.1321397E+02  0.1321397E+02  0.6145187E+00
Ar  205  0.5350431E+01  0.1057515E+02  0.1587962E+02  0.4135187E+00
Ar  206  0.7956049E+01  0.1322677E+02  0.1586394E+02  0.5876687E-01
Ar  207  0.7967954E+01  0.1058763E+02  0.1850308E+02  0.3638902E+00
Ar  208  0.5350431E+01  0.1321109E+02  0.1851556E+02  0.4135070E+00
Ar  209  0.5336339E+01  0.1056879E+02  0.2114037E+02  0.5302797E+00
Ar  210  0.7949349E+01  0.1322367E+02  0.2114136E+02  0.4816806E-01
Ar  211  0.7950339E+01  0.1056879E+02  0.2375437E+02  0.5302642E+00
Ar  212  0.5331548E+01  0.1321084E+02  0.2375916E+02  0.4764842E+00
Ar  213  0.5332482E+01  0.1057482E+02  0.2639921E+02  0.1346713E+01
Ar  214  0.7943337E+01  0.1323147E+02  0.2638248E+02  0.6882703E+00
Ar  215  0.7946056E+01  0.1057465E+02  0.2906688E+02  0.5914294E+00
Ar  216  0.5315792E+01  0.1322384E+02  0.2908705E+02  0.8153417E-01
Ar  217  0.5315792E+01  0.1586687E+02  0.3655592E-02  0.8153479E-01
Ar  218  0.7946056E+01  0.1851606E+02  0.2383244E-01  0.5914338E+00
Ar  219  0.7943337E+01  0.1585924E+02  0.2708232E+01  0.6882470E+00
Ar  220  0.5332482E+01  0.1851589E+02  0.2691496E+01  0.1346704E+01
Ar  221  0.5331548E+01  0.1587987E+02  0.5331548E+01  0.4765049E+00
Ar  222  0.7950339E+01  0.1852192E+02  0.5336339E+01  0.5302363E+00
Ar  223  0.7949349E+01  0.1586704E+02  0.7949349E+01  0.4817391E-01
Ar  224  0.5336339E+01  0.1852192E+02  0.7950339E+01  0.5302363E+00
Ar  225  0.5350431E+01  0.1587962E+02  0.1057515E+02  0.4135187E+00
Ar  226  0.7967954E+01  0.1850308E+02  0.1058763E+02  0.3638902E+00
Ar  227  0.7956049E+01  0.1586394E+02  0.1322677E+02  0.5876687E-01
Ar  228  0.5350431E+01  0.1851556E+02  0.1321109E+02  0.4135070E+00
Ar  229  0.5335931E+01  0.1587674E+02  0.1587674E+02  0.6145285E+00
Ar  230  0.7959732E+01  0.1850340E+02  0.1586477E+02  0.2415312E+00
Ar  231  0.7959732E+01  0.1586477E+02  0.1850340E+02  0.2415312E+00
Ar  232  0.5353676E+01  0.1851873E+02  0.1851873E+02  0.5541553E+00
Ar  233  0.5325474E+01  0.1587420E+02  0.2113993E+02  0.3994569E+00
Ar  234  0.7960724E+01  0.1849262E+02  0.2112999E+02  0.1409546E+00
Ar  235  0.7950780E+01  0.1587420E+02  0.2376524E+02  0.3994571E+00
Ar  236  0.5324236E+01  0.1851209E+02  0.2376647E+02  0.9370010E+00
Ar  237  0.5313241E+01  0.1587633E+02  0.2640141E+02  0.5247807E+00
Ar  238  0.7942913E+01  0.1851221E+02  0.2637626E+02  0.3920860E+00
Ar  239  0.7946844E+01  0.1586879E+02  0.2906453E+02  0.3228376E+00
Ar  240  0.5311245E+01  0.1851272E+02  0.2908851E+02  0.1354796E+00
Ar  241  0.5313767E+01  0.2115523E+02 -0.8182279E-02  0.5458335E+00
Ar  242  0.7935478E+01  0.2377694E+02 -0.8182124E-02  0.5458316E+00
Ar  243  0.7932697E+01  0.2115801E+02  0.2705731E+01  0.3599211E+00
Ar  244  0.5309922E+01  0.2378079E+02  0.2676803E+01  0.2219944E+01
Ar  245  0.5313915E+01  0.2115290E+02  0.5313915E+01  0.1144833E+01
Ar  246  0.7937809E+01  0.2377679E+02  0.5313915E+01  0.1144791E+01
Ar  247  0.7957798E+01  0.2113291E+02  0.7957798E+01  0.8216410E+00
Ar  248  0.5313915E+01  0.2377679E+02  0.7937809E+01  0.1144791E+01
Ar  249  0.5336339E+01  0.2114037E+02  0.1056879E+02  0.5302797E+00
Ar  250  0.7950339E+01  0.2375437E+02  0.1056879E+02  0.5302642E+00
Ar  251  0.7949349E+01  0.2114136E+02  0.1322367E+02  0.4816806E-01
Ar  252  0.5331548E+01  0.2375916E+02  0.1321084E+02  0.4764842E+00
Ar  253  0.5325474E+01  0.2113993E+02  0.1587420E+02  0.3994569E+00
Ar  254  0.7950780E+01  0.2376524E+02  0.1587420E+02  0.3994571E+00
Ar  255  0.7960724E+01  0.2112999E+02  0.1849262E+02  0.1409546E+00
Ar  256  0.5324236E+01  0.2376647E+02  0.1851209E+02  0.9370010E+00
Ar  257  0.5333279E+01  0.2113783E+02  0.2113783E+02  0.4065560E+00
Ar  258  0.7952877E+01  0.2375743E+02  0.2113783E+02  0.4065287E+00
Ar  259  0.7952877E+01  0.2113783E+02  0.2375743E+02  0.4065287E+00
Ar  260  0.5321594E+01  0.2376912E+02  0.2376912E+02  0.1942543E+01
Ar  261  0.5309586E+01  0.2114859E+02  0.2640851E+02  0.2727618E+01
Ar  262  0.7942120E+01  0.2378112E+02  0.2640851E+02  0.2727623E+01
Ar  263  0.7942054E+01  0.2114866E+02  0.2908059E+02  0.5438040E+00
Ar  264  0.5312833E+01  0.2377788E+02  0.2911893E+02  0.9222138E+00
Ar  265  0.5297996E+01  0.2640294E+02 -0.2426214E-01  0.1605016E+01
Ar  266  0.7931669E+01  0.2910500E+02 -0.1428938E-01  0.6524818E+00
Ar  267  0.7927592E+01  0.2640512E+02  0.2685586E+01  0.8063661E+00
Ar  268  0.5297996E+01  0.2911497E+02  0.2687768E+01  0.1605005E+01
Ar  269  0.5309922E+01  0.2641391E+02  0.5309922E+01  0.2219988E+01
Ar  270  0.7935478E+01  0.2909889E+02  0.5313767E+01  0.5458163E+00
Ar  271  0.7932697E+01  0.2638498E+02  0.7932697E+01  0.3599541E+00
Ar  272  0.5313767E+01  0.2909889E+02  0.7935478E+01  0.5458163E+00
Ar  273  0.5332482E+01  0.2639921E+02  0.1057482E+02  0.1346713E+01
Ar  274  0.7946056E+01  0.2906688E+02  0.1057465E+02  0.5914294E+00
Ar  275  0.7943337E+01  0.2638248E+02  0.1323147E+02  0.6882703E+00
Ar  276  0.5315792E+01  0.2908705E+02  0.1322384E+02  0.8153417E-01
Ar  277  0.5313241E+01  0.2640141E+02  0.1587633E+02  0.5247807E+00
Ar  278  0.7946844E+01  0.2906453E+02  0.1586879E+02  0.3228376E+00
Ar  279  0.7942913E+01  0.2637626E+02  0.1851221E+02  0.3920860E+00
Ar  280  0.5311245E+01  0.2908851E+02  0.1851272E+02  0.1354796E+00
Ar  281  0.5309586E+01  0.2640851E+02  0.2114859E+02  0.2727618E+01
Ar  282  0.7942054E+01  0.2908059E+02  0.2114866E+02  0.5438040E+00
Ar  283  0.7942120E+01  0.2640851E+02  0.2378112E+02  0.2727623E+01
Ar  284  0.5312833E+01  0.2911893E+02  0.2377788E+02  0.9222138E+00
Ar  285  0.5313590E+01  0.2641533E+02  0.2641533E+02  0.3452748E+01
Ar  286  0.7931817E+01  0.2910671E+02  0.2641389E+02  0.6590165E+00
Ar  287  0.7931817E+01  0.2641389E+02  0.2910671E+02  0.6590165E+00
Ar  288  0.5302348E+01  0.2911900E+02  0.2911900E+02  0.1193418E+01
Ar  289  0.1057878E+02  0.1012476E-01  0.1012476E-01  0.2601356E+00
Ar  290  0.1321967E+02  0.2697681E+01 -0.8223659E-04  0.2675094E+00
Ar  291  0.1321967E+02 -0.8223659E-04  0.2697681E+01  0.2675094E+00
Ar  292  0.1057735E+02  0.2693386E+01  0.2693386E+01  0.2095502E+00
Ar  293  0.1057799E+02  0.2205147E-02  0.5311245E+01  0.1354790E+00
Ar  294  0.1321438E+02  0.2689297E+01  0.5313241E+01  0.5247812E+00
Ar  295  0.1322193E+02  0.2618246E-01  0.7946844E+01  0.3228246E+00
Ar  296  0.1057850E+02  0.2714451E+01  0.7942913E+01  0.3920579E+00
Ar  297  0.1058250E+02  0.3414465E-01  0.1058250E+02  0.1415114E+01
Ar  298  0.1322144E+02  0.2730192E+01  0.1058868E+02  0.6034210E-01
Ar  299  0.1322742E+02  0.4586599E-01  0.1322742E+02  0.2368997E+01
Ar  300  0.1058868E+02  0.2730192E+01  0.1322144E+02  0.6034210E-01
Ar  301  0.1058610E+02  0.3641783E-01  0.1586182E+02  0.1629644E+01
Ar  302  0.1321959E+02  0.2720254E+01  0.1587112E+02  0.9824944E-01
Ar  303  0.1322889E+02  0.3641776E-01  0.1850461E+02  0.1629628E+01
Ar  304  0.1057931E+02  0.2734853E+01  0.1851141E+02  0.5373136E+00
Ar  305  0.1057465E+02  0.2383256E-01  0.2114465E+02  0.5914260E+00
Ar  306  0.1323147E+02  0.2708231E+01  0.2114737E+02  0.6882615E+00
Ar  307  0.1322384E+02  0.3655780E-02  0.2377492E+02  0.8153877E-01
Ar  308  0.1057482E+02  0.2691496E+01  0.2375823E+02  0.1346682E+01
Ar  309  0.1057238E+02 -0.7342968E-02  0.2640440E+02  0.1823266E+00
Ar  310  0.1322118E+02  0.2707823E+01  0.2638289E+02  0.2672731E+00
Ar  311  0.1323210E+02  0.1620621E-01  0.2907450E+02  0.1429241E+00
Ar  312  0.1057238E+02  0.2686314E+01  0.2909805E+02  0.1823220E+00
Ar  313  0.1057799E+02  0.5311245E+01  0.2205147E-02  0.1354790E+00
Ar  314  0.1322193E+02  0.7946844E+01  0.2618246E-01  0.3228246E+00
Ar  315  0.1321438E+02  0.5313241E+01  0.2689297E+01  0.5247812E+00
Ar  316  0.1057850E+02  0.7942913E+01  0.2714451E+01  0.3920579E+00
Ar  317  0.1057862E+02  0.5324236E+01  0.5324236E+01  0.9370302E+00
Ar  318  0.1321651E+02  0.7950779E+01  0.5325474E+01  0.3994400E+00
Ar  319  0.1321651E+02  0.5325474E+01  0.7950779E+01  0.3994400E+00
Ar  320  0.1059809E+02  0.7960725E+01  0.7960725E+01  0.1409802E+00
Ar  321  0.1057198E+02  0.5353677E+01  0.1057198E+02  0.5541805E+00
Ar  322  0.1322594E+02  0.7959732E+01  0.1058731E+02  0.2415533E+00
Ar  323  0.1321397E+02  0.5335931E+01  0.1321397E+02  0.6145187E+00
Ar  324  0.1058731E+02  0.7959732E+01  0.1322594E+02  0.2415533E+00
Ar  325  0.1057515E+02  0.5350431E+01  0.1587962E+02  0.4135187E+00
Ar  326  0.1322677E+02  0.7956049E+01  0.1586394E+02  0.5876687E-01
Ar  327  0.1321109E+02  0.5350431E+01  0.1851556E+02  0.4135070E+00
Ar  328  0.1058763E+02  0.7967954E+01  0.1850308E+02  0.3638902E+00
Ar  329  0.1056879E+02  0.5336339E+01  0.2114037E+02  0.5302797E+00
Ar  330  0.1322367E+02  0.7949349E+01  0.2114136E+02  0.4816806E-01
Ar  331  0.1321084E+02  0.5331548E+01  0.2375916E+02  0.4764842E+00
Ar  332  0.1056879E+02  0.7950339E+01  0.2375437E+02  0.5302642E+00
Ar  333  0.1057482E+02  0.5332482E+01  0.2639921E+02  0.1346713E+01
Ar  334  0.1323147E+02  0.7943337E+01  0.2638248E+02  0.6882703E+00
Ar  335  0.1322384E+02  0.5315792E+01  0.2908705E+02  0.8153417E-01
Ar  336  0.1057465E+02  0.7946056E+01  0.2906688E+02  0.5914294E+00
Ar  337  0.1058250E+02  0.1058250E+02  0.3414465E-01  0.1415114E+01
Ar  338  0.1322742E+02  0.1322742E+02  0.4586599E-01  0.2368997E+01
Ar  339  0.1322144E+02  0.1058868E+02  0.2730192E+01  0.6034210E-01
Ar  340  0.1058868E+02  0.1322144E+02  0.2730192E+01  0.6034210E-01
Ar  341  0.1057198E+02  0.1057198E+02  0.5353677E+01  0.5541805E+00
Ar  342  0.1321397E+02  0.1321397E+02  0.5335931E+01  0.6145187E+00
Ar  343  0.1322594E+02  0.1058731E+02  0.7959732E+01  0.2415533E+00
Ar  344  0.1058731E+02  0.1322594E+02  0.7959732E+01  0.2415533E+00
Ar  345  0.1057953E+02  0.1057953E+02  0.1057953E+02  0.1667363E-02
Ar  346  0.1321828E+02  0.1321828E+02  0.1058479E+02  0.4073244E+00
Ar  347  0.1321828E+02  0.1058479E+02  0.1321828E+02  0.4073244E+00
Ar  348  0.1058479E+02  0.1321828E+02  0.1321828E+02  0.4073244E+00
Ar  349  0.1058313E+02  0.1058313E+02  0.1587025E+02  0.2745039E+00
Ar  350  0.1322064E+02  0.1322064E+02  0.1587007E+02  0.3188095E-01
Ar  351  0.1322046E+02  0.1058313E+02  0.1850758E+02  0.2744834E+00
Ar  352  0.1058313E+02  0.1322046E+02  0.1850758E+02  0.2744834E+00
Ar  353  0.1058763E+02  0.1058763E+02  0.2112276E+02  0.3638952E+00
Ar  354  0.1322677E+02  0.1322677E+02  0.2113466E+02  0.5875895E-01
Ar  355  0.1321109E+02  0.1057515E+02  0.2374028E+02  0.4135181E+00
Ar  356  0.1057515E+02  0.1321109E+02  0.2374028E+02  0.4135181E+00
Ar  357  0.1057931E+02  0.1057931E+02  0.2635586E+02  0.5373342E+00
Ar  358  0.1321959E+02  0.1321959E+02  0.2637046E+02  0.9824521E-01
Ar  359  0.1322889E+02  0.1058610E+02  0.2905429E+02  0.1629657E+01
Ar  360  0.1058610E+02  0.1322889E+02  0.2905429E+02  0.1629657E+01
Ar  361  0.1058610E+02  0.1586182E+02  0.3641783E-01  0.1629644E+01
Ar  362  0.1322889E+02  0.1850461E+02  0.3641776E-01  0.1629628E+01
Ar  363  0.1321959E+02  0.1587112E+02  0.2720254E+01  0.9824944E-01
Ar  364  0.1057931E+02  0.1851141E+02  0.2734853E+01  0.5373136E+00
Ar  365  0.1057515E+02  0.1587962E+02  0.5350431E+01  0.4135187E+00
Ar  366  0.1321109E+02  0.1851556E+02  0.5350431E+01  0.4135070E+00
Ar  367  0.1322677E+02  0.1586394E+02  0.7956049E+01  0.5876687E-01
Ar  368  0.1058763E+02  0.1850308E+02  0.7967954E+01  0.3638902E+00
Ar  369  0.1058313E+02  0.1587025E+02  0.1058313E+02  0.2745039E+00
Ar  370  0.1322046E+02  0.1850758E+02  0.1058313E+02  0.2744834E+00
Ar  371  0.1322064E+02  0.1587007E+02  0.1322064E+02  0.3188095E-01
Ar  372  0.1058313E+02  0.1850758E+02  0.1322046E+02  0.2744834E+00
Ar  373  0.1058479E+02  0.1587243E+02  0.1587243E+02  0.4073354E+00
Ar  374  0.1321828E+02  0.1850592E+02  0.1587243E+02  0.4073205E+00
Ar  375  0.1321828E+02  0.1587243E+02  0.1850592E+02  0.4073205E+00
Ar  376  0.1057953E+02  0.1851118E+02  0.1851118E+02  0.1668501E-02
Ar  377  0.1058731E+02  0.1586477E+02  0.2113098E+02  0.2415650E+00
Ar  378  0.1322594E+02  0.1850340E+02  0.2113098E+02  0.2415310E+00
Ar  379  0.1321397E+02  0.1587674E+02  0.2375478E+02  0.6145273E+00
Ar  380  0.1057198E+02  0.1851873E+02  0.2373703E+02  0.5541463E+00
Ar  381  0.1058868E+02  0.1586927E+02  0.2636052E+02  0.6034593E-01
Ar  382  0.1322144E+02  0.1850203E+02  0.2636052E+02  0.6034431E-01
Ar  383  0.1322742E+02  0.1586329E+02  0.2904484E+02  0.2368999E+01
Ar  384  0.1058250E+02  0.1850821E+02  0.2905657E+02  0.1415127E+01
Ar  385  0.1057465E+02  0.2114465E+02  0.2383256E-01  0.5914260E+00
Ar  386  0.1322384E+02  0.2377492E+02  0.3655780E-02  0.8153877E-01
Ar  387  0.1323147E+02  0.2114737E+02  0.2708231E+01  0.6882615E+00
Ar  388  0.1057482E+02  0.2375823E+02  0.2691496E+01  0.1346682E+01
Ar  389  0.1056879E+02  0.2114037E+02  0.5336339E+01  0.5302797E+00
Ar  390  0.1321084E+02  0.2375916E+02  0.5331548E+01  0.4764842E+00
Ar  391  0.1322367E+02  0.2114136E+02  0.7949349E+01  0.4816806E-01
Ar  392  0.1056879E+02  0.2375437E+02  0.7950339E+01  0.5302642E+00
Ar  393  0.1058763E+02  0.2112276E+02  0.1058763E+02  0.3638952E+00
Ar  394  0.1321109E+02  0.2374028E+02  0.1057515E+02  0.4135181E+00
Ar  395  0.1322677E+02  0.2113466E+02  0.1322677E+02  0.5875895E-01
Ar  396  0.1057515E+02  0.2374028E+02  0.1321109E+02  0.4135181E+00
Ar  397  0.1058731E+02  0.2113098E+02  0.1586477E+02  0.2415650E+00
Ar  398  0.1321397E+02  0.2375478E+02  0.1587674E+02  0.6145273E+00
Ar  399  0.1322594E+02  0.2113098E+02  0.1850340E+02  0.2415310E+00
Ar  400  0.1057198E+02  0.2373703E+02  0.1851873E+02  0.5541463E+00
Ar  401  0.1059809E+02  0.2112999E+02  0.2112999E+02  0.1409720E+00
Ar  402  0.1321651E+02  0.2376524E+02  0.2113993E+02  0.3994594E+00
Ar  403  0.1321651E+02  0.2113993E+02  0.2376524E+02  0.3994594E+00
Ar  404  0.1057862E+02  0.2376647E+02  0.2376647E+02  0.9370105E+00
Ar  405  0.1057850E+02  0.2114780E+02  0.2637626E+02  0.3920803E+00
Ar  406  0.1321438E+02  0.2377747E+02  0.2640141E+02  0.5247888E+00
Ar  407  0.1322192E+02  0.2114387E+02  0.2906453E+02  0.3228316E+00
Ar  408  0.1057799E+02  0.2377946E+02  0.2908850E+02  0.1354799E+00
Ar  409  0.1057238E+02  0.2640440E+02 -0.7342968E-02  0.1823266E+00
Ar  410  0.1323210E+02  0.2907450E+02  0.1620621E-01  0.1429241E+00
Ar  411  0.1322118E+02  0.2638289E+02  0.2707823E+01  0.2672731E+00
Ar  412  0.1057238E+02  0.2909805E+02  0.2686314E+01  0.1823220E+00
Ar  413  0.1057482E+02  0.2639921E+02  0.5332482E+01  0.1346713E+01
Ar  414  0.1322384E+02  0.2908705E+02  0.5315792E+01  0.8153417E-01
Ar  415  0.1323147E+02  0.2638248E+02  0.7943337E+01  0.6882703E+00
Ar  416  0.1057465E+02  0.2906688E+02  0.7946056E+01  0.5914294E+00
Ar  417  0.1057931E+02  0.2635586E+02  0.1057931E+02  0.5373342E+00
Ar  418  0.1322889E+02  0.2905429E+02  0.1058610E+02  0.1629657E+01
Ar  419  0.1321959E+02  0.2637046E+02  0.1321959E+02  0.9824521E-01
Ar  420  0.1058610E+02  0.2905429E+02  0.1322889E+02  0.1629657E+01
Ar  421  0.1058868E+02  0.2636052E+02  0.1586927E+02  0.6034593E-01
Ar  422  0.1322742E+02  0.2904484E+02  0.1586329E+02  0.2368999E+01
Ar  423  0.1322144E+02  0.2636052E+02  0.1850203E+02  0.6034431E-01
Ar  424  0.1058250E+02  0.2905657E+02  0.1850821E+02  0.1415127E+01
Ar  425  0.1057850E+02  0.2637626E+02  0.2114780E+02  0.3920803E+00
Ar  426  0.1322192E+02  0.2906453E+02  0.2114387E+02  0.3228316E+00
Ar  427  0.1321438E+02  0.2640141E+02  0.2377747E+02  0.5247888E+00
Ar  428  0.1057799E+02  0.2908850E+02  0.2377946E+02  0.1354799E+00
Ar  429  0.1057735E+02  0.2639732E+02  0.2639732E+02  0.2095506E+00
Ar  430  0.1321967E+02  0.2909079E+02  0.2639303E+02  0.2675081E+00
Ar  431  0.1321967E+02  0.2639303E+02  0.2909079E+02  0.2675081E+00
Ar  432  0.1057878E+02  0.2908059E+02  0.2908059E+02  0.2601292E+00
Ar  433  0.1585861E+02  0.1620667E-01  0.1620667E-01  0.1429292E+00
Ar  434  0.1851833E+02  0.2686314E+01 -0.7343318E-02  0.1823228E+00
Ar  435  0.1851833E+02 -0.7343318E-02  0.2686314E+01  0.1823228E+00
Ar  436  0.1586953E+02  0.2707823E+01  0.2707823E+01  0.2672731E+00
Ar  437  0.1586687E+02  0.3655592E-02  0.5315792E+01  0.8153479E-01
Ar  438  0.1851589E+02  0.2691496E+01  0.5332482E+01  0.1346704E+01
Ar  439  0.1851606E+02  0.2383244E-01  0.7946056E+01  0.5914338E+00
Ar  440  0.1585924E+02  0.2708232E+01  0.7943337E+01  0.6882470E+00
Ar  441  0.1586182E+02  0.3641783E-01  0.1058610E+02  0.1629644E+01
Ar  442  0.1851141E+02  0.2734853E+01  0.1057931E+02  0.5373136E+00
Ar  443  0.1850461E+02  0.3641776E-01  0.1322889E+02  0.1629628E+01
Ar  444  0.1587112E+02  0.2720254E+01  0.1321959E+02  0.9824944E-01
Ar  445  0.1586329E+02  0.4586586E-01  0.1586329E+02  0.2368998E+01
Ar  446  0.1850203E+02  0.2730192E+01  0.1586927E+02  0.6033925E-01
Ar  447  0.1850821E+02  0.3414436E-01  0.1850821E+02  0.1415123E+01
Ar  448  0.1586927E+02  0.2730192E+01  0.1850203E+02  0.6033925E-01
Ar  449  0.1586879E+02  0.2618233E-01  0.2114387E+02  0.3228270E+00
Ar  450  0.1851221E+02  0.2714451E+01  0.2114780E+02  0.3920654E+00
Ar  451  0.1851272E+02  0.2205085E-02  0.2377946E+02  0.1354813E+00
Ar  452  0.1587633E+02  0.2689297E+01  0.2377747E+02  0.5247668E+00
Ar  453  0.1587104E+02 -0.8209987E-04  0.2639303E+02  0.2675111E+00
Ar  454  0.1851336E+02  0.2693386E+01  0.2639732E+02  0.2095471E+00
Ar  455  0.1851193E+02  0.1012470E-01  0.2908059E+02  0.2601420E+00
Ar  456  0.1587104E+02  0.2697681E+01  0.2909079E+02  0.2675159E+00
Ar  457  0.1586687E+02  0.5315792E+01  0.3655592E-02  0.8153479E-01
Ar  458  0.1851606E+02  0.7946056E+01  0.2383244E-01  0.5914338E+00
Ar  459  0.1851589E+02  0.5332482E+01  0.2691496E+01  0.1346704E+01
Ar  460  0.1585924E+02  0.7943337E+01  0.2708232E+01  0.6882470E+00
Ar  461  0.1587987E+02  0.5331548E+01  0.5331548E+01  0.4765049E+00
Ar  462  0.1852192E+02  0.7950339E+01  0.5336339E+01  0.5302363E+00
Ar  463  0.1852192E+02  0.5336339E+01  0.7950339E+01  0.5302363E+00
Ar  464  0.1586704E+02  0.7949349E+01  0.7949349E+01  0.4817391E-01
Ar  465  0.1587962E+02  0.5350431E+01  0.1057515E+02  0.4135187E+00
Ar  466  0.1850308E+02  0.7967954E+01  0.1058763E+02  0.3638902E+00
Ar  467  0.1851556E+02  0.5350431E+01  0.1321109E+02  0.4135070E+00
Ar  468  0.1586394E+02  0.7956049E+01  0.1322677E+02  0.5876687E-01
Ar  469  0.1587674E+02  0.5335931E+01  0.1587674E+02  0.6145285E+00
Ar  470  0.1850340E+02  0.7959732E+01  0.1586477E+02  0.2415312E+00
Ar  471  0.1851873E+02  0.5353676E+01  0.1851873E+02  0.5541553E+00
Ar  472  0.1586477E+02  0.7959732E+01  0.1850340E+02  0.2415312E+00
Ar  473  0.1587420E+02  0.5325474E+01  0.2113993E+02  0.3994569E+00
Ar  474  0.1849262E+02  0.7960724E+01  0.2112999E+02  0.1409546E+00
Ar  475  0.1851209E+02  0.5324236E+01  0.2376647E+02  0.9370010E+00
Ar  476  0.1587420E+02  0.7950780E+01  0.2376524E+02  0.3994571E+00
Ar  477  0.1587633E+02  0.5313241E+01  0.2640141E+02  0.5247807E+00
Ar  478  0.1851221E+02  0.7942913E+01  0.2637626E+02  0.3920860E+00
Ar  479  0.1851272E+02  0.5311245E+01  0.2908851E+02  0.1354796E+00
Ar  480  0.1586879E+02  0.7946844E+01  0.2906453E+02  0.3228376E+00
Ar  481  0.1586182E+02  0.1058610E+02  0.3641783E-01  0.1629644E+01
Ar  482  0.1850461E+02  0.1322889E+02  0.3641776E-01  0.1629628E+01
Ar  483  0.1851141E+02  0.1057931E+02  0.2734853E+01  0.5373136E+00
Ar  484  0.1587112E+02  0.1321959E+02  0.2720254E+01  0.9824944E-01
Ar  485  0.1587962E+02  0.1057515E+02  0.5350431E+01  0.4135187E+00
Ar  486  0.1851556E+02  0.1321109E+02  0.5350431E+01  0.4135070E+00
Ar  487  0.1850308E+02  0.1058763E+02  0.7967954E+01  0.3638902E+00
Ar  488  0.1586394E+02  0.1322677E+02  0.7956049E+01  0.5876687E-01
Ar  489  0.1587025E+02  0.1058313E+02  0.1058313E+02  0.2745039E+00
Ar  490  0.1850758E+02  0.1322046E+02  0.1058313E+02  0.2744834E+00
Ar  491  0.1850758E+02  0.1058313E+02  0.1322046E+02  0.2744834E+00
Ar  492  0.1587007E+02  0.1322064E+02  0.1322064E+02  0.3188095E-01
Ar  493  0.1587243E+02  0.1058479E+02  0.1587243E+02  0.4073354E+00
Ar  494  0.1850592E+02  0.1321828E+02  0.1587243E+02  0.4073205E+00
Ar  495  0.1851118E+02  0.1057953E+02  0.1851118E+02  0.1668501E-02
Ar  496  0.1587243E+02  0.1321828E+02  0.1850592E+02  0.4073205E+00
Ar  497  0.1586477E+02  0.1058731E+02  0.2113098E+02  0.2415650E+00
Ar  498  0.1850340E+02  0.1322594E+02  0.2113098E+02  0.2415310E+00
Ar  499  0.1851873E+02  0.1057198E+02  0.2373703E+02  0.5541463E+00
Ar  500  0.1587674E+02  0.1321397E+02  0.2375478E+02  0.6145273E+00
Ar  501  0.1586927E+02  0.1058868E+02  0.2636052E+02  0.6034593E-01
Ar  502  0.1850203E+02  0.1322144E+02  0.2636052E+02  0.6034431E-01
Ar  503  0.1850821E+02  0.1058250E+02  0.2905657E+02  0.1415127E+01
Ar  504  0.1586329E+02  0.1322742E+02  0.2904484E+02  0.2368999E+01
Ar  505  0.1586329E+02  0.1586329E+02  0.4586586E-01  0.2368998E+01
Ar  506  0.1850821E+02  0.1850821E+02  0.3414436E-01  0.1415123E+01
Ar  507  0.1850203E+02  0.1586927E+02  0.2730192E+01  0.6033925E-01
Ar  508  0.1586927E+02  0.1850203E+02  0.2730192E+01  0.6033925E-01
Ar  509  0.1587674E+02  0.1587674E+02  0.5335931E+01  0.6145285E+00
Ar  510  0.1851873E+02  0.1851873E+02  0.5353676E+01  0.5541553E+00
Ar  511  0.1850340E+02  0.1586477E+02  0.7959732E+01  0.2415312E+00
Ar  512  0.1586477E+02  0.1850340E+02  0.7959732E+01  0.2415312E+00
Ar  513  0.1587243E+02  0.1587243E+02  0.1058479E+02  0.4073354E+00
Ar  514  0.1851118E+02  0.1851118E+02  0.1057953E+02  0.1668501E-02
Ar  515  0.1850592E+02  0.1587243E+02  0.1321828E+02  0.4073205E+00
Ar  516  0.1587243E+02  0.1850592E+02  0.1321828E+02  0.4073205E+00
Ar  517  0.1587007E+02  0.1587007E+02  0.1587007E+02  0.3188600E-01
Ar  518  0.1850758E+02  0.1850758E+02  0.1587025E+02  0.2744898E+00
Ar  519  0.1850758E+02  0.1587025E+02  0.1850758E+02  0.2744898E+00
Ar  520  0.1587025E+02  0.1850758E+02  0.1850758E+02  0.2744898E+00
Ar  521  0.1586394E+02  0.1586394E+02  0.2113466E+02  0.5876904E-01
Ar  522  0.1850308E+02  0.1850308E+02  0.2112276E+02  0.3638590E+00
Ar  523  0.1851556E+02  0.1587962E+02  0.2374028E+02  0.4135075E+00
Ar  524  0.1587962E+02  0.1851556E+02  0.2374028E+02  0.4135075E+00
Ar  525  0.1587112E+02  0.1587112E+02  0.2637046E+02  0.9824147E-01
Ar  526  0.1851141E+02  0.1851141E+02  0.2635586E+02  0.5373489E+00
Ar  527  0.1850461E+02  0.1586182E+02  0.2905429E+02  0.1629662E+01
Ar  528  0.1586182E+02  0.1850461E+02  0.2905429E+02  0.1629662E+01
Ar  529  0.1586879E+02  0.2114387E+02  0.2618233E-01  0.3228270E+00
Ar  530  0.1851272E+02  0.2377946E+02  0.2205085E-02  0.1354813E+00
Ar  531  0.1851221E+02  0.2114780E+02  0.2714451E+01  0.3920654E+00
Ar  532  0.1587633E+02  0.2377747E+02  0.2689297E+01  0.5247668E+00
Ar  533  0.1587420E+02  0.2113993E+02  0.5325474E+01  0.3994569E+00
Ar  534  0.1851209E+02  0.2376647E+02  0.5324236E+01  0.9370010E+00
Ar  535  0.1849262E+02  0.2112999E+02  0.7960724E+01  0.1409546E+00
Ar  536  0.1587420E+02  0.2376524E+02  0.7950780E+01  0.3994571E+00
Ar  537  0.1586477E+02  0.2113098E+02  0.1058731E+02  0.2415650E+00
Ar  538  0.1851873E+02  0.2373703E+02  0.1057198E+02  0.5541463E+00
Ar  539  0.1850340E+02  0.2113098E+02  0.1322594E+02  0.2415310E+00
Ar  540  0.1587674E+02  0.2375478E+02  0.1321397E+02  0.6145273E+00
Ar  541  0.1586394E+02  0.2113466E+02  0.1586394E+02  0.5876904E-01
Ar  542  0.1851556E+02  0.2374028E+02  0.1587962E+02  0.4135075E+00
Ar  543  0.1850308E+02  0.2112276E+02  0.1850308E+02  0.3638590E+00
Ar  544  0.1587962E+02  0.2374028E+02  0.1851556E+02  0.4135075E+00
Ar  545  0.1586704E+02  0.2114136E+02  0.2114136E+02  0.4817308E-01
Ar  546  0.1852192E+02  0.2375437E+02  0.2114037E+02  0.5302435E+00
Ar  547  0.1852192E+02  0.2114037E+02  0.2375437E+02  0.5302435E+00
Ar  548  0.1587987E+02  0.2375916E+02  0.2375916E+02  0.4765096E+00
Ar  549  0.1585924E+02  0.2114737E+02  0.2638248E+02  0.6882520E+00
Ar  550  0.1851589E+02  0.2375823E+02  0.2639921E+02  0.1346718E+01
Ar  551  0.1851606E+02  0.2114465E+02  0.2906688E+02  0.5914409E+00
Ar  552  0.1586687E+02  0.2377492E+02  0.2908705E+02  0.8153958E-01
Ar  553  0.1587104E+02  0.2639303E+02 -0.8209987E-04  0.2675111E+00
Ar  554  0.1851193E+02  0.2908059E+02  0.1012470E-01  0.2601420E+00
Ar  555  0.1851336E+02  0.2639732E+02  0.2693386E+01  0.2095471E+00
Ar  556  0.1587104E+02  0.2909079E+02  0.2697681E+01  0.2675159E+00
Ar  557  0.1587633E+02  0.2640141E+02  0.5313241E+01  0.5247807E+00
Ar  558  0.1851272E+02  0.2908851E+02  0.5311245E+01  0.1354796E+00
Ar  559  0.1851221E+02  0.2637626E+02  0.7942913E+01  0.3920860E+00
Ar  560  0.1586879E+02  0.2906453E+02  0.7946844E+01  0.3228376E+00
Ar  561  0.1586927E+02  0.2636052E+02  0.1058868E+02  0.6034593E-01
Ar  562  0.1850821E+02  0.2905657E+02  0.1058250E+02  0.1415127E+01
Ar  563  0.1850203E+02  0.2636052E+02  0.1322144E+02  0.6034431E-01
Ar  564  0.1586329E+02  0.2904484E+02  0.1322742E+02  0.2368999E+01
Ar  565  0.1587112E+02  0.2637046E+02  0.1587112E+02  0.9824147E-01
Ar  566  0.1850461E+02  0.2905429E+02  0.1586182E+02  0.1629662E+01
Ar  567  0.1851141E+02  0.2635586E+02  0.1851141E+02  0.5373489E+00
Ar  568  0.1586182E+02  0.2905429E+02  0.1850461E+02  0.1629662E+01
Ar  569  0.1585924E+02  0.2638248E+02  0.2114737E+02  0.6882520E+00
Ar  570  0.1851606E+02  0.2906688E+02  0.2114465E+02  0.5914409E+00
Ar  571  0.1851589E+02  0.2639921E+02  0.2375823E+02  0.1346718E+01
Ar  572  0.1586687E+02  0.2908705E+02  0.2377492E+02  0.8153958E-01
Ar  573  0.1586953E+02  0.2638289E+02  0.2638289E+02  0.2672826E+00
Ar  574  0.1851833E+02  0.2909805E+02  0.2640440E+02  0.1823220E+00
Ar  575  0.1851833E+02  0.2640440E+02  0.2909805E+02  0.1823220E+00
Ar  576  0.1585861E+02  0.2907450E+02  0.2907450E+02  0.1429275E+00
Ar  577  0.2115904E+02 -0.1428915E-01 -0.1428915E-01  0.6524873E+00
Ar  578  0.2379271E+02  0.2687769E+01 -0.2426220E-01  0.1605006E+01
Ar  579  0.2379271E+02 -0.2426220E-01  0.2687769E+01  0.1605006E+01
Ar  580  0.2116312E+02  0.2685586E+01  0.2685586E+01  0.8063374E+00
Ar  581  0.2115523E+02 -0.8182279E-02  0.5313767E+01  0.5458335E+00
Ar  582  0.2378079E+02  0.2676803E+01  0.5309922E+01  0.2219944E+01
Ar  583  0.2377694E+02 -0.8182124E-02  0.7935478E+01  0.5458316E+00
Ar  584  0.2115801E+02  0.2705731E+01  0.7932697E+01  0.3599211E+00
Ar  585  0.2114465E+02  0.2383256E-01  0.1057465E+02  0.5914260E+00
Ar  586  0.2375823E+02  0.2691496E+01  0.1057482E+02  0.1346682E+01
Ar  587  0.2377492E+02  0.3655780E-02  0.1322384E+02  0.8153877E-01
Ar  588  0.2114737E+02  0.2708231E+01  0.1323147E+02  0.6882615E+00
Ar  589  0.2114387E+02  0.2618233E-01  0.1586879E+02  0.3228270E+00
Ar  590  0.2377747E+02  0.2689297E+01  0.1587633E+02  0.5247668E+00
Ar  591  0.2377946E+02  0.2205085E-02  0.1851272E+02  0.1354813E+00
Ar  592  0.2114780E+02  0.2714451E+01  0.1851221E+02  0.3920654E+00
Ar  593  0.2114866E+02  0.1012506E-01  0.2114866E+02  0.5438080E+00
Ar  594  0.2378112E+02  0.2682196E+01  0.2114859E+02  0.2727558E+01
Ar  595  0.2377788E+02 -0.2821506E-01  0.2377788E+02  0.9222294E+00
Ar  596  0.2114859E+02  0.2682196E+01  0.2378112E+02  0.2727558E+01
Ar  597  0.2115889E+02 -0.1600271E-01  0.2641389E+02  0.6590269E+00
Ar  598  0.2377712E+02  0.2675376E+01  0.2641533E+02  0.3452759E+01
Ar  599  0.2378836E+02 -0.2828559E-01  0.2911900E+02  0.1193402E+01
Ar  600  0.2115889E+02  0.2676817E+01  0.2910671E+02  0.6590124E+00
Ar  601  0.2115523E+02  0.5313767E+01 -0.8182279E-02  0.5458335E+00
Ar  602  0.2377694E+02  0.7935478E+01 -0.8182124E-02  0.5458316E+00
Ar  603  0.2378079E+02  0.5309922E+01  0.2676803E+01  0.2219944E+01
Ar  604  0.2115801E+02  0.7932697E+01  0.2705731E+01  0.3599211E+00
Ar  605  0.2115290E+02  0.5313915E+01  0.5313915E+01  0.1144833E+01
Ar  606  0.2377679E+02  0.7937809E+01  0.5313915E+01  0.1144791E+01
Ar  607  0.2377679E+02  0.5313915E+01  0.7937809E+01  0.1144791E+01
Ar  608  0.2113291E+02  0.7957798E+01  0.7957798E+01  0.8216410E+00
Ar  609  0.2114037E+02  0.5336339E+01  0.1056879E+02  0.5302797E+00
Ar  610  0.2375437E+02  0.7950339E+01  0.1056879E+02  0.5302642E+00
Ar  611  0.2375916E+02  0.5331548E+01  0.1321084E+02  0.4764842E+00
Ar  612  0.2114136E+02  0.7949349E+01  0.1322367E+02  0.4816806E-01
Ar  613  0.2113993E+02  0.5325474E+01  0.1587420E+02  0.3994569E+00
Ar  614  0.2376524E+02  0.7950780E+01  0.1587420E+02  0.3994571E+00
Ar  615  0.2376647E+02  0.5324236E+01  0.1851209E+02  0.9370010E+00
Ar  616  0.2112999E+02  0.7960724E+01  0.1849262E+02  0.1409546E+00
Ar  617  0.2113783E+02  0.5333279E+01  0.2113783E+02  0.4065560E+00
Ar  618  0.2375743E+02  0.7952877E+01  0.2113783E+02  0.4065287E+00
Ar  619  0.2376912E+02  0.5321594E+01  0.2376912E+02  0.1942543E+01
Ar  620  0.2113783E+02  0.7952877E+01  0.2375743E+02  0.4065287E+00
Ar  621  0.2114859E+02  0.5309586E+01  0.2640851E+02  0.2727618E+01
Ar  622  0.2378112E+02  0.7942120E+01  0.2640851E+02  0.2727623E+01
Ar  623  0.2377788E+02  0.5312833E+01  0.2911893E+02  0.9222138E+00
Ar  624  0.2114866E+02  0.7942054E+01  0.2908059E+02  0.5438040E+00
Ar  625  0.2114465E+02  0.1057465E+02  0.2383256E-01  0.5914260E+00
Ar  626  0.2377492E+02  0.1322384E+02  0.3655780E-02  0.8153877E-01
Ar  627  0.2375823E+02  0.1057482E+02  0.2691496E+01  0.1346682E+01
Ar  628  0.2114737E+02  0.1323147E+02  0.2708231E+01  0.6882615E+00
Ar  629  0.2114037E+02  0.1056879E+02  0.5336339E+01  0.5302797E+00
Ar  630  0.2375916E+02  0.1321084E+02  0.5331548E+01  0.4764842E+00
Ar  631  0.2375437E+02  0.1056879E+02  0.7950339E+01  0.5302642E+00
Ar  632  0.2114136E+02  0.1322367E+02  0.7949349E+01  0.4816806E-01
Ar  633  0.2112276E+02  0.1058763E+02  0.1058763E+02  0.3638952E+00
Ar  634  0.2374028E+02  0.1321109E+02  0.1057515E+02  0.4135181E+00
Ar  635  0.2374028E+02  0.1057515E+02  0.1321109E+02  0.4135181E+00
Ar  636  0.2113466E+02  0.1322677E+02  0.1322677E+02  0.5875895E-01
Ar  637  0.2113098E+02  0.1058731E+02  0.1586477E+02  0.2415650E+00
Ar  638  0.2375478E+02  0.1321397E+02  0.1587674E+02  0.6145273E+00
Ar  639  0.2373703E+02  0.1057198E+02  0.1851873E+02  0.5541463E+00
Ar  640  0.2113098E+02  0.1322594E+02  0.1850340E+02  0.2415310E+00
Ar  641  0.2112999E+02  0.1059809E+02  0.2112999E+02  0.1409720E+00
Ar  642  0.2376524E+02  0.1321651E+02  0.2113993E+02  0.3994594E+00
Ar  643  0.2376647E+02  0.1057862E+02  0.2376647E+02  0.9370105E+00
Ar  644  0.2113993E+02  0.1321651E+02  0.2376524E+02  0.3994594E+00
Ar  645  0.2114780E+02  0.1057850E+02  0.2637626E+02  0.3920803E+00
Ar  646  0.2377747E+02  0.1321438E+02  0.2640141E+02  0.5247888E+00
Ar  647  0.2377946E+02  0.1057799E+02  0.2908850E+02  0.1354799E+00
Ar  648  0.2114387E+02  0.1322192E+02  0.2906453E+02  0.3228316E+00
Ar  649  0.2114387E+02  0.1586879E+02  0.2618233E-01  0.3228270E+00
Ar  650  0.2377946E+02  0.1851272E+02  0.2205085E-02  0.1354813E+00
Ar  651  0.2377747E+02  0.1587633E+02  0.2689297E+01  0.5247668E+00
Ar  652  0.2114780E+02  0.1851221E+02  0.2714451E+01  0.3920654E+00
Ar  653  0.2113993E+02  0.1587420E+02  0.5325474E+01  0.3994569E+00
Ar  654  0.2376647E+02  0.1851209E+02  0.5324236E+01  0.9370010E+00
Ar  655  0.2376524E+02  0.1587420E+02  0.7950780E+01  0.3994571E+00
Ar  656  0.2112999E+02  0.1849262E+02  0.7960724E+01  0.1409546E+00
Ar  657  0.2113098E+02  0.1586477E+02  0.1058731E+02  0.2415650E+00
Ar  658  0.2373703E+02  0.1851873E+02  0.1057198E+02  0.5541463E+00
Ar  659  0.2375478E+02  0.1587674E+02  0.1321397E+02  0.6145273E+00
Ar  660  0.2113098E+02  0.1850340E+02  0.1322594E+02  0.2415310E+00
Ar  661  0.2113466E+02  0.1586394E+02  0.1586394E+02  0.5876904E-01
Ar  662  0.2374028E+02  0.1851556E+02  0.1587962E+02  0.4135075E+00
Ar  663  0.2374028E+02  0.1587962E+02  0.1851556E+02  0.4135075E+00
Ar  664  0.2112276E+02  0.1850308E+02  0.1850308E+02  0.3638590E+00
Ar  665  0.2114136E+02  0.1586704E+02  0.2114136E+02  0.4817308E-01
Ar  666  0.2375437E+02  0.1852192E+02  0.2114037E+02  0.5302435E+00
Ar  667  0.2375916E+02  0.1587987E+02  0.2375916E+02  0.4765096E+00
Ar  668  0.2114037E+02  0.1852192E+02  0.2375437E+02  0.5302435E+00
Ar  669  0.2114737E+02  0.1585924E+02  0.2638248E+02  0.6882520E+00
Ar  670  0.2375823E+02  0.1851589E+02  0.2639921E+02  0.1346718E+01
Ar  671  0.2377492E+02  0.1586687E+02  0.2908705E+02  0.8153958E-01
Ar  672  0.2114465E+02  0.1851606E+02  0.2906688E+02  0.5914409E+00
Ar  673  0.2114866E+02  0.2114866E+02  0.1012506E-01  0.5438080E+00
Ar  674  0.2377788E+02  0.2377788E+02 -0.2821506E-01  0.9222294E+00
Ar  675  0.2378112E+02  0.2114859E+02  0.2682196E+01  0.2727558E+01
Ar  676  0.2114859E+02  0.2378112E+02  0.2682196E+01  0.2727558E+01
Ar  677  0.2113783E+02  0.2113783E+02  0.5333279E+01  0.4065560E+00
Ar  678  0.2376912E+02  0.2376912E+02  0.5321594E+01  0.1942543E+01
Ar  679  0.2375743E+02  0.2113783E+02  0.7952877E+01  0.4065287E+00
Ar  680  0.2113783E+02  0.2375743E+02  0.7952877E+01  0.4065287E+00
Ar  681  0.2112999E+02  0.2112999E+02  0.1059809E+02  0.1409720E+00
Ar  682  0.2376647E+02  0.2376647E+02  0.1057862E+02  0.9370105E+00
Ar  683  0.2376524E+02  0.2113993E+02  0.1321651E+02  0.3994594E+00
Ar  684  0.2113993E+02  0.2376524E+02  0.1321651E+02  0.3994594E+00
Ar  685  0.2114136E+02  0.2114136E+02  0.1586704E+02  0.4817308E-01
Ar  686  0.2375916E+02  0.2375916E+02  0.1587987E+02  0.4765096E+00
Ar  687  0.2375437E+02  0.2114037E+02  0.1852192E+02  0.5302435E+00
Ar  688  0.2114037E+02  0.2375437E+02  0.1852192E+02  0.5302435E+00
Ar  689  0.2113291E+02  0.2113291E+02  0.2113291E+02  0.8216916E+00
Ar  690  0.2377679E+02  0.2377679E+02  0.2115290E+02  0.1144799E+01
Ar  691  0.2377679E+02  0.2115290E+02  0.2377679E+02  0.1144799E+01
Ar  692  0.2115290E+02  0.2377679E+02  0.2377679E+02  0.1144799E+01
Ar  693  0.2115801E+02  0.2115801E+02  0.2638498E+02  0.3599507E+00
Ar  694  0.2378079E+02  0.2378079E+02  0.2641391E+02  0.2219966E+01
Ar  695  0.2377694E+02  0.2115523E+02  0.2909889E+02  0.5458215E+00
Ar  696  0.2115523E+02  0.2377694E+02  0.2909889E+02  0.5458215E+00
Ar  697  0.2115889E+02  0.2641389E+02 -0.1600271E-01  0.6590269E+00
Ar  698  0.2378836E+02  0.2911900E+02 -0.2828559E-01  0.1193402E+01
Ar  699  0.2377712E+02  0.2641533E+02  0.2675376E+01  0.3452759E+01
Ar  700  0.2115889E+02  0.2910671E+02  0.2676817E+01  0.6590124E+00
Ar  701  0.2114859E+02  0.2640851E+02  0.5309586E+01  0.2727618E+01
Ar  702  0.2377788E+02  0.2911893E+02  0.5312833E+01  0.9222138E+00
Ar  703  0.2378112E+02  0.2640851E+02  0.7942120E+01  0.2727623E+01
Ar  704  0.2114866E+02  0.2908059E+02  0.7942054E+01  0.5438040E+00
Ar  705  0.2114780E+02  0.2637626E+02  0.1057850E+02  0.3920803E+00
Ar  706  0.2377946E+02  0.2908850E+02  0.1057799E+02  0.1354799E+00
Ar  707  0.2377747E+02  0.2640141E+02  0.1321438E+02  0.5247888E+00
Ar  708  0.2114387E+02  0.2906453E+02  0.1322192E+02  0.3228316E+00
Ar  709  0.2114737E+02  0.2638248E+02  0.1585924E+02  0.6882520E+00
Ar  710  0.2377492E+02  0.2908705E+02  0.1586687E+02  0.8153958E-01
Ar  711  0.2375823E+02  0.2639921E+02  0.1851589E+02  0.1346718E+01
Ar  712  0.2114465E+02  0.2906688E+02  0.1851606E+02  0.5914409E+00
Ar  713  0.2115801E+02  0.2638498E+02  0.2115801E+02  0.3599507E+00
Ar  714  0.2377694E+02  0.2909889E+02  0.2115523E+02  0.5458215E+00
Ar  715  0.2378079E+02  0.2641391E+02  0.2378079E+02  0.2219966E+01
Ar  716  0.2115523E+02  0.2909889E+02  0.2377694E+02  0.5458215E+00
Ar  717  0.2116312E+02  0.2640512E+02  0.2640512E+02  0.8063458E+00
Ar  718  0.2379271E+02  0.2911497E+02  0.2640294E+02  0.1604998E+01
Ar  719  0.2379271E+02  0.2640294E+02  0.2911497E+02  0.1604998E+01
Ar  720  0.2115904E+02  0.2910500E+02  0.2910500E+02  0.6524837E+00
Ar  721  0.2642934E+02 -0.8703162E-02 -0.8703162E-02  0.3420896E+01
Ar  722  0.2909941E+02  0.2661373E+01 -0.8703089E-02  0.3420905E+01
Ar  723  0.2909941E+02 -0.8703089E-02  0.2661373E+01  0.3420905E+01
Ar  724  0.2639801E+02  0.2692699E+01  0.2692699E+01  0.1262544E+01
Ar  725  0.2640294E+02 -0.2426214E-01  0.5297996E+01  0.1605016E+01
Ar  726  0.2911497E+02  0.2687768E+01  0.5297996E+01  0.1605005E+01
Ar  727  0.2910500E+02 -0.1428938E-01  0.7931669E+01  0.6524818E+00
Ar  728  0.2640512E+02  0.2685586E+01  0.7927592E+01  0.8063661E+00
Ar  729  0.2640440E+02 -0.7342968E-02  0.1057238E+02  0.1823266E+00
Ar  730  0.2909805E+02  0.2686314E+01  0.1057238E+02  0.1823220E+00
Ar  731  0.2907450E+02  0.1620621E-01  0.1323210E+02  0.1429241E+00
Ar  732  0.2638289E+02  0.2707823E+01  0.1322118E+02  0.2672731E+00
Ar  733  0.2639303E+02 -0.8209987E-04  0.1587104E+02  0.2675111E+00
Ar  734  0.2909079E+02  0.2697681E+01  0.1587104E+02  0.2675159E+00
Ar  735  0.2908059E+02  0.1012470E-01  0.1851193E+02  0.2601420E+00
Ar  736  0.2639732E+02  0.2693386E+01  0.1851336E+02  0.2095471E+00
Ar  737  0.2641389E+02 -0.1600271E-01  0.2115889E+02  0.6590269E+00
Ar  738  0.2910671E+02  0.2676817E+01  0.2115889E+02  0.6590124E+00
Ar  739  0.2911900E+02 -0.2828559E-01  0.2378836E+02  0.1193402E+01
Ar  740  0.2641533E+02  0.2675376E+01  0.2377712E+02  0.3452759E+01
Ar  741  0.2640686E+02 -0.1491563E-01  0.2640686E+02  0.1949585E+01
Ar  742  0.2910563E+02  0.2683848E+01  0.2640686E+02  0.1949572E+01
Ar  743  0.2906659E+02  0.2411545E-01  0.2906659E+02  0.7157575E+01
Ar  744  0.2640686E+02  0.2683848E+01  0.2910563E+02  0.1949572E+01
Ar  745  0.2640294E+02  0.5297996E+01 -0.2426214E-01  0.1605016E+01
Ar  746  0.2910500E+02  0.7931669E+01 -0.1428938E-01  0.6524818E+00
Ar  747  0.2911497E+02  0.5297996E+01  0.2687768E+01  0.1605005E+01
Ar  748  0.2640512E+02  0.7927592E+01  0.2685586E+01  0.8063661E+00
Ar  749  0.2641391E+02  0.5309922E+01  0.5309922E+01  0.2219988E+01
Ar  750  0.2909889E+02  0.7935478E+01  0.5313767E+01  0.5458163E+00
Ar  751  0.2909889E+02  0.5313767E+01  0.7935478E+01  0.5458163E+00
Ar  752  0.2638498E+02  0.7932697E+01  0.7932697E+01  0.3599541E+00
Ar  753  0.2639921E+02  0.5332482E+01  0.1057482E+02  0.1346713E+01
Ar  754  0.2906688E+02  0.7946056E+01  0.1057465E+02  0.5914294E+00
Ar  755  0.2908705E+02  0.5315792E+01  0.1322384E+02  0.8153417E-01
Ar  756  0.2638248E+02  0.7943337E+01  0.1323147E+02  0.6882703E+00
Ar  757  0.2640141E+02  0.5313241E+01  0.1587633E+02  0.5247807E+00
Ar  758  0.2906453E+02  0.7946844E+01  0.1586879E+02  0.3228376E+00
Ar  759  0.2908851E+02  0.5311245E+01  0.1851272E+02  0.1354796E+00
Ar  760  0.2637626E+02  0.7942913E+01  0.1851221E+02  0.3920860E+00
Ar  761  0.2640851E+02  0.5309586E+01  0.2114859E+02  0.2727618E+01
Ar  762  0.2908059E+02  0.7942054E+01  0.2114866E+02  0.5438040E+00
Ar  763  0.2911893E+02  0.5312833E+01  0.2377788E+02  0.9222138E+00
Ar  764  0.2640851E+02  0.7942120E+01  0.2378112E+02  0.2727623E+01
Ar  765  0.2641533E+02  0.5313590E+01  0.2641533E+02  0.3452748E+01
Ar  766  0.2910671E+02  0.7931817E+01  0.2641389E+02  0.6590165E+00
Ar  767  0.2911900E+02  0.5302348E+01  0.2911900E+02  0.1193418E+01
Ar  768  0.2641389E+02  0.7931817E+01  0.2910671E+02  0.6590165E+00
Ar  769  0.2640440E+02  0.1057238E+02 -0.7342968E-02  0.1823266E+00
Ar  770  0.2907450E+02  0.1323210E+02  0.1620621E-01  0.1429241E+00
Ar  771  0.2909805E+02  0.1057238E+02  0.2686314E+01  0.1823220E+00
Ar  772  0.2638289E+02  0.1322118E+02  0.2707823E+01  0.2672731E+00
Ar  773  0.2639921E+02  0.1057482E+02  0.5332482E+01  0.1346713E+01
Ar  774  0.2908705E+02  0.1322384E+02  0.5315792E+01  0.8153417E-01
Ar  775  0.2906688E+02  0.1057465E+02  0.7946056E+01  0.5914294E+00
Ar  776  0.2638248E+02  0.1323147E+02  0.7943337E+01  0.6882703E+00
Ar  777  0.2635586E+02  0.1057931E+02  0.1057931E+02  0.5373342E+00
Ar  778  0.2905429E+02  0.1322889E+02  0.1058610E+02  0.1629657E+01
Ar  779  0.2905429E+02  0.1058610E+02  0.1322889E+02  0.1629657E+01
Ar  780  0.2637046E+02  0.1321959E+02  0.1321959E+02  0.9824521E-01
Ar  781  0.2636052E+02  0.1058868E+02  0.1586927E+02  0.6034593E-01
Ar  782  0.2904484E+02  0.1322742E+02  0.1586329E+02  0.2368999E+01
Ar  783  0.2905657E+02  0.1058250E+02  0.1850821E+02  0.1415127E+01
Ar  784  0.2636052E+02  0.1322144E+02  0.1850203E+02  0.6034431E-01
Ar  785  0.2637626E+02  0.1057850E+02  0.2114780E+02  0.3920803E+00
Ar  786  0.2906453E+02  0.1322192E+02  0.2114387E+02  0.3228316E+00
Ar  787  0.2908850E+02  0.1057799E+02  0.2377946E+02  0.1354799E+00
Ar  788  0.2640141E+02  0.1321438E+02  0.2377747E+02  0.5247888E+00
Ar  789  0.2639732E+02  0.1057735E+02  0.2639732E+02  0.2095506E+00
Ar  790  0.2909079E+02  0.1321967E+02  0.2639303E+02  0.2675081E+00
Ar  791  0.2908059E+02  0.1057878E+02  0.2908059E+02  0.2601292E+00
Ar  792  0.2639303E+02  0.1321967E+02  0.2909079E+02  0.2675081E+00
Ar  793  0.2639303E+02  0.1587104E+02 -0.8209987E-04  0.2675111E+00
Ar  794  0.2908059E+02  0.1851193E+02  0.1012470E-01  0.2601420E+00
Ar  795  0.2909079E+02  0.1587104E+02  0.2697681E+01  0.2675159E+00
Ar  796  0.2639732E+02  0.1851336E+02  0.2693386E+01  0.2095471E+00
Ar  797  0.2640141E+02  0.1587633E+02  0.5313241E+01  0.5247807E+00
Ar  798  0.2908851E+02  0.1851272E+02  0.5311245E+01  0.1354796E+00
Ar  799  0.2906453E+02  0.1586879E+02  0.7946844E+01  0.3228376E+00
Ar  800  0.2637626E+02  0.1851221E+02  0.7942913E+01  0.3920860E+00
Ar  801  0.2636052E+02  0.1586927E+02  0.1058868E+02  0.6034593E-01
Ar  802  0.2905657E+02  0.1850821E+02  0.1058250E+02  0.1415127E+01
Ar  803  0.2904484E+02  0.1586329E+02  0.1322742E+02  0.2368999E+01
Ar  804  0.2636052E+02  0.1850203E+02  0.1322144E+02  0.6034431E-01
Ar  805  0.2637046E+02  0.1587112E+02  0.1587112E+02  0.9824147E-01
Ar  806  0.2905429E+02  0.1850461E+02  0.1586182E+02  0.1629662E+01
Ar  807  0.2905429E+02  0.1586182E+02  0.1850461E+02  0.1629662E+01
Ar  808  0.2635586E+02  0.1851141E+02  0.1851141E+02  0.5373489E+00
Ar  809  0.2638248E+02  0.1585924E+02  0.2114737E+02  0.6882520E+00
Ar  810  0.2906688E+02  0.1851606E+02  0.2114465E+02  0.5914409E+00
Ar  811  0.2908705E+02  0.1586687E+02  0.2377492E+02  0.8153958E-01
Ar  812  0.2639921E+02  0.1851589E+02  0.2375823E+02  0.1346718E+01
Ar  813  0.2638289E+02  0.1586953E+02  0.2638289E+02  0.2672826E+00
Ar  814  0.2909805E+02  0.1851833E+02  0.2640440E+02  0.1823220E+00
Ar  815  0.2907450E+02  0.1585861E+02  0.2907450E+02  0.1429275E+00
Ar  816  0.2640440E+02  0.1851833E+02  0.2909805E+02  0.1823220E+00
Ar  817  0.2641389E+02  0.2115889E+02 -0.1600271E-01  0.6590269E+00
Ar  818  0.2911900E+02  0.2378836E+02 -0.2828559E-01  0.1193402E+01
Ar  819  0.2910671E+02  0.2115889E+02  0.2676817E+01  0.6590124E+00
Ar  820  0.2641533E+02  0.2377712E+02  0.2675376E+01  0.3452759E+01
Ar  821  0.2640851E+02  0.2114859E+02  0.5309586E+01  0.2727618E+01
Ar  822  0.2911893E+02  0.2377788E+02  0.5312833E+01  0.9222138E+00
Ar  823  0.2908059E+02  0.2114866E+02  0.7942054E+01  0.5438040E+00
Ar  824  0.2640851E+02  0.2378112E+02  0.7942120E+01  0.2727623E+01
Ar  825  0.2637626E+02  0.2114780E+02  0.1057850E+02  0.3920803E+00
Ar  826  0.2908850E+02  0.2377946E+02  0.1057799E+02  0.1354799E+00
Ar  827  0.2906453E+02  0.2114387E+02  0.1322192E+02  0.3228316E+00
Ar  828  0.2640141E+02  0.2377747E+02  0.1321438E+02  0.5247888E+00
Ar  829  0.2638248E+02  0.2114737E+02  0.1585924E+02  0.6882520E+00
Ar  830  0.2908705E+02  0.2377492E+02  0.1586687E+02  0.8153958E-01
Ar  831  0.2906688E+02  0.2114465E+02  0.1851606E+02  0.5914409E+00
Ar  832  0.2639921E+02  0.2375823E+02  0.1851589E+02  0.1346718E+01
Ar  833  0.2638498E+02  0.2115801E+02  0.2115801E+02  0.3599507E+00
Ar  834  0.2909889E+02  0.2377694E+02  0.2115523E+02  0.5458215E+00
Ar  835  0.2909889E+02  0.2115523E+02  0.2377694E+02  0.5458215E+00
Ar  836  0.2641391E+02  0.2378079E+02  0.2378079E+02  0.2219966E+01
Ar  837  0.2640512E+02  0.2116312E+02  0.2640512E+02  0.8063458E+00
Ar  838  0.2911497E+02  0.2379271E+02  0.2640294E+02  0.1604998E+01
Ar  839  0.2910500E+02  0.2115904E+02  0.2910500E+02  0.6524837E+00
Ar  840  0.2640294E+02  0.2379271E+02  0.2911497E+02  0.1604998E+01
Ar  841  0.2640686E+02  0.2640686E+02 -0.1491563E-01  0.1949585E+01
Ar  842  0.2906659E+02  0.2906659E+02  0.2411545E-01  0.7157575E+01
Ar  843  0.2910563E+02  0.2640686E+02  0.2683848E+01  0.1949572E+01
Ar  844  0.2640686E+02  0.2910563E+02  0.2683848E+01  0.1949572E+01
Ar  845  0.2641533E+02  0.2641533E+02  0.5313590E+01  0.3452748E+01
Ar  846  0.2911900E+02  0.2911900E+02  0.5302348E+01  0.1193418E+01
Ar  847  0.2910671E+02  0.2641389E+02  0.7931817E+01  0.6590165E+00
Ar  848  0.2641389E+02  0.2910671E+02  0.7931817E+01  0.6590165E+00
Ar  849  0.2639732E+02  0.2639732E+02  0.1057735E+02  0.2095506E+00
Ar  850  0.2908059E+02  0.2908059E+02  0.1057878E+02  0.2601292E+00
Ar  851  0.2909079E+02  0.2639303E+02  0.1321967E+02  0.2675081E+00
Ar  852  0.2639303E+02  0.2909079E+02  0.1321967E+02  0.2675081E+00
Ar  853  0.2638289E+02  0.2638289E+02  0.1586953E+02  0.2672826E+00
Ar  854  0.2907450E+02  0.2907450E+02  0.1585861E+02  0.1429275E+00
Ar  855  0.2909805E+02  0.2640440E+02  0.1851833E+02  0.1823220E+00
Ar  856  0.2640440E+02  0.2909805E+02  0.1851833E+02  0.1823220E+00
Ar  857  0.2640512E+02  0.2640512E+02  0.2116312E+02  0.8063458E+00
Ar  858  0.2910500E+02  0.2910500E+02  0.2115904E+02  0.6524837E+00
Ar  859  0.2911497E+02  0.2640294E+02  0.2379271E+02  0.1604998E+01
Ar  860  0.2640294E+02  0.2911497E+02  0.2379271E+02  0.1604998E+01
Ar  861  0.2639801E+02  0.2639801E+02  0.2639801E+02  0.1262545E+01
Ar  862  0.2909941E+02  0.2909941E+02  0.2642934E+02  0.3420898E+01
Ar  863  0.2909941E+02  0.2642934E+02  0.2909941E+02  0.3420898E+01
Ar  864  0.2642934E+02  0.2909941E+02  0.2909941E+02  0.3420898E+01
