        2048
Lattice="  0.4317731E+02  0.0000000E+00  0.0000000E+00  0.0000000E+00  0.4317731E+02  0.0000000E+00  0.0000000E+00  0.0000000E+00  0.4317731E+02" Properties=species:S:1:id:I:1:pos:R:3:tempK:R:1
Ar    1  0.4275171E+02  0.4275171E+02  0.4275171E+02  0.7375108E+03
Ar    2  0.2753009E+01  0.2753009E+01  0.9299814E-02  0.2893222E+03
Ar    3  0.2753009E+01  0.9299814E-02  0.2753009E+01  0.2893222E+03
Ar    4  0.9299814E-02  0.2753009E+01  0.2753009E+01  0.2893222E+03
Ar    5  0.4296995E+02  0.4296995E+02  0.5462014E+01  0.1314582E+03
Ar    6  0.2872350E+01  0.2872350E+01  0.5381773E+01  0.8349791E+03
Ar    7  0.2986292E+01  0.4441497E+00  0.8475661E+01  0.1397069E+03
Ar    8  0.4441497E+00  0.2986292E+01  0.8475661E+01  0.1397069E+03
Ar    9  0.2580511E+00  0.2580511E+00  0.1091173E+02  0.1447847E+03
Ar   10  0.3157144E+01  0.3157144E+01  0.1078938E+02  0.3526580E+03
Ar   11  0.2929905E+01  0.4311243E+02  0.1393117E+02  0.1118010E+03
Ar   12  0.4311243E+02  0.2929905E+01  0.1393117E+02  0.1118010E+03
Ar   13  0.4315295E+02  0.4315295E+02  0.1673295E+02  0.1077260E+03
Ar   14  0.2362463E+01  0.2362463E+01  0.1635390E+02  0.4675499E+03
Ar   15  0.3079362E+01  0.4282486E+02  0.1875364E+02  0.1884597E+03
Ar   16  0.4282486E+02  0.3079362E+01  0.1875364E+02  0.1884597E+03
Ar   17  0.3767007E-01  0.3767007E-01  0.2116547E+02  0.2169065E+02
Ar   18  0.2301925E+01  0.2301925E+01  0.2126525E+02  0.8547477E+02
Ar   19  0.2198470E+01  0.4294996E+02  0.2387470E+02  0.3540193E+03
Ar   20  0.4294996E+02  0.2198470E+01  0.2387470E+02  0.3540193E+03
Ar   21  0.4319990E-01  0.4319990E-01  0.2661372E+02  0.8554174E+03
Ar   22  0.2682570E+01  0.2682570E+01  0.2635029E+02  0.1397196E+03
Ar   23  0.3145103E+01  0.6686075E+00  0.2899944E+02  0.4155387E+03
Ar   24  0.6686075E+00  0.3145103E+01  0.2899944E+02  0.4155387E+03
Ar   25  0.4305925E+02  0.4305925E+02  0.3214769E+02  0.3339659E+03
Ar   26  0.2317194E+01  0.2317194E+01  0.3200559E+02  0.2115909E+03
Ar   27  0.3538705E+01  0.4250454E+02  0.3478556E+02  0.1182805E+03
Ar   28  0.4250454E+02  0.3538705E+01  0.3478556E+02  0.1182805E+03
Ar   29  0.5084464E+00  0.5084464E+00  0.3705411E+02  0.1118817E+04
Ar   30  0.2778202E+01  0.2778202E+01  0.3821459E+02  0.5947527E+02
Ar   31  0.3350852E+01  0.8473236E-01  0.4042099E+02  0.6391045E+03
Ar   32  0.8473236E-01  0.3350852E+01  0.4042099E+02  0.6391045E+03
Ar   33  0.4296995E+02  0.5462014E+01  0.4296995E+02  0.1314582E+03
Ar   34  0.2986292E+01  0.8475661E+01  0.4441497E+00  0.1397069E+03
Ar   35  0.2872350E+01  0.5381773E+01  0.2872350E+01  0.8349791E+03
Ar   36  0.4441497E+00  0.8475661E+01  0.2986292E+01  0.1397069E+03
Ar   37  0.1992266E+00  0.5302418E+01  0.5302418E+01  0.1114851E+03
Ar   38  0.2494786E+01  0.8640939E+01  0.5887166E+01  0.3930159E+03
Ar   39  0.2494786E+01  0.5887166E+01  0.8640939E+01  0.3930159E+03
Ar   40  0.4276879E+02  0.8470743E+01  0.8470743E+01  0.1659937E+03
Ar   41  0.4309695E+02  0.5397438E+01  0.1105791E+02  0.5866253E+03
Ar   42  0.2133480E+01  0.8335683E+01  0.1128310E+02  0.1854184E+03
Ar   43  0.3096340E+01  0.5646630E+01  0.1419237E+02  0.3580300E+03
Ar   44  0.4277908E+02  0.8035393E+01  0.1372200E+02  0.2363826E+03
Ar   45  0.4302695E+02  0.5927362E+01  0.1662418E+02  0.3824736E+03
Ar   46  0.3008954E+01  0.8387905E+01  0.1670129E+02  0.1210926E+03
Ar   47  0.2539681E+01  0.5782399E+01  0.1967088E+02  0.1551811E+03
Ar   48  0.1501057E+00  0.7962046E+01  0.1924291E+02  0.6299645E+02
Ar   49  0.4299184E+02  0.5185220E+01  0.2134137E+02  0.1989121E+03
Ar   50  0.2848496E+01  0.9133852E+01  0.2200293E+02  0.2516730E+03
Ar   51  0.2604402E+01  0.5598771E+01  0.2361598E+02  0.6053795E+03
Ar   52  0.4425469E+00  0.8530220E+01  0.2406071E+02  0.7817050E+03
Ar   53  0.2783690E+00  0.5688292E+01  0.2643437E+02  0.2638211E+03
Ar   54  0.3050935E+01  0.8234879E+01  0.2692286E+02  0.2409419E+03
Ar   55  0.2706239E+01  0.5829314E+01  0.2992066E+02  0.1932032E+02
Ar   56  0.3345108E+00  0.8482752E+01  0.2944106E+02  0.2517079E+03
Ar   57  0.4256285E+02  0.6009037E+01  0.3198486E+02  0.4684612E+03
Ar   58  0.2390520E+01  0.8378279E+01  0.3236068E+02  0.2087519E+03
Ar   59  0.2500886E+01  0.5089368E+01  0.3421127E+02  0.2381253E+03
Ar   60  0.4291066E+02  0.8354172E+01  0.3506869E+02  0.3569747E+03
Ar   61  0.4269419E+02  0.5355840E+01  0.3749203E+02  0.1105771E+03
Ar   62  0.2601582E+01  0.7918094E+01  0.3743650E+02  0.1388102E+03
Ar   63  0.2614144E+01  0.5749026E+01  0.4081438E+02  0.3730204E+03
Ar   64  0.3576436E+00  0.8105794E+01  0.4003695E+02  0.3437281E+03
Ar   65  0.2580511E+00  0.1091173E+02  0.2580511E+00  0.1447847E+03
Ar   66  0.2929905E+01  0.1393117E+02  0.4311243E+02  0.1118010E+03
Ar   67  0.3157144E+01  0.1078938E+02  0.3157144E+01  0.3526580E+03
Ar   68  0.4311243E+02  0.1393117E+02  0.2929905E+01  0.1118010E+03
Ar   69  0.4309695E+02  0.1105791E+02  0.5397438E+01  0.5866253E+03
Ar   70  0.3096340E+01  0.1419237E+02  0.5646630E+01  0.3580300E+03
Ar   71  0.2133480E+01  0.1128310E+02  0.8335683E+01  0.1854184E+03
Ar   72  0.4277908E+02  0.1372200E+02  0.8035393E+01  0.2363826E+03
Ar   73  0.4291679E+02  0.1088874E+02  0.1088874E+02  0.1126488E+03
Ar   74  0.2635180E+01  0.1363479E+02  0.1100237E+02  0.6817791E+03
Ar   75  0.2635180E+01  0.1100237E+02  0.1363479E+02  0.6817791E+03
Ar   76  0.4290395E+02  0.1363670E+02  0.1363670E+02  0.2189456E+04
Ar   77  0.4285739E+02  0.1076007E+02  0.1633914E+02  0.2027875E+03
Ar   78  0.2323700E+01  0.1331445E+02  0.1636392E+02  0.2109443E+03
Ar   79  0.2786491E+01  0.1084376E+02  0.1905965E+02  0.2608144E+03
Ar   80  0.4315819E+02  0.1360584E+02  0.1870799E+02  0.2068896E+03
Ar   81  0.4264718E+02  0.1059417E+02  0.2171481E+02  0.1414322E+03
Ar   82  0.3006653E+01  0.1415473E+02  0.2126645E+02  0.2727174E+02
Ar   83  0.3133852E+01  0.1141438E+02  0.2504256E+02  0.5044702E+03
Ar   84  0.4561124E+00  0.1351376E+02  0.2411146E+02  0.1336681E+02
Ar   85  0.4295086E+02  0.1096398E+02  0.2709863E+02  0.1559185E+03
Ar   86  0.2997647E+01  0.1326017E+02  0.2776535E+02  0.2930531E+03
Ar   87  0.2788840E+01  0.1074116E+02  0.2971266E+02  0.2758617E+03
Ar   88  0.3027877E+00  0.1320165E+02  0.2998427E+02  0.7592930E+02
Ar   89  0.4262480E+02  0.1090454E+02  0.3235394E+02  0.2083793E+03
Ar   90  0.2919246E+01  0.1374234E+02  0.3250422E+02  0.4579252E+03
Ar   91  0.2409707E+01  0.1082171E+02  0.3469241E+02  0.1470191E+03
Ar   92  0.4313272E+02  0.1354167E+02  0.3438340E+02  0.4075333E+03
Ar   93  0.4712560E+00  0.1046687E+02  0.3762035E+02  0.6528981E+02
Ar   94  0.2232469E+01  0.1329781E+02  0.3740215E+02  0.1222864E+03
Ar   95  0.2731416E+01  0.1081778E+02  0.4079294E+02  0.1022716E+03
Ar   96  0.3115590E+00  0.1323099E+02  0.4060803E+02  0.1443641E+03
Ar   97  0.4315295E+02  0.1673295E+02  0.4315295E+02  0.1077260E+03
Ar   98  0.3079362E+01  0.1875364E+02  0.4282486E+02  0.1884597E+03
Ar   99  0.2362463E+01  0.1635390E+02  0.2362463E+01  0.4675499E+03
Ar  100  0.4282486E+02  0.1875364E+02  0.3079362E+01  0.1884597E+03
Ar  101  0.4302695E+02  0.1662418E+02  0.5927362E+01  0.3824736E+03
Ar  102  0.2539681E+01  0.1967088E+02  0.5782399E+01  0.1551811E+03
Ar  103  0.3008954E+01  0.1670129E+02  0.8387905E+01  0.1210926E+03
Ar  104  0.1501057E+00  0.1924291E+02  0.7962046E+01  0.6299645E+02
Ar  105  0.4285739E+02  0.1633914E+02  0.1076007E+02  0.2027875E+03
Ar  106  0.2786491E+01  0.1905965E+02  0.1084376E+02  0.2608144E+03
Ar  107  0.2323700E+01  0.1636392E+02  0.1331445E+02  0.2109443E+03
Ar  108  0.4315819E+02  0.1870799E+02  0.1360584E+02  0.2068896E+03
Ar  109  0.4264477E+02  0.1627102E+02  0.1627102E+02  0.7302687E+03
Ar  110  0.2397241E+01  0.1859639E+02  0.1635733E+02  0.1628184E+03
Ar  111  0.2397241E+01  0.1635733E+02  0.1859639E+02  0.1628184E+03
Ar  112  0.4296300E+02  0.1860204E+02  0.1860204E+02  0.1162414E+04
Ar  113  0.4288007E+02  0.1602881E+02  0.2203278E+02  0.2431362E+03
Ar  114  0.2664141E+01  0.1809179E+02  0.2180842E+02  0.1275860E+04
Ar  115  0.3206737E+01  0.1530068E+02  0.2499088E+02  0.6053400E+03
Ar  116  0.2085408E+00  0.1906604E+02  0.2479095E+02  0.6001303E+03
Ar  117  0.4307998E+02  0.1670072E+02  0.2727246E+02  0.4244911E+03
Ar  118  0.2601671E+01  0.1876842E+02  0.2770095E+02  0.6188407E+02
Ar  119  0.2626129E+01  0.1644997E+02  0.3045239E+02  0.6545581E+02
Ar  120  0.4265484E+02  0.1891484E+02  0.2976262E+02  0.3001564E+03
Ar  121  0.4262279E+02  0.1630061E+02  0.3218585E+02  0.6828119E+03
Ar  122  0.2452297E+01  0.1924525E+02  0.3212725E+02  0.2660712E+03
Ar  123  0.2763446E+01  0.1642435E+02  0.3442902E+02  0.4938514E+02
Ar  124  0.4269672E+02  0.1925472E+02  0.3487682E+02  0.1517037E+03
Ar  125  0.4300109E+02  0.1658309E+02  0.3772476E+02  0.5007810E+03
Ar  126  0.2245083E+01  0.1892669E+02  0.3760998E+02  0.5993076E+03
Ar  127  0.2273214E+01  0.1592736E+02  0.4023829E+02  0.3038186E+03
Ar  128  0.4270751E+02  0.1952597E+02  0.4043200E+02  0.2335827E+03
Ar  129  0.3767007E-01  0.2116547E+02  0.3767007E-01  0.2169065E+02
Ar  130  0.2198470E+01  0.2387470E+02  0.4294996E+02  0.3540193E+03
Ar  131  0.2301925E+01  0.2126525E+02  0.2301925E+01  0.8547477E+02
Ar  132  0.4294996E+02  0.2387470E+02  0.2198470E+01  0.3540193E+03
Ar  133  0.4299184E+02  0.2134137E+02  0.5185220E+01  0.1989121E+03
Ar  134  0.2604402E+01  0.2361598E+02  0.5598771E+01  0.6053795E+03
Ar  135  0.2848496E+01  0.2200293E+02  0.9133852E+01  0.2516730E+03
Ar  136  0.4425469E+00  0.2406071E+02  0.8530220E+01  0.7817050E+03
Ar  137  0.4264718E+02  0.2171481E+02  0.1059417E+02  0.1414322E+03
Ar  138  0.3133852E+01  0.2504256E+02  0.1141438E+02  0.5044702E+03
Ar  139  0.3006653E+01  0.2126645E+02  0.1415473E+02  0.2727174E+02
Ar  140  0.4561124E+00  0.2411146E+02  0.1351376E+02  0.1336681E+02
Ar  141  0.4288007E+02  0.2203278E+02  0.1602881E+02  0.2431362E+03
Ar  142  0.3206737E+01  0.2499088E+02  0.1530068E+02  0.6053400E+03
Ar  143  0.2664141E+01  0.2180842E+02  0.1809179E+02  0.1275860E+04
Ar  144  0.2085408E+00  0.2479095E+02  0.1906604E+02  0.6001303E+03
Ar  145  0.8508969E+00  0.2132275E+02  0.2132275E+02  0.1358691E+04
Ar  146  0.2736379E+01  0.2482037E+02  0.2203304E+02  0.3564017E+03
Ar  147  0.2736379E+01  0.2203304E+02  0.2482037E+02  0.3564017E+03
Ar  148  0.3093677E+00  0.2387195E+02  0.2387195E+02  0.1721617E+03
Ar  149  0.6067068E+00  0.2133553E+02  0.2732623E+02  0.6317555E+03
Ar  150  0.2491074E+01  0.2435591E+02  0.2712127E+02  0.4279137E+03
Ar  151  0.2965058E+01  0.2187932E+02  0.2966025E+02  0.1881863E+03
Ar  152  0.1431387E+00  0.2454000E+02  0.2942923E+02  0.5796084E+03
Ar  153  0.4279569E+02  0.2165415E+02  0.3251778E+02  0.1138017E+03
Ar  154  0.3368322E+01  0.2402443E+02  0.3208415E+02  0.1211306E+03
Ar  155  0.2295918E+01  0.2190541E+02  0.3496027E+02  0.7106002E+03
Ar  156  0.4300991E+02  0.2457329E+02  0.3396053E+02  0.4899721E+03
Ar  157  0.2055290E+00  0.2169483E+02  0.3755171E+02  0.3222540E+03
Ar  158  0.2968258E+01  0.2439900E+02  0.3786774E+02  0.8222153E+03
Ar  159  0.2299152E+01  0.2135268E+02  0.4010131E+02  0.1028791E+03
Ar  160  0.5007239E+00  0.2420417E+02  0.4007794E+02  0.7230312E+03
Ar  161  0.4319990E-01  0.2661372E+02  0.4319990E-01  0.8554174E+03
Ar  162  0.3145103E+01  0.2899944E+02  0.6686075E+00  0.4155387E+03
Ar  163  0.2682570E+01  0.2635029E+02  0.2682570E+01  0.1397196E+03
Ar  164  0.6686075E+00  0.2899944E+02  0.3145103E+01  0.4155387E+03
Ar  165  0.2783690E+00  0.2643437E+02  0.5688292E+01  0.2638211E+03
Ar  166  0.2706239E+01  0.2992066E+02  0.5829314E+01  0.1932032E+02
Ar  167  0.3050935E+01  0.2692286E+02  0.8234879E+01  0.2409419E+03
Ar  168  0.3345108E+00  0.2944106E+02  0.8482752E+01  0.2517079E+03
Ar  169  0.4295086E+02  0.2709863E+02  0.1096398E+02  0.1559185E+03
Ar  170  0.2788840E+01  0.2971266E+02  0.1074116E+02  0.2758617E+03
Ar  171  0.2997647E+01  0.2776535E+02  0.1326017E+02  0.2930531E+03
Ar  172  0.3027877E+00  0.2998427E+02  0.1320165E+02  0.7592930E+02
Ar  173  0.4307998E+02  0.2727246E+02  0.1670072E+02  0.4244911E+03
Ar  174  0.2626129E+01  0.3045239E+02  0.1644997E+02  0.6545581E+02
Ar  175  0.2601671E+01  0.2770095E+02  0.1876842E+02  0.6188407E+02
Ar  176  0.4265484E+02  0.2976262E+02  0.1891484E+02  0.3001564E+03
Ar  177  0.6067068E+00  0.2732623E+02  0.2133553E+02  0.6317555E+03
Ar  178  0.2965058E+01  0.2966025E+02  0.2187932E+02  0.1881863E+03
Ar  179  0.2491074E+01  0.2712127E+02  0.2435591E+02  0.4279137E+03
Ar  180  0.1431387E+00  0.2942923E+02  0.2454000E+02  0.5796084E+03
Ar  181  0.4267571E+02  0.2725806E+02  0.2725806E+02  0.2436238E+03
Ar  182  0.2243023E+01  0.2998581E+02  0.2693439E+02  0.1295400E+03
Ar  183  0.2243023E+01  0.2693439E+02  0.2998581E+02  0.1295400E+03
Ar  184  0.4307901E+02  0.3006653E+02  0.3006653E+02  0.1966641E+03
Ar  185  0.2265196E+00  0.2744122E+02  0.3224064E+02  0.1767475E+03
Ar  186  0.3087699E+01  0.2959651E+02  0.3281420E+02  0.1207394E+03
Ar  187  0.2845377E+01  0.2684568E+02  0.3456925E+02  0.4404793E+03
Ar  188  0.2464325E+00  0.2893237E+02  0.3521825E+02  0.6484146E+03
Ar  189  0.3201385E+00  0.2746726E+02  0.3838087E+02  0.3685626E+03
Ar  190  0.3267357E+01  0.2912484E+02  0.3772559E+02  0.7486599E+02
Ar  191  0.3158692E+01  0.2660100E+02  0.4073663E+02  0.2042827E+03
Ar  192  0.6533403E+00  0.2912261E+02  0.4116558E+02  0.2783084E+03
Ar  193  0.4305925E+02  0.3214769E+02  0.4305925E+02  0.3339659E+03
Ar  194  0.3538705E+01  0.3478556E+02  0.4250454E+02  0.1182805E+03
Ar  195  0.2317194E+01  0.3200559E+02  0.2317194E+01  0.2115909E+03
Ar  196  0.4250454E+02  0.3478556E+02  0.3538705E+01  0.1182805E+03
Ar  197  0.4256285E+02  0.3198486E+02  0.6009037E+01  0.4684612E+03
Ar  198  0.2500886E+01  0.3421127E+02  0.5089368E+01  0.2381253E+03
Ar  199  0.2390520E+01  0.3236068E+02  0.8378279E+01  0.2087519E+03
Ar  200  0.4291066E+02  0.3506869E+02  0.8354172E+01  0.3569747E+03
Ar  201  0.4262480E+02  0.3235394E+02  0.1090454E+02  0.2083793E+03
Ar  202  0.2409707E+01  0.3469241E+02  0.1082171E+02  0.1470191E+03
Ar  203  0.2919246E+01  0.3250422E+02  0.1374234E+02  0.4579252E+03
Ar  204  0.4313272E+02  0.3438340E+02  0.1354167E+02  0.4075333E+03
Ar  205  0.4262279E+02  0.3218585E+02  0.1630061E+02  0.6828119E+03
Ar  206  0.2763446E+01  0.3442902E+02  0.1642435E+02  0.4938514E+02
Ar  207  0.2452297E+01  0.3212725E+02  0.1924525E+02  0.2660712E+03
Ar  208  0.4269672E+02  0.3487682E+02  0.1925472E+02  0.1517037E+03
Ar  209  0.4279569E+02  0.3251778E+02  0.2165415E+02  0.1138017E+03
Ar  210  0.2295918E+01  0.3496027E+02  0.2190541E+02  0.7106002E+03
Ar  211  0.3368322E+01  0.3208415E+02  0.2402443E+02  0.1211306E+03
Ar  212  0.4300991E+02  0.3396053E+02  0.2457329E+02  0.4899721E+03
Ar  213  0.2265196E+00  0.3224064E+02  0.2744122E+02  0.1767475E+03
Ar  214  0.2845377E+01  0.3456925E+02  0.2684568E+02  0.4404793E+03
Ar  215  0.3087699E+01  0.3281420E+02  0.2959651E+02  0.1207394E+03
Ar  216  0.2464325E+00  0.3521825E+02  0.2893237E+02  0.6484146E+03
Ar  217  0.4299055E+00  0.3231722E+02  0.3231722E+02  0.1324399E+04
Ar  218  0.2488530E+01  0.3492152E+02  0.3204836E+02  0.1556477E+03
Ar  219  0.2488530E+01  0.3204836E+02  0.3492152E+02  0.1556477E+03
Ar  220  0.4280185E+02  0.3464041E+02  0.3464041E+02  0.1435739E+03
Ar  221  0.5586147E-01  0.3182663E+02  0.3759155E+02  0.2317181E+03
Ar  222  0.2612378E+01  0.3452658E+02  0.3752533E+02  0.4047816E+03
Ar  223  0.3251412E+01  0.3202844E+02  0.3967450E+02  0.3629767E+03
Ar  224  0.1934593E+00  0.3475365E+02  0.4071796E+02  0.9015481E+02
Ar  225  0.5084464E+00  0.3705411E+02  0.5084464E+00  0.1118817E+04
Ar  226  0.3350852E+01  0.4042099E+02  0.8473236E-01  0.6391045E+03
Ar  227  0.2778202E+01  0.3821459E+02  0.2778202E+01  0.5947527E+02
Ar  228  0.8473236E-01  0.4042099E+02  0.3350852E+01  0.6391045E+03
Ar  229  0.4269419E+02  0.3749203E+02  0.5355840E+01  0.1105771E+03
Ar  230  0.2614144E+01  0.4081438E+02  0.5749026E+01  0.3730204E+03
Ar  231  0.2601582E+01  0.3743650E+02  0.7918094E+01  0.1388102E+03
Ar  232  0.3576436E+00  0.4003695E+02  0.8105794E+01  0.3437281E+03
Ar  233  0.4712560E+00  0.3762035E+02  0.1046687E+02  0.6528981E+02
Ar  234  0.2731416E+01  0.4079294E+02  0.1081778E+02  0.1022716E+03
Ar  235  0.2232469E+01  0.3740215E+02  0.1329781E+02  0.1222864E+03
Ar  236  0.3115590E+00  0.4060803E+02  0.1323099E+02  0.1443641E+03
Ar  237  0.4300109E+02  0.3772476E+02  0.1658309E+02  0.5007810E+03
Ar  238  0.2273214E+01  0.4023829E+02  0.1592736E+02  0.3038186E+03
Ar  239  0.2245083E+01  0.3760998E+02  0.1892669E+02  0.5993076E+03
Ar  240  0.4270751E+02  0.4043200E+02  0.1952597E+02  0.2335827E+03
Ar  241  0.2055290E+00  0.3755171E+02  0.2169483E+02  0.3222540E+03
Ar  242  0.2299152E+01  0.4010131E+02  0.2135268E+02  0.1028791E+03
Ar  243  0.2968258E+01  0.3786774E+02  0.2439900E+02  0.8222153E+03
Ar  244  0.5007239E+00  0.4007794E+02  0.2420417E+02  0.7230312E+03
Ar  245  0.3201385E+00  0.3838087E+02  0.2746726E+02  0.3685626E+03
Ar  246  0.3158692E+01  0.4073663E+02  0.2660100E+02  0.2042827E+03
Ar  247  0.3267357E+01  0.3772559E+02  0.2912484E+02  0.7486599E+02
Ar  248  0.6533403E+00  0.4116558E+02  0.2912261E+02  0.2783084E+03
Ar  249  0.5586147E-01  0.3759155E+02  0.3182663E+02  0.2317181E+03
Ar  250  0.3251412E+01  0.3967450E+02  0.3202844E+02  0.3629767E+03
Ar  251  0.2612378E+01  0.3752533E+02  0.3452658E+02  0.4047816E+03
Ar  252  0.1934593E+00  0.4071796E+02  0.3475365E+02  0.9015481E+02
Ar  253  0.1827362E+00  0.3697829E+02  0.3697829E+02  0.5773501E+03
Ar  254  0.2477989E+01  0.4075186E+02  0.3768182E+02  0.2997336E+03
Ar  255  0.2477989E+01  0.3768182E+02  0.4075186E+02  0.2997336E+03
Ar  256  0.4304229E+02  0.4038265E+02  0.4038265E+02  0.3740682E+03
Ar  257  0.5462014E+01  0.4296995E+02  0.4296995E+02  0.1314582E+03
Ar  258  0.8475661E+01  0.2986292E+01  0.4441497E+00  0.1397069E+03
Ar  259  0.8475661E+01  0.4441497E+00  0.2986292E+01  0.1397069E+03
Ar  260  0.5381773E+01  0.2872350E+01  0.2872350E+01  0.8349791E+03
Ar  261  0.5302418E+01  0.1992266E+00  0.5302418E+01  0.1114851E+03
Ar  262  0.8640939E+01  0.2494786E+01  0.5887166E+01  0.3930159E+03
Ar  263  0.8470743E+01  0.4276879E+02  0.8470743E+01  0.1659937E+03
Ar  264  0.5887166E+01  0.2494786E+01  0.8640939E+01  0.3930159E+03
Ar  265  0.5397438E+01  0.4309695E+02  0.1105791E+02  0.5866253E+03
Ar  266  0.8335683E+01  0.2133480E+01  0.1128310E+02  0.1854184E+03
Ar  267  0.8035393E+01  0.4277908E+02  0.1372200E+02  0.2363826E+03
Ar  268  0.5646630E+01  0.3096340E+01  0.1419237E+02  0.3580300E+03
Ar  269  0.5927362E+01  0.4302695E+02  0.1662418E+02  0.3824736E+03
Ar  270  0.8387905E+01  0.3008954E+01  0.1670129E+02  0.1210926E+03
Ar  271  0.7962046E+01  0.1501057E+00  0.1924291E+02  0.6299645E+02
Ar  272  0.5782399E+01  0.2539681E+01  0.1967088E+02  0.1551811E+03
Ar  273  0.5185220E+01  0.4299184E+02  0.2134137E+02  0.1989121E+03
Ar  274  0.9133852E+01  0.2848496E+01  0.2200293E+02  0.2516730E+03
Ar  275  0.8530220E+01  0.4425469E+00  0.2406071E+02  0.7817050E+03
Ar  276  0.5598771E+01  0.2604402E+01  0.2361598E+02  0.6053795E+03
Ar  277  0.5688292E+01  0.2783690E+00  0.2643437E+02  0.2638211E+03
Ar  278  0.8234879E+01  0.3050935E+01  0.2692286E+02  0.2409419E+03
Ar  279  0.8482752E+01  0.3345108E+00  0.2944106E+02  0.2517079E+03
Ar  280  0.5829314E+01  0.2706239E+01  0.2992066E+02  0.1932032E+02
Ar  281  0.6009037E+01  0.4256285E+02  0.3198486E+02  0.4684612E+03
Ar  282  0.8378279E+01  0.2390520E+01  0.3236068E+02  0.2087519E+03
Ar  283  0.8354172E+01  0.4291066E+02  0.3506869E+02  0.3569747E+03
Ar  284  0.5089368E+01  0.2500886E+01  0.3421127E+02  0.2381253E+03
Ar  285  0.5355840E+01  0.4269419E+02  0.3749203E+02  0.1105771E+03
Ar  286  0.7918094E+01  0.2601582E+01  0.3743650E+02  0.1388102E+03
Ar  287  0.8105794E+01  0.3576436E+00  0.4003695E+02  0.3437281E+03
Ar  288  0.5749026E+01  0.2614144E+01  0.4081438E+02  0.3730204E+03
Ar  289  0.5302418E+01  0.5302418E+01  0.1992266E+00  0.1114851E+03
Ar  290  0.8470743E+01  0.8470743E+01  0.4276879E+02  0.1659937E+03
Ar  291  0.8640939E+01  0.5887166E+01  0.2494786E+01  0.3930159E+03
Ar  292  0.5887166E+01  0.8640939E+01  0.2494786E+01  0.3930159E+03
Ar  293  0.8150174E+01  0.8150174E+01  0.8150174E+01  0.1437269E+04
Ar  294  0.8732070E+01  0.8732070E+01  0.4847584E+01  0.1923541E+02
Ar  295  0.8732070E+01  0.4847584E+01  0.8732070E+01  0.1923541E+02
Ar  296  0.4847584E+01  0.8732070E+01  0.8732070E+01  0.1923541E+02
Ar  297  0.6076596E+01  0.6076596E+01  0.1072029E+02  0.3462584E+02
Ar  298  0.8453885E+01  0.8453885E+01  0.1193453E+02  0.1039823E+03
Ar  299  0.8405818E+01  0.5284221E+01  0.1378939E+02  0.2726942E+03
Ar  300  0.5284221E+01  0.8405818E+01  0.1378939E+02  0.2726942E+03
Ar  301  0.5090278E+01  0.5090278E+01  0.1715467E+02  0.1115204E+04
Ar  302  0.7731567E+01  0.7731567E+01  0.1650019E+02  0.7241013E+03
Ar  303  0.8237953E+01  0.5767361E+01  0.1931771E+02  0.7360805E+03
Ar  304  0.5767361E+01  0.8237953E+01  0.1931771E+02  0.7360805E+03
Ar  305  0.5463120E+01  0.5463120E+01  0.2189018E+02  0.7792485E+03
Ar  306  0.8471398E+01  0.8471398E+01  0.2183779E+02  0.5206825E+03
Ar  307  0.8148190E+01  0.4954381E+01  0.2445060E+02  0.6864318E+02
Ar  308  0.4954381E+01  0.8148190E+01  0.2445060E+02  0.6864318E+02
Ar  309  0.5419097E+01  0.5419097E+01  0.2734742E+02  0.5529961E+03
Ar  310  0.8231369E+01  0.8231369E+01  0.2711479E+02  0.7673085E+03
Ar  311  0.7993453E+01  0.5343086E+01  0.3024286E+02  0.2367180E+03
Ar  312  0.5343086E+01  0.7993453E+01  0.3024286E+02  0.2367180E+03
Ar  313  0.5512264E+01  0.5512264E+01  0.3286768E+02  0.1412938E+01
Ar  314  0.8178375E+01  0.8178375E+01  0.3317706E+02  0.1598097E+03
Ar  315  0.7981026E+01  0.4745127E+01  0.3482514E+02  0.3362504E+03
Ar  316  0.4745127E+01  0.7981026E+01  0.3482514E+02  0.3362504E+03
Ar  317  0.5604786E+01  0.5604786E+01  0.3766357E+02  0.3729232E+03
Ar  318  0.7858124E+01  0.7858124E+01  0.3877925E+02  0.7906582E+03
Ar  319  0.7997793E+01  0.5373572E+01  0.4095623E+02  0.2646604E+03
Ar  320  0.5373572E+01  0.7997793E+01  0.4095623E+02  0.2646604E+03
Ar  321  0.5397438E+01  0.1105791E+02  0.4309695E+02  0.5866253E+03
Ar  322  0.8035393E+01  0.1372200E+02  0.4277908E+02  0.2363826E+03
Ar  323  0.8335683E+01  0.1128310E+02  0.2133480E+01  0.1854184E+03
Ar  324  0.5646630E+01  0.1419237E+02  0.3096340E+01  0.3580300E+03
Ar  325  0.6076596E+01  0.1072029E+02  0.6076596E+01  0.3462584E+02
Ar  326  0.8405818E+01  0.1378939E+02  0.5284221E+01  0.2726942E+03
Ar  327  0.8453885E+01  0.1193453E+02  0.8453885E+01  0.1039823E+03
Ar  328  0.5284221E+01  0.1378939E+02  0.8405818E+01  0.2726942E+03
Ar  329  0.5245855E+01  0.1091368E+02  0.1091368E+02  0.1066296E+02
Ar  330  0.8318598E+01  0.1422459E+02  0.1090636E+02  0.3714626E+03
Ar  331  0.8318598E+01  0.1090636E+02  0.1422459E+02  0.3714626E+03
Ar  332  0.4745314E+01  0.1349974E+02  0.1349974E+02  0.5514501E+03
Ar  333  0.5254230E+01  0.1090817E+02  0.1623859E+02  0.1300536E+02
Ar  334  0.8443596E+01  0.1373391E+02  0.1636556E+02  0.2319109E+03
Ar  335  0.8158249E+01  0.1061546E+02  0.1929172E+02  0.2415614E+03
Ar  336  0.6057514E+01  0.1340245E+02  0.1869578E+02  0.6112896E+03
Ar  337  0.5651146E+01  0.1138268E+02  0.2181485E+02  0.7581300E+03
Ar  338  0.8085917E+01  0.1372873E+02  0.2130121E+02  0.2135235E+03
Ar  339  0.7551666E+01  0.1065348E+02  0.2478747E+02  0.3118735E+03
Ar  340  0.6277156E+01  0.1388706E+02  0.2489138E+02  0.2136412E+03
Ar  341  0.5673502E+01  0.1097915E+02  0.2759147E+02  0.2693075E+03
Ar  342  0.8488292E+01  0.1336224E+02  0.2769207E+02  0.2860272E+03
Ar  343  0.8044222E+01  0.1059956E+02  0.3062247E+02  0.1439733E+03
Ar  344  0.5818490E+01  0.1316514E+02  0.3008539E+02  0.2462335E+03
Ar  345  0.5366331E+01  0.1065410E+02  0.3243879E+02  0.4151494E+03
Ar  346  0.8167876E+01  0.1358430E+02  0.3281677E+02  0.4037063E+03
Ar  347  0.7655001E+01  0.1047570E+02  0.3542933E+02  0.1247698E+03
Ar  348  0.5159080E+01  0.1376607E+02  0.3536893E+02  0.3781651E+03
Ar  349  0.5077239E+01  0.1117322E+02  0.3748140E+02  0.1635099E+03
Ar  350  0.8299174E+01  0.1374065E+02  0.3792199E+02  0.5092490E+03
Ar  351  0.7764342E+01  0.1112208E+02  0.4051716E+02  0.1835850E+03
Ar  352  0.5145592E+01  0.1369471E+02  0.3986462E+02  0.4615967E+03
Ar  353  0.5927362E+01  0.1662418E+02  0.4302695E+02  0.3824736E+03
Ar  354  0.7962046E+01  0.1924291E+02  0.1501057E+00  0.6299645E+02
Ar  355  0.8387905E+01  0.1670129E+02  0.3008954E+01  0.1210926E+03
Ar  356  0.5782399E+01  0.1967088E+02  0.2539681E+01  0.1551811E+03
Ar  357  0.5090278E+01  0.1715467E+02  0.5090278E+01  0.1115204E+04
Ar  358  0.8237953E+01  0.1931771E+02  0.5767361E+01  0.7360805E+03
Ar  359  0.7731567E+01  0.1650019E+02  0.7731567E+01  0.7241013E+03
Ar  360  0.5767361E+01  0.1931771E+02  0.8237953E+01  0.7360805E+03
Ar  361  0.5254230E+01  0.1623859E+02  0.1090817E+02  0.1300536E+02
Ar  362  0.8158249E+01  0.1929172E+02  0.1061546E+02  0.2415614E+03
Ar  363  0.8443596E+01  0.1636556E+02  0.1373391E+02  0.2319109E+03
Ar  364  0.6057514E+01  0.1869578E+02  0.1340245E+02  0.6112896E+03
Ar  365  0.4991697E+01  0.1613088E+02  0.1613088E+02  0.1551396E+02
Ar  366  0.8117722E+01  0.1885412E+02  0.1643318E+02  0.1176240E+03
Ar  367  0.8117722E+01  0.1643318E+02  0.1885412E+02  0.1176240E+03
Ar  368  0.4810983E+01  0.1893939E+02  0.1893939E+02  0.8346853E+03
Ar  369  0.5740637E+01  0.1621771E+02  0.2195837E+02  0.3015574E+03
Ar  370  0.7748882E+01  0.1901031E+02  0.2184607E+02  0.1061078E+03
Ar  371  0.8051905E+01  0.1693053E+02  0.2443582E+02  0.1571970E+03
Ar  372  0.4839548E+01  0.1871829E+02  0.2458841E+02  0.2319651E+03
Ar  373  0.5119234E+01  0.1582244E+02  0.2764790E+02  0.7317765E+02
Ar  374  0.7930410E+01  0.1935519E+02  0.2678114E+02  0.4284229E+02
Ar  375  0.8196450E+01  0.1643275E+02  0.2950646E+02  0.1223622E+03
Ar  376  0.5100159E+01  0.1911271E+02  0.3033256E+02  0.1162276E+04
Ar  377  0.5589768E+01  0.1619648E+02  0.3270615E+02  0.1851407E+02
Ar  378  0.8320462E+01  0.1915071E+02  0.3189677E+02  0.3294010E+03
Ar  379  0.8079723E+01  0.1593984E+02  0.3553098E+02  0.6481150E+03
Ar  380  0.4766387E+01  0.1955775E+02  0.3478531E+02  0.7366085E+03
Ar  381  0.5243639E+01  0.1627166E+02  0.3764492E+02  0.8922779E+02
Ar  382  0.7395634E+01  0.1889086E+02  0.3737599E+02  0.5189353E+03
Ar  383  0.8323534E+01  0.1647612E+02  0.4037986E+02  0.5110733E+03
Ar  384  0.5148631E+01  0.1822463E+02  0.4016586E+02  0.1719371E+03
Ar  385  0.5185220E+01  0.2134137E+02  0.4299184E+02  0.1989121E+03
Ar  386  0.8530220E+01  0.2406071E+02  0.4425469E+00  0.7817050E+03
Ar  387  0.9133852E+01  0.2200293E+02  0.2848496E+01  0.2516730E+03
Ar  388  0.5598771E+01  0.2361598E+02  0.2604402E+01  0.6053795E+03
Ar  389  0.5463120E+01  0.2189018E+02  0.5463120E+01  0.7792485E+03
Ar  390  0.8148190E+01  0.2445060E+02  0.4954381E+01  0.6864318E+02
Ar  391  0.8471398E+01  0.2183779E+02  0.8471398E+01  0.5206825E+03
Ar  392  0.4954381E+01  0.2445060E+02  0.8148190E+01  0.6864318E+02
Ar  393  0.5651146E+01  0.2181485E+02  0.1138268E+02  0.7581300E+03
Ar  394  0.7551666E+01  0.2478747E+02  0.1065348E+02  0.3118735E+03
Ar  395  0.8085917E+01  0.2130121E+02  0.1372873E+02  0.2135235E+03
Ar  396  0.6277156E+01  0.2489138E+02  0.1388706E+02  0.2136412E+03
Ar  397  0.5740637E+01  0.2195837E+02  0.1621771E+02  0.3015574E+03
Ar  398  0.8051905E+01  0.2443582E+02  0.1693053E+02  0.1571970E+03
Ar  399  0.7748882E+01  0.2184607E+02  0.1901031E+02  0.1061078E+03
Ar  400  0.4839548E+01  0.2458841E+02  0.1871829E+02  0.2319651E+03
Ar  401  0.4205346E+01  0.2151195E+02  0.2151195E+02  0.3019831E+03
Ar  402  0.6749284E+01  0.2424841E+02  0.2154784E+02  0.6058410E+03
Ar  403  0.6749284E+01  0.2154784E+02  0.2424841E+02  0.6058410E+03
Ar  404  0.4888808E+01  0.2463265E+02  0.2463265E+02  0.3438564E+03
Ar  405  0.5077950E+01  0.2078859E+02  0.2717544E+02  0.1912738E+03
Ar  406  0.8230750E+01  0.2386132E+02  0.2621243E+02  0.4690414E+03
Ar  407  0.7881868E+01  0.2187385E+02  0.2949569E+02  0.2247099E+01
Ar  408  0.5872015E+01  0.2440666E+02  0.2875320E+02  0.3907044E+03
Ar  409  0.5879339E+01  0.2192108E+02  0.3258274E+02  0.1259086E+03
Ar  410  0.7929559E+01  0.2462283E+02  0.3243923E+02  0.8276898E+03
Ar  411  0.7886679E+01  0.2151637E+02  0.3567957E+02  0.3647450E+03
Ar  412  0.5471398E+01  0.2395780E+02  0.3549845E+02  0.2235825E+03
Ar  413  0.5019868E+01  0.2165644E+02  0.3774047E+02  0.1095609E+03
Ar  414  0.7914899E+01  0.2399053E+02  0.3787292E+02  0.5160976E+03
Ar  415  0.7932620E+01  0.2121363E+02  0.3996332E+02  0.4665830E+03
Ar  416  0.5379712E+01  0.2406066E+02  0.4035348E+02  0.5974182E+03
Ar  417  0.5688292E+01  0.2643437E+02  0.2783690E+00  0.2638211E+03
Ar  418  0.8482752E+01  0.2944106E+02  0.3345108E+00  0.2517079E+03
Ar  419  0.8234879E+01  0.2692286E+02  0.3050935E+01  0.2409419E+03
Ar  420  0.5829314E+01  0.2992066E+02  0.2706239E+01  0.1932032E+02
Ar  421  0.5419097E+01  0.2734742E+02  0.5419097E+01  0.5529961E+03
Ar  422  0.7993453E+01  0.3024286E+02  0.5343086E+01  0.2367180E+03
Ar  423  0.8231369E+01  0.2711479E+02  0.8231369E+01  0.7673085E+03
Ar  424  0.5343086E+01  0.3024286E+02  0.7993453E+01  0.2367180E+03
Ar  425  0.5673502E+01  0.2759147E+02  0.1097915E+02  0.2693075E+03
Ar  426  0.8044222E+01  0.3062247E+02  0.1059956E+02  0.1439733E+03
Ar  427  0.8488292E+01  0.2769207E+02  0.1336224E+02  0.2860272E+03
Ar  428  0.5818490E+01  0.3008539E+02  0.1316514E+02  0.2462335E+03
Ar  429  0.5119234E+01  0.2764790E+02  0.1582244E+02  0.7317765E+02
Ar  430  0.8196450E+01  0.2950646E+02  0.1643275E+02  0.1223622E+03
Ar  431  0.7930410E+01  0.2678114E+02  0.1935519E+02  0.4284229E+02
Ar  432  0.5100159E+01  0.3033256E+02  0.1911271E+02  0.1162276E+04
Ar  433  0.5077950E+01  0.2717544E+02  0.2078859E+02  0.1912738E+03
Ar  434  0.7881868E+01  0.2949569E+02  0.2187385E+02  0.2247099E+01
Ar  435  0.8230750E+01  0.2621243E+02  0.2386132E+02  0.4690414E+03
Ar  436  0.5872015E+01  0.2875320E+02  0.2440666E+02  0.3907044E+03
Ar  437  0.4634183E+01  0.2730506E+02  0.2730506E+02  0.2558663E+03
Ar  438  0.7945104E+01  0.2999377E+02  0.2724270E+02  0.1680698E+03
Ar  439  0.7945104E+01  0.2724270E+02  0.2999377E+02  0.1680698E+03
Ar  440  0.5853872E+01  0.3014345E+02  0.3014345E+02  0.3110766E+03
Ar  441  0.5392210E+01  0.2663135E+02  0.3217235E+02  0.4750914E+03
Ar  442  0.8206251E+01  0.2980103E+02  0.3275330E+02  0.1082479E+04
Ar  443  0.7911151E+01  0.2642221E+02  0.3509966E+02  0.4949274E+03
Ar  444  0.5990516E+01  0.2941587E+02  0.3539697E+02  0.5332935E+03
Ar  445  0.5399501E+01  0.2648631E+02  0.3788581E+02  0.7680899E+03
Ar  446  0.8139093E+01  0.2951344E+02  0.3803951E+02  0.3188885E+02
Ar  447  0.8569540E+01  0.2608031E+02  0.4024299E+02  0.1442528E+03
Ar  448  0.5356430E+01  0.2939429E+02  0.4049610E+02  0.2726418E+03
Ar  449  0.6009037E+01  0.3198486E+02  0.4256285E+02  0.4684612E+03
Ar  450  0.8354172E+01  0.3506869E+02  0.4291066E+02  0.3569747E+03
Ar  451  0.8378279E+01  0.3236068E+02  0.2390520E+01  0.2087519E+03
Ar  452  0.5089368E+01  0.3421127E+02  0.2500886E+01  0.2381253E+03
Ar  453  0.5512264E+01  0.3286768E+02  0.5512264E+01  0.1412938E+01
Ar  454  0.7981026E+01  0.3482514E+02  0.4745127E+01  0.3362504E+03
Ar  455  0.8178375E+01  0.3317706E+02  0.8178375E+01  0.1598097E+03
Ar  456  0.4745127E+01  0.3482514E+02  0.7981026E+01  0.3362504E+03
Ar  457  0.5366331E+01  0.3243879E+02  0.1065410E+02  0.4151494E+03
Ar  458  0.7655001E+01  0.3542933E+02  0.1047570E+02  0.1247698E+03
Ar  459  0.8167876E+01  0.3281677E+02  0.1358430E+02  0.4037063E+03
Ar  460  0.5159080E+01  0.3536893E+02  0.1376607E+02  0.3781651E+03
Ar  461  0.5589768E+01  0.3270615E+02  0.1619648E+02  0.1851407E+02
Ar  462  0.8079723E+01  0.3553098E+02  0.1593984E+02  0.6481150E+03
Ar  463  0.8320462E+01  0.3189677E+02  0.1915071E+02  0.3294010E+03
Ar  464  0.4766387E+01  0.3478531E+02  0.1955775E+02  0.7366085E+03
Ar  465  0.5879339E+01  0.3258274E+02  0.2192108E+02  0.1259086E+03
Ar  466  0.7886679E+01  0.3567957E+02  0.2151637E+02  0.3647450E+03
Ar  467  0.7929559E+01  0.3243923E+02  0.2462283E+02  0.8276898E+03
Ar  468  0.5471398E+01  0.3549845E+02  0.2395780E+02  0.2235825E+03
Ar  469  0.5392210E+01  0.3217235E+02  0.2663135E+02  0.4750914E+03
Ar  470  0.7911151E+01  0.3509966E+02  0.2642221E+02  0.4949274E+03
Ar  471  0.8206251E+01  0.3275330E+02  0.2980103E+02  0.1082479E+04
Ar  472  0.5990516E+01  0.3539697E+02  0.2941587E+02  0.5332935E+03
Ar  473  0.6838078E+01  0.3290339E+02  0.3290339E+02  0.1325927E+04
Ar  474  0.8894922E+01  0.3546592E+02  0.3177995E+02  0.1001498E+04
Ar  475  0.8894922E+01  0.3177995E+02  0.3546592E+02  0.1001498E+04
Ar  476  0.4735592E+01  0.3481761E+02  0.3481761E+02  0.9029202E+02
Ar  477  0.5740633E+01  0.3251538E+02  0.3717170E+02  0.8815684E+02
Ar  478  0.9474967E+01  0.3475225E+02  0.3738168E+02  0.4605925E+03
Ar  479  0.8680370E+01  0.3229746E+02  0.3999178E+02  0.2080485E+03
Ar  480  0.5890038E+01  0.3473904E+02  0.3988158E+02  0.3280326E+02
Ar  481  0.5355840E+01  0.3749203E+02  0.4269419E+02  0.1105771E+03
Ar  482  0.8105794E+01  0.4003695E+02  0.3576436E+00  0.3437281E+03
Ar  483  0.7918094E+01  0.3743650E+02  0.2601582E+01  0.1388102E+03
Ar  484  0.5749026E+01  0.4081438E+02  0.2614144E+01  0.3730204E+03
Ar  485  0.5604786E+01  0.3766357E+02  0.5604786E+01  0.3729232E+03
Ar  486  0.7997793E+01  0.4095623E+02  0.5373572E+01  0.2646604E+03
Ar  487  0.7858124E+01  0.3877925E+02  0.7858124E+01  0.7906582E+03
Ar  488  0.5373572E+01  0.4095623E+02  0.7997793E+01  0.2646604E+03
Ar  489  0.5077239E+01  0.3748140E+02  0.1117322E+02  0.1635099E+03
Ar  490  0.7764342E+01  0.4051716E+02  0.1112208E+02  0.1835850E+03
Ar  491  0.8299174E+01  0.3792199E+02  0.1374065E+02  0.5092490E+03
Ar  492  0.5145592E+01  0.3986462E+02  0.1369471E+02  0.4615967E+03
Ar  493  0.5243639E+01  0.3764492E+02  0.1627166E+02  0.8922779E+02
Ar  494  0.8323534E+01  0.4037986E+02  0.1647612E+02  0.5110733E+03
Ar  495  0.7395634E+01  0.3737599E+02  0.1889086E+02  0.5189353E+03
Ar  496  0.5148631E+01  0.4016586E+02  0.1822463E+02  0.1719371E+03
Ar  497  0.5019868E+01  0.3774047E+02  0.2165644E+02  0.1095609E+03
Ar  498  0.7932620E+01  0.3996332E+02  0.2121363E+02  0.4665830E+03
Ar  499  0.7914899E+01  0.3787292E+02  0.2399053E+02  0.5160976E+03
Ar  500  0.5379712E+01  0.4035348E+02  0.2406066E+02  0.5974182E+03
Ar  501  0.5399501E+01  0.3788581E+02  0.2648631E+02  0.7680899E+03
Ar  502  0.8569540E+01  0.4024299E+02  0.2608031E+02  0.1442528E+03
Ar  503  0.8139093E+01  0.3803951E+02  0.2951344E+02  0.3188885E+02
Ar  504  0.5356430E+01  0.4049610E+02  0.2939429E+02  0.2726418E+03
Ar  505  0.5740633E+01  0.3717170E+02  0.3251538E+02  0.8815684E+02
Ar  506  0.8680370E+01  0.3999178E+02  0.3229746E+02  0.2080485E+03
Ar  507  0.9474967E+01  0.3738168E+02  0.3475225E+02  0.4605925E+03
Ar  508  0.5890038E+01  0.3988158E+02  0.3473904E+02  0.3280326E+02
Ar  509  0.5593527E+01  0.3775113E+02  0.3775113E+02  0.1726177E+04
Ar  510  0.8362117E+01  0.4031392E+02  0.3723953E+02  0.1017359E+03
Ar  511  0.8362117E+01  0.3723953E+02  0.4031392E+02  0.1017359E+03
Ar  512  0.5418076E+01  0.4012671E+02  0.4012671E+02  0.5871652E+03
Ar  513  0.1091173E+02  0.2580511E+00  0.2580511E+00  0.1447847E+03
Ar  514  0.1393117E+02  0.2929905E+01  0.4311243E+02  0.1118010E+03
Ar  515  0.1393117E+02  0.4311243E+02  0.2929905E+01  0.1118010E+03
Ar  516  0.1078938E+02  0.3157144E+01  0.3157144E+01  0.3526580E+03
Ar  517  0.1105791E+02  0.4309695E+02  0.5397438E+01  0.5866253E+03
Ar  518  0.1419237E+02  0.3096340E+01  0.5646630E+01  0.3580300E+03
Ar  519  0.1372200E+02  0.4277908E+02  0.8035393E+01  0.2363826E+03
Ar  520  0.1128310E+02  0.2133480E+01  0.8335683E+01  0.1854184E+03
Ar  521  0.1088874E+02  0.4291679E+02  0.1088874E+02  0.1126488E+03
Ar  522  0.1363479E+02  0.2635180E+01  0.1100237E+02  0.6817791E+03
Ar  523  0.1363670E+02  0.4290395E+02  0.1363670E+02  0.2189456E+04
Ar  524  0.1100237E+02  0.2635180E+01  0.1363479E+02  0.6817791E+03
Ar  525  0.1076007E+02  0.4285739E+02  0.1633914E+02  0.2027875E+03
Ar  526  0.1331445E+02  0.2323700E+01  0.1636392E+02  0.2109443E+03
Ar  527  0.1360584E+02  0.4315819E+02  0.1870799E+02  0.2068896E+03
Ar  528  0.1084376E+02  0.2786491E+01  0.1905965E+02  0.2608144E+03
Ar  529  0.1059417E+02  0.4264718E+02  0.2171481E+02  0.1414322E+03
Ar  530  0.1415473E+02  0.3006653E+01  0.2126645E+02  0.2727174E+02
Ar  531  0.1351376E+02  0.4561124E+00  0.2411146E+02  0.1336681E+02
Ar  532  0.1141438E+02  0.3133852E+01  0.2504256E+02  0.5044702E+03
Ar  533  0.1096398E+02  0.4295086E+02  0.2709863E+02  0.1559185E+03
Ar  534  0.1326017E+02  0.2997647E+01  0.2776535E+02  0.2930531E+03
Ar  535  0.1320165E+02  0.3027877E+00  0.2998427E+02  0.7592930E+02
Ar  536  0.1074116E+02  0.2788840E+01  0.2971266E+02  0.2758617E+03
Ar  537  0.1090454E+02  0.4262480E+02  0.3235394E+02  0.2083793E+03
Ar  538  0.1374234E+02  0.2919246E+01  0.3250422E+02  0.4579252E+03
Ar  539  0.1354167E+02  0.4313272E+02  0.3438340E+02  0.4075333E+03
Ar  540  0.1082171E+02  0.2409707E+01  0.3469241E+02  0.1470191E+03
Ar  541  0.1046687E+02  0.4712560E+00  0.3762035E+02  0.6528981E+02
Ar  542  0.1329781E+02  0.2232469E+01  0.3740215E+02  0.1222864E+03
Ar  543  0.1323099E+02  0.3115590E+00  0.4060803E+02  0.1443641E+03
Ar  544  0.1081778E+02  0.2731416E+01  0.4079294E+02  0.1022716E+03
Ar  545  0.1105791E+02  0.5397438E+01  0.4309695E+02  0.5866253E+03
Ar  546  0.1372200E+02  0.8035393E+01  0.4277908E+02  0.2363826E+03
Ar  547  0.1419237E+02  0.5646630E+01  0.3096340E+01  0.3580300E+03
Ar  548  0.1128310E+02  0.8335683E+01  0.2133480E+01  0.1854184E+03
Ar  549  0.1072029E+02  0.6076596E+01  0.6076596E+01  0.3462584E+02
Ar  550  0.1378939E+02  0.8405818E+01  0.5284221E+01  0.2726942E+03
Ar  551  0.1378939E+02  0.5284221E+01  0.8405818E+01  0.2726942E+03
Ar  552  0.1193453E+02  0.8453885E+01  0.8453885E+01  0.1039823E+03
Ar  553  0.1091368E+02  0.5245855E+01  0.1091368E+02  0.1066296E+02
Ar  554  0.1422459E+02  0.8318598E+01  0.1090636E+02  0.3714626E+03
Ar  555  0.1349974E+02  0.4745314E+01  0.1349974E+02  0.5514501E+03
Ar  556  0.1090636E+02  0.8318598E+01  0.1422459E+02  0.3714626E+03
Ar  557  0.1090817E+02  0.5254230E+01  0.1623859E+02  0.1300536E+02
Ar  558  0.1373391E+02  0.8443596E+01  0.1636556E+02  0.2319109E+03
Ar  559  0.1340245E+02  0.6057514E+01  0.1869578E+02  0.6112896E+03
Ar  560  0.1061546E+02  0.8158249E+01  0.1929172E+02  0.2415614E+03
Ar  561  0.1138268E+02  0.5651146E+01  0.2181485E+02  0.7581300E+03
Ar  562  0.1372873E+02  0.8085917E+01  0.2130121E+02  0.2135235E+03
Ar  563  0.1388706E+02  0.6277156E+01  0.2489138E+02  0.2136412E+03
Ar  564  0.1065348E+02  0.7551666E+01  0.2478747E+02  0.3118735E+03
Ar  565  0.1097915E+02  0.5673502E+01  0.2759147E+02  0.2693075E+03
Ar  566  0.1336224E+02  0.8488292E+01  0.2769207E+02  0.2860272E+03
Ar  567  0.1316514E+02  0.5818490E+01  0.3008539E+02  0.2462335E+03
Ar  568  0.1059956E+02  0.8044222E+01  0.3062247E+02  0.1439733E+03
Ar  569  0.1065410E+02  0.5366331E+01  0.3243879E+02  0.4151494E+03
Ar  570  0.1358430E+02  0.8167876E+01  0.3281677E+02  0.4037063E+03
Ar  571  0.1376607E+02  0.5159080E+01  0.3536893E+02  0.3781651E+03
Ar  572  0.1047570E+02  0.7655001E+01  0.3542933E+02  0.1247698E+03
Ar  573  0.1117322E+02  0.5077239E+01  0.3748140E+02  0.1635099E+03
Ar  574  0.1374065E+02  0.8299174E+01  0.3792199E+02  0.5092490E+03
Ar  575  0.1369471E+02  0.5145592E+01  0.3986462E+02  0.4615967E+03
Ar  576  0.1112208E+02  0.7764342E+01  0.4051716E+02  0.1835850E+03
Ar  577  0.1088874E+02  0.1088874E+02  0.4291679E+02  0.1126488E+03
Ar  578  0.1363670E+02  0.1363670E+02  0.4290395E+02  0.2189456E+04
Ar  579  0.1363479E+02  0.1100237E+02  0.2635180E+01  0.6817791E+03
Ar  580  0.1100237E+02  0.1363479E+02  0.2635180E+01  0.6817791E+03
Ar  581  0.1091368E+02  0.1091368E+02  0.5245855E+01  0.1066296E+02
Ar  582  0.1349974E+02  0.1349974E+02  0.4745314E+01  0.5514501E+03
Ar  583  0.1422459E+02  0.1090636E+02  0.8318598E+01  0.3714626E+03
Ar  584  0.1090636E+02  0.1422459E+02  0.8318598E+01  0.3714626E+03
Ar  585  0.1047055E+02  0.1047055E+02  0.1047055E+02  0.3705413E+01
Ar  586  0.1342283E+02  0.1342283E+02  0.1074439E+02  0.1517389E+03
Ar  587  0.1342283E+02  0.1074439E+02  0.1342283E+02  0.1517389E+03
Ar  588  0.1074439E+02  0.1342283E+02  0.1342283E+02  0.1517389E+03
Ar  589  0.1070121E+02  0.1070121E+02  0.1665429E+02  0.4106298E+03
Ar  590  0.1382938E+02  0.1382938E+02  0.1621503E+02  0.1256639E+03
Ar  591  0.1352043E+02  0.1064342E+02  0.1890361E+02  0.3182466E+03
Ar  592  0.1064342E+02  0.1352043E+02  0.1890361E+02  0.3182466E+03
Ar  593  0.1118461E+02  0.1118461E+02  0.2286583E+02  0.1758919E+03
Ar  594  0.1387196E+02  0.1387196E+02  0.2158187E+02  0.1796495E+03
Ar  595  0.1408722E+02  0.1009758E+02  0.2456409E+02  0.8621192E+03
Ar  596  0.1009758E+02  0.1408722E+02  0.2456409E+02  0.8621192E+03
Ar  597  0.1072459E+02  0.1072459E+02  0.2635648E+02  0.1664643E+03
Ar  598  0.1342057E+02  0.1342057E+02  0.2741199E+02  0.7274498E+03
Ar  599  0.1365328E+02  0.1086807E+02  0.3043040E+02  0.2850881E+03
Ar  600  0.1086807E+02  0.1365328E+02  0.3043040E+02  0.2850881E+03
Ar  601  0.1043947E+02  0.1043947E+02  0.3344533E+02  0.3160127E+02
Ar  602  0.1369651E+02  0.1369651E+02  0.3241579E+02  0.9070377E+03
Ar  603  0.1391148E+02  0.1068954E+02  0.3512510E+02  0.2378662E+03
Ar  604  0.1068954E+02  0.1391148E+02  0.3512510E+02  0.2378662E+03
Ar  605  0.1023149E+02  0.1023149E+02  0.3808191E+02  0.7362278E+03
Ar  606  0.1390397E+02  0.1390397E+02  0.3726606E+02  0.1299715E+04
Ar  607  0.1365310E+02  0.1106950E+02  0.4055440E+02  0.2948846E+02
Ar  608  0.1106950E+02  0.1365310E+02  0.4055440E+02  0.2948846E+02
Ar  609  0.1076007E+02  0.1633914E+02  0.4285739E+02  0.2027875E+03
Ar  610  0.1360584E+02  0.1870799E+02  0.4315819E+02  0.2068896E+03
Ar  611  0.1331445E+02  0.1636392E+02  0.2323700E+01  0.2109443E+03
Ar  612  0.1084376E+02  0.1905965E+02  0.2786491E+01  0.2608144E+03
Ar  613  0.1090817E+02  0.1623859E+02  0.5254230E+01  0.1300536E+02
Ar  614  0.1340245E+02  0.1869578E+02  0.6057514E+01  0.6112896E+03
Ar  615  0.1373391E+02  0.1636556E+02  0.8443596E+01  0.2319109E+03
Ar  616  0.1061546E+02  0.1929172E+02  0.8158249E+01  0.2415614E+03
Ar  617  0.1070121E+02  0.1665429E+02  0.1070121E+02  0.4106298E+03
Ar  618  0.1352043E+02  0.1890361E+02  0.1064342E+02  0.3182466E+03
Ar  619  0.1382938E+02  0.1621503E+02  0.1382938E+02  0.1256639E+03
Ar  620  0.1064342E+02  0.1890361E+02  0.1352043E+02  0.3182466E+03
Ar  621  0.1080068E+02  0.1596978E+02  0.1596978E+02  0.1078697E+04
Ar  622  0.1324708E+02  0.1937640E+02  0.1608574E+02  0.1787073E+03
Ar  623  0.1324708E+02  0.1608574E+02  0.1937640E+02  0.1787073E+03
Ar  624  0.1171429E+02  0.1919842E+02  0.1919842E+02  0.1735553E+03
Ar  625  0.1065617E+02  0.1655786E+02  0.2165282E+02  0.1798094E+03
Ar  626  0.1399252E+02  0.1928704E+02  0.2220435E+02  0.1666254E+03
Ar  627  0.1288555E+02  0.1620193E+02  0.2400765E+02  0.3514729E+02
Ar  628  0.1112412E+02  0.1903752E+02  0.2365236E+02  0.6853645E+03
Ar  629  0.1123398E+02  0.1612866E+02  0.2717560E+02  0.2339267E+02
Ar  630  0.1388926E+02  0.1873721E+02  0.2714942E+02  0.1158348E+02
Ar  631  0.1376198E+02  0.1637341E+02  0.3081831E+02  0.6468579E+03
Ar  632  0.1037634E+02  0.1901842E+02  0.2893358E+02  0.1184757E+03
Ar  633  0.1037627E+02  0.1624524E+02  0.3262012E+02  0.4924815E+03
Ar  634  0.1292001E+02  0.1918032E+02  0.3252827E+02  0.6296676E+03
Ar  635  0.1375350E+02  0.1635402E+02  0.3462628E+02  0.1290229E+03
Ar  636  0.1048177E+02  0.1915762E+02  0.3504441E+02  0.2365295E+03
Ar  637  0.1096061E+02  0.1636017E+02  0.3777341E+02  0.5239908E+03
Ar  638  0.1324712E+02  0.1881414E+02  0.3767253E+02  0.7600241E+02
Ar  639  0.1337705E+02  0.1653755E+02  0.4060445E+02  0.9461596E+03
Ar  640  0.1101516E+02  0.1890063E+02  0.4019704E+02  0.2335721E+03
Ar  641  0.1059417E+02  0.2171481E+02  0.4264718E+02  0.1414322E+03
Ar  642  0.1351376E+02  0.2411146E+02  0.4561124E+00  0.1336681E+02
Ar  643  0.1415473E+02  0.2126645E+02  0.3006653E+01  0.2727174E+02
Ar  644  0.1141438E+02  0.2504256E+02  0.3133852E+01  0.5044702E+03
Ar  645  0.1138268E+02  0.2181485E+02  0.5651146E+01  0.7581300E+03
Ar  646  0.1388706E+02  0.2489138E+02  0.6277156E+01  0.2136412E+03
Ar  647  0.1372873E+02  0.2130121E+02  0.8085917E+01  0.2135235E+03
Ar  648  0.1065348E+02  0.2478747E+02  0.7551666E+01  0.3118735E+03
Ar  649  0.1118461E+02  0.2286583E+02  0.1118461E+02  0.1758919E+03
Ar  650  0.1408722E+02  0.2456409E+02  0.1009758E+02  0.8621192E+03
Ar  651  0.1387196E+02  0.2158187E+02  0.1387196E+02  0.1796495E+03
Ar  652  0.1009758E+02  0.2456409E+02  0.1408722E+02  0.8621192E+03
Ar  653  0.1065617E+02  0.2165282E+02  0.1655786E+02  0.1798094E+03
Ar  654  0.1288555E+02  0.2400765E+02  0.1620193E+02  0.3514729E+02
Ar  655  0.1399252E+02  0.2220435E+02  0.1928704E+02  0.1666254E+03
Ar  656  0.1112412E+02  0.2365236E+02  0.1903752E+02  0.6853645E+03
Ar  657  0.1125728E+02  0.2183292E+02  0.2183292E+02  0.4519418E+02
Ar  658  0.1394186E+02  0.2462081E+02  0.2191408E+02  0.4400938E+03
Ar  659  0.1394186E+02  0.2191408E+02  0.2462081E+02  0.4400938E+03
Ar  660  0.1133758E+02  0.2437283E+02  0.2437283E+02  0.9233763E+02
Ar  661  0.1121347E+02  0.2123025E+02  0.2627524E+02  0.3113453E+03
Ar  662  0.1365516E+02  0.2406364E+02  0.2697587E+02  0.5757487E+03
Ar  663  0.1285904E+02  0.2138987E+02  0.2939062E+02  0.7451969E+03
Ar  664  0.1047330E+02  0.2419473E+02  0.2911016E+02  0.1135072E+03
Ar  665  0.1046411E+02  0.2187176E+02  0.3144448E+02  0.1873248E+03
Ar  666  0.1322856E+02  0.2405537E+02  0.3206795E+02  0.4871951E+03
Ar  667  0.1358667E+02  0.2191873E+02  0.3465854E+02  0.4972993E+02
Ar  668  0.1080081E+02  0.2368408E+02  0.3463542E+02  0.9309068E+03
Ar  669  0.1099715E+02  0.2215968E+02  0.3781726E+02  0.1799120E+03
Ar  670  0.1386686E+02  0.2380748E+02  0.3737050E+02  0.1308053E+03
Ar  671  0.1352014E+02  0.2138084E+02  0.4035685E+02  0.1061058E+03
Ar  672  0.1189795E+02  0.2420857E+02  0.4031309E+02  0.8490609E+03
Ar  673  0.1096398E+02  0.2709863E+02  0.4295086E+02  0.1559185E+03
Ar  674  0.1320165E+02  0.2998427E+02  0.3027877E+00  0.7592930E+02
Ar  675  0.1326017E+02  0.2776535E+02  0.2997647E+01  0.2930531E+03
Ar  676  0.1074116E+02  0.2971266E+02  0.2788840E+01  0.2758617E+03
Ar  677  0.1097915E+02  0.2759147E+02  0.5673502E+01  0.2693075E+03
Ar  678  0.1316514E+02  0.3008539E+02  0.5818490E+01  0.2462335E+03
Ar  679  0.1336224E+02  0.2769207E+02  0.8488292E+01  0.2860272E+03
Ar  680  0.1059956E+02  0.3062247E+02  0.8044222E+01  0.1439733E+03
Ar  681  0.1072459E+02  0.2635648E+02  0.1072459E+02  0.1664643E+03
Ar  682  0.1365328E+02  0.3043040E+02  0.1086807E+02  0.2850881E+03
Ar  683  0.1342057E+02  0.2741199E+02  0.1342057E+02  0.7274498E+03
Ar  684  0.1086807E+02  0.3043040E+02  0.1365328E+02  0.2850881E+03
Ar  685  0.1123398E+02  0.2717560E+02  0.1612866E+02  0.2339267E+02
Ar  686  0.1376198E+02  0.3081831E+02  0.1637341E+02  0.6468579E+03
Ar  687  0.1388926E+02  0.2714942E+02  0.1873721E+02  0.1158348E+02
Ar  688  0.1037634E+02  0.2893358E+02  0.1901842E+02  0.1184757E+03
Ar  689  0.1121347E+02  0.2627524E+02  0.2123025E+02  0.3113453E+03
Ar  690  0.1285904E+02  0.2939062E+02  0.2138987E+02  0.7451969E+03
Ar  691  0.1365516E+02  0.2697587E+02  0.2406364E+02  0.5757487E+03
Ar  692  0.1047330E+02  0.2911016E+02  0.2419473E+02  0.1135072E+03
Ar  693  0.1086201E+02  0.2723086E+02  0.2723086E+02  0.2223222E+02
Ar  694  0.1322082E+02  0.2991741E+02  0.2712033E+02  0.2416055E+03
Ar  695  0.1322082E+02  0.2712033E+02  0.2991741E+02  0.2416055E+03
Ar  696  0.1047464E+02  0.3003971E+02  0.3003971E+02  0.4372342E+03
Ar  697  0.1089716E+02  0.2666514E+02  0.3235412E+02  0.2325117E+03
Ar  698  0.1273570E+02  0.2980363E+02  0.3247730E+02  0.4959799E+03
Ar  699  0.1354526E+02  0.2633950E+02  0.3498399E+02  0.2077613E+03
Ar  700  0.1076284E+02  0.2911265E+02  0.3512325E+02  0.2806700E+03
Ar  701  0.1093043E+02  0.2620335E+02  0.3749258E+02  0.3720292E+03
Ar  702  0.1350905E+02  0.2932905E+02  0.3662064E+02  0.4692013E+03
Ar  703  0.1363267E+02  0.2762105E+02  0.4006373E+02  0.1122780E+04
Ar  704  0.1063966E+02  0.2900237E+02  0.4017522E+02  0.1360903E+03
Ar  705  0.1090454E+02  0.3235394E+02  0.4262480E+02  0.2083793E+03
Ar  706  0.1354167E+02  0.3438340E+02  0.4313272E+02  0.4075333E+03
Ar  707  0.1374234E+02  0.3250422E+02  0.2919246E+01  0.4579252E+03
Ar  708  0.1082171E+02  0.3469241E+02  0.2409707E+01  0.1470191E+03
Ar  709  0.1065410E+02  0.3243879E+02  0.5366331E+01  0.4151494E+03
Ar  710  0.1376607E+02  0.3536893E+02  0.5159080E+01  0.3781651E+03
Ar  711  0.1358430E+02  0.3281677E+02  0.8167876E+01  0.4037063E+03
Ar  712  0.1047570E+02  0.3542933E+02  0.7655001E+01  0.1247698E+03
Ar  713  0.1043947E+02  0.3344533E+02  0.1043947E+02  0.3160127E+02
Ar  714  0.1391148E+02  0.3512510E+02  0.1068954E+02  0.2378662E+03
Ar  715  0.1369651E+02  0.3241579E+02  0.1369651E+02  0.9070377E+03
Ar  716  0.1068954E+02  0.3512510E+02  0.1391148E+02  0.2378662E+03
Ar  717  0.1037627E+02  0.3262012E+02  0.1624524E+02  0.4924815E+03
Ar  718  0.1375350E+02  0.3462628E+02  0.1635402E+02  0.1290229E+03
Ar  719  0.1292001E+02  0.3252827E+02  0.1918032E+02  0.6296676E+03
Ar  720  0.1048177E+02  0.3504441E+02  0.1915762E+02  0.2365295E+03
Ar  721  0.1046411E+02  0.3144448E+02  0.2187176E+02  0.1873248E+03
Ar  722  0.1358667E+02  0.3465854E+02  0.2191873E+02  0.4972993E+02
Ar  723  0.1322856E+02  0.3206795E+02  0.2405537E+02  0.4871951E+03
Ar  724  0.1080081E+02  0.3463542E+02  0.2368408E+02  0.9309068E+03
Ar  725  0.1089716E+02  0.3235412E+02  0.2666514E+02  0.2325117E+03
Ar  726  0.1354526E+02  0.3498399E+02  0.2633950E+02  0.2077613E+03
Ar  727  0.1273570E+02  0.3247730E+02  0.2980363E+02  0.4959799E+03
Ar  728  0.1076284E+02  0.3512325E+02  0.2911265E+02  0.2806700E+03
Ar  729  0.1087206E+02  0.3246970E+02  0.3246970E+02  0.1481707E+04
Ar  730  0.1344212E+02  0.3505141E+02  0.3237501E+02  0.3547548E+03
Ar  731  0.1344212E+02  0.3237501E+02  0.3505141E+02  0.3547548E+03
Ar  732  0.1111614E+02  0.3474013E+02  0.3474013E+02  0.4334417E+03
Ar  733  0.1147181E+02  0.3208223E+02  0.3788592E+02  0.5026405E+03
Ar  734  0.1340815E+02  0.3563291E+02  0.3797681E+02  0.5293684E+03
Ar  735  0.1391489E+02  0.3239619E+02  0.4019906E+02  0.1344231E+03
Ar  736  0.1097413E+02  0.3527384E+02  0.4068360E+02  0.1885469E+03
Ar  737  0.1046687E+02  0.3762035E+02  0.4712560E+00  0.6528981E+02
Ar  738  0.1323099E+02  0.4060803E+02  0.3115590E+00  0.1443641E+03
Ar  739  0.1329781E+02  0.3740215E+02  0.2232469E+01  0.1222864E+03
Ar  740  0.1081778E+02  0.4079294E+02  0.2731416E+01  0.1022716E+03
Ar  741  0.1117322E+02  0.3748140E+02  0.5077239E+01  0.1635099E+03
Ar  742  0.1369471E+02  0.3986462E+02  0.5145592E+01  0.4615967E+03
Ar  743  0.1374065E+02  0.3792199E+02  0.8299174E+01  0.5092490E+03
Ar  744  0.1112208E+02  0.4051716E+02  0.7764342E+01  0.1835850E+03
Ar  745  0.1023149E+02  0.3808191E+02  0.1023149E+02  0.7362278E+03
Ar  746  0.1365310E+02  0.4055440E+02  0.1106950E+02  0.2948846E+02
Ar  747  0.1390397E+02  0.3726606E+02  0.1390397E+02  0.1299715E+04
Ar  748  0.1106950E+02  0.4055440E+02  0.1365310E+02  0.2948846E+02
Ar  749  0.1096061E+02  0.3777341E+02  0.1636017E+02  0.5239908E+03
Ar  750  0.1337705E+02  0.4060445E+02  0.1653755E+02  0.9461596E+03
Ar  751  0.1324712E+02  0.3767253E+02  0.1881414E+02  0.7600241E+02
Ar  752  0.1101516E+02  0.4019704E+02  0.1890063E+02  0.2335721E+03
Ar  753  0.1099715E+02  0.3781726E+02  0.2215968E+02  0.1799120E+03
Ar  754  0.1352014E+02  0.4035685E+02  0.2138084E+02  0.1061058E+03
Ar  755  0.1386686E+02  0.3737050E+02  0.2380748E+02  0.1308053E+03
Ar  756  0.1189795E+02  0.4031309E+02  0.2420857E+02  0.8490609E+03
Ar  757  0.1093043E+02  0.3749258E+02  0.2620335E+02  0.3720292E+03
Ar  758  0.1363267E+02  0.4006373E+02  0.2762105E+02  0.1122780E+04
Ar  759  0.1350905E+02  0.3662064E+02  0.2932905E+02  0.4692013E+03
Ar  760  0.1063966E+02  0.4017522E+02  0.2900237E+02  0.1360903E+03
Ar  761  0.1147181E+02  0.3788592E+02  0.3208223E+02  0.5026405E+03
Ar  762  0.1391489E+02  0.4019906E+02  0.3239619E+02  0.1344231E+03
Ar  763  0.1340815E+02  0.3797681E+02  0.3563291E+02  0.5293684E+03
Ar  764  0.1097413E+02  0.4068360E+02  0.3527384E+02  0.1885469E+03
Ar  765  0.1044665E+02  0.3788925E+02  0.3788925E+02  0.5870757E+03
Ar  766  0.1333867E+02  0.4124263E+02  0.3786759E+02  0.3877527E+03
Ar  767  0.1333867E+02  0.3786759E+02  0.4124263E+02  0.3877527E+03
Ar  768  0.1114560E+02  0.4101386E+02  0.4101386E+02  0.2646294E+03
Ar  769  0.1673295E+02  0.4315295E+02  0.4315295E+02  0.1077260E+03
Ar  770  0.1875364E+02  0.3079362E+01  0.4282486E+02  0.1884597E+03
Ar  771  0.1875364E+02  0.4282486E+02  0.3079362E+01  0.1884597E+03
Ar  772  0.1635390E+02  0.2362463E+01  0.2362463E+01  0.4675499E+03
Ar  773  0.1662418E+02  0.4302695E+02  0.5927362E+01  0.3824736E+03
Ar  774  0.1967088E+02  0.2539681E+01  0.5782399E+01  0.1551811E+03
Ar  775  0.1924291E+02  0.1501057E+00  0.7962046E+01  0.6299645E+02
Ar  776  0.1670129E+02  0.3008954E+01  0.8387905E+01  0.1210926E+03
Ar  777  0.1633914E+02  0.4285739E+02  0.1076007E+02  0.2027875E+03
Ar  778  0.1905965E+02  0.2786491E+01  0.1084376E+02  0.2608144E+03
Ar  779  0.1870799E+02  0.4315819E+02  0.1360584E+02  0.2068896E+03
Ar  780  0.1636392E+02  0.2323700E+01  0.1331445E+02  0.2109443E+03
Ar  781  0.1627102E+02  0.4264477E+02  0.1627102E+02  0.7302687E+03
Ar  782  0.1859639E+02  0.2397241E+01  0.1635733E+02  0.1628184E+03
Ar  783  0.1860204E+02  0.4296300E+02  0.1860204E+02  0.1162414E+04
Ar  784  0.1635733E+02  0.2397241E+01  0.1859639E+02  0.1628184E+03
Ar  785  0.1602881E+02  0.4288007E+02  0.2203278E+02  0.2431362E+03
Ar  786  0.1809179E+02  0.2664141E+01  0.2180842E+02  0.1275860E+04
Ar  787  0.1906604E+02  0.2085408E+00  0.2479095E+02  0.6001303E+03
Ar  788  0.1530068E+02  0.3206737E+01  0.2499088E+02  0.6053400E+03
Ar  789  0.1670072E+02  0.4307998E+02  0.2727246E+02  0.4244911E+03
Ar  790  0.1876842E+02  0.2601671E+01  0.2770095E+02  0.6188407E+02
Ar  791  0.1891484E+02  0.4265484E+02  0.2976262E+02  0.3001564E+03
Ar  792  0.1644997E+02  0.2626129E+01  0.3045239E+02  0.6545581E+02
Ar  793  0.1630061E+02  0.4262279E+02  0.3218585E+02  0.6828119E+03
Ar  794  0.1924525E+02  0.2452297E+01  0.3212725E+02  0.2660712E+03
Ar  795  0.1925472E+02  0.4269672E+02  0.3487682E+02  0.1517037E+03
Ar  796  0.1642435E+02  0.2763446E+01  0.3442902E+02  0.4938514E+02
Ar  797  0.1658309E+02  0.4300109E+02  0.3772476E+02  0.5007810E+03
Ar  798  0.1892669E+02  0.2245083E+01  0.3760998E+02  0.5993076E+03
Ar  799  0.1952597E+02  0.4270751E+02  0.4043200E+02  0.2335827E+03
Ar  800  0.1592736E+02  0.2273214E+01  0.4023829E+02  0.3038186E+03
Ar  801  0.1662418E+02  0.5927362E+01  0.4302695E+02  0.3824736E+03
Ar  802  0.1924291E+02  0.7962046E+01  0.1501057E+00  0.6299645E+02
Ar  803  0.1967088E+02  0.5782399E+01  0.2539681E+01  0.1551811E+03
Ar  804  0.1670129E+02  0.8387905E+01  0.3008954E+01  0.1210926E+03
Ar  805  0.1715467E+02  0.5090278E+01  0.5090278E+01  0.1115204E+04
Ar  806  0.1931771E+02  0.8237953E+01  0.5767361E+01  0.7360805E+03
Ar  807  0.1931771E+02  0.5767361E+01  0.8237953E+01  0.7360805E+03
Ar  808  0.1650019E+02  0.7731567E+01  0.7731567E+01  0.7241013E+03
Ar  809  0.1623859E+02  0.5254230E+01  0.1090817E+02  0.1300536E+02
Ar  810  0.1929172E+02  0.8158249E+01  0.1061546E+02  0.2415614E+03
Ar  811  0.1869578E+02  0.6057514E+01  0.1340245E+02  0.6112896E+03
Ar  812  0.1636556E+02  0.8443596E+01  0.1373391E+02  0.2319109E+03
Ar  813  0.1613088E+02  0.4991697E+01  0.1613088E+02  0.1551396E+02
Ar  814  0.1885412E+02  0.8117722E+01  0.1643318E+02  0.1176240E+03
Ar  815  0.1893939E+02  0.4810983E+01  0.1893939E+02  0.8346853E+03
Ar  816  0.1643318E+02  0.8117722E+01  0.1885412E+02  0.1176240E+03
Ar  817  0.1621771E+02  0.5740637E+01  0.2195837E+02  0.3015574E+03
Ar  818  0.1901031E+02  0.7748882E+01  0.2184607E+02  0.1061078E+03
Ar  819  0.1871829E+02  0.4839548E+01  0.2458841E+02  0.2319651E+03
Ar  820  0.1693053E+02  0.8051905E+01  0.2443582E+02  0.1571970E+03
Ar  821  0.1582244E+02  0.5119234E+01  0.2764790E+02  0.7317765E+02
Ar  822  0.1935519E+02  0.7930410E+01  0.2678114E+02  0.4284229E+02
Ar  823  0.1911271E+02  0.5100159E+01  0.3033256E+02  0.1162276E+04
Ar  824  0.1643275E+02  0.8196450E+01  0.2950646E+02  0.1223622E+03
Ar  825  0.1619648E+02  0.5589768E+01  0.3270615E+02  0.1851407E+02
Ar  826  0.1915071E+02  0.8320462E+01  0.3189677E+02  0.3294010E+03
Ar  827  0.1955775E+02  0.4766387E+01  0.3478531E+02  0.7366085E+03
Ar  828  0.1593984E+02  0.8079723E+01  0.3553098E+02  0.6481150E+03
Ar  829  0.1627166E+02  0.5243639E+01  0.3764492E+02  0.8922779E+02
Ar  830  0.1889086E+02  0.7395634E+01  0.3737599E+02  0.5189353E+03
Ar  831  0.1822463E+02  0.5148631E+01  0.4016586E+02  0.1719371E+03
Ar  832  0.1647612E+02  0.8323534E+01  0.4037986E+02  0.5110733E+03
Ar  833  0.1633914E+02  0.1076007E+02  0.4285739E+02  0.2027875E+03
Ar  834  0.1870799E+02  0.1360584E+02  0.4315819E+02  0.2068896E+03
Ar  835  0.1905965E+02  0.1084376E+02  0.2786491E+01  0.2608144E+03
Ar  836  0.1636392E+02  0.1331445E+02  0.2323700E+01  0.2109443E+03
Ar  837  0.1623859E+02  0.1090817E+02  0.5254230E+01  0.1300536E+02
Ar  838  0.1869578E+02  0.1340245E+02  0.6057514E+01  0.6112896E+03
Ar  839  0.1929172E+02  0.1061546E+02  0.8158249E+01  0.2415614E+03
Ar  840  0.1636556E+02  0.1373391E+02  0.8443596E+01  0.2319109E+03
Ar  841  0.1665429E+02  0.1070121E+02  0.1070121E+02  0.4106298E+03
Ar  842  0.1890361E+02  0.1352043E+02  0.1064342E+02  0.3182466E+03
Ar  843  0.1890361E+02  0.1064342E+02  0.1352043E+02  0.3182466E+03
Ar  844  0.1621503E+02  0.1382938E+02  0.1382938E+02  0.1256639E+03
Ar  845  0.1596978E+02  0.1080068E+02  0.1596978E+02  0.1078697E+04
Ar  846  0.1937640E+02  0.1324708E+02  0.1608574E+02  0.1787073E+03
Ar  847  0.1919842E+02  0.1171429E+02  0.1919842E+02  0.1735553E+03
Ar  848  0.1608574E+02  0.1324708E+02  0.1937640E+02  0.1787073E+03
Ar  849  0.1655786E+02  0.1065617E+02  0.2165282E+02  0.1798094E+03
Ar  850  0.1928704E+02  0.1399252E+02  0.2220435E+02  0.1666254E+03
Ar  851  0.1903752E+02  0.1112412E+02  0.2365236E+02  0.6853645E+03
Ar  852  0.1620193E+02  0.1288555E+02  0.2400765E+02  0.3514729E+02
Ar  853  0.1612866E+02  0.1123398E+02  0.2717560E+02  0.2339267E+02
Ar  854  0.1873721E+02  0.1388926E+02  0.2714942E+02  0.1158348E+02
Ar  855  0.1901842E+02  0.1037634E+02  0.2893358E+02  0.1184757E+03
Ar  856  0.1637341E+02  0.1376198E+02  0.3081831E+02  0.6468579E+03
Ar  857  0.1624524E+02  0.1037627E+02  0.3262012E+02  0.4924815E+03
Ar  858  0.1918032E+02  0.1292001E+02  0.3252827E+02  0.6296676E+03
Ar  859  0.1915762E+02  0.1048177E+02  0.3504441E+02  0.2365295E+03
Ar  860  0.1635402E+02  0.1375350E+02  0.3462628E+02  0.1290229E+03
Ar  861  0.1636017E+02  0.1096061E+02  0.3777341E+02  0.5239908E+03
Ar  862  0.1881414E+02  0.1324712E+02  0.3767253E+02  0.7600241E+02
Ar  863  0.1890063E+02  0.1101516E+02  0.4019704E+02  0.2335721E+03
Ar  864  0.1653755E+02  0.1337705E+02  0.4060445E+02  0.9461596E+03
Ar  865  0.1627102E+02  0.1627102E+02  0.4264477E+02  0.7302687E+03
Ar  866  0.1860204E+02  0.1860204E+02  0.4296300E+02  0.1162414E+04
Ar  867  0.1859639E+02  0.1635733E+02  0.2397241E+01  0.1628184E+03
Ar  868  0.1635733E+02  0.1859639E+02  0.2397241E+01  0.1628184E+03
Ar  869  0.1613088E+02  0.1613088E+02  0.4991697E+01  0.1551396E+02
Ar  870  0.1893939E+02  0.1893939E+02  0.4810983E+01  0.8346853E+03
Ar  871  0.1885412E+02  0.1643318E+02  0.8117722E+01  0.1176240E+03
Ar  872  0.1643318E+02  0.1885412E+02  0.8117722E+01  0.1176240E+03
Ar  873  0.1596978E+02  0.1596978E+02  0.1080068E+02  0.1078697E+04
Ar  874  0.1919842E+02  0.1919842E+02  0.1171429E+02  0.1735553E+03
Ar  875  0.1937640E+02  0.1608574E+02  0.1324708E+02  0.1787073E+03
Ar  876  0.1608574E+02  0.1937640E+02  0.1324708E+02  0.1787073E+03
Ar  877  0.1623733E+02  0.1623733E+02  0.1623733E+02  0.2266231E+03
Ar  878  0.1881599E+02  0.1881599E+02  0.1589795E+02  0.1978755E+03
Ar  879  0.1881599E+02  0.1589795E+02  0.1881599E+02  0.1978755E+03
Ar  880  0.1589795E+02  0.1881599E+02  0.1881599E+02  0.1978755E+03
Ar  881  0.1647208E+02  0.1647208E+02  0.2197002E+02  0.5025398E+02
Ar  882  0.1870020E+02  0.1870020E+02  0.2107549E+02  0.2605058E+03
Ar  883  0.1911617E+02  0.1611753E+02  0.2469154E+02  0.5777073E+03
Ar  884  0.1611753E+02  0.1911617E+02  0.2469154E+02  0.5777073E+03
Ar  885  0.1556376E+02  0.1556376E+02  0.2734073E+02  0.9660132E+02
Ar  886  0.1834878E+02  0.1834878E+02  0.2792247E+02  0.3438268E+03
Ar  887  0.1853716E+02  0.1592852E+02  0.3036465E+02  0.5858299E+03
Ar  888  0.1592852E+02  0.1853716E+02  0.3036465E+02  0.5858299E+03
Ar  889  0.1652372E+02  0.1652372E+02  0.3276939E+02  0.9553610E+03
Ar  890  0.1933202E+02  0.1933202E+02  0.3288210E+02  0.2978570E+02
Ar  891  0.1946984E+02  0.1590064E+02  0.3457736E+02  0.4155462E+02
Ar  892  0.1590064E+02  0.1946984E+02  0.3457736E+02  0.4155462E+02
Ar  893  0.1664650E+02  0.1664650E+02  0.3695187E+02  0.5102864E+02
Ar  894  0.1949727E+02  0.1949727E+02  0.3747078E+02  0.2133349E+03
Ar  895  0.1851346E+02  0.1606321E+02  0.4037098E+02  0.4577840E+03
Ar  896  0.1606321E+02  0.1851346E+02  0.4037098E+02  0.4577840E+03
Ar  897  0.1602881E+02  0.2203278E+02  0.4288007E+02  0.2431362E+03
Ar  898  0.1906604E+02  0.2479095E+02  0.2085408E+00  0.6001303E+03
Ar  899  0.1809179E+02  0.2180842E+02  0.2664141E+01  0.1275860E+04
Ar  900  0.1530068E+02  0.2499088E+02  0.3206737E+01  0.6053400E+03
Ar  901  0.1621771E+02  0.2195837E+02  0.5740637E+01  0.3015574E+03
Ar  902  0.1871829E+02  0.2458841E+02  0.4839548E+01  0.2319651E+03
Ar  903  0.1901031E+02  0.2184607E+02  0.7748882E+01  0.1061078E+03
Ar  904  0.1693053E+02  0.2443582E+02  0.8051905E+01  0.1571970E+03
Ar  905  0.1655786E+02  0.2165282E+02  0.1065617E+02  0.1798094E+03
Ar  906  0.1903752E+02  0.2365236E+02  0.1112412E+02  0.6853645E+03
Ar  907  0.1928704E+02  0.2220435E+02  0.1399252E+02  0.1666254E+03
Ar  908  0.1620193E+02  0.2400765E+02  0.1288555E+02  0.3514729E+02
Ar  909  0.1647208E+02  0.2197002E+02  0.1647208E+02  0.5025398E+02
Ar  910  0.1911617E+02  0.2469154E+02  0.1611753E+02  0.5777073E+03
Ar  911  0.1870020E+02  0.2107549E+02  0.1870020E+02  0.2605058E+03
Ar  912  0.1611753E+02  0.2469154E+02  0.1911617E+02  0.5777073E+03
Ar  913  0.1645589E+02  0.2144808E+02  0.2144808E+02  0.4593835E+03
Ar  914  0.1849420E+02  0.2408971E+02  0.2125838E+02  0.5520899E+03
Ar  915  0.1849420E+02  0.2125838E+02  0.2408971E+02  0.5520899E+03
Ar  916  0.1640709E+02  0.2455399E+02  0.2455399E+02  0.6577634E+02
Ar  917  0.1562395E+02  0.2146949E+02  0.2748048E+02  0.3591956E+03
Ar  918  0.1855082E+02  0.2350399E+02  0.2668347E+02  0.4292633E+03
Ar  919  0.1830662E+02  0.2098194E+02  0.2986112E+02  0.3792936E+03
Ar  920  0.1557854E+02  0.2435273E+02  0.2960807E+02  0.5050591E+03
Ar  921  0.1581101E+02  0.2171323E+02  0.3206174E+02  0.9298951E+03
Ar  922  0.1816203E+02  0.2429104E+02  0.3172309E+02  0.1774403E+03
Ar  923  0.1886578E+02  0.2213209E+02  0.3511430E+02  0.5027465E+03
Ar  924  0.1635261E+02  0.2457158E+02  0.3486479E+02  0.1342330E+03
Ar  925  0.1646103E+02  0.2152786E+02  0.3775153E+02  0.4764385E+03
Ar  926  0.1832648E+02  0.2470669E+02  0.3774192E+02  0.3201791E+03
Ar  927  0.1893349E+02  0.2222262E+02  0.4120352E+02  0.8205370E+03
Ar  928  0.1627914E+02  0.2508899E+02  0.4022380E+02  0.1842065E+03
Ar  929  0.1670072E+02  0.2727246E+02  0.4307998E+02  0.4244911E+03
Ar  930  0.1891484E+02  0.2976262E+02  0.4265484E+02  0.3001564E+03
Ar  931  0.1876842E+02  0.2770095E+02  0.2601671E+01  0.6188407E+02
Ar  932  0.1644997E+02  0.3045239E+02  0.2626129E+01  0.6545581E+02
Ar  933  0.1582244E+02  0.2764790E+02  0.5119234E+01  0.7317765E+02
Ar  934  0.1911271E+02  0.3033256E+02  0.5100159E+01  0.1162276E+04
Ar  935  0.1935519E+02  0.2678114E+02  0.7930410E+01  0.4284229E+02
Ar  936  0.1643275E+02  0.2950646E+02  0.8196450E+01  0.1223622E+03
Ar  937  0.1612866E+02  0.2717560E+02  0.1123398E+02  0.2339267E+02
Ar  938  0.1901842E+02  0.2893358E+02  0.1037634E+02  0.1184757E+03
Ar  939  0.1873721E+02  0.2714942E+02  0.1388926E+02  0.1158348E+02
Ar  940  0.1637341E+02  0.3081831E+02  0.1376198E+02  0.6468579E+03
Ar  941  0.1556376E+02  0.2734073E+02  0.1556376E+02  0.9660132E+02
Ar  942  0.1853716E+02  0.3036465E+02  0.1592852E+02  0.5858299E+03
Ar  943  0.1834878E+02  0.2792247E+02  0.1834878E+02  0.3438268E+03
Ar  944  0.1592852E+02  0.3036465E+02  0.1853716E+02  0.5858299E+03
Ar  945  0.1562395E+02  0.2748048E+02  0.2146949E+02  0.3591956E+03
Ar  946  0.1830662E+02  0.2986112E+02  0.2098194E+02  0.3792936E+03
Ar  947  0.1855082E+02  0.2668347E+02  0.2350399E+02  0.4292633E+03
Ar  948  0.1557854E+02  0.2960807E+02  0.2435273E+02  0.5050591E+03
Ar  949  0.1516225E+02  0.2689469E+02  0.2689469E+02  0.7886112E+03
Ar  950  0.1829445E+02  0.2962736E+02  0.2698071E+02  0.1318887E+03
Ar  951  0.1829445E+02  0.2698071E+02  0.2962736E+02  0.1318887E+03
Ar  952  0.1659759E+02  0.3015120E+02  0.3015120E+02  0.6893715E+02
Ar  953  0.1607670E+02  0.2686967E+02  0.3236149E+02  0.8512347E+03
Ar  954  0.1941065E+02  0.3000378E+02  0.3291589E+02  0.1040915E+04
Ar  955  0.1865932E+02  0.2710139E+02  0.3480158E+02  0.1793581E+03
Ar  956  0.1639222E+02  0.2967703E+02  0.3448103E+02  0.9721272E+02
Ar  957  0.1609727E+02  0.2744926E+02  0.3706803E+02  0.2806657E+02
Ar  958  0.1905047E+02  0.2978725E+02  0.3770489E+02  0.1523919E+04
Ar  959  0.1912275E+02  0.2746211E+02  0.4007994E+02  0.1342069E+03
Ar  960  0.1640212E+02  0.2966472E+02  0.4024098E+02  0.2020132E+03
Ar  961  0.1630061E+02  0.3218585E+02  0.4262279E+02  0.6828119E+03
Ar  962  0.1925472E+02  0.3487682E+02  0.4269672E+02  0.1517037E+03
Ar  963  0.1924525E+02  0.3212725E+02  0.2452297E+01  0.2660712E+03
Ar  964  0.1642435E+02  0.3442902E+02  0.2763446E+01  0.4938514E+02
Ar  965  0.1619648E+02  0.3270615E+02  0.5589768E+01  0.1851407E+02
Ar  966  0.1955775E+02  0.3478531E+02  0.4766387E+01  0.7366085E+03
Ar  967  0.1915071E+02  0.3189677E+02  0.8320462E+01  0.3294010E+03
Ar  968  0.1593984E+02  0.3553098E+02  0.8079723E+01  0.6481150E+03
Ar  969  0.1624524E+02  0.3262012E+02  0.1037627E+02  0.4924815E+03
Ar  970  0.1915762E+02  0.3504441E+02  0.1048177E+02  0.2365295E+03
Ar  971  0.1918032E+02  0.3252827E+02  0.1292001E+02  0.6296676E+03
Ar  972  0.1635402E+02  0.3462628E+02  0.1375350E+02  0.1290229E+03
Ar  973  0.1652372E+02  0.3276939E+02  0.1652372E+02  0.9553610E+03
Ar  974  0.1946984E+02  0.3457736E+02  0.1590064E+02  0.4155462E+02
Ar  975  0.1933202E+02  0.3288210E+02  0.1933202E+02  0.2978570E+02
Ar  976  0.1590064E+02  0.3457736E+02  0.1946984E+02  0.4155462E+02
Ar  977  0.1581101E+02  0.3206174E+02  0.2171323E+02  0.9298951E+03
Ar  978  0.1886578E+02  0.3511430E+02  0.2213209E+02  0.5027465E+03
Ar  979  0.1816203E+02  0.3172309E+02  0.2429104E+02  0.1774403E+03
Ar  980  0.1635261E+02  0.3486479E+02  0.2457158E+02  0.1342330E+03
Ar  981  0.1607670E+02  0.3236149E+02  0.2686967E+02  0.8512347E+03
Ar  982  0.1865932E+02  0.3480158E+02  0.2710139E+02  0.1793581E+03
Ar  983  0.1941065E+02  0.3291589E+02  0.3000378E+02  0.1040915E+04
Ar  984  0.1639222E+02  0.3448103E+02  0.2967703E+02  0.9721272E+02
Ar  985  0.1612106E+02  0.3247117E+02  0.3247117E+02  0.1935075E+02
Ar  986  0.1930581E+02  0.3526426E+02  0.3227681E+02  0.6147900E+03
Ar  987  0.1930581E+02  0.3227681E+02  0.3526426E+02  0.6147900E+03
Ar  988  0.1692782E+02  0.3490563E+02  0.3490563E+02  0.8737403E+03
Ar  989  0.1612153E+02  0.3205557E+02  0.3750339E+02  0.1093559E+04
Ar  990  0.1931157E+02  0.3532929E+02  0.3776581E+02  0.7131925E+03
Ar  991  0.1904776E+02  0.3240474E+02  0.4016599E+02  0.5287905E+03
Ar  992  0.1624510E+02  0.3529393E+02  0.4046431E+02  0.2333439E+03
Ar  993  0.1658309E+02  0.3772476E+02  0.4300109E+02  0.5007810E+03
Ar  994  0.1952597E+02  0.4043200E+02  0.4270751E+02  0.2335827E+03
Ar  995  0.1892669E+02  0.3760998E+02  0.2245083E+01  0.5993076E+03
Ar  996  0.1592736E+02  0.4023829E+02  0.2273214E+01  0.3038186E+03
Ar  997  0.1627166E+02  0.3764492E+02  0.5243639E+01  0.8922779E+02
Ar  998  0.1822463E+02  0.4016586E+02  0.5148631E+01  0.1719371E+03
Ar  999  0.1889086E+02  0.3737599E+02  0.7395634E+01  0.5189353E+03
Ar 1000  0.1647612E+02  0.4037986E+02  0.8323534E+01  0.5110733E+03
Ar 1001  0.1636017E+02  0.3777341E+02  0.1096061E+02  0.5239908E+03
Ar 1002  0.1890063E+02  0.4019704E+02  0.1101516E+02  0.2335721E+03
Ar 1003  0.1881414E+02  0.3767253E+02  0.1324712E+02  0.7600241E+02
Ar 1004  0.1653755E+02  0.4060445E+02  0.1337705E+02  0.9461596E+03
Ar 1005  0.1664650E+02  0.3695187E+02  0.1664650E+02  0.5102864E+02
Ar 1006  0.1851346E+02  0.4037098E+02  0.1606321E+02  0.4577840E+03
Ar 1007  0.1949727E+02  0.3747078E+02  0.1949727E+02  0.2133349E+03
Ar 1008  0.1606321E+02  0.4037098E+02  0.1851346E+02  0.4577840E+03
Ar 1009  0.1646103E+02  0.3775153E+02  0.2152786E+02  0.4764385E+03
Ar 1010  0.1893349E+02  0.4120352E+02  0.2222262E+02  0.8205370E+03
Ar 1011  0.1832648E+02  0.3774192E+02  0.2470669E+02  0.3201791E+03
Ar 1012  0.1627914E+02  0.4022380E+02  0.2508899E+02  0.1842065E+03
Ar 1013  0.1609727E+02  0.3706803E+02  0.2744926E+02  0.2806657E+02
Ar 1014  0.1912275E+02  0.4007994E+02  0.2746211E+02  0.1342069E+03
Ar 1015  0.1905047E+02  0.3770489E+02  0.2978725E+02  0.1523919E+04
Ar 1016  0.1640212E+02  0.4024098E+02  0.2966472E+02  0.2020132E+03
Ar 1017  0.1612153E+02  0.3750339E+02  0.3205557E+02  0.1093559E+04
Ar 1018  0.1904776E+02  0.4016599E+02  0.3240474E+02  0.5287905E+03
Ar 1019  0.1931157E+02  0.3776581E+02  0.3532929E+02  0.7131925E+03
Ar 1020  0.1624510E+02  0.4046431E+02  0.3529393E+02  0.2333439E+03
Ar 1021  0.1686135E+02  0.3792412E+02  0.3792412E+02  0.2303239E+03
Ar 1022  0.1970659E+02  0.4026601E+02  0.3797078E+02  0.2851379E+02
Ar 1023  0.1970659E+02  0.3797078E+02  0.4026601E+02  0.2851379E+02
Ar 1024  0.1606331E+02  0.4009289E+02  0.4009289E+02  0.3561813E+03
Ar 1025  0.2116547E+02  0.3767007E-01  0.3767007E-01  0.2169065E+02
Ar 1026  0.2387470E+02  0.2198470E+01  0.4294996E+02  0.3540193E+03
Ar 1027  0.2387470E+02  0.4294996E+02  0.2198470E+01  0.3540193E+03
Ar 1028  0.2126525E+02  0.2301925E+01  0.2301925E+01  0.8547477E+02
Ar 1029  0.2134137E+02  0.4299184E+02  0.5185220E+01  0.1989121E+03
Ar 1030  0.2361598E+02  0.2604402E+01  0.5598771E+01  0.6053795E+03
Ar 1031  0.2406071E+02  0.4425469E+00  0.8530220E+01  0.7817050E+03
Ar 1032  0.2200293E+02  0.2848496E+01  0.9133852E+01  0.2516730E+03
Ar 1033  0.2171481E+02  0.4264718E+02  0.1059417E+02  0.1414322E+03
Ar 1034  0.2504256E+02  0.3133852E+01  0.1141438E+02  0.5044702E+03
Ar 1035  0.2411146E+02  0.4561124E+00  0.1351376E+02  0.1336681E+02
Ar 1036  0.2126645E+02  0.3006653E+01  0.1415473E+02  0.2727174E+02
Ar 1037  0.2203278E+02  0.4288007E+02  0.1602881E+02  0.2431362E+03
Ar 1038  0.2499088E+02  0.3206737E+01  0.1530068E+02  0.6053400E+03
Ar 1039  0.2479095E+02  0.2085408E+00  0.1906604E+02  0.6001303E+03
Ar 1040  0.2180842E+02  0.2664141E+01  0.1809179E+02  0.1275860E+04
Ar 1041  0.2132275E+02  0.8508969E+00  0.2132275E+02  0.1358691E+04
Ar 1042  0.2482037E+02  0.2736379E+01  0.2203304E+02  0.3564017E+03
Ar 1043  0.2387195E+02  0.3093677E+00  0.2387195E+02  0.1721617E+03
Ar 1044  0.2203304E+02  0.2736379E+01  0.2482037E+02  0.3564017E+03
Ar 1045  0.2133553E+02  0.6067068E+00  0.2732623E+02  0.6317555E+03
Ar 1046  0.2435591E+02  0.2491074E+01  0.2712127E+02  0.4279137E+03
Ar 1047  0.2454000E+02  0.1431387E+00  0.2942923E+02  0.5796084E+03
Ar 1048  0.2187932E+02  0.2965058E+01  0.2966025E+02  0.1881863E+03
Ar 1049  0.2165415E+02  0.4279569E+02  0.3251778E+02  0.1138017E+03
Ar 1050  0.2402443E+02  0.3368322E+01  0.3208415E+02  0.1211306E+03
Ar 1051  0.2457329E+02  0.4300991E+02  0.3396053E+02  0.4899721E+03
Ar 1052  0.2190541E+02  0.2295918E+01  0.3496027E+02  0.7106002E+03
Ar 1053  0.2169483E+02  0.2055290E+00  0.3755171E+02  0.3222540E+03
Ar 1054  0.2439900E+02  0.2968258E+01  0.3786774E+02  0.8222153E+03
Ar 1055  0.2420417E+02  0.5007239E+00  0.4007794E+02  0.7230312E+03
Ar 1056  0.2135268E+02  0.2299152E+01  0.4010131E+02  0.1028791E+03
Ar 1057  0.2134137E+02  0.5185220E+01  0.4299184E+02  0.1989121E+03
Ar 1058  0.2406071E+02  0.8530220E+01  0.4425469E+00  0.7817050E+03
Ar 1059  0.2361598E+02  0.5598771E+01  0.2604402E+01  0.6053795E+03
Ar 1060  0.2200293E+02  0.9133852E+01  0.2848496E+01  0.2516730E+03
Ar 1061  0.2189018E+02  0.5463120E+01  0.5463120E+01  0.7792485E+03
Ar 1062  0.2445060E+02  0.8148190E+01  0.4954381E+01  0.6864318E+02
Ar 1063  0.2445060E+02  0.4954381E+01  0.8148190E+01  0.6864318E+02
Ar 1064  0.2183779E+02  0.8471398E+01  0.8471398E+01  0.5206825E+03
Ar 1065  0.2181485E+02  0.5651146E+01  0.1138268E+02  0.7581300E+03
Ar 1066  0.2478747E+02  0.7551666E+01  0.1065348E+02  0.3118735E+03
Ar 1067  0.2489138E+02  0.6277156E+01  0.1388706E+02  0.2136412E+03
Ar 1068  0.2130121E+02  0.8085917E+01  0.1372873E+02  0.2135235E+03
Ar 1069  0.2195837E+02  0.5740637E+01  0.1621771E+02  0.3015574E+03
Ar 1070  0.2443582E+02  0.8051905E+01  0.1693053E+02  0.1571970E+03
Ar 1071  0.2458841E+02  0.4839548E+01  0.1871829E+02  0.2319651E+03
Ar 1072  0.2184607E+02  0.7748882E+01  0.1901031E+02  0.1061078E+03
Ar 1073  0.2151195E+02  0.4205346E+01  0.2151195E+02  0.3019831E+03
Ar 1074  0.2424841E+02  0.6749284E+01  0.2154784E+02  0.6058410E+03
Ar 1075  0.2463265E+02  0.4888808E+01  0.2463265E+02  0.3438564E+03
Ar 1076  0.2154784E+02  0.6749284E+01  0.2424841E+02  0.6058410E+03
Ar 1077  0.2078859E+02  0.5077950E+01  0.2717544E+02  0.1912738E+03
Ar 1078  0.2386132E+02  0.8230750E+01  0.2621243E+02  0.4690414E+03
Ar 1079  0.2440666E+02  0.5872015E+01  0.2875320E+02  0.3907044E+03
Ar 1080  0.2187385E+02  0.7881868E+01  0.2949569E+02  0.2247099E+01
Ar 1081  0.2192108E+02  0.5879339E+01  0.3258274E+02  0.1259086E+03
Ar 1082  0.2462283E+02  0.7929559E+01  0.3243923E+02  0.8276898E+03
Ar 1083  0.2395780E+02  0.5471398E+01  0.3549845E+02  0.2235825E+03
Ar 1084  0.2151637E+02  0.7886679E+01  0.3567957E+02  0.3647450E+03
Ar 1085  0.2165644E+02  0.5019868E+01  0.3774047E+02  0.1095609E+03
Ar 1086  0.2399053E+02  0.7914899E+01  0.3787292E+02  0.5160976E+03
Ar 1087  0.2406066E+02  0.5379712E+01  0.4035348E+02  0.5974182E+03
Ar 1088  0.2121363E+02  0.7932620E+01  0.3996332E+02  0.4665830E+03
Ar 1089  0.2171481E+02  0.1059417E+02  0.4264718E+02  0.1414322E+03
Ar 1090  0.2411146E+02  0.1351376E+02  0.4561124E+00  0.1336681E+02
Ar 1091  0.2504256E+02  0.1141438E+02  0.3133852E+01  0.5044702E+03
Ar 1092  0.2126645E+02  0.1415473E+02  0.3006653E+01  0.2727174E+02
Ar 1093  0.2181485E+02  0.1138268E+02  0.5651146E+01  0.7581300E+03
Ar 1094  0.2489138E+02  0.1388706E+02  0.6277156E+01  0.2136412E+03
Ar 1095  0.2478747E+02  0.1065348E+02  0.7551666E+01  0.3118735E+03
Ar 1096  0.2130121E+02  0.1372873E+02  0.8085917E+01  0.2135235E+03
Ar 1097  0.2286583E+02  0.1118461E+02  0.1118461E+02  0.1758919E+03
Ar 1098  0.2456409E+02  0.1408722E+02  0.1009758E+02  0.8621192E+03
Ar 1099  0.2456409E+02  0.1009758E+02  0.1408722E+02  0.8621192E+03
Ar 1100  0.2158187E+02  0.1387196E+02  0.1387196E+02  0.1796495E+03
Ar 1101  0.2165282E+02  0.1065617E+02  0.1655786E+02  0.1798094E+03
Ar 1102  0.2400765E+02  0.1288555E+02  0.1620193E+02  0.3514729E+02
Ar 1103  0.2365236E+02  0.1112412E+02  0.1903752E+02  0.6853645E+03
Ar 1104  0.2220435E+02  0.1399252E+02  0.1928704E+02  0.1666254E+03
Ar 1105  0.2183292E+02  0.1125728E+02  0.2183292E+02  0.4519418E+02
Ar 1106  0.2462081E+02  0.1394186E+02  0.2191408E+02  0.4400938E+03
Ar 1107  0.2437283E+02  0.1133758E+02  0.2437283E+02  0.9233763E+02
Ar 1108  0.2191408E+02  0.1394186E+02  0.2462081E+02  0.4400938E+03
Ar 1109  0.2123025E+02  0.1121347E+02  0.2627524E+02  0.3113453E+03
Ar 1110  0.2406364E+02  0.1365516E+02  0.2697587E+02  0.5757487E+03
Ar 1111  0.2419473E+02  0.1047330E+02  0.2911016E+02  0.1135072E+03
Ar 1112  0.2138987E+02  0.1285904E+02  0.2939062E+02  0.7451969E+03
Ar 1113  0.2187176E+02  0.1046411E+02  0.3144448E+02  0.1873248E+03
Ar 1114  0.2405537E+02  0.1322856E+02  0.3206795E+02  0.4871951E+03
Ar 1115  0.2368408E+02  0.1080081E+02  0.3463542E+02  0.9309068E+03
Ar 1116  0.2191873E+02  0.1358667E+02  0.3465854E+02  0.4972993E+02
Ar 1117  0.2215968E+02  0.1099715E+02  0.3781726E+02  0.1799120E+03
Ar 1118  0.2380748E+02  0.1386686E+02  0.3737050E+02  0.1308053E+03
Ar 1119  0.2420857E+02  0.1189795E+02  0.4031309E+02  0.8490609E+03
Ar 1120  0.2138084E+02  0.1352014E+02  0.4035685E+02  0.1061058E+03
Ar 1121  0.2203278E+02  0.1602881E+02  0.4288007E+02  0.2431362E+03
Ar 1122  0.2479095E+02  0.1906604E+02  0.2085408E+00  0.6001303E+03
Ar 1123  0.2499088E+02  0.1530068E+02  0.3206737E+01  0.6053400E+03
Ar 1124  0.2180842E+02  0.1809179E+02  0.2664141E+01  0.1275860E+04
Ar 1125  0.2195837E+02  0.1621771E+02  0.5740637E+01  0.3015574E+03
Ar 1126  0.2458841E+02  0.1871829E+02  0.4839548E+01  0.2319651E+03
Ar 1127  0.2443582E+02  0.1693053E+02  0.8051905E+01  0.1571970E+03
Ar 1128  0.2184607E+02  0.1901031E+02  0.7748882E+01  0.1061078E+03
Ar 1129  0.2165282E+02  0.1655786E+02  0.1065617E+02  0.1798094E+03
Ar 1130  0.2365236E+02  0.1903752E+02  0.1112412E+02  0.6853645E+03
Ar 1131  0.2400765E+02  0.1620193E+02  0.1288555E+02  0.3514729E+02
Ar 1132  0.2220435E+02  0.1928704E+02  0.1399252E+02  0.1666254E+03
Ar 1133  0.2197002E+02  0.1647208E+02  0.1647208E+02  0.5025398E+02
Ar 1134  0.2469154E+02  0.1911617E+02  0.1611753E+02  0.5777073E+03
Ar 1135  0.2469154E+02  0.1611753E+02  0.1911617E+02  0.5777073E+03
Ar 1136  0.2107549E+02  0.1870020E+02  0.1870020E+02  0.2605058E+03
Ar 1137  0.2144808E+02  0.1645589E+02  0.2144808E+02  0.4593835E+03
Ar 1138  0.2408971E+02  0.1849420E+02  0.2125838E+02  0.5520899E+03
Ar 1139  0.2455399E+02  0.1640709E+02  0.2455399E+02  0.6577634E+02
Ar 1140  0.2125838E+02  0.1849420E+02  0.2408971E+02  0.5520899E+03
Ar 1141  0.2146949E+02  0.1562395E+02  0.2748048E+02  0.3591956E+03
Ar 1142  0.2350399E+02  0.1855082E+02  0.2668347E+02  0.4292633E+03
Ar 1143  0.2435273E+02  0.1557854E+02  0.2960807E+02  0.5050591E+03
Ar 1144  0.2098194E+02  0.1830662E+02  0.2986112E+02  0.3792936E+03
Ar 1145  0.2171323E+02  0.1581101E+02  0.3206174E+02  0.9298951E+03
Ar 1146  0.2429104E+02  0.1816203E+02  0.3172309E+02  0.1774403E+03
Ar 1147  0.2457158E+02  0.1635261E+02  0.3486479E+02  0.1342330E+03
Ar 1148  0.2213209E+02  0.1886578E+02  0.3511430E+02  0.5027465E+03
Ar 1149  0.2152786E+02  0.1646103E+02  0.3775153E+02  0.4764385E+03
Ar 1150  0.2470669E+02  0.1832648E+02  0.3774192E+02  0.3201791E+03
Ar 1151  0.2508899E+02  0.1627914E+02  0.4022380E+02  0.1842065E+03
Ar 1152  0.2222262E+02  0.1893349E+02  0.4120352E+02  0.8205370E+03
Ar 1153  0.2132275E+02  0.2132275E+02  0.8508969E+00  0.1358691E+04
Ar 1154  0.2387195E+02  0.2387195E+02  0.3093677E+00  0.1721617E+03
Ar 1155  0.2482037E+02  0.2203304E+02  0.2736379E+01  0.3564017E+03
Ar 1156  0.2203304E+02  0.2482037E+02  0.2736379E+01  0.3564017E+03
Ar 1157  0.2151195E+02  0.2151195E+02  0.4205346E+01  0.3019831E+03
Ar 1158  0.2463265E+02  0.2463265E+02  0.4888808E+01  0.3438564E+03
Ar 1159  0.2424841E+02  0.2154784E+02  0.6749284E+01  0.6058410E+03
Ar 1160  0.2154784E+02  0.2424841E+02  0.6749284E+01  0.6058410E+03
Ar 1161  0.2183292E+02  0.2183292E+02  0.1125728E+02  0.4519418E+02
Ar 1162  0.2437283E+02  0.2437283E+02  0.1133758E+02  0.9233763E+02
Ar 1163  0.2462081E+02  0.2191408E+02  0.1394186E+02  0.4400938E+03
Ar 1164  0.2191408E+02  0.2462081E+02  0.1394186E+02  0.4400938E+03
Ar 1165  0.2144808E+02  0.2144808E+02  0.1645589E+02  0.4593835E+03
Ar 1166  0.2455399E+02  0.2455399E+02  0.1640709E+02  0.6577634E+02
Ar 1167  0.2408971E+02  0.2125838E+02  0.1849420E+02  0.5520899E+03
Ar 1168  0.2125838E+02  0.2408971E+02  0.1849420E+02  0.5520899E+03
Ar 1169  0.2108456E+02  0.2108456E+02  0.2108456E+02  0.6726733E+03
Ar 1170  0.2484610E+02  0.2484610E+02  0.2131595E+02  0.4105206E+02
Ar 1171  0.2484610E+02  0.2131595E+02  0.2484610E+02  0.4105206E+02
Ar 1172  0.2131595E+02  0.2484610E+02  0.2484610E+02  0.4105206E+02
Ar 1173  0.2074153E+02  0.2074153E+02  0.2651640E+02  0.4546506E+03
Ar 1174  0.2394469E+02  0.2394469E+02  0.2682111E+02  0.1225985E+04
Ar 1175  0.2368708E+02  0.2129204E+02  0.2920743E+02  0.3089878E+03
Ar 1176  0.2129204E+02  0.2368708E+02  0.2920743E+02  0.3089878E+03
Ar 1177  0.2145043E+02  0.2145043E+02  0.3151318E+02  0.2883275E+03
Ar 1178  0.2440702E+02  0.2440702E+02  0.3244533E+02  0.3850495E+03
Ar 1179  0.2440089E+02  0.2139738E+02  0.3435272E+02  0.3425137E+02
Ar 1180  0.2139738E+02  0.2440089E+02  0.3435272E+02  0.3425137E+02
Ar 1181  0.2203687E+02  0.2203687E+02  0.3716700E+02  0.1496030E+02
Ar 1182  0.2455615E+02  0.2455615E+02  0.3813541E+02  0.6371949E+02
Ar 1183  0.2479444E+02  0.2160477E+02  0.4065874E+02  0.3959987E+03
Ar 1184  0.2160477E+02  0.2479444E+02  0.4065874E+02  0.3959987E+03
Ar 1185  0.2133553E+02  0.2732623E+02  0.6067068E+00  0.6317555E+03
Ar 1186  0.2454000E+02  0.2942923E+02  0.1431387E+00  0.5796084E+03
Ar 1187  0.2435591E+02  0.2712127E+02  0.2491074E+01  0.4279137E+03
Ar 1188  0.2187932E+02  0.2966025E+02  0.2965058E+01  0.1881863E+03
Ar 1189  0.2078859E+02  0.2717544E+02  0.5077950E+01  0.1912738E+03
Ar 1190  0.2440666E+02  0.2875320E+02  0.5872015E+01  0.3907044E+03
Ar 1191  0.2386132E+02  0.2621243E+02  0.8230750E+01  0.4690414E+03
Ar 1192  0.2187385E+02  0.2949569E+02  0.7881868E+01  0.2247099E+01
Ar 1193  0.2123025E+02  0.2627524E+02  0.1121347E+02  0.3113453E+03
Ar 1194  0.2419473E+02  0.2911016E+02  0.1047330E+02  0.1135072E+03
Ar 1195  0.2406364E+02  0.2697587E+02  0.1365516E+02  0.5757487E+03
Ar 1196  0.2138987E+02  0.2939062E+02  0.1285904E+02  0.7451969E+03
Ar 1197  0.2146949E+02  0.2748048E+02  0.1562395E+02  0.3591956E+03
Ar 1198  0.2435273E+02  0.2960807E+02  0.1557854E+02  0.5050591E+03
Ar 1199  0.2350399E+02  0.2668347E+02  0.1855082E+02  0.4292633E+03
Ar 1200  0.2098194E+02  0.2986112E+02  0.1830662E+02  0.3792936E+03
Ar 1201  0.2074153E+02  0.2651640E+02  0.2074153E+02  0.4546506E+03
Ar 1202  0.2368708E+02  0.2920743E+02  0.2129204E+02  0.3089878E+03
Ar 1203  0.2394469E+02  0.2682111E+02  0.2394469E+02  0.1225985E+04
Ar 1204  0.2129204E+02  0.2920743E+02  0.2368708E+02  0.3089878E+03
Ar 1205  0.2040670E+02  0.2713411E+02  0.2713411E+02  0.8114115E+03
Ar 1206  0.2366968E+02  0.2937390E+02  0.2637278E+02  0.2777123E+03
Ar 1207  0.2366968E+02  0.2637278E+02  0.2937390E+02  0.2777123E+03
Ar 1208  0.2128915E+02  0.2968847E+02  0.2968847E+02  0.7764411E+03
Ar 1209  0.2127145E+02  0.2719636E+02  0.3233066E+02  0.2074616E+03
Ar 1210  0.2449013E+02  0.2898407E+02  0.3215196E+02  0.9740037E+02
Ar 1211  0.2433584E+02  0.2682077E+02  0.3473156E+02  0.5691832E+03
Ar 1212  0.2174592E+02  0.2935111E+02  0.3533279E+02  0.3460852E+03
Ar 1213  0.2170322E+02  0.2693104E+02  0.3774668E+02  0.1258346E+03
Ar 1214  0.2484603E+02  0.2967715E+02  0.3738722E+02  0.1252375E+03
Ar 1215  0.2440433E+02  0.2700191E+02  0.4046880E+02  0.9759959E+02
Ar 1216  0.2198215E+02  0.2916636E+02  0.4053825E+02  0.1121477E+03
Ar 1217  0.2165415E+02  0.3251778E+02  0.4279569E+02  0.1138017E+03
Ar 1218  0.2457329E+02  0.3396053E+02  0.4300991E+02  0.4899721E+03
Ar 1219  0.2402443E+02  0.3208415E+02  0.3368322E+01  0.1211306E+03
Ar 1220  0.2190541E+02  0.3496027E+02  0.2295918E+01  0.7106002E+03
Ar 1221  0.2192108E+02  0.3258274E+02  0.5879339E+01  0.1259086E+03
Ar 1222  0.2395780E+02  0.3549845E+02  0.5471398E+01  0.2235825E+03
Ar 1223  0.2462283E+02  0.3243923E+02  0.7929559E+01  0.8276898E+03
Ar 1224  0.2151637E+02  0.3567957E+02  0.7886679E+01  0.3647450E+03
Ar 1225  0.2187176E+02  0.3144448E+02  0.1046411E+02  0.1873248E+03
Ar 1226  0.2368408E+02  0.3463542E+02  0.1080081E+02  0.9309068E+03
Ar 1227  0.2405537E+02  0.3206795E+02  0.1322856E+02  0.4871951E+03
Ar 1228  0.2191873E+02  0.3465854E+02  0.1358667E+02  0.4972993E+02
Ar 1229  0.2171323E+02  0.3206174E+02  0.1581101E+02  0.9298951E+03
Ar 1230  0.2457158E+02  0.3486479E+02  0.1635261E+02  0.1342330E+03
Ar 1231  0.2429104E+02  0.3172309E+02  0.1816203E+02  0.1774403E+03
Ar 1232  0.2213209E+02  0.3511430E+02  0.1886578E+02  0.5027465E+03
Ar 1233  0.2145043E+02  0.3151318E+02  0.2145043E+02  0.2883275E+03
Ar 1234  0.2440089E+02  0.3435272E+02  0.2139738E+02  0.3425137E+02
Ar 1235  0.2440702E+02  0.3244533E+02  0.2440702E+02  0.3850495E+03
Ar 1236  0.2139738E+02  0.3435272E+02  0.2440089E+02  0.3425137E+02
Ar 1237  0.2127145E+02  0.3233066E+02  0.2719636E+02  0.2074616E+03
Ar 1238  0.2433584E+02  0.3473156E+02  0.2682077E+02  0.5691832E+03
Ar 1239  0.2449013E+02  0.3215196E+02  0.2898407E+02  0.9740037E+02
Ar 1240  0.2174592E+02  0.3533279E+02  0.2935111E+02  0.3460852E+03
Ar 1241  0.2183093E+02  0.3239232E+02  0.3239232E+02  0.4233539E+03
Ar 1242  0.2379344E+02  0.3523498E+02  0.3206987E+02  0.2142178E+03
Ar 1243  0.2379344E+02  0.3206987E+02  0.3523498E+02  0.2142178E+03
Ar 1244  0.2153501E+02  0.3498254E+02  0.3498254E+02  0.2343824E+02
Ar 1245  0.2189897E+02  0.3225059E+02  0.3791299E+02  0.3956229E+03
Ar 1246  0.2427290E+02  0.3481245E+02  0.3758698E+02  0.3799267E+03
Ar 1247  0.2419551E+02  0.3220493E+02  0.4029857E+02  0.8324869E+03
Ar 1248  0.2227687E+02  0.3510487E+02  0.4042435E+02  0.4599061E+02
Ar 1249  0.2169483E+02  0.3755171E+02  0.2055290E+00  0.3222540E+03
Ar 1250  0.2420417E+02  0.4007794E+02  0.5007239E+00  0.7230312E+03
Ar 1251  0.2439900E+02  0.3786774E+02  0.2968258E+01  0.8222153E+03
Ar 1252  0.2135268E+02  0.4010131E+02  0.2299152E+01  0.1028791E+03
Ar 1253  0.2165644E+02  0.3774047E+02  0.5019868E+01  0.1095609E+03
Ar 1254  0.2406066E+02  0.4035348E+02  0.5379712E+01  0.5974182E+03
Ar 1255  0.2399053E+02  0.3787292E+02  0.7914899E+01  0.5160976E+03
Ar 1256  0.2121363E+02  0.3996332E+02  0.7932620E+01  0.4665830E+03
Ar 1257  0.2215968E+02  0.3781726E+02  0.1099715E+02  0.1799120E+03
Ar 1258  0.2420857E+02  0.4031309E+02  0.1189795E+02  0.8490609E+03
Ar 1259  0.2380748E+02  0.3737050E+02  0.1386686E+02  0.1308053E+03
Ar 1260  0.2138084E+02  0.4035685E+02  0.1352014E+02  0.1061058E+03
Ar 1261  0.2152786E+02  0.3775153E+02  0.1646103E+02  0.4764385E+03
Ar 1262  0.2508899E+02  0.4022380E+02  0.1627914E+02  0.1842065E+03
Ar 1263  0.2470669E+02  0.3774192E+02  0.1832648E+02  0.3201791E+03
Ar 1264  0.2222262E+02  0.4120352E+02  0.1893349E+02  0.8205370E+03
Ar 1265  0.2203687E+02  0.3716700E+02  0.2203687E+02  0.1496030E+02
Ar 1266  0.2479444E+02  0.4065874E+02  0.2160477E+02  0.3959987E+03
Ar 1267  0.2455615E+02  0.3813541E+02  0.2455615E+02  0.6371949E+02
Ar 1268  0.2160477E+02  0.4065874E+02  0.2479444E+02  0.3959987E+03
Ar 1269  0.2170322E+02  0.3774668E+02  0.2693104E+02  0.1258346E+03
Ar 1270  0.2440433E+02  0.4046880E+02  0.2700191E+02  0.9759959E+02
Ar 1271  0.2484603E+02  0.3738722E+02  0.2967715E+02  0.1252375E+03
Ar 1272  0.2198215E+02  0.4053825E+02  0.2916636E+02  0.1121477E+03
Ar 1273  0.2189897E+02  0.3791299E+02  0.3225059E+02  0.3956229E+03
Ar 1274  0.2419551E+02  0.4029857E+02  0.3220493E+02  0.8324869E+03
Ar 1275  0.2427290E+02  0.3758698E+02  0.3481245E+02  0.3799267E+03
Ar 1276  0.2227687E+02  0.4042435E+02  0.3510487E+02  0.4599061E+02
Ar 1277  0.2272017E+02  0.3776751E+02  0.3776751E+02  0.4738972E+03
Ar 1278  0.2469327E+02  0.4154712E+02  0.3726585E+02  0.4350888E+03
Ar 1279  0.2469327E+02  0.3726585E+02  0.4154712E+02  0.4350888E+03
Ar 1280  0.2277838E+02  0.4060568E+02  0.4060568E+02  0.1500121E+03
Ar 1281  0.2661372E+02  0.4319990E-01  0.4319990E-01  0.8554174E+03
Ar 1282  0.2899944E+02  0.3145103E+01  0.6686075E+00  0.4155387E+03
Ar 1283  0.2899944E+02  0.6686075E+00  0.3145103E+01  0.4155387E+03
Ar 1284  0.2635029E+02  0.2682570E+01  0.2682570E+01  0.1397196E+03
Ar 1285  0.2643437E+02  0.2783690E+00  0.5688292E+01  0.2638211E+03
Ar 1286  0.2992066E+02  0.2706239E+01  0.5829314E+01  0.1932032E+02
Ar 1287  0.2944106E+02  0.3345108E+00  0.8482752E+01  0.2517079E+03
Ar 1288  0.2692286E+02  0.3050935E+01  0.8234879E+01  0.2409419E+03
Ar 1289  0.2709863E+02  0.4295086E+02  0.1096398E+02  0.1559185E+03
Ar 1290  0.2971266E+02  0.2788840E+01  0.1074116E+02  0.2758617E+03
Ar 1291  0.2998427E+02  0.3027877E+00  0.1320165E+02  0.7592930E+02
Ar 1292  0.2776535E+02  0.2997647E+01  0.1326017E+02  0.2930531E+03
Ar 1293  0.2727246E+02  0.4307998E+02  0.1670072E+02  0.4244911E+03
Ar 1294  0.3045239E+02  0.2626129E+01  0.1644997E+02  0.6545581E+02
Ar 1295  0.2976262E+02  0.4265484E+02  0.1891484E+02  0.3001564E+03
Ar 1296  0.2770095E+02  0.2601671E+01  0.1876842E+02  0.6188407E+02
Ar 1297  0.2732623E+02  0.6067068E+00  0.2133553E+02  0.6317555E+03
Ar 1298  0.2966025E+02  0.2965058E+01  0.2187932E+02  0.1881863E+03
Ar 1299  0.2942923E+02  0.1431387E+00  0.2454000E+02  0.5796084E+03
Ar 1300  0.2712127E+02  0.2491074E+01  0.2435591E+02  0.4279137E+03
Ar 1301  0.2725806E+02  0.4267571E+02  0.2725806E+02  0.2436238E+03
Ar 1302  0.2998581E+02  0.2243023E+01  0.2693439E+02  0.1295400E+03
Ar 1303  0.3006653E+02  0.4307901E+02  0.3006653E+02  0.1966641E+03
Ar 1304  0.2693439E+02  0.2243023E+01  0.2998581E+02  0.1295400E+03
Ar 1305  0.2744122E+02  0.2265196E+00  0.3224064E+02  0.1767475E+03
Ar 1306  0.2959651E+02  0.3087699E+01  0.3281420E+02  0.1207394E+03
Ar 1307  0.2893237E+02  0.2464325E+00  0.3521825E+02  0.6484146E+03
Ar 1308  0.2684568E+02  0.2845377E+01  0.3456925E+02  0.4404793E+03
Ar 1309  0.2746726E+02  0.3201385E+00  0.3838087E+02  0.3685626E+03
Ar 1310  0.2912484E+02  0.3267357E+01  0.3772559E+02  0.7486599E+02
Ar 1311  0.2912261E+02  0.6533403E+00  0.4116558E+02  0.2783084E+03
Ar 1312  0.2660100E+02  0.3158692E+01  0.4073663E+02  0.2042827E+03
Ar 1313  0.2643437E+02  0.5688292E+01  0.2783690E+00  0.2638211E+03
Ar 1314  0.2944106E+02  0.8482752E+01  0.3345108E+00  0.2517079E+03
Ar 1315  0.2992066E+02  0.5829314E+01  0.2706239E+01  0.1932032E+02
Ar 1316  0.2692286E+02  0.8234879E+01  0.3050935E+01  0.2409419E+03
Ar 1317  0.2734742E+02  0.5419097E+01  0.5419097E+01  0.5529961E+03
Ar 1318  0.3024286E+02  0.7993453E+01  0.5343086E+01  0.2367180E+03
Ar 1319  0.3024286E+02  0.5343086E+01  0.7993453E+01  0.2367180E+03
Ar 1320  0.2711479E+02  0.8231369E+01  0.8231369E+01  0.7673085E+03
Ar 1321  0.2759147E+02  0.5673502E+01  0.1097915E+02  0.2693075E+03
Ar 1322  0.3062247E+02  0.8044222E+01  0.1059956E+02  0.1439733E+03
Ar 1323  0.3008539E+02  0.5818490E+01  0.1316514E+02  0.2462335E+03
Ar 1324  0.2769207E+02  0.8488292E+01  0.1336224E+02  0.2860272E+03
Ar 1325  0.2764790E+02  0.5119234E+01  0.1582244E+02  0.7317765E+02
Ar 1326  0.2950646E+02  0.8196450E+01  0.1643275E+02  0.1223622E+03
Ar 1327  0.3033256E+02  0.5100159E+01  0.1911271E+02  0.1162276E+04
Ar 1328  0.2678114E+02  0.7930410E+01  0.1935519E+02  0.4284229E+02
Ar 1329  0.2717544E+02  0.5077950E+01  0.2078859E+02  0.1912738E+03
Ar 1330  0.2949569E+02  0.7881868E+01  0.2187385E+02  0.2247099E+01
Ar 1331  0.2875320E+02  0.5872015E+01  0.2440666E+02  0.3907044E+03
Ar 1332  0.2621243E+02  0.8230750E+01  0.2386132E+02  0.4690414E+03
Ar 1333  0.2730506E+02  0.4634183E+01  0.2730506E+02  0.2558663E+03
Ar 1334  0.2999377E+02  0.7945104E+01  0.2724270E+02  0.1680698E+03
Ar 1335  0.3014345E+02  0.5853872E+01  0.3014345E+02  0.3110766E+03
Ar 1336  0.2724270E+02  0.7945104E+01  0.2999377E+02  0.1680698E+03
Ar 1337  0.2663135E+02  0.5392210E+01  0.3217235E+02  0.4750914E+03
Ar 1338  0.2980103E+02  0.8206251E+01  0.3275330E+02  0.1082479E+04
Ar 1339  0.2941587E+02  0.5990516E+01  0.3539697E+02  0.5332935E+03
Ar 1340  0.2642221E+02  0.7911151E+01  0.3509966E+02  0.4949274E+03
Ar 1341  0.2648631E+02  0.5399501E+01  0.3788581E+02  0.7680899E+03
Ar 1342  0.2951344E+02  0.8139093E+01  0.3803951E+02  0.3188885E+02
Ar 1343  0.2939429E+02  0.5356430E+01  0.4049610E+02  0.2726418E+03
Ar 1344  0.2608031E+02  0.8569540E+01  0.4024299E+02  0.1442528E+03
Ar 1345  0.2709863E+02  0.1096398E+02  0.4295086E+02  0.1559185E+03
Ar 1346  0.2998427E+02  0.1320165E+02  0.3027877E+00  0.7592930E+02
Ar 1347  0.2971266E+02  0.1074116E+02  0.2788840E+01  0.2758617E+03
Ar 1348  0.2776535E+02  0.1326017E+02  0.2997647E+01  0.2930531E+03
Ar 1349  0.2759147E+02  0.1097915E+02  0.5673502E+01  0.2693075E+03
Ar 1350  0.3008539E+02  0.1316514E+02  0.5818490E+01  0.2462335E+03
Ar 1351  0.3062247E+02  0.1059956E+02  0.8044222E+01  0.1439733E+03
Ar 1352  0.2769207E+02  0.1336224E+02  0.8488292E+01  0.2860272E+03
Ar 1353  0.2635648E+02  0.1072459E+02  0.1072459E+02  0.1664643E+03
Ar 1354  0.3043040E+02  0.1365328E+02  0.1086807E+02  0.2850881E+03
Ar 1355  0.3043040E+02  0.1086807E+02  0.1365328E+02  0.2850881E+03
Ar 1356  0.2741199E+02  0.1342057E+02  0.1342057E+02  0.7274498E+03
Ar 1357  0.2717560E+02  0.1123398E+02  0.1612866E+02  0.2339267E+02
Ar 1358  0.3081831E+02  0.1376198E+02  0.1637341E+02  0.6468579E+03
Ar 1359  0.2893358E+02  0.1037634E+02  0.1901842E+02  0.1184757E+03
Ar 1360  0.2714942E+02  0.1388926E+02  0.1873721E+02  0.1158348E+02
Ar 1361  0.2627524E+02  0.1121347E+02  0.2123025E+02  0.3113453E+03
Ar 1362  0.2939062E+02  0.1285904E+02  0.2138987E+02  0.7451969E+03
Ar 1363  0.2911016E+02  0.1047330E+02  0.2419473E+02  0.1135072E+03
Ar 1364  0.2697587E+02  0.1365516E+02  0.2406364E+02  0.5757487E+03
Ar 1365  0.2723086E+02  0.1086201E+02  0.2723086E+02  0.2223222E+02
Ar 1366  0.2991741E+02  0.1322082E+02  0.2712033E+02  0.2416055E+03
Ar 1367  0.3003971E+02  0.1047464E+02  0.3003971E+02  0.4372342E+03
Ar 1368  0.2712033E+02  0.1322082E+02  0.2991741E+02  0.2416055E+03
Ar 1369  0.2666514E+02  0.1089716E+02  0.3235412E+02  0.2325117E+03
Ar 1370  0.2980363E+02  0.1273570E+02  0.3247730E+02  0.4959799E+03
Ar 1371  0.2911265E+02  0.1076284E+02  0.3512325E+02  0.2806700E+03
Ar 1372  0.2633950E+02  0.1354526E+02  0.3498399E+02  0.2077613E+03
Ar 1373  0.2620335E+02  0.1093043E+02  0.3749258E+02  0.3720292E+03
Ar 1374  0.2932905E+02  0.1350905E+02  0.3662064E+02  0.4692013E+03
Ar 1375  0.2900237E+02  0.1063966E+02  0.4017522E+02  0.1360903E+03
Ar 1376  0.2762105E+02  0.1363267E+02  0.4006373E+02  0.1122780E+04
Ar 1377  0.2727246E+02  0.1670072E+02  0.4307998E+02  0.4244911E+03
Ar 1378  0.2976262E+02  0.1891484E+02  0.4265484E+02  0.3001564E+03
Ar 1379  0.3045239E+02  0.1644997E+02  0.2626129E+01  0.6545581E+02
Ar 1380  0.2770095E+02  0.1876842E+02  0.2601671E+01  0.6188407E+02
Ar 1381  0.2764790E+02  0.1582244E+02  0.5119234E+01  0.7317765E+02
Ar 1382  0.3033256E+02  0.1911271E+02  0.5100159E+01  0.1162276E+04
Ar 1383  0.2950646E+02  0.1643275E+02  0.8196450E+01  0.1223622E+03
Ar 1384  0.2678114E+02  0.1935519E+02  0.7930410E+01  0.4284229E+02
Ar 1385  0.2717560E+02  0.1612866E+02  0.1123398E+02  0.2339267E+02
Ar 1386  0.2893358E+02  0.1901842E+02  0.1037634E+02  0.1184757E+03
Ar 1387  0.3081831E+02  0.1637341E+02  0.1376198E+02  0.6468579E+03
Ar 1388  0.2714942E+02  0.1873721E+02  0.1388926E+02  0.1158348E+02
Ar 1389  0.2734073E+02  0.1556376E+02  0.1556376E+02  0.9660132E+02
Ar 1390  0.3036465E+02  0.1853716E+02  0.1592852E+02  0.5858299E+03
Ar 1391  0.3036465E+02  0.1592852E+02  0.1853716E+02  0.5858299E+03
Ar 1392  0.2792247E+02  0.1834878E+02  0.1834878E+02  0.3438268E+03
Ar 1393  0.2748048E+02  0.1562395E+02  0.2146949E+02  0.3591956E+03
Ar 1394  0.2986112E+02  0.1830662E+02  0.2098194E+02  0.3792936E+03
Ar 1395  0.2960807E+02  0.1557854E+02  0.2435273E+02  0.5050591E+03
Ar 1396  0.2668347E+02  0.1855082E+02  0.2350399E+02  0.4292633E+03
Ar 1397  0.2689469E+02  0.1516225E+02  0.2689469E+02  0.7886112E+03
Ar 1398  0.2962736E+02  0.1829445E+02  0.2698071E+02  0.1318887E+03
Ar 1399  0.3015120E+02  0.1659759E+02  0.3015120E+02  0.6893715E+02
Ar 1400  0.2698071E+02  0.1829445E+02  0.2962736E+02  0.1318887E+03
Ar 1401  0.2686967E+02  0.1607670E+02  0.3236149E+02  0.8512347E+03
Ar 1402  0.3000378E+02  0.1941065E+02  0.3291589E+02  0.1040915E+04
Ar 1403  0.2967703E+02  0.1639222E+02  0.3448103E+02  0.9721272E+02
Ar 1404  0.2710139E+02  0.1865932E+02  0.3480158E+02  0.1793581E+03
Ar 1405  0.2744926E+02  0.1609727E+02  0.3706803E+02  0.2806657E+02
Ar 1406  0.2978725E+02  0.1905047E+02  0.3770489E+02  0.1523919E+04
Ar 1407  0.2966472E+02  0.1640212E+02  0.4024098E+02  0.2020132E+03
Ar 1408  0.2746211E+02  0.1912275E+02  0.4007994E+02  0.1342069E+03
Ar 1409  0.2732623E+02  0.2133553E+02  0.6067068E+00  0.6317555E+03
Ar 1410  0.2942923E+02  0.2454000E+02  0.1431387E+00  0.5796084E+03
Ar 1411  0.2966025E+02  0.2187932E+02  0.2965058E+01  0.1881863E+03
Ar 1412  0.2712127E+02  0.2435591E+02  0.2491074E+01  0.4279137E+03
Ar 1413  0.2717544E+02  0.2078859E+02  0.5077950E+01  0.1912738E+03
Ar 1414  0.2875320E+02  0.2440666E+02  0.5872015E+01  0.3907044E+03
Ar 1415  0.2949569E+02  0.2187385E+02  0.7881868E+01  0.2247099E+01
Ar 1416  0.2621243E+02  0.2386132E+02  0.8230750E+01  0.4690414E+03
Ar 1417  0.2627524E+02  0.2123025E+02  0.1121347E+02  0.3113453E+03
Ar 1418  0.2911016E+02  0.2419473E+02  0.1047330E+02  0.1135072E+03
Ar 1419  0.2939062E+02  0.2138987E+02  0.1285904E+02  0.7451969E+03
Ar 1420  0.2697587E+02  0.2406364E+02  0.1365516E+02  0.5757487E+03
Ar 1421  0.2748048E+02  0.2146949E+02  0.1562395E+02  0.3591956E+03
Ar 1422  0.2960807E+02  0.2435273E+02  0.1557854E+02  0.5050591E+03
Ar 1423  0.2986112E+02  0.2098194E+02  0.1830662E+02  0.3792936E+03
Ar 1424  0.2668347E+02  0.2350399E+02  0.1855082E+02  0.4292633E+03
Ar 1425  0.2651640E+02  0.2074153E+02  0.2074153E+02  0.4546506E+03
Ar 1426  0.2920743E+02  0.2368708E+02  0.2129204E+02  0.3089878E+03
Ar 1427  0.2920743E+02  0.2129204E+02  0.2368708E+02  0.3089878E+03
Ar 1428  0.2682111E+02  0.2394469E+02  0.2394469E+02  0.1225985E+04
Ar 1429  0.2713411E+02  0.2040670E+02  0.2713411E+02  0.8114115E+03
Ar 1430  0.2937390E+02  0.2366968E+02  0.2637278E+02  0.2777123E+03
Ar 1431  0.2968847E+02  0.2128915E+02  0.2968847E+02  0.7764411E+03
Ar 1432  0.2637278E+02  0.2366968E+02  0.2937390E+02  0.2777123E+03
Ar 1433  0.2719636E+02  0.2127145E+02  0.3233066E+02  0.2074616E+03
Ar 1434  0.2898407E+02  0.2449013E+02  0.3215196E+02  0.9740037E+02
Ar 1435  0.2935111E+02  0.2174592E+02  0.3533279E+02  0.3460852E+03
Ar 1436  0.2682077E+02  0.2433584E+02  0.3473156E+02  0.5691832E+03
Ar 1437  0.2693104E+02  0.2170322E+02  0.3774668E+02  0.1258346E+03
Ar 1438  0.2967715E+02  0.2484603E+02  0.3738722E+02  0.1252375E+03
Ar 1439  0.2916636E+02  0.2198215E+02  0.4053825E+02  0.1121477E+03
Ar 1440  0.2700191E+02  0.2440433E+02  0.4046880E+02  0.9759959E+02
Ar 1441  0.2725806E+02  0.2725806E+02  0.4267571E+02  0.2436238E+03
Ar 1442  0.3006653E+02  0.3006653E+02  0.4307901E+02  0.1966641E+03
Ar 1443  0.2998581E+02  0.2693439E+02  0.2243023E+01  0.1295400E+03
Ar 1444  0.2693439E+02  0.2998581E+02  0.2243023E+01  0.1295400E+03
Ar 1445  0.2730506E+02  0.2730506E+02  0.4634183E+01  0.2558663E+03
Ar 1446  0.3014345E+02  0.3014345E+02  0.5853872E+01  0.3110766E+03
Ar 1447  0.2999377E+02  0.2724270E+02  0.7945104E+01  0.1680698E+03
Ar 1448  0.2724270E+02  0.2999377E+02  0.7945104E+01  0.1680698E+03
Ar 1449  0.2723086E+02  0.2723086E+02  0.1086201E+02  0.2223222E+02
Ar 1450  0.3003971E+02  0.3003971E+02  0.1047464E+02  0.4372342E+03
Ar 1451  0.2991741E+02  0.2712033E+02  0.1322082E+02  0.2416055E+03
Ar 1452  0.2712033E+02  0.2991741E+02  0.1322082E+02  0.2416055E+03
Ar 1453  0.2689469E+02  0.2689469E+02  0.1516225E+02  0.7886112E+03
Ar 1454  0.3015120E+02  0.3015120E+02  0.1659759E+02  0.6893715E+02
Ar 1455  0.2962736E+02  0.2698071E+02  0.1829445E+02  0.1318887E+03
Ar 1456  0.2698071E+02  0.2962736E+02  0.1829445E+02  0.1318887E+03
Ar 1457  0.2713411E+02  0.2713411E+02  0.2040670E+02  0.8114115E+03
Ar 1458  0.2968847E+02  0.2968847E+02  0.2128915E+02  0.7764411E+03
Ar 1459  0.2937390E+02  0.2637278E+02  0.2366968E+02  0.2777123E+03
Ar 1460  0.2637278E+02  0.2937390E+02  0.2366968E+02  0.2777123E+03
Ar 1461  0.2643685E+02  0.2643685E+02  0.2643685E+02  0.1468031E+03
Ar 1462  0.2912226E+02  0.2912226E+02  0.2641065E+02  0.1290197E+04
Ar 1463  0.2912226E+02  0.2641065E+02  0.2912226E+02  0.1290197E+04
Ar 1464  0.2641065E+02  0.2912226E+02  0.2912226E+02  0.1290197E+04
Ar 1465  0.2719109E+02  0.2719109E+02  0.3155934E+02  0.1442744E+03
Ar 1466  0.2994165E+02  0.2994165E+02  0.3212477E+02  0.9933096E+02
Ar 1467  0.2997025E+02  0.2684324E+02  0.3460289E+02  0.8588992E+03
Ar 1468  0.2684324E+02  0.2997025E+02  0.3460289E+02  0.8588992E+03
Ar 1469  0.2685371E+02  0.2685371E+02  0.3721937E+02  0.9534125E+02
Ar 1470  0.2923086E+02  0.2923086E+02  0.3748862E+02  0.5567243E+03
Ar 1471  0.3014426E+02  0.2679743E+02  0.4070799E+02  0.1196673E+03
Ar 1472  0.2679743E+02  0.3014426E+02  0.4070799E+02  0.1196673E+03
Ar 1473  0.2744122E+02  0.3224064E+02  0.2265196E+00  0.1767475E+03
Ar 1474  0.2893237E+02  0.3521825E+02  0.2464325E+00  0.6484146E+03
Ar 1475  0.2959651E+02  0.3281420E+02  0.3087699E+01  0.1207394E+03
Ar 1476  0.2684568E+02  0.3456925E+02  0.2845377E+01  0.4404793E+03
Ar 1477  0.2663135E+02  0.3217235E+02  0.5392210E+01  0.4750914E+03
Ar 1478  0.2941587E+02  0.3539697E+02  0.5990516E+01  0.5332935E+03
Ar 1479  0.2980103E+02  0.3275330E+02  0.8206251E+01  0.1082479E+04
Ar 1480  0.2642221E+02  0.3509966E+02  0.7911151E+01  0.4949274E+03
Ar 1481  0.2666514E+02  0.3235412E+02  0.1089716E+02  0.2325117E+03
Ar 1482  0.2911265E+02  0.3512325E+02  0.1076284E+02  0.2806700E+03
Ar 1483  0.2980363E+02  0.3247730E+02  0.1273570E+02  0.4959799E+03
Ar 1484  0.2633950E+02  0.3498399E+02  0.1354526E+02  0.2077613E+03
Ar 1485  0.2686967E+02  0.3236149E+02  0.1607670E+02  0.8512347E+03
Ar 1486  0.2967703E+02  0.3448103E+02  0.1639222E+02  0.9721272E+02
Ar 1487  0.3000378E+02  0.3291589E+02  0.1941065E+02  0.1040915E+04
Ar 1488  0.2710139E+02  0.3480158E+02  0.1865932E+02  0.1793581E+03
Ar 1489  0.2719636E+02  0.3233066E+02  0.2127145E+02  0.2074616E+03
Ar 1490  0.2935111E+02  0.3533279E+02  0.2174592E+02  0.3460852E+03
Ar 1491  0.2898407E+02  0.3215196E+02  0.2449013E+02  0.9740037E+02
Ar 1492  0.2682077E+02  0.3473156E+02  0.2433584E+02  0.5691832E+03
Ar 1493  0.2719109E+02  0.3155934E+02  0.2719109E+02  0.1442744E+03
Ar 1494  0.2997025E+02  0.3460289E+02  0.2684324E+02  0.8588992E+03
Ar 1495  0.2994165E+02  0.3212477E+02  0.2994165E+02  0.9933096E+02
Ar 1496  0.2684324E+02  0.3460289E+02  0.2997025E+02  0.8588992E+03
Ar 1497  0.2635579E+02  0.3199016E+02  0.3199016E+02  0.1616458E+02
Ar 1498  0.2940479E+02  0.3463718E+02  0.3210698E+02  0.4193432E+03
Ar 1499  0.2940479E+02  0.3210698E+02  0.3463718E+02  0.4193432E+03
Ar 1500  0.2656410E+02  0.3457936E+02  0.3457936E+02  0.2643430E+04
Ar 1501  0.2709481E+02  0.3213100E+02  0.3813040E+02  0.1922361E+03
Ar 1502  0.2928954E+02  0.3479964E+02  0.3718303E+02  0.3289842E+03
Ar 1503  0.2999177E+02  0.3246615E+02  0.3984896E+02  0.2146237E+03
Ar 1504  0.2688799E+02  0.3485172E+02  0.4015150E+02  0.6736203E+03
Ar 1505  0.2746726E+02  0.3838087E+02  0.3201385E+00  0.3685626E+03
Ar 1506  0.2912261E+02  0.4116558E+02  0.6533403E+00  0.2783084E+03
Ar 1507  0.2912484E+02  0.3772559E+02  0.3267357E+01  0.7486599E+02
Ar 1508  0.2660100E+02  0.4073663E+02  0.3158692E+01  0.2042827E+03
Ar 1509  0.2648631E+02  0.3788581E+02  0.5399501E+01  0.7680899E+03
Ar 1510  0.2939429E+02  0.4049610E+02  0.5356430E+01  0.2726418E+03
Ar 1511  0.2951344E+02  0.3803951E+02  0.8139093E+01  0.3188885E+02
Ar 1512  0.2608031E+02  0.4024299E+02  0.8569540E+01  0.1442528E+03
Ar 1513  0.2620335E+02  0.3749258E+02  0.1093043E+02  0.3720292E+03
Ar 1514  0.2900237E+02  0.4017522E+02  0.1063966E+02  0.1360903E+03
Ar 1515  0.2932905E+02  0.3662064E+02  0.1350905E+02  0.4692013E+03
Ar 1516  0.2762105E+02  0.4006373E+02  0.1363267E+02  0.1122780E+04
Ar 1517  0.2744926E+02  0.3706803E+02  0.1609727E+02  0.2806657E+02
Ar 1518  0.2966472E+02  0.4024098E+02  0.1640212E+02  0.2020132E+03
Ar 1519  0.2978725E+02  0.3770489E+02  0.1905047E+02  0.1523919E+04
Ar 1520  0.2746211E+02  0.4007994E+02  0.1912275E+02  0.1342069E+03
Ar 1521  0.2693104E+02  0.3774668E+02  0.2170322E+02  0.1258346E+03
Ar 1522  0.2916636E+02  0.4053825E+02  0.2198215E+02  0.1121477E+03
Ar 1523  0.2967715E+02  0.3738722E+02  0.2484603E+02  0.1252375E+03
Ar 1524  0.2700191E+02  0.4046880E+02  0.2440433E+02  0.9759959E+02
Ar 1525  0.2685371E+02  0.3721937E+02  0.2685371E+02  0.9534125E+02
Ar 1526  0.3014426E+02  0.4070799E+02  0.2679743E+02  0.1196673E+03
Ar 1527  0.2923086E+02  0.3748862E+02  0.2923086E+02  0.5567243E+03
Ar 1528  0.2679743E+02  0.4070799E+02  0.3014426E+02  0.1196673E+03
Ar 1529  0.2709481E+02  0.3813040E+02  0.3213100E+02  0.1922361E+03
Ar 1530  0.2999177E+02  0.3984896E+02  0.3246615E+02  0.2146237E+03
Ar 1531  0.2928954E+02  0.3718303E+02  0.3479964E+02  0.3289842E+03
Ar 1532  0.2688799E+02  0.4015150E+02  0.3485172E+02  0.6736203E+03
Ar 1533  0.2611416E+02  0.3732518E+02  0.3732518E+02  0.1455736E+03
Ar 1534  0.2964785E+02  0.4014797E+02  0.3769151E+02  0.2324516E+03
Ar 1535  0.2964785E+02  0.3769151E+02  0.4014797E+02  0.2324516E+03
Ar 1536  0.2683859E+02  0.4024978E+02  0.4024978E+02  0.8491209E+03
Ar 1537  0.3214769E+02  0.4305925E+02  0.4305925E+02  0.3339659E+03
Ar 1538  0.3478556E+02  0.3538705E+01  0.4250454E+02  0.1182805E+03
Ar 1539  0.3478556E+02  0.4250454E+02  0.3538705E+01  0.1182805E+03
Ar 1540  0.3200559E+02  0.2317194E+01  0.2317194E+01  0.2115909E+03
Ar 1541  0.3198486E+02  0.4256285E+02  0.6009037E+01  0.4684612E+03
Ar 1542  0.3421127E+02  0.2500886E+01  0.5089368E+01  0.2381253E+03
Ar 1543  0.3506869E+02  0.4291066E+02  0.8354172E+01  0.3569747E+03
Ar 1544  0.3236068E+02  0.2390520E+01  0.8378279E+01  0.2087519E+03
Ar 1545  0.3235394E+02  0.4262480E+02  0.1090454E+02  0.2083793E+03
Ar 1546  0.3469241E+02  0.2409707E+01  0.1082171E+02  0.1470191E+03
Ar 1547  0.3438340E+02  0.4313272E+02  0.1354167E+02  0.4075333E+03
Ar 1548  0.3250422E+02  0.2919246E+01  0.1374234E+02  0.4579252E+03
Ar 1549  0.3218585E+02  0.4262279E+02  0.1630061E+02  0.6828119E+03
Ar 1550  0.3442902E+02  0.2763446E+01  0.1642435E+02  0.4938514E+02
Ar 1551  0.3487682E+02  0.4269672E+02  0.1925472E+02  0.1517037E+03
Ar 1552  0.3212725E+02  0.2452297E+01  0.1924525E+02  0.2660712E+03
Ar 1553  0.3251778E+02  0.4279569E+02  0.2165415E+02  0.1138017E+03
Ar 1554  0.3496027E+02  0.2295918E+01  0.2190541E+02  0.7106002E+03
Ar 1555  0.3396053E+02  0.4300991E+02  0.2457329E+02  0.4899721E+03
Ar 1556  0.3208415E+02  0.3368322E+01  0.2402443E+02  0.1211306E+03
Ar 1557  0.3224064E+02  0.2265196E+00  0.2744122E+02  0.1767475E+03
Ar 1558  0.3456925E+02  0.2845377E+01  0.2684568E+02  0.4404793E+03
Ar 1559  0.3521825E+02  0.2464325E+00  0.2893237E+02  0.6484146E+03
Ar 1560  0.3281420E+02  0.3087699E+01  0.2959651E+02  0.1207394E+03
Ar 1561  0.3231722E+02  0.4299055E+00  0.3231722E+02  0.1324399E+04
Ar 1562  0.3492152E+02  0.2488530E+01  0.3204836E+02  0.1556477E+03
Ar 1563  0.3464041E+02  0.4280185E+02  0.3464041E+02  0.1435739E+03
Ar 1564  0.3204836E+02  0.2488530E+01  0.3492152E+02  0.1556477E+03
Ar 1565  0.3182663E+02  0.5586147E-01  0.3759155E+02  0.2317181E+03
Ar 1566  0.3452658E+02  0.2612378E+01  0.3752533E+02  0.4047816E+03
Ar 1567  0.3475365E+02  0.1934593E+00  0.4071796E+02  0.9015481E+02
Ar 1568  0.3202844E+02  0.3251412E+01  0.3967450E+02  0.3629767E+03
Ar 1569  0.3198486E+02  0.6009037E+01  0.4256285E+02  0.4684612E+03
Ar 1570  0.3506869E+02  0.8354172E+01  0.4291066E+02  0.3569747E+03
Ar 1571  0.3421127E+02  0.5089368E+01  0.2500886E+01  0.2381253E+03
Ar 1572  0.3236068E+02  0.8378279E+01  0.2390520E+01  0.2087519E+03
Ar 1573  0.3286768E+02  0.5512264E+01  0.5512264E+01  0.1412938E+01
Ar 1574  0.3482514E+02  0.7981026E+01  0.4745127E+01  0.3362504E+03
Ar 1575  0.3482514E+02  0.4745127E+01  0.7981026E+01  0.3362504E+03
Ar 1576  0.3317706E+02  0.8178375E+01  0.8178375E+01  0.1598097E+03
Ar 1577  0.3243879E+02  0.5366331E+01  0.1065410E+02  0.4151494E+03
Ar 1578  0.3542933E+02  0.7655001E+01  0.1047570E+02  0.1247698E+03
Ar 1579  0.3536893E+02  0.5159080E+01  0.1376607E+02  0.3781651E+03
Ar 1580  0.3281677E+02  0.8167876E+01  0.1358430E+02  0.4037063E+03
Ar 1581  0.3270615E+02  0.5589768E+01  0.1619648E+02  0.1851407E+02
Ar 1582  0.3553098E+02  0.8079723E+01  0.1593984E+02  0.6481150E+03
Ar 1583  0.3478531E+02  0.4766387E+01  0.1955775E+02  0.7366085E+03
Ar 1584  0.3189677E+02  0.8320462E+01  0.1915071E+02  0.3294010E+03
Ar 1585  0.3258274E+02  0.5879339E+01  0.2192108E+02  0.1259086E+03
Ar 1586  0.3567957E+02  0.7886679E+01  0.2151637E+02  0.3647450E+03
Ar 1587  0.3549845E+02  0.5471398E+01  0.2395780E+02  0.2235825E+03
Ar 1588  0.3243923E+02  0.7929559E+01  0.2462283E+02  0.8276898E+03
Ar 1589  0.3217235E+02  0.5392210E+01  0.2663135E+02  0.4750914E+03
Ar 1590  0.3509966E+02  0.7911151E+01  0.2642221E+02  0.4949274E+03
Ar 1591  0.3539697E+02  0.5990516E+01  0.2941587E+02  0.5332935E+03
Ar 1592  0.3275330E+02  0.8206251E+01  0.2980103E+02  0.1082479E+04
Ar 1593  0.3290339E+02  0.6838078E+01  0.3290339E+02  0.1325927E+04
Ar 1594  0.3546592E+02  0.8894922E+01  0.3177995E+02  0.1001498E+04
Ar 1595  0.3481761E+02  0.4735592E+01  0.3481761E+02  0.9029202E+02
Ar 1596  0.3177995E+02  0.8894922E+01  0.3546592E+02  0.1001498E+04
Ar 1597  0.3251538E+02  0.5740633E+01  0.3717170E+02  0.8815684E+02
Ar 1598  0.3475225E+02  0.9474967E+01  0.3738168E+02  0.4605925E+03
Ar 1599  0.3473904E+02  0.5890038E+01  0.3988158E+02  0.3280326E+02
Ar 1600  0.3229746E+02  0.8680370E+01  0.3999178E+02  0.2080485E+03
Ar 1601  0.3235394E+02  0.1090454E+02  0.4262480E+02  0.2083793E+03
Ar 1602  0.3438340E+02  0.1354167E+02  0.4313272E+02  0.4075333E+03
Ar 1603  0.3469241E+02  0.1082171E+02  0.2409707E+01  0.1470191E+03
Ar 1604  0.3250422E+02  0.1374234E+02  0.2919246E+01  0.4579252E+03
Ar 1605  0.3243879E+02  0.1065410E+02  0.5366331E+01  0.4151494E+03
Ar 1606  0.3536893E+02  0.1376607E+02  0.5159080E+01  0.3781651E+03
Ar 1607  0.3542933E+02  0.1047570E+02  0.7655001E+01  0.1247698E+03
Ar 1608  0.3281677E+02  0.1358430E+02  0.8167876E+01  0.4037063E+03
Ar 1609  0.3344533E+02  0.1043947E+02  0.1043947E+02  0.3160127E+02
Ar 1610  0.3512510E+02  0.1391148E+02  0.1068954E+02  0.2378662E+03
Ar 1611  0.3512510E+02  0.1068954E+02  0.1391148E+02  0.2378662E+03
Ar 1612  0.3241579E+02  0.1369651E+02  0.1369651E+02  0.9070377E+03
Ar 1613  0.3262012E+02  0.1037627E+02  0.1624524E+02  0.4924815E+03
Ar 1614  0.3462628E+02  0.1375350E+02  0.1635402E+02  0.1290229E+03
Ar 1615  0.3504441E+02  0.1048177E+02  0.1915762E+02  0.2365295E+03
Ar 1616  0.3252827E+02  0.1292001E+02  0.1918032E+02  0.6296676E+03
Ar 1617  0.3144448E+02  0.1046411E+02  0.2187176E+02  0.1873248E+03
Ar 1618  0.3465854E+02  0.1358667E+02  0.2191873E+02  0.4972993E+02
Ar 1619  0.3463542E+02  0.1080081E+02  0.2368408E+02  0.9309068E+03
Ar 1620  0.3206795E+02  0.1322856E+02  0.2405537E+02  0.4871951E+03
Ar 1621  0.3235412E+02  0.1089716E+02  0.2666514E+02  0.2325117E+03
Ar 1622  0.3498399E+02  0.1354526E+02  0.2633950E+02  0.2077613E+03
Ar 1623  0.3512325E+02  0.1076284E+02  0.2911265E+02  0.2806700E+03
Ar 1624  0.3247730E+02  0.1273570E+02  0.2980363E+02  0.4959799E+03
Ar 1625  0.3246970E+02  0.1087206E+02  0.3246970E+02  0.1481707E+04
Ar 1626  0.3505141E+02  0.1344212E+02  0.3237501E+02  0.3547548E+03
Ar 1627  0.3474013E+02  0.1111614E+02  0.3474013E+02  0.4334417E+03
Ar 1628  0.3237501E+02  0.1344212E+02  0.3505141E+02  0.3547548E+03
Ar 1629  0.3208223E+02  0.1147181E+02  0.3788592E+02  0.5026405E+03
Ar 1630  0.3563291E+02  0.1340815E+02  0.3797681E+02  0.5293684E+03
Ar 1631  0.3527384E+02  0.1097413E+02  0.4068360E+02  0.1885469E+03
Ar 1632  0.3239619E+02  0.1391489E+02  0.4019906E+02  0.1344231E+03
Ar 1633  0.3218585E+02  0.1630061E+02  0.4262279E+02  0.6828119E+03
Ar 1634  0.3487682E+02  0.1925472E+02  0.4269672E+02  0.1517037E+03
Ar 1635  0.3442902E+02  0.1642435E+02  0.2763446E+01  0.4938514E+02
Ar 1636  0.3212725E+02  0.1924525E+02  0.2452297E+01  0.2660712E+03
Ar 1637  0.3270615E+02  0.1619648E+02  0.5589768E+01  0.1851407E+02
Ar 1638  0.3478531E+02  0.1955775E+02  0.4766387E+01  0.7366085E+03
Ar 1639  0.3553098E+02  0.1593984E+02  0.8079723E+01  0.6481150E+03
Ar 1640  0.3189677E+02  0.1915071E+02  0.8320462E+01  0.3294010E+03
Ar 1641  0.3262012E+02  0.1624524E+02  0.1037627E+02  0.4924815E+03
Ar 1642  0.3504441E+02  0.1915762E+02  0.1048177E+02  0.2365295E+03
Ar 1643  0.3462628E+02  0.1635402E+02  0.1375350E+02  0.1290229E+03
Ar 1644  0.3252827E+02  0.1918032E+02  0.1292001E+02  0.6296676E+03
Ar 1645  0.3276939E+02  0.1652372E+02  0.1652372E+02  0.9553610E+03
Ar 1646  0.3457736E+02  0.1946984E+02  0.1590064E+02  0.4155462E+02
Ar 1647  0.3457736E+02  0.1590064E+02  0.1946984E+02  0.4155462E+02
Ar 1648  0.3288210E+02  0.1933202E+02  0.1933202E+02  0.2978570E+02
Ar 1649  0.3206174E+02  0.1581101E+02  0.2171323E+02  0.9298951E+03
Ar 1650  0.3511430E+02  0.1886578E+02  0.2213209E+02  0.5027465E+03
Ar 1651  0.3486479E+02  0.1635261E+02  0.2457158E+02  0.1342330E+03
Ar 1652  0.3172309E+02  0.1816203E+02  0.2429104E+02  0.1774403E+03
Ar 1653  0.3236149E+02  0.1607670E+02  0.2686967E+02  0.8512347E+03
Ar 1654  0.3480158E+02  0.1865932E+02  0.2710139E+02  0.1793581E+03
Ar 1655  0.3448103E+02  0.1639222E+02  0.2967703E+02  0.9721272E+02
Ar 1656  0.3291589E+02  0.1941065E+02  0.3000378E+02  0.1040915E+04
Ar 1657  0.3247117E+02  0.1612106E+02  0.3247117E+02  0.1935075E+02
Ar 1658  0.3526426E+02  0.1930581E+02  0.3227681E+02  0.6147900E+03
Ar 1659  0.3490563E+02  0.1692782E+02  0.3490563E+02  0.8737403E+03
Ar 1660  0.3227681E+02  0.1930581E+02  0.3526426E+02  0.6147900E+03
Ar 1661  0.3205557E+02  0.1612153E+02  0.3750339E+02  0.1093559E+04
Ar 1662  0.3532929E+02  0.1931157E+02  0.3776581E+02  0.7131925E+03
Ar 1663  0.3529393E+02  0.1624510E+02  0.4046431E+02  0.2333439E+03
Ar 1664  0.3240474E+02  0.1904776E+02  0.4016599E+02  0.5287905E+03
Ar 1665  0.3251778E+02  0.2165415E+02  0.4279569E+02  0.1138017E+03
Ar 1666  0.3396053E+02  0.2457329E+02  0.4300991E+02  0.4899721E+03
Ar 1667  0.3496027E+02  0.2190541E+02  0.2295918E+01  0.7106002E+03
Ar 1668  0.3208415E+02  0.2402443E+02  0.3368322E+01  0.1211306E+03
Ar 1669  0.3258274E+02  0.2192108E+02  0.5879339E+01  0.1259086E+03
Ar 1670  0.3549845E+02  0.2395780E+02  0.5471398E+01  0.2235825E+03
Ar 1671  0.3567957E+02  0.2151637E+02  0.7886679E+01  0.3647450E+03
Ar 1672  0.3243923E+02  0.2462283E+02  0.7929559E+01  0.8276898E+03
Ar 1673  0.3144448E+02  0.2187176E+02  0.1046411E+02  0.1873248E+03
Ar 1674  0.3463542E+02  0.2368408E+02  0.1080081E+02  0.9309068E+03
Ar 1675  0.3465854E+02  0.2191873E+02  0.1358667E+02  0.4972993E+02
Ar 1676  0.3206795E+02  0.2405537E+02  0.1322856E+02  0.4871951E+03
Ar 1677  0.3206174E+02  0.2171323E+02  0.1581101E+02  0.9298951E+03
Ar 1678  0.3486479E+02  0.2457158E+02  0.1635261E+02  0.1342330E+03
Ar 1679  0.3511430E+02  0.2213209E+02  0.1886578E+02  0.5027465E+03
Ar 1680  0.3172309E+02  0.2429104E+02  0.1816203E+02  0.1774403E+03
Ar 1681  0.3151318E+02  0.2145043E+02  0.2145043E+02  0.2883275E+03
Ar 1682  0.3435272E+02  0.2440089E+02  0.2139738E+02  0.3425137E+02
Ar 1683  0.3435272E+02  0.2139738E+02  0.2440089E+02  0.3425137E+02
Ar 1684  0.3244533E+02  0.2440702E+02  0.2440702E+02  0.3850495E+03
Ar 1685  0.3233066E+02  0.2127145E+02  0.2719636E+02  0.2074616E+03
Ar 1686  0.3473156E+02  0.2433584E+02  0.2682077E+02  0.5691832E+03
Ar 1687  0.3533279E+02  0.2174592E+02  0.2935111E+02  0.3460852E+03
Ar 1688  0.3215196E+02  0.2449013E+02  0.2898407E+02  0.9740037E+02
Ar 1689  0.3239232E+02  0.2183093E+02  0.3239232E+02  0.4233539E+03
Ar 1690  0.3523498E+02  0.2379344E+02  0.3206987E+02  0.2142178E+03
Ar 1691  0.3498254E+02  0.2153501E+02  0.3498254E+02  0.2343824E+02
Ar 1692  0.3206987E+02  0.2379344E+02  0.3523498E+02  0.2142178E+03
Ar 1693  0.3225059E+02  0.2189897E+02  0.3791299E+02  0.3956229E+03
Ar 1694  0.3481245E+02  0.2427290E+02  0.3758698E+02  0.3799267E+03
Ar 1695  0.3510487E+02  0.2227687E+02  0.4042435E+02  0.4599061E+02
Ar 1696  0.3220493E+02  0.2419551E+02  0.4029857E+02  0.8324869E+03
Ar 1697  0.3224064E+02  0.2744122E+02  0.2265196E+00  0.1767475E+03
Ar 1698  0.3521825E+02  0.2893237E+02  0.2464325E+00  0.6484146E+03
Ar 1699  0.3456925E+02  0.2684568E+02  0.2845377E+01  0.4404793E+03
Ar 1700  0.3281420E+02  0.2959651E+02  0.3087699E+01  0.1207394E+03
Ar 1701  0.3217235E+02  0.2663135E+02  0.5392210E+01  0.4750914E+03
Ar 1702  0.3539697E+02  0.2941587E+02  0.5990516E+01  0.5332935E+03
Ar 1703  0.3509966E+02  0.2642221E+02  0.7911151E+01  0.4949274E+03
Ar 1704  0.3275330E+02  0.2980103E+02  0.8206251E+01  0.1082479E+04
Ar 1705  0.3235412E+02  0.2666514E+02  0.1089716E+02  0.2325117E+03
Ar 1706  0.3512325E+02  0.2911265E+02  0.1076284E+02  0.2806700E+03
Ar 1707  0.3498399E+02  0.2633950E+02  0.1354526E+02  0.2077613E+03
Ar 1708  0.3247730E+02  0.2980363E+02  0.1273570E+02  0.4959799E+03
Ar 1709  0.3236149E+02  0.2686967E+02  0.1607670E+02  0.8512347E+03
Ar 1710  0.3448103E+02  0.2967703E+02  0.1639222E+02  0.9721272E+02
Ar 1711  0.3480158E+02  0.2710139E+02  0.1865932E+02  0.1793581E+03
Ar 1712  0.3291589E+02  0.3000378E+02  0.1941065E+02  0.1040915E+04
Ar 1713  0.3233066E+02  0.2719636E+02  0.2127145E+02  0.2074616E+03
Ar 1714  0.3533279E+02  0.2935111E+02  0.2174592E+02  0.3460852E+03
Ar 1715  0.3473156E+02  0.2682077E+02  0.2433584E+02  0.5691832E+03
Ar 1716  0.3215196E+02  0.2898407E+02  0.2449013E+02  0.9740037E+02
Ar 1717  0.3155934E+02  0.2719109E+02  0.2719109E+02  0.1442744E+03
Ar 1718  0.3460289E+02  0.2997025E+02  0.2684324E+02  0.8588992E+03
Ar 1719  0.3460289E+02  0.2684324E+02  0.2997025E+02  0.8588992E+03
Ar 1720  0.3212477E+02  0.2994165E+02  0.2994165E+02  0.9933096E+02
Ar 1721  0.3199016E+02  0.2635579E+02  0.3199016E+02  0.1616458E+02
Ar 1722  0.3463718E+02  0.2940479E+02  0.3210698E+02  0.4193432E+03
Ar 1723  0.3457936E+02  0.2656410E+02  0.3457936E+02  0.2643430E+04
Ar 1724  0.3210698E+02  0.2940479E+02  0.3463718E+02  0.4193432E+03
Ar 1725  0.3213100E+02  0.2709481E+02  0.3813040E+02  0.1922361E+03
Ar 1726  0.3479964E+02  0.2928954E+02  0.3718303E+02  0.3289842E+03
Ar 1727  0.3485172E+02  0.2688799E+02  0.4015150E+02  0.6736203E+03
Ar 1728  0.3246615E+02  0.2999177E+02  0.3984896E+02  0.2146237E+03
Ar 1729  0.3231722E+02  0.3231722E+02  0.4299055E+00  0.1324399E+04
Ar 1730  0.3464041E+02  0.3464041E+02  0.4280185E+02  0.1435739E+03
Ar 1731  0.3492152E+02  0.3204836E+02  0.2488530E+01  0.1556477E+03
Ar 1732  0.3204836E+02  0.3492152E+02  0.2488530E+01  0.1556477E+03
Ar 1733  0.3290339E+02  0.3290339E+02  0.6838078E+01  0.1325927E+04
Ar 1734  0.3481761E+02  0.3481761E+02  0.4735592E+01  0.9029202E+02
Ar 1735  0.3546592E+02  0.3177995E+02  0.8894922E+01  0.1001498E+04
Ar 1736  0.3177995E+02  0.3546592E+02  0.8894922E+01  0.1001498E+04
Ar 1737  0.3246970E+02  0.3246970E+02  0.1087206E+02  0.1481707E+04
Ar 1738  0.3474013E+02  0.3474013E+02  0.1111614E+02  0.4334417E+03
Ar 1739  0.3505141E+02  0.3237501E+02  0.1344212E+02  0.3547548E+03
Ar 1740  0.3237501E+02  0.3505141E+02  0.1344212E+02  0.3547548E+03
Ar 1741  0.3247117E+02  0.3247117E+02  0.1612106E+02  0.1935075E+02
Ar 1742  0.3490563E+02  0.3490563E+02  0.1692782E+02  0.8737403E+03
Ar 1743  0.3526426E+02  0.3227681E+02  0.1930581E+02  0.6147900E+03
Ar 1744  0.3227681E+02  0.3526426E+02  0.1930581E+02  0.6147900E+03
Ar 1745  0.3239232E+02  0.3239232E+02  0.2183093E+02  0.4233539E+03
Ar 1746  0.3498254E+02  0.3498254E+02  0.2153501E+02  0.2343824E+02
Ar 1747  0.3523498E+02  0.3206987E+02  0.2379344E+02  0.2142178E+03
Ar 1748  0.3206987E+02  0.3523498E+02  0.2379344E+02  0.2142178E+03
Ar 1749  0.3199016E+02  0.3199016E+02  0.2635579E+02  0.1616458E+02
Ar 1750  0.3457936E+02  0.3457936E+02  0.2656410E+02  0.2643430E+04
Ar 1751  0.3463718E+02  0.3210698E+02  0.2940479E+02  0.4193432E+03
Ar 1752  0.3210698E+02  0.3463718E+02  0.2940479E+02  0.4193432E+03
Ar 1753  0.3219724E+02  0.3219724E+02  0.3219724E+02  0.5190685E+03
Ar 1754  0.3469418E+02  0.3469418E+02  0.3170825E+02  0.1536514E+03
Ar 1755  0.3469418E+02  0.3170825E+02  0.3469418E+02  0.1536514E+03
Ar 1756  0.3170825E+02  0.3469418E+02  0.3469418E+02  0.1536514E+03
Ar 1757  0.3212675E+02  0.3212675E+02  0.3709770E+02  0.3046040E+03
Ar 1758  0.3477016E+02  0.3477016E+02  0.3722578E+02  0.5640254E+03
Ar 1759  0.3482580E+02  0.3187789E+02  0.4060503E+02  0.3713623E+03
Ar 1760  0.3187789E+02  0.3482580E+02  0.4060503E+02  0.3713623E+03
Ar 1761  0.3182663E+02  0.3759155E+02  0.5586147E-01  0.2317181E+03
Ar 1762  0.3475365E+02  0.4071796E+02  0.1934593E+00  0.9015481E+02
Ar 1763  0.3452658E+02  0.3752533E+02  0.2612378E+01  0.4047816E+03
Ar 1764  0.3202844E+02  0.3967450E+02  0.3251412E+01  0.3629767E+03
Ar 1765  0.3251538E+02  0.3717170E+02  0.5740633E+01  0.8815684E+02
Ar 1766  0.3473904E+02  0.3988158E+02  0.5890038E+01  0.3280326E+02
Ar 1767  0.3475225E+02  0.3738168E+02  0.9474967E+01  0.4605925E+03
Ar 1768  0.3229746E+02  0.3999178E+02  0.8680370E+01  0.2080485E+03
Ar 1769  0.3208223E+02  0.3788592E+02  0.1147181E+02  0.5026405E+03
Ar 1770  0.3527384E+02  0.4068360E+02  0.1097413E+02  0.1885469E+03
Ar 1771  0.3563291E+02  0.3797681E+02  0.1340815E+02  0.5293684E+03
Ar 1772  0.3239619E+02  0.4019906E+02  0.1391489E+02  0.1344231E+03
Ar 1773  0.3205557E+02  0.3750339E+02  0.1612153E+02  0.1093559E+04
Ar 1774  0.3529393E+02  0.4046431E+02  0.1624510E+02  0.2333439E+03
Ar 1775  0.3532929E+02  0.3776581E+02  0.1931157E+02  0.7131925E+03
Ar 1776  0.3240474E+02  0.4016599E+02  0.1904776E+02  0.5287905E+03
Ar 1777  0.3225059E+02  0.3791299E+02  0.2189897E+02  0.3956229E+03
Ar 1778  0.3510487E+02  0.4042435E+02  0.2227687E+02  0.4599061E+02
Ar 1779  0.3481245E+02  0.3758698E+02  0.2427290E+02  0.3799267E+03
Ar 1780  0.3220493E+02  0.4029857E+02  0.2419551E+02  0.8324869E+03
Ar 1781  0.3213100E+02  0.3813040E+02  0.2709481E+02  0.1922361E+03
Ar 1782  0.3485172E+02  0.4015150E+02  0.2688799E+02  0.6736203E+03
Ar 1783  0.3479964E+02  0.3718303E+02  0.2928954E+02  0.3289842E+03
Ar 1784  0.3246615E+02  0.3984896E+02  0.2999177E+02  0.2146237E+03
Ar 1785  0.3212675E+02  0.3709770E+02  0.3212675E+02  0.3046040E+03
Ar 1786  0.3482580E+02  0.4060503E+02  0.3187789E+02  0.3713623E+03
Ar 1787  0.3477016E+02  0.3722578E+02  0.3477016E+02  0.5640254E+03
Ar 1788  0.3187789E+02  0.4060503E+02  0.3482580E+02  0.3713623E+03
Ar 1789  0.3258865E+02  0.3745991E+02  0.3745991E+02  0.1322938E+03
Ar 1790  0.3470011E+02  0.4034137E+02  0.3727164E+02  0.6770027E+03
Ar 1791  0.3470011E+02  0.3727164E+02  0.4034137E+02  0.6770027E+03
Ar 1792  0.3209370E+02  0.4025010E+02  0.4025010E+02  0.5754659E+03
Ar 1793  0.3705411E+02  0.5084464E+00  0.5084464E+00  0.1118817E+04
Ar 1794  0.4042099E+02  0.3350852E+01  0.8473236E-01  0.6391045E+03
Ar 1795  0.4042099E+02  0.8473236E-01  0.3350852E+01  0.6391045E+03
Ar 1796  0.3821459E+02  0.2778202E+01  0.2778202E+01  0.5947527E+02
Ar 1797  0.3749203E+02  0.4269419E+02  0.5355840E+01  0.1105771E+03
Ar 1798  0.4081438E+02  0.2614144E+01  0.5749026E+01  0.3730204E+03
Ar 1799  0.4003695E+02  0.3576436E+00  0.8105794E+01  0.3437281E+03
Ar 1800  0.3743650E+02  0.2601582E+01  0.7918094E+01  0.1388102E+03
Ar 1801  0.3762035E+02  0.4712560E+00  0.1046687E+02  0.6528981E+02
Ar 1802  0.4079294E+02  0.2731416E+01  0.1081778E+02  0.1022716E+03
Ar 1803  0.4060803E+02  0.3115590E+00  0.1323099E+02  0.1443641E+03
Ar 1804  0.3740215E+02  0.2232469E+01  0.1329781E+02  0.1222864E+03
Ar 1805  0.3772476E+02  0.4300109E+02  0.1658309E+02  0.5007810E+03
Ar 1806  0.4023829E+02  0.2273214E+01  0.1592736E+02  0.3038186E+03
Ar 1807  0.4043200E+02  0.4270751E+02  0.1952597E+02  0.2335827E+03
Ar 1808  0.3760998E+02  0.2245083E+01  0.1892669E+02  0.5993076E+03
Ar 1809  0.3755171E+02  0.2055290E+00  0.2169483E+02  0.3222540E+03
Ar 1810  0.4010131E+02  0.2299152E+01  0.2135268E+02  0.1028791E+03
Ar 1811  0.4007794E+02  0.5007239E+00  0.2420417E+02  0.7230312E+03
Ar 1812  0.3786774E+02  0.2968258E+01  0.2439900E+02  0.8222153E+03
Ar 1813  0.3838087E+02  0.3201385E+00  0.2746726E+02  0.3685626E+03
Ar 1814  0.4073663E+02  0.3158692E+01  0.2660100E+02  0.2042827E+03
Ar 1815  0.4116558E+02  0.6533403E+00  0.2912261E+02  0.2783084E+03
Ar 1816  0.3772559E+02  0.3267357E+01  0.2912484E+02  0.7486599E+02
Ar 1817  0.3759155E+02  0.5586147E-01  0.3182663E+02  0.2317181E+03
Ar 1818  0.3967450E+02  0.3251412E+01  0.3202844E+02  0.3629767E+03
Ar 1819  0.4071796E+02  0.1934593E+00  0.3475365E+02  0.9015481E+02
Ar 1820  0.3752533E+02  0.2612378E+01  0.3452658E+02  0.4047816E+03
Ar 1821  0.3697829E+02  0.1827362E+00  0.3697829E+02  0.5773501E+03
Ar 1822  0.4075186E+02  0.2477989E+01  0.3768182E+02  0.2997336E+03
Ar 1823  0.4038265E+02  0.4304229E+02  0.4038265E+02  0.3740682E+03
Ar 1824  0.3768182E+02  0.2477989E+01  0.4075186E+02  0.2997336E+03
Ar 1825  0.3749203E+02  0.5355840E+01  0.4269419E+02  0.1105771E+03
Ar 1826  0.4003695E+02  0.8105794E+01  0.3576436E+00  0.3437281E+03
Ar 1827  0.4081438E+02  0.5749026E+01  0.2614144E+01  0.3730204E+03
Ar 1828  0.3743650E+02  0.7918094E+01  0.2601582E+01  0.1388102E+03
Ar 1829  0.3766357E+02  0.5604786E+01  0.5604786E+01  0.3729232E+03
Ar 1830  0.4095623E+02  0.7997793E+01  0.5373572E+01  0.2646604E+03
Ar 1831  0.4095623E+02  0.5373572E+01  0.7997793E+01  0.2646604E+03
Ar 1832  0.3877925E+02  0.7858124E+01  0.7858124E+01  0.7906582E+03
Ar 1833  0.3748140E+02  0.5077239E+01  0.1117322E+02  0.1635099E+03
Ar 1834  0.4051716E+02  0.7764342E+01  0.1112208E+02  0.1835850E+03
Ar 1835  0.3986462E+02  0.5145592E+01  0.1369471E+02  0.4615967E+03
Ar 1836  0.3792199E+02  0.8299174E+01  0.1374065E+02  0.5092490E+03
Ar 1837  0.3764492E+02  0.5243639E+01  0.1627166E+02  0.8922779E+02
Ar 1838  0.4037986E+02  0.8323534E+01  0.1647612E+02  0.5110733E+03
Ar 1839  0.4016586E+02  0.5148631E+01  0.1822463E+02  0.1719371E+03
Ar 1840  0.3737599E+02  0.7395634E+01  0.1889086E+02  0.5189353E+03
Ar 1841  0.3774047E+02  0.5019868E+01  0.2165644E+02  0.1095609E+03
Ar 1842  0.3996332E+02  0.7932620E+01  0.2121363E+02  0.4665830E+03
Ar 1843  0.4035348E+02  0.5379712E+01  0.2406066E+02  0.5974182E+03
Ar 1844  0.3787292E+02  0.7914899E+01  0.2399053E+02  0.5160976E+03
Ar 1845  0.3788581E+02  0.5399501E+01  0.2648631E+02  0.7680899E+03
Ar 1846  0.4024299E+02  0.8569540E+01  0.2608031E+02  0.1442528E+03
Ar 1847  0.4049610E+02  0.5356430E+01  0.2939429E+02  0.2726418E+03
Ar 1848  0.3803951E+02  0.8139093E+01  0.2951344E+02  0.3188885E+02
Ar 1849  0.3717170E+02  0.5740633E+01  0.3251538E+02  0.8815684E+02
Ar 1850  0.3999178E+02  0.8680370E+01  0.3229746E+02  0.2080485E+03
Ar 1851  0.3988158E+02  0.5890038E+01  0.3473904E+02  0.3280326E+02
Ar 1852  0.3738168E+02  0.9474967E+01  0.3475225E+02  0.4605925E+03
Ar 1853  0.3775113E+02  0.5593527E+01  0.3775113E+02  0.1726177E+04
Ar 1854  0.4031392E+02  0.8362117E+01  0.3723953E+02  0.1017359E+03
Ar 1855  0.4012671E+02  0.5418076E+01  0.4012671E+02  0.5871652E+03
Ar 1856  0.3723953E+02  0.8362117E+01  0.4031392E+02  0.1017359E+03
Ar 1857  0.3762035E+02  0.1046687E+02  0.4712560E+00  0.6528981E+02
Ar 1858  0.4060803E+02  0.1323099E+02  0.3115590E+00  0.1443641E+03
Ar 1859  0.4079294E+02  0.1081778E+02  0.2731416E+01  0.1022716E+03
Ar 1860  0.3740215E+02  0.1329781E+02  0.2232469E+01  0.1222864E+03
Ar 1861  0.3748140E+02  0.1117322E+02  0.5077239E+01  0.1635099E+03
Ar 1862  0.3986462E+02  0.1369471E+02  0.5145592E+01  0.4615967E+03
Ar 1863  0.4051716E+02  0.1112208E+02  0.7764342E+01  0.1835850E+03
Ar 1864  0.3792199E+02  0.1374065E+02  0.8299174E+01  0.5092490E+03
Ar 1865  0.3808191E+02  0.1023149E+02  0.1023149E+02  0.7362278E+03
Ar 1866  0.4055440E+02  0.1365310E+02  0.1106950E+02  0.2948846E+02
Ar 1867  0.4055440E+02  0.1106950E+02  0.1365310E+02  0.2948846E+02
Ar 1868  0.3726606E+02  0.1390397E+02  0.1390397E+02  0.1299715E+04
Ar 1869  0.3777341E+02  0.1096061E+02  0.1636017E+02  0.5239908E+03
Ar 1870  0.4060445E+02  0.1337705E+02  0.1653755E+02  0.9461596E+03
Ar 1871  0.4019704E+02  0.1101516E+02  0.1890063E+02  0.2335721E+03
Ar 1872  0.3767253E+02  0.1324712E+02  0.1881414E+02  0.7600241E+02
Ar 1873  0.3781726E+02  0.1099715E+02  0.2215968E+02  0.1799120E+03
Ar 1874  0.4035685E+02  0.1352014E+02  0.2138084E+02  0.1061058E+03
Ar 1875  0.4031309E+02  0.1189795E+02  0.2420857E+02  0.8490609E+03
Ar 1876  0.3737050E+02  0.1386686E+02  0.2380748E+02  0.1308053E+03
Ar 1877  0.3749258E+02  0.1093043E+02  0.2620335E+02  0.3720292E+03
Ar 1878  0.4006373E+02  0.1363267E+02  0.2762105E+02  0.1122780E+04
Ar 1879  0.4017522E+02  0.1063966E+02  0.2900237E+02  0.1360903E+03
Ar 1880  0.3662064E+02  0.1350905E+02  0.2932905E+02  0.4692013E+03
Ar 1881  0.3788592E+02  0.1147181E+02  0.3208223E+02  0.5026405E+03
Ar 1882  0.4019906E+02  0.1391489E+02  0.3239619E+02  0.1344231E+03
Ar 1883  0.4068360E+02  0.1097413E+02  0.3527384E+02  0.1885469E+03
Ar 1884  0.3797681E+02  0.1340815E+02  0.3563291E+02  0.5293684E+03
Ar 1885  0.3788925E+02  0.1044665E+02  0.3788925E+02  0.5870757E+03
Ar 1886  0.4124263E+02  0.1333867E+02  0.3786759E+02  0.3877527E+03
Ar 1887  0.4101386E+02  0.1114560E+02  0.4101386E+02  0.2646294E+03
Ar 1888  0.3786759E+02  0.1333867E+02  0.4124263E+02  0.3877527E+03
Ar 1889  0.3772476E+02  0.1658309E+02  0.4300109E+02  0.5007810E+03
Ar 1890  0.4043200E+02  0.1952597E+02  0.4270751E+02  0.2335827E+03
Ar 1891  0.4023829E+02  0.1592736E+02  0.2273214E+01  0.3038186E+03
Ar 1892  0.3760998E+02  0.1892669E+02  0.2245083E+01  0.5993076E+03
Ar 1893  0.3764492E+02  0.1627166E+02  0.5243639E+01  0.8922779E+02
Ar 1894  0.4016586E+02  0.1822463E+02  0.5148631E+01  0.1719371E+03
Ar 1895  0.4037986E+02  0.1647612E+02  0.8323534E+01  0.5110733E+03
Ar 1896  0.3737599E+02  0.1889086E+02  0.7395634E+01  0.5189353E+03
Ar 1897  0.3777341E+02  0.1636017E+02  0.1096061E+02  0.5239908E+03
Ar 1898  0.4019704E+02  0.1890063E+02  0.1101516E+02  0.2335721E+03
Ar 1899  0.4060445E+02  0.1653755E+02  0.1337705E+02  0.9461596E+03
Ar 1900  0.3767253E+02  0.1881414E+02  0.1324712E+02  0.7600241E+02
Ar 1901  0.3695187E+02  0.1664650E+02  0.1664650E+02  0.5102864E+02
Ar 1902  0.4037098E+02  0.1851346E+02  0.1606321E+02  0.4577840E+03
Ar 1903  0.4037098E+02  0.1606321E+02  0.1851346E+02  0.4577840E+03
Ar 1904  0.3747078E+02  0.1949727E+02  0.1949727E+02  0.2133349E+03
Ar 1905  0.3775153E+02  0.1646103E+02  0.2152786E+02  0.4764385E+03
Ar 1906  0.4120352E+02  0.1893349E+02  0.2222262E+02  0.8205370E+03
Ar 1907  0.4022380E+02  0.1627914E+02  0.2508899E+02  0.1842065E+03
Ar 1908  0.3774192E+02  0.1832648E+02  0.2470669E+02  0.3201791E+03
Ar 1909  0.3706803E+02  0.1609727E+02  0.2744926E+02  0.2806657E+02
Ar 1910  0.4007994E+02  0.1912275E+02  0.2746211E+02  0.1342069E+03
Ar 1911  0.4024098E+02  0.1640212E+02  0.2966472E+02  0.2020132E+03
Ar 1912  0.3770489E+02  0.1905047E+02  0.2978725E+02  0.1523919E+04
Ar 1913  0.3750339E+02  0.1612153E+02  0.3205557E+02  0.1093559E+04
Ar 1914  0.4016599E+02  0.1904776E+02  0.3240474E+02  0.5287905E+03
Ar 1915  0.4046431E+02  0.1624510E+02  0.3529393E+02  0.2333439E+03
Ar 1916  0.3776581E+02  0.1931157E+02  0.3532929E+02  0.7131925E+03
Ar 1917  0.3792412E+02  0.1686135E+02  0.3792412E+02  0.2303239E+03
Ar 1918  0.4026601E+02  0.1970659E+02  0.3797078E+02  0.2851379E+02
Ar 1919  0.4009289E+02  0.1606331E+02  0.4009289E+02  0.3561813E+03
Ar 1920  0.3797078E+02  0.1970659E+02  0.4026601E+02  0.2851379E+02
Ar 1921  0.3755171E+02  0.2169483E+02  0.2055290E+00  0.3222540E+03
Ar 1922  0.4007794E+02  0.2420417E+02  0.5007239E+00  0.7230312E+03
Ar 1923  0.4010131E+02  0.2135268E+02  0.2299152E+01  0.1028791E+03
Ar 1924  0.3786774E+02  0.2439900E+02  0.2968258E+01  0.8222153E+03
Ar 1925  0.3774047E+02  0.2165644E+02  0.5019868E+01  0.1095609E+03
Ar 1926  0.4035348E+02  0.2406066E+02  0.5379712E+01  0.5974182E+03
Ar 1927  0.3996332E+02  0.2121363E+02  0.7932620E+01  0.4665830E+03
Ar 1928  0.3787292E+02  0.2399053E+02  0.7914899E+01  0.5160976E+03
Ar 1929  0.3781726E+02  0.2215968E+02  0.1099715E+02  0.1799120E+03
Ar 1930  0.4031309E+02  0.2420857E+02  0.1189795E+02  0.8490609E+03
Ar 1931  0.4035685E+02  0.2138084E+02  0.1352014E+02  0.1061058E+03
Ar 1932  0.3737050E+02  0.2380748E+02  0.1386686E+02  0.1308053E+03
Ar 1933  0.3775153E+02  0.2152786E+02  0.1646103E+02  0.4764385E+03
Ar 1934  0.4022380E+02  0.2508899E+02  0.1627914E+02  0.1842065E+03
Ar 1935  0.4120352E+02  0.2222262E+02  0.1893349E+02  0.8205370E+03
Ar 1936  0.3774192E+02  0.2470669E+02  0.1832648E+02  0.3201791E+03
Ar 1937  0.3716700E+02  0.2203687E+02  0.2203687E+02  0.1496030E+02
Ar 1938  0.4065874E+02  0.2479444E+02  0.2160477E+02  0.3959987E+03
Ar 1939  0.4065874E+02  0.2160477E+02  0.2479444E+02  0.3959987E+03
Ar 1940  0.3813541E+02  0.2455615E+02  0.2455615E+02  0.6371949E+02
Ar 1941  0.3774668E+02  0.2170322E+02  0.2693104E+02  0.1258346E+03
Ar 1942  0.4046880E+02  0.2440433E+02  0.2700191E+02  0.9759959E+02
Ar 1943  0.4053825E+02  0.2198215E+02  0.2916636E+02  0.1121477E+03
Ar 1944  0.3738722E+02  0.2484603E+02  0.2967715E+02  0.1252375E+03
Ar 1945  0.3791299E+02  0.2189897E+02  0.3225059E+02  0.3956229E+03
Ar 1946  0.4029857E+02  0.2419551E+02  0.3220493E+02  0.8324869E+03
Ar 1947  0.4042435E+02  0.2227687E+02  0.3510487E+02  0.4599061E+02
Ar 1948  0.3758698E+02  0.2427290E+02  0.3481245E+02  0.3799267E+03
Ar 1949  0.3776751E+02  0.2272017E+02  0.3776751E+02  0.4738972E+03
Ar 1950  0.4154712E+02  0.2469327E+02  0.3726585E+02  0.4350888E+03
Ar 1951  0.4060568E+02  0.2277838E+02  0.4060568E+02  0.1500121E+03
Ar 1952  0.3726585E+02  0.2469327E+02  0.4154712E+02  0.4350888E+03
Ar 1953  0.3838087E+02  0.2746726E+02  0.3201385E+00  0.3685626E+03
Ar 1954  0.4116558E+02  0.2912261E+02  0.6533403E+00  0.2783084E+03
Ar 1955  0.4073663E+02  0.2660100E+02  0.3158692E+01  0.2042827E+03
Ar 1956  0.3772559E+02  0.2912484E+02  0.3267357E+01  0.7486599E+02
Ar 1957  0.3788581E+02  0.2648631E+02  0.5399501E+01  0.7680899E+03
Ar 1958  0.4049610E+02  0.2939429E+02  0.5356430E+01  0.2726418E+03
Ar 1959  0.4024299E+02  0.2608031E+02  0.8569540E+01  0.1442528E+03
Ar 1960  0.3803951E+02  0.2951344E+02  0.8139093E+01  0.3188885E+02
Ar 1961  0.3749258E+02  0.2620335E+02  0.1093043E+02  0.3720292E+03
Ar 1962  0.4017522E+02  0.2900237E+02  0.1063966E+02  0.1360903E+03
Ar 1963  0.4006373E+02  0.2762105E+02  0.1363267E+02  0.1122780E+04
Ar 1964  0.3662064E+02  0.2932905E+02  0.1350905E+02  0.4692013E+03
Ar 1965  0.3706803E+02  0.2744926E+02  0.1609727E+02  0.2806657E+02
Ar 1966  0.4024098E+02  0.2966472E+02  0.1640212E+02  0.2020132E+03
Ar 1967  0.4007994E+02  0.2746211E+02  0.1912275E+02  0.1342069E+03
Ar 1968  0.3770489E+02  0.2978725E+02  0.1905047E+02  0.1523919E+04
Ar 1969  0.3774668E+02  0.2693104E+02  0.2170322E+02  0.1258346E+03
Ar 1970  0.4053825E+02  0.2916636E+02  0.2198215E+02  0.1121477E+03
Ar 1971  0.4046880E+02  0.2700191E+02  0.2440433E+02  0.9759959E+02
Ar 1972  0.3738722E+02  0.2967715E+02  0.2484603E+02  0.1252375E+03
Ar 1973  0.3721937E+02  0.2685371E+02  0.2685371E+02  0.9534125E+02
Ar 1974  0.4070799E+02  0.3014426E+02  0.2679743E+02  0.1196673E+03
Ar 1975  0.4070799E+02  0.2679743E+02  0.3014426E+02  0.1196673E+03
Ar 1976  0.3748862E+02  0.2923086E+02  0.2923086E+02  0.5567243E+03
Ar 1977  0.3813040E+02  0.2709481E+02  0.3213100E+02  0.1922361E+03
Ar 1978  0.3984896E+02  0.2999177E+02  0.3246615E+02  0.2146237E+03
Ar 1979  0.4015150E+02  0.2688799E+02  0.3485172E+02  0.6736203E+03
Ar 1980  0.3718303E+02  0.2928954E+02  0.3479964E+02  0.3289842E+03
Ar 1981  0.3732518E+02  0.2611416E+02  0.3732518E+02  0.1455736E+03
Ar 1982  0.4014797E+02  0.2964785E+02  0.3769151E+02  0.2324516E+03
Ar 1983  0.4024978E+02  0.2683859E+02  0.4024978E+02  0.8491209E+03
Ar 1984  0.3769151E+02  0.2964785E+02  0.4014797E+02  0.2324516E+03
Ar 1985  0.3759155E+02  0.3182663E+02  0.5586147E-01  0.2317181E+03
Ar 1986  0.4071796E+02  0.3475365E+02  0.1934593E+00  0.9015481E+02
Ar 1987  0.3967450E+02  0.3202844E+02  0.3251412E+01  0.3629767E+03
Ar 1988  0.3752533E+02  0.3452658E+02  0.2612378E+01  0.4047816E+03
Ar 1989  0.3717170E+02  0.3251538E+02  0.5740633E+01  0.8815684E+02
Ar 1990  0.3988158E+02  0.3473904E+02  0.5890038E+01  0.3280326E+02
Ar 1991  0.3999178E+02  0.3229746E+02  0.8680370E+01  0.2080485E+03
Ar 1992  0.3738168E+02  0.3475225E+02  0.9474967E+01  0.4605925E+03
Ar 1993  0.3788592E+02  0.3208223E+02  0.1147181E+02  0.5026405E+03
Ar 1994  0.4068360E+02  0.3527384E+02  0.1097413E+02  0.1885469E+03
Ar 1995  0.4019906E+02  0.3239619E+02  0.1391489E+02  0.1344231E+03
Ar 1996  0.3797681E+02  0.3563291E+02  0.1340815E+02  0.5293684E+03
Ar 1997  0.3750339E+02  0.3205557E+02  0.1612153E+02  0.1093559E+04
Ar 1998  0.4046431E+02  0.3529393E+02  0.1624510E+02  0.2333439E+03
Ar 1999  0.4016599E+02  0.3240474E+02  0.1904776E+02  0.5287905E+03
Ar 2000  0.3776581E+02  0.3532929E+02  0.1931157E+02  0.7131925E+03
Ar 2001  0.3791299E+02  0.3225059E+02  0.2189897E+02  0.3956229E+03
Ar 2002  0.4042435E+02  0.3510487E+02  0.2227687E+02  0.4599061E+02
Ar 2003  0.4029857E+02  0.3220493E+02  0.2419551E+02  0.8324869E+03
Ar 2004  0.3758698E+02  0.3481245E+02  0.2427290E+02  0.3799267E+03
Ar 2005  0.3813040E+02  0.3213100E+02  0.2709481E+02  0.1922361E+03
Ar 2006  0.4015150E+02  0.3485172E+02  0.2688799E+02  0.6736203E+03
Ar 2007  0.3984896E+02  0.3246615E+02  0.2999177E+02  0.2146237E+03
Ar 2008  0.3718303E+02  0.3479964E+02  0.2928954E+02  0.3289842E+03
Ar 2009  0.3709770E+02  0.3212675E+02  0.3212675E+02  0.3046040E+03
Ar 2010  0.4060503E+02  0.3482580E+02  0.3187789E+02  0.3713623E+03
Ar 2011  0.4060503E+02  0.3187789E+02  0.3482580E+02  0.3713623E+03
Ar 2012  0.3722578E+02  0.3477016E+02  0.3477016E+02  0.5640254E+03
Ar 2013  0.3745991E+02  0.3258865E+02  0.3745991E+02  0.1322938E+03
Ar 2014  0.4034137E+02  0.3470011E+02  0.3727164E+02  0.6770027E+03
Ar 2015  0.4025010E+02  0.3209370E+02  0.4025010E+02  0.5754659E+03
Ar 2016  0.3727164E+02  0.3470011E+02  0.4034137E+02  0.6770027E+03
Ar 2017  0.3697829E+02  0.3697829E+02  0.1827362E+00  0.5773501E+03
Ar 2018  0.4038265E+02  0.4038265E+02  0.4304229E+02  0.3740682E+03
Ar 2019  0.4075186E+02  0.3768182E+02  0.2477989E+01  0.2997336E+03
Ar 2020  0.3768182E+02  0.4075186E+02  0.2477989E+01  0.2997336E+03
Ar 2021  0.3775113E+02  0.3775113E+02  0.5593527E+01  0.1726177E+04
Ar 2022  0.4012671E+02  0.4012671E+02  0.5418076E+01  0.5871652E+03
Ar 2023  0.4031392E+02  0.3723953E+02  0.8362117E+01  0.1017359E+03
Ar 2024  0.3723953E+02  0.4031392E+02  0.8362117E+01  0.1017359E+03
Ar 2025  0.3788925E+02  0.3788925E+02  0.1044665E+02  0.5870757E+03
Ar 2026  0.4101386E+02  0.4101386E+02  0.1114560E+02  0.2646294E+03
Ar 2027  0.4124263E+02  0.3786759E+02  0.1333867E+02  0.3877527E+03
Ar 2028  0.3786759E+02  0.4124263E+02  0.1333867E+02  0.3877527E+03
Ar 2029  0.3792412E+02  0.3792412E+02  0.1686135E+02  0.2303239E+03
Ar 2030  0.4009289E+02  0.4009289E+02  0.1606331E+02  0.3561813E+03
Ar 2031  0.4026601E+02  0.3797078E+02  0.1970659E+02  0.2851379E+02
Ar 2032  0.3797078E+02  0.4026601E+02  0.1970659E+02  0.2851379E+02
Ar 2033  0.3776751E+02  0.3776751E+02  0.2272017E+02  0.4738972E+03
Ar 2034  0.4060568E+02  0.4060568E+02  0.2277838E+02  0.1500121E+03
Ar 2035  0.4154712E+02  0.3726585E+02  0.2469327E+02  0.4350888E+03
Ar 2036  0.3726585E+02  0.4154712E+02  0.2469327E+02  0.4350888E+03
Ar 2037  0.3732518E+02  0.3732518E+02  0.2611416E+02  0.1455736E+03
Ar 2038  0.4024978E+02  0.4024978E+02  0.2683859E+02  0.8491209E+03
Ar 2039  0.4014797E+02  0.3769151E+02  0.2964785E+02  0.2324516E+03
Ar 2040  0.3769151E+02  0.4014797E+02  0.2964785E+02  0.2324516E+03
Ar 2041  0.3745991E+02  0.3745991E+02  0.3258865E+02  0.1322938E+03
Ar 2042  0.4025010E+02  0.4025010E+02  0.3209370E+02  0.5754659E+03
Ar 2043  0.4034137E+02  0.3727164E+02  0.3470011E+02  0.6770027E+03
Ar 2044  0.3727164E+02  0.4034137E+02  0.3470011E+02  0.6770027E+03
Ar 2045  0.3729126E+02  0.3729126E+02  0.3729126E+02  0.5869804E+02
Ar 2046  0.4026982E+02  0.4026982E+02  0.3737566E+02  0.4053825E+03
Ar 2047  0.4026982E+02  0.3737566E+02  0.4026982E+02  0.4053825E+03
Ar 2048  0.3737566E+02  0.4026982E+02  0.4026982E+02  0.4053825E+03
