        4000
Lattice="  0.5263643E+02  0.1058320E-01  0.1063562E-01  0.1088313E-01  0.5263682E+02  0.1087974E-01  0.9889537E-02  0.1014725E-01  0.5263559E+02" Properties=species:S:1:id:I:1:pos:R:3:tempK:R:1
Ar    1  0.8571403E-01  0.1423088E+00  0.8297681E-01  0.0000000E+00
Ar    2  0.2704500E+01  0.2672895E+01  0.3463300E-01  0.0000000E+00
Ar    3  0.2507559E+01  0.5256606E+02  0.2478096E+01  0.0000000E+00
Ar    4  0.5255632E+02  0.2566408E+01  0.2626279E+01  0.0000000E+00
Ar    5  0.5249703E+02  0.5263802E+02  0.5195536E+01  0.0000000E+00
Ar    6  0.2703082E+01  0.2675497E+01  0.5394972E+01  0.0000000E+00
Ar    7  0.2332113E+01  0.5238203E+02  0.7678815E+01  0.0000000E+00
Ar    8  0.6781084E-01  0.2724462E+01  0.7955024E+01  0.0000000E+00
Ar    9  0.1074896E+00  0.5257893E+02  0.1049210E+02  0.0000000E+00
Ar   10  0.2579535E+01  0.2508989E+01  0.1052896E+02  0.0000000E+00
Ar   11  0.2781553E+01  0.1420022E+00  0.1329120E+02  0.0000000E+00
Ar   12  0.1502644E+00  0.2774864E+01  0.1331419E+02  0.0000000E+00
Ar   13  0.5262533E+02  0.6681933E-01  0.1578408E+02  0.0000000E+00
Ar   14  0.2677580E+01  0.2664562E+01  0.1591992E+02  0.0000000E+00
Ar   15  0.2761905E+01  0.1595455E+00  0.1854599E+02  0.0000000E+00
Ar   16  0.2263194E-01  0.2652364E+01  0.1841702E+02  0.0000000E+00
Ar   17  0.1664330E+00  0.3497613E-01  0.2113543E+02  0.0000000E+00
Ar   18  0.2582716E+01  0.2586274E+01  0.2092323E+02  0.0000000E+00
Ar   19  0.2726691E+01  0.1292365E+00  0.2370599E+02  0.0000000E+00
Ar   20  0.1563080E-01  0.2582562E+01  0.2354826E+02  0.0000000E+00
Ar   21  0.1366657E+00  0.1924410E+00  0.2646993E+02  0.0000000E+00
Ar   22  0.2727658E+01  0.2686317E+01  0.2636150E+02  0.0000000E+00
Ar   23  0.2746516E+01  0.1344622E+00  0.2920540E+02  0.0000000E+00
Ar   24  0.2461124E+00  0.2845514E+01  0.2930602E+02  0.0000000E+00
Ar   25  0.4626184E-01  0.5256435E+02  0.3171267E+02  0.0000000E+00
Ar   26  0.2751357E+01  0.2767558E+01  0.3178248E+02  0.0000000E+00
Ar   27  0.2919848E+01  0.2187203E+00  0.3442516E+02  0.0000000E+00
Ar   28  0.1282899E+00  0.2730669E+01  0.3431923E+02  0.0000000E+00
Ar   29  0.5263142E+02  0.5261000E+02  0.3675634E+02  0.0000000E+00
Ar   30  0.2687823E+01  0.2666383E+01  0.3685906E+02  0.0000000E+00
Ar   31  0.2740474E+01  0.5030131E-01  0.3941225E+02  0.0000000E+00
Ar   32  0.5247496E+02  0.2427392E+01  0.3928061E+02  0.0000000E+00
Ar   33  0.5253891E+02  0.5261461E+02  0.4204388E+02  0.0000000E+00
Ar   34  0.2317722E+01  0.2408659E+01  0.4172713E+02  0.0000000E+00
Ar   35  0.2609134E+01  0.5259032E+02  0.4457115E+02  0.0000000E+00
Ar   36  0.5245572E+02  0.2543898E+01  0.4448182E+02  0.0000000E+00
Ar   37  0.5251672E+02  0.5260060E+02  0.4730129E+02  0.0000000E+00
Ar   38  0.2352394E+01  0.2323346E+01  0.4707974E+02  0.0000000E+00
Ar   39  0.2689570E+01  0.1368269E+00  0.5013176E+02  0.0000000E+00
Ar   40  0.1144628E+00  0.2753811E+01  0.5006196E+02  0.0000000E+00
Ar   41  0.5257771E+02  0.5194850E+01  0.5250745E+02  0.0000000E+00
Ar   42  0.2596732E+01  0.7853770E+01  0.5252372E+02  0.0000000E+00
Ar   43  0.2546636E+01  0.5168267E+01  0.2585581E+01  0.0000000E+00
Ar   44  0.3135650E-01  0.7904009E+01  0.2541229E+01  0.0000000E+00
Ar   45  0.1089538E+00  0.5275350E+01  0.5255045E+01  0.0000000E+00
Ar   46  0.2928031E+01  0.8167154E+01  0.5542912E+01  0.0000000E+00
Ar   47  0.2857977E+01  0.5439345E+01  0.8012021E+01  0.0000000E+00
Ar   48  0.5254506E+02  0.7806498E+01  0.7838659E+01  0.0000000E+00
Ar   49  0.8794587E-01  0.5294529E+01  0.1070236E+02  0.0000000E+00
Ar   50  0.2450395E+01  0.7916019E+01  0.1037213E+02  0.0000000E+00
Ar   51  0.2565020E+01  0.5266564E+01  0.1329677E+02  0.0000000E+00
Ar   52  0.5258244E+02  0.7866292E+01  0.1315697E+02  0.0000000E+00
Ar   53  0.5261719E+02  0.5334511E+01  0.1590703E+02  0.0000000E+00
Ar   54  0.2745768E+01  0.8086358E+01  0.1582301E+02  0.0000000E+00
Ar   55  0.2580017E+01  0.5307529E+01  0.1828936E+02  0.0000000E+00
Ar   56  0.8632075E-01  0.7996682E+01  0.1841414E+02  0.0000000E+00
Ar   57  0.2570048E+00  0.5276439E+01  0.2116140E+02  0.0000000E+00
Ar   58  0.2730742E+01  0.7918235E+01  0.2106775E+02  0.0000000E+00
Ar   59  0.3023429E+01  0.5534149E+01  0.2395664E+02  0.0000000E+00
Ar   60  0.2435335E+00  0.8088070E+01  0.2388475E+02  0.0000000E+00
Ar   61  0.1135181E+00  0.5280877E+01  0.2638707E+02  0.0000000E+00
Ar   62  0.2692170E+01  0.7974430E+01  0.2647763E+02  0.0000000E+00
Ar   63  0.2736246E+01  0.5371315E+01  0.2907262E+02  0.0000000E+00
Ar   64  0.3425427E-01  0.7867335E+01  0.2897730E+02  0.0000000E+00
Ar   65  0.1241711E+00  0.5386838E+01  0.3181465E+02  0.0000000E+00
Ar   66  0.2580818E+01  0.7913350E+01  0.3159117E+02  0.0000000E+00
Ar   67  0.2916822E+01  0.5698765E+01  0.3463913E+02  0.0000000E+00
Ar   68  0.3106445E-01  0.7972981E+01  0.3431784E+02  0.0000000E+00
Ar   69  0.5256383E+02  0.5193603E+01  0.3674333E+02  0.0000000E+00
Ar   70  0.2718545E+01  0.8023934E+01  0.3703001E+02  0.0000000E+00
Ar   71  0.2847681E+01  0.5515208E+01  0.3961367E+02  0.0000000E+00
Ar   72  0.1638141E-01  0.8096895E+01  0.3953155E+02  0.0000000E+00
Ar   73  0.5259033E+02  0.5201709E+01  0.4196577E+02  0.0000000E+00
Ar   74  0.2568534E+01  0.7897468E+01  0.4200580E+02  0.0000000E+00
Ar   75  0.2581684E+01  0.5278590E+01  0.4461884E+02  0.0000000E+00
Ar   76  0.5257057E+02  0.7764096E+01  0.4468620E+02  0.0000000E+00
Ar   77  0.5246562E+02  0.5082861E+01  0.4720382E+02  0.0000000E+00
Ar   78  0.2786114E+01  0.7968533E+01  0.4749298E+02  0.0000000E+00
Ar   79  0.2640617E+01  0.5251660E+01  0.4993932E+02  0.0000000E+00
Ar   80  0.5263609E+02  0.7873094E+01  0.4996064E+02  0.0000000E+00
Ar   81  0.2002585E+00  0.1072654E+02  0.2113862E+00  0.0000000E+00
Ar   82  0.2733502E+01  0.1324936E+02  0.1505378E+00  0.0000000E+00
Ar   83  0.2698748E+01  0.1056424E+02  0.2622465E+01  0.0000000E+00
Ar   84  0.1176234E+00  0.1332128E+02  0.2721864E+01  0.0000000E+00
Ar   85  0.4938295E-02  0.1047489E+02  0.5216079E+01  0.0000000E+00
Ar   86  0.2544231E+01  0.1312958E+02  0.5211017E+01  0.0000000E+00
Ar   87  0.2637273E+01  0.1064311E+02  0.7960377E+01  0.0000000E+00
Ar   88  0.5868844E-01  0.1326577E+02  0.7973401E+01  0.0000000E+00
Ar   89  0.1198956E+00  0.1081808E+02  0.1071464E+02  0.0000000E+00
Ar   90  0.2815193E+01  0.1325370E+02  0.1064800E+02  0.0000000E+00
Ar   91  0.2737137E+01  0.1066203E+02  0.1321360E+02  0.0000000E+00
Ar   92  0.3087524E-01  0.1330733E+02  0.1333559E+02  0.0000000E+00
Ar   93  0.1681604E-01  0.1060716E+02  0.1578405E+02  0.0000000E+00
Ar   94  0.2643027E+01  0.1307458E+02  0.1576357E+02  0.0000000E+00
Ar   95  0.2438233E+01  0.1040261E+02  0.1828942E+02  0.0000000E+00
Ar   96  0.5253531E+02  0.1293389E+02  0.1834551E+02  0.0000000E+00
Ar   97  0.1469799E-01  0.1050313E+02  0.2098881E+02  0.0000000E+00
Ar   98  0.2769037E+01  0.1325838E+02  0.2117510E+02  0.0000000E+00
Ar   99  0.2802591E+01  0.1063374E+02  0.2381292E+02  0.0000000E+00
Ar  100  0.6389805E-01  0.1317272E+02  0.2367530E+02  0.0000000E+00
Ar  101  0.2293475E+00  0.1068642E+02  0.2647138E+02  0.0000000E+00
Ar  102  0.2838242E+01  0.1337027E+02  0.2652095E+02  0.0000000E+00
Ar  103  0.2715763E+01  0.1065213E+02  0.2907699E+02  0.0000000E+00
Ar  104  0.5255009E+02  0.1314422E+02  0.2892344E+02  0.0000000E+00
Ar  105  0.5253651E+02  0.1047802E+02  0.3151649E+02  0.0000000E+00
Ar  106  0.2570207E+01  0.1321074E+02  0.3155686E+02  0.0000000E+00
Ar  107  0.2625252E+01  0.1054419E+02  0.3416797E+02  0.0000000E+00
Ar  108  0.2900892E-01  0.1318138E+02  0.3417888E+02  0.0000000E+00
Ar  109  0.4585527E-01  0.1059258E+02  0.3692269E+02  0.0000000E+00
Ar  110  0.2591514E+01  0.1304080E+02  0.3676793E+02  0.0000000E+00
Ar  111  0.2660063E+01  0.1067408E+02  0.3957702E+02  0.0000000E+00
Ar  112  0.5262556E+02  0.1328319E+02  0.3943333E+02  0.0000000E+00
Ar  113  0.2372235E-01  0.1051358E+02  0.4203836E+02  0.0000000E+00
Ar  114  0.2727617E+01  0.1337685E+02  0.4222558E+02  0.0000000E+00
Ar  115  0.2475782E+01  0.1044389E+02  0.4461605E+02  0.0000000E+00
Ar  116  0.1760521E+00  0.1334522E+02  0.4493490E+02  0.0000000E+00
Ar  117  0.1049738E+00  0.1065040E+02  0.4738555E+02  0.0000000E+00
Ar  118  0.2884819E+01  0.1335524E+02  0.4758867E+02  0.0000000E+00
Ar  119  0.2593188E+01  0.1052791E+02  0.5000659E+02  0.0000000E+00
Ar  120  0.7543687E-01  0.1315455E+02  0.5005622E+02  0.0000000E+00
Ar  121  0.4016610E-01  0.1583522E+02  0.5263687E+02  0.0000000E+00
Ar  122  0.2970670E+01  0.1874689E+02  0.2878462E+00  0.0000000E+00
Ar  123  0.2740637E+01  0.1592105E+02  0.2690428E+01  0.0000000E+00
Ar  124  0.4435544E-01  0.1850431E+02  0.2581261E+01  0.0000000E+00
Ar  125  0.5251929E+02  0.1574025E+02  0.5163907E+01  0.0000000E+00
Ar  126  0.2453145E+01  0.1814669E+02  0.5129914E+01  0.0000000E+00
Ar  127  0.2845153E+01  0.1581582E+02  0.8083807E+01  0.0000000E+00
Ar  128  0.5249355E+02  0.1825513E+02  0.7812092E+01  0.0000000E+00
Ar  129  0.5261337E+02  0.1581493E+02  0.1068360E+02  0.0000000E+00
Ar  130  0.2446001E+01  0.1831820E+02  0.1042949E+02  0.0000000E+00
Ar  131  0.2497182E+01  0.1577384E+02  0.1313221E+02  0.0000000E+00
Ar  132  0.5259819E+02  0.1841679E+02  0.1308452E+02  0.0000000E+00
Ar  133  0.5601344E-01  0.1586898E+02  0.1585264E+02  0.0000000E+00
Ar  134  0.2642214E+01  0.1842740E+02  0.1580037E+02  0.0000000E+00
Ar  135  0.2541350E+01  0.1570007E+02  0.1841667E+02  0.0000000E+00
Ar  136  0.5244324E+02  0.1819333E+02  0.1822521E+02  0.0000000E+00
Ar  137  0.1156227E+00  0.1586055E+02  0.2116774E+02  0.0000000E+00
Ar  138  0.3077226E+01  0.1876066E+02  0.2135144E+02  0.0000000E+00
Ar  139  0.2954143E+01  0.1606589E+02  0.2389560E+02  0.0000000E+00
Ar  140  0.3560297E+00  0.1872409E+02  0.2393109E+02  0.0000000E+00
Ar  141  0.1922379E+00  0.1606453E+02  0.2642535E+02  0.0000000E+00
Ar  142  0.2822333E+01  0.1855901E+02  0.2644339E+02  0.0000000E+00
Ar  143  0.2633198E+01  0.1587073E+02  0.2902188E+02  0.0000000E+00
Ar  144  0.5264521E+02  0.1849587E+02  0.2897346E+02  0.0000000E+00
Ar  145  0.9968468E-01  0.1585234E+02  0.3172246E+02  0.0000000E+00
Ar  146  0.2732106E+01  0.1849785E+02  0.3167479E+02  0.0000000E+00
Ar  147  0.2712267E+01  0.1589382E+02  0.3422915E+02  0.0000000E+00
Ar  148  0.8052326E-01  0.1850230E+02  0.3432024E+02  0.0000000E+00
Ar  149  0.9383014E-01  0.1592584E+02  0.3692349E+02  0.0000000E+00
Ar  150  0.2641719E+01  0.1844165E+02  0.3684220E+02  0.0000000E+00
Ar  151  0.2539556E+01  0.1570160E+02  0.3937012E+02  0.0000000E+00
Ar  152  0.7190726E-01  0.1845395E+02  0.3940567E+02  0.0000000E+00
Ar  153  0.5262049E+02  0.1577851E+02  0.4201949E+02  0.0000000E+00
Ar  154  0.2731315E+01  0.1846097E+02  0.4216233E+02  0.0000000E+00
Ar  155  0.2619588E+01  0.1578677E+02  0.4473234E+02  0.0000000E+00
Ar  156  0.7924184E-01  0.1846514E+02  0.4463678E+02  0.0000000E+00
Ar  157  0.9218026E-01  0.1585160E+02  0.4747668E+02  0.0000000E+00
Ar  158  0.2800946E+01  0.1867293E+02  0.4751893E+02  0.0000000E+00
Ar  159  0.2530778E+01  0.1577153E+02  0.5001493E+02  0.0000000E+00
Ar  160  0.8768651E-01  0.1848932E+02  0.5010587E+02  0.0000000E+00
Ar  161  0.1489045E+00  0.2111117E+02  0.5675520E-01  0.0000000E+00
Ar  162  0.2797279E+01  0.2378252E+02  0.1734726E+00  0.0000000E+00
Ar  163  0.3029876E+01  0.2125624E+02  0.2913040E+01  0.0000000E+00
Ar  164  0.5248506E+02  0.2362389E+02  0.2517339E+01  0.0000000E+00
Ar  165  0.1038261E-01  0.2100249E+02  0.5284955E+01  0.0000000E+00
Ar  166  0.2590328E+01  0.2379678E+02  0.5277372E+01  0.0000000E+00
Ar  167  0.2882942E+01  0.2119907E+02  0.8137403E+01  0.0000000E+00
Ar  168  0.5251026E+02  0.2347031E+02  0.7726714E+01  0.0000000E+00
Ar  169  0.1988072E+00  0.2116927E+02  0.1059203E+02  0.0000000E+00
Ar  170  0.2904415E+01  0.2394588E+02  0.1084778E+02  0.0000000E+00
Ar  171  0.2767777E+01  0.2117120E+02  0.1318381E+02  0.0000000E+00
Ar  172  0.8694987E-01  0.2372907E+02  0.1314729E+02  0.0000000E+00
Ar  173  0.3597054E-01  0.2107272E+02  0.1569019E+02  0.0000000E+00
Ar  174  0.2634653E+01  0.2361318E+02  0.1570727E+02  0.0000000E+00
Ar  175  0.2804469E+01  0.2109588E+02  0.1850922E+02  0.0000000E+00
Ar  176  0.1159146E+00  0.2359815E+02  0.1841707E+02  0.0000000E+00
Ar  177  0.4581652E+00  0.2127289E+02  0.2133300E+02  0.0000000E+00
Ar  178  0.2869170E+01  0.2386604E+02  0.2137551E+02  0.0000000E+00
Ar  179  0.3005484E+01  0.2129696E+02  0.2396451E+02  0.0000000E+00
Ar  180  0.1426997E+00  0.2376847E+02  0.2377409E+02  0.0000000E+00
Ar  181  0.6094938E-01  0.2115585E+02  0.2636168E+02  0.0000000E+00
Ar  182  0.2505793E+01  0.2373559E+02  0.2629663E+02  0.0000000E+00
Ar  183  0.2527230E+01  0.2101642E+02  0.2886417E+02  0.0000000E+00
Ar  184  0.5261209E+02  0.2372263E+02  0.2892507E+02  0.0000000E+00
Ar  185  0.4359288E-01  0.2107168E+02  0.3173481E+02  0.0000000E+00
Ar  186  0.2449031E+01  0.2351599E+02  0.3142179E+02  0.0000000E+00
Ar  187  0.2578930E+01  0.2094855E+02  0.3411652E+02  0.0000000E+00
Ar  188  0.7131652E-01  0.2369445E+02  0.3420329E+02  0.0000000E+00
Ar  189  0.1178096E+00  0.2111003E+02  0.3685908E+02  0.0000000E+00
Ar  190  0.2731639E+01  0.2362306E+02  0.3675739E+02  0.0000000E+00
Ar  191  0.2834500E+01  0.2116221E+02  0.3963396E+02  0.0000000E+00
Ar  192  0.1232662E+00  0.2374914E+02  0.3962842E+02  0.0000000E+00
Ar  193  0.1467155E+00  0.2103526E+02  0.4205599E+02  0.0000000E+00
Ar  194  0.2651749E+01  0.2380963E+02  0.4217882E+02  0.0000000E+00
Ar  195  0.2655007E+01  0.2112024E+02  0.4483809E+02  0.0000000E+00
Ar  196  0.1527838E+00  0.2380849E+02  0.4480829E+02  0.0000000E+00
Ar  197  0.2086688E+00  0.2130298E+02  0.4758134E+02  0.0000000E+00
Ar  198  0.2693836E+01  0.2382680E+02  0.4752382E+02  0.0000000E+00
Ar  199  0.2675314E+01  0.2108513E+02  0.5008950E+02  0.0000000E+00
Ar  200  0.1219401E+00  0.2383370E+02  0.5020119E+02  0.0000000E+00
Ar  201  0.1390900E+00  0.2647869E+02  0.1590168E+00  0.0000000E+00
Ar  202  0.2714995E+01  0.2907253E+02  0.1710967E+00  0.0000000E+00
Ar  203  0.2786744E+01  0.2654018E+02  0.2821300E+01  0.0000000E+00
Ar  204  0.5816526E-01  0.2898326E+02  0.2577570E+01  0.0000000E+00
Ar  205  0.2910499E-01  0.2639595E+02  0.5202432E+01  0.0000000E+00
Ar  206  0.2667001E+01  0.2898714E+02  0.5272342E+01  0.0000000E+00
Ar  207  0.2653496E+01  0.2635077E+02  0.7872165E+01  0.0000000E+00
Ar  208  0.5256949E+02  0.2894639E+02  0.7819859E+01  0.0000000E+00
Ar  209  0.5261012E+02  0.2621975E+02  0.1037339E+02  0.0000000E+00
Ar  210  0.2589134E+01  0.2892630E+02  0.1060637E+02  0.0000000E+00
Ar  211  0.2890776E+01  0.2658895E+02  0.1346645E+02  0.0000000E+00
Ar  212  0.5259473E+02  0.2888535E+02  0.1315160E+02  0.0000000E+00
Ar  213  0.3267636E-01  0.2627783E+02  0.1578090E+02  0.0000000E+00
Ar  214  0.2752796E+01  0.2915416E+02  0.1599885E+02  0.0000000E+00
Ar  215  0.2699932E+01  0.2633711E+02  0.1842301E+02  0.0000000E+00
Ar  216  0.1062747E+00  0.2898517E+02  0.1847279E+02  0.0000000E+00
Ar  217  0.1167757E+00  0.2630657E+02  0.2110946E+02  0.0000000E+00
Ar  218  0.2859717E+01  0.2915212E+02  0.2126540E+02  0.0000000E+00
Ar  219  0.2799540E+01  0.2653987E+02  0.2392351E+02  0.0000000E+00
Ar  220  0.2369703E+00  0.2926364E+02  0.2400400E+02  0.0000000E+00
Ar  221  0.1611957E+00  0.2649149E+02  0.2642937E+02  0.0000000E+00
Ar  222  0.2877819E+01  0.2921490E+02  0.2665061E+02  0.0000000E+00
Ar  223  0.2599012E+01  0.2629785E+02  0.2895902E+02  0.0000000E+00
Ar  224  0.7244325E-01  0.2901954E+02  0.2902279E+02  0.0000000E+00
Ar  225  0.9480565E-01  0.2634351E+02  0.3165086E+02  0.0000000E+00
Ar  226  0.2702824E+01  0.2894870E+02  0.3158723E+02  0.0000000E+00
Ar  227  0.2887134E+01  0.2653075E+02  0.3442764E+02  0.0000000E+00
Ar  228  0.2069016E+00  0.2906013E+02  0.3434134E+02  0.0000000E+00
Ar  229  0.1121415E+00  0.2633448E+02  0.3677544E+02  0.0000000E+00
Ar  230  0.2819266E+01  0.2909735E+02  0.3701787E+02  0.0000000E+00
Ar  231  0.2755730E+01  0.2654146E+02  0.3963565E+02  0.0000000E+00
Ar  232  0.4160144E+00  0.2921971E+02  0.3976576E+02  0.0000000E+00
Ar  233  0.1565847E+00  0.2646339E+02  0.4221995E+02  0.0000000E+00
Ar  234  0.2801363E+01  0.2920347E+02  0.4237302E+02  0.0000000E+00
Ar  235  0.2823599E+01  0.2643985E+02  0.4494190E+02  0.0000000E+00
Ar  236  0.1680421E+00  0.2917736E+02  0.4482146E+02  0.0000000E+00
Ar  237  0.3302482E+00  0.2657991E+02  0.4784216E+02  0.0000000E+00
Ar  238  0.2610502E+01  0.2896648E+02  0.4742738E+02  0.0000000E+00
Ar  239  0.2730923E+01  0.2639444E+02  0.5032144E+02  0.0000000E+00
Ar  240  0.1786743E+00  0.2914266E+02  0.5022819E+02  0.0000000E+00
Ar  241  0.5254660E+02  0.3162991E+02  0.5262426E+02  0.0000000E+00
Ar  242  0.2689149E+01  0.3426563E+02  0.5262210E+02  0.0000000E+00
Ar  243  0.2558258E+01  0.3159131E+02  0.2692735E+01  0.0000000E+00
Ar  244  0.5250392E+02  0.3411097E+02  0.2662712E+01  0.0000000E+00
Ar  245  0.5221660E+02  0.3133832E+02  0.4981851E+01  0.0000000E+00
Ar  246  0.2464927E+01  0.3406740E+02  0.5170902E+01  0.0000000E+00
Ar  247  0.2444569E+01  0.3146307E+02  0.7831178E+01  0.0000000E+00
Ar  248  0.7421945E-01  0.3420794E+02  0.7903764E+01  0.0000000E+00
Ar  249  0.5252137E+02  0.3138808E+02  0.1047796E+02  0.0000000E+00
Ar  250  0.2555223E+01  0.3413331E+02  0.1053842E+02  0.0000000E+00
Ar  251  0.2723942E+01  0.3182002E+02  0.1351348E+02  0.0000000E+00
Ar  252  0.5245790E+02  0.3413537E+02  0.1291950E+02  0.0000000E+00
Ar  253  0.4949600E-01  0.3168375E+02  0.1587132E+02  0.0000000E+00
Ar  254  0.2679924E+01  0.3423412E+02  0.1585095E+02  0.0000000E+00
Ar  255  0.2796954E+01  0.3175330E+02  0.1865046E+02  0.0000000E+00
Ar  256  0.5253192E+02  0.3410428E+02  0.1838655E+02  0.0000000E+00
Ar  257  0.1761300E+00  0.3174534E+02  0.2119442E+02  0.0000000E+00
Ar  258  0.2859784E+01  0.3435162E+02  0.2124713E+02  0.0000000E+00
Ar  259  0.2700453E+01  0.3160202E+02  0.2369681E+02  0.0000000E+00
Ar  260  0.2606151E+00  0.3436616E+02  0.2390256E+02  0.0000000E+00
Ar  261  0.2833895E+00  0.3186670E+02  0.2662299E+02  0.0000000E+00
Ar  262  0.2793111E+01  0.3425403E+02  0.2638564E+02  0.0000000E+00
Ar  263  0.2920134E+01  0.3176634E+02  0.2920988E+02  0.0000000E+00
Ar  264  0.2920420E+00  0.3441012E+02  0.2919178E+02  0.0000000E+00
Ar  265  0.3389911E+00  0.3171655E+02  0.3178332E+02  0.0000000E+00
Ar  266  0.2855137E+01  0.3434132E+02  0.3164143E+02  0.0000000E+00
Ar  267  0.2761580E+01  0.3156897E+02  0.3414791E+02  0.0000000E+00
Ar  268  0.2023417E+00  0.3418393E+02  0.3418183E+02  0.0000000E+00
Ar  269  0.2972527E+00  0.3177920E+02  0.3702544E+02  0.0000000E+00
Ar  270  0.2938144E+01  0.3428338E+02  0.3684653E+02  0.0000000E+00
Ar  271  0.2874119E+01  0.3168185E+02  0.3955285E+02  0.0000000E+00
Ar  272  0.2238020E+00  0.3435652E+02  0.3970164E+02  0.0000000E+00
Ar  273  0.1998790E-01  0.3165320E+02  0.4221868E+02  0.0000000E+00
Ar  274  0.2819887E+01  0.3426622E+02  0.4232831E+02  0.0000000E+00
Ar  275  0.2830051E+01  0.3184364E+02  0.4507284E+02  0.0000000E+00
Ar  276  0.1526922E+00  0.3436515E+02  0.4497009E+02  0.0000000E+00
Ar  277  0.5257100E+02  0.3164808E+02  0.4745111E+02  0.0000000E+00
Ar  278  0.2764714E+01  0.3450986E+02  0.4750195E+02  0.0000000E+00
Ar  279  0.2514418E+01  0.3157778E+02  0.4973610E+02  0.0000000E+00
Ar  280  0.5264684E+02  0.3428204E+02  0.4997504E+02  0.0000000E+00
Ar  281  0.1907041E-01  0.3678689E+02  0.5263299E+02  0.0000000E+00
Ar  282  0.2534286E+01  0.3934848E+02  0.5253870E+02  0.0000000E+00
Ar  283  0.2775963E+01  0.3688214E+02  0.2815083E+01  0.0000000E+00
Ar  284  0.3112145E+00  0.3973984E+02  0.2898845E+01  0.0000000E+00
Ar  285  0.5251165E+02  0.3675110E+02  0.5146687E+01  0.0000000E+00
Ar  286  0.2631196E+01  0.3929024E+02  0.5193566E+01  0.0000000E+00
Ar  287  0.2513019E+01  0.3677815E+02  0.7875388E+01  0.0000000E+00
Ar  288  0.6880664E-01  0.3968982E+02  0.8093090E+01  0.0000000E+00
Ar  289  0.5219051E+02  0.3660186E+02  0.1019356E+02  0.0000000E+00
Ar  290  0.2526142E+01  0.3940148E+02  0.1043730E+02  0.0000000E+00
Ar  291  0.2583863E+01  0.3683565E+02  0.1326030E+02  0.0000000E+00
Ar  292  0.5249447E+02  0.3925317E+02  0.1294617E+02  0.0000000E+00
Ar  293  0.5256310E+02  0.3669945E+02  0.1566663E+02  0.0000000E+00
Ar  294  0.2686298E+01  0.3939294E+02  0.1578153E+02  0.0000000E+00
Ar  295  0.2525589E+01  0.3674860E+02  0.1837098E+02  0.0000000E+00
Ar  296  0.3191880E+00  0.3968907E+02  0.1861153E+02  0.0000000E+00
Ar  297  0.1363308E+00  0.3689394E+02  0.2109418E+02  0.0000000E+00
Ar  298  0.2868598E+01  0.3962170E+02  0.2109125E+02  0.0000000E+00
Ar  299  0.2687030E+01  0.3680392E+02  0.2366845E+02  0.0000000E+00
Ar  300  0.1721025E+00  0.3959992E+02  0.2383304E+02  0.0000000E+00
Ar  301  0.2235552E+00  0.3691966E+02  0.2639996E+02  0.0000000E+00
Ar  302  0.2673043E+01  0.3946366E+02  0.2632765E+02  0.0000000E+00
Ar  303  0.2699026E+01  0.3685681E+02  0.2890064E+02  0.0000000E+00
Ar  304  0.2059426E+00  0.3952391E+02  0.2901545E+02  0.0000000E+00
Ar  305  0.2138753E+00  0.3694623E+02  0.3169317E+02  0.0000000E+00
Ar  306  0.2771859E+01  0.3949458E+02  0.3160753E+02  0.0000000E+00
Ar  307  0.3012448E+01  0.3701495E+02  0.3436908E+02  0.0000000E+00
Ar  308  0.1027799E+00  0.3944073E+02  0.3417239E+02  0.0000000E+00
Ar  309  0.2309784E+00  0.3690759E+02  0.3685733E+02  0.0000000E+00
Ar  310  0.2792245E+01  0.3957889E+02  0.3691339E+02  0.0000000E+00
Ar  311  0.2856289E+01  0.3703756E+02  0.3957309E+02  0.0000000E+00
Ar  312  0.1705924E+00  0.3959445E+02  0.3950800E+02  0.0000000E+00
Ar  313  0.5264223E+02  0.3686250E+02  0.4224534E+02  0.0000000E+00
Ar  314  0.2477222E+01  0.3939290E+02  0.4200888E+02  0.0000000E+00
Ar  315  0.2777091E+01  0.3698894E+02  0.4483749E+02  0.0000000E+00
Ar  316  0.1220476E+00  0.3957247E+02  0.4480979E+02  0.0000000E+00
Ar  317  0.1412671E+00  0.3701554E+02  0.4752569E+02  0.0000000E+00
Ar  318  0.2794482E+01  0.3956968E+02  0.4740079E+02  0.0000000E+00
Ar  319  0.2690258E+01  0.3698456E+02  0.5004580E+02  0.0000000E+00
Ar  320  0.5258464E+02  0.3943501E+02  0.4992696E+02  0.0000000E+00
Ar  321  0.3016339E+00  0.4213790E+02  0.1501601E+00  0.0000000E+00
Ar  322  0.2724446E+01  0.4473008E+02  0.3765640E-01  0.0000000E+00
Ar  323  0.2980193E+01  0.4235467E+02  0.2998033E+01  0.0000000E+00
Ar  324  0.5245871E+02  0.4467625E+02  0.2495255E+01  0.0000000E+00
Ar  325  0.8772560E-01  0.4222413E+02  0.5342510E+01  0.0000000E+00
Ar  326  0.2813415E+01  0.4475093E+02  0.5447846E+01  0.0000000E+00
Ar  327  0.2587355E+01  0.4191097E+02  0.7713462E+01  0.0000000E+00
Ar  328  0.5252429E+02  0.4466651E+02  0.7861573E+01  0.0000000E+00
Ar  329  0.5255381E+02  0.4206789E+02  0.1060939E+02  0.0000000E+00
Ar  330  0.2587169E+01  0.4463006E+02  0.1041654E+02  0.0000000E+00
Ar  331  0.2917185E+01  0.4223640E+02  0.1353008E+02  0.0000000E+00
Ar  332  0.1874371E+00  0.4491170E+02  0.1329960E+02  0.0000000E+00
Ar  333  0.5264269E+02  0.4211550E+02  0.1579676E+02  0.0000000E+00
Ar  334  0.2675693E+01  0.4475079E+02  0.1584352E+02  0.0000000E+00
Ar  335  0.2682280E+01  0.4217807E+02  0.1846213E+02  0.0000000E+00
Ar  336  0.5256544E+02  0.4475322E+02  0.1832668E+02  0.0000000E+00
Ar  337  0.1018442E+00  0.4209835E+02  0.2113820E+02  0.0000000E+00
Ar  338  0.2597857E+01  0.4474131E+02  0.2109846E+02  0.0000000E+00
Ar  339  0.2682426E+01  0.4212844E+02  0.2374490E+02  0.0000000E+00
Ar  340  0.1071437E+00  0.4479495E+02  0.2373146E+02  0.0000000E+00
Ar  341  0.2891051E-01  0.4207894E+02  0.2632817E+02  0.0000000E+00
Ar  342  0.2623435E+01  0.4471914E+02  0.2627120E+02  0.0000000E+00
Ar  343  0.2639166E+01  0.4205446E+02  0.2896258E+02  0.0000000E+00
Ar  344  0.5259956E+02  0.4458121E+02  0.2900191E+02  0.0000000E+00
Ar  345  0.5245563E+02  0.4192738E+02  0.3138047E+02  0.0000000E+00
Ar  346  0.2620375E+01  0.4480557E+02  0.3161748E+02  0.0000000E+00
Ar  347  0.2746851E+01  0.4221603E+02  0.3428382E+02  0.0000000E+00
Ar  348  0.1604118E-01  0.4479111E+02  0.3427227E+02  0.0000000E+00
Ar  349  0.5253169E+02  0.4208901E+02  0.3671538E+02  0.0000000E+00
Ar  350  0.2661645E+01  0.4472486E+02  0.3690564E+02  0.0000000E+00
Ar  351  0.2526960E+01  0.4209329E+02  0.3941775E+02  0.0000000E+00
Ar  352  0.7296895E-01  0.4480568E+02  0.3960880E+02  0.0000000E+00
Ar  353  0.5246860E+02  0.4195661E+02  0.4193614E+02  0.0000000E+00
Ar  354  0.2684393E+01  0.4472368E+02  0.4212637E+02  0.0000000E+00
Ar  355  0.2599077E+01  0.4208195E+02  0.4460192E+02  0.0000000E+00
Ar  356  0.1533697E+00  0.4485628E+02  0.4477502E+02  0.0000000E+00
Ar  357  0.9969034E-01  0.4223960E+02  0.4744400E+02  0.0000000E+00
Ar  358  0.2810444E+01  0.4497071E+02  0.4755587E+02  0.0000000E+00
Ar  359  0.2686086E+01  0.4216018E+02  0.5005947E+02  0.0000000E+00
Ar  360  0.9858935E-01  0.4478351E+02  0.5010765E+02  0.0000000E+00
Ar  361  0.3042284E-01  0.4727448E+02  0.5263638E+02  0.0000000E+00
Ar  362  0.2720515E+01  0.5005040E+02  0.3393378E-01  0.0000000E+00
Ar  363  0.2786488E+01  0.4732969E+02  0.2763700E+01  0.0000000E+00
Ar  364  0.9366374E-01  0.5011447E+02  0.2832994E+01  0.0000000E+00
Ar  365  0.5259342E+02  0.4708781E+02  0.5089722E+01  0.0000000E+00
Ar  366  0.2769619E+01  0.5009137E+02  0.5327989E+01  0.0000000E+00
Ar  367  0.2609495E+01  0.4740887E+02  0.7992652E+01  0.0000000E+00
Ar  368  0.3062908E-01  0.4990641E+02  0.7810261E+01  0.0000000E+00
Ar  369  0.5906300E-01  0.4741677E+02  0.1054132E+02  0.0000000E+00
Ar  370  0.2819801E+01  0.5025458E+02  0.1070669E+02  0.0000000E+00
Ar  371  0.2756371E+01  0.4753621E+02  0.1329265E+02  0.0000000E+00
Ar  372  0.1829242E+00  0.5017855E+02  0.1330043E+02  0.0000000E+00
Ar  373  0.1171939E+00  0.4751819E+02  0.1591735E+02  0.0000000E+00
Ar  374  0.2757179E+01  0.5026197E+02  0.1589439E+02  0.0000000E+00
Ar  375  0.2656610E+01  0.4744028E+02  0.1855556E+02  0.0000000E+00
Ar  376  0.5258899E+02  0.4996644E+02  0.1833591E+02  0.0000000E+00
Ar  377  0.1166289E+00  0.4748545E+02  0.2118969E+02  0.0000000E+00
Ar  378  0.2642538E+01  0.5007709E+02  0.2107839E+02  0.0000000E+00
Ar  379  0.2673875E+01  0.4748052E+02  0.2381299E+02  0.0000000E+00
Ar  380  0.2794569E+00  0.5031188E+02  0.2395243E+02  0.0000000E+00
Ar  381  0.8307763E-01  0.4757932E+02  0.2628058E+02  0.0000000E+00
Ar  382  0.2736041E+01  0.5020095E+02  0.2644669E+02  0.0000000E+00
Ar  383  0.2376252E+01  0.4716563E+02  0.2870689E+02  0.0000000E+00
Ar  384  0.8409843E-01  0.5016833E+02  0.2906107E+02  0.0000000E+00
Ar  385  0.5256981E+02  0.4732823E+02  0.3166347E+02  0.0000000E+00
Ar  386  0.2532878E+01  0.4969354E+02  0.3152036E+02  0.0000000E+00
Ar  387  0.2651739E+01  0.4730164E+02  0.3427815E+02  0.0000000E+00
Ar  388  0.2985428E+00  0.5012456E+02  0.3441510E+02  0.0000000E+00
Ar  389  0.5853688E-01  0.4740000E+02  0.3692356E+02  0.0000000E+00
Ar  390  0.2795306E+01  0.5010823E+02  0.3699931E+02  0.0000000E+00
Ar  391  0.2651684E+01  0.4735555E+02  0.3945029E+02  0.0000000E+00
Ar  392  0.2342033E+00  0.5018645E+02  0.3962856E+02  0.0000000E+00
Ar  393  0.5263405E+02  0.4740058E+02  0.4212904E+02  0.0000000E+00
Ar  394  0.2754564E+01  0.4999570E+02  0.4218646E+02  0.0000000E+00
Ar  395  0.2796914E+01  0.4756634E+02  0.4492307E+02  0.0000000E+00
Ar  396  0.9506385E-01  0.4999056E+02  0.4483707E+02  0.0000000E+00
Ar  397  0.1680219E+00  0.4750486E+02  0.4752389E+02  0.0000000E+00
Ar  398  0.2977077E+01  0.5036219E+02  0.4767864E+02  0.0000000E+00
Ar  399  0.2714357E+01  0.4749005E+02  0.5010358E+02  0.0000000E+00
Ar  400  0.5484624E-01  0.5009801E+02  0.4999783E+02  0.0000000E+00
Ar  401  0.5552320E+01  0.2533040E+00  0.2320718E+00  0.0000000E+00
Ar  402  0.8063837E+01  0.2865515E+01  0.1966242E+00  0.0000000E+00
Ar  403  0.8173216E+01  0.2659998E+00  0.3025018E+01  0.0000000E+00
Ar  404  0.5390459E+01  0.2709127E+01  0.2738394E+01  0.0000000E+00
Ar  405  0.5223186E+01  0.2903198E-01  0.5281987E+01  0.0000000E+00
Ar  406  0.7853275E+01  0.2709347E+01  0.5376908E+01  0.0000000E+00
Ar  407  0.8019130E+01  0.1052976E+00  0.8066818E+01  0.0000000E+00
Ar  408  0.5405242E+01  0.2752919E+01  0.8050766E+01  0.0000000E+00
Ar  409  0.5432438E+01  0.2126034E+00  0.1071228E+02  0.0000000E+00
Ar  410  0.7845966E+01  0.2596664E+01  0.1050589E+02  0.0000000E+00
Ar  411  0.7833011E+01  0.5248882E+02  0.1314105E+02  0.0000000E+00
Ar  412  0.5530197E+01  0.2902849E+01  0.1348855E+02  0.0000000E+00
Ar  413  0.5469624E+01  0.1625475E+00  0.1605862E+02  0.0000000E+00
Ar  414  0.7985096E+01  0.2563730E+01  0.1575005E+02  0.0000000E+00
Ar  415  0.8000469E+01  0.5262398E+02  0.1846962E+02  0.0000000E+00
Ar  416  0.5318999E+01  0.2775395E+01  0.1838834E+02  0.0000000E+00
Ar  417  0.5281622E+01  0.4295551E-01  0.2102694E+02  0.0000000E+00
Ar  418  0.7801009E+01  0.2615410E+01  0.2100207E+02  0.0000000E+00
Ar  419  0.7863267E+01  0.6278765E-01  0.2368167E+02  0.0000000E+00
Ar  420  0.5725640E+01  0.3018405E+01  0.2399283E+02  0.0000000E+00
Ar  421  0.5404382E+01  0.1853839E+00  0.2643756E+02  0.0000000E+00
Ar  422  0.8166464E+01  0.2769503E+01  0.2656966E+02  0.0000000E+00
Ar  423  0.8014596E+01  0.3806105E-01  0.2901327E+02  0.0000000E+00
Ar  424  0.5337864E+01  0.2744784E+01  0.2912999E+02  0.0000000E+00
Ar  425  0.5292722E+01  0.5260556E+02  0.3166114E+02  0.0000000E+00
Ar  426  0.7909285E+01  0.2580212E+01  0.3162018E+02  0.0000000E+00
Ar  427  0.8337693E+01  0.2666518E+00  0.3454967E+02  0.0000000E+00
Ar  428  0.5395933E+01  0.2780244E+01  0.3431974E+02  0.0000000E+00
Ar  429  0.5322291E+01  0.5835455E-01  0.3685640E+02  0.0000000E+00
Ar  430  0.7888981E+01  0.2640220E+01  0.3687384E+02  0.0000000E+00
Ar  431  0.7888926E+01  0.5255769E+02  0.3943166E+02  0.0000000E+00
Ar  432  0.5456827E+01  0.2719900E+01  0.3944040E+02  0.0000000E+00
Ar  433  0.5262393E+01  0.5258763E+02  0.4202208E+02  0.0000000E+00
Ar  434  0.7912358E+01  0.2540626E+01  0.4201915E+02  0.0000000E+00
Ar  435  0.7910535E+01  0.1575861E-01  0.4475956E+02  0.0000000E+00
Ar  436  0.5172125E+01  0.2530474E+01  0.4456120E+02  0.0000000E+00
Ar  437  0.5361955E+01  0.1137267E+00  0.4734750E+02  0.0000000E+00
Ar  438  0.8119656E+01  0.2805859E+01  0.4758451E+02  0.0000000E+00
Ar  439  0.8001944E+01  0.2054266E+00  0.5012424E+02  0.0000000E+00
Ar  440  0.5204146E+01  0.2584417E+01  0.4993414E+02  0.0000000E+00
Ar  441  0.5165106E+01  0.5112034E+01  0.5246561E+02  0.0000000E+00
Ar  442  0.8072868E+01  0.8005483E+01  0.1315483E+00  0.0000000E+00
Ar  443  0.8018957E+01  0.5509713E+01  0.2795721E+01  0.0000000E+00
Ar  444  0.5218461E+01  0.7888008E+01  0.2607022E+01  0.0000000E+00
Ar  445  0.5203726E+01  0.5286278E+01  0.5201133E+01  0.0000000E+00
Ar  446  0.7835325E+01  0.7998788E+01  0.5254350E+01  0.0000000E+00
Ar  447  0.7881858E+01  0.5333271E+01  0.7997313E+01  0.0000000E+00
Ar  448  0.5560727E+01  0.8254770E+01  0.8150853E+01  0.0000000E+00
Ar  449  0.5248293E+01  0.5242298E+01  0.1065996E+02  0.0000000E+00
Ar  450  0.7902095E+01  0.7841396E+01  0.1057732E+02  0.0000000E+00
Ar  451  0.8058208E+01  0.5467382E+01  0.1329908E+02  0.0000000E+00
Ar  452  0.5137739E+01  0.7922612E+01  0.1300757E+02  0.0000000E+00
Ar  453  0.5334706E+01  0.5435848E+01  0.1586341E+02  0.0000000E+00
Ar  454  0.8145477E+01  0.8146098E+01  0.1587809E+02  0.0000000E+00
Ar  455  0.7962325E+01  0.5284617E+01  0.1836164E+02  0.0000000E+00
Ar  456  0.5523414E+01  0.8109793E+01  0.1856999E+02  0.0000000E+00
Ar  457  0.5171853E+01  0.5204415E+01  0.2101001E+02  0.0000000E+00
Ar  458  0.7840267E+01  0.7781062E+01  0.2108369E+02  0.0000000E+00
Ar  459  0.8248793E+01  0.5632948E+01  0.2401327E+02  0.0000000E+00
Ar  460  0.5385842E+01  0.8031856E+01  0.2381302E+02  0.0000000E+00
Ar  461  0.5374208E+01  0.5344596E+01  0.2651010E+02  0.0000000E+00
Ar  462  0.7931925E+01  0.7977515E+01  0.2654276E+02  0.0000000E+00
Ar  463  0.7938502E+01  0.5279394E+01  0.2904110E+02  0.0000000E+00
Ar  464  0.5171489E+01  0.7927958E+01  0.2901283E+02  0.0000000E+00
Ar  465  0.5420405E+01  0.5441800E+01  0.3181623E+02  0.0000000E+00
Ar  466  0.7903144E+01  0.7960894E+01  0.3152754E+02  0.0000000E+00
Ar  467  0.8043073E+01  0.5346550E+01  0.3430754E+02  0.0000000E+00
Ar  468  0.5356729E+01  0.8076515E+01  0.3418572E+02  0.0000000E+00
Ar  469  0.5362423E+01  0.5239634E+01  0.3686327E+02  0.0000000E+00
Ar  470  0.8099572E+01  0.8081653E+01  0.3693104E+02  0.0000000E+00
Ar  471  0.8110436E+01  0.5498356E+01  0.3953129E+02  0.0000000E+00
Ar  472  0.5427738E+01  0.8001832E+01  0.3956861E+02  0.0000000E+00
Ar  473  0.5230056E+01  0.5309204E+01  0.4208306E+02  0.0000000E+00
Ar  474  0.8094703E+01  0.8104976E+01  0.4222404E+02  0.0000000E+00
Ar  475  0.7971393E+01  0.5381797E+01  0.4481940E+02  0.0000000E+00
Ar  476  0.5381896E+01  0.8024955E+01  0.4485652E+02  0.0000000E+00
Ar  477  0.5060707E+01  0.4979588E+01  0.4713020E+02  0.0000000E+00
Ar  478  0.7948205E+01  0.7898436E+01  0.4746580E+02  0.0000000E+00
Ar  479  0.7927944E+01  0.5351516E+01  0.5006249E+02  0.0000000E+00
Ar  480  0.5361130E+01  0.8012145E+01  0.5014497E+02  0.0000000E+00
Ar  481  0.5423388E+01  0.1078196E+02  0.2051607E+00  0.0000000E+00
Ar  482  0.7885516E+01  0.1317533E+02  0.1814992E-01  0.0000000E+00
Ar  483  0.7768466E+01  0.1040136E+02  0.2544526E+01  0.0000000E+00
Ar  484  0.5375060E+01  0.1327376E+02  0.2751154E+01  0.0000000E+00
Ar  485  0.5213838E+01  0.1056438E+02  0.5172878E+01  0.0000000E+00
Ar  486  0.8097187E+01  0.1330829E+02  0.5410989E+01  0.0000000E+00
Ar  487  0.8032446E+01  0.1069209E+02  0.7994490E+01  0.0000000E+00
Ar  488  0.5591156E+01  0.1343143E+02  0.8226957E+01  0.0000000E+00
Ar  489  0.5278482E+01  0.1063430E+02  0.1059049E+02  0.0000000E+00
Ar  490  0.8022561E+01  0.1322743E+02  0.1062963E+02  0.0000000E+00
Ar  491  0.7926886E+01  0.1051149E+02  0.1309351E+02  0.0000000E+00
Ar  492  0.5527037E+01  0.1334111E+02  0.1337239E+02  0.0000000E+00
Ar  493  0.5460752E+01  0.1061572E+02  0.1575535E+02  0.0000000E+00
Ar  494  0.8117294E+01  0.1347395E+02  0.1590385E+02  0.0000000E+00
Ar  495  0.7975997E+01  0.1056187E+02  0.1849657E+02  0.0000000E+00
Ar  496  0.5403919E+01  0.1327052E+02  0.1848240E+02  0.0000000E+00
Ar  497  0.5344225E+01  0.1056067E+02  0.2109893E+02  0.0000000E+00
Ar  498  0.7949699E+01  0.1317437E+02  0.2115366E+02  0.0000000E+00
Ar  499  0.7921342E+01  0.1052201E+02  0.2365422E+02  0.0000000E+00
Ar  500  0.5403948E+01  0.1320465E+02  0.2379206E+02  0.0000000E+00
Ar  501  0.5498693E+01  0.1090362E+02  0.2659243E+02  0.0000000E+00
Ar  502  0.8094374E+01  0.1331600E+02  0.2648739E+02  0.0000000E+00
Ar  503  0.7856857E+01  0.1045225E+02  0.2900353E+02  0.0000000E+00
Ar  504  0.5347780E+01  0.1334307E+02  0.2908644E+02  0.0000000E+00
Ar  505  0.5241360E+01  0.1063880E+02  0.3158642E+02  0.0000000E+00
Ar  506  0.8023034E+01  0.1341589E+02  0.3170308E+02  0.0000000E+00
Ar  507  0.7929367E+01  0.1073076E+02  0.3420274E+02  0.0000000E+00
Ar  508  0.5423077E+01  0.1342691E+02  0.3431000E+02  0.0000000E+00
Ar  509  0.5467883E+01  0.1076027E+02  0.3685268E+02  0.0000000E+00
Ar  510  0.8163216E+01  0.1341152E+02  0.3697938E+02  0.0000000E+00
Ar  511  0.8073605E+01  0.1072436E+02  0.3951115E+02  0.0000000E+00
Ar  512  0.5289429E+01  0.1319701E+02  0.3941811E+02  0.0000000E+00
Ar  513  0.5526953E+01  0.1083684E+02  0.4229224E+02  0.0000000E+00
Ar  514  0.8154529E+01  0.1338047E+02  0.4241948E+02  0.0000000E+00
Ar  515  0.7762383E+01  0.1052000E+02  0.4470480E+02  0.0000000E+00
Ar  516  0.5221154E+01  0.1323771E+02  0.4477287E+02  0.0000000E+00
Ar  517  0.5148836E+01  0.1052484E+02  0.4729626E+02  0.0000000E+00
Ar  518  0.7886037E+01  0.1326381E+02  0.4738052E+02  0.0000000E+00
Ar  519  0.7906189E+01  0.1057453E+02  0.4994753E+02  0.0000000E+00
Ar  520  0.5341738E+01  0.1320109E+02  0.5006328E+02  0.0000000E+00
Ar  521  0.5142357E+01  0.1577177E+02  0.5250837E+02  0.0000000E+00
Ar  522  0.7878913E+01  0.1839625E+02  0.5260120E+02  0.0000000E+00
Ar  523  0.8003425E+01  0.1573503E+02  0.2659236E+01  0.0000000E+00
Ar  524  0.5436591E+01  0.1838331E+02  0.2762207E+01  0.0000000E+00
Ar  525  0.5485950E+01  0.1589061E+02  0.5532913E+01  0.0000000E+00
Ar  526  0.7907612E+01  0.1828927E+02  0.5346572E+01  0.0000000E+00
Ar  527  0.8130381E+01  0.1588844E+02  0.8115308E+01  0.0000000E+00
Ar  528  0.5450824E+01  0.1856672E+02  0.8107173E+01  0.0000000E+00
Ar  529  0.5480721E+01  0.1590924E+02  0.1070097E+02  0.0000000E+00
Ar  530  0.7871968E+01  0.1844871E+02  0.1054466E+02  0.0000000E+00
Ar  531  0.8101014E+01  0.1600926E+02  0.1332889E+02  0.0000000E+00
Ar  532  0.5177250E+01  0.1840416E+02  0.1309859E+02  0.0000000E+00
Ar  533  0.5240370E+01  0.1582761E+02  0.1571750E+02  0.0000000E+00
Ar  534  0.8341390E+01  0.1874520E+02  0.1613338E+02  0.0000000E+00
Ar  535  0.7926035E+01  0.1591069E+02  0.1840724E+02  0.0000000E+00
Ar  536  0.5427037E+01  0.1852724E+02  0.1852266E+02  0.0000000E+00
Ar  537  0.5345620E+01  0.1580166E+02  0.2104487E+02  0.0000000E+00
Ar  538  0.8131555E+01  0.1868597E+02  0.2126420E+02  0.0000000E+00
Ar  539  0.8046528E+01  0.1587549E+02  0.2374520E+02  0.0000000E+00
Ar  540  0.5486898E+01  0.1863575E+02  0.2386845E+02  0.0000000E+00
Ar  541  0.5306411E+01  0.1583008E+02  0.2637233E+02  0.0000000E+00
Ar  542  0.8073379E+01  0.1851000E+02  0.2640305E+02  0.0000000E+00
Ar  543  0.8015787E+01  0.1591552E+02  0.2905240E+02  0.0000000E+00
Ar  544  0.5484775E+01  0.1847264E+02  0.2907486E+02  0.0000000E+00
Ar  545  0.5344754E+01  0.1594718E+02  0.3167381E+02  0.0000000E+00
Ar  546  0.8262992E+01  0.1866948E+02  0.3180256E+02  0.0000000E+00
Ar  547  0.8125284E+01  0.1602857E+02  0.3434033E+02  0.0000000E+00
Ar  548  0.5387401E+01  0.1857356E+02  0.3432175E+02  0.0000000E+00
Ar  549  0.5269614E+01  0.1585100E+02  0.3692362E+02  0.0000000E+00
Ar  550  0.7811800E+01  0.1845518E+02  0.3686020E+02  0.0000000E+00
Ar  551  0.7955921E+01  0.1593683E+02  0.3954924E+02  0.0000000E+00
Ar  552  0.5513200E+01  0.1861748E+02  0.3976273E+02  0.0000000E+00
Ar  553  0.5387035E+01  0.1585482E+02  0.4217801E+02  0.0000000E+00
Ar  554  0.8213793E+01  0.1861473E+02  0.4243629E+02  0.0000000E+00
Ar  555  0.8024981E+01  0.1600396E+02  0.4493910E+02  0.0000000E+00
Ar  556  0.5278984E+01  0.1849513E+02  0.4480738E+02  0.0000000E+00
Ar  557  0.5260069E+01  0.1588603E+02  0.4737958E+02  0.0000000E+00
Ar  558  0.7967947E+01  0.1866428E+02  0.4759174E+02  0.0000000E+00
Ar  559  0.7881833E+01  0.1588379E+02  0.4998021E+02  0.0000000E+00
Ar  560  0.5275559E+01  0.1857721E+02  0.5011300E+02  0.0000000E+00
Ar  561  0.5393586E+01  0.2117559E+02  0.1462213E+00  0.0000000E+00
Ar  562  0.7947608E+01  0.2375899E+02  0.6301149E-01  0.0000000E+00
Ar  563  0.7887571E+01  0.2097574E+02  0.2647558E+01  0.0000000E+00
Ar  564  0.5423467E+01  0.2398218E+02  0.2892516E+01  0.0000000E+00
Ar  565  0.5391764E+01  0.2102497E+02  0.5399841E+01  0.0000000E+00
Ar  566  0.7890829E+01  0.2368602E+02  0.5313314E+01  0.0000000E+00
Ar  567  0.7979468E+01  0.2118425E+02  0.8013812E+01  0.0000000E+00
Ar  568  0.5278717E+01  0.2379209E+02  0.7886951E+01  0.0000000E+00
Ar  569  0.5572302E+01  0.2133774E+02  0.1082062E+02  0.0000000E+00
Ar  570  0.8025105E+01  0.2390459E+02  0.1062592E+02  0.0000000E+00
Ar  571  0.8095734E+01  0.2110567E+02  0.1331633E+02  0.0000000E+00
Ar  572  0.5544298E+01  0.2396972E+02  0.1342854E+02  0.0000000E+00
Ar  573  0.5334964E+01  0.2096583E+02  0.1577393E+02  0.0000000E+00
Ar  574  0.7913130E+01  0.2356906E+02  0.1584129E+02  0.0000000E+00
Ar  575  0.7867435E+01  0.2110431E+02  0.1849173E+02  0.0000000E+00
Ar  576  0.5467557E+01  0.2377514E+02  0.1855651E+02  0.0000000E+00
Ar  577  0.5614061E+01  0.2142290E+02  0.2132072E+02  0.0000000E+00
Ar  578  0.7996894E+01  0.2376773E+02  0.2114120E+02  0.0000000E+00
Ar  579  0.8017151E+01  0.2122650E+02  0.2379749E+02  0.0000000E+00
Ar  580  0.5538082E+01  0.2395880E+02  0.2396298E+02  0.0000000E+00
Ar  581  0.5439964E+01  0.2115187E+02  0.2645700E+02  0.0000000E+00
Ar  582  0.8104342E+01  0.2386378E+02  0.2654468E+02  0.0000000E+00
Ar  583  0.7960785E+01  0.2099207E+02  0.2881643E+02  0.0000000E+00
Ar  584  0.5132050E+01  0.2362459E+02  0.2883334E+02  0.0000000E+00
Ar  585  0.5177647E+01  0.2098628E+02  0.3137775E+02  0.0000000E+00
Ar  586  0.7936183E+01  0.2365293E+02  0.3144998E+02  0.0000000E+00
Ar  587  0.7740990E+01  0.2104397E+02  0.3400202E+02  0.0000000E+00
Ar  588  0.5326584E+01  0.2374344E+02  0.3422956E+02  0.0000000E+00
Ar  589  0.5391548E+01  0.2115941E+02  0.3695477E+02  0.0000000E+00
Ar  590  0.7838097E+01  0.2367246E+02  0.3669154E+02  0.0000000E+00
Ar  591  0.7977445E+01  0.2133072E+02  0.3957148E+02  0.0000000E+00
Ar  592  0.5291929E+01  0.2384662E+02  0.3967773E+02  0.0000000E+00
Ar  593  0.5372517E+01  0.2127821E+02  0.4221154E+02  0.0000000E+00
Ar  594  0.7875786E+01  0.2378405E+02  0.4212555E+02  0.0000000E+00
Ar  595  0.7739407E+01  0.2112156E+02  0.4483238E+02  0.0000000E+00
Ar  596  0.5124156E+01  0.2369095E+02  0.4473767E+02  0.0000000E+00
Ar  597  0.5397376E+01  0.2130964E+02  0.4764230E+02  0.0000000E+00
Ar  598  0.7870161E+01  0.2363620E+02  0.4737460E+02  0.0000000E+00
Ar  599  0.8083829E+01  0.2123799E+02  0.5024817E+02  0.0000000E+00
Ar  600  0.5349361E+01  0.2382581E+02  0.5019165E+02  0.0000000E+00
Ar  601  0.5291661E+01  0.2628918E+02  0.9947585E-01  0.0000000E+00
Ar  602  0.7936339E+01  0.2906295E+02  0.4148173E-01  0.0000000E+00
Ar  603  0.8042395E+01  0.2656815E+02  0.2825621E+01  0.0000000E+00
Ar  604  0.5300971E+01  0.2901717E+02  0.2712149E+01  0.0000000E+00
Ar  605  0.5291681E+01  0.2641406E+02  0.5373824E+01  0.0000000E+00
Ar  606  0.7891752E+01  0.2909121E+02  0.5402006E+01  0.0000000E+00
Ar  607  0.8072627E+01  0.2650103E+02  0.8092540E+01  0.0000000E+00
Ar  608  0.5263445E+01  0.2900930E+02  0.7874198E+01  0.0000000E+00
Ar  609  0.5365751E+01  0.2652265E+02  0.1054252E+02  0.0000000E+00
Ar  610  0.7875719E+01  0.2894185E+02  0.1053549E+02  0.0000000E+00
Ar  611  0.8031767E+01  0.2652989E+02  0.1325882E+02  0.0000000E+00
Ar  612  0.5302828E+01  0.2895829E+02  0.1321085E+02  0.0000000E+00
Ar  613  0.5410638E+01  0.2641683E+02  0.1596543E+02  0.0000000E+00
Ar  614  0.7941217E+01  0.2893450E+02  0.1590539E+02  0.0000000E+00
Ar  615  0.7888844E+01  0.2613675E+02  0.1835896E+02  0.0000000E+00
Ar  616  0.5289570E+01  0.2898949E+02  0.1841778E+02  0.0000000E+00
Ar  617  0.5340592E+01  0.2641822E+02  0.2101338E+02  0.0000000E+00
Ar  618  0.7929127E+01  0.2887609E+02  0.2104372E+02  0.0000000E+00
Ar  619  0.7925940E+01  0.2642616E+02  0.2379157E+02  0.0000000E+00
Ar  620  0.5328936E+01  0.2898244E+02  0.2375903E+02  0.0000000E+00
Ar  621  0.5425482E+01  0.2653804E+02  0.2659334E+02  0.0000000E+00
Ar  622  0.7934633E+01  0.2902308E+02  0.2638111E+02  0.0000000E+00
Ar  623  0.8041780E+01  0.2645388E+02  0.2910870E+02  0.0000000E+00
Ar  624  0.5401044E+01  0.2915605E+02  0.2913618E+02  0.0000000E+00
Ar  625  0.5034103E+01  0.2611798E+02  0.3138671E+02  0.0000000E+00
Ar  626  0.7815246E+01  0.2882160E+02  0.3149957E+02  0.0000000E+00
Ar  627  0.7851992E+01  0.2625289E+02  0.3405516E+02  0.0000000E+00
Ar  628  0.5458686E+01  0.2898575E+02  0.3422648E+02  0.0000000E+00
Ar  629  0.5390296E+01  0.2645481E+02  0.3683935E+02  0.0000000E+00
Ar  630  0.8083218E+01  0.2891968E+02  0.3690853E+02  0.0000000E+00
Ar  631  0.7852022E+01  0.2611200E+02  0.3928076E+02  0.0000000E+00
Ar  632  0.5313170E+01  0.2886633E+02  0.3954892E+02  0.0000000E+00
Ar  633  0.5318782E+01  0.2648328E+02  0.4225918E+02  0.0000000E+00
Ar  634  0.7999254E+01  0.2889802E+02  0.4212253E+02  0.0000000E+00
Ar  635  0.7915349E+01  0.2640636E+02  0.4484711E+02  0.0000000E+00
Ar  636  0.5400622E+01  0.2900443E+02  0.4501359E+02  0.0000000E+00
Ar  637  0.5544966E+01  0.2636596E+02  0.4758101E+02  0.0000000E+00
Ar  638  0.8036906E+01  0.2901633E+02  0.4754638E+02  0.0000000E+00
Ar  639  0.8043162E+01  0.2637354E+02  0.5014846E+02  0.0000000E+00
Ar  640  0.5134703E+01  0.2890969E+02  0.4980851E+02  0.0000000E+00
Ar  641  0.5263547E+01  0.3151972E+02  0.5245209E+02  0.0000000E+00
Ar  642  0.7628489E+01  0.3400635E+02  0.5234323E+02  0.0000000E+00
Ar  643  0.7819634E+01  0.3152280E+02  0.2575396E+01  0.0000000E+00
Ar  644  0.5132888E+01  0.3395360E+02  0.2411295E+01  0.0000000E+00
Ar  645  0.5205929E+01  0.3155317E+02  0.5147421E+01  0.0000000E+00
Ar  646  0.8092747E+01  0.3415404E+02  0.5334287E+01  0.0000000E+00
Ar  647  0.8044326E+01  0.3170323E+02  0.7978647E+01  0.0000000E+00
Ar  648  0.5008762E+01  0.3390636E+02  0.7757919E+01  0.0000000E+00
Ar  649  0.5196121E+01  0.3154093E+02  0.1057315E+02  0.0000000E+00
Ar  650  0.7873648E+01  0.3423692E+02  0.1065387E+02  0.0000000E+00
Ar  651  0.7703912E+01  0.3148148E+02  0.1307347E+02  0.0000000E+00
Ar  652  0.5126304E+01  0.3418842E+02  0.1304847E+02  0.0000000E+00
Ar  653  0.5348693E+01  0.3167811E+02  0.1589998E+02  0.0000000E+00
Ar  654  0.8057610E+01  0.3421542E+02  0.1596590E+02  0.0000000E+00
Ar  655  0.8256489E+01  0.3178740E+02  0.1873317E+02  0.0000000E+00
Ar  656  0.5436062E+01  0.3426706E+02  0.1855646E+02  0.0000000E+00
Ar  657  0.5433491E+01  0.3166873E+02  0.2122036E+02  0.0000000E+00
Ar  658  0.8008930E+01  0.3434396E+02  0.2125909E+02  0.0000000E+00
Ar  659  0.8052173E+01  0.3159529E+02  0.2377683E+02  0.0000000E+00
Ar  660  0.5345736E+01  0.3415816E+02  0.2374197E+02  0.0000000E+00
Ar  661  0.5353216E+01  0.3159538E+02  0.2637356E+02  0.0000000E+00
Ar  662  0.7965870E+01  0.3418509E+02  0.2632646E+02  0.0000000E+00
Ar  663  0.8019148E+01  0.3159092E+02  0.2897349E+02  0.0000000E+00
Ar  664  0.5338887E+01  0.3423561E+02  0.2889955E+02  0.0000000E+00
Ar  665  0.5496444E+01  0.3174150E+02  0.3178514E+02  0.0000000E+00
Ar  666  0.7869447E+01  0.3412504E+02  0.3137560E+02  0.0000000E+00
Ar  667  0.8240555E+01  0.3163705E+02  0.3434513E+02  0.0000000E+00
Ar  668  0.5622895E+01  0.3443201E+02  0.3432267E+02  0.0000000E+00
Ar  669  0.5427695E+01  0.3151844E+02  0.3676583E+02  0.0000000E+00
Ar  670  0.7946206E+01  0.3407481E+02  0.3681266E+02  0.0000000E+00
Ar  671  0.7903920E+01  0.3140811E+02  0.3944021E+02  0.0000000E+00
Ar  672  0.5567689E+01  0.3423941E+02  0.3950862E+02  0.0000000E+00
Ar  673  0.5446497E+01  0.3161584E+02  0.4211671E+02  0.0000000E+00
Ar  674  0.8116274E+01  0.3431213E+02  0.4222458E+02  0.0000000E+00
Ar  675  0.7920051E+01  0.3151177E+02  0.4476405E+02  0.0000000E+00
Ar  676  0.5553324E+01  0.3443241E+02  0.4495297E+02  0.0000000E+00
Ar  677  0.5470371E+01  0.3168121E+02  0.4750573E+02  0.0000000E+00
Ar  678  0.8183578E+01  0.3439034E+02  0.4754115E+02  0.0000000E+00
Ar  679  0.8030561E+01  0.3155241E+02  0.5000085E+02  0.0000000E+00
Ar  680  0.5261329E+01  0.3427809E+02  0.4991458E+02  0.0000000E+00
Ar  681  0.5326975E+01  0.3688706E+02  0.1261877E+00  0.0000000E+00
Ar  682  0.7736949E+01  0.3940196E+02  0.5251995E+02  0.0000000E+00
Ar  683  0.7859770E+01  0.3673919E+02  0.2695542E+01  0.0000000E+00
Ar  684  0.5161325E+01  0.3926643E+02  0.2536238E+01  0.0000000E+00
Ar  685  0.5178950E+01  0.3658577E+02  0.5189369E+01  0.0000000E+00
Ar  686  0.7845924E+01  0.3938883E+02  0.5344839E+01  0.0000000E+00
Ar  687  0.7604343E+01  0.3642032E+02  0.7750696E+01  0.0000000E+00
Ar  688  0.5320081E+01  0.3944411E+02  0.7977138E+01  0.0000000E+00
Ar  689  0.5134666E+01  0.3664037E+02  0.1045125E+02  0.0000000E+00
Ar  690  0.7740193E+01  0.3914005E+02  0.1035812E+02  0.0000000E+00
Ar  691  0.7972263E+01  0.3685230E+02  0.1330192E+02  0.0000000E+00
Ar  692  0.5048621E+01  0.3914456E+02  0.1294739E+02  0.0000000E+00
Ar  693  0.5223517E+01  0.3669709E+02  0.1569710E+02  0.0000000E+00
Ar  694  0.7971431E+01  0.3959267E+02  0.1586250E+02  0.0000000E+00
Ar  695  0.7911630E+01  0.3688238E+02  0.1853938E+02  0.0000000E+00
Ar  696  0.5336214E+01  0.3950911E+02  0.1844411E+02  0.0000000E+00
Ar  697  0.5312007E+01  0.3686715E+02  0.2107323E+02  0.0000000E+00
Ar  698  0.7957744E+01  0.3964496E+02  0.2131457E+02  0.0000000E+00
Ar  699  0.7886956E+01  0.3681966E+02  0.2372057E+02  0.0000000E+00
Ar  700  0.5275462E+01  0.3950315E+02  0.2376936E+02  0.0000000E+00
Ar  701  0.5280165E+01  0.3678375E+02  0.2626340E+02  0.0000000E+00
Ar  702  0.8043145E+01  0.3956057E+02  0.2642145E+02  0.0000000E+00
Ar  703  0.8211301E+01  0.3718695E+02  0.2916920E+02  0.0000000E+00
Ar  704  0.5242391E+01  0.3937414E+02  0.2884488E+02  0.0000000E+00
Ar  705  0.5581831E+01  0.3707813E+02  0.3164941E+02  0.0000000E+00
Ar  706  0.8294054E+01  0.3981636E+02  0.3178891E+02  0.0000000E+00
Ar  707  0.8155731E+01  0.3700343E+02  0.3428735E+02  0.0000000E+00
Ar  708  0.5422403E+01  0.3950994E+02  0.3417272E+02  0.0000000E+00
Ar  709  0.5636377E+01  0.3704491E+02  0.3704710E+02  0.0000000E+00
Ar  710  0.8179987E+01  0.3962376E+02  0.3697086E+02  0.0000000E+00
Ar  711  0.8307969E+01  0.3707038E+02  0.3969076E+02  0.0000000E+00
Ar  712  0.5318942E+01  0.3961171E+02  0.3956209E+02  0.0000000E+00
Ar  713  0.5228845E+01  0.3668281E+02  0.4199545E+02  0.0000000E+00
Ar  714  0.7848470E+01  0.3935055E+02  0.4204717E+02  0.0000000E+00
Ar  715  0.8013982E+01  0.3694811E+02  0.4479454E+02  0.0000000E+00
Ar  716  0.5325256E+01  0.3953370E+02  0.4472655E+02  0.0000000E+00
Ar  717  0.5468901E+01  0.3703538E+02  0.4744475E+02  0.0000000E+00
Ar  718  0.8081445E+01  0.3966725E+02  0.4745646E+02  0.0000000E+00
Ar  719  0.8063021E+01  0.3688289E+02  0.5004155E+02  0.0000000E+00
Ar  720  0.5219625E+01  0.3960772E+02  0.4993883E+02  0.0000000E+00
Ar  721  0.5351598E+01  0.4215861E+02  0.1701332E+00  0.0000000E+00
Ar  722  0.7787087E+01  0.4468084E+02  0.5249131E+02  0.0000000E+00
Ar  723  0.7950311E+01  0.4223121E+02  0.2867737E+01  0.0000000E+00
Ar  724  0.5544601E+01  0.4493212E+02  0.2905284E+01  0.0000000E+00
Ar  725  0.5658511E+01  0.4236599E+02  0.5716194E+01  0.0000000E+00
Ar  726  0.8106470E+01  0.4481112E+02  0.5375761E+01  0.0000000E+00
Ar  727  0.8228217E+01  0.4231940E+02  0.8272602E+01  0.0000000E+00
Ar  728  0.5528734E+01  0.4489991E+02  0.8192195E+01  0.0000000E+00
Ar  729  0.5364419E+01  0.4198270E+02  0.1051734E+02  0.0000000E+00
Ar  730  0.8104263E+01  0.4495603E+02  0.1070374E+02  0.0000000E+00
Ar  731  0.8030341E+01  0.4226551E+02  0.1339901E+02  0.0000000E+00
Ar  732  0.5075574E+01  0.4466387E+02  0.1295621E+02  0.0000000E+00
Ar  733  0.5336288E+01  0.4217637E+02  0.1585449E+02  0.0000000E+00
Ar  734  0.7866875E+01  0.4480758E+02  0.1582010E+02  0.0000000E+00
Ar  735  0.7897827E+01  0.4219941E+02  0.1850015E+02  0.0000000E+00
Ar  736  0.5237850E+01  0.4478265E+02  0.1850784E+02  0.0000000E+00
Ar  737  0.5442888E+01  0.4238833E+02  0.2138101E+02  0.0000000E+00
Ar  738  0.8011008E+01  0.4497003E+02  0.2122271E+02  0.0000000E+00
Ar  739  0.8031170E+01  0.4229318E+02  0.2391495E+02  0.0000000E+00
Ar  740  0.5279061E+01  0.4492082E+02  0.2382756E+02  0.0000000E+00
Ar  741  0.5228385E+01  0.4203142E+02  0.2633314E+02  0.0000000E+00
Ar  742  0.7946283E+01  0.4481602E+02  0.2646024E+02  0.0000000E+00
Ar  743  0.7970150E+01  0.4200189E+02  0.2879717E+02  0.0000000E+00
Ar  744  0.5208785E+01  0.4483353E+02  0.2894456E+02  0.0000000E+00
Ar  745  0.5481466E+01  0.4224478E+02  0.3179535E+02  0.0000000E+00
Ar  746  0.7812064E+01  0.4469046E+02  0.3133117E+02  0.0000000E+00
Ar  747  0.8013145E+01  0.4222042E+02  0.3430020E+02  0.0000000E+00
Ar  748  0.5166455E+01  0.4467178E+02  0.3421303E+02  0.0000000E+00
Ar  749  0.5342309E+01  0.4221023E+02  0.3693590E+02  0.0000000E+00
Ar  750  0.8111506E+01  0.4482960E+02  0.3691465E+02  0.0000000E+00
Ar  751  0.7868021E+01  0.4204463E+02  0.3938190E+02  0.0000000E+00
Ar  752  0.5367943E+01  0.4480345E+02  0.3961942E+02  0.0000000E+00
Ar  753  0.5196529E+01  0.4207430E+02  0.4207316E+02  0.0000000E+00
Ar  754  0.8075667E+01  0.4476175E+02  0.4218374E+02  0.0000000E+00
Ar  755  0.7858022E+01  0.4191492E+02  0.4457163E+02  0.0000000E+00
Ar  756  0.5380705E+01  0.4484331E+02  0.4485173E+02  0.0000000E+00
Ar  757  0.5173018E+01  0.4201272E+02  0.4716338E+02  0.0000000E+00
Ar  758  0.7844641E+01  0.4464564E+02  0.4731996E+02  0.0000000E+00
Ar  759  0.7881950E+01  0.4209614E+02  0.4998967E+02  0.0000000E+00
Ar  760  0.5109998E+01  0.4456105E+02  0.4989870E+02  0.0000000E+00
Ar  761  0.5217682E+01  0.4729823E+02  0.5258060E+02  0.0000000E+00
Ar  762  0.7942293E+01  0.5008462E+02  0.2994416E-01  0.0000000E+00
Ar  763  0.8075641E+01  0.4748482E+02  0.2714036E+01  0.0000000E+00
Ar  764  0.5654864E+01  0.5023401E+02  0.2857074E+01  0.0000000E+00
Ar  765  0.5572509E+01  0.4753094E+02  0.5434146E+01  0.0000000E+00
Ar  766  0.8146142E+01  0.5021210E+02  0.5511346E+01  0.0000000E+00
Ar  767  0.7983131E+01  0.4727418E+02  0.7841147E+01  0.0000000E+00
Ar  768  0.5170502E+01  0.4992417E+02  0.7887518E+01  0.0000000E+00
Ar  769  0.5263010E+01  0.4749183E+02  0.1066884E+02  0.0000000E+00
Ar  770  0.7869765E+01  0.5001498E+02  0.1052395E+02  0.0000000E+00
Ar  771  0.8002534E+01  0.4756587E+02  0.1336908E+02  0.0000000E+00
Ar  772  0.5342190E+01  0.5007646E+02  0.1331167E+02  0.0000000E+00
Ar  773  0.5132630E+01  0.4719537E+02  0.1567061E+02  0.0000000E+00
Ar  774  0.7933452E+01  0.5003697E+02  0.1594513E+02  0.0000000E+00
Ar  775  0.7750235E+01  0.4718874E+02  0.1826115E+02  0.0000000E+00
Ar  776  0.5197862E+01  0.4988032E+02  0.1836509E+02  0.0000000E+00
Ar  777  0.5204601E+01  0.4733788E+02  0.2104737E+02  0.0000000E+00
Ar  778  0.7916640E+01  0.5013361E+02  0.2108857E+02  0.0000000E+00
Ar  779  0.8013868E+01  0.4758645E+02  0.2377600E+02  0.0000000E+00
Ar  780  0.5220703E+01  0.5004573E+02  0.2364346E+02  0.0000000E+00
Ar  781  0.5261783E+01  0.4751136E+02  0.2637384E+02  0.0000000E+00
Ar  782  0.7961875E+01  0.5025085E+02  0.2644779E+02  0.0000000E+00
Ar  783  0.7983668E+01  0.4758393E+02  0.2911472E+02  0.0000000E+00
Ar  784  0.5241918E+01  0.5007922E+02  0.2909626E+02  0.0000000E+00
Ar  785  0.5377875E+01  0.4746327E+02  0.3162601E+02  0.0000000E+00
Ar  786  0.8109324E+01  0.5022273E+02  0.3173249E+02  0.0000000E+00
Ar  787  0.7977545E+01  0.4736270E+02  0.3422583E+02  0.0000000E+00
Ar  788  0.5479271E+01  0.5015299E+02  0.3432928E+02  0.0000000E+00
Ar  789  0.5335315E+01  0.4739657E+02  0.3689380E+02  0.0000000E+00
Ar  790  0.8162455E+01  0.5009358E+02  0.3694334E+02  0.0000000E+00
Ar  791  0.7940761E+01  0.4736067E+02  0.3954564E+02  0.0000000E+00
Ar  792  0.5402129E+01  0.5006704E+02  0.3969132E+02  0.0000000E+00
Ar  793  0.5421305E+01  0.4749909E+02  0.4227624E+02  0.0000000E+00
Ar  794  0.8009402E+01  0.5009708E+02  0.4217962E+02  0.0000000E+00
Ar  795  0.7893996E+01  0.4738128E+02  0.4467503E+02  0.0000000E+00
Ar  796  0.5360533E+01  0.5005138E+02  0.4473123E+02  0.0000000E+00
Ar  797  0.5387905E+01  0.4740069E+02  0.4740563E+02  0.0000000E+00
Ar  798  0.8178584E+01  0.5021505E+02  0.4757128E+02  0.0000000E+00
Ar  799  0.7908702E+01  0.4732083E+02  0.4998466E+02  0.0000000E+00
Ar  800  0.5459685E+01  0.5015045E+02  0.5012042E+02  0.0000000E+00
Ar  801  0.1061201E+02  0.1022193E+00  0.6791703E-01  0.0000000E+00
Ar  802  0.1340255E+02  0.2850049E+01  0.1830584E+00  0.0000000E+00
Ar  803  0.1320928E+02  0.5262435E+02  0.2619529E+01  0.0000000E+00
Ar  804  0.1057325E+02  0.2562848E+01  0.2504628E+01  0.0000000E+00
Ar  805  0.1079767E+02  0.1303945E+00  0.5462754E+01  0.0000000E+00
Ar  806  0.1332241E+02  0.2650327E+01  0.5238661E+01  0.0000000E+00
Ar  807  0.1330071E+02  0.5106294E-01  0.8030661E+01  0.0000000E+00
Ar  808  0.1050626E+02  0.2563869E+01  0.7965787E+01  0.0000000E+00
Ar  809  0.1050083E+02  0.5237200E+02  0.1049949E+02  0.0000000E+00
Ar  810  0.1312803E+02  0.2603530E+01  0.1065966E+02  0.0000000E+00
Ar  811  0.1337571E+02  0.5263027E+02  0.1341743E+02  0.0000000E+00
Ar  812  0.1055646E+02  0.2591210E+01  0.1319286E+02  0.0000000E+00
Ar  813  0.1046284E+02  0.5248619E+02  0.1576610E+02  0.0000000E+00
Ar  814  0.1310985E+02  0.2675416E+01  0.1578416E+02  0.0000000E+00
Ar  815  0.1309757E+02  0.7779450E-01  0.1847134E+02  0.0000000E+00
Ar  816  0.1043508E+02  0.2547150E+01  0.1828122E+02  0.0000000E+00
Ar  817  0.1060797E+02  0.8512342E-01  0.2110482E+02  0.0000000E+00
Ar  818  0.1339144E+02  0.2875510E+01  0.2116002E+02  0.0000000E+00
Ar  819  0.1328182E+02  0.2220687E+00  0.2380811E+02  0.0000000E+00
Ar  820  0.1040499E+02  0.2655856E+01  0.2362587E+02  0.0000000E+00
Ar  821  0.1050948E+02  0.6957181E-01  0.2624805E+02  0.0000000E+00
Ar  822  0.1314318E+02  0.2604821E+01  0.2625390E+02  0.0000000E+00
Ar  823  0.1302587E+02  0.5250665E+02  0.2883855E+02  0.0000000E+00
Ar  824  0.1080297E+02  0.2677949E+01  0.2903664E+02  0.0000000E+00
Ar  825  0.1084842E+02  0.2581451E+00  0.3182501E+02  0.0000000E+00
Ar  826  0.1342521E+02  0.2771532E+01  0.3168621E+02  0.0000000E+00
Ar  827  0.1329364E+02  0.7919851E-01  0.3435678E+02  0.0000000E+00
Ar  828  0.1080234E+02  0.2806102E+01  0.3434098E+02  0.0000000E+00
Ar  829  0.1087740E+02  0.2028009E+00  0.3714375E+02  0.0000000E+00
Ar  830  0.1324808E+02  0.2655129E+01  0.3689353E+02  0.0000000E+00
Ar  831  0.1347635E+02  0.2222419E+00  0.3974599E+02  0.0000000E+00
Ar  832  0.1043938E+02  0.2630080E+01  0.3947998E+02  0.0000000E+00
Ar  833  0.1062859E+02  0.5262654E+02  0.4208787E+02  0.0000000E+00
Ar  834  0.1332612E+02  0.2778650E+01  0.4217882E+02  0.0000000E+00
Ar  835  0.1331943E+02  0.1586148E+00  0.4486762E+02  0.0000000E+00
Ar  836  0.1050469E+02  0.2621106E+01  0.4470680E+02  0.0000000E+00
Ar  837  0.1070907E+02  0.2103911E+00  0.4751855E+02  0.0000000E+00
Ar  838  0.1331415E+02  0.2761192E+01  0.4754451E+02  0.0000000E+00
Ar  839  0.1357463E+02  0.3867499E+00  0.5035840E+02  0.0000000E+00
Ar  840  0.1092273E+02  0.2959843E+01  0.5031808E+02  0.0000000E+00
Ar  841  0.1048302E+02  0.5365786E+01  0.3870870E-01  0.0000000E+00
Ar  842  0.1326858E+02  0.8061273E+01  0.9561084E-01  0.0000000E+00
Ar  843  0.1333781E+02  0.5447624E+01  0.2764454E+01  0.0000000E+00
Ar  844  0.1063974E+02  0.8033487E+01  0.2740432E+01  0.0000000E+00
Ar  845  0.1053029E+02  0.5217779E+01  0.5100875E+01  0.0000000E+00
Ar  846  0.1330258E+02  0.8066287E+01  0.5397370E+01  0.0000000E+00
Ar  847  0.1299850E+02  0.5114977E+01  0.7769095E+01  0.0000000E+00
Ar  848  0.1049440E+02  0.7810864E+01  0.7797966E+01  0.0000000E+00
Ar  849  0.1066010E+02  0.5380436E+01  0.1074088E+02  0.0000000E+00
Ar  850  0.1318747E+02  0.7928157E+01  0.1052470E+02  0.0000000E+00
Ar  851  0.1322326E+02  0.5265002E+01  0.1318245E+02  0.0000000E+00
Ar  852  0.1080778E+02  0.8107550E+01  0.1332748E+02  0.0000000E+00
Ar  853  0.1054660E+02  0.5208553E+01  0.1568127E+02  0.0000000E+00
Ar  854  0.1325006E+02  0.7999225E+01  0.1580579E+02  0.0000000E+00
Ar  855  0.1321688E+02  0.5377013E+01  0.1852640E+02  0.0000000E+00
Ar  856  0.1051005E+02  0.7850537E+01  0.1833569E+02  0.0000000E+00
Ar  857  0.1042913E+02  0.5311139E+01  0.2097419E+02  0.0000000E+00
Ar  858  0.1331381E+02  0.8135250E+01  0.2122514E+02  0.0000000E+00
Ar  859  0.1290926E+02  0.5182974E+01  0.2361458E+02  0.0000000E+00
Ar  860  0.1082765E+02  0.8171864E+01  0.2390128E+02  0.0000000E+00
Ar  861  0.1065487E+02  0.5211077E+01  0.2641260E+02  0.0000000E+00
Ar  862  0.1331440E+02  0.8032535E+01  0.2648770E+02  0.0000000E+00
Ar  863  0.1343743E+02  0.5332749E+01  0.2902181E+02  0.0000000E+00
Ar  864  0.1064862E+02  0.7975390E+01  0.2905871E+02  0.0000000E+00
Ar  865  0.1054634E+02  0.5196655E+01  0.3154344E+02  0.0000000E+00
Ar  866  0.1313628E+02  0.7759498E+01  0.3149860E+02  0.0000000E+00
Ar  867  0.1329188E+02  0.5307625E+01  0.3427875E+02  0.0000000E+00
Ar  868  0.1055545E+02  0.7829208E+01  0.3404858E+02  0.0000000E+00
Ar  869  0.1038075E+02  0.5129581E+01  0.3667418E+02  0.0000000E+00
Ar  870  0.1335860E+02  0.8064593E+01  0.3696131E+02  0.0000000E+00
Ar  871  0.1307253E+02  0.5243233E+01  0.3937427E+02  0.0000000E+00
Ar  872  0.1070821E+02  0.8164761E+01  0.3957565E+02  0.0000000E+00
Ar  873  0.1068129E+02  0.5321200E+01  0.4221639E+02  0.0000000E+00
Ar  874  0.1333560E+02  0.7923886E+01  0.4220298E+02  0.0000000E+00
Ar  875  0.1328794E+02  0.5235635E+01  0.4476058E+02  0.0000000E+00
Ar  876  0.1069334E+02  0.7910720E+01  0.4479414E+02  0.0000000E+00
Ar  877  0.1061824E+02  0.5311899E+01  0.4736307E+02  0.0000000E+00
Ar  878  0.1317688E+02  0.7888682E+01  0.4737706E+02  0.0000000E+00
Ar  879  0.1342559E+02  0.5467674E+01  0.5021017E+02  0.0000000E+00
Ar  880  0.1075921E+02  0.8087066E+01  0.5009944E+02  0.0000000E+00
Ar  881  0.1057504E+02  0.1061229E+02  0.5258536E+02  0.0000000E+00
Ar  882  0.1325446E+02  0.1323941E+02  0.5251169E+02  0.0000000E+00
Ar  883  0.1316723E+02  0.1062733E+02  0.2541634E+01  0.0000000E+00
Ar  884  0.1056737E+02  0.1312949E+02  0.2663627E+01  0.0000000E+00
Ar  885  0.1041527E+02  0.1049609E+02  0.5184070E+01  0.0000000E+00
Ar  886  0.1331391E+02  0.1337382E+02  0.5377583E+01  0.0000000E+00
Ar  887  0.1317848E+02  0.1057378E+02  0.7993241E+01  0.0000000E+00
Ar  888  0.1065536E+02  0.1324300E+02  0.8028679E+01  0.0000000E+00
Ar  889  0.1056991E+02  0.1044852E+02  0.1054189E+02  0.0000000E+00
Ar  890  0.1314445E+02  0.1307723E+02  0.1057363E+02  0.0000000E+00
Ar  891  0.1351282E+02  0.1089246E+02  0.1358047E+02  0.0000000E+00
Ar  892  0.1061982E+02  0.1317680E+02  0.1324379E+02  0.0000000E+00
Ar  893  0.1064317E+02  0.1058084E+02  0.1577756E+02  0.0000000E+00
Ar  894  0.1332535E+02  0.1340879E+02  0.1607814E+02  0.0000000E+00
Ar  895  0.1321787E+02  0.1062453E+02  0.1851281E+02  0.0000000E+00
Ar  896  0.1046634E+02  0.1305310E+02  0.1833459E+02  0.0000000E+00
Ar  897  0.1053555E+02  0.1051369E+02  0.2107436E+02  0.0000000E+00
Ar  898  0.1326159E+02  0.1327839E+02  0.2112477E+02  0.0000000E+00
Ar  899  0.1325665E+02  0.1072124E+02  0.2378300E+02  0.0000000E+00
Ar  900  0.1074785E+02  0.1336281E+02  0.2386326E+02  0.0000000E+00
Ar  901  0.1057966E+02  0.1062185E+02  0.2644609E+02  0.0000000E+00
Ar  902  0.1328433E+02  0.1326055E+02  0.2646465E+02  0.0000000E+00
Ar  903  0.1318022E+02  0.1054955E+02  0.2901485E+02  0.0000000E+00
Ar  904  0.1066298E+02  0.1328045E+02  0.2906026E+02  0.0000000E+00
Ar  905  0.1064206E+02  0.1069314E+02  0.3178765E+02  0.0000000E+00
Ar  906  0.1323003E+02  0.1318396E+02  0.3162869E+02  0.0000000E+00
Ar  907  0.1342068E+02  0.1059210E+02  0.3427757E+02  0.0000000E+00
Ar  908  0.1057943E+02  0.1332500E+02  0.3426912E+02  0.0000000E+00
Ar  909  0.1060497E+02  0.1050076E+02  0.3660990E+02  0.0000000E+00
Ar  910  0.1305924E+02  0.1311977E+02  0.3679252E+02  0.0000000E+00
Ar  911  0.1312137E+02  0.1049756E+02  0.3934700E+02  0.0000000E+00
Ar  912  0.1071849E+02  0.1325495E+02  0.3964565E+02  0.0000000E+00
Ar  913  0.1075104E+02  0.1071014E+02  0.4232843E+02  0.0000000E+00
Ar  914  0.1336996E+02  0.1327205E+02  0.4231954E+02  0.0000000E+00
Ar  915  0.1339772E+02  0.1068398E+02  0.4490753E+02  0.0000000E+00
Ar  916  0.1055069E+02  0.1322078E+02  0.4485420E+02  0.0000000E+00
Ar  917  0.1049537E+02  0.1047960E+02  0.4722198E+02  0.0000000E+00
Ar  918  0.1313579E+02  0.1317871E+02  0.4729815E+02  0.0000000E+00
Ar  919  0.1332102E+02  0.1067688E+02  0.4997443E+02  0.0000000E+00
Ar  920  0.1046855E+02  0.1298461E+02  0.4976244E+02  0.0000000E+00
Ar  921  0.1058854E+02  0.1575907E+02  0.5251329E+02  0.0000000E+00
Ar  922  0.1321394E+02  0.1859730E+02  0.1340213E+00  0.0000000E+00
Ar  923  0.1305773E+02  0.1579677E+02  0.2594089E+01  0.0000000E+00
Ar  924  0.1048969E+02  0.1833751E+02  0.2533331E+01  0.0000000E+00
Ar  925  0.1088641E+02  0.1617027E+02  0.5642229E+01  0.0000000E+00
Ar  926  0.1332889E+02  0.1862316E+02  0.5414872E+01  0.0000000E+00
Ar  927  0.1321749E+02  0.1584100E+02  0.8071273E+01  0.0000000E+00
Ar  928  0.1084434E+02  0.1871642E+02  0.8132987E+01  0.0000000E+00
Ar  929  0.1072481E+02  0.1608825E+02  0.1080873E+02  0.0000000E+00
Ar  930  0.1318676E+02  0.1840723E+02  0.1056873E+02  0.0000000E+00
Ar  931  0.1318595E+02  0.1570514E+02  0.1321958E+02  0.0000000E+00
Ar  932  0.1066934E+02  0.1852894E+02  0.1333392E+02  0.0000000E+00
Ar  933  0.1083383E+02  0.1604715E+02  0.1604169E+02  0.0000000E+00
Ar  934  0.1340302E+02  0.1859249E+02  0.1602828E+02  0.0000000E+00
Ar  935  0.1348152E+02  0.1612508E+02  0.1878149E+02  0.0000000E+00
Ar  936  0.1076250E+02  0.1858317E+02  0.1874623E+02  0.0000000E+00
Ar  937  0.1041557E+02  0.1558804E+02  0.2082336E+02  0.0000000E+00
Ar  938  0.1329172E+02  0.1864854E+02  0.2126763E+02  0.0000000E+00
Ar  939  0.1332841E+02  0.1594597E+02  0.2363238E+02  0.0000000E+00
Ar  940  0.1066987E+02  0.1846110E+02  0.2371600E+02  0.0000000E+00
Ar  941  0.1068191E+02  0.1587772E+02  0.2639698E+02  0.0000000E+00
Ar  942  0.1319404E+02  0.1845945E+02  0.2621577E+02  0.0000000E+00
Ar  943  0.1333939E+02  0.1602856E+02  0.2899621E+02  0.0000000E+00
Ar  944  0.1055749E+02  0.1844471E+02  0.2883717E+02  0.0000000E+00
Ar  945  0.1054657E+02  0.1587422E+02  0.3147331E+02  0.0000000E+00
Ar  946  0.1317526E+02  0.1853514E+02  0.3150048E+02  0.0000000E+00
Ar  947  0.1297021E+02  0.1566744E+02  0.3401930E+02  0.0000000E+00
Ar  948  0.1069340E+02  0.1859669E+02  0.3430284E+02  0.0000000E+00
Ar  949  0.1072021E+02  0.1606187E+02  0.3705141E+02  0.0000000E+00
Ar  950  0.1319084E+02  0.1846009E+02  0.3686807E+02  0.0000000E+00
Ar  951  0.1317113E+02  0.1573759E+02  0.3950221E+02  0.0000000E+00
Ar  952  0.1041914E+02  0.1850945E+02  0.3948983E+02  0.0000000E+00
Ar  953  0.1041751E+02  0.1570438E+02  0.4198069E+02  0.0000000E+00
Ar  954  0.1305696E+02  0.1837827E+02  0.4194112E+02  0.0000000E+00
Ar  955  0.1324122E+02  0.1589979E+02  0.4479074E+02  0.0000000E+00
Ar  956  0.1074471E+02  0.1850721E+02  0.4482192E+02  0.0000000E+00
Ar  957  0.1058942E+02  0.1580967E+02  0.4743589E+02  0.0000000E+00
Ar  958  0.1337996E+02  0.1854858E+02  0.4750713E+02  0.0000000E+00
Ar  959  0.1333660E+02  0.1600211E+02  0.5008408E+02  0.0000000E+00
Ar  960  0.1059862E+02  0.1848439E+02  0.5007629E+02  0.0000000E+00
Ar  961  0.1051316E+02  0.2112586E+02  0.8345168E-01  0.0000000E+00
Ar  962  0.1341262E+02  0.2391367E+02  0.3160125E+00  0.0000000E+00
Ar  963  0.1310795E+02  0.2099978E+02  0.2652000E+01  0.0000000E+00
Ar  964  0.1050133E+02  0.2373443E+02  0.2692581E+01  0.0000000E+00
Ar  965  0.1047267E+02  0.2090303E+02  0.5190242E+01  0.0000000E+00
Ar  966  0.1325585E+02  0.2373848E+02  0.5466539E+01  0.0000000E+00
Ar  967  0.1327425E+02  0.2129801E+02  0.8119966E+01  0.0000000E+00
Ar  968  0.1064015E+02  0.2377338E+02  0.7954985E+01  0.0000000E+00
Ar  969  0.1048017E+02  0.2098274E+02  0.1059475E+02  0.0000000E+00
Ar  970  0.1329050E+02  0.2384104E+02  0.1069041E+02  0.0000000E+00
Ar  971  0.1321997E+02  0.2109824E+02  0.1318944E+02  0.0000000E+00
Ar  972  0.1060023E+02  0.2372057E+02  0.1316708E+02  0.0000000E+00
Ar  973  0.1057359E+02  0.2112635E+02  0.1576535E+02  0.0000000E+00
Ar  974  0.1327746E+02  0.2372159E+02  0.1578470E+02  0.0000000E+00
Ar  975  0.1312605E+02  0.2105828E+02  0.1846062E+02  0.0000000E+00
Ar  976  0.1072979E+02  0.2384546E+02  0.1870519E+02  0.0000000E+00
Ar  977  0.1076548E+02  0.2128355E+02  0.2131166E+02  0.0000000E+00
Ar  978  0.1343494E+02  0.2391949E+02  0.2138104E+02  0.0000000E+00
Ar  979  0.1352383E+02  0.2143319E+02  0.2402244E+02  0.0000000E+00
Ar  980  0.1083062E+02  0.2392819E+02  0.2395124E+02  0.0000000E+00
Ar  981  0.1053376E+02  0.2102744E+02  0.2620742E+02  0.0000000E+00
Ar  982  0.1334725E+02  0.2390297E+02  0.2647288E+02  0.0000000E+00
Ar  983  0.1328395E+02  0.2117543E+02  0.2891927E+02  0.0000000E+00
Ar  984  0.1084436E+02  0.2388064E+02  0.2907071E+02  0.0000000E+00
Ar  985  0.1050113E+02  0.2100926E+02  0.3131160E+02  0.0000000E+00
Ar  986  0.1336588E+02  0.2395959E+02  0.3179408E+02  0.0000000E+00
Ar  987  0.1313529E+02  0.2108471E+02  0.3421359E+02  0.0000000E+00
Ar  988  0.1054721E+02  0.2363424E+02  0.3413342E+02  0.0000000E+00
Ar  989  0.1054985E+02  0.2121668E+02  0.3690925E+02  0.0000000E+00
Ar  990  0.1356472E+02  0.2391676E+02  0.3710956E+02  0.0000000E+00
Ar  991  0.1316236E+02  0.2105951E+02  0.3938248E+02  0.0000000E+00
Ar  992  0.1067125E+02  0.2383445E+02  0.3945155E+02  0.0000000E+00
Ar  993  0.1058521E+02  0.2120558E+02  0.4208401E+02  0.0000000E+00
Ar  994  0.1322235E+02  0.2371640E+02  0.4206224E+02  0.0000000E+00
Ar  995  0.1332513E+02  0.2115572E+02  0.4486162E+02  0.0000000E+00
Ar  996  0.1063900E+02  0.2377721E+02  0.4475589E+02  0.0000000E+00
Ar  997  0.1041260E+02  0.2105101E+02  0.4726340E+02  0.0000000E+00
Ar  998  0.1301759E+02  0.2355993E+02  0.4732870E+02  0.0000000E+00
Ar  999  0.1305504E+02  0.2100186E+02  0.4996810E+02  0.0000000E+00
Ar 1000  0.1079458E+02  0.2392175E+02  0.5031114E+02  0.0000000E+00
Ar 1001  0.1063583E+02  0.2638542E+02  0.1352664E+00  0.0000000E+00
Ar 1002  0.1326241E+02  0.2890254E+02  0.5255820E+02  0.0000000E+00
Ar 1003  0.1328961E+02  0.2639334E+02  0.2711066E+01  0.0000000E+00
Ar 1004  0.1056350E+02  0.2898611E+02  0.2468472E+01  0.0000000E+00
Ar 1005  0.1034183E+02  0.2611176E+02  0.5149802E+01  0.0000000E+00
Ar 1006  0.1308962E+02  0.2887597E+02  0.5175517E+01  0.0000000E+00
Ar 1007  0.1326612E+02  0.2639401E+02  0.8029696E+01  0.0000000E+00
Ar 1008  0.1065895E+02  0.2906870E+02  0.8018501E+01  0.0000000E+00
Ar 1009  0.1063092E+02  0.2636537E+02  0.1060950E+02  0.0000000E+00
Ar 1010  0.1321636E+02  0.2898543E+02  0.1064808E+02  0.0000000E+00
Ar 1011  0.1334071E+02  0.2637841E+02  0.1331057E+02  0.0000000E+00
Ar 1012  0.1055087E+02  0.2893088E+02  0.1313945E+02  0.0000000E+00
Ar 1013  0.1047675E+02  0.2621183E+02  0.1571611E+02  0.0000000E+00
Ar 1014  0.1313511E+02  0.2885414E+02  0.1580796E+02  0.0000000E+00
Ar 1015  0.1333447E+02  0.2643123E+02  0.1855986E+02  0.0000000E+00
Ar 1016  0.1066374E+02  0.2891562E+02  0.1854459E+02  0.0000000E+00
Ar 1017  0.1084000E+02  0.2646690E+02  0.2136505E+02  0.0000000E+00
Ar 1018  0.1344674E+02  0.2908845E+02  0.2123863E+02  0.0000000E+00
Ar 1019  0.1366505E+02  0.2671124E+02  0.2402387E+02  0.0000000E+00
Ar 1020  0.1060636E+02  0.2897753E+02  0.2378036E+02  0.0000000E+00
Ar 1021  0.1063168E+02  0.2645781E+02  0.2642314E+02  0.0000000E+00
Ar 1022  0.1344151E+02  0.2910841E+02  0.2656237E+02  0.0000000E+00
Ar 1023  0.1327615E+02  0.2645320E+02  0.2902459E+02  0.0000000E+00
Ar 1024  0.1044082E+02  0.2880539E+02  0.2884561E+02  0.0000000E+00
Ar 1025  0.1064225E+02  0.2644967E+02  0.3173108E+02  0.0000000E+00
Ar 1026  0.1336349E+02  0.2895458E+02  0.3163893E+02  0.0000000E+00
Ar 1027  0.1348895E+02  0.2654685E+02  0.3449279E+02  0.0000000E+00
Ar 1028  0.1099818E+02  0.2913702E+02  0.3468086E+02  0.0000000E+00
Ar 1029  0.1048084E+02  0.2615115E+02  0.3666599E+02  0.0000000E+00
Ar 1030  0.1362705E+02  0.2919769E+02  0.3723053E+02  0.0000000E+00
Ar 1031  0.1336249E+02  0.2643164E+02  0.3956579E+02  0.0000000E+00
Ar 1032  0.1066084E+02  0.2887990E+02  0.3954050E+02  0.0000000E+00
Ar 1033  0.1078337E+02  0.2645325E+02  0.4226244E+02  0.0000000E+00
Ar 1034  0.1339222E+02  0.2900160E+02  0.4224811E+02  0.0000000E+00
Ar 1035  0.1349983E+02  0.2661366E+02  0.4501378E+02  0.0000000E+00
Ar 1036  0.1067079E+02  0.2898185E+02  0.4498285E+02  0.0000000E+00
Ar 1037  0.1048555E+02  0.2616259E+02  0.4733532E+02  0.0000000E+00
Ar 1038  0.1328525E+02  0.2902637E+02  0.4754410E+02  0.0000000E+00
Ar 1039  0.1320185E+02  0.2630076E+02  0.4995607E+02  0.0000000E+00
Ar 1040  0.1070080E+02  0.2891985E+02  0.5007280E+02  0.0000000E+00
Ar 1041  0.1066511E+02  0.3151968E+02  0.5255649E+02  0.0000000E+00
Ar 1042  0.1334667E+02  0.3438299E+02  0.2303793E+00  0.0000000E+00
Ar 1043  0.1323727E+02  0.3154567E+02  0.2487918E+01  0.0000000E+00
Ar 1044  0.1017270E+02  0.3392671E+02  0.2160566E+01  0.0000000E+00
Ar 1045  0.1046452E+02  0.3150017E+02  0.5163959E+01  0.0000000E+00
Ar 1046  0.1294147E+02  0.3408554E+02  0.4918207E+01  0.0000000E+00
Ar 1047  0.1316283E+02  0.3148218E+02  0.7799093E+01  0.0000000E+00
Ar 1048  0.1071019E+02  0.3421669E+02  0.7873415E+01  0.0000000E+00
Ar 1049  0.1060779E+02  0.3157792E+02  0.1057393E+02  0.0000000E+00
Ar 1050  0.1329099E+02  0.3412109E+02  0.1053224E+02  0.0000000E+00
Ar 1051  0.1343447E+02  0.3183043E+02  0.1347172E+02  0.0000000E+00
Ar 1052  0.1059306E+02  0.3418076E+02  0.1324206E+02  0.0000000E+00
Ar 1053  0.1057298E+02  0.3151770E+02  0.1581897E+02  0.0000000E+00
Ar 1054  0.1321779E+02  0.3434546E+02  0.1600925E+02  0.0000000E+00
Ar 1055  0.1327309E+02  0.3161945E+02  0.1859411E+02  0.0000000E+00
Ar 1056  0.1061564E+02  0.3426120E+02  0.1857640E+02  0.0000000E+00
Ar 1057  0.1062702E+02  0.3147807E+02  0.2115586E+02  0.0000000E+00
Ar 1058  0.1322059E+02  0.3421023E+02  0.2112361E+02  0.0000000E+00
Ar 1059  0.1329226E+02  0.3159520E+02  0.2374795E+02  0.0000000E+00
Ar 1060  0.1057911E+02  0.3424274E+02  0.2366822E+02  0.0000000E+00
Ar 1061  0.1059725E+02  0.3155194E+02  0.2631154E+02  0.0000000E+00
Ar 1062  0.1315701E+02  0.3418808E+02  0.2620156E+02  0.0000000E+00
Ar 1063  0.1296126E+02  0.3135737E+02  0.2887569E+02  0.0000000E+00
Ar 1064  0.1060252E+02  0.3417579E+02  0.2889215E+02  0.0000000E+00
Ar 1065  0.1054410E+02  0.3149910E+02  0.3151282E+02  0.0000000E+00
Ar 1066  0.1334803E+02  0.3433639E+02  0.3169085E+02  0.0000000E+00
Ar 1067  0.1324124E+02  0.3165877E+02  0.3416714E+02  0.0000000E+00
Ar 1068  0.1071784E+02  0.3424108E+02  0.3421392E+02  0.0000000E+00
Ar 1069  0.1072382E+02  0.3163473E+02  0.3693424E+02  0.0000000E+00
Ar 1070  0.1322980E+02  0.3425555E+02  0.3683946E+02  0.0000000E+00
Ar 1071  0.1329566E+02  0.3169225E+02  0.3971345E+02  0.0000000E+00
Ar 1072  0.1041522E+02  0.3403979E+02  0.3937234E+02  0.0000000E+00
Ar 1073  0.1069628E+02  0.3177686E+02  0.4233464E+02  0.0000000E+00
Ar 1074  0.1336913E+02  0.3439900E+02  0.4232748E+02  0.0000000E+00
Ar 1075  0.1309814E+02  0.3137960E+02  0.4481782E+02  0.0000000E+00
Ar 1076  0.1068712E+02  0.3440737E+02  0.4482390E+02  0.0000000E+00
Ar 1077  0.1069728E+02  0.3169557E+02  0.4758007E+02  0.0000000E+00
Ar 1078  0.1313950E+02  0.3415100E+02  0.4737875E+02  0.0000000E+00
Ar 1079  0.1319252E+02  0.3156136E+02  0.5007946E+02  0.0000000E+00
Ar 1080  0.1069785E+02  0.3427359E+02  0.5014778E+02  0.0000000E+00
Ar 1081  0.1085609E+02  0.3699859E+02  0.9886881E-01  0.0000000E+00
Ar 1082  0.1339304E+02  0.3955128E+02  0.5263137E+02  0.0000000E+00
Ar 1083  0.1344579E+02  0.3710402E+02  0.2805892E+01  0.0000000E+00
Ar 1084  0.1023989E+02  0.3947932E+02  0.2569554E+01  0.0000000E+00
Ar 1085  0.1046728E+02  0.3668278E+02  0.5024889E+01  0.0000000E+00
Ar 1086  0.1310142E+02  0.3948085E+02  0.5351310E+01  0.0000000E+00
Ar 1087  0.1335663E+02  0.3681742E+02  0.7941776E+01  0.0000000E+00
Ar 1088  0.1052143E+02  0.3933966E+02  0.7936427E+01  0.0000000E+00
Ar 1089  0.1059695E+02  0.3686117E+02  0.1075517E+02  0.0000000E+00
Ar 1090  0.1306562E+02  0.3936969E+02  0.1036018E+02  0.0000000E+00
Ar 1091  0.1329675E+02  0.3685638E+02  0.1318958E+02  0.0000000E+00
Ar 1092  0.1060346E+02  0.3968029E+02  0.1322605E+02  0.0000000E+00
Ar 1093  0.1061572E+02  0.3697495E+02  0.1583007E+02  0.0000000E+00
Ar 1094  0.1334109E+02  0.3966411E+02  0.1593714E+02  0.0000000E+00
Ar 1095  0.1318840E+02  0.3700212E+02  0.1847051E+02  0.0000000E+00
Ar 1096  0.1048987E+02  0.3952613E+02  0.1849108E+02  0.0000000E+00
Ar 1097  0.1042832E+02  0.3679270E+02  0.2100240E+02  0.0000000E+00
Ar 1098  0.1322727E+02  0.3950720E+02  0.2106922E+02  0.0000000E+00
Ar 1099  0.1338334E+02  0.3699342E+02  0.2378999E+02  0.0000000E+00
Ar 1100  0.1075762E+02  0.3971091E+02  0.2393965E+02  0.0000000E+00
Ar 1101  0.1063997E+02  0.3692157E+02  0.2639347E+02  0.0000000E+00
Ar 1102  0.1331842E+02  0.3949255E+02  0.2630160E+02  0.0000000E+00
Ar 1103  0.1317006E+02  0.3670467E+02  0.2876647E+02  0.0000000E+00
Ar 1104  0.1065623E+02  0.3957252E+02  0.2897826E+02  0.0000000E+00
Ar 1105  0.1063724E+02  0.3677114E+02  0.3158056E+02  0.0000000E+00
Ar 1106  0.1318668E+02  0.3942518E+02  0.3150971E+02  0.0000000E+00
Ar 1107  0.1338457E+02  0.3703831E+02  0.3433032E+02  0.0000000E+00
Ar 1108  0.1069900E+02  0.3951554E+02  0.3431609E+02  0.0000000E+00
Ar 1109  0.1039340E+02  0.3658654E+02  0.3665839E+02  0.0000000E+00
Ar 1110  0.1313233E+02  0.3953681E+02  0.3684123E+02  0.0000000E+00
Ar 1111  0.1302473E+02  0.3673874E+02  0.3934918E+02  0.0000000E+00
Ar 1112  0.1061085E+02  0.3951465E+02  0.3948432E+02  0.0000000E+00
Ar 1113  0.1063454E+02  0.3679652E+02  0.4210328E+02  0.0000000E+00
Ar 1114  0.1313926E+02  0.3937955E+02  0.4205286E+02  0.0000000E+00
Ar 1115  0.1332965E+02  0.3700450E+02  0.4492133E+02  0.0000000E+00
Ar 1116  0.1061668E+02  0.3950574E+02  0.4472974E+02  0.0000000E+00
Ar 1117  0.1066057E+02  0.3695577E+02  0.4739571E+02  0.0000000E+00
Ar 1118  0.1318272E+02  0.3949053E+02  0.4738316E+02  0.0000000E+00
Ar 1119  0.1328973E+02  0.3692485E+02  0.5003389E+02  0.0000000E+00
Ar 1120  0.1063002E+02  0.3954747E+02  0.5005900E+02  0.0000000E+00
Ar 1121  0.1047811E+02  0.4198683E+02  0.5254980E+02  0.0000000E+00
Ar 1122  0.1316965E+02  0.4464692E+02  0.5255152E+02  0.0000000E+00
Ar 1123  0.1283113E+02  0.4178877E+02  0.2486824E+01  0.0000000E+00
Ar 1124  0.1049148E+02  0.4466919E+02  0.2513720E+01  0.0000000E+00
Ar 1125  0.1046144E+02  0.4189938E+02  0.5222570E+01  0.0000000E+00
Ar 1126  0.1307605E+02  0.4453339E+02  0.5121988E+01  0.0000000E+00
Ar 1127  0.1337229E+02  0.4225652E+02  0.8052231E+01  0.0000000E+00
Ar 1128  0.1070809E+02  0.4477765E+02  0.8021416E+01  0.0000000E+00
Ar 1129  0.1066558E+02  0.4211713E+02  0.1056905E+02  0.0000000E+00
Ar 1130  0.1337859E+02  0.4494682E+02  0.1074513E+02  0.0000000E+00
Ar 1131  0.1319655E+02  0.4212682E+02  0.1310287E+02  0.0000000E+00
Ar 1132  0.1067673E+02  0.4475762E+02  0.1321317E+02  0.0000000E+00
Ar 1133  0.1078994E+02  0.4228360E+02  0.1610411E+02  0.0000000E+00
Ar 1134  0.1332133E+02  0.4491626E+02  0.1595360E+02  0.0000000E+00
Ar 1135  0.1351095E+02  0.4242289E+02  0.1881355E+02  0.0000000E+00
Ar 1136  0.1071789E+02  0.4492872E+02  0.1865734E+02  0.0000000E+00
Ar 1137  0.1066196E+02  0.4223874E+02  0.2122673E+02  0.0000000E+00
Ar 1138  0.1342054E+02  0.4493455E+02  0.2139245E+02  0.0000000E+00
Ar 1139  0.1345805E+02  0.4227784E+02  0.2383760E+02  0.0000000E+00
Ar 1140  0.1069193E+02  0.4499188E+02  0.2382260E+02  0.0000000E+00
Ar 1141  0.1060261E+02  0.4216133E+02  0.2628651E+02  0.0000000E+00
Ar 1142  0.1315921E+02  0.4471025E+02  0.2617099E+02  0.0000000E+00
Ar 1143  0.1323698E+02  0.4200113E+02  0.2873063E+02  0.0000000E+00
Ar 1144  0.1061957E+02  0.4484129E+02  0.2883328E+02  0.0000000E+00
Ar 1145  0.1071364E+02  0.4230721E+02  0.3162723E+02  0.0000000E+00
Ar 1146  0.1316079E+02  0.4467282E+02  0.3129704E+02  0.0000000E+00
Ar 1147  0.1315386E+02  0.4203871E+02  0.3411773E+02  0.0000000E+00
Ar 1148  0.1068302E+02  0.4486666E+02  0.3426878E+02  0.0000000E+00
Ar 1149  0.1072421E+02  0.4226278E+02  0.3701061E+02  0.0000000E+00
Ar 1150  0.1328796E+02  0.4490283E+02  0.3688737E+02  0.0000000E+00
Ar 1151  0.1363242E+02  0.4257417E+02  0.3991672E+02  0.0000000E+00
Ar 1152  0.1071747E+02  0.4485734E+02  0.3959710E+02  0.0000000E+00
Ar 1153  0.1093652E+02  0.4234277E+02  0.4234165E+02  0.0000000E+00
Ar 1154  0.1334627E+02  0.4503980E+02  0.4237397E+02  0.0000000E+00
Ar 1155  0.1326173E+02  0.4204947E+02  0.4484172E+02  0.0000000E+00
Ar 1156  0.1052966E+02  0.4479713E+02  0.4476720E+02  0.0000000E+00
Ar 1157  0.1060531E+02  0.4216777E+02  0.4737686E+02  0.0000000E+00
Ar 1158  0.1329593E+02  0.4484717E+02  0.4745495E+02  0.0000000E+00
Ar 1159  0.1318635E+02  0.4209990E+02  0.4999712E+02  0.0000000E+00
Ar 1160  0.1050202E+02  0.4467011E+02  0.4995011E+02  0.0000000E+00
Ar 1161  0.1057444E+02  0.4751696E+02  0.3335018E-01  0.0000000E+00
Ar 1162  0.1326159E+02  0.5009830E+02  0.5795263E-01  0.0000000E+00
Ar 1163  0.1295510E+02  0.4720031E+02  0.2498927E+01  0.0000000E+00
Ar 1164  0.1052029E+02  0.5007018E+02  0.2628433E+01  0.0000000E+00
Ar 1165  0.1068289E+02  0.4751963E+02  0.5347245E+01  0.0000000E+00
Ar 1166  0.1323214E+02  0.5002829E+02  0.5295651E+01  0.0000000E+00
Ar 1167  0.1321918E+02  0.4733700E+02  0.7920885E+01  0.0000000E+00
Ar 1168  0.1073483E+02  0.5005766E+02  0.8049599E+01  0.0000000E+00
Ar 1169  0.1077590E+02  0.4756261E+02  0.1075555E+02  0.0000000E+00
Ar 1170  0.1341110E+02  0.5011402E+02  0.1078194E+02  0.0000000E+00
Ar 1171  0.1326844E+02  0.4746565E+02  0.1333519E+02  0.0000000E+00
Ar 1172  0.1057595E+02  0.5000828E+02  0.1328811E+02  0.0000000E+00
Ar 1173  0.1053457E+02  0.4732437E+02  0.1576287E+02  0.0000000E+00
Ar 1174  0.1339627E+02  0.5017740E+02  0.1604504E+02  0.0000000E+00
Ar 1175  0.1325191E+02  0.4743139E+02  0.1854284E+02  0.0000000E+00
Ar 1176  0.1051822E+02  0.4991238E+02  0.1838663E+02  0.0000000E+00
Ar 1177  0.1049884E+02  0.4738323E+02  0.2099891E+02  0.0000000E+00
Ar 1178  0.1331498E+02  0.5011631E+02  0.2121145E+02  0.0000000E+00
Ar 1179  0.1323015E+02  0.4753208E+02  0.2383715E+02  0.0000000E+00
Ar 1180  0.1056678E+02  0.5014289E+02  0.2372740E+02  0.0000000E+00
Ar 1181  0.1062561E+02  0.4747691E+02  0.2634814E+02  0.0000000E+00
Ar 1182  0.1323734E+02  0.5009346E+02  0.2631125E+02  0.0000000E+00
Ar 1183  0.1339205E+02  0.4749996E+02  0.2897551E+02  0.0000000E+00
Ar 1184  0.1051071E+02  0.4997928E+02  0.2885601E+02  0.0000000E+00
Ar 1185  0.1063021E+02  0.4737337E+02  0.3171138E+02  0.0000000E+00
Ar 1186  0.1311567E+02  0.5003338E+02  0.3160347E+02  0.0000000E+00
Ar 1187  0.1328434E+02  0.4752024E+02  0.3426907E+02  0.0000000E+00
Ar 1188  0.1072953E+02  0.5014057E+02  0.3435456E+02  0.0000000E+00
Ar 1189  0.1067962E+02  0.4747889E+02  0.3695334E+02  0.0000000E+00
Ar 1190  0.1335717E+02  0.5020421E+02  0.3702435E+02  0.0000000E+00
Ar 1191  0.1343058E+02  0.4772634E+02  0.3971826E+02  0.0000000E+00
Ar 1192  0.1063855E+02  0.5008901E+02  0.3963312E+02  0.0000000E+00
Ar 1193  0.1067632E+02  0.4752279E+02  0.4224871E+02  0.0000000E+00
Ar 1194  0.1338650E+02  0.5022162E+02  0.4225811E+02  0.0000000E+00
Ar 1195  0.1334013E+02  0.4755195E+02  0.4495410E+02  0.0000000E+00
Ar 1196  0.1075691E+02  0.5019741E+02  0.4494065E+02  0.0000000E+00
Ar 1197  0.1038375E+02  0.4723327E+02  0.4718039E+02  0.0000000E+00
Ar 1198  0.1339247E+02  0.5029070E+02  0.4762682E+02  0.0000000E+00
Ar 1199  0.1306776E+02  0.4732466E+02  0.4989413E+02  0.0000000E+00
Ar 1200  0.1065917E+02  0.5015520E+02  0.5009269E+02  0.0000000E+00
Ar 1201  0.1598233E+02  0.1054828E+00  0.1364531E+00  0.0000000E+00
Ar 1202  0.1855649E+02  0.2647048E+01  0.6027635E-01  0.0000000E+00
Ar 1203  0.1856172E+02  0.2467729E-01  0.2765644E+01  0.0000000E+00
Ar 1204  0.1580780E+02  0.2625390E+01  0.2606257E+01  0.0000000E+00
Ar 1205  0.1585071E+02  0.5260947E+02  0.5301902E+01  0.0000000E+00
Ar 1206  0.1833081E+02  0.2626805E+01  0.5305541E+01  0.0000000E+00
Ar 1207  0.1841808E+02  0.5263870E+02  0.7886107E+01  0.0000000E+00
Ar 1208  0.1579663E+02  0.2570099E+01  0.7862391E+01  0.0000000E+00
Ar 1209  0.1597321E+02  0.6807992E-01  0.1069961E+02  0.0000000E+00
Ar 1210  0.1837695E+02  0.2612994E+01  0.1052983E+02  0.0000000E+00
Ar 1211  0.1852233E+02  0.1687761E+00  0.1326475E+02  0.0000000E+00
Ar 1212  0.1567808E+02  0.2485095E+01  0.1300321E+02  0.0000000E+00
Ar 1213  0.1591538E+02  0.2233014E+00  0.1593286E+02  0.0000000E+00
Ar 1214  0.1851236E+02  0.2748980E+01  0.1589877E+02  0.0000000E+00
Ar 1215  0.1831620E+02  0.5260619E+02  0.1837064E+02  0.0000000E+00
Ar 1216  0.1591288E+02  0.2935479E+01  0.1855844E+02  0.0000000E+00
Ar 1217  0.1569064E+02  0.5259610E+02  0.2093811E+02  0.0000000E+00
Ar 1218  0.1828020E+02  0.2598004E+01  0.2088913E+02  0.0000000E+00
Ar 1219  0.1838821E+02  0.3019067E-01  0.2361170E+02  0.0000000E+00
Ar 1220  0.1580652E+02  0.2616233E+01  0.2363711E+02  0.0000000E+00
Ar 1221  0.1591606E+02  0.1318501E+00  0.2632828E+02  0.0000000E+00
Ar 1222  0.1865961E+02  0.2835572E+01  0.2647236E+02  0.0000000E+00
Ar 1223  0.1854171E+02  0.6051649E-01  0.2900249E+02  0.0000000E+00
Ar 1224  0.1579929E+02  0.2537295E+01  0.2887972E+02  0.0000000E+00
Ar 1225  0.1590972E+02  0.4263456E-01  0.3166663E+02  0.0000000E+00
Ar 1226  0.1846779E+02  0.2641165E+01  0.3156321E+02  0.0000000E+00
Ar 1227  0.1864604E+02  0.2020191E+00  0.3436357E+02  0.0000000E+00
Ar 1228  0.1580986E+02  0.2563136E+01  0.3417690E+02  0.0000000E+00
Ar 1229  0.1591213E+02  0.1817947E+00  0.3695431E+02  0.0000000E+00
Ar 1230  0.1850122E+02  0.2777498E+01  0.3686984E+02  0.0000000E+00
Ar 1231  0.1844525E+02  0.3002916E+00  0.3951314E+02  0.0000000E+00
Ar 1232  0.1595060E+02  0.2933231E+01  0.3974965E+02  0.0000000E+00
Ar 1233  0.1604053E+02  0.2933586E+00  0.4227977E+02  0.0000000E+00
Ar 1234  0.1878426E+02  0.2909506E+01  0.4240654E+02  0.0000000E+00
Ar 1235  0.1842640E+02  0.5250990E+02  0.4474308E+02  0.0000000E+00
Ar 1236  0.1591693E+02  0.2647601E+01  0.4482460E+02  0.0000000E+00
Ar 1237  0.1601297E+02  0.2044161E+00  0.4757164E+02  0.0000000E+00
Ar 1238  0.1872421E+02  0.2877911E+01  0.4770405E+02  0.0000000E+00
Ar 1239  0.1854277E+02  0.1463380E+00  0.5010060E+02  0.0000000E+00
Ar 1240  0.1606519E+02  0.2863149E+01  0.5019533E+02  0.0000000E+00
Ar 1241  0.1600969E+02  0.5561778E+01  0.2153248E+00  0.0000000E+00
Ar 1242  0.1851551E+02  0.8114005E+01  0.1703971E+00  0.0000000E+00
Ar 1243  0.1837913E+02  0.5278506E+01  0.2678189E+01  0.0000000E+00
Ar 1244  0.1574886E+02  0.8086554E+01  0.2684290E+01  0.0000000E+00
Ar 1245  0.1587089E+02  0.5304684E+01  0.5427762E+01  0.0000000E+00
Ar 1246  0.1831769E+02  0.7916227E+01  0.5223936E+01  0.0000000E+00
Ar 1247  0.1865057E+02  0.5483490E+01  0.8180793E+01  0.0000000E+00
Ar 1248  0.1555370E+02  0.7784328E+01  0.7825353E+01  0.0000000E+00
Ar 1249  0.1550863E+02  0.5102067E+01  0.1029027E+02  0.0000000E+00
Ar 1250  0.1816096E+02  0.7895180E+01  0.1054084E+02  0.0000000E+00
Ar 1251  0.1849409E+02  0.5413758E+01  0.1339710E+02  0.0000000E+00
Ar 1252  0.1595653E+02  0.8173252E+01  0.1338194E+02  0.0000000E+00
Ar 1253  0.1575938E+02  0.5182732E+01  0.1572369E+02  0.0000000E+00
Ar 1254  0.1862414E+02  0.8107469E+01  0.1594571E+02  0.0000000E+00
Ar 1255  0.1857503E+02  0.5444598E+01  0.1849792E+02  0.0000000E+00
Ar 1256  0.1568205E+02  0.7728724E+01  0.1826650E+02  0.0000000E+00
Ar 1257  0.1601111E+02  0.5526203E+01  0.2129282E+02  0.0000000E+00
Ar 1258  0.1840081E+02  0.8006312E+01  0.2100547E+02  0.0000000E+00
Ar 1259  0.1848645E+02  0.5205037E+01  0.2368422E+02  0.0000000E+00
Ar 1260  0.1566577E+02  0.7921928E+01  0.2374694E+02  0.0000000E+00
Ar 1261  0.1580216E+02  0.5218238E+01  0.2623128E+02  0.0000000E+00
Ar 1262  0.1855663E+02  0.8033170E+01  0.2642990E+02  0.0000000E+00
Ar 1263  0.1866109E+02  0.5600020E+01  0.2918460E+02  0.0000000E+00
Ar 1264  0.1585833E+02  0.7958561E+01  0.2895470E+02  0.0000000E+00
Ar 1265  0.1608224E+02  0.5568227E+01  0.3180711E+02  0.0000000E+00
Ar 1266  0.1849607E+02  0.7986794E+01  0.3162593E+02  0.0000000E+00
Ar 1267  0.1844552E+02  0.5161825E+01  0.3417393E+02  0.0000000E+00
Ar 1268  0.1585095E+02  0.7954156E+01  0.3418337E+02  0.0000000E+00
Ar 1269  0.1590456E+02  0.5463711E+01  0.3682798E+02  0.0000000E+00
Ar 1270  0.1862295E+02  0.8031872E+01  0.3699668E+02  0.0000000E+00
Ar 1271  0.1845883E+02  0.5271484E+01  0.3943755E+02  0.0000000E+00
Ar 1272  0.1597951E+02  0.8054347E+01  0.3969877E+02  0.0000000E+00
Ar 1273  0.1628307E+02  0.5637276E+01  0.4254883E+02  0.0000000E+00
Ar 1274  0.1867860E+02  0.8106742E+01  0.4221497E+02  0.0000000E+00
Ar 1275  0.1870259E+02  0.5347857E+01  0.4503193E+02  0.0000000E+00
Ar 1276  0.1603995E+02  0.8267257E+01  0.4512863E+02  0.0000000E+00
Ar 1277  0.1586618E+02  0.5273604E+01  0.4746754E+02  0.0000000E+00
Ar 1278  0.1858865E+02  0.8027873E+01  0.4759955E+02  0.0000000E+00
Ar 1279  0.1873974E+02  0.5444979E+01  0.5020580E+02  0.0000000E+00
Ar 1280  0.1590607E+02  0.8041601E+01  0.5009027E+02  0.0000000E+00
Ar 1281  0.1585808E+02  0.1070941E+02  0.3161970E-01  0.0000000E+00
Ar 1282  0.1855173E+02  0.1322565E+02  0.9345858E-01  0.0000000E+00
Ar 1283  0.1844847E+02  0.1063105E+02  0.2663735E+01  0.0000000E+00
Ar 1284  0.1600416E+02  0.1346872E+02  0.2848045E+01  0.0000000E+00
Ar 1285  0.1590677E+02  0.1074946E+02  0.5458361E+01  0.0000000E+00
Ar 1286  0.1847277E+02  0.1322678E+02  0.5353267E+01  0.0000000E+00
Ar 1287  0.1865444E+02  0.1079280E+02  0.8251076E+01  0.0000000E+00
Ar 1288  0.1602357E+02  0.1330836E+02  0.8119082E+01  0.0000000E+00
Ar 1289  0.1589490E+02  0.1069610E+02  0.1069527E+02  0.0000000E+00
Ar 1290  0.1866304E+02  0.1336662E+02  0.1077546E+02  0.0000000E+00
Ar 1291  0.1864717E+02  0.1073392E+02  0.1335386E+02  0.0000000E+00
Ar 1292  0.1585561E+02  0.1325716E+02  0.1321998E+02  0.0000000E+00
Ar 1293  0.1597531E+02  0.1080561E+02  0.1603780E+02  0.0000000E+00
Ar 1294  0.1857225E+02  0.1335209E+02  0.1591276E+02  0.0000000E+00
Ar 1295  0.1849387E+02  0.1055047E+02  0.1848157E+02  0.0000000E+00
Ar 1296  0.1594426E+02  0.1337280E+02  0.1863784E+02  0.0000000E+00
Ar 1297  0.1592100E+02  0.1066667E+02  0.2114209E+02  0.0000000E+00
Ar 1298  0.1854510E+02  0.1323124E+02  0.2114620E+02  0.0000000E+00
Ar 1299  0.1867499E+02  0.1073416E+02  0.2385511E+02  0.0000000E+00
Ar 1300  0.1594230E+02  0.1333206E+02  0.2372371E+02  0.0000000E+00
Ar 1301  0.1577317E+02  0.1056072E+02  0.2622257E+02  0.0000000E+00
Ar 1302  0.1843405E+02  0.1325867E+02  0.2632214E+02  0.0000000E+00
Ar 1303  0.1845368E+02  0.1058342E+02  0.2880101E+02  0.0000000E+00
Ar 1304  0.1597113E+02  0.1327740E+02  0.2901821E+02  0.0000000E+00
Ar 1305  0.1611012E+02  0.1073848E+02  0.3166313E+02  0.0000000E+00
Ar 1306  0.1879528E+02  0.1346402E+02  0.3161249E+02  0.0000000E+00
Ar 1307  0.1866612E+02  0.1071004E+02  0.3444105E+02  0.0000000E+00
Ar 1308  0.1591342E+02  0.1326963E+02  0.3430744E+02  0.0000000E+00
Ar 1309  0.1599784E+02  0.1065829E+02  0.3698578E+02  0.0000000E+00
Ar 1310  0.1841284E+02  0.1326577E+02  0.3689199E+02  0.0000000E+00
Ar 1311  0.1852063E+02  0.1058532E+02  0.3961142E+02  0.0000000E+00
Ar 1312  0.1567607E+02  0.1307261E+02  0.3936746E+02  0.0000000E+00
Ar 1313  0.1595322E+02  0.1067144E+02  0.4230161E+02  0.0000000E+00
Ar 1314  0.1865214E+02  0.1334087E+02  0.4232682E+02  0.0000000E+00
Ar 1315  0.1864347E+02  0.1080729E+02  0.4496789E+02  0.0000000E+00
Ar 1316  0.1619108E+02  0.1356908E+02  0.4516842E+02  0.0000000E+00
Ar 1317  0.1613583E+02  0.1092356E+02  0.4765701E+02  0.0000000E+00
Ar 1318  0.1872684E+02  0.1348575E+02  0.4763252E+02  0.0000000E+00
Ar 1319  0.1860673E+02  0.1063828E+02  0.5020775E+02  0.0000000E+00
Ar 1320  0.1608141E+02  0.1350619E+02  0.5019477E+02  0.0000000E+00
Ar 1321  0.1610211E+02  0.1603737E+02  0.2595929E+00  0.0000000E+00
Ar 1322  0.1851727E+02  0.1855804E+02  0.1756675E+00  0.0000000E+00
Ar 1323  0.1858535E+02  0.1592551E+02  0.2876717E+01  0.0000000E+00
Ar 1324  0.1582592E+02  0.1847579E+02  0.2800373E+01  0.0000000E+00
Ar 1325  0.1586222E+02  0.1585861E+02  0.5401908E+01  0.0000000E+00
Ar 1326  0.1846247E+02  0.1843457E+02  0.5333845E+01  0.0000000E+00
Ar 1327  0.1858464E+02  0.1592979E+02  0.8107034E+01  0.0000000E+00
Ar 1328  0.1576998E+02  0.1840839E+02  0.7999534E+01  0.0000000E+00
Ar 1329  0.1583727E+02  0.1574050E+02  0.1061546E+02  0.0000000E+00
Ar 1330  0.1876262E+02  0.1881712E+02  0.1087579E+02  0.0000000E+00
Ar 1331  0.1872465E+02  0.1613446E+02  0.1348967E+02  0.0000000E+00
Ar 1332  0.1570857E+02  0.1824014E+02  0.1305411E+02  0.0000000E+00
Ar 1333  0.1588318E+02  0.1592604E+02  0.1588943E+02  0.0000000E+00
Ar 1334  0.1879716E+02  0.1881202E+02  0.1611774E+02  0.0000000E+00
Ar 1335  0.1855845E+02  0.1592433E+02  0.1849975E+02  0.0000000E+00
Ar 1336  0.1606017E+02  0.1868405E+02  0.1859406E+02  0.0000000E+00
Ar 1337  0.1609567E+02  0.1610451E+02  0.2123828E+02  0.0000000E+00
Ar 1338  0.1863117E+02  0.1864266E+02  0.2114992E+02  0.0000000E+00
Ar 1339  0.1857547E+02  0.1593372E+02  0.2388825E+02  0.0000000E+00
Ar 1340  0.1600927E+02  0.1866378E+02  0.2393063E+02  0.0000000E+00
Ar 1341  0.1588898E+02  0.1591821E+02  0.2636324E+02  0.0000000E+00
Ar 1342  0.1870658E+02  0.1877297E+02  0.2657412E+02  0.0000000E+00
Ar 1343  0.1859474E+02  0.1601989E+02  0.2911268E+02  0.0000000E+00
Ar 1344  0.1602595E+02  0.1854811E+02  0.2904256E+02  0.0000000E+00
Ar 1345  0.1564509E+02  0.1559066E+02  0.3137385E+02  0.0000000E+00
Ar 1346  0.1866592E+02  0.1869702E+02  0.3191072E+02  0.0000000E+00
Ar 1347  0.1824990E+02  0.1576200E+02  0.3412403E+02  0.0000000E+00
Ar 1348  0.1562586E+02  0.1831031E+02  0.3409488E+02  0.0000000E+00
Ar 1349  0.1566154E+02  0.1572019E+02  0.3683583E+02  0.0000000E+00
Ar 1350  0.1840005E+02  0.1842658E+02  0.3677491E+02  0.0000000E+00
Ar 1351  0.1835650E+02  0.1567850E+02  0.3933935E+02  0.0000000E+00
Ar 1352  0.1580497E+02  0.1840119E+02  0.3942128E+02  0.0000000E+00
Ar 1353  0.1580576E+02  0.1569748E+02  0.4208289E+02  0.0000000E+00
Ar 1354  0.1827934E+02  0.1824399E+02  0.4196190E+02  0.0000000E+00
Ar 1355  0.1850914E+02  0.1593015E+02  0.4473355E+02  0.0000000E+00
Ar 1356  0.1584040E+02  0.1845304E+02  0.4476850E+02  0.0000000E+00
Ar 1357  0.1605921E+02  0.1609340E+02  0.4762550E+02  0.0000000E+00
Ar 1358  0.1856999E+02  0.1859788E+02  0.4750586E+02  0.0000000E+00
Ar 1359  0.1882129E+02  0.1618504E+02  0.5037736E+02  0.0000000E+00
Ar 1360  0.1595286E+02  0.1864502E+02  0.5012275E+02  0.0000000E+00
Ar 1361  0.1591648E+02  0.2126843E+02  0.2000212E+00  0.0000000E+00
Ar 1362  0.1855811E+02  0.2374821E+02  0.1231760E+00  0.0000000E+00
Ar 1363  0.1845927E+02  0.2107797E+02  0.2784459E+01  0.0000000E+00
Ar 1364  0.1598896E+02  0.2383512E+02  0.2835396E+01  0.0000000E+00
Ar 1365  0.1578186E+02  0.2109320E+02  0.5330686E+01  0.0000000E+00
Ar 1366  0.1848216E+02  0.2365381E+02  0.5294540E+01  0.0000000E+00
Ar 1367  0.1843369E+02  0.2104959E+02  0.7992683E+01  0.0000000E+00
Ar 1368  0.1588428E+02  0.2373562E+02  0.8023647E+01  0.0000000E+00
Ar 1369  0.1583455E+02  0.2096632E+02  0.1056865E+02  0.0000000E+00
Ar 1370  0.1864300E+02  0.2383739E+02  0.1074415E+02  0.0000000E+00
Ar 1371  0.1875576E+02  0.2134177E+02  0.1346818E+02  0.0000000E+00
Ar 1372  0.1587888E+02  0.2365866E+02  0.1317911E+02  0.0000000E+00
Ar 1373  0.1594695E+02  0.2107583E+02  0.1580229E+02  0.0000000E+00
Ar 1374  0.1865740E+02  0.2386695E+02  0.1605287E+02  0.0000000E+00
Ar 1375  0.1866374E+02  0.2136302E+02  0.1870235E+02  0.0000000E+00
Ar 1376  0.1597021E+02  0.2376762E+02  0.1856606E+02  0.0000000E+00
Ar 1377  0.1572975E+02  0.2110721E+02  0.2104626E+02  0.0000000E+00
Ar 1378  0.1870725E+02  0.2403301E+02  0.2136650E+02  0.0000000E+00
Ar 1379  0.1851484E+02  0.2111881E+02  0.2379117E+02  0.0000000E+00
Ar 1380  0.1610059E+02  0.2390279E+02  0.2386057E+02  0.0000000E+00
Ar 1381  0.1606417E+02  0.2121784E+02  0.2656411E+02  0.0000000E+00
Ar 1382  0.1864316E+02  0.2374254E+02  0.2650930E+02  0.0000000E+00
Ar 1383  0.1863178E+02  0.2121380E+02  0.2919103E+02  0.0000000E+00
Ar 1384  0.1593365E+02  0.2373029E+02  0.2912274E+02  0.0000000E+00
Ar 1385  0.1580377E+02  0.2106030E+02  0.3155373E+02  0.0000000E+00
Ar 1386  0.1862779E+02  0.2381026E+02  0.3174323E+02  0.0000000E+00
Ar 1387  0.1888477E+02  0.2143362E+02  0.3450971E+02  0.0000000E+00
Ar 1388  0.1571335E+02  0.2342687E+02  0.3407835E+02  0.0000000E+00
Ar 1389  0.1589956E+02  0.2104186E+02  0.3687236E+02  0.0000000E+00
Ar 1390  0.1842409E+02  0.2376711E+02  0.3692135E+02  0.0000000E+00
Ar 1391  0.1871870E+02  0.2135688E+02  0.3979933E+02  0.0000000E+00
Ar 1392  0.1592811E+02  0.2368771E+02  0.3962743E+02  0.0000000E+00
Ar 1393  0.1600883E+02  0.2116173E+02  0.4220789E+02  0.0000000E+00
Ar 1394  0.1865852E+02  0.2382362E+02  0.4231000E+02  0.0000000E+00
Ar 1395  0.1839694E+02  0.2098468E+02  0.4465423E+02  0.0000000E+00
Ar 1396  0.1587271E+02  0.2372979E+02  0.4468535E+02  0.0000000E+00
Ar 1397  0.1595288E+02  0.2116637E+02  0.4750474E+02  0.0000000E+00
Ar 1398  0.1848253E+02  0.2375133E+02  0.4741326E+02  0.0000000E+00
Ar 1399  0.1858821E+02  0.2128208E+02  0.5016483E+02  0.0000000E+00
Ar 1400  0.1574927E+02  0.2364865E+02  0.5002494E+02  0.0000000E+00
Ar 1401  0.1586239E+02  0.2627583E+02  0.5260145E+02  0.0000000E+00
Ar 1402  0.1858092E+02  0.2900243E+02  0.6373311E-01  0.0000000E+00
Ar 1403  0.1849723E+02  0.2640904E+02  0.2677199E+01  0.0000000E+00
Ar 1404  0.1574754E+02  0.2881953E+02  0.2480425E+01  0.0000000E+00
Ar 1405  0.1562205E+02  0.2614795E+02  0.5214711E+01  0.0000000E+00
Ar 1406  0.1835266E+02  0.2888491E+02  0.5220911E+01  0.0000000E+00
Ar 1407  0.1853449E+02  0.2635436E+02  0.7982042E+01  0.0000000E+00
Ar 1408  0.1580838E+02  0.2888459E+02  0.7856746E+01  0.0000000E+00
Ar 1409  0.1604486E+02  0.2644598E+02  0.1080928E+02  0.0000000E+00
Ar 1410  0.1862945E+02  0.2903666E+02  0.1061541E+02  0.0000000E+00
Ar 1411  0.1863980E+02  0.2646914E+02  0.1355083E+02  0.0000000E+00
Ar 1412  0.1588574E+02  0.2901665E+02  0.1329161E+02  0.0000000E+00
Ar 1413  0.1603624E+02  0.2642488E+02  0.1606406E+02  0.0000000E+00
Ar 1414  0.1863467E+02  0.2915954E+02  0.1606638E+02  0.0000000E+00
Ar 1415  0.1874727E+02  0.2662778E+02  0.1881306E+02  0.0000000E+00
Ar 1416  0.1577359E+02  0.2891650E+02  0.1843373E+02  0.0000000E+00
Ar 1417  0.1620259E+02  0.2666874E+02  0.2132924E+02  0.0000000E+00
Ar 1418  0.1870625E+02  0.2924541E+02  0.2144409E+02  0.0000000E+00
Ar 1419  0.1856321E+02  0.2646408E+02  0.2377241E+02  0.0000000E+00
Ar 1420  0.1613545E+02  0.2918324E+02  0.2385413E+02  0.0000000E+00
Ar 1421  0.1594094E+02  0.2633654E+02  0.2642993E+02  0.0000000E+00
Ar 1422  0.1852256E+02  0.2897675E+02  0.2637156E+02  0.0000000E+00
Ar 1423  0.1852581E+02  0.2627128E+02  0.2899338E+02  0.0000000E+00
Ar 1424  0.1602955E+02  0.2908392E+02  0.2909072E+02  0.0000000E+00
Ar 1425  0.1587958E+02  0.2627611E+02  0.3162615E+02  0.0000000E+00
Ar 1426  0.1852998E+02  0.2888876E+02  0.3159860E+02  0.0000000E+00
Ar 1427  0.1865617E+02  0.2648783E+02  0.3440765E+02  0.0000000E+00
Ar 1428  0.1602755E+02  0.2908152E+02  0.3432233E+02  0.0000000E+00
Ar 1429  0.1603075E+02  0.2645113E+02  0.3691896E+02  0.0000000E+00
Ar 1430  0.1849727E+02  0.2904314E+02  0.3682452E+02  0.0000000E+00
Ar 1431  0.1847548E+02  0.2626551E+02  0.3934788E+02  0.0000000E+00
Ar 1432  0.1622422E+02  0.2915077E+02  0.3970081E+02  0.0000000E+00
Ar 1433  0.1586091E+02  0.2636938E+02  0.4216287E+02  0.0000000E+00
Ar 1434  0.1879245E+02  0.2914860E+02  0.4240583E+02  0.0000000E+00
Ar 1435  0.1846282E+02  0.2629218E+02  0.4480071E+02  0.0000000E+00
Ar 1436  0.1599033E+02  0.2905404E+02  0.4496947E+02  0.0000000E+00
Ar 1437  0.1586214E+02  0.2621903E+02  0.4741795E+02  0.0000000E+00
Ar 1438  0.1859409E+02  0.2890837E+02  0.4754153E+02  0.0000000E+00
Ar 1439  0.1855657E+02  0.2630811E+02  0.5013806E+02  0.0000000E+00
Ar 1440  0.1588531E+02  0.2887529E+02  0.4999607E+02  0.0000000E+00
Ar 1441  0.1582587E+02  0.3160898E+02  0.5261052E+02  0.0000000E+00
Ar 1442  0.1822660E+02  0.3403397E+02  0.5241883E+02  0.0000000E+00
Ar 1443  0.1845341E+02  0.3155111E+02  0.2619796E+01  0.0000000E+00
Ar 1444  0.1595138E+02  0.3429500E+02  0.2778378E+01  0.0000000E+00
Ar 1445  0.1579044E+02  0.3147925E+02  0.5184232E+01  0.0000000E+00
Ar 1446  0.1827457E+02  0.3384180E+02  0.5078188E+01  0.0000000E+00
Ar 1447  0.1851480E+02  0.3157064E+02  0.7957850E+01  0.0000000E+00
Ar 1448  0.1550374E+02  0.3384427E+02  0.7512903E+01  0.0000000E+00
Ar 1449  0.1584764E+02  0.3149939E+02  0.1052719E+02  0.0000000E+00
Ar 1450  0.1854030E+02  0.3431628E+02  0.1055267E+02  0.0000000E+00
Ar 1451  0.1857264E+02  0.3168554E+02  0.1327583E+02  0.0000000E+00
Ar 1452  0.1607088E+02  0.3432146E+02  0.1315871E+02  0.0000000E+00
Ar 1453  0.1591898E+02  0.3157301E+02  0.1586833E+02  0.0000000E+00
Ar 1454  0.1854572E+02  0.3428840E+02  0.1585974E+02  0.0000000E+00
Ar 1455  0.1857079E+02  0.3183025E+02  0.1856738E+02  0.0000000E+00
Ar 1456  0.1574463E+02  0.3416132E+02  0.1843157E+02  0.0000000E+00
Ar 1457  0.1596812E+02  0.3170418E+02  0.2122535E+02  0.0000000E+00
Ar 1458  0.1837715E+02  0.3418972E+02  0.2095384E+02  0.0000000E+00
Ar 1459  0.1858721E+02  0.3172929E+02  0.2389632E+02  0.0000000E+00
Ar 1460  0.1588009E+02  0.3427970E+02  0.2374648E+02  0.0000000E+00
Ar 1461  0.1595726E+02  0.3165090E+02  0.2635853E+02  0.0000000E+00
Ar 1462  0.1850662E+02  0.3429916E+02  0.2640331E+02  0.0000000E+00
Ar 1463  0.1848359E+02  0.3160025E+02  0.2890058E+02  0.0000000E+00
Ar 1464  0.1565572E+02  0.3399196E+02  0.2877729E+02  0.0000000E+00
Ar 1465  0.1588873E+02  0.3165542E+02  0.3159026E+02  0.0000000E+00
Ar 1466  0.1852495E+02  0.3435622E+02  0.3165237E+02  0.0000000E+00
Ar 1467  0.1853616E+02  0.3173521E+02  0.3428246E+02  0.0000000E+00
Ar 1468  0.1583998E+02  0.3428812E+02  0.3438811E+02  0.0000000E+00
Ar 1469  0.1603101E+02  0.3170230E+02  0.3691727E+02  0.0000000E+00
Ar 1470  0.1845177E+02  0.3439763E+02  0.3696754E+02  0.0000000E+00
Ar 1471  0.1874669E+02  0.3191364E+02  0.3973783E+02  0.0000000E+00
Ar 1472  0.1566824E+02  0.3407535E+02  0.3935854E+02  0.0000000E+00
Ar 1473  0.1604649E+02  0.3176081E+02  0.4232943E+02  0.0000000E+00
Ar 1474  0.1841563E+02  0.3426174E+02  0.4216893E+02  0.0000000E+00
Ar 1475  0.1849206E+02  0.3164738E+02  0.4481866E+02  0.0000000E+00
Ar 1476  0.1560098E+02  0.3403016E+02  0.4481314E+02  0.0000000E+00
Ar 1477  0.1588125E+02  0.3161133E+02  0.4750749E+02  0.0000000E+00
Ar 1478  0.1848325E+02  0.3416793E+02  0.4742639E+02  0.0000000E+00
Ar 1479  0.1844739E+02  0.3149258E+02  0.4990355E+02  0.0000000E+00
Ar 1480  0.1566411E+02  0.3417555E+02  0.4991810E+02  0.0000000E+00
Ar 1481  0.1575219E+02  0.3670211E+02  0.5258207E+02  0.0000000E+00
Ar 1482  0.1839944E+02  0.3935359E+02  0.3984433E-01  0.0000000E+00
Ar 1483  0.1851877E+02  0.3685355E+02  0.2894137E+01  0.0000000E+00
Ar 1484  0.1599534E+02  0.3965889E+02  0.2860528E+01  0.0000000E+00
Ar 1485  0.1580370E+02  0.3683776E+02  0.5281836E+01  0.0000000E+00
Ar 1486  0.1864143E+02  0.3972372E+02  0.5540326E+01  0.0000000E+00
Ar 1487  0.1821805E+02  0.3653754E+02  0.7661694E+01  0.0000000E+00
Ar 1488  0.1574260E+02  0.3941433E+02  0.7796779E+01  0.0000000E+00
Ar 1489  0.1586707E+02  0.3693347E+02  0.1057324E+02  0.0000000E+00
Ar 1490  0.1837933E+02  0.3941336E+02  0.1046590E+02  0.0000000E+00
Ar 1491  0.1855664E+02  0.3696395E+02  0.1324143E+02  0.0000000E+00
Ar 1492  0.1614200E+02  0.3996326E+02  0.1348450E+02  0.0000000E+00
Ar 1493  0.1576078E+02  0.3679155E+02  0.1568708E+02  0.0000000E+00
Ar 1494  0.1845950E+02  0.3948701E+02  0.1589826E+02  0.0000000E+00
Ar 1495  0.1830359E+02  0.3679287E+02  0.1842602E+02  0.0000000E+00
Ar 1496  0.1577155E+02  0.3945966E+02  0.1844008E+02  0.0000000E+00
Ar 1497  0.1579072E+02  0.3683245E+02  0.2101577E+02  0.0000000E+00
Ar 1498  0.1854097E+02  0.3953951E+02  0.2122763E+02  0.0000000E+00
Ar 1499  0.1832115E+02  0.3665288E+02  0.2347352E+02  0.0000000E+00
Ar 1500  0.1588518E+02  0.3949798E+02  0.2366361E+02  0.0000000E+00
Ar 1501  0.1588436E+02  0.3682666E+02  0.2635986E+02  0.0000000E+00
Ar 1502  0.1834660E+02  0.3926848E+02  0.2615957E+02  0.0000000E+00
Ar 1503  0.1848245E+02  0.3689458E+02  0.2904872E+02  0.0000000E+00
Ar 1504  0.1602708E+02  0.3961634E+02  0.2904072E+02  0.0000000E+00
Ar 1505  0.1577892E+02  0.3689877E+02  0.3146441E+02  0.0000000E+00
Ar 1506  0.1858526E+02  0.3968395E+02  0.3175300E+02  0.0000000E+00
Ar 1507  0.1823874E+02  0.3679410E+02  0.3414570E+02  0.0000000E+00
Ar 1508  0.1582988E+02  0.3956505E+02  0.3424313E+02  0.0000000E+00
Ar 1509  0.1596958E+02  0.3707336E+02  0.3706937E+02  0.0000000E+00
Ar 1510  0.1852437E+02  0.3959993E+02  0.3697041E+02  0.0000000E+00
Ar 1511  0.1862719E+02  0.3713011E+02  0.3972636E+02  0.0000000E+00
Ar 1512  0.1569240E+02  0.3953315E+02  0.3951141E+02  0.0000000E+00
Ar 1513  0.1568393E+02  0.3678995E+02  0.4205271E+02  0.0000000E+00
Ar 1514  0.1822306E+02  0.3942497E+02  0.4214173E+02  0.0000000E+00
Ar 1515  0.1804025E+02  0.3658915E+02  0.4460117E+02  0.0000000E+00
Ar 1516  0.1574077E+02  0.3938123E+02  0.4467696E+02  0.0000000E+00
Ar 1517  0.1585569E+02  0.3685632E+02  0.4742669E+02  0.0000000E+00
Ar 1518  0.1873013E+02  0.3978565E+02  0.4772818E+02  0.0000000E+00
Ar 1519  0.1834847E+02  0.3668432E+02  0.4997489E+02  0.0000000E+00
Ar 1520  0.1581698E+02  0.3941195E+02  0.4990254E+02  0.0000000E+00
Ar 1521  0.1595274E+02  0.4213107E+02  0.6620100E-01  0.0000000E+00
Ar 1522  0.1867453E+02  0.4501948E+02  0.3127059E+00  0.0000000E+00
Ar 1523  0.1879128E+02  0.4240250E+02  0.3021410E+01  0.0000000E+00
Ar 1524  0.1578469E+02  0.4460663E+02  0.2623896E+01  0.0000000E+00
Ar 1525  0.1609012E+02  0.4238904E+02  0.5637080E+01  0.0000000E+00
Ar 1526  0.1865428E+02  0.4516281E+02  0.5319248E+01  0.0000000E+00
Ar 1527  0.1883177E+02  0.4257511E+02  0.8113490E+01  0.0000000E+00
Ar 1528  0.1605890E+02  0.4510143E+02  0.8130817E+01  0.0000000E+00
Ar 1529  0.1609023E+02  0.4239307E+02  0.1074091E+02  0.0000000E+00
Ar 1530  0.1855533E+02  0.4492283E+02  0.1068766E+02  0.0000000E+00
Ar 1531  0.1861463E+02  0.4226304E+02  0.1336732E+02  0.0000000E+00
Ar 1532  0.1597571E+02  0.4491662E+02  0.1336911E+02  0.0000000E+00
Ar 1533  0.1581593E+02  0.4235564E+02  0.1598020E+02  0.0000000E+00
Ar 1534  0.1845511E+02  0.4479158E+02  0.1585216E+02  0.0000000E+00
Ar 1535  0.1830712E+02  0.4201449E+02  0.1837390E+02  0.0000000E+00
Ar 1536  0.1604825E+02  0.4498542E+02  0.1857321E+02  0.0000000E+00
Ar 1537  0.1610651E+02  0.4237303E+02  0.2135210E+02  0.0000000E+00
Ar 1538  0.1867164E+02  0.4498902E+02  0.2118998E+02  0.0000000E+00
Ar 1539  0.1843198E+02  0.4198136E+02  0.2375497E+02  0.0000000E+00
Ar 1540  0.1611049E+02  0.4496223E+02  0.2397974E+02  0.0000000E+00
Ar 1541  0.1592712E+02  0.4212058E+02  0.2630459E+02  0.0000000E+00
Ar 1542  0.1866538E+02  0.4496366E+02  0.2644903E+02  0.0000000E+00
Ar 1543  0.1862537E+02  0.4222911E+02  0.2900246E+02  0.0000000E+00
Ar 1544  0.1578656E+02  0.4474119E+02  0.2881687E+02  0.0000000E+00
Ar 1545  0.1584279E+02  0.4217634E+02  0.3160642E+02  0.0000000E+00
Ar 1546  0.1847348E+02  0.4484844E+02  0.3159129E+02  0.0000000E+00
Ar 1547  0.1839142E+02  0.4218430E+02  0.3418949E+02  0.0000000E+00
Ar 1548  0.1565382E+02  0.4471139E+02  0.3402446E+02  0.0000000E+00
Ar 1549  0.1588054E+02  0.4240536E+02  0.3692547E+02  0.0000000E+00
Ar 1550  0.1850791E+02  0.4493010E+02  0.3692162E+02  0.0000000E+00
Ar 1551  0.1846290E+02  0.4225798E+02  0.3961766E+02  0.0000000E+00
Ar 1552  0.1602655E+02  0.4504334E+02  0.3959995E+02  0.0000000E+00
Ar 1553  0.1608182E+02  0.4230691E+02  0.4237547E+02  0.0000000E+00
Ar 1554  0.1850120E+02  0.4477099E+02  0.4207135E+02  0.0000000E+00
Ar 1555  0.1855042E+02  0.4212960E+02  0.4484335E+02  0.0000000E+00
Ar 1556  0.1580907E+02  0.4474930E+02  0.4484085E+02  0.0000000E+00
Ar 1557  0.1581621E+02  0.4207676E+02  0.4739167E+02  0.0000000E+00
Ar 1558  0.1833245E+02  0.4467080E+02  0.4723404E+02  0.0000000E+00
Ar 1559  0.1846415E+02  0.4220918E+02  0.5010260E+02  0.0000000E+00
Ar 1560  0.1585803E+02  0.4474870E+02  0.5000617E+02  0.0000000E+00
Ar 1561  0.1606200E+02  0.4751531E+02  0.2401791E+00  0.0000000E+00
Ar 1562  0.1829692E+02  0.4991679E+02  0.5257679E+02  0.0000000E+00
Ar 1563  0.1866559E+02  0.4761237E+02  0.2754634E+01  0.0000000E+00
Ar 1564  0.1570189E+02  0.4992590E+02  0.2620750E+01  0.0000000E+00
Ar 1565  0.1582828E+02  0.4742689E+02  0.5240430E+01  0.0000000E+00
Ar 1566  0.1858879E+02  0.5019475E+02  0.5452468E+01  0.0000000E+00
Ar 1567  0.1863955E+02  0.4756476E+02  0.8019854E+01  0.0000000E+00
Ar 1568  0.1586807E+02  0.5000392E+02  0.7977383E+01  0.0000000E+00
Ar 1569  0.1594925E+02  0.4758676E+02  0.1079547E+02  0.0000000E+00
Ar 1570  0.1839147E+02  0.5001049E+02  0.1055856E+02  0.0000000E+00
Ar 1571  0.1866473E+02  0.4763919E+02  0.1342098E+02  0.0000000E+00
Ar 1572  0.1610574E+02  0.5020712E+02  0.1347774E+02  0.0000000E+00
Ar 1573  0.1591661E+02  0.4745933E+02  0.1592865E+02  0.0000000E+00
Ar 1574  0.1870112E+02  0.5016907E+02  0.1602049E+02  0.0000000E+00
Ar 1575  0.1880249E+02  0.4764358E+02  0.1870128E+02  0.0000000E+00
Ar 1576  0.1583832E+02  0.4998848E+02  0.1849553E+02  0.0000000E+00
Ar 1577  0.1575678E+02  0.4736924E+02  0.2107104E+02  0.0000000E+00
Ar 1578  0.1861066E+02  0.5018140E+02  0.2125410E+02  0.0000000E+00
Ar 1579  0.1858048E+02  0.4743482E+02  0.2366977E+02  0.0000000E+00
Ar 1580  0.1592262E+02  0.5012085E+02  0.2382448E+02  0.0000000E+00
Ar 1581  0.1587380E+02  0.4745307E+02  0.2636006E+02  0.0000000E+00
Ar 1582  0.1848256E+02  0.5004604E+02  0.2624998E+02  0.0000000E+00
Ar 1583  0.1861593E+02  0.4767693E+02  0.2908061E+02  0.0000000E+00
Ar 1584  0.1588134E+02  0.5015106E+02  0.2901152E+02  0.0000000E+00
Ar 1585  0.1582843E+02  0.4745167E+02  0.3157276E+02  0.0000000E+00
Ar 1586  0.1862707E+02  0.5027385E+02  0.3171157E+02  0.0000000E+00
Ar 1587  0.1854027E+02  0.4756588E+02  0.3433496E+02  0.0000000E+00
Ar 1588  0.1584763E+02  0.5008566E+02  0.3419830E+02  0.0000000E+00
Ar 1589  0.1581535E+02  0.4738881E+02  0.3677800E+02  0.0000000E+00
Ar 1590  0.1873054E+02  0.5042190E+02  0.3704889E+02  0.0000000E+00
Ar 1591  0.1858980E+02  0.4759557E+02  0.3954530E+02  0.0000000E+00
Ar 1592  0.1595101E+02  0.5023682E+02  0.3954094E+02  0.0000000E+00
Ar 1593  0.1586363E+02  0.4748787E+02  0.4219345E+02  0.0000000E+00
Ar 1594  0.1825078E+02  0.4990462E+02  0.4203661E+02  0.0000000E+00
Ar 1595  0.1832325E+02  0.4725622E+02  0.4464735E+02  0.0000000E+00
Ar 1596  0.1581395E+02  0.4996837E+02  0.4475529E+02  0.0000000E+00
Ar 1597  0.1583927E+02  0.4735891E+02  0.4744776E+02  0.0000000E+00
Ar 1598  0.1844450E+02  0.5003285E+02  0.4743436E+02  0.0000000E+00
Ar 1599  0.1854498E+02  0.4750526E+02  0.5010624E+02  0.0000000E+00
Ar 1600  0.1594535E+02  0.5017453E+02  0.5015326E+02  0.0000000E+00
Ar 1601  0.2111268E+02  0.4775779E-01  0.1003810E+00  0.0000000E+00
Ar 1602  0.2382156E+02  0.2761929E+01  0.1654409E+00  0.0000000E+00
Ar 1603  0.2378304E+02  0.1619312E+00  0.2681068E+01  0.0000000E+00
Ar 1604  0.2106733E+02  0.2579970E+01  0.2639022E+01  0.0000000E+00
Ar 1605  0.2111932E+02  0.1471773E+00  0.5297220E+01  0.0000000E+00
Ar 1606  0.2396879E+02  0.2864639E+01  0.5375925E+01  0.0000000E+00
Ar 1607  0.2366440E+02  0.9426129E-01  0.7916327E+01  0.0000000E+00
Ar 1608  0.2099313E+02  0.2702918E+01  0.7946117E+01  0.0000000E+00
Ar 1609  0.2116117E+02  0.2125315E+00  0.1068170E+02  0.0000000E+00
Ar 1610  0.2379931E+02  0.2750117E+01  0.1058408E+02  0.0000000E+00
Ar 1611  0.2365904E+02  0.1953727E+00  0.1322225E+02  0.0000000E+00
Ar 1612  0.2111514E+02  0.2780003E+01  0.1323814E+02  0.0000000E+00
Ar 1613  0.2109860E+02  0.8682554E-01  0.1580278E+02  0.0000000E+00
Ar 1614  0.2388344E+02  0.2896996E+01  0.1598037E+02  0.0000000E+00
Ar 1615  0.2356703E+02  0.3530186E-01  0.1833852E+02  0.0000000E+00
Ar 1616  0.2127319E+02  0.3023811E+01  0.1883586E+02  0.0000000E+00
Ar 1617  0.2102635E+02  0.7924935E-01  0.2101570E+02  0.0000000E+00
Ar 1618  0.2387114E+02  0.2769006E+01  0.2134066E+02  0.0000000E+00
Ar 1619  0.2378539E+02  0.1347874E+00  0.2378169E+02  0.0000000E+00
Ar 1620  0.2105153E+02  0.2653734E+01  0.2368888E+02  0.0000000E+00
Ar 1621  0.2118236E+02  0.1592342E+00  0.2643673E+02  0.0000000E+00
Ar 1622  0.2397692E+02  0.2975778E+01  0.2662755E+02  0.0000000E+00
Ar 1623  0.2379139E+02  0.8663942E-01  0.2900474E+02  0.0000000E+00
Ar 1624  0.2123613E+02  0.2693702E+01  0.2908459E+02  0.0000000E+00
Ar 1625  0.2116631E+02  0.1834513E+00  0.3170973E+02  0.0000000E+00
Ar 1626  0.2384874E+02  0.2774673E+01  0.3167234E+02  0.0000000E+00
Ar 1627  0.2370790E+02  0.6095104E-01  0.3427111E+02  0.0000000E+00
Ar 1628  0.2119818E+02  0.2815870E+01  0.3424217E+02  0.0000000E+00
Ar 1629  0.2135135E+02  0.4387077E+00  0.3714726E+02  0.0000000E+00
Ar 1630  0.2377262E+02  0.2744810E+01  0.3675323E+02  0.0000000E+00
Ar 1631  0.2376881E+02  0.5967735E-01  0.3957106E+02  0.0000000E+00
Ar 1632  0.2112704E+02  0.2822345E+01  0.3961263E+02  0.0000000E+00
Ar 1633  0.2088148E+02  0.5249355E+02  0.4198336E+02  0.0000000E+00
Ar 1634  0.2373648E+02  0.2682019E+01  0.4221264E+02  0.0000000E+00
Ar 1635  0.2363543E+02  0.7770497E-01  0.4467414E+02  0.0000000E+00
Ar 1636  0.2122862E+02  0.2727647E+01  0.4494883E+02  0.0000000E+00
Ar 1637  0.2120165E+02  0.1408770E+00  0.4752579E+02  0.0000000E+00
Ar 1638  0.2383338E+02  0.2704869E+01  0.4750407E+02  0.0000000E+00
Ar 1639  0.2372960E+02  0.5263416E+02  0.5001506E+02  0.0000000E+00
Ar 1640  0.2117563E+02  0.2621478E+01  0.5009391E+02  0.0000000E+00
Ar 1641  0.2122412E+02  0.5414219E+01  0.2403581E+00  0.0000000E+00
Ar 1642  0.2374054E+02  0.8031697E+01  0.1243690E+00  0.0000000E+00
Ar 1643  0.2386630E+02  0.5359075E+01  0.2778152E+01  0.0000000E+00
Ar 1644  0.2118094E+02  0.8083434E+01  0.2808016E+01  0.0000000E+00
Ar 1645  0.2066365E+02  0.5022771E+01  0.5057819E+01  0.0000000E+00
Ar 1646  0.2368014E+02  0.7788651E+01  0.5293912E+01  0.0000000E+00
Ar 1647  0.2374979E+02  0.5329525E+01  0.8004704E+01  0.0000000E+00
Ar 1648  0.2102225E+02  0.8021389E+01  0.7962119E+01  0.0000000E+00
Ar 1649  0.2122154E+02  0.5325848E+01  0.1070202E+02  0.0000000E+00
Ar 1650  0.2368520E+02  0.7885276E+01  0.1050919E+02  0.0000000E+00
Ar 1651  0.2380045E+02  0.5440114E+01  0.1325862E+02  0.0000000E+00
Ar 1652  0.2085681E+02  0.7867690E+01  0.1291492E+02  0.0000000E+00
Ar 1653  0.2113014E+02  0.5512963E+01  0.1582213E+02  0.0000000E+00
Ar 1654  0.2388045E+02  0.8203026E+01  0.1599146E+02  0.0000000E+00
Ar 1655  0.2367133E+02  0.5413713E+01  0.1835800E+02  0.0000000E+00
Ar 1656  0.2116711E+02  0.8060339E+01  0.1859211E+02  0.0000000E+00
Ar 1657  0.2151633E+02  0.5690939E+01  0.2156232E+02  0.0000000E+00
Ar 1658  0.2376182E+02  0.7909133E+01  0.2110628E+02  0.0000000E+00
Ar 1659  0.2385399E+02  0.5369621E+01  0.2391918E+02  0.0000000E+00
Ar 1660  0.2109715E+02  0.8011280E+01  0.2385027E+02  0.0000000E+00
Ar 1661  0.2156195E+02  0.5701661E+01  0.2673197E+02  0.0000000E+00
Ar 1662  0.2407169E+02  0.8194686E+01  0.2659805E+02  0.0000000E+00
Ar 1663  0.2396443E+02  0.5452732E+01  0.2922991E+02  0.0000000E+00
Ar 1664  0.2121319E+02  0.8103297E+01  0.2908040E+02  0.0000000E+00
Ar 1665  0.2113123E+02  0.5309165E+01  0.3156340E+02  0.0000000E+00
Ar 1666  0.2397914E+02  0.8095973E+01  0.3171561E+02  0.0000000E+00
Ar 1667  0.2382798E+02  0.5367469E+01  0.3416940E+02  0.0000000E+00
Ar 1668  0.2104928E+02  0.7853880E+01  0.3413468E+02  0.0000000E+00
Ar 1669  0.2113350E+02  0.5430133E+01  0.3701022E+02  0.0000000E+00
Ar 1670  0.2352750E+02  0.7756196E+01  0.3666146E+02  0.0000000E+00
Ar 1671  0.2381240E+02  0.5384213E+01  0.3952344E+02  0.0000000E+00
Ar 1672  0.2130513E+02  0.8036988E+01  0.3966475E+02  0.0000000E+00
Ar 1673  0.2128623E+02  0.5460720E+01  0.4234435E+02  0.0000000E+00
Ar 1674  0.2390891E+02  0.7962313E+01  0.4226424E+02  0.0000000E+00
Ar 1675  0.2385412E+02  0.5298050E+01  0.4486743E+02  0.0000000E+00
Ar 1676  0.2129668E+02  0.8007855E+01  0.4488532E+02  0.0000000E+00
Ar 1677  0.2134553E+02  0.5412900E+01  0.4757579E+02  0.0000000E+00
Ar 1678  0.2396171E+02  0.8097137E+01  0.4762302E+02  0.0000000E+00
Ar 1679  0.2380794E+02  0.5380005E+01  0.5016066E+02  0.0000000E+00
Ar 1680  0.2120660E+02  0.8089506E+01  0.5021932E+02  0.0000000E+00
Ar 1681  0.2133567E+02  0.1087704E+02  0.3332315E+00  0.0000000E+00
Ar 1682  0.2400143E+02  0.1350459E+02  0.3435602E+00  0.0000000E+00
Ar 1683  0.2378711E+02  0.1063884E+02  0.2758837E+01  0.0000000E+00
Ar 1684  0.2116091E+02  0.1340271E+02  0.2890444E+01  0.0000000E+00
Ar 1685  0.2094801E+02  0.1052815E+02  0.5297396E+01  0.0000000E+00
Ar 1686  0.2362782E+02  0.1309483E+02  0.5336045E+01  0.0000000E+00
Ar 1687  0.2353417E+02  0.1034474E+02  0.7752538E+01  0.0000000E+00
Ar 1688  0.2122878E+02  0.1330305E+02  0.8085648E+01  0.0000000E+00
Ar 1689  0.2126243E+02  0.1075631E+02  0.1074118E+02  0.0000000E+00
Ar 1690  0.2377266E+02  0.1327550E+02  0.1061662E+02  0.0000000E+00
Ar 1691  0.2372331E+02  0.1052476E+02  0.1322439E+02  0.0000000E+00
Ar 1692  0.2105439E+02  0.1326200E+02  0.1318066E+02  0.0000000E+00
Ar 1693  0.2117699E+02  0.1065929E+02  0.1595572E+02  0.0000000E+00
Ar 1694  0.2365980E+02  0.1321637E+02  0.1579540E+02  0.0000000E+00
Ar 1695  0.2363778E+02  0.1060540E+02  0.1848227E+02  0.0000000E+00
Ar 1696  0.2117049E+02  0.1326621E+02  0.1858271E+02  0.0000000E+00
Ar 1697  0.2127247E+02  0.1075801E+02  0.2131380E+02  0.0000000E+00
Ar 1698  0.2406810E+02  0.1356555E+02  0.2151973E+02  0.0000000E+00
Ar 1699  0.2386226E+02  0.1061516E+02  0.2387722E+02  0.0000000E+00
Ar 1700  0.2136906E+02  0.1347699E+02  0.2405970E+02  0.0000000E+00
Ar 1701  0.2129043E+02  0.1073683E+02  0.2644874E+02  0.0000000E+00
Ar 1702  0.2393855E+02  0.1351864E+02  0.2655404E+02  0.0000000E+00
Ar 1703  0.2371157E+02  0.1066365E+02  0.2901278E+02  0.0000000E+00
Ar 1704  0.2112930E+02  0.1330555E+02  0.2889572E+02  0.0000000E+00
Ar 1705  0.2096604E+02  0.1055563E+02  0.3148744E+02  0.0000000E+00
Ar 1706  0.2374140E+02  0.1346276E+02  0.3165731E+02  0.0000000E+00
Ar 1707  0.2344473E+02  0.1047783E+02  0.3407843E+02  0.0000000E+00
Ar 1708  0.2101702E+02  0.1307628E+02  0.3407016E+02  0.0000000E+00
Ar 1709  0.2124845E+02  0.1054236E+02  0.3694976E+02  0.0000000E+00
Ar 1710  0.2362191E+02  0.1321240E+02  0.3678721E+02  0.0000000E+00
Ar 1711  0.2387142E+02  0.1069821E+02  0.3961145E+02  0.0000000E+00
Ar 1712  0.2105745E+02  0.1316936E+02  0.3941758E+02  0.0000000E+00
Ar 1713  0.2123209E+02  0.1065625E+02  0.4226638E+02  0.0000000E+00
Ar 1714  0.2373338E+02  0.1335926E+02  0.4219003E+02  0.0000000E+00
Ar 1715  0.2389912E+02  0.1068215E+02  0.4495112E+02  0.0000000E+00
Ar 1716  0.2122652E+02  0.1335918E+02  0.4492294E+02  0.0000000E+00
Ar 1717  0.2127018E+02  0.1070793E+02  0.4760769E+02  0.0000000E+00
Ar 1718  0.2372552E+02  0.1321850E+02  0.4749695E+02  0.0000000E+00
Ar 1719  0.2391761E+02  0.1079774E+02  0.5021530E+02  0.0000000E+00
Ar 1720  0.2122917E+02  0.1320457E+02  0.5019056E+02  0.0000000E+00
Ar 1721  0.2121955E+02  0.1588385E+02  0.1311533E+00  0.0000000E+00
Ar 1722  0.2378225E+02  0.1851220E+02  0.9940205E-01  0.0000000E+00
Ar 1723  0.2383030E+02  0.1607439E+02  0.2900818E+01  0.0000000E+00
Ar 1724  0.2108479E+02  0.1841826E+02  0.2758167E+01  0.0000000E+00
Ar 1725  0.2132503E+02  0.1607164E+02  0.5676318E+01  0.0000000E+00
Ar 1726  0.2391108E+02  0.1877133E+02  0.5575988E+01  0.0000000E+00
Ar 1727  0.2397263E+02  0.1615555E+02  0.8257545E+01  0.0000000E+00
Ar 1728  0.2106950E+02  0.1855681E+02  0.7995101E+01  0.0000000E+00
Ar 1729  0.2113746E+02  0.1588273E+02  0.1054017E+02  0.0000000E+00
Ar 1730  0.2390124E+02  0.1866131E+02  0.1075090E+02  0.0000000E+00
Ar 1731  0.2389119E+02  0.1609593E+02  0.1337369E+02  0.0000000E+00
Ar 1732  0.2115467E+02  0.1844606E+02  0.1321546E+02  0.0000000E+00
Ar 1733  0.2131044E+02  0.1620189E+02  0.1607999E+02  0.0000000E+00
Ar 1734  0.2394827E+02  0.1871754E+02  0.1610912E+02  0.0000000E+00
Ar 1735  0.2391282E+02  0.1595901E+02  0.1862352E+02  0.0000000E+00
Ar 1736  0.2132382E+02  0.1884027E+02  0.1872637E+02  0.0000000E+00
Ar 1737  0.2116497E+02  0.1589117E+02  0.2121415E+02  0.0000000E+00
Ar 1738  0.2382659E+02  0.1850207E+02  0.2115467E+02  0.0000000E+00
Ar 1739  0.2372101E+02  0.1598914E+02  0.2380169E+02  0.0000000E+00
Ar 1740  0.2093851E+02  0.1834914E+02  0.2363698E+02  0.0000000E+00
Ar 1741  0.2117581E+02  0.1596287E+02  0.2641950E+02  0.0000000E+00
Ar 1742  0.2378129E+02  0.1860121E+02  0.2644759E+02  0.0000000E+00
Ar 1743  0.2411471E+02  0.1627408E+02  0.2930082E+02  0.0000000E+00
Ar 1744  0.2112957E+02  0.1845272E+02  0.2910961E+02  0.0000000E+00
Ar 1745  0.2120796E+02  0.1600132E+02  0.3172699E+02  0.0000000E+00
Ar 1746  0.2394322E+02  0.1879191E+02  0.3190653E+02  0.0000000E+00
Ar 1747  0.2372176E+02  0.1599583E+02  0.3431567E+02  0.0000000E+00
Ar 1748  0.2123409E+02  0.1861559E+02  0.3442123E+02  0.0000000E+00
Ar 1749  0.2094390E+02  0.1578956E+02  0.3668093E+02  0.0000000E+00
Ar 1750  0.2389718E+02  0.1867456E+02  0.3702337E+02  0.0000000E+00
Ar 1751  0.2371725E+02  0.1593182E+02  0.3943553E+02  0.0000000E+00
Ar 1752  0.2100469E+02  0.1852191E+02  0.3940754E+02  0.0000000E+00
Ar 1753  0.2097990E+02  0.1577892E+02  0.4203951E+02  0.0000000E+00
Ar 1754  0.2358840E+02  0.1837507E+02  0.4197810E+02  0.0000000E+00
Ar 1755  0.2366339E+02  0.1581166E+02  0.4469620E+02  0.0000000E+00
Ar 1756  0.2118728E+02  0.1846637E+02  0.4474352E+02  0.0000000E+00
Ar 1757  0.2136882E+02  0.1609210E+02  0.4761593E+02  0.0000000E+00
Ar 1758  0.2373479E+02  0.1855413E+02  0.4742999E+02  0.0000000E+00
Ar 1759  0.2387945E+02  0.1600961E+02  0.5028916E+02  0.0000000E+00
Ar 1760  0.2123757E+02  0.1858677E+02  0.5010242E+02  0.0000000E+00
Ar 1761  0.2104969E+02  0.2102299E+02  0.5263535E+02  0.0000000E+00
Ar 1762  0.2388828E+02  0.2392221E+02  0.2624921E+00  0.0000000E+00
Ar 1763  0.2384995E+02  0.2119844E+02  0.2850702E+01  0.0000000E+00
Ar 1764  0.2106667E+02  0.2364787E+02  0.2653032E+01  0.0000000E+00
Ar 1765  0.2113554E+02  0.2110111E+02  0.5397198E+01  0.0000000E+00
Ar 1766  0.2365675E+02  0.2369301E+02  0.5275518E+01  0.0000000E+00
Ar 1767  0.2397497E+02  0.2135985E+02  0.8117622E+01  0.0000000E+00
Ar 1768  0.2106317E+02  0.2365911E+02  0.7909916E+01  0.0000000E+00
Ar 1769  0.2137641E+02  0.2137407E+02  0.1083973E+02  0.0000000E+00
Ar 1770  0.2375436E+02  0.2386498E+02  0.1055035E+02  0.0000000E+00
Ar 1771  0.2377626E+02  0.2113978E+02  0.1334383E+02  0.0000000E+00
Ar 1772  0.2122463E+02  0.2384379E+02  0.1332550E+02  0.0000000E+00
Ar 1773  0.2145676E+02  0.2146039E+02  0.1620301E+02  0.0000000E+00
Ar 1774  0.2395575E+02  0.2384560E+02  0.1604136E+02  0.0000000E+00
Ar 1775  0.2395002E+02  0.2130055E+02  0.1877893E+02  0.0000000E+00
Ar 1776  0.2137844E+02  0.2399375E+02  0.1881426E+02  0.0000000E+00
Ar 1777  0.2134538E+02  0.2133301E+02  0.2131273E+02  0.0000000E+00
Ar 1778  0.2402985E+02  0.2407944E+02  0.2153001E+02  0.0000000E+00
Ar 1779  0.2375609E+02  0.2097217E+02  0.2369266E+02  0.0000000E+00
Ar 1780  0.2109459E+02  0.2374750E+02  0.2377927E+02  0.0000000E+00
Ar 1781  0.2146277E+02  0.2144162E+02  0.2671476E+02  0.0000000E+00
Ar 1782  0.2382215E+02  0.2381962E+02  0.2633287E+02  0.0000000E+00
Ar 1783  0.2384850E+02  0.2122731E+02  0.2924050E+02  0.0000000E+00
Ar 1784  0.2128902E+02  0.2389952E+02  0.2918658E+02  0.0000000E+00
Ar 1785  0.2140944E+02  0.2139410E+02  0.3191264E+02  0.0000000E+00
Ar 1786  0.2404696E+02  0.2399413E+02  0.3180882E+02  0.0000000E+00
Ar 1787  0.2390486E+02  0.2123743E+02  0.3437605E+02  0.0000000E+00
Ar 1788  0.2134216E+02  0.2393514E+02  0.3442473E+02  0.0000000E+00
Ar 1789  0.2118719E+02  0.2112299E+02  0.3690438E+02  0.0000000E+00
Ar 1790  0.2384693E+02  0.2371698E+02  0.3699163E+02  0.0000000E+00
Ar 1791  0.2366539E+02  0.2112459E+02  0.3955976E+02  0.0000000E+00
Ar 1792  0.2103373E+02  0.2371536E+02  0.3935674E+02  0.0000000E+00
Ar 1793  0.2113863E+02  0.2099085E+02  0.4216399E+02  0.0000000E+00
Ar 1794  0.2376727E+02  0.2382193E+02  0.4205032E+02  0.0000000E+00
Ar 1795  0.2383253E+02  0.2120797E+02  0.4479103E+02  0.0000000E+00
Ar 1796  0.2129316E+02  0.2382926E+02  0.4485301E+02  0.0000000E+00
Ar 1797  0.2100383E+02  0.2102804E+02  0.4724877E+02  0.0000000E+00
Ar 1798  0.2387994E+02  0.2382437E+02  0.4748792E+02  0.0000000E+00
Ar 1799  0.2396006E+02  0.2136034E+02  0.5029038E+02  0.0000000E+00
Ar 1800  0.2117570E+02  0.2376037E+02  0.5010129E+02  0.0000000E+00
Ar 1801  0.2118380E+02  0.2642312E+02  0.1493794E+00  0.0000000E+00
Ar 1802  0.2377677E+02  0.2901359E+02  0.8212528E-01  0.0000000E+00
Ar 1803  0.2384643E+02  0.2654826E+02  0.2800749E+01  0.0000000E+00
Ar 1804  0.2115830E+02  0.2914496E+02  0.2841675E+01  0.0000000E+00
Ar 1805  0.2103355E+02  0.2632547E+02  0.5281388E+01  0.0000000E+00
Ar 1806  0.2377407E+02  0.2899086E+02  0.5364751E+01  0.0000000E+00
Ar 1807  0.2377551E+02  0.2642919E+02  0.7960516E+01  0.0000000E+00
Ar 1808  0.2125073E+02  0.2911610E+02  0.8110856E+01  0.0000000E+00
Ar 1809  0.2126745E+02  0.2642704E+02  0.1064607E+02  0.0000000E+00
Ar 1810  0.2386195E+02  0.2905183E+02  0.1070362E+02  0.0000000E+00
Ar 1811  0.2397762E+02  0.2657158E+02  0.1343089E+02  0.0000000E+00
Ar 1812  0.2096706E+02  0.2880416E+02  0.1299980E+02  0.0000000E+00
Ar 1813  0.2133392E+02  0.2656652E+02  0.1607374E+02  0.0000000E+00
Ar 1814  0.2382121E+02  0.2906074E+02  0.1595090E+02  0.0000000E+00
Ar 1815  0.2389864E+02  0.2647021E+02  0.1867605E+02  0.0000000E+00
Ar 1816  0.2120397E+02  0.2913663E+02  0.1855328E+02  0.0000000E+00
Ar 1817  0.2118909E+02  0.2637431E+02  0.2124039E+02  0.0000000E+00
Ar 1818  0.2386439E+02  0.2915530E+02  0.2117886E+02  0.0000000E+00
Ar 1819  0.2394778E+02  0.2672347E+02  0.2394264E+02  0.0000000E+00
Ar 1820  0.2120716E+02  0.2907592E+02  0.2381046E+02  0.0000000E+00
Ar 1821  0.2117541E+02  0.2632086E+02  0.2637482E+02  0.0000000E+00
Ar 1822  0.2385550E+02  0.2916222E+02  0.2650311E+02  0.0000000E+00
Ar 1823  0.2391705E+02  0.2655052E+02  0.2917807E+02  0.0000000E+00
Ar 1824  0.2121612E+02  0.2906119E+02  0.2905319E+02  0.0000000E+00
Ar 1825  0.2126395E+02  0.2654492E+02  0.3174380E+02  0.0000000E+00
Ar 1826  0.2394084E+02  0.2928095E+02  0.3187785E+02  0.0000000E+00
Ar 1827  0.2380823E+02  0.2653632E+02  0.3436824E+02  0.0000000E+00
Ar 1828  0.2132727E+02  0.2927603E+02  0.3441074E+02  0.0000000E+00
Ar 1829  0.2123819E+02  0.2658520E+02  0.3696460E+02  0.0000000E+00
Ar 1830  0.2391304E+02  0.2923200E+02  0.3703025E+02  0.0000000E+00
Ar 1831  0.2373758E+02  0.2641659E+02  0.3954159E+02  0.0000000E+00
Ar 1832  0.2113733E+02  0.2904796E+02  0.3958537E+02  0.0000000E+00
Ar 1833  0.2109621E+02  0.2630158E+02  0.4205967E+02  0.0000000E+00
Ar 1834  0.2380901E+02  0.2907839E+02  0.4219146E+02  0.0000000E+00
Ar 1835  0.2393310E+02  0.2650710E+02  0.4483480E+02  0.0000000E+00
Ar 1836  0.2121382E+02  0.2897436E+02  0.4488409E+02  0.0000000E+00
Ar 1837  0.2137038E+02  0.2648914E+02  0.4764139E+02  0.0000000E+00
Ar 1838  0.2376107E+02  0.2900364E+02  0.4744754E+02  0.0000000E+00
Ar 1839  0.2387516E+02  0.2649824E+02  0.5023746E+02  0.0000000E+00
Ar 1840  0.2115358E+02  0.2895611E+02  0.5005738E+02  0.0000000E+00
Ar 1841  0.2112866E+02  0.3160090E+02  0.2673720E-01  0.0000000E+00
Ar 1842  0.2388765E+02  0.3433869E+02  0.2208636E+00  0.0000000E+00
Ar 1843  0.2374649E+02  0.3162715E+02  0.2655229E+01  0.0000000E+00
Ar 1844  0.2096617E+02  0.3404250E+02  0.2587748E+01  0.0000000E+00
Ar 1845  0.2132239E+02  0.3176932E+02  0.5600315E+01  0.0000000E+00
Ar 1846  0.2389428E+02  0.3437117E+02  0.5585741E+01  0.0000000E+00
Ar 1847  0.2402513E+02  0.3175082E+02  0.8268817E+01  0.0000000E+00
Ar 1848  0.2125991E+02  0.3437081E+02  0.8114054E+01  0.0000000E+00
Ar 1849  0.2146052E+02  0.3183960E+02  0.1091942E+02  0.0000000E+00
Ar 1850  0.2383222E+02  0.3433724E+02  0.1073942E+02  0.0000000E+00
Ar 1851  0.2389559E+02  0.3179212E+02  0.1343243E+02  0.0000000E+00
Ar 1852  0.2094431E+02  0.3426338E+02  0.1317746E+02  0.0000000E+00
Ar 1853  0.2113114E+02  0.3163284E+02  0.1582789E+02  0.0000000E+00
Ar 1854  0.2366852E+02  0.3424779E+02  0.1588523E+02  0.0000000E+00
Ar 1855  0.2379071E+02  0.3170687E+02  0.1851397E+02  0.0000000E+00
Ar 1856  0.2106366E+02  0.3423671E+02  0.1844639E+02  0.0000000E+00
Ar 1857  0.2098953E+02  0.3154477E+02  0.2089252E+02  0.0000000E+00
Ar 1858  0.2379247E+02  0.3425727E+02  0.2118687E+02  0.0000000E+00
Ar 1859  0.2387383E+02  0.3173700E+02  0.2382513E+02  0.0000000E+00
Ar 1860  0.2108049E+02  0.3417659E+02  0.2364226E+02  0.0000000E+00
Ar 1861  0.2142298E+02  0.3188671E+02  0.2660030E+02  0.0000000E+00
Ar 1862  0.2393912E+02  0.3440504E+02  0.2656587E+02  0.0000000E+00
Ar 1863  0.2388262E+02  0.3188416E+02  0.2920621E+02  0.0000000E+00
Ar 1864  0.2109594E+02  0.3429924E+02  0.2901456E+02  0.0000000E+00
Ar 1865  0.2125421E+02  0.3180803E+02  0.3178703E+02  0.0000000E+00
Ar 1866  0.2385600E+02  0.3445277E+02  0.3184046E+02  0.0000000E+00
Ar 1867  0.2381792E+02  0.3172487E+02  0.3428433E+02  0.0000000E+00
Ar 1868  0.2103759E+02  0.3440047E+02  0.3434826E+02  0.0000000E+00
Ar 1869  0.2089518E+02  0.3169833E+02  0.3683597E+02  0.0000000E+00
Ar 1870  0.2351450E+02  0.3429427E+02  0.3687128E+02  0.0000000E+00
Ar 1871  0.2378497E+02  0.3174286E+02  0.3962116E+02  0.0000000E+00
Ar 1872  0.2119110E+02  0.3443136E+02  0.3962533E+02  0.0000000E+00
Ar 1873  0.2132321E+02  0.3178722E+02  0.4235711E+02  0.0000000E+00
Ar 1874  0.2368102E+02  0.3420735E+02  0.4213081E+02  0.0000000E+00
Ar 1875  0.2378263E+02  0.3163418E+02  0.4479595E+02  0.0000000E+00
Ar 1876  0.2101022E+02  0.3421233E+02  0.4480473E+02  0.0000000E+00
Ar 1877  0.2116542E+02  0.3166684E+02  0.4748502E+02  0.0000000E+00
Ar 1878  0.2357937E+02  0.3416972E+02  0.4732180E+02  0.0000000E+00
Ar 1879  0.2371146E+02  0.3161329E+02  0.5000212E+02  0.0000000E+00
Ar 1880  0.2142172E+02  0.3453605E+02  0.5034226E+02  0.0000000E+00
Ar 1881  0.2118224E+02  0.3690929E+02  0.2711544E+00  0.0000000E+00
Ar 1882  0.2363630E+02  0.3945862E+02  0.1760253E+00  0.0000000E+00
Ar 1883  0.2371703E+02  0.3685470E+02  0.2733549E+01  0.0000000E+00
Ar 1884  0.2084885E+02  0.3935905E+02  0.2597225E+01  0.0000000E+00
Ar 1885  0.2125115E+02  0.3696236E+02  0.5523858E+01  0.0000000E+00
Ar 1886  0.2366510E+02  0.3952265E+02  0.5205958E+01  0.0000000E+00
Ar 1887  0.2388230E+02  0.3698358E+02  0.8110312E+01  0.0000000E+00
Ar 1888  0.2123320E+02  0.3955140E+02  0.8006157E+01  0.0000000E+00
Ar 1889  0.2112719E+02  0.3695433E+02  0.1065294E+02  0.0000000E+00
Ar 1890  0.2377265E+02  0.3952300E+02  0.1073313E+02  0.0000000E+00
Ar 1891  0.2367533E+02  0.3681219E+02  0.1324774E+02  0.0000000E+00
Ar 1892  0.2110698E+02  0.3953311E+02  0.1332753E+02  0.0000000E+00
Ar 1893  0.2123034E+02  0.3694015E+02  0.1590576E+02  0.0000000E+00
Ar 1894  0.2393292E+02  0.3954899E+02  0.1606105E+02  0.0000000E+00
Ar 1895  0.2372618E+02  0.3682843E+02  0.1851307E+02  0.0000000E+00
Ar 1896  0.2084169E+02  0.3931404E+02  0.1831420E+02  0.0000000E+00
Ar 1897  0.2101726E+02  0.3676585E+02  0.2105625E+02  0.0000000E+00
Ar 1898  0.2356457E+02  0.3939560E+02  0.2096935E+02  0.0000000E+00
Ar 1899  0.2386064E+02  0.3692932E+02  0.2385955E+02  0.0000000E+00
Ar 1900  0.2109755E+02  0.3943613E+02  0.2370707E+02  0.0000000E+00
Ar 1901  0.2110607E+02  0.3678684E+02  0.2630761E+02  0.0000000E+00
Ar 1902  0.2376066E+02  0.3947068E+02  0.2644552E+02  0.0000000E+00
Ar 1903  0.2394565E+02  0.3710947E+02  0.2936563E+02  0.0000000E+00
Ar 1904  0.2101890E+02  0.3941143E+02  0.2892989E+02  0.0000000E+00
Ar 1905  0.2103492E+02  0.3690004E+02  0.3171475E+02  0.0000000E+00
Ar 1906  0.2373528E+02  0.3977063E+02  0.3183989E+02  0.0000000E+00
Ar 1907  0.2369658E+02  0.3708000E+02  0.3445990E+02  0.0000000E+00
Ar 1908  0.2083404E+02  0.3938572E+02  0.3417053E+02  0.0000000E+00
Ar 1909  0.2101692E+02  0.3699012E+02  0.3696999E+02  0.0000000E+00
Ar 1910  0.2365158E+02  0.3955807E+02  0.3693622E+02  0.0000000E+00
Ar 1911  0.2369232E+02  0.3694473E+02  0.3957597E+02  0.0000000E+00
Ar 1912  0.2117880E+02  0.3967094E+02  0.3969885E+02  0.0000000E+00
Ar 1913  0.2089512E+02  0.3680436E+02  0.4211660E+02  0.0000000E+00
Ar 1914  0.2379983E+02  0.3960937E+02  0.4240417E+02  0.0000000E+00
Ar 1915  0.2337637E+02  0.3659020E+02  0.4453740E+02  0.0000000E+00
Ar 1916  0.2104922E+02  0.3952558E+02  0.4489495E+02  0.0000000E+00
Ar 1917  0.2082699E+02  0.3665932E+02  0.4719626E+02  0.0000000E+00
Ar 1918  0.2359523E+02  0.3940495E+02  0.4738112E+02  0.0000000E+00
Ar 1919  0.2404542E+02  0.3714428E+02  0.5037531E+02  0.0000000E+00
Ar 1920  0.2109176E+02  0.3929850E+02  0.5014602E+02  0.0000000E+00
Ar 1921  0.2094797E+02  0.4196964E+02  0.9329973E-01  0.0000000E+00
Ar 1922  0.2349350E+02  0.4456817E+02  0.5255373E+02  0.0000000E+00
Ar 1923  0.2371543E+02  0.4215260E+02  0.2750840E+01  0.0000000E+00
Ar 1924  0.2118995E+02  0.4486432E+02  0.2676328E+01  0.0000000E+00
Ar 1925  0.2128982E+02  0.4252190E+02  0.5555437E+01  0.0000000E+00
Ar 1926  0.2378907E+02  0.4484652E+02  0.5192502E+01  0.0000000E+00
Ar 1927  0.2372472E+02  0.4201859E+02  0.7757776E+01  0.0000000E+00
Ar 1928  0.2149844E+02  0.4522133E+02  0.8034393E+01  0.0000000E+00
Ar 1929  0.2118115E+02  0.4204468E+02  0.1066628E+02  0.0000000E+00
Ar 1930  0.2382129E+02  0.4466767E+02  0.1068230E+02  0.0000000E+00
Ar 1931  0.2377144E+02  0.4213175E+02  0.1333292E+02  0.0000000E+00
Ar 1932  0.2110812E+02  0.4470062E+02  0.1309098E+02  0.0000000E+00
Ar 1933  0.2103129E+02  0.4214107E+02  0.1587224E+02  0.0000000E+00
Ar 1934  0.2352163E+02  0.4465616E+02  0.1569580E+02  0.0000000E+00
Ar 1935  0.2362644E+02  0.4201323E+02  0.1852178E+02  0.0000000E+00
Ar 1936  0.2113730E+02  0.4487204E+02  0.1857157E+02  0.0000000E+00
Ar 1937  0.2084480E+02  0.4192724E+02  0.2078848E+02  0.0000000E+00
Ar 1938  0.2366712E+02  0.4465212E+02  0.2108781E+02  0.0000000E+00
Ar 1939  0.2378014E+02  0.4209670E+02  0.2374419E+02  0.0000000E+00
Ar 1940  0.2112455E+02  0.4464027E+02  0.2362399E+02  0.0000000E+00
Ar 1941  0.2111199E+02  0.4208426E+02  0.2632940E+02  0.0000000E+00
Ar 1942  0.2401931E+02  0.4491687E+02  0.2656962E+02  0.0000000E+00
Ar 1943  0.2370878E+02  0.4209506E+02  0.2896445E+02  0.0000000E+00
Ar 1944  0.2122705E+02  0.4476834E+02  0.2901343E+02  0.0000000E+00
Ar 1945  0.2109891E+02  0.4221483E+02  0.3160695E+02  0.0000000E+00
Ar 1946  0.2380881E+02  0.4485176E+02  0.3163373E+02  0.0000000E+00
Ar 1947  0.2374092E+02  0.4226393E+02  0.3434895E+02  0.0000000E+00
Ar 1948  0.2103875E+02  0.4486904E+02  0.3423795E+02  0.0000000E+00
Ar 1949  0.2105753E+02  0.4226510E+02  0.3693344E+02  0.0000000E+00
Ar 1950  0.2367450E+02  0.4479571E+02  0.3679433E+02  0.0000000E+00
Ar 1951  0.2371218E+02  0.4224255E+02  0.3959653E+02  0.0000000E+00
Ar 1952  0.2100925E+02  0.4483221E+02  0.3954777E+02  0.0000000E+00
Ar 1953  0.2081572E+02  0.4206275E+02  0.4208727E+02  0.0000000E+00
Ar 1954  0.2364246E+02  0.4496980E+02  0.4221452E+02  0.0000000E+00
Ar 1955  0.2358089E+02  0.4209968E+02  0.4489907E+02  0.0000000E+00
Ar 1956  0.2115256E+02  0.4485824E+02  0.4482895E+02  0.0000000E+00
Ar 1957  0.2114123E+02  0.4224500E+02  0.4754769E+02  0.0000000E+00
Ar 1958  0.2372001E+02  0.4486800E+02  0.4754029E+02  0.0000000E+00
Ar 1959  0.2365616E+02  0.4211078E+02  0.5003003E+02  0.0000000E+00
Ar 1960  0.2099872E+02  0.4492611E+02  0.5005097E+02  0.0000000E+00
Ar 1961  0.2119598E+02  0.4754709E+02  0.8141892E-01  0.0000000E+00
Ar 1962  0.2378668E+02  0.5014376E+02  0.4947669E-01  0.0000000E+00
Ar 1963  0.2379470E+02  0.4752129E+02  0.2629835E+01  0.0000000E+00
Ar 1964  0.2117980E+02  0.5013636E+02  0.2682739E+01  0.0000000E+00
Ar 1965  0.2151436E+02  0.4776125E+02  0.5532265E+01  0.0000000E+00
Ar 1966  0.2393268E+02  0.5029274E+02  0.5356296E+01  0.0000000E+00
Ar 1967  0.2392260E+02  0.4765349E+02  0.8027364E+01  0.0000000E+00
Ar 1968  0.2097500E+02  0.5006051E+02  0.7885695E+01  0.0000000E+00
Ar 1969  0.2104789E+02  0.4735587E+02  0.1050860E+02  0.0000000E+00
Ar 1970  0.2371177E+02  0.5012431E+02  0.1070139E+02  0.0000000E+00
Ar 1971  0.2378609E+02  0.4756746E+02  0.1329547E+02  0.0000000E+00
Ar 1972  0.2112892E+02  0.5015032E+02  0.1324159E+02  0.0000000E+00
Ar 1973  0.2110058E+02  0.4736677E+02  0.1575584E+02  0.0000000E+00
Ar 1974  0.2387088E+02  0.5015419E+02  0.1603703E+02  0.0000000E+00
Ar 1975  0.2377368E+02  0.4750583E+02  0.1847559E+02  0.0000000E+00
Ar 1976  0.2116474E+02  0.5005713E+02  0.1852336E+02  0.0000000E+00
Ar 1977  0.2146830E+02  0.4759776E+02  0.2142872E+02  0.0000000E+00
Ar 1978  0.2372843E+02  0.5017599E+02  0.2105928E+02  0.0000000E+00
Ar 1979  0.2395009E+02  0.4744105E+02  0.2397037E+02  0.0000000E+00
Ar 1980  0.2118443E+02  0.5030608E+02  0.2383256E+02  0.0000000E+00
Ar 1981  0.2127875E+02  0.4763939E+02  0.2653196E+02  0.0000000E+00
Ar 1982  0.2374733E+02  0.5016071E+02  0.2634288E+02  0.0000000E+00
Ar 1983  0.2377351E+02  0.4749425E+02  0.2907100E+02  0.0000000E+00
Ar 1984  0.2137655E+02  0.5033808E+02  0.2928063E+02  0.0000000E+00
Ar 1985  0.2119371E+02  0.4746486E+02  0.3167633E+02  0.0000000E+00
Ar 1986  0.2378793E+02  0.5006814E+02  0.3172681E+02  0.0000000E+00
Ar 1987  0.2377014E+02  0.4751619E+02  0.3433142E+02  0.0000000E+00
Ar 1988  0.2104948E+02  0.4999463E+02  0.3415231E+02  0.0000000E+00
Ar 1989  0.2110226E+02  0.4754226E+02  0.3687176E+02  0.0000000E+00
Ar 1990  0.2370320E+02  0.5007551E+02  0.3680984E+02  0.0000000E+00
Ar 1991  0.2344462E+02  0.4724071E+02  0.3922471E+02  0.0000000E+00
Ar 1992  0.2118598E+02  0.5009870E+02  0.3947355E+02  0.0000000E+00
Ar 1993  0.2097739E+02  0.4744036E+02  0.4210593E+02  0.0000000E+00
Ar 1994  0.2372638E+02  0.5009121E+02  0.4207123E+02  0.0000000E+00
Ar 1995  0.2374569E+02  0.4751661E+02  0.4488422E+02  0.0000000E+00
Ar 1996  0.2098861E+02  0.5002208E+02  0.4483269E+02  0.0000000E+00
Ar 1997  0.2094293E+02  0.4736640E+02  0.4735071E+02  0.0000000E+00
Ar 1998  0.2361873E+02  0.5000842E+02  0.4744801E+02  0.0000000E+00
Ar 1999  0.2371741E+02  0.4750821E+02  0.5006718E+02  0.0000000E+00
Ar 2000  0.2108772E+02  0.5009005E+02  0.4997842E+02  0.0000000E+00
Ar 2001  0.2630748E+02  0.5261520E+02  0.5257138E+02  0.0000000E+00
Ar 2002  0.2910916E+02  0.2706207E+01  0.9811630E-01  0.0000000E+00
Ar 2003  0.2899938E+02  0.5264281E+02  0.2589530E+01  0.0000000E+00
Ar 2004  0.2653543E+02  0.2812981E+01  0.2769730E+01  0.0000000E+00
Ar 2005  0.2641653E+02  0.7538693E-01  0.5261948E+01  0.0000000E+00
Ar 2006  0.2897411E+02  0.2562501E+01  0.5177493E+01  0.0000000E+00
Ar 2007  0.2906301E+02  0.8000878E-01  0.7946783E+01  0.0000000E+00
Ar 2008  0.2634765E+02  0.2484678E+01  0.7941289E+01  0.0000000E+00
Ar 2009  0.2629995E+02  0.2307134E-01  0.1044496E+02  0.0000000E+00
Ar 2010  0.2899801E+02  0.2631463E+01  0.1067937E+02  0.0000000E+00
Ar 2011  0.2892768E+02  0.1577033E-01  0.1315648E+02  0.0000000E+00
Ar 2012  0.2645014E+02  0.2774799E+01  0.1331974E+02  0.0000000E+00
Ar 2013  0.2616896E+02  0.5250056E+02  0.1562304E+02  0.0000000E+00
Ar 2014  0.2898311E+02  0.2586077E+01  0.1585309E+02  0.0000000E+00
Ar 2015  0.2914263E+02  0.1464565E+00  0.1863060E+02  0.0000000E+00
Ar 2016  0.2638883E+02  0.2566923E+01  0.1840485E+02  0.0000000E+00
Ar 2017  0.2662194E+02  0.3323627E+00  0.2135788E+02  0.0000000E+00
Ar 2018  0.2910045E+02  0.2770914E+01  0.2118867E+02  0.0000000E+00
Ar 2019  0.2906070E+02  0.1351702E+00  0.2381773E+02  0.0000000E+00
Ar 2020  0.2649902E+02  0.2867971E+01  0.2396936E+02  0.0000000E+00
Ar 2021  0.2646274E+02  0.1773792E+00  0.2648398E+02  0.0000000E+00
Ar 2022  0.2898596E+02  0.2746887E+01  0.2641911E+02  0.0000000E+00
Ar 2023  0.2899073E+02  0.1201429E+00  0.2906407E+02  0.0000000E+00
Ar 2024  0.2642060E+02  0.2733283E+01  0.2906234E+02  0.0000000E+00
Ar 2025  0.2638808E+02  0.8626019E-01  0.3169609E+02  0.0000000E+00
Ar 2026  0.2899015E+02  0.2740318E+01  0.3161887E+02  0.0000000E+00
Ar 2027  0.2898153E+02  0.2088316E+00  0.3443471E+02  0.0000000E+00
Ar 2028  0.2621788E+02  0.2552994E+01  0.3405806E+02  0.0000000E+00
Ar 2029  0.2623302E+02  0.5262774E+02  0.3681592E+02  0.0000000E+00
Ar 2030  0.2900220E+02  0.2803262E+01  0.3697836E+02  0.0000000E+00
Ar 2031  0.2895285E+02  0.5258657E+02  0.3937548E+02  0.0000000E+00
Ar 2032  0.2623083E+02  0.2585119E+01  0.3935848E+02  0.0000000E+00
Ar 2033  0.2636773E+02  0.7541418E-01  0.4231504E+02  0.0000000E+00
Ar 2034  0.2881904E+02  0.2522929E+01  0.4189315E+02  0.0000000E+00
Ar 2035  0.2906716E+02  0.9896752E-01  0.4486890E+02  0.0000000E+00
Ar 2036  0.2633939E+02  0.2682057E+01  0.4491306E+02  0.0000000E+00
Ar 2037  0.2607827E+02  0.5242608E+02  0.4713243E+02  0.0000000E+00
Ar 2038  0.2894858E+02  0.2646550E+01  0.4742438E+02  0.0000000E+00
Ar 2039  0.2909933E+02  0.1138895E+00  0.5005769E+02  0.0000000E+00
Ar 2040  0.2639281E+02  0.2662974E+01  0.5007061E+02  0.0000000E+00
Ar 2041  0.2643334E+02  0.5258437E+01  0.5263334E+02  0.0000000E+00
Ar 2042  0.2907901E+02  0.7941151E+01  0.1373355E+00  0.0000000E+00
Ar 2043  0.2883959E+02  0.5129157E+01  0.2475176E+01  0.0000000E+00
Ar 2044  0.2642865E+02  0.7918927E+01  0.2655840E+01  0.0000000E+00
Ar 2045  0.2643992E+02  0.5378979E+01  0.5157810E+01  0.0000000E+00
Ar 2046  0.2917747E+02  0.8132851E+01  0.5420550E+01  0.0000000E+00
Ar 2047  0.2867172E+02  0.4841971E+01  0.7627207E+01  0.0000000E+00
Ar 2048  0.2630837E+02  0.7847167E+01  0.7882835E+01  0.0000000E+00
Ar 2049  0.2657465E+02  0.5469915E+01  0.1076394E+02  0.0000000E+00
Ar 2050  0.2916828E+02  0.8063580E+01  0.1069854E+02  0.0000000E+00
Ar 2051  0.2906622E+02  0.5389405E+01  0.1342868E+02  0.0000000E+00
Ar 2052  0.2637009E+02  0.7966966E+01  0.1329822E+02  0.0000000E+00
Ar 2053  0.2646849E+02  0.5434069E+01  0.1596588E+02  0.0000000E+00
Ar 2054  0.2920816E+02  0.8248803E+01  0.1618335E+02  0.0000000E+00
Ar 2055  0.2908258E+02  0.5385449E+01  0.1853699E+02  0.0000000E+00
Ar 2056  0.2627756E+02  0.7924438E+01  0.1844388E+02  0.0000000E+00
Ar 2057  0.2647853E+02  0.5416038E+01  0.2122074E+02  0.0000000E+00
Ar 2058  0.2893018E+02  0.7973666E+01  0.2109412E+02  0.0000000E+00
Ar 2059  0.2912529E+02  0.5488064E+01  0.2384592E+02  0.0000000E+00
Ar 2060  0.2644531E+02  0.8033490E+01  0.2379428E+02  0.0000000E+00
Ar 2061  0.2648551E+02  0.5413315E+01  0.2658941E+02  0.0000000E+00
Ar 2062  0.2910951E+02  0.8158244E+01  0.2639805E+02  0.0000000E+00
Ar 2063  0.2909633E+02  0.5392157E+01  0.2917748E+02  0.0000000E+00
Ar 2064  0.2661433E+02  0.8140458E+01  0.2922713E+02  0.0000000E+00
Ar 2065  0.2657183E+02  0.5522105E+01  0.3178617E+02  0.0000000E+00
Ar 2066  0.2916768E+02  0.8060288E+01  0.3165665E+02  0.0000000E+00
Ar 2067  0.2900795E+02  0.5456111E+01  0.3420985E+02  0.0000000E+00
Ar 2068  0.2651176E+02  0.7997641E+01  0.3438748E+02  0.0000000E+00
Ar 2069  0.2658206E+02  0.5559980E+01  0.3704815E+02  0.0000000E+00
Ar 2070  0.2928082E+02  0.8269259E+01  0.3714295E+02  0.0000000E+00
Ar 2071  0.2909611E+02  0.5463242E+01  0.3961720E+02  0.0000000E+00
Ar 2072  0.2630024E+02  0.7990426E+01  0.3951995E+02  0.0000000E+00
Ar 2073  0.2627098E+02  0.5180586E+01  0.4204306E+02  0.0000000E+00
Ar 2074  0.2893926E+02  0.8120685E+01  0.4224376E+02  0.0000000E+00
Ar 2075  0.2880584E+02  0.5171225E+01  0.4467571E+02  0.0000000E+00
Ar 2076  0.2648336E+02  0.8065109E+01  0.4495312E+02  0.0000000E+00
Ar 2077  0.2639267E+02  0.5455512E+01  0.4755950E+02  0.0000000E+00
Ar 2078  0.2906676E+02  0.8034417E+01  0.4751357E+02  0.0000000E+00
Ar 2079  0.2900766E+02  0.5212492E+01  0.5002341E+02  0.0000000E+00
Ar 2080  0.2662012E+02  0.8209245E+01  0.5032993E+02  0.0000000E+00
Ar 2081  0.2636625E+02  0.1068614E+02  0.1227058E+00  0.0000000E+00
Ar 2082  0.2892302E+02  0.1322136E+02  0.3070672E-01  0.0000000E+00
Ar 2083  0.2900447E+02  0.1059917E+02  0.2683482E+01  0.0000000E+00
Ar 2084  0.2640704E+02  0.1324339E+02  0.2765823E+01  0.0000000E+00
Ar 2085  0.2622211E+02  0.1029414E+02  0.5122397E+01  0.0000000E+00
Ar 2086  0.2897512E+02  0.1329303E+02  0.5309897E+01  0.0000000E+00
Ar 2087  0.2892480E+02  0.1058956E+02  0.7890038E+01  0.0000000E+00
Ar 2088  0.2620362E+02  0.1302907E+02  0.7808918E+01  0.0000000E+00
Ar 2089  0.2609006E+02  0.1033299E+02  0.1036455E+02  0.0000000E+00
Ar 2090  0.2895861E+02  0.1316553E+02  0.1055780E+02  0.0000000E+00
Ar 2091  0.2893843E+02  0.1055280E+02  0.1311192E+02  0.0000000E+00
Ar 2092  0.2628381E+02  0.1321835E+02  0.1326639E+02  0.0000000E+00
Ar 2093  0.2640204E+02  0.1059902E+02  0.1595889E+02  0.0000000E+00
Ar 2094  0.2879196E+02  0.1298126E+02  0.1559034E+02  0.0000000E+00
Ar 2095  0.2909849E+02  0.1086469E+02  0.1872024E+02  0.0000000E+00
Ar 2096  0.2620880E+02  0.1316261E+02  0.1836278E+02  0.0000000E+00
Ar 2097  0.2622715E+02  0.1051490E+02  0.2100511E+02  0.0000000E+00
Ar 2098  0.2889219E+02  0.1332732E+02  0.2116259E+02  0.0000000E+00
Ar 2099  0.2891872E+02  0.1064713E+02  0.2369781E+02  0.0000000E+00
Ar 2100  0.2634635E+02  0.1318388E+02  0.2373636E+02  0.0000000E+00
Ar 2101  0.2657424E+02  0.1078748E+02  0.2647575E+02  0.0000000E+00
Ar 2102  0.2918230E+02  0.1351231E+02  0.2653003E+02  0.0000000E+00
Ar 2103  0.2903197E+02  0.1060739E+02  0.2904650E+02  0.0000000E+00
Ar 2104  0.2638224E+02  0.1325665E+02  0.2906942E+02  0.0000000E+00
Ar 2105  0.2652120E+02  0.1078521E+02  0.3165352E+02  0.0000000E+00
Ar 2106  0.2897196E+02  0.1335071E+02  0.3175523E+02  0.0000000E+00
Ar 2107  0.2892384E+02  0.1054293E+02  0.3406106E+02  0.0000000E+00
Ar 2108  0.2609755E+02  0.1305821E+02  0.3408350E+02  0.0000000E+00
Ar 2109  0.2606472E+02  0.1053768E+02  0.3680964E+02  0.0000000E+00
Ar 2110  0.2860437E+02  0.1301054E+02  0.3653284E+02  0.0000000E+00
Ar 2111  0.2881863E+02  0.1073170E+02  0.3950608E+02  0.0000000E+00
Ar 2112  0.2630610E+02  0.1333058E+02  0.3941452E+02  0.0000000E+00
Ar 2113  0.2649200E+02  0.1075858E+02  0.4235678E+02  0.0000000E+00
Ar 2114  0.2888086E+02  0.1326234E+02  0.4202427E+02  0.0000000E+00
Ar 2115  0.2908876E+02  0.1083256E+02  0.4500823E+02  0.0000000E+00
Ar 2116  0.2626977E+02  0.1327976E+02  0.4478306E+02  0.0000000E+00
Ar 2117  0.2650787E+02  0.1077991E+02  0.4760190E+02  0.0000000E+00
Ar 2118  0.2896064E+02  0.1338618E+02  0.4752865E+02  0.0000000E+00
Ar 2119  0.2899692E+02  0.1073666E+02  0.5008828E+02  0.0000000E+00
Ar 2120  0.2630946E+02  0.1330156E+02  0.5007889E+02  0.0000000E+00
Ar 2121  0.2647420E+02  0.1606871E+02  0.2530946E+00  0.0000000E+00
Ar 2122  0.2896015E+02  0.1847699E+02  0.5264441E+02  0.0000000E+00
Ar 2123  0.2892127E+02  0.1580978E+02  0.2564971E+01  0.0000000E+00
Ar 2124  0.2639397E+02  0.1860775E+02  0.2809948E+01  0.0000000E+00
Ar 2125  0.2615641E+02  0.1573365E+02  0.5271796E+01  0.0000000E+00
Ar 2126  0.2904135E+02  0.1855794E+02  0.5458696E+01  0.0000000E+00
Ar 2127  0.2889425E+02  0.1584550E+02  0.7997910E+01  0.0000000E+00
Ar 2128  0.2624076E+02  0.1841004E+02  0.7765415E+01  0.0000000E+00
Ar 2129  0.2634570E+02  0.1582390E+02  0.1063407E+02  0.0000000E+00
Ar 2130  0.2875684E+02  0.1840034E+02  0.1053120E+02  0.0000000E+00
Ar 2131  0.2870559E+02  0.1559114E+02  0.1298855E+02  0.0000000E+00
Ar 2132  0.2650521E+02  0.1867544E+02  0.1350924E+02  0.0000000E+00
Ar 2133  0.2625687E+02  0.1580239E+02  0.1583369E+02  0.0000000E+00
Ar 2134  0.2894608E+02  0.1842504E+02  0.1586524E+02  0.0000000E+00
Ar 2135  0.2899833E+02  0.1590827E+02  0.1849493E+02  0.0000000E+00
Ar 2136  0.2659492E+02  0.1871133E+02  0.1877450E+02  0.0000000E+00
Ar 2137  0.2642537E+02  0.1583462E+02  0.2098246E+02  0.0000000E+00
Ar 2138  0.2922702E+02  0.1881171E+02  0.2128724E+02  0.0000000E+00
Ar 2139  0.2909107E+02  0.1605290E+02  0.2391688E+02  0.0000000E+00
Ar 2140  0.2635779E+02  0.1839848E+02  0.2357826E+02  0.0000000E+00
Ar 2141  0.2635596E+02  0.1604646E+02  0.2632192E+02  0.0000000E+00
Ar 2142  0.2905679E+02  0.1866186E+02  0.2647843E+02  0.0000000E+00
Ar 2143  0.2886966E+02  0.1599918E+02  0.2900040E+02  0.0000000E+00
Ar 2144  0.2652993E+02  0.1873412E+02  0.2916788E+02  0.0000000E+00
Ar 2145  0.2653027E+02  0.1602745E+02  0.3184606E+02  0.0000000E+00
Ar 2146  0.2933385E+02  0.1882419E+02  0.3199319E+02  0.0000000E+00
Ar 2147  0.2918904E+02  0.1610279E+02  0.3446938E+02  0.0000000E+00
Ar 2148  0.2643903E+02  0.1858918E+02  0.3436191E+02  0.0000000E+00
Ar 2149  0.2618350E+02  0.1567468E+02  0.3668120E+02  0.0000000E+00
Ar 2150  0.2912866E+02  0.1865859E+02  0.3704487E+02  0.0000000E+00
Ar 2151  0.2912244E+02  0.1604234E+02  0.3955892E+02  0.0000000E+00
Ar 2152  0.2641762E+02  0.1863655E+02  0.3956225E+02  0.0000000E+00
Ar 2153  0.2626642E+02  0.1586491E+02  0.4203640E+02  0.0000000E+00
Ar 2154  0.2896027E+02  0.1861671E+02  0.4222615E+02  0.0000000E+00
Ar 2155  0.2875298E+02  0.1568798E+02  0.4464088E+02  0.0000000E+00
Ar 2156  0.2616022E+02  0.1837714E+02  0.4458116E+02  0.0000000E+00
Ar 2157  0.2627136E+02  0.1584013E+02  0.4741595E+02  0.0000000E+00
Ar 2158  0.2886101E+02  0.1841856E+02  0.4733251E+02  0.0000000E+00
Ar 2159  0.2896458E+02  0.1594977E+02  0.5002248E+02  0.0000000E+00
Ar 2160  0.2632747E+02  0.1846364E+02  0.5008121E+02  0.0000000E+00
Ar 2161  0.2656436E+02  0.2132466E+02  0.1809792E+00  0.0000000E+00
Ar 2162  0.2922121E+02  0.2393744E+02  0.2308010E+00  0.0000000E+00
Ar 2163  0.2899820E+02  0.2107389E+02  0.2629147E+01  0.0000000E+00
Ar 2164  0.2651808E+02  0.2383625E+02  0.2797666E+01  0.0000000E+00
Ar 2165  0.2650331E+02  0.2130222E+02  0.5449537E+01  0.0000000E+00
Ar 2166  0.2906601E+02  0.2389789E+02  0.5391098E+01  0.0000000E+00
Ar 2167  0.2892358E+02  0.2117678E+02  0.8029682E+01  0.0000000E+00
Ar 2168  0.2668213E+02  0.2413474E+02  0.8146058E+01  0.0000000E+00
Ar 2169  0.2649991E+02  0.2135307E+02  0.1081991E+02  0.0000000E+00
Ar 2170  0.2898493E+02  0.2375880E+02  0.1063195E+02  0.0000000E+00
Ar 2171  0.2900112E+02  0.2112560E+02  0.1325824E+02  0.0000000E+00
Ar 2172  0.2646371E+02  0.2384736E+02  0.1335882E+02  0.0000000E+00
Ar 2173  0.2646859E+02  0.2120703E+02  0.1596048E+02  0.0000000E+00
Ar 2174  0.2942677E+02  0.2410299E+02  0.1629622E+02  0.0000000E+00
Ar 2175  0.2928441E+02  0.2129179E+02  0.1868071E+02  0.0000000E+00
Ar 2176  0.2651356E+02  0.2382997E+02  0.1865633E+02  0.0000000E+00
Ar 2177  0.2670226E+02  0.2136954E+02  0.2149568E+02  0.0000000E+00
Ar 2178  0.2919230E+02  0.2390134E+02  0.2128338E+02  0.0000000E+00
Ar 2179  0.2929778E+02  0.2146901E+02  0.2406920E+02  0.0000000E+00
Ar 2180  0.2655804E+02  0.2388331E+02  0.2394093E+02  0.0000000E+00
Ar 2181  0.2655174E+02  0.2125980E+02  0.2647481E+02  0.0000000E+00
Ar 2182  0.2916567E+02  0.2392232E+02  0.2653943E+02  0.0000000E+00
Ar 2183  0.2939622E+02  0.2159522E+02  0.2938693E+02  0.0000000E+00
Ar 2184  0.2644013E+02  0.2385903E+02  0.2907941E+02  0.0000000E+00
Ar 2185  0.2652700E+02  0.2129572E+02  0.3177751E+02  0.0000000E+00
Ar 2186  0.2921468E+02  0.2408020E+02  0.3185010E+02  0.0000000E+00
Ar 2187  0.2909907E+02  0.2117313E+02  0.3445739E+02  0.0000000E+00
Ar 2188  0.2667724E+02  0.2387871E+02  0.3442238E+02  0.0000000E+00
Ar 2189  0.2658930E+02  0.2135472E+02  0.3715498E+02  0.0000000E+00
Ar 2190  0.2924416E+02  0.2387001E+02  0.3707332E+02  0.0000000E+00
Ar 2191  0.2916236E+02  0.2131176E+02  0.3966726E+02  0.0000000E+00
Ar 2192  0.2664621E+02  0.2404252E+02  0.3970406E+02  0.0000000E+00
Ar 2193  0.2651500E+02  0.2133392E+02  0.4224677E+02  0.0000000E+00
Ar 2194  0.2926970E+02  0.2402664E+02  0.4242163E+02  0.0000000E+00
Ar 2195  0.2891036E+02  0.2097112E+02  0.4471764E+02  0.0000000E+00
Ar 2196  0.2622867E+02  0.2372547E+02  0.4459271E+02  0.0000000E+00
Ar 2197  0.2636568E+02  0.2113579E+02  0.4745156E+02  0.0000000E+00
Ar 2198  0.2896080E+02  0.2372684E+02  0.4741000E+02  0.0000000E+00
Ar 2199  0.2895935E+02  0.2110258E+02  0.5003572E+02  0.0000000E+00
Ar 2200  0.2665491E+02  0.2401390E+02  0.5032932E+02  0.0000000E+00
Ar 2201  0.2653246E+02  0.2657166E+02  0.2306262E+00  0.0000000E+00
Ar 2202  0.2901320E+02  0.2905622E+02  0.6819871E-01  0.0000000E+00
Ar 2203  0.2902109E+02  0.2641255E+02  0.2705925E+01  0.0000000E+00
Ar 2204  0.2647032E+02  0.2914023E+02  0.2822189E+01  0.0000000E+00
Ar 2205  0.2639581E+02  0.2634781E+02  0.5275769E+01  0.0000000E+00
Ar 2206  0.2905911E+02  0.2903303E+02  0.5385502E+01  0.0000000E+00
Ar 2207  0.2939642E+02  0.2680149E+02  0.8283434E+01  0.0000000E+00
Ar 2208  0.2665853E+02  0.2925543E+02  0.8146017E+01  0.0000000E+00
Ar 2209  0.2652715E+02  0.2654588E+02  0.1069137E+02  0.0000000E+00
Ar 2210  0.2909043E+02  0.2919939E+02  0.1075524E+02  0.0000000E+00
Ar 2211  0.2917689E+02  0.2647379E+02  0.1346519E+02  0.0000000E+00
Ar 2212  0.2652234E+02  0.2915945E+02  0.1332673E+02  0.0000000E+00
Ar 2213  0.2649257E+02  0.2642134E+02  0.1601903E+02  0.0000000E+00
Ar 2214  0.2884610E+02  0.2891257E+02  0.1580262E+02  0.0000000E+00
Ar 2215  0.2926244E+02  0.2658927E+02  0.1880424E+02  0.0000000E+00
Ar 2216  0.2643315E+02  0.2907645E+02  0.1858932E+02  0.0000000E+00
Ar 2217  0.2656631E+02  0.2658771E+02  0.2134464E+02  0.0000000E+00
Ar 2218  0.2896186E+02  0.2897024E+02  0.2111204E+02  0.0000000E+00
Ar 2219  0.2906996E+02  0.2647796E+02  0.2386627E+02  0.0000000E+00
Ar 2220  0.2667896E+02  0.2933888E+02  0.2404872E+02  0.0000000E+00
Ar 2221  0.2638963E+02  0.2637567E+02  0.2648188E+02  0.0000000E+00
Ar 2222  0.2941620E+02  0.2944706E+02  0.2682345E+02  0.0000000E+00
Ar 2223  0.2901358E+02  0.2645537E+02  0.2905136E+02  0.0000000E+00
Ar 2224  0.2663238E+02  0.2928109E+02  0.2921964E+02  0.0000000E+00
Ar 2225  0.2682753E+02  0.2686718E+02  0.3209589E+02  0.0000000E+00
Ar 2226  0.2927511E+02  0.2930675E+02  0.3180162E+02  0.0000000E+00
Ar 2227  0.2935370E+02  0.2664364E+02  0.3465130E+02  0.0000000E+00
Ar 2228  0.2659743E+02  0.2923568E+02  0.3457593E+02  0.0000000E+00
Ar 2229  0.2627530E+02  0.2623402E+02  0.3676205E+02  0.0000000E+00
Ar 2230  0.2929808E+02  0.2919502E+02  0.3722958E+02  0.0000000E+00
Ar 2231  0.2927470E+02  0.2657932E+02  0.3973093E+02  0.0000000E+00
Ar 2232  0.2639101E+02  0.2892581E+02  0.3951418E+02  0.0000000E+00
Ar 2233  0.2665148E+02  0.2675856E+02  0.4235979E+02  0.0000000E+00
Ar 2234  0.2909277E+02  0.2919746E+02  0.4219590E+02  0.0000000E+00
Ar 2235  0.2913321E+02  0.2657019E+02  0.4489706E+02  0.0000000E+00
Ar 2236  0.2648539E+02  0.2913843E+02  0.4484080E+02  0.0000000E+00
Ar 2237  0.2660145E+02  0.2649758E+02  0.4752334E+02  0.0000000E+00
Ar 2238  0.2900058E+02  0.2903153E+02  0.4754305E+02  0.0000000E+00
Ar 2239  0.2919964E+02  0.2655663E+02  0.5027222E+02  0.0000000E+00
Ar 2240  0.2639972E+02  0.2904460E+02  0.5009807E+02  0.0000000E+00
Ar 2241  0.2636708E+02  0.3162360E+02  0.5264630E+02  0.0000000E+00
Ar 2242  0.2912198E+02  0.3434244E+02  0.3874204E+00  0.0000000E+00
Ar 2243  0.2909803E+02  0.3174999E+02  0.2864401E+01  0.0000000E+00
Ar 2244  0.2636940E+02  0.3418841E+02  0.2741007E+01  0.0000000E+00
Ar 2245  0.2656147E+02  0.3178207E+02  0.5505982E+01  0.0000000E+00
Ar 2246  0.2915266E+02  0.3432075E+02  0.5602222E+01  0.0000000E+00
Ar 2247  0.2932953E+02  0.3200801E+02  0.8381360E+01  0.0000000E+00
Ar 2248  0.2645076E+02  0.3431360E+02  0.8098402E+01  0.0000000E+00
Ar 2249  0.2660856E+02  0.3185683E+02  0.1088151E+02  0.0000000E+00
Ar 2250  0.2924575E+02  0.3451754E+02  0.1087608E+02  0.0000000E+00
Ar 2251  0.2917455E+02  0.3188910E+02  0.1348494E+02  0.0000000E+00
Ar 2252  0.2642357E+02  0.3434628E+02  0.1340959E+02  0.0000000E+00
Ar 2253  0.2635410E+02  0.3166116E+02  0.1587764E+02  0.0000000E+00
Ar 2254  0.2897886E+02  0.3428668E+02  0.1598821E+02  0.0000000E+00
Ar 2255  0.2914378E+02  0.3173774E+02  0.1870199E+02  0.0000000E+00
Ar 2256  0.2644832E+02  0.3422507E+02  0.1860359E+02  0.0000000E+00
Ar 2257  0.2665465E+02  0.3186645E+02  0.2140245E+02  0.0000000E+00
Ar 2258  0.2936766E+02  0.3449948E+02  0.2132991E+02  0.0000000E+00
Ar 2259  0.2957097E+02  0.3218336E+02  0.2432756E+02  0.0000000E+00
Ar 2260  0.2666629E+02  0.3452044E+02  0.2405913E+02  0.0000000E+00
Ar 2261  0.2670699E+02  0.3197101E+02  0.2672452E+02  0.0000000E+00
Ar 2262  0.2922670E+02  0.3455751E+02  0.2655248E+02  0.0000000E+00
Ar 2263  0.2938443E+02  0.3197684E+02  0.2937161E+02  0.0000000E+00
Ar 2264  0.2669829E+02  0.3460955E+02  0.2934784E+02  0.0000000E+00
Ar 2265  0.2658398E+02  0.3194193E+02  0.3181659E+02  0.0000000E+00
Ar 2266  0.2925133E+02  0.3455325E+02  0.3193240E+02  0.0000000E+00
Ar 2267  0.2897255E+02  0.3169800E+02  0.3426050E+02  0.0000000E+00
Ar 2268  0.2653079E+02  0.3447426E+02  0.3437544E+02  0.0000000E+00
Ar 2269  0.2652477E+02  0.3182328E+02  0.3710032E+02  0.0000000E+00
Ar 2270  0.2908737E+02  0.3440065E+02  0.3698297E+02  0.0000000E+00
Ar 2271  0.2906387E+02  0.3174317E+02  0.3967223E+02  0.0000000E+00
Ar 2272  0.2624191E+02  0.3430267E+02  0.3955642E+02  0.0000000E+00
Ar 2273  0.2630174E+02  0.3165650E+02  0.4213430E+02  0.0000000E+00
Ar 2274  0.2902307E+02  0.3426450E+02  0.4222041E+02  0.0000000E+00
Ar 2275  0.2904974E+02  0.3171992E+02  0.4485810E+02  0.0000000E+00
Ar 2276  0.2654992E+02  0.3442396E+02  0.4496199E+02  0.0000000E+00
Ar 2277  0.2625620E+02  0.3155797E+02  0.4737190E+02  0.0000000E+00
Ar 2278  0.2900092E+02  0.3425491E+02  0.4752692E+02  0.0000000E+00
Ar 2279  0.2903175E+02  0.3162426E+02  0.5018515E+02  0.0000000E+00
Ar 2280  0.2669489E+02  0.3462406E+02  0.5046162E+02  0.0000000E+00
Ar 2281  0.2650669E+02  0.3707776E+02  0.3154703E+00  0.0000000E+00
Ar 2282  0.2909008E+02  0.3957797E+02  0.1409250E+00  0.0000000E+00
Ar 2283  0.2897523E+02  0.3682011E+02  0.2749520E+01  0.0000000E+00
Ar 2284  0.2630095E+02  0.3948288E+02  0.2699597E+01  0.0000000E+00
Ar 2285  0.2630216E+02  0.3673014E+02  0.5196226E+01  0.0000000E+00
Ar 2286  0.2896649E+02  0.3947609E+02  0.5262625E+01  0.0000000E+00
Ar 2287  0.2889219E+02  0.3686945E+02  0.8004394E+01  0.0000000E+00
Ar 2288  0.2638124E+02  0.3949642E+02  0.7769788E+01  0.0000000E+00
Ar 2289  0.2636258E+02  0.3682621E+02  0.1066293E+02  0.0000000E+00
Ar 2290  0.2889697E+02  0.3952387E+02  0.1059321E+02  0.0000000E+00
Ar 2291  0.2895231E+02  0.3700404E+02  0.1331591E+02  0.0000000E+00
Ar 2292  0.2638461E+02  0.3954092E+02  0.1333620E+02  0.0000000E+00
Ar 2293  0.2632783E+02  0.3685190E+02  0.1598046E+02  0.0000000E+00
Ar 2294  0.2893964E+02  0.3951995E+02  0.1590284E+02  0.0000000E+00
Ar 2295  0.2920647E+02  0.3713025E+02  0.1873843E+02  0.0000000E+00
Ar 2296  0.2655614E+02  0.3963295E+02  0.1868577E+02  0.0000000E+00
Ar 2297  0.2642459E+02  0.3698010E+02  0.2124025E+02  0.0000000E+00
Ar 2298  0.2917264E+02  0.3974453E+02  0.2130358E+02  0.0000000E+00
Ar 2299  0.2918454E+02  0.3709911E+02  0.2384265E+02  0.0000000E+00
Ar 2300  0.2633453E+02  0.3946678E+02  0.2367725E+02  0.0000000E+00
Ar 2301  0.2673042E+02  0.3721240E+02  0.2663839E+02  0.0000000E+00
Ar 2302  0.2932838E+02  0.3975111E+02  0.2654141E+02  0.0000000E+00
Ar 2303  0.2927884E+02  0.3725822E+02  0.2931742E+02  0.0000000E+00
Ar 2304  0.2658355E+02  0.3976707E+02  0.2926365E+02  0.0000000E+00
Ar 2305  0.2661814E+02  0.3718953E+02  0.3191146E+02  0.0000000E+00
Ar 2306  0.2917296E+02  0.3969666E+02  0.3186309E+02  0.0000000E+00
Ar 2307  0.2915012E+02  0.3709175E+02  0.3443291E+02  0.0000000E+00
Ar 2308  0.2632147E+02  0.3967051E+02  0.3438995E+02  0.0000000E+00
Ar 2309  0.2610464E+02  0.3680318E+02  0.3685500E+02  0.0000000E+00
Ar 2310  0.2891340E+02  0.3958369E+02  0.3693780E+02  0.0000000E+00
Ar 2311  0.2898898E+02  0.3693034E+02  0.3966971E+02  0.0000000E+00
Ar 2312  0.2644242E+02  0.3957453E+02  0.3966948E+02  0.0000000E+00
Ar 2313  0.2634000E+02  0.3692955E+02  0.4226517E+02  0.0000000E+00
Ar 2314  0.2899178E+02  0.3949646E+02  0.4231806E+02  0.0000000E+00
Ar 2315  0.2911972E+02  0.3699120E+02  0.4503341E+02  0.0000000E+00
Ar 2316  0.2643989E+02  0.3960490E+02  0.4508284E+02  0.0000000E+00
Ar 2317  0.2629486E+02  0.3686038E+02  0.4743543E+02  0.0000000E+00
Ar 2318  0.2917659E+02  0.3973270E+02  0.4773810E+02  0.0000000E+00
Ar 2319  0.2904289E+02  0.3701833E+02  0.5012094E+02  0.0000000E+00
Ar 2320  0.2639744E+02  0.3951190E+02  0.5001233E+02  0.0000000E+00
Ar 2321  0.2605245E+02  0.4185967E+02  0.5240266E+02  0.0000000E+00
Ar 2322  0.2890274E+02  0.4477775E+02  0.6770602E-01  0.0000000E+00
Ar 2323  0.2878066E+02  0.4202253E+02  0.2424763E+01  0.0000000E+00
Ar 2324  0.2620359E+02  0.4466001E+02  0.2424934E+01  0.0000000E+00
Ar 2325  0.2655530E+02  0.4227405E+02  0.5365048E+01  0.0000000E+00
Ar 2326  0.2901167E+02  0.4480833E+02  0.5277986E+01  0.0000000E+00
Ar 2327  0.2900274E+02  0.4221083E+02  0.8021541E+01  0.0000000E+00
Ar 2328  0.2614670E+02  0.4462592E+02  0.7793076E+01  0.0000000E+00
Ar 2329  0.2618307E+02  0.4194049E+02  0.1042595E+02  0.0000000E+00
Ar 2330  0.2904981E+02  0.4493546E+02  0.1074709E+02  0.0000000E+00
Ar 2331  0.2890391E+02  0.4217587E+02  0.1328965E+02  0.0000000E+00
Ar 2332  0.2637821E+02  0.4476892E+02  0.1325860E+02  0.0000000E+00
Ar 2333  0.2632074E+02  0.4207404E+02  0.1585597E+02  0.0000000E+00
Ar 2334  0.2928177E+02  0.4505869E+02  0.1621252E+02  0.0000000E+00
Ar 2335  0.2926372E+02  0.4235454E+02  0.1865158E+02  0.0000000E+00
Ar 2336  0.2636804E+02  0.4476094E+02  0.1854075E+02  0.0000000E+00
Ar 2337  0.2641217E+02  0.4219062E+02  0.2123932E+02  0.0000000E+00
Ar 2338  0.2876981E+02  0.4468478E+02  0.2104411E+02  0.0000000E+00
Ar 2339  0.2899217E+02  0.4211914E+02  0.2379770E+02  0.0000000E+00
Ar 2340  0.2632629E+02  0.4464029E+02  0.2376558E+02  0.0000000E+00
Ar 2341  0.2683598E+02  0.4243592E+02  0.2675024E+02  0.0000000E+00
Ar 2342  0.2925109E+02  0.4503875E+02  0.2666770E+02  0.0000000E+00
Ar 2343  0.2925280E+02  0.4225268E+02  0.2921525E+02  0.0000000E+00
Ar 2344  0.2639947E+02  0.4478440E+02  0.2907948E+02  0.0000000E+00
Ar 2345  0.2642028E+02  0.4221948E+02  0.3173296E+02  0.0000000E+00
Ar 2346  0.2914058E+02  0.4493281E+02  0.3178052E+02  0.0000000E+00
Ar 2347  0.2921271E+02  0.4254103E+02  0.3457055E+02  0.0000000E+00
Ar 2348  0.2635065E+02  0.4481237E+02  0.3430859E+02  0.0000000E+00
Ar 2349  0.2630779E+02  0.4219432E+02  0.3687488E+02  0.0000000E+00
Ar 2350  0.2899894E+02  0.4491005E+02  0.3691622E+02  0.0000000E+00
Ar 2351  0.2891658E+02  0.4209388E+02  0.3931280E+02  0.0000000E+00
Ar 2352  0.2642110E+02  0.4497165E+02  0.3954831E+02  0.0000000E+00
Ar 2353  0.2627266E+02  0.4216836E+02  0.4230164E+02  0.0000000E+00
Ar 2354  0.2874138E+02  0.4467949E+02  0.4205888E+02  0.0000000E+00
Ar 2355  0.2883609E+02  0.4218734E+02  0.4479788E+02  0.0000000E+00
Ar 2356  0.2601153E+02  0.4466199E+02  0.4473621E+02  0.0000000E+00
Ar 2357  0.2641288E+02  0.4231810E+02  0.4766093E+02  0.0000000E+00
Ar 2358  0.2875368E+02  0.4470577E+02  0.4728105E+02  0.0000000E+00
Ar 2359  0.2900169E+02  0.4219160E+02  0.5026988E+02  0.0000000E+00
Ar 2360  0.2638295E+02  0.4487489E+02  0.5019811E+02  0.0000000E+00
Ar 2361  0.2614698E+02  0.4730962E+02  0.5254718E+02  0.0000000E+00
Ar 2362  0.2912358E+02  0.5017275E+02  0.6498707E-01  0.0000000E+00
Ar 2363  0.2891448E+02  0.4738527E+02  0.2611673E+01  0.0000000E+00
Ar 2364  0.2637797E+02  0.5014320E+02  0.2627223E+01  0.0000000E+00
Ar 2365  0.2631680E+02  0.4739716E+02  0.5274168E+01  0.0000000E+00
Ar 2366  0.2885978E+02  0.4984590E+02  0.5121257E+01  0.0000000E+00
Ar 2367  0.2879417E+02  0.4726443E+02  0.7830437E+01  0.0000000E+00
Ar 2368  0.2652021E+02  0.5021460E+02  0.7936793E+01  0.0000000E+00
Ar 2369  0.2628236E+02  0.4727957E+02  0.1060746E+02  0.0000000E+00
Ar 2370  0.2873899E+02  0.4975088E+02  0.1041599E+02  0.0000000E+00
Ar 2371  0.2891667E+02  0.4740763E+02  0.1326247E+02  0.0000000E+00
Ar 2372  0.2647161E+02  0.5005235E+02  0.1330675E+02  0.0000000E+00
Ar 2373  0.2619749E+02  0.4716452E+02  0.1573644E+02  0.0000000E+00
Ar 2374  0.2893861E+02  0.5005136E+02  0.1589260E+02  0.0000000E+00
Ar 2375  0.2876177E+02  0.4742996E+02  0.1850968E+02  0.0000000E+00
Ar 2376  0.2641788E+02  0.5019432E+02  0.1861459E+02  0.0000000E+00
Ar 2377  0.2616965E+02  0.4720976E+02  0.2103269E+02  0.0000000E+00
Ar 2378  0.2906890E+02  0.5011671E+02  0.2120946E+02  0.0000000E+00
Ar 2379  0.2874482E+02  0.4722852E+02  0.2356006E+02  0.0000000E+00
Ar 2380  0.2631651E+02  0.4999978E+02  0.2354651E+02  0.0000000E+00
Ar 2381  0.2654898E+02  0.4756774E+02  0.2653082E+02  0.0000000E+00
Ar 2382  0.2902439E+02  0.5015004E+02  0.2636066E+02  0.0000000E+00
Ar 2383  0.2921278E+02  0.4777819E+02  0.2936878E+02  0.0000000E+00
Ar 2384  0.2643148E+02  0.5020961E+02  0.2914601E+02  0.0000000E+00
Ar 2385  0.2649652E+02  0.4769029E+02  0.3177955E+02  0.0000000E+00
Ar 2386  0.2918124E+02  0.5037733E+02  0.3196298E+02  0.0000000E+00
Ar 2387  0.2909144E+02  0.4753136E+02  0.3435209E+02  0.0000000E+00
Ar 2388  0.2638315E+02  0.5016284E+02  0.3428291E+02  0.0000000E+00
Ar 2389  0.2646311E+02  0.4760446E+02  0.3704079E+02  0.0000000E+00
Ar 2390  0.2886374E+02  0.4994161E+02  0.3678562E+02  0.0000000E+00
Ar 2391  0.2912580E+02  0.4763758E+02  0.3976210E+02  0.0000000E+00
Ar 2392  0.2646328E+02  0.5023380E+02  0.3964314E+02  0.0000000E+00
Ar 2393  0.2617658E+02  0.4743247E+02  0.4203345E+02  0.0000000E+00
Ar 2394  0.2898089E+02  0.5010366E+02  0.4227369E+02  0.0000000E+00
Ar 2395  0.2877936E+02  0.4732033E+02  0.4460863E+02  0.0000000E+00
Ar 2396  0.2627959E+02  0.5001274E+02  0.4465144E+02  0.0000000E+00
Ar 2397  0.2634342E+02  0.4754947E+02  0.4756179E+02  0.0000000E+00
Ar 2398  0.2884567E+02  0.4986296E+02  0.4713317E+02  0.0000000E+00
Ar 2399  0.2891210E+02  0.4730042E+02  0.4992760E+02  0.0000000E+00
Ar 2400  0.2641787E+02  0.5010726E+02  0.5006768E+02  0.0000000E+00
Ar 2401  0.3194530E+02  0.3233363E+00  0.2410410E+00  0.0000000E+00
Ar 2402  0.3467828E+02  0.3133822E+01  0.3300099E+00  0.0000000E+00
Ar 2403  0.3427716E+02  0.5257166E+02  0.2765200E+01  0.0000000E+00
Ar 2404  0.3158491E+02  0.2670443E+01  0.2614538E+01  0.0000000E+00
Ar 2405  0.3159913E+02  0.2066898E-01  0.5340494E+01  0.0000000E+00
Ar 2406  0.3409433E+02  0.2512320E+01  0.5091923E+01  0.0000000E+00
Ar 2407  0.3409776E+02  0.5243749E+02  0.7884332E+01  0.0000000E+00
Ar 2408  0.3158661E+02  0.2608365E+01  0.7903789E+01  0.0000000E+00
Ar 2409  0.3157501E+02  0.5260630E+02  0.1072319E+02  0.0000000E+00
Ar 2410  0.3420331E+02  0.2543226E+01  0.1060333E+02  0.0000000E+00
Ar 2411  0.3425818E+02  0.1244179E+00  0.1327896E+02  0.0000000E+00
Ar 2412  0.3180344E+02  0.2790334E+01  0.1341296E+02  0.0000000E+00
Ar 2413  0.3164084E+02  0.5259189E+02  0.1584798E+02  0.0000000E+00
Ar 2414  0.3446123E+02  0.2852743E+01  0.1600401E+02  0.0000000E+00
Ar 2415  0.3448958E+02  0.2789425E+00  0.1874413E+02  0.0000000E+00
Ar 2416  0.3175354E+02  0.2832353E+01  0.1864463E+02  0.0000000E+00
Ar 2417  0.3188684E+02  0.3245385E+00  0.2136040E+02  0.0000000E+00
Ar 2418  0.3430428E+02  0.2785021E+01  0.2116908E+02  0.0000000E+00
Ar 2419  0.3442990E+02  0.2374329E+00  0.2389488E+02  0.0000000E+00
Ar 2420  0.3159144E+02  0.2590940E+01  0.2376743E+02  0.0000000E+00
Ar 2421  0.3152136E+02  0.5260625E+02  0.2627594E+02  0.0000000E+00
Ar 2422  0.3435728E+02  0.2836381E+01  0.2650288E+02  0.0000000E+00
Ar 2423  0.3450591E+02  0.2701819E+00  0.2906157E+02  0.0000000E+00
Ar 2424  0.3145405E+02  0.2631935E+01  0.2879566E+02  0.0000000E+00
Ar 2425  0.3161904E+02  0.1434136E+00  0.3147893E+02  0.0000000E+00
Ar 2426  0.3400650E+02  0.2686134E+01  0.3138252E+02  0.0000000E+00
Ar 2427  0.3410537E+02  0.6273239E-01  0.3402800E+02  0.0000000E+00
Ar 2428  0.3150897E+02  0.2689357E+01  0.3405848E+02  0.0000000E+00
Ar 2429  0.3165521E+02  0.1274705E+00  0.3696506E+02  0.0000000E+00
Ar 2430  0.3406431E+02  0.2689423E+01  0.3670209E+02  0.0000000E+00
Ar 2431  0.3428426E+02  0.1658844E+00  0.3970110E+02  0.0000000E+00
Ar 2432  0.3177329E+02  0.2928334E+01  0.3966505E+02  0.0000000E+00
Ar 2433  0.3172021E+02  0.2321226E+00  0.4237426E+02  0.0000000E+00
Ar 2434  0.3416469E+02  0.2696107E+01  0.4210589E+02  0.0000000E+00
Ar 2435  0.3433163E+02  0.2415872E+00  0.4492798E+02  0.0000000E+00
Ar 2436  0.3166858E+02  0.2810701E+01  0.4495002E+02  0.0000000E+00
Ar 2437  0.3177203E+02  0.2218914E+00  0.4763031E+02  0.0000000E+00
Ar 2438  0.3427472E+02  0.2743256E+01  0.4744181E+02  0.0000000E+00
Ar 2439  0.3455533E+02  0.3650053E+00  0.5028439E+02  0.0000000E+00
Ar 2440  0.3191689E+02  0.2826565E+01  0.5025470E+02  0.0000000E+00
Ar 2441  0.3168569E+02  0.5439414E+01  0.1356163E+00  0.0000000E+00
Ar 2442  0.3432005E+02  0.7952317E+01  0.5263052E+02  0.0000000E+00
Ar 2443  0.3428132E+02  0.5520681E+01  0.2771600E+01  0.0000000E+00
Ar 2444  0.3169404E+02  0.7997150E+01  0.2730704E+01  0.0000000E+00
Ar 2445  0.3149650E+02  0.5141458E+01  0.5121783E+01  0.0000000E+00
Ar 2446  0.3421266E+02  0.7935178E+01  0.5285724E+01  0.0000000E+00
Ar 2447  0.3405698E+02  0.5079167E+01  0.7785189E+01  0.0000000E+00
Ar 2448  0.3157930E+02  0.7741493E+01  0.7905566E+01  0.0000000E+00
Ar 2449  0.3151949E+02  0.5156211E+01  0.1054643E+02  0.0000000E+00
Ar 2450  0.3413917E+02  0.7771209E+01  0.1058182E+02  0.0000000E+00
Ar 2451  0.3431307E+02  0.5342184E+01  0.1328478E+02  0.0000000E+00
Ar 2452  0.3158581E+02  0.7942055E+01  0.1332549E+02  0.0000000E+00
Ar 2453  0.3152148E+02  0.5255247E+01  0.1584573E+02  0.0000000E+00
Ar 2454  0.3417767E+02  0.8014449E+01  0.1589576E+02  0.0000000E+00
Ar 2455  0.3425902E+02  0.5408293E+01  0.1853063E+02  0.0000000E+00
Ar 2456  0.3164821E+02  0.8179213E+01  0.1855041E+02  0.0000000E+00
Ar 2457  0.3156234E+02  0.5346838E+01  0.2117103E+02  0.0000000E+00
Ar 2458  0.3414051E+02  0.7850800E+01  0.2101894E+02  0.0000000E+00
Ar 2459  0.3411313E+02  0.5271596E+01  0.2368766E+02  0.0000000E+00
Ar 2460  0.3163624E+02  0.8088645E+01  0.2377617E+02  0.0000000E+00
Ar 2461  0.3156831E+02  0.5334404E+01  0.2634652E+02  0.0000000E+00
Ar 2462  0.3413174E+02  0.7829679E+01  0.2622098E+02  0.0000000E+00
Ar 2463  0.3432085E+02  0.5492025E+01  0.2915914E+02  0.0000000E+00
Ar 2464  0.3150608E+02  0.7892850E+01  0.2882504E+02  0.0000000E+00
Ar 2465  0.3159110E+02  0.5414267E+01  0.3159344E+02  0.0000000E+00
Ar 2466  0.3423443E+02  0.8088081E+01  0.3172771E+02  0.0000000E+00
Ar 2467  0.3404818E+02  0.5262701E+01  0.3406745E+02  0.0000000E+00
Ar 2468  0.3188421E+02  0.8323588E+01  0.3462168E+02  0.0000000E+00
Ar 2469  0.3161428E+02  0.5367907E+01  0.3685137E+02  0.0000000E+00
Ar 2470  0.3443950E+02  0.8168764E+01  0.3711264E+02  0.0000000E+00
Ar 2471  0.3419268E+02  0.5405288E+01  0.3949222E+02  0.0000000E+00
Ar 2472  0.3172246E+02  0.8142591E+01  0.3971953E+02  0.0000000E+00
Ar 2473  0.3168603E+02  0.5506252E+01  0.4228432E+02  0.0000000E+00
Ar 2474  0.3438314E+02  0.8137646E+01  0.4232707E+02  0.0000000E+00
Ar 2475  0.3414462E+02  0.5260238E+01  0.4455710E+02  0.0000000E+00
Ar 2476  0.3136286E+02  0.7809124E+01  0.4468583E+02  0.0000000E+00
Ar 2477  0.3163259E+02  0.5401912E+01  0.4750429E+02  0.0000000E+00
Ar 2478  0.3424442E+02  0.7961223E+01  0.4730378E+02  0.0000000E+00
Ar 2479  0.3434897E+02  0.5411988E+01  0.5008426E+02  0.0000000E+00
Ar 2480  0.3173839E+02  0.8036484E+01  0.5021994E+02  0.0000000E+00
Ar 2481  0.3157287E+02  0.1055013E+02  0.3247713E-01  0.0000000E+00
Ar 2482  0.3412273E+02  0.1301313E+02  0.5244669E+02  0.0000000E+00
Ar 2483  0.3427057E+02  0.1063246E+02  0.2592904E+01  0.0000000E+00
Ar 2484  0.3168827E+02  0.1327282E+02  0.2628468E+01  0.0000000E+00
Ar 2485  0.3177586E+02  0.1078264E+02  0.5334521E+01  0.0000000E+00
Ar 2486  0.3419565E+02  0.1318986E+02  0.5239918E+01  0.0000000E+00
Ar 2487  0.3409289E+02  0.1054526E+02  0.7826460E+01  0.0000000E+00
Ar 2488  0.3130334E+02  0.1301388E+02  0.7658194E+01  0.0000000E+00
Ar 2489  0.3159156E+02  0.1048848E+02  0.1040104E+02  0.0000000E+00
Ar 2490  0.3415746E+02  0.1321611E+02  0.1050238E+02  0.0000000E+00
Ar 2491  0.3406967E+02  0.1049925E+02  0.1313414E+02  0.0000000E+00
Ar 2492  0.3164742E+02  0.1323167E+02  0.1319453E+02  0.0000000E+00
Ar 2493  0.3156560E+02  0.1061510E+02  0.1586615E+02  0.0000000E+00
Ar 2494  0.3415188E+02  0.1306794E+02  0.1578294E+02  0.0000000E+00
Ar 2495  0.3455583E+02  0.1093995E+02  0.1878180E+02  0.0000000E+00
Ar 2496  0.3154691E+02  0.1321997E+02  0.1843694E+02  0.0000000E+00
Ar 2497  0.3150968E+02  0.1056124E+02  0.2110965E+02  0.0000000E+00
Ar 2498  0.3434964E+02  0.1339498E+02  0.2126402E+02  0.0000000E+00
Ar 2499  0.3432276E+02  0.1054640E+02  0.2369021E+02  0.0000000E+00
Ar 2500  0.3155191E+02  0.1334236E+02  0.2374755E+02  0.0000000E+00
Ar 2501  0.3158521E+02  0.1068177E+02  0.2647598E+02  0.0000000E+00
Ar 2502  0.3400246E+02  0.1307497E+02  0.2611420E+02  0.0000000E+00
Ar 2503  0.3414676E+02  0.1058825E+02  0.2890337E+02  0.0000000E+00
Ar 2504  0.3162315E+02  0.1320216E+02  0.2900539E+02  0.0000000E+00
Ar 2505  0.3170120E+02  0.1070623E+02  0.3167293E+02  0.0000000E+00
Ar 2506  0.3420705E+02  0.1331354E+02  0.3155997E+02  0.0000000E+00
Ar 2507  0.3431979E+02  0.1069983E+02  0.3435380E+02  0.0000000E+00
Ar 2508  0.3166815E+02  0.1341760E+02  0.3449474E+02  0.0000000E+00
Ar 2509  0.3157610E+02  0.1080446E+02  0.3704394E+02  0.0000000E+00
Ar 2510  0.3414321E+02  0.1315324E+02  0.3682246E+02  0.0000000E+00
Ar 2511  0.3417200E+02  0.1060777E+02  0.3955981E+02  0.0000000E+00
Ar 2512  0.3144266E+02  0.1317154E+02  0.3947392E+02  0.0000000E+00
Ar 2513  0.3165264E+02  0.1080725E+02  0.4236593E+02  0.0000000E+00
Ar 2514  0.3435271E+02  0.1329873E+02  0.4234689E+02  0.0000000E+00
Ar 2515  0.3440862E+02  0.1083406E+02  0.4501588E+02  0.0000000E+00
Ar 2516  0.3164028E+02  0.1332775E+02  0.4496345E+02  0.0000000E+00
Ar 2517  0.3158459E+02  0.1064744E+02  0.4742136E+02  0.0000000E+00
Ar 2518  0.3419956E+02  0.1323052E+02  0.4743761E+02  0.0000000E+00
Ar 2519  0.3417591E+02  0.1035139E+02  0.4984734E+02  0.0000000E+00
Ar 2520  0.3158060E+02  0.1327879E+02  0.4998233E+02  0.0000000E+00
Ar 2521  0.3155006E+02  0.1578442E+02  0.5252815E+02  0.0000000E+00
Ar 2522  0.3422945E+02  0.1851236E+02  0.7432785E-01  0.0000000E+00
Ar 2523  0.3408038E+02  0.1574097E+02  0.2521474E+01  0.0000000E+00
Ar 2524  0.3157359E+02  0.1841234E+02  0.2633384E+01  0.0000000E+00
Ar 2525  0.3161725E+02  0.1585756E+02  0.5278339E+01  0.0000000E+00
Ar 2526  0.3402896E+02  0.1834947E+02  0.5216734E+01  0.0000000E+00
Ar 2527  0.3412163E+02  0.1584687E+02  0.7921232E+01  0.0000000E+00
Ar 2528  0.3150513E+02  0.1843321E+02  0.7919558E+01  0.0000000E+00
Ar 2529  0.3152055E+02  0.1582260E+02  0.1048855E+02  0.0000000E+00
Ar 2530  0.3420368E+02  0.1846663E+02  0.1057480E+02  0.0000000E+00
Ar 2531  0.3416978E+02  0.1587684E+02  0.1309348E+02  0.0000000E+00
Ar 2532  0.3134753E+02  0.1825229E+02  0.1305601E+02  0.0000000E+00
Ar 2533  0.3161611E+02  0.1584550E+02  0.1589346E+02  0.0000000E+00
Ar 2534  0.3424298E+02  0.1843957E+02  0.1582040E+02  0.0000000E+00
Ar 2535  0.3414333E+02  0.1568229E+02  0.1830959E+02  0.0000000E+00
Ar 2536  0.3166316E+02  0.1843666E+02  0.1840897E+02  0.0000000E+00
Ar 2537  0.3148694E+02  0.1579453E+02  0.2100331E+02  0.0000000E+00
Ar 2538  0.3429444E+02  0.1855313E+02  0.2112705E+02  0.0000000E+00
Ar 2539  0.3425353E+02  0.1594050E+02  0.2372820E+02  0.0000000E+00
Ar 2540  0.3161467E+02  0.1841705E+02  0.2363149E+02  0.0000000E+00
Ar 2541  0.3174551E+02  0.1608540E+02  0.2646343E+02  0.0000000E+00
Ar 2542  0.3442754E+02  0.1873207E+02  0.2647703E+02  0.0000000E+00
Ar 2543  0.3426190E+02  0.1584946E+02  0.2893326E+02  0.0000000E+00
Ar 2544  0.3175788E+02  0.1877099E+02  0.2913751E+02  0.0000000E+00
Ar 2545  0.3144820E+02  0.1583001E+02  0.3140701E+02  0.0000000E+00
Ar 2546  0.3418112E+02  0.1832990E+02  0.3159674E+02  0.0000000E+00
Ar 2547  0.3415601E+02  0.1589672E+02  0.3427833E+02  0.0000000E+00
Ar 2548  0.3180385E+02  0.1864216E+02  0.3449563E+02  0.0000000E+00
Ar 2549  0.3180364E+02  0.1617636E+02  0.3713265E+02  0.0000000E+00
Ar 2550  0.3443930E+02  0.1855233E+02  0.3707149E+02  0.0000000E+00
Ar 2551  0.3444811E+02  0.1586623E+02  0.3969974E+02  0.0000000E+00
Ar 2552  0.3194920E+02  0.1881858E+02  0.3980154E+02  0.0000000E+00
Ar 2553  0.3160278E+02  0.1577973E+02  0.4218270E+02  0.0000000E+00
Ar 2554  0.3421119E+02  0.1824398E+02  0.4216807E+02  0.0000000E+00
Ar 2555  0.3412499E+02  0.1575224E+02  0.4477627E+02  0.0000000E+00
Ar 2556  0.3129305E+02  0.1819876E+02  0.4458752E+02  0.0000000E+00
Ar 2557  0.3141145E+02  0.1578926E+02  0.4728761E+02  0.0000000E+00
Ar 2558  0.3406636E+02  0.1836146E+02  0.4730617E+02  0.0000000E+00
Ar 2559  0.3436135E+02  0.1600184E+02  0.5022482E+02  0.0000000E+00
Ar 2560  0.3174224E+02  0.1860283E+02  0.5009191E+02  0.0000000E+00
Ar 2561  0.3143299E+02  0.2101739E+02  0.5257371E+02  0.0000000E+00
Ar 2562  0.3424664E+02  0.2373898E+02  0.1169563E+00  0.0000000E+00
Ar 2563  0.3408369E+02  0.2099766E+02  0.2591886E+01  0.0000000E+00
Ar 2564  0.3174264E+02  0.2385643E+02  0.2787463E+01  0.0000000E+00
Ar 2565  0.3141902E+02  0.2101538E+02  0.5275707E+01  0.0000000E+00
Ar 2566  0.3422095E+02  0.2374290E+02  0.5409983E+01  0.0000000E+00
Ar 2567  0.3405749E+02  0.2104294E+02  0.7853292E+01  0.0000000E+00
Ar 2568  0.3159709E+02  0.2374953E+02  0.7981962E+01  0.0000000E+00
Ar 2569  0.3147249E+02  0.2088575E+02  0.1048150E+02  0.0000000E+00
Ar 2570  0.3414219E+02  0.2370161E+02  0.1059364E+02  0.0000000E+00
Ar 2571  0.3442140E+02  0.2121330E+02  0.1335592E+02  0.0000000E+00
Ar 2572  0.3166087E+02  0.2376255E+02  0.1331148E+02  0.0000000E+00
Ar 2573  0.3152751E+02  0.2096418E+02  0.1575747E+02  0.0000000E+00
Ar 2574  0.3415892E+02  0.2360186E+02  0.1581006E+02  0.0000000E+00
Ar 2575  0.3453132E+02  0.2143509E+02  0.1880174E+02  0.0000000E+00
Ar 2576  0.3176386E+02  0.2382304E+02  0.1870926E+02  0.0000000E+00
Ar 2577  0.3191602E+02  0.2135571E+02  0.2136776E+02  0.0000000E+00
Ar 2578  0.3432716E+02  0.2389346E+02  0.2121890E+02  0.0000000E+00
Ar 2579  0.3460900E+02  0.2145928E+02  0.2410294E+02  0.0000000E+00
Ar 2580  0.3187183E+02  0.2406132E+02  0.2398225E+02  0.0000000E+00
Ar 2581  0.3180403E+02  0.2115484E+02  0.2645077E+02  0.0000000E+00
Ar 2582  0.3420105E+02  0.2390266E+02  0.2649808E+02  0.0000000E+00
Ar 2583  0.3436589E+02  0.2113485E+02  0.2906518E+02  0.0000000E+00
Ar 2584  0.3174156E+02  0.2385527E+02  0.2902109E+02  0.0000000E+00
Ar 2585  0.3184534E+02  0.2119332E+02  0.3180575E+02  0.0000000E+00
Ar 2586  0.3423387E+02  0.2355636E+02  0.3156544E+02  0.0000000E+00
Ar 2587  0.3455157E+02  0.2121108E+02  0.3443018E+02  0.0000000E+00
Ar 2588  0.3181151E+02  0.2379570E+02  0.3444444E+02  0.0000000E+00
Ar 2589  0.3195320E+02  0.2145092E+02  0.3734311E+02  0.0000000E+00
Ar 2590  0.3447600E+02  0.2381677E+02  0.3687410E+02  0.0000000E+00
Ar 2591  0.3450734E+02  0.2123645E+02  0.3976811E+02  0.0000000E+00
Ar 2592  0.3196201E+02  0.2409488E+02  0.3998979E+02  0.0000000E+00
Ar 2593  0.3163212E+02  0.2112227E+02  0.4229174E+02  0.0000000E+00
Ar 2594  0.3451011E+02  0.2384686E+02  0.4247949E+02  0.0000000E+00
Ar 2595  0.3419962E+02  0.2097515E+02  0.4481491E+02  0.0000000E+00
Ar 2596  0.3170421E+02  0.2369966E+02  0.4482049E+02  0.0000000E+00
Ar 2597  0.3176039E+02  0.2127924E+02  0.4764396E+02  0.0000000E+00
Ar 2598  0.3427635E+02  0.2366895E+02  0.4736443E+02  0.0000000E+00
Ar 2599  0.3442672E+02  0.2122035E+02  0.5013306E+02  0.0000000E+00
Ar 2600  0.3160030E+02  0.2378355E+02  0.5011535E+02  0.0000000E+00
Ar 2601  0.3171074E+02  0.2634979E+02  0.6584257E-01  0.0000000E+00
Ar 2602  0.3450470E+02  0.2931148E+02  0.3992074E+00  0.0000000E+00
Ar 2603  0.3428552E+02  0.2644126E+02  0.2790584E+01  0.0000000E+00
Ar 2604  0.3166716E+02  0.2907971E+02  0.2780675E+01  0.0000000E+00
Ar 2605  0.3164996E+02  0.2644488E+02  0.5374102E+01  0.0000000E+00
Ar 2606  0.3408229E+02  0.2895631E+02  0.5364942E+01  0.0000000E+00
Ar 2607  0.3416121E+02  0.2633477E+02  0.7977488E+01  0.0000000E+00
Ar 2608  0.3176643E+02  0.2919089E+02  0.8209110E+01  0.0000000E+00
Ar 2609  0.3170987E+02  0.2636661E+02  0.1073639E+02  0.0000000E+00
Ar 2610  0.3445586E+02  0.2916080E+02  0.1082132E+02  0.0000000E+00
Ar 2611  0.3433243E+02  0.2638321E+02  0.1339969E+02  0.0000000E+00
Ar 2612  0.3163048E+02  0.2898139E+02  0.1324384E+02  0.0000000E+00
Ar 2613  0.3186205E+02  0.2654741E+02  0.1601470E+02  0.0000000E+00
Ar 2614  0.3424805E+02  0.2897315E+02  0.1587489E+02  0.0000000E+00
Ar 2615  0.3430133E+02  0.2624956E+02  0.1840897E+02  0.0000000E+00
Ar 2616  0.3164189E+02  0.2899833E+02  0.1852018E+02  0.0000000E+00
Ar 2617  0.3162636E+02  0.2640718E+02  0.2126182E+02  0.0000000E+00
Ar 2618  0.3410195E+02  0.2887290E+02  0.2093633E+02  0.0000000E+00
Ar 2619  0.3438368E+02  0.2654555E+02  0.2390925E+02  0.0000000E+00
Ar 2620  0.3198714E+02  0.2940852E+02  0.2410096E+02  0.0000000E+00
Ar 2621  0.3186345E+02  0.2661831E+02  0.2662728E+02  0.0000000E+00
Ar 2622  0.3452320E+02  0.2925282E+02  0.2659847E+02  0.0000000E+00
Ar 2623  0.3464202E+02  0.2671597E+02  0.2943693E+02  0.0000000E+00
Ar 2624  0.3187969E+02  0.2927979E+02  0.2925057E+02  0.0000000E+00
Ar 2625  0.3185587E+02  0.2667441E+02  0.3181632E+02  0.0000000E+00
Ar 2626  0.3447287E+02  0.2911806E+02  0.3186348E+02  0.0000000E+00
Ar 2627  0.3418844E+02  0.2610496E+02  0.3412275E+02  0.0000000E+00
Ar 2628  0.3175216E+02  0.2911235E+02  0.3433805E+02  0.0000000E+00
Ar 2629  0.3185590E+02  0.2647960E+02  0.3708466E+02  0.0000000E+00
Ar 2630  0.3447700E+02  0.2910245E+02  0.3700287E+02  0.0000000E+00
Ar 2631  0.3441113E+02  0.2635103E+02  0.3946541E+02  0.0000000E+00
Ar 2632  0.3187081E+02  0.2922353E+02  0.3982624E+02  0.0000000E+00
Ar 2633  0.3182645E+02  0.2655819E+02  0.4233648E+02  0.0000000E+00
Ar 2634  0.3439610E+02  0.2900595E+02  0.4222785E+02  0.0000000E+00
Ar 2635  0.3435504E+02  0.2641576E+02  0.4497115E+02  0.0000000E+00
Ar 2636  0.3155467E+02  0.2890823E+02  0.4483515E+02  0.0000000E+00
Ar 2637  0.3152762E+02  0.2627846E+02  0.4745451E+02  0.0000000E+00
Ar 2638  0.3426710E+02  0.2888067E+02  0.4753921E+02  0.0000000E+00
Ar 2639  0.3423466E+02  0.2632973E+02  0.5005106E+02  0.0000000E+00
Ar 2640  0.3171343E+02  0.2900192E+02  0.5019993E+02  0.0000000E+00
Ar 2641  0.3178126E+02  0.3176901E+02  0.3467157E+00  0.0000000E+00
Ar 2642  0.3435082E+02  0.3428622E+02  0.2501237E+00  0.0000000E+00
Ar 2643  0.3436619E+02  0.3177723E+02  0.3029032E+01  0.0000000E+00
Ar 2644  0.3164903E+02  0.3427426E+02  0.2884178E+01  0.0000000E+00
Ar 2645  0.3166442E+02  0.3170930E+02  0.5460485E+01  0.0000000E+00
Ar 2646  0.3424570E+02  0.3435420E+02  0.5550684E+01  0.0000000E+00
Ar 2647  0.3421071E+02  0.3159073E+02  0.8009047E+01  0.0000000E+00
Ar 2648  0.3183653E+02  0.3446804E+02  0.8266609E+01  0.0000000E+00
Ar 2649  0.3183618E+02  0.3186399E+02  0.1089759E+02  0.0000000E+00
Ar 2650  0.3439385E+02  0.3448214E+02  0.1083095E+02  0.0000000E+00
Ar 2651  0.3423028E+02  0.3155948E+02  0.1333905E+02  0.0000000E+00
Ar 2652  0.3167446E+02  0.3432514E+02  0.1327666E+02  0.0000000E+00
Ar 2653  0.3159007E+02  0.3149166E+02  0.1590697E+02  0.0000000E+00
Ar 2654  0.3428771E+02  0.3427499E+02  0.1583430E+02  0.0000000E+00
Ar 2655  0.3422986E+02  0.3174849E+02  0.1849490E+02  0.0000000E+00
Ar 2656  0.3164525E+02  0.3429947E+02  0.1850000E+02  0.0000000E+00
Ar 2657  0.3180206E+02  0.3175472E+02  0.2127411E+02  0.0000000E+00
Ar 2658  0.3436019E+02  0.3433005E+02  0.2100149E+02  0.0000000E+00
Ar 2659  0.3452313E+02  0.3192578E+02  0.2385630E+02  0.0000000E+00
Ar 2660  0.3194845E+02  0.3452812E+02  0.2389678E+02  0.0000000E+00
Ar 2661  0.3201428E+02  0.3199488E+02  0.2674691E+02  0.0000000E+00
Ar 2662  0.3433829E+02  0.3437689E+02  0.2642297E+02  0.0000000E+00
Ar 2663  0.3456227E+02  0.3189221E+02  0.2929511E+02  0.0000000E+00
Ar 2664  0.3190416E+02  0.3465230E+02  0.2933748E+02  0.0000000E+00
Ar 2665  0.3193677E+02  0.3196582E+02  0.3194387E+02  0.0000000E+00
Ar 2666  0.3448980E+02  0.3451491E+02  0.3179120E+02  0.0000000E+00
Ar 2667  0.3455853E+02  0.3177752E+02  0.3450960E+02  0.0000000E+00
Ar 2668  0.3166297E+02  0.3439435E+02  0.3436562E+02  0.0000000E+00
Ar 2669  0.3174671E+02  0.3174461E+02  0.3692984E+02  0.0000000E+00
Ar 2670  0.3433730E+02  0.3436144E+02  0.3698101E+02  0.0000000E+00
Ar 2671  0.3429597E+02  0.3166008E+02  0.3949829E+02  0.0000000E+00
Ar 2672  0.3180361E+02  0.3444082E+02  0.3964406E+02  0.0000000E+00
Ar 2673  0.3191485E+02  0.3189869E+02  0.4253621E+02  0.0000000E+00
Ar 2674  0.3421700E+02  0.3430426E+02  0.4213634E+02  0.0000000E+00
Ar 2675  0.3427898E+02  0.3166907E+02  0.4525151E+02  0.0000000E+00
Ar 2676  0.3184323E+02  0.3448253E+02  0.4511744E+02  0.0000000E+00
Ar 2677  0.3136615E+02  0.3132831E+02  0.4729173E+02  0.0000000E+00
Ar 2678  0.3447600E+02  0.3448906E+02  0.4785131E+02  0.0000000E+00
Ar 2679  0.3425068E+02  0.3168112E+02  0.5030030E+02  0.0000000E+00
Ar 2680  0.3158761E+02  0.3413486E+02  0.5007963E+02  0.0000000E+00
Ar 2681  0.3144418E+02  0.3666220E+02  0.5253920E+02  0.0000000E+00
Ar 2682  0.3423212E+02  0.3948649E+02  0.1865903E+00  0.0000000E+00
Ar 2683  0.3411763E+02  0.3687994E+02  0.2730360E+01  0.0000000E+00
Ar 2684  0.3165079E+02  0.3961057E+02  0.2777568E+01  0.0000000E+00
Ar 2685  0.3162113E+02  0.3691714E+02  0.5394853E+01  0.0000000E+00
Ar 2686  0.3420629E+02  0.3963452E+02  0.5458348E+01  0.0000000E+00
Ar 2687  0.3427341E+02  0.3697793E+02  0.8127770E+01  0.0000000E+00
Ar 2688  0.3150118E+02  0.3947944E+02  0.7955367E+01  0.0000000E+00
Ar 2689  0.3173054E+02  0.3719153E+02  0.1084973E+02  0.0000000E+00
Ar 2690  0.3419769E+02  0.3957998E+02  0.1063601E+02  0.0000000E+00
Ar 2691  0.3431744E+02  0.3707314E+02  0.1337801E+02  0.0000000E+00
Ar 2692  0.3163059E+02  0.3973184E+02  0.1350991E+02  0.0000000E+00
Ar 2693  0.3153099E+02  0.3696312E+02  0.1583216E+02  0.0000000E+00
Ar 2694  0.3442822E+02  0.3974659E+02  0.1601790E+02  0.0000000E+00
Ar 2695  0.3408313E+02  0.3677515E+02  0.1821046E+02  0.0000000E+00
Ar 2696  0.3192270E+02  0.3978052E+02  0.1876917E+02  0.0000000E+00
Ar 2697  0.3191591E+02  0.3709121E+02  0.2117963E+02  0.0000000E+00
Ar 2698  0.3462304E+02  0.3980197E+02  0.2128295E+02  0.0000000E+00
Ar 2699  0.3456425E+02  0.3710467E+02  0.2373270E+02  0.0000000E+00
Ar 2700  0.3184884E+02  0.3972031E+02  0.2383940E+02  0.0000000E+00
Ar 2701  0.3185236E+02  0.3704834E+02  0.2649950E+02  0.0000000E+00
Ar 2702  0.3444502E+02  0.3972872E+02  0.2634118E+02  0.0000000E+00
Ar 2703  0.3448106E+02  0.3708970E+02  0.2921085E+02  0.0000000E+00
Ar 2704  0.3179970E+02  0.3958383E+02  0.2895893E+02  0.0000000E+00
Ar 2705  0.3187748E+02  0.3711933E+02  0.3191889E+02  0.0000000E+00
Ar 2706  0.3446593E+02  0.3972868E+02  0.3183886E+02  0.0000000E+00
Ar 2707  0.3446525E+02  0.3704755E+02  0.3443138E+02  0.0000000E+00
Ar 2708  0.3181457E+02  0.3963226E+02  0.3441022E+02  0.0000000E+00
Ar 2709  0.3172384E+02  0.3703963E+02  0.3700198E+02  0.0000000E+00
Ar 2710  0.3439175E+02  0.3966040E+02  0.3692748E+02  0.0000000E+00
Ar 2711  0.3421994E+02  0.3691973E+02  0.3948582E+02  0.0000000E+00
Ar 2712  0.3141762E+02  0.3939279E+02  0.3940896E+02  0.0000000E+00
Ar 2713  0.3154904E+02  0.3677867E+02  0.4213864E+02  0.0000000E+00
Ar 2714  0.3418383E+02  0.3946145E+02  0.4219653E+02  0.0000000E+00
Ar 2715  0.3447328E+02  0.3717093E+02  0.4517200E+02  0.0000000E+00
Ar 2716  0.3169098E+02  0.3950036E+02  0.4495694E+02  0.0000000E+00
Ar 2717  0.3173373E+02  0.3699451E+02  0.4769543E+02  0.0000000E+00
Ar 2718  0.3427684E+02  0.3963343E+02  0.4770997E+02  0.0000000E+00
Ar 2719  0.3443475E+02  0.3696242E+02  0.5040333E+02  0.0000000E+00
Ar 2720  0.3181407E+02  0.3979673E+02  0.5037683E+02  0.0000000E+00
Ar 2721  0.3168942E+02  0.4231058E+02  0.1786283E+00  0.0000000E+00
Ar 2722  0.3432977E+02  0.4490463E+02  0.1611764E+00  0.0000000E+00
Ar 2723  0.3426954E+02  0.4215715E+02  0.2707562E+01  0.0000000E+00
Ar 2724  0.3176068E+02  0.4511381E+02  0.2857273E+01  0.0000000E+00
Ar 2725  0.3166069E+02  0.4229273E+02  0.5579562E+01  0.0000000E+00
Ar 2726  0.3402102E+02  0.4449917E+02  0.5163885E+01  0.0000000E+00
Ar 2727  0.3447440E+02  0.4244750E+02  0.8288612E+01  0.0000000E+00
Ar 2728  0.3161568E+02  0.4490232E+02  0.8155092E+01  0.0000000E+00
Ar 2729  0.3153295E+02  0.4214525E+02  0.1061558E+02  0.0000000E+00
Ar 2730  0.3418481E+02  0.4486476E+02  0.1070769E+02  0.0000000E+00
Ar 2731  0.3408342E+02  0.4211109E+02  0.1308155E+02  0.0000000E+00
Ar 2732  0.3155364E+02  0.4489572E+02  0.1332607E+02  0.0000000E+00
Ar 2733  0.3178741E+02  0.4255015E+02  0.1613238E+02  0.0000000E+00
Ar 2734  0.3425519E+02  0.4487144E+02  0.1592222E+02  0.0000000E+00
Ar 2735  0.3434929E+02  0.4225122E+02  0.1847536E+02  0.0000000E+00
Ar 2736  0.3177304E+02  0.4525909E+02  0.1891502E+02  0.0000000E+00
Ar 2737  0.3171697E+02  0.4221330E+02  0.2110921E+02  0.0000000E+00
Ar 2738  0.3431928E+02  0.4469886E+02  0.2106994E+02  0.0000000E+00
Ar 2739  0.3421821E+02  0.4222896E+02  0.2366808E+02  0.0000000E+00
Ar 2740  0.3147891E+02  0.4474258E+02  0.2353687E+02  0.0000000E+00
Ar 2741  0.3184647E+02  0.4237835E+02  0.2653891E+02  0.0000000E+00
Ar 2742  0.3432736E+02  0.4490395E+02  0.2634226E+02  0.0000000E+00
Ar 2743  0.3442550E+02  0.4237825E+02  0.2912442E+02  0.0000000E+00
Ar 2744  0.3173520E+02  0.4503855E+02  0.2922668E+02  0.0000000E+00
Ar 2745  0.3175732E+02  0.4225084E+02  0.3172309E+02  0.0000000E+00
Ar 2746  0.3408859E+02  0.4474403E+02  0.3152565E+02  0.0000000E+00
Ar 2747  0.3440121E+02  0.4236165E+02  0.3435021E+02  0.0000000E+00
Ar 2748  0.3160306E+02  0.4487374E+02  0.3423320E+02  0.0000000E+00
Ar 2749  0.3149848E+02  0.4215220E+02  0.3678165E+02  0.0000000E+00
Ar 2750  0.3414754E+02  0.4481393E+02  0.3675839E+02  0.0000000E+00
Ar 2751  0.3405609E+02  0.4218237E+02  0.3938205E+02  0.0000000E+00
Ar 2752  0.3162879E+02  0.4498610E+02  0.3957934E+02  0.0000000E+00
Ar 2753  0.3155943E+02  0.4213739E+02  0.4203989E+02  0.0000000E+00
Ar 2754  0.3409626E+02  0.4473235E+02  0.4208085E+02  0.0000000E+00
Ar 2755  0.3425646E+02  0.4217640E+02  0.4486215E+02  0.0000000E+00
Ar 2756  0.3139157E+02  0.4460906E+02  0.4451245E+02  0.0000000E+00
Ar 2757  0.3167561E+02  0.4225988E+02  0.4753644E+02  0.0000000E+00
Ar 2758  0.3413787E+02  0.4463630E+02  0.4716974E+02  0.0000000E+00
Ar 2759  0.3432885E+02  0.4236445E+02  0.5016239E+02  0.0000000E+00
Ar 2760  0.3157019E+02  0.4477617E+02  0.5001453E+02  0.0000000E+00
Ar 2761  0.3149524E+02  0.4723615E+02  0.5249436E+02  0.0000000E+00
Ar 2762  0.3431429E+02  0.4996768E+02  0.7671075E-01  0.0000000E+00
Ar 2763  0.3438521E+02  0.4758163E+02  0.2770725E+01  0.0000000E+00
Ar 2764  0.3164586E+02  0.4995784E+02  0.2663094E+01  0.0000000E+00
Ar 2765  0.3169533E+02  0.4753956E+02  0.5488188E+01  0.0000000E+00
Ar 2766  0.3406980E+02  0.4993332E+02  0.5243082E+01  0.0000000E+00
Ar 2767  0.3412779E+02  0.4727114E+02  0.7839895E+01  0.0000000E+00
Ar 2768  0.3159826E+02  0.4999763E+02  0.8071447E+01  0.0000000E+00
Ar 2769  0.3169245E+02  0.4760225E+02  0.1073840E+02  0.0000000E+00
Ar 2770  0.3455940E+02  0.5031953E+02  0.1085677E+02  0.0000000E+00
Ar 2771  0.3430114E+02  0.4750516E+02  0.1330497E+02  0.0000000E+00
Ar 2772  0.3167385E+02  0.5019045E+02  0.1340575E+02  0.0000000E+00
Ar 2773  0.3173276E+02  0.4759972E+02  0.1602552E+02  0.0000000E+00
Ar 2774  0.3430315E+02  0.5007397E+02  0.1587335E+02  0.0000000E+00
Ar 2775  0.3447050E+02  0.4768001E+02  0.1864449E+02  0.0000000E+00
Ar 2776  0.3163419E+02  0.5008069E+02  0.1858477E+02  0.0000000E+00
Ar 2777  0.3163471E+02  0.4765642E+02  0.2131473E+02  0.0000000E+00
Ar 2778  0.3431157E+02  0.5008473E+02  0.2112919E+02  0.0000000E+00
Ar 2779  0.3432025E+02  0.4745167E+02  0.2378337E+02  0.0000000E+00
Ar 2780  0.3175910E+02  0.5015048E+02  0.2389538E+02  0.0000000E+00
Ar 2781  0.3173737E+02  0.4757446E+02  0.2636947E+02  0.0000000E+00
Ar 2782  0.3440940E+02  0.5023309E+02  0.2653685E+02  0.0000000E+00
Ar 2783  0.3423597E+02  0.4745208E+02  0.2896344E+02  0.0000000E+00
Ar 2784  0.3166654E+02  0.5015525E+02  0.2897977E+02  0.0000000E+00
Ar 2785  0.3174808E+02  0.4763494E+02  0.3183644E+02  0.0000000E+00
Ar 2786  0.3425010E+02  0.5016810E+02  0.3153167E+02  0.0000000E+00
Ar 2787  0.3426162E+02  0.4758664E+02  0.3437551E+02  0.0000000E+00
Ar 2788  0.3159379E+02  0.5007045E+02  0.3432740E+02  0.0000000E+00
Ar 2789  0.3162330E+02  0.4762287E+02  0.3688443E+02  0.0000000E+00
Ar 2790  0.3441670E+02  0.5034295E+02  0.3712186E+02  0.0000000E+00
Ar 2791  0.3407086E+02  0.4742339E+02  0.3931788E+02  0.0000000E+00
Ar 2792  0.3160512E+02  0.5017243E+02  0.3958086E+02  0.0000000E+00
Ar 2793  0.3174174E+02  0.4763380E+02  0.4237606E+02  0.0000000E+00
Ar 2794  0.3430420E+02  0.5023449E+02  0.4226716E+02  0.0000000E+00
Ar 2795  0.3425955E+02  0.4743323E+02  0.4488777E+02  0.0000000E+00
Ar 2796  0.3188775E+02  0.5028717E+02  0.4506913E+02  0.0000000E+00
Ar 2797  0.3136703E+02  0.4713039E+02  0.4707060E+02  0.0000000E+00
Ar 2798  0.3448146E+02  0.5023651E+02  0.4767828E+02  0.0000000E+00
Ar 2799  0.3406673E+02  0.4723731E+02  0.4982712E+02  0.0000000E+00
Ar 2800  0.3176547E+02  0.5011758E+02  0.5012268E+02  0.0000000E+00
Ar 2801  0.3674863E+02  0.5253410E+02  0.7143820E-01  0.0000000E+00
Ar 2802  0.3921151E+02  0.2270519E+01  0.5230889E+02  0.0000000E+00
Ar 2803  0.3950419E+02  0.6295539E-01  0.2678173E+01  0.0000000E+00
Ar 2804  0.3686092E+02  0.2600515E+01  0.2711524E+01  0.0000000E+00
Ar 2805  0.3684669E+02  0.5249375E+02  0.5264336E+01  0.0000000E+00
Ar 2806  0.3927573E+02  0.2454137E+01  0.5120704E+01  0.0000000E+00
Ar 2807  0.3947247E+02  0.5252391E+02  0.7878705E+01  0.0000000E+00
Ar 2808  0.3651698E+02  0.2460101E+01  0.7796752E+01  0.0000000E+00
Ar 2809  0.3715470E+02  0.1664982E+00  0.1068667E+02  0.0000000E+00
Ar 2810  0.3961207E+02  0.2727732E+01  0.1079263E+02  0.0000000E+00
Ar 2811  0.3970702E+02  0.1547420E+00  0.1336339E+02  0.0000000E+00
Ar 2812  0.3696738E+02  0.2826158E+01  0.1332143E+02  0.0000000E+00
Ar 2813  0.3675133E+02  0.5263529E+02  0.1578492E+02  0.0000000E+00
Ar 2814  0.3942932E+02  0.2753215E+01  0.1584038E+02  0.0000000E+00
Ar 2815  0.3954170E+02  0.2973921E+00  0.1849927E+02  0.0000000E+00
Ar 2816  0.3702523E+02  0.2906811E+01  0.1865564E+02  0.0000000E+00
Ar 2817  0.3690484E+02  0.1669369E+00  0.2122285E+02  0.0000000E+00
Ar 2818  0.3963713E+02  0.2748465E+01  0.2115154E+02  0.0000000E+00
Ar 2819  0.3970316E+02  0.1974570E+00  0.2387593E+02  0.0000000E+00
Ar 2820  0.3686619E+02  0.2852430E+01  0.2383289E+02  0.0000000E+00
Ar 2821  0.3694824E+02  0.2220705E+00  0.2648821E+02  0.0000000E+00
Ar 2822  0.3935582E+02  0.2534682E+01  0.2625232E+02  0.0000000E+00
Ar 2823  0.3966870E+02  0.2378105E+00  0.2919093E+02  0.0000000E+00
Ar 2824  0.3702046E+02  0.2938746E+01  0.2919559E+02  0.0000000E+00
Ar 2825  0.3679439E+02  0.4647674E-01  0.3147318E+02  0.0000000E+00
Ar 2826  0.3953177E+02  0.2802293E+01  0.3165075E+02  0.0000000E+00
Ar 2827  0.3936910E+02  0.5261279E+02  0.3409696E+02  0.0000000E+00
Ar 2828  0.3663329E+02  0.2697764E+01  0.3398922E+02  0.0000000E+00
Ar 2829  0.3668862E+02  0.1009013E+00  0.3656206E+02  0.0000000E+00
Ar 2830  0.3919268E+02  0.2505614E+01  0.3648203E+02  0.0000000E+00
Ar 2831  0.3922412E+02  0.5259742E+02  0.3921489E+02  0.0000000E+00
Ar 2832  0.3663631E+02  0.2626658E+01  0.3937365E+02  0.0000000E+00
Ar 2833  0.3688112E+02  0.6163123E-01  0.4218247E+02  0.0000000E+00
Ar 2834  0.3940451E+02  0.2582814E+01  0.4191973E+02  0.0000000E+00
Ar 2835  0.3948624E+02  0.5260535E+02  0.4478720E+02  0.0000000E+00
Ar 2836  0.3687678E+02  0.2753845E+01  0.4469142E+02  0.0000000E+00
Ar 2837  0.3692181E+02  0.5273555E-01  0.4731865E+02  0.0000000E+00
Ar 2838  0.3947481E+02  0.2669121E+01  0.4730311E+02  0.0000000E+00
Ar 2839  0.3931627E+02  0.5245761E+02  0.4978707E+02  0.0000000E+00
Ar 2840  0.3695376E+02  0.2925537E+01  0.4999755E+02  0.0000000E+00
Ar 2841  0.3711503E+02  0.5609493E+01  0.1604335E+00  0.0000000E+00
Ar 2842  0.3945411E+02  0.7974610E+01  0.5246092E+02  0.0000000E+00
Ar 2843  0.3936168E+02  0.5082439E+01  0.2559002E+01  0.0000000E+00
Ar 2844  0.3685265E+02  0.8002001E+01  0.2674234E+01  0.0000000E+00
Ar 2845  0.3673128E+02  0.5265044E+01  0.5291820E+01  0.0000000E+00
Ar 2846  0.3948142E+02  0.7963873E+01  0.5399663E+01  0.0000000E+00
Ar 2847  0.3935319E+02  0.5191838E+01  0.7916696E+01  0.0000000E+00
Ar 2848  0.3692864E+02  0.8014304E+01  0.8078770E+01  0.0000000E+00
Ar 2849  0.3685550E+02  0.5274191E+01  0.1060540E+02  0.0000000E+00
Ar 2850  0.3943036E+02  0.7957542E+01  0.1053673E+02  0.0000000E+00
Ar 2851  0.3941916E+02  0.5311113E+01  0.1325172E+02  0.0000000E+00
Ar 2852  0.3683795E+02  0.7999526E+01  0.1317567E+02  0.0000000E+00
Ar 2853  0.3693027E+02  0.5529011E+01  0.1597149E+02  0.0000000E+00
Ar 2854  0.3951291E+02  0.8033387E+01  0.1585122E+02  0.0000000E+00
Ar 2855  0.3949252E+02  0.5270436E+01  0.1835961E+02  0.0000000E+00
Ar 2856  0.3685342E+02  0.7919329E+01  0.1844677E+02  0.0000000E+00
Ar 2857  0.3696789E+02  0.5399534E+01  0.2113325E+02  0.0000000E+00
Ar 2858  0.3954278E+02  0.7770376E+01  0.2110457E+02  0.0000000E+00
Ar 2859  0.3944270E+02  0.5140532E+01  0.2359266E+02  0.0000000E+00
Ar 2860  0.3682559E+02  0.7868391E+01  0.2369286E+02  0.0000000E+00
Ar 2861  0.3700172E+02  0.5379522E+01  0.2646655E+02  0.0000000E+00
Ar 2862  0.3949010E+02  0.7946926E+01  0.2615875E+02  0.0000000E+00
Ar 2863  0.3960795E+02  0.5295205E+01  0.2900604E+02  0.0000000E+00
Ar 2864  0.3672183E+02  0.7942162E+01  0.2874612E+02  0.0000000E+00
Ar 2865  0.3704342E+02  0.5639677E+01  0.3190950E+02  0.0000000E+00
Ar 2866  0.3947531E+02  0.8019786E+01  0.3149621E+02  0.0000000E+00
Ar 2867  0.3957591E+02  0.5448650E+01  0.3433209E+02  0.0000000E+00
Ar 2868  0.3683038E+02  0.8046841E+01  0.3427946E+02  0.0000000E+00
Ar 2869  0.3681108E+02  0.5417611E+01  0.3685756E+02  0.0000000E+00
Ar 2870  0.3938319E+02  0.7831850E+01  0.3688734E+02  0.0000000E+00
Ar 2871  0.3924032E+02  0.5034473E+01  0.3924514E+02  0.0000000E+00
Ar 2872  0.3713046E+02  0.8209980E+01  0.3986010E+02  0.0000000E+00
Ar 2873  0.3687971E+02  0.5416225E+01  0.4210023E+02  0.0000000E+00
Ar 2874  0.3976713E+02  0.8252742E+01  0.4239053E+02  0.0000000E+00
Ar 2875  0.3947769E+02  0.5178948E+01  0.4464903E+02  0.0000000E+00
Ar 2876  0.3705028E+02  0.8106836E+01  0.4491010E+02  0.0000000E+00
Ar 2877  0.3685317E+02  0.5274886E+01  0.4721560E+02  0.0000000E+00
Ar 2878  0.3953019E+02  0.7779696E+01  0.4729726E+02  0.0000000E+00
Ar 2879  0.3956651E+02  0.5390734E+01  0.5004262E+02  0.0000000E+00
Ar 2880  0.3697725E+02  0.7984130E+01  0.4998714E+02  0.0000000E+00
Ar 2881  0.3702281E+02  0.1074969E+02  0.4143223E-01  0.0000000E+00
Ar 2882  0.3963254E+02  0.1329130E+02  0.1209296E+00  0.0000000E+00
Ar 2883  0.3962492E+02  0.1063609E+02  0.2746397E+01  0.0000000E+00
Ar 2884  0.3672925E+02  0.1315724E+02  0.2564859E+01  0.0000000E+00
Ar 2885  0.3674730E+02  0.1057111E+02  0.5260729E+01  0.0000000E+00
Ar 2886  0.3920160E+02  0.1299679E+02  0.5085457E+01  0.0000000E+00
Ar 2887  0.3942412E+02  0.1059042E+02  0.7930511E+01  0.0000000E+00
Ar 2888  0.3691213E+02  0.1338238E+02  0.8017165E+01  0.0000000E+00
Ar 2889  0.3661039E+02  0.1047610E+02  0.1042723E+02  0.0000000E+00
Ar 2890  0.3941528E+02  0.1307002E+02  0.1049954E+02  0.0000000E+00
Ar 2891  0.3961991E+02  0.1068330E+02  0.1325128E+02  0.0000000E+00
Ar 2892  0.3671626E+02  0.1297865E+02  0.1300877E+02  0.0000000E+00
Ar 2893  0.3681502E+02  0.1052916E+02  0.1577710E+02  0.0000000E+00
Ar 2894  0.3971253E+02  0.1335115E+02  0.1595047E+02  0.0000000E+00
Ar 2895  0.3971496E+02  0.1083055E+02  0.1865254E+02  0.0000000E+00
Ar 2896  0.3697764E+02  0.1330487E+02  0.1851172E+02  0.0000000E+00
Ar 2897  0.3686216E+02  0.1054540E+02  0.2114000E+02  0.0000000E+00
Ar 2898  0.3949686E+02  0.1330283E+02  0.2114331E+02  0.0000000E+00
Ar 2899  0.3934161E+02  0.1040937E+02  0.2358730E+02  0.0000000E+00
Ar 2900  0.3686039E+02  0.1323989E+02  0.2365677E+02  0.0000000E+00
Ar 2901  0.3698491E+02  0.1077224E+02  0.2642607E+02  0.0000000E+00
Ar 2902  0.3948559E+02  0.1321635E+02  0.2616428E+02  0.0000000E+00
Ar 2903  0.3949250E+02  0.1047831E+02  0.2878120E+02  0.0000000E+00
Ar 2904  0.3681885E+02  0.1332717E+02  0.2888793E+02  0.0000000E+00
Ar 2905  0.3670695E+02  0.1049593E+02  0.3143279E+02  0.0000000E+00
Ar 2906  0.3938306E+02  0.1306208E+02  0.3132280E+02  0.0000000E+00
Ar 2907  0.3941045E+02  0.1055931E+02  0.3396470E+02  0.0000000E+00
Ar 2908  0.3671052E+02  0.1304196E+02  0.3403785E+02  0.0000000E+00
Ar 2909  0.3699527E+02  0.1068737E+02  0.3697869E+02  0.0000000E+00
Ar 2910  0.3952392E+02  0.1325472E+02  0.3673538E+02  0.0000000E+00
Ar 2911  0.3959360E+02  0.1064953E+02  0.3963616E+02  0.0000000E+00
Ar 2912  0.3674496E+02  0.1309757E+02  0.3941551E+02  0.0000000E+00
Ar 2913  0.3684696E+02  0.1064781E+02  0.4220721E+02  0.0000000E+00
Ar 2914  0.3935441E+02  0.1310901E+02  0.4202024E+02  0.0000000E+00
Ar 2915  0.3935431E+02  0.1054121E+02  0.4471063E+02  0.0000000E+00
Ar 2916  0.3697245E+02  0.1332587E+02  0.4493815E+02  0.0000000E+00
Ar 2917  0.3689245E+02  0.1070998E+02  0.4746429E+02  0.0000000E+00
Ar 2918  0.3974703E+02  0.1348104E+02  0.4767021E+02  0.0000000E+00
Ar 2919  0.3939530E+02  0.1049804E+02  0.4984596E+02  0.0000000E+00
Ar 2920  0.3690626E+02  0.1328234E+02  0.5004814E+02  0.0000000E+00
Ar 2921  0.3680256E+02  0.1578966E+02  0.9831040E-01  0.0000000E+00
Ar 2922  0.3937051E+02  0.1844458E+02  0.1580702E+00  0.0000000E+00
Ar 2923  0.3958897E+02  0.1592265E+02  0.2883897E+01  0.0000000E+00
Ar 2924  0.3664577E+02  0.1831579E+02  0.2613854E+01  0.0000000E+00
Ar 2925  0.3658972E+02  0.1561444E+02  0.5099519E+01  0.0000000E+00
Ar 2926  0.3936162E+02  0.1837286E+02  0.5247805E+01  0.0000000E+00
Ar 2927  0.3969885E+02  0.1601982E+02  0.8071013E+01  0.0000000E+00
Ar 2928  0.3677246E+02  0.1831305E+02  0.7790851E+01  0.0000000E+00
Ar 2929  0.3684931E+02  0.1580861E+02  0.1051927E+02  0.0000000E+00
Ar 2930  0.3949006E+02  0.1847164E+02  0.1052276E+02  0.0000000E+00
Ar 2931  0.3939807E+02  0.1561228E+02  0.1306876E+02  0.0000000E+00
Ar 2932  0.3681325E+02  0.1835535E+02  0.1315540E+02  0.0000000E+00
Ar 2933  0.3667446E+02  0.1563971E+02  0.1560553E+02  0.0000000E+00
Ar 2934  0.3947600E+02  0.1842615E+02  0.1583730E+02  0.0000000E+00
Ar 2935  0.3947226E+02  0.1586547E+02  0.1838353E+02  0.0000000E+00
Ar 2936  0.3698051E+02  0.1862549E+02  0.1863249E+02  0.0000000E+00
Ar 2937  0.3698952E+02  0.1601599E+02  0.2120162E+02  0.0000000E+00
Ar 2938  0.3945670E+02  0.1836820E+02  0.2108430E+02  0.0000000E+00
Ar 2939  0.3941479E+02  0.1580471E+02  0.2363670E+02  0.0000000E+00
Ar 2940  0.3698816E+02  0.1867984E+02  0.2384577E+02  0.0000000E+00
Ar 2941  0.3676119E+02  0.1587288E+02  0.2625526E+02  0.0000000E+00
Ar 2942  0.3970315E+02  0.1870385E+02  0.2654298E+02  0.0000000E+00
Ar 2943  0.3946768E+02  0.1584695E+02  0.2883174E+02  0.0000000E+00
Ar 2944  0.3687382E+02  0.1849639E+02  0.2897199E+02  0.0000000E+00
Ar 2945  0.3675298E+02  0.1576423E+02  0.3136549E+02  0.0000000E+00
Ar 2946  0.3939579E+02  0.1830619E+02  0.3143684E+02  0.0000000E+00
Ar 2947  0.3926745E+02  0.1545515E+02  0.3381441E+02  0.0000000E+00
Ar 2948  0.3691294E+02  0.1835653E+02  0.3429105E+02  0.0000000E+00
Ar 2949  0.3678893E+02  0.1565522E+02  0.3673186E+02  0.0000000E+00
Ar 2950  0.3947555E+02  0.1837319E+02  0.3691063E+02  0.0000000E+00
Ar 2951  0.3949792E+02  0.1567688E+02  0.3944386E+02  0.0000000E+00
Ar 2952  0.3699096E+02  0.1844455E+02  0.3964551E+02  0.0000000E+00
Ar 2953  0.3694840E+02  0.1578455E+02  0.4226740E+02  0.0000000E+00
Ar 2954  0.3937016E+02  0.1809971E+02  0.4204746E+02  0.0000000E+00
Ar 2955  0.3954607E+02  0.1582979E+02  0.4485802E+02  0.0000000E+00
Ar 2956  0.3671838E+02  0.1822272E+02  0.4473568E+02  0.0000000E+00
Ar 2957  0.3683726E+02  0.1587496E+02  0.4749302E+02  0.0000000E+00
Ar 2958  0.3931313E+02  0.1828119E+02  0.4731972E+02  0.0000000E+00
Ar 2959  0.3953860E+02  0.1593743E+02  0.5033406E+02  0.0000000E+00
Ar 2960  0.3673455E+02  0.1838556E+02  0.5007164E+02  0.0000000E+00
Ar 2961  0.3681684E+02  0.2102821E+02  0.4795660E-01  0.0000000E+00
Ar 2962  0.3942244E+02  0.2365080E+02  0.5264832E+02  0.0000000E+00
Ar 2963  0.3949652E+02  0.2110558E+02  0.2753561E+01  0.0000000E+00
Ar 2964  0.3675719E+02  0.2371972E+02  0.2685835E+01  0.0000000E+00
Ar 2965  0.3680841E+02  0.2107856E+02  0.5323645E+01  0.0000000E+00
Ar 2966  0.3946806E+02  0.2370178E+02  0.5210148E+01  0.0000000E+00
Ar 2967  0.3964139E+02  0.2123829E+02  0.8001679E+01  0.0000000E+00
Ar 2968  0.3677379E+02  0.2375014E+02  0.7974965E+01  0.0000000E+00
Ar 2969  0.3663831E+02  0.2090327E+02  0.1031316E+02  0.0000000E+00
Ar 2970  0.3950831E+02  0.2376537E+02  0.1061644E+02  0.0000000E+00
Ar 2971  0.3934080E+02  0.2099294E+02  0.1311718E+02  0.0000000E+00
Ar 2972  0.3674167E+02  0.2355149E+02  0.1306021E+02  0.0000000E+00
Ar 2973  0.3695571E+02  0.2114805E+02  0.1594172E+02  0.0000000E+00
Ar 2974  0.3951838E+02  0.2371569E+02  0.1590386E+02  0.0000000E+00
Ar 2975  0.3943712E+02  0.2109017E+02  0.1837621E+02  0.0000000E+00
Ar 2976  0.3692627E+02  0.2374202E+02  0.1854942E+02  0.0000000E+00
Ar 2977  0.3706298E+02  0.2134619E+02  0.2135889E+02  0.0000000E+00
Ar 2978  0.3994572E+02  0.2399788E+02  0.2143259E+02  0.0000000E+00
Ar 2979  0.3977582E+02  0.2134944E+02  0.2393191E+02  0.0000000E+00
Ar 2980  0.3705202E+02  0.2394037E+02  0.2381014E+02  0.0000000E+00
Ar 2981  0.3709374E+02  0.2123346E+02  0.2654960E+02  0.0000000E+00
Ar 2982  0.3966360E+02  0.2387994E+02  0.2651394E+02  0.0000000E+00
Ar 2983  0.3964333E+02  0.2115683E+02  0.2912277E+02  0.0000000E+00
Ar 2984  0.3703821E+02  0.2386168E+02  0.2927806E+02  0.0000000E+00
Ar 2985  0.3693863E+02  0.2099654E+02  0.3171350E+02  0.0000000E+00
Ar 2986  0.3965048E+02  0.2375664E+02  0.3178382E+02  0.0000000E+00
Ar 2987  0.3950385E+02  0.2103703E+02  0.3423042E+02  0.0000000E+00
Ar 2988  0.3724027E+02  0.2392851E+02  0.3454849E+02  0.0000000E+00
Ar 2989  0.3709992E+02  0.2117440E+02  0.3699525E+02  0.0000000E+00
Ar 2990  0.3977732E+02  0.2385174E+02  0.3711532E+02  0.0000000E+00
Ar 2991  0.3958263E+02  0.2111539E+02  0.3961917E+02  0.0000000E+00
Ar 2992  0.3704432E+02  0.2381065E+02  0.3965531E+02  0.0000000E+00
Ar 2993  0.3689227E+02  0.2092741E+02  0.4222972E+02  0.0000000E+00
Ar 2994  0.3961377E+02  0.2367140E+02  0.4232839E+02  0.0000000E+00
Ar 2995  0.3931953E+02  0.2073123E+02  0.4461845E+02  0.0000000E+00
Ar 2996  0.3686812E+02  0.2356339E+02  0.4482559E+02  0.0000000E+00
Ar 2997  0.3681431E+02  0.2103100E+02  0.4738398E+02  0.0000000E+00
Ar 2998  0.3931164E+02  0.2352506E+02  0.4735307E+02  0.0000000E+00
Ar 2999  0.3925321E+02  0.2094413E+02  0.4989762E+02  0.0000000E+00
Ar 3000  0.3682304E+02  0.2371472E+02  0.5006340E+02  0.0000000E+00
Ar 3001  0.3689283E+02  0.2646519E+02  0.1915242E+00  0.0000000E+00
Ar 3002  0.3971671E+02  0.2908858E+02  0.2094752E+00  0.0000000E+00
Ar 3003  0.3950788E+02  0.2637023E+02  0.2726786E+01  0.0000000E+00
Ar 3004  0.3690481E+02  0.2899703E+02  0.2837483E+01  0.0000000E+00
Ar 3005  0.3679241E+02  0.2630952E+02  0.5305322E+01  0.0000000E+00
Ar 3006  0.3968132E+02  0.2909541E+02  0.5566383E+01  0.0000000E+00
Ar 3007  0.3940926E+02  0.2622745E+02  0.7827425E+01  0.0000000E+00
Ar 3008  0.3712863E+02  0.2920313E+02  0.8302601E+01  0.0000000E+00
Ar 3009  0.3690489E+02  0.2632330E+02  0.1065088E+02  0.0000000E+00
Ar 3010  0.3969512E+02  0.2905151E+02  0.1079610E+02  0.0000000E+00
Ar 3011  0.3961371E+02  0.2638935E+02  0.1335100E+02  0.0000000E+00
Ar 3012  0.3690730E+02  0.2880962E+02  0.1326330E+02  0.0000000E+00
Ar 3013  0.3706408E+02  0.2635756E+02  0.1598001E+02  0.0000000E+00
Ar 3014  0.3965496E+02  0.2898793E+02  0.1594106E+02  0.0000000E+00
Ar 3015  0.3976771E+02  0.2656632E+02  0.1878152E+02  0.0000000E+00
Ar 3016  0.3682140E+02  0.2884145E+02  0.1839437E+02  0.0000000E+00
Ar 3017  0.3694434E+02  0.2653071E+02  0.2114041E+02  0.0000000E+00
Ar 3018  0.3964017E+02  0.2918408E+02  0.2128743E+02  0.0000000E+00
Ar 3019  0.3947451E+02  0.2643382E+02  0.2378860E+02  0.0000000E+00
Ar 3020  0.3684356E+02  0.2919886E+02  0.2370758E+02  0.0000000E+00
Ar 3021  0.3707687E+02  0.2660509E+02  0.2659291E+02  0.0000000E+00
Ar 3022  0.3952910E+02  0.2915586E+02  0.2629518E+02  0.0000000E+00
Ar 3023  0.3948191E+02  0.2624628E+02  0.2907047E+02  0.0000000E+00
Ar 3024  0.3717875E+02  0.2919372E+02  0.2918597E+02  0.0000000E+00
Ar 3025  0.3714111E+02  0.2647154E+02  0.3192810E+02  0.0000000E+00
Ar 3026  0.3964690E+02  0.2909272E+02  0.3182195E+02  0.0000000E+00
Ar 3027  0.3970385E+02  0.2645793E+02  0.3441888E+02  0.0000000E+00
Ar 3028  0.3718779E+02  0.2916293E+02  0.3453710E+02  0.0000000E+00
Ar 3029  0.3716530E+02  0.2659458E+02  0.3709184E+02  0.0000000E+00
Ar 3030  0.3971873E+02  0.2906311E+02  0.3710661E+02  0.0000000E+00
Ar 3031  0.3961759E+02  0.2634154E+02  0.3960942E+02  0.0000000E+00
Ar 3032  0.3713644E+02  0.2927934E+02  0.3973976E+02  0.0000000E+00
Ar 3033  0.3704873E+02  0.2657605E+02  0.4249583E+02  0.0000000E+00
Ar 3034  0.3950425E+02  0.2891870E+02  0.4203332E+02  0.0000000E+00
Ar 3035  0.3941077E+02  0.2614755E+02  0.4484855E+02  0.0000000E+00
Ar 3036  0.3710748E+02  0.2923869E+02  0.4519229E+02  0.0000000E+00
Ar 3037  0.3688072E+02  0.2630936E+02  0.4750546E+02  0.0000000E+00
Ar 3038  0.3951218E+02  0.2892680E+02  0.4759415E+02  0.0000000E+00
Ar 3039  0.3942481E+02  0.2628295E+02  0.5010450E+02  0.0000000E+00
Ar 3040  0.3700216E+02  0.2909645E+02  0.5031257E+02  0.0000000E+00
Ar 3041  0.3711469E+02  0.3188013E+02  0.3774252E+00  0.0000000E+00
Ar 3042  0.3956971E+02  0.3434188E+02  0.1380508E+00  0.0000000E+00
Ar 3043  0.3948999E+02  0.3143935E+02  0.2726606E+01  0.0000000E+00
Ar 3044  0.3684376E+02  0.3422183E+02  0.2854950E+01  0.0000000E+00
Ar 3045  0.3691992E+02  0.3156127E+02  0.5524740E+01  0.0000000E+00
Ar 3046  0.3958986E+02  0.3414956E+02  0.5370995E+01  0.0000000E+00
Ar 3047  0.3952799E+02  0.3159950E+02  0.8061340E+01  0.0000000E+00
Ar 3048  0.3681004E+02  0.3416219E+02  0.8043627E+01  0.0000000E+00
Ar 3049  0.3708148E+02  0.3164522E+02  0.1077318E+02  0.0000000E+00
Ar 3050  0.3960126E+02  0.3421048E+02  0.1062558E+02  0.0000000E+00
Ar 3051  0.3965209E+02  0.3161536E+02  0.1337631E+02  0.0000000E+00
Ar 3052  0.3694598E+02  0.3416586E+02  0.1332731E+02  0.0000000E+00
Ar 3053  0.3700795E+02  0.3160929E+02  0.1592377E+02  0.0000000E+00
Ar 3054  0.3945735E+02  0.3416060E+02  0.1575440E+02  0.0000000E+00
Ar 3055  0.3960683E+02  0.3171953E+02  0.1861658E+02  0.0000000E+00
Ar 3056  0.3685787E+02  0.3419900E+02  0.1831655E+02  0.0000000E+00
Ar 3057  0.3666816E+02  0.3140954E+02  0.2082201E+02  0.0000000E+00
Ar 3058  0.3946858E+02  0.3420293E+02  0.2095311E+02  0.0000000E+00
Ar 3059  0.3961324E+02  0.3184927E+02  0.2383247E+02  0.0000000E+00
Ar 3060  0.3730387E+02  0.3450996E+02  0.2382140E+02  0.0000000E+00
Ar 3061  0.3721005E+02  0.3191875E+02  0.2653706E+02  0.0000000E+00
Ar 3062  0.3993801E+02  0.3471128E+02  0.2674022E+02  0.0000000E+00
Ar 3063  0.3973650E+02  0.3192090E+02  0.2917660E+02  0.0000000E+00
Ar 3064  0.3701923E+02  0.3448859E+02  0.2907185E+02  0.0000000E+00
Ar 3065  0.3705987E+02  0.3171558E+02  0.3177011E+02  0.0000000E+00
Ar 3066  0.3962851E+02  0.3449733E+02  0.3181479E+02  0.0000000E+00
Ar 3067  0.3967351E+02  0.3170185E+02  0.3432657E+02  0.0000000E+00
Ar 3068  0.3697224E+02  0.3438788E+02  0.3436637E+02  0.0000000E+00
Ar 3069  0.3697411E+02  0.3156447E+02  0.3697638E+02  0.0000000E+00
Ar 3070  0.3947978E+02  0.3421135E+02  0.3683911E+02  0.0000000E+00
Ar 3071  0.3988359E+02  0.3202195E+02  0.3984456E+02  0.0000000E+00
Ar 3072  0.3672901E+02  0.3417428E+02  0.3945071E+02  0.0000000E+00
Ar 3073  0.3710491E+02  0.3181414E+02  0.4223545E+02  0.0000000E+00
Ar 3074  0.3964296E+02  0.3451445E+02  0.4233563E+02  0.0000000E+00
Ar 3075  0.3960936E+02  0.3167795E+02  0.4479163E+02  0.0000000E+00
Ar 3076  0.3669448E+02  0.3413684E+02  0.4469869E+02  0.0000000E+00
Ar 3077  0.3705489E+02  0.3170447E+02  0.4778156E+02  0.0000000E+00
Ar 3078  0.3958375E+02  0.3434225E+02  0.4751195E+02  0.0000000E+00
Ar 3079  0.3985501E+02  0.3188583E+02  0.5034137E+02  0.0000000E+00
Ar 3080  0.3687956E+02  0.3420815E+02  0.5028408E+02  0.0000000E+00
Ar 3081  0.3697845E+02  0.3695256E+02  0.3317001E+00  0.0000000E+00
Ar 3082  0.3963621E+02  0.3953548E+02  0.1346294E+00  0.0000000E+00
Ar 3083  0.3950583E+02  0.3674110E+02  0.2752068E+01  0.0000000E+00
Ar 3084  0.3692306E+02  0.3963260E+02  0.2909607E+01  0.0000000E+00
Ar 3085  0.3681304E+02  0.3689771E+02  0.5293420E+01  0.0000000E+00
Ar 3086  0.3977418E+02  0.3971211E+02  0.5606203E+01  0.0000000E+00
Ar 3087  0.3946513E+02  0.3679707E+02  0.7924614E+01  0.0000000E+00
Ar 3088  0.3668287E+02  0.3932905E+02  0.7721935E+01  0.0000000E+00
Ar 3089  0.3708452E+02  0.3712358E+02  0.1074146E+02  0.0000000E+00
Ar 3090  0.3954430E+02  0.3950061E+02  0.1061888E+02  0.0000000E+00
Ar 3091  0.3947407E+02  0.3675751E+02  0.1320595E+02  0.0000000E+00
Ar 3092  0.3690647E+02  0.3965761E+02  0.1327275E+02  0.0000000E+00
Ar 3093  0.3685915E+02  0.3680570E+02  0.1571611E+02  0.0000000E+00
Ar 3094  0.3946872E+02  0.3945595E+02  0.1566603E+02  0.0000000E+00
Ar 3095  0.3948910E+02  0.3688938E+02  0.1833158E+02  0.0000000E+00
Ar 3096  0.3689466E+02  0.3951446E+02  0.1835853E+02  0.0000000E+00
Ar 3097  0.3719298E+02  0.3716082E+02  0.2120861E+02  0.0000000E+00
Ar 3098  0.3965542E+02  0.3969485E+02  0.2101153E+02  0.0000000E+00
Ar 3099  0.3986104E+02  0.3713464E+02  0.2396366E+02  0.0000000E+00
Ar 3100  0.3735661E+02  0.3996054E+02  0.2409879E+02  0.0000000E+00
Ar 3101  0.3685329E+02  0.3685252E+02  0.2616449E+02  0.0000000E+00
Ar 3102  0.3984870E+02  0.3979932E+02  0.2659680E+02  0.0000000E+00
Ar 3103  0.3967437E+02  0.3711593E+02  0.2913279E+02  0.0000000E+00
Ar 3104  0.3693365E+02  0.3957337E+02  0.2885963E+02  0.0000000E+00
Ar 3105  0.3720821E+02  0.3728790E+02  0.3193942E+02  0.0000000E+00
Ar 3106  0.3960769E+02  0.3965977E+02  0.3166884E+02  0.0000000E+00
Ar 3107  0.3964484E+02  0.3697477E+02  0.3441931E+02  0.0000000E+00
Ar 3108  0.3703716E+02  0.3974601E+02  0.3448087E+02  0.0000000E+00
Ar 3109  0.3714240E+02  0.3701920E+02  0.3705459E+02  0.0000000E+00
Ar 3110  0.3975494E+02  0.3966811E+02  0.3718226E+02  0.0000000E+00
Ar 3111  0.3964038E+02  0.3694244E+02  0.3963419E+02  0.0000000E+00
Ar 3112  0.3687921E+02  0.3943797E+02  0.3948522E+02  0.0000000E+00
Ar 3113  0.3676746E+02  0.3679096E+02  0.4212810E+02  0.0000000E+00
Ar 3114  0.3959969E+02  0.3962613E+02  0.4232514E+02  0.0000000E+00
Ar 3115  0.3930521E+02  0.3681841E+02  0.4477931E+02  0.0000000E+00
Ar 3116  0.3689395E+02  0.3956515E+02  0.4481174E+02  0.0000000E+00
Ar 3117  0.3691389E+02  0.3685066E+02  0.4751130E+02  0.0000000E+00
Ar 3118  0.3957397E+02  0.3957664E+02  0.4754763E+02  0.0000000E+00
Ar 3119  0.3967199E+02  0.3691482E+02  0.5022745E+02  0.0000000E+00
Ar 3120  0.3686945E+02  0.3934870E+02  0.5006334E+02  0.0000000E+00
Ar 3121  0.3682404E+02  0.4200871E+02  0.5263374E+02  0.0000000E+00
Ar 3122  0.3945905E+02  0.4473609E+02  0.5263681E+02  0.0000000E+00
Ar 3123  0.3945393E+02  0.4202486E+02  0.2612678E+01  0.0000000E+00
Ar 3124  0.3702691E+02  0.4475076E+02  0.2743017E+01  0.0000000E+00
Ar 3125  0.3678832E+02  0.4210249E+02  0.5280915E+01  0.0000000E+00
Ar 3126  0.3952031E+02  0.4468636E+02  0.5279142E+01  0.0000000E+00
Ar 3127  0.3940339E+02  0.4208347E+02  0.8024104E+01  0.0000000E+00
Ar 3128  0.3705809E+02  0.4489732E+02  0.8105604E+01  0.0000000E+00
Ar 3129  0.3694547E+02  0.4212540E+02  0.1063402E+02  0.0000000E+00
Ar 3130  0.3965760E+02  0.4489596E+02  0.1080296E+02  0.0000000E+00
Ar 3131  0.3975177E+02  0.4237527E+02  0.1343049E+02  0.0000000E+00
Ar 3132  0.3686207E+02  0.4473308E+02  0.1319213E+02  0.0000000E+00
Ar 3133  0.3710579E+02  0.4240938E+02  0.1601745E+02  0.0000000E+00
Ar 3134  0.3956042E+02  0.4490611E+02  0.1591278E+02  0.0000000E+00
Ar 3135  0.3975810E+02  0.4236882E+02  0.1859034E+02  0.0000000E+00
Ar 3136  0.3688396E+02  0.4493547E+02  0.1848430E+02  0.0000000E+00
Ar 3137  0.3697003E+02  0.4230172E+02  0.2108232E+02  0.0000000E+00
Ar 3138  0.3935750E+02  0.4476705E+02  0.2094199E+02  0.0000000E+00
Ar 3139  0.3959618E+02  0.4232296E+02  0.2364596E+02  0.0000000E+00
Ar 3140  0.3689899E+02  0.4484268E+02  0.2366824E+02  0.0000000E+00
Ar 3141  0.3688223E+02  0.4228476E+02  0.2636137E+02  0.0000000E+00
Ar 3142  0.3951410E+02  0.4491878E+02  0.2630689E+02  0.0000000E+00
Ar 3143  0.3948764E+02  0.4218287E+02  0.2902281E+02  0.0000000E+00
Ar 3144  0.3702369E+02  0.4493501E+02  0.2914523E+02  0.0000000E+00
Ar 3145  0.3707323E+02  0.4233180E+02  0.3174268E+02  0.0000000E+00
Ar 3146  0.3979495E+02  0.4508854E+02  0.3189372E+02  0.0000000E+00
Ar 3147  0.3965772E+02  0.4240345E+02  0.3435359E+02  0.0000000E+00
Ar 3148  0.3691014E+02  0.4493642E+02  0.3428137E+02  0.0000000E+00
Ar 3149  0.3733304E+02  0.4256586E+02  0.3717070E+02  0.0000000E+00
Ar 3150  0.3970352E+02  0.4507952E+02  0.3687677E+02  0.0000000E+00
Ar 3151  0.3965307E+02  0.4220595E+02  0.3966563E+02  0.0000000E+00
Ar 3152  0.3669024E+02  0.4490507E+02  0.3956830E+02  0.0000000E+00
Ar 3153  0.3670479E+02  0.4203381E+02  0.4188520E+02  0.0000000E+00
Ar 3154  0.3951639E+02  0.4484590E+02  0.4218419E+02  0.0000000E+00
Ar 3155  0.3961465E+02  0.4232508E+02  0.4497814E+02  0.0000000E+00
Ar 3156  0.3683710E+02  0.4471490E+02  0.4466579E+02  0.0000000E+00
Ar 3157  0.3676283E+02  0.4206832E+02  0.4730256E+02  0.0000000E+00
Ar 3158  0.3968334E+02  0.4496007E+02  0.4759300E+02  0.0000000E+00
Ar 3159  0.3960127E+02  0.4222410E+02  0.5013468E+02  0.0000000E+00
Ar 3160  0.3695596E+02  0.4490595E+02  0.5009375E+02  0.0000000E+00
Ar 3161  0.3684486E+02  0.4738986E+02  0.8366115E-01  0.0000000E+00
Ar 3162  0.3955673E+02  0.5019545E+02  0.2786036E+00  0.0000000E+00
Ar 3163  0.3953638E+02  0.4737165E+02  0.2681816E+01  0.0000000E+00
Ar 3164  0.3694411E+02  0.5004097E+02  0.2785208E+01  0.0000000E+00
Ar 3165  0.3682288E+02  0.4717015E+02  0.5302971E+01  0.0000000E+00
Ar 3166  0.3958181E+02  0.4994280E+02  0.5414294E+01  0.0000000E+00
Ar 3167  0.3948013E+02  0.4724469E+02  0.7853345E+01  0.0000000E+00
Ar 3168  0.3668985E+02  0.4978460E+02  0.7756055E+01  0.0000000E+00
Ar 3169  0.3690758E+02  0.4744214E+02  0.1065490E+02  0.0000000E+00
Ar 3170  0.3947930E+02  0.4992420E+02  0.1051969E+02  0.0000000E+00
Ar 3171  0.3950353E+02  0.4744711E+02  0.1332322E+02  0.0000000E+00
Ar 3172  0.3711825E+02  0.5020150E+02  0.1332751E+02  0.0000000E+00
Ar 3173  0.3674956E+02  0.4729244E+02  0.1564945E+02  0.0000000E+00
Ar 3174  0.3956917E+02  0.5020890E+02  0.1590568E+02  0.0000000E+00
Ar 3175  0.3960412E+02  0.4769204E+02  0.1860749E+02  0.0000000E+00
Ar 3176  0.3697358E+02  0.5028271E+02  0.1859877E+02  0.0000000E+00
Ar 3177  0.3705889E+02  0.4762700E+02  0.2136937E+02  0.0000000E+00
Ar 3178  0.3950634E+02  0.5028405E+02  0.2116524E+02  0.0000000E+00
Ar 3179  0.3972965E+02  0.4773304E+02  0.2387334E+02  0.0000000E+00
Ar 3180  0.3695741E+02  0.5026616E+02  0.2388335E+02  0.0000000E+00
Ar 3181  0.3687083E+02  0.4748814E+02  0.2637654E+02  0.0000000E+00
Ar 3182  0.3944275E+02  0.5012235E+02  0.2635363E+02  0.0000000E+00
Ar 3183  0.3959662E+02  0.4752823E+02  0.2903239E+02  0.0000000E+00
Ar 3184  0.3692374E+02  0.5011034E+02  0.2899076E+02  0.0000000E+00
Ar 3185  0.3691733E+02  0.4757000E+02  0.3158416E+02  0.0000000E+00
Ar 3186  0.3971100E+02  0.5011424E+02  0.3156338E+02  0.0000000E+00
Ar 3187  0.3951387E+02  0.4761134E+02  0.3423287E+02  0.0000000E+00
Ar 3188  0.3687558E+02  0.5021721E+02  0.3414318E+02  0.0000000E+00
Ar 3189  0.3695538E+02  0.4763920E+02  0.3698813E+02  0.0000000E+00
Ar 3190  0.3944379E+02  0.5002037E+02  0.3677390E+02  0.0000000E+00
Ar 3191  0.3940739E+02  0.4739184E+02  0.3950372E+02  0.0000000E+00
Ar 3192  0.3686341E+02  0.5009451E+02  0.3964292E+02  0.0000000E+00
Ar 3193  0.3675661E+02  0.4741613E+02  0.4210264E+02  0.0000000E+00
Ar 3194  0.3965746E+02  0.5015286E+02  0.4230385E+02  0.0000000E+00
Ar 3195  0.3937624E+02  0.4725231E+02  0.4464526E+02  0.0000000E+00
Ar 3196  0.3697559E+02  0.5013745E+02  0.4487292E+02  0.0000000E+00
Ar 3197  0.3692115E+02  0.4740587E+02  0.4745755E+02  0.0000000E+00
Ar 3198  0.3958083E+02  0.5004418E+02  0.4741942E+02  0.0000000E+00
Ar 3199  0.3957038E+02  0.4749712E+02  0.5012070E+02  0.0000000E+00
Ar 3200  0.3697717E+02  0.5003268E+02  0.5024868E+02  0.0000000E+00
Ar 3201  0.4192793E+02  0.5251739E+02  0.5246796E+02  0.0000000E+00
Ar 3202  0.4442712E+02  0.2422522E+01  0.5244543E+02  0.0000000E+00
Ar 3203  0.4455908E+02  0.5264596E+02  0.2602853E+01  0.0000000E+00
Ar 3204  0.4202180E+02  0.2629505E+01  0.2590155E+01  0.0000000E+00
Ar 3205  0.4211847E+02  0.7435340E-01  0.5347292E+01  0.0000000E+00
Ar 3206  0.4458969E+02  0.2500977E+01  0.5111416E+01  0.0000000E+00
Ar 3207  0.4488829E+02  0.2216274E+00  0.8066821E+01  0.0000000E+00
Ar 3208  0.4219595E+02  0.2690815E+01  0.8041026E+01  0.0000000E+00
Ar 3209  0.4205447E+02  0.5263076E+02  0.1057788E+02  0.0000000E+00
Ar 3210  0.4474992E+02  0.2728857E+01  0.1062155E+02  0.0000000E+00
Ar 3211  0.4475500E+02  0.7746018E-01  0.1326183E+02  0.0000000E+00
Ar 3212  0.4226053E+02  0.2758763E+01  0.1335227E+02  0.0000000E+00
Ar 3213  0.4232623E+02  0.1796967E+00  0.1595757E+02  0.0000000E+00
Ar 3214  0.4516822E+02  0.2982030E+01  0.1611357E+02  0.0000000E+00
Ar 3215  0.4498588E+02  0.1588081E+00  0.1860173E+02  0.0000000E+00
Ar 3216  0.4222483E+02  0.2803965E+01  0.1851276E+02  0.0000000E+00
Ar 3217  0.4206568E+02  0.3435660E-01  0.2096654E+02  0.0000000E+00
Ar 3218  0.4472295E+02  0.2602247E+01  0.2110258E+02  0.0000000E+00
Ar 3219  0.4462382E+02  0.5247994E+02  0.2343438E+02  0.0000000E+00
Ar 3220  0.4217753E+02  0.2658547E+01  0.2369301E+02  0.0000000E+00
Ar 3221  0.4230329E+02  0.1488623E+00  0.2658204E+02  0.0000000E+00
Ar 3222  0.4468097E+02  0.2448629E+01  0.2606804E+02  0.0000000E+00
Ar 3223  0.4514826E+02  0.4586770E+00  0.2930670E+02  0.0000000E+00
Ar 3224  0.4218424E+02  0.2698364E+01  0.2900522E+02  0.0000000E+00
Ar 3225  0.4235340E+02  0.1105470E+00  0.3162344E+02  0.0000000E+00
Ar 3226  0.4494302E+02  0.2829388E+01  0.3173470E+02  0.0000000E+00
Ar 3227  0.4494317E+02  0.9296529E-01  0.3430824E+02  0.0000000E+00
Ar 3228  0.4196523E+02  0.2598835E+01  0.3419526E+02  0.0000000E+00
Ar 3229  0.4198576E+02  0.3158580E-01  0.3680743E+02  0.0000000E+00
Ar 3230  0.4472295E+02  0.2746308E+01  0.3692053E+02  0.0000000E+00
Ar 3231  0.4475462E+02  0.6515405E-01  0.3954569E+02  0.0000000E+00
Ar 3232  0.4203965E+02  0.2589278E+01  0.3939975E+02  0.0000000E+00
Ar 3233  0.4206436E+02  0.2880640E-01  0.4206220E+02  0.0000000E+00
Ar 3234  0.4471867E+02  0.2685623E+01  0.4217035E+02  0.0000000E+00
Ar 3235  0.4464467E+02  0.5257702E+02  0.4468815E+02  0.0000000E+00
Ar 3236  0.4195096E+02  0.2500369E+01  0.4455757E+02  0.0000000E+00
Ar 3237  0.4216056E+02  0.4298287E-01  0.4740061E+02  0.0000000E+00
Ar 3238  0.4455824E+02  0.2530836E+01  0.4720310E+02  0.0000000E+00
Ar 3239  0.4482373E+02  0.5261277E+02  0.5006258E+02  0.0000000E+00
Ar 3240  0.4194509E+02  0.2646852E+01  0.4995000E+02  0.0000000E+00
Ar 3241  0.4218610E+02  0.5342913E+01  0.4440636E-01  0.0000000E+00
Ar 3242  0.4503333E+02  0.8231049E+01  0.1890906E+00  0.0000000E+00
Ar 3243  0.4457574E+02  0.5038922E+01  0.2499079E+01  0.0000000E+00
Ar 3244  0.4190658E+02  0.7713248E+01  0.2504622E+01  0.0000000E+00
Ar 3245  0.4205743E+02  0.5278630E+01  0.5332638E+01  0.0000000E+00
Ar 3246  0.4454353E+02  0.7769197E+01  0.5099009E+01  0.0000000E+00
Ar 3247  0.4466048E+02  0.5202894E+01  0.7837566E+01  0.0000000E+00
Ar 3248  0.4219677E+02  0.8088394E+01  0.8064324E+01  0.0000000E+00
Ar 3249  0.4194590E+02  0.5289020E+01  0.1046780E+02  0.0000000E+00
Ar 3250  0.4450068E+02  0.7674884E+01  0.1042013E+02  0.0000000E+00
Ar 3251  0.4471338E+02  0.5259500E+01  0.1312861E+02  0.0000000E+00
Ar 3252  0.4201119E+02  0.7790729E+01  0.1311111E+02  0.0000000E+00
Ar 3253  0.4212382E+02  0.5322256E+01  0.1586206E+02  0.0000000E+00
Ar 3254  0.4467254E+02  0.7730966E+01  0.1579749E+02  0.0000000E+00
Ar 3255  0.4481292E+02  0.5345809E+01  0.1856786E+02  0.0000000E+00
Ar 3256  0.4199499E+02  0.7776602E+01  0.1835264E+02  0.0000000E+00
Ar 3257  0.4214107E+02  0.5228590E+01  0.2111035E+02  0.0000000E+00
Ar 3258  0.4480225E+02  0.7931019E+01  0.2116084E+02  0.0000000E+00
Ar 3259  0.4502107E+02  0.5370530E+01  0.2391629E+02  0.0000000E+00
Ar 3260  0.4231409E+02  0.8007779E+01  0.2384909E+02  0.0000000E+00
Ar 3261  0.4216980E+02  0.5163501E+01  0.2628002E+02  0.0000000E+00
Ar 3262  0.4485547E+02  0.7883463E+01  0.2639515E+02  0.0000000E+00
Ar 3263  0.4496319E+02  0.5353025E+01  0.2902705E+02  0.0000000E+00
Ar 3264  0.4210434E+02  0.7978937E+01  0.2879952E+02  0.0000000E+00
Ar 3265  0.4226668E+02  0.5382130E+01  0.3166949E+02  0.0000000E+00
Ar 3266  0.4468927E+02  0.7957494E+01  0.3143581E+02  0.0000000E+00
Ar 3267  0.4466046E+02  0.5301283E+01  0.3430261E+02  0.0000000E+00
Ar 3268  0.4202586E+02  0.7883671E+01  0.3405073E+02  0.0000000E+00
Ar 3269  0.4206818E+02  0.5308415E+01  0.3687175E+02  0.0000000E+00
Ar 3270  0.4479453E+02  0.8076488E+01  0.3690275E+02  0.0000000E+00
Ar 3271  0.4462224E+02  0.5270334E+01  0.3949155E+02  0.0000000E+00
Ar 3272  0.4199407E+02  0.7878180E+01  0.3942230E+02  0.0000000E+00
Ar 3273  0.4199912E+02  0.5231169E+01  0.4202926E+02  0.0000000E+00
Ar 3274  0.4457331E+02  0.7901073E+01  0.4209630E+02  0.0000000E+00
Ar 3275  0.4461938E+02  0.5253802E+01  0.4474535E+02  0.0000000E+00
Ar 3276  0.4208994E+02  0.7851607E+01  0.4475717E+02  0.0000000E+00
Ar 3277  0.4212656E+02  0.5287880E+01  0.4733513E+02  0.0000000E+00
Ar 3278  0.4467579E+02  0.7836535E+01  0.4729695E+02  0.0000000E+00
Ar 3279  0.4464341E+02  0.5146767E+01  0.4990583E+02  0.0000000E+00
Ar 3280  0.4220833E+02  0.7966556E+01  0.4999255E+02  0.0000000E+00
Ar 3281  0.4208394E+02  0.1061648E+02  0.5258645E+02  0.0000000E+00
Ar 3282  0.4476943E+02  0.1323368E+02  0.7752327E-01  0.0000000E+00
Ar 3283  0.4448415E+02  0.1042940E+02  0.2559857E+01  0.0000000E+00
Ar 3284  0.4220890E+02  0.1327389E+02  0.2840660E+01  0.0000000E+00
Ar 3285  0.4202268E+02  0.1046130E+02  0.5201051E+01  0.0000000E+00
Ar 3286  0.4488968E+02  0.1336739E+02  0.5426927E+01  0.0000000E+00
Ar 3287  0.4476748E+02  0.1064119E+02  0.7889308E+01  0.0000000E+00
Ar 3288  0.4208953E+02  0.1322019E+02  0.7843053E+01  0.0000000E+00
Ar 3289  0.4218380E+02  0.1069634E+02  0.1064488E+02  0.0000000E+00
Ar 3290  0.4454528E+02  0.1298822E+02  0.1028081E+02  0.0000000E+00
Ar 3291  0.4469422E+02  0.1046484E+02  0.1311948E+02  0.0000000E+00
Ar 3292  0.4241918E+02  0.1340996E+02  0.1340446E+02  0.0000000E+00
Ar 3293  0.4220552E+02  0.1057611E+02  0.1582508E+02  0.0000000E+00
Ar 3294  0.4496785E+02  0.1338374E+02  0.1602616E+02  0.0000000E+00
Ar 3295  0.4480461E+02  0.1059382E+02  0.1855236E+02  0.0000000E+00
Ar 3296  0.4230847E+02  0.1340374E+02  0.1856238E+02  0.0000000E+00
Ar 3297  0.4206236E+02  0.1026348E+02  0.2104556E+02  0.0000000E+00
Ar 3298  0.4486188E+02  0.1325307E+02  0.2121708E+02  0.0000000E+00
Ar 3299  0.4484097E+02  0.1059910E+02  0.2376333E+02  0.0000000E+00
Ar 3300  0.4215806E+02  0.1323982E+02  0.2373267E+02  0.0000000E+00
Ar 3301  0.4212305E+02  0.1069425E+02  0.2628228E+02  0.0000000E+00
Ar 3302  0.4485091E+02  0.1333997E+02  0.2634883E+02  0.0000000E+00
Ar 3303  0.4471995E+02  0.1052836E+02  0.2874504E+02  0.0000000E+00
Ar 3304  0.4218925E+02  0.1330898E+02  0.2888437E+02  0.0000000E+00
Ar 3305  0.4210391E+02  0.1056969E+02  0.3146402E+02  0.0000000E+00
Ar 3306  0.4471100E+02  0.1313327E+02  0.3144040E+02  0.0000000E+00
Ar 3307  0.4476557E+02  0.1059050E+02  0.3415940E+02  0.0000000E+00
Ar 3308  0.4205449E+02  0.1313971E+02  0.3395873E+02  0.0000000E+00
Ar 3309  0.4198245E+02  0.1042281E+02  0.3666822E+02  0.0000000E+00
Ar 3310  0.4462437E+02  0.1301480E+02  0.3665234E+02  0.0000000E+00
Ar 3311  0.4465941E+02  0.1070571E+02  0.3935509E+02  0.0000000E+00
Ar 3312  0.4209441E+02  0.1310475E+02  0.3933499E+02  0.0000000E+00
Ar 3313  0.4217169E+02  0.1075754E+02  0.4217255E+02  0.0000000E+00
Ar 3314  0.4480230E+02  0.1324727E+02  0.4215712E+02  0.0000000E+00
Ar 3315  0.4469517E+02  0.1051415E+02  0.4468314E+02  0.0000000E+00
Ar 3316  0.4225605E+02  0.1335747E+02  0.4490758E+02  0.0000000E+00
Ar 3317  0.4221907E+02  0.1067848E+02  0.4747161E+02  0.0000000E+00
Ar 3318  0.4497184E+02  0.1334671E+02  0.4750988E+02  0.0000000E+00
Ar 3319  0.4493990E+02  0.1080701E+02  0.5021979E+02  0.0000000E+00
Ar 3320  0.4232018E+02  0.1343854E+02  0.5030295E+02  0.0000000E+00
Ar 3321  0.4223893E+02  0.1590226E+02  0.2209323E+00  0.0000000E+00
Ar 3322  0.4477483E+02  0.1849465E+02  0.7324621E-01  0.0000000E+00
Ar 3323  0.4478098E+02  0.1582970E+02  0.2714666E+01  0.0000000E+00
Ar 3324  0.4204874E+02  0.1840876E+02  0.2718662E+01  0.0000000E+00
Ar 3325  0.4239982E+02  0.1612745E+02  0.5602942E+01  0.0000000E+00
Ar 3326  0.4497421E+02  0.1857973E+02  0.5374528E+01  0.0000000E+00
Ar 3327  0.4505205E+02  0.1608230E+02  0.8118643E+01  0.0000000E+00
Ar 3328  0.4231005E+02  0.1873786E+02  0.8080050E+01  0.0000000E+00
Ar 3329  0.4223560E+02  0.1575778E+02  0.1064562E+02  0.0000000E+00
Ar 3330  0.4468546E+02  0.1841618E+02  0.1058762E+02  0.0000000E+00
Ar 3331  0.4501817E+02  0.1610142E+02  0.1350761E+02  0.0000000E+00
Ar 3332  0.4207328E+02  0.1836242E+02  0.1314256E+02  0.0000000E+00
Ar 3333  0.4243745E+02  0.1614697E+02  0.1608425E+02  0.0000000E+00
Ar 3334  0.4499242E+02  0.1877056E+02  0.1613580E+02  0.0000000E+00
Ar 3335  0.4483896E+02  0.1584699E+02  0.1850458E+02  0.0000000E+00
Ar 3336  0.4240699E+02  0.1868084E+02  0.1866081E+02  0.0000000E+00
Ar 3337  0.4225999E+02  0.1600721E+02  0.2121075E+02  0.0000000E+00
Ar 3338  0.4508445E+02  0.1867821E+02  0.2134180E+02  0.0000000E+00
Ar 3339  0.4476294E+02  0.1583459E+02  0.2371595E+02  0.0000000E+00
Ar 3340  0.4214639E+02  0.1849906E+02  0.2384674E+02  0.0000000E+00
Ar 3341  0.4220768E+02  0.1593095E+02  0.2636246E+02  0.0000000E+00
Ar 3342  0.4484866E+02  0.1852030E+02  0.2632734E+02  0.0000000E+00
Ar 3343  0.4471735E+02  0.1584577E+02  0.2887425E+02  0.0000000E+00
Ar 3344  0.4214009E+02  0.1850304E+02  0.2900416E+02  0.0000000E+00
Ar 3345  0.4200092E+02  0.1572847E+02  0.3136706E+02  0.0000000E+00
Ar 3346  0.4490649E+02  0.1862959E+02  0.3163179E+02  0.0000000E+00
Ar 3347  0.4473439E+02  0.1568797E+02  0.3404644E+02  0.0000000E+00
Ar 3348  0.4209077E+02  0.1831029E+02  0.3411535E+02  0.0000000E+00
Ar 3349  0.4210276E+02  0.1580984E+02  0.3677413E+02  0.0000000E+00
Ar 3350  0.4474635E+02  0.1834825E+02  0.3678286E+02  0.0000000E+00
Ar 3351  0.4476167E+02  0.1573224E+02  0.3941413E+02  0.0000000E+00
Ar 3352  0.4199021E+02  0.1812739E+02  0.3926238E+02  0.0000000E+00
Ar 3353  0.4219907E+02  0.1578525E+02  0.4216158E+02  0.0000000E+00
Ar 3354  0.4482340E+02  0.1838983E+02  0.4209646E+02  0.0000000E+00
Ar 3355  0.4487444E+02  0.1595076E+02  0.4479257E+02  0.0000000E+00
Ar 3356  0.4230595E+02  0.1855903E+02  0.4487767E+02  0.0000000E+00
Ar 3357  0.4217887E+02  0.1582813E+02  0.4727163E+02  0.0000000E+00
Ar 3358  0.4487671E+02  0.1855495E+02  0.4746926E+02  0.0000000E+00
Ar 3359  0.4479088E+02  0.1582012E+02  0.4999649E+02  0.0000000E+00
Ar 3360  0.4192591E+02  0.1832325E+02  0.4991601E+02  0.0000000E+00
Ar 3361  0.4201461E+02  0.2095890E+02  0.5225267E-01  0.0000000E+00
Ar 3362  0.4458961E+02  0.2357557E+02  0.5252649E+02  0.0000000E+00
Ar 3363  0.4464858E+02  0.2095690E+02  0.2530372E+01  0.0000000E+00
Ar 3364  0.4200926E+02  0.2353368E+02  0.2506748E+01  0.0000000E+00
Ar 3365  0.4208492E+02  0.2099648E+02  0.5168670E+01  0.0000000E+00
Ar 3366  0.4476319E+02  0.2373881E+02  0.5376117E+01  0.0000000E+00
Ar 3367  0.4478260E+02  0.2115120E+02  0.7883009E+01  0.0000000E+00
Ar 3368  0.4212986E+02  0.2379281E+02  0.7842002E+01  0.0000000E+00
Ar 3369  0.4235040E+02  0.2139006E+02  0.1084697E+02  0.0000000E+00
Ar 3370  0.4481479E+02  0.2381505E+02  0.1054010E+02  0.0000000E+00
Ar 3371  0.4482645E+02  0.2114775E+02  0.1332479E+02  0.0000000E+00
Ar 3372  0.4220679E+02  0.2382438E+02  0.1343670E+02  0.0000000E+00
Ar 3373  0.4226655E+02  0.2120715E+02  0.1599478E+02  0.0000000E+00
Ar 3374  0.4487893E+02  0.2380960E+02  0.1592539E+02  0.0000000E+00
Ar 3375  0.4503571E+02  0.2147819E+02  0.1868495E+02  0.0000000E+00
Ar 3376  0.4213170E+02  0.2370660E+02  0.1848898E+02  0.0000000E+00
Ar 3377  0.4220619E+02  0.2118786E+02  0.2117252E+02  0.0000000E+00
Ar 3378  0.4480314E+02  0.2395763E+02  0.2132825E+02  0.0000000E+00
Ar 3379  0.4466270E+02  0.2116843E+02  0.2366917E+02  0.0000000E+00
Ar 3380  0.4238756E+02  0.2397331E+02  0.2399663E+02  0.0000000E+00
Ar 3381  0.4219823E+02  0.2126503E+02  0.2642408E+02  0.0000000E+00
Ar 3382  0.4485609E+02  0.2385601E+02  0.2644650E+02  0.0000000E+00
Ar 3383  0.4472640E+02  0.2108360E+02  0.2895455E+02  0.0000000E+00
Ar 3384  0.4223294E+02  0.2378014E+02  0.2908869E+02  0.0000000E+00
Ar 3385  0.4247804E+02  0.2135546E+02  0.3186381E+02  0.0000000E+00
Ar 3386  0.4491238E+02  0.2378735E+02  0.3166175E+02  0.0000000E+00
Ar 3387  0.4479231E+02  0.2099141E+02  0.3427732E+02  0.0000000E+00
Ar 3388  0.4206008E+02  0.2361958E+02  0.3420959E+02  0.0000000E+00
Ar 3389  0.4197062E+02  0.2071074E+02  0.3656782E+02  0.0000000E+00
Ar 3390  0.4509046E+02  0.2389530E+02  0.3717641E+02  0.0000000E+00
Ar 3391  0.4478150E+02  0.2097099E+02  0.3939298E+02  0.0000000E+00
Ar 3392  0.4223067E+02  0.2360034E+02  0.3952870E+02  0.0000000E+00
Ar 3393  0.4216321E+02  0.2097228E+02  0.4213848E+02  0.0000000E+00
Ar 3394  0.4488190E+02  0.2362188E+02  0.4216201E+02  0.0000000E+00
Ar 3395  0.4488374E+02  0.2111334E+02  0.4481025E+02  0.0000000E+00
Ar 3396  0.4240911E+02  0.2380479E+02  0.4507843E+02  0.0000000E+00
Ar 3397  0.4214889E+02  0.2115429E+02  0.4750069E+02  0.0000000E+00
Ar 3398  0.4494714E+02  0.2387193E+02  0.4769249E+02  0.0000000E+00
Ar 3399  0.4465366E+02  0.2111336E+02  0.5006643E+02  0.0000000E+00
Ar 3400  0.4197029E+02  0.2366417E+02  0.5003829E+02  0.0000000E+00
Ar 3401  0.4218544E+02  0.2641113E+02  0.1209983E+00  0.0000000E+00
Ar 3402  0.4486610E+02  0.2915887E+02  0.9513086E-01  0.0000000E+00
Ar 3403  0.4470073E+02  0.2616734E+02  0.2561776E+01  0.0000000E+00
Ar 3404  0.4235886E+02  0.2912680E+02  0.2905821E+01  0.0000000E+00
Ar 3405  0.4232469E+02  0.2650166E+02  0.5402950E+01  0.0000000E+00
Ar 3406  0.4494929E+02  0.2903560E+02  0.5521162E+01  0.0000000E+00
Ar 3407  0.4494875E+02  0.2651986E+02  0.7998986E+01  0.0000000E+00
Ar 3408  0.4233635E+02  0.2906325E+02  0.8128927E+01  0.0000000E+00
Ar 3409  0.4219225E+02  0.2640220E+02  0.1067961E+02  0.0000000E+00
Ar 3410  0.4472740E+02  0.2886738E+02  0.1067409E+02  0.0000000E+00
Ar 3411  0.4471185E+02  0.2620169E+02  0.1317182E+02  0.0000000E+00
Ar 3412  0.4222255E+02  0.2892499E+02  0.1330153E+02  0.0000000E+00
Ar 3413  0.4226596E+02  0.2639992E+02  0.1600361E+02  0.0000000E+00
Ar 3414  0.4494678E+02  0.2898149E+02  0.1596982E+02  0.0000000E+00
Ar 3415  0.4496187E+02  0.2649692E+02  0.1867377E+02  0.0000000E+00
Ar 3416  0.4224432E+02  0.2900456E+02  0.1855702E+02  0.0000000E+00
Ar 3417  0.4233395E+02  0.2659281E+02  0.2134409E+02  0.0000000E+00
Ar 3418  0.4489131E+02  0.2908854E+02  0.2125714E+02  0.0000000E+00
Ar 3419  0.4491551E+02  0.2658821E+02  0.2404369E+02  0.0000000E+00
Ar 3420  0.4227938E+02  0.2915261E+02  0.2393992E+02  0.0000000E+00
Ar 3421  0.4215148E+02  0.2657060E+02  0.2655152E+02  0.0000000E+00
Ar 3422  0.4491875E+02  0.2916870E+02  0.2654045E+02  0.0000000E+00
Ar 3423  0.4470270E+02  0.2641244E+02  0.2900730E+02  0.0000000E+00
Ar 3424  0.4213450E+02  0.2912990E+02  0.2910070E+02  0.0000000E+00
Ar 3425  0.4208540E+02  0.2639217E+02  0.3167297E+02  0.0000000E+00
Ar 3426  0.4487234E+02  0.2917743E+02  0.3173566E+02  0.0000000E+00
Ar 3427  0.4478620E+02  0.2636393E+02  0.3428003E+02  0.0000000E+00
Ar 3428  0.4235594E+02  0.2913248E+02  0.3440855E+02  0.0000000E+00
Ar 3429  0.4216571E+02  0.2627761E+02  0.3686924E+02  0.0000000E+00
Ar 3430  0.4487706E+02  0.2887986E+02  0.3688514E+02  0.0000000E+00
Ar 3431  0.4483929E+02  0.2635342E+02  0.3956525E+02  0.0000000E+00
Ar 3432  0.4216390E+02  0.2896107E+02  0.3955596E+02  0.0000000E+00
Ar 3433  0.4214035E+02  0.2621845E+02  0.4213414E+02  0.0000000E+00
Ar 3434  0.4473933E+02  0.2874960E+02  0.4206257E+02  0.0000000E+00
Ar 3435  0.4481402E+02  0.2618705E+02  0.4464739E+02  0.0000000E+00
Ar 3436  0.4203014E+02  0.2883016E+02  0.4471868E+02  0.0000000E+00
Ar 3437  0.4195979E+02  0.2622918E+02  0.4749841E+02  0.0000000E+00
Ar 3438  0.4461857E+02  0.2872315E+02  0.4721051E+02  0.0000000E+00
Ar 3439  0.4491108E+02  0.2649609E+02  0.5016115E+02  0.0000000E+00
Ar 3440  0.4220276E+02  0.2895310E+02  0.5014889E+02  0.0000000E+00
Ar 3441  0.4236228E+02  0.3168779E+02  0.1435065E+00  0.0000000E+00
Ar 3442  0.4490328E+02  0.3443069E+02  0.1807605E+00  0.0000000E+00
Ar 3443  0.4487301E+02  0.3161331E+02  0.2696534E+01  0.0000000E+00
Ar 3444  0.4217542E+02  0.3420846E+02  0.2739154E+01  0.0000000E+00
Ar 3445  0.4226937E+02  0.3164957E+02  0.5429729E+01  0.0000000E+00
Ar 3446  0.4472702E+02  0.3431445E+02  0.5294672E+01  0.0000000E+00
Ar 3447  0.4487168E+02  0.3173674E+02  0.8209344E+01  0.0000000E+00
Ar 3448  0.4207771E+02  0.3416416E+02  0.7914437E+01  0.0000000E+00
Ar 3449  0.4210625E+02  0.3146055E+02  0.1059736E+02  0.0000000E+00
Ar 3450  0.4483023E+02  0.3434334E+02  0.1072671E+02  0.0000000E+00
Ar 3451  0.4500858E+02  0.3171555E+02  0.1347632E+02  0.0000000E+00
Ar 3452  0.4227305E+02  0.3422035E+02  0.1330238E+02  0.0000000E+00
Ar 3453  0.4232475E+02  0.3164055E+02  0.1591276E+02  0.0000000E+00
Ar 3454  0.4518766E+02  0.3436043E+02  0.1605364E+02  0.0000000E+00
Ar 3455  0.4482662E+02  0.3149447E+02  0.1841356E+02  0.0000000E+00
Ar 3456  0.4215266E+02  0.3423649E+02  0.1834090E+02  0.0000000E+00
Ar 3457  0.4224623E+02  0.3171334E+02  0.2111892E+02  0.0000000E+00
Ar 3458  0.4478496E+02  0.3422277E+02  0.2095825E+02  0.0000000E+00
Ar 3459  0.4490583E+02  0.3179905E+02  0.2390009E+02  0.0000000E+00
Ar 3460  0.4227546E+02  0.3437635E+02  0.2379411E+02  0.0000000E+00
Ar 3461  0.4232399E+02  0.3190157E+02  0.2658213E+02  0.0000000E+00
Ar 3462  0.4489723E+02  0.3432535E+02  0.2639002E+02  0.0000000E+00
Ar 3463  0.4479067E+02  0.3171360E+02  0.2908122E+02  0.0000000E+00
Ar 3464  0.4231255E+02  0.3437942E+02  0.2916225E+02  0.0000000E+00
Ar 3465  0.4221834E+02  0.3160499E+02  0.3170259E+02  0.0000000E+00
Ar 3466  0.4501461E+02  0.3428074E+02  0.3172964E+02  0.0000000E+00
Ar 3467  0.4494566E+02  0.3170837E+02  0.3430712E+02  0.0000000E+00
Ar 3468  0.4221806E+02  0.3420233E+02  0.3425560E+02  0.0000000E+00
Ar 3469  0.4212876E+02  0.3167348E+02  0.3688126E+02  0.0000000E+00
Ar 3470  0.4502788E+02  0.3436395E+02  0.3709884E+02  0.0000000E+00
Ar 3471  0.4478828E+02  0.3153889E+02  0.3935762E+02  0.0000000E+00
Ar 3472  0.4235210E+02  0.3450552E+02  0.3962647E+02  0.0000000E+00
Ar 3473  0.4229137E+02  0.3165146E+02  0.4235216E+02  0.0000000E+00
Ar 3474  0.4480593E+02  0.3404861E+02  0.4202881E+02  0.0000000E+00
Ar 3475  0.4485241E+02  0.3155271E+02  0.4484399E+02  0.0000000E+00
Ar 3476  0.4227342E+02  0.3428834E+02  0.4481588E+02  0.0000000E+00
Ar 3477  0.4214296E+02  0.3161063E+02  0.4734788E+02  0.0000000E+00
Ar 3478  0.4485803E+02  0.3431148E+02  0.4745487E+02  0.0000000E+00
Ar 3479  0.4480472E+02  0.3164409E+02  0.4994405E+02  0.0000000E+00
Ar 3480  0.4227233E+02  0.3428168E+02  0.5005694E+02  0.0000000E+00
Ar 3481  0.4224186E+02  0.3699900E+02  0.1404661E+00  0.0000000E+00
Ar 3482  0.4494656E+02  0.3970436E+02  0.2558561E+00  0.0000000E+00
Ar 3483  0.4463994E+02  0.3681510E+02  0.2648395E+01  0.0000000E+00
Ar 3484  0.4216287E+02  0.3951860E+02  0.2709880E+01  0.0000000E+00
Ar 3485  0.4218361E+02  0.3696878E+02  0.5427331E+01  0.0000000E+00
Ar 3486  0.4477062E+02  0.3959639E+02  0.5350185E+01  0.0000000E+00
Ar 3487  0.4475729E+02  0.3687662E+02  0.7993426E+01  0.0000000E+00
Ar 3488  0.4221951E+02  0.3968078E+02  0.8152114E+01  0.0000000E+00
Ar 3489  0.4224219E+02  0.3696625E+02  0.1075459E+02  0.0000000E+00
Ar 3490  0.4476971E+02  0.3946220E+02  0.1064117E+02  0.0000000E+00
Ar 3491  0.4494084E+02  0.3697959E+02  0.1339754E+02  0.0000000E+00
Ar 3492  0.4250641E+02  0.3982897E+02  0.1356135E+02  0.0000000E+00
Ar 3493  0.4223287E+02  0.3694234E+02  0.1582707E+02  0.0000000E+00
Ar 3494  0.4517089E+02  0.3980016E+02  0.1620427E+02  0.0000000E+00
Ar 3495  0.4473156E+02  0.3683861E+02  0.1833492E+02  0.0000000E+00
Ar 3496  0.4214763E+02  0.3963153E+02  0.1837341E+02  0.0000000E+00
Ar 3497  0.4214191E+02  0.3683566E+02  0.2102407E+02  0.0000000E+00
Ar 3498  0.4456539E+02  0.3924034E+02  0.2075478E+02  0.0000000E+00
Ar 3499  0.4478023E+02  0.3675485E+02  0.2356220E+02  0.0000000E+00
Ar 3500  0.4233016E+02  0.3964081E+02  0.2367923E+02  0.0000000E+00
Ar 3501  0.4245474E+02  0.3712314E+02  0.2668003E+02  0.0000000E+00
Ar 3502  0.4472402E+02  0.3926890E+02  0.2592557E+02  0.0000000E+00
Ar 3503  0.4482339E+02  0.3681751E+02  0.2898225E+02  0.0000000E+00
Ar 3504  0.4223981E+02  0.3965810E+02  0.2902116E+02  0.0000000E+00
Ar 3505  0.4217275E+02  0.3689577E+02  0.3173525E+02  0.0000000E+00
Ar 3506  0.4467217E+02  0.3938177E+02  0.3151776E+02  0.0000000E+00
Ar 3507  0.4480246E+02  0.3667961E+02  0.3418920E+02  0.0000000E+00
Ar 3508  0.4226594E+02  0.3963721E+02  0.3431891E+02  0.0000000E+00
Ar 3509  0.4233049E+02  0.3695842E+02  0.3709824E+02  0.0000000E+00
Ar 3510  0.4484872E+02  0.3938994E+02  0.3675603E+02  0.0000000E+00
Ar 3511  0.4504481E+02  0.3707731E+02  0.3968559E+02  0.0000000E+00
Ar 3512  0.4237188E+02  0.3962693E+02  0.3978971E+02  0.0000000E+00
Ar 3513  0.4222508E+02  0.3690038E+02  0.4225964E+02  0.0000000E+00
Ar 3514  0.4476525E+02  0.3943058E+02  0.4229805E+02  0.0000000E+00
Ar 3515  0.4507194E+02  0.3711186E+02  0.4511272E+02  0.0000000E+00
Ar 3516  0.4212102E+02  0.3948917E+02  0.4486750E+02  0.0000000E+00
Ar 3517  0.4203079E+02  0.3673359E+02  0.4733755E+02  0.0000000E+00
Ar 3518  0.4481164E+02  0.3960819E+02  0.4757424E+02  0.0000000E+00
Ar 3519  0.4485597E+02  0.3697750E+02  0.5005559E+02  0.0000000E+00
Ar 3520  0.4222247E+02  0.3955269E+02  0.5008935E+02  0.0000000E+00
Ar 3521  0.4224926E+02  0.4216129E+02  0.2768785E-01  0.0000000E+00
Ar 3522  0.4473993E+02  0.4480647E+02  0.3327477E-01  0.0000000E+00
Ar 3523  0.4476416E+02  0.4213213E+02  0.2660777E+01  0.0000000E+00
Ar 3524  0.4197603E+02  0.4461233E+02  0.2548136E+01  0.0000000E+00
Ar 3525  0.4217299E+02  0.4213344E+02  0.5294945E+01  0.0000000E+00
Ar 3526  0.4478781E+02  0.4474140E+02  0.5308894E+01  0.0000000E+00
Ar 3527  0.4475133E+02  0.4225716E+02  0.8012739E+01  0.0000000E+00
Ar 3528  0.4196172E+02  0.4453404E+02  0.7892416E+01  0.0000000E+00
Ar 3529  0.4247638E+02  0.4241559E+02  0.1091850E+02  0.0000000E+00
Ar 3530  0.4518300E+02  0.4524950E+02  0.1094642E+02  0.0000000E+00
Ar 3531  0.4502718E+02  0.4229720E+02  0.1344100E+02  0.0000000E+00
Ar 3532  0.4243856E+02  0.4506078E+02  0.1354460E+02  0.0000000E+00
Ar 3533  0.4250356E+02  0.4246985E+02  0.1613079E+02  0.0000000E+00
Ar 3534  0.4500767E+02  0.4496115E+02  0.1600316E+02  0.0000000E+00
Ar 3535  0.4482285E+02  0.4217346E+02  0.1862944E+02  0.0000000E+00
Ar 3536  0.4225723E+02  0.4501324E+02  0.1859411E+02  0.0000000E+00
Ar 3537  0.4237212E+02  0.4266623E+02  0.2125749E+02  0.0000000E+00
Ar 3538  0.4493854E+02  0.4503995E+02  0.2121304E+02  0.0000000E+00
Ar 3539  0.4489964E+02  0.4190413E+02  0.2349988E+02  0.0000000E+00
Ar 3540  0.4208326E+02  0.4497103E+02  0.2371821E+02  0.0000000E+00
Ar 3541  0.4217260E+02  0.4211881E+02  0.2607813E+02  0.0000000E+00
Ar 3542  0.4467614E+02  0.4467293E+02  0.2605748E+02  0.0000000E+00
Ar 3543  0.4465565E+02  0.4202281E+02  0.2864880E+02  0.0000000E+00
Ar 3544  0.4204880E+02  0.4461795E+02  0.2876544E+02  0.0000000E+00
Ar 3545  0.4220600E+02  0.4226163E+02  0.3171154E+02  0.0000000E+00
Ar 3546  0.4453715E+02  0.4463191E+02  0.3141703E+02  0.0000000E+00
Ar 3547  0.4485419E+02  0.4214095E+02  0.3427344E+02  0.0000000E+00
Ar 3548  0.4235583E+02  0.4519241E+02  0.3445105E+02  0.0000000E+00
Ar 3549  0.4222085E+02  0.4229517E+02  0.3684139E+02  0.0000000E+00
Ar 3550  0.4480421E+02  0.4473031E+02  0.3685408E+02  0.0000000E+00
Ar 3551  0.4498218E+02  0.4231389E+02  0.3950502E+02  0.0000000E+00
Ar 3552  0.4214056E+02  0.4477365E+02  0.3945778E+02  0.0000000E+00
Ar 3553  0.4221435E+02  0.4221734E+02  0.4223745E+02  0.0000000E+00
Ar 3554  0.4479129E+02  0.4477683E+02  0.4209094E+02  0.0000000E+00
Ar 3555  0.4469336E+02  0.4213037E+02  0.4474497E+02  0.0000000E+00
Ar 3556  0.4215962E+02  0.4483362E+02  0.4481571E+02  0.0000000E+00
Ar 3557  0.4204349E+02  0.4204409E+02  0.4735256E+02  0.0000000E+00
Ar 3558  0.4482682E+02  0.4484374E+02  0.4745928E+02  0.0000000E+00
Ar 3559  0.4485375E+02  0.4221582E+02  0.5008161E+02  0.0000000E+00
Ar 3560  0.4223720E+02  0.4494106E+02  0.5015516E+02  0.0000000E+00
Ar 3561  0.4243414E+02  0.4766553E+02  0.2560294E+00  0.0000000E+00
Ar 3562  0.4484263E+02  0.5015977E+02  0.1665115E+00  0.0000000E+00
Ar 3563  0.4471470E+02  0.4733383E+02  0.2712408E+01  0.0000000E+00
Ar 3564  0.4194080E+02  0.4993691E+02  0.2627006E+01  0.0000000E+00
Ar 3565  0.4212342E+02  0.4738726E+02  0.5278017E+01  0.0000000E+00
Ar 3566  0.4470497E+02  0.5010622E+02  0.5310947E+01  0.0000000E+00
Ar 3567  0.4448666E+02  0.4711916E+02  0.7700158E+01  0.0000000E+00
Ar 3568  0.4227421E+02  0.5010277E+02  0.8010264E+01  0.0000000E+00
Ar 3569  0.4220910E+02  0.4735107E+02  0.1050164E+02  0.0000000E+00
Ar 3570  0.4484165E+02  0.5005756E+02  0.1067517E+02  0.0000000E+00
Ar 3571  0.4499730E+02  0.4772078E+02  0.1350631E+02  0.0000000E+00
Ar 3572  0.4217452E+02  0.5008692E+02  0.1319268E+02  0.0000000E+00
Ar 3573  0.4219125E+02  0.4748879E+02  0.1588370E+02  0.0000000E+00
Ar 3574  0.4497811E+02  0.5023262E+02  0.1603938E+02  0.0000000E+00
Ar 3575  0.4485653E+02  0.4746910E+02  0.1848843E+02  0.0000000E+00
Ar 3576  0.4211013E+02  0.5004020E+02  0.1826560E+02  0.0000000E+00
Ar 3577  0.4199339E+02  0.4733317E+02  0.2104072E+02  0.0000000E+00
Ar 3578  0.4465780E+02  0.4998225E+02  0.2096447E+02  0.0000000E+00
Ar 3579  0.4495507E+02  0.4765193E+02  0.2382750E+02  0.0000000E+00
Ar 3580  0.4218057E+02  0.5018294E+02  0.2371639E+02  0.0000000E+00
Ar 3581  0.4208028E+02  0.4740412E+02  0.2623314E+02  0.0000000E+00
Ar 3582  0.4475626E+02  0.5009266E+02  0.2631104E+02  0.0000000E+00
Ar 3583  0.4469109E+02  0.4738796E+02  0.2882057E+02  0.0000000E+00
Ar 3584  0.4205915E+02  0.5001030E+02  0.2884655E+02  0.0000000E+00
Ar 3585  0.4223556E+02  0.4750835E+02  0.3166455E+02  0.0000000E+00
Ar 3586  0.4469726E+02  0.4992379E+02  0.3143054E+02  0.0000000E+00
Ar 3587  0.4497764E+02  0.4759214E+02  0.3440794E+02  0.0000000E+00
Ar 3588  0.4229544E+02  0.5010409E+02  0.3427181E+02  0.0000000E+00
Ar 3589  0.4235881E+02  0.4769713E+02  0.3707372E+02  0.0000000E+00
Ar 3590  0.4496874E+02  0.5017014E+02  0.3698999E+02  0.0000000E+00
Ar 3591  0.4493800E+02  0.4749521E+02  0.3964761E+02  0.0000000E+00
Ar 3592  0.4209648E+02  0.5005704E+02  0.3957777E+02  0.0000000E+00
Ar 3593  0.4234641E+02  0.4754078E+02  0.4228533E+02  0.0000000E+00
Ar 3594  0.4475614E+02  0.5000689E+02  0.4214117E+02  0.0000000E+00
Ar 3595  0.4499686E+02  0.4766148E+02  0.4497974E+02  0.0000000E+00
Ar 3596  0.4199332E+02  0.4989034E+02  0.4470238E+02  0.0000000E+00
Ar 3597  0.4224705E+02  0.4745074E+02  0.4742253E+02  0.0000000E+00
Ar 3598  0.4494311E+02  0.5010347E+02  0.4750381E+02  0.0000000E+00
Ar 3599  0.4506031E+02  0.4775769E+02  0.5031920E+02  0.0000000E+00
Ar 3600  0.4226661E+02  0.5011227E+02  0.5001456E+02  0.0000000E+00
Ar 3601  0.4738651E+02  0.2003036E+00  0.1152135E+00  0.0000000E+00
Ar 3602  0.4998584E+02  0.2706563E+01  0.3009383E-01  0.0000000E+00
Ar 3603  0.4996523E+02  0.6280431E-01  0.2663341E+01  0.0000000E+00
Ar 3604  0.4763942E+02  0.2876648E+01  0.2887980E+01  0.0000000E+00
Ar 3605  0.4751349E+02  0.2023304E+00  0.5437018E+01  0.0000000E+00
Ar 3606  0.5030713E+02  0.2929662E+01  0.5601205E+01  0.0000000E+00
Ar 3607  0.5025400E+02  0.3142675E+00  0.8101886E+01  0.0000000E+00
Ar 3608  0.4743870E+02  0.2804594E+01  0.7992722E+01  0.0000000E+00
Ar 3609  0.4737751E+02  0.4142272E-01  0.1059422E+02  0.0000000E+00
Ar 3610  0.5003486E+02  0.2678831E+01  0.1062187E+02  0.0000000E+00
Ar 3611  0.5016280E+02  0.2004289E+00  0.1329663E+02  0.0000000E+00
Ar 3612  0.4741740E+02  0.2681211E+01  0.1320567E+02  0.0000000E+00
Ar 3613  0.4756023E+02  0.1786279E+00  0.1599420E+02  0.0000000E+00
Ar 3614  0.5007903E+02  0.2764047E+01  0.1586836E+02  0.0000000E+00
Ar 3615  0.5013282E+02  0.1130706E+00  0.1857493E+02  0.0000000E+00
Ar 3616  0.4760236E+02  0.2750458E+01  0.1855886E+02  0.0000000E+00
Ar 3617  0.4744795E+02  0.8471694E-01  0.2122047E+02  0.0000000E+00
Ar 3618  0.5007016E+02  0.2643990E+01  0.2113454E+02  0.0000000E+00
Ar 3619  0.5012932E+02  0.5261298E+02  0.2382320E+02  0.0000000E+00
Ar 3620  0.4764205E+02  0.2865459E+01  0.2395202E+02  0.0000000E+00
Ar 3621  0.4744482E+02  0.5848271E-01  0.2642913E+02  0.0000000E+00
Ar 3622  0.5014633E+02  0.2739881E+01  0.2646562E+02  0.0000000E+00
Ar 3623  0.5024519E+02  0.2568584E+00  0.2918850E+02  0.0000000E+00
Ar 3624  0.4762901E+02  0.2844323E+01  0.2908325E+02  0.0000000E+00
Ar 3625  0.4748504E+02  0.2512867E-01  0.3170827E+02  0.0000000E+00
Ar 3626  0.5006842E+02  0.2722691E+01  0.3177102E+02  0.0000000E+00
Ar 3627  0.5003238E+02  0.5960931E-01  0.3428864E+02  0.0000000E+00
Ar 3628  0.4742400E+02  0.2732325E+01  0.3433700E+02  0.0000000E+00
Ar 3629  0.4760959E+02  0.2759896E+00  0.3704378E+02  0.0000000E+00
Ar 3630  0.4998209E+02  0.2762868E+01  0.3688117E+02  0.0000000E+00
Ar 3631  0.4996718E+02  0.5242508E+02  0.3928563E+02  0.0000000E+00
Ar 3632  0.4726603E+02  0.2741839E+01  0.3951059E+02  0.0000000E+00
Ar 3633  0.4740520E+02  0.7613650E-01  0.4230913E+02  0.0000000E+00
Ar 3634  0.4976681E+02  0.2396706E+01  0.4176299E+02  0.0000000E+00
Ar 3635  0.5005158E+02  0.2441352E-01  0.4467462E+02  0.0000000E+00
Ar 3636  0.4733730E+02  0.2682201E+01  0.4469155E+02  0.0000000E+00
Ar 3637  0.4747422E+02  0.1178430E+00  0.4744358E+02  0.0000000E+00
Ar 3638  0.5001232E+02  0.2667402E+01  0.4737875E+02  0.0000000E+00
Ar 3639  0.5018570E+02  0.2262948E+00  0.5015403E+02  0.0000000E+00
Ar 3640  0.4736758E+02  0.2623595E+01  0.5001123E+02  0.0000000E+00
Ar 3641  0.4725598E+02  0.5105656E+01  0.5253649E+02  0.0000000E+00
Ar 3642  0.5004125E+02  0.7872400E+01  0.1232866E+00  0.0000000E+00
Ar 3643  0.5026115E+02  0.5534730E+01  0.2946636E+01  0.0000000E+00
Ar 3644  0.4732694E+02  0.7811445E+01  0.2666108E+01  0.0000000E+00
Ar 3645  0.4734573E+02  0.5274753E+01  0.5253584E+01  0.0000000E+00
Ar 3646  0.5005652E+02  0.8053911E+01  0.5427904E+01  0.0000000E+00
Ar 3647  0.4998038E+02  0.5267435E+01  0.7997500E+01  0.0000000E+00
Ar 3648  0.4710516E+02  0.7779521E+01  0.7770463E+01  0.0000000E+00
Ar 3649  0.4742792E+02  0.5337955E+01  0.1060118E+02  0.0000000E+00
Ar 3650  0.5007954E+02  0.8031528E+01  0.1065338E+02  0.0000000E+00
Ar 3651  0.5016432E+02  0.5448828E+01  0.1335560E+02  0.0000000E+00
Ar 3652  0.4743515E+02  0.7951578E+01  0.1326308E+02  0.0000000E+00
Ar 3653  0.4770621E+02  0.5487617E+01  0.1606594E+02  0.0000000E+00
Ar 3654  0.5014319E+02  0.8087251E+01  0.1596585E+02  0.0000000E+00
Ar 3655  0.5034826E+02  0.5676724E+01  0.1891547E+02  0.0000000E+00
Ar 3656  0.4757728E+02  0.8083051E+01  0.1872577E+02  0.0000000E+00
Ar 3657  0.4738883E+02  0.5237603E+01  0.2111559E+02  0.0000000E+00
Ar 3658  0.5017822E+02  0.8085179E+01  0.2132591E+02  0.0000000E+00
Ar 3659  0.5014136E+02  0.5326979E+01  0.2366087E+02  0.0000000E+00
Ar 3660  0.4742536E+02  0.7872916E+01  0.2361788E+02  0.0000000E+00
Ar 3661  0.4767119E+02  0.5378843E+01  0.2645325E+02  0.0000000E+00
Ar 3662  0.5034839E+02  0.8182176E+01  0.2649455E+02  0.0000000E+00
Ar 3663  0.5015018E+02  0.5265967E+01  0.2902776E+02  0.0000000E+00
Ar 3664  0.4742680E+02  0.7884223E+01  0.2888939E+02  0.0000000E+00
Ar 3665  0.4738259E+02  0.5281748E+01  0.3149451E+02  0.0000000E+00
Ar 3666  0.4985415E+02  0.7783250E+01  0.3144956E+02  0.0000000E+00
Ar 3667  0.5010706E+02  0.5314716E+01  0.3421986E+02  0.0000000E+00
Ar 3668  0.4709880E+02  0.7801608E+01  0.3397617E+02  0.0000000E+00
Ar 3669  0.4727431E+02  0.5281735E+01  0.3697482E+02  0.0000000E+00
Ar 3670  0.4950433E+02  0.7597721E+01  0.3639959E+02  0.0000000E+00
Ar 3671  0.4989748E+02  0.5244349E+01  0.3955983E+02  0.0000000E+00
Ar 3672  0.4740597E+02  0.7893322E+01  0.3944364E+02  0.0000000E+00
Ar 3673  0.4731402E+02  0.5295697E+01  0.4207793E+02  0.0000000E+00
Ar 3674  0.5007109E+02  0.7925502E+01  0.4220242E+02  0.0000000E+00
Ar 3675  0.4991296E+02  0.5173099E+01  0.4462088E+02  0.0000000E+00
Ar 3676  0.4720042E+02  0.7731890E+01  0.4458816E+02  0.0000000E+00
Ar 3677  0.4740464E+02  0.5289380E+01  0.4740623E+02  0.0000000E+00
Ar 3678  0.5012038E+02  0.8114449E+01  0.4750933E+02  0.0000000E+00
Ar 3679  0.5015566E+02  0.5441396E+01  0.5013260E+02  0.0000000E+00
Ar 3680  0.4752545E+02  0.8217413E+01  0.5021560E+02  0.0000000E+00
Ar 3681  0.4750785E+02  0.1064668E+02  0.1368680E+00  0.0000000E+00
Ar 3682  0.5019978E+02  0.1325961E+02  0.1310390E+00  0.0000000E+00
Ar 3683  0.5011406E+02  0.1061753E+02  0.2758379E+01  0.0000000E+00
Ar 3684  0.4733492E+02  0.1317675E+02  0.2731946E+01  0.0000000E+00
Ar 3685  0.4757218E+02  0.1078664E+02  0.5492239E+01  0.0000000E+00
Ar 3686  0.5016884E+02  0.1329270E+02  0.5409953E+01  0.0000000E+00
Ar 3687  0.5009418E+02  0.1063734E+02  0.8093427E+01  0.0000000E+00
Ar 3688  0.4738323E+02  0.1316675E+02  0.7985833E+01  0.0000000E+00
Ar 3689  0.4723915E+02  0.1041033E+02  0.1050572E+02  0.0000000E+00
Ar 3690  0.4983823E+02  0.1308195E+02  0.1054926E+02  0.0000000E+00
Ar 3691  0.4991712E+02  0.1060537E+02  0.1320051E+02  0.0000000E+00
Ar 3692  0.4734338E+02  0.1326846E+02  0.1325073E+02  0.0000000E+00
Ar 3693  0.4733863E+02  0.1061910E+02  0.1578780E+02  0.0000000E+00
Ar 3694  0.5012665E+02  0.1348030E+02  0.1604206E+02  0.0000000E+00
Ar 3695  0.4993955E+02  0.1051729E+02  0.1846333E+02  0.0000000E+00
Ar 3696  0.4741608E+02  0.1314532E+02  0.1852252E+02  0.0000000E+00
Ar 3697  0.4750429E+02  0.1061048E+02  0.2123147E+02  0.0000000E+00
Ar 3698  0.5000826E+02  0.1307765E+02  0.2107750E+02  0.0000000E+00
Ar 3699  0.5024644E+02  0.1079553E+02  0.2396618E+02  0.0000000E+00
Ar 3700  0.4751659E+02  0.1337273E+02  0.2384307E+02  0.0000000E+00
Ar 3701  0.4745972E+02  0.1055375E+02  0.2629368E+02  0.0000000E+00
Ar 3702  0.5018758E+02  0.1350835E+02  0.2652449E+02  0.0000000E+00
Ar 3703  0.4986382E+02  0.1045255E+02  0.2886815E+02  0.0000000E+00
Ar 3704  0.4758764E+02  0.1333242E+02  0.2906948E+02  0.0000000E+00
Ar 3705  0.4725049E+02  0.1045297E+02  0.3142371E+02  0.0000000E+00
Ar 3706  0.5006002E+02  0.1317782E+02  0.3161122E+02  0.0000000E+00
Ar 3707  0.4995196E+02  0.1047521E+02  0.3410289E+02  0.0000000E+00
Ar 3708  0.4716101E+02  0.1294943E+02  0.3390636E+02  0.0000000E+00
Ar 3709  0.4735105E+02  0.1055255E+02  0.3679260E+02  0.0000000E+00
Ar 3710  0.4988554E+02  0.1306714E+02  0.3662059E+02  0.0000000E+00
Ar 3711  0.5001372E+02  0.1077892E+02  0.3962448E+02  0.0000000E+00
Ar 3712  0.4756050E+02  0.1344713E+02  0.3967507E+02  0.0000000E+00
Ar 3713  0.4716887E+02  0.1031002E+02  0.4188822E+02  0.0000000E+00
Ar 3714  0.5018430E+02  0.1340140E+02  0.4235679E+02  0.0000000E+00
Ar 3715  0.4976877E+02  0.1056194E+02  0.4463635E+02  0.0000000E+00
Ar 3716  0.4774027E+02  0.1357925E+02  0.4502850E+02  0.0000000E+00
Ar 3717  0.4723966E+02  0.1044515E+02  0.4722390E+02  0.0000000E+00
Ar 3718  0.5018468E+02  0.1322599E+02  0.4751680E+02  0.0000000E+00
Ar 3719  0.5020090E+02  0.1070905E+02  0.5018102E+02  0.0000000E+00
Ar 3720  0.4743405E+02  0.1317213E+02  0.5001639E+02  0.0000000E+00
Ar 3721  0.4747145E+02  0.1595980E+02  0.4393122E-01  0.0000000E+00
Ar 3722  0.5019862E+02  0.1859188E+02  0.1296074E+00  0.0000000E+00
Ar 3723  0.4987299E+02  0.1572391E+02  0.2540133E+01  0.0000000E+00
Ar 3724  0.4746081E+02  0.1858056E+02  0.2626031E+01  0.0000000E+00
Ar 3725  0.4745250E+02  0.1587097E+02  0.5189181E+01  0.0000000E+00
Ar 3726  0.5003922E+02  0.1852845E+02  0.5212959E+01  0.0000000E+00
Ar 3727  0.4996635E+02  0.1577069E+02  0.7933682E+01  0.0000000E+00
Ar 3728  0.4763421E+02  0.1857170E+02  0.8016469E+01  0.0000000E+00
Ar 3729  0.4752310E+02  0.1599626E+02  0.1073246E+02  0.0000000E+00
Ar 3730  0.5006162E+02  0.1846168E+02  0.1057177E+02  0.0000000E+00
Ar 3731  0.5014451E+02  0.1606967E+02  0.1340595E+02  0.0000000E+00
Ar 3732  0.4742907E+02  0.1859068E+02  0.1322612E+02  0.0000000E+00
Ar 3733  0.4757971E+02  0.1607221E+02  0.1607137E+02  0.0000000E+00
Ar 3734  0.5016159E+02  0.1881407E+02  0.1596249E+02  0.0000000E+00
Ar 3735  0.5010254E+02  0.1577845E+02  0.1870144E+02  0.0000000E+00
Ar 3736  0.4759711E+02  0.1865232E+02  0.1860696E+02  0.0000000E+00
Ar 3737  0.4751451E+02  0.1594345E+02  0.2123644E+02  0.0000000E+00
Ar 3738  0.5026892E+02  0.1861881E+02  0.2130278E+02  0.0000000E+00
Ar 3739  0.5016024E+02  0.1598071E+02  0.2385000E+02  0.0000000E+00
Ar 3740  0.4751320E+02  0.1860969E+02  0.2386031E+02  0.0000000E+00
Ar 3741  0.4764438E+02  0.1607499E+02  0.2659013E+02  0.0000000E+00
Ar 3742  0.5021784E+02  0.1869466E+02  0.2647869E+02  0.0000000E+00
Ar 3743  0.5024069E+02  0.1601493E+02  0.2909431E+02  0.0000000E+00
Ar 3744  0.4744302E+02  0.1860916E+02  0.2899615E+02  0.0000000E+00
Ar 3745  0.4736219E+02  0.1572546E+02  0.3145630E+02  0.0000000E+00
Ar 3746  0.4989466E+02  0.1841940E+02  0.3160828E+02  0.0000000E+00
Ar 3747  0.5000797E+02  0.1580083E+02  0.3419953E+02  0.0000000E+00
Ar 3748  0.4722820E+02  0.1818914E+02  0.3402444E+02  0.0000000E+00
Ar 3749  0.4757039E+02  0.1590260E+02  0.3693218E+02  0.0000000E+00
Ar 3750  0.5006791E+02  0.1850793E+02  0.3682951E+02  0.0000000E+00
Ar 3751  0.5012070E+02  0.1590645E+02  0.3954627E+02  0.0000000E+00
Ar 3752  0.4741241E+02  0.1840661E+02  0.3943920E+02  0.0000000E+00
Ar 3753  0.4767422E+02  0.1612708E+02  0.4249990E+02  0.0000000E+00
Ar 3754  0.5010211E+02  0.1850073E+02  0.4206445E+02  0.0000000E+00
Ar 3755  0.5025431E+02  0.1603210E+02  0.4499956E+02  0.0000000E+00
Ar 3756  0.4767095E+02  0.1868006E+02  0.4497885E+02  0.0000000E+00
Ar 3757  0.4740000E+02  0.1583197E+02  0.4739065E+02  0.0000000E+00
Ar 3758  0.5032441E+02  0.1862203E+02  0.4749543E+02  0.0000000E+00
Ar 3759  0.5013248E+02  0.1592955E+02  0.5007805E+02  0.0000000E+00
Ar 3760  0.4741118E+02  0.1830603E+02  0.4995211E+02  0.0000000E+00
Ar 3761  0.4719580E+02  0.2097096E+02  0.5244922E+02  0.0000000E+00
Ar 3762  0.5010553E+02  0.2370317E+02  0.5890228E-01  0.0000000E+00
Ar 3763  0.5006070E+02  0.2118908E+02  0.2725991E+01  0.0000000E+00
Ar 3764  0.4741379E+02  0.2363542E+02  0.2579620E+01  0.0000000E+00
Ar 3765  0.4741476E+02  0.2110077E+02  0.5227628E+01  0.0000000E+00
Ar 3766  0.5009532E+02  0.2373707E+02  0.5267304E+01  0.0000000E+00
Ar 3767  0.5011037E+02  0.2117842E+02  0.8003302E+01  0.0000000E+00
Ar 3768  0.4745184E+02  0.2371180E+02  0.7963838E+01  0.0000000E+00
Ar 3769  0.4721344E+02  0.2103694E+02  0.1052388E+02  0.0000000E+00
Ar 3770  0.4997198E+02  0.2372750E+02  0.1056800E+02  0.0000000E+00
Ar 3771  0.4997639E+02  0.2113461E+02  0.1313143E+02  0.0000000E+00
Ar 3772  0.4737379E+02  0.2371739E+02  0.1319543E+02  0.0000000E+00
Ar 3773  0.4743252E+02  0.2118124E+02  0.1582875E+02  0.0000000E+00
Ar 3774  0.5016214E+02  0.2382197E+02  0.1594169E+02  0.0000000E+00
Ar 3775  0.5016778E+02  0.2120874E+02  0.1861227E+02  0.0000000E+00
Ar 3776  0.4766692E+02  0.2399719E+02  0.1878076E+02  0.0000000E+00
Ar 3777  0.4744150E+02  0.2114036E+02  0.2125135E+02  0.0000000E+00
Ar 3778  0.5011967E+02  0.2379284E+02  0.2131123E+02  0.0000000E+00
Ar 3779  0.5006765E+02  0.2109700E+02  0.2372128E+02  0.0000000E+00
Ar 3780  0.4741326E+02  0.2376578E+02  0.2380725E+02  0.0000000E+00
Ar 3781  0.4748294E+02  0.2121712E+02  0.2640315E+02  0.0000000E+00
Ar 3782  0.5017334E+02  0.2390220E+02  0.2641355E+02  0.0000000E+00
Ar 3783  0.5012750E+02  0.2117710E+02  0.2904832E+02  0.0000000E+00
Ar 3784  0.4756697E+02  0.2382137E+02  0.2913085E+02  0.0000000E+00
Ar 3785  0.4753540E+02  0.2122207E+02  0.3174787E+02  0.0000000E+00
Ar 3786  0.5022643E+02  0.2388945E+02  0.3174644E+02  0.0000000E+00
Ar 3787  0.5015819E+02  0.2120902E+02  0.3441696E+02  0.0000000E+00
Ar 3788  0.4760724E+02  0.2386984E+02  0.3444208E+02  0.0000000E+00
Ar 3789  0.4769834E+02  0.2137969E+02  0.3712980E+02  0.0000000E+00
Ar 3790  0.5012347E+02  0.2381488E+02  0.3694477E+02  0.0000000E+00
Ar 3791  0.5018413E+02  0.2111331E+02  0.3953730E+02  0.0000000E+00
Ar 3792  0.4778069E+02  0.2389869E+02  0.3970346E+02  0.0000000E+00
Ar 3793  0.4737789E+02  0.2093889E+02  0.4200298E+02  0.0000000E+00
Ar 3794  0.5022534E+02  0.2380302E+02  0.4227035E+02  0.0000000E+00
Ar 3795  0.5022337E+02  0.2110307E+02  0.4465032E+02  0.0000000E+00
Ar 3796  0.4765641E+02  0.2381003E+02  0.4490770E+02  0.0000000E+00
Ar 3797  0.4738359E+02  0.2121282E+02  0.4753165E+02  0.0000000E+00
Ar 3798  0.5021838E+02  0.2378457E+02  0.4752351E+02  0.0000000E+00
Ar 3799  0.5001438E+02  0.2108701E+02  0.5005552E+02  0.0000000E+00
Ar 3800  0.4760859E+02  0.2386356E+02  0.5019481E+02  0.0000000E+00
Ar 3801  0.4746228E+02  0.2628720E+02  0.9135055E-01  0.0000000E+00
Ar 3802  0.4994275E+02  0.2886764E+02  0.5250343E+02  0.0000000E+00
Ar 3803  0.5003201E+02  0.2627690E+02  0.2600086E+01  0.0000000E+00
Ar 3804  0.4725342E+02  0.2872213E+02  0.2554584E+01  0.0000000E+00
Ar 3805  0.4716781E+02  0.2603479E+02  0.5027157E+01  0.0000000E+00
Ar 3806  0.4976313E+02  0.2877818E+02  0.5066446E+01  0.0000000E+00
Ar 3807  0.4989352E+02  0.2625254E+02  0.7769625E+01  0.0000000E+00
Ar 3808  0.4768660E+02  0.2913752E+02  0.8085748E+01  0.0000000E+00
Ar 3809  0.4722061E+02  0.2604688E+02  0.1040669E+02  0.0000000E+00
Ar 3810  0.5000628E+02  0.2882165E+02  0.1067984E+02  0.0000000E+00
Ar 3811  0.5007398E+02  0.2632503E+02  0.1329930E+02  0.0000000E+00
Ar 3812  0.4736978E+02  0.2882845E+02  0.1324189E+02  0.0000000E+00
Ar 3813  0.4777445E+02  0.2672071E+02  0.1628521E+02  0.0000000E+00
Ar 3814  0.5010359E+02  0.2897893E+02  0.1581314E+02  0.0000000E+00
Ar 3815  0.5019591E+02  0.2633939E+02  0.1853459E+02  0.0000000E+00
Ar 3816  0.4753820E+02  0.2895953E+02  0.1869823E+02  0.0000000E+00
Ar 3817  0.4760126E+02  0.2658841E+02  0.2145628E+02  0.0000000E+00
Ar 3818  0.5032536E+02  0.2904296E+02  0.2129163E+02  0.0000000E+00
Ar 3819  0.5018805E+02  0.2646788E+02  0.2385632E+02  0.0000000E+00
Ar 3820  0.4752913E+02  0.2916875E+02  0.2399887E+02  0.0000000E+00
Ar 3821  0.4760843E+02  0.2651905E+02  0.2655460E+02  0.0000000E+00
Ar 3822  0.5007753E+02  0.2902213E+02  0.2632197E+02  0.0000000E+00
Ar 3823  0.5013918E+02  0.2638352E+02  0.2905424E+02  0.0000000E+00
Ar 3824  0.4764674E+02  0.2915606E+02  0.2917777E+02  0.0000000E+00
Ar 3825  0.4763225E+02  0.2650548E+02  0.3170349E+02  0.0000000E+00
Ar 3826  0.5016973E+02  0.2899398E+02  0.3165382E+02  0.0000000E+00
Ar 3827  0.5020798E+02  0.2646375E+02  0.3435250E+02  0.0000000E+00
Ar 3828  0.4742418E+02  0.2897402E+02  0.3426733E+02  0.0000000E+00
Ar 3829  0.4758249E+02  0.2647645E+02  0.3696408E+02  0.0000000E+00
Ar 3830  0.5040274E+02  0.2913563E+02  0.3705150E+02  0.0000000E+00
Ar 3831  0.5041300E+02  0.2654480E+02  0.3967196E+02  0.0000000E+00
Ar 3832  0.4761468E+02  0.2903651E+02  0.3960311E+02  0.0000000E+00
Ar 3833  0.4743879E+02  0.2628149E+02  0.4214920E+02  0.0000000E+00
Ar 3834  0.5022947E+02  0.2916327E+02  0.4246505E+02  0.0000000E+00
Ar 3835  0.5049786E+02  0.2667661E+02  0.4513783E+02  0.0000000E+00
Ar 3836  0.4746670E+02  0.2887414E+02  0.4477150E+02  0.0000000E+00
Ar 3837  0.4746319E+02  0.2633793E+02  0.4739295E+02  0.0000000E+00
Ar 3838  0.5008460E+02  0.2907341E+02  0.4757363E+02  0.0000000E+00
Ar 3839  0.5018210E+02  0.2643464E+02  0.5007582E+02  0.0000000E+00
Ar 3840  0.4754784E+02  0.2919014E+02  0.5009277E+02  0.0000000E+00
Ar 3841  0.4727616E+02  0.3175001E+02  0.5252246E+02  0.0000000E+00
Ar 3842  0.5011213E+02  0.3444223E+02  0.2123139E+00  0.0000000E+00
Ar 3843  0.4979285E+02  0.3146767E+02  0.2445439E+01  0.0000000E+00
Ar 3844  0.4744433E+02  0.3421801E+02  0.2670239E+01  0.0000000E+00
Ar 3845  0.4739515E+02  0.3150608E+02  0.5144913E+01  0.0000000E+00
Ar 3846  0.4999555E+02  0.3424948E+02  0.5312560E+01  0.0000000E+00
Ar 3847  0.5019306E+02  0.3170763E+02  0.7926781E+01  0.0000000E+00
Ar 3848  0.4734197E+02  0.3423481E+02  0.7841290E+01  0.0000000E+00
Ar 3849  0.4739384E+02  0.3154046E+02  0.1068400E+02  0.0000000E+00
Ar 3850  0.4983044E+02  0.3414653E+02  0.1043825E+02  0.0000000E+00
Ar 3851  0.4998018E+02  0.3153088E+02  0.1332335E+02  0.0000000E+00
Ar 3852  0.4734899E+02  0.3417049E+02  0.1304190E+02  0.0000000E+00
Ar 3853  0.4756275E+02  0.3164879E+02  0.1607309E+02  0.0000000E+00
Ar 3854  0.5002291E+02  0.3430973E+02  0.1585181E+02  0.0000000E+00
Ar 3855  0.4994685E+02  0.3144630E+02  0.1835677E+02  0.0000000E+00
Ar 3856  0.4777785E+02  0.3443441E+02  0.1867094E+02  0.0000000E+00
Ar 3857  0.4747622E+02  0.3180274E+02  0.2122099E+02  0.0000000E+00
Ar 3858  0.5017326E+02  0.3418832E+02  0.2121853E+02  0.0000000E+00
Ar 3859  0.4989564E+02  0.3153147E+02  0.2361671E+02  0.0000000E+00
Ar 3860  0.4758472E+02  0.3441724E+02  0.2388056E+02  0.0000000E+00
Ar 3861  0.4757900E+02  0.3167420E+02  0.2645731E+02  0.0000000E+00
Ar 3862  0.5016985E+02  0.3425271E+02  0.2644340E+02  0.0000000E+00
Ar 3863  0.5030570E+02  0.3174848E+02  0.2915527E+02  0.0000000E+00
Ar 3864  0.4757628E+02  0.3434494E+02  0.2913028E+02  0.0000000E+00
Ar 3865  0.4750628E+02  0.3162468E+02  0.3160361E+02  0.0000000E+00
Ar 3866  0.5014635E+02  0.3419754E+02  0.3162197E+02  0.0000000E+00
Ar 3867  0.5034942E+02  0.3177213E+02  0.3447339E+02  0.0000000E+00
Ar 3868  0.4768975E+02  0.3428547E+02  0.3432451E+02  0.0000000E+00
Ar 3869  0.4758202E+02  0.3160328E+02  0.3690967E+02  0.0000000E+00
Ar 3870  0.5028001E+02  0.3428710E+02  0.3698933E+02  0.0000000E+00
Ar 3871  0.5011084E+02  0.3152692E+02  0.3952188E+02  0.0000000E+00
Ar 3872  0.4755387E+02  0.3431419E+02  0.3951489E+02  0.0000000E+00
Ar 3873  0.4736025E+02  0.3150883E+02  0.4215086E+02  0.0000000E+00
Ar 3874  0.5002938E+02  0.3409679E+02  0.4222580E+02  0.0000000E+00
Ar 3875  0.5012403E+02  0.3177345E+02  0.4493761E+02  0.0000000E+00
Ar 3876  0.4763422E+02  0.3453680E+02  0.4504905E+02  0.0000000E+00
Ar 3877  0.4727383E+02  0.3148775E+02  0.4725377E+02  0.0000000E+00
Ar 3878  0.5007788E+02  0.3428949E+02  0.4753627E+02  0.0000000E+00
Ar 3879  0.5002891E+02  0.3174651E+02  0.5010473E+02  0.0000000E+00
Ar 3880  0.4743200E+02  0.3432677E+02  0.5006453E+02  0.0000000E+00
Ar 3881  0.4745591E+02  0.3690961E+02  0.4289366E-01  0.0000000E+00
Ar 3882  0.5018305E+02  0.3962701E+02  0.1545664E+00  0.0000000E+00
Ar 3883  0.5006395E+02  0.3698588E+02  0.2680140E+01  0.0000000E+00
Ar 3884  0.4731687E+02  0.3940711E+02  0.2619684E+01  0.0000000E+00
Ar 3885  0.4720041E+02  0.3676405E+02  0.5143103E+01  0.0000000E+00
Ar 3886  0.4989535E+02  0.3944916E+02  0.5266689E+01  0.0000000E+00
Ar 3887  0.4978310E+02  0.3682129E+02  0.7773268E+01  0.0000000E+00
Ar 3888  0.4718394E+02  0.3939583E+02  0.7786559E+01  0.0000000E+00
Ar 3889  0.4738171E+02  0.3686532E+02  0.1057564E+02  0.0000000E+00
Ar 3890  0.4983234E+02  0.3945844E+02  0.1043090E+02  0.0000000E+00
Ar 3891  0.5003215E+02  0.3688913E+02  0.1321452E+02  0.0000000E+00
Ar 3892  0.4740268E+02  0.3960825E+02  0.1330427E+02  0.0000000E+00
Ar 3893  0.4756286E+02  0.3697992E+02  0.1604923E+02  0.0000000E+00
Ar 3894  0.5020288E+02  0.3955363E+02  0.1586556E+02  0.0000000E+00
Ar 3895  0.5029236E+02  0.3699625E+02  0.1864636E+02  0.0000000E+00
Ar 3896  0.4775851E+02  0.3966717E+02  0.1873341E+02  0.0000000E+00
Ar 3897  0.4724218E+02  0.3686213E+02  0.2104926E+02  0.0000000E+00
Ar 3898  0.5024537E+02  0.3958447E+02  0.2120103E+02  0.0000000E+00
Ar 3899  0.5027612E+02  0.3706157E+02  0.2387429E+02  0.0000000E+00
Ar 3900  0.4774291E+02  0.3965084E+02  0.2382890E+02  0.0000000E+00
Ar 3901  0.4776054E+02  0.3707748E+02  0.2651330E+02  0.0000000E+00
Ar 3902  0.5027164E+02  0.3950785E+02  0.2640138E+02  0.0000000E+00
Ar 3903  0.5018189E+02  0.3689704E+02  0.2903167E+02  0.0000000E+00
Ar 3904  0.4726963E+02  0.3947510E+02  0.2884417E+02  0.0000000E+00
Ar 3905  0.4757355E+02  0.3687954E+02  0.3161006E+02  0.0000000E+00
Ar 3906  0.4998568E+02  0.3935192E+02  0.3132567E+02  0.0000000E+00
Ar 3907  0.5020657E+02  0.3690013E+02  0.3419085E+02  0.0000000E+00
Ar 3908  0.4743661E+02  0.3943918E+02  0.3415721E+02  0.0000000E+00
Ar 3909  0.4752054E+02  0.3684487E+02  0.3684384E+02  0.0000000E+00
Ar 3910  0.5004795E+02  0.3944121E+02  0.3674335E+02  0.0000000E+00
Ar 3911  0.5013321E+02  0.3692356E+02  0.3946153E+02  0.0000000E+00
Ar 3912  0.4763739E+02  0.3957542E+02  0.3953078E+02  0.0000000E+00
Ar 3913  0.4749022E+02  0.3681800E+02  0.4227561E+02  0.0000000E+00
Ar 3914  0.4997437E+02  0.3941743E+02  0.4209612E+02  0.0000000E+00
Ar 3915  0.5021760E+02  0.3704646E+02  0.4488684E+02  0.0000000E+00
Ar 3916  0.4763466E+02  0.3960996E+02  0.4488436E+02  0.0000000E+00
Ar 3917  0.4765264E+02  0.3706691E+02  0.4764914E+02  0.0000000E+00
Ar 3918  0.5016847E+02  0.3967685E+02  0.4744851E+02  0.0000000E+00
Ar 3919  0.5018438E+02  0.3707819E+02  0.5025139E+02  0.0000000E+00
Ar 3920  0.4743440E+02  0.3960944E+02  0.5018611E+02  0.0000000E+00
Ar 3921  0.4750570E+02  0.4217535E+02  0.2046161E+00  0.0000000E+00
Ar 3922  0.5010359E+02  0.4465560E+02  0.5262789E+02  0.0000000E+00
Ar 3923  0.5016338E+02  0.4226901E+02  0.3018886E+01  0.0000000E+00
Ar 3924  0.4733000E+02  0.4469934E+02  0.2637267E+01  0.0000000E+00
Ar 3925  0.4734614E+02  0.4217836E+02  0.5358120E+01  0.0000000E+00
Ar 3926  0.4994674E+02  0.4479360E+02  0.5339750E+01  0.0000000E+00
Ar 3927  0.5006283E+02  0.4227436E+02  0.8063365E+01  0.0000000E+00
Ar 3928  0.4746960E+02  0.4490850E+02  0.8076860E+01  0.0000000E+00
Ar 3929  0.4724460E+02  0.4205295E+02  0.1047196E+02  0.0000000E+00
Ar 3930  0.5020818E+02  0.4491846E+02  0.1076979E+02  0.0000000E+00
Ar 3931  0.4997168E+02  0.4202079E+02  0.1306751E+02  0.0000000E+00
Ar 3932  0.4751691E+02  0.4502982E+02  0.1328557E+02  0.0000000E+00
Ar 3933  0.4764502E+02  0.4231080E+02  0.1628155E+02  0.0000000E+00
Ar 3934  0.4995942E+02  0.4455655E+02  0.1550727E+02  0.0000000E+00
Ar 3935  0.5027253E+02  0.4230171E+02  0.1868199E+02  0.0000000E+00
Ar 3936  0.4763270E+02  0.4497184E+02  0.1870408E+02  0.0000000E+00
Ar 3937  0.4763626E+02  0.4224984E+02  0.2122132E+02  0.0000000E+00
Ar 3938  0.5023361E+02  0.4495960E+02  0.2130256E+02  0.0000000E+00
Ar 3939  0.5030866E+02  0.4244793E+02  0.2399993E+02  0.0000000E+00
Ar 3940  0.4740708E+02  0.4476012E+02  0.2367768E+02  0.0000000E+00
Ar 3941  0.4739127E+02  0.4225843E+02  0.2623724E+02  0.0000000E+00
Ar 3942  0.5029698E+02  0.4501296E+02  0.2650539E+02  0.0000000E+00
Ar 3943  0.4972136E+02  0.4193817E+02  0.2870362E+02  0.0000000E+00
Ar 3944  0.4728753E+02  0.4468477E+02  0.2865622E+02  0.0000000E+00
Ar 3945  0.4728283E+02  0.4207557E+02  0.3148052E+02  0.0000000E+00
Ar 3946  0.4986980E+02  0.4461316E+02  0.3144568E+02  0.0000000E+00
Ar 3947  0.4991055E+02  0.4208499E+02  0.3412478E+02  0.0000000E+00
Ar 3948  0.4742635E+02  0.4485145E+02  0.3424010E+02  0.0000000E+00
Ar 3949  0.4749093E+02  0.4210660E+02  0.3687818E+02  0.0000000E+00
Ar 3950  0.5022783E+02  0.4495605E+02  0.3704003E+02  0.0000000E+00
Ar 3951  0.5002265E+02  0.4200672E+02  0.3929784E+02  0.0000000E+00
Ar 3952  0.4749004E+02  0.4487337E+02  0.3956298E+02  0.0000000E+00
Ar 3953  0.4725418E+02  0.4201535E+02  0.4201468E+02  0.0000000E+00
Ar 3954  0.5001583E+02  0.4474581E+02  0.4212041E+02  0.0000000E+00
Ar 3955  0.5003029E+02  0.4222611E+02  0.4470159E+02  0.0000000E+00
Ar 3956  0.4739497E+02  0.4475874E+02  0.4472520E+02  0.0000000E+00
Ar 3957  0.4718984E+02  0.4202880E+02  0.4723515E+02  0.0000000E+00
Ar 3958  0.4993034E+02  0.4478875E+02  0.4740584E+02  0.0000000E+00
Ar 3959  0.5006574E+02  0.4225079E+02  0.5006667E+02  0.0000000E+00
Ar 3960  0.4759507E+02  0.4516438E+02  0.5024044E+02  0.0000000E+00
Ar 3961  0.4744759E+02  0.4745941E+02  0.2118002E+00  0.0000000E+00
Ar 3962  0.5009699E+02  0.5011024E+02  0.1880226E+00  0.0000000E+00
Ar 3963  0.5011338E+02  0.4751670E+02  0.2753130E+01  0.0000000E+00
Ar 3964  0.4739322E+02  0.5007414E+02  0.2736634E+01  0.0000000E+00
Ar 3965  0.4750009E+02  0.4751803E+02  0.5456963E+01  0.0000000E+00
Ar 3966  0.5002063E+02  0.5014046E+02  0.5374506E+01  0.0000000E+00
Ar 3967  0.5014454E+02  0.4746681E+02  0.8145039E+01  0.0000000E+00
Ar 3968  0.4740511E+02  0.5004280E+02  0.7978743E+01  0.0000000E+00
Ar 3969  0.4760196E+02  0.4764246E+02  0.1076046E+02  0.0000000E+00
Ar 3970  0.5015136E+02  0.5009212E+02  0.1069256E+02  0.0000000E+00
Ar 3971  0.5015428E+02  0.4751714E+02  0.1331061E+02  0.0000000E+00
Ar 3972  0.4743077E+02  0.5013174E+02  0.1331417E+02  0.0000000E+00
Ar 3973  0.4744550E+02  0.4740865E+02  0.1588062E+02  0.0000000E+00
Ar 3974  0.5017030E+02  0.5026582E+02  0.1600116E+02  0.0000000E+00
Ar 3975  0.5014616E+02  0.4749883E+02  0.1856593E+02  0.0000000E+00
Ar 3976  0.4756604E+02  0.5024501E+02  0.1866370E+02  0.0000000E+00
Ar 3977  0.4754401E+02  0.4760325E+02  0.2122302E+02  0.0000000E+00
Ar 3978  0.5001483E+02  0.4995235E+02  0.2105710E+02  0.0000000E+00
Ar 3979  0.4999970E+02  0.4745015E+02  0.2368904E+02  0.0000000E+00
Ar 3980  0.4752469E+02  0.5021229E+02  0.2378839E+02  0.0000000E+00
Ar 3981  0.4760756E+02  0.4764735E+02  0.2643576E+02  0.0000000E+00
Ar 3982  0.5005274E+02  0.5010516E+02  0.2638597E+02  0.0000000E+00
Ar 3983  0.4992500E+02  0.4736743E+02  0.2897524E+02  0.0000000E+00
Ar 3984  0.4740636E+02  0.5008375E+02  0.2900339E+02  0.0000000E+00
Ar 3985  0.4707301E+02  0.4703322E+02  0.3123626E+02  0.0000000E+00
Ar 3986  0.5014545E+02  0.5013463E+02  0.3175186E+02  0.0000000E+00
Ar 3987  0.5000728E+02  0.4740431E+02  0.3420778E+02  0.0000000E+00
Ar 3988  0.4739516E+02  0.4999060E+02  0.3411657E+02  0.0000000E+00
Ar 3989  0.4745919E+02  0.4739845E+02  0.3688280E+02  0.0000000E+00
Ar 3990  0.5011269E+02  0.4997997E+02  0.3682963E+02  0.0000000E+00
Ar 3991  0.5010952E+02  0.4741477E+02  0.3955296E+02  0.0000000E+00
Ar 3992  0.4748134E+02  0.5008552E+02  0.3962978E+02  0.0000000E+00
Ar 3993  0.4741926E+02  0.4738779E+02  0.4214472E+02  0.0000000E+00
Ar 3994  0.5011059E+02  0.5005684E+02  0.4214201E+02  0.0000000E+00
Ar 3995  0.5012976E+02  0.4740668E+02  0.4479509E+02  0.0000000E+00
Ar 3996  0.4760181E+02  0.5018906E+02  0.4490012E+02  0.0000000E+00
Ar 3997  0.4736673E+02  0.4732359E+02  0.4730921E+02  0.0000000E+00
Ar 3998  0.5004049E+02  0.5000303E+02  0.4743748E+02  0.0000000E+00
Ar 3999  0.5032134E+02  0.4760837E+02  0.5035306E+02  0.0000000E+00
Ar 4000  0.4754446E+02  0.5012426E+02  0.5013232E+02  0.0000000E+00
