         864
Lattice="  0.9994748E+02  0.0000000E+00  0.0000000E+00  0.0000000E+00  0.9994748E+02  0.0000000E+00  0.0000000E+00  0.0000000E+00  0.9994748E+02" Properties=species:S:1:id:I:1:pos:R:3:tempK:R:1
Ar    1  0.2001520E+00  0.2001520E+00  0.2001520E+00  0.1658647E+02
Ar    2  0.2858022E+01  0.2858022E+01  0.1139972E+00  0.1335837E+02
Ar    3  0.2858022E+01  0.1139972E+00  0.2858022E+01  0.1335837E+02
Ar    4  0.1139972E+00  0.2858022E+01  0.2858022E+01  0.1335837E+02
Ar    5  0.1332537E+00  0.1332537E+00  0.5400211E+01  0.5648690E+01
Ar    6  0.2789055E+01  0.2789055E+01  0.5427933E+01  0.1098472E+02
Ar    7  0.2783560E+01  0.8653906E-01  0.8002791E+01  0.1036416E+02
Ar    8  0.8653906E-01  0.2783560E+01  0.8002791E+01  0.1036416E+02
Ar    9  0.9734732E-01  0.9734732E-01  0.1064767E+02  0.7129859E+01
Ar   10  0.2754740E+01  0.2754740E+01  0.1065136E+02  0.3967058E+01
Ar   11  0.2822385E+01  0.9920180E-01  0.1324317E+02  0.9398491E+00
Ar   12  0.9920180E-01  0.2822385E+01  0.1324317E+02  0.9398491E+00
Ar   13  0.7816286E-01  0.7816286E-01  0.1583537E+02  0.1420361E+01
Ar   14  0.2755475E+01  0.2755475E+01  0.1585201E+02  0.1767051E+01
Ar   15  0.2748082E+01  0.5827031E-01  0.1847538E+02  0.3683181E+01
Ar   16  0.5827031E-01  0.2748082E+01  0.1847538E+02  0.3683181E+01
Ar   17  0.7436877E-01  0.7436877E-01  0.2104740E+02  0.5211656E+01
Ar   18  0.2797932E+01  0.2797932E+01  0.2106587E+02  0.8616757E+01
Ar   19  0.2808227E+01  0.1047708E+00  0.2364949E+02  0.9800602E+01
Ar   20  0.1047708E+00  0.2808227E+01  0.2364949E+02  0.9800602E+01
Ar   21  0.1264022E+00  0.1264022E+00  0.2622368E+02  0.1573546E+02
Ar   22  0.2761565E+01  0.2761565E+01  0.2632914E+02  0.1657537E+02
Ar   23  0.2867035E+01  0.1264023E+00  0.2896431E+02  0.1573539E+02
Ar   24  0.1264023E+00  0.2867035E+01  0.2896431E+02  0.1573539E+02
Ar   25  0.1332537E+00  0.5400211E+01  0.1332537E+00  0.5648690E+01
Ar   26  0.2783560E+01  0.8002791E+01  0.8653906E-01  0.1036416E+02
Ar   27  0.2789055E+01  0.5427933E+01  0.2789055E+01  0.1098472E+02
Ar   28  0.8653906E-01  0.8002791E+01  0.2783560E+01  0.1036416E+02
Ar   29  0.8902876E-01  0.5462055E+01  0.5462055E+01  0.1187302E+02
Ar   30  0.2765185E+01  0.8055844E+01  0.5426425E+01  0.4561309E+01
Ar   31  0.2765185E+01  0.5426425E+01  0.8055844E+01  0.4561309E+01
Ar   32 -0.4100830E-02  0.8081431E+01  0.8081431E+01  0.9854777E+01
Ar   33  0.7570861E-01  0.5414871E+01  0.1062881E+02  0.7403566E+00
Ar   34  0.2749220E+01  0.8056544E+01  0.1068563E+02  0.4358198E+01
Ar   35  0.2733716E+01  0.5415960E+01  0.1324742E+02  0.2731981E+01
Ar   36  0.1636896E-01  0.8037986E+01  0.1326099E+02  0.4800433E+01
Ar   37  0.7634919E-01  0.5374055E+01  0.1583028E+02  0.3498222E+00
Ar   38  0.2715669E+01  0.8030804E+01  0.1585199E+02  0.1838584E+01
Ar   39  0.2762937E+01  0.5417277E+01  0.1843724E+02  0.6488083E+01
Ar   40  0.3685014E-02  0.8018266E+01  0.1844102E+02  0.3481920E+01
Ar   41  0.9516190E-01  0.5421360E+01  0.2104236E+02  0.4373523E+01
Ar   42  0.2743269E+01  0.8074044E+01  0.2101667E+02  0.5787217E+01
Ar   43  0.2778255E+01  0.5407786E+01  0.2368292E+02  0.1736642E+02
Ar   44  0.9516164E-01  0.8048354E+01  0.2366935E+02  0.4373622E+01
Ar   45  0.1047706E+00  0.5441226E+01  0.2628248E+02  0.9800553E+01
Ar   46  0.2797932E+01  0.8024842E+01  0.2629278E+02  0.8616772E+01
Ar   47  0.2808228E+01  0.5441225E+01  0.2898594E+02  0.9800418E+01
Ar   48  0.7436804E-01  0.8043310E+01  0.2901634E+02  0.5211614E+01
Ar   49  0.9734732E-01  0.1064767E+02  0.9734732E-01  0.7129859E+01
Ar   50  0.2822385E+01  0.1324317E+02  0.9920180E-01  0.9398491E+00
Ar   51  0.2754740E+01  0.1065136E+02  0.2754740E+01  0.3967058E+01
Ar   52  0.9920180E-01  0.1324317E+02  0.2822385E+01  0.9398491E+00
Ar   53  0.7570861E-01  0.1062881E+02  0.5414871E+01  0.7403566E+00
Ar   54  0.2733716E+01  0.1324742E+02  0.5415960E+01  0.2731981E+01
Ar   55  0.2749220E+01  0.1068563E+02  0.8056544E+01  0.4358198E+01
Ar   56  0.1636896E-01  0.1326099E+02  0.8037986E+01  0.4800433E+01
Ar   57  0.7153324E-02  0.1069657E+02  0.1069657E+02  0.4033382E+01
Ar   58  0.2737129E+01  0.1327735E+02  0.1065346E+02  0.2973735E+01
Ar   59  0.2737129E+01  0.1065346E+02  0.1327735E+02  0.2973735E+01
Ar   60  0.5241688E-01  0.1325995E+02  0.1325995E+02  0.3055261E+01
Ar   61  0.3544198E-01  0.1065852E+02  0.1585785E+02  0.1286966E+01
Ar   62  0.2716097E+01  0.1325225E+02  0.1583846E+02  0.3213867E+01
Ar   63  0.2700656E+01  0.1067790E+02  0.1841281E+02  0.2671230E+01
Ar   64  0.3544223E-01  0.1323286E+02  0.1843219E+02  0.1286995E+01
Ar   65  0.3685994E-02  0.1064969E+02  0.2107244E+02  0.3481920E+01
Ar   66  0.2715669E+01  0.1323872E+02  0.2105991E+02  0.1838644E+01
Ar   67  0.2762937E+01  0.1065347E+02  0.2367343E+02  0.6487911E+01
Ar   68  0.7634901E-01  0.1326043E+02  0.2371665E+02  0.3498073E+00
Ar   69  0.5827096E-01  0.1061533E+02  0.2634263E+02  0.3683175E+01
Ar   70  0.2755475E+01  0.1323870E+02  0.2633524E+02  0.1767021E+01
Ar   71  0.2748082E+01  0.1061533E+02  0.2903244E+02  0.3683231E+01
Ar   72  0.7816251E-01  0.1325534E+02  0.2901255E+02  0.1420369E+01
Ar   73  0.7816286E-01  0.1583537E+02  0.7816286E-01  0.1420361E+01
Ar   74  0.2748082E+01  0.1847538E+02  0.5827031E-01  0.3683181E+01
Ar   75  0.2755475E+01  0.1585201E+02  0.2755475E+01  0.1767051E+01
Ar   76  0.5827031E-01  0.1847538E+02  0.2748082E+01  0.3683181E+01
Ar   77  0.7634919E-01  0.1583028E+02  0.5374055E+01  0.3498222E+00
Ar   78  0.2762937E+01  0.1843724E+02  0.5417277E+01  0.6488083E+01
Ar   79  0.2715669E+01  0.1585199E+02  0.8030804E+01  0.1838584E+01
Ar   80  0.3685014E-02  0.1844102E+02  0.8018266E+01  0.3481920E+01
Ar   81  0.3544198E-01  0.1585785E+02  0.1065852E+02  0.1286966E+01
Ar   82  0.2700656E+01  0.1841281E+02  0.1067790E+02  0.2671230E+01
Ar   83  0.2716097E+01  0.1583846E+02  0.1325225E+02  0.3213867E+01
Ar   84  0.3544223E-01  0.1843219E+02  0.1323286E+02  0.1286995E+01
Ar   85  0.5241668E-01  0.1583076E+02  0.1583076E+02  0.3055251E+01
Ar   86  0.2737129E+01  0.1843725E+02  0.1581336E+02  0.2973650E+01
Ar   87  0.2737129E+01  0.1581336E+02  0.1843725E+02  0.2973650E+01
Ar   88  0.7152662E-02  0.1839414E+02  0.1839414E+02  0.4033369E+01
Ar   89  0.1636890E-01  0.1582972E+02  0.2105272E+02  0.4800381E+01
Ar   90  0.2749220E+01  0.1840508E+02  0.2103417E+02  0.4358218E+01
Ar   91  0.2733715E+01  0.1584329E+02  0.2367475E+02  0.2731963E+01
Ar   92  0.7570834E-01  0.1846190E+02  0.2367584E+02  0.7403376E+00
Ar   93  0.9920179E-01  0.1584754E+02  0.2626832E+02  0.9398429E+00
Ar   94  0.2754740E+01  0.1843935E+02  0.2633597E+02  0.3967101E+01
Ar   95  0.2822386E+01  0.1584754E+02  0.2899151E+02  0.9398420E+00
Ar   96  0.9734771E-01  0.1844304E+02  0.2899336E+02  0.7129839E+01
Ar   97  0.7436877E-01  0.2104740E+02  0.7436877E-01  0.5211656E+01
Ar   98  0.2808227E+01  0.2364949E+02  0.1047708E+00  0.9800602E+01
Ar   99  0.2797932E+01  0.2106587E+02  0.2797932E+01  0.8616757E+01
Ar  100  0.1047708E+00  0.2364949E+02  0.2808227E+01  0.9800602E+01
Ar  101  0.9516190E-01  0.2104236E+02  0.5421360E+01  0.4373523E+01
Ar  102  0.2778255E+01  0.2368292E+02  0.5407786E+01  0.1736642E+02
Ar  103  0.2743269E+01  0.2101667E+02  0.8074044E+01  0.5787217E+01
Ar  104  0.9516164E-01  0.2366935E+02  0.8048354E+01  0.4373622E+01
Ar  105  0.3685994E-02  0.2107244E+02  0.1064969E+02  0.3481920E+01
Ar  106  0.2762937E+01  0.2367343E+02  0.1065347E+02  0.6487911E+01
Ar  107  0.2715669E+01  0.2105991E+02  0.1323872E+02  0.1838644E+01
Ar  108  0.7634901E-01  0.2371665E+02  0.1326043E+02  0.3498073E+00
Ar  109  0.1636890E-01  0.2105272E+02  0.1582972E+02  0.4800381E+01
Ar  110  0.2733715E+01  0.2367475E+02  0.1584329E+02  0.2731963E+01
Ar  111  0.2749220E+01  0.2103417E+02  0.1840508E+02  0.4358218E+01
Ar  112  0.7570834E-01  0.2367584E+02  0.1846190E+02  0.7403376E+00
Ar  113 -0.4099632E-02  0.2100928E+02  0.2100928E+02  0.9854703E+01
Ar  114  0.2765184E+01  0.2366429E+02  0.2103487E+02  0.4561396E+01
Ar  115  0.2765184E+01  0.2103487E+02  0.2366429E+02  0.4561396E+01
Ar  116  0.8902907E-01  0.2362866E+02  0.2362866E+02  0.1187300E+02
Ar  117  0.8653897E-01  0.2108792E+02  0.2630715E+02  0.1036408E+02
Ar  118  0.2789055E+01  0.2366278E+02  0.2630165E+02  0.1098477E+02
Ar  119  0.2783560E+01  0.2108792E+02  0.2900417E+02  0.1036411E+02
Ar  120  0.1332540E+00  0.2369050E+02  0.2895746E+02  0.5648682E+01
Ar  121  0.1264022E+00  0.2622368E+02  0.1264022E+00  0.1573546E+02
Ar  122  0.2867035E+01  0.2896431E+02  0.1264023E+00  0.1573539E+02
Ar  123  0.2761565E+01  0.2632914E+02  0.2761565E+01  0.1657537E+02
Ar  124  0.1264023E+00  0.2896431E+02  0.2867035E+01  0.1573539E+02
Ar  125  0.1047706E+00  0.2628248E+02  0.5441226E+01  0.9800553E+01
Ar  126  0.2808228E+01  0.2898594E+02  0.5441225E+01  0.9800418E+01
Ar  127  0.2797932E+01  0.2629278E+02  0.8024842E+01  0.8616772E+01
Ar  128  0.7436804E-01  0.2901634E+02  0.8043310E+01  0.5211614E+01
Ar  129  0.5827096E-01  0.2634263E+02  0.1061533E+02  0.3683175E+01
Ar  130  0.2748082E+01  0.2903244E+02  0.1061533E+02  0.3683231E+01
Ar  131  0.2755475E+01  0.2633524E+02  0.1323870E+02  0.1767021E+01
Ar  132  0.7816251E-01  0.2901255E+02  0.1325534E+02  0.1420369E+01
Ar  133  0.9920179E-01  0.2626832E+02  0.1584754E+02  0.9398429E+00
Ar  134  0.2822386E+01  0.2899151E+02  0.1584754E+02  0.9398420E+00
Ar  135  0.2754740E+01  0.2633597E+02  0.1843935E+02  0.3967101E+01
Ar  136  0.9734771E-01  0.2899336E+02  0.1844304E+02  0.7129839E+01
Ar  137  0.8653897E-01  0.2630715E+02  0.2108792E+02  0.1036408E+02
Ar  138  0.2783560E+01  0.2900417E+02  0.2108792E+02  0.1036411E+02
Ar  139  0.2789055E+01  0.2630165E+02  0.2366278E+02  0.1098477E+02
Ar  140  0.1332540E+00  0.2895746E+02  0.2369050E+02  0.5648682E+01
Ar  141  0.1139958E+00  0.2623269E+02  0.2623269E+02  0.1335817E+02
Ar  142  0.2858022E+01  0.2897671E+02  0.2623269E+02  0.1335828E+02
Ar  143  0.2858022E+01  0.2623269E+02  0.2897671E+02  0.1335828E+02
Ar  144  0.2001527E+00  0.2889056E+02  0.2889056E+02  0.1658650E+02
Ar  145  0.5400211E+01  0.1332537E+00  0.1332537E+00  0.5648690E+01
Ar  146  0.8002791E+01  0.2783560E+01  0.8653906E-01  0.1036416E+02
Ar  147  0.8002791E+01  0.8653906E-01  0.2783560E+01  0.1036416E+02
Ar  148  0.5427933E+01  0.2789055E+01  0.2789055E+01  0.1098472E+02
Ar  149  0.5462055E+01  0.8902876E-01  0.5462055E+01  0.1187302E+02
Ar  150  0.8055844E+01  0.2765185E+01  0.5426425E+01  0.4561309E+01
Ar  151  0.8081431E+01 -0.4100830E-02  0.8081431E+01  0.9854777E+01
Ar  152  0.5426425E+01  0.2765185E+01  0.8055844E+01  0.4561309E+01
Ar  153  0.5414871E+01  0.7570861E-01  0.1062881E+02  0.7403566E+00
Ar  154  0.8056544E+01  0.2749220E+01  0.1068563E+02  0.4358198E+01
Ar  155  0.8037986E+01  0.1636896E-01  0.1326099E+02  0.4800433E+01
Ar  156  0.5415960E+01  0.2733716E+01  0.1324742E+02  0.2731981E+01
Ar  157  0.5374055E+01  0.7634919E-01  0.1583028E+02  0.3498222E+00
Ar  158  0.8030804E+01  0.2715669E+01  0.1585199E+02  0.1838584E+01
Ar  159  0.8018266E+01  0.3685014E-02  0.1844102E+02  0.3481920E+01
Ar  160  0.5417277E+01  0.2762937E+01  0.1843724E+02  0.6488083E+01
Ar  161  0.5421360E+01  0.9516190E-01  0.2104236E+02  0.4373523E+01
Ar  162  0.8074044E+01  0.2743269E+01  0.2101667E+02  0.5787217E+01
Ar  163  0.8048354E+01  0.9516164E-01  0.2366935E+02  0.4373622E+01
Ar  164  0.5407786E+01  0.2778255E+01  0.2368292E+02  0.1736642E+02
Ar  165  0.5441226E+01  0.1047706E+00  0.2628248E+02  0.9800553E+01
Ar  166  0.8024842E+01  0.2797932E+01  0.2629278E+02  0.8616772E+01
Ar  167  0.8043310E+01  0.7436804E-01  0.2901634E+02  0.5211614E+01
Ar  168  0.5441225E+01  0.2808228E+01  0.2898594E+02  0.9800418E+01
Ar  169  0.5462055E+01  0.5462055E+01  0.8902876E-01  0.1187302E+02
Ar  170  0.8081431E+01  0.8081431E+01 -0.4100830E-02  0.9854777E+01
Ar  171  0.8055844E+01  0.5426425E+01  0.2765185E+01  0.4561309E+01
Ar  172  0.5426425E+01  0.8055844E+01  0.2765185E+01  0.4561309E+01
Ar  173  0.5425253E+01  0.5425253E+01  0.5425253E+01  0.2052554E+02
Ar  174  0.8045675E+01  0.8045675E+01  0.5382300E+01  0.1210886E+02
Ar  175  0.8045675E+01  0.5382300E+01  0.8045675E+01  0.1210886E+02
Ar  176  0.5382300E+01  0.8045675E+01  0.8045675E+01  0.1210886E+02
Ar  177  0.5395605E+01  0.5395605E+01  0.1066324E+02  0.4594516E+01
Ar  178  0.8027265E+01  0.8027265E+01  0.1064665E+02  0.8347475E+01
Ar  179  0.8032977E+01  0.5392673E+01  0.1326936E+02  0.3422090E+00
Ar  180  0.5392673E+01  0.8032977E+01  0.1326936E+02  0.3422090E+00
Ar  181  0.5389356E+01  0.5389356E+01  0.1584101E+02  0.5451414E+01
Ar  182  0.8028679E+01  0.8028679E+01  0.1584456E+02  0.3347108E+01
Ar  183  0.8046426E+01  0.5381969E+01  0.1843370E+02  0.1694638E+01
Ar  184  0.5381969E+01  0.8046426E+01  0.1843370E+02  0.1694638E+01
Ar  185  0.5404347E+01  0.5404347E+01  0.2107222E+02  0.1206310E+02
Ar  186  0.8036696E+01  0.8036696E+01  0.2105401E+02  0.3436392E+01
Ar  187  0.8018495E+01  0.5404346E+01  0.2368636E+02  0.1206311E+02
Ar  188  0.5404346E+01  0.8018495E+01  0.2368636E+02  0.1206311E+02
Ar  189  0.5407786E+01  0.5407786E+01  0.2631246E+02  0.1736638E+02
Ar  190  0.8074043E+01  0.8074043E+01  0.2634744E+02  0.5787181E+01
Ar  191  0.8048354E+01  0.5421360E+01  0.2899555E+02  0.4373596E+01
Ar  192  0.5421360E+01  0.8048354E+01  0.2899555E+02  0.4373596E+01
Ar  193  0.5414871E+01  0.1062881E+02  0.7570861E-01  0.7403566E+00
Ar  194  0.8037986E+01  0.1326099E+02  0.1636896E-01  0.4800433E+01
Ar  195  0.8056544E+01  0.1068563E+02  0.2749220E+01  0.4358198E+01
Ar  196  0.5415960E+01  0.1324742E+02  0.2733716E+01  0.2731981E+01
Ar  197  0.5395605E+01  0.1066324E+02  0.5395605E+01  0.4594516E+01
Ar  198  0.8032977E+01  0.1326936E+02  0.5392673E+01  0.3422090E+00
Ar  199  0.8027265E+01  0.1064665E+02  0.8027265E+01  0.8347475E+01
Ar  200  0.5392673E+01  0.1326936E+02  0.8032977E+01  0.3422090E+00
Ar  201  0.5377029E+01  0.1064769E+02  0.1064769E+02  0.7321459E+01
Ar  202  0.8036092E+01  0.1324767E+02  0.1063227E+02  0.7653332E+00
Ar  203  0.8036092E+01  0.1063227E+02  0.1324767E+02  0.7653332E+00
Ar  204  0.5395533E+01  0.1324223E+02  0.1324223E+02  0.2128711E+01
Ar  205  0.5375311E+01  0.1064949E+02  0.1584183E+02  0.2480176E+01
Ar  206  0.8027012E+01  0.1323766E+02  0.1585305E+02  0.2740677E+00
Ar  207  0.8041835E+01  0.1063783E+02  0.1845288E+02  0.1355034E+01
Ar  208  0.5375311E+01  0.1324888E+02  0.1844122E+02  0.2480139E+01
Ar  209  0.5381968E+01  0.1065701E+02  0.2104428E+02  0.1694700E+01
Ar  210  0.8028679E+01  0.1324615E+02  0.2106203E+02  0.3347086E+01
Ar  211  0.8046425E+01  0.1065701E+02  0.2370874E+02  0.1694785E+01
Ar  212  0.5389356E+01  0.1324970E+02  0.2370135E+02  0.5451528E+01
Ar  213  0.5417277E+01  0.1065347E+02  0.2632777E+02  0.6487943E+01
Ar  214  0.8030804E+01  0.1323872E+02  0.2637504E+02  0.1838497E+01
Ar  215  0.8018266E+01  0.1064969E+02  0.2908703E+02  0.3481948E+01
Ar  216  0.5374056E+01  0.1326043E+02  0.2901436E+02  0.3497927E+00
Ar  217  0.5374055E+01  0.1583028E+02  0.7634919E-01  0.3498222E+00
Ar  218  0.8018266E+01  0.1844102E+02  0.3685014E-02  0.3481920E+01
Ar  219  0.8030804E+01  0.1585199E+02  0.2715669E+01  0.1838584E+01
Ar  220  0.5417277E+01  0.1843724E+02  0.2762937E+01  0.6488083E+01
Ar  221  0.5389356E+01  0.1584101E+02  0.5389356E+01  0.5451414E+01
Ar  222  0.8046426E+01  0.1843370E+02  0.5381969E+01  0.1694638E+01
Ar  223  0.8028679E+01  0.1584456E+02  0.8028679E+01  0.3347108E+01
Ar  224  0.5381969E+01  0.1843370E+02  0.8046426E+01  0.1694638E+01
Ar  225  0.5375311E+01  0.1584183E+02  0.1064949E+02  0.2480176E+01
Ar  226  0.8041835E+01  0.1845288E+02  0.1063783E+02  0.1355034E+01
Ar  227  0.8027012E+01  0.1585305E+02  0.1323766E+02  0.2740677E+00
Ar  228  0.5375311E+01  0.1844122E+02  0.1324888E+02  0.2480139E+01
Ar  229  0.5395533E+01  0.1584848E+02  0.1584848E+02  0.2128794E+01
Ar  230  0.8036092E+01  0.1845844E+02  0.1584304E+02  0.7653307E+00
Ar  231  0.8036092E+01  0.1584304E+02  0.1845844E+02  0.7653307E+00
Ar  232  0.5377029E+01  0.1844302E+02  0.1844302E+02  0.7321208E+01
Ar  233  0.5392673E+01  0.1582135E+02  0.2105773E+02  0.3422363E+00
Ar  234  0.8027265E+01  0.1844406E+02  0.2106345E+02  0.8347319E+01
Ar  235  0.8032977E+01  0.1582135E+02  0.2369804E+02  0.3422287E+00
Ar  236  0.5395605E+01  0.1842747E+02  0.2369511E+02  0.4594363E+01
Ar  237  0.5415961E+01  0.1584329E+02  0.2635699E+02  0.2731949E+01
Ar  238  0.8056544E+01  0.1840508E+02  0.2634149E+02  0.4358180E+01
Ar  239  0.8037986E+01  0.1582972E+02  0.2907434E+02  0.4800436E+01
Ar  240  0.5414871E+01  0.1846190E+02  0.2901500E+02  0.7403336E+00
Ar  241  0.5421360E+01  0.2104236E+02  0.9516190E-01  0.4373523E+01
Ar  242  0.8048354E+01  0.2366935E+02  0.9516164E-01  0.4373622E+01
Ar  243  0.8074044E+01  0.2101667E+02  0.2743269E+01  0.5787217E+01
Ar  244  0.5407786E+01  0.2368292E+02  0.2778255E+01  0.1736642E+02
Ar  245  0.5404347E+01  0.2107222E+02  0.5404347E+01  0.1206310E+02
Ar  246  0.8018495E+01  0.2368636E+02  0.5404346E+01  0.1206311E+02
Ar  247  0.8036696E+01  0.2105401E+02  0.8036696E+01  0.3436392E+01
Ar  248  0.5404346E+01  0.2368636E+02  0.8018495E+01  0.1206311E+02
Ar  249  0.5381968E+01  0.2104428E+02  0.1065701E+02  0.1694700E+01
Ar  250  0.8046425E+01  0.2370874E+02  0.1065701E+02  0.1694785E+01
Ar  251  0.8028679E+01  0.2106203E+02  0.1324615E+02  0.3347086E+01
Ar  252  0.5389356E+01  0.2370135E+02  0.1324970E+02  0.5451528E+01
Ar  253  0.5392673E+01  0.2105773E+02  0.1582135E+02  0.3422363E+00
Ar  254  0.8032977E+01  0.2369804E+02  0.1582135E+02  0.3422287E+00
Ar  255  0.8027265E+01  0.2106345E+02  0.1844406E+02  0.8347319E+01
Ar  256  0.5395605E+01  0.2369511E+02  0.1842747E+02  0.4594363E+01
Ar  257  0.5382300E+01  0.2104503E+02  0.2104503E+02  0.1210878E+02
Ar  258  0.8045676E+01  0.2370841E+02  0.2104503E+02  0.1210885E+02
Ar  259  0.8045676E+01  0.2104503E+02  0.2370841E+02  0.1210885E+02
Ar  260  0.5425253E+01  0.2366546E+02  0.2366546E+02  0.2052606E+02
Ar  261  0.5426426E+01  0.2103487E+02  0.2632553E+02  0.4561290E+01
Ar  262  0.8055844E+01  0.2366428E+02  0.2632553E+02  0.4561275E+01
Ar  263  0.8081431E+01  0.2100928E+02  0.2909481E+02  0.9854847E+01
Ar  264  0.5462054E+01  0.2362866E+02  0.2900168E+02  0.1187288E+02
Ar  265  0.5441226E+01  0.2628248E+02  0.1047706E+00  0.9800553E+01
Ar  266  0.8043310E+01  0.2901634E+02  0.7436804E-01  0.5211614E+01
Ar  267  0.8024842E+01  0.2629278E+02  0.2797932E+01  0.8616772E+01
Ar  268  0.5441225E+01  0.2898594E+02  0.2808228E+01  0.9800418E+01
Ar  269  0.5407786E+01  0.2631246E+02  0.5407786E+01  0.1736638E+02
Ar  270  0.8048354E+01  0.2899555E+02  0.5421360E+01  0.4373596E+01
Ar  271  0.8074043E+01  0.2634744E+02  0.8074043E+01  0.5787181E+01
Ar  272  0.5421360E+01  0.2899555E+02  0.8048354E+01  0.4373596E+01
Ar  273  0.5417277E+01  0.2632777E+02  0.1065347E+02  0.6487943E+01
Ar  274  0.8018266E+01  0.2908703E+02  0.1064969E+02  0.3481948E+01
Ar  275  0.8030804E+01  0.2637504E+02  0.1323872E+02  0.1838497E+01
Ar  276  0.5374056E+01  0.2901436E+02  0.1326043E+02  0.3497927E+00
Ar  277  0.5415961E+01  0.2635699E+02  0.1584329E+02  0.2731949E+01
Ar  278  0.8037986E+01  0.2907434E+02  0.1582972E+02  0.4800436E+01
Ar  279  0.8056544E+01  0.2634149E+02  0.1840508E+02  0.4358180E+01
Ar  280  0.5414871E+01  0.2901500E+02  0.1846190E+02  0.7403336E+00
Ar  281  0.5426426E+01  0.2632553E+02  0.2103487E+02  0.4561290E+01
Ar  282  0.8081431E+01  0.2909481E+02  0.2100928E+02  0.9854847E+01
Ar  283  0.8055844E+01  0.2632553E+02  0.2366428E+02  0.4561275E+01
Ar  284  0.5462054E+01  0.2900168E+02  0.2362866E+02  0.1187288E+02
Ar  285  0.5427933E+01  0.2630165E+02  0.2630165E+02  0.1098499E+02
Ar  286  0.8002791E+01  0.2900417E+02  0.2630715E+02  0.1036408E+02
Ar  287  0.8002791E+01  0.2630715E+02  0.2900417E+02  0.1036408E+02
Ar  288  0.5400211E+01  0.2895746E+02  0.2895746E+02  0.5648692E+01
Ar  289  0.1064767E+02  0.9734732E-01  0.9734732E-01  0.7129859E+01
Ar  290  0.1324317E+02  0.2822385E+01  0.9920180E-01  0.9398491E+00
Ar  291  0.1324317E+02  0.9920180E-01  0.2822385E+01  0.9398491E+00
Ar  292  0.1065136E+02  0.2754740E+01  0.2754740E+01  0.3967058E+01
Ar  293  0.1062881E+02  0.7570861E-01  0.5414871E+01  0.7403566E+00
Ar  294  0.1324742E+02  0.2733716E+01  0.5415960E+01  0.2731981E+01
Ar  295  0.1326099E+02  0.1636896E-01  0.8037986E+01  0.4800433E+01
Ar  296  0.1068563E+02  0.2749220E+01  0.8056544E+01  0.4358198E+01
Ar  297  0.1069657E+02  0.7153324E-02  0.1069657E+02  0.4033382E+01
Ar  298  0.1327735E+02  0.2737129E+01  0.1065346E+02  0.2973735E+01
Ar  299  0.1325995E+02  0.5241688E-01  0.1325995E+02  0.3055261E+01
Ar  300  0.1065346E+02  0.2737129E+01  0.1327735E+02  0.2973735E+01
Ar  301  0.1065852E+02  0.3544198E-01  0.1585785E+02  0.1286966E+01
Ar  302  0.1325225E+02  0.2716097E+01  0.1583846E+02  0.3213867E+01
Ar  303  0.1323286E+02  0.3544223E-01  0.1843219E+02  0.1286995E+01
Ar  304  0.1067790E+02  0.2700656E+01  0.1841281E+02  0.2671230E+01
Ar  305  0.1064969E+02  0.3685994E-02  0.2107244E+02  0.3481920E+01
Ar  306  0.1323872E+02  0.2715669E+01  0.2105991E+02  0.1838644E+01
Ar  307  0.1326043E+02  0.7634901E-01  0.2371665E+02  0.3498073E+00
Ar  308  0.1065347E+02  0.2762937E+01  0.2367343E+02  0.6487911E+01
Ar  309  0.1061533E+02  0.5827096E-01  0.2634263E+02  0.3683175E+01
Ar  310  0.1323870E+02  0.2755475E+01  0.2633524E+02  0.1767021E+01
Ar  311  0.1325534E+02  0.7816251E-01  0.2901255E+02  0.1420369E+01
Ar  312  0.1061533E+02  0.2748082E+01  0.2903244E+02  0.3683231E+01
Ar  313  0.1062881E+02  0.5414871E+01  0.7570861E-01  0.7403566E+00
Ar  314  0.1326099E+02  0.8037986E+01  0.1636896E-01  0.4800433E+01
Ar  315  0.1324742E+02  0.5415960E+01  0.2733716E+01  0.2731981E+01
Ar  316  0.1068563E+02  0.8056544E+01  0.2749220E+01  0.4358198E+01
Ar  317  0.1066324E+02  0.5395605E+01  0.5395605E+01  0.4594516E+01
Ar  318  0.1326936E+02  0.8032977E+01  0.5392673E+01  0.3422090E+00
Ar  319  0.1326936E+02  0.5392673E+01  0.8032977E+01  0.3422090E+00
Ar  320  0.1064665E+02  0.8027265E+01  0.8027265E+01  0.8347475E+01
Ar  321  0.1064769E+02  0.5377029E+01  0.1064769E+02  0.7321459E+01
Ar  322  0.1324767E+02  0.8036092E+01  0.1063227E+02  0.7653332E+00
Ar  323  0.1324223E+02  0.5395533E+01  0.1324223E+02  0.2128711E+01
Ar  324  0.1063227E+02  0.8036092E+01  0.1324767E+02  0.7653332E+00
Ar  325  0.1064949E+02  0.5375311E+01  0.1584183E+02  0.2480176E+01
Ar  326  0.1323766E+02  0.8027012E+01  0.1585305E+02  0.2740677E+00
Ar  327  0.1324888E+02  0.5375311E+01  0.1844122E+02  0.2480139E+01
Ar  328  0.1063783E+02  0.8041835E+01  0.1845288E+02  0.1355034E+01
Ar  329  0.1065701E+02  0.5381968E+01  0.2104428E+02  0.1694700E+01
Ar  330  0.1324615E+02  0.8028679E+01  0.2106203E+02  0.3347086E+01
Ar  331  0.1324970E+02  0.5389356E+01  0.2370135E+02  0.5451528E+01
Ar  332  0.1065701E+02  0.8046425E+01  0.2370874E+02  0.1694785E+01
Ar  333  0.1065347E+02  0.5417277E+01  0.2632777E+02  0.6487943E+01
Ar  334  0.1323872E+02  0.8030804E+01  0.2637504E+02  0.1838497E+01
Ar  335  0.1326043E+02  0.5374056E+01  0.2901436E+02  0.3497927E+00
Ar  336  0.1064969E+02  0.8018266E+01  0.2908703E+02  0.3481948E+01
Ar  337  0.1069657E+02  0.1069657E+02  0.7153324E-02  0.4033382E+01
Ar  338  0.1325995E+02  0.1325995E+02  0.5241688E-01  0.3055261E+01
Ar  339  0.1327735E+02  0.1065346E+02  0.2737129E+01  0.2973735E+01
Ar  340  0.1065346E+02  0.1327735E+02  0.2737129E+01  0.2973735E+01
Ar  341  0.1064769E+02  0.1064769E+02  0.5377029E+01  0.7321459E+01
Ar  342  0.1324223E+02  0.1324223E+02  0.5395533E+01  0.2128711E+01
Ar  343  0.1324767E+02  0.1063227E+02  0.8036092E+01  0.7653332E+00
Ar  344  0.1063227E+02  0.1324767E+02  0.8036092E+01  0.7653332E+00
Ar  345  0.1064032E+02  0.1064032E+02  0.1064032E+02  0.8060921E+00
Ar  346  0.1322899E+02  0.1322899E+02  0.1063314E+02  0.4033432E+00
Ar  347  0.1322899E+02  0.1063314E+02  0.1322899E+02  0.4033432E+00
Ar  348  0.1063314E+02  0.1322899E+02  0.1322899E+02  0.4033432E+00
Ar  349  0.1064337E+02  0.1064337E+02  0.1585499E+02  0.8593739E+00
Ar  350  0.1323667E+02  0.1323667E+02  0.1585404E+02  0.3052364E-01
Ar  351  0.1323572E+02  0.1064337E+02  0.1844734E+02  0.8593818E+00
Ar  352  0.1064337E+02  0.1323572E+02  0.1844734E+02  0.8593818E+00
Ar  353  0.1063783E+02  0.1063783E+02  0.2104888E+02  0.1354895E+01
Ar  354  0.1323766E+02  0.1323766E+02  0.2106370E+02  0.2740163E+00
Ar  355  0.1324888E+02  0.1064949E+02  0.2371540E+02  0.2480308E+01
Ar  356  0.1064949E+02  0.1324888E+02  0.2371540E+02  0.2480308E+01
Ar  357  0.1067790E+02  0.1067790E+02  0.2639005E+02  0.2671176E+01
Ar  358  0.1325225E+02  0.1325225E+02  0.2637461E+02  0.3213864E+01
Ar  359  0.1323286E+02  0.1065852E+02  0.2905527E+02  0.1286947E+01
Ar  360  0.1065852E+02  0.1323286E+02  0.2905527E+02  0.1286947E+01
Ar  361  0.1065852E+02  0.1585785E+02  0.3544198E-01  0.1286966E+01
Ar  362  0.1323286E+02  0.1843219E+02  0.3544223E-01  0.1286995E+01
Ar  363  0.1325225E+02  0.1583846E+02  0.2716097E+01  0.3213867E+01
Ar  364  0.1067790E+02  0.1841281E+02  0.2700656E+01  0.2671230E+01
Ar  365  0.1064949E+02  0.1584183E+02  0.5375311E+01  0.2480176E+01
Ar  366  0.1324888E+02  0.1844122E+02  0.5375311E+01  0.2480139E+01
Ar  367  0.1323766E+02  0.1585305E+02  0.8027012E+01  0.2740677E+00
Ar  368  0.1063783E+02  0.1845288E+02  0.8041835E+01  0.1355034E+01
Ar  369  0.1064337E+02  0.1585499E+02  0.1064337E+02  0.8593739E+00
Ar  370  0.1323572E+02  0.1844734E+02  0.1064337E+02  0.8593818E+00
Ar  371  0.1323667E+02  0.1585404E+02  0.1323667E+02  0.3052364E-01
Ar  372  0.1064337E+02  0.1844734E+02  0.1323572E+02  0.8593818E+00
Ar  373  0.1063314E+02  0.1586172E+02  0.1586172E+02  0.4033901E+00
Ar  374  0.1322899E+02  0.1845757E+02  0.1586172E+02  0.4033575E+00
Ar  375  0.1322899E+02  0.1586172E+02  0.1845757E+02  0.4033575E+00
Ar  376  0.1064032E+02  0.1845040E+02  0.1845040E+02  0.8061803E+00
Ar  377  0.1063227E+02  0.1584304E+02  0.2105462E+02  0.7653805E+00
Ar  378  0.1324767E+02  0.1845844E+02  0.2105462E+02  0.7654202E+00
Ar  379  0.1324223E+02  0.1584848E+02  0.2369518E+02  0.2129018E+01
Ar  380  0.1064769E+02  0.1844302E+02  0.2371368E+02  0.7321543E+01
Ar  381  0.1065346E+02  0.1581336E+02  0.2635358E+02  0.2973657E+01
Ar  382  0.1327735E+02  0.1843725E+02  0.2635358E+02  0.2973576E+01
Ar  383  0.1325995E+02  0.1583076E+02  0.2903829E+02  0.3055159E+01
Ar  384  0.1069657E+02  0.1839414E+02  0.2908356E+02  0.4033454E+01
Ar  385  0.1064969E+02  0.2107244E+02  0.3685994E-02  0.3481920E+01
Ar  386  0.1326043E+02  0.2371665E+02  0.7634901E-01  0.3498073E+00
Ar  387  0.1323872E+02  0.2105991E+02  0.2715669E+01  0.1838644E+01
Ar  388  0.1065347E+02  0.2367343E+02  0.2762937E+01  0.6487911E+01
Ar  389  0.1065701E+02  0.2104428E+02  0.5381968E+01  0.1694700E+01
Ar  390  0.1324970E+02  0.2370135E+02  0.5389356E+01  0.5451528E+01
Ar  391  0.1324615E+02  0.2106203E+02  0.8028679E+01  0.3347086E+01
Ar  392  0.1065701E+02  0.2370874E+02  0.8046425E+01  0.1694785E+01
Ar  393  0.1063783E+02  0.2104888E+02  0.1063783E+02  0.1354895E+01
Ar  394  0.1324888E+02  0.2371540E+02  0.1064949E+02  0.2480308E+01
Ar  395  0.1323766E+02  0.2106370E+02  0.1323766E+02  0.2740163E+00
Ar  396  0.1064949E+02  0.2371540E+02  0.1324888E+02  0.2480308E+01
Ar  397  0.1063227E+02  0.2105462E+02  0.1584304E+02  0.7653805E+00
Ar  398  0.1324223E+02  0.2369518E+02  0.1584848E+02  0.2129018E+01
Ar  399  0.1324767E+02  0.2105462E+02  0.1845844E+02  0.7654202E+00
Ar  400  0.1064769E+02  0.2371368E+02  0.1844302E+02  0.7321543E+01
Ar  401  0.1064665E+02  0.2106345E+02  0.2106345E+02  0.8347132E+01
Ar  402  0.1326936E+02  0.2369804E+02  0.2105773E+02  0.3422330E+00
Ar  403  0.1326936E+02  0.2105773E+02  0.2369804E+02  0.3422330E+00
Ar  404  0.1066325E+02  0.2369511E+02  0.2369511E+02  0.4594453E+01
Ar  405  0.1068563E+02  0.2103417E+02  0.2634149E+02  0.4358126E+01
Ar  406  0.1324742E+02  0.2367475E+02  0.2635699E+02  0.2731987E+01
Ar  407  0.1326099E+02  0.2105272E+02  0.2907434E+02  0.4800362E+01
Ar  408  0.1062881E+02  0.2367584E+02  0.2901500E+02  0.7403554E+00
Ar  409  0.1061533E+02  0.2634263E+02  0.5827096E-01  0.3683175E+01
Ar  410  0.1325534E+02  0.2901255E+02  0.7816251E-01  0.1420369E+01
Ar  411  0.1323870E+02  0.2633524E+02  0.2755475E+01  0.1767021E+01
Ar  412  0.1061533E+02  0.2903244E+02  0.2748082E+01  0.3683231E+01
Ar  413  0.1065347E+02  0.2632777E+02  0.5417277E+01  0.6487943E+01
Ar  414  0.1326043E+02  0.2901436E+02  0.5374056E+01  0.3497927E+00
Ar  415  0.1323872E+02  0.2637504E+02  0.8030804E+01  0.1838497E+01
Ar  416  0.1064969E+02  0.2908703E+02  0.8018266E+01  0.3481948E+01
Ar  417  0.1067790E+02  0.2639005E+02  0.1067790E+02  0.2671176E+01
Ar  418  0.1323286E+02  0.2905527E+02  0.1065852E+02  0.1286947E+01
Ar  419  0.1325225E+02  0.2637461E+02  0.1325225E+02  0.3213864E+01
Ar  420  0.1065852E+02  0.2905527E+02  0.1323286E+02  0.1286947E+01
Ar  421  0.1065346E+02  0.2635358E+02  0.1581336E+02  0.2973657E+01
Ar  422  0.1325995E+02  0.2903829E+02  0.1583076E+02  0.3055159E+01
Ar  423  0.1327735E+02  0.2635358E+02  0.1843725E+02  0.2973576E+01
Ar  424  0.1069657E+02  0.2908356E+02  0.1839414E+02  0.4033454E+01
Ar  425  0.1068563E+02  0.2634149E+02  0.2103417E+02  0.4358126E+01
Ar  426  0.1326099E+02  0.2907434E+02  0.2105272E+02  0.4800362E+01
Ar  427  0.1324742E+02  0.2635699E+02  0.2367475E+02  0.2731987E+01
Ar  428  0.1062881E+02  0.2901500E+02  0.2367584E+02  0.7403554E+00
Ar  429  0.1065136E+02  0.2633597E+02  0.2633597E+02  0.3967003E+01
Ar  430  0.1324317E+02  0.2899151E+02  0.2626832E+02  0.9398744E+00
Ar  431  0.1324317E+02  0.2626832E+02  0.2899151E+02  0.9398744E+00
Ar  432  0.1064767E+02  0.2899336E+02  0.2899336E+02  0.7129729E+01
Ar  433  0.1583537E+02  0.7816286E-01  0.7816286E-01  0.1420361E+01
Ar  434  0.1847538E+02  0.2748082E+01  0.5827031E-01  0.3683181E+01
Ar  435  0.1847538E+02  0.5827031E-01  0.2748082E+01  0.3683181E+01
Ar  436  0.1585201E+02  0.2755475E+01  0.2755475E+01  0.1767051E+01
Ar  437  0.1583028E+02  0.7634919E-01  0.5374055E+01  0.3498222E+00
Ar  438  0.1843724E+02  0.2762937E+01  0.5417277E+01  0.6488083E+01
Ar  439  0.1844102E+02  0.3685014E-02  0.8018266E+01  0.3481920E+01
Ar  440  0.1585199E+02  0.2715669E+01  0.8030804E+01  0.1838584E+01
Ar  441  0.1585785E+02  0.3544198E-01  0.1065852E+02  0.1286966E+01
Ar  442  0.1841281E+02  0.2700656E+01  0.1067790E+02  0.2671230E+01
Ar  443  0.1843219E+02  0.3544223E-01  0.1323286E+02  0.1286995E+01
Ar  444  0.1583846E+02  0.2716097E+01  0.1325225E+02  0.3213867E+01
Ar  445  0.1583076E+02  0.5241668E-01  0.1583076E+02  0.3055251E+01
Ar  446  0.1843725E+02  0.2737129E+01  0.1581336E+02  0.2973650E+01
Ar  447  0.1839414E+02  0.7152662E-02  0.1839414E+02  0.4033369E+01
Ar  448  0.1581336E+02  0.2737129E+01  0.1843725E+02  0.2973650E+01
Ar  449  0.1582972E+02  0.1636890E-01  0.2105272E+02  0.4800381E+01
Ar  450  0.1840508E+02  0.2749220E+01  0.2103417E+02  0.4358218E+01
Ar  451  0.1846190E+02  0.7570834E-01  0.2367584E+02  0.7403376E+00
Ar  452  0.1584329E+02  0.2733715E+01  0.2367475E+02  0.2731963E+01
Ar  453  0.1584754E+02  0.9920179E-01  0.2626832E+02  0.9398429E+00
Ar  454  0.1843935E+02  0.2754740E+01  0.2633597E+02  0.3967101E+01
Ar  455  0.1844304E+02  0.9734771E-01  0.2899336E+02  0.7129839E+01
Ar  456  0.1584754E+02  0.2822386E+01  0.2899151E+02  0.9398420E+00
Ar  457  0.1583028E+02  0.5374055E+01  0.7634919E-01  0.3498222E+00
Ar  458  0.1844102E+02  0.8018266E+01  0.3685014E-02  0.3481920E+01
Ar  459  0.1843724E+02  0.5417277E+01  0.2762937E+01  0.6488083E+01
Ar  460  0.1585199E+02  0.8030804E+01  0.2715669E+01  0.1838584E+01
Ar  461  0.1584101E+02  0.5389356E+01  0.5389356E+01  0.5451414E+01
Ar  462  0.1843370E+02  0.8046426E+01  0.5381969E+01  0.1694638E+01
Ar  463  0.1843370E+02  0.5381969E+01  0.8046426E+01  0.1694638E+01
Ar  464  0.1584456E+02  0.8028679E+01  0.8028679E+01  0.3347108E+01
Ar  465  0.1584183E+02  0.5375311E+01  0.1064949E+02  0.2480176E+01
Ar  466  0.1845288E+02  0.8041835E+01  0.1063783E+02  0.1355034E+01
Ar  467  0.1844122E+02  0.5375311E+01  0.1324888E+02  0.2480139E+01
Ar  468  0.1585305E+02  0.8027012E+01  0.1323766E+02  0.2740677E+00
Ar  469  0.1584848E+02  0.5395533E+01  0.1584848E+02  0.2128794E+01
Ar  470  0.1845844E+02  0.8036092E+01  0.1584304E+02  0.7653307E+00
Ar  471  0.1844302E+02  0.5377029E+01  0.1844302E+02  0.7321208E+01
Ar  472  0.1584304E+02  0.8036092E+01  0.1845844E+02  0.7653307E+00
Ar  473  0.1582135E+02  0.5392673E+01  0.2105773E+02  0.3422363E+00
Ar  474  0.1844406E+02  0.8027265E+01  0.2106345E+02  0.8347319E+01
Ar  475  0.1842747E+02  0.5395605E+01  0.2369511E+02  0.4594363E+01
Ar  476  0.1582135E+02  0.8032977E+01  0.2369804E+02  0.3422287E+00
Ar  477  0.1584329E+02  0.5415961E+01  0.2635699E+02  0.2731949E+01
Ar  478  0.1840508E+02  0.8056544E+01  0.2634149E+02  0.4358180E+01
Ar  479  0.1846190E+02  0.5414871E+01  0.2901500E+02  0.7403336E+00
Ar  480  0.1582972E+02  0.8037986E+01  0.2907434E+02  0.4800436E+01
Ar  481  0.1585785E+02  0.1065852E+02  0.3544198E-01  0.1286966E+01
Ar  482  0.1843219E+02  0.1323286E+02  0.3544223E-01  0.1286995E+01
Ar  483  0.1841281E+02  0.1067790E+02  0.2700656E+01  0.2671230E+01
Ar  484  0.1583846E+02  0.1325225E+02  0.2716097E+01  0.3213867E+01
Ar  485  0.1584183E+02  0.1064949E+02  0.5375311E+01  0.2480176E+01
Ar  486  0.1844122E+02  0.1324888E+02  0.5375311E+01  0.2480139E+01
Ar  487  0.1845288E+02  0.1063783E+02  0.8041835E+01  0.1355034E+01
Ar  488  0.1585305E+02  0.1323766E+02  0.8027012E+01  0.2740677E+00
Ar  489  0.1585499E+02  0.1064337E+02  0.1064337E+02  0.8593739E+00
Ar  490  0.1844734E+02  0.1323572E+02  0.1064337E+02  0.8593818E+00
Ar  491  0.1844734E+02  0.1064337E+02  0.1323572E+02  0.8593818E+00
Ar  492  0.1585404E+02  0.1323667E+02  0.1323667E+02  0.3052364E-01
Ar  493  0.1586172E+02  0.1063314E+02  0.1586172E+02  0.4033901E+00
Ar  494  0.1845757E+02  0.1322899E+02  0.1586172E+02  0.4033575E+00
Ar  495  0.1845040E+02  0.1064032E+02  0.1845040E+02  0.8061803E+00
Ar  496  0.1586172E+02  0.1322899E+02  0.1845757E+02  0.4033575E+00
Ar  497  0.1584304E+02  0.1063227E+02  0.2105462E+02  0.7653805E+00
Ar  498  0.1845844E+02  0.1324767E+02  0.2105462E+02  0.7654202E+00
Ar  499  0.1844302E+02  0.1064769E+02  0.2371368E+02  0.7321543E+01
Ar  500  0.1584848E+02  0.1324223E+02  0.2369518E+02  0.2129018E+01
Ar  501  0.1581336E+02  0.1065346E+02  0.2635358E+02  0.2973657E+01
Ar  502  0.1843725E+02  0.1327735E+02  0.2635358E+02  0.2973576E+01
Ar  503  0.1839414E+02  0.1069657E+02  0.2908356E+02  0.4033454E+01
Ar  504  0.1583076E+02  0.1325995E+02  0.2903829E+02  0.3055159E+01
Ar  505  0.1583076E+02  0.1583076E+02  0.5241668E-01  0.3055251E+01
Ar  506  0.1839414E+02  0.1839414E+02  0.7152662E-02  0.4033369E+01
Ar  507  0.1843725E+02  0.1581336E+02  0.2737129E+01  0.2973650E+01
Ar  508  0.1581336E+02  0.1843725E+02  0.2737129E+01  0.2973650E+01
Ar  509  0.1584848E+02  0.1584848E+02  0.5395533E+01  0.2128794E+01
Ar  510  0.1844302E+02  0.1844302E+02  0.5377029E+01  0.7321208E+01
Ar  511  0.1845844E+02  0.1584304E+02  0.8036092E+01  0.7653307E+00
Ar  512  0.1584304E+02  0.1845844E+02  0.8036092E+01  0.7653307E+00
Ar  513  0.1586172E+02  0.1586172E+02  0.1063314E+02  0.4033901E+00
Ar  514  0.1845040E+02  0.1845040E+02  0.1064032E+02  0.8061803E+00
Ar  515  0.1845757E+02  0.1586172E+02  0.1322899E+02  0.4033575E+00
Ar  516  0.1586172E+02  0.1845757E+02  0.1322899E+02  0.4033575E+00
Ar  517  0.1585404E+02  0.1585404E+02  0.1585404E+02  0.3053582E-01
Ar  518  0.1844734E+02  0.1844734E+02  0.1585499E+02  0.8594519E+00
Ar  519  0.1844734E+02  0.1585499E+02  0.1844734E+02  0.8594519E+00
Ar  520  0.1585499E+02  0.1844734E+02  0.1844734E+02  0.8594519E+00
Ar  521  0.1585305E+02  0.1585305E+02  0.2106370E+02  0.2740291E+00
Ar  522  0.1845288E+02  0.1845288E+02  0.2104887E+02  0.1354953E+01
Ar  523  0.1844122E+02  0.1584183E+02  0.2371540E+02  0.2480333E+01
Ar  524  0.1584183E+02  0.1844122E+02  0.2371540E+02  0.2480333E+01
Ar  525  0.1583846E+02  0.1583846E+02  0.2637461E+02  0.3213906E+01
Ar  526  0.1841281E+02  0.1841281E+02  0.2639005E+02  0.2671090E+01
Ar  527  0.1843219E+02  0.1585785E+02  0.2905527E+02  0.1286951E+01
Ar  528  0.1585785E+02  0.1843219E+02  0.2905527E+02  0.1286951E+01
Ar  529  0.1582972E+02  0.2105272E+02  0.1636890E-01  0.4800381E+01
Ar  530  0.1846190E+02  0.2367584E+02  0.7570834E-01  0.7403376E+00
Ar  531  0.1840508E+02  0.2103417E+02  0.2749220E+01  0.4358218E+01
Ar  532  0.1584329E+02  0.2367475E+02  0.2733715E+01  0.2731963E+01
Ar  533  0.1582135E+02  0.2105773E+02  0.5392673E+01  0.3422363E+00
Ar  534  0.1842747E+02  0.2369511E+02  0.5395605E+01  0.4594363E+01
Ar  535  0.1844406E+02  0.2106345E+02  0.8027265E+01  0.8347319E+01
Ar  536  0.1582135E+02  0.2369804E+02  0.8032977E+01  0.3422287E+00
Ar  537  0.1584304E+02  0.2105462E+02  0.1063227E+02  0.7653805E+00
Ar  538  0.1844302E+02  0.2371368E+02  0.1064769E+02  0.7321543E+01
Ar  539  0.1845844E+02  0.2105462E+02  0.1324767E+02  0.7654202E+00
Ar  540  0.1584848E+02  0.2369518E+02  0.1324223E+02  0.2129018E+01
Ar  541  0.1585305E+02  0.2106370E+02  0.1585305E+02  0.2740291E+00
Ar  542  0.1844122E+02  0.2371540E+02  0.1584183E+02  0.2480333E+01
Ar  543  0.1845288E+02  0.2104887E+02  0.1845288E+02  0.1354953E+01
Ar  544  0.1584183E+02  0.2371540E+02  0.1844122E+02  0.2480333E+01
Ar  545  0.1584456E+02  0.2106203E+02  0.2106203E+02  0.3347066E+01
Ar  546  0.1843370E+02  0.2370874E+02  0.2104428E+02  0.1694767E+01
Ar  547  0.1843370E+02  0.2104428E+02  0.2370874E+02  0.1694767E+01
Ar  548  0.1584101E+02  0.2370135E+02  0.2370135E+02  0.5451547E+01
Ar  549  0.1585199E+02  0.2105991E+02  0.2637504E+02  0.1838535E+01
Ar  550  0.1843724E+02  0.2367343E+02  0.2632777E+02  0.6488013E+01
Ar  551  0.1844102E+02  0.2107244E+02  0.2908702E+02  0.3481883E+01
Ar  552  0.1583028E+02  0.2371665E+02  0.2901436E+02  0.3498026E+00
Ar  553  0.1584754E+02  0.2626832E+02  0.9920179E-01  0.9398429E+00
Ar  554  0.1844304E+02  0.2899336E+02  0.9734771E-01  0.7129839E+01
Ar  555  0.1843935E+02  0.2633597E+02  0.2754740E+01  0.3967101E+01
Ar  556  0.1584754E+02  0.2899151E+02  0.2822386E+01  0.9398420E+00
Ar  557  0.1584329E+02  0.2635699E+02  0.5415961E+01  0.2731949E+01
Ar  558  0.1846190E+02  0.2901500E+02  0.5414871E+01  0.7403336E+00
Ar  559  0.1840508E+02  0.2634149E+02  0.8056544E+01  0.4358180E+01
Ar  560  0.1582972E+02  0.2907434E+02  0.8037986E+01  0.4800436E+01
Ar  561  0.1581336E+02  0.2635358E+02  0.1065346E+02  0.2973657E+01
Ar  562  0.1839414E+02  0.2908356E+02  0.1069657E+02  0.4033454E+01
Ar  563  0.1843725E+02  0.2635358E+02  0.1327735E+02  0.2973576E+01
Ar  564  0.1583076E+02  0.2903829E+02  0.1325995E+02  0.3055159E+01
Ar  565  0.1583846E+02  0.2637461E+02  0.1583846E+02  0.3213906E+01
Ar  566  0.1843219E+02  0.2905527E+02  0.1585785E+02  0.1286951E+01
Ar  567  0.1841281E+02  0.2639005E+02  0.1841281E+02  0.2671090E+01
Ar  568  0.1585785E+02  0.2905527E+02  0.1843219E+02  0.1286951E+01
Ar  569  0.1585199E+02  0.2637504E+02  0.2105991E+02  0.1838535E+01
Ar  570  0.1844102E+02  0.2908702E+02  0.2107244E+02  0.3481883E+01
Ar  571  0.1843724E+02  0.2632777E+02  0.2367343E+02  0.6488013E+01
Ar  572  0.1583028E+02  0.2901436E+02  0.2371665E+02  0.3498026E+00
Ar  573  0.1585201E+02  0.2633524E+02  0.2633524E+02  0.1766904E+01
Ar  574  0.1847538E+02  0.2903244E+02  0.2634263E+02  0.3683149E+01
Ar  575  0.1847538E+02  0.2634263E+02  0.2903244E+02  0.3683149E+01
Ar  576  0.1583537E+02  0.2901255E+02  0.2901255E+02  0.1420391E+01
Ar  577  0.2104740E+02  0.7436877E-01  0.7436877E-01  0.5211656E+01
Ar  578  0.2364949E+02  0.2808227E+01  0.1047708E+00  0.9800602E+01
Ar  579  0.2364949E+02  0.1047708E+00  0.2808227E+01  0.9800602E+01
Ar  580  0.2106587E+02  0.2797932E+01  0.2797932E+01  0.8616757E+01
Ar  581  0.2104236E+02  0.9516190E-01  0.5421360E+01  0.4373523E+01
Ar  582  0.2368292E+02  0.2778255E+01  0.5407786E+01  0.1736642E+02
Ar  583  0.2366935E+02  0.9516164E-01  0.8048354E+01  0.4373622E+01
Ar  584  0.2101667E+02  0.2743269E+01  0.8074044E+01  0.5787217E+01
Ar  585  0.2107244E+02  0.3685994E-02  0.1064969E+02  0.3481920E+01
Ar  586  0.2367343E+02  0.2762937E+01  0.1065347E+02  0.6487911E+01
Ar  587  0.2371665E+02  0.7634901E-01  0.1326043E+02  0.3498073E+00
Ar  588  0.2105991E+02  0.2715669E+01  0.1323872E+02  0.1838644E+01
Ar  589  0.2105272E+02  0.1636890E-01  0.1582972E+02  0.4800381E+01
Ar  590  0.2367475E+02  0.2733715E+01  0.1584329E+02  0.2731963E+01
Ar  591  0.2367584E+02  0.7570834E-01  0.1846190E+02  0.7403376E+00
Ar  592  0.2103417E+02  0.2749220E+01  0.1840508E+02  0.4358218E+01
Ar  593  0.2100928E+02 -0.4099632E-02  0.2100928E+02  0.9854703E+01
Ar  594  0.2366429E+02  0.2765184E+01  0.2103487E+02  0.4561396E+01
Ar  595  0.2362866E+02  0.8902907E-01  0.2362866E+02  0.1187300E+02
Ar  596  0.2103487E+02  0.2765184E+01  0.2366429E+02  0.4561396E+01
Ar  597  0.2108792E+02  0.8653897E-01  0.2630715E+02  0.1036408E+02
Ar  598  0.2366278E+02  0.2789055E+01  0.2630165E+02  0.1098477E+02
Ar  599  0.2369050E+02  0.1332540E+00  0.2895746E+02  0.5648682E+01
Ar  600  0.2108792E+02  0.2783560E+01  0.2900417E+02  0.1036411E+02
Ar  601  0.2104236E+02  0.5421360E+01  0.9516190E-01  0.4373523E+01
Ar  602  0.2366935E+02  0.8048354E+01  0.9516164E-01  0.4373622E+01
Ar  603  0.2368292E+02  0.5407786E+01  0.2778255E+01  0.1736642E+02
Ar  604  0.2101667E+02  0.8074044E+01  0.2743269E+01  0.5787217E+01
Ar  605  0.2107222E+02  0.5404347E+01  0.5404347E+01  0.1206310E+02
Ar  606  0.2368636E+02  0.8018495E+01  0.5404346E+01  0.1206311E+02
Ar  607  0.2368636E+02  0.5404346E+01  0.8018495E+01  0.1206311E+02
Ar  608  0.2105401E+02  0.8036696E+01  0.8036696E+01  0.3436392E+01
Ar  609  0.2104428E+02  0.5381968E+01  0.1065701E+02  0.1694700E+01
Ar  610  0.2370874E+02  0.8046425E+01  0.1065701E+02  0.1694785E+01
Ar  611  0.2370135E+02  0.5389356E+01  0.1324970E+02  0.5451528E+01
Ar  612  0.2106203E+02  0.8028679E+01  0.1324615E+02  0.3347086E+01
Ar  613  0.2105773E+02  0.5392673E+01  0.1582135E+02  0.3422363E+00
Ar  614  0.2369804E+02  0.8032977E+01  0.1582135E+02  0.3422287E+00
Ar  615  0.2369511E+02  0.5395605E+01  0.1842747E+02  0.4594363E+01
Ar  616  0.2106345E+02  0.8027265E+01  0.1844406E+02  0.8347319E+01
Ar  617  0.2104503E+02  0.5382300E+01  0.2104503E+02  0.1210878E+02
Ar  618  0.2370841E+02  0.8045676E+01  0.2104503E+02  0.1210885E+02
Ar  619  0.2366546E+02  0.5425253E+01  0.2366546E+02  0.2052606E+02
Ar  620  0.2104503E+02  0.8045676E+01  0.2370841E+02  0.1210885E+02
Ar  621  0.2103487E+02  0.5426426E+01  0.2632553E+02  0.4561290E+01
Ar  622  0.2366428E+02  0.8055844E+01  0.2632553E+02  0.4561275E+01
Ar  623  0.2362866E+02  0.5462054E+01  0.2900168E+02  0.1187288E+02
Ar  624  0.2100928E+02  0.8081431E+01  0.2909481E+02  0.9854847E+01
Ar  625  0.2107244E+02  0.1064969E+02  0.3685994E-02  0.3481920E+01
Ar  626  0.2371665E+02  0.1326043E+02  0.7634901E-01  0.3498073E+00
Ar  627  0.2367343E+02  0.1065347E+02  0.2762937E+01  0.6487911E+01
Ar  628  0.2105991E+02  0.1323872E+02  0.2715669E+01  0.1838644E+01
Ar  629  0.2104428E+02  0.1065701E+02  0.5381968E+01  0.1694700E+01
Ar  630  0.2370135E+02  0.1324970E+02  0.5389356E+01  0.5451528E+01
Ar  631  0.2370874E+02  0.1065701E+02  0.8046425E+01  0.1694785E+01
Ar  632  0.2106203E+02  0.1324615E+02  0.8028679E+01  0.3347086E+01
Ar  633  0.2104888E+02  0.1063783E+02  0.1063783E+02  0.1354895E+01
Ar  634  0.2371540E+02  0.1324888E+02  0.1064949E+02  0.2480308E+01
Ar  635  0.2371540E+02  0.1064949E+02  0.1324888E+02  0.2480308E+01
Ar  636  0.2106370E+02  0.1323766E+02  0.1323766E+02  0.2740163E+00
Ar  637  0.2105462E+02  0.1063227E+02  0.1584304E+02  0.7653805E+00
Ar  638  0.2369518E+02  0.1324223E+02  0.1584848E+02  0.2129018E+01
Ar  639  0.2371368E+02  0.1064769E+02  0.1844302E+02  0.7321543E+01
Ar  640  0.2105462E+02  0.1324767E+02  0.1845844E+02  0.7654202E+00
Ar  641  0.2106345E+02  0.1064665E+02  0.2106345E+02  0.8347132E+01
Ar  642  0.2369804E+02  0.1326936E+02  0.2105773E+02  0.3422330E+00
Ar  643  0.2369511E+02  0.1066325E+02  0.2369511E+02  0.4594453E+01
Ar  644  0.2105773E+02  0.1326936E+02  0.2369804E+02  0.3422330E+00
Ar  645  0.2103417E+02  0.1068563E+02  0.2634149E+02  0.4358126E+01
Ar  646  0.2367475E+02  0.1324742E+02  0.2635699E+02  0.2731987E+01
Ar  647  0.2367584E+02  0.1062881E+02  0.2901500E+02  0.7403554E+00
Ar  648  0.2105272E+02  0.1326099E+02  0.2907434E+02  0.4800362E+01
Ar  649  0.2105272E+02  0.1582972E+02  0.1636890E-01  0.4800381E+01
Ar  650  0.2367584E+02  0.1846190E+02  0.7570834E-01  0.7403376E+00
Ar  651  0.2367475E+02  0.1584329E+02  0.2733715E+01  0.2731963E+01
Ar  652  0.2103417E+02  0.1840508E+02  0.2749220E+01  0.4358218E+01
Ar  653  0.2105773E+02  0.1582135E+02  0.5392673E+01  0.3422363E+00
Ar  654  0.2369511E+02  0.1842747E+02  0.5395605E+01  0.4594363E+01
Ar  655  0.2369804E+02  0.1582135E+02  0.8032977E+01  0.3422287E+00
Ar  656  0.2106345E+02  0.1844406E+02  0.8027265E+01  0.8347319E+01
Ar  657  0.2105462E+02  0.1584304E+02  0.1063227E+02  0.7653805E+00
Ar  658  0.2371368E+02  0.1844302E+02  0.1064769E+02  0.7321543E+01
Ar  659  0.2369518E+02  0.1584848E+02  0.1324223E+02  0.2129018E+01
Ar  660  0.2105462E+02  0.1845844E+02  0.1324767E+02  0.7654202E+00
Ar  661  0.2106370E+02  0.1585305E+02  0.1585305E+02  0.2740291E+00
Ar  662  0.2371540E+02  0.1844122E+02  0.1584183E+02  0.2480333E+01
Ar  663  0.2371540E+02  0.1584183E+02  0.1844122E+02  0.2480333E+01
Ar  664  0.2104887E+02  0.1845288E+02  0.1845288E+02  0.1354953E+01
Ar  665  0.2106203E+02  0.1584456E+02  0.2106203E+02  0.3347066E+01
Ar  666  0.2370874E+02  0.1843370E+02  0.2104428E+02  0.1694767E+01
Ar  667  0.2370135E+02  0.1584101E+02  0.2370135E+02  0.5451547E+01
Ar  668  0.2104428E+02  0.1843370E+02  0.2370874E+02  0.1694767E+01
Ar  669  0.2105991E+02  0.1585199E+02  0.2637504E+02  0.1838535E+01
Ar  670  0.2367343E+02  0.1843724E+02  0.2632777E+02  0.6488013E+01
Ar  671  0.2371665E+02  0.1583028E+02  0.2901436E+02  0.3498026E+00
Ar  672  0.2107244E+02  0.1844102E+02  0.2908702E+02  0.3481883E+01
Ar  673  0.2100928E+02  0.2100928E+02 -0.4099632E-02  0.9854703E+01
Ar  674  0.2362866E+02  0.2362866E+02  0.8902907E-01  0.1187300E+02
Ar  675  0.2366429E+02  0.2103487E+02  0.2765184E+01  0.4561396E+01
Ar  676  0.2103487E+02  0.2366429E+02  0.2765184E+01  0.4561396E+01
Ar  677  0.2104503E+02  0.2104503E+02  0.5382300E+01  0.1210878E+02
Ar  678  0.2366546E+02  0.2366546E+02  0.5425253E+01  0.2052606E+02
Ar  679  0.2370841E+02  0.2104503E+02  0.8045676E+01  0.1210885E+02
Ar  680  0.2104503E+02  0.2370841E+02  0.8045676E+01  0.1210885E+02
Ar  681  0.2106345E+02  0.2106345E+02  0.1064665E+02  0.8347132E+01
Ar  682  0.2369511E+02  0.2369511E+02  0.1066325E+02  0.4594453E+01
Ar  683  0.2369804E+02  0.2105773E+02  0.1326936E+02  0.3422330E+00
Ar  684  0.2105773E+02  0.2369804E+02  0.1326936E+02  0.3422330E+00
Ar  685  0.2106203E+02  0.2106203E+02  0.1584456E+02  0.3347066E+01
Ar  686  0.2370135E+02  0.2370135E+02  0.1584101E+02  0.5451547E+01
Ar  687  0.2370874E+02  0.2104428E+02  0.1843370E+02  0.1694767E+01
Ar  688  0.2104428E+02  0.2370874E+02  0.1843370E+02  0.1694767E+01
Ar  689  0.2105401E+02  0.2105401E+02  0.2105401E+02  0.3436411E+01
Ar  690  0.2368636E+02  0.2368636E+02  0.2107221E+02  0.1206319E+02
Ar  691  0.2368636E+02  0.2107221E+02  0.2368636E+02  0.1206319E+02
Ar  692  0.2107221E+02  0.2368636E+02  0.2368636E+02  0.1206319E+02
Ar  693  0.2101667E+02  0.2101667E+02  0.2634744E+02  0.5787104E+01
Ar  694  0.2368292E+02  0.2368292E+02  0.2631245E+02  0.1736637E+02
Ar  695  0.2366935E+02  0.2104236E+02  0.2899555E+02  0.4373563E+01
Ar  696  0.2104236E+02  0.2366935E+02  0.2899555E+02  0.4373563E+01
Ar  697  0.2108792E+02  0.2630715E+02  0.8653897E-01  0.1036408E+02
Ar  698  0.2369050E+02  0.2895746E+02  0.1332540E+00  0.5648682E+01
Ar  699  0.2366278E+02  0.2630165E+02  0.2789055E+01  0.1098477E+02
Ar  700  0.2108792E+02  0.2900417E+02  0.2783560E+01  0.1036411E+02
Ar  701  0.2103487E+02  0.2632553E+02  0.5426426E+01  0.4561290E+01
Ar  702  0.2362866E+02  0.2900168E+02  0.5462054E+01  0.1187288E+02
Ar  703  0.2366428E+02  0.2632553E+02  0.8055844E+01  0.4561275E+01
Ar  704  0.2100928E+02  0.2909481E+02  0.8081431E+01  0.9854847E+01
Ar  705  0.2103417E+02  0.2634149E+02  0.1068563E+02  0.4358126E+01
Ar  706  0.2367584E+02  0.2901500E+02  0.1062881E+02  0.7403554E+00
Ar  707  0.2367475E+02  0.2635699E+02  0.1324742E+02  0.2731987E+01
Ar  708  0.2105272E+02  0.2907434E+02  0.1326099E+02  0.4800362E+01
Ar  709  0.2105991E+02  0.2637504E+02  0.1585199E+02  0.1838535E+01
Ar  710  0.2371665E+02  0.2901436E+02  0.1583028E+02  0.3498026E+00
Ar  711  0.2367343E+02  0.2632777E+02  0.1843724E+02  0.6488013E+01
Ar  712  0.2107244E+02  0.2908702E+02  0.1844102E+02  0.3481883E+01
Ar  713  0.2101667E+02  0.2634744E+02  0.2101667E+02  0.5787104E+01
Ar  714  0.2366935E+02  0.2899555E+02  0.2104236E+02  0.4373563E+01
Ar  715  0.2368292E+02  0.2631245E+02  0.2368292E+02  0.1736637E+02
Ar  716  0.2104236E+02  0.2899555E+02  0.2366935E+02  0.4373563E+01
Ar  717  0.2106587E+02  0.2629278E+02  0.2629278E+02  0.8616711E+01
Ar  718  0.2364949E+02  0.2898594E+02  0.2628248E+02  0.9800529E+01
Ar  719  0.2364949E+02  0.2628248E+02  0.2898594E+02  0.9800529E+01
Ar  720  0.2104740E+02  0.2901634E+02  0.2901634E+02  0.5211611E+01
Ar  721  0.2622368E+02  0.1264022E+00  0.1264022E+00  0.1573546E+02
Ar  722  0.2896431E+02  0.2867035E+01  0.1264023E+00  0.1573539E+02
Ar  723  0.2896431E+02  0.1264023E+00  0.2867035E+01  0.1573539E+02
Ar  724  0.2632914E+02  0.2761565E+01  0.2761565E+01  0.1657537E+02
Ar  725  0.2628248E+02  0.1047706E+00  0.5441226E+01  0.9800553E+01
Ar  726  0.2898594E+02  0.2808228E+01  0.5441225E+01  0.9800418E+01
Ar  727  0.2901634E+02  0.7436804E-01  0.8043310E+01  0.5211614E+01
Ar  728  0.2629278E+02  0.2797932E+01  0.8024842E+01  0.8616772E+01
Ar  729  0.2634263E+02  0.5827096E-01  0.1061533E+02  0.3683175E+01
Ar  730  0.2903244E+02  0.2748082E+01  0.1061533E+02  0.3683231E+01
Ar  731  0.2901255E+02  0.7816251E-01  0.1325534E+02  0.1420369E+01
Ar  732  0.2633524E+02  0.2755475E+01  0.1323870E+02  0.1767021E+01
Ar  733  0.2626832E+02  0.9920179E-01  0.1584754E+02  0.9398429E+00
Ar  734  0.2899151E+02  0.2822386E+01  0.1584754E+02  0.9398420E+00
Ar  735  0.2899336E+02  0.9734771E-01  0.1844304E+02  0.7129839E+01
Ar  736  0.2633597E+02  0.2754740E+01  0.1843935E+02  0.3967101E+01
Ar  737  0.2630715E+02  0.8653897E-01  0.2108792E+02  0.1036408E+02
Ar  738  0.2900417E+02  0.2783560E+01  0.2108792E+02  0.1036411E+02
Ar  739  0.2895746E+02  0.1332540E+00  0.2369050E+02  0.5648682E+01
Ar  740  0.2630165E+02  0.2789055E+01  0.2366278E+02  0.1098477E+02
Ar  741  0.2623269E+02  0.1139958E+00  0.2623269E+02  0.1335817E+02
Ar  742  0.2897671E+02  0.2858022E+01  0.2623269E+02  0.1335828E+02
Ar  743  0.2889056E+02  0.2001527E+00  0.2889056E+02  0.1658650E+02
Ar  744  0.2623269E+02  0.2858022E+01  0.2897671E+02  0.1335828E+02
Ar  745  0.2628248E+02  0.5441226E+01  0.1047706E+00  0.9800553E+01
Ar  746  0.2901634E+02  0.8043310E+01  0.7436804E-01  0.5211614E+01
Ar  747  0.2898594E+02  0.5441225E+01  0.2808228E+01  0.9800418E+01
Ar  748  0.2629278E+02  0.8024842E+01  0.2797932E+01  0.8616772E+01
Ar  749  0.2631246E+02  0.5407786E+01  0.5407786E+01  0.1736638E+02
Ar  750  0.2899555E+02  0.8048354E+01  0.5421360E+01  0.4373596E+01
Ar  751  0.2899555E+02  0.5421360E+01  0.8048354E+01  0.4373596E+01
Ar  752  0.2634744E+02  0.8074043E+01  0.8074043E+01  0.5787181E+01
Ar  753  0.2632777E+02  0.5417277E+01  0.1065347E+02  0.6487943E+01
Ar  754  0.2908703E+02  0.8018266E+01  0.1064969E+02  0.3481948E+01
Ar  755  0.2901436E+02  0.5374056E+01  0.1326043E+02  0.3497927E+00
Ar  756  0.2637504E+02  0.8030804E+01  0.1323872E+02  0.1838497E+01
Ar  757  0.2635699E+02  0.5415961E+01  0.1584329E+02  0.2731949E+01
Ar  758  0.2907434E+02  0.8037986E+01  0.1582972E+02  0.4800436E+01
Ar  759  0.2901500E+02  0.5414871E+01  0.1846190E+02  0.7403336E+00
Ar  760  0.2634149E+02  0.8056544E+01  0.1840508E+02  0.4358180E+01
Ar  761  0.2632553E+02  0.5426426E+01  0.2103487E+02  0.4561290E+01
Ar  762  0.2909481E+02  0.8081431E+01  0.2100928E+02  0.9854847E+01
Ar  763  0.2900168E+02  0.5462054E+01  0.2362866E+02  0.1187288E+02
Ar  764  0.2632553E+02  0.8055844E+01  0.2366428E+02  0.4561275E+01
Ar  765  0.2630165E+02  0.5427933E+01  0.2630165E+02  0.1098499E+02
Ar  766  0.2900417E+02  0.8002791E+01  0.2630715E+02  0.1036408E+02
Ar  767  0.2895746E+02  0.5400211E+01  0.2895746E+02  0.5648692E+01
Ar  768  0.2630715E+02  0.8002791E+01  0.2900417E+02  0.1036408E+02
Ar  769  0.2634263E+02  0.1061533E+02  0.5827096E-01  0.3683175E+01
Ar  770  0.2901255E+02  0.1325534E+02  0.7816251E-01  0.1420369E+01
Ar  771  0.2903244E+02  0.1061533E+02  0.2748082E+01  0.3683231E+01
Ar  772  0.2633524E+02  0.1323870E+02  0.2755475E+01  0.1767021E+01
Ar  773  0.2632777E+02  0.1065347E+02  0.5417277E+01  0.6487943E+01
Ar  774  0.2901436E+02  0.1326043E+02  0.5374056E+01  0.3497927E+00
Ar  775  0.2908703E+02  0.1064969E+02  0.8018266E+01  0.3481948E+01
Ar  776  0.2637504E+02  0.1323872E+02  0.8030804E+01  0.1838497E+01
Ar  777  0.2639005E+02  0.1067790E+02  0.1067790E+02  0.2671176E+01
Ar  778  0.2905527E+02  0.1323286E+02  0.1065852E+02  0.1286947E+01
Ar  779  0.2905527E+02  0.1065852E+02  0.1323286E+02  0.1286947E+01
Ar  780  0.2637461E+02  0.1325225E+02  0.1325225E+02  0.3213864E+01
Ar  781  0.2635358E+02  0.1065346E+02  0.1581336E+02  0.2973657E+01
Ar  782  0.2903829E+02  0.1325995E+02  0.1583076E+02  0.3055159E+01
Ar  783  0.2908356E+02  0.1069657E+02  0.1839414E+02  0.4033454E+01
Ar  784  0.2635358E+02  0.1327735E+02  0.1843725E+02  0.2973576E+01
Ar  785  0.2634149E+02  0.1068563E+02  0.2103417E+02  0.4358126E+01
Ar  786  0.2907434E+02  0.1326099E+02  0.2105272E+02  0.4800362E+01
Ar  787  0.2901500E+02  0.1062881E+02  0.2367584E+02  0.7403554E+00
Ar  788  0.2635699E+02  0.1324742E+02  0.2367475E+02  0.2731987E+01
Ar  789  0.2633597E+02  0.1065136E+02  0.2633597E+02  0.3967003E+01
Ar  790  0.2899151E+02  0.1324317E+02  0.2626832E+02  0.9398744E+00
Ar  791  0.2899336E+02  0.1064767E+02  0.2899336E+02  0.7129729E+01
Ar  792  0.2626832E+02  0.1324317E+02  0.2899151E+02  0.9398744E+00
Ar  793  0.2626832E+02  0.1584754E+02  0.9920179E-01  0.9398429E+00
Ar  794  0.2899336E+02  0.1844304E+02  0.9734771E-01  0.7129839E+01
Ar  795  0.2899151E+02  0.1584754E+02  0.2822386E+01  0.9398420E+00
Ar  796  0.2633597E+02  0.1843935E+02  0.2754740E+01  0.3967101E+01
Ar  797  0.2635699E+02  0.1584329E+02  0.5415961E+01  0.2731949E+01
Ar  798  0.2901500E+02  0.1846190E+02  0.5414871E+01  0.7403336E+00
Ar  799  0.2907434E+02  0.1582972E+02  0.8037986E+01  0.4800436E+01
Ar  800  0.2634149E+02  0.1840508E+02  0.8056544E+01  0.4358180E+01
Ar  801  0.2635358E+02  0.1581336E+02  0.1065346E+02  0.2973657E+01
Ar  802  0.2908356E+02  0.1839414E+02  0.1069657E+02  0.4033454E+01
Ar  803  0.2903829E+02  0.1583076E+02  0.1325995E+02  0.3055159E+01
Ar  804  0.2635358E+02  0.1843725E+02  0.1327735E+02  0.2973576E+01
Ar  805  0.2637461E+02  0.1583846E+02  0.1583846E+02  0.3213906E+01
Ar  806  0.2905527E+02  0.1843219E+02  0.1585785E+02  0.1286951E+01
Ar  807  0.2905527E+02  0.1585785E+02  0.1843219E+02  0.1286951E+01
Ar  808  0.2639005E+02  0.1841281E+02  0.1841281E+02  0.2671090E+01
Ar  809  0.2637504E+02  0.1585199E+02  0.2105991E+02  0.1838535E+01
Ar  810  0.2908702E+02  0.1844102E+02  0.2107244E+02  0.3481883E+01
Ar  811  0.2901436E+02  0.1583028E+02  0.2371665E+02  0.3498026E+00
Ar  812  0.2632777E+02  0.1843724E+02  0.2367343E+02  0.6488013E+01
Ar  813  0.2633524E+02  0.1585201E+02  0.2633524E+02  0.1766904E+01
Ar  814  0.2903244E+02  0.1847538E+02  0.2634263E+02  0.3683149E+01
Ar  815  0.2901255E+02  0.1583537E+02  0.2901255E+02  0.1420391E+01
Ar  816  0.2634263E+02  0.1847538E+02  0.2903244E+02  0.3683149E+01
Ar  817  0.2630715E+02  0.2108792E+02  0.8653897E-01  0.1036408E+02
Ar  818  0.2895746E+02  0.2369050E+02  0.1332540E+00  0.5648682E+01
Ar  819  0.2900417E+02  0.2108792E+02  0.2783560E+01  0.1036411E+02
Ar  820  0.2630165E+02  0.2366278E+02  0.2789055E+01  0.1098477E+02
Ar  821  0.2632553E+02  0.2103487E+02  0.5426426E+01  0.4561290E+01
Ar  822  0.2900168E+02  0.2362866E+02  0.5462054E+01  0.1187288E+02
Ar  823  0.2909481E+02  0.2100928E+02  0.8081431E+01  0.9854847E+01
Ar  824  0.2632553E+02  0.2366428E+02  0.8055844E+01  0.4561275E+01
Ar  825  0.2634149E+02  0.2103417E+02  0.1068563E+02  0.4358126E+01
Ar  826  0.2901500E+02  0.2367584E+02  0.1062881E+02  0.7403554E+00
Ar  827  0.2907434E+02  0.2105272E+02  0.1326099E+02  0.4800362E+01
Ar  828  0.2635699E+02  0.2367475E+02  0.1324742E+02  0.2731987E+01
Ar  829  0.2637504E+02  0.2105991E+02  0.1585199E+02  0.1838535E+01
Ar  830  0.2901436E+02  0.2371665E+02  0.1583028E+02  0.3498026E+00
Ar  831  0.2908702E+02  0.2107244E+02  0.1844102E+02  0.3481883E+01
Ar  832  0.2632777E+02  0.2367343E+02  0.1843724E+02  0.6488013E+01
Ar  833  0.2634744E+02  0.2101667E+02  0.2101667E+02  0.5787104E+01
Ar  834  0.2899555E+02  0.2366935E+02  0.2104236E+02  0.4373563E+01
Ar  835  0.2899555E+02  0.2104236E+02  0.2366935E+02  0.4373563E+01
Ar  836  0.2631245E+02  0.2368292E+02  0.2368292E+02  0.1736637E+02
Ar  837  0.2629278E+02  0.2106587E+02  0.2629278E+02  0.8616711E+01
Ar  838  0.2898594E+02  0.2364949E+02  0.2628248E+02  0.9800529E+01
Ar  839  0.2901634E+02  0.2104740E+02  0.2901634E+02  0.5211611E+01
Ar  840  0.2628248E+02  0.2364949E+02  0.2898594E+02  0.9800529E+01
Ar  841  0.2623269E+02  0.2623269E+02  0.1139958E+00  0.1335817E+02
Ar  842  0.2889056E+02  0.2889056E+02  0.2001527E+00  0.1658650E+02
Ar  843  0.2897671E+02  0.2623269E+02  0.2858022E+01  0.1335828E+02
Ar  844  0.2623269E+02  0.2897671E+02  0.2858022E+01  0.1335828E+02
Ar  845  0.2630165E+02  0.2630165E+02  0.5427933E+01  0.1098499E+02
Ar  846  0.2895746E+02  0.2895746E+02  0.5400211E+01  0.5648692E+01
Ar  847  0.2900417E+02  0.2630715E+02  0.8002791E+01  0.1036408E+02
Ar  848  0.2630715E+02  0.2900417E+02  0.8002791E+01  0.1036408E+02
Ar  849  0.2633597E+02  0.2633597E+02  0.1065136E+02  0.3967003E+01
Ar  850  0.2899336E+02  0.2899336E+02  0.1064767E+02  0.7129729E+01
Ar  851  0.2899151E+02  0.2626832E+02  0.1324317E+02  0.9398744E+00
Ar  852  0.2626832E+02  0.2899151E+02  0.1324317E+02  0.9398744E+00
Ar  853  0.2633524E+02  0.2633524E+02  0.1585201E+02  0.1766904E+01
Ar  854  0.2901255E+02  0.2901255E+02  0.1583537E+02  0.1420391E+01
Ar  855  0.2903244E+02  0.2634263E+02  0.1847538E+02  0.3683149E+01
Ar  856  0.2634263E+02  0.2903244E+02  0.1847538E+02  0.3683149E+01
Ar  857  0.2629278E+02  0.2629278E+02  0.2106587E+02  0.8616711E+01
Ar  858  0.2901634E+02  0.2901634E+02  0.2104740E+02  0.5211611E+01
Ar  859  0.2898594E+02  0.2628248E+02  0.2364949E+02  0.9800529E+01
Ar  860  0.2628248E+02  0.2898594E+02  0.2364949E+02  0.9800529E+01
Ar  861  0.2632915E+02  0.2632915E+02  0.2632915E+02  0.1657542E+02
Ar  862  0.2896431E+02  0.2896431E+02  0.2622367E+02  0.1573551E+02
Ar  863  0.2896431E+02  0.2622367E+02  0.2896431E+02  0.1573551E+02
Ar  864  0.2622367E+02  0.2896431E+02  0.2896431E+02  0.1573551E+02
