        1372
Lattice="  0.3778015E+02  0.0000000E+00  0.0000000E+00  0.0000000E+00  0.3778015E+02  0.0000000E+00  0.0000000E+00  0.0000000E+00  0.3778015E+02" Properties=species:S:1:id:I:1:pos:R:3:tempK:R:1
Ar    1  0.2436184E-01  0.2436184E-01  0.2436184E-01  0.4359935E+03
Ar    2  0.2585266E+01  0.2585266E+01  0.3759946E+02  0.3466017E+02
Ar    3  0.2585266E+01  0.3759946E+02  0.2585266E+01  0.3466017E+02
Ar    4  0.3759946E+02  0.2585266E+01  0.2585266E+01  0.3466017E+02
Ar    5  0.3756283E+02  0.3756283E+02  0.5357446E+01  0.1162335E+03
Ar    6  0.2413228E+01  0.2413228E+01  0.4990166E+01  0.3429223E+03
Ar    7  0.2614307E+01  0.3739467E+02  0.7888587E+01  0.5237488E+03
Ar    8  0.3739467E+02  0.2614307E+01  0.7888587E+01  0.5237488E+03
Ar    9  0.3761069E+02  0.3761069E+02  0.1166192E+02  0.3739516E+01
Ar   10  0.2297198E+01  0.2297198E+01  0.1088036E+02  0.2172457E+03
Ar   11  0.3141192E+01  0.3741782E+02  0.1299468E+02  0.8041389E+02
Ar   12  0.3741782E+02  0.3141192E+01  0.1299468E+02  0.8041389E+02
Ar   13  0.2981111E+00  0.2981111E+00  0.1539948E+02  0.2000118E+03
Ar   14  0.2833374E+01  0.2833374E+01  0.1647881E+02  0.2301932E+03
Ar   15  0.2440242E+01  0.3772895E+02  0.1844951E+02  0.3000078E+03
Ar   16  0.3772895E+02  0.2440242E+01  0.1844951E+02  0.3000078E+03
Ar   17  0.3777164E+02  0.3777164E+02  0.2086354E+02  0.1012884E+03
Ar   18  0.2793172E+01  0.2793172E+01  0.2122273E+02  0.4059124E+02
Ar   19  0.2253633E+01  0.3747806E+02  0.2382791E+02  0.7559727E+02
Ar   20  0.3747806E+02  0.2253633E+01  0.2382791E+02  0.7559727E+02
Ar   21  0.3765005E+02  0.3765005E+02  0.2697584E+02  0.8551982E+02
Ar   22  0.2384774E+01  0.2384774E+01  0.2617055E+02  0.8816329E+03
Ar   23  0.2087484E+01  0.3703159E+02  0.2971058E+02  0.3792497E+02
Ar   24  0.3703159E+02  0.2087484E+01  0.2971058E+02  0.3792497E+02
Ar   25  0.3777866E+02  0.3777866E+02  0.3270264E+02  0.1111802E+03
Ar   26  0.3048074E+01  0.3048074E+01  0.3235690E+02  0.2325540E+03
Ar   27  0.2810888E+01  0.3760607E+02  0.3485640E+02  0.3962947E+01
Ar   28  0.3760607E+02  0.2810888E+01  0.3485640E+02  0.3962947E+01
Ar   29  0.3756283E+02  0.5357446E+01  0.3756283E+02  0.1162335E+03
Ar   30  0.2614307E+01  0.7888587E+01  0.3739467E+02  0.5237488E+03
Ar   31  0.2413228E+01  0.4990166E+01  0.2413228E+01  0.3429223E+03
Ar   32  0.3739467E+02  0.7888587E+01  0.2614307E+01  0.5237488E+03
Ar   33  0.3721141E+02  0.4833325E+01  0.4833325E+01  0.1043171E+04
Ar   34  0.1950031E+01  0.7807234E+01  0.5147544E+01  0.3201983E+03
Ar   35  0.1950031E+01  0.5147544E+01  0.7807234E+01  0.3201983E+03
Ar   36  0.3675722E+02  0.8033606E+01  0.8033606E+01  0.5311917E+03
Ar   37  0.3693816E+02  0.5369011E+01  0.1019219E+02  0.1845559E+03
Ar   38  0.1879683E+01  0.7367010E+01  0.1047612E+02  0.2901273E+03
Ar   39  0.2494226E+01  0.5061736E+01  0.1388459E+02  0.1042274E+03
Ar   40  0.3728988E+02  0.7687420E+01  0.1340694E+02  0.3010873E+03
Ar   41  0.3748914E+02  0.5264354E+01  0.1610343E+02  0.5510989E+03
Ar   42  0.2417975E+01  0.8096817E+01  0.1602557E+02  0.8852638E+02
Ar   43  0.2482836E+01  0.5428882E+01  0.1846071E+02  0.2251505E+03
Ar   44  0.3729823E+02  0.8271028E+01  0.1877281E+02  0.1706155E+03
Ar   45  0.3769569E+02  0.5170982E+01  0.2127550E+02  0.3055098E+03
Ar   46  0.2342110E+01  0.8138778E+01  0.2104111E+02  0.4429712E+03
Ar   47  0.2611669E+01  0.5660000E+01  0.2378810E+02  0.2664127E+03
Ar   48  0.3756571E+02  0.7779370E+01  0.2333397E+02  0.2427851E+03
Ar   49  0.3761150E+02  0.5045000E+01  0.2655386E+02  0.9032996E+02
Ar   50  0.2392416E+01  0.7464123E+01  0.2691665E+02  0.7058801E+02
Ar   51  0.2080932E+01  0.4865014E+01  0.2900942E+02  0.4802379E+03
Ar   52  0.3737587E+02  0.7655955E+01  0.2927948E+02  0.3010313E+03
Ar   53  0.9660811E-01  0.5203537E+01  0.3181565E+02  0.9129659E+02
Ar   54  0.2390050E+01  0.8329184E+01  0.3193452E+02  0.1464410E+03
Ar   55  0.1988982E+01  0.5729928E+01  0.3483401E+02  0.1983596E+03
Ar   56  0.3761057E+02  0.8337030E+01  0.3472345E+02  0.3443176E+03
Ar   57  0.3761069E+02  0.1166192E+02  0.3761069E+02  0.3739516E+01
Ar   58  0.3141192E+01  0.1299468E+02  0.3741782E+02  0.8041389E+02
Ar   59  0.2297198E+01  0.1088036E+02  0.2297198E+01  0.2172457E+03
Ar   60  0.3741782E+02  0.1299468E+02  0.3141192E+01  0.8041389E+02
Ar   61  0.3693816E+02  0.1019219E+02  0.5369011E+01  0.1845559E+03
Ar   62  0.2494226E+01  0.1388459E+02  0.5061736E+01  0.1042274E+03
Ar   63  0.1879683E+01  0.1047612E+02  0.7367010E+01  0.2901273E+03
Ar   64  0.3728988E+02  0.1340694E+02  0.7687420E+01  0.3010873E+03
Ar   65  0.3752073E+02  0.1044320E+02  0.1044320E+02  0.1688892E+03
Ar   66  0.2045436E+01  0.1315497E+02  0.1035988E+02  0.2682445E+03
Ar   67  0.2045436E+01  0.1035988E+02  0.1315497E+02  0.2682445E+03
Ar   68  0.3695013E+02  0.1330853E+02  0.1330853E+02  0.3175310E+03
Ar   69  0.3740046E+02  0.1020878E+02  0.1586847E+02  0.2569545E+03
Ar   70  0.2366643E+01  0.1285414E+02  0.1546245E+02  0.1319857E+03
Ar   71  0.2473287E+01  0.1071723E+02  0.1843083E+02  0.3887875E+02
Ar   72  0.1469985E+00  0.1315919E+02  0.1828428E+02  0.1184821E+03
Ar   73  0.3708035E+02  0.1067600E+02  0.2122605E+02  0.9969779E+02
Ar   74  0.2283673E+01  0.1297345E+02  0.2129639E+02  0.2030438E+02
Ar   75  0.2169568E+01  0.1060127E+02  0.2375660E+02  0.1671219E+03
Ar   76  0.3744808E+02  0.1304969E+02  0.2402983E+02  0.5285536E+03
Ar   77  0.3700842E+02  0.1000491E+02  0.2639739E+02  0.1084034E+03
Ar   78  0.2402620E+01  0.1281112E+02  0.2658703E+02  0.2310680E+03
Ar   79  0.2740656E+01  0.1052512E+02  0.2946774E+02  0.2353383E+03
Ar   80  0.3745671E+02  0.1260269E+02  0.2888609E+02  0.4138374E+03
Ar   81  0.3774713E+02  0.1070901E+02  0.3205835E+02  0.1630064E+03
Ar   82  0.2796281E+01  0.1294323E+02  0.3202829E+02  0.2812808E+03
Ar   83  0.2416877E+01  0.1093442E+02  0.3482440E+02  0.8837402E+02
Ar   84  0.3740881E+02  0.1345526E+02  0.3478400E+02  0.3449699E+03
Ar   85  0.2981111E+00  0.1539948E+02  0.2981111E+00  0.2000118E+03
Ar   86  0.2440242E+01  0.1844951E+02  0.3772895E+02  0.3000078E+03
Ar   87  0.2833374E+01  0.1647881E+02  0.2833374E+01  0.2301932E+03
Ar   88  0.3772895E+02  0.1844951E+02  0.2440242E+01  0.3000078E+03
Ar   89  0.3748914E+02  0.1610343E+02  0.5264354E+01  0.5510989E+03
Ar   90  0.2482836E+01  0.1846071E+02  0.5428882E+01  0.2251505E+03
Ar   91  0.2417975E+01  0.1602557E+02  0.8096817E+01  0.8852638E+02
Ar   92  0.3729823E+02  0.1877281E+02  0.8271028E+01  0.1706155E+03
Ar   93  0.3740046E+02  0.1586847E+02  0.1020878E+02  0.2569545E+03
Ar   94  0.2473287E+01  0.1843083E+02  0.1071723E+02  0.3887875E+02
Ar   95  0.2366643E+01  0.1546245E+02  0.1285414E+02  0.1319857E+03
Ar   96  0.1469985E+00  0.1828428E+02  0.1315919E+02  0.1184821E+03
Ar   97  0.3758688E+02  0.1603119E+02  0.1603119E+02  0.3434818E+03
Ar   98  0.2620155E+01  0.1864286E+02  0.1613509E+02  0.6955862E+02
Ar   99  0.2620155E+01  0.1613509E+02  0.1864286E+02  0.6955862E+02
Ar  100  0.2869314E+00  0.1883811E+02  0.1883811E+02  0.6531162E+03
Ar  101  0.3717247E+02  0.1574804E+02  0.2140229E+02  0.2308311E+02
Ar  102  0.2640686E+01  0.1876986E+02  0.2162811E+02  0.1579079E+03
Ar  103  0.2047556E+01  0.1539678E+02  0.2400048E+02  0.1707855E+03
Ar  104  0.3727990E+02  0.1820273E+02  0.2419132E+02  0.3419574E+02
Ar  105  0.3729886E+02  0.1552558E+02  0.2689759E+02  0.3600138E+03
Ar  106  0.2213897E+01  0.1833110E+02  0.2678419E+02  0.2986944E+03
Ar  107  0.2331086E+01  0.1542217E+02  0.2912957E+02  0.2404628E+03
Ar  108  0.3705104E+02  0.1868033E+02  0.2893928E+02  0.1087245E+03
Ar  109  0.3705110E+02  0.1476721E+02  0.3175127E+02  0.3789025E+03
Ar  110  0.1723598E+01  0.1849548E+02  0.3179854E+02  0.1593377E+03
Ar  111  0.2631265E+01  0.1575859E+02  0.3503581E+02  0.7513570E+02
Ar  112  0.3752986E+02  0.1832990E+02  0.3467790E+02  0.1889619E+03
Ar  113  0.3777164E+02  0.2086354E+02  0.3777164E+02  0.1012884E+03
Ar  114  0.2253633E+01  0.2382791E+02  0.3747806E+02  0.7559727E+02
Ar  115  0.2793172E+01  0.2122273E+02  0.2793172E+01  0.4059124E+02
Ar  116  0.3747806E+02  0.2382791E+02  0.2253633E+01  0.7559727E+02
Ar  117  0.3769569E+02  0.2127550E+02  0.5170982E+01  0.3055098E+03
Ar  118  0.2611669E+01  0.2378810E+02  0.5660000E+01  0.2664127E+03
Ar  119  0.2342110E+01  0.2104111E+02  0.8138778E+01  0.4429712E+03
Ar  120  0.3756571E+02  0.2333397E+02  0.7779370E+01  0.2427851E+03
Ar  121  0.3708035E+02  0.2122605E+02  0.1067600E+02  0.9969779E+02
Ar  122  0.2169568E+01  0.2375660E+02  0.1060127E+02  0.1671219E+03
Ar  123  0.2283673E+01  0.2129639E+02  0.1297345E+02  0.2030438E+02
Ar  124  0.3744808E+02  0.2402983E+02  0.1304969E+02  0.5285536E+03
Ar  125  0.3717247E+02  0.2140229E+02  0.1574804E+02  0.2308311E+02
Ar  126  0.2047556E+01  0.2400048E+02  0.1539678E+02  0.1707855E+03
Ar  127  0.2640686E+01  0.2162811E+02  0.1876986E+02  0.1579079E+03
Ar  128  0.3727990E+02  0.2419132E+02  0.1820273E+02  0.3419574E+02
Ar  129  0.3735288E+02  0.2119678E+02  0.2119678E+02  0.3275406E+03
Ar  130  0.2008284E+01  0.2428819E+02  0.2145567E+02  0.1255461E+03
Ar  131  0.2008284E+01  0.2145567E+02  0.2428819E+02  0.1255461E+03
Ar  132  0.3659572E+02  0.2364190E+02  0.2364190E+02  0.3264753E+02
Ar  133  0.3676598E+02  0.2111286E+02  0.2654517E+02  0.5631628E+03
Ar  134  0.1737623E+01  0.2419245E+02  0.2671682E+02  0.1009615E+03
Ar  135  0.1642193E+01  0.2146243E+02  0.2941678E+02  0.5833340E+03
Ar  136  0.3683620E+02  0.2401635E+02  0.2918379E+02  0.2063841E+03
Ar  137  0.3714775E+02  0.2110775E+02  0.3225229E+02  0.4439775E+03
Ar  138  0.1789203E+01  0.2400418E+02  0.3160001E+02  0.6602103E+02
Ar  139  0.2643873E+01  0.2079502E+02  0.3468831E+02  0.2025846E+02
Ar  140  0.3746309E+02  0.2366659E+02  0.3477335E+02  0.1991490E+03
Ar  141  0.3765005E+02  0.2697584E+02  0.3765005E+02  0.8551982E+02
Ar  142  0.2087484E+01  0.2971058E+02  0.3703159E+02  0.3792497E+02
Ar  143  0.2384774E+01  0.2617055E+02  0.2384774E+01  0.8816329E+03
Ar  144  0.3703159E+02  0.2971058E+02  0.2087484E+01  0.3792497E+02
Ar  145  0.3761150E+02  0.2655386E+02  0.5045000E+01  0.9032996E+02
Ar  146  0.2080932E+01  0.2900942E+02  0.4865014E+01  0.4802379E+03
Ar  147  0.2392416E+01  0.2691665E+02  0.7464123E+01  0.7058801E+02
Ar  148  0.3737587E+02  0.2927948E+02  0.7655955E+01  0.3010313E+03
Ar  149  0.3700842E+02  0.2639739E+02  0.1000491E+02  0.1084034E+03
Ar  150  0.2740656E+01  0.2946774E+02  0.1052512E+02  0.2353383E+03
Ar  151  0.2402620E+01  0.2658703E+02  0.1281112E+02  0.2310680E+03
Ar  152  0.3745671E+02  0.2888609E+02  0.1260269E+02  0.4138374E+03
Ar  153  0.3729886E+02  0.2689759E+02  0.1552558E+02  0.3600138E+03
Ar  154  0.2331086E+01  0.2912957E+02  0.1542217E+02  0.2404628E+03
Ar  155  0.2213897E+01  0.2678419E+02  0.1833110E+02  0.2986944E+03
Ar  156  0.3705104E+02  0.2893928E+02  0.1868033E+02  0.1087245E+03
Ar  157  0.3676598E+02  0.2654517E+02  0.2111286E+02  0.5631628E+03
Ar  158  0.1642193E+01  0.2941678E+02  0.2146243E+02  0.5833340E+03
Ar  159  0.1737623E+01  0.2671682E+02  0.2419245E+02  0.1009615E+03
Ar  160  0.3683620E+02  0.2918379E+02  0.2401635E+02  0.2063841E+03
Ar  161  0.3696300E+02  0.2657833E+02  0.2657833E+02  0.2841626E+02
Ar  162  0.1432558E+01  0.2954467E+02  0.2685878E+02  0.3331370E+02
Ar  163  0.1432558E+01  0.2685878E+02  0.2954467E+02  0.3331370E+02
Ar  164  0.3680542E+02  0.2936588E+02  0.2936588E+02  0.4352101E+03
Ar  165  0.3712750E+02  0.2643821E+02  0.3229083E+02  0.5663340E+03
Ar  166  0.1872720E+01  0.2937228E+02  0.3190116E+02  0.3265024E+02
Ar  167  0.2665981E+01  0.2650922E+02  0.3470757E+02  0.4497124E+02
Ar  168  0.3734331E+02  0.2953669E+02  0.3486326E+02  0.2230716E+03
Ar  169  0.3777866E+02  0.3270264E+02  0.3777866E+02  0.1111802E+03
Ar  170  0.2810888E+01  0.3485640E+02  0.3760607E+02  0.3962947E+01
Ar  171  0.3048074E+01  0.3235690E+02  0.3048074E+01  0.2325540E+03
Ar  172  0.3760607E+02  0.3485640E+02  0.2810888E+01  0.3962947E+01
Ar  173  0.9660811E-01  0.3181565E+02  0.5203537E+01  0.9129659E+02
Ar  174  0.1988982E+01  0.3483401E+02  0.5729928E+01  0.1983596E+03
Ar  175  0.2390050E+01  0.3193452E+02  0.8329184E+01  0.1464410E+03
Ar  176  0.3761057E+02  0.3472345E+02  0.8337030E+01  0.3443176E+03
Ar  177  0.3774713E+02  0.3205835E+02  0.1070901E+02  0.1630064E+03
Ar  178  0.2416877E+01  0.3482440E+02  0.1093442E+02  0.8837402E+02
Ar  179  0.2796281E+01  0.3202829E+02  0.1294323E+02  0.2812808E+03
Ar  180  0.3740881E+02  0.3478400E+02  0.1345526E+02  0.3449699E+03
Ar  181  0.3705110E+02  0.3175127E+02  0.1476721E+02  0.3789025E+03
Ar  182  0.2631265E+01  0.3503581E+02  0.1575859E+02  0.7513570E+02
Ar  183  0.1723598E+01  0.3179854E+02  0.1849548E+02  0.1593377E+03
Ar  184  0.3752986E+02  0.3467790E+02  0.1832990E+02  0.1889619E+03
Ar  185  0.3714775E+02  0.3225229E+02  0.2110775E+02  0.4439775E+03
Ar  186  0.2643873E+01  0.3468831E+02  0.2079502E+02  0.2025846E+02
Ar  187  0.1789203E+01  0.3160001E+02  0.2400418E+02  0.6602103E+02
Ar  188  0.3746309E+02  0.3477335E+02  0.2366659E+02  0.1991490E+03
Ar  189  0.3712750E+02  0.3229083E+02  0.2643821E+02  0.5663340E+03
Ar  190  0.2665981E+01  0.3470757E+02  0.2650922E+02  0.4497124E+02
Ar  191  0.1872720E+01  0.3190116E+02  0.2937228E+02  0.3265024E+02
Ar  192  0.3734331E+02  0.3486326E+02  0.2953669E+02  0.2230716E+03
Ar  193  0.3772679E+02  0.3220177E+02  0.3220177E+02  0.3200012E+03
Ar  194  0.2492669E+01  0.3484000E+02  0.3206049E+02  0.5956570E+02
Ar  195  0.2492669E+01  0.3206049E+02  0.3484000E+02  0.5956570E+02
Ar  196  0.3769930E+02  0.3508744E+02  0.3508744E+02  0.1481310E+03
Ar  197  0.5357446E+01  0.3756283E+02  0.3756283E+02  0.1162335E+03
Ar  198  0.7888587E+01  0.2614307E+01  0.3739467E+02  0.5237488E+03
Ar  199  0.7888587E+01  0.3739467E+02  0.2614307E+01  0.5237488E+03
Ar  200  0.4990166E+01  0.2413228E+01  0.2413228E+01  0.3429223E+03
Ar  201  0.4833325E+01  0.3721141E+02  0.4833325E+01  0.1043171E+04
Ar  202  0.7807234E+01  0.1950031E+01  0.5147544E+01  0.3201983E+03
Ar  203  0.8033606E+01  0.3675722E+02  0.8033606E+01  0.5311917E+03
Ar  204  0.5147544E+01  0.1950031E+01  0.7807234E+01  0.3201983E+03
Ar  205  0.5369011E+01  0.3693816E+02  0.1019219E+02  0.1845559E+03
Ar  206  0.7367010E+01  0.1879683E+01  0.1047612E+02  0.2901273E+03
Ar  207  0.7687420E+01  0.3728988E+02  0.1340694E+02  0.3010873E+03
Ar  208  0.5061736E+01  0.2494226E+01  0.1388459E+02  0.1042274E+03
Ar  209  0.5264354E+01  0.3748914E+02  0.1610343E+02  0.5510989E+03
Ar  210  0.8096817E+01  0.2417975E+01  0.1602557E+02  0.8852638E+02
Ar  211  0.8271028E+01  0.3729823E+02  0.1877281E+02  0.1706155E+03
Ar  212  0.5428882E+01  0.2482836E+01  0.1846071E+02  0.2251505E+03
Ar  213  0.5170982E+01  0.3769569E+02  0.2127550E+02  0.3055098E+03
Ar  214  0.8138778E+01  0.2342110E+01  0.2104111E+02  0.4429712E+03
Ar  215  0.7779370E+01  0.3756571E+02  0.2333397E+02  0.2427851E+03
Ar  216  0.5660000E+01  0.2611669E+01  0.2378810E+02  0.2664127E+03
Ar  217  0.5045000E+01  0.3761150E+02  0.2655386E+02  0.9032996E+02
Ar  218  0.7464123E+01  0.2392416E+01  0.2691665E+02  0.7058801E+02
Ar  219  0.7655955E+01  0.3737587E+02  0.2927948E+02  0.3010313E+03
Ar  220  0.4865014E+01  0.2080932E+01  0.2900942E+02  0.4802379E+03
Ar  221  0.5203537E+01  0.9660811E-01  0.3181565E+02  0.9129659E+02
Ar  222  0.8329184E+01  0.2390050E+01  0.3193452E+02  0.1464410E+03
Ar  223  0.8337030E+01  0.3761057E+02  0.3472345E+02  0.3443176E+03
Ar  224  0.5729928E+01  0.1988982E+01  0.3483401E+02  0.1983596E+03
Ar  225  0.4833325E+01  0.4833325E+01  0.3721141E+02  0.1043171E+04
Ar  226  0.8033606E+01  0.8033606E+01  0.3675722E+02  0.5311917E+03
Ar  227  0.7807234E+01  0.5147544E+01  0.1950031E+01  0.3201983E+03
Ar  228  0.5147544E+01  0.7807234E+01  0.1950031E+01  0.3201983E+03
Ar  229  0.4849652E+01  0.4849652E+01  0.4849652E+01  0.1328108E+02
Ar  230  0.7446417E+01  0.7446417E+01  0.4903562E+01  0.2488036E+03
Ar  231  0.7446417E+01  0.4903562E+01  0.7446417E+01  0.2488036E+03
Ar  232  0.4903562E+01  0.7446417E+01  0.7446417E+01  0.2488036E+03
Ar  233  0.4525215E+01  0.4525215E+01  0.1045729E+02  0.9780265E+02
Ar  234  0.7760922E+01  0.7760922E+01  0.1035467E+02  0.2507852E+03
Ar  235  0.7564056E+01  0.4723149E+01  0.1260256E+02  0.2458818E+03
Ar  236  0.4723149E+01  0.7564056E+01  0.1260256E+02  0.2458818E+03
Ar  237  0.5314151E+01  0.5314151E+01  0.1577580E+02  0.2817568E+02
Ar  238  0.7878771E+01  0.7878771E+01  0.1548936E+02  0.2024753E+02
Ar  239  0.7717889E+01  0.5305894E+01  0.1849778E+02  0.3197651E+02
Ar  240  0.5305894E+01  0.7717889E+01  0.1849778E+02  0.3197651E+02
Ar  241  0.5189078E+01  0.5189078E+01  0.2076983E+02  0.1228411E+03
Ar  242  0.7672162E+01  0.7672162E+01  0.2173934E+02  0.1361826E+03
Ar  243  0.8367252E+01  0.4953895E+01  0.2360842E+02  0.9241399E+02
Ar  244  0.4953895E+01  0.8367252E+01  0.2360842E+02  0.9241399E+02
Ar  245  0.4866925E+01  0.4866925E+01  0.2679618E+02  0.4476167E+03
Ar  246  0.7730253E+01  0.7730253E+01  0.2579663E+02  0.7742774E+03
Ar  247  0.8049969E+01  0.5559322E+01  0.2925131E+02  0.2371166E+03
Ar  248  0.5559322E+01  0.8049969E+01  0.2925131E+02  0.2371166E+03
Ar  249  0.5436860E+01  0.5436860E+01  0.3169785E+02  0.2152328E+03
Ar  250  0.7720897E+01  0.7720897E+01  0.3177354E+02  0.1451888E+03
Ar  251  0.7879374E+01  0.4687108E+01  0.3404172E+02  0.1253305E+03
Ar  252  0.4687108E+01  0.7879374E+01  0.3404172E+02  0.1253305E+03
Ar  253  0.5369011E+01  0.1019219E+02  0.3693816E+02  0.1845559E+03
Ar  254  0.7687420E+01  0.1340694E+02  0.3728988E+02  0.3010873E+03
Ar  255  0.7367010E+01  0.1047612E+02  0.1879683E+01  0.2901273E+03
Ar  256  0.5061736E+01  0.1388459E+02  0.2494226E+01  0.1042274E+03
Ar  257  0.4525215E+01  0.1045729E+02  0.4525215E+01  0.9780265E+02
Ar  258  0.7564056E+01  0.1260256E+02  0.4723149E+01  0.2458818E+03
Ar  259  0.7760922E+01  0.1035467E+02  0.7760922E+01  0.2507852E+03
Ar  260  0.4723149E+01  0.1260256E+02  0.7564056E+01  0.2458818E+03
Ar  261  0.4492807E+01  0.9985134E+01  0.9985134E+01  0.2742079E+03
Ar  262  0.7712529E+01  0.1308661E+02  0.1061852E+02  0.3893010E+03
Ar  263  0.7712529E+01  0.1061852E+02  0.1308661E+02  0.3893010E+03
Ar  264  0.4846506E+01  0.1291199E+02  0.1291199E+02  0.8934874E+02
Ar  265  0.5204572E+01  0.1019456E+02  0.1570032E+02  0.2972191E+03
Ar  266  0.7717346E+01  0.1318782E+02  0.1589815E+02  0.3049867E+03
Ar  267  0.7873995E+01  0.1031291E+02  0.1825350E+02  0.9799539E+02
Ar  268  0.4659683E+01  0.1336688E+02  0.1863904E+02  0.2023156E+03
Ar  269  0.5051059E+01  0.1060396E+02  0.2049829E+02  0.2564073E+03
Ar  270  0.7887821E+01  0.1275509E+02  0.2106690E+02  0.3900495E+02
Ar  271  0.8011770E+01  0.1039248E+02  0.2405929E+02  0.5486249E+02
Ar  272  0.5261976E+01  0.1238499E+02  0.2358965E+02  0.1210364E+03
Ar  273  0.5045141E+01  0.1025689E+02  0.2656632E+02  0.1214452E+03
Ar  274  0.7977467E+01  0.1299155E+02  0.2663306E+02  0.7553641E+02
Ar  275  0.8038664E+01  0.1083180E+02  0.2933263E+02  0.2202887E+03
Ar  276  0.5258830E+01  0.1305903E+02  0.2920703E+02  0.1905642E+03
Ar  277  0.5299843E+01  0.1054060E+02  0.3196374E+02  0.1794432E+03
Ar  278  0.7857840E+01  0.1338321E+02  0.3184336E+02  0.1003312E+03
Ar  279  0.7567516E+01  0.1069935E+02  0.3459483E+02  0.1236083E+03
Ar  280  0.5169783E+01  0.1313506E+02  0.3440998E+02  0.1233291E+03
Ar  281  0.5264354E+01  0.1610343E+02  0.3748914E+02  0.5510989E+03
Ar  282  0.8271028E+01  0.1877281E+02  0.3729823E+02  0.1706155E+03
Ar  283  0.8096817E+01  0.1602557E+02  0.2417975E+01  0.8852638E+02
Ar  284  0.5428882E+01  0.1846071E+02  0.2482836E+01  0.2251505E+03
Ar  285  0.5314151E+01  0.1577580E+02  0.5314151E+01  0.2817568E+02
Ar  286  0.7717889E+01  0.1849778E+02  0.5305894E+01  0.3197651E+02
Ar  287  0.7878771E+01  0.1548936E+02  0.7878771E+01  0.2024753E+02
Ar  288  0.5305894E+01  0.1849778E+02  0.7717889E+01  0.3197651E+02
Ar  289  0.5204572E+01  0.1570032E+02  0.1019456E+02  0.2972191E+03
Ar  290  0.7873995E+01  0.1825350E+02  0.1031291E+02  0.9799539E+02
Ar  291  0.7717346E+01  0.1589815E+02  0.1318782E+02  0.3049867E+03
Ar  292  0.4659683E+01  0.1863904E+02  0.1336688E+02  0.2023156E+03
Ar  293  0.4735497E+01  0.1564723E+02  0.1564723E+02  0.1226398E+03
Ar  294  0.7223267E+01  0.1866663E+02  0.1560780E+02  0.2232648E+03
Ar  295  0.7223267E+01  0.1560780E+02  0.1866663E+02  0.2232648E+03
Ar  296  0.5020188E+01  0.1870178E+02  0.1870178E+02  0.2177173E+02
Ar  297  0.5055096E+01  0.1562921E+02  0.2160267E+02  0.8124169E+02
Ar  298  0.7492249E+01  0.1827188E+02  0.2167649E+02  0.2231808E+03
Ar  299  0.7612400E+01  0.1558955E+02  0.2400373E+02  0.2190647E+02
Ar  300  0.4970135E+01  0.1864577E+02  0.2460373E+02  0.1252378E+03
Ar  301  0.5390139E+01  0.1540234E+02  0.2646964E+02  0.2516975E+03
Ar  302  0.7717815E+01  0.1807731E+02  0.2661373E+02  0.3423640E+03
Ar  303  0.7773072E+01  0.1592446E+02  0.2957185E+02  0.8424409E+02
Ar  304  0.4445518E+01  0.1867744E+02  0.2924432E+02  0.1559550E+03
Ar  305  0.4461550E+01  0.1583888E+02  0.3193135E+02  0.2232885E+03
Ar  306  0.7452723E+01  0.1830772E+02  0.3190526E+02  0.2661422E+03
Ar  307  0.7942456E+01  0.1563123E+02  0.3467294E+02  0.3338504E+02
Ar  308  0.5157743E+01  0.1823587E+02  0.3487193E+02  0.2210610E+03
Ar  309  0.5170982E+01  0.2127550E+02  0.3769569E+02  0.3055098E+03
Ar  310  0.7779370E+01  0.2333397E+02  0.3756571E+02  0.2427851E+03
Ar  311  0.8138778E+01  0.2104111E+02  0.2342110E+01  0.4429712E+03
Ar  312  0.5660000E+01  0.2378810E+02  0.2611669E+01  0.2664127E+03
Ar  313  0.5189078E+01  0.2076983E+02  0.5189078E+01  0.1228411E+03
Ar  314  0.8367252E+01  0.2360842E+02  0.4953895E+01  0.9241399E+02
Ar  315  0.7672162E+01  0.2173934E+02  0.7672162E+01  0.1361826E+03
Ar  316  0.4953895E+01  0.2360842E+02  0.8367252E+01  0.9241399E+02
Ar  317  0.5051059E+01  0.2049829E+02  0.1060396E+02  0.2564073E+03
Ar  318  0.8011770E+01  0.2405929E+02  0.1039248E+02  0.5486249E+02
Ar  319  0.7887821E+01  0.2106690E+02  0.1275509E+02  0.3900495E+02
Ar  320  0.5261976E+01  0.2358965E+02  0.1238499E+02  0.1210364E+03
Ar  321  0.5055096E+01  0.2160267E+02  0.1562921E+02  0.8124169E+02
Ar  322  0.7612400E+01  0.2400373E+02  0.1558955E+02  0.2190647E+02
Ar  323  0.7492249E+01  0.2167649E+02  0.1827188E+02  0.2231808E+03
Ar  324  0.4970135E+01  0.2460373E+02  0.1864577E+02  0.1252378E+03
Ar  325  0.5211487E+01  0.2124123E+02  0.2124123E+02  0.1789329E+03
Ar  326  0.7609603E+01  0.2367154E+02  0.2100059E+02  0.1139777E+03
Ar  327  0.7609603E+01  0.2100059E+02  0.2367154E+02  0.1139777E+03
Ar  328  0.4539056E+01  0.2427923E+02  0.2427923E+02  0.1663546E+01
Ar  329  0.4301337E+01  0.2177512E+02  0.2673681E+02  0.1625250E+03
Ar  330  0.7746312E+01  0.2383865E+02  0.2696034E+02  0.9981395E+02
Ar  331  0.7492606E+01  0.2067568E+02  0.2925159E+02  0.2389248E+03
Ar  332  0.4947919E+01  0.2437811E+02  0.2915944E+02  0.8391941E+02
Ar  333  0.4607173E+01  0.2100587E+02  0.3193472E+02  0.3786828E+02
Ar  334  0.7286188E+01  0.2396988E+02  0.3185512E+02  0.5952687E+02
Ar  335  0.7477946E+01  0.2101135E+02  0.3440745E+02  0.2642972E+02
Ar  336  0.5128566E+01  0.2341085E+02  0.3470097E+02  0.1235170E+02
Ar  337  0.5045000E+01  0.2655386E+02  0.3761150E+02  0.9032996E+02
Ar  338  0.7655955E+01  0.2927948E+02  0.3737587E+02  0.3010313E+03
Ar  339  0.7464123E+01  0.2691665E+02  0.2392416E+01  0.7058801E+02
Ar  340  0.4865014E+01  0.2900942E+02  0.2080932E+01  0.4802379E+03
Ar  341  0.4866925E+01  0.2679618E+02  0.4866925E+01  0.4476167E+03
Ar  342  0.8049969E+01  0.2925131E+02  0.5559322E+01  0.2371166E+03
Ar  343  0.7730253E+01  0.2579663E+02  0.7730253E+01  0.7742774E+03
Ar  344  0.5559322E+01  0.2925131E+02  0.8049969E+01  0.2371166E+03
Ar  345  0.5045141E+01  0.2656632E+02  0.1025689E+02  0.1214452E+03
Ar  346  0.8038664E+01  0.2933263E+02  0.1083180E+02  0.2202887E+03
Ar  347  0.7977467E+01  0.2663306E+02  0.1299155E+02  0.7553641E+02
Ar  348  0.5258830E+01  0.2920703E+02  0.1305903E+02  0.1905642E+03
Ar  349  0.5390139E+01  0.2646964E+02  0.1540234E+02  0.2516975E+03
Ar  350  0.7773072E+01  0.2957185E+02  0.1592446E+02  0.8424409E+02
Ar  351  0.7717815E+01  0.2661373E+02  0.1807731E+02  0.3423640E+03
Ar  352  0.4445518E+01  0.2924432E+02  0.1867744E+02  0.1559550E+03
Ar  353  0.4301337E+01  0.2673681E+02  0.2177512E+02  0.1625250E+03
Ar  354  0.7492606E+01  0.2925159E+02  0.2067568E+02  0.2389248E+03
Ar  355  0.7746312E+01  0.2696034E+02  0.2383865E+02  0.9981395E+02
Ar  356  0.4947919E+01  0.2915944E+02  0.2437811E+02  0.8391941E+02
Ar  357  0.3637642E+01  0.2688274E+02  0.2688274E+02  0.1635083E+02
Ar  358  0.7726472E+01  0.2926727E+02  0.2652743E+02  0.1665548E+03
Ar  359  0.7726472E+01  0.2652743E+02  0.2926727E+02  0.1665548E+03
Ar  360  0.5138804E+01  0.2912888E+02  0.2912888E+02  0.6739338E+03
Ar  361  0.4572937E+01  0.2687903E+02  0.3175511E+02  0.2698874E+03
Ar  362  0.7413465E+01  0.2950605E+02  0.3209245E+02  0.2374518E+03
Ar  363  0.7463972E+01  0.2694785E+02  0.3432807E+02  0.3711396E+03
Ar  364  0.5437798E+01  0.2959366E+02  0.3494713E+02  0.2440199E+03
Ar  365  0.5203537E+01  0.3181565E+02  0.9660811E-01  0.9129659E+02
Ar  366  0.8337030E+01  0.3472345E+02  0.3761057E+02  0.3443176E+03
Ar  367  0.8329184E+01  0.3193452E+02  0.2390050E+01  0.1464410E+03
Ar  368  0.5729928E+01  0.3483401E+02  0.1988982E+01  0.1983596E+03
Ar  369  0.5436860E+01  0.3169785E+02  0.5436860E+01  0.2152328E+03
Ar  370  0.7879374E+01  0.3404172E+02  0.4687108E+01  0.1253305E+03
Ar  371  0.7720897E+01  0.3177354E+02  0.7720897E+01  0.1451888E+03
Ar  372  0.4687108E+01  0.3404172E+02  0.7879374E+01  0.1253305E+03
Ar  373  0.5299843E+01  0.3196374E+02  0.1054060E+02  0.1794432E+03
Ar  374  0.7567516E+01  0.3459483E+02  0.1069935E+02  0.1236083E+03
Ar  375  0.7857840E+01  0.3184336E+02  0.1338321E+02  0.1003312E+03
Ar  376  0.5169783E+01  0.3440998E+02  0.1313506E+02  0.1233291E+03
Ar  377  0.4461550E+01  0.3193135E+02  0.1583888E+02  0.2232885E+03
Ar  378  0.7942456E+01  0.3467294E+02  0.1563123E+02  0.3338504E+02
Ar  379  0.7452723E+01  0.3190526E+02  0.1830772E+02  0.2661422E+03
Ar  380  0.5157743E+01  0.3487193E+02  0.1823587E+02  0.2210610E+03
Ar  381  0.4607173E+01  0.3193472E+02  0.2100587E+02  0.3786828E+02
Ar  382  0.7477946E+01  0.3440745E+02  0.2101135E+02  0.2642972E+02
Ar  383  0.7286188E+01  0.3185512E+02  0.2396988E+02  0.5952687E+02
Ar  384  0.5128566E+01  0.3470097E+02  0.2341085E+02  0.1235170E+02
Ar  385  0.4572937E+01  0.3175511E+02  0.2687903E+02  0.2698874E+03
Ar  386  0.7463972E+01  0.3432807E+02  0.2694785E+02  0.3711396E+03
Ar  387  0.7413465E+01  0.3209245E+02  0.2950605E+02  0.2374518E+03
Ar  388  0.5437798E+01  0.3494713E+02  0.2959366E+02  0.2440199E+03
Ar  389  0.4292862E+01  0.3182535E+02  0.3182535E+02  0.2040089E+03
Ar  390  0.8294636E+01  0.3509973E+02  0.3223615E+02  0.3016917E+03
Ar  391  0.8294636E+01  0.3223615E+02  0.3509973E+02  0.3016917E+03
Ar  392  0.5465352E+01  0.3470520E+02  0.3470520E+02  0.3503414E+03
Ar  393  0.1166192E+02  0.3761069E+02  0.3761069E+02  0.3739516E+01
Ar  394  0.1299468E+02  0.3141192E+01  0.3741782E+02  0.8041389E+02
Ar  395  0.1299468E+02  0.3741782E+02  0.3141192E+01  0.8041389E+02
Ar  396  0.1088036E+02  0.2297198E+01  0.2297198E+01  0.2172457E+03
Ar  397  0.1019219E+02  0.3693816E+02  0.5369011E+01  0.1845559E+03
Ar  398  0.1388459E+02  0.2494226E+01  0.5061736E+01  0.1042274E+03
Ar  399  0.1340694E+02  0.3728988E+02  0.7687420E+01  0.3010873E+03
Ar  400  0.1047612E+02  0.1879683E+01  0.7367010E+01  0.2901273E+03
Ar  401  0.1044320E+02  0.3752073E+02  0.1044320E+02  0.1688892E+03
Ar  402  0.1315497E+02  0.2045436E+01  0.1035988E+02  0.2682445E+03
Ar  403  0.1330853E+02  0.3695013E+02  0.1330853E+02  0.3175310E+03
Ar  404  0.1035988E+02  0.2045436E+01  0.1315497E+02  0.2682445E+03
Ar  405  0.1020878E+02  0.3740046E+02  0.1586847E+02  0.2569545E+03
Ar  406  0.1285414E+02  0.2366643E+01  0.1546245E+02  0.1319857E+03
Ar  407  0.1315919E+02  0.1469985E+00  0.1828428E+02  0.1184821E+03
Ar  408  0.1071723E+02  0.2473287E+01  0.1843083E+02  0.3887875E+02
Ar  409  0.1067600E+02  0.3708035E+02  0.2122605E+02  0.9969779E+02
Ar  410  0.1297345E+02  0.2283673E+01  0.2129639E+02  0.2030438E+02
Ar  411  0.1304969E+02  0.3744808E+02  0.2402983E+02  0.5285536E+03
Ar  412  0.1060127E+02  0.2169568E+01  0.2375660E+02  0.1671219E+03
Ar  413  0.1000491E+02  0.3700842E+02  0.2639739E+02  0.1084034E+03
Ar  414  0.1281112E+02  0.2402620E+01  0.2658703E+02  0.2310680E+03
Ar  415  0.1260269E+02  0.3745671E+02  0.2888609E+02  0.4138374E+03
Ar  416  0.1052512E+02  0.2740656E+01  0.2946774E+02  0.2353383E+03
Ar  417  0.1070901E+02  0.3774713E+02  0.3205835E+02  0.1630064E+03
Ar  418  0.1294323E+02  0.2796281E+01  0.3202829E+02  0.2812808E+03
Ar  419  0.1345526E+02  0.3740881E+02  0.3478400E+02  0.3449699E+03
Ar  420  0.1093442E+02  0.2416877E+01  0.3482440E+02  0.8837402E+02
Ar  421  0.1019219E+02  0.5369011E+01  0.3693816E+02  0.1845559E+03
Ar  422  0.1340694E+02  0.7687420E+01  0.3728988E+02  0.3010873E+03
Ar  423  0.1388459E+02  0.5061736E+01  0.2494226E+01  0.1042274E+03
Ar  424  0.1047612E+02  0.7367010E+01  0.1879683E+01  0.2901273E+03
Ar  425  0.1045729E+02  0.4525215E+01  0.4525215E+01  0.9780265E+02
Ar  426  0.1260256E+02  0.7564056E+01  0.4723149E+01  0.2458818E+03
Ar  427  0.1260256E+02  0.4723149E+01  0.7564056E+01  0.2458818E+03
Ar  428  0.1035467E+02  0.7760922E+01  0.7760922E+01  0.2507852E+03
Ar  429  0.9985134E+01  0.4492807E+01  0.9985134E+01  0.2742079E+03
Ar  430  0.1308661E+02  0.7712529E+01  0.1061852E+02  0.3893010E+03
Ar  431  0.1291199E+02  0.4846506E+01  0.1291199E+02  0.8934874E+02
Ar  432  0.1061852E+02  0.7712529E+01  0.1308661E+02  0.3893010E+03
Ar  433  0.1019456E+02  0.5204572E+01  0.1570032E+02  0.2972191E+03
Ar  434  0.1318782E+02  0.7717346E+01  0.1589815E+02  0.3049867E+03
Ar  435  0.1336688E+02  0.4659683E+01  0.1863904E+02  0.2023156E+03
Ar  436  0.1031291E+02  0.7873995E+01  0.1825350E+02  0.9799539E+02
Ar  437  0.1060396E+02  0.5051059E+01  0.2049829E+02  0.2564073E+03
Ar  438  0.1275509E+02  0.7887821E+01  0.2106690E+02  0.3900495E+02
Ar  439  0.1238499E+02  0.5261976E+01  0.2358965E+02  0.1210364E+03
Ar  440  0.1039248E+02  0.8011770E+01  0.2405929E+02  0.5486249E+02
Ar  441  0.1025689E+02  0.5045141E+01  0.2656632E+02  0.1214452E+03
Ar  442  0.1299155E+02  0.7977467E+01  0.2663306E+02  0.7553641E+02
Ar  443  0.1305903E+02  0.5258830E+01  0.2920703E+02  0.1905642E+03
Ar  444  0.1083180E+02  0.8038664E+01  0.2933263E+02  0.2202887E+03
Ar  445  0.1054060E+02  0.5299843E+01  0.3196374E+02  0.1794432E+03
Ar  446  0.1338321E+02  0.7857840E+01  0.3184336E+02  0.1003312E+03
Ar  447  0.1313506E+02  0.5169783E+01  0.3440998E+02  0.1233291E+03
Ar  448  0.1069935E+02  0.7567516E+01  0.3459483E+02  0.1236083E+03
Ar  449  0.1044320E+02  0.1044320E+02  0.3752073E+02  0.1688892E+03
Ar  450  0.1330853E+02  0.1330853E+02  0.3695013E+02  0.3175310E+03
Ar  451  0.1315497E+02  0.1035988E+02  0.2045436E+01  0.2682445E+03
Ar  452  0.1035988E+02  0.1315497E+02  0.2045436E+01  0.2682445E+03
Ar  453  0.9985134E+01  0.9985134E+01  0.4492807E+01  0.2742079E+03
Ar  454  0.1291199E+02  0.1291199E+02  0.4846506E+01  0.8934874E+02
Ar  455  0.1308661E+02  0.1061852E+02  0.7712529E+01  0.3893010E+03
Ar  456  0.1061852E+02  0.1308661E+02  0.7712529E+01  0.3893010E+03
Ar  457  0.1043234E+02  0.1043234E+02  0.1043234E+02  0.9054448E+03
Ar  458  0.1314227E+02  0.1314227E+02  0.1041659E+02  0.2533343E+02
Ar  459  0.1314227E+02  0.1041659E+02  0.1314227E+02  0.2533343E+02
Ar  460  0.1041659E+02  0.1314227E+02  0.1314227E+02  0.2533343E+02
Ar  461  0.1073718E+02  0.1073718E+02  0.1556053E+02  0.3411651E+03
Ar  462  0.1365539E+02  0.1365539E+02  0.1599800E+02  0.3591134E+02
Ar  463  0.1293456E+02  0.1004697E+02  0.1838924E+02  0.1131547E+03
Ar  464  0.1004697E+02  0.1293456E+02  0.1838924E+02  0.1131547E+03
Ar  465  0.1101616E+02  0.1101616E+02  0.2134965E+02  0.3716815E+03
Ar  466  0.1334950E+02  0.1334950E+02  0.2051429E+02  0.8227549E+02
Ar  467  0.1352831E+02  0.1083782E+02  0.2378506E+02  0.4774242E+03
Ar  468  0.1083782E+02  0.1352831E+02  0.2378506E+02  0.4774242E+03
Ar  469  0.1128020E+02  0.1128020E+02  0.2674471E+02  0.5051882E+03
Ar  470  0.1369707E+02  0.1369707E+02  0.2678137E+02  0.2049621E+02
Ar  471  0.1339811E+02  0.1065157E+02  0.2964571E+02  0.1235420E+03
Ar  472  0.1065157E+02  0.1339811E+02  0.2964571E+02  0.1235420E+03
Ar  473  0.1060071E+02  0.1060071E+02  0.3241655E+02  0.7182608E+01
Ar  474  0.1350034E+02  0.1350034E+02  0.3250409E+02  0.1836268E+03
Ar  475  0.1317221E+02  0.1073660E+02  0.3491672E+02  0.2180811E+03
Ar  476  0.1073660E+02  0.1317221E+02  0.3491672E+02  0.2180811E+03
Ar  477  0.1020878E+02  0.1586847E+02  0.3740046E+02  0.2569545E+03
Ar  478  0.1315919E+02  0.1828428E+02  0.1469985E+00  0.1184821E+03
Ar  479  0.1285414E+02  0.1546245E+02  0.2366643E+01  0.1319857E+03
Ar  480  0.1071723E+02  0.1843083E+02  0.2473287E+01  0.3887875E+02
Ar  481  0.1019456E+02  0.1570032E+02  0.5204572E+01  0.2972191E+03
Ar  482  0.1336688E+02  0.1863904E+02  0.4659683E+01  0.2023156E+03
Ar  483  0.1318782E+02  0.1589815E+02  0.7717346E+01  0.3049867E+03
Ar  484  0.1031291E+02  0.1825350E+02  0.7873995E+01  0.9799539E+02
Ar  485  0.1073718E+02  0.1556053E+02  0.1073718E+02  0.3411651E+03
Ar  486  0.1293456E+02  0.1838924E+02  0.1004697E+02  0.1131547E+03
Ar  487  0.1365539E+02  0.1599800E+02  0.1365539E+02  0.3591134E+02
Ar  488  0.1004697E+02  0.1838924E+02  0.1293456E+02  0.1131547E+03
Ar  489  0.1024812E+02  0.1561318E+02  0.1561318E+02  0.3245136E+02
Ar  490  0.1294636E+02  0.1856118E+02  0.1599315E+02  0.1165925E+03
Ar  491  0.1294636E+02  0.1599315E+02  0.1856118E+02  0.1165925E+03
Ar  492  0.9609819E+01  0.1885014E+02  0.1885014E+02  0.1074629E+03
Ar  493  0.1008318E+02  0.1599355E+02  0.2110657E+02  0.7529497E+02
Ar  494  0.1261148E+02  0.1852645E+02  0.2121095E+02  0.1785640E+03
Ar  495  0.1276437E+02  0.1602250E+02  0.2368564E+02  0.1910626E+03
Ar  496  0.1028197E+02  0.1834912E+02  0.2392752E+02  0.2757730E+03
Ar  497  0.1082103E+02  0.1567516E+02  0.2701524E+02  0.1984054E+03
Ar  498  0.1328790E+02  0.1833852E+02  0.2612278E+02  0.5124293E+02
Ar  499  0.1338903E+02  0.1623686E+02  0.2930227E+02  0.1684686E+02
Ar  500  0.1024770E+02  0.1840323E+02  0.2912447E+02  0.2361386E+03
Ar  501  0.1027543E+02  0.1609297E+02  0.3221499E+02  0.8690894E+02
Ar  502  0.1317679E+02  0.1861799E+02  0.3181399E+02  0.8664764E+01
Ar  503  0.1278093E+02  0.1618873E+02  0.3476620E+02  0.6565454E+02
Ar  504  0.1019222E+02  0.1910527E+02  0.3412442E+02  0.3033352E+02
Ar  505  0.1067600E+02  0.2122605E+02  0.3708035E+02  0.9969779E+02
Ar  506  0.1304969E+02  0.2402983E+02  0.3744808E+02  0.5285536E+03
Ar  507  0.1297345E+02  0.2129639E+02  0.2283673E+01  0.2030438E+02
Ar  508  0.1060127E+02  0.2375660E+02  0.2169568E+01  0.1671219E+03
Ar  509  0.1060396E+02  0.2049829E+02  0.5051059E+01  0.2564073E+03
Ar  510  0.1238499E+02  0.2358965E+02  0.5261976E+01  0.1210364E+03
Ar  511  0.1275509E+02  0.2106690E+02  0.7887821E+01  0.3900495E+02
Ar  512  0.1039248E+02  0.2405929E+02  0.8011770E+01  0.5486249E+02
Ar  513  0.1101616E+02  0.2134965E+02  0.1101616E+02  0.3716815E+03
Ar  514  0.1352831E+02  0.2378506E+02  0.1083782E+02  0.4774242E+03
Ar  515  0.1334950E+02  0.2051429E+02  0.1334950E+02  0.8227549E+02
Ar  516  0.1083782E+02  0.2378506E+02  0.1352831E+02  0.4774242E+03
Ar  517  0.1008318E+02  0.2110657E+02  0.1599355E+02  0.7529497E+02
Ar  518  0.1276437E+02  0.2368564E+02  0.1602250E+02  0.1910626E+03
Ar  519  0.1261148E+02  0.2121095E+02  0.1852645E+02  0.1785640E+03
Ar  520  0.1028197E+02  0.2392752E+02  0.1834912E+02  0.2757730E+03
Ar  521  0.1005223E+02  0.2106363E+02  0.2106363E+02  0.6292515E+01
Ar  522  0.1268800E+02  0.2378323E+02  0.2095698E+02  0.1359012E+03
Ar  523  0.1268800E+02  0.2095698E+02  0.2378323E+02  0.1359012E+03
Ar  524  0.1031991E+02  0.2395676E+02  0.2395676E+02  0.1673289E+03
Ar  525  0.1017163E+02  0.2062933E+02  0.2650342E+02  0.5761087E+02
Ar  526  0.1295769E+02  0.2366816E+02  0.2657929E+02  0.2276139E+03
Ar  527  0.1341574E+02  0.2078326E+02  0.2905405E+02  0.1014990E+03
Ar  528  0.1070477E+02  0.2400953E+02  0.2980997E+02  0.1158704E+03
Ar  529  0.1027359E+02  0.2117130E+02  0.3146351E+02  0.1465561E+03
Ar  530  0.1323839E+02  0.2323011E+02  0.3179051E+02  0.1314579E+03
Ar  531  0.1303539E+02  0.2095743E+02  0.3456489E+02  0.1391114E+03
Ar  532  0.1022663E+02  0.2370497E+02  0.3495042E+02  0.9371357E+02
Ar  533  0.1000491E+02  0.2639739E+02  0.3700842E+02  0.1084034E+03
Ar  534  0.1260269E+02  0.2888609E+02  0.3745671E+02  0.4138374E+03
Ar  535  0.1281112E+02  0.2658703E+02  0.2402620E+01  0.2310680E+03
Ar  536  0.1052512E+02  0.2946774E+02  0.2740656E+01  0.2353383E+03
Ar  537  0.1025689E+02  0.2656632E+02  0.5045141E+01  0.1214452E+03
Ar  538  0.1305903E+02  0.2920703E+02  0.5258830E+01  0.1905642E+03
Ar  539  0.1299155E+02  0.2663306E+02  0.7977467E+01  0.7553641E+02
Ar  540  0.1083180E+02  0.2933263E+02  0.8038664E+01  0.2202887E+03
Ar  541  0.1128020E+02  0.2674471E+02  0.1128020E+02  0.5051882E+03
Ar  542  0.1339811E+02  0.2964571E+02  0.1065157E+02  0.1235420E+03
Ar  543  0.1369707E+02  0.2678137E+02  0.1369707E+02  0.2049621E+02
Ar  544  0.1065157E+02  0.2964571E+02  0.1339811E+02  0.1235420E+03
Ar  545  0.1082103E+02  0.2701524E+02  0.1567516E+02  0.1984054E+03
Ar  546  0.1338903E+02  0.2930227E+02  0.1623686E+02  0.1684686E+02
Ar  547  0.1328790E+02  0.2612278E+02  0.1833852E+02  0.5124293E+02
Ar  548  0.1024770E+02  0.2912447E+02  0.1840323E+02  0.2361386E+03
Ar  549  0.1017163E+02  0.2650342E+02  0.2062933E+02  0.5761087E+02
Ar  550  0.1341574E+02  0.2905405E+02  0.2078326E+02  0.1014990E+03
Ar  551  0.1295769E+02  0.2657929E+02  0.2366816E+02  0.2276139E+03
Ar  552  0.1070477E+02  0.2980997E+02  0.2400953E+02  0.1158704E+03
Ar  553  0.1013662E+02  0.2627590E+02  0.2627590E+02  0.1058775E+03
Ar  554  0.1311798E+02  0.2922607E+02  0.2653146E+02  0.7306138E+03
Ar  555  0.1311798E+02  0.2653146E+02  0.2922607E+02  0.7306138E+03
Ar  556  0.1012174E+02  0.2884302E+02  0.2884302E+02  0.2052942E+02
Ar  557  0.1014203E+02  0.2655048E+02  0.3228588E+02  0.1467671E+03
Ar  558  0.1262684E+02  0.2883044E+02  0.3167202E+02  0.2125144E+02
Ar  559  0.1285871E+02  0.2630327E+02  0.3455482E+02  0.5166817E+02
Ar  560  0.1016580E+02  0.2911731E+02  0.3464426E+02  0.2454129E+01
Ar  561  0.1070901E+02  0.3205835E+02  0.3774713E+02  0.1630064E+03
Ar  562  0.1345526E+02  0.3478400E+02  0.3740881E+02  0.3449699E+03
Ar  563  0.1294323E+02  0.3202829E+02  0.2796281E+01  0.2812808E+03
Ar  564  0.1093442E+02  0.3482440E+02  0.2416877E+01  0.8837402E+02
Ar  565  0.1054060E+02  0.3196374E+02  0.5299843E+01  0.1794432E+03
Ar  566  0.1313506E+02  0.3440998E+02  0.5169783E+01  0.1233291E+03
Ar  567  0.1338321E+02  0.3184336E+02  0.7857840E+01  0.1003312E+03
Ar  568  0.1069935E+02  0.3459483E+02  0.7567516E+01  0.1236083E+03
Ar  569  0.1060071E+02  0.3241655E+02  0.1060071E+02  0.7182608E+01
Ar  570  0.1317221E+02  0.3491672E+02  0.1073660E+02  0.2180811E+03
Ar  571  0.1350034E+02  0.3250409E+02  0.1350034E+02  0.1836268E+03
Ar  572  0.1073660E+02  0.3491672E+02  0.1317221E+02  0.2180811E+03
Ar  573  0.1027543E+02  0.3221499E+02  0.1609297E+02  0.8690894E+02
Ar  574  0.1278093E+02  0.3476620E+02  0.1618873E+02  0.6565454E+02
Ar  575  0.1317679E+02  0.3181399E+02  0.1861799E+02  0.8664764E+01
Ar  576  0.1019222E+02  0.3412442E+02  0.1910527E+02  0.3033352E+02
Ar  577  0.1027359E+02  0.3146351E+02  0.2117130E+02  0.1465561E+03
Ar  578  0.1303539E+02  0.3456489E+02  0.2095743E+02  0.1391114E+03
Ar  579  0.1323839E+02  0.3179051E+02  0.2323011E+02  0.1314579E+03
Ar  580  0.1022663E+02  0.3495042E+02  0.2370497E+02  0.9371357E+02
Ar  581  0.1014203E+02  0.3228588E+02  0.2655048E+02  0.1467671E+03
Ar  582  0.1285871E+02  0.3455482E+02  0.2630327E+02  0.5166817E+02
Ar  583  0.1262684E+02  0.3167202E+02  0.2883044E+02  0.2125144E+02
Ar  584  0.1016580E+02  0.3464426E+02  0.2911731E+02  0.2454129E+01
Ar  585  0.1007085E+02  0.3221240E+02  0.3221240E+02  0.1470962E+03
Ar  586  0.1280387E+02  0.3395689E+02  0.3126527E+02  0.3892919E+02
Ar  587  0.1280387E+02  0.3126527E+02  0.3395689E+02  0.3892919E+02
Ar  588  0.1073657E+02  0.3504811E+02  0.3504811E+02  0.2758896E+03
Ar  589  0.1539948E+02  0.2981111E+00  0.2981111E+00  0.2000118E+03
Ar  590  0.1844951E+02  0.2440242E+01  0.3772895E+02  0.3000078E+03
Ar  591  0.1844951E+02  0.3772895E+02  0.2440242E+01  0.3000078E+03
Ar  592  0.1647881E+02  0.2833374E+01  0.2833374E+01  0.2301932E+03
Ar  593  0.1610343E+02  0.3748914E+02  0.5264354E+01  0.5510989E+03
Ar  594  0.1846071E+02  0.2482836E+01  0.5428882E+01  0.2251505E+03
Ar  595  0.1877281E+02  0.3729823E+02  0.8271028E+01  0.1706155E+03
Ar  596  0.1602557E+02  0.2417975E+01  0.8096817E+01  0.8852638E+02
Ar  597  0.1586847E+02  0.3740046E+02  0.1020878E+02  0.2569545E+03
Ar  598  0.1843083E+02  0.2473287E+01  0.1071723E+02  0.3887875E+02
Ar  599  0.1828428E+02  0.1469985E+00  0.1315919E+02  0.1184821E+03
Ar  600  0.1546245E+02  0.2366643E+01  0.1285414E+02  0.1319857E+03
Ar  601  0.1603119E+02  0.3758688E+02  0.1603119E+02  0.3434818E+03
Ar  602  0.1864286E+02  0.2620155E+01  0.1613509E+02  0.6955862E+02
Ar  603  0.1883811E+02  0.2869314E+00  0.1883811E+02  0.6531162E+03
Ar  604  0.1613509E+02  0.2620155E+01  0.1864286E+02  0.6955862E+02
Ar  605  0.1574804E+02  0.3717247E+02  0.2140229E+02  0.2308311E+02
Ar  606  0.1876986E+02  0.2640686E+01  0.2162811E+02  0.1579079E+03
Ar  607  0.1820273E+02  0.3727990E+02  0.2419132E+02  0.3419574E+02
Ar  608  0.1539678E+02  0.2047556E+01  0.2400048E+02  0.1707855E+03
Ar  609  0.1552558E+02  0.3729886E+02  0.2689759E+02  0.3600138E+03
Ar  610  0.1833110E+02  0.2213897E+01  0.2678419E+02  0.2986944E+03
Ar  611  0.1868033E+02  0.3705104E+02  0.2893928E+02  0.1087245E+03
Ar  612  0.1542217E+02  0.2331086E+01  0.2912957E+02  0.2404628E+03
Ar  613  0.1476721E+02  0.3705110E+02  0.3175127E+02  0.3789025E+03
Ar  614  0.1849548E+02  0.1723598E+01  0.3179854E+02  0.1593377E+03
Ar  615  0.1832990E+02  0.3752986E+02  0.3467790E+02  0.1889619E+03
Ar  616  0.1575859E+02  0.2631265E+01  0.3503581E+02  0.7513570E+02
Ar  617  0.1610343E+02  0.5264354E+01  0.3748914E+02  0.5510989E+03
Ar  618  0.1877281E+02  0.8271028E+01  0.3729823E+02  0.1706155E+03
Ar  619  0.1846071E+02  0.5428882E+01  0.2482836E+01  0.2251505E+03
Ar  620  0.1602557E+02  0.8096817E+01  0.2417975E+01  0.8852638E+02
Ar  621  0.1577580E+02  0.5314151E+01  0.5314151E+01  0.2817568E+02
Ar  622  0.1849778E+02  0.7717889E+01  0.5305894E+01  0.3197651E+02
Ar  623  0.1849778E+02  0.5305894E+01  0.7717889E+01  0.3197651E+02
Ar  624  0.1548936E+02  0.7878771E+01  0.7878771E+01  0.2024753E+02
Ar  625  0.1570032E+02  0.5204572E+01  0.1019456E+02  0.2972191E+03
Ar  626  0.1825350E+02  0.7873995E+01  0.1031291E+02  0.9799539E+02
Ar  627  0.1863904E+02  0.4659683E+01  0.1336688E+02  0.2023156E+03
Ar  628  0.1589815E+02  0.7717346E+01  0.1318782E+02  0.3049867E+03
Ar  629  0.1564723E+02  0.4735497E+01  0.1564723E+02  0.1226398E+03
Ar  630  0.1866663E+02  0.7223267E+01  0.1560780E+02  0.2232648E+03
Ar  631  0.1870178E+02  0.5020188E+01  0.1870178E+02  0.2177173E+02
Ar  632  0.1560780E+02  0.7223267E+01  0.1866663E+02  0.2232648E+03
Ar  633  0.1562921E+02  0.5055096E+01  0.2160267E+02  0.8124169E+02
Ar  634  0.1827188E+02  0.7492249E+01  0.2167649E+02  0.2231808E+03
Ar  635  0.1864577E+02  0.4970135E+01  0.2460373E+02  0.1252378E+03
Ar  636  0.1558955E+02  0.7612400E+01  0.2400373E+02  0.2190647E+02
Ar  637  0.1540234E+02  0.5390139E+01  0.2646964E+02  0.2516975E+03
Ar  638  0.1807731E+02  0.7717815E+01  0.2661373E+02  0.3423640E+03
Ar  639  0.1867744E+02  0.4445518E+01  0.2924432E+02  0.1559550E+03
Ar  640  0.1592446E+02  0.7773072E+01  0.2957185E+02  0.8424409E+02
Ar  641  0.1583888E+02  0.4461550E+01  0.3193135E+02  0.2232885E+03
Ar  642  0.1830772E+02  0.7452723E+01  0.3190526E+02  0.2661422E+03
Ar  643  0.1823587E+02  0.5157743E+01  0.3487193E+02  0.2210610E+03
Ar  644  0.1563123E+02  0.7942456E+01  0.3467294E+02  0.3338504E+02
Ar  645  0.1586847E+02  0.1020878E+02  0.3740046E+02  0.2569545E+03
Ar  646  0.1828428E+02  0.1315919E+02  0.1469985E+00  0.1184821E+03
Ar  647  0.1843083E+02  0.1071723E+02  0.2473287E+01  0.3887875E+02
Ar  648  0.1546245E+02  0.1285414E+02  0.2366643E+01  0.1319857E+03
Ar  649  0.1570032E+02  0.1019456E+02  0.5204572E+01  0.2972191E+03
Ar  650  0.1863904E+02  0.1336688E+02  0.4659683E+01  0.2023156E+03
Ar  651  0.1825350E+02  0.1031291E+02  0.7873995E+01  0.9799539E+02
Ar  652  0.1589815E+02  0.1318782E+02  0.7717346E+01  0.3049867E+03
Ar  653  0.1556053E+02  0.1073718E+02  0.1073718E+02  0.3411651E+03
Ar  654  0.1838924E+02  0.1293456E+02  0.1004697E+02  0.1131547E+03
Ar  655  0.1838924E+02  0.1004697E+02  0.1293456E+02  0.1131547E+03
Ar  656  0.1599800E+02  0.1365539E+02  0.1365539E+02  0.3591134E+02
Ar  657  0.1561318E+02  0.1024812E+02  0.1561318E+02  0.3245136E+02
Ar  658  0.1856118E+02  0.1294636E+02  0.1599315E+02  0.1165925E+03
Ar  659  0.1885014E+02  0.9609819E+01  0.1885014E+02  0.1074629E+03
Ar  660  0.1599315E+02  0.1294636E+02  0.1856118E+02  0.1165925E+03
Ar  661  0.1599355E+02  0.1008318E+02  0.2110657E+02  0.7529497E+02
Ar  662  0.1852645E+02  0.1261148E+02  0.2121095E+02  0.1785640E+03
Ar  663  0.1834912E+02  0.1028197E+02  0.2392752E+02  0.2757730E+03
Ar  664  0.1602250E+02  0.1276437E+02  0.2368564E+02  0.1910626E+03
Ar  665  0.1567516E+02  0.1082103E+02  0.2701524E+02  0.1984054E+03
Ar  666  0.1833852E+02  0.1328790E+02  0.2612278E+02  0.5124293E+02
Ar  667  0.1840323E+02  0.1024770E+02  0.2912447E+02  0.2361386E+03
Ar  668  0.1623686E+02  0.1338903E+02  0.2930227E+02  0.1684686E+02
Ar  669  0.1609297E+02  0.1027543E+02  0.3221499E+02  0.8690894E+02
Ar  670  0.1861799E+02  0.1317679E+02  0.3181399E+02  0.8664764E+01
Ar  671  0.1910527E+02  0.1019222E+02  0.3412442E+02  0.3033352E+02
Ar  672  0.1618873E+02  0.1278093E+02  0.3476620E+02  0.6565454E+02
Ar  673  0.1603119E+02  0.1603119E+02  0.3758688E+02  0.3434818E+03
Ar  674  0.1883811E+02  0.1883811E+02  0.2869314E+00  0.6531162E+03
Ar  675  0.1864286E+02  0.1613509E+02  0.2620155E+01  0.6955862E+02
Ar  676  0.1613509E+02  0.1864286E+02  0.2620155E+01  0.6955862E+02
Ar  677  0.1564723E+02  0.1564723E+02  0.4735497E+01  0.1226398E+03
Ar  678  0.1870178E+02  0.1870178E+02  0.5020188E+01  0.2177173E+02
Ar  679  0.1866663E+02  0.1560780E+02  0.7223267E+01  0.2232648E+03
Ar  680  0.1560780E+02  0.1866663E+02  0.7223267E+01  0.2232648E+03
Ar  681  0.1561318E+02  0.1561318E+02  0.1024812E+02  0.3245136E+02
Ar  682  0.1885014E+02  0.1885014E+02  0.9609819E+01  0.1074629E+03
Ar  683  0.1856118E+02  0.1599315E+02  0.1294636E+02  0.1165925E+03
Ar  684  0.1599315E+02  0.1856118E+02  0.1294636E+02  0.1165925E+03
Ar  685  0.1620757E+02  0.1620757E+02  0.1620757E+02  0.5087030E+03
Ar  686  0.1868390E+02  0.1868390E+02  0.1593359E+02  0.3851367E+03
Ar  687  0.1868390E+02  0.1593359E+02  0.1868390E+02  0.3851367E+03
Ar  688  0.1593359E+02  0.1868390E+02  0.1868390E+02  0.3851367E+03
Ar  689  0.1563637E+02  0.1563637E+02  0.2049377E+02  0.1783203E+02
Ar  690  0.1851015E+02  0.1851015E+02  0.2162217E+02  0.2100969E+03
Ar  691  0.1888998E+02  0.1570422E+02  0.2367061E+02  0.4081230E+03
Ar  692  0.1570422E+02  0.1888998E+02  0.2367061E+02  0.4081230E+03
Ar  693  0.1607754E+02  0.1607754E+02  0.2648365E+02  0.5371950E+03
Ar  694  0.1839544E+02  0.1839544E+02  0.2634690E+02  0.6519667E+02
Ar  695  0.1865748E+02  0.1604145E+02  0.2908146E+02  0.3440203E+03
Ar  696  0.1604145E+02  0.1865748E+02  0.2908146E+02  0.3440203E+03
Ar  697  0.1592364E+02  0.1592364E+02  0.3176431E+02  0.4401556E+02
Ar  698  0.1818080E+02  0.1818080E+02  0.3227184E+02  0.2930340E+03
Ar  699  0.1836558E+02  0.1545170E+02  0.3449536E+02  0.1954910E+02
Ar  700  0.1545170E+02  0.1836558E+02  0.3449536E+02  0.1954910E+02
Ar  701  0.1574804E+02  0.2140229E+02  0.3717247E+02  0.2308311E+02
Ar  702  0.1820273E+02  0.2419132E+02  0.3727990E+02  0.3419574E+02
Ar  703  0.1876986E+02  0.2162811E+02  0.2640686E+01  0.1579079E+03
Ar  704  0.1539678E+02  0.2400048E+02  0.2047556E+01  0.1707855E+03
Ar  705  0.1562921E+02  0.2160267E+02  0.5055096E+01  0.8124169E+02
Ar  706  0.1864577E+02  0.2460373E+02  0.4970135E+01  0.1252378E+03
Ar  707  0.1827188E+02  0.2167649E+02  0.7492249E+01  0.2231808E+03
Ar  708  0.1558955E+02  0.2400373E+02  0.7612400E+01  0.2190647E+02
Ar  709  0.1599355E+02  0.2110657E+02  0.1008318E+02  0.7529497E+02
Ar  710  0.1834912E+02  0.2392752E+02  0.1028197E+02  0.2757730E+03
Ar  711  0.1852645E+02  0.2121095E+02  0.1261148E+02  0.1785640E+03
Ar  712  0.1602250E+02  0.2368564E+02  0.1276437E+02  0.1910626E+03
Ar  713  0.1563637E+02  0.2049377E+02  0.1563637E+02  0.1783203E+02
Ar  714  0.1888998E+02  0.2367061E+02  0.1570422E+02  0.4081230E+03
Ar  715  0.1851015E+02  0.2162217E+02  0.1851015E+02  0.2100969E+03
Ar  716  0.1570422E+02  0.2367061E+02  0.1888998E+02  0.4081230E+03
Ar  717  0.1588727E+02  0.2099671E+02  0.2099671E+02  0.2642165E+03
Ar  718  0.1820286E+02  0.2367227E+02  0.2116601E+02  0.2274092E+03
Ar  719  0.1820286E+02  0.2116601E+02  0.2367227E+02  0.2274092E+03
Ar  720  0.1550092E+02  0.2426391E+02  0.2426391E+02  0.7076903E+03
Ar  721  0.1561374E+02  0.2128813E+02  0.2644071E+02  0.9627666E+02
Ar  722  0.1839390E+02  0.2366500E+02  0.2689798E+02  0.4085708E+02
Ar  723  0.1844924E+02  0.2127758E+02  0.2967702E+02  0.1781496E+03
Ar  724  0.1583234E+02  0.2367520E+02  0.2932094E+02  0.1259244E+03
Ar  725  0.1596545E+02  0.2148568E+02  0.3241663E+02  0.7876015E+02
Ar  726  0.1841836E+02  0.2390746E+02  0.3200971E+02  0.4930505E+02
Ar  727  0.1863049E+02  0.2108094E+02  0.3470242E+02  0.1838086E+03
Ar  728  0.1564845E+02  0.2419327E+02  0.3469408E+02  0.1485249E+03
Ar  729  0.1552558E+02  0.2689759E+02  0.3729886E+02  0.3600138E+03
Ar  730  0.1868033E+02  0.2893928E+02  0.3705104E+02  0.1087245E+03
Ar  731  0.1833110E+02  0.2678419E+02  0.2213897E+01  0.2986944E+03
Ar  732  0.1542217E+02  0.2912957E+02  0.2331086E+01  0.2404628E+03
Ar  733  0.1540234E+02  0.2646964E+02  0.5390139E+01  0.2516975E+03
Ar  734  0.1867744E+02  0.2924432E+02  0.4445518E+01  0.1559550E+03
Ar  735  0.1807731E+02  0.2661373E+02  0.7717815E+01  0.3423640E+03
Ar  736  0.1592446E+02  0.2957185E+02  0.7773072E+01  0.8424409E+02
Ar  737  0.1567516E+02  0.2701524E+02  0.1082103E+02  0.1984054E+03
Ar  738  0.1840323E+02  0.2912447E+02  0.1024770E+02  0.2361386E+03
Ar  739  0.1833852E+02  0.2612278E+02  0.1328790E+02  0.5124293E+02
Ar  740  0.1623686E+02  0.2930227E+02  0.1338903E+02  0.1684686E+02
Ar  741  0.1607754E+02  0.2648365E+02  0.1607754E+02  0.5371950E+03
Ar  742  0.1865748E+02  0.2908146E+02  0.1604145E+02  0.3440203E+03
Ar  743  0.1839544E+02  0.2634690E+02  0.1839544E+02  0.6519667E+02
Ar  744  0.1604145E+02  0.2908146E+02  0.1865748E+02  0.3440203E+03
Ar  745  0.1561374E+02  0.2644071E+02  0.2128813E+02  0.9627666E+02
Ar  746  0.1844924E+02  0.2967702E+02  0.2127758E+02  0.1781496E+03
Ar  747  0.1839390E+02  0.2689798E+02  0.2366500E+02  0.4085708E+02
Ar  748  0.1583234E+02  0.2932094E+02  0.2367520E+02  0.1259244E+03
Ar  749  0.1555616E+02  0.2657071E+02  0.2657071E+02  0.8015879E+02
Ar  750  0.1807567E+02  0.2954175E+02  0.2690242E+02  0.1312631E+03
Ar  751  0.1807567E+02  0.2690242E+02  0.2954175E+02  0.1312631E+03
Ar  752  0.1553189E+02  0.2978352E+02  0.2978352E+02  0.1118289E+03
Ar  753  0.1527870E+02  0.2649293E+02  0.3189798E+02  0.6417945E+02
Ar  754  0.1863320E+02  0.2978741E+02  0.3209793E+02  0.1007994E+02
Ar  755  0.1860542E+02  0.2685917E+02  0.3392006E+02  0.5506979E+03
Ar  756  0.1576970E+02  0.2906015E+02  0.3433456E+02  0.2217250E+01
Ar  757  0.1476721E+02  0.3175127E+02  0.3705110E+02  0.3789025E+03
Ar  758  0.1832990E+02  0.3467790E+02  0.3752986E+02  0.1889619E+03
Ar  759  0.1849548E+02  0.3179854E+02  0.1723598E+01  0.1593377E+03
Ar  760  0.1575859E+02  0.3503581E+02  0.2631265E+01  0.7513570E+02
Ar  761  0.1583888E+02  0.3193135E+02  0.4461550E+01  0.2232885E+03
Ar  762  0.1823587E+02  0.3487193E+02  0.5157743E+01  0.2210610E+03
Ar  763  0.1830772E+02  0.3190526E+02  0.7452723E+01  0.2661422E+03
Ar  764  0.1563123E+02  0.3467294E+02  0.7942456E+01  0.3338504E+02
Ar  765  0.1609297E+02  0.3221499E+02  0.1027543E+02  0.8690894E+02
Ar  766  0.1910527E+02  0.3412442E+02  0.1019222E+02  0.3033352E+02
Ar  767  0.1861799E+02  0.3181399E+02  0.1317679E+02  0.8664764E+01
Ar  768  0.1618873E+02  0.3476620E+02  0.1278093E+02  0.6565454E+02
Ar  769  0.1592364E+02  0.3176431E+02  0.1592364E+02  0.4401556E+02
Ar  770  0.1836558E+02  0.3449536E+02  0.1545170E+02  0.1954910E+02
Ar  771  0.1818080E+02  0.3227184E+02  0.1818080E+02  0.2930340E+03
Ar  772  0.1545170E+02  0.3449536E+02  0.1836558E+02  0.1954910E+02
Ar  773  0.1596545E+02  0.3241663E+02  0.2148568E+02  0.7876015E+02
Ar  774  0.1863049E+02  0.3470242E+02  0.2108094E+02  0.1838086E+03
Ar  775  0.1841836E+02  0.3200971E+02  0.2390746E+02  0.4930505E+02
Ar  776  0.1564845E+02  0.3469408E+02  0.2419327E+02  0.1485249E+03
Ar  777  0.1527870E+02  0.3189798E+02  0.2649293E+02  0.6417945E+02
Ar  778  0.1860542E+02  0.3392006E+02  0.2685917E+02  0.5506979E+03
Ar  779  0.1863320E+02  0.3209793E+02  0.2978741E+02  0.1007994E+02
Ar  780  0.1576970E+02  0.3433456E+02  0.2906015E+02  0.2217250E+01
Ar  781  0.1562024E+02  0.3230315E+02  0.3230315E+02  0.1288773E+03
Ar  782  0.1831591E+02  0.3485395E+02  0.3200495E+02  0.3207245E+03
Ar  783  0.1831591E+02  0.3200495E+02  0.3485395E+02  0.3207245E+03
Ar  784  0.1587210E+02  0.3468389E+02  0.3468389E+02  0.4313013E+03
Ar  785  0.2086354E+02  0.3777164E+02  0.3777164E+02  0.1012884E+03
Ar  786  0.2382791E+02  0.2253633E+01  0.3747806E+02  0.7559727E+02
Ar  787  0.2382791E+02  0.3747806E+02  0.2253633E+01  0.7559727E+02
Ar  788  0.2122273E+02  0.2793172E+01  0.2793172E+01  0.4059124E+02
Ar  789  0.2127550E+02  0.3769569E+02  0.5170982E+01  0.3055098E+03
Ar  790  0.2378810E+02  0.2611669E+01  0.5660000E+01  0.2664127E+03
Ar  791  0.2333397E+02  0.3756571E+02  0.7779370E+01  0.2427851E+03
Ar  792  0.2104111E+02  0.2342110E+01  0.8138778E+01  0.4429712E+03
Ar  793  0.2122605E+02  0.3708035E+02  0.1067600E+02  0.9969779E+02
Ar  794  0.2375660E+02  0.2169568E+01  0.1060127E+02  0.1671219E+03
Ar  795  0.2402983E+02  0.3744808E+02  0.1304969E+02  0.5285536E+03
Ar  796  0.2129639E+02  0.2283673E+01  0.1297345E+02  0.2030438E+02
Ar  797  0.2140229E+02  0.3717247E+02  0.1574804E+02  0.2308311E+02
Ar  798  0.2400048E+02  0.2047556E+01  0.1539678E+02  0.1707855E+03
Ar  799  0.2419132E+02  0.3727990E+02  0.1820273E+02  0.3419574E+02
Ar  800  0.2162811E+02  0.2640686E+01  0.1876986E+02  0.1579079E+03
Ar  801  0.2119678E+02  0.3735288E+02  0.2119678E+02  0.3275406E+03
Ar  802  0.2428819E+02  0.2008284E+01  0.2145567E+02  0.1255461E+03
Ar  803  0.2364190E+02  0.3659572E+02  0.2364190E+02  0.3264753E+02
Ar  804  0.2145567E+02  0.2008284E+01  0.2428819E+02  0.1255461E+03
Ar  805  0.2111286E+02  0.3676598E+02  0.2654517E+02  0.5631628E+03
Ar  806  0.2419245E+02  0.1737623E+01  0.2671682E+02  0.1009615E+03
Ar  807  0.2401635E+02  0.3683620E+02  0.2918379E+02  0.2063841E+03
Ar  808  0.2146243E+02  0.1642193E+01  0.2941678E+02  0.5833340E+03
Ar  809  0.2110775E+02  0.3714775E+02  0.3225229E+02  0.4439775E+03
Ar  810  0.2400418E+02  0.1789203E+01  0.3160001E+02  0.6602103E+02
Ar  811  0.2366659E+02  0.3746309E+02  0.3477335E+02  0.1991490E+03
Ar  812  0.2079502E+02  0.2643873E+01  0.3468831E+02  0.2025846E+02
Ar  813  0.2127550E+02  0.5170982E+01  0.3769569E+02  0.3055098E+03
Ar  814  0.2333397E+02  0.7779370E+01  0.3756571E+02  0.2427851E+03
Ar  815  0.2378810E+02  0.5660000E+01  0.2611669E+01  0.2664127E+03
Ar  816  0.2104111E+02  0.8138778E+01  0.2342110E+01  0.4429712E+03
Ar  817  0.2076983E+02  0.5189078E+01  0.5189078E+01  0.1228411E+03
Ar  818  0.2360842E+02  0.8367252E+01  0.4953895E+01  0.9241399E+02
Ar  819  0.2360842E+02  0.4953895E+01  0.8367252E+01  0.9241399E+02
Ar  820  0.2173934E+02  0.7672162E+01  0.7672162E+01  0.1361826E+03
Ar  821  0.2049829E+02  0.5051059E+01  0.1060396E+02  0.2564073E+03
Ar  822  0.2405929E+02  0.8011770E+01  0.1039248E+02  0.5486249E+02
Ar  823  0.2358965E+02  0.5261976E+01  0.1238499E+02  0.1210364E+03
Ar  824  0.2106690E+02  0.7887821E+01  0.1275509E+02  0.3900495E+02
Ar  825  0.2160267E+02  0.5055096E+01  0.1562921E+02  0.8124169E+02
Ar  826  0.2400373E+02  0.7612400E+01  0.1558955E+02  0.2190647E+02
Ar  827  0.2460373E+02  0.4970135E+01  0.1864577E+02  0.1252378E+03
Ar  828  0.2167649E+02  0.7492249E+01  0.1827188E+02  0.2231808E+03
Ar  829  0.2124123E+02  0.5211487E+01  0.2124123E+02  0.1789329E+03
Ar  830  0.2367154E+02  0.7609603E+01  0.2100059E+02  0.1139777E+03
Ar  831  0.2427923E+02  0.4539056E+01  0.2427923E+02  0.1663546E+01
Ar  832  0.2100059E+02  0.7609603E+01  0.2367154E+02  0.1139777E+03
Ar  833  0.2177512E+02  0.4301337E+01  0.2673681E+02  0.1625250E+03
Ar  834  0.2383865E+02  0.7746312E+01  0.2696034E+02  0.9981395E+02
Ar  835  0.2437811E+02  0.4947919E+01  0.2915944E+02  0.8391941E+02
Ar  836  0.2067568E+02  0.7492606E+01  0.2925159E+02  0.2389248E+03
Ar  837  0.2100587E+02  0.4607173E+01  0.3193472E+02  0.3786828E+02
Ar  838  0.2396988E+02  0.7286188E+01  0.3185512E+02  0.5952687E+02
Ar  839  0.2341085E+02  0.5128566E+01  0.3470097E+02  0.1235170E+02
Ar  840  0.2101135E+02  0.7477946E+01  0.3440745E+02  0.2642972E+02
Ar  841  0.2122605E+02  0.1067600E+02  0.3708035E+02  0.9969779E+02
Ar  842  0.2402983E+02  0.1304969E+02  0.3744808E+02  0.5285536E+03
Ar  843  0.2375660E+02  0.1060127E+02  0.2169568E+01  0.1671219E+03
Ar  844  0.2129639E+02  0.1297345E+02  0.2283673E+01  0.2030438E+02
Ar  845  0.2049829E+02  0.1060396E+02  0.5051059E+01  0.2564073E+03
Ar  846  0.2358965E+02  0.1238499E+02  0.5261976E+01  0.1210364E+03
Ar  847  0.2405929E+02  0.1039248E+02  0.8011770E+01  0.5486249E+02
Ar  848  0.2106690E+02  0.1275509E+02  0.7887821E+01  0.3900495E+02
Ar  849  0.2134965E+02  0.1101616E+02  0.1101616E+02  0.3716815E+03
Ar  850  0.2378506E+02  0.1352831E+02  0.1083782E+02  0.4774242E+03
Ar  851  0.2378506E+02  0.1083782E+02  0.1352831E+02  0.4774242E+03
Ar  852  0.2051429E+02  0.1334950E+02  0.1334950E+02  0.8227549E+02
Ar  853  0.2110657E+02  0.1008318E+02  0.1599355E+02  0.7529497E+02
Ar  854  0.2368564E+02  0.1276437E+02  0.1602250E+02  0.1910626E+03
Ar  855  0.2392752E+02  0.1028197E+02  0.1834912E+02  0.2757730E+03
Ar  856  0.2121095E+02  0.1261148E+02  0.1852645E+02  0.1785640E+03
Ar  857  0.2106363E+02  0.1005223E+02  0.2106363E+02  0.6292515E+01
Ar  858  0.2378323E+02  0.1268800E+02  0.2095698E+02  0.1359012E+03
Ar  859  0.2395676E+02  0.1031991E+02  0.2395676E+02  0.1673289E+03
Ar  860  0.2095698E+02  0.1268800E+02  0.2378323E+02  0.1359012E+03
Ar  861  0.2062933E+02  0.1017163E+02  0.2650342E+02  0.5761087E+02
Ar  862  0.2366816E+02  0.1295769E+02  0.2657929E+02  0.2276139E+03
Ar  863  0.2400953E+02  0.1070477E+02  0.2980997E+02  0.1158704E+03
Ar  864  0.2078326E+02  0.1341574E+02  0.2905405E+02  0.1014990E+03
Ar  865  0.2117130E+02  0.1027359E+02  0.3146351E+02  0.1465561E+03
Ar  866  0.2323011E+02  0.1323839E+02  0.3179051E+02  0.1314579E+03
Ar  867  0.2370497E+02  0.1022663E+02  0.3495042E+02  0.9371357E+02
Ar  868  0.2095743E+02  0.1303539E+02  0.3456489E+02  0.1391114E+03
Ar  869  0.2140229E+02  0.1574804E+02  0.3717247E+02  0.2308311E+02
Ar  870  0.2419132E+02  0.1820273E+02  0.3727990E+02  0.3419574E+02
Ar  871  0.2400048E+02  0.1539678E+02  0.2047556E+01  0.1707855E+03
Ar  872  0.2162811E+02  0.1876986E+02  0.2640686E+01  0.1579079E+03
Ar  873  0.2160267E+02  0.1562921E+02  0.5055096E+01  0.8124169E+02
Ar  874  0.2460373E+02  0.1864577E+02  0.4970135E+01  0.1252378E+03
Ar  875  0.2400373E+02  0.1558955E+02  0.7612400E+01  0.2190647E+02
Ar  876  0.2167649E+02  0.1827188E+02  0.7492249E+01  0.2231808E+03
Ar  877  0.2110657E+02  0.1599355E+02  0.1008318E+02  0.7529497E+02
Ar  878  0.2392752E+02  0.1834912E+02  0.1028197E+02  0.2757730E+03
Ar  879  0.2368564E+02  0.1602250E+02  0.1276437E+02  0.1910626E+03
Ar  880  0.2121095E+02  0.1852645E+02  0.1261148E+02  0.1785640E+03
Ar  881  0.2049377E+02  0.1563637E+02  0.1563637E+02  0.1783203E+02
Ar  882  0.2367061E+02  0.1888998E+02  0.1570422E+02  0.4081230E+03
Ar  883  0.2367061E+02  0.1570422E+02  0.1888998E+02  0.4081230E+03
Ar  884  0.2162217E+02  0.1851015E+02  0.1851015E+02  0.2100969E+03
Ar  885  0.2099671E+02  0.1588727E+02  0.2099671E+02  0.2642165E+03
Ar  886  0.2367227E+02  0.1820286E+02  0.2116601E+02  0.2274092E+03
Ar  887  0.2426391E+02  0.1550092E+02  0.2426391E+02  0.7076903E+03
Ar  888  0.2116601E+02  0.1820286E+02  0.2367227E+02  0.2274092E+03
Ar  889  0.2128813E+02  0.1561374E+02  0.2644071E+02  0.9627666E+02
Ar  890  0.2366500E+02  0.1839390E+02  0.2689798E+02  0.4085708E+02
Ar  891  0.2367520E+02  0.1583234E+02  0.2932094E+02  0.1259244E+03
Ar  892  0.2127758E+02  0.1844924E+02  0.2967702E+02  0.1781496E+03
Ar  893  0.2148568E+02  0.1596545E+02  0.3241663E+02  0.7876015E+02
Ar  894  0.2390746E+02  0.1841836E+02  0.3200971E+02  0.4930505E+02
Ar  895  0.2419327E+02  0.1564845E+02  0.3469408E+02  0.1485249E+03
Ar  896  0.2108094E+02  0.1863049E+02  0.3470242E+02  0.1838086E+03
Ar  897  0.2119678E+02  0.2119678E+02  0.3735288E+02  0.3275406E+03
Ar  898  0.2364190E+02  0.2364190E+02  0.3659572E+02  0.3264753E+02
Ar  899  0.2428819E+02  0.2145567E+02  0.2008284E+01  0.1255461E+03
Ar  900  0.2145567E+02  0.2428819E+02  0.2008284E+01  0.1255461E+03
Ar  901  0.2124123E+02  0.2124123E+02  0.5211487E+01  0.1789329E+03
Ar  902  0.2427923E+02  0.2427923E+02  0.4539056E+01  0.1663546E+01
Ar  903  0.2367154E+02  0.2100059E+02  0.7609603E+01  0.1139777E+03
Ar  904  0.2100059E+02  0.2367154E+02  0.7609603E+01  0.1139777E+03
Ar  905  0.2106363E+02  0.2106363E+02  0.1005223E+02  0.6292515E+01
Ar  906  0.2395676E+02  0.2395676E+02  0.1031991E+02  0.1673289E+03
Ar  907  0.2378323E+02  0.2095698E+02  0.1268800E+02  0.1359012E+03
Ar  908  0.2095698E+02  0.2378323E+02  0.1268800E+02  0.1359012E+03
Ar  909  0.2099671E+02  0.2099671E+02  0.1588727E+02  0.2642165E+03
Ar  910  0.2426391E+02  0.2426391E+02  0.1550092E+02  0.7076903E+03
Ar  911  0.2367227E+02  0.2116601E+02  0.1820286E+02  0.2274092E+03
Ar  912  0.2116601E+02  0.2367227E+02  0.1820286E+02  0.2274092E+03
Ar  913  0.2111911E+02  0.2111911E+02  0.2111911E+02  0.2641904E+03
Ar  914  0.2392784E+02  0.2392784E+02  0.2061178E+02  0.3585741E+03
Ar  915  0.2392784E+02  0.2061178E+02  0.2392784E+02  0.3585741E+03
Ar  916  0.2061178E+02  0.2392784E+02  0.2392784E+02  0.3585741E+03
Ar  917  0.2081115E+02  0.2081115E+02  0.2652920E+02  0.5350153E+02
Ar  918  0.2322865E+02  0.2322865E+02  0.2735045E+02  0.2321799E+03
Ar  919  0.2420782E+02  0.2091305E+02  0.2915566E+02  0.1466872E+03
Ar  920  0.2091305E+02  0.2420782E+02  0.2915566E+02  0.1466872E+03
Ar  921  0.2110909E+02  0.2110909E+02  0.3186473E+02  0.4340763E+02
Ar  922  0.2422043E+02  0.2422043E+02  0.3172761E+02  0.3034874E+03
Ar  923  0.2389006E+02  0.2122342E+02  0.3430413E+02  0.4087294E+03
Ar  924  0.2122342E+02  0.2389006E+02  0.3430413E+02  0.4087294E+03
Ar  925  0.2111286E+02  0.2654517E+02  0.3676598E+02  0.5631628E+03
Ar  926  0.2401635E+02  0.2918379E+02  0.3683620E+02  0.2063841E+03
Ar  927  0.2419245E+02  0.2671682E+02  0.1737623E+01  0.1009615E+03
Ar  928  0.2146243E+02  0.2941678E+02  0.1642193E+01  0.5833340E+03
Ar  929  0.2177512E+02  0.2673681E+02  0.4301337E+01  0.1625250E+03
Ar  930  0.2437811E+02  0.2915944E+02  0.4947919E+01  0.8391941E+02
Ar  931  0.2383865E+02  0.2696034E+02  0.7746312E+01  0.9981395E+02
Ar  932  0.2067568E+02  0.2925159E+02  0.7492606E+01  0.2389248E+03
Ar  933  0.2062933E+02  0.2650342E+02  0.1017163E+02  0.5761087E+02
Ar  934  0.2400953E+02  0.2980997E+02  0.1070477E+02  0.1158704E+03
Ar  935  0.2366816E+02  0.2657929E+02  0.1295769E+02  0.2276139E+03
Ar  936  0.2078326E+02  0.2905405E+02  0.1341574E+02  0.1014990E+03
Ar  937  0.2128813E+02  0.2644071E+02  0.1561374E+02  0.9627666E+02
Ar  938  0.2367520E+02  0.2932094E+02  0.1583234E+02  0.1259244E+03
Ar  939  0.2366500E+02  0.2689798E+02  0.1839390E+02  0.4085708E+02
Ar  940  0.2127758E+02  0.2967702E+02  0.1844924E+02  0.1781496E+03
Ar  941  0.2081115E+02  0.2652920E+02  0.2081115E+02  0.5350153E+02
Ar  942  0.2420782E+02  0.2915566E+02  0.2091305E+02  0.1466872E+03
Ar  943  0.2322865E+02  0.2735045E+02  0.2322865E+02  0.2321799E+03
Ar  944  0.2091305E+02  0.2915566E+02  0.2420782E+02  0.1466872E+03
Ar  945  0.2162375E+02  0.2640977E+02  0.2640977E+02  0.1300100E+03
Ar  946  0.2378505E+02  0.2917398E+02  0.2649782E+02  0.1108515E+02
Ar  947  0.2378505E+02  0.2649782E+02  0.2917398E+02  0.1108515E+02
Ar  948  0.2128180E+02  0.2891300E+02  0.2891300E+02  0.2656075E+02
Ar  949  0.2133981E+02  0.2685195E+02  0.3158822E+02  0.2082723E+03
Ar  950  0.2398590E+02  0.2934403E+02  0.3214603E+02  0.1561138E+03
Ar  951  0.2382404E+02  0.2668384E+02  0.3440319E+02  0.2716873E+03
Ar  952  0.2125770E+02  0.2972992E+02  0.3435154E+02  0.6030144E+02
Ar  953  0.2110775E+02  0.3225229E+02  0.3714775E+02  0.4439775E+03
Ar  954  0.2366659E+02  0.3477335E+02  0.3746309E+02  0.1991490E+03
Ar  955  0.2400418E+02  0.3160001E+02  0.1789203E+01  0.6602103E+02
Ar  956  0.2079502E+02  0.3468831E+02  0.2643873E+01  0.2025846E+02
Ar  957  0.2100587E+02  0.3193472E+02  0.4607173E+01  0.3786828E+02
Ar  958  0.2341085E+02  0.3470097E+02  0.5128566E+01  0.1235170E+02
Ar  959  0.2396988E+02  0.3185512E+02  0.7286188E+01  0.5952687E+02
Ar  960  0.2101135E+02  0.3440745E+02  0.7477946E+01  0.2642972E+02
Ar  961  0.2117130E+02  0.3146351E+02  0.1027359E+02  0.1465561E+03
Ar  962  0.2370497E+02  0.3495042E+02  0.1022663E+02  0.9371357E+02
Ar  963  0.2323011E+02  0.3179051E+02  0.1323839E+02  0.1314579E+03
Ar  964  0.2095743E+02  0.3456489E+02  0.1303539E+02  0.1391114E+03
Ar  965  0.2148568E+02  0.3241663E+02  0.1596545E+02  0.7876015E+02
Ar  966  0.2419327E+02  0.3469408E+02  0.1564845E+02  0.1485249E+03
Ar  967  0.2390746E+02  0.3200971E+02  0.1841836E+02  0.4930505E+02
Ar  968  0.2108094E+02  0.3470242E+02  0.1863049E+02  0.1838086E+03
Ar  969  0.2110909E+02  0.3186473E+02  0.2110909E+02  0.4340763E+02
Ar  970  0.2389006E+02  0.3430413E+02  0.2122342E+02  0.4087294E+03
Ar  971  0.2422043E+02  0.3172761E+02  0.2422043E+02  0.3034874E+03
Ar  972  0.2122342E+02  0.3430413E+02  0.2389006E+02  0.4087294E+03
Ar  973  0.2133981E+02  0.3158822E+02  0.2685195E+02  0.2082723E+03
Ar  974  0.2382404E+02  0.3440319E+02  0.2668384E+02  0.2716873E+03
Ar  975  0.2398590E+02  0.3214603E+02  0.2934403E+02  0.1561138E+03
Ar  976  0.2125770E+02  0.3435154E+02  0.2972992E+02  0.6030144E+02
Ar  977  0.2117028E+02  0.3248335E+02  0.3248335E+02  0.7888186E+02
Ar  978  0.2408232E+02  0.3457616E+02  0.3197701E+02  0.1763437E+03
Ar  979  0.2408232E+02  0.3197701E+02  0.3457616E+02  0.1763437E+03
Ar  980  0.2128767E+02  0.3496467E+02  0.3496467E+02  0.1408106E+03
Ar  981  0.2697584E+02  0.3765005E+02  0.3765005E+02  0.8551982E+02
Ar  982  0.2971058E+02  0.2087484E+01  0.3703159E+02  0.3792497E+02
Ar  983  0.2971058E+02  0.3703159E+02  0.2087484E+01  0.3792497E+02
Ar  984  0.2617055E+02  0.2384774E+01  0.2384774E+01  0.8816329E+03
Ar  985  0.2655386E+02  0.3761150E+02  0.5045000E+01  0.9032996E+02
Ar  986  0.2900942E+02  0.2080932E+01  0.4865014E+01  0.4802379E+03
Ar  987  0.2927948E+02  0.3737587E+02  0.7655955E+01  0.3010313E+03
Ar  988  0.2691665E+02  0.2392416E+01  0.7464123E+01  0.7058801E+02
Ar  989  0.2639739E+02  0.3700842E+02  0.1000491E+02  0.1084034E+03
Ar  990  0.2946774E+02  0.2740656E+01  0.1052512E+02  0.2353383E+03
Ar  991  0.2888609E+02  0.3745671E+02  0.1260269E+02  0.4138374E+03
Ar  992  0.2658703E+02  0.2402620E+01  0.1281112E+02  0.2310680E+03
Ar  993  0.2689759E+02  0.3729886E+02  0.1552558E+02  0.3600138E+03
Ar  994  0.2912957E+02  0.2331086E+01  0.1542217E+02  0.2404628E+03
Ar  995  0.2893928E+02  0.3705104E+02  0.1868033E+02  0.1087245E+03
Ar  996  0.2678419E+02  0.2213897E+01  0.1833110E+02  0.2986944E+03
Ar  997  0.2654517E+02  0.3676598E+02  0.2111286E+02  0.5631628E+03
Ar  998  0.2941678E+02  0.1642193E+01  0.2146243E+02  0.5833340E+03
Ar  999  0.2918379E+02  0.3683620E+02  0.2401635E+02  0.2063841E+03
Ar 1000  0.2671682E+02  0.1737623E+01  0.2419245E+02  0.1009615E+03
Ar 1001  0.2657833E+02  0.3696300E+02  0.2657833E+02  0.2841626E+02
Ar 1002  0.2954467E+02  0.1432558E+01  0.2685878E+02  0.3331370E+02
Ar 1003  0.2936588E+02  0.3680542E+02  0.2936588E+02  0.4352101E+03
Ar 1004  0.2685878E+02  0.1432558E+01  0.2954467E+02  0.3331370E+02
Ar 1005  0.2643821E+02  0.3712750E+02  0.3229083E+02  0.5663340E+03
Ar 1006  0.2937228E+02  0.1872720E+01  0.3190116E+02  0.3265024E+02
Ar 1007  0.2953669E+02  0.3734331E+02  0.3486326E+02  0.2230716E+03
Ar 1008  0.2650922E+02  0.2665981E+01  0.3470757E+02  0.4497124E+02
Ar 1009  0.2655386E+02  0.5045000E+01  0.3761150E+02  0.9032996E+02
Ar 1010  0.2927948E+02  0.7655955E+01  0.3737587E+02  0.3010313E+03
Ar 1011  0.2900942E+02  0.4865014E+01  0.2080932E+01  0.4802379E+03
Ar 1012  0.2691665E+02  0.7464123E+01  0.2392416E+01  0.7058801E+02
Ar 1013  0.2679618E+02  0.4866925E+01  0.4866925E+01  0.4476167E+03
Ar 1014  0.2925131E+02  0.8049969E+01  0.5559322E+01  0.2371166E+03
Ar 1015  0.2925131E+02  0.5559322E+01  0.8049969E+01  0.2371166E+03
Ar 1016  0.2579663E+02  0.7730253E+01  0.7730253E+01  0.7742774E+03
Ar 1017  0.2656632E+02  0.5045141E+01  0.1025689E+02  0.1214452E+03
Ar 1018  0.2933263E+02  0.8038664E+01  0.1083180E+02  0.2202887E+03
Ar 1019  0.2920703E+02  0.5258830E+01  0.1305903E+02  0.1905642E+03
Ar 1020  0.2663306E+02  0.7977467E+01  0.1299155E+02  0.7553641E+02
Ar 1021  0.2646964E+02  0.5390139E+01  0.1540234E+02  0.2516975E+03
Ar 1022  0.2957185E+02  0.7773072E+01  0.1592446E+02  0.8424409E+02
Ar 1023  0.2924432E+02  0.4445518E+01  0.1867744E+02  0.1559550E+03
Ar 1024  0.2661373E+02  0.7717815E+01  0.1807731E+02  0.3423640E+03
Ar 1025  0.2673681E+02  0.4301337E+01  0.2177512E+02  0.1625250E+03
Ar 1026  0.2925159E+02  0.7492606E+01  0.2067568E+02  0.2389248E+03
Ar 1027  0.2915944E+02  0.4947919E+01  0.2437811E+02  0.8391941E+02
Ar 1028  0.2696034E+02  0.7746312E+01  0.2383865E+02  0.9981395E+02
Ar 1029  0.2688274E+02  0.3637642E+01  0.2688274E+02  0.1635083E+02
Ar 1030  0.2926727E+02  0.7726472E+01  0.2652743E+02  0.1665548E+03
Ar 1031  0.2912888E+02  0.5138804E+01  0.2912888E+02  0.6739338E+03
Ar 1032  0.2652743E+02  0.7726472E+01  0.2926727E+02  0.1665548E+03
Ar 1033  0.2687903E+02  0.4572937E+01  0.3175511E+02  0.2698874E+03
Ar 1034  0.2950605E+02  0.7413465E+01  0.3209245E+02  0.2374518E+03
Ar 1035  0.2959366E+02  0.5437798E+01  0.3494713E+02  0.2440199E+03
Ar 1036  0.2694785E+02  0.7463972E+01  0.3432807E+02  0.3711396E+03
Ar 1037  0.2639739E+02  0.1000491E+02  0.3700842E+02  0.1084034E+03
Ar 1038  0.2888609E+02  0.1260269E+02  0.3745671E+02  0.4138374E+03
Ar 1039  0.2946774E+02  0.1052512E+02  0.2740656E+01  0.2353383E+03
Ar 1040  0.2658703E+02  0.1281112E+02  0.2402620E+01  0.2310680E+03
Ar 1041  0.2656632E+02  0.1025689E+02  0.5045141E+01  0.1214452E+03
Ar 1042  0.2920703E+02  0.1305903E+02  0.5258830E+01  0.1905642E+03
Ar 1043  0.2933263E+02  0.1083180E+02  0.8038664E+01  0.2202887E+03
Ar 1044  0.2663306E+02  0.1299155E+02  0.7977467E+01  0.7553641E+02
Ar 1045  0.2674471E+02  0.1128020E+02  0.1128020E+02  0.5051882E+03
Ar 1046  0.2964571E+02  0.1339811E+02  0.1065157E+02  0.1235420E+03
Ar 1047  0.2964571E+02  0.1065157E+02  0.1339811E+02  0.1235420E+03
Ar 1048  0.2678137E+02  0.1369707E+02  0.1369707E+02  0.2049621E+02
Ar 1049  0.2701524E+02  0.1082103E+02  0.1567516E+02  0.1984054E+03
Ar 1050  0.2930227E+02  0.1338903E+02  0.1623686E+02  0.1684686E+02
Ar 1051  0.2912447E+02  0.1024770E+02  0.1840323E+02  0.2361386E+03
Ar 1052  0.2612278E+02  0.1328790E+02  0.1833852E+02  0.5124293E+02
Ar 1053  0.2650342E+02  0.1017163E+02  0.2062933E+02  0.5761087E+02
Ar 1054  0.2905405E+02  0.1341574E+02  0.2078326E+02  0.1014990E+03
Ar 1055  0.2980997E+02  0.1070477E+02  0.2400953E+02  0.1158704E+03
Ar 1056  0.2657929E+02  0.1295769E+02  0.2366816E+02  0.2276139E+03
Ar 1057  0.2627590E+02  0.1013662E+02  0.2627590E+02  0.1058775E+03
Ar 1058  0.2922607E+02  0.1311798E+02  0.2653146E+02  0.7306138E+03
Ar 1059  0.2884302E+02  0.1012174E+02  0.2884302E+02  0.2052942E+02
Ar 1060  0.2653146E+02  0.1311798E+02  0.2922607E+02  0.7306138E+03
Ar 1061  0.2655048E+02  0.1014203E+02  0.3228588E+02  0.1467671E+03
Ar 1062  0.2883044E+02  0.1262684E+02  0.3167202E+02  0.2125144E+02
Ar 1063  0.2911731E+02  0.1016580E+02  0.3464426E+02  0.2454129E+01
Ar 1064  0.2630327E+02  0.1285871E+02  0.3455482E+02  0.5166817E+02
Ar 1065  0.2689759E+02  0.1552558E+02  0.3729886E+02  0.3600138E+03
Ar 1066  0.2893928E+02  0.1868033E+02  0.3705104E+02  0.1087245E+03
Ar 1067  0.2912957E+02  0.1542217E+02  0.2331086E+01  0.2404628E+03
Ar 1068  0.2678419E+02  0.1833110E+02  0.2213897E+01  0.2986944E+03
Ar 1069  0.2646964E+02  0.1540234E+02  0.5390139E+01  0.2516975E+03
Ar 1070  0.2924432E+02  0.1867744E+02  0.4445518E+01  0.1559550E+03
Ar 1071  0.2957185E+02  0.1592446E+02  0.7773072E+01  0.8424409E+02
Ar 1072  0.2661373E+02  0.1807731E+02  0.7717815E+01  0.3423640E+03
Ar 1073  0.2701524E+02  0.1567516E+02  0.1082103E+02  0.1984054E+03
Ar 1074  0.2912447E+02  0.1840323E+02  0.1024770E+02  0.2361386E+03
Ar 1075  0.2930227E+02  0.1623686E+02  0.1338903E+02  0.1684686E+02
Ar 1076  0.2612278E+02  0.1833852E+02  0.1328790E+02  0.5124293E+02
Ar 1077  0.2648365E+02  0.1607754E+02  0.1607754E+02  0.5371950E+03
Ar 1078  0.2908146E+02  0.1865748E+02  0.1604145E+02  0.3440203E+03
Ar 1079  0.2908146E+02  0.1604145E+02  0.1865748E+02  0.3440203E+03
Ar 1080  0.2634690E+02  0.1839544E+02  0.1839544E+02  0.6519667E+02
Ar 1081  0.2644071E+02  0.1561374E+02  0.2128813E+02  0.9627666E+02
Ar 1082  0.2967702E+02  0.1844924E+02  0.2127758E+02  0.1781496E+03
Ar 1083  0.2932094E+02  0.1583234E+02  0.2367520E+02  0.1259244E+03
Ar 1084  0.2689798E+02  0.1839390E+02  0.2366500E+02  0.4085708E+02
Ar 1085  0.2657071E+02  0.1555616E+02  0.2657071E+02  0.8015879E+02
Ar 1086  0.2954175E+02  0.1807567E+02  0.2690242E+02  0.1312631E+03
Ar 1087  0.2978352E+02  0.1553189E+02  0.2978352E+02  0.1118289E+03
Ar 1088  0.2690242E+02  0.1807567E+02  0.2954175E+02  0.1312631E+03
Ar 1089  0.2649293E+02  0.1527870E+02  0.3189798E+02  0.6417945E+02
Ar 1090  0.2978741E+02  0.1863320E+02  0.3209793E+02  0.1007994E+02
Ar 1091  0.2906015E+02  0.1576970E+02  0.3433456E+02  0.2217250E+01
Ar 1092  0.2685917E+02  0.1860542E+02  0.3392006E+02  0.5506979E+03
Ar 1093  0.2654517E+02  0.2111286E+02  0.3676598E+02  0.5631628E+03
Ar 1094  0.2918379E+02  0.2401635E+02  0.3683620E+02  0.2063841E+03
Ar 1095  0.2941678E+02  0.2146243E+02  0.1642193E+01  0.5833340E+03
Ar 1096  0.2671682E+02  0.2419245E+02  0.1737623E+01  0.1009615E+03
Ar 1097  0.2673681E+02  0.2177512E+02  0.4301337E+01  0.1625250E+03
Ar 1098  0.2915944E+02  0.2437811E+02  0.4947919E+01  0.8391941E+02
Ar 1099  0.2925159E+02  0.2067568E+02  0.7492606E+01  0.2389248E+03
Ar 1100  0.2696034E+02  0.2383865E+02  0.7746312E+01  0.9981395E+02
Ar 1101  0.2650342E+02  0.2062933E+02  0.1017163E+02  0.5761087E+02
Ar 1102  0.2980997E+02  0.2400953E+02  0.1070477E+02  0.1158704E+03
Ar 1103  0.2905405E+02  0.2078326E+02  0.1341574E+02  0.1014990E+03
Ar 1104  0.2657929E+02  0.2366816E+02  0.1295769E+02  0.2276139E+03
Ar 1105  0.2644071E+02  0.2128813E+02  0.1561374E+02  0.9627666E+02
Ar 1106  0.2932094E+02  0.2367520E+02  0.1583234E+02  0.1259244E+03
Ar 1107  0.2967702E+02  0.2127758E+02  0.1844924E+02  0.1781496E+03
Ar 1108  0.2689798E+02  0.2366500E+02  0.1839390E+02  0.4085708E+02
Ar 1109  0.2652920E+02  0.2081115E+02  0.2081115E+02  0.5350153E+02
Ar 1110  0.2915566E+02  0.2420782E+02  0.2091305E+02  0.1466872E+03
Ar 1111  0.2915566E+02  0.2091305E+02  0.2420782E+02  0.1466872E+03
Ar 1112  0.2735045E+02  0.2322865E+02  0.2322865E+02  0.2321799E+03
Ar 1113  0.2640977E+02  0.2162375E+02  0.2640977E+02  0.1300100E+03
Ar 1114  0.2917398E+02  0.2378505E+02  0.2649782E+02  0.1108515E+02
Ar 1115  0.2891300E+02  0.2128180E+02  0.2891300E+02  0.2656075E+02
Ar 1116  0.2649782E+02  0.2378505E+02  0.2917398E+02  0.1108515E+02
Ar 1117  0.2685195E+02  0.2133981E+02  0.3158822E+02  0.2082723E+03
Ar 1118  0.2934403E+02  0.2398590E+02  0.3214603E+02  0.1561138E+03
Ar 1119  0.2972992E+02  0.2125770E+02  0.3435154E+02  0.6030144E+02
Ar 1120  0.2668384E+02  0.2382404E+02  0.3440319E+02  0.2716873E+03
Ar 1121  0.2657833E+02  0.2657833E+02  0.3696300E+02  0.2841626E+02
Ar 1122  0.2936588E+02  0.2936588E+02  0.3680542E+02  0.4352101E+03
Ar 1123  0.2954467E+02  0.2685878E+02  0.1432558E+01  0.3331370E+02
Ar 1124  0.2685878E+02  0.2954467E+02  0.1432558E+01  0.3331370E+02
Ar 1125  0.2688274E+02  0.2688274E+02  0.3637642E+01  0.1635083E+02
Ar 1126  0.2912888E+02  0.2912888E+02  0.5138804E+01  0.6739338E+03
Ar 1127  0.2926727E+02  0.2652743E+02  0.7726472E+01  0.1665548E+03
Ar 1128  0.2652743E+02  0.2926727E+02  0.7726472E+01  0.1665548E+03
Ar 1129  0.2627590E+02  0.2627590E+02  0.1013662E+02  0.1058775E+03
Ar 1130  0.2884302E+02  0.2884302E+02  0.1012174E+02  0.2052942E+02
Ar 1131  0.2922607E+02  0.2653146E+02  0.1311798E+02  0.7306138E+03
Ar 1132  0.2653146E+02  0.2922607E+02  0.1311798E+02  0.7306138E+03
Ar 1133  0.2657071E+02  0.2657071E+02  0.1555616E+02  0.8015879E+02
Ar 1134  0.2978352E+02  0.2978352E+02  0.1553189E+02  0.1118289E+03
Ar 1135  0.2954175E+02  0.2690242E+02  0.1807567E+02  0.1312631E+03
Ar 1136  0.2690242E+02  0.2954175E+02  0.1807567E+02  0.1312631E+03
Ar 1137  0.2640977E+02  0.2640977E+02  0.2162375E+02  0.1300100E+03
Ar 1138  0.2891300E+02  0.2891300E+02  0.2128180E+02  0.2656075E+02
Ar 1139  0.2917398E+02  0.2649782E+02  0.2378505E+02  0.1108515E+02
Ar 1140  0.2649782E+02  0.2917398E+02  0.2378505E+02  0.1108515E+02
Ar 1141  0.2614900E+02  0.2614900E+02  0.2614900E+02  0.9321009E+02
Ar 1142  0.2984662E+02  0.2984662E+02  0.2685315E+02  0.2179338E+03
Ar 1143  0.2984662E+02  0.2685315E+02  0.2984662E+02  0.2179338E+03
Ar 1144  0.2685315E+02  0.2984662E+02  0.2984662E+02  0.2179338E+03
Ar 1145  0.2651564E+02  0.2651564E+02  0.3185204E+02  0.6151114E+03
Ar 1146  0.2945533E+02  0.2945533E+02  0.3259777E+02  0.9930996E+02
Ar 1147  0.2960343E+02  0.2668534E+02  0.3474590E+02  0.4045987E+03
Ar 1148  0.2668534E+02  0.2960343E+02  0.3474590E+02  0.4045987E+03
Ar 1149  0.2643821E+02  0.3229083E+02  0.3712750E+02  0.5663340E+03
Ar 1150  0.2953669E+02  0.3486326E+02  0.3734331E+02  0.2230716E+03
Ar 1151  0.2937228E+02  0.3190116E+02  0.1872720E+01  0.3265024E+02
Ar 1152  0.2650922E+02  0.3470757E+02  0.2665981E+01  0.4497124E+02
Ar 1153  0.2687903E+02  0.3175511E+02  0.4572937E+01  0.2698874E+03
Ar 1154  0.2959366E+02  0.3494713E+02  0.5437798E+01  0.2440199E+03
Ar 1155  0.2950605E+02  0.3209245E+02  0.7413465E+01  0.2374518E+03
Ar 1156  0.2694785E+02  0.3432807E+02  0.7463972E+01  0.3711396E+03
Ar 1157  0.2655048E+02  0.3228588E+02  0.1014203E+02  0.1467671E+03
Ar 1158  0.2911731E+02  0.3464426E+02  0.1016580E+02  0.2454129E+01
Ar 1159  0.2883044E+02  0.3167202E+02  0.1262684E+02  0.2125144E+02
Ar 1160  0.2630327E+02  0.3455482E+02  0.1285871E+02  0.5166817E+02
Ar 1161  0.2649293E+02  0.3189798E+02  0.1527870E+02  0.6417945E+02
Ar 1162  0.2906015E+02  0.3433456E+02  0.1576970E+02  0.2217250E+01
Ar 1163  0.2978741E+02  0.3209793E+02  0.1863320E+02  0.1007994E+02
Ar 1164  0.2685917E+02  0.3392006E+02  0.1860542E+02  0.5506979E+03
Ar 1165  0.2685195E+02  0.3158822E+02  0.2133981E+02  0.2082723E+03
Ar 1166  0.2972992E+02  0.3435154E+02  0.2125770E+02  0.6030144E+02
Ar 1167  0.2934403E+02  0.3214603E+02  0.2398590E+02  0.1561138E+03
Ar 1168  0.2668384E+02  0.3440319E+02  0.2382404E+02  0.2716873E+03
Ar 1169  0.2651564E+02  0.3185204E+02  0.2651564E+02  0.6151114E+03
Ar 1170  0.2960343E+02  0.3474590E+02  0.2668534E+02  0.4045987E+03
Ar 1171  0.2945533E+02  0.3259777E+02  0.2945533E+02  0.9930996E+02
Ar 1172  0.2668534E+02  0.3474590E+02  0.2960343E+02  0.4045987E+03
Ar 1173  0.2660921E+02  0.3226971E+02  0.3226971E+02  0.4422762E+00
Ar 1174  0.2942204E+02  0.3491231E+02  0.3208504E+02  0.2187150E+02
Ar 1175  0.2942204E+02  0.3208504E+02  0.3491231E+02  0.2187150E+02
Ar 1176  0.2617556E+02  0.3488430E+02  0.3488430E+02  0.4770160E+03
Ar 1177  0.3270264E+02  0.3777866E+02  0.3777866E+02  0.1111802E+03
Ar 1178  0.3485640E+02  0.2810888E+01  0.3760607E+02  0.3962947E+01
Ar 1179  0.3485640E+02  0.3760607E+02  0.2810888E+01  0.3962947E+01
Ar 1180  0.3235690E+02  0.3048074E+01  0.3048074E+01  0.2325540E+03
Ar 1181  0.3181565E+02  0.9660811E-01  0.5203537E+01  0.9129659E+02
Ar 1182  0.3483401E+02  0.1988982E+01  0.5729928E+01  0.1983596E+03
Ar 1183  0.3472345E+02  0.3761057E+02  0.8337030E+01  0.3443176E+03
Ar 1184  0.3193452E+02  0.2390050E+01  0.8329184E+01  0.1464410E+03
Ar 1185  0.3205835E+02  0.3774713E+02  0.1070901E+02  0.1630064E+03
Ar 1186  0.3482440E+02  0.2416877E+01  0.1093442E+02  0.8837402E+02
Ar 1187  0.3478400E+02  0.3740881E+02  0.1345526E+02  0.3449699E+03
Ar 1188  0.3202829E+02  0.2796281E+01  0.1294323E+02  0.2812808E+03
Ar 1189  0.3175127E+02  0.3705110E+02  0.1476721E+02  0.3789025E+03
Ar 1190  0.3503581E+02  0.2631265E+01  0.1575859E+02  0.7513570E+02
Ar 1191  0.3467790E+02  0.3752986E+02  0.1832990E+02  0.1889619E+03
Ar 1192  0.3179854E+02  0.1723598E+01  0.1849548E+02  0.1593377E+03
Ar 1193  0.3225229E+02  0.3714775E+02  0.2110775E+02  0.4439775E+03
Ar 1194  0.3468831E+02  0.2643873E+01  0.2079502E+02  0.2025846E+02
Ar 1195  0.3477335E+02  0.3746309E+02  0.2366659E+02  0.1991490E+03
Ar 1196  0.3160001E+02  0.1789203E+01  0.2400418E+02  0.6602103E+02
Ar 1197  0.3229083E+02  0.3712750E+02  0.2643821E+02  0.5663340E+03
Ar 1198  0.3470757E+02  0.2665981E+01  0.2650922E+02  0.4497124E+02
Ar 1199  0.3486326E+02  0.3734331E+02  0.2953669E+02  0.2230716E+03
Ar 1200  0.3190116E+02  0.1872720E+01  0.2937228E+02  0.3265024E+02
Ar 1201  0.3220177E+02  0.3772679E+02  0.3220177E+02  0.3200012E+03
Ar 1202  0.3484000E+02  0.2492669E+01  0.3206049E+02  0.5956570E+02
Ar 1203  0.3508744E+02  0.3769930E+02  0.3508744E+02  0.1481310E+03
Ar 1204  0.3206049E+02  0.2492669E+01  0.3484000E+02  0.5956570E+02
Ar 1205  0.3181565E+02  0.5203537E+01  0.9660811E-01  0.9129659E+02
Ar 1206  0.3472345E+02  0.8337030E+01  0.3761057E+02  0.3443176E+03
Ar 1207  0.3483401E+02  0.5729928E+01  0.1988982E+01  0.1983596E+03
Ar 1208  0.3193452E+02  0.8329184E+01  0.2390050E+01  0.1464410E+03
Ar 1209  0.3169785E+02  0.5436860E+01  0.5436860E+01  0.2152328E+03
Ar 1210  0.3404172E+02  0.7879374E+01  0.4687108E+01  0.1253305E+03
Ar 1211  0.3404172E+02  0.4687108E+01  0.7879374E+01  0.1253305E+03
Ar 1212  0.3177354E+02  0.7720897E+01  0.7720897E+01  0.1451888E+03
Ar 1213  0.3196374E+02  0.5299843E+01  0.1054060E+02  0.1794432E+03
Ar 1214  0.3459483E+02  0.7567516E+01  0.1069935E+02  0.1236083E+03
Ar 1215  0.3440998E+02  0.5169783E+01  0.1313506E+02  0.1233291E+03
Ar 1216  0.3184336E+02  0.7857840E+01  0.1338321E+02  0.1003312E+03
Ar 1217  0.3193135E+02  0.4461550E+01  0.1583888E+02  0.2232885E+03
Ar 1218  0.3467294E+02  0.7942456E+01  0.1563123E+02  0.3338504E+02
Ar 1219  0.3487193E+02  0.5157743E+01  0.1823587E+02  0.2210610E+03
Ar 1220  0.3190526E+02  0.7452723E+01  0.1830772E+02  0.2661422E+03
Ar 1221  0.3193472E+02  0.4607173E+01  0.2100587E+02  0.3786828E+02
Ar 1222  0.3440745E+02  0.7477946E+01  0.2101135E+02  0.2642972E+02
Ar 1223  0.3470097E+02  0.5128566E+01  0.2341085E+02  0.1235170E+02
Ar 1224  0.3185512E+02  0.7286188E+01  0.2396988E+02  0.5952687E+02
Ar 1225  0.3175511E+02  0.4572937E+01  0.2687903E+02  0.2698874E+03
Ar 1226  0.3432807E+02  0.7463972E+01  0.2694785E+02  0.3711396E+03
Ar 1227  0.3494713E+02  0.5437798E+01  0.2959366E+02  0.2440199E+03
Ar 1228  0.3209245E+02  0.7413465E+01  0.2950605E+02  0.2374518E+03
Ar 1229  0.3182535E+02  0.4292862E+01  0.3182535E+02  0.2040089E+03
Ar 1230  0.3509973E+02  0.8294636E+01  0.3223615E+02  0.3016917E+03
Ar 1231  0.3470520E+02  0.5465352E+01  0.3470520E+02  0.3503414E+03
Ar 1232  0.3223615E+02  0.8294636E+01  0.3509973E+02  0.3016917E+03
Ar 1233  0.3205835E+02  0.1070901E+02  0.3774713E+02  0.1630064E+03
Ar 1234  0.3478400E+02  0.1345526E+02  0.3740881E+02  0.3449699E+03
Ar 1235  0.3482440E+02  0.1093442E+02  0.2416877E+01  0.8837402E+02
Ar 1236  0.3202829E+02  0.1294323E+02  0.2796281E+01  0.2812808E+03
Ar 1237  0.3196374E+02  0.1054060E+02  0.5299843E+01  0.1794432E+03
Ar 1238  0.3440998E+02  0.1313506E+02  0.5169783E+01  0.1233291E+03
Ar 1239  0.3459483E+02  0.1069935E+02  0.7567516E+01  0.1236083E+03
Ar 1240  0.3184336E+02  0.1338321E+02  0.7857840E+01  0.1003312E+03
Ar 1241  0.3241655E+02  0.1060071E+02  0.1060071E+02  0.7182608E+01
Ar 1242  0.3491672E+02  0.1317221E+02  0.1073660E+02  0.2180811E+03
Ar 1243  0.3491672E+02  0.1073660E+02  0.1317221E+02  0.2180811E+03
Ar 1244  0.3250409E+02  0.1350034E+02  0.1350034E+02  0.1836268E+03
Ar 1245  0.3221499E+02  0.1027543E+02  0.1609297E+02  0.8690894E+02
Ar 1246  0.3476620E+02  0.1278093E+02  0.1618873E+02  0.6565454E+02
Ar 1247  0.3412442E+02  0.1019222E+02  0.1910527E+02  0.3033352E+02
Ar 1248  0.3181399E+02  0.1317679E+02  0.1861799E+02  0.8664764E+01
Ar 1249  0.3146351E+02  0.1027359E+02  0.2117130E+02  0.1465561E+03
Ar 1250  0.3456489E+02  0.1303539E+02  0.2095743E+02  0.1391114E+03
Ar 1251  0.3495042E+02  0.1022663E+02  0.2370497E+02  0.9371357E+02
Ar 1252  0.3179051E+02  0.1323839E+02  0.2323011E+02  0.1314579E+03
Ar 1253  0.3228588E+02  0.1014203E+02  0.2655048E+02  0.1467671E+03
Ar 1254  0.3455482E+02  0.1285871E+02  0.2630327E+02  0.5166817E+02
Ar 1255  0.3464426E+02  0.1016580E+02  0.2911731E+02  0.2454129E+01
Ar 1256  0.3167202E+02  0.1262684E+02  0.2883044E+02  0.2125144E+02
Ar 1257  0.3221240E+02  0.1007085E+02  0.3221240E+02  0.1470962E+03
Ar 1258  0.3395689E+02  0.1280387E+02  0.3126527E+02  0.3892919E+02
Ar 1259  0.3504811E+02  0.1073657E+02  0.3504811E+02  0.2758896E+03
Ar 1260  0.3126527E+02  0.1280387E+02  0.3395689E+02  0.3892919E+02
Ar 1261  0.3175127E+02  0.1476721E+02  0.3705110E+02  0.3789025E+03
Ar 1262  0.3467790E+02  0.1832990E+02  0.3752986E+02  0.1889619E+03
Ar 1263  0.3503581E+02  0.1575859E+02  0.2631265E+01  0.7513570E+02
Ar 1264  0.3179854E+02  0.1849548E+02  0.1723598E+01  0.1593377E+03
Ar 1265  0.3193135E+02  0.1583888E+02  0.4461550E+01  0.2232885E+03
Ar 1266  0.3487193E+02  0.1823587E+02  0.5157743E+01  0.2210610E+03
Ar 1267  0.3467294E+02  0.1563123E+02  0.7942456E+01  0.3338504E+02
Ar 1268  0.3190526E+02  0.1830772E+02  0.7452723E+01  0.2661422E+03
Ar 1269  0.3221499E+02  0.1609297E+02  0.1027543E+02  0.8690894E+02
Ar 1270  0.3412442E+02  0.1910527E+02  0.1019222E+02  0.3033352E+02
Ar 1271  0.3476620E+02  0.1618873E+02  0.1278093E+02  0.6565454E+02
Ar 1272  0.3181399E+02  0.1861799E+02  0.1317679E+02  0.8664764E+01
Ar 1273  0.3176431E+02  0.1592364E+02  0.1592364E+02  0.4401556E+02
Ar 1274  0.3449536E+02  0.1836558E+02  0.1545170E+02  0.1954910E+02
Ar 1275  0.3449536E+02  0.1545170E+02  0.1836558E+02  0.1954910E+02
Ar 1276  0.3227184E+02  0.1818080E+02  0.1818080E+02  0.2930340E+03
Ar 1277  0.3241663E+02  0.1596545E+02  0.2148568E+02  0.7876015E+02
Ar 1278  0.3470242E+02  0.1863049E+02  0.2108094E+02  0.1838086E+03
Ar 1279  0.3469408E+02  0.1564845E+02  0.2419327E+02  0.1485249E+03
Ar 1280  0.3200971E+02  0.1841836E+02  0.2390746E+02  0.4930505E+02
Ar 1281  0.3189798E+02  0.1527870E+02  0.2649293E+02  0.6417945E+02
Ar 1282  0.3392006E+02  0.1860542E+02  0.2685917E+02  0.5506979E+03
Ar 1283  0.3433456E+02  0.1576970E+02  0.2906015E+02  0.2217250E+01
Ar 1284  0.3209793E+02  0.1863320E+02  0.2978741E+02  0.1007994E+02
Ar 1285  0.3230315E+02  0.1562024E+02  0.3230315E+02  0.1288773E+03
Ar 1286  0.3485395E+02  0.1831591E+02  0.3200495E+02  0.3207245E+03
Ar 1287  0.3468389E+02  0.1587210E+02  0.3468389E+02  0.4313013E+03
Ar 1288  0.3200495E+02  0.1831591E+02  0.3485395E+02  0.3207245E+03
Ar 1289  0.3225229E+02  0.2110775E+02  0.3714775E+02  0.4439775E+03
Ar 1290  0.3477335E+02  0.2366659E+02  0.3746309E+02  0.1991490E+03
Ar 1291  0.3468831E+02  0.2079502E+02  0.2643873E+01  0.2025846E+02
Ar 1292  0.3160001E+02  0.2400418E+02  0.1789203E+01  0.6602103E+02
Ar 1293  0.3193472E+02  0.2100587E+02  0.4607173E+01  0.3786828E+02
Ar 1294  0.3470097E+02  0.2341085E+02  0.5128566E+01  0.1235170E+02
Ar 1295  0.3440745E+02  0.2101135E+02  0.7477946E+01  0.2642972E+02
Ar 1296  0.3185512E+02  0.2396988E+02  0.7286188E+01  0.5952687E+02
Ar 1297  0.3146351E+02  0.2117130E+02  0.1027359E+02  0.1465561E+03
Ar 1298  0.3495042E+02  0.2370497E+02  0.1022663E+02  0.9371357E+02
Ar 1299  0.3456489E+02  0.2095743E+02  0.1303539E+02  0.1391114E+03
Ar 1300  0.3179051E+02  0.2323011E+02  0.1323839E+02  0.1314579E+03
Ar 1301  0.3241663E+02  0.2148568E+02  0.1596545E+02  0.7876015E+02
Ar 1302  0.3469408E+02  0.2419327E+02  0.1564845E+02  0.1485249E+03
Ar 1303  0.3470242E+02  0.2108094E+02  0.1863049E+02  0.1838086E+03
Ar 1304  0.3200971E+02  0.2390746E+02  0.1841836E+02  0.4930505E+02
Ar 1305  0.3186473E+02  0.2110909E+02  0.2110909E+02  0.4340763E+02
Ar 1306  0.3430413E+02  0.2389006E+02  0.2122342E+02  0.4087294E+03
Ar 1307  0.3430413E+02  0.2122342E+02  0.2389006E+02  0.4087294E+03
Ar 1308  0.3172761E+02  0.2422043E+02  0.2422043E+02  0.3034874E+03
Ar 1309  0.3158822E+02  0.2133981E+02  0.2685195E+02  0.2082723E+03
Ar 1310  0.3440319E+02  0.2382404E+02  0.2668384E+02  0.2716873E+03
Ar 1311  0.3435154E+02  0.2125770E+02  0.2972992E+02  0.6030144E+02
Ar 1312  0.3214603E+02  0.2398590E+02  0.2934403E+02  0.1561138E+03
Ar 1313  0.3248335E+02  0.2117028E+02  0.3248335E+02  0.7888186E+02
Ar 1314  0.3457616E+02  0.2408232E+02  0.3197701E+02  0.1763437E+03
Ar 1315  0.3496467E+02  0.2128767E+02  0.3496467E+02  0.1408106E+03
Ar 1316  0.3197701E+02  0.2408232E+02  0.3457616E+02  0.1763437E+03
Ar 1317  0.3229083E+02  0.2643821E+02  0.3712750E+02  0.5663340E+03
Ar 1318  0.3486326E+02  0.2953669E+02  0.3734331E+02  0.2230716E+03
Ar 1319  0.3470757E+02  0.2650922E+02  0.2665981E+01  0.4497124E+02
Ar 1320  0.3190116E+02  0.2937228E+02  0.1872720E+01  0.3265024E+02
Ar 1321  0.3175511E+02  0.2687903E+02  0.4572937E+01  0.2698874E+03
Ar 1322  0.3494713E+02  0.2959366E+02  0.5437798E+01  0.2440199E+03
Ar 1323  0.3432807E+02  0.2694785E+02  0.7463972E+01  0.3711396E+03
Ar 1324  0.3209245E+02  0.2950605E+02  0.7413465E+01  0.2374518E+03
Ar 1325  0.3228588E+02  0.2655048E+02  0.1014203E+02  0.1467671E+03
Ar 1326  0.3464426E+02  0.2911731E+02  0.1016580E+02  0.2454129E+01
Ar 1327  0.3455482E+02  0.2630327E+02  0.1285871E+02  0.5166817E+02
Ar 1328  0.3167202E+02  0.2883044E+02  0.1262684E+02  0.2125144E+02
Ar 1329  0.3189798E+02  0.2649293E+02  0.1527870E+02  0.6417945E+02
Ar 1330  0.3433456E+02  0.2906015E+02  0.1576970E+02  0.2217250E+01
Ar 1331  0.3392006E+02  0.2685917E+02  0.1860542E+02  0.5506979E+03
Ar 1332  0.3209793E+02  0.2978741E+02  0.1863320E+02  0.1007994E+02
Ar 1333  0.3158822E+02  0.2685195E+02  0.2133981E+02  0.2082723E+03
Ar 1334  0.3435154E+02  0.2972992E+02  0.2125770E+02  0.6030144E+02
Ar 1335  0.3440319E+02  0.2668384E+02  0.2382404E+02  0.2716873E+03
Ar 1336  0.3214603E+02  0.2934403E+02  0.2398590E+02  0.1561138E+03
Ar 1337  0.3185204E+02  0.2651564E+02  0.2651564E+02  0.6151114E+03
Ar 1338  0.3474590E+02  0.2960343E+02  0.2668534E+02  0.4045987E+03
Ar 1339  0.3474590E+02  0.2668534E+02  0.2960343E+02  0.4045987E+03
Ar 1340  0.3259777E+02  0.2945533E+02  0.2945533E+02  0.9930996E+02
Ar 1341  0.3226971E+02  0.2660921E+02  0.3226971E+02  0.4422762E+00
Ar 1342  0.3491231E+02  0.2942204E+02  0.3208504E+02  0.2187150E+02
Ar 1343  0.3488430E+02  0.2617556E+02  0.3488430E+02  0.4770160E+03
Ar 1344  0.3208504E+02  0.2942204E+02  0.3491231E+02  0.2187150E+02
Ar 1345  0.3220177E+02  0.3220177E+02  0.3772679E+02  0.3200012E+03
Ar 1346  0.3508744E+02  0.3508744E+02  0.3769930E+02  0.1481310E+03
Ar 1347  0.3484000E+02  0.3206049E+02  0.2492669E+01  0.5956570E+02
Ar 1348  0.3206049E+02  0.3484000E+02  0.2492669E+01  0.5956570E+02
Ar 1349  0.3182535E+02  0.3182535E+02  0.4292862E+01  0.2040089E+03
Ar 1350  0.3470520E+02  0.3470520E+02  0.5465352E+01  0.3503414E+03
Ar 1351  0.3509973E+02  0.3223615E+02  0.8294636E+01  0.3016917E+03
Ar 1352  0.3223615E+02  0.3509973E+02  0.8294636E+01  0.3016917E+03
Ar 1353  0.3221240E+02  0.3221240E+02  0.1007085E+02  0.1470962E+03
Ar 1354  0.3504811E+02  0.3504811E+02  0.1073657E+02  0.2758896E+03
Ar 1355  0.3395689E+02  0.3126527E+02  0.1280387E+02  0.3892919E+02
Ar 1356  0.3126527E+02  0.3395689E+02  0.1280387E+02  0.3892919E+02
Ar 1357  0.3230315E+02  0.3230315E+02  0.1562024E+02  0.1288773E+03
Ar 1358  0.3468389E+02  0.3468389E+02  0.1587210E+02  0.4313013E+03
Ar 1359  0.3485395E+02  0.3200495E+02  0.1831591E+02  0.3207245E+03
Ar 1360  0.3200495E+02  0.3485395E+02  0.1831591E+02  0.3207245E+03
Ar 1361  0.3248335E+02  0.3248335E+02  0.2117028E+02  0.7888186E+02
Ar 1362  0.3496467E+02  0.3496467E+02  0.2128767E+02  0.1408106E+03
Ar 1363  0.3457616E+02  0.3197701E+02  0.2408232E+02  0.1763437E+03
Ar 1364  0.3197701E+02  0.3457616E+02  0.2408232E+02  0.1763437E+03
Ar 1365  0.3226971E+02  0.3226971E+02  0.2660921E+02  0.4422762E+00
Ar 1366  0.3488430E+02  0.3488430E+02  0.2617556E+02  0.4770160E+03
Ar 1367  0.3491231E+02  0.3208504E+02  0.2942204E+02  0.2187150E+02
Ar 1368  0.3208504E+02  0.3491231E+02  0.2942204E+02  0.2187150E+02
Ar 1369  0.3257442E+02  0.3257442E+02  0.3257442E+02  0.7616260E+01
Ar 1370  0.3510712E+02  0.3510712E+02  0.3258691E+02  0.5760550E+02
Ar 1371  0.3510712E+02  0.3258691E+02  0.3510712E+02  0.5760550E+02
Ar 1372  0.3258691E+02  0.3510712E+02  0.3510712E+02  0.5760550E+02
