       13500
Lattice="  0.8448283E+02  0.1430564E+00 -0.2427965E+00  0.1434429E+00  0.8413679E+02  0.1215978E-01 -0.2251339E+00  0.2474181E-01  0.8425343E+02" Properties=species:S:1:id:I:1:pos:R:3:tempK:R:1
Ar     1  0.3085145E+01  0.6131578E+00  0.8331876E+02  0.0000000E+00
Ar     2  0.5938280E+01  0.2748284E+01  0.8298103E+02  0.0000000E+00
Ar     3  0.6041717E+01  0.3095334E+00  0.1740058E+01  0.0000000E+00
Ar     4  0.3239217E+01  0.3933420E+01  0.1605940E+01  0.0000000E+00
Ar     5  0.2864246E+01  0.1480800E+00  0.4330548E+01  0.0000000E+00
Ar     6  0.5868232E+01  0.3097301E+01  0.4330033E+01  0.0000000E+00
Ar     7  0.5773202E+01  0.2895957E+00  0.7576561E+01  0.0000000E+00
Ar     8  0.2655799E+01  0.3027495E+01  0.6613525E+01  0.0000000E+00
Ar     9  0.2204283E+01  0.4615175E-01  0.9603976E+01  0.0000000E+00
Ar    10  0.4674864E+01  0.2730494E+01  0.9614472E+01  0.0000000E+00
Ar    11  0.5142258E+01  0.8413872E+02  0.1237777E+02  0.0000000E+00
Ar    12  0.2173831E+01  0.3187728E+01  0.1248209E+02  0.0000000E+00
Ar    13  0.2499171E+01  0.2472326E+00  0.1496172E+02  0.0000000E+00
Ar    14  0.5053803E+01  0.3105358E+01  0.1495891E+02  0.0000000E+00
Ar    15  0.4902301E+01  0.5940059E-01  0.1745158E+02  0.0000000E+00
Ar    16  0.1942100E+01  0.2587420E+01  0.1851920E+02  0.0000000E+00
Ar    17  0.2257148E+01  0.3989404E+00  0.2145879E+02  0.0000000E+00
Ar    18  0.4270806E+01  0.3616625E+01  0.2154915E+02  0.0000000E+00
Ar    19  0.4676124E+01  0.5695972E+00  0.2441292E+02  0.0000000E+00
Ar    20  0.1974158E+01  0.2924793E+01  0.2456190E+02  0.0000000E+00
Ar    21  0.2579940E+01  0.3003729E+00  0.2743101E+02  0.0000000E+00
Ar    22  0.4873961E+01  0.3120853E+01  0.2753900E+02  0.0000000E+00
Ar    23  0.5502240E+01  0.5302820E+00  0.3031027E+02  0.0000000E+00
Ar    24  0.2588077E+01  0.3222896E+01  0.3046473E+02  0.0000000E+00
Ar    25  0.2326606E+01  0.3063898E+00  0.3252156E+02  0.0000000E+00
Ar    26  0.5759217E+01  0.3460482E+01  0.3246197E+02  0.0000000E+00
Ar    27  0.5208356E+01  0.8382817E+02  0.3500229E+02  0.0000000E+00
Ar    28  0.2339626E+01  0.3429505E+01  0.3498183E+02  0.0000000E+00
Ar    29  0.2215994E+01  0.8621463E+00  0.3836384E+02  0.0000000E+00
Ar    30  0.5762203E+01  0.2751642E+01  0.3788884E+02  0.0000000E+00
Ar    31  0.5520179E+01  0.6954812E+00  0.4098132E+02  0.0000000E+00
Ar    32  0.2600954E+01  0.3386092E+01  0.4166880E+02  0.0000000E+00
Ar    33  0.2782851E+01  0.8404108E+00  0.4435454E+02  0.0000000E+00
Ar    34  0.5561351E+01  0.3765392E+01  0.4437232E+02  0.0000000E+00
Ar    35  0.5438596E+01  0.2281546E+00  0.4713663E+02  0.0000000E+00
Ar    36  0.3495970E+01  0.3868289E+01  0.4715831E+02  0.0000000E+00
Ar    37  0.2269340E+01  0.9547450E+00  0.4995781E+02  0.0000000E+00
Ar    38  0.5374999E+01  0.3122818E+01  0.5025921E+02  0.0000000E+00
Ar    39  0.4979160E+01  0.1234658E+00  0.5290011E+02  0.0000000E+00
Ar    40  0.2640430E+01  0.3290595E+01  0.5288819E+02  0.0000000E+00
Ar    41  0.2356025E+01  0.7031661E+00  0.5540957E+02  0.0000000E+00
Ar    42  0.5013227E+01  0.4546360E+01  0.5552670E+02  0.0000000E+00
Ar    43  0.5235692E+01  0.9871887E+00  0.5779476E+02  0.0000000E+00
Ar    44  0.1837707E+01  0.4035166E+01  0.5789510E+02  0.0000000E+00
Ar    45  0.2762912E+01  0.1024290E+01  0.6030397E+02  0.0000000E+00
Ar    46  0.6115732E+01  0.2906241E+01  0.6052908E+02  0.0000000E+00
Ar    47  0.5572254E+01  0.9635891E+00  0.6366038E+02  0.0000000E+00
Ar    48  0.2633072E+01  0.3203908E+01  0.6381183E+02  0.0000000E+00
Ar    49  0.2498686E+01  0.6226973E+00  0.6594268E+02  0.0000000E+00
Ar    50  0.5036872E+01  0.3566199E+01  0.6663235E+02  0.0000000E+00
Ar    51  0.5232523E+01  0.7800363E+00  0.6871280E+02  0.0000000E+00
Ar    52  0.2531899E+01  0.3539604E+01  0.6919343E+02  0.0000000E+00
Ar    53  0.2524592E+01  0.8067484E+00  0.7136059E+02  0.0000000E+00
Ar    54  0.5530968E+01  0.3587406E+01  0.7137810E+02  0.0000000E+00
Ar    55  0.5671781E+01  0.4999710E+00  0.7425430E+02  0.0000000E+00
Ar    56  0.2992121E+01  0.3119434E+01  0.7391408E+02  0.0000000E+00
Ar    57  0.3050164E+01  0.1741289E+00  0.7789148E+02  0.0000000E+00
Ar    58  0.5329640E+01  0.3202987E+01  0.7676110E+02  0.0000000E+00
Ar    59  0.6516444E+01  0.8389142E+02  0.7984782E+02  0.0000000E+00
Ar    60  0.2796988E+01  0.3122010E+01  0.8058860E+02  0.0000000E+00
Ar    61  0.2410961E+01  0.6319493E+01  0.8260858E+02  0.0000000E+00
Ar    62  0.5101399E+01  0.8754189E+01  0.8243557E+02  0.0000000E+00
Ar    63  0.6186631E+01  0.5953538E+01  0.1143549E+01  0.0000000E+00
Ar    64  0.2939504E+01  0.8769762E+01  0.9137534E+00  0.0000000E+00
Ar    65  0.2757382E+01  0.6176458E+01  0.4677896E+01  0.0000000E+00
Ar    66  0.5561696E+01  0.8661413E+01  0.3720312E+01  0.0000000E+00
Ar    67  0.5687667E+01  0.5321303E+01  0.7086130E+01  0.0000000E+00
Ar    68  0.3000537E+01  0.9399431E+01  0.6868152E+01  0.0000000E+00
Ar    69  0.2631608E+01  0.6002902E+01  0.9826342E+01  0.0000000E+00
Ar    70  0.5345163E+01  0.8720215E+01  0.9645769E+01  0.0000000E+00
Ar    71  0.5519288E+01  0.6039191E+01  0.1247786E+02  0.0000000E+00
Ar    72  0.2573423E+01  0.8345256E+01  0.1261483E+02  0.0000000E+00
Ar    73  0.2769876E+01  0.5881806E+01  0.1525939E+02  0.0000000E+00
Ar    74  0.5222870E+01  0.8566364E+01  0.1534808E+02  0.0000000E+00
Ar    75  0.4978017E+01  0.6017015E+01  0.1861134E+02  0.0000000E+00
Ar    76  0.2207226E+01  0.8582234E+01  0.1838623E+02  0.0000000E+00
Ar    77  0.2069865E+01  0.6203381E+01  0.2119667E+02  0.0000000E+00
Ar    78  0.4844077E+01  0.8664965E+01  0.2171150E+02  0.0000000E+00
Ar    79  0.5022565E+01  0.5874743E+01  0.2425705E+02  0.0000000E+00
Ar    80  0.2124066E+01  0.8731889E+01  0.2398106E+02  0.0000000E+00
Ar    81  0.2195667E+01  0.5621086E+01  0.2704072E+02  0.0000000E+00
Ar    82  0.4611094E+01  0.8799779E+01  0.2661736E+02  0.0000000E+00
Ar    83  0.4813695E+01  0.6545691E+01  0.2937272E+02  0.0000000E+00
Ar    84  0.1952001E+01  0.8509182E+01  0.2975208E+02  0.0000000E+00
Ar    85  0.3111326E+01  0.6124305E+01  0.3233434E+02  0.0000000E+00
Ar    86  0.5303580E+01  0.8579848E+01  0.3226064E+02  0.0000000E+00
Ar    87  0.5278834E+01  0.5471502E+01  0.3540427E+02  0.0000000E+00
Ar    88  0.2495723E+01  0.8398214E+01  0.3552760E+02  0.0000000E+00
Ar    89  0.2888108E+01  0.5224280E+01  0.3792948E+02  0.0000000E+00
Ar    90  0.5559203E+01  0.8206681E+01  0.3794887E+02  0.0000000E+00
Ar    91  0.6034082E+01  0.4644588E+01  0.4076784E+02  0.0000000E+00
Ar    92  0.3238638E+01  0.8252007E+01  0.4055458E+02  0.0000000E+00
Ar    93  0.2485711E+01  0.6194228E+01  0.4361437E+02  0.0000000E+00
Ar    94  0.5764168E+01  0.9527834E+01  0.4380835E+02  0.0000000E+00
Ar    95  0.5502029E+01  0.7022113E+01  0.4653281E+02  0.0000000E+00
Ar    96  0.2850963E+01  0.9025665E+01  0.4617084E+02  0.0000000E+00
Ar    97  0.3053213E+01  0.6748683E+01  0.4932516E+02  0.0000000E+00
Ar    98  0.5302327E+01  0.9504680E+01  0.4932341E+02  0.0000000E+00
Ar    99  0.5670969E+01  0.6045744E+01  0.5220114E+02  0.0000000E+00
Ar   100  0.2782318E+01  0.9218412E+01  0.5202478E+02  0.0000000E+00
Ar   101  0.2493664E+01  0.6580080E+01  0.5520255E+02  0.0000000E+00
Ar   102  0.4937320E+01  0.9160146E+01  0.5481112E+02  0.0000000E+00
Ar   103  0.4536278E+01  0.6434139E+01  0.5851057E+02  0.0000000E+00
Ar   104  0.2744649E+01  0.9428126E+01  0.5851223E+02  0.0000000E+00
Ar   105  0.2069997E+01  0.6244780E+01  0.6103258E+02  0.0000000E+00
Ar   106  0.5657608E+01  0.1009256E+02  0.6118420E+02  0.0000000E+00
Ar   107  0.5491008E+01  0.6816494E+01  0.6307137E+02  0.0000000E+00
Ar   108  0.2519797E+01  0.9556530E+01  0.6356976E+02  0.0000000E+00
Ar   109  0.2637798E+01  0.6192702E+01  0.6566040E+02  0.0000000E+00
Ar   110  0.5537928E+01  0.9077283E+01  0.6575576E+02  0.0000000E+00
Ar   111  0.5459213E+01  0.6558593E+01  0.6806063E+02  0.0000000E+00
Ar   112  0.2326593E+01  0.9410301E+01  0.6909796E+02  0.0000000E+00
Ar   113  0.2371054E+01  0.6110158E+01  0.7194141E+02  0.0000000E+00
Ar   114  0.5237764E+01  0.8353625E+01  0.7126701E+02  0.0000000E+00
Ar   115  0.6020493E+01  0.5933096E+01  0.7435315E+02  0.0000000E+00
Ar   116  0.2740829E+01  0.8870776E+01  0.7436731E+02  0.0000000E+00
Ar   117  0.3052809E+01  0.6158257E+01  0.7670447E+02  0.0000000E+00
Ar   118  0.5585522E+01  0.9158250E+01  0.7727992E+02  0.0000000E+00
Ar   119  0.5698922E+01  0.5721071E+01  0.8019041E+02  0.0000000E+00
Ar   120  0.2902925E+01  0.9246466E+01  0.7960541E+02  0.0000000E+00
Ar   121  0.3031880E+01  0.1167557E+02  0.8231688E+02  0.0000000E+00
Ar   122  0.5228017E+01  0.1471135E+02  0.8266804E+02  0.0000000E+00
Ar   123  0.5709419E+01  0.1129581E+02  0.1142387E+01  0.0000000E+00
Ar   124  0.2719661E+01  0.1508114E+02  0.7165414E+00  0.0000000E+00
Ar   125  0.3224577E+01  0.1183765E+02  0.3606969E+01  0.0000000E+00
Ar   126  0.5766307E+01  0.1453167E+02  0.3664025E+01  0.0000000E+00
Ar   127  0.5944520E+01  0.1231153E+02  0.6758020E+01  0.0000000E+00
Ar   128  0.3607738E+01  0.1471083E+02  0.7028022E+01  0.0000000E+00
Ar   129  0.2448814E+01  0.1096157E+02  0.1019919E+02  0.0000000E+00
Ar   130  0.5920838E+01  0.1452716E+02  0.9756966E+01  0.0000000E+00
Ar   131  0.4993258E+01  0.1119480E+02  0.1253681E+02  0.0000000E+00
Ar   132  0.2546379E+01  0.1399197E+02  0.1297162E+02  0.0000000E+00
Ar   133  0.3074357E+01  0.1185010E+02  0.1579484E+02  0.0000000E+00
Ar   134  0.4964261E+01  0.1502263E+02  0.1540289E+02  0.0000000E+00
Ar   135  0.4672097E+01  0.1134545E+02  0.1913480E+02  0.0000000E+00
Ar   136  0.2013714E+01  0.1431733E+02  0.1836972E+02  0.0000000E+00
Ar   137  0.1874165E+01  0.1163336E+02  0.2139156E+02  0.0000000E+00
Ar   138  0.3927154E+01  0.1430005E+02  0.2165002E+02  0.0000000E+00
Ar   139  0.4867280E+01  0.1124442E+02  0.2404094E+02  0.0000000E+00
Ar   140  0.1555073E+01  0.1459208E+02  0.2421361E+02  0.0000000E+00
Ar   141  0.1874723E+01  0.1188995E+02  0.2715267E+02  0.0000000E+00
Ar   142  0.5079473E+01  0.1394362E+02  0.2645631E+02  0.0000000E+00
Ar   143  0.8430193E+02  0.1149135E+02  0.3006061E+02  0.0000000E+00
Ar   144  0.4758427E+01  0.1230239E+02  0.2975615E+02  0.0000000E+00
Ar   145  0.2809715E+01  0.1103975E+02  0.3257563E+02  0.0000000E+00
Ar   146  0.4525385E+01  0.1451763E+02  0.3237354E+02  0.0000000E+00
Ar   147  0.5514845E+01  0.1154434E+02  0.3491970E+02  0.0000000E+00
Ar   148  0.2895396E+01  0.1462380E+02  0.3570790E+02  0.0000000E+00
Ar   149  0.3181800E+01  0.1156942E+02  0.3852470E+02  0.0000000E+00
Ar   150  0.6006330E+01  0.1409769E+02  0.3765624E+02  0.0000000E+00
Ar   151  0.5528910E+01  0.1186721E+02  0.4126191E+02  0.0000000E+00
Ar   152  0.3156470E+01  0.1438399E+02  0.4013412E+02  0.0000000E+00
Ar   153  0.2515762E+01  0.1166377E+02  0.4379925E+02  0.0000000E+00
Ar   154  0.5168968E+01  0.1489718E+02  0.4378461E+02  0.0000000E+00
Ar   155  0.5601286E+01  0.1202730E+02  0.4630084E+02  0.0000000E+00
Ar   156  0.2578140E+01  0.1517598E+02  0.4687121E+02  0.0000000E+00
Ar   157  0.2649719E+01  0.1186883E+02  0.4928887E+02  0.0000000E+00
Ar   158  0.5087558E+01  0.1477766E+02  0.4990409E+02  0.0000000E+00
Ar   159  0.5374430E+01  0.1221472E+02  0.5183492E+02  0.0000000E+00
Ar   160  0.2564137E+01  0.1495140E+02  0.5217192E+02  0.0000000E+00
Ar   161  0.3197431E+01  0.1250170E+02  0.5476498E+02  0.0000000E+00
Ar   162  0.5510817E+01  0.1525827E+02  0.5470109E+02  0.0000000E+00
Ar   163  0.5842059E+01  0.1242431E+02  0.5794103E+02  0.0000000E+00
Ar   164  0.2831510E+01  0.1550781E+02  0.5767201E+02  0.0000000E+00
Ar   165  0.3174031E+01  0.1296081E+02  0.6073431E+02  0.0000000E+00
Ar   166  0.5540597E+01  0.1580982E+02  0.6028429E+02  0.0000000E+00
Ar   167  0.5466353E+01  0.1236013E+02  0.6371626E+02  0.0000000E+00
Ar   168  0.3289991E+01  0.1536564E+02  0.6364421E+02  0.0000000E+00
Ar   169  0.2798608E+01  0.1177062E+02  0.6643716E+02  0.0000000E+00
Ar   170  0.5917066E+01  0.1505770E+02  0.6610984E+02  0.0000000E+00
Ar   171  0.5706043E+01  0.1149764E+02  0.6869624E+02  0.0000000E+00
Ar   172  0.2545560E+01  0.1440625E+02  0.6940310E+02  0.0000000E+00
Ar   173  0.2644228E+01  0.1157055E+02  0.7190968E+02  0.0000000E+00
Ar   174  0.5850501E+01  0.1460622E+02  0.7091368E+02  0.0000000E+00
Ar   175  0.5528553E+01  0.1171527E+02  0.7424348E+02  0.0000000E+00
Ar   176  0.2831247E+01  0.1483055E+02  0.7401209E+02  0.0000000E+00
Ar   177  0.2664963E+01  0.1155205E+02  0.7689996E+02  0.0000000E+00
Ar   178  0.6068254E+01  0.1466416E+02  0.7628264E+02  0.0000000E+00
Ar   179  0.5540212E+01  0.1174865E+02  0.7977700E+02  0.0000000E+00
Ar   180  0.2587107E+01  0.1427432E+02  0.7919442E+02  0.0000000E+00
Ar   181  0.3027921E+01  0.1840119E+02  0.8266056E+02  0.0000000E+00
Ar   182  0.5460156E+01  0.2128885E+02  0.8239145E+02  0.0000000E+00
Ar   183  0.5466636E+01  0.1743731E+02  0.1144632E+01  0.0000000E+00
Ar   184  0.3153872E+01  0.2033387E+02  0.1592619E+01  0.0000000E+00
Ar   185  0.2632672E+01  0.1793001E+02  0.4553910E+01  0.0000000E+00
Ar   186  0.5854820E+01  0.2123521E+02  0.4336567E+01  0.0000000E+00
Ar   187  0.5512236E+01  0.1773843E+02  0.7741896E+01  0.0000000E+00
Ar   188  0.2719881E+01  0.2078141E+02  0.7035405E+01  0.0000000E+00
Ar   189  0.2574660E+01  0.1767865E+02  0.1040463E+02  0.0000000E+00
Ar   190  0.5307672E+01  0.2059167E+02  0.1014662E+02  0.0000000E+00
Ar   191  0.5299099E+01  0.1725711E+02  0.1280327E+02  0.0000000E+00
Ar   192  0.2105962E+01  0.2082666E+02  0.1265799E+02  0.0000000E+00
Ar   193  0.1981498E+01  0.1680372E+02  0.1517309E+02  0.0000000E+00
Ar   194  0.5022040E+01  0.2033477E+02  0.1533013E+02  0.0000000E+00
Ar   195  0.4835138E+01  0.1719388E+02  0.1898625E+02  0.0000000E+00
Ar   196  0.2297387E+01  0.1949422E+02  0.1778030E+02  0.0000000E+00
Ar   197  0.2036941E+01  0.1781553E+02  0.2150375E+02  0.0000000E+00
Ar   198  0.5083676E+01  0.2024715E+02  0.2176794E+02  0.0000000E+00
Ar   199  0.4891449E+01  0.1718869E+02  0.2361304E+02  0.0000000E+00
Ar   200  0.2463105E+01  0.2035026E+02  0.2435854E+02  0.0000000E+00
Ar   201  0.2681551E+01  0.1715584E+02  0.2713868E+02  0.0000000E+00
Ar   202  0.5369718E+01  0.2054992E+02  0.2671829E+02  0.0000000E+00
Ar   203  0.5577623E+01  0.1709027E+02  0.2861748E+02  0.0000000E+00
Ar   204  0.2681554E+01  0.2028972E+02  0.2917746E+02  0.0000000E+00
Ar   205  0.2093740E+01  0.1717084E+02  0.3268355E+02  0.0000000E+00
Ar   206  0.5331345E+01  0.1984840E+02  0.3174902E+02  0.0000000E+00
Ar   207  0.5613620E+01  0.1743680E+02  0.3427080E+02  0.0000000E+00
Ar   208  0.2830073E+01  0.2045895E+02  0.3536965E+02  0.0000000E+00
Ar   209  0.2856270E+01  0.1767463E+02  0.3770450E+02  0.0000000E+00
Ar   210  0.5260241E+01  0.2061334E+02  0.3792650E+02  0.0000000E+00
Ar   211  0.5458802E+01  0.1802156E+02  0.4093568E+02  0.0000000E+00
Ar   212  0.2635401E+01  0.2024607E+02  0.4056614E+02  0.0000000E+00
Ar   213  0.2845726E+01  0.1781316E+02  0.4327918E+02  0.0000000E+00
Ar   214  0.5390504E+01  0.2074751E+02  0.4375449E+02  0.0000000E+00
Ar   215  0.5217962E+01  0.1816779E+02  0.4617872E+02  0.0000000E+00
Ar   216  0.2265606E+01  0.2069219E+02  0.4582544E+02  0.0000000E+00
Ar   217  0.2219070E+01  0.1751355E+02  0.4914517E+02  0.0000000E+00
Ar   218  0.5680609E+01  0.2059214E+02  0.4925847E+02  0.0000000E+00
Ar   219  0.5853341E+01  0.1807773E+02  0.5207125E+02  0.0000000E+00
Ar   220  0.2831555E+01  0.2052866E+02  0.5226837E+02  0.0000000E+00
Ar   221  0.3210183E+01  0.1772736E+02  0.5470860E+02  0.0000000E+00
Ar   222  0.5430737E+01  0.2065982E+02  0.5504912E+02  0.0000000E+00
Ar   223  0.5192200E+01  0.1818264E+02  0.5755593E+02  0.0000000E+00
Ar   224  0.2816957E+01  0.2109868E+02  0.5795948E+02  0.0000000E+00
Ar   225  0.2446548E+01  0.1809502E+02  0.6138824E+02  0.0000000E+00
Ar   226  0.5323354E+01  0.2021633E+02  0.6053161E+02  0.0000000E+00
Ar   227  0.6033829E+01  0.1756934E+02  0.6318890E+02  0.0000000E+00
Ar   228  0.1970426E+01  0.2082008E+02  0.6313568E+02  0.0000000E+00
Ar   229  0.2735809E+01  0.1716199E+02  0.6668972E+02  0.0000000E+00
Ar   230  0.5407395E+01  0.2036121E+02  0.6606485E+02  0.0000000E+00
Ar   231  0.5630327E+01  0.1768041E+02  0.6861673E+02  0.0000000E+00
Ar   232  0.2744621E+01  0.2039625E+02  0.6852573E+02  0.0000000E+00
Ar   233  0.3163136E+01  0.1743699E+02  0.7140389E+02  0.0000000E+00
Ar   234  0.5382773E+01  0.2043780E+02  0.7123619E+02  0.0000000E+00
Ar   235  0.6020308E+01  0.1724480E+02  0.7388594E+02  0.0000000E+00
Ar   236  0.2493080E+01  0.2037810E+02  0.7402862E+02  0.0000000E+00
Ar   237  0.2746684E+01  0.1717633E+02  0.7712007E+02  0.0000000E+00
Ar   238  0.5128393E+01  0.2026396E+02  0.7653818E+02  0.0000000E+00
Ar   239  0.5254239E+01  0.1703793E+02  0.7969875E+02  0.0000000E+00
Ar   240  0.3053681E+01  0.2077927E+02  0.7947296E+02  0.0000000E+00
Ar   241  0.2356545E+01  0.2279361E+02  0.8334213E+02  0.0000000E+00
Ar   242  0.5424578E+01  0.2637389E+02  0.8278027E+02  0.0000000E+00
Ar   243  0.5760212E+01  0.2321817E+02  0.1230809E+01  0.0000000E+00
Ar   244  0.2785803E+01  0.2618881E+02  0.1272629E+01  0.0000000E+00
Ar   245  0.2925775E+01  0.2384936E+02  0.3859749E+01  0.0000000E+00
Ar   246  0.6226804E+01  0.2651954E+02  0.4139924E+01  0.0000000E+00
Ar   247  0.5318642E+01  0.2330620E+02  0.7375773E+01  0.0000000E+00
Ar   248  0.2762995E+01  0.2584855E+02  0.7090667E+01  0.0000000E+00
Ar   249  0.2596594E+01  0.2345951E+02  0.9755178E+01  0.0000000E+00
Ar   250  0.5990249E+01  0.2603437E+02  0.1002997E+02  0.0000000E+00
Ar   251  0.5336545E+01  0.2340855E+02  0.1292886E+02  0.0000000E+00
Ar   252  0.2253587E+01  0.2590057E+02  0.1226519E+02  0.0000000E+00
Ar   253  0.2556032E+01  0.2329246E+02  0.1583985E+02  0.0000000E+00
Ar   254  0.5396843E+01  0.2579019E+02  0.1551172E+02  0.0000000E+00
Ar   255  0.5594854E+01  0.2284171E+02  0.1807790E+02  0.0000000E+00
Ar   256  0.2573493E+01  0.2633855E+02  0.1871905E+02  0.0000000E+00
Ar   257  0.2825751E+01  0.2335343E+02  0.2179271E+02  0.0000000E+00
Ar   258  0.5849230E+01  0.2553553E+02  0.2119199E+02  0.0000000E+00
Ar   259  0.5286344E+01  0.2315341E+02  0.2452242E+02  0.0000000E+00
Ar   260  0.2277199E+01  0.2595440E+02  0.2459666E+02  0.0000000E+00
Ar   261  0.2528100E+01  0.2343307E+02  0.2674443E+02  0.0000000E+00
Ar   262  0.5485509E+01  0.2637699E+02  0.2648675E+02  0.0000000E+00
Ar   263  0.5826071E+01  0.2343116E+02  0.2891254E+02  0.0000000E+00
Ar   264  0.2757469E+01  0.2561890E+02  0.2960507E+02  0.0000000E+00
Ar   265  0.2684918E+01  0.2297078E+02  0.3231834E+02  0.0000000E+00
Ar   266  0.5540831E+01  0.2595937E+02  0.3193907E+02  0.0000000E+00
Ar   267  0.5171853E+01  0.2304077E+02  0.3508886E+02  0.0000000E+00
Ar   268  0.2677785E+01  0.2602483E+02  0.3472451E+02  0.0000000E+00
Ar   269  0.2655161E+01  0.2300386E+02  0.3788340E+02  0.0000000E+00
Ar   270  0.5694717E+01  0.2678191E+02  0.3758197E+02  0.0000000E+00
Ar   271  0.5374662E+01  0.2321330E+02  0.4069891E+02  0.0000000E+00
Ar   272  0.2677262E+01  0.2652859E+02  0.4061311E+02  0.0000000E+00
Ar   273  0.2777155E+01  0.2361698E+02  0.4348315E+02  0.0000000E+00
Ar   274  0.5811013E+01  0.2606319E+02  0.4354459E+02  0.0000000E+00
Ar   275  0.5503377E+01  0.2331295E+02  0.4646927E+02  0.0000000E+00
Ar   276  0.2743240E+01  0.2590652E+02  0.4644882E+02  0.0000000E+00
Ar   277  0.2796921E+01  0.2290754E+02  0.4936945E+02  0.0000000E+00
Ar   278  0.5736594E+01  0.2583692E+02  0.4899846E+02  0.0000000E+00
Ar   279  0.5671916E+01  0.2357517E+02  0.5189199E+02  0.0000000E+00
Ar   280  0.2439188E+01  0.2612668E+02  0.5235853E+02  0.0000000E+00
Ar   281  0.2904730E+01  0.2321617E+02  0.5503374E+02  0.0000000E+00
Ar   282  0.5395673E+01  0.2634615E+02  0.5469988E+02  0.0000000E+00
Ar   283  0.5484439E+01  0.2367419E+02  0.5774076E+02  0.0000000E+00
Ar   284  0.2598549E+01  0.2621433E+02  0.5764215E+02  0.0000000E+00
Ar   285  0.2288948E+01  0.2360941E+02  0.6039046E+02  0.0000000E+00
Ar   286  0.4808364E+01  0.2608190E+02  0.6095246E+02  0.0000000E+00
Ar   287  0.5593037E+01  0.2343879E+02  0.6280025E+02  0.0000000E+00
Ar   288  0.2244374E+01  0.2575878E+02  0.6342156E+02  0.0000000E+00
Ar   289  0.2819470E+01  0.2272423E+02  0.6584652E+02  0.0000000E+00
Ar   290  0.4658343E+01  0.2583485E+02  0.6610861E+02  0.0000000E+00
Ar   291  0.5430310E+01  0.2331929E+02  0.6871451E+02  0.0000000E+00
Ar   292  0.2481490E+01  0.2540061E+02  0.6915390E+02  0.0000000E+00
Ar   293  0.2744670E+01  0.2326504E+02  0.7182921E+02  0.0000000E+00
Ar   294  0.5620803E+01  0.2592170E+02  0.7160117E+02  0.0000000E+00
Ar   295  0.5201107E+01  0.2267312E+02  0.7423200E+02  0.0000000E+00
Ar   296  0.2508941E+01  0.2565667E+02  0.7435361E+02  0.0000000E+00
Ar   297  0.2857058E+01  0.2349125E+02  0.7718818E+02  0.0000000E+00
Ar   298  0.5575179E+01  0.2609889E+02  0.7690201E+02  0.0000000E+00
Ar   299  0.5173359E+01  0.2375112E+02  0.7979678E+02  0.0000000E+00
Ar   300  0.2858955E+01  0.2649837E+02  0.8024789E+02  0.0000000E+00
Ar   301  0.1844180E+01  0.2874453E+02  0.8291026E+02  0.0000000E+00
Ar   302  0.4543668E+01  0.3125081E+02  0.8292040E+02  0.0000000E+00
Ar   303  0.5472275E+01  0.2883067E+02  0.1031683E+01  0.0000000E+00
Ar   304  0.3142369E+01  0.3122087E+02  0.2109577E+01  0.0000000E+00
Ar   305  0.2766645E+01  0.2818339E+02  0.4495388E+01  0.0000000E+00
Ar   306  0.6071676E+01  0.3148770E+02  0.4365390E+01  0.0000000E+00
Ar   307  0.5164782E+01  0.2876056E+02  0.7317561E+01  0.0000000E+00
Ar   308  0.2837903E+01  0.3147253E+02  0.7419766E+01  0.0000000E+00
Ar   309  0.2903983E+01  0.2849698E+02  0.9881818E+01  0.0000000E+00
Ar   310  0.5313366E+01  0.3115649E+02  0.9955189E+01  0.0000000E+00
Ar   311  0.6288110E+01  0.2874171E+02  0.1240803E+02  0.0000000E+00
Ar   312  0.3517987E+01  0.3170997E+02  0.1320047E+02  0.0000000E+00
Ar   313  0.3103291E+01  0.2848741E+02  0.1493431E+02  0.0000000E+00
Ar   314  0.6319106E+01  0.3174826E+02  0.1543756E+02  0.0000000E+00
Ar   315  0.5972318E+01  0.2873273E+02  0.1825665E+02  0.0000000E+00
Ar   316  0.3070798E+01  0.3100527E+02  0.1810033E+02  0.0000000E+00
Ar   317  0.2680987E+01  0.2808353E+02  0.2176933E+02  0.0000000E+00
Ar   318  0.5501463E+01  0.3179735E+02  0.2057732E+02  0.0000000E+00
Ar   319  0.5540465E+01  0.2906990E+02  0.2367873E+02  0.0000000E+00
Ar   320  0.2845304E+01  0.3191499E+02  0.2261141E+02  0.0000000E+00
Ar   321  0.2266820E+01  0.2841685E+02  0.2738336E+02  0.0000000E+00
Ar   322  0.5324486E+01  0.3202763E+02  0.2634912E+02  0.0000000E+00
Ar   323  0.5290078E+01  0.2895175E+02  0.2918379E+02  0.0000000E+00
Ar   324  0.2476228E+01  0.3233536E+02  0.2925087E+02  0.0000000E+00
Ar   325  0.2863477E+01  0.2911239E+02  0.3204181E+02  0.0000000E+00
Ar   326  0.5175806E+01  0.3191161E+02  0.3185453E+02  0.0000000E+00
Ar   327  0.5177137E+01  0.2907066E+02  0.3447147E+02  0.0000000E+00
Ar   328  0.3396176E+01  0.3211999E+02  0.3473072E+02  0.0000000E+00
Ar   329  0.2562612E+01  0.2973237E+02  0.3768617E+02  0.0000000E+00
Ar   330  0.5808268E+01  0.3208601E+02  0.3791643E+02  0.0000000E+00
Ar   331  0.5436156E+01  0.2890288E+02  0.4031737E+02  0.0000000E+00
Ar   332  0.2560468E+01  0.3180226E+02  0.4071824E+02  0.0000000E+00
Ar   333  0.3376452E+01  0.2888951E+02  0.4340988E+02  0.0000000E+00
Ar   334  0.5290366E+01  0.3217698E+02  0.4377975E+02  0.0000000E+00
Ar   335  0.6088777E+01  0.2897758E+02  0.4591695E+02  0.0000000E+00
Ar   336  0.2737969E+01  0.3157507E+02  0.4635128E+02  0.0000000E+00
Ar   337  0.3393345E+01  0.2866315E+02  0.4887381E+02  0.0000000E+00
Ar   338  0.5874828E+01  0.3170245E+02  0.4865280E+02  0.0000000E+00
Ar   339  0.5995088E+01  0.2898335E+02  0.5177749E+02  0.0000000E+00
Ar   340  0.2863686E+01  0.3114583E+02  0.5218034E+02  0.0000000E+00
Ar   341  0.2344048E+01  0.2909094E+02  0.5487027E+02  0.0000000E+00
Ar   342  0.5701037E+01  0.3079163E+02  0.5519051E+02  0.0000000E+00
Ar   343  0.5499509E+01  0.2957101E+02  0.5869879E+02  0.0000000E+00
Ar   344  0.1923392E+01  0.3174834E+02  0.5776731E+02  0.0000000E+00
Ar   345  0.1957354E+01  0.2883427E+02  0.5997913E+02  0.0000000E+00
Ar   346  0.5337935E+01  0.3157712E+02  0.6149288E+02  0.0000000E+00
Ar   347  0.5189445E+01  0.2858946E+02  0.6372181E+02  0.0000000E+00
Ar   348  0.2429105E+01  0.3112561E+02  0.6357614E+02  0.0000000E+00
Ar   349  0.2344390E+01  0.2855756E+02  0.6704020E+02  0.0000000E+00
Ar   350  0.4954559E+01  0.3154897E+02  0.6600855E+02  0.0000000E+00
Ar   351  0.5208346E+01  0.2890502E+02  0.6911171E+02  0.0000000E+00
Ar   352  0.2519565E+01  0.3151526E+02  0.6925396E+02  0.0000000E+00
Ar   353  0.2226926E+01  0.2834364E+02  0.7170963E+02  0.0000000E+00
Ar   354  0.5579878E+01  0.3174668E+02  0.7116209E+02  0.0000000E+00
Ar   355  0.5722789E+01  0.2893721E+02  0.7428860E+02  0.0000000E+00
Ar   356  0.3503077E+01  0.3145168E+02  0.7472925E+02  0.0000000E+00
Ar   357  0.2844810E+01  0.2829281E+02  0.7695267E+02  0.0000000E+00
Ar   358  0.6309468E+01  0.3166048E+02  0.7697438E+02  0.0000000E+00
Ar   359  0.5606386E+01  0.2899182E+02  0.7965428E+02  0.0000000E+00
Ar   360  0.2470936E+01  0.3126614E+02  0.7975060E+02  0.0000000E+00
Ar   361  0.2409969E+01  0.3410368E+02  0.8239951E+02  0.0000000E+00
Ar   362  0.5187618E+01  0.3673335E+02  0.8261728E+02  0.0000000E+00
Ar   363  0.6166894E+01  0.3397730E+02  0.1490788E+01  0.0000000E+00
Ar   364  0.2900529E+01  0.3673892E+02  0.1134083E+01  0.0000000E+00
Ar   365  0.3355538E+01  0.3431441E+02  0.3906389E+01  0.0000000E+00
Ar   366  0.5764527E+01  0.3707203E+02  0.4297143E+01  0.0000000E+00
Ar   367  0.6826407E+01  0.3417849E+02  0.6637112E+01  0.0000000E+00
Ar   368  0.3208821E+01  0.3658767E+02  0.6905193E+01  0.0000000E+00
Ar   369  0.4513444E+01  0.3481258E+02  0.1016686E+02  0.0000000E+00
Ar   370  0.5196768E+01  0.3827374E+02  0.9587615E+01  0.0000000E+00
Ar   371  0.6062807E+01  0.3455247E+02  0.1298369E+02  0.0000000E+00
Ar   372  0.3447014E+01  0.3788554E+02  0.1261258E+02  0.0000000E+00
Ar   373  0.2287481E+01  0.3396326E+02  0.1559552E+02  0.0000000E+00
Ar   374  0.5664209E+01  0.3717598E+02  0.1558039E+02  0.0000000E+00
Ar   375  0.5696548E+01  0.3459722E+02  0.1816173E+02  0.0000000E+00
Ar   376  0.2092193E+01  0.3713825E+02  0.1828113E+02  0.0000000E+00
Ar   377  0.2260871E+01  0.3461204E+02  0.2074722E+02  0.0000000E+00
Ar   378  0.5477061E+01  0.3745842E+02  0.2093650E+02  0.0000000E+00
Ar   379  0.5673129E+01  0.3463613E+02  0.2277877E+02  0.0000000E+00
Ar   380  0.2556641E+01  0.3728194E+02  0.2329938E+02  0.0000000E+00
Ar   381  0.3343036E+01  0.3476858E+02  0.2595111E+02  0.0000000E+00
Ar   382  0.5938467E+01  0.3745286E+02  0.2671148E+02  0.0000000E+00
Ar   383  0.5292658E+01  0.3465945E+02  0.2915272E+02  0.0000000E+00
Ar   384  0.3123778E+01  0.3731324E+02  0.2942273E+02  0.0000000E+00
Ar   385  0.2868660E+01  0.3499592E+02  0.3267984E+02  0.0000000E+00
Ar   386  0.5432741E+01  0.3744854E+02  0.3299007E+02  0.0000000E+00
Ar   387  0.5876347E+01  0.3483833E+02  0.3517442E+02  0.0000000E+00
Ar   388  0.2375331E+01  0.3703878E+02  0.3570896E+02  0.0000000E+00
Ar   389  0.2686029E+01  0.3425128E+02  0.3776789E+02  0.0000000E+00
Ar   390  0.5260593E+01  0.3679708E+02  0.3793363E+02  0.0000000E+00
Ar   391  0.5690061E+01  0.3456532E+02  0.4063894E+02  0.0000000E+00
Ar   392  0.2796851E+01  0.3675583E+02  0.4072188E+02  0.0000000E+00
Ar   393  0.2568645E+01  0.3442252E+02  0.4321793E+02  0.0000000E+00
Ar   394  0.5036301E+01  0.3725133E+02  0.4323683E+02  0.0000000E+00
Ar   395  0.5442308E+01  0.3450883E+02  0.4662686E+02  0.0000000E+00
Ar   396  0.2598925E+01  0.3718178E+02  0.4644533E+02  0.0000000E+00
Ar   397  0.2662002E+01  0.3457918E+02  0.4912396E+02  0.0000000E+00
Ar   398  0.6151633E+01  0.3731975E+02  0.4920777E+02  0.0000000E+00
Ar   399  0.5516798E+01  0.3352905E+02  0.5238423E+02  0.0000000E+00
Ar   400  0.3407570E+01  0.3715193E+02  0.5198345E+02  0.0000000E+00
Ar   401  0.2778673E+01  0.3444112E+02  0.5533886E+02  0.0000000E+00
Ar   402  0.5705168E+01  0.3665980E+02  0.5427027E+02  0.0000000E+00
Ar   403  0.5426009E+01  0.3326393E+02  0.5782679E+02  0.0000000E+00
Ar   404  0.3539985E+01  0.3715587E+02  0.5795456E+02  0.0000000E+00
Ar   405  0.3340427E+01  0.3441816E+02  0.6086431E+02  0.0000000E+00
Ar   406  0.6102051E+01  0.3678548E+02  0.6083603E+02  0.0000000E+00
Ar   407  0.5427965E+01  0.3465161E+02  0.6409670E+02  0.0000000E+00
Ar   408  0.3113474E+01  0.3698330E+02  0.6362541E+02  0.0000000E+00
Ar   409  0.2399386E+01  0.3462587E+02  0.6658625E+02  0.0000000E+00
Ar   410  0.5198382E+01  0.3777926E+02  0.6669248E+02  0.0000000E+00
Ar   411  0.5597860E+01  0.3422699E+02  0.6831094E+02  0.0000000E+00
Ar   412  0.2790020E+01  0.3700519E+02  0.6909476E+02  0.0000000E+00
Ar   413  0.3217646E+01  0.3460634E+02  0.7187517E+02  0.0000000E+00
Ar   414  0.5795573E+01  0.3704439E+02  0.7164430E+02  0.0000000E+00
Ar   415  0.6106025E+01  0.3441296E+02  0.7418346E+02  0.0000000E+00
Ar   416  0.2381489E+01  0.3714304E+02  0.7445572E+02  0.0000000E+00
Ar   417  0.2773950E+01  0.3387287E+02  0.7749427E+02  0.0000000E+00
Ar   418  0.5409488E+01  0.3654146E+02  0.7693376E+02  0.0000000E+00
Ar   419  0.5273490E+01  0.3372654E+02  0.8038088E+02  0.0000000E+00
Ar   420  0.2631775E+01  0.3717024E+02  0.7975642E+02  0.0000000E+00
Ar   421  0.2717700E+01  0.3970435E+02  0.8265404E+02  0.0000000E+00
Ar   422  0.5942262E+01  0.4303618E+02  0.8296140E+02  0.0000000E+00
Ar   423  0.6161055E+01  0.3974329E+02  0.5018272E+00  0.0000000E+00
Ar   424  0.2249944E+01  0.4267676E+02  0.1573574E+01  0.0000000E+00
Ar   425  0.3038582E+01  0.3964895E+02  0.3649654E+01  0.0000000E+00
Ar   426  0.6402939E+01  0.4195693E+02  0.3439157E+01  0.0000000E+00
Ar   427  0.5909145E+01  0.4018303E+02  0.6464673E+01  0.0000000E+00
Ar   428  0.2098166E+01  0.4219532E+02  0.6773638E+01  0.0000000E+00
Ar   429  0.2102168E+01  0.3985304E+02  0.9905639E+01  0.0000000E+00
Ar   430  0.5217959E+01  0.4328464E+02  0.9397483E+01  0.0000000E+00
Ar   431  0.5669443E+01  0.4039967E+02  0.1267727E+02  0.0000000E+00
Ar   432  0.2923618E+01  0.4314979E+02  0.1246450E+02  0.0000000E+00
Ar   433  0.2028177E+01  0.3987830E+02  0.1560830E+02  0.0000000E+00
Ar   434  0.5696641E+01  0.4242589E+02  0.1536006E+02  0.0000000E+00
Ar   435  0.5269829E+01  0.3988453E+02  0.1805092E+02  0.0000000E+00
Ar   436  0.2832461E+01  0.4243356E+02  0.1795027E+02  0.0000000E+00
Ar   437  0.2502477E+01  0.4002151E+02  0.2054179E+02  0.0000000E+00
Ar   438  0.5469468E+01  0.4245016E+02  0.2105174E+02  0.0000000E+00
Ar   439  0.5606878E+01  0.3994637E+02  0.2417241E+02  0.0000000E+00
Ar   440  0.2282948E+01  0.4215580E+02  0.2382914E+02  0.0000000E+00
Ar   441  0.2869768E+01  0.3915217E+02  0.2669668E+02  0.0000000E+00
Ar   442  0.6016733E+01  0.4282546E+02  0.2664820E+02  0.0000000E+00
Ar   443  0.5543501E+01  0.4012106E+02  0.2960095E+02  0.0000000E+00
Ar   444  0.2445701E+01  0.4211624E+02  0.2936063E+02  0.0000000E+00
Ar   445  0.2528968E+01  0.4012199E+02  0.3254830E+02  0.0000000E+00
Ar   446  0.5629892E+01  0.4256631E+02  0.3211199E+02  0.0000000E+00
Ar   447  0.5334639E+01  0.4063135E+02  0.3566321E+02  0.0000000E+00
Ar   448  0.3022088E+01  0.4313445E+02  0.3491967E+02  0.0000000E+00
Ar   449  0.2192215E+01  0.3959830E+02  0.3863576E+02  0.0000000E+00
Ar   450  0.4906199E+01  0.4289204E+02  0.3844379E+02  0.0000000E+00
Ar   451  0.5241373E+01  0.3980520E+02  0.4062536E+02  0.0000000E+00
Ar   452  0.2248387E+01  0.4355425E+02  0.4115632E+02  0.0000000E+00
Ar   453  0.2364102E+01  0.3994580E+02  0.4339084E+02  0.0000000E+00
Ar   454  0.5442391E+01  0.4307211E+02  0.4426926E+02  0.0000000E+00
Ar   455  0.5657386E+01  0.3975411E+02  0.4595202E+02  0.0000000E+00
Ar   456  0.2612311E+01  0.4280319E+02  0.4680924E+02  0.0000000E+00
Ar   457  0.3087570E+01  0.3957065E+02  0.4918447E+02  0.0000000E+00
Ar   458  0.5828437E+01  0.4294243E+02  0.4857738E+02  0.0000000E+00
Ar   459  0.5816366E+01  0.4001941E+02  0.5163965E+02  0.0000000E+00
Ar   460  0.2950879E+01  0.4262743E+02  0.5163883E+02  0.0000000E+00
Ar   461  0.3319914E+01  0.3975199E+02  0.5445827E+02  0.0000000E+00
Ar   462  0.5660640E+01  0.4213951E+02  0.5497180E+02  0.0000000E+00
Ar   463  0.5624964E+01  0.3996232E+02  0.5807156E+02  0.0000000E+00
Ar   464  0.2728124E+01  0.4238067E+02  0.5819259E+02  0.0000000E+00
Ar   465  0.3026528E+01  0.3947500E+02  0.6103701E+02  0.0000000E+00
Ar   466  0.5926231E+01  0.4306351E+02  0.6062101E+02  0.0000000E+00
Ar   467  0.5566793E+01  0.3959633E+02  0.6368337E+02  0.0000000E+00
Ar   468  0.2900110E+01  0.4255179E+02  0.6289182E+02  0.0000000E+00
Ar   469  0.1776544E+01  0.4019816E+02  0.6629685E+02  0.0000000E+00
Ar   470  0.5281198E+01  0.4268877E+02  0.6650425E+02  0.0000000E+00
Ar   471  0.5784651E+01  0.3985445E+02  0.6929012E+02  0.0000000E+00
Ar   472  0.2044248E+01  0.4254768E+02  0.6930819E+02  0.0000000E+00
Ar   473  0.2976344E+01  0.3964797E+02  0.7129461E+02  0.0000000E+00
Ar   474  0.5578568E+01  0.4267596E+02  0.7163261E+02  0.0000000E+00
Ar   475  0.5882026E+01  0.3973742E+02  0.7439443E+02  0.0000000E+00
Ar   476  0.2620031E+01  0.4264111E+02  0.7389625E+02  0.0000000E+00
Ar   477  0.2994136E+01  0.4011901E+02  0.7690108E+02  0.0000000E+00
Ar   478  0.6095837E+01  0.4275778E+02  0.7726623E+02  0.0000000E+00
Ar   479  0.5373680E+01  0.3964515E+02  0.8015924E+02  0.0000000E+00
Ar   480  0.2033433E+01  0.4287482E+02  0.7993426E+02  0.0000000E+00
Ar   481  0.2470164E+01  0.4532445E+02  0.8287784E+02  0.0000000E+00
Ar   482  0.4662054E+01  0.4808531E+02  0.8310653E+02  0.0000000E+00
Ar   483  0.5273781E+01  0.4516448E+02  0.1673234E+01  0.0000000E+00
Ar   484  0.2797792E+01  0.4806572E+02  0.2275626E+01  0.0000000E+00
Ar   485  0.2929435E+01  0.4485564E+02  0.4469673E+01  0.0000000E+00
Ar   486  0.5275897E+01  0.4929774E+02  0.4448643E+01  0.0000000E+00
Ar   487  0.5854428E+01  0.4545114E+02  0.6254556E+01  0.0000000E+00
Ar   488  0.2301223E+01  0.4809937E+02  0.7229605E+01  0.0000000E+00
Ar   489  0.1647859E+01  0.4452329E+02  0.9508006E+01  0.0000000E+00
Ar   490  0.5557096E+01  0.4798012E+02  0.9424819E+01  0.0000000E+00
Ar   491  0.5731366E+01  0.4548745E+02  0.1235616E+02  0.0000000E+00
Ar   492  0.2763953E+01  0.4781926E+02  0.1224727E+02  0.0000000E+00
Ar   493  0.3160672E+01  0.4476283E+02  0.1541832E+02  0.0000000E+00
Ar   494  0.4657278E+01  0.4794333E+02  0.1519097E+02  0.0000000E+00
Ar   495  0.5699606E+01  0.4498399E+02  0.1844078E+02  0.0000000E+00
Ar   496  0.2104753E+01  0.4770004E+02  0.1773069E+02  0.0000000E+00
Ar   497  0.2260025E+01  0.4482277E+02  0.2120425E+02  0.0000000E+00
Ar   498  0.5117051E+01  0.4728975E+02  0.2090965E+02  0.0000000E+00
Ar   499  0.5614528E+01  0.4542349E+02  0.2369952E+02  0.0000000E+00
Ar   500  0.2794295E+01  0.4758709E+02  0.2380796E+02  0.0000000E+00
Ar   501  0.3005919E+01  0.4482131E+02  0.2651770E+02  0.0000000E+00
Ar   502  0.5488619E+01  0.4804794E+02  0.2683008E+02  0.0000000E+00
Ar   503  0.5707331E+01  0.4531855E+02  0.2927828E+02  0.0000000E+00
Ar   504  0.2776298E+01  0.4845626E+02  0.2920373E+02  0.0000000E+00
Ar   505  0.2863080E+01  0.4570506E+02  0.3160117E+02  0.0000000E+00
Ar   506  0.5400244E+01  0.4872927E+02  0.3232688E+02  0.0000000E+00
Ar   507  0.5802967E+01  0.4534320E+02  0.3486616E+02  0.0000000E+00
Ar   508  0.3498009E+01  0.4812494E+02  0.3559562E+02  0.0000000E+00
Ar   509  0.2964714E+01  0.4573883E+02  0.3801799E+02  0.0000000E+00
Ar   510  0.5853356E+01  0.4844806E+02  0.3857565E+02  0.0000000E+00
Ar   511  0.5528489E+01  0.4556728E+02  0.4110796E+02  0.0000000E+00
Ar   512  0.2891996E+01  0.4948566E+02  0.4076428E+02  0.0000000E+00
Ar   513  0.1982991E+01  0.4588081E+02  0.4412981E+02  0.0000000E+00
Ar   514  0.4994401E+01  0.4846583E+02  0.4362187E+02  0.0000000E+00
Ar   515  0.5688654E+01  0.4600921E+02  0.4666125E+02  0.0000000E+00
Ar   516  0.2725804E+01  0.4835092E+02  0.4671511E+02  0.0000000E+00
Ar   517  0.2646347E+01  0.4553192E+02  0.4906146E+02  0.0000000E+00
Ar   518  0.5804682E+01  0.4832849E+02  0.4948517E+02  0.0000000E+00
Ar   519  0.5641296E+01  0.4529930E+02  0.5192270E+02  0.0000000E+00
Ar   520  0.2751265E+01  0.4793474E+02  0.5226585E+02  0.0000000E+00
Ar   521  0.2585354E+01  0.4522516E+02  0.5452356E+02  0.0000000E+00
Ar   522  0.5356740E+01  0.4777744E+02  0.5450589E+02  0.0000000E+00
Ar   523  0.5279334E+01  0.4468589E+02  0.5720289E+02  0.0000000E+00
Ar   524  0.3231996E+01  0.4757667E+02  0.5769338E+02  0.0000000E+00
Ar   525  0.2360970E+01  0.4496983E+02  0.6036218E+02  0.0000000E+00
Ar   526  0.4990936E+01  0.4698719E+02  0.6126508E+02  0.0000000E+00
Ar   527  0.5281075E+01  0.4524722E+02  0.6411397E+02  0.0000000E+00
Ar   528  0.2180150E+01  0.4753271E+02  0.6325663E+02  0.0000000E+00
Ar   529  0.2779598E+01  0.4551552E+02  0.6701881E+02  0.0000000E+00
Ar   530  0.5357670E+01  0.4798618E+02  0.6642808E+02  0.0000000E+00
Ar   531  0.5717134E+01  0.4561106E+02  0.6907434E+02  0.0000000E+00
Ar   532  0.2863156E+01  0.4871507E+02  0.6941254E+02  0.0000000E+00
Ar   533  0.2591436E+01  0.4523638E+02  0.7145953E+02  0.0000000E+00
Ar   534  0.6200969E+01  0.4851269E+02  0.7181892E+02  0.0000000E+00
Ar   535  0.6229715E+01  0.4488017E+02  0.7447766E+02  0.0000000E+00
Ar   536  0.2624963E+01  0.4799638E+02  0.7449868E+02  0.0000000E+00
Ar   537  0.3311907E+01  0.4496440E+02  0.7682989E+02  0.0000000E+00
Ar   538  0.5429662E+01  0.4800249E+02  0.7685504E+02  0.0000000E+00
Ar   539  0.5229884E+01  0.4624043E+02  0.7994813E+02  0.0000000E+00
Ar   540  0.1714088E+01  0.4793830E+02  0.7992589E+02  0.0000000E+00
Ar   541  0.2290433E+01  0.5157658E+02  0.8307546E+02  0.0000000E+00
Ar   542  0.5381783E+01  0.5363067E+02  0.8306310E+02  0.0000000E+00
Ar   543  0.5389471E+01  0.5085743E+02  0.1412389E+01  0.0000000E+00
Ar   544  0.2820863E+01  0.5428515E+02  0.1567183E+01  0.0000000E+00
Ar   545  0.1967606E+01  0.5135298E+02  0.4098961E+01  0.0000000E+00
Ar   546  0.5866870E+01  0.5327103E+02  0.4304469E+01  0.0000000E+00
Ar   547  0.4837499E+01  0.5100891E+02  0.7403162E+01  0.0000000E+00
Ar   548  0.2616627E+01  0.5407256E+02  0.6593567E+01  0.0000000E+00
Ar   549  0.2097587E+01  0.5069485E+02  0.1029113E+02  0.0000000E+00
Ar   550  0.5776118E+01  0.5387896E+02  0.9682292E+01  0.0000000E+00
Ar   551  0.5151338E+01  0.5126795E+02  0.1257390E+02  0.0000000E+00
Ar   552  0.2699114E+01  0.5396474E+02  0.1252487E+02  0.0000000E+00
Ar   553  0.1867067E+01  0.5094359E+02  0.1543258E+02  0.0000000E+00
Ar   554  0.4878392E+01  0.5314846E+02  0.1543108E+02  0.0000000E+00
Ar   555  0.4700612E+01  0.5045166E+02  0.1854981E+02  0.0000000E+00
Ar   556  0.3211027E+01  0.5372478E+02  0.1849377E+02  0.0000000E+00
Ar   557  0.2681686E+01  0.5091527E+02  0.2139497E+02  0.0000000E+00
Ar   558  0.5833437E+01  0.5395184E+02  0.2098958E+02  0.0000000E+00
Ar   559  0.5778816E+01  0.5086630E+02  0.2395804E+02  0.0000000E+00
Ar   560  0.3056506E+01  0.5363674E+02  0.2380378E+02  0.0000000E+00
Ar   561  0.2947699E+01  0.5076773E+02  0.2633064E+02  0.0000000E+00
Ar   562  0.5316162E+01  0.5354499E+02  0.2698254E+02  0.0000000E+00
Ar   563  0.6419972E+01  0.5104551E+02  0.2958719E+02  0.0000000E+00
Ar   564  0.2676352E+01  0.5399582E+02  0.2952146E+02  0.0000000E+00
Ar   565  0.2282386E+01  0.5063214E+02  0.3216809E+02  0.0000000E+00
Ar   566  0.5185628E+01  0.5350822E+02  0.3194279E+02  0.0000000E+00
Ar   567  0.5318847E+01  0.5098405E+02  0.3510518E+02  0.0000000E+00
Ar   568  0.2271122E+01  0.5411854E+02  0.3512747E+02  0.0000000E+00
Ar   569  0.2456068E+01  0.5131496E+02  0.3735455E+02  0.0000000E+00
Ar   570  0.5449606E+01  0.5331434E+02  0.3773559E+02  0.0000000E+00
Ar   571  0.5530551E+01  0.5174927E+02  0.4144425E+02  0.0000000E+00
Ar   572  0.2868823E+01  0.5433748E+02  0.4075475E+02  0.0000000E+00
Ar   573  0.2957113E+01  0.5170230E+02  0.4388007E+02  0.0000000E+00
Ar   574  0.6038949E+01  0.5382181E+02  0.4432518E+02  0.0000000E+00
Ar   575  0.5557557E+01  0.5080469E+02  0.4657269E+02  0.0000000E+00
Ar   576  0.3285211E+01  0.5372089E+02  0.4695451E+02  0.0000000E+00
Ar   577  0.2811092E+01  0.5108450E+02  0.4954208E+02  0.0000000E+00
Ar   578  0.6013581E+01  0.5278689E+02  0.4961869E+02  0.0000000E+00
Ar   579  0.5395407E+01  0.5101749E+02  0.5271411E+02  0.0000000E+00
Ar   580  0.2691503E+01  0.5354801E+02  0.5275426E+02  0.0000000E+00
Ar   581  0.2363525E+01  0.5048857E+02  0.5514436E+02  0.0000000E+00
Ar   582  0.5121163E+01  0.5352180E+02  0.5552578E+02  0.0000000E+00
Ar   583  0.5813101E+01  0.5007491E+02  0.5791714E+02  0.0000000E+00
Ar   584  0.2024177E+01  0.5326115E+02  0.5786833E+02  0.0000000E+00
Ar   585  0.3125437E+01  0.5012181E+02  0.6032679E+02  0.0000000E+00
Ar   586  0.4945443E+01  0.5304393E+02  0.5997056E+02  0.0000000E+00
Ar   587  0.5313833E+01  0.5095547E+02  0.6322225E+02  0.0000000E+00
Ar   588  0.2890253E+01  0.5353646E+02  0.6351297E+02  0.0000000E+00
Ar   589  0.2416407E+01  0.5017779E+02  0.6611001E+02  0.0000000E+00
Ar   590  0.6156207E+01  0.5389724E+02  0.6600223E+02  0.0000000E+00
Ar   591  0.6322474E+01  0.5070148E+02  0.6915845E+02  0.0000000E+00
Ar   592  0.3663833E+01  0.5335174E+02  0.6870093E+02  0.0000000E+00
Ar   593  0.2975571E+01  0.5105171E+02  0.7198924E+02  0.0000000E+00
Ar   594  0.5625474E+01  0.5345541E+02  0.7207208E+02  0.0000000E+00
Ar   595  0.6145121E+01  0.5090734E+02  0.7423689E+02  0.0000000E+00
Ar   596  0.2341808E+01  0.5373255E+02  0.7438728E+02  0.0000000E+00
Ar   597  0.2687604E+01  0.5097745E+02  0.7743445E+02  0.0000000E+00
Ar   598  0.6089634E+01  0.5352496E+02  0.7765909E+02  0.0000000E+00
Ar   599  0.5181842E+01  0.5044653E+02  0.8023964E+02  0.0000000E+00
Ar   600  0.2770148E+01  0.5351755E+02  0.8000071E+02  0.0000000E+00
Ar   601  0.2858104E+01  0.5654776E+02  0.8276786E+02  0.0000000E+00
Ar   602  0.5462955E+01  0.5922065E+02  0.8149977E+02  0.0000000E+00
Ar   603  0.5897259E+01  0.5655114E+02  0.9113392E+00  0.0000000E+00
Ar   604  0.2828093E+01  0.5934066E+02  0.8740572E+00  0.0000000E+00
Ar   605  0.3045548E+01  0.5699737E+02  0.3751490E+01  0.0000000E+00
Ar   606  0.5507857E+01  0.5975136E+02  0.3842879E+01  0.0000000E+00
Ar   607  0.5747694E+01  0.5675307E+02  0.6573285E+01  0.0000000E+00
Ar   608  0.2707552E+01  0.5942732E+02  0.6888053E+01  0.0000000E+00
Ar   609  0.2920685E+01  0.5650721E+02  0.9522813E+01  0.0000000E+00
Ar   610  0.5434150E+01  0.5924662E+02  0.1028057E+02  0.0000000E+00
Ar   611  0.5288503E+01  0.5627652E+02  0.1238112E+02  0.0000000E+00
Ar   612  0.2211674E+01  0.5909647E+02  0.1246398E+02  0.0000000E+00
Ar   613  0.2427473E+01  0.5641903E+02  0.1555606E+02  0.0000000E+00
Ar   614  0.4975552E+01  0.5910649E+02  0.1565946E+02  0.0000000E+00
Ar   615  0.5171856E+01  0.5684699E+02  0.1856219E+02  0.0000000E+00
Ar   616  0.2155433E+01  0.5916575E+02  0.1811192E+02  0.0000000E+00
Ar   617  0.2419545E+01  0.5640014E+02  0.2093558E+02  0.0000000E+00
Ar   618  0.5159675E+01  0.5956863E+02  0.2081876E+02  0.0000000E+00
Ar   619  0.5351249E+01  0.5661257E+02  0.2361316E+02  0.0000000E+00
Ar   620  0.2551773E+01  0.5915337E+02  0.2353852E+02  0.0000000E+00
Ar   621  0.2663744E+01  0.5648878E+02  0.2621443E+02  0.0000000E+00
Ar   622  0.5908815E+01  0.5951496E+02  0.2608202E+02  0.0000000E+00
Ar   623  0.4510016E+01  0.5729195E+02  0.2920409E+02  0.0000000E+00
Ar   624  0.2195817E+01  0.5929026E+02  0.2992333E+02  0.0000000E+00
Ar   625  0.2669610E+01  0.5661848E+02  0.3211590E+02  0.0000000E+00
Ar   626  0.5299962E+01  0.6007358E+02  0.3186257E+02  0.0000000E+00
Ar   627  0.4888667E+01  0.5622663E+02  0.3537884E+02  0.0000000E+00
Ar   628  0.2656754E+01  0.5958961E+02  0.3448141E+02  0.0000000E+00
Ar   629  0.1990757E+01  0.5716933E+02  0.3747976E+02  0.0000000E+00
Ar   630  0.5476832E+01  0.5951274E+02  0.3703440E+02  0.0000000E+00
Ar   631  0.5435532E+01  0.5693768E+02  0.4017365E+02  0.0000000E+00
Ar   632  0.2073855E+01  0.5907326E+02  0.4093493E+02  0.0000000E+00
Ar   633  0.3263065E+01  0.5611727E+02  0.4387947E+02  0.0000000E+00
Ar   634  0.6145075E+01  0.5916205E+02  0.4376036E+02  0.0000000E+00
Ar   635  0.6019057E+01  0.5605821E+02  0.4727459E+02  0.0000000E+00
Ar   636  0.2653435E+01  0.5930588E+02  0.4653601E+02  0.0000000E+00
Ar   637  0.2952658E+01  0.5641499E+02  0.4912595E+02  0.0000000E+00
Ar   638  0.6261024E+01  0.5919462E+02  0.4969352E+02  0.0000000E+00
Ar   639  0.5682414E+01  0.5595812E+02  0.5218248E+02  0.0000000E+00
Ar   640  0.3070435E+01  0.5970460E+02  0.5145001E+02  0.0000000E+00
Ar   641  0.2462409E+01  0.5593219E+02  0.5540089E+02  0.0000000E+00
Ar   642  0.4865487E+01  0.5921676E+02  0.5414283E+02  0.0000000E+00
Ar   643  0.5252193E+01  0.5678411E+02  0.5844775E+02  0.0000000E+00
Ar   644  0.2797500E+01  0.5971414E+02  0.5772919E+02  0.0000000E+00
Ar   645  0.2743218E+01  0.5742211E+02  0.6126313E+02  0.0000000E+00
Ar   646  0.4987096E+01  0.6113594E+02  0.6116041E+02  0.0000000E+00
Ar   647  0.6242606E+01  0.5578711E+02  0.6228203E+02  0.0000000E+00
Ar   648  0.2783556E+01  0.6006151E+02  0.6357857E+02  0.0000000E+00
Ar   649  0.3582174E+01  0.5687412E+02  0.6523701E+02  0.0000000E+00
Ar   650  0.5379160E+01  0.5991898E+02  0.6600767E+02  0.0000000E+00
Ar   651  0.5615663E+01  0.5711734E+02  0.6931809E+02  0.0000000E+00
Ar   652  0.3268181E+01  0.5974385E+02  0.6944884E+02  0.0000000E+00
Ar   653  0.2913509E+01  0.5637420E+02  0.7122944E+02  0.0000000E+00
Ar   654  0.6140426E+01  0.5925797E+02  0.7196688E+02  0.0000000E+00
Ar   655  0.5659141E+01  0.5627842E+02  0.7526304E+02  0.0000000E+00
Ar   656  0.3680350E+01  0.5913660E+02  0.7416858E+02  0.0000000E+00
Ar   657  0.2548144E+01  0.5694912E+02  0.7795081E+02  0.0000000E+00
Ar   658  0.6028829E+01  0.5917901E+02  0.7722611E+02  0.0000000E+00
Ar   659  0.5460177E+01  0.5590165E+02  0.8012060E+02  0.0000000E+00
Ar   660  0.2038098E+01  0.5969233E+02  0.8045264E+02  0.0000000E+00
Ar   661  0.2148509E+01  0.6242078E+02  0.8233469E+02  0.0000000E+00
Ar   662  0.5385116E+01  0.6512022E+02  0.8288410E+02  0.0000000E+00
Ar   663  0.5714448E+01  0.6215606E+02  0.1020198E+01  0.0000000E+00
Ar   664  0.3103540E+01  0.6496913E+02  0.1527211E+01  0.0000000E+00
Ar   665  0.2619529E+01  0.6180038E+02  0.4448916E+01  0.0000000E+00
Ar   666  0.5598822E+01  0.6474003E+02  0.4881663E+01  0.0000000E+00
Ar   667  0.4981299E+01  0.6213525E+02  0.7508963E+01  0.0000000E+00
Ar   668  0.2347945E+01  0.6502833E+02  0.6776177E+01  0.0000000E+00
Ar   669  0.2404078E+01  0.6175873E+02  0.9756539E+01  0.0000000E+00
Ar   670  0.5195979E+01  0.6553826E+02  0.9310629E+01  0.0000000E+00
Ar   671  0.5351736E+01  0.6226087E+02  0.1241125E+02  0.0000000E+00
Ar   672  0.2753429E+01  0.6456418E+02  0.1195957E+02  0.0000000E+00
Ar   673  0.2665708E+01  0.6189353E+02  0.1539352E+02  0.0000000E+00
Ar   674  0.5711083E+01  0.6450317E+02  0.1545239E+02  0.0000000E+00
Ar   675  0.5414708E+01  0.6218953E+02  0.1830038E+02  0.0000000E+00
Ar   676  0.2206607E+01  0.6467417E+02  0.1814120E+02  0.0000000E+00
Ar   677  0.2188872E+01  0.6206732E+02  0.2106236E+02  0.0000000E+00
Ar   678  0.5231023E+01  0.6499191E+02  0.2094267E+02  0.0000000E+00
Ar   679  0.5657112E+01  0.6255437E+02  0.2402590E+02  0.0000000E+00
Ar   680  0.1679655E+01  0.6581816E+02  0.2539261E+02  0.0000000E+00
Ar   681  0.9815291E+00  0.6277452E+02  0.2724268E+02  0.0000000E+00
Ar   682  0.6422865E+01  0.6539256E+02  0.2684016E+02  0.0000000E+00
Ar   683  0.5346058E+01  0.6236593E+02  0.2877203E+02  0.0000000E+00
Ar   684  0.1840799E+01  0.6513643E+02  0.2985382E+02  0.0000000E+00
Ar   685  0.2735343E+01  0.6259719E+02  0.3184395E+02  0.0000000E+00
Ar   686  0.5799828E+01  0.6524267E+02  0.3239644E+02  0.0000000E+00
Ar   687  0.5575237E+01  0.6242285E+02  0.3485597E+02  0.0000000E+00
Ar   688  0.2849302E+01  0.6474316E+02  0.3507789E+02  0.0000000E+00
Ar   689  0.2811588E+01  0.6167833E+02  0.3775063E+02  0.0000000E+00
Ar   690  0.5152709E+01  0.6457292E+02  0.3771762E+02  0.0000000E+00
Ar   691  0.5411938E+01  0.6123675E+02  0.4044564E+02  0.0000000E+00
Ar   692  0.2829399E+01  0.6445923E+02  0.4109093E+02  0.0000000E+00
Ar   693  0.2984073E+01  0.6128592E+02  0.4364459E+02  0.0000000E+00
Ar   694  0.5579049E+01  0.6480504E+02  0.4389223E+02  0.0000000E+00
Ar   695  0.4688267E+01  0.6258342E+02  0.4622065E+02  0.0000000E+00
Ar   696  0.3037958E+01  0.6566696E+02  0.4702070E+02  0.0000000E+00
Ar   697  0.2829599E+01  0.6261652E+02  0.4931440E+02  0.0000000E+00
Ar   698  0.5544951E+01  0.6539463E+02  0.4968782E+02  0.0000000E+00
Ar   699  0.5673132E+01  0.6198171E+02  0.5176405E+02  0.0000000E+00
Ar   700  0.2446821E+01  0.6503150E+02  0.5194951E+02  0.0000000E+00
Ar   701  0.2015204E+01  0.6211885E+02  0.5469995E+02  0.0000000E+00
Ar   702  0.5697947E+01  0.6523740E+02  0.5549057E+02  0.0000000E+00
Ar   703  0.5871820E+01  0.6135914E+02  0.5763297E+02  0.0000000E+00
Ar   704  0.2243088E+01  0.6467541E+02  0.5750036E+02  0.0000000E+00
Ar   705  0.1625735E+01  0.6198929E+02  0.6080222E+02  0.0000000E+00
Ar   706  0.4437781E+01  0.6485434E+02  0.6070798E+02  0.0000000E+00
Ar   707  0.6122022E+01  0.6317872E+02  0.6385632E+02  0.0000000E+00
Ar   708  0.1827874E+01  0.6526574E+02  0.6341666E+02  0.0000000E+00
Ar   709  0.2824828E+01  0.6259258E+02  0.6627680E+02  0.0000000E+00
Ar   710  0.4804621E+01  0.6573156E+02  0.6592530E+02  0.0000000E+00
Ar   711  0.5634352E+01  0.6254899E+02  0.6914934E+02  0.0000000E+00
Ar   712  0.3214199E+01  0.6518447E+02  0.6903671E+02  0.0000000E+00
Ar   713  0.3216252E+01  0.6189324E+02  0.7212495E+02  0.0000000E+00
Ar   714  0.4912837E+01  0.6487966E+02  0.7227684E+02  0.0000000E+00
Ar   715  0.6861788E+01  0.6242458E+02  0.7518053E+02  0.0000000E+00
Ar   716  0.2604648E+01  0.6546836E+02  0.7493679E+02  0.0000000E+00
Ar   717  0.3307074E+01  0.6205309E+02  0.7764233E+02  0.0000000E+00
Ar   718  0.5548718E+01  0.6491070E+02  0.7737785E+02  0.0000000E+00
Ar   719  0.6260276E+01  0.6228532E+02  0.8016275E+02  0.0000000E+00
Ar   720  0.2448228E+01  0.6491691E+02  0.7993054E+02  0.0000000E+00
Ar   721  0.1790478E+01  0.6819457E+02  0.8223623E+02  0.0000000E+00
Ar   722  0.5354675E+01  0.7118486E+02  0.8263879E+02  0.0000000E+00
Ar   723  0.5856922E+01  0.6799379E+02  0.1564061E+01  0.0000000E+00
Ar   724  0.2829508E+01  0.7039100E+02  0.1018239E+01  0.0000000E+00
Ar   725  0.3152986E+01  0.6800048E+02  0.4974559E+01  0.0000000E+00
Ar   726  0.5259995E+01  0.7074073E+02  0.3979151E+01  0.0000000E+00
Ar   727  0.5842161E+01  0.6870534E+02  0.7369289E+01  0.0000000E+00
Ar   728  0.3086383E+01  0.7055996E+02  0.7372541E+01  0.0000000E+00
Ar   729  0.3031432E+01  0.6848256E+02  0.1079052E+02  0.0000000E+00
Ar   730  0.5826435E+01  0.7126397E+02  0.1009775E+02  0.0000000E+00
Ar   731  0.5723335E+01  0.6676443E+02  0.1289982E+02  0.0000000E+00
Ar   732  0.2864908E+01  0.7147194E+02  0.1311559E+02  0.0000000E+00
Ar   733  0.3179326E+01  0.6779661E+02  0.1560960E+02  0.0000000E+00
Ar   734  0.5967830E+01  0.7039711E+02  0.1538527E+02  0.0000000E+00
Ar   735  0.5784582E+01  0.6764419E+02  0.1801138E+02  0.0000000E+00
Ar   736  0.3034556E+01  0.7089386E+02  0.1827118E+02  0.0000000E+00
Ar   737  0.2326822E+01  0.6758139E+02  0.2141353E+02  0.0000000E+00
Ar   738  0.5609320E+01  0.7053691E+02  0.2095502E+02  0.0000000E+00
Ar   739  0.5889976E+01  0.6796330E+02  0.2347965E+02  0.0000000E+00
Ar   740  0.3088399E+01  0.7038760E+02  0.2371091E+02  0.0000000E+00
Ar   741  0.2424810E+01  0.6909199E+02  0.2712736E+02  0.0000000E+00
Ar   742  0.5552292E+01  0.7035606E+02  0.2658237E+02  0.0000000E+00
Ar   743  0.5385797E+01  0.6760340E+02  0.2950127E+02  0.0000000E+00
Ar   744  0.2879775E+01  0.7092015E+02  0.3019918E+02  0.0000000E+00
Ar   745  0.2580125E+01  0.6767235E+02  0.3236250E+02  0.0000000E+00
Ar   746  0.5259715E+01  0.6997311E+02  0.3247698E+02  0.0000000E+00
Ar   747  0.5753571E+01  0.6732562E+02  0.3508818E+02  0.0000000E+00
Ar   748  0.3005327E+01  0.6999342E+02  0.3558882E+02  0.0000000E+00
Ar   749  0.2933405E+01  0.6719415E+02  0.3744119E+02  0.0000000E+00
Ar   750  0.5454655E+01  0.6760891E+02  0.4013125E+02  0.0000000E+00
Ar   751  0.8071101E+01  0.6497452E+02  0.4087899E+02  0.0000000E+00
Ar   752  0.2476194E+01  0.7051868E+02  0.4058349E+02  0.0000000E+00
Ar   753  0.2386401E+01  0.6798931E+02  0.4346591E+02  0.0000000E+00
Ar   754  0.4603359E+01  0.7106712E+02  0.4380839E+02  0.0000000E+00
Ar   755  0.5272796E+01  0.6816173E+02  0.4609036E+02  0.0000000E+00
Ar   756  0.2451327E+01  0.7062008E+02  0.4698589E+02  0.0000000E+00
Ar   757  0.2028638E+01  0.6825498E+02  0.4952299E+02  0.0000000E+00
Ar   758  0.4731804E+01  0.7070754E+02  0.4969502E+02  0.0000000E+00
Ar   759  0.5032732E+01  0.6785048E+02  0.5207885E+02  0.0000000E+00
Ar   760  0.2125475E+01  0.7018496E+02  0.5277004E+02  0.0000000E+00
Ar   761  0.2731490E+01  0.6762732E+02  0.5569076E+02  0.0000000E+00
Ar   762  0.4993442E+01  0.7057684E+02  0.5510014E+02  0.0000000E+00
Ar   763  0.5399688E+01  0.6813999E+02  0.5819720E+02  0.0000000E+00
Ar   764  0.2289291E+01  0.7056951E+02  0.5804298E+02  0.0000000E+00
Ar   765  0.2414396E+01  0.6754214E+02  0.6015534E+02  0.0000000E+00
Ar   766  0.5051128E+01  0.7049826E+02  0.6091840E+02  0.0000000E+00
Ar   767  0.4413400E+01  0.6785957E+02  0.6292016E+02  0.0000000E+00
Ar   768  0.2333877E+01  0.7085341E+02  0.6351578E+02  0.0000000E+00
Ar   769  0.1776121E+01  0.6743546E+02  0.6690676E+02  0.0000000E+00
Ar   770  0.5468602E+01  0.7062240E+02  0.6584116E+02  0.0000000E+00
Ar   771  0.5729913E+01  0.6809523E+02  0.6883484E+02  0.0000000E+00
Ar   772  0.2707826E+01  0.7038462E+02  0.6901058E+02  0.0000000E+00
Ar   773  0.2718739E+01  0.6788133E+02  0.7190353E+02  0.0000000E+00
Ar   774  0.5481903E+01  0.7050311E+02  0.7174641E+02  0.0000000E+00
Ar   775  0.5727352E+01  0.6787505E+02  0.7443397E+02  0.0000000E+00
Ar   776  0.2484788E+01  0.6996508E+02  0.7460176E+02  0.0000000E+00
Ar   777  0.2357441E+01  0.6804405E+02  0.7759409E+02  0.0000000E+00
Ar   778  0.6118862E+01  0.7030782E+02  0.7757726E+02  0.0000000E+00
Ar   779  0.5088685E+01  0.6736476E+02  0.8034128E+02  0.0000000E+00
Ar   780  0.3217300E+01  0.7071678E+02  0.8004999E+02  0.0000000E+00
Ar   781  0.2652557E+01  0.7383870E+02  0.8251271E+02  0.0000000E+00
Ar   782  0.5988745E+01  0.7630911E+02  0.8286178E+02  0.0000000E+00
Ar   783  0.5928963E+01  0.7338353E+02  0.1591333E+01  0.0000000E+00
Ar   784  0.3287395E+01  0.7640689E+02  0.9343850E+00  0.0000000E+00
Ar   785  0.2929204E+01  0.7321448E+02  0.3415447E+01  0.0000000E+00
Ar   786  0.5100217E+01  0.7607495E+02  0.3727035E+01  0.0000000E+00
Ar   787  0.5586171E+01  0.7311699E+02  0.6565910E+01  0.0000000E+00
Ar   788  0.2386415E+01  0.7666469E+02  0.7535795E+01  0.0000000E+00
Ar   789  0.3456575E+01  0.7391904E+02  0.9463629E+01  0.0000000E+00
Ar   790  0.6196882E+01  0.7604487E+02  0.1004404E+02  0.0000000E+00
Ar   791  0.6435355E+01  0.7301899E+02  0.1319691E+02  0.0000000E+00
Ar   792  0.3201046E+01  0.7618197E+02  0.1240798E+02  0.0000000E+00
Ar   793  0.3736563E+01  0.7395772E+02  0.1562939E+02  0.0000000E+00
Ar   794  0.5855936E+01  0.7643374E+02  0.1612419E+02  0.0000000E+00
Ar   795  0.5677458E+01  0.7318684E+02  0.1865697E+02  0.0000000E+00
Ar   796  0.2654178E+01  0.7695041E+02  0.1862681E+02  0.0000000E+00
Ar   797  0.2636872E+01  0.7347987E+02  0.2106569E+02  0.0000000E+00
Ar   798  0.5670763E+01  0.7641501E+02  0.2085957E+02  0.0000000E+00
Ar   799  0.5353240E+01  0.7324355E+02  0.2338874E+02  0.0000000E+00
Ar   800  0.2513816E+01  0.7646229E+02  0.2319043E+02  0.0000000E+00
Ar   801  0.2972725E+01  0.7316361E+02  0.2638922E+02  0.0000000E+00
Ar   802  0.5660154E+01  0.7619750E+02  0.2654370E+02  0.0000000E+00
Ar   803  0.4693022E+01  0.7372787E+02  0.2953764E+02  0.0000000E+00
Ar   804  0.2199132E+01  0.7587057E+02  0.2881195E+02  0.0000000E+00
Ar   805  0.3085723E+01  0.7372406E+02  0.3270654E+02  0.0000000E+00
Ar   806  0.5995971E+01  0.7626045E+02  0.3330138E+02  0.0000000E+00
Ar   807  0.4968839E+01  0.7333935E+02  0.3557728E+02  0.0000000E+00
Ar   808  0.2550902E+01  0.7640554E+02  0.3580273E+02  0.0000000E+00
Ar   809  0.2332725E+01  0.7411926E+02  0.3825234E+02  0.0000000E+00
Ar   810  0.5515603E+01  0.7613801E+02  0.3855991E+02  0.0000000E+00
Ar   811  0.5018324E+01  0.7357575E+02  0.4096502E+02  0.0000000E+00
Ar   812  0.2375109E+01  0.7663618E+02  0.4077627E+02  0.0000000E+00
Ar   813  0.2253234E+01  0.7357489E+02  0.4310639E+02  0.0000000E+00
Ar   814  0.4783883E+01  0.7648587E+02  0.4326289E+02  0.0000000E+00
Ar   815  0.5211344E+01  0.7255784E+02  0.4683436E+02  0.0000000E+00
Ar   816  0.2255085E+01  0.7604439E+02  0.4682545E+02  0.0000000E+00
Ar   817  0.2300835E+01  0.7356458E+02  0.4918073E+02  0.0000000E+00
Ar   818  0.4576598E+01  0.7636303E+02  0.4971791E+02  0.0000000E+00
Ar   819  0.4303074E+01  0.7357802E+02  0.5209333E+02  0.0000000E+00
Ar   820  0.2104887E+01  0.7687770E+02  0.5289698E+02  0.0000000E+00
Ar   821  0.1992942E+01  0.7346401E+02  0.5547327E+02  0.0000000E+00
Ar   822  0.5323167E+01  0.7614644E+02  0.5472679E+02  0.0000000E+00
Ar   823  0.4992934E+01  0.7304466E+02  0.5758158E+02  0.0000000E+00
Ar   824  0.2629441E+01  0.7610561E+02  0.5789559E+02  0.0000000E+00
Ar   825  0.2325030E+01  0.7349040E+02  0.6039581E+02  0.0000000E+00
Ar   826  0.5548737E+01  0.7595102E+02  0.6061818E+02  0.0000000E+00
Ar   827  0.5111608E+01  0.7346778E+02  0.6368599E+02  0.0000000E+00
Ar   828  0.2677222E+01  0.7623085E+02  0.6292451E+02  0.0000000E+00
Ar   829  0.3008936E+01  0.7358575E+02  0.6665568E+02  0.0000000E+00
Ar   830  0.5395693E+01  0.7634961E+02  0.6617889E+02  0.0000000E+00
Ar   831  0.5743037E+01  0.7332455E+02  0.6910641E+02  0.0000000E+00
Ar   832  0.2711182E+01  0.7679811E+02  0.6931587E+02  0.0000000E+00
Ar   833  0.2798499E+01  0.7301535E+02  0.7209616E+02  0.0000000E+00
Ar   834  0.5613247E+01  0.7608508E+02  0.7159520E+02  0.0000000E+00
Ar   835  0.5687378E+01  0.7299130E+02  0.7445202E+02  0.0000000E+00
Ar   836  0.3913262E+01  0.7620680E+02  0.7495475E+02  0.0000000E+00
Ar   837  0.3348475E+01  0.7297293E+02  0.7708725E+02  0.0000000E+00
Ar   838  0.6117443E+01  0.7627522E+02  0.7750513E+02  0.0000000E+00
Ar   839  0.5881653E+01  0.7384142E+02  0.8002437E+02  0.0000000E+00
Ar   840  0.2548534E+01  0.7632016E+02  0.7996264E+02  0.0000000E+00
Ar   841  0.3216695E+01  0.7887226E+02  0.8247909E+02  0.0000000E+00
Ar   842  0.5868250E+01  0.8178265E+02  0.8312012E+02  0.0000000E+00
Ar   843  0.5636435E+01  0.7891635E+02  0.1224826E+01  0.0000000E+00
Ar   844  0.3148491E+01  0.8190939E+02  0.1212959E+01  0.0000000E+00
Ar   845  0.3139190E+01  0.7935488E+02  0.3443175E+01  0.0000000E+00
Ar   846  0.5875670E+01  0.8152917E+02  0.5085658E+01  0.0000000E+00
Ar   847  0.5568682E+01  0.7846419E+02  0.7550297E+01  0.0000000E+00
Ar   848  0.2867758E+01  0.8148927E+02  0.6948640E+01  0.0000000E+00
Ar   849  0.2679713E+01  0.7926199E+02  0.9928651E+01  0.0000000E+00
Ar   850  0.5639557E+01  0.8191461E+02  0.9556660E+01  0.0000000E+00
Ar   851  0.5682389E+01  0.7900268E+02  0.1244938E+02  0.0000000E+00
Ar   852  0.2357557E+01  0.8175198E+02  0.1265300E+02  0.0000000E+00
Ar   853  0.3014267E+01  0.7870162E+02  0.1531103E+02  0.0000000E+00
Ar   854  0.5558490E+01  0.8121907E+02  0.1546967E+02  0.0000000E+00
Ar   855  0.5260385E+01  0.7962676E+02  0.1862824E+02  0.0000000E+00
Ar   856  0.2512049E+01  0.8188487E+02  0.1790856E+02  0.0000000E+00
Ar   857  0.2229028E+01  0.7967358E+02  0.2104045E+02  0.0000000E+00
Ar   858  0.4976775E+01  0.8180674E+02  0.2153691E+02  0.0000000E+00
Ar   859  0.5268436E+01  0.7863501E+02  0.2409308E+02  0.0000000E+00
Ar   860  0.2469901E+01  0.8196026E+02  0.2455431E+02  0.0000000E+00
Ar   861  0.2953521E+01  0.7866744E+02  0.2682937E+02  0.0000000E+00
Ar   862  0.5345345E+01  0.8154000E+02  0.2689815E+02  0.0000000E+00
Ar   863  0.5228342E+01  0.7816894E+02  0.2976502E+02  0.0000000E+00
Ar   864  0.2109337E+01  0.8090634E+02  0.2966234E+02  0.0000000E+00
Ar   865  0.2758926E+01  0.7796855E+02  0.3219095E+02  0.0000000E+00
Ar   866  0.5250332E+01  0.8173849E+02  0.3221883E+02  0.0000000E+00
Ar   867  0.4938153E+01  0.7976430E+02  0.3526115E+02  0.0000000E+00
Ar   868  0.2073195E+01  0.8219141E+02  0.3542979E+02  0.0000000E+00
Ar   869  0.1939341E+01  0.7946650E+02  0.3857533E+02  0.0000000E+00
Ar   870  0.4508907E+01  0.8183095E+02  0.3845986E+02  0.0000000E+00
Ar   871  0.5082811E+01  0.7938998E+02  0.4100611E+02  0.0000000E+00
Ar   872  0.2358728E+01  0.8231035E+02  0.4125122E+02  0.0000000E+00
Ar   873  0.2778042E+01  0.7924336E+02  0.4375626E+02  0.0000000E+00
Ar   874  0.5261690E+01  0.8164932E+02  0.4401988E+02  0.0000000E+00
Ar   875  0.5185794E+01  0.7899679E+02  0.4658585E+02  0.0000000E+00
Ar   876  0.2755291E+01  0.8203031E+02  0.4654484E+02  0.0000000E+00
Ar   877  0.1747458E+01  0.7916428E+02  0.4971918E+02  0.0000000E+00
Ar   878  0.4531626E+01  0.8146115E+02  0.5044950E+02  0.0000000E+00
Ar   879  0.5369569E+01  0.7896838E+02  0.5252600E+02  0.0000000E+00
Ar   880  0.2037225E+01  0.8239932E+02  0.5268100E+02  0.0000000E+00
Ar   881  0.2693476E+01  0.7942450E+02  0.5552602E+02  0.0000000E+00
Ar   882  0.6105587E+01  0.8204724E+02  0.5558247E+02  0.0000000E+00
Ar   883  0.5169032E+01  0.7871918E+02  0.5821245E+02  0.0000000E+00
Ar   884  0.3123975E+01  0.8257176E+02  0.5808213E+02  0.0000000E+00
Ar   885  0.2320129E+01  0.7936020E+02  0.6066859E+02  0.0000000E+00
Ar   886  0.5306241E+01  0.8179761E+02  0.6113215E+02  0.0000000E+00
Ar   887  0.5045270E+01  0.7905923E+02  0.6420538E+02  0.0000000E+00
Ar   888  0.2810878E+01  0.8184093E+02  0.6321278E+02  0.0000000E+00
Ar   889  0.2334450E+01  0.7896749E+02  0.6626692E+02  0.0000000E+00
Ar   890  0.5703773E+01  0.8221637E+02  0.6570295E+02  0.0000000E+00
Ar   891  0.4874573E+01  0.7935206E+02  0.6904200E+02  0.0000000E+00
Ar   892  0.2640932E+01  0.8211646E+02  0.6875361E+02  0.0000000E+00
Ar   893  0.2972759E+01  0.7913038E+02  0.7277922E+02  0.0000000E+00
Ar   894  0.5295674E+01  0.8187507E+02  0.7180976E+02  0.0000000E+00
Ar   895  0.6047267E+01  0.7900881E+02  0.7455375E+02  0.0000000E+00
Ar   896  0.2799907E+01  0.8217355E+02  0.7442938E+02  0.0000000E+00
Ar   897  0.2926193E+01  0.7942372E+02  0.7695573E+02  0.0000000E+00
Ar   898  0.5655881E+01  0.8171303E+02  0.7689907E+02  0.0000000E+00
Ar   899  0.5928000E+01  0.7887844E+02  0.7994209E+02  0.0000000E+00
Ar   900  0.2560213E+01  0.8135103E+02  0.7988605E+02  0.0000000E+00
Ar   901  0.8460796E+01  0.1405132E+00  0.8236638E+02  0.0000000E+00
Ar   902  0.1094201E+02  0.2652982E+01  0.8284417E+02  0.0000000E+00
Ar   903  0.1182201E+02  0.2711498E+00  0.1967131E+01  0.0000000E+00
Ar   904  0.8520218E+01  0.2990526E+01  0.1488715E+01  0.0000000E+00
Ar   905  0.8728400E+01  0.8402840E+02  0.4418836E+01  0.0000000E+00
Ar   906  0.1107048E+02  0.3130955E+01  0.4135697E+01  0.0000000E+00
Ar   907  0.1143759E+02  0.2238329E+00  0.6393810E+01  0.0000000E+00
Ar   908  0.8317863E+01  0.2692966E+01  0.7387474E+01  0.0000000E+00
Ar   909  0.8343217E+01  0.3524943E+00  0.1013798E+02  0.0000000E+00
Ar   910  0.1065908E+02  0.2934588E+01  0.9697144E+01  0.0000000E+00
Ar   911  0.1087794E+02  0.2293447E+00  0.1240311E+02  0.0000000E+00
Ar   912  0.8256540E+01  0.3005105E+01  0.1270685E+02  0.0000000E+00
Ar   913  0.7740270E+01  0.5204661E+00  0.1527049E+02  0.0000000E+00
Ar   914  0.1096865E+02  0.2643992E+01  0.1543222E+02  0.0000000E+00
Ar   915  0.1104599E+02  0.5822743E+00  0.1814370E+02  0.0000000E+00
Ar   916  0.6713453E+01  0.2372551E+01  0.1901760E+02  0.0000000E+00
Ar   917  0.7706470E+01  0.8398402E+02  0.2102520E+02  0.0000000E+00
Ar   918  0.1018025E+02  0.2860883E+01  0.2170290E+02  0.0000000E+00
Ar   919  0.1030109E+02  0.1219825E+00  0.2372853E+02  0.0000000E+00
Ar   920  0.7463755E+01  0.2841557E+01  0.2389103E+02  0.0000000E+00
Ar   921  0.8046386E+01  0.1430426E+00  0.2690826E+02  0.0000000E+00
Ar   922  0.1309256E+02  0.4186770E+01  0.2727284E+02  0.0000000E+00
Ar   923  0.1018189E+02  0.3208718E+01  0.2598162E+02  0.0000000E+00
Ar   924  0.8430510E+01  0.2958223E+01  0.2957331E+02  0.0000000E+00
Ar   925  0.8623170E+01  0.5000110E+00  0.3263445E+02  0.0000000E+00
Ar   926  0.1117504E+02  0.3910647E+01  0.3206157E+02  0.0000000E+00
Ar   927  0.1111608E+02  0.1036833E+01  0.3507145E+02  0.0000000E+00
Ar   928  0.8706920E+01  0.3499669E+01  0.3482877E+02  0.0000000E+00
Ar   929  0.7995853E+01  0.1405810E+00  0.3721186E+02  0.0000000E+00
Ar   930  0.1098842E+02  0.3123865E+01  0.3847413E+02  0.0000000E+00
Ar   931  0.1162236E+02  0.8383538E+02  0.4032186E+02  0.0000000E+00
Ar   932  0.8932247E+01  0.2771231E+01  0.4135277E+02  0.0000000E+00
Ar   933  0.7675166E+01  0.3900975E+00  0.4442750E+02  0.0000000E+00
Ar   934  0.1229587E+02  0.2110677E+01  0.4306965E+02  0.0000000E+00
Ar   935  0.1108506E+02  0.3675510E+00  0.4632679E+02  0.0000000E+00
Ar   936  0.7903154E+01  0.2893608E+01  0.4685535E+02  0.0000000E+00
Ar   937  0.8086574E+01  0.8392761E+02  0.4950183E+02  0.0000000E+00
Ar   938  0.1083158E+02  0.2682426E+01  0.4953221E+02  0.0000000E+00
Ar   939  0.1052328E+02  0.2349286E+00  0.5241681E+02  0.0000000E+00
Ar   940  0.8655474E+01  0.3622480E+01  0.5242279E+02  0.0000000E+00
Ar   941  0.8332641E+01  0.7707063E+00  0.5529560E+02  0.0000000E+00
Ar   942  0.1128289E+02  0.3096335E+01  0.5525744E+02  0.0000000E+00
Ar   943  0.1137399E+02  0.1598666E+00  0.5778159E+02  0.0000000E+00
Ar   944  0.8003044E+01  0.3779934E+01  0.5769953E+02  0.0000000E+00
Ar   945  0.7755762E+01  0.1534750E+00  0.6057992E+02  0.0000000E+00
Ar   946  0.1113618E+02  0.3551371E+01  0.6005337E+02  0.0000000E+00
Ar   947  0.1112005E+02  0.6608918E+00  0.6327003E+02  0.0000000E+00
Ar   948  0.8041075E+01  0.3631749E+01  0.6344979E+02  0.0000000E+00
Ar   949  0.8391507E+01  0.6599601E+00  0.6602377E+02  0.0000000E+00
Ar   950  0.1105555E+02  0.3144322E+01  0.6631028E+02  0.0000000E+00
Ar   951  0.1077997E+02  0.8414097E+02  0.6877931E+02  0.0000000E+00
Ar   952  0.8094381E+01  0.3105006E+01  0.6880666E+02  0.0000000E+00
Ar   953  0.7543465E+01  0.4536202E+00  0.7123496E+02  0.0000000E+00
Ar   954  0.1127763E+02  0.2926906E+01  0.7067936E+02  0.0000000E+00
Ar   955  0.1127460E+02  0.7429725E+00  0.7401863E+02  0.0000000E+00
Ar   956  0.8441070E+01  0.3041576E+01  0.7387757E+02  0.0000000E+00
Ar   957  0.8261713E+01  0.1889713E+00  0.7698299E+02  0.0000000E+00
Ar   958  0.1095182E+02  0.3766882E+01  0.7640340E+02  0.0000000E+00
Ar   959  0.1146229E+02  0.8390217E+02  0.8044150E+02  0.0000000E+00
Ar   960  0.9052898E+01  0.3247652E+01  0.7984003E+02  0.0000000E+00
Ar   961  0.8811617E+01  0.5592158E+01  0.8251397E+02  0.0000000E+00
Ar   962  0.1101633E+02  0.8761632E+01  0.8279418E+02  0.0000000E+00
Ar   963  0.1061001E+02  0.5602214E+01  0.1888979E+01  0.0000000E+00
Ar   964  0.8574822E+01  0.8680063E+01  0.1265851E+01  0.0000000E+00
Ar   965  0.8133322E+01  0.5839746E+01  0.4192076E+01  0.0000000E+00
Ar   966  0.1104003E+02  0.8821273E+01  0.4052775E+01  0.0000000E+00
Ar   967  0.1056111E+02  0.5746102E+01  0.6653578E+01  0.0000000E+00
Ar   968  0.8067001E+01  0.8662123E+01  0.7156117E+01  0.0000000E+00
Ar   969  0.8315024E+01  0.5754190E+01  0.9915893E+01  0.0000000E+00
Ar   970  0.1103763E+02  0.8356480E+01  0.9577363E+01  0.0000000E+00
Ar   971  0.1078032E+02  0.5358048E+01  0.1275484E+02  0.0000000E+00
Ar   972  0.8622905E+01  0.7993360E+01  0.1267127E+02  0.0000000E+00
Ar   973  0.8185422E+01  0.4943372E+01  0.1580235E+02  0.0000000E+00
Ar   974  0.9503399E+01  0.8968995E+01  0.1615111E+02  0.0000000E+00
Ar   975  0.1042054E+02  0.4277003E+01  0.1850975E+02  0.0000000E+00
Ar   976  0.7466037E+01  0.8856094E+01  0.1908050E+02  0.0000000E+00
Ar   977  0.7390950E+01  0.5661111E+01  0.2146177E+02  0.0000000E+00
Ar   978  0.1066663E+02  0.7449189E+01  0.2030029E+02  0.0000000E+00
Ar   979  0.1061269E+02  0.5837336E+01  0.2389973E+02  0.0000000E+00
Ar   980  0.7754192E+01  0.8331446E+01  0.2436116E+02  0.0000000E+00
Ar   981  0.7822709E+01  0.5509615E+01  0.2677254E+02  0.0000000E+00
Ar   982  0.1024956E+02  0.8664808E+01  0.2672564E+02  0.0000000E+00
Ar   983  0.1095036E+02  0.6349085E+01  0.2924564E+02  0.0000000E+00
Ar   984  0.7517080E+01  0.8878695E+01  0.2940287E+02  0.0000000E+00
Ar   985  0.8517717E+01  0.6305551E+01  0.3218815E+02  0.0000000E+00
Ar   986  0.1061201E+02  0.9386051E+01  0.3180647E+02  0.0000000E+00
Ar   987  0.1099840E+02  0.6289187E+01  0.3480139E+02  0.0000000E+00
Ar   988  0.7951270E+01  0.8473522E+01  0.3496438E+02  0.0000000E+00
Ar   989  0.8471188E+01  0.5922221E+01  0.3788881E+02  0.0000000E+00
Ar   990  0.1081550E+02  0.9096841E+01  0.3799723E+02  0.0000000E+00
Ar   991  0.1070615E+02  0.6145869E+01  0.4129781E+02  0.0000000E+00
Ar   992  0.7925584E+01  0.8205239E+01  0.4048531E+02  0.0000000E+00
Ar   993  0.7996703E+01  0.6055509E+01  0.4354604E+02  0.0000000E+00
Ar   994  0.1070935E+02  0.5143409E+01  0.4644707E+02  0.0000000E+00
Ar   995  0.1443262E+02  0.6936840E+01  0.4880606E+02  0.0000000E+00
Ar   996  0.8483426E+01  0.9820211E+01  0.4699804E+02  0.0000000E+00
Ar   997  0.8249929E+01  0.6680448E+01  0.4947320E+02  0.0000000E+00
Ar   998  0.1146132E+02  0.9167006E+01  0.4978046E+02  0.0000000E+00
Ar   999  0.1088444E+02  0.6123327E+01  0.5243192E+02  0.0000000E+00
Ar  1000  0.8168098E+01  0.9436624E+01  0.5160806E+02  0.0000000E+00
Ar  1001  0.8018204E+01  0.7385434E+01  0.5455649E+02  0.0000000E+00
Ar  1002  0.1081854E+02  0.9366643E+01  0.5544597E+02  0.0000000E+00
Ar  1003  0.1109792E+02  0.6600703E+01  0.5781249E+02  0.0000000E+00
Ar  1004  0.7559070E+01  0.8774136E+01  0.5790934E+02  0.0000000E+00
Ar  1005  0.8420685E+01  0.6473643E+01  0.6014282E+02  0.0000000E+00
Ar  1006  0.1111032E+02  0.9243063E+01  0.6014889E+02  0.0000000E+00
Ar  1007  0.1025429E+02  0.6740321E+01  0.6328819E+02  0.0000000E+00
Ar  1008  0.8622516E+01  0.9749418E+01  0.6301697E+02  0.0000000E+00
Ar  1009  0.7972393E+01  0.5897968E+01  0.6579719E+02  0.0000000E+00
Ar  1010  0.1093915E+02  0.9458051E+01  0.6577657E+02  0.0000000E+00
Ar  1011  0.1086844E+02  0.6013518E+01  0.6856739E+02  0.0000000E+00
Ar  1012  0.8476999E+01  0.9211573E+01  0.6883149E+02  0.0000000E+00
Ar  1013  0.8573503E+01  0.6356863E+01  0.7140982E+02  0.0000000E+00
Ar  1014  0.1097096E+02  0.9241673E+01  0.7127025E+02  0.0000000E+00
Ar  1015  0.1116052E+02  0.6078129E+01  0.7387610E+02  0.0000000E+00
Ar  1016  0.8298324E+01  0.9186739E+01  0.7406566E+02  0.0000000E+00
Ar  1017  0.8360296E+01  0.6181138E+01  0.7751538E+02  0.0000000E+00
Ar  1018  0.1131260E+02  0.9016914E+01  0.7643432E+02  0.0000000E+00
Ar  1019  0.1107036E+02  0.6059788E+01  0.7989832E+02  0.0000000E+00
Ar  1020  0.8358426E+01  0.8911459E+01  0.8039437E+02  0.0000000E+00
Ar  1021  0.8580743E+01  0.1204418E+02  0.8208838E+02  0.0000000E+00
Ar  1022  0.1147061E+02  0.1493700E+02  0.8279966E+02  0.0000000E+00
Ar  1023  0.1171723E+02  0.1208947E+02  0.9506404E+00  0.0000000E+00
Ar  1024  0.8938760E+01  0.1518196E+02  0.8364341E+00  0.0000000E+00
Ar  1025  0.8917669E+01  0.1179599E+02  0.3540415E+01  0.0000000E+00
Ar  1026  0.1069741E+02  0.1473522E+02  0.3779189E+01  0.0000000E+00
Ar  1027  0.1042983E+02  0.1162197E+02  0.6911201E+01  0.0000000E+00
Ar  1028  0.8118284E+01  0.1518666E+02  0.6671380E+01  0.0000000E+00
Ar  1029  0.7664758E+01  0.1118854E+02  0.1013048E+02  0.0000000E+00
Ar  1030  0.1056201E+02  0.1451997E+02  0.9637078E+01  0.0000000E+00
Ar  1031  0.1075534E+02  0.1119466E+02  0.1246679E+02  0.0000000E+00
Ar  1032  0.7843547E+01  0.1471083E+02  0.1283116E+02  0.0000000E+00
Ar  1033  0.6913595E+01  0.1191660E+02  0.1595705E+02  0.0000000E+00
Ar  1034  0.1022267E+02  0.1334615E+02  0.1597876E+02  0.0000000E+00
Ar  1035  0.1010358E+02  0.1161703E+02  0.1902397E+02  0.0000000E+00
Ar  1036  0.7704687E+01  0.1425832E+02  0.1871833E+02  0.0000000E+00
Ar  1037  0.7698524E+01  0.1124074E+02  0.2150317E+02  0.0000000E+00
Ar  1038  0.1061440E+02  0.1489664E+02  0.2094916E+02  0.0000000E+00
Ar  1039  0.1063839E+02  0.1160191E+02  0.2367566E+02  0.0000000E+00
Ar  1040  0.7287468E+01  0.1442674E+02  0.2315982E+02  0.0000000E+00
Ar  1041  0.7797317E+01  0.1151534E+02  0.2648088E+02  0.0000000E+00
Ar  1042  0.1011093E+02  0.1393059E+02  0.2631492E+02  0.0000000E+00
Ar  1043  0.1059900E+02  0.1143259E+02  0.2883177E+02  0.0000000E+00
Ar  1044  0.8049963E+01  0.1445044E+02  0.2961524E+02  0.0000000E+00
Ar  1045  0.7823730E+01  0.1122633E+02  0.3213498E+02  0.0000000E+00
Ar  1046  0.1074522E+02  0.1376444E+02  0.3215538E+02  0.0000000E+00
Ar  1047  0.1028395E+02  0.1140485E+02  0.3531986E+02  0.0000000E+00
Ar  1048  0.8127594E+01  0.1460506E+02  0.3466064E+02  0.0000000E+00
Ar  1049  0.7913498E+01  0.1135167E+02  0.3833923E+02  0.0000000E+00
Ar  1050  0.1060575E+02  0.1393175E+02  0.3812849E+02  0.0000000E+00
Ar  1051  0.1088054E+02  0.1174645E+02  0.4091369E+02  0.0000000E+00
Ar  1052  0.7561899E+01  0.1456478E+02  0.4097171E+02  0.0000000E+00
Ar  1053  0.8282596E+01  0.1196850E+02  0.4372889E+02  0.0000000E+00
Ar  1054  0.1026504E+02  0.1542917E+02  0.4410456E+02  0.0000000E+00
Ar  1055  0.1116823E+02  0.1255007E+02  0.4661595E+02  0.0000000E+00
Ar  1056  0.7755733E+01  0.1558945E+02  0.4654342E+02  0.0000000E+00
Ar  1057  0.8371688E+01  0.1255135E+02  0.4891342E+02  0.0000000E+00
Ar  1058  0.1045687E+02  0.1559478E+02  0.4903511E+02  0.0000000E+00
Ar  1059  0.1023305E+02  0.1253939E+02  0.5188940E+02  0.0000000E+00
Ar  1060  0.7977527E+01  0.1521789E+02  0.5212440E+02  0.0000000E+00
Ar  1061  0.8250791E+01  0.1168519E+02  0.5486979E+02  0.0000000E+00
Ar  1062  0.1102706E+02  0.1473711E+02  0.5473950E+02  0.0000000E+00
Ar  1063  0.1154740E+02  0.1270344E+02  0.5771786E+02  0.0000000E+00
Ar  1064  0.8060368E+01  0.1548818E+02  0.5732400E+02  0.0000000E+00
Ar  1065  0.8650811E+01  0.1221410E+02  0.6063980E+02  0.0000000E+00
Ar  1066  0.1104346E+02  0.1532124E+02  0.6018107E+02  0.0000000E+00
Ar  1067  0.1137004E+02  0.1243464E+02  0.6291080E+02  0.0000000E+00
Ar  1068  0.8586152E+01  0.1491917E+02  0.6319973E+02  0.0000000E+00
Ar  1069  0.8446388E+01  0.1248063E+02  0.6576806E+02  0.0000000E+00
Ar  1070  0.1160879E+02  0.1485023E+02  0.6601128E+02  0.0000000E+00
Ar  1071  0.1123192E+02  0.1201880E+02  0.6829237E+02  0.0000000E+00
Ar  1072  0.8534899E+01  0.1472448E+02  0.6842328E+02  0.0000000E+00
Ar  1073  0.8238842E+01  0.1197997E+02  0.7101420E+02  0.0000000E+00
Ar  1074  0.1148001E+02  0.1480793E+02  0.7117227E+02  0.0000000E+00
Ar  1075  0.1167752E+02  0.1180137E+02  0.7409580E+02  0.0000000E+00
Ar  1076  0.8275215E+01  0.1462153E+02  0.7329138E+02  0.0000000E+00
Ar  1077  0.8528617E+01  0.1120267E+02  0.7685451E+02  0.0000000E+00
Ar  1078  0.1116544E+02  0.1467951E+02  0.7649987E+02  0.0000000E+00
Ar  1079  0.1153177E+02  0.1219885E+02  0.7906409E+02  0.0000000E+00
Ar  1080  0.8821862E+01  0.1471336E+02  0.7907494E+02  0.0000000E+00
Ar  1081  0.7989663E+01  0.1739041E+02  0.8195029E+02  0.0000000E+00
Ar  1082  0.9743389E+01  0.2021865E+02  0.8239082E+02  0.0000000E+00
Ar  1083  0.1155752E+02  0.1844901E+02  0.9966991E+00  0.0000000E+00
Ar  1084  0.8124929E+01  0.2005333E+02  0.1521181E+01  0.0000000E+00
Ar  1085  0.8003133E+01  0.1808451E+02  0.4841799E+01  0.0000000E+00
Ar  1086  0.1119368E+02  0.2082955E+02  0.4031126E+01  0.0000000E+00
Ar  1087  0.1079878E+02  0.1765391E+02  0.7413906E+01  0.0000000E+00
Ar  1088  0.8313221E+01  0.2123581E+02  0.7400076E+01  0.0000000E+00
Ar  1089  0.7723835E+01  0.1776796E+02  0.1043827E+02  0.0000000E+00
Ar  1090  0.1068878E+02  0.2023240E+02  0.9939604E+01  0.0000000E+00
Ar  1091  0.1060256E+02  0.1708921E+02  0.1217107E+02  0.0000000E+00
Ar  1092  0.8487564E+01  0.2024909E+02  0.1301338E+02  0.0000000E+00
Ar  1093  0.8041616E+01  0.1742129E+02  0.1566954E+02  0.0000000E+00
Ar  1094  0.1122150E+02  0.2008031E+02  0.1514847E+02  0.0000000E+00
Ar  1095  0.1143862E+02  0.1757697E+02  0.1837109E+02  0.0000000E+00
Ar  1096  0.8358391E+01  0.2041427E+02  0.1793153E+02  0.0000000E+00
Ar  1097  0.8216155E+01  0.1771268E+02  0.2132971E+02  0.0000000E+00
Ar  1098  0.1073984E+02  0.2037323E+02  0.2126074E+02  0.0000000E+00
Ar  1099  0.1130154E+02  0.1721583E+02  0.2417937E+02  0.0000000E+00
Ar  1100  0.8156660E+01  0.2039948E+02  0.2373175E+02  0.0000000E+00
Ar  1101  0.7957510E+01  0.1763434E+02  0.2599584E+02  0.0000000E+00
Ar  1102  0.1104496E+02  0.2041770E+02  0.2604268E+02  0.0000000E+00
Ar  1103  0.1070781E+02  0.1667599E+02  0.2925756E+02  0.0000000E+00
Ar  1104  0.7686892E+01  0.2033317E+02  0.2898873E+02  0.0000000E+00
Ar  1105  0.8105518E+01  0.1730307E+02  0.3180240E+02  0.0000000E+00
Ar  1106  0.1045295E+02  0.2029963E+02  0.3249515E+02  0.0000000E+00
Ar  1107  0.1071823E+02  0.1719927E+02  0.3503267E+02  0.0000000E+00
Ar  1108  0.7714426E+01  0.2054394E+02  0.3463633E+02  0.0000000E+00
Ar  1109  0.7781210E+01  0.1745007E+02  0.3734439E+02  0.0000000E+00
Ar  1110  0.1125800E+02  0.2030119E+02  0.3763550E+02  0.0000000E+00
Ar  1111  0.1140386E+02  0.1744829E+02  0.4069333E+02  0.0000000E+00
Ar  1112  0.7839563E+01  0.2071871E+02  0.4022342E+02  0.0000000E+00
Ar  1113  0.8510267E+01  0.1823982E+02  0.4385871E+02  0.0000000E+00
Ar  1114  0.1065570E+02  0.2080228E+02  0.4260584E+02  0.0000000E+00
Ar  1115  0.1086072E+02  0.1781760E+02  0.4662961E+02  0.0000000E+00
Ar  1116  0.8611152E+01  0.2089505E+02  0.4650728E+02  0.0000000E+00
Ar  1117  0.8098057E+01  0.1789983E+02  0.4923553E+02  0.0000000E+00
Ar  1118  0.1163975E+02  0.2036623E+02  0.4904718E+02  0.0000000E+00
Ar  1119  0.1112769E+02  0.1829606E+02  0.5224927E+02  0.0000000E+00
Ar  1120  0.8553535E+01  0.2062631E+02  0.5171136E+02  0.0000000E+00
Ar  1121  0.8022758E+01  0.1801830E+02  0.5488753E+02  0.0000000E+00
Ar  1122  0.1086220E+02  0.2098478E+02  0.5470990E+02  0.0000000E+00
Ar  1123  0.1092424E+02  0.1790573E+02  0.5747216E+02  0.0000000E+00
Ar  1124  0.8151756E+01  0.2032646E+02  0.5775378E+02  0.0000000E+00
Ar  1125  0.8688471E+01  0.1744056E+02  0.6081066E+02  0.0000000E+00
Ar  1126  0.1096264E+02  0.2092007E+02  0.6083541E+02  0.0000000E+00
Ar  1127  0.1216748E+02  0.1781191E+02  0.6386391E+02  0.0000000E+00
Ar  1128  0.8625599E+01  0.1981572E+02  0.6374145E+02  0.0000000E+00
Ar  1129  0.8452371E+01  0.1745180E+02  0.6612564E+02  0.0000000E+00
Ar  1130  0.1152628E+02  0.2019636E+02  0.6637652E+02  0.0000000E+00
Ar  1131  0.1161681E+02  0.1735523E+02  0.6867275E+02  0.0000000E+00
Ar  1132  0.8200667E+01  0.2065802E+02  0.6820843E+02  0.0000000E+00
Ar  1133  0.8427529E+01  0.1746440E+02  0.7093861E+02  0.0000000E+00
Ar  1134  0.1094856E+02  0.2024341E+02  0.7123920E+02  0.0000000E+00
Ar  1135  0.1081218E+02  0.1770704E+02  0.7439182E+02  0.0000000E+00
Ar  1136  0.8243010E+01  0.2037812E+02  0.7438041E+02  0.0000000E+00
Ar  1137  0.8398384E+01  0.1785469E+02  0.7689241E+02  0.0000000E+00
Ar  1138  0.1169375E+02  0.1974778E+02  0.7710986E+02  0.0000000E+00
Ar  1139  0.1130983E+02  0.1770504E+02  0.8011018E+02  0.0000000E+00
Ar  1140  0.7961276E+01  0.2064183E+02  0.7929370E+02  0.0000000E+00
Ar  1141  0.8375678E+01  0.2340493E+02  0.8289409E+02  0.0000000E+00
Ar  1142  0.1207668E+02  0.2580972E+02  0.8237555E+02  0.0000000E+00
Ar  1143  0.1065440E+02  0.2269418E+02  0.1094678E+01  0.0000000E+00
Ar  1144  0.8548161E+01  0.2656279E+02  0.1272717E+01  0.0000000E+00
Ar  1145  0.8477008E+01  0.2364308E+02  0.3822940E+01  0.0000000E+00
Ar  1146  0.1114294E+02  0.2622741E+02  0.3954273E+01  0.0000000E+00
Ar  1147  0.1118605E+02  0.2318578E+02  0.6806155E+01  0.0000000E+00
Ar  1148  0.8416560E+01  0.2514109E+02  0.7351318E+01  0.0000000E+00
Ar  1149  0.7805306E+01  0.2292885E+02  0.1028118E+02  0.0000000E+00
Ar  1150  0.1125478E+02  0.2557864E+02  0.9821390E+01  0.0000000E+00
Ar  1151  0.1162855E+02  0.2257661E+02  0.1251789E+02  0.0000000E+00
Ar  1152  0.8627637E+01  0.2573370E+02  0.1291754E+02  0.0000000E+00
Ar  1153  0.8411357E+01  0.2287623E+02  0.1528944E+02  0.0000000E+00
Ar  1154  0.1151675E+02  0.2590255E+02  0.1508772E+02  0.0000000E+00
Ar  1155  0.1126954E+02  0.2264704E+02  0.1807556E+02  0.0000000E+00
Ar  1156  0.8190226E+01  0.2583955E+02  0.1806730E+02  0.0000000E+00
Ar  1157  0.7834070E+01  0.2294922E+02  0.2123268E+02  0.0000000E+00
Ar  1158  0.1098436E+02  0.2550672E+02  0.2070919E+02  0.0000000E+00
Ar  1159  0.1085044E+02  0.2315403E+02  0.2371506E+02  0.0000000E+00
Ar  1160  0.8449765E+01  0.2603226E+02  0.2393907E+02  0.0000000E+00
Ar  1161  0.8659977E+01  0.2321107E+02  0.2648633E+02  0.0000000E+00
Ar  1162  0.1120542E+02  0.2600062E+02  0.2651504E+02  0.0000000E+00
Ar  1163  0.1039463E+02  0.2324708E+02  0.2954612E+02  0.0000000E+00
Ar  1164  0.8100848E+01  0.2628299E+02  0.2907487E+02  0.0000000E+00
Ar  1165  0.7816840E+01  0.2326368E+02  0.3178236E+02  0.0000000E+00
Ar  1166  0.1057119E+02  0.2642566E+02  0.3222945E+02  0.0000000E+00
Ar  1167  0.1038608E+02  0.2336101E+02  0.3491820E+02  0.0000000E+00
Ar  1168  0.7813731E+01  0.2631831E+02  0.3494684E+02  0.0000000E+00
Ar  1169  0.7829648E+01  0.2337775E+02  0.3743620E+02  0.0000000E+00
Ar  1170  0.1021921E+02  0.2620620E+02  0.3735502E+02  0.0000000E+00
Ar  1171  0.1068677E+02  0.2337266E+02  0.4006657E+02  0.0000000E+00
Ar  1172  0.7797111E+01  0.2559988E+02  0.4017442E+02  0.0000000E+00
Ar  1173  0.7878299E+01  0.2310387E+02  0.4347569E+02  0.0000000E+00
Ar  1174  0.1090493E+02  0.2572096E+02  0.4320789E+02  0.0000000E+00
Ar  1175  0.1145294E+02  0.2319461E+02  0.4598777E+02  0.0000000E+00
Ar  1176  0.8429930E+01  0.2627061E+02  0.4628021E+02  0.0000000E+00
Ar  1177  0.8538314E+01  0.2316306E+02  0.4916183E+02  0.0000000E+00
Ar  1178  0.1078181E+02  0.2653760E+02  0.4922150E+02  0.0000000E+00
Ar  1179  0.1127715E+02  0.2365272E+02  0.5163179E+02  0.0000000E+00
Ar  1180  0.8598534E+01  0.2604663E+02  0.5185513E+02  0.0000000E+00
Ar  1181  0.8164718E+01  0.2351243E+02  0.5532299E+02  0.0000000E+00
Ar  1182  0.1101685E+02  0.2575960E+02  0.5539361E+02  0.0000000E+00
Ar  1183  0.1072360E+02  0.2327295E+02  0.5782202E+02  0.0000000E+00
Ar  1184  0.8525473E+01  0.2587795E+02  0.5815473E+02  0.0000000E+00
Ar  1185  0.8252315E+01  0.2325969E+02  0.6083146E+02  0.0000000E+00
Ar  1186  0.1150859E+02  0.2639746E+02  0.6081666E+02  0.0000000E+00
Ar  1187  0.1116199E+02  0.2337211E+02  0.6407811E+02  0.0000000E+00
Ar  1188  0.8422200E+01  0.2610929E+02  0.6307979E+02  0.0000000E+00
Ar  1189  0.7926496E+01  0.2345242E+02  0.6553305E+02  0.0000000E+00
Ar  1190  0.1091682E+02  0.2570247E+02  0.6642505E+02  0.0000000E+00
Ar  1191  0.1097106E+02  0.2380412E+02  0.6943948E+02  0.0000000E+00
Ar  1192  0.7762224E+01  0.2593042E+02  0.6879389E+02  0.0000000E+00
Ar  1193  0.8055679E+01  0.2327981E+02  0.7152158E+02  0.0000000E+00
Ar  1194  0.1253629E+02  0.2624175E+02  0.7171804E+02  0.0000000E+00
Ar  1195  0.1104415E+02  0.2299903E+02  0.7379906E+02  0.0000000E+00
Ar  1196  0.8120812E+01  0.2590875E+02  0.7459113E+02  0.0000000E+00
Ar  1197  0.8345138E+01  0.2320753E+02  0.7679502E+02  0.0000000E+00
Ar  1198  0.1078866E+02  0.2636232E+02  0.7716568E+02  0.0000000E+00
Ar  1199  0.1076678E+02  0.2316267E+02  0.7930939E+02  0.0000000E+00
Ar  1200  0.8016695E+01  0.2608541E+02  0.7996319E+02  0.0000000E+00
Ar  1201  0.7826709E+01  0.2970385E+02  0.8218919E+02  0.0000000E+00
Ar  1202  0.1113598E+02  0.3162533E+02  0.8231278E+02  0.0000000E+00
Ar  1203  0.1166985E+02  0.2894827E+02  0.1249158E+01  0.0000000E+00
Ar  1204  0.8442434E+01  0.3131276E+02  0.1644180E+01  0.0000000E+00
Ar  1205  0.8750373E+01  0.2895893E+02  0.4362665E+01  0.0000000E+00
Ar  1206  0.1152910E+02  0.3163383E+02  0.4016011E+01  0.0000000E+00
Ar  1207  0.1122822E+02  0.2870419E+02  0.6801662E+01  0.0000000E+00
Ar  1208  0.8220705E+01  0.3080146E+02  0.7261858E+01  0.0000000E+00
Ar  1209  0.8678290E+01  0.2851287E+02  0.9885542E+01  0.0000000E+00
Ar  1210  0.1066759E+02  0.3120551E+02  0.9638775E+01  0.0000000E+00
Ar  1211  0.1133399E+02  0.2867406E+02  0.1235594E+02  0.0000000E+00
Ar  1212  0.8634203E+01  0.3180829E+02  0.1272467E+02  0.0000000E+00
Ar  1213  0.8443444E+01  0.2837635E+02  0.1543210E+02  0.0000000E+00
Ar  1214  0.1147153E+02  0.3128741E+02  0.1557620E+02  0.0000000E+00
Ar  1215  0.1208883E+02  0.2849850E+02  0.1812098E+02  0.0000000E+00
Ar  1216  0.8557155E+01  0.3133804E+02  0.1868059E+02  0.0000000E+00
Ar  1217  0.8707448E+01  0.2829429E+02  0.2105189E+02  0.0000000E+00
Ar  1218  0.1080882E+02  0.3137909E+02  0.2167924E+02  0.0000000E+00
Ar  1219  0.1086526E+02  0.2869184E+02  0.2368800E+02  0.0000000E+00
Ar  1220  0.8397799E+01  0.3164376E+02  0.2392462E+02  0.0000000E+00
Ar  1221  0.8179431E+01  0.2907105E+02  0.2651747E+02  0.0000000E+00
Ar  1222  0.1086554E+02  0.3162331E+02  0.2626469E+02  0.0000000E+00
Ar  1223  0.1049375E+02  0.2903688E+02  0.2938889E+02  0.0000000E+00
Ar  1224  0.7788696E+01  0.3226598E+02  0.2894234E+02  0.0000000E+00
Ar  1225  0.7880621E+01  0.2893568E+02  0.3192325E+02  0.0000000E+00
Ar  1226  0.1051721E+02  0.3179717E+02  0.3178993E+02  0.0000000E+00
Ar  1227  0.1065607E+02  0.2941386E+02  0.3492694E+02  0.0000000E+00
Ar  1228  0.8215425E+01  0.3170786E+02  0.3501714E+02  0.0000000E+00
Ar  1229  0.8098914E+01  0.2943314E+02  0.3785312E+02  0.0000000E+00
Ar  1230  0.1107144E+02  0.3208847E+02  0.3761741E+02  0.0000000E+00
Ar  1231  0.1073543E+02  0.2867817E+02  0.4056129E+02  0.0000000E+00
Ar  1232  0.8315886E+01  0.3181494E+02  0.4061503E+02  0.0000000E+00
Ar  1233  0.8453501E+01  0.2897957E+02  0.4341312E+02  0.0000000E+00
Ar  1234  0.1117862E+02  0.3182061E+02  0.4340475E+02  0.0000000E+00
Ar  1235  0.1067275E+02  0.2904325E+02  0.4649223E+02  0.0000000E+00
Ar  1236  0.8592683E+01  0.3196665E+02  0.4632163E+02  0.0000000E+00
Ar  1237  0.8345244E+01  0.2909798E+02  0.4925858E+02  0.0000000E+00
Ar  1238  0.1163215E+02  0.3194413E+02  0.5020251E+02  0.0000000E+00
Ar  1239  0.1139697E+02  0.2866117E+02  0.5266802E+02  0.0000000E+00
Ar  1240  0.8728981E+01  0.3150003E+02  0.5214203E+02  0.0000000E+00
Ar  1241  0.8477217E+01  0.2845921E+02  0.5520296E+02  0.0000000E+00
Ar  1242  0.1155275E+02  0.3148056E+02  0.5508599E+02  0.0000000E+00
Ar  1243  0.1073847E+02  0.2879728E+02  0.5789010E+02  0.0000000E+00
Ar  1244  0.8641810E+01  0.3166700E+02  0.5748263E+02  0.0000000E+00
Ar  1245  0.8382964E+01  0.2976487E+02  0.6120190E+02  0.0000000E+00
Ar  1246  0.1140579E+02  0.3155521E+02  0.6075032E+02  0.0000000E+00
Ar  1247  0.1083857E+02  0.2901921E+02  0.6340253E+02  0.0000000E+00
Ar  1248  0.7865937E+01  0.3111489E+02  0.6440704E+02  0.0000000E+00
Ar  1249  0.8161545E+01  0.2816329E+02  0.6641248E+02  0.0000000E+00
Ar  1250  0.1121159E+02  0.3177383E+02  0.6561917E+02  0.0000000E+00
Ar  1251  0.1113289E+02  0.2875981E+02  0.6867373E+02  0.0000000E+00
Ar  1252  0.8420172E+01  0.3159896E+02  0.6816121E+02  0.0000000E+00
Ar  1253  0.8525408E+01  0.2859679E+02  0.7150701E+02  0.0000000E+00
Ar  1254  0.1054870E+02  0.3170846E+02  0.7136297E+02  0.0000000E+00
Ar  1255  0.1183886E+02  0.2920360E+02  0.7436330E+02  0.0000000E+00
Ar  1256  0.8295452E+01  0.3176962E+02  0.7373940E+02  0.0000000E+00
Ar  1257  0.8906924E+01  0.2944348E+02  0.7665421E+02  0.0000000E+00
Ar  1258  0.1175557E+02  0.3156641E+02  0.7736798E+02  0.0000000E+00
Ar  1259  0.1084635E+02  0.2866249E+02  0.8054669E+02  0.0000000E+00
Ar  1260  0.9013782E+01  0.3218333E+02  0.7939873E+02  0.0000000E+00
Ar  1261  0.8010742E+01  0.3423660E+02  0.8273529E+02  0.0000000E+00
Ar  1262  0.1092740E+02  0.3697796E+02  0.8269191E+02  0.0000000E+00
Ar  1263  0.1105815E+02  0.3381897E+02  0.1215494E+01  0.0000000E+00
Ar  1264  0.8498569E+01  0.3687920E+02  0.1440677E+01  0.0000000E+00
Ar  1265  0.9318706E+01  0.3460310E+02  0.3896234E+01  0.0000000E+00
Ar  1266  0.1199316E+02  0.3754050E+02  0.3991893E+01  0.0000000E+00
Ar  1267  0.1111527E+02  0.3450991E+02  0.7218265E+01  0.0000000E+00
Ar  1268  0.8286541E+01  0.3764105E+02  0.7199608E+01  0.0000000E+00
Ar  1269  0.8099208E+01  0.3455088E+02  0.9796940E+01  0.0000000E+00
Ar  1270  0.1127726E+02  0.3806921E+02  0.9748342E+01  0.0000000E+00
Ar  1271  0.1148034E+02  0.3420218E+02  0.1180398E+02  0.0000000E+00
Ar  1272  0.8810631E+01  0.3740741E+02  0.1228698E+02  0.0000000E+00
Ar  1273  0.8831943E+01  0.3435681E+02  0.1612307E+02  0.0000000E+00
Ar  1274  0.1129916E+02  0.3739007E+02  0.1533328E+02  0.0000000E+00
Ar  1275  0.1226242E+02  0.3518069E+02  0.1796504E+02  0.0000000E+00
Ar  1276  0.8390941E+01  0.3705776E+02  0.1859386E+02  0.0000000E+00
Ar  1277  0.8654206E+01  0.3447250E+02  0.2141310E+02  0.0000000E+00
Ar  1278  0.1100801E+02  0.3747444E+02  0.2092476E+02  0.0000000E+00
Ar  1279  0.1137894E+02  0.3477917E+02  0.2386486E+02  0.0000000E+00
Ar  1280  0.7988315E+01  0.3718991E+02  0.2362541E+02  0.0000000E+00
Ar  1281  0.8197922E+01  0.3493382E+02  0.2613886E+02  0.0000000E+00
Ar  1282  0.1122639E+02  0.3761981E+02  0.2644326E+02  0.0000000E+00
Ar  1283  0.1069902E+02  0.3487050E+02  0.2941164E+02  0.0000000E+00
Ar  1284  0.8321438E+01  0.3734740E+02  0.2977206E+02  0.0000000E+00
Ar  1285  0.7907021E+01  0.3418470E+02  0.3190437E+02  0.0000000E+00
Ar  1286  0.1100260E+02  0.3686577E+02  0.3235146E+02  0.0000000E+00
Ar  1287  0.1073543E+02  0.3427211E+02  0.3492114E+02  0.0000000E+00
Ar  1288  0.8405589E+01  0.3721522E+02  0.3562008E+02  0.0000000E+00
Ar  1289  0.8397991E+01  0.3440811E+02  0.3793077E+02  0.0000000E+00
Ar  1290  0.1152879E+02  0.3769191E+02  0.3752825E+02  0.0000000E+00
Ar  1291  0.1086582E+02  0.3428193E+02  0.4085983E+02  0.0000000E+00
Ar  1292  0.7906847E+01  0.3722504E+02  0.4047438E+02  0.0000000E+00
Ar  1293  0.8412927E+01  0.3415558E+02  0.4330639E+02  0.0000000E+00
Ar  1294  0.1066465E+02  0.3673284E+02  0.4353293E+02  0.0000000E+00
Ar  1295  0.1124780E+02  0.3452202E+02  0.4680991E+02  0.0000000E+00
Ar  1296  0.8142740E+01  0.3684403E+02  0.4625936E+02  0.0000000E+00
Ar  1297  0.8593669E+01  0.3444068E+02  0.4938878E+02  0.0000000E+00
Ar  1298  0.1086648E+02  0.3728290E+02  0.4898113E+02  0.0000000E+00
Ar  1299  0.1103530E+02  0.3474966E+02  0.5212408E+02  0.0000000E+00
Ar  1300  0.8805597E+01  0.3802986E+02  0.5200795E+02  0.0000000E+00
Ar  1301  0.8969390E+01  0.3432345E+02  0.5462194E+02  0.0000000E+00
Ar  1302  0.1126144E+02  0.3781014E+02  0.5479759E+02  0.0000000E+00
Ar  1303  0.1118471E+02  0.3456217E+02  0.5738848E+02  0.0000000E+00
Ar  1304  0.7455640E+01  0.3639957E+02  0.5730420E+02  0.0000000E+00
Ar  1305  0.8088052E+01  0.3393950E+02  0.6100948E+02  0.0000000E+00
Ar  1306  0.1103784E+02  0.3691310E+02  0.6038730E+02  0.0000000E+00
Ar  1307  0.1128563E+02  0.3457302E+02  0.6314871E+02  0.0000000E+00
Ar  1308  0.8432265E+01  0.3659391E+02  0.6363862E+02  0.0000000E+00
Ar  1309  0.8751406E+01  0.3433719E+02  0.6614480E+02  0.0000000E+00
Ar  1310  0.1160077E+02  0.3695834E+02  0.6572203E+02  0.0000000E+00
Ar  1311  0.1114377E+02  0.3419802E+02  0.6865143E+02  0.0000000E+00
Ar  1312  0.8010902E+01  0.3658249E+02  0.6859594E+02  0.0000000E+00
Ar  1313  0.8485128E+01  0.3440745E+02  0.7159357E+02  0.0000000E+00
Ar  1314  0.1105027E+02  0.3689934E+02  0.7141274E+02  0.0000000E+00
Ar  1315  0.1134699E+02  0.3432884E+02  0.7422544E+02  0.0000000E+00
Ar  1316  0.9029176E+01  0.3758681E+02  0.7452740E+02  0.0000000E+00
Ar  1317  0.8726327E+01  0.3446949E+02  0.7659991E+02  0.0000000E+00
Ar  1318  0.1114428E+02  0.3771155E+02  0.7793944E+02  0.0000000E+00
Ar  1319  0.1147326E+02  0.3459029E+02  0.8006065E+02  0.0000000E+00
Ar  1320  0.8174477E+01  0.3649011E+02  0.8018953E+02  0.0000000E+00
Ar  1321  0.8435795E+01  0.3975831E+02  0.8208342E+02  0.0000000E+00
Ar  1322  0.1115434E+02  0.4333955E+02  0.8296236E+02  0.0000000E+00
Ar  1323  0.1213111E+02  0.4007908E+02  0.9628865E+00  0.0000000E+00
Ar  1324  0.8784595E+01  0.4285420E+02  0.9849489E+00  0.0000000E+00
Ar  1325  0.9159222E+01  0.3995571E+02  0.4181577E+01  0.0000000E+00
Ar  1326  0.1148279E+02  0.4218342E+02  0.4497930E+01  0.0000000E+00
Ar  1327  0.1104557E+02  0.3992189E+02  0.7098293E+01  0.0000000E+00
Ar  1328  0.8684801E+01  0.4278733E+02  0.7130475E+01  0.0000000E+00
Ar  1329  0.8186619E+01  0.4028155E+02  0.9604362E+01  0.0000000E+00
Ar  1330  0.1119206E+02  0.4217519E+02  0.9650907E+01  0.0000000E+00
Ar  1331  0.1114576E+02  0.3999081E+02  0.1257158E+02  0.0000000E+00
Ar  1332  0.9028691E+01  0.4301963E+02  0.1269213E+02  0.0000000E+00
Ar  1333  0.8200897E+01  0.3992181E+02  0.1540150E+02  0.0000000E+00
Ar  1334  0.1133363E+02  0.4281283E+02  0.1537471E+02  0.0000000E+00
Ar  1335  0.1093831E+02  0.3970589E+02  0.1816703E+02  0.0000000E+00
Ar  1336  0.7955039E+01  0.4235498E+02  0.1818058E+02  0.0000000E+00
Ar  1337  0.7862702E+01  0.3984487E+02  0.2124404E+02  0.0000000E+00
Ar  1338  0.1080561E+02  0.4280327E+02  0.2091157E+02  0.0000000E+00
Ar  1339  0.1049273E+02  0.3999809E+02  0.2375407E+02  0.0000000E+00
Ar  1340  0.7977145E+01  0.4250393E+02  0.2367312E+02  0.0000000E+00
Ar  1341  0.8337145E+01  0.3994072E+02  0.2719006E+02  0.0000000E+00
Ar  1342  0.1060724E+02  0.4249943E+02  0.2661106E+02  0.0000000E+00
Ar  1343  0.1083457E+02  0.3958097E+02  0.3008302E+02  0.0000000E+00
Ar  1344  0.8361286E+01  0.4249945E+02  0.2965779E+02  0.0000000E+00
Ar  1345  0.7863657E+01  0.3973585E+02  0.3234287E+02  0.0000000E+00
Ar  1346  0.1091510E+02  0.4272295E+02  0.3243924E+02  0.0000000E+00
Ar  1347  0.1113833E+02  0.3999648E+02  0.3499222E+02  0.0000000E+00
Ar  1348  0.8735264E+01  0.4283765E+02  0.3584181E+02  0.0000000E+00
Ar  1349  0.8527758E+01  0.3980937E+02  0.3822740E+02  0.0000000E+00
Ar  1350  0.1067689E+02  0.4314059E+02  0.3934722E+02  0.0000000E+00
Ar  1351  0.1078448E+02  0.3924866E+02  0.4074842E+02  0.0000000E+00
Ar  1352  0.8078482E+01  0.4270548E+02  0.4210917E+02  0.0000000E+00
Ar  1353  0.8309060E+01  0.3944465E+02  0.4351207E+02  0.0000000E+00
Ar  1354  0.1159436E+02  0.4306896E+02  0.4356727E+02  0.0000000E+00
Ar  1355  0.1102660E+02  0.3947319E+02  0.4568022E+02  0.0000000E+00
Ar  1356  0.9031318E+01  0.4260812E+02  0.4586530E+02  0.0000000E+00
Ar  1357  0.8876194E+01  0.4048291E+02  0.4890115E+02  0.0000000E+00
Ar  1358  0.1133374E+02  0.4306987E+02  0.4936534E+02  0.0000000E+00
Ar  1359  0.1169108E+02  0.4003876E+02  0.5187120E+02  0.0000000E+00
Ar  1360  0.8567547E+01  0.4239043E+02  0.5260728E+02  0.0000000E+00
Ar  1361  0.7983455E+01  0.3942151E+02  0.5516459E+02  0.0000000E+00
Ar  1362  0.1118194E+02  0.4230414E+02  0.5520440E+02  0.0000000E+00
Ar  1363  0.1181155E+02  0.3969804E+02  0.5775490E+02  0.0000000E+00
Ar  1364  0.8447997E+01  0.4241093E+02  0.5783950E+02  0.0000000E+00
Ar  1365  0.8728074E+01  0.3964283E+02  0.6012604E+02  0.0000000E+00
Ar  1366  0.1186211E+02  0.4286134E+02  0.6069816E+02  0.0000000E+00
Ar  1367  0.1138376E+02  0.3938482E+02  0.6295043E+02  0.0000000E+00
Ar  1368  0.7742730E+01  0.4251508E+02  0.6351081E+02  0.0000000E+00
Ar  1369  0.8736157E+01  0.3989400E+02  0.6575020E+02  0.0000000E+00
Ar  1370  0.1161893E+02  0.4244756E+02  0.6613348E+02  0.0000000E+00
Ar  1371  0.1112622E+02  0.3926488E+02  0.6845363E+02  0.0000000E+00
Ar  1372  0.8623457E+01  0.4234025E+02  0.6851679E+02  0.0000000E+00
Ar  1373  0.8524574E+01  0.4020050E+02  0.7178157E+02  0.0000000E+00
Ar  1374  0.1175150E+02  0.4285259E+02  0.7157440E+02  0.0000000E+00
Ar  1375  0.1190764E+02  0.3980447E+02  0.7447018E+02  0.0000000E+00
Ar  1376  0.8956712E+01  0.4248804E+02  0.7508812E+02  0.0000000E+00
Ar  1377  0.8487229E+01  0.3973315E+02  0.7746629E+02  0.0000000E+00
Ar  1378  0.1201157E+02  0.4213968E+02  0.7738480E+02  0.0000000E+00
Ar  1379  0.1190783E+02  0.4037523E+02  0.8051084E+02  0.0000000E+00
Ar  1380  0.8934065E+01  0.4294376E+02  0.8016212E+02  0.0000000E+00
Ar  1381  0.8345805E+01  0.4592277E+02  0.8207090E+02  0.0000000E+00
Ar  1382  0.1121484E+02  0.4796261E+02  0.8274082E+02  0.0000000E+00
Ar  1383  0.1134462E+02  0.4570487E+02  0.1473416E+01  0.0000000E+00
Ar  1384  0.8339855E+01  0.4781632E+02  0.1231497E+01  0.0000000E+00
Ar  1385  0.8732761E+01  0.4546596E+02  0.3834877E+01  0.0000000E+00
Ar  1386  0.1089858E+02  0.4786488E+02  0.3974815E+01  0.0000000E+00
Ar  1387  0.1081840E+02  0.4545307E+02  0.6934670E+01  0.0000000E+00
Ar  1388  0.7988351E+01  0.4858748E+02  0.6756137E+01  0.0000000E+00
Ar  1389  0.8308219E+01  0.4505334E+02  0.1000163E+02  0.0000000E+00
Ar  1390  0.1057583E+02  0.4821711E+02  0.9496167E+01  0.0000000E+00
Ar  1391  0.1098847E+02  0.4567894E+02  0.1265589E+02  0.0000000E+00
Ar  1392  0.8107071E+01  0.4808981E+02  0.1213860E+02  0.0000000E+00
Ar  1393  0.7716525E+01  0.4576277E+02  0.1522840E+02  0.0000000E+00
Ar  1394  0.1065020E+02  0.4813053E+02  0.1566333E+02  0.0000000E+00
Ar  1395  0.1020839E+02  0.4505180E+02  0.1818919E+02  0.0000000E+00
Ar  1396  0.7812056E+01  0.4820634E+02  0.1781252E+02  0.0000000E+00
Ar  1397  0.7944886E+01  0.4533456E+02  0.2125857E+02  0.0000000E+00
Ar  1398  0.1041769E+02  0.4813296E+02  0.2022624E+02  0.0000000E+00
Ar  1399  0.1122337E+02  0.4551929E+02  0.2356026E+02  0.0000000E+00
Ar  1400  0.8070540E+01  0.4788693E+02  0.2391089E+02  0.0000000E+00
Ar  1401  0.8534629E+01  0.4549895E+02  0.2636082E+02  0.0000000E+00
Ar  1402  0.1145626E+02  0.4808922E+02  0.2634744E+02  0.0000000E+00
Ar  1403  0.1128746E+02  0.4578887E+02  0.2935456E+02  0.0000000E+00
Ar  1404  0.8424034E+01  0.4834983E+02  0.2958648E+02  0.0000000E+00
Ar  1405  0.8551015E+01  0.4566319E+02  0.3214476E+02  0.0000000E+00
Ar  1406  0.1110216E+02  0.4843960E+02  0.3217855E+02  0.0000000E+00
Ar  1407  0.1087254E+02  0.4582232E+02  0.3472307E+02  0.0000000E+00
Ar  1408  0.8043389E+01  0.4878798E+02  0.3567001E+02  0.0000000E+00
Ar  1409  0.8252121E+01  0.4554975E+02  0.3812353E+02  0.0000000E+00
Ar  1410  0.1119325E+02  0.4798493E+02  0.3802649E+02  0.0000000E+00
Ar  1411  0.1135674E+02  0.4639613E+02  0.4121210E+02  0.0000000E+00
Ar  1412  0.8184652E+01  0.4839087E+02  0.4135937E+02  0.0000000E+00
Ar  1413  0.8465868E+01  0.4574609E+02  0.4433757E+02  0.0000000E+00
Ar  1414  0.1154431E+02  0.4898751E+02  0.4396590E+02  0.0000000E+00
Ar  1415  0.1175949E+02  0.4509881E+02  0.4632641E+02  0.0000000E+00
Ar  1416  0.8976652E+01  0.4854324E+02  0.4654010E+02  0.0000000E+00
Ar  1417  0.8524017E+01  0.4564153E+02  0.4879448E+02  0.0000000E+00
Ar  1418  0.1161130E+02  0.4827252E+02  0.4932123E+02  0.0000000E+00
Ar  1419  0.1104074E+02  0.4518830E+02  0.5249664E+02  0.0000000E+00
Ar  1420  0.8931078E+01  0.4790567E+02  0.5253901E+02  0.0000000E+00
Ar  1421  0.8562732E+01  0.4544787E+02  0.5511420E+02  0.0000000E+00
Ar  1422  0.1153574E+02  0.4832269E+02  0.5487176E+02  0.0000000E+00
Ar  1423  0.1143996E+02  0.4507497E+02  0.5789998E+02  0.0000000E+00
Ar  1424  0.7871908E+01  0.4772798E+02  0.5840619E+02  0.0000000E+00
Ar  1425  0.8656275E+01  0.4540217E+02  0.6159341E+02  0.0000000E+00
Ar  1426  0.1145696E+02  0.4816629E+02  0.6051907E+02  0.0000000E+00
Ar  1427  0.1161325E+02  0.4525897E+02  0.6388200E+02  0.0000000E+00
Ar  1428  0.7995829E+01  0.4790267E+02  0.6383243E+02  0.0000000E+00
Ar  1429  0.8177618E+01  0.4533380E+02  0.6623897E+02  0.0000000E+00
Ar  1430  0.1113861E+02  0.4813280E+02  0.6598872E+02  0.0000000E+00
Ar  1431  0.1119077E+02  0.4538895E+02  0.6850439E+02  0.0000000E+00
Ar  1432  0.8507400E+01  0.4773733E+02  0.6878956E+02  0.0000000E+00
Ar  1433  0.8727176E+01  0.4528126E+02  0.7125401E+02  0.0000000E+00
Ar  1434  0.1151058E+02  0.4823262E+02  0.7210976E+02  0.0000000E+00
Ar  1435  0.1130675E+02  0.4535563E+02  0.7483079E+02  0.0000000E+00
Ar  1436  0.8651226E+01  0.4761937E+02  0.7460770E+02  0.0000000E+00
Ar  1437  0.8514573E+01  0.4545516E+02  0.7756831E+02  0.0000000E+00
Ar  1438  0.1116155E+02  0.4824855E+02  0.7775431E+02  0.0000000E+00
Ar  1439  0.1151045E+02  0.4552868E+02  0.7989793E+02  0.0000000E+00
Ar  1440  0.8876018E+01  0.4897771E+02  0.8040205E+02  0.0000000E+00
Ar  1441  0.8537738E+01  0.5084898E+02  0.8302888E+02  0.0000000E+00
Ar  1442  0.1082879E+02  0.5388230E+02  0.8321367E+02  0.0000000E+00
Ar  1443  0.1142122E+02  0.5077425E+02  0.1399246E+01  0.0000000E+00
Ar  1444  0.8317876E+01  0.5317423E+02  0.1331263E+01  0.0000000E+00
Ar  1445  0.8731950E+01  0.5072507E+02  0.4118764E+01  0.0000000E+00
Ar  1446  0.1146663E+02  0.5374403E+02  0.4125047E+01  0.0000000E+00
Ar  1447  0.1055882E+02  0.5122094E+02  0.7291200E+01  0.0000000E+00
Ar  1448  0.8471214E+01  0.5399913E+02  0.7113085E+01  0.0000000E+00
Ar  1449  0.7736602E+01  0.5094628E+02  0.9662896E+01  0.0000000E+00
Ar  1450  0.1063472E+02  0.5366256E+02  0.1037232E+02  0.0000000E+00
Ar  1451  0.1115519E+02  0.5061506E+02  0.1233727E+02  0.0000000E+00
Ar  1452  0.8015150E+01  0.5343430E+02  0.1251935E+02  0.0000000E+00
Ar  1453  0.7799036E+01  0.5119197E+02  0.1550488E+02  0.0000000E+00
Ar  1454  0.1068769E+02  0.5316872E+02  0.1480066E+02  0.0000000E+00
Ar  1455  0.1114638E+02  0.5070495E+02  0.1786136E+02  0.0000000E+00
Ar  1456  0.8114188E+01  0.5385616E+02  0.1799014E+02  0.0000000E+00
Ar  1457  0.7503415E+01  0.5079606E+02  0.2065052E+02  0.0000000E+00
Ar  1458  0.1038234E+02  0.5342624E+02  0.2090604E+02  0.0000000E+00
Ar  1459  0.1078163E+02  0.5060935E+02  0.2371648E+02  0.0000000E+00
Ar  1460  0.8198857E+01  0.5359512E+02  0.2408200E+02  0.0000000E+00
Ar  1461  0.8186798E+01  0.5031943E+02  0.2656474E+02  0.0000000E+00
Ar  1462  0.1113546E+02  0.5360829E+02  0.2650690E+02  0.0000000E+00
Ar  1463  0.1061620E+02  0.5111910E+02  0.2940155E+02  0.0000000E+00
Ar  1464  0.8461119E+01  0.5419179E+02  0.2980074E+02  0.0000000E+00
Ar  1465  0.8065112E+01  0.5070666E+02  0.3263629E+02  0.0000000E+00
Ar  1466  0.1081454E+02  0.5356693E+02  0.3250082E+02  0.0000000E+00
Ar  1467  0.1105954E+02  0.5142034E+02  0.3496049E+02  0.0000000E+00
Ar  1468  0.8359072E+01  0.5411099E+02  0.3538453E+02  0.0000000E+00
Ar  1469  0.8454110E+01  0.5133798E+02  0.3872196E+02  0.0000000E+00
Ar  1470  0.1113751E+02  0.5406041E+02  0.3805790E+02  0.0000000E+00
Ar  1471  0.1094134E+02  0.5109889E+02  0.4093710E+02  0.0000000E+00
Ar  1472  0.8478731E+01  0.5416140E+02  0.4114909E+02  0.0000000E+00
Ar  1473  0.8588586E+01  0.5124363E+02  0.4393832E+02  0.0000000E+00
Ar  1474  0.1146609E+02  0.5341448E+02  0.4401531E+02  0.0000000E+00
Ar  1475  0.1110891E+02  0.5135603E+02  0.4725955E+02  0.0000000E+00
Ar  1476  0.8393108E+01  0.5336587E+02  0.4696889E+02  0.0000000E+00
Ar  1477  0.8620458E+01  0.5031947E+02  0.4945646E+02  0.0000000E+00
Ar  1478  0.1159166E+02  0.5357708E+02  0.5000227E+02  0.0000000E+00
Ar  1479  0.1110748E+02  0.5077131E+02  0.5252645E+02  0.0000000E+00
Ar  1480  0.8292682E+01  0.5361054E+02  0.5242114E+02  0.0000000E+00
Ar  1481  0.8624842E+01  0.5023937E+02  0.5551956E+02  0.0000000E+00
Ar  1482  0.1137904E+02  0.5374860E+02  0.5546236E+02  0.0000000E+00
Ar  1483  0.1233731E+02  0.5053833E+02  0.5777751E+02  0.0000000E+00
Ar  1484  0.8540597E+01  0.5393382E+02  0.5789207E+02  0.0000000E+00
Ar  1485  0.7625522E+01  0.5142352E+02  0.6036579E+02  0.0000000E+00
Ar  1486  0.1198452E+02  0.5333848E+02  0.5969236E+02  0.0000000E+00
Ar  1487  0.1168241E+02  0.5086894E+02  0.6390520E+02  0.0000000E+00
Ar  1488  0.9389260E+01  0.5379597E+02  0.6246894E+02  0.0000000E+00
Ar  1489  0.8214413E+01  0.5114981E+02  0.6598521E+02  0.0000000E+00
Ar  1490  0.1042307E+02  0.5440172E+02  0.6568862E+02  0.0000000E+00
Ar  1491  0.1063387E+02  0.5129214E+02  0.6850739E+02  0.0000000E+00
Ar  1492  0.8113981E+01  0.5404752E+02  0.6976170E+02  0.0000000E+00
Ar  1493  0.8986519E+01  0.5132446E+02  0.7176957E+02  0.0000000E+00
Ar  1494  0.1156953E+02  0.5402409E+02  0.7193496E+02  0.0000000E+00
Ar  1495  0.1159448E+02  0.5116570E+02  0.7407389E+02  0.0000000E+00
Ar  1496  0.8869288E+01  0.5378990E+02  0.7476616E+02  0.0000000E+00
Ar  1497  0.8404158E+01  0.5044380E+02  0.7693490E+02  0.0000000E+00
Ar  1498  0.1147356E+02  0.5352262E+02  0.7753700E+02  0.0000000E+00
Ar  1499  0.1143471E+02  0.5132851E+02  0.8039660E+02  0.0000000E+00
Ar  1500  0.8526735E+01  0.5397042E+02  0.8008896E+02  0.0000000E+00
Ar  1501  0.8224868E+01  0.5627780E+02  0.8239068E+02  0.0000000E+00
Ar  1502  0.1102319E+02  0.5915042E+02  0.8328742E+02  0.0000000E+00
Ar  1503  0.1107179E+02  0.5637469E+02  0.1523507E+01  0.0000000E+00
Ar  1504  0.8251272E+01  0.5932566E+02  0.1614591E+01  0.0000000E+00
Ar  1505  0.8190502E+01  0.5637617E+02  0.3849848E+01  0.0000000E+00
Ar  1506  0.1115701E+02  0.5917221E+02  0.3923839E+01  0.0000000E+00
Ar  1507  0.1066894E+02  0.5699143E+02  0.7228759E+01  0.0000000E+00
Ar  1508  0.7706730E+01  0.5968667E+02  0.7517437E+01  0.0000000E+00
Ar  1509  0.7985986E+01  0.5675770E+02  0.1027619E+02  0.0000000E+00
Ar  1510  0.1131414E+02  0.5928451E+02  0.9892517E+01  0.0000000E+00
Ar  1511  0.1142330E+02  0.5676437E+02  0.1207458E+02  0.0000000E+00
Ar  1512  0.8373376E+01  0.5901863E+02  0.1303129E+02  0.0000000E+00
Ar  1513  0.8349467E+01  0.5607637E+02  0.1517156E+02  0.0000000E+00
Ar  1514  0.1113312E+02  0.5885723E+02  0.1540627E+02  0.0000000E+00
Ar  1515  0.1138196E+02  0.5628151E+02  0.1847477E+02  0.0000000E+00
Ar  1516  0.8111981E+01  0.5913864E+02  0.1847083E+02  0.0000000E+00
Ar  1517  0.8293631E+01  0.5670008E+02  0.2125892E+02  0.0000000E+00
Ar  1518  0.1141731E+02  0.5950028E+02  0.2116040E+02  0.0000000E+00
Ar  1519  0.1068303E+02  0.5622526E+02  0.2389206E+02  0.0000000E+00
Ar  1520  0.8300551E+01  0.5940371E+02  0.2334097E+02  0.0000000E+00
Ar  1521  0.7880416E+01  0.5628164E+02  0.2724162E+02  0.0000000E+00
Ar  1522  0.1095229E+02  0.5882973E+02  0.2639068E+02  0.0000000E+00
Ar  1523  0.1127073E+02  0.5621914E+02  0.2956660E+02  0.0000000E+00
Ar  1524  0.8140467E+01  0.5932210E+02  0.2973303E+02  0.0000000E+00
Ar  1525  0.7450942E+01  0.5660951E+02  0.3268456E+02  0.0000000E+00
Ar  1526  0.1117856E+02  0.5868232E+02  0.3235109E+02  0.0000000E+00
Ar  1527  0.1172144E+02  0.5670653E+02  0.3500845E+02  0.0000000E+00
Ar  1528  0.8854457E+01  0.5899561E+02  0.3575699E+02  0.0000000E+00
Ar  1529  0.8765096E+01  0.5665945E+02  0.3846874E+02  0.0000000E+00
Ar  1530  0.1108566E+02  0.5960613E+02  0.3844586E+02  0.0000000E+00
Ar  1531  0.1154600E+02  0.5617814E+02  0.4113177E+02  0.0000000E+00
Ar  1532  0.8330654E+01  0.5941653E+02  0.4107835E+02  0.0000000E+00
Ar  1533  0.8471467E+01  0.5638852E+02  0.4372779E+02  0.0000000E+00
Ar  1534  0.1073405E+02  0.5893669E+02  0.4384915E+02  0.0000000E+00
Ar  1535  0.1060099E+02  0.5613625E+02  0.4646517E+02  0.0000000E+00
Ar  1536  0.8629448E+01  0.5899558E+02  0.4700991E+02  0.0000000E+00
Ar  1537  0.8731824E+01  0.5636122E+02  0.4945835E+02  0.0000000E+00
Ar  1538  0.1144924E+02  0.5940382E+02  0.4942968E+02  0.0000000E+00
Ar  1539  0.1078630E+02  0.5641438E+02  0.5283283E+02  0.0000000E+00
Ar  1540  0.8271906E+01  0.5914188E+02  0.5259545E+02  0.0000000E+00
Ar  1541  0.8230987E+01  0.5710828E+02  0.5579792E+02  0.0000000E+00
Ar  1542  0.1156547E+02  0.6019606E+02  0.5497850E+02  0.0000000E+00
Ar  1543  0.1146275E+02  0.5670846E+02  0.5740008E+02  0.0000000E+00
Ar  1544  0.9108372E+01  0.5997503E+02  0.5775671E+02  0.0000000E+00
Ar  1545  0.8578226E+01  0.5695848E+02  0.5993726E+02  0.0000000E+00
Ar  1546  0.1062943E+02  0.5966864E+02  0.6071385E+02  0.0000000E+00
Ar  1547  0.1078481E+02  0.5678745E+02  0.6300079E+02  0.0000000E+00
Ar  1548  0.7501559E+01  0.5938748E+02  0.6268662E+02  0.0000000E+00
Ar  1549  0.7939214E+01  0.5682905E+02  0.6530445E+02  0.0000000E+00
Ar  1550  0.1111455E+02  0.5930536E+02  0.6588634E+02  0.0000000E+00
Ar  1551  0.1061123E+02  0.5688073E+02  0.6878865E+02  0.0000000E+00
Ar  1552  0.8055083E+01  0.5952929E+02  0.6858129E+02  0.0000000E+00
Ar  1553  0.8680694E+01  0.5632879E+02  0.7228918E+02  0.0000000E+00
Ar  1554  0.1123080E+02  0.5912445E+02  0.7191889E+02  0.0000000E+00
Ar  1555  0.1167603E+02  0.5663991E+02  0.7482405E+02  0.0000000E+00
Ar  1556  0.8816153E+01  0.5916782E+02  0.7470390E+02  0.0000000E+00
Ar  1557  0.8865842E+01  0.5664998E+02  0.7740324E+02  0.0000000E+00
Ar  1558  0.1164528E+02  0.5951507E+02  0.7714319E+02  0.0000000E+00
Ar  1559  0.1117087E+02  0.5627900E+02  0.7976090E+02  0.0000000E+00
Ar  1560  0.8459718E+01  0.5949472E+02  0.7975415E+02  0.0000000E+00
Ar  1561  0.8386377E+01  0.6154952E+02  0.8270106E+02  0.0000000E+00
Ar  1562  0.1088018E+02  0.6464733E+02  0.8333939E+02  0.0000000E+00
Ar  1563  0.1102170E+02  0.6182919E+02  0.1444761E+01  0.0000000E+00
Ar  1564  0.7827364E+01  0.6466286E+02  0.2080729E+01  0.0000000E+00
Ar  1565  0.8577646E+01  0.6154828E+02  0.4646199E+01  0.0000000E+00
Ar  1566  0.1084400E+02  0.6448699E+02  0.4821670E+01  0.0000000E+00
Ar  1567  0.1125427E+02  0.6156266E+02  0.6811883E+01  0.0000000E+00
Ar  1568  0.8356693E+01  0.6583494E+02  0.6918608E+01  0.0000000E+00
Ar  1569  0.7875758E+01  0.6206468E+02  0.1007097E+02  0.0000000E+00
Ar  1570  0.1057437E+02  0.6481578E+02  0.9436521E+01  0.0000000E+00
Ar  1571  0.1108715E+02  0.6151187E+02  0.1269792E+02  0.0000000E+00
Ar  1572  0.8645811E+01  0.6474705E+02  0.1276545E+02  0.0000000E+00
Ar  1573  0.8618722E+01  0.6183561E+02  0.1573133E+02  0.0000000E+00
Ar  1574  0.1133373E+02  0.6459905E+02  0.1535234E+02  0.0000000E+00
Ar  1575  0.1145808E+02  0.6179522E+02  0.1827327E+02  0.0000000E+00
Ar  1576  0.8517754E+01  0.6460103E+02  0.1805851E+02  0.0000000E+00
Ar  1577  0.8499714E+01  0.6207154E+02  0.2063420E+02  0.0000000E+00
Ar  1578  0.1137399E+02  0.6478070E+02  0.2039552E+02  0.0000000E+00
Ar  1579  0.1115442E+02  0.6213713E+02  0.2368044E+02  0.0000000E+00
Ar  1580  0.9051297E+01  0.6504961E+02  0.2330205E+02  0.0000000E+00
Ar  1581  0.8559614E+01  0.6206380E+02  0.2630833E+02  0.0000000E+00
Ar  1582  0.1109818E+02  0.6497481E+02  0.2682981E+02  0.0000000E+00
Ar  1583  0.1111308E+02  0.6180488E+02  0.2935784E+02  0.0000000E+00
Ar  1584  0.8477497E+01  0.6456444E+02  0.3017941E+02  0.0000000E+00
Ar  1585  0.8433006E+01  0.6184233E+02  0.3288582E+02  0.0000000E+00
Ar  1586  0.1086232E+02  0.6498336E+02  0.3296752E+02  0.0000000E+00
Ar  1587  0.1096343E+02  0.6187055E+02  0.3503953E+02  0.0000000E+00
Ar  1588  0.8698348E+01  0.6492237E+02  0.3540792E+02  0.0000000E+00
Ar  1589  0.8234332E+01  0.6178145E+02  0.3811179E+02  0.0000000E+00
Ar  1590  0.1045446E+02  0.6468088E+02  0.3854267E+02  0.0000000E+00
Ar  1591  0.1116079E+02  0.6245464E+02  0.4135611E+02  0.0000000E+00
Ar  1592  0.8478860E+01  0.6763954E+02  0.3784475E+02  0.0000000E+00
Ar  1593  0.8368000E+01  0.6247953E+02  0.4352846E+02  0.0000000E+00
Ar  1594  0.1094419E+02  0.6543260E+02  0.4376836E+02  0.0000000E+00
Ar  1595  0.1072279E+02  0.6225467E+02  0.4624629E+02  0.0000000E+00
Ar  1596  0.7975530E+01  0.6520103E+02  0.4646430E+02  0.0000000E+00
Ar  1597  0.8963014E+01  0.6214024E+02  0.4971047E+02  0.0000000E+00
Ar  1598  0.1105606E+02  0.6548393E+02  0.4884124E+02  0.0000000E+00
Ar  1599  0.1166828E+02  0.6261553E+02  0.5190400E+02  0.0000000E+00
Ar  1600  0.8421627E+01  0.6490515E+02  0.5158645E+02  0.0000000E+00
Ar  1601  0.8307771E+01  0.6221200E+02  0.5468097E+02  0.0000000E+00
Ar  1602  0.1132551E+02  0.6481615E+02  0.5515640E+02  0.0000000E+00
Ar  1603  0.1100302E+02  0.6304513E+02  0.5821170E+02  0.0000000E+00
Ar  1604  0.8475673E+01  0.6546515E+02  0.5799218E+02  0.0000000E+00
Ar  1605  0.8158256E+01  0.6287301E+02  0.6093945E+02  0.0000000E+00
Ar  1606  0.1084729E+02  0.6522339E+02  0.6135786E+02  0.0000000E+00
Ar  1607  0.1150615E+02  0.6231218E+02  0.6310837E+02  0.0000000E+00
Ar  1608  0.8545731E+01  0.6564635E+02  0.6394949E+02  0.0000000E+00
Ar  1609  0.8668291E+01  0.6203110E+02  0.6562055E+02  0.0000000E+00
Ar  1610  0.1125721E+02  0.6416886E+02  0.6617377E+02  0.0000000E+00
Ar  1611  0.1111867E+02  0.6184481E+02  0.6869465E+02  0.0000000E+00
Ar  1612  0.9253246E+01  0.6478850E+02  0.6945550E+02  0.0000000E+00
Ar  1613  0.9132909E+01  0.6219846E+02  0.7165491E+02  0.0000000E+00
Ar  1614  0.1184193E+02  0.6531951E+02  0.7184356E+02  0.0000000E+00
Ar  1615  0.1194688E+02  0.6259428E+02  0.7491660E+02  0.0000000E+00
Ar  1616  0.8668917E+01  0.6546244E+02  0.7452228E+02  0.0000000E+00
Ar  1617  0.9244531E+01  0.6218980E+02  0.7749492E+02  0.0000000E+00
Ar  1618  0.1147142E+02  0.6488950E+02  0.7750986E+02  0.0000000E+00
Ar  1619  0.1164929E+02  0.6243149E+02  0.8056703E+02  0.0000000E+00
Ar  1620  0.8542445E+01  0.6458619E+02  0.8056074E+02  0.0000000E+00
Ar  1621  0.8295373E+01  0.6733406E+02  0.8346252E+02  0.0000000E+00
Ar  1622  0.1136409E+02  0.7007542E+02  0.8389701E+02  0.0000000E+00
Ar  1623  0.1115474E+02  0.6727909E+02  0.2269380E+01  0.0000000E+00
Ar  1624  0.8552038E+01  0.7027236E+02  0.1419324E+01  0.0000000E+00
Ar  1625  0.8254774E+01  0.6840603E+02  0.4831086E+01  0.0000000E+00
Ar  1626  0.1169289E+02  0.7026472E+02  0.4341904E+01  0.0000000E+00
Ar  1627  0.1142532E+02  0.6773391E+02  0.6884152E+01  0.0000000E+00
Ar  1628  0.8729832E+01  0.7099839E+02  0.7443351E+01  0.0000000E+00
Ar  1629  0.8427180E+01  0.6782683E+02  0.1013944E+02  0.0000000E+00
Ar  1630  0.1141788E+02  0.7024417E+02  0.9786448E+01  0.0000000E+00
Ar  1631  0.1140578E+02  0.6771179E+02  0.1289524E+02  0.0000000E+00
Ar  1632  0.8793454E+01  0.7015924E+02  0.1299074E+02  0.0000000E+00
Ar  1633  0.8658175E+01  0.6728145E+02  0.1520905E+02  0.0000000E+00
Ar  1634  0.1097644E+02  0.7071321E+02  0.1583483E+02  0.0000000E+00
Ar  1635  0.1123460E+02  0.6812236E+02  0.1810338E+02  0.0000000E+00
Ar  1636  0.8569065E+01  0.7059514E+02  0.1840459E+02  0.0000000E+00
Ar  1637  0.8413854E+01  0.6776178E+02  0.2103332E+02  0.0000000E+00
Ar  1638  0.1110248E+02  0.7066533E+02  0.2104352E+02  0.0000000E+00
Ar  1639  0.1157093E+02  0.6807135E+02  0.2331850E+02  0.0000000E+00
Ar  1640  0.8476157E+01  0.7068948E+02  0.2397857E+02  0.0000000E+00
Ar  1641  0.9254285E+01  0.6782071E+02  0.2624643E+02  0.0000000E+00
Ar  1642  0.1074908E+02  0.7104125E+02  0.2707385E+02  0.0000000E+00
Ar  1643  0.1075232E+02  0.6790191E+02  0.2955052E+02  0.0000000E+00
Ar  1644  0.7775626E+01  0.7078464E+02  0.2951244E+02  0.0000000E+00
Ar  1645  0.8434633E+01  0.6786792E+02  0.3219921E+02  0.0000000E+00
Ar  1646  0.1073358E+02  0.7053582E+02  0.3252138E+02  0.0000000E+00
Ar  1647  0.1138903E+02  0.6764943E+02  0.3573204E+02  0.0000000E+00
Ar  1648  0.8324323E+01  0.7086208E+02  0.3525407E+02  0.0000000E+00
Ar  1649  0.5668521E+01  0.7076018E+02  0.3783486E+02  0.0000000E+00
Ar  1650  0.1065534E+02  0.7087165E+02  0.3793945E+02  0.0000000E+00
Ar  1651  0.1038073E+02  0.6759702E+02  0.4083831E+02  0.0000000E+00
Ar  1652  0.7572117E+01  0.7050292E+02  0.4124470E+02  0.0000000E+00
Ar  1653  0.7866051E+01  0.6748973E+02  0.4334317E+02  0.0000000E+00
Ar  1654  0.1115173E+02  0.7130265E+02  0.4368675E+02  0.0000000E+00
Ar  1655  0.1088751E+02  0.6797807E+02  0.4638577E+02  0.0000000E+00
Ar  1656  0.8134046E+01  0.7063498E+02  0.4636072E+02  0.0000000E+00
Ar  1657  0.8099163E+01  0.6822469E+02  0.4864018E+02  0.0000000E+00
Ar  1658  0.1064809E+02  0.7062705E+02  0.4916415E+02  0.0000000E+00
Ar  1659  0.1138754E+02  0.6791916E+02  0.5147200E+02  0.0000000E+00
Ar  1660  0.7764008E+01  0.7045386E+02  0.5169928E+02  0.0000000E+00
Ar  1661  0.8624479E+01  0.6794600E+02  0.5447635E+02  0.0000000E+00
Ar  1662  0.1123938E+02  0.7074240E+02  0.5548546E+02  0.0000000E+00
Ar  1663  0.1118149E+02  0.6777102E+02  0.5747642E+02  0.0000000E+00
Ar  1664  0.8012331E+01  0.7005037E+02  0.5709079E+02  0.0000000E+00
Ar  1665  0.7480681E+01  0.6766973E+02  0.6093355E+02  0.0000000E+00
Ar  1666  0.1068775E+02  0.7007106E+02  0.6020687E+02  0.0000000E+00
Ar  1667  0.1076538E+02  0.6841613E+02  0.6363442E+02  0.0000000E+00
Ar  1668  0.8185517E+01  0.7101098E+02  0.6330778E+02  0.0000000E+00
Ar  1669  0.8349794E+01  0.6802430E+02  0.6655141E+02  0.0000000E+00
Ar  1670  0.1103238E+02  0.7105680E+02  0.6644042E+02  0.0000000E+00
Ar  1671  0.1138493E+02  0.6780994E+02  0.6904224E+02  0.0000000E+00
Ar  1672  0.8405920E+01  0.7076431E+02  0.6933487E+02  0.0000000E+00
Ar  1673  0.8457081E+01  0.6790386E+02  0.7176948E+02  0.0000000E+00
Ar  1674  0.1148397E+02  0.7067500E+02  0.7140742E+02  0.0000000E+00
Ar  1675  0.1125291E+02  0.6827446E+02  0.7465389E+02  0.0000000E+00
Ar  1676  0.8400526E+01  0.7113405E+02  0.7482092E+02  0.0000000E+00
Ar  1677  0.8569378E+01  0.6769444E+02  0.7732831E+02  0.0000000E+00
Ar  1678  0.1170598E+02  0.7050706E+02  0.7732134E+02  0.0000000E+00
Ar  1679  0.1100814E+02  0.6780537E+02  0.8076788E+02  0.0000000E+00
Ar  1680  0.8519630E+01  0.7040558E+02  0.8062735E+02  0.0000000E+00
Ar  1681  0.8636340E+01  0.7345309E+02  0.8256021E+02  0.0000000E+00
Ar  1682  0.1149464E+02  0.7548079E+02  0.8234289E+02  0.0000000E+00
Ar  1683  0.1139940E+02  0.7355796E+02  0.1045976E+01  0.0000000E+00
Ar  1684  0.8552783E+01  0.7568598E+02  0.1660590E+01  0.0000000E+00
Ar  1685  0.8613837E+01  0.7298833E+02  0.4008236E+01  0.0000000E+00
Ar  1686  0.1110205E+02  0.7610299E+02  0.4422368E+01  0.0000000E+00
Ar  1687  0.1157660E+02  0.7380939E+02  0.8200195E+01  0.0000000E+00
Ar  1688  0.8000910E+01  0.7560005E+02  0.6660431E+01  0.0000000E+00
Ar  1689  0.9141168E+01  0.7311174E+02  0.1077383E+02  0.0000000E+00
Ar  1690  0.1117389E+02  0.7639203E+02  0.1065342E+02  0.0000000E+00
Ar  1691  0.1171998E+02  0.7391764E+02  0.1319764E+02  0.0000000E+00
Ar  1692  0.8373941E+01  0.7638954E+02  0.1324469E+02  0.0000000E+00
Ar  1693  0.8603436E+01  0.7379015E+02  0.1621801E+02  0.0000000E+00
Ar  1694  0.1129924E+02  0.7667562E+02  0.1561802E+02  0.0000000E+00
Ar  1695  0.1150020E+02  0.7383214E+02  0.1863367E+02  0.0000000E+00
Ar  1696  0.8495481E+01  0.7694141E+02  0.1910031E+02  0.0000000E+00
Ar  1697  0.8225522E+01  0.7347811E+02  0.2097982E+02  0.0000000E+00
Ar  1698  0.1129951E+02  0.7697678E+02  0.2154208E+02  0.0000000E+00
Ar  1699  0.1069864E+02  0.7388739E+02  0.2342308E+02  0.0000000E+00
Ar  1700  0.8340929E+01  0.7671350E+02  0.2374157E+02  0.0000000E+00
Ar  1701  0.7784805E+01  0.7330977E+02  0.2677258E+02  0.0000000E+00
Ar  1702  0.1062133E+02  0.7596418E+02  0.2635093E+02  0.0000000E+00
Ar  1703  0.1117041E+02  0.7389425E+02  0.2931836E+02  0.0000000E+00
Ar  1704  0.8031384E+01  0.7620166E+02  0.2940414E+02  0.0000000E+00
Ar  1705  0.8282773E+01  0.7325710E+02  0.3209887E+02  0.0000000E+00
Ar  1706  0.1075287E+02  0.7623107E+02  0.3214972E+02  0.0000000E+00
Ar  1707  0.1077451E+02  0.7326196E+02  0.3498050E+02  0.0000000E+00
Ar  1708  0.8909937E+01  0.7632888E+02  0.3563816E+02  0.0000000E+00
Ar  1709  0.8330805E+01  0.7354501E+02  0.3828126E+02  0.0000000E+00
Ar  1710  0.1118672E+02  0.7660445E+02  0.3806541E+02  0.0000000E+00
Ar  1711  0.1079282E+02  0.7377343E+02  0.4089313E+02  0.0000000E+00
Ar  1712  0.8550164E+01  0.7648942E+02  0.4091297E+02  0.0000000E+00
Ar  1713  0.7741822E+01  0.7336494E+02  0.4342907E+02  0.0000000E+00
Ar  1714  0.9923609E+01  0.7609913E+02  0.4417579E+02  0.0000000E+00
Ar  1715  0.1021713E+02  0.7353488E+02  0.4701440E+02  0.0000000E+00
Ar  1716  0.6748695E+01  0.7602418E+02  0.4696799E+02  0.0000000E+00
Ar  1717  0.7674623E+01  0.7359205E+02  0.4915591E+02  0.0000000E+00
Ar  1718  0.1056653E+02  0.7627228E+02  0.4951734E+02  0.0000000E+00
Ar  1719  0.1091356E+02  0.7306162E+02  0.5170902E+02  0.0000000E+00
Ar  1720  0.7688401E+01  0.7607667E+02  0.5208229E+02  0.0000000E+00
Ar  1721  0.7522673E+01  0.7304307E+02  0.5444688E+02  0.0000000E+00
Ar  1722  0.1050200E+02  0.7554361E+02  0.5439720E+02  0.0000000E+00
Ar  1723  0.1056894E+02  0.7360526E+02  0.5752917E+02  0.0000000E+00
Ar  1724  0.7519656E+01  0.7593806E+02  0.5764798E+02  0.0000000E+00
Ar  1725  0.7949556E+01  0.7341234E+02  0.6056893E+02  0.0000000E+00
Ar  1726  0.1092212E+02  0.7577458E+02  0.6084519E+02  0.0000000E+00
Ar  1727  0.1134901E+02  0.7299824E+02  0.6341027E+02  0.0000000E+00
Ar  1728  0.8392929E+01  0.7605125E+02  0.6334474E+02  0.0000000E+00
Ar  1729  0.8133513E+01  0.7371259E+02  0.6618314E+02  0.0000000E+00
Ar  1730  0.1120705E+02  0.7593824E+02  0.6640957E+02  0.0000000E+00
Ar  1731  0.1123386E+02  0.7339536E+02  0.6935732E+02  0.0000000E+00
Ar  1732  0.8378594E+01  0.7598134E+02  0.6906475E+02  0.0000000E+00
Ar  1733  0.8415707E+01  0.7337102E+02  0.7174752E+02  0.0000000E+00
Ar  1734  0.1109678E+02  0.7588319E+02  0.7172831E+02  0.0000000E+00
Ar  1735  0.1116166E+02  0.7317245E+02  0.7408618E+02  0.0000000E+00
Ar  1736  0.8301086E+01  0.7584894E+02  0.7452595E+02  0.0000000E+00
Ar  1737  0.8619596E+01  0.7359888E+02  0.7741775E+02  0.0000000E+00
Ar  1738  0.1127924E+02  0.7605028E+02  0.7686985E+02  0.0000000E+00
Ar  1739  0.1194632E+02  0.7279075E+02  0.8026752E+02  0.0000000E+00
Ar  1740  0.8768948E+01  0.7637342E+02  0.7991081E+02  0.0000000E+00
Ar  1741  0.9043905E+01  0.7804986E+02  0.8304845E+02  0.0000000E+00
Ar  1742  0.1184905E+02  0.8080177E+02  0.8295580E+02  0.0000000E+00
Ar  1743  0.1121440E+02  0.7876819E+02  0.1678341E+01  0.0000000E+00
Ar  1744  0.8903527E+01  0.8131105E+02  0.1269655E+01  0.0000000E+00
Ar  1745  0.8205831E+01  0.7875401E+02  0.4631975E+01  0.0000000E+00
Ar  1746  0.1123556E+02  0.8118162E+02  0.4476657E+01  0.0000000E+00
Ar  1747  0.1121137E+02  0.7872699E+02  0.7782364E+01  0.0000000E+00
Ar  1748  0.9301024E+01  0.8184178E+02  0.7811117E+01  0.0000000E+00
Ar  1749  0.8554058E+01  0.7916349E+02  0.1015547E+02  0.0000000E+00
Ar  1750  0.1169434E+02  0.8182500E+02  0.1012362E+02  0.0000000E+00
Ar  1751  0.1115763E+02  0.7956700E+02  0.1293825E+02  0.0000000E+00
Ar  1752  0.8104949E+01  0.8176815E+02  0.1287774E+02  0.0000000E+00
Ar  1753  0.8593026E+01  0.7919284E+02  0.1606257E+02  0.0000000E+00
Ar  1754  0.1139707E+02  0.8208916E+02  0.1557844E+02  0.0000000E+00
Ar  1755  0.1149335E+02  0.7963240E+02  0.1853664E+02  0.0000000E+00
Ar  1756  0.8614934E+01  0.8214520E+02  0.1794579E+02  0.0000000E+00
Ar  1757  0.7846065E+01  0.7958123E+02  0.2175244E+02  0.0000000E+00
Ar  1758  0.1103727E+02  0.8206199E+02  0.2111811E+02  0.0000000E+00
Ar  1759  0.1101607E+02  0.7904998E+02  0.2466050E+02  0.0000000E+00
Ar  1760  0.7857013E+01  0.8183603E+02  0.2471577E+02  0.0000000E+00
Ar  1761  0.7776963E+01  0.7899085E+02  0.2719773E+02  0.0000000E+00
Ar  1762  0.1085780E+02  0.8158430E+02  0.2701695E+02  0.0000000E+00
Ar  1763  0.1103671E+02  0.7892487E+02  0.2992570E+02  0.0000000E+00
Ar  1764  0.8542323E+01  0.8201644E+02  0.3008716E+02  0.0000000E+00
Ar  1765  0.7986768E+01  0.7905730E+02  0.3214919E+02  0.0000000E+00
Ar  1766  0.1117787E+02  0.4498237E+00  0.2933450E+02  0.0000000E+00
Ar  1767  0.1130583E+02  0.7917067E+02  0.3426304E+02  0.0000000E+00
Ar  1768  0.8265517E+01  0.8127595E+02  0.3470723E+02  0.0000000E+00
Ar  1769  0.8112569E+01  0.7889869E+02  0.3782092E+02  0.0000000E+00
Ar  1770  0.1120186E+02  0.8179826E+02  0.3685729E+02  0.0000000E+00
Ar  1771  0.1131689E+02  0.7961035E+02  0.4029715E+02  0.0000000E+00
Ar  1772  0.8240942E+01  0.8195704E+02  0.3990382E+02  0.0000000E+00
Ar  1773  0.8129148E+01  0.7947539E+02  0.4294411E+02  0.0000000E+00
Ar  1774  0.1154145E+02  0.8212897E+02  0.4356306E+02  0.0000000E+00
Ar  1775  0.1045910E+02  0.7946903E+02  0.4612908E+02  0.0000000E+00
Ar  1776  0.7741531E+01  0.8149360E+02  0.4648995E+02  0.0000000E+00
Ar  1777  0.7937486E+01  0.7903420E+02  0.4932426E+02  0.0000000E+00
Ar  1778  0.1068553E+02  0.8134895E+02  0.4970262E+02  0.0000000E+00
Ar  1779  0.1119294E+02  0.7895529E+02  0.5216423E+02  0.0000000E+00
Ar  1780  0.8254882E+01  0.8144932E+02  0.5278343E+02  0.0000000E+00
Ar  1781  0.8167045E+01  0.7890560E+02  0.5506143E+02  0.0000000E+00
Ar  1782  0.1086005E+02  0.8077434E+02  0.5531298E+02  0.0000000E+00
Ar  1783  0.1047013E+02  0.7865008E+02  0.5791565E+02  0.0000000E+00
Ar  1784  0.7852992E+01  0.8137795E+02  0.5839139E+02  0.0000000E+00
Ar  1785  0.7425233E+01  0.7902932E+02  0.6166483E+02  0.0000000E+00
Ar  1786  0.1138723E+02  0.8162442E+02  0.6033234E+02  0.0000000E+00
Ar  1787  0.1157755E+02  0.7899486E+02  0.6390758E+02  0.0000000E+00
Ar  1788  0.8762337E+01  0.8217771E+02  0.6363879E+02  0.0000000E+00
Ar  1789  0.8317112E+01  0.7852000E+02  0.6605940E+02  0.0000000E+00
Ar  1790  0.1099045E+02  0.8178202E+02  0.6614978E+02  0.0000000E+00
Ar  1791  0.1103050E+02  0.7880832E+02  0.6858706E+02  0.0000000E+00
Ar  1792  0.7740331E+01  0.8181824E+02  0.6877614E+02  0.0000000E+00
Ar  1793  0.8385195E+01  0.7854262E+02  0.7145027E+02  0.0000000E+00
Ar  1794  0.1144028E+02  0.8107393E+02  0.7126733E+02  0.0000000E+00
Ar  1795  0.1138399E+02  0.7882185E+02  0.7410710E+02  0.0000000E+00
Ar  1796  0.8850793E+01  0.8144916E+02  0.7391634E+02  0.0000000E+00
Ar  1797  0.8663423E+01  0.7896530E+02  0.7708337E+02  0.0000000E+00
Ar  1798  0.1120453E+02  0.8216409E+02  0.7675554E+02  0.0000000E+00
Ar  1799  0.1165014E+02  0.7843044E+02  0.8005282E+02  0.0000000E+00
Ar  1800  0.8920227E+01  0.8109874E+02  0.8008712E+02  0.0000000E+00
Ar  1801  0.1319765E+02  0.9071756E-01  0.8322700E+02  0.0000000E+00
Ar  1802  0.1611502E+02  0.3403722E+01  0.8265905E+02  0.0000000E+00
Ar  1803  0.1582442E+02  0.6842815E+00  0.1321257E+01  0.0000000E+00
Ar  1804  0.1412829E+02  0.3391586E+01  0.1345238E+01  0.0000000E+00
Ar  1805  0.1456730E+02  0.1425576E+00  0.4456275E+01  0.0000000E+00
Ar  1806  0.1636688E+02  0.3398680E+01  0.4396303E+01  0.0000000E+00
Ar  1807  0.1732130E+02  0.6931684E+00  0.7122282E+01  0.0000000E+00
Ar  1808  0.1344768E+02  0.3377166E+01  0.7036243E+01  0.0000000E+00
Ar  1809  0.1373961E+02  0.4618488E+00  0.9692394E+01  0.0000000E+00
Ar  1810  0.1673036E+02  0.3297841E+01  0.9894234E+01  0.0000000E+00
Ar  1811  0.1660613E+02  0.4405637E+00  0.1248712E+02  0.0000000E+00
Ar  1812  0.1357981E+02  0.3193990E+01  0.1285861E+02  0.0000000E+00
Ar  1813  0.1381726E+02  0.2851834E+00  0.1570396E+02  0.0000000E+00
Ar  1814  0.1636550E+02  0.2942698E+01  0.1572640E+02  0.0000000E+00
Ar  1815  0.1714894E+02  0.4465458E+00  0.1871649E+02  0.0000000E+00
Ar  1816  0.1384284E+02  0.2943354E+01  0.1823554E+02  0.0000000E+00
Ar  1817  0.1359755E+02  0.2759075E+00  0.2158308E+02  0.0000000E+00
Ar  1818  0.1684044E+02  0.3070061E+01  0.2091002E+02  0.0000000E+00
Ar  1819  0.1672639E+02  0.6204437E+00  0.2407720E+02  0.0000000E+00
Ar  1820  0.1340937E+02  0.3072451E+01  0.2407045E+02  0.0000000E+00
Ar  1821  0.1369360E+02  0.8410970E+02  0.2670817E+02  0.0000000E+00
Ar  1822  0.1654060E+02  0.3658626E+01  0.2653365E+02  0.0000000E+00
Ar  1823  0.1612593E+02  0.8250604E+00  0.2942535E+02  0.0000000E+00
Ar  1824  0.1452546E+02  0.3817792E+01  0.3039041E+02  0.0000000E+00
Ar  1825  0.1360779E+02  0.6327702E+00  0.3229311E+02  0.0000000E+00
Ar  1826  0.1657751E+02  0.2191910E+01  0.3267033E+02  0.0000000E+00
Ar  1827  0.1680422E+02  0.1034724E+01  0.3584488E+02  0.0000000E+00
Ar  1828  0.1367789E+02  0.3501984E+01  0.3489347E+02  0.0000000E+00
Ar  1829  0.1366478E+02  0.6634437E+00  0.3792567E+02  0.0000000E+00
Ar  1830  0.1625464E+02  0.4374518E+01  0.3750027E+02  0.0000000E+00
Ar  1831  0.1666981E+02  0.7858785E+00  0.4070149E+02  0.0000000E+00
Ar  1832  0.1367721E+02  0.3994447E+01  0.4026508E+02  0.0000000E+00
Ar  1833  0.1503117E+02  0.2789964E+00  0.4394994E+02  0.0000000E+00
Ar  1834  0.1704324E+02  0.3669749E+01  0.4303173E+02  0.0000000E+00
Ar  1835  0.1705807E+02  0.3328466E+00  0.4692474E+02  0.0000000E+00
Ar  1836  0.1400857E+02  0.3248853E+01  0.4645493E+02  0.0000000E+00
Ar  1837  0.1378972E+02  0.2291826E+00  0.4887964E+02  0.0000000E+00
Ar  1838  0.1645963E+02  0.3550977E+01  0.4952789E+02  0.0000000E+00
Ar  1839  0.1687584E+02  0.8202980E+00  0.5183534E+02  0.0000000E+00
Ar  1840  0.1386658E+02  0.3075483E+01  0.5187433E+02  0.0000000E+00
Ar  1841  0.1369211E+02  0.8400892E+02  0.5479512E+02  0.0000000E+00
Ar  1842  0.1657348E+02  0.3011836E+01  0.5508744E+02  0.0000000E+00
Ar  1843  0.1651114E+02  0.8408839E+02  0.5732785E+02  0.0000000E+00
Ar  1844  0.1371910E+02  0.3843695E+01  0.5773685E+02  0.0000000E+00
Ar  1845  0.1411693E+02  0.2688668E+00  0.6102527E+02  0.0000000E+00
Ar  1846  0.1659427E+02  0.3294842E+01  0.6113066E+02  0.0000000E+00
Ar  1847  0.1670664E+02  0.8375660E+02  0.6353585E+02  0.0000000E+00
Ar  1848  0.1356119E+02  0.3082774E+01  0.6363610E+02  0.0000000E+00
Ar  1849  0.1342014E+02  0.1745032E+00  0.6610896E+02  0.0000000E+00
Ar  1850  0.1662125E+02  0.2429202E+01  0.6556328E+02  0.0000000E+00
Ar  1851  0.1678664E+02  0.2263223E+00  0.6866132E+02  0.0000000E+00
Ar  1852  0.1397325E+02  0.3011053E+01  0.6833683E+02  0.0000000E+00
Ar  1853  0.1397686E+02  0.8395458E+02  0.7145194E+02  0.0000000E+00
Ar  1854  0.1623446E+02  0.3110101E+01  0.7130792E+02  0.0000000E+00
Ar  1855  0.1744804E+02  0.1151486E+01  0.7426561E+02  0.0000000E+00
Ar  1856  0.1402691E+02  0.3495712E+01  0.7408823E+02  0.0000000E+00
Ar  1857  0.1389387E+02  0.5905748E+00  0.7755682E+02  0.0000000E+00
Ar  1858  0.1659655E+02  0.3602135E+01  0.7708033E+02  0.0000000E+00
Ar  1859  0.1615109E+02  0.1243965E+00  0.8016169E+02  0.0000000E+00
Ar  1860  0.1285222E+02  0.2925450E+01  0.7983566E+02  0.0000000E+00
Ar  1861  0.1360243E+02  0.6031116E+01  0.8228630E+02  0.0000000E+00
Ar  1862  0.1571622E+02  0.8643124E+01  0.8312928E+02  0.0000000E+00
Ar  1863  0.1652018E+02  0.6226001E+01  0.1916793E+01  0.0000000E+00
Ar  1864  0.1365720E+02  0.8834436E+01  0.1467460E+01  0.0000000E+00
Ar  1865  0.1350225E+02  0.5936756E+01  0.3837551E+01  0.0000000E+00
Ar  1866  0.1644874E+02  0.8941755E+01  0.3970215E+01  0.0000000E+00
Ar  1867  0.1673505E+02  0.6252959E+01  0.6811809E+01  0.0000000E+00
Ar  1868  0.1339600E+02  0.8246500E+01  0.6813398E+01  0.0000000E+00
Ar  1869  0.1331215E+02  0.5217639E+01  0.1011576E+02  0.0000000E+00
Ar  1870  0.1564928E+02  0.8246762E+01  0.9795843E+01  0.0000000E+00
Ar  1871  0.1617188E+02  0.6150950E+01  0.1290510E+02  0.0000000E+00
Ar  1872  0.1309367E+02  0.8627943E+01  0.1226182E+02  0.0000000E+00
Ar  1873  0.1234327E+02  0.6594989E+01  0.1624346E+02  0.0000000E+00
Ar  1874  0.1582324E+02  0.8798429E+01  0.1526012E+02  0.0000000E+00
Ar  1875  0.1600693E+02  0.6336760E+01  0.1769459E+02  0.0000000E+00
Ar  1876  0.1338148E+02  0.8913551E+01  0.1863869E+02  0.0000000E+00
Ar  1877  0.1336175E+02  0.5134533E+01  0.2096207E+02  0.0000000E+00
Ar  1878  0.1658566E+02  0.8775106E+01  0.2056013E+02  0.0000000E+00
Ar  1879  0.1647252E+02  0.5826102E+01  0.2358877E+02  0.0000000E+00
Ar  1880  0.1245224E+02  0.9010431E+01  0.2250878E+02  0.0000000E+00
Ar  1881  0.1353747E+02  0.7180240E+01  0.2575317E+02  0.0000000E+00
Ar  1882  0.1682668E+02  0.9205522E+01  0.2606717E+02  0.0000000E+00
Ar  1883  0.1675925E+02  0.6507428E+01  0.2889912E+02  0.0000000E+00
Ar  1884  0.1354128E+02  0.9071708E+01  0.2904363E+02  0.0000000E+00
Ar  1885  0.1335569E+02  0.6688023E+01  0.3209156E+02  0.0000000E+00
Ar  1886  0.1645418E+02  0.9247637E+01  0.3228848E+02  0.0000000E+00
Ar  1887  0.1583924E+02  0.6975488E+01  0.3506273E+02  0.0000000E+00
Ar  1888  0.1315581E+02  0.9444754E+01  0.3474372E+02  0.0000000E+00
Ar  1889  0.1325355E+02  0.6243488E+01  0.3796469E+02  0.0000000E+00
Ar  1890  0.1615137E+02  0.8852881E+01  0.3857200E+02  0.0000000E+00
Ar  1891  0.1686655E+02  0.6355351E+01  0.4052608E+02  0.0000000E+00
Ar  1892  0.1328774E+02  0.9091323E+01  0.4129599E+02  0.0000000E+00
Ar  1893  0.1386870E+02  0.6006365E+01  0.4346269E+02  0.0000000E+00
Ar  1894  0.1594014E+02  0.9269864E+01  0.4408293E+02  0.0000000E+00
Ar  1895  0.1716491E+02  0.5637316E+01  0.4595482E+02  0.0000000E+00
Ar  1896  0.1255590E+02  0.9019820E+01  0.4591129E+02  0.0000000E+00
Ar  1897  0.1634700E+02  0.5836381E+01  0.5231949E+02  0.0000000E+00
Ar  1898  0.1601595E+02  0.9977211E+01  0.4927091E+02  0.0000000E+00
Ar  1899  0.1929020E+02  0.5742601E+01  0.5495397E+02  0.0000000E+00
Ar  1900  0.1373757E+02  0.8937876E+01  0.5236941E+02  0.0000000E+00
Ar  1901  0.1420367E+02  0.6344934E+01  0.5517726E+02  0.0000000E+00
Ar  1902  0.1639580E+02  0.9328313E+01  0.5501582E+02  0.0000000E+00
Ar  1903  0.1718927E+02  0.6056926E+01  0.5752727E+02  0.0000000E+00
Ar  1904  0.1377132E+02  0.9200471E+01  0.5773596E+02  0.0000000E+00
Ar  1905  0.1359870E+02  0.6167663E+01  0.6115900E+02  0.0000000E+00
Ar  1906  0.1648415E+02  0.9313986E+01  0.5987911E+02  0.0000000E+00
Ar  1907  0.1668966E+02  0.7118299E+01  0.6307548E+02  0.0000000E+00
Ar  1908  0.1395333E+02  0.9971573E+01  0.6293136E+02  0.0000000E+00
Ar  1909  0.1411371E+02  0.6130367E+01  0.6545305E+02  0.0000000E+00
Ar  1910  0.1619283E+02  0.9083492E+01  0.6654127E+02  0.0000000E+00
Ar  1911  0.1617779E+02  0.6257689E+01  0.6873215E+02  0.0000000E+00
Ar  1912  0.1284505E+02  0.9153540E+01  0.6858586E+02  0.0000000E+00
Ar  1913  0.1349658E+02  0.6096858E+01  0.7125212E+02  0.0000000E+00
Ar  1914  0.1624601E+02  0.8803394E+01  0.7119906E+02  0.0000000E+00
Ar  1915  0.1660588E+02  0.6117933E+01  0.7432371E+02  0.0000000E+00
Ar  1916  0.1416282E+02  0.8488452E+01  0.7456298E+02  0.0000000E+00
Ar  1917  0.1382078E+02  0.5922830E+01  0.7705885E+02  0.0000000E+00
Ar  1918  0.1683142E+02  0.8922361E+01  0.7707374E+02  0.0000000E+00
Ar  1919  0.1660640E+02  0.5640926E+01  0.7971975E+02  0.0000000E+00
Ar  1920  0.1377600E+02  0.8817828E+01  0.7961099E+02  0.0000000E+00
Ar  1921  0.1360139E+02  0.1170843E+02  0.8221072E+02  0.0000000E+00
Ar  1922  0.1602224E+02  0.1450245E+02  0.8302526E+02  0.0000000E+00
Ar  1923  0.1570128E+02  0.1162951E+02  0.1198462E+01  0.0000000E+00
Ar  1924  0.1386030E+02  0.1509272E+02  0.1735632E+01  0.0000000E+00
Ar  1925  0.1330933E+02  0.1182889E+02  0.4427616E+01  0.0000000E+00
Ar  1926  0.1596174E+02  0.1453080E+02  0.4624554E+01  0.0000000E+00
Ar  1927  0.1609366E+02  0.1113118E+02  0.7212820E+01  0.0000000E+00
Ar  1928  0.1331987E+02  0.1437392E+02  0.7038751E+01  0.0000000E+00
Ar  1929  0.1320642E+02  0.1180083E+02  0.9931458E+01  0.0000000E+00
Ar  1930  0.1668578E+02  0.1447922E+02  0.8838113E+01  0.0000000E+00
Ar  1931  0.1535654E+02  0.1136219E+02  0.1284236E+02  0.0000000E+00
Ar  1932  0.1333941E+02  0.1458931E+02  0.1219735E+02  0.0000000E+00
Ar  1933  0.1307385E+02  0.1142615E+02  0.1609147E+02  0.0000000E+00
Ar  1934  0.1592082E+02  0.1464586E+02  0.1555388E+02  0.0000000E+00
Ar  1935  0.1633213E+02  0.1193089E+02  0.1769116E+02  0.0000000E+00
Ar  1936  0.1334203E+02  0.1453914E+02  0.1793261E+02  0.0000000E+00
Ar  1937  0.1346978E+02  0.1178433E+02  0.2033375E+02  0.0000000E+00
Ar  1938  0.1653748E+02  0.1434027E+02  0.2096425E+02  0.0000000E+00
Ar  1939  0.1552966E+02  0.1150512E+02  0.2295668E+02  0.0000000E+00
Ar  1940  0.1310517E+02  0.1437845E+02  0.2384698E+02  0.0000000E+00
Ar  1941  0.1357211E+02  0.1101526E+02  0.2599454E+02  0.0000000E+00
Ar  1942  0.1607621E+02  0.1370777E+02  0.2621346E+02  0.0000000E+00
Ar  1943  0.1651682E+02  0.1144580E+02  0.2901802E+02  0.0000000E+00
Ar  1944  0.1325242E+02  0.1422533E+02  0.2918914E+02  0.0000000E+00
Ar  1945  0.1375613E+02  0.1196943E+02  0.3157076E+02  0.0000000E+00
Ar  1946  0.1662666E+02  0.1367862E+02  0.3215760E+02  0.0000000E+00
Ar  1947  0.1661858E+02  0.1079125E+02  0.3558997E+02  0.0000000E+00
Ar  1948  0.1394603E+02  0.1457103E+02  0.3471394E+02  0.0000000E+00
Ar  1949  0.1336691E+02  0.1165565E+02  0.3806053E+02  0.0000000E+00
Ar  1950  0.1596559E+02  0.1450664E+02  0.3794535E+02  0.0000000E+00
Ar  1951  0.1640528E+02  0.1131925E+02  0.4081846E+02  0.0000000E+00
Ar  1952  0.1356996E+02  0.1451031E+02  0.4049020E+02  0.0000000E+00
Ar  1953  0.9986152E+01  0.9099532E+01  0.4348347E+02  0.0000000E+00
Ar  1954  0.1347973E+02  0.1255366E+02  0.4400189E+02  0.0000000E+00
Ar  1955  0.1640664E+02  0.1253561E+02  0.4605441E+02  0.0000000E+00
Ar  1956  0.1635527E+02  0.1449242E+02  0.4306512E+02  0.0000000E+00
Ar  1957  0.1329101E+02  0.1210690E+02  0.4918662E+02  0.0000000E+00
Ar  1958  0.1354521E+02  0.1500809E+02  0.4690970E+02  0.0000000E+00
Ar  1959  0.1603358E+02  0.1209120E+02  0.5207632E+02  0.0000000E+00
Ar  1960  0.1622874E+02  0.1458761E+02  0.4941916E+02  0.0000000E+00
Ar  1961  0.1290886E+02  0.1492966E+02  0.5148390E+02  0.0000000E+00
Ar  1962  0.1656375E+02  0.1212853E+02  0.5733038E+02  0.0000000E+00
Ar  1963  0.1290103E+02  0.1183079E+02  0.5439104E+02  0.0000000E+00
Ar  1964  0.1418078E+02  0.1553428E+02  0.5740280E+02  0.0000000E+00
Ar  1965  0.1412948E+02  0.1245592E+02  0.6025583E+02  0.0000000E+00
Ar  1966  0.1714825E+02  0.1473624E+02  0.6026721E+02  0.0000000E+00
Ar  1967  0.1689491E+02  0.1192399E+02  0.6269295E+02  0.0000000E+00
Ar  1968  0.1427369E+02  0.1460551E+02  0.6324078E+02  0.0000000E+00
Ar  1969  0.1444470E+02  0.1229237E+02  0.6641385E+02  0.0000000E+00
Ar  1970  0.1741225E+02  0.1465885E+02  0.6522694E+02  0.0000000E+00
Ar  1971  0.1679601E+02  0.1183555E+02  0.6901657E+02  0.0000000E+00
Ar  1972  0.1437004E+02  0.1464944E+02  0.6913793E+02  0.0000000E+00
Ar  1973  0.1366694E+02  0.1162804E+02  0.7085555E+02  0.0000000E+00
Ar  1974  0.1706217E+02  0.1485412E+02  0.7144583E+02  0.0000000E+00
Ar  1975  0.1671641E+02  0.1185357E+02  0.7460978E+02  0.0000000E+00
Ar  1976  0.1439053E+02  0.1475478E+02  0.7369502E+02  0.0000000E+00
Ar  1977  0.1390236E+02  0.1167399E+02  0.7666014E+02  0.0000000E+00
Ar  1978  0.1692586E+02  0.1453533E+02  0.7686308E+02  0.0000000E+00
Ar  1979  0.1641733E+02  0.1148294E+02  0.7970730E+02  0.0000000E+00
Ar  1980  0.1389641E+02  0.1466568E+02  0.8020437E+02  0.0000000E+00
Ar  1981  0.1362668E+02  0.1887988E+02  0.8270977E+02  0.0000000E+00
Ar  1982  0.1689919E+02  0.2054559E+02  0.8300670E+02  0.0000000E+00
Ar  1983  0.1717840E+02  0.1779972E+02  0.1475862E+01  0.0000000E+00
Ar  1984  0.1446888E+02  0.2031325E+02  0.1886075E+01  0.0000000E+00
Ar  1985  0.1337682E+02  0.1747640E+02  0.3990279E+01  0.0000000E+00
Ar  1986  0.1671489E+02  0.2069716E+02  0.4733027E+01  0.0000000E+00
Ar  1987  0.1603802E+02  0.1781972E+02  0.6809174E+01  0.0000000E+00
Ar  1988  0.1339614E+02  0.2018837E+02  0.6986924E+01  0.0000000E+00
Ar  1989  0.1328762E+02  0.1739925E+02  0.9533458E+01  0.0000000E+00
Ar  1990  0.1598596E+02  0.1980218E+02  0.9618835E+01  0.0000000E+00
Ar  1991  0.1582961E+02  0.1706147E+02  0.1240828E+02  0.0000000E+00
Ar  1992  0.1363539E+02  0.1973660E+02  0.1248239E+02  0.0000000E+00
Ar  1993  0.1292804E+02  0.1707811E+02  0.1517471E+02  0.0000000E+00
Ar  1994  0.1648881E+02  0.1901988E+02  0.1530815E+02  0.0000000E+00
Ar  1995  0.1606849E+02  0.1689178E+02  0.1850084E+02  0.0000000E+00
Ar  1996  0.1394785E+02  0.2037731E+02  0.1853337E+02  0.0000000E+00
Ar  1997  0.1386399E+02  0.1691962E+02  0.2118597E+02  0.0000000E+00
Ar  1998  0.1711938E+02  0.1999115E+02  0.2027458E+02  0.0000000E+00
Ar  1999  0.1667025E+02  0.1741834E+02  0.2329270E+02  0.0000000E+00
Ar  2000  0.1390305E+02  0.2086680E+02  0.2374178E+02  0.0000000E+00
Ar  2001  0.1389625E+02  0.1707279E+02  0.2661681E+02  0.0000000E+00
Ar  2002  0.1556094E+02  0.2048944E+02  0.2652433E+02  0.0000000E+00
Ar  2003  0.1636517E+02  0.1639284E+02  0.2964741E+02  0.0000000E+00
Ar  2004  0.1332589E+02  0.2028651E+02  0.2929751E+02  0.0000000E+00
Ar  2005  0.1338411E+02  0.1716610E+02  0.3203285E+02  0.0000000E+00
Ar  2006  0.1662498E+02  0.2067262E+02  0.3280718E+02  0.0000000E+00
Ar  2007  0.1633814E+02  0.1757761E+02  0.3470359E+02  0.0000000E+00
Ar  2008  0.1350670E+02  0.2009743E+02  0.3499991E+02  0.0000000E+00
Ar  2009  0.1374388E+02  0.1747327E+02  0.3766891E+02  0.0000000E+00
Ar  2010  0.1618825E+02  0.2005532E+02  0.3716668E+02  0.0000000E+00
Ar  2011  0.1635559E+02  0.1717109E+02  0.4023393E+02  0.0000000E+00
Ar  2012  0.1390544E+02  0.2017894E+02  0.4073309E+02  0.0000000E+00
Ar  2013  0.1407383E+02  0.1707366E+02  0.4396146E+02  0.0000000E+00
Ar  2014  0.1667017E+02  0.2002424E+02  0.4331352E+02  0.0000000E+00
Ar  2015  0.1661160E+02  0.1769227E+02  0.4696734E+02  0.0000000E+00
Ar  2016  0.1422191E+02  0.2039169E+02  0.4636599E+02  0.0000000E+00
Ar  2017  0.1373091E+02  0.1781213E+02  0.4954445E+02  0.0000000E+00
Ar  2018  0.1661114E+02  0.2068425E+02  0.4915881E+02  0.0000000E+00
Ar  2019  0.1636513E+02  0.1472617E+02  0.5470935E+02  0.0000000E+00
Ar  2020  0.1467408E+02  0.2070860E+02  0.5197322E+02  0.0000000E+00
Ar  2021  0.1497750E+02  0.1808167E+02  0.5444783E+02  0.0000000E+00
Ar  2022  0.1705848E+02  0.2062448E+02  0.5550238E+02  0.0000000E+00
Ar  2023  0.1714511E+02  0.1742314E+02  0.5757426E+02  0.0000000E+00
Ar  2024  0.1355396E+02  0.1999674E+02  0.5712637E+02  0.0000000E+00
Ar  2025  0.1348158E+02  0.1763775E+02  0.6042745E+02  0.0000000E+00
Ar  2026  0.1644628E+02  0.2017051E+02  0.5974292E+02  0.0000000E+00
Ar  2027  0.1667550E+02  0.1814644E+02  0.6309393E+02  0.0000000E+00
Ar  2028  0.1366532E+02  0.2096518E+02  0.6344407E+02  0.0000000E+00
Ar  2029  0.1474921E+02  0.1750817E+02  0.6652494E+02  0.0000000E+00
Ar  2030  0.1610750E+02  0.2066350E+02  0.6672238E+02  0.0000000E+00
Ar  2031  0.1723817E+02  0.1776848E+02  0.6909781E+02  0.0000000E+00
Ar  2032  0.1385397E+02  0.2072849E+02  0.6913242E+02  0.0000000E+00
Ar  2033  0.1421326E+02  0.1763383E+02  0.7137939E+02  0.0000000E+00
Ar  2034  0.1686966E+02  0.2038847E+02  0.7234866E+02  0.0000000E+00
Ar  2035  0.1686275E+02  0.1723805E+02  0.7401037E+02  0.0000000E+00
Ar  2036  0.1391988E+02  0.2000540E+02  0.7420619E+02  0.0000000E+00
Ar  2037  0.1403599E+02  0.1668659E+02  0.7685376E+02  0.0000000E+00
Ar  2038  0.1639371E+02  0.2058681E+02  0.7679211E+02  0.0000000E+00
Ar  2039  0.1605725E+02  0.1780233E+02  0.8024002E+02  0.0000000E+00
Ar  2040  0.1320822E+02  0.2087344E+02  0.7997177E+02  0.0000000E+00
Ar  2041  0.1401883E+02  0.2263718E+02  0.8317595E+02  0.0000000E+00
Ar  2042  0.1576728E+02  0.2538866E+02  0.8251511E+02  0.0000000E+00
Ar  2043  0.1634789E+02  0.2347003E+02  0.1519316E+01  0.0000000E+00
Ar  2044  0.1348974E+02  0.2525435E+02  0.1462227E+01  0.0000000E+00
Ar  2045  0.1383556E+02  0.2328334E+02  0.4362380E+01  0.0000000E+00
Ar  2046  0.1672854E+02  0.2603472E+02  0.3803622E+01  0.0000000E+00
Ar  2047  0.1614373E+02  0.2282397E+02  0.6902424E+01  0.0000000E+00
Ar  2048  0.1417498E+02  0.2606896E+02  0.7073153E+01  0.0000000E+00
Ar  2049  0.1404767E+02  0.2297911E+02  0.1004934E+02  0.0000000E+00
Ar  2050  0.1643135E+02  0.2576660E+02  0.9789537E+01  0.0000000E+00
Ar  2051  0.1635354E+02  0.2254596E+02  0.1281614E+02  0.0000000E+00
Ar  2052  0.1405567E+02  0.2573362E+02  0.1238407E+02  0.0000000E+00
Ar  2053  0.1419266E+02  0.2254673E+02  0.1546871E+02  0.0000000E+00
Ar  2054  0.1686717E+02  0.2581590E+02  0.1576079E+02  0.0000000E+00
Ar  2055  0.1706015E+02  0.2345661E+02  0.1832734E+02  0.0000000E+00
Ar  2056  0.1403259E+02  0.2558587E+02  0.1784179E+02  0.0000000E+00
Ar  2057  0.1390698E+02  0.2328244E+02  0.2084623E+02  0.0000000E+00
Ar  2058  0.1692960E+02  0.2609703E+02  0.2125245E+02  0.0000000E+00
Ar  2059  0.1661479E+02  0.2352682E+02  0.2375251E+02  0.0000000E+00
Ar  2060  0.1370106E+02  0.2576526E+02  0.2390883E+02  0.0000000E+00
Ar  2061  0.1395069E+02  0.2334114E+02  0.2742981E+02  0.0000000E+00
Ar  2062  0.1648081E+02  0.2581910E+02  0.2688624E+02  0.0000000E+00
Ar  2063  0.1641699E+02  0.2295708E+02  0.3008957E+02  0.0000000E+00
Ar  2064  0.1319666E+02  0.2640166E+02  0.2990970E+02  0.0000000E+00
Ar  2065  0.1355325E+02  0.2323659E+02  0.3200110E+02  0.0000000E+00
Ar  2066  0.1597675E+02  0.2636102E+02  0.3259828E+02  0.0000000E+00
Ar  2067  0.1539084E+02  0.2304828E+02  0.3523538E+02  0.0000000E+00
Ar  2068  0.1314495E+02  0.2672314E+02  0.3478632E+02  0.0000000E+00
Ar  2069  0.1345978E+02  0.2300395E+02  0.3799217E+02  0.0000000E+00
Ar  2070  0.1583917E+02  0.2600402E+02  0.3751149E+02  0.0000000E+00
Ar  2071  0.1609127E+02  0.2304702E+02  0.3992797E+02  0.0000000E+00
Ar  2072  0.1311621E+02  0.2597108E+02  0.4012323E+02  0.0000000E+00
Ar  2073  0.1427423E+02  0.2306426E+02  0.4344464E+02  0.0000000E+00
Ar  2074  0.1656499E+02  0.2673934E+02  0.4346456E+02  0.0000000E+00
Ar  2075  0.1624362E+02  0.2347888E+02  0.4642713E+02  0.0000000E+00
Ar  2076  0.1393109E+02  0.2634950E+02  0.4576230E+02  0.0000000E+00
Ar  2077  0.1350959E+02  0.2368220E+02  0.4900234E+02  0.0000000E+00
Ar  2078  0.1690233E+02  0.2617623E+02  0.4976221E+02  0.0000000E+00
Ar  2079  0.1674266E+02  0.2367273E+02  0.5291910E+02  0.0000000E+00
Ar  2080  0.1367423E+02  0.2601607E+02  0.5265105E+02  0.0000000E+00
Ar  2081  0.1383636E+02  0.2362807E+02  0.5569046E+02  0.0000000E+00
Ar  2082  0.1695986E+02  0.2642410E+02  0.5534157E+02  0.0000000E+00
Ar  2083  0.1680511E+02  0.2352698E+02  0.5776197E+02  0.0000000E+00
Ar  2084  0.1377462E+02  0.2639313E+02  0.5779686E+02  0.0000000E+00
Ar  2085  0.1426547E+02  0.2333694E+02  0.6010977E+02  0.0000000E+00
Ar  2086  0.1646090E+02  0.2615064E+02  0.6021567E+02  0.0000000E+00
Ar  2087  0.1687393E+02  0.2308845E+02  0.6348753E+02  0.0000000E+00
Ar  2088  0.1373650E+02  0.2640490E+02  0.6338778E+02  0.0000000E+00
Ar  2089  0.1373917E+02  0.2340027E+02  0.6624494E+02  0.0000000E+00
Ar  2090  0.1657296E+02  0.2578981E+02  0.6561907E+02  0.0000000E+00
Ar  2091  0.1736353E+02  0.2384306E+02  0.6870886E+02  0.0000000E+00
Ar  2092  0.1446123E+02  0.2591938E+02  0.6858638E+02  0.0000000E+00
Ar  2093  0.1389961E+02  0.2305637E+02  0.7189843E+02  0.0000000E+00
Ar  2094  0.1673225E+02  0.2696146E+02  0.7171891E+02  0.0000000E+00
Ar  2095  0.1691136E+02  0.2344793E+02  0.7448152E+02  0.0000000E+00
Ar  2096  0.1427362E+02  0.2593488E+02  0.7523962E+02  0.0000000E+00
Ar  2097  0.1359375E+02  0.2275940E+02  0.7640107E+02  0.0000000E+00
Ar  2098  0.1714619E+02  0.2571035E+02  0.7724845E+02  0.0000000E+00
Ar  2099  0.1604912E+02  0.2290256E+02  0.7933114E+02  0.0000000E+00
Ar  2100  0.1363193E+02  0.2569733E+02  0.7914001E+02  0.0000000E+00
Ar  2101  0.1400290E+02  0.2933432E+02  0.8322528E+02  0.0000000E+00
Ar  2102  0.1688765E+02  0.3160065E+02  0.8282330E+02  0.0000000E+00
Ar  2103  0.1676530E+02  0.2876599E+02  0.1179283E+01  0.0000000E+00
Ar  2104  0.1396091E+02  0.3189728E+02  0.1447147E+01  0.0000000E+00
Ar  2105  0.1408879E+02  0.2889174E+02  0.4286386E+01  0.0000000E+00
Ar  2106  0.1729671E+02  0.3133161E+02  0.3681190E+01  0.0000000E+00
Ar  2107  0.1672063E+02  0.2897712E+02  0.6897801E+01  0.0000000E+00
Ar  2108  0.1341063E+02  0.3163495E+02  0.7148997E+01  0.0000000E+00
Ar  2109  0.1435905E+02  0.2915164E+02  0.9599865E+01  0.0000000E+00
Ar  2110  0.1656089E+02  0.3186044E+02  0.9569533E+01  0.0000000E+00
Ar  2111  0.1697783E+02  0.2843197E+02  0.1260855E+02  0.0000000E+00
Ar  2112  0.1410590E+02  0.3158669E+02  0.1215480E+02  0.0000000E+00
Ar  2113  0.1448407E+02  0.2879046E+02  0.1477885E+02  0.0000000E+00
Ar  2114  0.1658466E+02  0.3142837E+02  0.1516705E+02  0.0000000E+00
Ar  2115  0.1611507E+02  0.2915904E+02  0.1793732E+02  0.0000000E+00
Ar  2116  0.1396154E+02  0.3159283E+02  0.1887369E+02  0.0000000E+00
Ar  2117  0.1381738E+02  0.2859679E+02  0.2174574E+02  0.0000000E+00
Ar  2118  0.1663123E+02  0.3151424E+02  0.2185110E+02  0.0000000E+00
Ar  2119  0.1693604E+02  0.2825590E+02  0.2442297E+02  0.0000000E+00
Ar  2120  0.1368135E+02  0.3193373E+02  0.2421041E+02  0.0000000E+00
Ar  2121  0.1390387E+02  0.2878398E+02  0.2683361E+02  0.0000000E+00
Ar  2122  0.1651103E+02  0.3183048E+02  0.2696522E+02  0.0000000E+00
Ar  2123  0.1656690E+02  0.2900825E+02  0.2930467E+02  0.0000000E+00
Ar  2124  0.1288195E+02  0.3193963E+02  0.2900937E+02  0.0000000E+00
Ar  2125  0.1369455E+02  0.2951577E+02  0.3175081E+02  0.0000000E+00
Ar  2126  0.1673191E+02  0.3157418E+02  0.3229319E+02  0.0000000E+00
Ar  2127  0.1636517E+02  0.2928368E+02  0.3544211E+02  0.0000000E+00
Ar  2128  0.1336506E+02  0.3121641E+02  0.3499439E+02  0.0000000E+00
Ar  2129  0.1338631E+02  0.2883397E+02  0.3794707E+02  0.0000000E+00
Ar  2130  0.1591952E+02  0.3146216E+02  0.3811374E+02  0.0000000E+00
Ar  2131  0.1625594E+02  0.2864891E+02  0.4007095E+02  0.0000000E+00
Ar  2132  0.1370963E+02  0.3200061E+02  0.4079986E+02  0.0000000E+00
Ar  2133  0.1380470E+02  0.2882812E+02  0.4290308E+02  0.0000000E+00
Ar  2134  0.1656170E+02  0.3061489E+02  0.4321498E+02  0.0000000E+00
Ar  2135  0.1605567E+02  0.2894868E+02  0.4671212E+02  0.0000000E+00
Ar  2136  0.1310362E+02  0.3154244E+02  0.4699382E+02  0.0000000E+00
Ar  2137  0.1387787E+02  0.2885473E+02  0.4990475E+02  0.0000000E+00
Ar  2138  0.1691050E+02  0.3149165E+02  0.4953982E+02  0.0000000E+00
Ar  2139  0.1665044E+02  0.2896003E+02  0.5229065E+02  0.0000000E+00
Ar  2140  0.1432195E+02  0.3225936E+02  0.5224107E+02  0.0000000E+00
Ar  2141  0.1425424E+02  0.2930889E+02  0.5476216E+02  0.0000000E+00
Ar  2142  0.1694179E+02  0.3175454E+02  0.5464199E+02  0.0000000E+00
Ar  2143  0.1639239E+02  0.2939948E+02  0.5755191E+02  0.0000000E+00
Ar  2144  0.1391876E+02  0.3178907E+02  0.5775806E+02  0.0000000E+00
Ar  2145  0.1398140E+02  0.2918857E+02  0.6038541E+02  0.0000000E+00
Ar  2146  0.1658766E+02  0.3185497E+02  0.6056054E+02  0.0000000E+00
Ar  2147  0.1656480E+02  0.2855162E+02  0.6340811E+02  0.0000000E+00
Ar  2148  0.1428877E+02  0.3138033E+02  0.6359526E+02  0.0000000E+00
Ar  2149  0.1385093E+02  0.2869096E+02  0.6618802E+02  0.0000000E+00
Ar  2150  0.1747667E+02  0.3173632E+02  0.6589095E+02  0.0000000E+00
Ar  2151  0.1697904E+02  0.2935989E+02  0.6847382E+02  0.0000000E+00
Ar  2152  0.1413871E+02  0.3189518E+02  0.6799974E+02  0.0000000E+00
Ar  2153  0.1404555E+02  0.2961653E+02  0.7105569E+02  0.0000000E+00
Ar  2154  0.1685954E+02  0.3156840E+02  0.7118480E+02  0.0000000E+00
Ar  2155  0.1709811E+02  0.2921752E+02  0.7475840E+02  0.0000000E+00
Ar  2156  0.1423327E+02  0.3184563E+02  0.7400071E+02  0.0000000E+00
Ar  2157  0.1405040E+02  0.2895250E+02  0.7749335E+02  0.0000000E+00
Ar  2158  0.1699693E+02  0.3203762E+02  0.7696010E+02  0.0000000E+00
Ar  2159  0.1631413E+02  0.2807819E+02  0.8034530E+02  0.0000000E+00
Ar  2160  0.1448668E+02  0.3198725E+02  0.7985118E+02  0.0000000E+00
Ar  2161  0.1377931E+02  0.3428858E+02  0.8262662E+02  0.0000000E+00
Ar  2162  0.1731475E+02  0.3689503E+02  0.8249302E+02  0.0000000E+00
Ar  2163  0.1701568E+02  0.3449948E+02  0.1237726E+01  0.0000000E+00
Ar  2164  0.1457310E+02  0.3692177E+02  0.1302372E+01  0.0000000E+00
Ar  2165  0.1412443E+02  0.3463344E+02  0.4216298E+01  0.0000000E+00
Ar  2166  0.1669519E+02  0.3746838E+02  0.4090533E+01  0.0000000E+00
Ar  2167  0.1693484E+02  0.3413783E+02  0.6862462E+01  0.0000000E+00
Ar  2168  0.1389282E+02  0.3716010E+02  0.7354490E+01  0.0000000E+00
Ar  2169  0.1408002E+02  0.3426093E+02  0.9380917E+01  0.0000000E+00
Ar  2170  0.1700846E+02  0.3696414E+02  0.1033026E+02  0.0000000E+00
Ar  2171  0.1664634E+02  0.3417811E+02  0.1246053E+02  0.0000000E+00
Ar  2172  0.1363963E+02  0.3782574E+02  0.1253036E+02  0.0000000E+00
Ar  2173  0.1420598E+02  0.3419823E+02  0.1503899E+02  0.0000000E+00
Ar  2174  0.1660250E+02  0.3711386E+02  0.1536943E+02  0.0000000E+00
Ar  2175  0.1649690E+02  0.3475682E+02  0.1847199E+02  0.0000000E+00
Ar  2176  0.1460228E+02  0.3799636E+02  0.1805928E+02  0.0000000E+00
Ar  2177  0.1394911E+02  0.3482954E+02  0.2128933E+02  0.0000000E+00
Ar  2178  0.1684921E+02  0.3748830E+02  0.2135269E+02  0.0000000E+00
Ar  2179  0.1683163E+02  0.3427259E+02  0.2416491E+02  0.0000000E+00
Ar  2180  0.1410259E+02  0.3815002E+02  0.2373084E+02  0.0000000E+00
Ar  2181  0.1402733E+02  0.3493883E+02  0.2667114E+02  0.0000000E+00
Ar  2182  0.1666632E+02  0.3792207E+02  0.2698466E+02  0.0000000E+00
Ar  2183  0.1687044E+02  0.3450432E+02  0.2973210E+02  0.0000000E+00
Ar  2184  0.1364288E+02  0.3688018E+02  0.2984008E+02  0.0000000E+00
Ar  2185  0.1394998E+02  0.3399035E+02  0.3199622E+02  0.0000000E+00
Ar  2186  0.1656689E+02  0.3744919E+02  0.3249596E+02  0.0000000E+00
Ar  2187  0.1648039E+02  0.3384777E+02  0.3534343E+02  0.0000000E+00
Ar  2188  0.1401726E+02  0.3715725E+02  0.3518741E+02  0.0000000E+00
Ar  2189  0.1377564E+02  0.3445587E+02  0.3765450E+02  0.0000000E+00
Ar  2190  0.1694718E+02  0.3695060E+02  0.3769531E+02  0.0000000E+00
Ar  2191  0.1647220E+02  0.3471991E+02  0.4031132E+02  0.0000000E+00
Ar  2192  0.1345572E+02  0.3701084E+02  0.4083417E+02  0.0000000E+00
Ar  2193  0.1377044E+02  0.3428334E+02  0.4384222E+02  0.0000000E+00
Ar  2194  0.1647771E+02  0.3716426E+02  0.4278439E+02  0.0000000E+00
Ar  2195  0.1592826E+02  0.3353082E+02  0.4670002E+02  0.0000000E+00
Ar  2196  0.1427542E+02  0.3717275E+02  0.4612964E+02  0.0000000E+00
Ar  2197  0.1350349E+02  0.3492902E+02  0.4949185E+02  0.0000000E+00
Ar  2198  0.1715057E+02  0.3668866E+02  0.4935305E+02  0.0000000E+00
Ar  2199  0.1810193E+02  0.3424849E+02  0.5180230E+02  0.0000000E+00
Ar  2200  0.1514927E+02  0.3818911E+02  0.5189424E+02  0.0000000E+00
Ar  2201  0.1393403E+02  0.3470076E+02  0.5483890E+02  0.0000000E+00
Ar  2202  0.1669777E+02  0.3746991E+02  0.5507546E+02  0.0000000E+00
Ar  2203  0.1665174E+02  0.3388387E+02  0.5788650E+02  0.0000000E+00
Ar  2204  0.1436044E+02  0.3693779E+02  0.5752441E+02  0.0000000E+00
Ar  2205  0.1429733E+02  0.3437764E+02  0.6077111E+02  0.0000000E+00
Ar  2206  0.1713135E+02  0.3702734E+02  0.6027681E+02  0.0000000E+00
Ar  2207  0.1687806E+02  0.3460181E+02  0.6331452E+02  0.0000000E+00
Ar  2208  0.1407630E+02  0.3724666E+02  0.6313856E+02  0.0000000E+00
Ar  2209  0.1419920E+02  0.3452111E+02  0.6573413E+02  0.0000000E+00
Ar  2210  0.1674697E+02  0.3687381E+02  0.6624296E+02  0.0000000E+00
Ar  2211  0.1750971E+02  0.3385582E+02  0.6865771E+02  0.0000000E+00
Ar  2212  0.1428763E+02  0.3740217E+02  0.6903808E+02  0.0000000E+00
Ar  2213  0.1425059E+02  0.3421549E+02  0.7101008E+02  0.0000000E+00
Ar  2214  0.1705563E+02  0.3690622E+02  0.7126445E+02  0.0000000E+00
Ar  2215  0.1750181E+02  0.3517079E+02  0.7437925E+02  0.0000000E+00
Ar  2216  0.1419344E+02  0.3679453E+02  0.7409724E+02  0.0000000E+00
Ar  2217  0.1416021E+02  0.3414117E+02  0.7652410E+02  0.0000000E+00
Ar  2218  0.1714060E+02  0.3709221E+02  0.7733483E+02  0.0000000E+00
Ar  2219  0.1754253E+02  0.3438724E+02  0.8021509E+02  0.0000000E+00
Ar  2220  0.1417351E+02  0.3701278E+02  0.8004787E+02  0.0000000E+00
Ar  2221  0.1477488E+02  0.3957411E+02  0.8239050E+02  0.0000000E+00
Ar  2222  0.1702584E+02  0.4292116E+02  0.8282500E+02  0.0000000E+00
Ar  2223  0.1621959E+02  0.4001016E+02  0.1630439E+01  0.0000000E+00
Ar  2224  0.1426837E+02  0.4292178E+02  0.7668139E+00  0.0000000E+00
Ar  2225  0.1446960E+02  0.4037006E+02  0.4853053E+01  0.0000000E+00
Ar  2226  0.1668591E+02  0.4307849E+02  0.4469046E+01  0.0000000E+00
Ar  2227  0.1658774E+02  0.3999456E+02  0.7669037E+01  0.0000000E+00
Ar  2228  0.1373940E+02  0.4294999E+02  0.7393293E+01  0.0000000E+00
Ar  2229  0.1436338E+02  0.4041756E+02  0.1006019E+02  0.0000000E+00
Ar  2230  0.1641207E+02  0.4318571E+02  0.9848883E+01  0.0000000E+00
Ar  2231  0.1653163E+02  0.4022669E+02  0.1280951E+02  0.0000000E+00
Ar  2232  0.1345367E+02  0.4299179E+02  0.1242732E+02  0.0000000E+00
Ar  2233  0.1378194E+02  0.4042606E+02  0.1554065E+02  0.0000000E+00
Ar  2234  0.1606149E+02  0.4300571E+02  0.1528092E+02  0.0000000E+00
Ar  2235  0.1769745E+02  0.3934239E+02  0.1802809E+02  0.0000000E+00
Ar  2236  0.1339753E+02  0.4281633E+02  0.1839876E+02  0.0000000E+00
Ar  2237  0.1355086E+02  0.4017723E+02  0.2114570E+02  0.0000000E+00
Ar  2238  0.1691440E+02  0.4243547E+02  0.2080187E+02  0.0000000E+00
Ar  2239  0.1682707E+02  0.4050744E+02  0.2403488E+02  0.0000000E+00
Ar  2240  0.1372623E+02  0.4257221E+02  0.2396639E+02  0.0000000E+00
Ar  2241  0.1366800E+02  0.4051363E+02  0.2661040E+02  0.0000000E+00
Ar  2242  0.1650836E+02  0.4233716E+02  0.2683143E+02  0.0000000E+00
Ar  2243  0.1656743E+02  0.3982637E+02  0.2996676E+02  0.0000000E+00
Ar  2244  0.1371871E+02  0.4250187E+02  0.2964046E+02  0.0000000E+00
Ar  2245  0.1391825E+02  0.4002282E+02  0.3238808E+02  0.0000000E+00
Ar  2246  0.1653944E+02  0.4265583E+02  0.3248465E+02  0.0000000E+00
Ar  2247  0.1604590E+02  0.4013863E+02  0.3500841E+02  0.0000000E+00
Ar  2248  0.1353498E+02  0.4320172E+02  0.3511648E+02  0.0000000E+00
Ar  2249  0.1424744E+02  0.3999487E+02  0.3850736E+02  0.0000000E+00
Ar  2250  0.1649766E+02  0.4259888E+02  0.3758596E+02  0.0000000E+00
Ar  2251  0.1679446E+02  0.4045624E+02  0.4070111E+02  0.0000000E+00
Ar  2252  0.1398091E+02  0.4305939E+02  0.4094727E+02  0.0000000E+00
Ar  2253  0.1377563E+02  0.4000446E+02  0.4318304E+02  0.0000000E+00
Ar  2254  0.1725448E+02  0.4270480E+02  0.4376334E+02  0.0000000E+00
Ar  2255  0.1661345E+02  0.3993521E+02  0.4609273E+02  0.0000000E+00
Ar  2256  0.1450525E+02  0.4284466E+02  0.4641690E+02  0.0000000E+00
Ar  2257  0.1348925E+02  0.3993120E+02  0.4867443E+02  0.0000000E+00
Ar  2258  0.1723593E+02  0.4255194E+02  0.4894596E+02  0.0000000E+00
Ar  2259  0.1776293E+02  0.4071281E+02  0.5264130E+02  0.0000000E+00
Ar  2260  0.1391451E+02  0.4261979E+02  0.5231488E+02  0.0000000E+00
Ar  2261  0.1456534E+02  0.4060448E+02  0.5497221E+02  0.0000000E+00
Ar  2262  0.1728425E+02  0.4262682E+02  0.5560297E+02  0.0000000E+00
Ar  2263  0.1738066E+02  0.3983226E+02  0.5793671E+02  0.0000000E+00
Ar  2264  0.1426135E+02  0.4205627E+02  0.5817544E+02  0.0000000E+00
Ar  2265  0.1456287E+02  0.3961333E+02  0.6048028E+02  0.0000000E+00
Ar  2266  0.1763726E+02  0.4209573E+02  0.6090829E+02  0.0000000E+00
Ar  2267  0.1743050E+02  0.3962019E+02  0.6438455E+02  0.0000000E+00
Ar  2268  0.1443515E+02  0.4234330E+02  0.6363248E+02  0.0000000E+00
Ar  2269  0.1395707E+02  0.3940480E+02  0.6598345E+02  0.0000000E+00
Ar  2270  0.1716232E+02  0.4260997E+02  0.6647191E+02  0.0000000E+00
Ar  2271  0.1725542E+02  0.3980616E+02  0.6883111E+02  0.0000000E+00
Ar  2272  0.1435842E+02  0.4176856E+02  0.6888856E+02  0.0000000E+00
Ar  2273  0.1418614E+02  0.3975845E+02  0.7174666E+02  0.0000000E+00
Ar  2274  0.1670811E+02  0.4222568E+02  0.7204292E+02  0.0000000E+00
Ar  2275  0.1705731E+02  0.3975899E+02  0.7471584E+02  0.0000000E+00
Ar  2276  0.1401636E+02  0.4267153E+02  0.7467373E+02  0.0000000E+00
Ar  2277  0.1470618E+02  0.3969091E+02  0.7759531E+02  0.0000000E+00
Ar  2278  0.1717599E+02  0.4298872E+02  0.7799323E+02  0.0000000E+00
Ar  2279  0.1801406E+02  0.3982648E+02  0.8061592E+02  0.0000000E+00
Ar  2280  0.1427456E+02  0.4313933E+02  0.8027447E+02  0.0000000E+00
Ar  2281  0.1406646E+02  0.4552861E+02  0.8289528E+02  0.0000000E+00
Ar  2282  0.1727335E+02  0.4851494E+02  0.8284369E+02  0.0000000E+00
Ar  2283  0.1669520E+02  0.4549457E+02  0.1593702E+01  0.0000000E+00
Ar  2284  0.1414778E+02  0.4810458E+02  0.1347607E+01  0.0000000E+00
Ar  2285  0.1403352E+02  0.4635187E+02  0.4284004E+01  0.0000000E+00
Ar  2286  0.1794820E+02  0.4787344E+02  0.4143811E+01  0.0000000E+00
Ar  2287  0.1644286E+02  0.4601264E+02  0.7059293E+01  0.0000000E+00
Ar  2288  0.1355597E+02  0.4793813E+02  0.7324625E+01  0.0000000E+00
Ar  2289  0.1320215E+02  0.4568553E+02  0.9753449E+01  0.0000000E+00
Ar  2290  0.1685790E+02  0.4794441E+02  0.1016874E+02  0.0000000E+00
Ar  2291  0.1617944E+02  0.4540982E+02  0.1283312E+02  0.0000000E+00
Ar  2292  0.1412435E+02  0.4863826E+02  0.1285374E+02  0.0000000E+00
Ar  2293  0.1330312E+02  0.4576216E+02  0.1575711E+02  0.0000000E+00
Ar  2294  0.1650645E+02  0.4845194E+02  0.1554126E+02  0.0000000E+00
Ar  2295  0.1649836E+02  0.4566769E+02  0.1793669E+02  0.0000000E+00
Ar  2296  0.1404209E+02  0.4845496E+02  0.1812357E+02  0.0000000E+00
Ar  2297  0.1365292E+02  0.4539343E+02  0.2093492E+02  0.0000000E+00
Ar  2298  0.1620576E+02  0.4853158E+02  0.2116620E+02  0.0000000E+00
Ar  2299  0.1654784E+02  0.4490713E+02  0.2373225E+02  0.0000000E+00
Ar  2300  0.1376038E+02  0.4798550E+02  0.2365832E+02  0.0000000E+00
Ar  2301  0.1347561E+02  0.4524618E+02  0.2641313E+02  0.0000000E+00
Ar  2302  0.1624399E+02  0.4843267E+02  0.2627580E+02  0.0000000E+00
Ar  2303  0.1661491E+02  0.4496319E+02  0.2928979E+02  0.0000000E+00
Ar  2304  0.1406294E+02  0.4849379E+02  0.2922378E+02  0.0000000E+00
Ar  2305  0.1326811E+02  0.4555446E+02  0.3225135E+02  0.0000000E+00
Ar  2306  0.1674728E+02  0.4828257E+02  0.3240222E+02  0.0000000E+00
Ar  2307  0.1666839E+02  0.4533552E+02  0.3486989E+02  0.0000000E+00
Ar  2308  0.1416321E+02  0.4846901E+02  0.3483311E+02  0.0000000E+00
Ar  2309  0.1427623E+02  0.4570175E+02  0.3808141E+02  0.0000000E+00
Ar  2310  0.1744618E+02  0.4806334E+02  0.3721475E+02  0.0000000E+00
Ar  2311  0.1732281E+02  0.4506869E+02  0.4010506E+02  0.0000000E+00
Ar  2312  0.1400286E+02  0.4896475E+02  0.4079585E+02  0.0000000E+00
Ar  2313  0.1470502E+02  0.4563359E+02  0.4360749E+02  0.0000000E+00
Ar  2314  0.1725552E+02  0.4844891E+02  0.4361691E+02  0.0000000E+00
Ar  2315  0.1734129E+02  0.4558456E+02  0.4643003E+02  0.0000000E+00
Ar  2316  0.1395397E+02  0.4878726E+02  0.4659515E+02  0.0000000E+00
Ar  2317  0.1482492E+02  0.4534256E+02  0.4914492E+02  0.0000000E+00
Ar  2318  0.1753271E+02  0.4821529E+02  0.4956977E+02  0.0000000E+00
Ar  2319  0.1701300E+02  0.4525748E+02  0.5173749E+02  0.0000000E+00
Ar  2320  0.1452094E+02  0.4769087E+02  0.5228321E+02  0.0000000E+00
Ar  2321  0.1511892E+02  0.4558425E+02  0.5503610E+02  0.0000000E+00
Ar  2322  0.1750972E+02  0.4827521E+02  0.5558365E+02  0.0000000E+00
Ar  2323  0.1707536E+02  0.4501805E+02  0.5835158E+02  0.0000000E+00
Ar  2324  0.1482660E+02  0.4776249E+02  0.5783238E+02  0.0000000E+00
Ar  2325  0.1499674E+02  0.4485338E+02  0.6104535E+02  0.0000000E+00
Ar  2326  0.1719695E+02  0.4771965E+02  0.6117769E+02  0.0000000E+00
Ar  2327  0.1749116E+02  0.4481088E+02  0.6340080E+02  0.0000000E+00
Ar  2328  0.1434330E+02  0.4763253E+02  0.6325007E+02  0.0000000E+00
Ar  2329  0.1400567E+02  0.4563592E+02  0.6640665E+02  0.0000000E+00
Ar  2330  0.1699056E+02  0.4826810E+02  0.6689984E+02  0.0000000E+00
Ar  2331  0.1639002E+02  0.4514311E+02  0.6952711E+02  0.0000000E+00
Ar  2332  0.1352459E+02  0.4817784E+02  0.6948137E+02  0.0000000E+00
Ar  2333  0.1420537E+02  0.4516653E+02  0.7213823E+02  0.0000000E+00
Ar  2334  0.1623895E+02  0.4862543E+02  0.7162938E+02  0.0000000E+00
Ar  2335  0.1655772E+02  0.4553284E+02  0.7472871E+02  0.0000000E+00
Ar  2336  0.1418089E+02  0.4834606E+02  0.7481124E+02  0.0000000E+00
Ar  2337  0.1431452E+02  0.4579875E+02  0.7731402E+02  0.0000000E+00
Ar  2338  0.1720122E+02  0.4877175E+02  0.7758237E+02  0.0000000E+00
Ar  2339  0.1692299E+02  0.4591308E+02  0.8030834E+02  0.0000000E+00
Ar  2340  0.1458105E+02  0.4858496E+02  0.8022612E+02  0.0000000E+00
Ar  2341  0.1455960E+02  0.5110845E+02  0.8277518E+02  0.0000000E+00
Ar  2342  0.1686939E+02  0.5380329E+02  0.8279730E+02  0.0000000E+00
Ar  2343  0.1685048E+02  0.5044106E+02  0.2087069E+01  0.0000000E+00
Ar  2344  0.1400155E+02  0.5353262E+02  0.1056977E+01  0.0000000E+00
Ar  2345  0.1287307E+02  0.5049962E+02  0.4661907E+01  0.0000000E+00
Ar  2346  0.1575938E+02  0.5348706E+02  0.4612127E+01  0.0000000E+00
Ar  2347  0.1633532E+02  0.5085873E+02  0.7480952E+01  0.0000000E+00
Ar  2348  0.1343965E+02  0.5332316E+02  0.7392587E+01  0.0000000E+00
Ar  2349  0.1366421E+02  0.5072313E+02  0.9735147E+01  0.0000000E+00
Ar  2350  0.1649633E+02  0.5320434E+02  0.1001460E+02  0.0000000E+00
Ar  2351  0.1671428E+02  0.5099260E+02  0.1293106E+02  0.0000000E+00
Ar  2352  0.1374184E+02  0.5321997E+02  0.1273408E+02  0.0000000E+00
Ar  2353  0.1377373E+02  0.5100272E+02  0.1513229E+02  0.0000000E+00
Ar  2354  0.1642216E+02  0.5347505E+02  0.1568632E+02  0.0000000E+00
Ar  2355  0.1617453E+02  0.5117598E+02  0.1828414E+02  0.0000000E+00
Ar  2356  0.1344789E+02  0.5374515E+02  0.1841264E+02  0.0000000E+00
Ar  2357  0.1300908E+02  0.5089005E+02  0.2073310E+02  0.0000000E+00
Ar  2358  0.1652688E+02  0.5370455E+02  0.2107886E+02  0.0000000E+00
Ar  2359  0.1574930E+02  0.5097863E+02  0.2363062E+02  0.0000000E+00
Ar  2360  0.1310715E+02  0.5355988E+02  0.2346050E+02  0.0000000E+00
Ar  2361  0.1398563E+02  0.5106488E+02  0.2623320E+02  0.0000000E+00
Ar  2362  0.1636449E+02  0.5403171E+02  0.2699091E+02  0.0000000E+00
Ar  2363  0.1697867E+02  0.5138816E+02  0.2935581E+02  0.0000000E+00
Ar  2364  0.1376104E+02  0.5337475E+02  0.2952582E+02  0.0000000E+00
Ar  2365  0.1411723E+02  0.5084491E+02  0.3202675E+02  0.0000000E+00
Ar  2366  0.1664970E+02  0.5420859E+02  0.3199157E+02  0.0000000E+00
Ar  2367  0.1659957E+02  0.5101664E+02  0.3549332E+02  0.0000000E+00
Ar  2368  0.1383416E+02  0.5390158E+02  0.3549960E+02  0.0000000E+00
Ar  2369  0.1347811E+02  0.5120840E+02  0.3775866E+02  0.0000000E+00
Ar  2370  0.1712550E+02  0.5409420E+02  0.3830771E+02  0.0000000E+00
Ar  2371  0.1700324E+02  0.5095763E+02  0.4013442E+02  0.0000000E+00
Ar  2372  0.1432877E+02  0.5351374E+02  0.4067223E+02  0.0000000E+00
Ar  2373  0.1499788E+02  0.5121879E+02  0.4388817E+02  0.0000000E+00
Ar  2374  0.1707345E+02  0.5421069E+02  0.4461117E+02  0.0000000E+00
Ar  2375  0.1761161E+02  0.5022859E+02  0.4667307E+02  0.0000000E+00
Ar  2376  0.1371231E+02  0.5402470E+02  0.4695725E+02  0.0000000E+00
Ar  2377  0.1443159E+02  0.5088725E+02  0.4979378E+02  0.0000000E+00
Ar  2378  0.1683940E+02  0.5360275E+02  0.4960412E+02  0.0000000E+00
Ar  2379  0.1737868E+02  0.5119144E+02  0.5241688E+02  0.0000000E+00
Ar  2380  0.1451203E+02  0.5423365E+02  0.5254730E+02  0.0000000E+00
Ar  2381  0.1478614E+02  0.5029072E+02  0.5489339E+02  0.0000000E+00
Ar  2382  0.1698119E+02  0.5354871E+02  0.5515974E+02  0.0000000E+00
Ar  2383  0.1699651E+02  0.5098785E+02  0.5778480E+02  0.0000000E+00
Ar  2384  0.1433621E+02  0.5370530E+02  0.5742862E+02  0.0000000E+00
Ar  2385  0.1430516E+02  0.5048597E+02  0.6111004E+02  0.0000000E+00
Ar  2386  0.1726160E+02  0.5319975E+02  0.6028091E+02  0.0000000E+00
Ar  2387  0.1711573E+02  0.5128207E+02  0.6298125E+02  0.0000000E+00
Ar  2388  0.1356412E+02  0.5389728E+02  0.6290390E+02  0.0000000E+00
Ar  2389  0.1376682E+02  0.5019051E+02  0.6655464E+02  0.0000000E+00
Ar  2390  0.1607444E+02  0.5362795E+02  0.6584646E+02  0.0000000E+00
Ar  2391  0.1649441E+02  0.5132984E+02  0.6920544E+02  0.0000000E+00
Ar  2392  0.1350681E+02  0.5415748E+02  0.6900146E+02  0.0000000E+00
Ar  2393  0.1379575E+02  0.5100590E+02  0.7157762E+02  0.0000000E+00
Ar  2394  0.1645264E+02  0.5381474E+02  0.7217356E+02  0.0000000E+00
Ar  2395  0.1660087E+02  0.5115904E+02  0.7449915E+02  0.0000000E+00
Ar  2396  0.1408457E+02  0.5362637E+02  0.7505807E+02  0.0000000E+00
Ar  2397  0.1386328E+02  0.5108473E+02  0.7742805E+02  0.0000000E+00
Ar  2398  0.1714964E+02  0.5411103E+02  0.7775888E+02  0.0000000E+00
Ar  2399  0.1704014E+02  0.5107036E+02  0.8028084E+02  0.0000000E+00
Ar  2400  0.1415133E+02  0.5381150E+02  0.8031400E+02  0.0000000E+00
Ar  2401  0.1393278E+02  0.5671840E+02  0.8306603E+02  0.0000000E+00
Ar  2402  0.1634774E+02  0.5964754E+02  0.8332240E+02  0.0000000E+00
Ar  2403  0.1658975E+02  0.5661370E+02  0.1838354E+01  0.0000000E+00
Ar  2404  0.1413357E+02  0.5913252E+02  0.1708856E+01  0.0000000E+00
Ar  2405  0.1340680E+02  0.5650567E+02  0.4416239E+01  0.0000000E+00
Ar  2406  0.1715007E+02  0.5934804E+02  0.4323865E+01  0.0000000E+00
Ar  2407  0.1673602E+02  0.5649700E+02  0.6239880E+01  0.0000000E+00
Ar  2408  0.1466047E+02  0.5922467E+02  0.7074624E+01  0.0000000E+00
Ar  2409  0.1406703E+02  0.5625943E+02  0.9563757E+01  0.0000000E+00
Ar  2410  0.1689471E+02  0.5938321E+02  0.9542065E+01  0.0000000E+00
Ar  2411  0.1736957E+02  0.5600200E+02  0.1299561E+02  0.0000000E+00
Ar  2412  0.1432335E+02  0.5907008E+02  0.1242010E+02  0.0000000E+00
Ar  2413  0.1371284E+02  0.5652510E+02  0.1540660E+02  0.0000000E+00
Ar  2414  0.1613203E+02  0.5947457E+02  0.1582587E+02  0.0000000E+00
Ar  2415  0.1663236E+02  0.5665986E+02  0.1845562E+02  0.0000000E+00
Ar  2416  0.1364118E+02  0.5912006E+02  0.1832921E+02  0.0000000E+00
Ar  2417  0.1411979E+02  0.5669437E+02  0.2112473E+02  0.0000000E+00
Ar  2418  0.1684309E+02  0.5938365E+02  0.2101487E+02  0.0000000E+00
Ar  2419  0.1642147E+02  0.5633073E+02  0.2393107E+02  0.0000000E+00
Ar  2420  0.1380444E+02  0.5910818E+02  0.2388234E+02  0.0000000E+00
Ar  2421  0.1375154E+02  0.5676786E+02  0.2669633E+02  0.0000000E+00
Ar  2422  0.1680422E+02  0.5913783E+02  0.2743025E+02  0.0000000E+00
Ar  2423  0.1788134E+02  0.5649498E+02  0.2954573E+02  0.0000000E+00
Ar  2424  0.1346924E+02  0.5892264E+02  0.2944887E+02  0.0000000E+00
Ar  2425  0.1380504E+02  0.5629096E+02  0.3184827E+02  0.0000000E+00
Ar  2426  0.1643426E+02  0.5858274E+02  0.3163479E+02  0.0000000E+00
Ar  2427  0.1626890E+02  0.5630348E+02  0.3481179E+02  0.0000000E+00
Ar  2428  0.1429205E+02  0.5918374E+02  0.3530479E+02  0.0000000E+00
Ar  2429  0.1416755E+02  0.5687149E+02  0.3804833E+02  0.0000000E+00
Ar  2430  0.1723123E+02  0.5891977E+02  0.3810108E+02  0.0000000E+00
Ar  2431  0.1776724E+02  0.5653148E+02  0.4104124E+02  0.0000000E+00
Ar  2432  0.1398927E+02  0.5910807E+02  0.4142924E+02  0.0000000E+00
Ar  2433  0.1373083E+02  0.5582840E+02  0.4367959E+02  0.0000000E+00
Ar  2434  0.1721704E+02  0.5924114E+02  0.4345641E+02  0.0000000E+00
Ar  2435  0.1690252E+02  0.5676728E+02  0.4713396E+02  0.0000000E+00
Ar  2436  0.1389906E+02  0.5877738E+02  0.4603664E+02  0.0000000E+00
Ar  2437  0.1467164E+02  0.5635625E+02  0.4991440E+02  0.0000000E+00
Ar  2438  0.1690584E+02  0.6042593E+02  0.4853709E+02  0.0000000E+00
Ar  2439  0.1726219E+02  0.5640569E+02  0.5271043E+02  0.0000000E+00
Ar  2440  0.1439479E+02  0.6000893E+02  0.5129292E+02  0.0000000E+00
Ar  2441  0.1414376E+02  0.5748273E+02  0.5459943E+02  0.0000000E+00
Ar  2442  0.1704818E+02  0.5979737E+02  0.5517098E+02  0.0000000E+00
Ar  2443  0.1685071E+02  0.5663515E+02  0.5769277E+02  0.0000000E+00
Ar  2444  0.1395412E+02  0.5961775E+02  0.5807841E+02  0.0000000E+00
Ar  2445  0.1370157E+02  0.5646889E+02  0.6055006E+02  0.0000000E+00
Ar  2446  0.1675204E+02  0.5902450E+02  0.6025837E+02  0.0000000E+00
Ar  2447  0.1630318E+02  0.5631203E+02  0.6329024E+02  0.0000000E+00
Ar  2448  0.1354877E+02  0.5919153E+02  0.6260961E+02  0.0000000E+00
Ar  2449  0.1360882E+02  0.5643059E+02  0.6582710E+02  0.0000000E+00
Ar  2450  0.1627821E+02  0.5909213E+02  0.6557311E+02  0.0000000E+00
Ar  2451  0.1638626E+02  0.5615240E+02  0.6875473E+02  0.0000000E+00
Ar  2452  0.1438121E+02  0.5922779E+02  0.6876119E+02  0.0000000E+00
Ar  2453  0.1420998E+02  0.5684238E+02  0.7178305E+02  0.0000000E+00
Ar  2454  0.1697368E+02  0.5971484E+02  0.7147926E+02  0.0000000E+00
Ar  2455  0.1654205E+02  0.5697586E+02  0.7428537E+02  0.0000000E+00
Ar  2456  0.1390782E+02  0.5920576E+02  0.7435421E+02  0.0000000E+00
Ar  2457  0.1404195E+02  0.5660282E+02  0.7756918E+02  0.0000000E+00
Ar  2458  0.1656187E+02  0.5933229E+02  0.7714650E+02  0.0000000E+00
Ar  2459  0.1713181E+02  0.5685054E+02  0.8058200E+02  0.0000000E+00
Ar  2460  0.1410902E+02  0.5987532E+02  0.8043309E+02  0.0000000E+00
Ar  2461  0.1341952E+02  0.6189539E+02  0.8335196E+02  0.0000000E+00
Ar  2462  0.1691729E+02  0.6611140E+02  0.8337821E+02  0.0000000E+00
Ar  2463  0.1722230E+02  0.6248337E+02  0.1815843E+01  0.0000000E+00
Ar  2464  0.1401184E+02  0.6499772E+02  0.1620524E+01  0.0000000E+00
Ar  2465  0.1385091E+02  0.6207547E+02  0.4219158E+01  0.0000000E+00
Ar  2466  0.1697804E+02  0.6482902E+02  0.4576252E+01  0.0000000E+00
Ar  2467  0.1644291E+02  0.6250823E+02  0.7650520E+01  0.0000000E+00
Ar  2468  0.1348898E+02  0.6515481E+02  0.7331343E+01  0.0000000E+00
Ar  2469  0.1362700E+02  0.6210237E+02  0.9766179E+01  0.0000000E+00
Ar  2470  0.1678960E+02  0.6513760E+02  0.1039601E+02  0.0000000E+00
Ar  2471  0.1685275E+02  0.6223276E+02  0.1271262E+02  0.0000000E+00
Ar  2472  0.1436065E+02  0.6523150E+02  0.1312175E+02  0.0000000E+00
Ar  2473  0.1409803E+02  0.6228136E+02  0.1482346E+02  0.0000000E+00
Ar  2474  0.1716812E+02  0.6428936E+02  0.1555735E+02  0.0000000E+00
Ar  2475  0.1679329E+02  0.6221508E+02  0.1845186E+02  0.0000000E+00
Ar  2476  0.1400439E+02  0.6482697E+02  0.1760748E+02  0.0000000E+00
Ar  2477  0.1401840E+02  0.6200933E+02  0.2079944E+02  0.0000000E+00
Ar  2478  0.1686106E+02  0.6493619E+02  0.2118523E+02  0.0000000E+00
Ar  2479  0.1615427E+02  0.6184009E+02  0.2380534E+02  0.0000000E+00
Ar  2480  0.1381207E+02  0.6494525E+02  0.2334648E+02  0.0000000E+00
Ar  2481  0.1366007E+02  0.6195190E+02  0.2649473E+02  0.0000000E+00
Ar  2482  0.1625286E+02  0.6491072E+02  0.2678042E+02  0.0000000E+00
Ar  2483  0.1575095E+02  0.6186476E+02  0.2931056E+02  0.0000000E+00
Ar  2484  0.1340727E+02  0.6530588E+02  0.2944475E+02  0.0000000E+00
Ar  2485  0.1350757E+02  0.6166283E+02  0.3245450E+02  0.0000000E+00
Ar  2486  0.1626208E+02  0.6458787E+02  0.3182257E+02  0.0000000E+00
Ar  2487  0.1663636E+02  0.6228539E+02  0.3538109E+02  0.0000000E+00
Ar  2488  0.1372385E+02  0.6453220E+02  0.3569507E+02  0.0000000E+00
Ar  2489  0.1381434E+02  0.6200708E+02  0.3783956E+02  0.0000000E+00
Ar  2490  0.1623995E+02  0.6551312E+02  0.3823180E+02  0.0000000E+00
Ar  2491  0.1701638E+02  0.6160142E+02  0.4049920E+02  0.0000000E+00
Ar  2492  0.1369099E+02  0.6523578E+02  0.4054699E+02  0.0000000E+00
Ar  2493  0.1367402E+02  0.6240505E+02  0.4380420E+02  0.0000000E+00
Ar  2494  0.1676419E+02  0.6450173E+02  0.4239071E+02  0.0000000E+00
Ar  2495  0.1694536E+02  0.6260645E+02  0.4571290E+02  0.0000000E+00
Ar  2496  0.1333086E+02  0.6545226E+02  0.4604143E+02  0.0000000E+00
Ar  2497  0.1379359E+02  0.6280722E+02  0.4900273E+02  0.0000000E+00
Ar  2498  0.1666658E+02  0.6521664E+02  0.4901626E+02  0.0000000E+00
Ar  2499  0.1686195E+02  0.6242700E+02  0.5235407E+02  0.0000000E+00
Ar  2500  0.1416659E+02  0.6524717E+02  0.5181865E+02  0.0000000E+00
Ar  2501  0.1402984E+02  0.6260111E+02  0.5481257E+02  0.0000000E+00
Ar  2502  0.1684787E+02  0.6465301E+02  0.5505479E+02  0.0000000E+00
Ar  2503  0.1708534E+02  0.6194332E+02  0.5817285E+02  0.0000000E+00
Ar  2504  0.1445214E+02  0.6546602E+02  0.5747109E+02  0.0000000E+00
Ar  2505  0.1401311E+02  0.6224270E+02  0.6012148E+02  0.0000000E+00
Ar  2506  0.1692464E+02  0.6488475E+02  0.6032115E+02  0.0000000E+00
Ar  2507  0.1624962E+02  0.6189241E+02  0.6289628E+02  0.0000000E+00
Ar  2508  0.1362214E+02  0.6495910E+02  0.6338248E+02  0.0000000E+00
Ar  2509  0.1413687E+02  0.6199613E+02  0.6575589E+02  0.0000000E+00
Ar  2510  0.1667951E+02  0.6467210E+02  0.6573262E+02  0.0000000E+00
Ar  2511  0.1663745E+02  0.6239940E+02  0.6845774E+02  0.0000000E+00
Ar  2512  0.1418084E+02  0.6518975E+02  0.6792189E+02  0.0000000E+00
Ar  2513  0.1390226E+02  0.6202169E+02  0.7129070E+02  0.0000000E+00
Ar  2514  0.1696321E+02  0.6433308E+02  0.7143792E+02  0.0000000E+00
Ar  2515  0.1739700E+02  0.6156541E+02  0.7448110E+02  0.0000000E+00
Ar  2516  0.1449335E+02  0.6531895E+02  0.7449459E+02  0.0000000E+00
Ar  2517  0.1447180E+02  0.6232354E+02  0.7744735E+02  0.0000000E+00
Ar  2518  0.1660101E+02  0.6513177E+02  0.7756989E+02  0.0000000E+00
Ar  2519  0.1652964E+02  0.6277633E+02  0.8078269E+02  0.0000000E+00
Ar  2520  0.1363793E+02  0.6553666E+02  0.8050138E+02  0.0000000E+00
Ar  2521  0.1408933E+02  0.6826134E+02  0.8359965E+02  0.0000000E+00
Ar  2522  0.1742834E+02  0.6974620E+02  0.8332111E+02  0.0000000E+00
Ar  2523  0.1703141E+02  0.6796663E+02  0.2606037E+01  0.0000000E+00
Ar  2524  0.1447459E+02  0.7104572E+02  0.1913526E+01  0.0000000E+00
Ar  2525  0.1403430E+02  0.6745414E+02  0.4417164E+01  0.0000000E+00
Ar  2526  0.1715806E+02  0.7086301E+02  0.4668176E+01  0.0000000E+00
Ar  2527  0.1696735E+02  0.6753548E+02  0.7285002E+01  0.0000000E+00
Ar  2528  0.1417682E+02  0.7026911E+02  0.7004613E+01  0.0000000E+00
Ar  2529  0.1366177E+02  0.6769545E+02  0.9792758E+01  0.0000000E+00
Ar  2530  0.1666461E+02  0.7081480E+02  0.1008304E+02  0.0000000E+00
Ar  2531  0.1656073E+02  0.6825892E+02  0.1270456E+02  0.0000000E+00
Ar  2532  0.1379998E+02  0.7076361E+02  0.1289174E+02  0.0000000E+00
Ar  2533  0.1400064E+02  0.6807442E+02  0.1573688E+02  0.0000000E+00
Ar  2534  0.1691732E+02  0.7068972E+02  0.1549027E+02  0.0000000E+00
Ar  2535  0.1670283E+02  0.6798630E+02  0.1848060E+02  0.0000000E+00
Ar  2536  0.1379131E+02  0.7069450E+02  0.1860466E+02  0.0000000E+00
Ar  2537  0.1419381E+02  0.6774421E+02  0.2076801E+02  0.0000000E+00
Ar  2538  0.1666969E+02  0.7058365E+02  0.2153764E+02  0.0000000E+00
Ar  2539  0.1581206E+02  0.6789614E+02  0.2417638E+02  0.0000000E+00
Ar  2540  0.1344129E+02  0.7130245E+02  0.2364969E+02  0.0000000E+00
Ar  2541  0.1349116E+02  0.6798410E+02  0.2717192E+02  0.0000000E+00
Ar  2542  0.1580195E+02  0.7100039E+02  0.2621321E+02  0.0000000E+00
Ar  2543  0.1647901E+02  0.6771755E+02  0.2980850E+02  0.0000000E+00
Ar  2544  0.1363284E+02  0.7031872E+02  0.3018081E+02  0.0000000E+00
Ar  2545  0.1363606E+02  0.6737613E+02  0.3266257E+02  0.0000000E+00
Ar  2546  0.1625316E+02  0.7018657E+02  0.3245124E+02  0.0000000E+00
Ar  2547  0.1634012E+02  0.6808156E+02  0.3544716E+02  0.0000000E+00
Ar  2548  0.1392811E+02  0.7137984E+02  0.3560904E+02  0.0000000E+00
Ar  2549  0.1402511E+02  0.6824758E+02  0.3842678E+02  0.0000000E+00
Ar  2550  0.1671085E+02  0.7089600E+02  0.3782781E+02  0.0000000E+00
Ar  2551  0.1728485E+02  0.6834122E+02  0.4098461E+02  0.0000000E+00
Ar  2552  0.1377796E+02  0.7078762E+02  0.4095529E+02  0.0000000E+00
Ar  2553  0.1441459E+02  0.6799315E+02  0.4330076E+02  0.0000000E+00
Ar  2554  0.1648360E+02  0.7097945E+02  0.4364222E+02  0.0000000E+00
Ar  2555  0.1638145E+02  0.6819874E+02  0.4627048E+02  0.0000000E+00
Ar  2556  0.1363881E+02  0.7111985E+02  0.4628399E+02  0.0000000E+00
Ar  2557  0.1396468E+02  0.6791154E+02  0.4903507E+02  0.0000000E+00
Ar  2558  0.1630056E+02  0.7127100E+02  0.4921303E+02  0.0000000E+00
Ar  2559  0.1713969E+02  0.6791529E+02  0.5175415E+02  0.0000000E+00
Ar  2560  0.1447678E+02  0.7064925E+02  0.5236925E+02  0.0000000E+00
Ar  2561  0.1346139E+02  0.6807813E+02  0.5455186E+02  0.0000000E+00
Ar  2562  0.1717993E+02  0.7011001E+02  0.5515901E+02  0.0000000E+00
Ar  2563  0.1759626E+02  0.6736724E+02  0.5762329E+02  0.0000000E+00
Ar  2564  0.1408293E+02  0.7034693E+02  0.5770233E+02  0.0000000E+00
Ar  2565  0.1398685E+02  0.6773284E+02  0.6037950E+02  0.0000000E+00
Ar  2566  0.1696212E+02  0.7044816E+02  0.6025398E+02  0.0000000E+00
Ar  2567  0.1703958E+02  0.6800898E+02  0.6302291E+02  0.0000000E+00
Ar  2568  0.1416817E+02  0.7042837E+02  0.6273986E+02  0.0000000E+00
Ar  2569  0.1393889E+02  0.6821485E+02  0.6523657E+02  0.0000000E+00
Ar  2570  0.1694950E+02  0.7049748E+02  0.6610830E+02  0.0000000E+00
Ar  2571  0.1700436E+02  0.6764297E+02  0.6853960E+02  0.0000000E+00
Ar  2572  0.1432865E+02  0.6979863E+02  0.6890712E+02  0.0000000E+00
Ar  2573  0.1471293E+02  0.6718352E+02  0.7169550E+02  0.0000000E+00
Ar  2574  0.1658991E+02  0.7048948E+02  0.7141747E+02  0.0000000E+00
Ar  2575  0.1677755E+02  0.6825687E+02  0.7483372E+02  0.0000000E+00
Ar  2576  0.1401733E+02  0.7059757E+02  0.7403399E+02  0.0000000E+00
Ar  2577  0.1419222E+02  0.6814222E+02  0.7756658E+02  0.0000000E+00
Ar  2578  0.1656374E+02  0.7078796E+02  0.7730143E+02  0.0000000E+00
Ar  2579  0.1694889E+02  0.6770751E+02  0.8013259E+02  0.0000000E+00
Ar  2580  0.1393524E+02  0.6990130E+02  0.8052169E+02  0.0000000E+00
Ar  2581  0.1456988E+02  0.7326869E+02  0.8277727E+02  0.0000000E+00
Ar  2582  0.1683768E+02  0.7610412E+02  0.8253588E+02  0.0000000E+00
Ar  2583  0.1791667E+02  0.7367096E+02  0.2050186E+01  0.0000000E+00
Ar  2584  0.1458184E+02  0.7585679E+02  0.1149584E+01  0.0000000E+00
Ar  2585  0.1427302E+02  0.7346266E+02  0.4609145E+01  0.0000000E+00
Ar  2586  0.1663347E+02  0.7610023E+02  0.4296820E+01  0.0000000E+00
Ar  2587  0.1635652E+02  0.7340138E+02  0.7649247E+01  0.0000000E+00
Ar  2588  0.1405068E+02  0.7645786E+02  0.7449056E+01  0.0000000E+00
Ar  2589  0.1409432E+02  0.7336839E+02  0.1055260E+02  0.0000000E+00
Ar  2590  0.1644215E+02  0.7594685E+02  0.1052646E+02  0.0000000E+00
Ar  2591  0.1669994E+02  0.7330305E+02  0.1301713E+02  0.0000000E+00
Ar  2592  0.1406638E+02  0.7683658E+02  0.1280707E+02  0.0000000E+00
Ar  2593  0.1425583E+02  0.7391559E+02  0.1581475E+02  0.0000000E+00
Ar  2594  0.1695084E+02  0.7621946E+02  0.1575794E+02  0.0000000E+00
Ar  2595  0.1648519E+02  0.7407963E+02  0.1856218E+02  0.0000000E+00
Ar  2596  0.1408029E+02  0.7702036E+02  0.1856420E+02  0.0000000E+00
Ar  2597  0.1396701E+02  0.7436896E+02  0.2150880E+02  0.0000000E+00
Ar  2598  0.1716449E+02  0.7675630E+02  0.2155018E+02  0.0000000E+00
Ar  2599  0.1656165E+02  0.7351116E+02  0.2372961E+02  0.0000000E+00
Ar  2600  0.1378001E+02  0.7710635E+02  0.2381663E+02  0.0000000E+00
Ar  2601  0.1349591E+02  0.7375253E+02  0.2581420E+02  0.0000000E+00
Ar  2602  0.1708408E+02  0.7628835E+02  0.2561254E+02  0.0000000E+00
Ar  2603  0.1614573E+02  0.7353563E+02  0.2894978E+02  0.0000000E+00
Ar  2604  0.1393237E+02  0.7681320E+02  0.2935768E+02  0.0000000E+00
Ar  2605  0.1315523E+02  0.7359507E+02  0.3225566E+02  0.0000000E+00
Ar  2606  0.1676960E+02  0.7633256E+02  0.3162636E+02  0.0000000E+00
Ar  2607  0.1637060E+02  0.7367136E+02  0.3424127E+02  0.0000000E+00
Ar  2608  0.1308244E+02  0.7595941E+02  0.3533270E+02  0.0000000E+00
Ar  2609  0.1314446E+02  0.7364878E+02  0.3840062E+02  0.0000000E+00
Ar  2610  0.1643479E+02  0.7594848E+02  0.3794453E+02  0.0000000E+00
Ar  2611  0.1634877E+02  0.7327689E+02  0.4047042E+02  0.0000000E+00
Ar  2612  0.1364643E+02  0.7655612E+02  0.4065528E+02  0.0000000E+00
Ar  2613  0.1396565E+02  0.7396553E+02  0.4329079E+02  0.0000000E+00
Ar  2614  0.1718611E+02  0.7664970E+02  0.4298869E+02  0.0000000E+00
Ar  2615  0.1614338E+02  0.7385235E+02  0.4619304E+02  0.0000000E+00
Ar  2616  0.1307939E+02  0.7629121E+02  0.4662123E+02  0.0000000E+00
Ar  2617  0.1337824E+02  0.7322046E+02  0.4914746E+02  0.0000000E+00
Ar  2618  0.1607869E+02  0.7588794E+02  0.4908058E+02  0.0000000E+00
Ar  2619  0.1666484E+02  0.7355144E+02  0.5213905E+02  0.0000000E+00
Ar  2620  0.1351726E+02  0.7630796E+02  0.5183088E+02  0.0000000E+00
Ar  2621  0.1331439E+02  0.7370315E+02  0.5476600E+02  0.0000000E+00
Ar  2622  0.1663858E+02  0.7600305E+02  0.5449338E+02  0.0000000E+00
Ar  2623  0.1601957E+02  0.7347910E+02  0.5750359E+02  0.0000000E+00
Ar  2624  0.1305527E+02  0.7620317E+02  0.5748973E+02  0.0000000E+00
Ar  2625  0.1373268E+02  0.7326301E+02  0.6068950E+02  0.0000000E+00
Ar  2626  0.1659560E+02  0.7603430E+02  0.6053135E+02  0.0000000E+00
Ar  2627  0.1688705E+02  0.7351920E+02  0.6291584E+02  0.0000000E+00
Ar  2628  0.1376349E+02  0.7590438E+02  0.6351116E+02  0.0000000E+00
Ar  2629  0.1430089E+02  0.7280690E+02  0.6538238E+02  0.0000000E+00
Ar  2630  0.1663318E+02  0.7584003E+02  0.6575502E+02  0.0000000E+00
Ar  2631  0.1685907E+02  0.7284655E+02  0.6885957E+02  0.0000000E+00
Ar  2632  0.1400994E+02  0.7485294E+02  0.6816481E+02  0.0000000E+00
Ar  2633  0.1418117E+02  0.7360212E+02  0.7147125E+02  0.0000000E+00
Ar  2634  0.1711607E+02  0.7551408E+02  0.7136483E+02  0.0000000E+00
Ar  2635  0.1672028E+02  0.7331154E+02  0.7424341E+02  0.0000000E+00
Ar  2636  0.1438563E+02  0.7641178E+02  0.7433773E+02  0.0000000E+00
Ar  2637  0.1376375E+02  0.7321215E+02  0.7655327E+02  0.0000000E+00
Ar  2638  0.1692086E+02  0.7546479E+02  0.7714820E+02  0.0000000E+00
Ar  2639  0.1712110E+02  0.7335012E+02  0.8007786E+02  0.0000000E+00
Ar  2640  0.1408620E+02  0.7542774E+02  0.8011460E+02  0.0000000E+00
Ar  2641  0.1443536E+02  0.7860867E+02  0.8348376E+02  0.0000000E+00
Ar  2642  0.1631899E+02  0.8184543E+02  0.8291830E+02  0.0000000E+00
Ar  2643  0.1711388E+02  0.7863922E+02  0.1849545E+01  0.0000000E+00
Ar  2644  0.1469392E+02  0.8150067E+02  0.1647670E+01  0.0000000E+00
Ar  2645  0.1412221E+02  0.7868405E+02  0.4030641E+01  0.0000000E+00
Ar  2646  0.1657486E+02  0.8100502E+02  0.4744897E+01  0.0000000E+00
Ar  2647  0.1738423E+02  0.7897962E+02  0.7640467E+01  0.0000000E+00
Ar  2648  0.1405269E+02  0.8179881E+02  0.6997180E+01  0.0000000E+00
Ar  2649  0.1441497E+02  0.7939077E+02  0.9880696E+01  0.0000000E+00
Ar  2650  0.1750746E+02  0.8215790E+02  0.9682477E+01  0.0000000E+00
Ar  2651  0.1699606E+02  0.7914729E+02  0.1288176E+02  0.0000000E+00
Ar  2652  0.1383164E+02  0.8199098E+02  0.1287971E+02  0.0000000E+00
Ar  2653  0.1384036E+02  0.7950958E+02  0.1569143E+02  0.0000000E+00
Ar  2654  0.1681439E+02  0.8155444E+02  0.1571799E+02  0.0000000E+00
Ar  2655  0.1725786E+02  0.7947808E+02  0.1868080E+02  0.0000000E+00
Ar  2656  0.1395716E+02  0.8213135E+02  0.1876890E+02  0.0000000E+00
Ar  2657  0.1397598E+02  0.7956080E+02  0.2130681E+02  0.0000000E+00
Ar  2658  0.1683859E+02  0.8223024E+02  0.2155255E+02  0.0000000E+00
Ar  2659  0.1667341E+02  0.7950570E+02  0.2408347E+02  0.0000000E+00
Ar  2660  0.1398755E+02  0.8171262E+02  0.2402720E+02  0.0000000E+00
Ar  2661  0.1417545E+02  0.7929182E+02  0.2663620E+02  0.0000000E+00
Ar  2662  0.1683845E+02  0.8194401E+02  0.2694200E+02  0.0000000E+00
Ar  2663  0.1645096E+02  0.7938137E+02  0.2955310E+02  0.0000000E+00
Ar  2664  0.1639811E+02  0.8204409E+02  0.3224515E+02  0.0000000E+00
Ar  2665  0.1413424E+02  0.7931926E+02  0.3237667E+02  0.0000000E+00
Ar  2666  0.1411353E+02  0.8172722E+02  0.3485502E+02  0.0000000E+00
Ar  2667  0.1645678E+02  0.7842375E+02  0.3500285E+02  0.0000000E+00
Ar  2668  0.1122723E+02  0.8214414E+02  0.3236197E+02  0.0000000E+00
Ar  2669  0.1440603E+02  0.7906125E+02  0.3785076E+02  0.0000000E+00
Ar  2670  0.1696809E+02  0.8144455E+02  0.3735977E+02  0.0000000E+00
Ar  2671  0.1743822E+02  0.7885933E+02  0.4014477E+02  0.0000000E+00
Ar  2672  0.1444342E+02  0.8190970E+02  0.4019147E+02  0.0000000E+00
Ar  2673  0.1360382E+02  0.7870194E+02  0.4345841E+02  0.0000000E+00
Ar  2674  0.1660666E+02  0.8121660E+02  0.4325390E+02  0.0000000E+00
Ar  2675  0.1619804E+02  0.7900534E+02  0.4678925E+02  0.0000000E+00
Ar  2676  0.1359287E+02  0.8123710E+02  0.4643602E+02  0.0000000E+00
Ar  2677  0.1355795E+02  0.7938207E+02  0.4944683E+02  0.0000000E+00
Ar  2678  0.1673784E+02  0.8182064E+02  0.4941190E+02  0.0000000E+00
Ar  2679  0.1646921E+02  0.7854419E+02  0.5184853E+02  0.0000000E+00
Ar  2680  0.1407838E+02  0.8225165E+02  0.5146207E+02  0.0000000E+00
Ar  2681  0.1390767E+02  0.7843005E+02  0.5439291E+02  0.0000000E+00
Ar  2682  0.1625095E+02  0.8108234E+02  0.5452274E+02  0.0000000E+00
Ar  2683  0.1622967E+02  0.7830711E+02  0.5780267E+02  0.0000000E+00
Ar  2684  0.1356510E+02  0.8159533E+02  0.5754771E+02  0.0000000E+00
Ar  2685  0.1364948E+02  0.7838600E+02  0.6053119E+02  0.0000000E+00
Ar  2686  0.1603826E+02  0.8154588E+02  0.6038599E+02  0.0000000E+00
Ar  2687  0.1679338E+02  0.7889616E+02  0.6320243E+02  0.0000000E+00
Ar  2688  0.1414054E+02  0.8133597E+02  0.6343661E+02  0.0000000E+00
Ar  2689  0.1429442E+02  0.7877398E+02  0.6631189E+02  0.0000000E+00
Ar  2690  0.1677958E+02  0.8137857E+02  0.6639511E+02  0.0000000E+00
Ar  2691  0.1710317E+02  0.7818585E+02  0.6845325E+02  0.0000000E+00
Ar  2692  0.1497098E+02  0.8083079E+02  0.6928026E+02  0.0000000E+00
Ar  2693  0.1405394E+02  0.7774471E+02  0.7117840E+02  0.0000000E+00
Ar  2694  0.1728449E+02  0.8192551E+02  0.7247563E+02  0.0000000E+00
Ar  2695  0.1687160E+02  0.7920694E+02  0.7464155E+02  0.0000000E+00
Ar  2696  0.1410067E+02  0.8206463E+02  0.7487702E+02  0.0000000E+00
Ar  2697  0.1369008E+02  0.7871050E+02  0.7702785E+02  0.0000000E+00
Ar  2698  0.1710505E+02  0.8279869E+02  0.7662162E+02  0.0000000E+00
Ar  2699  0.1609746E+02  0.7828038E+02  0.7984606E+02  0.0000000E+00
Ar  2700  0.1406277E+02  0.8120112E+02  0.7946362E+02  0.0000000E+00
Ar  2701  0.1845217E+02  0.1835661E+00  0.8274984E+02  0.0000000E+00
Ar  2702  0.2161307E+02  0.2885009E+01  0.8313426E+02  0.0000000E+00
Ar  2703  0.2162153E+02  0.1543483E+00  0.1366419E+01  0.0000000E+00
Ar  2704  0.1934439E+02  0.3354891E+01  0.1394349E+01  0.0000000E+00
Ar  2705  0.1955897E+02  0.1420975E+01  0.4473521E+01  0.0000000E+00
Ar  2706  0.2220050E+02  0.3371973E+01  0.3726388E+01  0.0000000E+00
Ar  2707  0.2248046E+02  0.1078041E+01  0.6632370E+01  0.0000000E+00
Ar  2708  0.1972159E+02  0.3463536E+01  0.7264872E+01  0.0000000E+00
Ar  2709  0.1986326E+02  0.6905987E+00  0.9948764E+01  0.0000000E+00
Ar  2710  0.2257130E+02  0.3074776E+01  0.9967909E+01  0.0000000E+00
Ar  2711  0.2217063E+02  0.7641903E+00  0.1346230E+02  0.0000000E+00
Ar  2712  0.1976808E+02  0.3653772E+01  0.1272302E+02  0.0000000E+00
Ar  2713  0.1889656E+02  0.5363349E+00  0.1524549E+02  0.0000000E+00
Ar  2714  0.2194880E+02  0.3670438E+01  0.1551372E+02  0.0000000E+00
Ar  2715  0.2214279E+02  0.8953070E+00  0.1784844E+02  0.0000000E+00
Ar  2716  0.1933222E+02  0.3908658E+01  0.1814054E+02  0.0000000E+00
Ar  2717  0.2037201E+02  0.1430582E+01  0.2088074E+02  0.0000000E+00
Ar  2718  0.2280751E+02  0.3942995E+01  0.2064554E+02  0.0000000E+00
Ar  2719  0.2257272E+02  0.1226078E+01  0.2369302E+02  0.0000000E+00
Ar  2720  0.1943181E+02  0.3377311E+01  0.2388096E+02  0.0000000E+00
Ar  2721  0.1906771E+02  0.7403669E+00  0.2718282E+02  0.0000000E+00
Ar  2722  0.2194909E+02  0.3396074E+01  0.2732517E+02  0.0000000E+00
Ar  2723  0.2239388E+02  0.8361767E+02  0.2989961E+02  0.0000000E+00
Ar  2724  0.1897704E+02  0.3941165E+01  0.2989434E+02  0.0000000E+00
Ar  2725  0.1991720E+02  0.1018966E+01  0.3161713E+02  0.0000000E+00
Ar  2726  0.2181102E+02  0.4015164E+01  0.3260636E+02  0.0000000E+00
Ar  2727  0.2189870E+02  0.6021266E+00  0.3439439E+02  0.0000000E+00
Ar  2728  0.1916512E+02  0.3582996E+01  0.3483950E+02  0.0000000E+00
Ar  2729  0.1956769E+02  0.1578101E+01  0.3786696E+02  0.0000000E+00
Ar  2730  0.2247306E+02  0.3694691E+01  0.3817883E+02  0.0000000E+00
Ar  2731  0.2227060E+02  0.3448775E+00  0.4041004E+02  0.0000000E+00
Ar  2732  0.2001807E+02  0.3510355E+01  0.4100422E+02  0.0000000E+00
Ar  2733  0.1864661E+02  0.3342102E+00  0.4383184E+02  0.0000000E+00
Ar  2734  0.2183745E+02  0.1629605E+01  0.4369988E+02  0.0000000E+00
Ar  2735  0.2155751E+02  0.8397021E+02  0.4673217E+02  0.0000000E+00
Ar  2736  0.1974571E+02  0.3131903E+01  0.4630059E+02  0.0000000E+00
Ar  2737  0.1950126E+02  0.8408051E+02  0.4955890E+02  0.0000000E+00
Ar  2738  0.2178094E+02  0.3324270E+01  0.4957819E+02  0.0000000E+00
Ar  2739  0.2241332E+02  0.5218773E+00  0.5205106E+02  0.0000000E+00
Ar  2740  0.1942952E+02  0.3246980E+01  0.5219678E+02  0.0000000E+00
Ar  2741  0.1949379E+02  0.5878188E+00  0.5517566E+02  0.0000000E+00
Ar  2742  0.2448330E+02  0.3674549E+01  0.5195712E+02  0.0000000E+00
Ar  2743  0.2272949E+02  0.6671490E-01  0.5737049E+02  0.0000000E+00
Ar  2744  0.2211884E+02  0.3386128E+01  0.5465099E+02  0.0000000E+00
Ar  2745  0.1864230E+02  0.1176752E+00  0.6051191E+02  0.0000000E+00
Ar  2746  0.2183951E+02  0.3203489E+01  0.6073930E+02  0.0000000E+00
Ar  2747  0.2207868E+02  0.5102647E+00  0.6339933E+02  0.0000000E+00
Ar  2748  0.1960493E+02  0.3639783E+01  0.6340042E+02  0.0000000E+00
Ar  2749  0.1971817E+02  0.5383321E+00  0.6644242E+02  0.0000000E+00
Ar  2750  0.2201156E+02  0.3363828E+01  0.6610414E+02  0.0000000E+00
Ar  2751  0.2280219E+02  0.8393466E+02  0.6910961E+02  0.0000000E+00
Ar  2752  0.1883784E+02  0.3092841E+01  0.6886769E+02  0.0000000E+00
Ar  2753  0.1973199E+02  0.3537247E+00  0.7144810E+02  0.0000000E+00
Ar  2754  0.2212526E+02  0.3271203E+01  0.7134564E+02  0.0000000E+00
Ar  2755  0.2200381E+02  0.2959519E+00  0.7460019E+02  0.0000000E+00
Ar  2756  0.1986901E+02  0.3770470E+01  0.7452652E+02  0.0000000E+00
Ar  2757  0.1972719E+02  0.8178540E+00  0.7704888E+02  0.0000000E+00
Ar  2758  0.2241313E+02  0.2902703E+01  0.7738252E+02  0.0000000E+00
Ar  2759  0.2191100E+02  0.6464117E+00  0.8007635E+02  0.0000000E+00
Ar  2760  0.1918107E+02  0.3277456E+01  0.8049353E+02  0.0000000E+00
Ar  2761  0.1895492E+02  0.5786710E+01  0.8295977E+02  0.0000000E+00
Ar  2762  0.2181189E+02  0.8423045E+01  0.8220110E+02  0.0000000E+00
Ar  2763  0.2191831E+02  0.6136443E+01  0.1442160E+01  0.0000000E+00
Ar  2764  0.1906040E+02  0.8653941E+01  0.1114180E+01  0.0000000E+00
Ar  2765  0.1945304E+02  0.6168598E+01  0.4350876E+01  0.0000000E+00
Ar  2766  0.2164931E+02  0.9319718E+01  0.3519305E+01  0.0000000E+00
Ar  2767  0.2212576E+02  0.5946805E+01  0.7092733E+01  0.0000000E+00
Ar  2768  0.1944513E+02  0.9413977E+01  0.6601464E+01  0.0000000E+00
Ar  2769  0.1901790E+02  0.6428043E+01  0.9505102E+01  0.0000000E+00
Ar  2770  0.2175892E+02  0.9238653E+01  0.9389745E+01  0.0000000E+00
Ar  2771  0.2182389E+02  0.6743744E+01  0.1161007E+02  0.0000000E+00
Ar  2772  0.1868620E+02  0.8862573E+01  0.1229675E+02  0.0000000E+00
Ar  2773  0.1903146E+02  0.5831588E+01  0.1524373E+02  0.0000000E+00
Ar  2774  0.2156718E+02  0.8995702E+01  0.1504300E+02  0.0000000E+00
Ar  2775  0.2214310E+02  0.6423092E+01  0.1737265E+02  0.0000000E+00
Ar  2776  0.1873186E+02  0.8828276E+01  0.1768514E+02  0.0000000E+00
Ar  2777  0.1942346E+02  0.5687621E+01  0.2128846E+02  0.0000000E+00
Ar  2778  0.2204330E+02  0.8778771E+01  0.2057613E+02  0.0000000E+00
Ar  2779  0.2242237E+02  0.6156103E+01  0.2406426E+02  0.0000000E+00
Ar  2780  0.1943897E+02  0.8933323E+01  0.2349652E+02  0.0000000E+00
Ar  2781  0.1968349E+02  0.6225409E+01  0.2676183E+02  0.0000000E+00
Ar  2782  0.2186263E+02  0.9323434E+01  0.2698777E+02  0.0000000E+00
Ar  2783  0.2265067E+02  0.6680737E+01  0.2985465E+02  0.0000000E+00
Ar  2784  0.1914531E+02  0.9150152E+01  0.2968343E+02  0.0000000E+00
Ar  2785  0.1867850E+02  0.6202413E+01  0.3255986E+02  0.0000000E+00
Ar  2786  0.2276716E+02  0.8950493E+01  0.3287352E+02  0.0000000E+00
Ar  2787  0.2265748E+02  0.6692576E+01  0.3571513E+02  0.0000000E+00
Ar  2788  0.1981666E+02  0.8785185E+01  0.3514097E+02  0.0000000E+00
Ar  2789  0.1934108E+02  0.6332737E+01  0.3791799E+02  0.0000000E+00
Ar  2790  0.2216056E+02  0.9534525E+01  0.3800372E+02  0.0000000E+00
Ar  2791  0.2226366E+02  0.6669587E+01  0.4006457E+02  0.0000000E+00
Ar  2792  0.1934581E+02  0.9088698E+01  0.4038024E+02  0.0000000E+00
Ar  2793  0.1911335E+02  0.7342316E+01  0.4373417E+02  0.0000000E+00
Ar  2794  0.2207202E+02  0.9692156E+01  0.4264617E+02  0.0000000E+00
Ar  2795  0.2103399E+02  0.6366213E+01  0.4674474E+02  0.0000000E+00
Ar  2796  0.1882384E+02  0.9690726E+01  0.4654893E+02  0.0000000E+00
Ar  2797  0.1791455E+02  0.6892618E+01  0.4934097E+02  0.0000000E+00
Ar  2798  0.2158198E+02  0.9350225E+01  0.4897761E+02  0.0000000E+00
Ar  2799  0.2092131E+02  0.6456934E+01  0.5202785E+02  0.0000000E+00
Ar  2800  0.1906040E+02  0.9662522E+01  0.5209390E+02  0.0000000E+00
Ar  2801  0.1962520E+02  0.2794148E+01  0.5816109E+02  0.0000000E+00
Ar  2802  0.2210558E+02  0.9241709E+01  0.5447299E+02  0.0000000E+00
Ar  2803  0.2196332E+02  0.5589390E+01  0.5760858E+02  0.0000000E+00
Ar  2804  0.1975301E+02  0.9044651E+01  0.5769678E+02  0.0000000E+00
Ar  2805  0.1917452E+02  0.6083881E+01  0.6084381E+02  0.0000000E+00
Ar  2806  0.2198101E+02  0.8794461E+01  0.6024325E+02  0.0000000E+00
Ar  2807  0.2174495E+02  0.6589700E+01  0.6338326E+02  0.0000000E+00
Ar  2808  0.1935934E+02  0.9496450E+01  0.6298518E+02  0.0000000E+00
Ar  2809  0.1885106E+02  0.6224211E+01  0.6649799E+02  0.0000000E+00
Ar  2810  0.2198198E+02  0.9588973E+01  0.6589081E+02  0.0000000E+00
Ar  2811  0.2205291E+02  0.6286070E+01  0.6897536E+02  0.0000000E+00
Ar  2812  0.1964407E+02  0.9441019E+01  0.6954633E+02  0.0000000E+00
Ar  2813  0.1910916E+02  0.5970954E+01  0.7130857E+02  0.0000000E+00
Ar  2814  0.2232336E+02  0.9464201E+01  0.7205513E+02  0.0000000E+00
Ar  2815  0.2250380E+02  0.5966270E+01  0.7412565E+02  0.0000000E+00
Ar  2816  0.1926941E+02  0.8685668E+01  0.7432063E+02  0.0000000E+00
Ar  2817  0.1954566E+02  0.5781394E+01  0.7743444E+02  0.0000000E+00
Ar  2818  0.2158042E+02  0.8602619E+01  0.7775621E+02  0.0000000E+00
Ar  2819  0.2198860E+02  0.5600157E+01  0.8012620E+02  0.0000000E+00
Ar  2820  0.1896106E+02  0.8671214E+01  0.7993997E+02  0.0000000E+00
Ar  2821  0.1886739E+02  0.1150866E+02  0.8274705E+02  0.0000000E+00
Ar  2822  0.2208264E+02  0.1524161E+02  0.8272615E+02  0.0000000E+00
Ar  2823  0.2219614E+02  0.1227255E+02  0.9534220E+00  0.0000000E+00
Ar  2824  0.1923642E+02  0.1505055E+02  0.1540792E+01  0.0000000E+00
Ar  2825  0.1875206E+02  0.1161316E+02  0.3667809E+01  0.0000000E+00
Ar  2826  0.2195015E+02  0.1483659E+02  0.4298836E+01  0.0000000E+00
Ar  2827  0.2190011E+02  0.1196067E+02  0.6742501E+01  0.0000000E+00
Ar  2828  0.1915030E+02  0.1433172E+02  0.6648743E+01  0.0000000E+00
Ar  2829  0.1897118E+02  0.1164905E+02  0.9969479E+01  0.0000000E+00
Ar  2830  0.2264234E+02  0.1464011E+02  0.9726098E+01  0.0000000E+00
Ar  2831  0.2197344E+02  0.1181721E+02  0.1216110E+02  0.0000000E+00
Ar  2832  0.1887156E+02  0.1417997E+02  0.1222466E+02  0.0000000E+00
Ar  2833  0.1901590E+02  0.1154288E+02  0.1508138E+02  0.0000000E+00
Ar  2834  0.2157167E+02  0.1410900E+02  0.1530253E+02  0.0000000E+00
Ar  2835  0.2197755E+02  0.1174907E+02  0.1809816E+02  0.0000000E+00
Ar  2836  0.1887907E+02  0.1441928E+02  0.1822089E+02  0.0000000E+00
Ar  2837  0.1899302E+02  0.1138490E+02  0.2097286E+02  0.0000000E+00
Ar  2838  0.2174003E+02  0.1434472E+02  0.2075050E+02  0.0000000E+00
Ar  2839  0.2200884E+02  0.1163854E+02  0.2362382E+02  0.0000000E+00
Ar  2840  0.1970363E+02  0.1430972E+02  0.2359510E+02  0.0000000E+00
Ar  2841  0.1941908E+02  0.1193627E+02  0.2619505E+02  0.0000000E+00
Ar  2842  0.2207235E+02  0.1421484E+02  0.2656640E+02  0.0000000E+00
Ar  2843  0.2278596E+02  0.1191139E+02  0.3009833E+02  0.0000000E+00
Ar  2844  0.1973967E+02  0.1378188E+02  0.2958007E+02  0.0000000E+00
Ar  2845  0.2017813E+02  0.1145156E+02  0.3235670E+02  0.0000000E+00
Ar  2846  0.2211311E+02  0.1482445E+02  0.3307775E+02  0.0000000E+00
Ar  2847  0.2245355E+02  0.1209557E+02  0.3497740E+02  0.0000000E+00
Ar  2848  0.1876296E+02  0.1459677E+02  0.3478047E+02  0.0000000E+00
Ar  2849  0.1943705E+02  0.1269174E+02  0.3752824E+02  0.0000000E+00
Ar  2850  0.2213751E+02  0.1478658E+02  0.3775467E+02  0.0000000E+00
Ar  2851  0.2191875E+02  0.1250913E+02  0.4049232E+02  0.0000000E+00
Ar  2852  0.1871712E+02  0.1452230E+02  0.4049442E+02  0.0000000E+00
Ar  2853  0.1899446E+02  0.1205825E+02  0.4382439E+02  0.0000000E+00
Ar  2854  0.2157891E+02  0.1458754E+02  0.4410519E+02  0.0000000E+00
Ar  2855  0.2174705E+02  0.1266308E+02  0.4706334E+02  0.0000000E+00
Ar  2856  0.1890333E+02  0.1517699E+02  0.4708896E+02  0.0000000E+00
Ar  2857  0.1873476E+02  0.1208876E+02  0.4921703E+02  0.0000000E+00
Ar  2858  0.2217533E+02  0.1484953E+02  0.4956338E+02  0.0000000E+00
Ar  2859  0.2229962E+02  0.1205045E+02  0.5197617E+02  0.0000000E+00
Ar  2860  0.1926228E+02  0.1436837E+02  0.5178660E+02  0.0000000E+00
Ar  2861  0.1927841E+02  0.1207371E+02  0.5450995E+02  0.0000000E+00
Ar  2862  0.2178880E+02  0.1511607E+02  0.5428175E+02  0.0000000E+00
Ar  2863  0.2213865E+02  0.1213894E+02  0.5714674E+02  0.0000000E+00
Ar  2864  0.1936465E+02  0.1478548E+02  0.5725584E+02  0.0000000E+00
Ar  2865  0.1934891E+02  0.1215031E+02  0.6025828E+02  0.0000000E+00
Ar  2866  0.2218026E+02  0.1574119E+02  0.6027894E+02  0.0000000E+00
Ar  2867  0.2212946E+02  0.1161981E+02  0.6283636E+02  0.0000000E+00
Ar  2868  0.2010740E+02  0.1472798E+02  0.6274593E+02  0.0000000E+00
Ar  2869  0.1953856E+02  0.1209297E+02  0.6606448E+02  0.0000000E+00
Ar  2870  0.2158167E+02  0.1526486E+02  0.6589378E+02  0.0000000E+00
Ar  2871  0.2258158E+02  0.1210631E+02  0.6842614E+02  0.0000000E+00
Ar  2872  0.1942872E+02  0.1448592E+02  0.6894581E+02  0.0000000E+00
Ar  2873  0.1957705E+02  0.1189757E+02  0.7204098E+02  0.0000000E+00
Ar  2874  0.2205784E+02  0.1476474E+02  0.7117211E+02  0.0000000E+00
Ar  2875  0.2190253E+02  0.1209779E+02  0.7515668E+02  0.0000000E+00
Ar  2876  0.1995632E+02  0.1515251E+02  0.7439315E+02  0.0000000E+00
Ar  2877  0.1950946E+02  0.1200990E+02  0.7766223E+02  0.0000000E+00
Ar  2878  0.2261704E+02  0.1512756E+02  0.7735050E+02  0.0000000E+00
Ar  2879  0.2193262E+02  0.1180396E+02  0.8089891E+02  0.0000000E+00
Ar  2880  0.1891972E+02  0.1477388E+02  0.7999479E+02  0.0000000E+00
Ar  2881  0.1931991E+02  0.1777988E+02  0.8317071E+02  0.0000000E+00
Ar  2882  0.2217638E+02  0.2058811E+02  0.8277237E+02  0.0000000E+00
Ar  2883  0.2286664E+02  0.1761887E+02  0.1143269E+01  0.0000000E+00
Ar  2884  0.2008592E+02  0.2044496E+02  0.1675778E+01  0.0000000E+00
Ar  2885  0.1863436E+02  0.1717021E+02  0.4398839E+01  0.0000000E+00
Ar  2886  0.2165219E+02  0.2068028E+02  0.4682535E+01  0.0000000E+00
Ar  2887  0.2167739E+02  0.1733247E+02  0.7515919E+01  0.0000000E+00
Ar  2888  0.1879127E+02  0.2004913E+02  0.7508175E+01  0.0000000E+00
Ar  2889  0.1921791E+02  0.1681505E+02  0.1006838E+02  0.0000000E+00
Ar  2890  0.2229871E+02  0.1948496E+02  0.1049475E+02  0.0000000E+00
Ar  2891  0.2210532E+02  0.1661154E+02  0.1227273E+02  0.0000000E+00
Ar  2892  0.1861143E+02  0.1992186E+02  0.1234340E+02  0.0000000E+00
Ar  2893  0.1921334E+02  0.1681391E+02  0.1500991E+02  0.0000000E+00
Ar  2894  0.2202646E+02  0.1999905E+02  0.1506204E+02  0.0000000E+00
Ar  2895  0.2212665E+02  0.1655546E+02  0.1766127E+02  0.0000000E+00
Ar  2896  0.1943880E+02  0.1928992E+02  0.1775792E+02  0.0000000E+00
Ar  2897  0.1979997E+02  0.1709927E+02  0.2130971E+02  0.0000000E+00
Ar  2898  0.2223531E+02  0.1999557E+02  0.2171949E+02  0.0000000E+00
Ar  2899  0.2181554E+02  0.1715967E+02  0.2427074E+02  0.0000000E+00
Ar  2900  0.1932070E+02  0.1995027E+02  0.2380989E+02  0.0000000E+00
Ar  2901  0.1858570E+02  0.1616696E+02  0.2655912E+02  0.0000000E+00
Ar  2902  0.2198322E+02  0.2041147E+02  0.2634274E+02  0.0000000E+00
Ar  2903  0.2210928E+02  0.1694682E+02  0.2944563E+02  0.0000000E+00
Ar  2904  0.1918420E+02  0.2061994E+02  0.3003660E+02  0.0000000E+00
Ar  2905  0.1904501E+02  0.1702207E+02  0.3224686E+02  0.0000000E+00
Ar  2906  0.2202679E+02  0.2048377E+02  0.3222902E+02  0.0000000E+00
Ar  2907  0.2183199E+02  0.1815106E+02  0.3509220E+02  0.0000000E+00
Ar  2908  0.1909779E+02  0.2081246E+02  0.3526068E+02  0.0000000E+00
Ar  2909  0.1879004E+02  0.1674231E+02  0.3760907E+02  0.0000000E+00
Ar  2910  0.2172084E+02  0.2004731E+02  0.3819474E+02  0.0000000E+00
Ar  2911  0.2201707E+02  0.1678022E+02  0.4072760E+02  0.0000000E+00
Ar  2912  0.1868310E+02  0.1969961E+02  0.4022387E+02  0.0000000E+00
Ar  2913  0.1896282E+02  0.1737789E+02  0.4359401E+02  0.0000000E+00
Ar  2914  0.2109045E+02  0.2095244E+02  0.4300146E+02  0.0000000E+00
Ar  2915  0.2141946E+02  0.1773098E+02  0.4664631E+02  0.0000000E+00
Ar  2916  0.1870930E+02  0.2005920E+02  0.4607423E+02  0.0000000E+00
Ar  2917  0.1810468E+02  0.1784274E+02  0.5025841E+02  0.0000000E+00
Ar  2918  0.2167283E+02  0.2022869E+02  0.4927320E+02  0.0000000E+00
Ar  2919  0.2261788E+02  0.1748299E+02  0.5201610E+02  0.0000000E+00
Ar  2920  0.1890357E+02  0.2069202E+02  0.5231854E+02  0.0000000E+00
Ar  2921  0.1909574E+02  0.1721269E+02  0.5434551E+02  0.0000000E+00
Ar  2922  0.2166377E+02  0.2054683E+02  0.5453231E+02  0.0000000E+00
Ar  2923  0.2203574E+02  0.1754831E+02  0.5705930E+02  0.0000000E+00
Ar  2924  0.1939336E+02  0.2050957E+02  0.5782065E+02  0.0000000E+00
Ar  2925  0.1969287E+02  0.1792046E+02  0.6050017E+02  0.0000000E+00
Ar  2926  0.2247183E+02  0.2041419E+02  0.6016256E+02  0.0000000E+00
Ar  2927  0.2206587E+02  0.1795029E+02  0.6335257E+02  0.0000000E+00
Ar  2928  0.1991619E+02  0.2118422E+02  0.6329082E+02  0.0000000E+00
Ar  2929  0.1892840E+02  0.1804659E+02  0.6597501E+02  0.0000000E+00
Ar  2930  0.2248394E+02  0.2067388E+02  0.6635011E+02  0.0000000E+00
Ar  2931  0.2229967E+02  0.1759609E+02  0.6881137E+02  0.0000000E+00
Ar  2932  0.1915582E+02  0.2057792E+02  0.6892330E+02  0.0000000E+00
Ar  2933  0.1977113E+02  0.1740441E+02  0.7153051E+02  0.0000000E+00
Ar  2934  0.2223920E+02  0.2031441E+02  0.7188987E+02  0.0000000E+00
Ar  2935  0.2237968E+02  0.1786020E+02  0.7397213E+02  0.0000000E+00
Ar  2936  0.1950881E+02  0.2045819E+02  0.7495149E+02  0.0000000E+00
Ar  2937  0.1900543E+02  0.1755594E+02  0.7752189E+02  0.0000000E+00
Ar  2938  0.2264161E+02  0.2062958E+02  0.7716812E+02  0.0000000E+00
Ar  2939  0.2220898E+02  0.1789613E+02  0.7993788E+02  0.0000000E+00
Ar  2940  0.1969402E+02  0.2058446E+02  0.7976926E+02  0.0000000E+00
Ar  2941  0.1958483E+02  0.2322299E+02  0.8328541E+02  0.0000000E+00
Ar  2942  0.2225029E+02  0.2612359E+02  0.8297617E+02  0.0000000E+00
Ar  2943  0.2249984E+02  0.2324873E+02  0.1798164E+01  0.0000000E+00
Ar  2944  0.1975249E+02  0.2560023E+02  0.1389603E+01  0.0000000E+00
Ar  2945  0.1911945E+02  0.2314386E+02  0.3916607E+01  0.0000000E+00
Ar  2946  0.2219634E+02  0.2568625E+02  0.4277672E+01  0.0000000E+00
Ar  2947  0.2198150E+02  0.2266341E+02  0.7280892E+01  0.0000000E+00
Ar  2948  0.1934990E+02  0.2559639E+02  0.7370368E+01  0.0000000E+00
Ar  2949  0.1920133E+02  0.2302704E+02  0.9851444E+01  0.0000000E+00
Ar  2950  0.2183645E+02  0.2580490E+02  0.9898616E+01  0.0000000E+00
Ar  2951  0.2187876E+02  0.2267301E+02  0.1215416E+02  0.0000000E+00
Ar  2952  0.1918133E+02  0.2539652E+02  0.1276264E+02  0.0000000E+00
Ar  2953  0.1905637E+02  0.2245417E+02  0.1521155E+02  0.0000000E+00
Ar  2954  0.2162368E+02  0.2632867E+02  0.1581419E+02  0.0000000E+00
Ar  2955  0.2147259E+02  0.2257942E+02  0.1856410E+02  0.0000000E+00
Ar  2956  0.1945590E+02  0.2605035E+02  0.1869095E+02  0.0000000E+00
Ar  2957  0.1965494E+02  0.2256856E+02  0.2152074E+02  0.0000000E+00
Ar  2958  0.2223321E+02  0.2616832E+02  0.2171830E+02  0.0000000E+00
Ar  2959  0.2331103E+02  0.2306069E+02  0.2430346E+02  0.0000000E+00
Ar  2960  0.1912789E+02  0.2564317E+02  0.2430021E+02  0.0000000E+00
Ar  2961  0.1908660E+02  0.2278804E+02  0.2699083E+02  0.0000000E+00
Ar  2962  0.2161125E+02  0.2601194E+02  0.2657579E+02  0.0000000E+00
Ar  2963  0.2194985E+02  0.2294829E+02  0.2925917E+02  0.0000000E+00
Ar  2964  0.1908740E+02  0.2554783E+02  0.2955884E+02  0.0000000E+00
Ar  2965  0.1871888E+02  0.2340075E+02  0.3319967E+02  0.0000000E+00
Ar  2966  0.2160759E+02  0.2592369E+02  0.3272950E+02  0.0000000E+00
Ar  2967  0.2204047E+02  0.2313423E+02  0.3550882E+02  0.0000000E+00
Ar  2968  0.1900130E+02  0.2630086E+02  0.3544700E+02  0.0000000E+00
Ar  2969  0.1868697E+02  0.2315099E+02  0.3773380E+02  0.0000000E+00
Ar  2970  0.2191978E+02  0.2616893E+02  0.3766636E+02  0.0000000E+00
Ar  2971  0.2169088E+02  0.2329155E+02  0.4036804E+02  0.0000000E+00
Ar  2972  0.1847693E+02  0.2559187E+02  0.4026862E+02  0.0000000E+00
Ar  2973  0.1866901E+02  0.2355838E+02  0.4360646E+02  0.0000000E+00
Ar  2974  0.2200372E+02  0.2540437E+02  0.4329522E+02  0.0000000E+00
Ar  2975  0.2212042E+02  0.2323188E+02  0.4631040E+02  0.0000000E+00
Ar  2976  0.1926349E+02  0.2594165E+02  0.4631564E+02  0.0000000E+00
Ar  2977  0.1953434E+02  0.2346902E+02  0.4937652E+02  0.0000000E+00
Ar  2978  0.2179332E+02  0.2592872E+02  0.4914819E+02  0.0000000E+00
Ar  2979  0.2224281E+02  0.2331883E+02  0.5199151E+02  0.0000000E+00
Ar  2980  0.1985441E+02  0.2626386E+02  0.5245967E+02  0.0000000E+00
Ar  2981  0.1948169E+02  0.2358580E+02  0.5507891E+02  0.0000000E+00
Ar  2982  0.2248574E+02  0.2636744E+02  0.5498345E+02  0.0000000E+00
Ar  2983  0.2203482E+02  0.2388856E+02  0.5774705E+02  0.0000000E+00
Ar  2984  0.1941722E+02  0.2671252E+02  0.5789966E+02  0.0000000E+00
Ar  2985  0.1908957E+02  0.2393325E+02  0.6020385E+02  0.0000000E+00
Ar  2986  0.2235947E+02  0.2693954E+02  0.6032053E+02  0.0000000E+00
Ar  2987  0.2270415E+02  0.2384792E+02  0.6317387E+02  0.0000000E+00
Ar  2988  0.1946430E+02  0.2629696E+02  0.6271452E+02  0.0000000E+00
Ar  2989  0.2007089E+02  0.2323287E+02  0.6606193E+02  0.0000000E+00
Ar  2990  0.2234839E+02  0.2624189E+02  0.6603768E+02  0.0000000E+00
Ar  2991  0.2219550E+02  0.2383151E+02  0.6888506E+02  0.0000000E+00
Ar  2992  0.1928455E+02  0.2656529E+02  0.6908359E+02  0.0000000E+00
Ar  2993  0.1937968E+02  0.2341611E+02  0.7171939E+02  0.0000000E+00
Ar  2994  0.2292868E+02  0.2596576E+02  0.7190154E+02  0.0000000E+00
Ar  2995  0.2252990E+02  0.2311833E+02  0.7452209E+02  0.0000000E+00
Ar  2996  0.1976935E+02  0.2706811E+02  0.7471123E+02  0.0000000E+00
Ar  2997  0.1978036E+02  0.2304649E+02  0.7717740E+02  0.0000000E+00
Ar  2998  0.2227041E+02  0.2595594E+02  0.7683232E+02  0.0000000E+00
Ar  2999  0.2230854E+02  0.2307862E+02  0.7983937E+02  0.0000000E+00
Ar  3000  0.2005690E+02  0.2581034E+02  0.7985004E+02  0.0000000E+00
Ar  3001  0.1917904E+02  0.2854480E+02  0.8211870E+02  0.0000000E+00
Ar  3002  0.2210916E+02  0.3153833E+02  0.8231182E+02  0.0000000E+00
Ar  3003  0.2203777E+02  0.2816346E+02  0.1589176E+01  0.0000000E+00
Ar  3004  0.1972402E+02  0.3112145E+02  0.1130648E+01  0.0000000E+00
Ar  3005  0.1930866E+02  0.2820342E+02  0.4317744E+01  0.0000000E+00
Ar  3006  0.2210359E+02  0.3081220E+02  0.4072841E+01  0.0000000E+00
Ar  3007  0.2209189E+02  0.2849443E+02  0.7038621E+01  0.0000000E+00
Ar  3008  0.1942235E+02  0.3109579E+02  0.6888953E+01  0.0000000E+00
Ar  3009  0.1927165E+02  0.2842091E+02  0.9716131E+01  0.0000000E+00
Ar  3010  0.2216750E+02  0.3089852E+02  0.9965516E+01  0.0000000E+00
Ar  3011  0.2100644E+02  0.2855277E+02  0.1300954E+02  0.0000000E+00
Ar  3012  0.1946210E+02  0.3150826E+02  0.1237946E+02  0.0000000E+00
Ar  3013  0.1931080E+02  0.2938942E+02  0.1627551E+02  0.0000000E+00
Ar  3014  0.2239104E+02  0.3188775E+02  0.1598489E+02  0.0000000E+00
Ar  3015  0.2185090E+02  0.2893377E+02  0.1857133E+02  0.0000000E+00
Ar  3016  0.1834390E+02  0.3124094E+02  0.1895870E+02  0.0000000E+00
Ar  3017  0.1910146E+02  0.2885903E+02  0.2159237E+02  0.0000000E+00
Ar  3018  0.2176423E+02  0.3116532E+02  0.2145405E+02  0.0000000E+00
Ar  3019  0.2205530E+02  0.2869630E+02  0.2429489E+02  0.0000000E+00
Ar  3020  0.1940538E+02  0.3202985E+02  0.2457075E+02  0.0000000E+00
Ar  3021  0.1956507E+02  0.2909589E+02  0.2638822E+02  0.0000000E+00
Ar  3022  0.2217103E+02  0.3127592E+02  0.2716231E+02  0.0000000E+00
Ar  3023  0.2141493E+02  0.2842661E+02  0.2956056E+02  0.0000000E+00
Ar  3024  0.1950541E+02  0.3160221E+02  0.2981695E+02  0.0000000E+00
Ar  3025  0.1879206E+02  0.2847896E+02  0.3205804E+02  0.0000000E+00
Ar  3026  0.2220048E+02  0.3127534E+02  0.3252399E+02  0.0000000E+00
Ar  3027  0.2148513E+02  0.2872244E+02  0.3506298E+02  0.0000000E+00
Ar  3028  0.1975732E+02  0.3162920E+02  0.3538846E+02  0.0000000E+00
Ar  3029  0.1920155E+02  0.2844917E+02  0.3826588E+02  0.0000000E+00
Ar  3030  0.2183877E+02  0.3139481E+02  0.3851068E+02  0.0000000E+00
Ar  3031  0.2308857E+02  0.2821474E+02  0.4037444E+02  0.0000000E+00
Ar  3032  0.1909013E+02  0.3144832E+02  0.4123970E+02  0.0000000E+00
Ar  3033  0.1991180E+02  0.2819363E+02  0.4267222E+02  0.0000000E+00
Ar  3034  0.2227782E+02  0.3223526E+02  0.4338073E+02  0.0000000E+00
Ar  3035  0.2201400E+02  0.2832691E+02  0.4616296E+02  0.0000000E+00
Ar  3036  0.1940125E+02  0.3052334E+02  0.4530584E+02  0.0000000E+00
Ar  3037  0.1926462E+02  0.2890062E+02  0.4905699E+02  0.0000000E+00
Ar  3038  0.2239682E+02  0.3125878E+02  0.4941189E+02  0.0000000E+00
Ar  3039  0.2285520E+02  0.2866444E+02  0.5181144E+02  0.0000000E+00
Ar  3040  0.2003971E+02  0.3124499E+02  0.5200363E+02  0.0000000E+00
Ar  3041  0.1967842E+02  0.2877459E+02  0.5466540E+02  0.0000000E+00
Ar  3042  0.2215121E+02  0.3177212E+02  0.5484446E+02  0.0000000E+00
Ar  3043  0.2258063E+02  0.2906972E+02  0.5703748E+02  0.0000000E+00
Ar  3044  0.1928620E+02  0.3157374E+02  0.5749197E+02  0.0000000E+00
Ar  3045  0.1910027E+02  0.2907648E+02  0.6050819E+02  0.0000000E+00
Ar  3046  0.2214705E+02  0.3105744E+02  0.5985065E+02  0.0000000E+00
Ar  3047  0.2227888E+02  0.2933366E+02  0.6289644E+02  0.0000000E+00
Ar  3048  0.1957794E+02  0.3154627E+02  0.6295084E+02  0.0000000E+00
Ar  3049  0.1945273E+02  0.2834084E+02  0.6603638E+02  0.0000000E+00
Ar  3050  0.2265762E+02  0.3168616E+02  0.6600513E+02  0.0000000E+00
Ar  3051  0.2256607E+02  0.2899108E+02  0.6897534E+02  0.0000000E+00
Ar  3052  0.1999641E+02  0.3148072E+02  0.6955009E+02  0.0000000E+00
Ar  3053  0.1963011E+02  0.2887926E+02  0.7171341E+02  0.0000000E+00
Ar  3054  0.2304413E+02  0.3151345E+02  0.7169074E+02  0.0000000E+00
Ar  3055  0.2277632E+02  0.2903554E+02  0.7464185E+02  0.0000000E+00
Ar  3056  0.1991052E+02  0.3158981E+02  0.7456177E+02  0.0000000E+00
Ar  3057  0.1951943E+02  0.2875605E+02  0.7839095E+02  0.0000000E+00
Ar  3058  0.2279627E+02  0.3165548E+02  0.7694739E+02  0.0000000E+00
Ar  3059  0.2283129E+02  0.2903573E+02  0.7982959E+02  0.0000000E+00
Ar  3060  0.1943326E+02  0.3163331E+02  0.8031995E+02  0.0000000E+00
Ar  3061  0.2018765E+02  0.3478285E+02  0.8277189E+02  0.0000000E+00
Ar  3062  0.2236517E+02  0.3761325E+02  0.8331080E+02  0.0000000E+00
Ar  3063  0.2207860E+02  0.3376020E+02  0.1299194E+01  0.0000000E+00
Ar  3064  0.1989004E+02  0.3742007E+02  0.1733126E+01  0.0000000E+00
Ar  3065  0.1967385E+02  0.3409141E+02  0.4104805E+01  0.0000000E+00
Ar  3066  0.2309608E+02  0.3657339E+02  0.3757553E+01  0.0000000E+00
Ar  3067  0.2223456E+02  0.3423060E+02  0.6668901E+01  0.0000000E+00
Ar  3068  0.1903312E+02  0.3732619E+02  0.6614819E+01  0.0000000E+00
Ar  3069  0.1971213E+02  0.3417107E+02  0.9250683E+01  0.0000000E+00
Ar  3070  0.2283653E+02  0.3657754E+02  0.9842022E+01  0.0000000E+00
Ar  3071  0.2186025E+02  0.3405632E+02  0.1336674E+02  0.0000000E+00
Ar  3072  0.1951474E+02  0.3688021E+02  0.1282908E+02  0.0000000E+00
Ar  3073  0.1943729E+02  0.3384215E+02  0.1573640E+02  0.0000000E+00
Ar  3074  0.2214229E+02  0.3727957E+02  0.1563649E+02  0.0000000E+00
Ar  3075  0.2237476E+02  0.3389169E+02  0.1871502E+02  0.0000000E+00
Ar  3076  0.1963285E+02  0.3641420E+02  0.1854653E+02  0.0000000E+00
Ar  3077  0.1879136E+02  0.3426402E+02  0.2120133E+02  0.0000000E+00
Ar  3078  0.2189042E+02  0.3707590E+02  0.2142708E+02  0.0000000E+00
Ar  3079  0.2246970E+02  0.3401587E+02  0.2367142E+02  0.0000000E+00
Ar  3080  0.1952455E+02  0.3712030E+02  0.2424674E+02  0.0000000E+00
Ar  3081  0.1898127E+02  0.3466485E+02  0.2691814E+02  0.0000000E+00
Ar  3082  0.2215433E+02  0.3729227E+02  0.2674412E+02  0.0000000E+00
Ar  3083  0.2225666E+02  0.3384023E+02  0.2973487E+02  0.0000000E+00
Ar  3084  0.1982490E+02  0.3687143E+02  0.3020912E+02  0.0000000E+00
Ar  3085  0.1934992E+02  0.3425306E+02  0.3277990E+02  0.0000000E+00
Ar  3086  0.2250662E+02  0.3666997E+02  0.3215215E+02  0.0000000E+00
Ar  3087  0.2184971E+02  0.3471509E+02  0.3562274E+02  0.0000000E+00
Ar  3088  0.1956452E+02  0.3701934E+02  0.3470093E+02  0.0000000E+00
Ar  3089  0.1950768E+02  0.3394680E+02  0.3816106E+02  0.0000000E+00
Ar  3090  0.2231466E+02  0.3742549E+02  0.3765065E+02  0.0000000E+00
Ar  3091  0.2246740E+02  0.3493763E+02  0.4042599E+02  0.0000000E+00
Ar  3092  0.1947381E+02  0.3808310E+02  0.4051192E+02  0.0000000E+00
Ar  3093  0.1963983E+02  0.3486287E+02  0.4334240E+02  0.0000000E+00
Ar  3094  0.2198513E+02  0.3744321E+02  0.4297360E+02  0.0000000E+00
Ar  3095  0.2245669E+02  0.3457892E+02  0.4619687E+02  0.0000000E+00
Ar  3096  0.1962427E+02  0.3728186E+02  0.4658697E+02  0.0000000E+00
Ar  3097  0.1995283E+02  0.3370693E+02  0.4845575E+02  0.0000000E+00
Ar  3098  0.2255577E+02  0.3670866E+02  0.4907642E+02  0.0000000E+00
Ar  3099  0.2209108E+02  0.3431680E+02  0.5227028E+02  0.0000000E+00
Ar  3100  0.2026340E+02  0.3756096E+02  0.5216388E+02  0.0000000E+00
Ar  3101  0.1953300E+02  0.3486706E+02  0.5475625E+02  0.0000000E+00
Ar  3102  0.2295280E+02  0.3677959E+02  0.5551996E+02  0.0000000E+00
Ar  3103  0.2225304E+02  0.3430903E+02  0.5803046E+02  0.0000000E+00
Ar  3104  0.1983273E+02  0.3663721E+02  0.5792488E+02  0.0000000E+00
Ar  3105  0.1983785E+02  0.3475646E+02  0.6088087E+02  0.0000000E+00
Ar  3106  0.2291074E+02  0.3660707E+02  0.6109033E+02  0.0000000E+00
Ar  3107  0.2230516E+02  0.3348341E+02  0.6282526E+02  0.0000000E+00
Ar  3108  0.1977067E+02  0.3736650E+02  0.6334229E+02  0.0000000E+00
Ar  3109  0.1990312E+02  0.3486277E+02  0.6576611E+02  0.0000000E+00
Ar  3110  0.2330513E+02  0.3632537E+02  0.6508683E+02  0.0000000E+00
Ar  3111  0.2268313E+02  0.3397064E+02  0.6920315E+02  0.0000000E+00
Ar  3112  0.2014455E+02  0.3636189E+02  0.6877226E+02  0.0000000E+00
Ar  3113  0.2032226E+02  0.3453159E+02  0.7202773E+02  0.0000000E+00
Ar  3114  0.2310651E+02  0.3718226E+02  0.7172753E+02  0.0000000E+00
Ar  3115  0.2327305E+02  0.3414840E+02  0.7422763E+02  0.0000000E+00
Ar  3116  0.2063807E+02  0.3713039E+02  0.7445070E+02  0.0000000E+00
Ar  3117  0.2026700E+02  0.3434041E+02  0.7688187E+02  0.0000000E+00
Ar  3118  0.2267948E+02  0.3726174E+02  0.7761087E+02  0.0000000E+00
Ar  3119  0.2293080E+02  0.3499518E+02  0.8018765E+02  0.0000000E+00
Ar  3120  0.1992514E+02  0.3693715E+02  0.7985332E+02  0.0000000E+00
Ar  3121  0.2028162E+02  0.4039461E+02  0.8340213E+02  0.0000000E+00
Ar  3122  0.2295184E+02  0.4271888E+02  0.8282253E+02  0.0000000E+00
Ar  3123  0.2283477E+02  0.3966718E+02  0.1831823E+01  0.0000000E+00
Ar  3124  0.1926238E+02  0.4303232E+02  0.1584960E+01  0.0000000E+00
Ar  3125  0.1911821E+02  0.4038007E+02  0.4185267E+01  0.0000000E+00
Ar  3126  0.2205903E+02  0.4251372E+02  0.4012858E+01  0.0000000E+00
Ar  3127  0.2154119E+02  0.3960035E+02  0.6969164E+01  0.0000000E+00
Ar  3128  0.1951921E+02  0.4266015E+02  0.7146908E+01  0.0000000E+00
Ar  3129  0.1985618E+02  0.3951240E+02  0.1039195E+02  0.0000000E+00
Ar  3130  0.2207747E+02  0.4262719E+02  0.1054981E+02  0.0000000E+00
Ar  3131  0.2224929E+02  0.3924328E+02  0.1294910E+02  0.0000000E+00
Ar  3132  0.1896147E+02  0.4302140E+02  0.1242836E+02  0.0000000E+00
Ar  3133  0.1937163E+02  0.4012467E+02  0.1485067E+02  0.0000000E+00
Ar  3134  0.2216822E+02  0.4296438E+02  0.1537453E+02  0.0000000E+00
Ar  3135  0.2199837E+02  0.4040971E+02  0.1802845E+02  0.0000000E+00
Ar  3136  0.1924567E+02  0.4254506E+02  0.1803077E+02  0.0000000E+00
Ar  3137  0.1969588E+02  0.3997451E+02  0.2119856E+02  0.0000000E+00
Ar  3138  0.2146662E+02  0.4278831E+02  0.2070481E+02  0.0000000E+00
Ar  3139  0.2246832E+02  0.3967062E+02  0.2387703E+02  0.0000000E+00
Ar  3140  0.1972165E+02  0.4263916E+02  0.2426378E+02  0.0000000E+00
Ar  3141  0.1965861E+02  0.3991876E+02  0.2723807E+02  0.0000000E+00
Ar  3142  0.2238548E+02  0.4311570E+02  0.2654264E+02  0.0000000E+00
Ar  3143  0.2258484E+02  0.3994976E+02  0.2954706E+02  0.0000000E+00
Ar  3144  0.1974462E+02  0.4273783E+02  0.2980089E+02  0.0000000E+00
Ar  3145  0.1920719E+02  0.4004034E+02  0.3236762E+02  0.0000000E+00
Ar  3146  0.2277441E+02  0.4310125E+02  0.3226377E+02  0.0000000E+00
Ar  3147  0.2246088E+02  0.3976492E+02  0.3484820E+02  0.0000000E+00
Ar  3148  0.1982148E+02  0.4269420E+02  0.3527916E+02  0.0000000E+00
Ar  3149  0.1884011E+02  0.3995810E+02  0.3731062E+02  0.0000000E+00
Ar  3150  0.2260573E+02  0.4296268E+02  0.3815987E+02  0.0000000E+00
Ar  3151  0.2256839E+02  0.4009358E+02  0.4054069E+02  0.0000000E+00
Ar  3152  0.2001795E+02  0.4256834E+02  0.4050980E+02  0.0000000E+00
Ar  3153  0.1976894E+02  0.4023108E+02  0.4345566E+02  0.0000000E+00
Ar  3154  0.2247050E+02  0.4258829E+02  0.4399877E+02  0.0000000E+00
Ar  3155  0.2305797E+02  0.3979509E+02  0.4618642E+02  0.0000000E+00
Ar  3156  0.1986587E+02  0.4284836E+02  0.4642480E+02  0.0000000E+00
Ar  3157  0.2008809E+02  0.4033902E+02  0.4925440E+02  0.0000000E+00
Ar  3158  0.2313730E+02  0.4234113E+02  0.4923595E+02  0.0000000E+00
Ar  3159  0.2251332E+02  0.4047316E+02  0.5233556E+02  0.0000000E+00
Ar  3160  0.2031114E+02  0.4345958E+02  0.5266474E+02  0.0000000E+00
Ar  3161  0.2032703E+02  0.3994940E+02  0.5542246E+02  0.0000000E+00
Ar  3162  0.2278690E+02  0.4294620E+02  0.5514358E+02  0.0000000E+00
Ar  3163  0.2281915E+02  0.3940973E+02  0.5789094E+02  0.0000000E+00
Ar  3164  0.2010212E+02  0.4250207E+02  0.5830352E+02  0.0000000E+00
Ar  3165  0.1996613E+02  0.3931805E+02  0.6026008E+02  0.0000000E+00
Ar  3166  0.2257457E+02  0.4194542E+02  0.6070062E+02  0.0000000E+00
Ar  3167  0.2312870E+02  0.3984210E+02  0.6439378E+02  0.0000000E+00
Ar  3168  0.2037398E+02  0.4194518E+02  0.6402817E+02  0.0000000E+00
Ar  3169  0.2044645E+02  0.3915445E+02  0.6633044E+02  0.0000000E+00
Ar  3170  0.2280475E+02  0.4298526E+02  0.6644281E+02  0.0000000E+00
Ar  3171  0.2301165E+02  0.4059372E+02  0.6936002E+02  0.0000000E+00
Ar  3172  0.1947032E+02  0.4243634E+02  0.6989039E+02  0.0000000E+00
Ar  3173  0.1998361E+02  0.3880363E+02  0.7141189E+02  0.0000000E+00
Ar  3174  0.2207058E+02  0.4254848E+02  0.7286160E+02  0.0000000E+00
Ar  3175  0.2272854E+02  0.4040939E+02  0.7540314E+02  0.0000000E+00
Ar  3176  0.1954914E+02  0.4329327E+02  0.7487211E+02  0.0000000E+00
Ar  3177  0.1961476E+02  0.4026778E+02  0.7742602E+02  0.0000000E+00
Ar  3178  0.2272167E+02  0.4293788E+02  0.7740644E+02  0.0000000E+00
Ar  3179  0.2238670E+02  0.3965143E+02  0.8004035E+02  0.0000000E+00
Ar  3180  0.2005184E+02  0.4274214E+02  0.8020211E+02  0.0000000E+00
Ar  3181  0.1965305E+02  0.4522173E+02  0.8272759E+02  0.0000000E+00
Ar  3182  0.2279884E+02  0.4842500E+02  0.8317457E+02  0.0000000E+00
Ar  3183  0.2235895E+02  0.4553514E+02  0.1405578E+01  0.0000000E+00
Ar  3184  0.1972519E+02  0.4828671E+02  0.1199744E+01  0.0000000E+00
Ar  3185  0.2002866E+02  0.4510630E+02  0.4510188E+01  0.0000000E+00
Ar  3186  0.2249324E+02  0.4833723E+02  0.4007533E+01  0.0000000E+00
Ar  3187  0.2330965E+02  0.4521520E+02  0.6614014E+01  0.0000000E+00
Ar  3188  0.1945736E+02  0.4862079E+02  0.7411070E+01  0.0000000E+00
Ar  3189  0.1929882E+02  0.4546850E+02  0.9686663E+01  0.0000000E+00
Ar  3190  0.2265559E+02  0.4779676E+02  0.9534216E+01  0.0000000E+00
Ar  3191  0.2278405E+02  0.4555147E+02  0.1256174E+02  0.0000000E+00
Ar  3192  0.1974361E+02  0.4813145E+02  0.1201623E+02  0.0000000E+00
Ar  3193  0.1963876E+02  0.4561031E+02  0.1558170E+02  0.0000000E+00
Ar  3194  0.2256150E+02  0.4781414E+02  0.1549486E+02  0.0000000E+00
Ar  3195  0.2232165E+02  0.4599630E+02  0.1867130E+02  0.0000000E+00
Ar  3196  0.1876169E+02  0.4823402E+02  0.1830147E+02  0.0000000E+00
Ar  3197  0.1925421E+02  0.4543492E+02  0.2108233E+02  0.0000000E+00
Ar  3198  0.2149763E+02  0.4848343E+02  0.2113222E+02  0.0000000E+00
Ar  3199  0.2201278E+02  0.4529869E+02  0.2369773E+02  0.0000000E+00
Ar  3200  0.1941872E+02  0.4762637E+02  0.2429574E+02  0.0000000E+00
Ar  3201  0.1944748E+02  0.4511338E+02  0.2673937E+02  0.0000000E+00
Ar  3202  0.2220311E+02  0.4817869E+02  0.2623427E+02  0.0000000E+00
Ar  3203  0.2235577E+02  0.4558674E+02  0.2968968E+02  0.0000000E+00
Ar  3204  0.1916588E+02  0.4756572E+02  0.2976419E+02  0.0000000E+00
Ar  3205  0.1939483E+02  0.4512116E+02  0.3229542E+02  0.0000000E+00
Ar  3206  0.2198857E+02  0.4803927E+02  0.3197676E+02  0.0000000E+00
Ar  3207  0.2236879E+02  0.4558612E+02  0.3496779E+02  0.0000000E+00
Ar  3208  0.1992958E+02  0.4810422E+02  0.3451426E+02  0.0000000E+00
Ar  3209  0.1980355E+02  0.4547858E+02  0.3743670E+02  0.0000000E+00
Ar  3210  0.2219623E+02  0.4830169E+02  0.3778457E+02  0.0000000E+00
Ar  3211  0.2274755E+02  0.4534760E+02  0.4082880E+02  0.0000000E+00
Ar  3212  0.1946879E+02  0.4768271E+02  0.4088864E+02  0.0000000E+00
Ar  3213  0.1995199E+02  0.4560772E+02  0.4372344E+02  0.0000000E+00
Ar  3214  0.2269186E+02  0.4779746E+02  0.4325244E+02  0.0000000E+00
Ar  3215  0.2314952E+02  0.4546659E+02  0.4664339E+02  0.0000000E+00
Ar  3216  0.2035000E+02  0.4784096E+02  0.4656136E+02  0.0000000E+00
Ar  3217  0.2034697E+02  0.4518059E+02  0.4921205E+02  0.0000000E+00
Ar  3218  0.2303995E+02  0.4784163E+02  0.4960473E+02  0.0000000E+00
Ar  3219  0.2293803E+02  0.4550688E+02  0.5230528E+02  0.0000000E+00
Ar  3220  0.1994765E+02  0.4842973E+02  0.5262205E+02  0.0000000E+00
Ar  3221  0.2000066E+02  0.4546634E+02  0.5549490E+02  0.0000000E+00
Ar  3222  0.2252687E+02  0.4822682E+02  0.5538947E+02  0.0000000E+00
Ar  3223  0.2237582E+02  0.4531975E+02  0.5835334E+02  0.0000000E+00
Ar  3224  0.1978891E+02  0.4817716E+02  0.5849898E+02  0.0000000E+00
Ar  3225  0.1992195E+02  0.4544606E+02  0.6122678E+02  0.0000000E+00
Ar  3226  0.2257167E+02  0.4804644E+02  0.6118309E+02  0.0000000E+00
Ar  3227  0.2223443E+02  0.4555849E+02  0.6386703E+02  0.0000000E+00
Ar  3228  0.1945794E+02  0.4866650E+02  0.6384523E+02  0.0000000E+00
Ar  3229  0.1949926E+02  0.4505293E+02  0.6699673E+02  0.0000000E+00
Ar  3230  0.2221986E+02  0.4815271E+02  0.6686922E+02  0.0000000E+00
Ar  3231  0.2234482E+02  0.4503946E+02  0.6989050E+02  0.0000000E+00
Ar  3232  0.1977076E+02  0.4824152E+02  0.6950511E+02  0.0000000E+00
Ar  3233  0.1906060E+02  0.4576261E+02  0.7206632E+02  0.0000000E+00
Ar  3234  0.2236556E+02  0.4831604E+02  0.7212175E+02  0.0000000E+00
Ar  3235  0.2212756E+02  0.4571065E+02  0.7500377E+02  0.0000000E+00
Ar  3236  0.1903463E+02  0.4820390E+02  0.7441675E+02  0.0000000E+00
Ar  3237  0.1976889E+02  0.4583869E+02  0.7792784E+02  0.0000000E+00
Ar  3238  0.2215773E+02  0.4849743E+02  0.7742380E+02  0.0000000E+00
Ar  3239  0.2263797E+02  0.4569601E+02  0.7999812E+02  0.0000000E+00
Ar  3240  0.2020172E+02  0.4839339E+02  0.8038774E+02  0.0000000E+00
Ar  3241  0.1958733E+02  0.5130354E+02  0.8307882E+02  0.0000000E+00
Ar  3242  0.2222296E+02  0.5388835E+02  0.8282292E+02  0.0000000E+00
Ar  3243  0.2251183E+02  0.5109924E+02  0.1503920E+01  0.0000000E+00
Ar  3244  0.1960327E+02  0.5350413E+02  0.1403032E+01  0.0000000E+00
Ar  3245  0.1960799E+02  0.5072554E+02  0.4422273E+01  0.0000000E+00
Ar  3246  0.2235371E+02  0.5393575E+02  0.4402188E+01  0.0000000E+00
Ar  3247  0.2266934E+02  0.5085000E+02  0.6977045E+01  0.0000000E+00
Ar  3248  0.1872708E+02  0.5355853E+02  0.6532699E+01  0.0000000E+00
Ar  3249  0.1952477E+02  0.5128160E+02  0.9877031E+01  0.0000000E+00
Ar  3250  0.2280050E+02  0.5343331E+02  0.1026892E+02  0.0000000E+00
Ar  3251  0.2255069E+02  0.5026765E+02  0.1239634E+02  0.0000000E+00
Ar  3252  0.1982560E+02  0.5289194E+02  0.1279447E+02  0.0000000E+00
Ar  3253  0.1944048E+02  0.5038110E+02  0.1529045E+02  0.0000000E+00
Ar  3254  0.2266059E+02  0.5301434E+02  0.1559253E+02  0.0000000E+00
Ar  3255  0.2191367E+02  0.5079102E+02  0.1852053E+02  0.0000000E+00
Ar  3256  0.1930279E+02  0.5344468E+02  0.1869594E+02  0.0000000E+00
Ar  3257  0.1902667E+02  0.5053824E+02  0.2178267E+02  0.0000000E+00
Ar  3258  0.2199928E+02  0.5389473E+02  0.2128262E+02  0.0000000E+00
Ar  3259  0.2269738E+02  0.5126898E+02  0.2386918E+02  0.0000000E+00
Ar  3260  0.1936674E+02  0.5365682E+02  0.2355922E+02  0.0000000E+00
Ar  3261  0.1916707E+02  0.5099940E+02  0.2610437E+02  0.0000000E+00
Ar  3262  0.2229642E+02  0.5295337E+02  0.2683969E+02  0.0000000E+00
Ar  3263  0.2183433E+02  0.5040109E+02  0.2939330E+02  0.0000000E+00
Ar  3264  0.1996871E+02  0.5365140E+02  0.2937251E+02  0.0000000E+00
Ar  3265  0.1920428E+02  0.5088910E+02  0.3227518E+02  0.0000000E+00
Ar  3266  0.2228406E+02  0.5255836E+02  0.3175662E+02  0.0000000E+00
Ar  3267  0.2249209E+02  0.5118229E+02  0.3492535E+02  0.0000000E+00
Ar  3268  0.1951356E+02  0.5348793E+02  0.3523487E+02  0.0000000E+00
Ar  3269  0.2015955E+02  0.5096960E+02  0.3792123E+02  0.0000000E+00
Ar  3270  0.2260341E+02  0.5386767E+02  0.3820232E+02  0.0000000E+00
Ar  3271  0.2221776E+02  0.5061839E+02  0.4161143E+02  0.0000000E+00
Ar  3272  0.1984249E+02  0.5355406E+02  0.4075754E+02  0.0000000E+00
Ar  3273  0.1922039E+02  0.5122193E+02  0.4371716E+02  0.0000000E+00
Ar  3274  0.2264198E+02  0.5389418E+02  0.4377611E+02  0.0000000E+00
Ar  3275  0.2226339E+02  0.5129348E+02  0.4650055E+02  0.0000000E+00
Ar  3276  0.1960572E+02  0.5404448E+02  0.4708354E+02  0.0000000E+00
Ar  3277  0.2050851E+02  0.5042488E+02  0.4944431E+02  0.0000000E+00
Ar  3278  0.2274836E+02  0.5344430E+02  0.4952787E+02  0.0000000E+00
Ar  3279  0.2253620E+02  0.5133181E+02  0.5228508E+02  0.0000000E+00
Ar  3280  0.1978728E+02  0.5358054E+02  0.5126169E+02  0.0000000E+00
Ar  3281  0.2000367E+02  0.5149651E+02  0.5530266E+02  0.0000000E+00
Ar  3282  0.2232081E+02  0.5413513E+02  0.5541333E+02  0.0000000E+00
Ar  3283  0.2234934E+02  0.5126440E+02  0.5822276E+02  0.0000000E+00
Ar  3284  0.1961292E+02  0.5452966E+02  0.5778023E+02  0.0000000E+00
Ar  3285  0.1982122E+02  0.5081832E+02  0.6080639E+02  0.0000000E+00
Ar  3286  0.2210686E+02  0.5435506E+02  0.6037544E+02  0.0000000E+00
Ar  3287  0.2206954E+02  0.5148564E+02  0.6351470E+02  0.0000000E+00
Ar  3288  0.1952403E+02  0.5400893E+02  0.6296364E+02  0.0000000E+00
Ar  3289  0.1919268E+02  0.5174399E+02  0.6610873E+02  0.0000000E+00
Ar  3290  0.2205611E+02  0.5410450E+02  0.6601190E+02  0.0000000E+00
Ar  3291  0.2236619E+02  0.5108447E+02  0.6966986E+02  0.0000000E+00
Ar  3292  0.1966039E+02  0.5333751E+02  0.6903989E+02  0.0000000E+00
Ar  3293  0.1879054E+02  0.5096345E+02  0.7183431E+02  0.0000000E+00
Ar  3294  0.2221568E+02  0.5445014E+02  0.7182732E+02  0.0000000E+00
Ar  3295  0.2187012E+02  0.5125215E+02  0.7506449E+02  0.0000000E+00
Ar  3296  0.1951705E+02  0.5447896E+02  0.7456535E+02  0.0000000E+00
Ar  3297  0.1955339E+02  0.5144094E+02  0.7794078E+02  0.0000000E+00
Ar  3298  0.2188617E+02  0.5443895E+02  0.7728659E+02  0.0000000E+00
Ar  3299  0.2277007E+02  0.5108752E+02  0.8069799E+02  0.0000000E+00
Ar  3300  0.1947995E+02  0.5404231E+02  0.8018930E+02  0.0000000E+00
Ar  3301  0.1927396E+02  0.5668014E+02  0.8318605E+02  0.0000000E+00
Ar  3302  0.2196224E+02  0.5925952E+02  0.8317593E+02  0.0000000E+00
Ar  3303  0.2200757E+02  0.5629665E+02  0.1444347E+01  0.0000000E+00
Ar  3304  0.2079251E+02  0.5986265E+02  0.1973441E+01  0.0000000E+00
Ar  3305  0.1957001E+02  0.5642536E+02  0.3962735E+01  0.0000000E+00
Ar  3306  0.2281797E+02  0.5846041E+02  0.4582733E+01  0.0000000E+00
Ar  3307  0.2243742E+02  0.5579085E+02  0.7580992E+01  0.0000000E+00
Ar  3308  0.1947553E+02  0.5947712E+02  0.6992558E+01  0.0000000E+00
Ar  3309  0.1897011E+02  0.5610434E+02  0.9225283E+01  0.0000000E+00
Ar  3310  0.2216141E+02  0.5947429E+02  0.9738402E+01  0.0000000E+00
Ar  3311  0.2189074E+02  0.5594288E+02  0.1302447E+02  0.0000000E+00
Ar  3312  0.1922103E+02  0.5915153E+02  0.1217443E+02  0.0000000E+00
Ar  3313  0.1923445E+02  0.5619728E+02  0.1587334E+02  0.0000000E+00
Ar  3314  0.2175886E+02  0.5922485E+02  0.1536690E+02  0.0000000E+00
Ar  3315  0.2203599E+02  0.5611070E+02  0.1736231E+02  0.0000000E+00
Ar  3316  0.1941121E+02  0.5912440E+02  0.1797021E+02  0.0000000E+00
Ar  3317  0.1918922E+02  0.5644055E+02  0.2087741E+02  0.0000000E+00
Ar  3318  0.2192158E+02  0.5859143E+02  0.2083680E+02  0.0000000E+00
Ar  3319  0.2206919E+02  0.5612739E+02  0.2367071E+02  0.0000000E+00
Ar  3320  0.1923759E+02  0.5899954E+02  0.2384045E+02  0.0000000E+00
Ar  3321  0.1973072E+02  0.5557418E+02  0.2661372E+02  0.0000000E+00
Ar  3322  0.2219752E+02  0.5908642E+02  0.2617667E+02  0.0000000E+00
Ar  3323  0.2150682E+02  0.5716887E+02  0.2960620E+02  0.0000000E+00
Ar  3324  0.1942597E+02  0.6018632E+02  0.3026323E+02  0.0000000E+00
Ar  3325  0.2004507E+02  0.5614176E+02  0.3284379E+02  0.0000000E+00
Ar  3326  0.2256396E+02  0.5997038E+02  0.3212513E+02  0.0000000E+00
Ar  3327  0.2289642E+02  0.5607570E+02  0.3533650E+02  0.0000000E+00
Ar  3328  0.1873784E+02  0.5948934E+02  0.3483903E+02  0.0000000E+00
Ar  3329  0.1954454E+02  0.5654546E+02  0.3723624E+02  0.0000000E+00
Ar  3330  0.2240644E+02  0.5853911E+02  0.3812073E+02  0.0000000E+00
Ar  3331  0.2222587E+02  0.5635339E+02  0.4087826E+02  0.0000000E+00
Ar  3332  0.1987338E+02  0.5942425E+02  0.4063776E+02  0.0000000E+00
Ar  3333  0.2005817E+02  0.5668661E+02  0.4414291E+02  0.0000000E+00
Ar  3334  0.2219754E+02  0.5966157E+02  0.4363903E+02  0.0000000E+00
Ar  3335  0.2265183E+02  0.5679573E+02  0.4699092E+02  0.0000000E+00
Ar  3336  0.1959406E+02  0.6005484E+02  0.4601883E+02  0.0000000E+00
Ar  3337  0.1967681E+02  0.5673121E+02  0.4918751E+02  0.0000000E+00
Ar  3338  0.2254208E+02  0.5941594E+02  0.4958119E+02  0.0000000E+00
Ar  3339  0.2251336E+02  0.5633928E+02  0.5252516E+02  0.0000000E+00
Ar  3340  0.1946341E+02  0.5916940E+02  0.5166741E+02  0.0000000E+00
Ar  3341  0.1980515E+02  0.5653022E+02  0.5510686E+02  0.0000000E+00
Ar  3342  0.2230440E+02  0.5957490E+02  0.5410292E+02  0.0000000E+00
Ar  3343  0.2252981E+02  0.5732976E+02  0.5757031E+02  0.0000000E+00
Ar  3344  0.1991649E+02  0.5956746E+02  0.5722316E+02  0.0000000E+00
Ar  3345  0.1985476E+02  0.5728718E+02  0.6057706E+02  0.0000000E+00
Ar  3346  0.2260305E+02  0.5980278E+02  0.6033837E+02  0.0000000E+00
Ar  3347  0.2214338E+02  0.5661118E+02  0.6377686E+02  0.0000000E+00
Ar  3348  0.1920448E+02  0.5904287E+02  0.6357464E+02  0.0000000E+00
Ar  3349  0.1903064E+02  0.5563890E+02  0.6612745E+02  0.0000000E+00
Ar  3350  0.2259933E+02  0.5963129E+02  0.6595640E+02  0.0000000E+00
Ar  3351  0.2203488E+02  0.5647903E+02  0.6849128E+02  0.0000000E+00
Ar  3352  0.1917825E+02  0.5918254E+02  0.6800746E+02  0.0000000E+00
Ar  3353  0.1914559E+02  0.5692428E+02  0.7147732E+02  0.0000000E+00
Ar  3354  0.2239025E+02  0.5924862E+02  0.7170878E+02  0.0000000E+00
Ar  3355  0.2278155E+02  0.5715038E+02  0.7434200E+02  0.0000000E+00
Ar  3356  0.1955285E+02  0.5906538E+02  0.7420978E+02  0.0000000E+00
Ar  3357  0.1939368E+02  0.5682995E+02  0.7705079E+02  0.0000000E+00
Ar  3358  0.2207422E+02  0.5940273E+02  0.7696128E+02  0.0000000E+00
Ar  3359  0.2214232E+02  0.5693163E+02  0.8012696E+02  0.0000000E+00
Ar  3360  0.1950366E+02  0.5997868E+02  0.8038524E+02  0.0000000E+00
Ar  3361  0.1939093E+02  0.6251820E+02  0.8292644E+02  0.0000000E+00
Ar  3362  0.2243906E+02  0.6477496E+02  0.8265489E+02  0.0000000E+00
Ar  3363  0.2249331E+02  0.6279637E+02  0.1573946E+01  0.0000000E+00
Ar  3364  0.1965209E+02  0.6517013E+02  0.1448579E+01  0.0000000E+00
Ar  3365  0.1993980E+02  0.6247252E+02  0.4376657E+01  0.0000000E+00
Ar  3366  0.2277670E+02  0.6523125E+02  0.4438167E+01  0.0000000E+00
Ar  3367  0.2202438E+02  0.6249992E+02  0.7346080E+01  0.0000000E+00
Ar  3368  0.1937551E+02  0.6476544E+02  0.7480517E+01  0.0000000E+00
Ar  3369  0.1931484E+02  0.6187194E+02  0.1006763E+02  0.0000000E+00
Ar  3370  0.2257179E+02  0.6449259E+02  0.1040342E+02  0.0000000E+00
Ar  3371  0.2212942E+02  0.6156871E+02  0.1255484E+02  0.0000000E+00
Ar  3372  0.1955775E+02  0.6465759E+02  0.1240697E+02  0.0000000E+00
Ar  3373  0.1931491E+02  0.6171332E+02  0.1530290E+02  0.0000000E+00
Ar  3374  0.2164507E+02  0.6455830E+02  0.1541082E+02  0.0000000E+00
Ar  3375  0.2245173E+02  0.6148525E+02  0.1830898E+02  0.0000000E+00
Ar  3376  0.1960003E+02  0.6504201E+02  0.1843815E+02  0.0000000E+00
Ar  3377  0.1971541E+02  0.6146109E+02  0.2123741E+02  0.0000000E+00
Ar  3378  0.2273075E+02  0.6455332E+02  0.2032022E+02  0.0000000E+00
Ar  3379  0.2262107E+02  0.6155692E+02  0.2333051E+02  0.0000000E+00
Ar  3380  0.1943375E+02  0.6388763E+02  0.2388519E+02  0.0000000E+00
Ar  3381  0.1965623E+02  0.6199156E+02  0.2695778E+02  0.0000000E+00
Ar  3382  0.2218138E+02  0.6495475E+02  0.2613282E+02  0.0000000E+00
Ar  3383  0.2243334E+02  0.6253734E+02  0.2937414E+02  0.0000000E+00
Ar  3384  0.1923590E+02  0.6437493E+02  0.2959846E+02  0.0000000E+00
Ar  3385  0.1947967E+02  0.6269963E+02  0.3289129E+02  0.0000000E+00
Ar  3386  0.2210355E+02  0.6481131E+02  0.3218131E+02  0.0000000E+00
Ar  3387  0.2201941E+02  0.6123116E+02  0.3537192E+02  0.0000000E+00
Ar  3388  0.1928224E+02  0.6538377E+02  0.3555943E+02  0.0000000E+00
Ar  3389  0.1954292E+02  0.6229100E+02  0.3741596E+02  0.0000000E+00
Ar  3390  0.2236610E+02  0.6565974E+02  0.3775936E+02  0.0000000E+00
Ar  3391  0.2261208E+02  0.6260923E+02  0.4075116E+02  0.0000000E+00
Ar  3392  0.1959459E+02  0.6488330E+02  0.4000657E+02  0.0000000E+00
Ar  3393  0.1970565E+02  0.6236730E+02  0.4316214E+02  0.0000000E+00
Ar  3394  0.2258470E+02  0.6563281E+02  0.4343226E+02  0.0000000E+00
Ar  3395  0.2190451E+02  0.6303623E+02  0.4637992E+02  0.0000000E+00
Ar  3396  0.1916069E+02  0.6553319E+02  0.4578682E+02  0.0000000E+00
Ar  3397  0.1954614E+02  0.6234568E+02  0.4896549E+02  0.0000000E+00
Ar  3398  0.2125788E+02  0.6576267E+02  0.4895379E+02  0.0000000E+00
Ar  3399  0.2188426E+02  0.6258982E+02  0.5182303E+02  0.0000000E+00
Ar  3400  0.1929264E+02  0.6512992E+02  0.5194695E+02  0.0000000E+00
Ar  3401  0.1981404E+02  0.6231950E+02  0.5466982E+02  0.0000000E+00
Ar  3402  0.2256179E+02  0.6492980E+02  0.5493917E+02  0.0000000E+00
Ar  3403  0.2299293E+02  0.6259460E+02  0.5756275E+02  0.0000000E+00
Ar  3404  0.2019493E+02  0.6445379E+02  0.5787565E+02  0.0000000E+00
Ar  3405  0.1969722E+02  0.6228619E+02  0.6073405E+02  0.0000000E+00
Ar  3406  0.2206386E+02  0.6486510E+02  0.6108271E+02  0.0000000E+00
Ar  3407  0.2217104E+02  0.6170339E+02  0.6340610E+02  0.0000000E+00
Ar  3408  0.1942094E+02  0.6557684E+02  0.6324473E+02  0.0000000E+00
Ar  3409  0.1962536E+02  0.6253952E+02  0.6577893E+02  0.0000000E+00
Ar  3410  0.2256508E+02  0.6472239E+02  0.6547927E+02  0.0000000E+00
Ar  3411  0.2276656E+02  0.6255242E+02  0.6821226E+02  0.0000000E+00
Ar  3412  0.1940109E+02  0.6464898E+02  0.6887945E+02  0.0000000E+00
Ar  3413  0.2015797E+02  0.6177832E+02  0.7052675E+02  0.0000000E+00
Ar  3414  0.2184797E+02  0.6461927E+02  0.7193485E+02  0.0000000E+00
Ar  3415  0.2153394E+02  0.6190922E+02  0.7443572E+02  0.0000000E+00
Ar  3416  0.1942209E+02  0.6536992E+02  0.7495011E+02  0.0000000E+00
Ar  3417  0.1930751E+02  0.6194445E+02  0.7742360E+02  0.0000000E+00
Ar  3418  0.2219946E+02  0.6454107E+02  0.7663193E+02  0.0000000E+00
Ar  3419  0.2219679E+02  0.6233034E+02  0.7994427E+02  0.0000000E+00
Ar  3420  0.1976344E+02  0.6503390E+02  0.7957875E+02  0.0000000E+00
Ar  3421  0.2025156E+02  0.6761442E+02  0.8318623E+02  0.0000000E+00
Ar  3422  0.2247545E+02  0.7042950E+02  0.8358261E+02  0.0000000E+00
Ar  3423  0.2266960E+02  0.6763571E+02  0.1608627E+01  0.0000000E+00
Ar  3424  0.1965185E+02  0.7059391E+02  0.1702357E+01  0.0000000E+00
Ar  3425  0.2017061E+02  0.6780907E+02  0.4402094E+01  0.0000000E+00
Ar  3426  0.2299568E+02  0.7071081E+02  0.3561568E+01  0.0000000E+00
Ar  3427  0.2279133E+02  0.6787082E+02  0.7479763E+01  0.0000000E+00
Ar  3428  0.1960916E+02  0.7038630E+02  0.7877943E+01  0.0000000E+00
Ar  3429  0.1976517E+02  0.6762206E+02  0.1061704E+02  0.0000000E+00
Ar  3430  0.2257479E+02  0.7056402E+02  0.1007622E+02  0.0000000E+00
Ar  3431  0.2292566E+02  0.6727771E+02  0.1292804E+02  0.0000000E+00
Ar  3432  0.1950116E+02  0.7061502E+02  0.1265035E+02  0.0000000E+00
Ar  3433  0.1937460E+02  0.6745502E+02  0.1497043E+02  0.0000000E+00
Ar  3434  0.2167419E+02  0.7092224E+02  0.1530711E+02  0.0000000E+00
Ar  3435  0.2290465E+02  0.6774379E+02  0.1734283E+02  0.0000000E+00
Ar  3436  0.1957824E+02  0.6999375E+02  0.1844374E+02  0.0000000E+00
Ar  3437  0.1935358E+02  0.6830063E+02  0.2165044E+02  0.0000000E+00
Ar  3438  0.2347466E+02  0.7033768E+02  0.2132501E+02  0.0000000E+00
Ar  3439  0.2302536E+02  0.6702000E+02  0.2339081E+02  0.0000000E+00
Ar  3440  0.1897972E+02  0.7056727E+02  0.2471458E+02  0.0000000E+00
Ar  3441  0.1876819E+02  0.6729900E+02  0.2563387E+02  0.0000000E+00
Ar  3442  0.2233198E+02  0.6982988E+02  0.2598955E+02  0.0000000E+00
Ar  3443  0.2169766E+02  0.6772094E+02  0.2881318E+02  0.0000000E+00
Ar  3444  0.1879016E+02  0.7039581E+02  0.2882973E+02  0.0000000E+00
Ar  3445  0.1879299E+02  0.6776000E+02  0.3281071E+02  0.0000000E+00
Ar  3446  0.2141458E+02  0.7022249E+02  0.3205282E+02  0.0000000E+00
Ar  3447  0.2215459E+02  0.6798540E+02  0.3467828E+02  0.0000000E+00
Ar  3448  0.1902776E+02  0.7090482E+02  0.3473730E+02  0.0000000E+00
Ar  3449  0.1936957E+02  0.6819272E+02  0.3788243E+02  0.0000000E+00
Ar  3450  0.2248382E+02  0.7068008E+02  0.3720144E+02  0.0000000E+00
Ar  3451  0.2150148E+02  0.6861887E+02  0.4080659E+02  0.0000000E+00
Ar  3452  0.1928106E+02  0.7097603E+02  0.4045854E+02  0.0000000E+00
Ar  3453  0.1944612E+02  0.6844548E+02  0.4388867E+02  0.0000000E+00
Ar  3454  0.2215522E+02  0.7115967E+02  0.4341510E+02  0.0000000E+00
Ar  3455  0.2197256E+02  0.6788397E+02  0.4609687E+02  0.0000000E+00
Ar  3456  0.1935419E+02  0.7092910E+02  0.4609708E+02  0.0000000E+00
Ar  3457  0.1896016E+02  0.6860725E+02  0.4880680E+02  0.0000000E+00
Ar  3458  0.2192268E+02  0.7042252E+02  0.4883225E+02  0.0000000E+00
Ar  3459  0.2253331E+02  0.6730643E+02  0.5189224E+02  0.0000000E+00
Ar  3460  0.1981065E+02  0.7017512E+02  0.5218900E+02  0.0000000E+00
Ar  3461  0.2000688E+02  0.6706397E+02  0.5476360E+02  0.0000000E+00
Ar  3462  0.2211258E+02  0.7011509E+02  0.5534158E+02  0.0000000E+00
Ar  3463  0.2243092E+02  0.6753071E+02  0.5756822E+02  0.0000000E+00
Ar  3464  0.1988009E+02  0.7038687E+02  0.5802967E+02  0.0000000E+00
Ar  3465  0.1941093E+02  0.6797548E+02  0.6030402E+02  0.0000000E+00
Ar  3466  0.2242213E+02  0.7027346E+02  0.6068834E+02  0.0000000E+00
Ar  3467  0.2197950E+02  0.6783655E+02  0.6317967E+02  0.0000000E+00
Ar  3468  0.1895263E+02  0.7094856E+02  0.6313102E+02  0.0000000E+00
Ar  3469  0.1957430E+02  0.6793547E+02  0.6591741E+02  0.0000000E+00
Ar  3470  0.2223881E+02  0.7045282E+02  0.6560868E+02  0.0000000E+00
Ar  3471  0.2213592E+02  0.6753563E+02  0.6832234E+02  0.0000000E+00
Ar  3472  0.1932170E+02  0.6993906E+02  0.6906782E+02  0.0000000E+00
Ar  3473  0.1857289E+02  0.6746369E+02  0.7183775E+02  0.0000000E+00
Ar  3474  0.2222045E+02  0.6958937E+02  0.7135001E+02  0.0000000E+00
Ar  3475  0.2244263E+02  0.6771474E+02  0.7478797E+02  0.0000000E+00
Ar  3476  0.1967653E+02  0.7047615E+02  0.7424649E+02  0.0000000E+00
Ar  3477  0.1950394E+02  0.6792102E+02  0.7744696E+02  0.0000000E+00
Ar  3478  0.2230812E+02  0.7063558E+02  0.7727137E+02  0.0000000E+00
Ar  3479  0.2249189E+02  0.6728313E+02  0.8006628E+02  0.0000000E+00
Ar  3480  0.1936369E+02  0.7034331E+02  0.8000490E+02  0.0000000E+00
Ar  3481  0.1912016E+02  0.7275186E+02  0.8299043E+02  0.0000000E+00
Ar  3482  0.2262842E+02  0.7611427E+02  0.8273071E+02  0.0000000E+00
Ar  3483  0.2179617E+02  0.7316459E+02  0.1176477E+01  0.0000000E+00
Ar  3484  0.1979669E+02  0.7660158E+02  0.5522890E+00  0.0000000E+00
Ar  3485  0.2007200E+02  0.7251763E+02  0.4600260E+01  0.0000000E+00
Ar  3486  0.2200612E+02  0.7599396E+02  0.3573031E+01  0.0000000E+00
Ar  3487  0.2267915E+02  0.7360315E+02  0.7245706E+01  0.0000000E+00
Ar  3488  0.1931861E+02  0.7587377E+02  0.7273329E+01  0.0000000E+00
Ar  3489  0.1929078E+02  0.7346771E+02  0.1000084E+02  0.0000000E+00
Ar  3490  0.2248783E+02  0.7580721E+02  0.1062661E+02  0.0000000E+00
Ar  3491  0.2282273E+02  0.7284502E+02  0.1260853E+02  0.0000000E+00
Ar  3492  0.1960451E+02  0.7607971E+02  0.1284704E+02  0.0000000E+00
Ar  3493  0.1962621E+02  0.7404945E+02  0.1620853E+02  0.0000000E+00
Ar  3494  0.2236877E+02  0.7589871E+02  0.1555725E+02  0.0000000E+00
Ar  3495  0.2204863E+02  0.7266450E+02  0.1858198E+02  0.0000000E+00
Ar  3496  0.1922731E+02  0.7666918E+02  0.1853993E+02  0.0000000E+00
Ar  3497  0.1927817E+02  0.7366827E+02  0.2093020E+02  0.0000000E+00
Ar  3498  0.2241025E+02  0.7547848E+02  0.2053613E+02  0.0000000E+00
Ar  3499  0.2202127E+02  0.7288385E+02  0.2355948E+02  0.0000000E+00
Ar  3500  0.2028900E+02  0.7619685E+02  0.2364981E+02  0.0000000E+00
Ar  3501  0.1882654E+02  0.7352220E+02  0.2662351E+02  0.0000000E+00
Ar  3502  0.2224232E+02  0.7628129E+02  0.2723135E+02  0.0000000E+00
Ar  3503  0.2185159E+02  0.7264864E+02  0.2844312E+02  0.0000000E+00
Ar  3504  0.1925310E+02  0.7615322E+02  0.2899121E+02  0.0000000E+00
Ar  3505  0.1919616E+02  0.7287528E+02  0.3091482E+02  0.0000000E+00
Ar  3506  0.2210938E+02  0.7562556E+02  0.3104362E+02  0.0000000E+00
Ar  3507  0.2244181E+02  0.7330479E+02  0.3466033E+02  0.0000000E+00
Ar  3508  0.1937372E+02  0.7594602E+02  0.3461814E+02  0.0000000E+00
Ar  3509  0.1983295E+02  0.7305014E+02  0.3760490E+02  0.0000000E+00
Ar  3510  0.2224864E+02  0.7601481E+02  0.3747567E+02  0.0000000E+00
Ar  3511  0.2264813E+02  0.7321201E+02  0.4013184E+02  0.0000000E+00
Ar  3512  0.1912705E+02  0.7548825E+02  0.4026356E+02  0.0000000E+00
Ar  3513  0.1880875E+02  0.7359887E+02  0.4334402E+02  0.0000000E+00
Ar  3514  0.2239863E+02  0.7652831E+02  0.4350269E+02  0.0000000E+00
Ar  3515  0.2182087E+02  0.7371921E+02  0.4614908E+02  0.0000000E+00
Ar  3516  0.1913624E+02  0.7630384E+02  0.4635940E+02  0.0000000E+00
Ar  3517  0.1918253E+02  0.7344433E+02  0.4893591E+02  0.0000000E+00
Ar  3518  0.2157939E+02  0.7617760E+02  0.4869343E+02  0.0000000E+00
Ar  3519  0.2219917E+02  0.7321307E+02  0.5137812E+02  0.0000000E+00
Ar  3520  0.1889797E+02  0.7626724E+02  0.5133478E+02  0.0000000E+00
Ar  3521  0.1938336E+02  0.7283887E+02  0.5484845E+02  0.0000000E+00
Ar  3522  0.2213392E+02  0.7551867E+02  0.5491839E+02  0.0000000E+00
Ar  3523  0.2200534E+02  0.7311257E+02  0.5780818E+02  0.0000000E+00
Ar  3524  0.1884183E+02  0.7605022E+02  0.5738039E+02  0.0000000E+00
Ar  3525  0.1898561E+02  0.7310132E+02  0.6005949E+02  0.0000000E+00
Ar  3526  0.2139220E+02  0.7658203E+02  0.6029139E+02  0.0000000E+00
Ar  3527  0.2213365E+02  0.7324825E+02  0.6225868E+02  0.0000000E+00
Ar  3528  0.1968223E+02  0.7606742E+02  0.6350443E+02  0.0000000E+00
Ar  3529  0.1958978E+02  0.7326370E+02  0.6594648E+02  0.0000000E+00
Ar  3530  0.2227122E+02  0.7623206E+02  0.6577375E+02  0.0000000E+00
Ar  3531  0.2239970E+02  0.7297608E+02  0.6897790E+02  0.0000000E+00
Ar  3532  0.2008551E+02  0.7553013E+02  0.6843711E+02  0.0000000E+00
Ar  3533  0.1979742E+02  0.7255988E+02  0.7140197E+02  0.0000000E+00
Ar  3534  0.2190709E+02  0.7630904E+02  0.7147549E+02  0.0000000E+00
Ar  3535  0.2225055E+02  0.7364032E+02  0.7465133E+02  0.0000000E+00
Ar  3536  0.1917894E+02  0.7621285E+02  0.7428973E+02  0.0000000E+00
Ar  3537  0.1963504E+02  0.7298807E+02  0.7686414E+02  0.0000000E+00
Ar  3538  0.2180933E+02  0.7641597E+02  0.7735413E+02  0.0000000E+00
Ar  3539  0.2197848E+02  0.7322181E+02  0.8010553E+02  0.0000000E+00
Ar  3540  0.1955776E+02  0.7623378E+02  0.8030887E+02  0.0000000E+00
Ar  3541  0.1856004E+02  0.7946378E+02  0.8228368E+02  0.0000000E+00
Ar  3542  0.2268935E+02  0.8174760E+02  0.8277051E+02  0.0000000E+00
Ar  3543  0.2254815E+02  0.7890875E+02  0.1020550E+01  0.0000000E+00
Ar  3544  0.1884867E+02  0.8261373E+02  0.2226269E+01  0.0000000E+00
Ar  3545  0.1997938E+02  0.7974437E+02  0.3691367E+01  0.0000000E+00
Ar  3546  0.2246498E+02  0.8208834E+02  0.3863659E+01  0.0000000E+00
Ar  3547  0.2212812E+02  0.7791229E+02  0.7429496E+01  0.0000000E+00
Ar  3548  0.2035388E+02  0.8172708E+02  0.7190996E+01  0.0000000E+00
Ar  3549  0.1954554E+02  0.7901028E+02  0.1060582E+02  0.0000000E+00
Ar  3550  0.2223159E+02  0.8171999E+02  0.1007168E+02  0.0000000E+00
Ar  3551  0.2258784E+02  0.7877001E+02  0.1315471E+02  0.0000000E+00
Ar  3552  0.1954278E+02  0.8177180E+02  0.1294624E+02  0.0000000E+00
Ar  3553  0.1968103E+02  0.7905052E+02  0.1564543E+02  0.0000000E+00
Ar  3554  0.2223536E+02  0.8211986E+02  0.1557549E+02  0.0000000E+00
Ar  3555  0.2252963E+02  0.7881893E+02  0.1829686E+02  0.0000000E+00
Ar  3556  0.1997973E+02  0.8154671E+02  0.1813404E+02  0.0000000E+00
Ar  3557  0.1989818E+02  0.7902493E+02  0.2118493E+02  0.0000000E+00
Ar  3558  0.2201790E+02  0.8212258E+02  0.2166477E+02  0.0000000E+00
Ar  3559  0.2185734E+02  0.7910708E+02  0.2414708E+02  0.0000000E+00
Ar  3560  0.1955108E+02  0.8244887E+02  0.2427459E+02  0.0000000E+00
Ar  3561  0.1925347E+02  0.7910425E+02  0.2670198E+02  0.0000000E+00
Ar  3562  0.2230751E+02  0.8196926E+02  0.2657124E+02  0.0000000E+00
Ar  3563  0.2163589E+02  0.7957721E+02  0.2942408E+02  0.0000000E+00
Ar  3564  0.1405295E+02  0.8182098E+02  0.2936665E+02  0.0000000E+00
Ar  3565  0.1907443E+02  0.7939685E+02  0.3221311E+02  0.0000000E+00
Ar  3566  0.2224865E+02  0.8140472E+02  0.3273071E+02  0.0000000E+00
Ar  3567  0.2171655E+02  0.7874899E+02  0.3458287E+02  0.0000000E+00
Ar  3568  0.1932295E+02  0.8272856E+02  0.3505831E+02  0.0000000E+00
Ar  3569  0.1954516E+02  0.7798826E+02  0.3750246E+02  0.0000000E+00
Ar  3570  0.2130141E+02  0.8123769E+02  0.3753112E+02  0.0000000E+00
Ar  3571  0.2179560E+02  0.7885024E+02  0.4040679E+02  0.0000000E+00
Ar  3572  0.1991634E+02  0.8205740E+02  0.4081831E+02  0.0000000E+00
Ar  3573  0.1936175E+02  0.7907742E+02  0.4386912E+02  0.0000000E+00
Ar  3574  0.2211368E+02  0.8211457E+02  0.4346046E+02  0.0000000E+00
Ar  3575  0.2223287E+02  0.7903066E+02  0.4641069E+02  0.0000000E+00
Ar  3576  0.1925879E+02  0.8135418E+02  0.4659090E+02  0.0000000E+00
Ar  3577  0.1898128E+02  0.7902419E+02  0.4904585E+02  0.0000000E+00
Ar  3578  0.2209199E+02  0.8124077E+02  0.4956132E+02  0.0000000E+00
Ar  3579  0.2264584E+02  0.7864374E+02  0.5202090E+02  0.0000000E+00
Ar  3580  0.1918393E+02  0.8111588E+02  0.5212389E+02  0.0000000E+00
Ar  3581  0.1910995E+02  0.7861795E+02  0.5459213E+02  0.0000000E+00
Ar  3582  0.2255946E+02  0.8127786E+02  0.5475285E+02  0.0000000E+00
Ar  3583  0.2202113E+02  0.7853946E+02  0.5742019E+02  0.0000000E+00
Ar  3584  0.1972912E+02  0.8200859E+02  0.5776364E+02  0.0000000E+00
Ar  3585  0.1895652E+02  0.7938993E+02  0.6028926E+02  0.0000000E+00
Ar  3586  0.2227893E+02  0.8195955E+02  0.6057720E+02  0.0000000E+00
Ar  3587  0.2196180E+02  0.7928834E+02  0.6296795E+02  0.0000000E+00
Ar  3588  0.1984836E+02  0.8201673E+02  0.6379588E+02  0.0000000E+00
Ar  3589  0.2004592E+02  0.7899594E+02  0.6587306E+02  0.0000000E+00
Ar  3590  0.2229482E+02  0.8165808E+02  0.6649610E+02  0.0000000E+00
Ar  3591  0.2202048E+02  0.7901694E+02  0.6920337E+02  0.0000000E+00
Ar  3592  0.1967271E+02  0.8155621E+02  0.6895628E+02  0.0000000E+00
Ar  3593  0.1961092E+02  0.7918110E+02  0.7174011E+02  0.0000000E+00
Ar  3594  0.2260521E+02  0.8126541E+02  0.7213160E+02  0.0000000E+00
Ar  3595  0.2216069E+02  0.7879442E+02  0.7483227E+02  0.0000000E+00
Ar  3596  0.1981963E+02  0.8170895E+02  0.7500058E+02  0.0000000E+00
Ar  3597  0.1934706E+02  0.7883062E+02  0.7720374E+02  0.0000000E+00
Ar  3598  0.2235796E+02  0.8196907E+02  0.7798467E+02  0.0000000E+00
Ar  3599  0.2208272E+02  0.7871419E+02  0.8042562E+02  0.0000000E+00
Ar  3600  0.1918947E+02  0.8216170E+02  0.7963076E+02  0.0000000E+00
Ar  3601  0.2489165E+02  0.1044500E+01  0.8413875E+02  0.0000000E+00
Ar  3602  0.2752112E+02  0.3615386E+01  0.8279570E+02  0.0000000E+00
Ar  3603  0.2819384E+02  0.3916908E+00  0.1716424E+01  0.0000000E+00
Ar  3604  0.2494407E+02  0.3859897E+01  0.1545728E+01  0.0000000E+00
Ar  3605  0.2491692E+02  0.1027877E+01  0.3715707E+01  0.0000000E+00
Ar  3606  0.2814975E+02  0.3683424E+01  0.4639440E+01  0.0000000E+00
Ar  3607  0.2703167E+02  0.1187457E+01  0.7187273E+01  0.0000000E+00
Ar  3608  0.2478540E+02  0.3689752E+01  0.6542578E+01  0.0000000E+00
Ar  3609  0.2481494E+02  0.3788020E+00  0.9587857E+01  0.0000000E+00
Ar  3610  0.2723342E+02  0.3918939E+01  0.9843946E+01  0.0000000E+00
Ar  3611  0.2920620E+02  0.8379413E+02  0.1221246E+02  0.0000000E+00
Ar  3612  0.2486121E+02  0.3617708E+01  0.1270347E+02  0.0000000E+00
Ar  3613  0.2529626E+02  0.6834019E+00  0.1496118E+02  0.0000000E+00
Ar  3614  0.2793028E+02  0.3590032E+01  0.1544319E+02  0.0000000E+00
Ar  3615  0.2764772E+02  0.7735506E+00  0.1791935E+02  0.0000000E+00
Ar  3616  0.2496297E+02  0.3973023E+01  0.1791032E+02  0.0000000E+00
Ar  3617  0.2499547E+02  0.7259220E+00  0.2117561E+02  0.0000000E+00
Ar  3618  0.2767791E+02  0.3898555E+01  0.2051926E+02  0.0000000E+00
Ar  3619  0.2719839E+02  0.9246891E+00  0.2417070E+02  0.0000000E+00
Ar  3620  0.2559782E+02  0.3975063E+01  0.2358746E+02  0.0000000E+00
Ar  3621  0.2504068E+02  0.1202544E+01  0.2713601E+02  0.0000000E+00
Ar  3622  0.2822532E+02  0.3108481E+01  0.2682155E+02  0.0000000E+00
Ar  3623  0.2782420E+02  0.6930793E+00  0.2954277E+02  0.0000000E+00
Ar  3624  0.2449060E+02  0.3788774E+01  0.3006514E+02  0.0000000E+00
Ar  3625  0.2515631E+02  0.6692037E+00  0.3188202E+02  0.0000000E+00
Ar  3626  0.2808874E+02  0.3714212E+01  0.3147143E+02  0.0000000E+00
Ar  3627  0.2720416E+02  0.1050196E+01  0.3489892E+02  0.0000000E+00
Ar  3628  0.2440470E+02  0.3475679E+01  0.3500684E+02  0.0000000E+00
Ar  3629  0.2468486E+02  0.2629431E+00  0.3749382E+02  0.0000000E+00
Ar  3630  0.2785598E+02  0.3742604E+01  0.3768782E+02  0.0000000E+00
Ar  3631  0.2801731E+02  0.1060286E+01  0.4042009E+02  0.0000000E+00
Ar  3632  0.2511009E+02  0.3061194E+01  0.4081286E+02  0.0000000E+00
Ar  3633  0.2514527E+02  0.3534904E+00  0.4319019E+02  0.0000000E+00
Ar  3634  0.2868445E+02  0.3142431E+01  0.4344986E+02  0.0000000E+00
Ar  3635  0.2690668E+02  0.9263455E+00  0.4614378E+02  0.0000000E+00
Ar  3636  0.2193409E+02  0.5023630E+01  0.4358584E+02  0.0000000E+00
Ar  3637  0.2432334E+02  0.5349445E+00  0.4914755E+02  0.0000000E+00
Ar  3638  0.2388568E+02  0.3327496E+01  0.4652774E+02  0.0000000E+00
Ar  3639  0.2688875E+02  0.3835632E+00  0.5139557E+02  0.0000000E+00
Ar  3640  0.2771471E+02  0.3551633E+01  0.4998041E+02  0.0000000E+00
Ar  3641  0.2489761E+02  0.6294695E+00  0.5439353E+02  0.0000000E+00
Ar  3642  0.2719247E+02  0.3388133E+01  0.5443760E+02  0.0000000E+00
Ar  3643  0.2742003E+02  0.2986456E+00  0.5763426E+02  0.0000000E+00
Ar  3644  0.2473223E+02  0.3262050E+01  0.5737001E+02  0.0000000E+00
Ar  3645  0.2508446E+02  0.6408501E+00  0.6047049E+02  0.0000000E+00
Ar  3646  0.2757391E+02  0.3247434E+01  0.6026002E+02  0.0000000E+00
Ar  3647  0.2797067E+02  0.8416800E+02  0.6300262E+02  0.0000000E+00
Ar  3648  0.2463320E+02  0.3075464E+01  0.6306701E+02  0.0000000E+00
Ar  3649  0.2421751E+02  0.2563263E+00  0.6625888E+02  0.0000000E+00
Ar  3650  0.2764285E+02  0.3281565E+01  0.6623586E+02  0.0000000E+00
Ar  3651  0.2706987E+02  0.3159978E+00  0.6911719E+02  0.0000000E+00
Ar  3652  0.2471566E+02  0.3655920E+01  0.6873727E+02  0.0000000E+00
Ar  3653  0.2457739E+02  0.3942224E+00  0.7201945E+02  0.0000000E+00
Ar  3654  0.2697044E+02  0.3636608E+01  0.7161211E+02  0.0000000E+00
Ar  3655  0.2738410E+02  0.1022374E+01  0.7395283E+02  0.0000000E+00
Ar  3656  0.2472216E+02  0.2956177E+01  0.7471083E+02  0.0000000E+00
Ar  3657  0.2506400E+02  0.3003184E+00  0.7745928E+02  0.0000000E+00
Ar  3658  0.2742590E+02  0.3217793E+01  0.7792429E+02  0.0000000E+00
Ar  3659  0.2736037E+02  0.3561835E+00  0.8078505E+02  0.0000000E+00
Ar  3660  0.2476685E+02  0.3210819E+01  0.8063267E+02  0.0000000E+00
Ar  3661  0.2440346E+02  0.5853154E+01  0.8283559E+02  0.0000000E+00
Ar  3662  0.2753069E+02  0.8890152E+01  0.8340362E+02  0.0000000E+00
Ar  3663  0.2807668E+02  0.5910582E+01  0.1283069E+01  0.0000000E+00
Ar  3664  0.2424987E+02  0.9045322E+01  0.8216069E+00  0.0000000E+00
Ar  3665  0.2531643E+02  0.6485241E+01  0.3981662E+01  0.0000000E+00
Ar  3666  0.2767756E+02  0.9010669E+01  0.3710234E+01  0.0000000E+00
Ar  3667  0.2692246E+02  0.6486074E+01  0.6969317E+01  0.0000000E+00
Ar  3668  0.2405395E+02  0.9185060E+01  0.6106586E+01  0.0000000E+00
Ar  3669  0.2488192E+02  0.7405558E+01  0.9622871E+01  0.0000000E+00
Ar  3670  0.2782644E+02  0.9541174E+01  0.9404638E+01  0.0000000E+00
Ar  3671  0.2719857E+02  0.6319641E+01  0.1216964E+02  0.0000000E+00
Ar  3672  0.2476657E+02  0.9637429E+01  0.1242341E+02  0.0000000E+00
Ar  3673  0.2510869E+02  0.6615094E+01  0.1503787E+02  0.0000000E+00
Ar  3674  0.2759130E+02  0.9053208E+01  0.1450309E+02  0.0000000E+00
Ar  3675  0.2812126E+02  0.6605616E+01  0.1803481E+02  0.0000000E+00
Ar  3676  0.2464929E+02  0.9518991E+01  0.1748029E+02  0.0000000E+00
Ar  3677  0.2488990E+02  0.7013366E+01  0.2047783E+02  0.0000000E+00
Ar  3678  0.2803418E+02  0.9055005E+01  0.2066426E+02  0.0000000E+00
Ar  3679  0.2810602E+02  0.6539360E+01  0.2339006E+02  0.0000000E+00
Ar  3680  0.2468374E+02  0.9108940E+01  0.2398924E+02  0.0000000E+00
Ar  3681  0.2462617E+02  0.6324006E+01  0.2680137E+02  0.0000000E+00
Ar  3682  0.2755124E+02  0.8836273E+01  0.2617862E+02  0.0000000E+00
Ar  3683  0.2736962E+02  0.6726854E+01  0.2903166E+02  0.0000000E+00
Ar  3684  0.2464217E+02  0.9417086E+01  0.2938088E+02  0.0000000E+00
Ar  3685  0.2513094E+02  0.6398176E+01  0.3266519E+02  0.0000000E+00
Ar  3686  0.2758610E+02  0.9309777E+01  0.3215557E+02  0.0000000E+00
Ar  3687  0.2793544E+02  0.5930008E+01  0.3442863E+02  0.0000000E+00
Ar  3688  0.2599907E+02  0.9123956E+01  0.3554628E+02  0.0000000E+00
Ar  3689  0.2529715E+02  0.6189686E+01  0.3781241E+02  0.0000000E+00
Ar  3690  0.2799034E+02  0.8706385E+01  0.3837146E+02  0.0000000E+00
Ar  3691  0.2850612E+02  0.5826739E+01  0.4060336E+02  0.0000000E+00
Ar  3692  0.2509872E+02  0.9065445E+01  0.4040375E+02  0.0000000E+00
Ar  3693  0.2513311E+02  0.6701093E+01  0.4331474E+02  0.0000000E+00
Ar  3694  0.2817279E+02  0.8921385E+01  0.4305492E+02  0.0000000E+00
Ar  3695  0.2719022E+02  0.5897944E+01  0.4616910E+02  0.0000000E+00
Ar  3696  0.2370113E+02  0.8968376E+01  0.4603727E+02  0.0000000E+00
Ar  3697  0.2474465E+02  0.5684019E+01  0.4897102E+02  0.0000000E+00
Ar  3698  0.2694710E+02  0.8572080E+01  0.4850592E+02  0.0000000E+00
Ar  3699  0.2684721E+02  0.6213079E+01  0.5202329E+02  0.0000000E+00
Ar  3700  0.2449601E+02  0.8704981E+01  0.5186995E+02  0.0000000E+00
Ar  3701  0.2443974E+02  0.6132333E+01  0.5477527E+02  0.0000000E+00
Ar  3702  0.2701225E+02  0.8795224E+01  0.5517355E+02  0.0000000E+00
Ar  3703  0.2700854E+02  0.6106242E+01  0.5737369E+02  0.0000000E+00
Ar  3704  0.2449657E+02  0.8581567E+01  0.5764958E+02  0.0000000E+00
Ar  3705  0.2456952E+02  0.5727816E+01  0.6056686E+02  0.0000000E+00
Ar  3706  0.2722063E+02  0.8448564E+01  0.6006377E+02  0.0000000E+00
Ar  3707  0.2744574E+02  0.6226080E+01  0.6329499E+02  0.0000000E+00
Ar  3708  0.2464749E+02  0.8749966E+01  0.6298692E+02  0.0000000E+00
Ar  3709  0.2491623E+02  0.5780170E+01  0.6596359E+02  0.0000000E+00
Ar  3710  0.2748402E+02  0.9199145E+01  0.6537571E+02  0.0000000E+00
Ar  3711  0.2734902E+02  0.6369573E+01  0.6880302E+02  0.0000000E+00
Ar  3712  0.2471611E+02  0.9171090E+01  0.6866855E+02  0.0000000E+00
Ar  3713  0.2466385E+02  0.6665892E+01  0.7134151E+02  0.0000000E+00
Ar  3714  0.2745414E+02  0.8851345E+01  0.7112982E+02  0.0000000E+00
Ar  3715  0.2685429E+02  0.6118004E+01  0.7445495E+02  0.0000000E+00
Ar  3716  0.2470759E+02  0.8990541E+01  0.7498011E+02  0.0000000E+00
Ar  3717  0.2493649E+02  0.5854148E+01  0.7806315E+02  0.0000000E+00
Ar  3718  0.2788705E+02  0.8842816E+01  0.7734336E+02  0.0000000E+00
Ar  3719  0.2776151E+02  0.6465784E+01  0.8045029E+02  0.0000000E+00
Ar  3720  0.2478616E+02  0.8478591E+01  0.8041125E+02  0.0000000E+00
Ar  3721  0.2521348E+02  0.1203800E+02  0.8314802E+02  0.0000000E+00
Ar  3722  0.2798865E+02  0.1487030E+02  0.8336276E+02  0.0000000E+00
Ar  3723  0.2769039E+02  0.1175242E+02  0.1788315E+01  0.0000000E+00
Ar  3724  0.2534468E+02  0.1489968E+02  0.1240908E+01  0.0000000E+00
Ar  3725  0.2455367E+02  0.1207857E+02  0.3584114E+01  0.0000000E+00
Ar  3726  0.2764976E+02  0.1458312E+02  0.4597555E+01  0.0000000E+00
Ar  3727  0.2708115E+02  0.1153479E+02  0.6905437E+01  0.0000000E+00
Ar  3728  0.2489963E+02  0.1469006E+02  0.6743266E+01  0.0000000E+00
Ar  3729  0.2467822E+02  0.1196077E+02  0.9505632E+01  0.0000000E+00
Ar  3730  0.2740850E+02  0.1433779E+02  0.9219325E+01  0.0000000E+00
Ar  3731  0.2767819E+02  0.1225530E+02  0.1214217E+02  0.0000000E+00
Ar  3732  0.2476454E+02  0.1442091E+02  0.1273874E+02  0.0000000E+00
Ar  3733  0.2547112E+02  0.1187801E+02  0.1499747E+02  0.0000000E+00
Ar  3734  0.2759629E+02  0.1477455E+02  0.1553801E+02  0.0000000E+00
Ar  3735  0.2781272E+02  0.1202700E+02  0.1818373E+02  0.0000000E+00
Ar  3736  0.2476479E+02  0.1423892E+02  0.1813434E+02  0.0000000E+00
Ar  3737  0.2498289E+02  0.1151741E+02  0.2045682E+02  0.0000000E+00
Ar  3738  0.2826087E+02  0.1437042E+02  0.2099475E+02  0.0000000E+00
Ar  3739  0.2744678E+02  0.1159640E+02  0.2374788E+02  0.0000000E+00
Ar  3740  0.2484847E+02  0.1447635E+02  0.2376183E+02  0.0000000E+00
Ar  3741  0.2499265E+02  0.1203054E+02  0.2669706E+02  0.0000000E+00
Ar  3742  0.2731826E+02  0.1481078E+02  0.2640265E+02  0.0000000E+00
Ar  3743  0.2793233E+02  0.1259621E+02  0.2873998E+02  0.0000000E+00
Ar  3744  0.2488333E+02  0.1437381E+02  0.2970889E+02  0.0000000E+00
Ar  3745  0.2520546E+02  0.1259434E+02  0.3248264E+02  0.0000000E+00
Ar  3746  0.2820687E+02  0.1445182E+02  0.3189620E+02  0.0000000E+00
Ar  3747  0.2774453E+02  0.1213971E+02  0.3481087E+02  0.0000000E+00
Ar  3748  0.2533384E+02  0.1506365E+02  0.3532522E+02  0.0000000E+00
Ar  3749  0.2526437E+02  0.1205219E+02  0.3790097E+02  0.0000000E+00
Ar  3750  0.2810981E+02  0.1484278E+02  0.3750286E+02  0.0000000E+00
Ar  3751  0.2816823E+02  0.1228170E+02  0.4083755E+02  0.0000000E+00
Ar  3752  0.2477438E+02  0.1455052E+02  0.4043098E+02  0.0000000E+00
Ar  3753  0.2511421E+02  0.1178600E+02  0.4288833E+02  0.0000000E+00
Ar  3754  0.2732823E+02  0.1509500E+02  0.4306332E+02  0.0000000E+00
Ar  3755  0.2732172E+02  0.1249287E+02  0.4586903E+02  0.0000000E+00
Ar  3756  0.2479616E+02  0.1509685E+02  0.4625289E+02  0.0000000E+00
Ar  3757  0.2512459E+02  0.1216388E+02  0.4884243E+02  0.0000000E+00
Ar  3758  0.2776922E+02  0.1483673E+02  0.4881835E+02  0.0000000E+00
Ar  3759  0.2718402E+02  0.1106305E+02  0.5205942E+02  0.0000000E+00
Ar  3760  0.2549101E+02  0.1431593E+02  0.5182201E+02  0.0000000E+00
Ar  3761  0.2544525E+02  0.1256553E+02  0.5501782E+02  0.0000000E+00
Ar  3762  0.2815852E+02  0.1474784E+02  0.5477861E+02  0.0000000E+00
Ar  3763  0.2779882E+02  0.1268585E+02  0.5805629E+02  0.0000000E+00
Ar  3764  0.2429289E+02  0.1493047E+02  0.5722174E+02  0.0000000E+00
Ar  3765  0.2494645E+02  0.1183317E+02  0.6076464E+02  0.0000000E+00
Ar  3766  0.2924305E+02  0.1429147E+02  0.6067982E+02  0.0000000E+00
Ar  3767  0.2810169E+02  0.1170927E+02  0.6286207E+02  0.0000000E+00
Ar  3768  0.2426547E+02  0.1472358E+02  0.6313417E+02  0.0000000E+00
Ar  3769  0.2468436E+02  0.1248849E+02  0.6593373E+02  0.0000000E+00
Ar  3770  0.2802146E+02  0.1443520E+02  0.6529265E+02  0.0000000E+00
Ar  3771  0.2732623E+02  0.1163683E+02  0.6869005E+02  0.0000000E+00
Ar  3772  0.2497028E+02  0.1516068E+02  0.6830826E+02  0.0000000E+00
Ar  3773  0.2450771E+02  0.1226732E+02  0.7189491E+02  0.0000000E+00
Ar  3774  0.2744389E+02  0.1456157E+02  0.7201865E+02  0.0000000E+00
Ar  3775  0.2706760E+02  0.1170514E+02  0.7406736E+02  0.0000000E+00
Ar  3776  0.2487033E+02  0.1532606E+02  0.7428547E+02  0.0000000E+00
Ar  3777  0.2410762E+02  0.1155155E+02  0.7790936E+02  0.0000000E+00
Ar  3778  0.2816313E+02  0.1449107E+02  0.7789907E+02  0.0000000E+00
Ar  3779  0.2741652E+02  0.1176104E+02  0.8033984E+02  0.0000000E+00
Ar  3780  0.2488672E+02  0.1468427E+02  0.8000815E+02  0.0000000E+00
Ar  3781  0.2475232E+02  0.1784656E+02  0.8232699E+02  0.0000000E+00
Ar  3782  0.2753452E+02  0.2011542E+02  0.8298829E+02  0.0000000E+00
Ar  3783  0.2732261E+02  0.1770108E+02  0.1435129E+01  0.0000000E+00
Ar  3784  0.2488891E+02  0.2033460E+02  0.1336229E+01  0.0000000E+00
Ar  3785  0.2464570E+02  0.1741407E+02  0.4127349E+01  0.0000000E+00
Ar  3786  0.2712629E+02  0.2045581E+02  0.3943329E+01  0.0000000E+00
Ar  3787  0.2735888E+02  0.1760188E+02  0.6537306E+01  0.0000000E+00
Ar  3788  0.2462247E+02  0.1993960E+02  0.6973145E+01  0.0000000E+00
Ar  3789  0.2498075E+02  0.1740668E+02  0.9669216E+01  0.0000000E+00
Ar  3790  0.2735657E+02  0.2020607E+02  0.9861952E+01  0.0000000E+00
Ar  3791  0.2697354E+02  0.1738868E+02  0.1246046E+02  0.0000000E+00
Ar  3792  0.2508161E+02  0.2071895E+02  0.1250556E+02  0.0000000E+00
Ar  3793  0.2468249E+02  0.1677126E+02  0.1535501E+02  0.0000000E+00
Ar  3794  0.2785205E+02  0.1918383E+02  0.1542217E+02  0.0000000E+00
Ar  3795  0.2681550E+02  0.1693693E+02  0.1867812E+02  0.0000000E+00
Ar  3796  0.2440006E+02  0.2003865E+02  0.1873557E+02  0.0000000E+00
Ar  3797  0.2409114E+02  0.1686287E+02  0.2113623E+02  0.0000000E+00
Ar  3798  0.2760346E+02  0.1966056E+02  0.2093701E+02  0.0000000E+00
Ar  3799  0.2753149E+02  0.1750327E+02  0.2389139E+02  0.0000000E+00
Ar  3800  0.2502627E+02  0.2019915E+02  0.2393481E+02  0.0000000E+00
Ar  3801  0.2472787E+02  0.1752033E+02  0.2678603E+02  0.0000000E+00
Ar  3802  0.2742973E+02  0.2010011E+02  0.2692540E+02  0.0000000E+00
Ar  3803  0.2787914E+02  0.1704187E+02  0.2939845E+02  0.0000000E+00
Ar  3804  0.2456957E+02  0.2043201E+02  0.2959408E+02  0.0000000E+00
Ar  3805  0.2475775E+02  0.1777337E+02  0.3314874E+02  0.0000000E+00
Ar  3806  0.2707393E+02  0.2051211E+02  0.3217890E+02  0.0000000E+00
Ar  3807  0.2816047E+02  0.1758414E+02  0.3468092E+02  0.0000000E+00
Ar  3808  0.2470268E+02  0.2080836E+02  0.3513860E+02  0.0000000E+00
Ar  3809  0.2481488E+02  0.1733177E+02  0.3798008E+02  0.0000000E+00
Ar  3810  0.2747648E+02  0.1998632E+02  0.3752931E+02  0.0000000E+00
Ar  3811  0.2761200E+02  0.1766428E+02  0.4014994E+02  0.0000000E+00
Ar  3812  0.2483261E+02  0.2026213E+02  0.4054464E+02  0.0000000E+00
Ar  3813  0.2462209E+02  0.1773399E+02  0.4379735E+02  0.0000000E+00
Ar  3814  0.2720650E+02  0.2027007E+02  0.4336761E+02  0.0000000E+00
Ar  3815  0.2762193E+02  0.1759916E+02  0.4604416E+02  0.0000000E+00
Ar  3816  0.2460540E+02  0.1983455E+02  0.4682497E+02  0.0000000E+00
Ar  3817  0.2509993E+02  0.1733933E+02  0.4958956E+02  0.0000000E+00
Ar  3818  0.2732983E+02  0.1987237E+02  0.4924655E+02  0.0000000E+00
Ar  3819  0.2816659E+02  0.1695037E+02  0.5204942E+02  0.0000000E+00
Ar  3820  0.2455395E+02  0.2034311E+02  0.5179927E+02  0.0000000E+00
Ar  3821  0.2534584E+02  0.1698345E+02  0.5449272E+02  0.0000000E+00
Ar  3822  0.2757965E+02  0.1982020E+02  0.5430572E+02  0.0000000E+00
Ar  3823  0.2743443E+02  0.1687051E+02  0.5755763E+02  0.0000000E+00
Ar  3824  0.2493637E+02  0.1986342E+02  0.5758711E+02  0.0000000E+00
Ar  3825  0.2528985E+02  0.1780107E+02  0.6051465E+02  0.0000000E+00
Ar  3826  0.2740525E+02  0.2016042E+02  0.5996789E+02  0.0000000E+00
Ar  3827  0.2788338E+02  0.1716814E+02  0.6292783E+02  0.0000000E+00
Ar  3828  0.2491298E+02  0.2092935E+02  0.6313240E+02  0.0000000E+00
Ar  3829  0.2510800E+02  0.1799047E+02  0.6581151E+02  0.0000000E+00
Ar  3830  0.2767321E+02  0.2041963E+02  0.6592885E+02  0.0000000E+00
Ar  3831  0.2758194E+02  0.1773606E+02  0.6864765E+02  0.0000000E+00
Ar  3832  0.2495675E+02  0.2041951E+02  0.6853951E+02  0.0000000E+00
Ar  3833  0.2520985E+02  0.1765801E+02  0.7143224E+02  0.0000000E+00
Ar  3834  0.2801223E+02  0.2034253E+02  0.7139222E+02  0.0000000E+00
Ar  3835  0.2750788E+02  0.1734295E+02  0.7395779E+02  0.0000000E+00
Ar  3836  0.2505948E+02  0.2008447E+02  0.7467579E+02  0.0000000E+00
Ar  3837  0.2530003E+02  0.1744379E+02  0.7737334E+02  0.0000000E+00
Ar  3838  0.2816804E+02  0.2008484E+02  0.7698895E+02  0.0000000E+00
Ar  3839  0.2764430E+02  0.1769382E+02  0.7979530E+02  0.0000000E+00
Ar  3840  0.2523259E+02  0.2052207E+02  0.7987619E+02  0.0000000E+00
Ar  3841  0.2434119E+02  0.2363054E+02  0.8282034E+02  0.0000000E+00
Ar  3842  0.2729881E+02  0.2584740E+02  0.8276063E+02  0.0000000E+00
Ar  3843  0.2811442E+02  0.2339857E+02  0.1666588E+01  0.0000000E+00
Ar  3844  0.2490409E+02  0.2618287E+02  0.1664166E+01  0.0000000E+00
Ar  3845  0.2481693E+02  0.2330295E+02  0.4731652E+01  0.0000000E+00
Ar  3846  0.2804654E+02  0.2625251E+02  0.4056517E+01  0.0000000E+00
Ar  3847  0.2751274E+02  0.2307479E+02  0.6853612E+01  0.0000000E+00
Ar  3848  0.2477089E+02  0.2601641E+02  0.7130233E+01  0.0000000E+00
Ar  3849  0.2495194E+02  0.2297980E+02  0.9481770E+01  0.0000000E+00
Ar  3850  0.2784201E+02  0.2582892E+02  0.9786128E+01  0.0000000E+00
Ar  3851  0.2797653E+02  0.2292249E+02  0.1305177E+02  0.0000000E+00
Ar  3852  0.2369764E+02  0.2573752E+02  0.1277783E+02  0.0000000E+00
Ar  3853  0.2431812E+02  0.2306166E+02  0.1508520E+02  0.0000000E+00
Ar  3854  0.2746561E+02  0.2556941E+02  0.1537787E+02  0.0000000E+00
Ar  3855  0.2716645E+02  0.2289025E+02  0.1807952E+02  0.0000000E+00
Ar  3856  0.2422063E+02  0.2556572E+02  0.1826736E+02  0.0000000E+00
Ar  3857  0.2485809E+02  0.2287424E+02  0.2114684E+02  0.0000000E+00
Ar  3858  0.2730447E+02  0.2546595E+02  0.2051919E+02  0.0000000E+00
Ar  3859  0.2718552E+02  0.2337087E+02  0.2398478E+02  0.0000000E+00
Ar  3860  0.2480815E+02  0.2606430E+02  0.2461774E+02  0.0000000E+00
Ar  3861  0.2508715E+02  0.2273998E+02  0.2708339E+02  0.0000000E+00
Ar  3862  0.2719987E+02  0.2565836E+02  0.2719215E+02  0.0000000E+00
Ar  3863  0.2757372E+02  0.2298318E+02  0.2971183E+02  0.0000000E+00
Ar  3864  0.2417466E+02  0.2609408E+02  0.2956707E+02  0.0000000E+00
Ar  3865  0.2470902E+02  0.2324855E+02  0.3188344E+02  0.0000000E+00
Ar  3866  0.2779524E+02  0.2606761E+02  0.3236229E+02  0.0000000E+00
Ar  3867  0.2754770E+02  0.2304861E+02  0.3483038E+02  0.0000000E+00
Ar  3868  0.2488418E+02  0.2567466E+02  0.3501048E+02  0.0000000E+00
Ar  3869  0.2513620E+02  0.2301254E+02  0.3759232E+02  0.0000000E+00
Ar  3870  0.2823817E+02  0.2558276E+02  0.3736429E+02  0.0000000E+00
Ar  3871  0.2783005E+02  0.2324334E+02  0.4002240E+02  0.0000000E+00
Ar  3872  0.2538508E+02  0.2570551E+02  0.3938433E+02  0.0000000E+00
Ar  3873  0.2429451E+02  0.2263743E+02  0.4309020E+02  0.0000000E+00
Ar  3874  0.2759746E+02  0.2546352E+02  0.4329067E+02  0.0000000E+00
Ar  3875  0.2767545E+02  0.2292280E+02  0.4650938E+02  0.0000000E+00
Ar  3876  0.2485776E+02  0.2553661E+02  0.4529978E+02  0.0000000E+00
Ar  3877  0.2495386E+02  0.2251741E+02  0.4924667E+02  0.0000000E+00
Ar  3878  0.2724645E+02  0.2558331E+02  0.4845348E+02  0.0000000E+00
Ar  3879  0.2772354E+02  0.2279252E+02  0.5151003E+02  0.0000000E+00
Ar  3880  0.2480880E+02  0.2575743E+02  0.5141587E+02  0.0000000E+00
Ar  3881  0.2477625E+02  0.2304800E+02  0.5428392E+02  0.0000000E+00
Ar  3882  0.2699173E+02  0.2636704E+02  0.5416805E+02  0.0000000E+00
Ar  3883  0.2691442E+02  0.2325649E+02  0.5756620E+02  0.0000000E+00
Ar  3884  0.2499208E+02  0.2645537E+02  0.5740918E+02  0.0000000E+00
Ar  3885  0.2466152E+02  0.2388811E+02  0.6033246E+02  0.0000000E+00
Ar  3886  0.2809897E+02  0.2576004E+02  0.6012503E+02  0.0000000E+00
Ar  3887  0.2764742E+02  0.2347648E+02  0.6338831E+02  0.0000000E+00
Ar  3888  0.2510899E+02  0.2638569E+02  0.6331340E+02  0.0000000E+00
Ar  3889  0.2515678E+02  0.2326773E+02  0.6600422E+02  0.0000000E+00
Ar  3890  0.2771753E+02  0.2664618E+02  0.6595907E+02  0.0000000E+00
Ar  3891  0.2770162E+02  0.2281280E+02  0.6883312E+02  0.0000000E+00
Ar  3892  0.2500132E+02  0.2589201E+02  0.6915698E+02  0.0000000E+00
Ar  3893  0.2533854E+02  0.2289119E+02  0.7199157E+02  0.0000000E+00
Ar  3894  0.2786792E+02  0.2545743E+02  0.7175452E+02  0.0000000E+00
Ar  3895  0.2818244E+02  0.2342771E+02  0.7456147E+02  0.0000000E+00
Ar  3896  0.2529533E+02  0.2582614E+02  0.7487534E+02  0.0000000E+00
Ar  3897  0.2573771E+02  0.2269982E+02  0.7707339E+02  0.0000000E+00
Ar  3898  0.2861075E+02  0.2578404E+02  0.7728366E+02  0.0000000E+00
Ar  3899  0.2852527E+02  0.2299219E+02  0.7997330E+02  0.0000000E+00
Ar  3900  0.2570977E+02  0.2536827E+02  0.7925473E+02  0.0000000E+00
Ar  3901  0.2458246E+02  0.2890652E+02  0.8291847E+02  0.0000000E+00
Ar  3902  0.2799791E+02  0.3148730E+02  0.8273922E+02  0.0000000E+00
Ar  3903  0.2822533E+02  0.2858912E+02  0.1480532E+01  0.0000000E+00
Ar  3904  0.2566591E+02  0.3180700E+02  0.1472712E+01  0.0000000E+00
Ar  3905  0.2498637E+02  0.2851597E+02  0.4327785E+01  0.0000000E+00
Ar  3906  0.2779157E+02  0.3102672E+02  0.4348979E+01  0.0000000E+00
Ar  3907  0.2863085E+02  0.2884549E+02  0.7229917E+01  0.0000000E+00
Ar  3908  0.2566010E+02  0.3075888E+02  0.7565800E+01  0.0000000E+00
Ar  3909  0.2475365E+02  0.2837908E+02  0.1026179E+02  0.0000000E+00
Ar  3910  0.2780658E+02  0.3229113E+02  0.1042528E+02  0.0000000E+00
Ar  3911  0.2708434E+02  0.2794285E+02  0.1274656E+02  0.0000000E+00
Ar  3912  0.2487548E+02  0.3093904E+02  0.1294384E+02  0.0000000E+00
Ar  3913  0.2471329E+02  0.2867575E+02  0.1613379E+02  0.0000000E+00
Ar  3914  0.2783232E+02  0.3075556E+02  0.1597027E+02  0.0000000E+00
Ar  3915  0.2780119E+02  0.2843150E+02  0.1896178E+02  0.0000000E+00
Ar  3916  0.2475254E+02  0.3074942E+02  0.1900161E+02  0.0000000E+00
Ar  3917  0.2478864E+02  0.2852601E+02  0.2184973E+02  0.0000000E+00
Ar  3918  0.2752204E+02  0.3138123E+02  0.2124624E+02  0.0000000E+00
Ar  3919  0.2757737E+02  0.2835050E+02  0.2385539E+02  0.0000000E+00
Ar  3920  0.2507413E+02  0.3138131E+02  0.2441995E+02  0.0000000E+00
Ar  3921  0.2478757E+02  0.2880177E+02  0.2737585E+02  0.0000000E+00
Ar  3922  0.2797626E+02  0.3112502E+02  0.2688217E+02  0.0000000E+00
Ar  3923  0.2756717E+02  0.2867390E+02  0.3013896E+02  0.0000000E+00
Ar  3924  0.2510575E+02  0.3184265E+02  0.2963984E+02  0.0000000E+00
Ar  3925  0.2466809E+02  0.2852949E+02  0.3294134E+02  0.0000000E+00
Ar  3926  0.2734075E+02  0.3137248E+02  0.3274106E+02  0.0000000E+00
Ar  3927  0.2802247E+02  0.2860373E+02  0.3515827E+02  0.0000000E+00
Ar  3928  0.2417097E+02  0.3145152E+02  0.3561356E+02  0.0000000E+00
Ar  3929  0.2529579E+02  0.2845910E+02  0.3737462E+02  0.0000000E+00
Ar  3930  0.2769780E+02  0.3106935E+02  0.3795889E+02  0.0000000E+00
Ar  3931  0.2778337E+02  0.2826104E+02  0.4019309E+02  0.0000000E+00
Ar  3932  0.2534015E+02  0.3139397E+02  0.4064641E+02  0.0000000E+00
Ar  3933  0.2436489E+02  0.2845302E+02  0.4366060E+02  0.0000000E+00
Ar  3934  0.2787287E+02  0.3135946E+02  0.4298950E+02  0.0000000E+00
Ar  3935  0.2749640E+02  0.2855241E+02  0.4532998E+02  0.0000000E+00
Ar  3936  0.2501451E+02  0.3137569E+02  0.4601370E+02  0.0000000E+00
Ar  3937  0.2486811E+02  0.2795327E+02  0.4806215E+02  0.0000000E+00
Ar  3938  0.2715705E+02  0.3145202E+02  0.4869276E+02  0.0000000E+00
Ar  3939  0.2706606E+02  0.2879639E+02  0.5101508E+02  0.0000000E+00
Ar  3940  0.2507311E+02  0.3177986E+02  0.5186804E+02  0.0000000E+00
Ar  3941  0.2512548E+02  0.2942987E+02  0.5482828E+02  0.0000000E+00
Ar  3942  0.2829473E+02  0.3159347E+02  0.5492626E+02  0.0000000E+00
Ar  3943  0.2776052E+02  0.2867671E+02  0.5742887E+02  0.0000000E+00
Ar  3944  0.2522207E+02  0.3164090E+02  0.5803745E+02  0.0000000E+00
Ar  3945  0.2542144E+02  0.2881063E+02  0.5998532E+02  0.0000000E+00
Ar  3946  0.2791599E+02  0.3147481E+02  0.6055887E+02  0.0000000E+00
Ar  3947  0.2789272E+02  0.2825687E+02  0.6297138E+02  0.0000000E+00
Ar  3948  0.2516201E+02  0.3095580E+02  0.6290907E+02  0.0000000E+00
Ar  3949  0.2519391E+02  0.2875495E+02  0.6624873E+02  0.0000000E+00
Ar  3950  0.2785322E+02  0.3099070E+02  0.6543173E+02  0.0000000E+00
Ar  3951  0.2789835E+02  0.2819126E+02  0.6911647E+02  0.0000000E+00
Ar  3952  0.2553603E+02  0.3084253E+02  0.6911770E+02  0.0000000E+00
Ar  3953  0.2567453E+02  0.2857223E+02  0.7189776E+02  0.0000000E+00
Ar  3954  0.2849426E+02  0.3120543E+02  0.7210895E+02  0.0000000E+00
Ar  3955  0.2834226E+02  0.2808464E+02  0.7498382E+02  0.0000000E+00
Ar  3956  0.2570421E+02  0.3191145E+02  0.7458307E+02  0.0000000E+00
Ar  3957  0.2587928E+02  0.2898185E+02  0.7731749E+02  0.0000000E+00
Ar  3958  0.2827810E+02  0.3159907E+02  0.7697324E+02  0.0000000E+00
Ar  3959  0.2764229E+02  0.2875836E+02  0.8037481E+02  0.0000000E+00
Ar  3960  0.2571942E+02  0.3198961E+02  0.8002262E+02  0.0000000E+00
Ar  3961  0.2466819E+02  0.3445297E+02  0.8302633E+02  0.0000000E+00
Ar  3962  0.2876245E+02  0.3705692E+02  0.8295516E+02  0.0000000E+00
Ar  3963  0.2816646E+02  0.3412221E+02  0.1425891E+01  0.0000000E+00
Ar  3964  0.2565110E+02  0.3713860E+02  0.9909201E+00  0.0000000E+00
Ar  3965  0.2530166E+02  0.3341913E+02  0.4967404E+01  0.0000000E+00
Ar  3966  0.2781332E+02  0.3690592E+02  0.4462975E+01  0.0000000E+00
Ar  3967  0.2823306E+02  0.3396206E+02  0.7207018E+01  0.0000000E+00
Ar  3968  0.2530763E+02  0.3649731E+02  0.7198313E+01  0.0000000E+00
Ar  3969  0.2449201E+02  0.3358429E+02  0.1037710E+02  0.0000000E+00
Ar  3970  0.2785498E+02  0.3620451E+02  0.1024431E+02  0.0000000E+00
Ar  3971  0.2794515E+02  0.3411779E+02  0.1346518E+02  0.0000000E+00
Ar  3972  0.2493572E+02  0.3638887E+02  0.1296646E+02  0.0000000E+00
Ar  3973  0.2543292E+02  0.3363943E+02  0.1617674E+02  0.0000000E+00
Ar  3974  0.2816792E+02  0.3664194E+02  0.1598001E+02  0.0000000E+00
Ar  3975  0.2787837E+02  0.3387495E+02  0.1857986E+02  0.0000000E+00
Ar  3976  0.2468656E+02  0.3648178E+02  0.1831467E+02  0.0000000E+00
Ar  3977  0.2519763E+02  0.3378036E+02  0.2107568E+02  0.0000000E+00
Ar  3978  0.2780066E+02  0.3668208E+02  0.2088643E+02  0.0000000E+00
Ar  3979  0.2743004E+02  0.3397325E+02  0.2380081E+02  0.0000000E+00
Ar  3980  0.2480164E+02  0.3683171E+02  0.2380144E+02  0.0000000E+00
Ar  3981  0.2458488E+02  0.3444303E+02  0.2693298E+02  0.0000000E+00
Ar  3982  0.2803808E+02  0.3689078E+02  0.2619280E+02  0.0000000E+00
Ar  3983  0.2830010E+02  0.3352548E+02  0.2940129E+02  0.0000000E+00
Ar  3984  0.2571231E+02  0.3737940E+02  0.2923088E+02  0.0000000E+00
Ar  3985  0.2467919E+02  0.3412599E+02  0.3339919E+02  0.0000000E+00
Ar  3986  0.2738213E+02  0.3631975E+02  0.3220746E+02  0.0000000E+00
Ar  3987  0.2782549E+02  0.3390836E+02  0.3499642E+02  0.0000000E+00
Ar  3988  0.2488401E+02  0.3693769E+02  0.3526334E+02  0.0000000E+00
Ar  3989  0.2525939E+02  0.3393002E+02  0.3794605E+02  0.0000000E+00
Ar  3990  0.2792446E+02  0.3645308E+02  0.3804839E+02  0.0000000E+00
Ar  3991  0.2820651E+02  0.3423083E+02  0.4075602E+02  0.0000000E+00
Ar  3992  0.2524112E+02  0.3710356E+02  0.4016079E+02  0.0000000E+00
Ar  3993  0.2503392E+02  0.3428916E+02  0.4337924E+02  0.0000000E+00
Ar  3994  0.2775936E+02  0.3697246E+02  0.4344192E+02  0.0000000E+00
Ar  3995  0.2822112E+02  0.3400963E+02  0.4551977E+02  0.0000000E+00
Ar  3996  0.2535103E+02  0.3658845E+02  0.4594540E+02  0.0000000E+00
Ar  3997  0.2495120E+02  0.3408800E+02  0.4880095E+02  0.0000000E+00
Ar  3998  0.2814935E+02  0.3628259E+02  0.4838158E+02  0.0000000E+00
Ar  3999  0.2773210E+02  0.3434700E+02  0.5171096E+02  0.0000000E+00
Ar  4000  0.2488389E+02  0.3739608E+02  0.5197919E+02  0.0000000E+00
Ar  4001  0.2541107E+02  0.3399345E+02  0.5496578E+02  0.0000000E+00
Ar  4002  0.2785101E+02  0.3687749E+02  0.5475412E+02  0.0000000E+00
Ar  4003  0.2810267E+02  0.3410629E+02  0.5798194E+02  0.0000000E+00
Ar  4004  0.2558113E+02  0.3678182E+02  0.5839364E+02  0.0000000E+00
Ar  4005  0.2567035E+02  0.3447491E+02  0.6112944E+02  0.0000000E+00
Ar  4006  0.2854351E+02  0.3713462E+02  0.6079656E+02  0.0000000E+00
Ar  4007  0.2876946E+02  0.3422996E+02  0.6318421E+02  0.0000000E+00
Ar  4008  0.2648946E+02  0.3753515E+02  0.6401294E+02  0.0000000E+00
Ar  4009  0.2625051E+02  0.3428396E+02  0.6650545E+02  0.0000000E+00
Ar  4010  0.2872293E+02  0.3744798E+02  0.6703059E+02  0.0000000E+00
Ar  4011  0.2839886E+02  0.3395395E+02  0.6930444E+02  0.0000000E+00
Ar  4012  0.2472617E+02  0.3716533E+02  0.6858988E+02  0.0000000E+00
Ar  4013  0.2559351E+02  0.3448936E+02  0.7148402E+02  0.0000000E+00
Ar  4014  0.2811296E+02  0.3731440E+02  0.7133962E+02  0.0000000E+00
Ar  4015  0.2801958E+02  0.3439261E+02  0.7414734E+02  0.0000000E+00
Ar  4016  0.2535946E+02  0.3761470E+02  0.7470686E+02  0.0000000E+00
Ar  4017  0.2527048E+02  0.3458969E+02  0.7710603E+02  0.0000000E+00
Ar  4018  0.2860071E+02  0.3675702E+02  0.7695988E+02  0.0000000E+00
Ar  4019  0.2826676E+02  0.3425146E+02  0.8066037E+02  0.0000000E+00
Ar  4020  0.2585286E+02  0.3723918E+02  0.8066466E+02  0.0000000E+00
Ar  4021  0.2625896E+02  0.4028859E+02  0.8261260E+02  0.0000000E+00
Ar  4022  0.2864069E+02  0.4296786E+02  0.8309993E+02  0.0000000E+00
Ar  4023  0.2892363E+02  0.3987264E+02  0.1169977E+01  0.0000000E+00
Ar  4024  0.2607994E+02  0.4293861E+02  0.1421880E+01  0.0000000E+00
Ar  4025  0.2566582E+02  0.3967573E+02  0.4176273E+01  0.0000000E+00
Ar  4026  0.2847071E+02  0.4225539E+02  0.3951930E+01  0.0000000E+00
Ar  4027  0.2784363E+02  0.3910333E+02  0.7164701E+01  0.0000000E+00
Ar  4028  0.2515738E+02  0.4132370E+02  0.7537636E+01  0.0000000E+00
Ar  4029  0.2504936E+02  0.3915461E+02  0.1045810E+02  0.0000000E+00
Ar  4030  0.2746453E+02  0.4171710E+02  0.1020018E+02  0.0000000E+00
Ar  4031  0.2807601E+02  0.3981493E+02  0.1288099E+02  0.0000000E+00
Ar  4032  0.2507566E+02  0.4232286E+02  0.1295530E+02  0.0000000E+00
Ar  4033  0.2517580E+02  0.3948608E+02  0.1600555E+02  0.0000000E+00
Ar  4034  0.2779517E+02  0.4226332E+02  0.1592720E+02  0.0000000E+00
Ar  4035  0.2772007E+02  0.3961185E+02  0.1843380E+02  0.0000000E+00
Ar  4036  0.2457373E+02  0.4316886E+02  0.1834059E+02  0.0000000E+00
Ar  4037  0.2503008E+02  0.3976126E+02  0.2079007E+02  0.0000000E+00
Ar  4038  0.2725490E+02  0.4280680E+02  0.2072028E+02  0.0000000E+00
Ar  4039  0.2769180E+02  0.3981895E+02  0.2364304E+02  0.0000000E+00
Ar  4040  0.2541797E+02  0.4285369E+02  0.2406634E+02  0.0000000E+00
Ar  4041  0.2527786E+02  0.3965199E+02  0.2637300E+02  0.0000000E+00
Ar  4042  0.2774746E+02  0.4276974E+02  0.2729643E+02  0.0000000E+00
Ar  4043  0.2777009E+02  0.3982245E+02  0.2958040E+02  0.0000000E+00
Ar  4044  0.2475523E+02  0.4263695E+02  0.2959581E+02  0.0000000E+00
Ar  4045  0.2521571E+02  0.3964133E+02  0.3224857E+02  0.0000000E+00
Ar  4046  0.2763250E+02  0.4280922E+02  0.3161283E+02  0.0000000E+00
Ar  4047  0.2769141E+02  0.3916440E+02  0.3489691E+02  0.0000000E+00
Ar  4048  0.2559924E+02  0.4235198E+02  0.3499272E+02  0.0000000E+00
Ar  4049  0.2506188E+02  0.3971987E+02  0.3757949E+02  0.0000000E+00
Ar  4050  0.2825874E+02  0.4240428E+02  0.3754595E+02  0.0000000E+00
Ar  4051  0.2807208E+02  0.3948211E+02  0.4053544E+02  0.0000000E+00
Ar  4052  0.2563573E+02  0.4247931E+02  0.4060607E+02  0.0000000E+00
Ar  4053  0.2521786E+02  0.3990898E+02  0.4363324E+02  0.0000000E+00
Ar  4054  0.2818189E+02  0.4263144E+02  0.4327619E+02  0.0000000E+00
Ar  4055  0.2792340E+02  0.3986651E+02  0.4578652E+02  0.0000000E+00
Ar  4056  0.2523245E+02  0.4280553E+02  0.4618371E+02  0.0000000E+00
Ar  4057  0.2547148E+02  0.3971215E+02  0.4916251E+02  0.0000000E+00
Ar  4058  0.2819924E+02  0.4194814E+02  0.4869892E+02  0.0000000E+00
Ar  4059  0.2820538E+02  0.3938987E+02  0.5175126E+02  0.0000000E+00
Ar  4060  0.2595417E+02  0.4296404E+02  0.5160345E+02  0.0000000E+00
Ar  4061  0.2549946E+02  0.3956391E+02  0.5480689E+02  0.0000000E+00
Ar  4062  0.2830999E+02  0.4255625E+02  0.5477924E+02  0.0000000E+00
Ar  4063  0.2887797E+02  0.4023282E+02  0.5831681E+02  0.0000000E+00
Ar  4064  0.2529741E+02  0.4259556E+02  0.5788054E+02  0.0000000E+00
Ar  4065  0.2546687E+02  0.3964319E+02  0.6058860E+02  0.0000000E+00
Ar  4066  0.2853603E+02  0.4268776E+02  0.6085025E+02  0.0000000E+00
Ar  4067  0.2841694E+02  0.4068024E+02  0.6375160E+02  0.0000000E+00
Ar  4068  0.2519480E+02  0.4293489E+02  0.6370468E+02  0.0000000E+00
Ar  4069  0.2589815E+02  0.4005215E+02  0.6629017E+02  0.0000000E+00
Ar  4070  0.2820793E+02  0.4335877E+02  0.6592576E+02  0.0000000E+00
Ar  4071  0.2855834E+02  0.4076059E+02  0.6962805E+02  0.0000000E+00
Ar  4072  0.2566251E+02  0.4285795E+02  0.6873276E+02  0.0000000E+00
Ar  4073  0.2581281E+02  0.4044596E+02  0.7177026E+02  0.0000000E+00
Ar  4074  0.2840174E+02  0.4349403E+02  0.7207924E+02  0.0000000E+00
Ar  4075  0.2826741E+02  0.4015745E+02  0.7453162E+02  0.0000000E+00
Ar  4076  0.2513010E+02  0.4339614E+02  0.7469770E+02  0.0000000E+00
Ar  4077  0.2560194E+02  0.4041230E+02  0.7754599E+02  0.0000000E+00
Ar  4078  0.2788255E+02  0.4289843E+02  0.7737570E+02  0.0000000E+00
Ar  4079  0.2867614E+02  0.3941128E+02  0.7987923E+02  0.0000000E+00
Ar  4080  0.2537056E+02  0.4324464E+02  0.8023703E+02  0.0000000E+00
Ar  4081  0.2532796E+02  0.4579257E+02  0.8346999E+02  0.0000000E+00
Ar  4082  0.2785016E+02  0.4868444E+02  0.8325945E+02  0.0000000E+00
Ar  4083  0.2918291E+02  0.4567525E+02  0.1790301E+01  0.0000000E+00
Ar  4084  0.2570945E+02  0.4818816E+02  0.1806553E+01  0.0000000E+00
Ar  4085  0.2606057E+02  0.4514044E+02  0.4085745E+01  0.0000000E+00
Ar  4086  0.2833993E+02  0.4796007E+02  0.4603130E+01  0.0000000E+00
Ar  4087  0.2741296E+02  0.4443904E+02  0.7327680E+01  0.0000000E+00
Ar  4088  0.2531371E+02  0.4830461E+02  0.6678080E+01  0.0000000E+00
Ar  4089  0.2491740E+02  0.4474999E+02  0.9649449E+01  0.0000000E+00
Ar  4090  0.2764236E+02  0.4769272E+02  0.9014932E+01  0.0000000E+00
Ar  4091  0.2822334E+02  0.4508643E+02  0.1268394E+02  0.0000000E+00
Ar  4092  0.2569683E+02  0.4768102E+02  0.1283344E+02  0.0000000E+00
Ar  4093  0.2558961E+02  0.4511719E+02  0.1557782E+02  0.0000000E+00
Ar  4094  0.2810117E+02  0.4839871E+02  0.1579344E+02  0.0000000E+00
Ar  4095  0.2859366E+02  0.4573383E+02  0.1787487E+02  0.0000000E+00
Ar  4096  0.2546685E+02  0.4762856E+02  0.1856270E+02  0.0000000E+00
Ar  4097  0.2523184E+02  0.4538648E+02  0.2142247E+02  0.0000000E+00
Ar  4098  0.2786963E+02  0.4814744E+02  0.2130096E+02  0.0000000E+00
Ar  4099  0.2810606E+02  0.4528614E+02  0.2409539E+02  0.0000000E+00
Ar  4100  0.2502566E+02  0.4840587E+02  0.2392208E+02  0.0000000E+00
Ar  4101  0.2519650E+02  0.4566230E+02  0.2663444E+02  0.0000000E+00
Ar  4102  0.2774456E+02  0.4832771E+02  0.2632640E+02  0.0000000E+00
Ar  4103  0.2745262E+02  0.4554440E+02  0.2938777E+02  0.0000000E+00
Ar  4104  0.2506037E+02  0.4837596E+02  0.2903010E+02  0.0000000E+00
Ar  4105  0.2507387E+02  0.4580603E+02  0.3205297E+02  0.0000000E+00
Ar  4106  0.2833045E+02  0.4827808E+02  0.3201663E+02  0.0000000E+00
Ar  4107  0.2797011E+02  0.4587992E+02  0.3498301E+02  0.0000000E+00
Ar  4108  0.2510884E+02  0.4814219E+02  0.3465918E+02  0.0000000E+00
Ar  4109  0.2591616E+02  0.4508762E+02  0.3745784E+02  0.0000000E+00
Ar  4110  0.2814448E+02  0.4776564E+02  0.3841010E+02  0.0000000E+00
Ar  4111  0.2831015E+02  0.4475619E+02  0.4052981E+02  0.0000000E+00
Ar  4112  0.2516218E+02  0.4773759E+02  0.4047185E+02  0.0000000E+00
Ar  4113  0.2540115E+02  0.4509952E+02  0.4364709E+02  0.0000000E+00
Ar  4114  0.2821990E+02  0.4775396E+02  0.4376341E+02  0.0000000E+00
Ar  4115  0.2861374E+02  0.4520660E+02  0.4604682E+02  0.0000000E+00
Ar  4116  0.2606895E+02  0.4756400E+02  0.4667654E+02  0.0000000E+00
Ar  4117  0.2604812E+02  0.4542992E+02  0.4939966E+02  0.0000000E+00
Ar  4118  0.2915812E+02  0.4807696E+02  0.4957610E+02  0.0000000E+00
Ar  4119  0.2906822E+02  0.4540060E+02  0.5257173E+02  0.0000000E+00
Ar  4120  0.2593774E+02  0.4828602E+02  0.5196867E+02  0.0000000E+00
Ar  4121  0.2497685E+02  0.4565417E+02  0.5537655E+02  0.0000000E+00
Ar  4122  0.2833103E+02  0.4794461E+02  0.5514063E+02  0.0000000E+00
Ar  4123  0.2792732E+02  0.4479189E+02  0.5770859E+02  0.0000000E+00
Ar  4124  0.2529540E+02  0.4840786E+02  0.5868241E+02  0.0000000E+00
Ar  4125  0.2489749E+02  0.4500306E+02  0.6103145E+02  0.0000000E+00
Ar  4126  0.2810075E+02  0.4900943E+02  0.6084138E+02  0.0000000E+00
Ar  4127  0.2848391E+02  0.4590055E+02  0.6368644E+02  0.0000000E+00
Ar  4128  0.2589851E+02  0.4870685E+02  0.6351032E+02  0.0000000E+00
Ar  4129  0.2522858E+02  0.4605071E+02  0.6563134E+02  0.0000000E+00
Ar  4130  0.2816654E+02  0.4825991E+02  0.6610134E+02  0.0000000E+00
Ar  4131  0.2788904E+02  0.4577777E+02  0.6868777E+02  0.0000000E+00
Ar  4132  0.2502129E+02  0.4808778E+02  0.6933142E+02  0.0000000E+00
Ar  4133  0.2527120E+02  0.4598234E+02  0.7200293E+02  0.0000000E+00
Ar  4134  0.2813213E+02  0.4833482E+02  0.7143122E+02  0.0000000E+00
Ar  4135  0.2836569E+02  0.4570556E+02  0.7482260E+02  0.0000000E+00
Ar  4136  0.2448063E+02  0.4841368E+02  0.7485850E+02  0.0000000E+00
Ar  4137  0.2532078E+02  0.4595709E+02  0.7746408E+02  0.0000000E+00
Ar  4138  0.2812559E+02  0.4917029E+02  0.7784827E+02  0.0000000E+00
Ar  4139  0.2858688E+02  0.4566830E+02  0.8039812E+02  0.0000000E+00
Ar  4140  0.2510704E+02  0.4841249E+02  0.8031942E+02  0.0000000E+00
Ar  4141  0.2510401E+02  0.5151409E+02  0.8300102E+02  0.0000000E+00
Ar  4142  0.2803926E+02  0.5476272E+02  0.8337680E+02  0.0000000E+00
Ar  4143  0.2808389E+02  0.5190100E+02  0.1280917E+01  0.0000000E+00
Ar  4144  0.2495098E+02  0.5455158E+02  0.1778890E+01  0.0000000E+00
Ar  4145  0.2541896E+02  0.5165635E+02  0.4074846E+01  0.0000000E+00
Ar  4146  0.2847340E+02  0.5385302E+02  0.4957564E+01  0.0000000E+00
Ar  4147  0.2846173E+02  0.5114683E+02  0.7680325E+01  0.0000000E+00
Ar  4148  0.2561073E+02  0.5365024E+02  0.7751249E+01  0.0000000E+00
Ar  4149  0.2532642E+02  0.5047786E+02  0.9761647E+01  0.0000000E+00
Ar  4150  0.2814141E+02  0.5387345E+02  0.1029268E+02  0.0000000E+00
Ar  4151  0.2804382E+02  0.5083607E+02  0.1287778E+02  0.0000000E+00
Ar  4152  0.2535664E+02  0.5380458E+02  0.1303796E+02  0.0000000E+00
Ar  4153  0.2501620E+02  0.5038255E+02  0.1520309E+02  0.0000000E+00
Ar  4154  0.2770110E+02  0.5337350E+02  0.1572870E+02  0.0000000E+00
Ar  4155  0.2771422E+02  0.5080818E+02  0.1850289E+02  0.0000000E+00
Ar  4156  0.2471333E+02  0.5379804E+02  0.1834482E+02  0.0000000E+00
Ar  4157  0.2492396E+02  0.5122901E+02  0.2139370E+02  0.0000000E+00
Ar  4158  0.2775424E+02  0.5370917E+02  0.2104569E+02  0.0000000E+00
Ar  4159  0.2771167E+02  0.5082373E+02  0.2387478E+02  0.0000000E+00
Ar  4160  0.2564576E+02  0.5368489E+02  0.2392715E+02  0.0000000E+00
Ar  4161  0.2514184E+02  0.5097687E+02  0.2657137E+02  0.0000000E+00
Ar  4162  0.2842155E+02  0.5335051E+02  0.2634498E+02  0.0000000E+00
Ar  4163  0.2795758E+02  0.5071117E+02  0.2905166E+02  0.0000000E+00
Ar  4164  0.2512918E+02  0.5343908E+02  0.2927628E+02  0.0000000E+00
Ar  4165  0.2515841E+02  0.5085431E+02  0.3182226E+02  0.0000000E+00
Ar  4166  0.2760984E+02  0.5340068E+02  0.3203857E+02  0.0000000E+00
Ar  4167  0.2807590E+02  0.5088139E+02  0.3450816E+02  0.0000000E+00
Ar  4168  0.2522408E+02  0.5303728E+02  0.3541537E+02  0.0000000E+00
Ar  4169  0.2539875E+02  0.5031772E+02  0.3790684E+02  0.0000000E+00
Ar  4170  0.2755193E+02  0.5320704E+02  0.3884871E+02  0.0000000E+00
Ar  4171  0.2742164E+02  0.5041572E+02  0.4128900E+02  0.0000000E+00
Ar  4172  0.2490206E+02  0.5313830E+02  0.4118517E+02  0.0000000E+00
Ar  4173  0.2509817E+02  0.5042173E+02  0.4404766E+02  0.0000000E+00
Ar  4174  0.2765883E+02  0.5360437E+02  0.4432103E+02  0.0000000E+00
Ar  4175  0.2781968E+02  0.5067530E+02  0.4646416E+02  0.0000000E+00
Ar  4176  0.2520607E+02  0.5387343E+02  0.4643543E+02  0.0000000E+00
Ar  4177  0.2498068E+02  0.5065814E+02  0.4872895E+02  0.0000000E+00
Ar  4178  0.2802423E+02  0.5374780E+02  0.4889156E+02  0.0000000E+00
Ar  4179  0.2802748E+02  0.5100750E+02  0.5163258E+02  0.0000000E+00
Ar  4180  0.2540290E+02  0.5389169E+02  0.5212966E+02  0.0000000E+00
Ar  4181  0.2525542E+02  0.5087076E+02  0.5480878E+02  0.0000000E+00
Ar  4182  0.2839553E+02  0.5403353E+02  0.5474355E+02  0.0000000E+00
Ar  4183  0.2808056E+02  0.5107948E+02  0.5753761E+02  0.0000000E+00
Ar  4184  0.2554982E+02  0.5380855E+02  0.5712391E+02  0.0000000E+00
Ar  4185  0.2486448E+02  0.5164784E+02  0.6063708E+02  0.0000000E+00
Ar  4186  0.2808868E+02  0.5434916E+02  0.6026429E+02  0.0000000E+00
Ar  4187  0.2798100E+02  0.5144600E+02  0.6310582E+02  0.0000000E+00
Ar  4188  0.2502695E+02  0.5451475E+02  0.6283556E+02  0.0000000E+00
Ar  4189  0.2474363E+02  0.5100256E+02  0.6605783E+02  0.0000000E+00
Ar  4190  0.2753131E+02  0.5367181E+02  0.6583634E+02  0.0000000E+00
Ar  4191  0.2714573E+02  0.5079165E+02  0.6871152E+02  0.0000000E+00
Ar  4192  0.2507591E+02  0.5373321E+02  0.6885808E+02  0.0000000E+00
Ar  4193  0.2518199E+02  0.5067710E+02  0.7174168E+02  0.0000000E+00
Ar  4194  0.2781526E+02  0.5358980E+02  0.7177715E+02  0.0000000E+00
Ar  4195  0.2755955E+02  0.5124148E+02  0.7436675E+02  0.0000000E+00
Ar  4196  0.2533155E+02  0.5379897E+02  0.7428139E+02  0.0000000E+00
Ar  4197  0.2501013E+02  0.5154176E+02  0.7697480E+02  0.0000000E+00
Ar  4198  0.2789362E+02  0.5425154E+02  0.7707786E+02  0.0000000E+00
Ar  4199  0.2772204E+02  0.5172716E+02  0.8017821E+02  0.0000000E+00
Ar  4200  0.2506994E+02  0.5421291E+02  0.7937570E+02  0.0000000E+00
Ar  4201  0.2475335E+02  0.5678761E+02  0.8293933E+02  0.0000000E+00
Ar  4202  0.2757769E+02  0.6002342E+02  0.8249609E+02  0.0000000E+00
Ar  4203  0.2870563E+02  0.5627633E+02  0.2233042E+01  0.0000000E+00
Ar  4204  0.2545943E+02  0.5898415E+02  0.1326145E+01  0.0000000E+00
Ar  4205  0.2569768E+02  0.5615647E+02  0.5177997E+01  0.0000000E+00
Ar  4206  0.2780151E+02  0.5972684E+02  0.4393728E+01  0.0000000E+00
Ar  4207  0.2797681E+02  0.5718260E+02  0.7491285E+01  0.0000000E+00
Ar  4208  0.2485143E+02  0.5975683E+02  0.7171449E+01  0.0000000E+00
Ar  4209  0.2551602E+02  0.5658436E+02  0.1018000E+02  0.0000000E+00
Ar  4210  0.2787956E+02  0.5915849E+02  0.1046736E+02  0.0000000E+00
Ar  4211  0.2809818E+02  0.5596274E+02  0.1330485E+02  0.0000000E+00
Ar  4212  0.2556109E+02  0.5860230E+02  0.1306052E+02  0.0000000E+00
Ar  4213  0.2527032E+02  0.5628061E+02  0.1567869E+02  0.0000000E+00
Ar  4214  0.2819527E+02  0.5904368E+02  0.1595713E+02  0.0000000E+00
Ar  4215  0.2823231E+02  0.5628670E+02  0.1845898E+02  0.0000000E+00
Ar  4216  0.2522347E+02  0.5880288E+02  0.1861830E+02  0.0000000E+00
Ar  4217  0.2475897E+02  0.5619258E+02  0.2113580E+02  0.0000000E+00
Ar  4218  0.2769336E+02  0.5919388E+02  0.2120236E+02  0.0000000E+00
Ar  4219  0.2779110E+02  0.5685869E+02  0.2456842E+02  0.0000000E+00
Ar  4220  0.2526128E+02  0.5953884E+02  0.2400259E+02  0.0000000E+00
Ar  4221  0.2531707E+02  0.5662859E+02  0.2689610E+02  0.0000000E+00
Ar  4222  0.2750906E+02  0.5984192E+02  0.2657357E+02  0.0000000E+00
Ar  4223  0.2800487E+02  0.5619706E+02  0.2961792E+02  0.0000000E+00
Ar  4224  0.2490338E+02  0.5963841E+02  0.2947151E+02  0.0000000E+00
Ar  4225  0.2473899E+02  0.5603169E+02  0.3135506E+02  0.0000000E+00
Ar  4226  0.2737907E+02  0.5896206E+02  0.3204265E+02  0.0000000E+00
Ar  4227  0.2700782E+02  0.5607018E+02  0.3494993E+02  0.0000000E+00
Ar  4228  0.2498169E+02  0.5893449E+02  0.3521952E+02  0.0000000E+00
Ar  4229  0.2539360E+02  0.5655977E+02  0.3868886E+02  0.0000000E+00
Ar  4230  0.2716503E+02  0.5969964E+02  0.3825069E+02  0.0000000E+00
Ar  4231  0.2813334E+02  0.5636639E+02  0.4120377E+02  0.0000000E+00
Ar  4232  0.2460067E+02  0.5983396E+02  0.4073888E+02  0.0000000E+00
Ar  4233  0.2493423E+02  0.5733265E+02  0.4325134E+02  0.0000000E+00
Ar  4234  0.2834939E+02  0.5942705E+02  0.4394970E+02  0.0000000E+00
Ar  4235  0.2863147E+02  0.5658312E+02  0.4679248E+02  0.0000000E+00
Ar  4236  0.2463871E+02  0.5965413E+02  0.4614353E+02  0.0000000E+00
Ar  4237  0.2532252E+02  0.5691800E+02  0.4961345E+02  0.0000000E+00
Ar  4238  0.2855020E+02  0.5982094E+02  0.4915448E+02  0.0000000E+00
Ar  4239  0.2785863E+02  0.5722260E+02  0.5217954E+02  0.0000000E+00
Ar  4240  0.2499555E+02  0.6026637E+02  0.5162652E+02  0.0000000E+00
Ar  4241  0.2520818E+02  0.5645849E+02  0.5483570E+02  0.0000000E+00
Ar  4242  0.2880103E+02  0.5960280E+02  0.5467133E+02  0.0000000E+00
Ar  4243  0.2828859E+02  0.5741229E+02  0.5776730E+02  0.0000000E+00
Ar  4244  0.2544916E+02  0.5987683E+02  0.5712633E+02  0.0000000E+00
Ar  4245  0.2511540E+02  0.5674876E+02  0.5973236E+02  0.0000000E+00
Ar  4246  0.2850904E+02  0.6009519E+02  0.6026439E+02  0.0000000E+00
Ar  4247  0.2854422E+02  0.5665423E+02  0.6345703E+02  0.0000000E+00
Ar  4248  0.2587625E+02  0.5878685E+02  0.6276665E+02  0.0000000E+00
Ar  4249  0.2527160E+02  0.5652898E+02  0.6610528E+02  0.0000000E+00
Ar  4250  0.2825393E+02  0.5984347E+02  0.6577578E+02  0.0000000E+00
Ar  4251  0.2780433E+02  0.5620435E+02  0.6873364E+02  0.0000000E+00
Ar  4252  0.2551666E+02  0.5932803E+02  0.6901249E+02  0.0000000E+00
Ar  4253  0.2534743E+02  0.5609095E+02  0.7157041E+02  0.0000000E+00
Ar  4254  0.2784420E+02  0.5977069E+02  0.7173259E+02  0.0000000E+00
Ar  4255  0.2758290E+02  0.5717428E+02  0.7434678E+02  0.0000000E+00
Ar  4256  0.2515361E+02  0.5965910E+02  0.7409818E+02  0.0000000E+00
Ar  4257  0.2504723E+02  0.5625118E+02  0.7687151E+02  0.0000000E+00
Ar  4258  0.2805559E+02  0.5933340E+02  0.7740823E+02  0.0000000E+00
Ar  4259  0.2728272E+02  0.5682219E+02  0.7978201E+02  0.0000000E+00
Ar  4260  0.2510792E+02  0.5963949E+02  0.7986435E+02  0.0000000E+00
Ar  4261  0.2487899E+02  0.6225975E+02  0.8300200E+02  0.0000000E+00
Ar  4262  0.2829409E+02  0.6469970E+02  0.8302018E+02  0.0000000E+00
Ar  4263  0.2727584E+02  0.6272107E+02  0.1344331E+01  0.0000000E+00
Ar  4264  0.2518242E+02  0.6524925E+02  0.1191820E+01  0.0000000E+00
Ar  4265  0.2484195E+02  0.6137979E+02  0.3889090E+01  0.0000000E+00
Ar  4266  0.2644180E+02  0.6468391E+02  0.4532008E+01  0.0000000E+00
Ar  4267  0.2741493E+02  0.6203006E+02  0.7275492E+01  0.0000000E+00
Ar  4268  0.2494473E+02  0.6517232E+02  0.7611193E+01  0.0000000E+00
Ar  4269  0.2530136E+02  0.6207741E+02  0.1030579E+02  0.0000000E+00
Ar  4270  0.2760245E+02  0.6462169E+02  0.1013972E+02  0.0000000E+00
Ar  4271  0.2763377E+02  0.6143786E+02  0.1345649E+02  0.0000000E+00
Ar  4272  0.2493061E+02  0.6403262E+02  0.1362584E+02  0.0000000E+00
Ar  4273  0.2480522E+02  0.6144173E+02  0.1585960E+02  0.0000000E+00
Ar  4274  0.2826153E+02  0.6452405E+02  0.1524336E+02  0.0000000E+00
Ar  4275  0.2821269E+02  0.6216990E+02  0.1795054E+02  0.0000000E+00
Ar  4276  0.2520646E+02  0.6473110E+02  0.1705992E+02  0.0000000E+00
Ar  4277  0.2536656E+02  0.6223199E+02  0.1985744E+02  0.0000000E+00
Ar  4278  0.2838505E+02  0.6506714E+02  0.2024045E+02  0.0000000E+00
Ar  4279  0.2815438E+02  0.6243093E+02  0.2380105E+02  0.0000000E+00
Ar  4280  0.2533419E+02  0.6463162E+02  0.2281723E+02  0.0000000E+00
Ar  4281  0.2491398E+02  0.6247869E+02  0.2572298E+02  0.0000000E+00
Ar  4282  0.2805480E+02  0.6487100E+02  0.2668896E+02  0.0000000E+00
Ar  4283  0.2828287E+02  0.6203884E+02  0.2951206E+02  0.0000000E+00
Ar  4284  0.2461441E+02  0.6520240E+02  0.2934830E+02  0.0000000E+00
Ar  4285  0.2567894E+02  0.6224253E+02  0.3181156E+02  0.0000000E+00
Ar  4286  0.2876970E+02  0.6456189E+02  0.3213650E+02  0.0000000E+00
Ar  4287  0.2755609E+02  0.6161337E+02  0.3443425E+02  0.0000000E+00
Ar  4288  0.2510339E+02  0.6543586E+02  0.3453508E+02  0.0000000E+00
Ar  4289  0.2501460E+02  0.6201396E+02  0.3797248E+02  0.0000000E+00
Ar  4290  0.2745640E+02  0.6486664E+02  0.3788274E+02  0.0000000E+00
Ar  4291  0.2713392E+02  0.6205082E+02  0.4135520E+02  0.0000000E+00
Ar  4292  0.2499344E+02  0.6525281E+02  0.4089179E+02  0.0000000E+00
Ar  4293  0.2461006E+02  0.6261629E+02  0.4384110E+02  0.0000000E+00
Ar  4294  0.2783863E+02  0.6575538E+02  0.4407463E+02  0.0000000E+00
Ar  4295  0.2878317E+02  0.6231686E+02  0.4637036E+02  0.0000000E+00
Ar  4296  0.2560172E+02  0.6513002E+02  0.4693711E+02  0.0000000E+00
Ar  4297  0.2563867E+02  0.6194561E+02  0.4882439E+02  0.0000000E+00
Ar  4298  0.2863987E+02  0.6560494E+02  0.4917530E+02  0.0000000E+00
Ar  4299  0.2818010E+02  0.6293976E+02  0.5193837E+02  0.0000000E+00
Ar  4300  0.2491441E+02  0.6480570E+02  0.5120832E+02  0.0000000E+00
Ar  4301  0.2540733E+02  0.6236517E+02  0.5451100E+02  0.0000000E+00
Ar  4302  0.2778213E+02  0.6528264E+02  0.5512009E+02  0.0000000E+00
Ar  4303  0.2821497E+02  0.6186399E+02  0.5728299E+02  0.0000000E+00
Ar  4304  0.2533278E+02  0.6523606E+02  0.5825719E+02  0.0000000E+00
Ar  4305  0.2528636E+02  0.6237350E+02  0.6078029E+02  0.0000000E+00
Ar  4306  0.2768062E+02  0.6529996E+02  0.6094273E+02  0.0000000E+00
Ar  4307  0.2810376E+02  0.6225230E+02  0.6317797E+02  0.0000000E+00
Ar  4308  0.2520525E+02  0.6474301E+02  0.6334650E+02  0.0000000E+00
Ar  4309  0.2542034E+02  0.6172714E+02  0.6597555E+02  0.0000000E+00
Ar  4310  0.2796981E+02  0.6477232E+02  0.6582261E+02  0.0000000E+00
Ar  4311  0.2785505E+02  0.6198149E+02  0.6874667E+02  0.0000000E+00
Ar  4312  0.2516384E+02  0.6554545E+02  0.6823464E+02  0.0000000E+00
Ar  4313  0.2506361E+02  0.6231801E+02  0.7084695E+02  0.0000000E+00
Ar  4314  0.2772750E+02  0.6526940E+02  0.7090458E+02  0.0000000E+00
Ar  4315  0.2792916E+02  0.6269686E+02  0.7385978E+02  0.0000000E+00
Ar  4316  0.2491164E+02  0.6456479E+02  0.7457663E+02  0.0000000E+00
Ar  4317  0.2557395E+02  0.6208304E+02  0.7705722E+02  0.0000000E+00
Ar  4318  0.2794270E+02  0.6476174E+02  0.7660871E+02  0.0000000E+00
Ar  4319  0.2870735E+02  0.6215143E+02  0.7974869E+02  0.0000000E+00
Ar  4320  0.2571967E+02  0.6455541E+02  0.7992429E+02  0.0000000E+00
Ar  4321  0.2454026E+02  0.6762086E+02  0.8285646E+02  0.0000000E+00
Ar  4322  0.2795528E+02  0.7067424E+02  0.8317444E+02  0.0000000E+00
Ar  4323  0.2828639E+02  0.6726655E+02  0.1581209E+01  0.0000000E+00
Ar  4324  0.2600083E+02  0.7095319E+02  0.1419940E+01  0.0000000E+00
Ar  4325  0.2518114E+02  0.6808119E+02  0.3994685E+01  0.0000000E+00
Ar  4326  0.2822420E+02  0.7019165E+02  0.4347921E+01  0.0000000E+00
Ar  4327  0.2760683E+02  0.6736316E+02  0.6906335E+01  0.0000000E+00
Ar  4328  0.2549974E+02  0.7062253E+02  0.6927181E+01  0.0000000E+00
Ar  4329  0.2542343E+02  0.6720280E+02  0.1049728E+02  0.0000000E+00
Ar  4330  0.2788276E+02  0.7026105E+02  0.1076878E+02  0.0000000E+00
Ar  4331  0.2844812E+02  0.6710238E+02  0.1278782E+02  0.0000000E+00
Ar  4332  0.2509526E+02  0.7020280E+02  0.1263339E+02  0.0000000E+00
Ar  4333  0.2589634E+02  0.6750012E+02  0.1501102E+02  0.0000000E+00
Ar  4334  0.2798219E+02  0.7057523E+02  0.1513395E+02  0.0000000E+00
Ar  4335  0.2803967E+02  0.6791572E+02  0.1834979E+02  0.0000000E+00
Ar  4336  0.2544800E+02  0.7061538E+02  0.1786765E+02  0.0000000E+00
Ar  4337  0.2542125E+02  0.6737497E+02  0.2056238E+02  0.0000000E+00
Ar  4338  0.2845948E+02  0.7087910E+02  0.2125557E+02  0.0000000E+00
Ar  4339  0.2760456E+02  0.6731955E+02  0.2365738E+02  0.0000000E+00
Ar  4340  0.2566709E+02  0.7099292E+02  0.2433064E+02  0.0000000E+00
Ar  4341  0.2552291E+02  0.6740060E+02  0.2674746E+02  0.0000000E+00
Ar  4342  0.2817116E+02  0.7103495E+02  0.2666929E+02  0.0000000E+00
Ar  4343  0.2754555E+02  0.6800658E+02  0.3032122E+02  0.0000000E+00
Ar  4344  0.2539019E+02  0.7095696E+02  0.2871578E+02  0.0000000E+00
Ar  4345  0.2445119E+02  0.6813494E+02  0.3186949E+02  0.0000000E+00
Ar  4346  0.2832955E+02  0.7103028E+02  0.3212794E+02  0.0000000E+00
Ar  4347  0.2803851E+02  0.6817237E+02  0.3552132E+02  0.0000000E+00
Ar  4348  0.2513133E+02  0.7047000E+02  0.3488003E+02  0.0000000E+00
Ar  4349  0.2545897E+02  0.6803163E+02  0.3755137E+02  0.0000000E+00
Ar  4350  0.2814596E+02  0.7133895E+02  0.3817488E+02  0.0000000E+00
Ar  4351  0.2795841E+02  0.6788036E+02  0.4058319E+02  0.0000000E+00
Ar  4352  0.2539243E+02  0.7046227E+02  0.4007388E+02  0.0000000E+00
Ar  4353  0.2524080E+02  0.6796861E+02  0.4344396E+02  0.0000000E+00
Ar  4354  0.2830637E+02  0.7041047E+02  0.4328999E+02  0.0000000E+00
Ar  4355  0.2766359E+02  0.6862189E+02  0.4672354E+02  0.0000000E+00
Ar  4356  0.2454491E+02  0.7124642E+02  0.4621546E+02  0.0000000E+00
Ar  4357  0.2470161E+02  0.6853613E+02  0.4904709E+02  0.0000000E+00
Ar  4358  0.2756337E+02  0.7097353E+02  0.4962417E+02  0.0000000E+00
Ar  4359  0.2810846E+02  0.6786668E+02  0.5231106E+02  0.0000000E+00
Ar  4360  0.2515770E+02  0.7022734E+02  0.5231114E+02  0.0000000E+00
Ar  4361  0.2501721E+02  0.6752932E+02  0.5519652E+02  0.0000000E+00
Ar  4362  0.2760615E+02  0.6982391E+02  0.5533815E+02  0.0000000E+00
Ar  4363  0.2821082E+02  0.6779744E+02  0.5831173E+02  0.0000000E+00
Ar  4364  0.2507652E+02  0.7031897E+02  0.5759464E+02  0.0000000E+00
Ar  4365  0.2513157E+02  0.6790113E+02  0.6059329E+02  0.0000000E+00
Ar  4366  0.2741655E+02  0.7063773E+02  0.6061244E+02  0.0000000E+00
Ar  4367  0.2795632E+02  0.6823642E+02  0.6327533E+02  0.0000000E+00
Ar  4368  0.2500727E+02  0.7091230E+02  0.6341090E+02  0.0000000E+00
Ar  4369  0.2499437E+02  0.6800335E+02  0.6560319E+02  0.0000000E+00
Ar  4370  0.2819785E+02  0.7107365E+02  0.6571550E+02  0.0000000E+00
Ar  4371  0.2837334E+02  0.6840307E+02  0.6822495E+02  0.0000000E+00
Ar  4372  0.2470762E+02  0.6977947E+02  0.6872969E+02  0.0000000E+00
Ar  4373  0.2464320E+02  0.6744694E+02  0.7205776E+02  0.0000000E+00
Ar  4374  0.2699232E+02  0.6991921E+02  0.7181541E+02  0.0000000E+00
Ar  4375  0.2716342E+02  0.6827947E+02  0.7474742E+02  0.0000000E+00
Ar  4376  0.2446800E+02  0.7102987E+02  0.7415651E+02  0.0000000E+00
Ar  4377  0.2478615E+02  0.6763770E+02  0.7713698E+02  0.0000000E+00
Ar  4378  0.2766210E+02  0.7018450E+02  0.7770118E+02  0.0000000E+00
Ar  4379  0.2733779E+02  0.6776354E+02  0.8062525E+02  0.0000000E+00
Ar  4380  0.2520826E+02  0.7039103E+02  0.8015253E+02  0.0000000E+00
Ar  4381  0.2511589E+02  0.7346794E+02  0.8269505E+02  0.0000000E+00
Ar  4382  0.2770996E+02  0.7629704E+02  0.8220560E+02  0.0000000E+00
Ar  4383  0.2803596E+02  0.7385733E+02  0.1011531E+01  0.0000000E+00
Ar  4384  0.2509715E+02  0.7608150E+02  0.1559973E+01  0.0000000E+00
Ar  4385  0.2584361E+02  0.7332881E+02  0.4212988E+01  0.0000000E+00
Ar  4386  0.2842210E+02  0.7655317E+02  0.5011489E+01  0.0000000E+00
Ar  4387  0.2817553E+02  0.7382068E+02  0.7129829E+01  0.0000000E+00
Ar  4388  0.2519190E+02  0.7641128E+02  0.6549464E+01  0.0000000E+00
Ar  4389  0.2578884E+02  0.7297416E+02  0.9753276E+01  0.0000000E+00
Ar  4390  0.2819832E+02  0.7667773E+02  0.1047779E+02  0.0000000E+00
Ar  4391  0.2844843E+02  0.7391968E+02  0.1262513E+02  0.0000000E+00
Ar  4392  0.2548166E+02  0.7629704E+02  0.1278667E+02  0.0000000E+00
Ar  4393  0.2483360E+02  0.7359791E+02  0.1555717E+02  0.0000000E+00
Ar  4394  0.2825579E+02  0.7570628E+02  0.1559253E+02  0.0000000E+00
Ar  4395  0.2799416E+02  0.7346094E+02  0.1821429E+02  0.0000000E+00
Ar  4396  0.2520861E+02  0.7626378E+02  0.1817881E+02  0.0000000E+00
Ar  4397  0.2555413E+02  0.7365289E+02  0.2100441E+02  0.0000000E+00
Ar  4398  0.2830912E+02  0.7622527E+02  0.2085704E+02  0.0000000E+00
Ar  4399  0.2826397E+02  0.7380781E+02  0.2380142E+02  0.0000000E+00
Ar  4400  0.2402509E+02  0.7630629E+02  0.2371841E+02  0.0000000E+00
Ar  4401  0.2603256E+02  0.7382082E+02  0.2646798E+02  0.0000000E+00
Ar  4402  0.2877556E+02  0.7602347E+02  0.2653543E+02  0.0000000E+00
Ar  4403  0.2892511E+02  0.7373024E+02  0.2968440E+02  0.0000000E+00
Ar  4404  0.2543600E+02  0.7616819E+02  0.2933644E+02  0.0000000E+00
Ar  4405  0.2426558E+02  0.7284717E+02  0.3138341E+02  0.0000000E+00
Ar  4406  0.2775252E+02  0.7573089E+02  0.3209868E+02  0.0000000E+00
Ar  4407  0.2752800E+02  0.7328415E+02  0.3504946E+02  0.0000000E+00
Ar  4408  0.2479279E+02  0.7621976E+02  0.3489603E+02  0.0000000E+00
Ar  4409  0.2529364E+02  0.7386969E+02  0.3764585E+02  0.0000000E+00
Ar  4410  0.2787168E+02  0.7654829E+02  0.3767493E+02  0.0000000E+00
Ar  4411  0.2707151E+02  0.7421452E+02  0.4053558E+02  0.0000000E+00
Ar  4412  0.2516772E+02  0.7764447E+02  0.4028702E+02  0.0000000E+00
Ar  4413  0.2566225E+02  0.7290802E+02  0.4342949E+02  0.0000000E+00
Ar  4414  0.2731981E+02  0.7666259E+02  0.4413124E+02  0.0000000E+00
Ar  4415  0.2761580E+02  0.7357870E+02  0.4648925E+02  0.0000000E+00
Ar  4416  0.2456308E+02  0.7600852E+02  0.4633340E+02  0.0000000E+00
Ar  4417  0.2485249E+02  0.7347984E+02  0.4904306E+02  0.0000000E+00
Ar  4418  0.2802514E+02  0.7623062E+02  0.4867383E+02  0.0000000E+00
Ar  4419  0.2779786E+02  0.7341952E+02  0.5217487E+02  0.0000000E+00
Ar  4420  0.2595585E+02  0.7613666E+02  0.5163533E+02  0.0000000E+00
Ar  4421  0.2482600E+02  0.7281329E+02  0.5481883E+02  0.0000000E+00
Ar  4422  0.2803961E+02  0.7641950E+02  0.5501646E+02  0.0000000E+00
Ar  4423  0.2769401E+02  0.7362353E+02  0.5745175E+02  0.0000000E+00
Ar  4424  0.2489853E+02  0.7593326E+02  0.5767264E+02  0.0000000E+00
Ar  4425  0.2531285E+02  0.7337725E+02  0.6023461E+02  0.0000000E+00
Ar  4426  0.2756825E+02  0.7627401E+02  0.6020980E+02  0.0000000E+00
Ar  4427  0.2780446E+02  0.7327592E+02  0.6295637E+02  0.0000000E+00
Ar  4428  0.2438968E+02  0.7622363E+02  0.6273165E+02  0.0000000E+00
Ar  4429  0.2497255E+02  0.7384673E+02  0.6605665E+02  0.0000000E+00
Ar  4430  0.2762282E+02  0.7618068E+02  0.6655788E+02  0.0000000E+00
Ar  4431  0.2671930E+02  0.7253301E+02  0.6930126E+02  0.0000000E+00
Ar  4432  0.2493378E+02  0.7629175E+02  0.6891849E+02  0.0000000E+00
Ar  4433  0.2451833E+02  0.7399558E+02  0.7177535E+02  0.0000000E+00
Ar  4434  0.2791400E+02  0.7540740E+02  0.7153059E+02  0.0000000E+00
Ar  4435  0.2730733E+02  0.7350222E+02  0.7466981E+02  0.0000000E+00
Ar  4436  0.2516782E+02  0.7607362E+02  0.7454403E+02  0.0000000E+00
Ar  4437  0.2450265E+02  0.7338276E+02  0.7739365E+02  0.0000000E+00
Ar  4438  0.2830754E+02  0.7658005E+02  0.7697785E+02  0.0000000E+00
Ar  4439  0.2748636E+02  0.7336374E+02  0.7988656E+02  0.0000000E+00
Ar  4440  0.2499855E+02  0.7649550E+02  0.7967513E+02  0.0000000E+00
Ar  4441  0.2518554E+02  0.7920471E+02  0.8292540E+02  0.0000000E+00
Ar  4442  0.2774895E+02  0.8208514E+02  0.8323496E+02  0.0000000E+00
Ar  4443  0.2813703E+02  0.7885306E+02  0.1437387E+01  0.0000000E+00
Ar  4444  0.2482661E+02  0.8179273E+02  0.1438560E+01  0.0000000E+00
Ar  4445  0.2506710E+02  0.7882443E+02  0.3919801E+01  0.0000000E+00
Ar  4446  0.2783920E+02  0.8180157E+02  0.3721507E+01  0.0000000E+00
Ar  4447  0.2784218E+02  0.7916974E+02  0.7302120E+01  0.0000000E+00
Ar  4448  0.2424377E+02  0.8150457E+02  0.6891437E+01  0.0000000E+00
Ar  4449  0.2521471E+02  0.7843829E+02  0.1014371E+02  0.0000000E+00
Ar  4450  0.2714493E+02  0.8131098E+02  0.9901903E+01  0.0000000E+00
Ar  4451  0.2788788E+02  0.7914241E+02  0.1319179E+02  0.0000000E+00
Ar  4452  0.2528345E+02  0.8162025E+02  0.1313577E+02  0.0000000E+00
Ar  4453  0.2515030E+02  0.7901895E+02  0.1539073E+02  0.0000000E+00
Ar  4454  0.2828393E+02  0.8239448E+02  0.1528592E+02  0.0000000E+00
Ar  4455  0.2856830E+02  0.7887477E+02  0.1743096E+02  0.0000000E+00
Ar  4456  0.2516853E+02  0.8172997E+02  0.1787002E+02  0.0000000E+00
Ar  4457  0.2527351E+02  0.7952878E+02  0.2146655E+02  0.0000000E+00
Ar  4458  0.2757460E+02  0.8223669E+02  0.2051729E+02  0.0000000E+00
Ar  4459  0.2774487E+02  0.7854943E+02  0.2383933E+02  0.0000000E+00
Ar  4460  0.2520317E+02  0.8217888E+02  0.2384558E+02  0.0000000E+00
Ar  4461  0.2482673E+02  0.7900128E+02  0.2637439E+02  0.0000000E+00
Ar  4462  0.2732238E+02  0.8185361E+02  0.2643871E+02  0.0000000E+00
Ar  4463  0.2468811E+02  0.8147836E+02  0.2921896E+02  0.0000000E+00
Ar  4464  0.1886331E+02  0.8198523E+02  0.2978643E+02  0.0000000E+00
Ar  4465  0.2537297E+02  0.7891288E+02  0.3204166E+02  0.0000000E+00
Ar  4466  0.2805177E+02  0.8215032E+02  0.3232718E+02  0.0000000E+00
Ar  4467  0.2732869E+02  0.7920845E+02  0.3548340E+02  0.0000000E+00
Ar  4468  0.2490144E+02  0.8184582E+02  0.3486706E+02  0.0000000E+00
Ar  4469  0.2421238E+02  0.7894287E+02  0.3708822E+02  0.0000000E+00
Ar  4470  0.2771048E+02  0.8209470E+02  0.3813839E+02  0.0000000E+00
Ar  4471  0.2800867E+02  0.7967487E+02  0.4060954E+02  0.0000000E+00
Ar  4472  0.2463777E+02  0.8153728E+02  0.4014230E+02  0.0000000E+00
Ar  4473  0.2457597E+02  0.7934666E+02  0.4337866E+02  0.0000000E+00
Ar  4474  0.2811681E+02  0.8268527E+02  0.4319578E+02  0.0000000E+00
Ar  4475  0.2768768E+02  0.7993575E+02  0.4617058E+02  0.0000000E+00
Ar  4476  0.2443091E+02  0.8217332E+02  0.4622532E+02  0.0000000E+00
Ar  4477  0.2482559E+02  0.7888698E+02  0.4892076E+02  0.0000000E+00
Ar  4478  0.2711522E+02  0.8225009E+02  0.4878729E+02  0.0000000E+00
Ar  4479  0.2765628E+02  0.7900776E+02  0.5218057E+02  0.0000000E+00
Ar  4480  0.2467415E+02  0.8186405E+02  0.5228831E+02  0.0000000E+00
Ar  4481  0.2496879E+02  0.7812154E+02  0.5490601E+02  0.0000000E+00
Ar  4482  0.2720670E+02  0.8158228E+02  0.5500109E+02  0.0000000E+00
Ar  4483  0.2754072E+02  0.7879002E+02  0.5787753E+02  0.0000000E+00
Ar  4484  0.2489891E+02  0.8114913E+02  0.5737048E+02  0.0000000E+00
Ar  4485  0.2467278E+02  0.7853626E+02  0.6024859E+02  0.0000000E+00
Ar  4486  0.2746227E+02  0.8163356E+02  0.6052370E+02  0.0000000E+00
Ar  4487  0.2697726E+02  0.7877471E+02  0.6328608E+02  0.0000000E+00
Ar  4488  0.2491060E+02  0.8148777E+02  0.6344400E+02  0.0000000E+00
Ar  4489  0.2439619E+02  0.7868030E+02  0.6607794E+02  0.0000000E+00
Ar  4490  0.2783796E+02  0.8120229E+02  0.6646374E+02  0.0000000E+00
Ar  4491  0.2762463E+02  0.7856175E+02  0.6933700E+02  0.0000000E+00
Ar  4492  0.2506091E+02  0.8098376E+02  0.6898285E+02  0.0000000E+00
Ar  4493  0.2453709E+02  0.7844589E+02  0.7198681E+02  0.0000000E+00
Ar  4494  0.2765728E+02  0.8153693E+02  0.7149950E+02  0.0000000E+00
Ar  4495  0.2778850E+02  0.7845845E+02  0.7392200E+02  0.0000000E+00
Ar  4496  0.2574164E+02  0.8171854E+02  0.7458981E+02  0.0000000E+00
Ar  4497  0.2568103E+02  0.7897088E+02  0.7700391E+02  0.0000000E+00
Ar  4498  0.2805201E+02  0.8176136E+02  0.7759292E+02  0.0000000E+00
Ar  4499  0.2822521E+02  0.7920293E+02  0.8009290E+02  0.0000000E+00
Ar  4500  0.2511303E+02  0.8155701E+02  0.8007585E+02  0.0000000E+00
Ar  4501  0.3108671E+02  0.3650224E+00  0.8295519E+02  0.0000000E+00
Ar  4502  0.3348254E+02  0.3646848E+01  0.8222854E+02  0.0000000E+00
Ar  4503  0.3364667E+02  0.1240361E+01  0.1440281E+01  0.0000000E+00
Ar  4504  0.3070682E+02  0.2982700E+01  0.1071914E+01  0.0000000E+00
Ar  4505  0.3043074E+02  0.8769363E+00  0.4624123E+01  0.0000000E+00
Ar  4506  0.3305015E+02  0.3342936E+01  0.4505010E+01  0.0000000E+00
Ar  4507  0.3309893E+02  0.5813486E+00  0.7079097E+01  0.0000000E+00
Ar  4508  0.3063089E+02  0.4682521E+01  0.6800594E+01  0.0000000E+00
Ar  4509  0.3013541E+02  0.1660089E+01  0.8683779E+01  0.0000000E+00
Ar  4510  0.3309089E+02  0.4067097E+01  0.9275084E+01  0.0000000E+00
Ar  4511  0.3302687E+02  0.5034349E+00  0.1254863E+02  0.0000000E+00
Ar  4512  0.3026515E+02  0.3526134E+01  0.1247419E+02  0.0000000E+00
Ar  4513  0.3065956E+02  0.4915816E+00  0.1540330E+02  0.0000000E+00
Ar  4514  0.3345041E+02  0.2842433E+01  0.1548262E+02  0.0000000E+00
Ar  4515  0.3272280E+02  0.9331311E+00  0.1836386E+02  0.0000000E+00
Ar  4516  0.3065495E+02  0.3723441E+01  0.1795968E+02  0.0000000E+00
Ar  4517  0.2999598E+02  0.5349321E+00  0.2117305E+02  0.0000000E+00
Ar  4518  0.3344691E+02  0.3501874E+01  0.2108047E+02  0.0000000E+00
Ar  4519  0.3338119E+02  0.7242369E+00  0.2373169E+02  0.0000000E+00
Ar  4520  0.3000401E+02  0.3654359E+01  0.2322910E+02  0.0000000E+00
Ar  4521  0.3051526E+02  0.5333602E+00  0.2565379E+02  0.0000000E+00
Ar  4522  0.3312758E+02  0.3116029E+01  0.2647712E+02  0.0000000E+00
Ar  4523  0.3303576E+02  0.8389375E+02  0.2900279E+02  0.0000000E+00
Ar  4524  0.3090096E+02  0.3168916E+01  0.2913565E+02  0.0000000E+00
Ar  4525  0.3029291E+02  0.9040846E+00  0.3225887E+02  0.0000000E+00
Ar  4526  0.3388580E+02  0.3720178E+01  0.3169940E+02  0.0000000E+00
Ar  4527  0.3348889E+02  0.5503792E+00  0.3494838E+02  0.0000000E+00
Ar  4528  0.3098668E+02  0.3881838E+01  0.3453524E+02  0.0000000E+00
Ar  4529  0.3016203E+02  0.1092860E+01  0.3693809E+02  0.0000000E+00
Ar  4530  0.3286930E+02  0.3578896E+01  0.3785995E+02  0.0000000E+00
Ar  4531  0.3412605E+02  0.3527005E+00  0.4091107E+02  0.0000000E+00
Ar  4532  0.3098222E+02  0.3190034E+01  0.4066900E+02  0.0000000E+00
Ar  4533  0.3106813E+02  0.2424156E+00  0.4330902E+02  0.0000000E+00
Ar  4534  0.3342066E+02  0.3150285E+01  0.4367130E+02  0.0000000E+00
Ar  4535  0.3342338E+02  0.8356821E+02  0.4659798E+02  0.0000000E+00
Ar  4536  0.3099277E+02  0.2715687E+01  0.4654556E+02  0.0000000E+00
Ar  4537  0.3048148E+02  0.4399234E+00  0.4963925E+02  0.0000000E+00
Ar  4538  0.3369759E+02  0.2054459E+01  0.4875515E+02  0.0000000E+00
Ar  4539  0.3271306E+02  0.1526161E+01  0.5226870E+02  0.0000000E+00
Ar  4540  0.3056478E+02  0.4081166E+01  0.5219620E+02  0.0000000E+00
Ar  4541  0.2940764E+02  0.7020497E+00  0.5481071E+02  0.0000000E+00
Ar  4542  0.3338066E+02  0.4273021E+01  0.5455437E+02  0.0000000E+00
Ar  4543  0.3333360E+02  0.4800119E+00  0.5675260E+02  0.0000000E+00
Ar  4544  0.2990660E+02  0.2987680E+01  0.5780692E+02  0.0000000E+00
Ar  4545  0.3037565E+02  0.8395012E+02  0.6028136E+02  0.0000000E+00
Ar  4546  0.3257859E+02  0.3830361E+01  0.5998047E+02  0.0000000E+00
Ar  4547  0.3297522E+02  0.8420342E+02  0.6267055E+02  0.0000000E+00
Ar  4548  0.3023692E+02  0.2977209E+01  0.6283672E+02  0.0000000E+00
Ar  4549  0.2997505E+02  0.6046021E+00  0.6599914E+02  0.0000000E+00
Ar  4550  0.3244542E+02  0.2904582E+01  0.6550543E+02  0.0000000E+00
Ar  4551  0.3307459E+02  0.8598981E+00  0.6840316E+02  0.0000000E+00
Ar  4552  0.3013580E+02  0.3260946E+01  0.6867373E+02  0.0000000E+00
Ar  4553  0.3007061E+02  0.8408967E+02  0.7189875E+02  0.0000000E+00
Ar  4554  0.3298858E+02  0.2961775E+01  0.7122872E+02  0.0000000E+00
Ar  4555  0.3391348E+02  0.1040977E+01  0.7370551E+02  0.0000000E+00
Ar  4556  0.3010207E+02  0.3919385E+01  0.7392576E+02  0.0000000E+00
Ar  4557  0.2985813E+02  0.7024106E+00  0.7601028E+02  0.0000000E+00
Ar  4558  0.3260844E+02  0.3067800E+01  0.7698065E+02  0.0000000E+00
Ar  4559  0.3293177E+02  0.5914348E+00  0.7969392E+02  0.0000000E+00
Ar  4560  0.3023360E+02  0.3338822E+01  0.7988073E+02  0.0000000E+00
Ar  4561  0.3024282E+02  0.6293367E+01  0.8313679E+02  0.0000000E+00
Ar  4562  0.3314715E+02  0.9154221E+01  0.8321202E+02  0.0000000E+00
Ar  4563  0.3330520E+02  0.6301283E+01  0.1683033E+01  0.0000000E+00
Ar  4564  0.3066273E+02  0.9493482E+01  0.1252600E+01  0.0000000E+00
Ar  4565  0.3039589E+02  0.6987861E+01  0.4158786E+01  0.0000000E+00
Ar  4566  0.3312541E+02  0.9481784E+01  0.4285683E+01  0.0000000E+00
Ar  4567  0.3366684E+02  0.7022134E+01  0.6819559E+01  0.0000000E+00
Ar  4568  0.3055267E+02  0.8784410E+01  0.7060423E+01  0.0000000E+00
Ar  4569  0.3033424E+02  0.6567795E+01  0.9734860E+01  0.0000000E+00
Ar  4570  0.3354541E+02  0.8970025E+01  0.9740856E+01  0.0000000E+00
Ar  4571  0.3355238E+02  0.6553227E+01  0.1232259E+02  0.0000000E+00
Ar  4572  0.3022388E+02  0.8808036E+01  0.1237932E+02  0.0000000E+00
Ar  4573  0.3059424E+02  0.6076017E+01  0.1528370E+02  0.0000000E+00
Ar  4574  0.3400453E+02  0.9413661E+01  0.1562536E+02  0.0000000E+00
Ar  4575  0.3357581E+02  0.6364496E+01  0.1809114E+02  0.0000000E+00
Ar  4576  0.3091558E+02  0.9087631E+01  0.1740625E+02  0.0000000E+00
Ar  4577  0.3109881E+02  0.6101862E+01  0.2086017E+02  0.0000000E+00
Ar  4578  0.3338724E+02  0.8573361E+01  0.2095075E+02  0.0000000E+00
Ar  4579  0.3330807E+02  0.6089925E+01  0.2410369E+02  0.0000000E+00
Ar  4580  0.3078373E+02  0.8679240E+01  0.2381972E+02  0.0000000E+00
Ar  4581  0.3032955E+02  0.6617310E+01  0.2664274E+02  0.0000000E+00
Ar  4582  0.3301698E+02  0.8959830E+01  0.2675160E+02  0.0000000E+00
Ar  4583  0.3273967E+02  0.6562883E+01  0.2933137E+02  0.0000000E+00
Ar  4584  0.3033395E+02  0.9574948E+01  0.2936180E+02  0.0000000E+00
Ar  4585  0.3062629E+02  0.6565033E+01  0.3235734E+02  0.0000000E+00
Ar  4586  0.3389926E+02  0.9252410E+01  0.3175929E+02  0.0000000E+00
Ar  4587  0.3370772E+02  0.6840754E+01  0.3444602E+02  0.0000000E+00
Ar  4588  0.3007875E+02  0.9208241E+01  0.3465872E+02  0.0000000E+00
Ar  4589  0.3083610E+02  0.6316411E+01  0.3788641E+02  0.0000000E+00
Ar  4590  0.3328624E+02  0.9396400E+01  0.3790246E+02  0.0000000E+00
Ar  4591  0.3343967E+02  0.6495432E+01  0.4070514E+02  0.0000000E+00
Ar  4592  0.3062761E+02  0.8877744E+01  0.4060446E+02  0.0000000E+00
Ar  4593  0.3115380E+02  0.6314420E+01  0.4352427E+02  0.0000000E+00
Ar  4594  0.3336042E+02  0.9028013E+01  0.4329198E+02  0.0000000E+00
Ar  4595  0.3301251E+02  0.5725039E+01  0.4650059E+02  0.0000000E+00
Ar  4596  0.2995152E+02  0.8546620E+01  0.4618708E+02  0.0000000E+00
Ar  4597  0.3023573E+02  0.6170822E+01  0.4869842E+02  0.0000000E+00
Ar  4598  0.3302126E+02  0.8867605E+01  0.4864554E+02  0.0000000E+00
Ar  4599  0.3324932E+02  0.6354897E+01  0.5115205E+02  0.0000000E+00
Ar  4600  0.3011929E+02  0.8398851E+01  0.5139395E+02  0.0000000E+00
Ar  4601  0.3049015E+02  0.6738645E+01  0.5450289E+02  0.0000000E+00
Ar  4602  0.3324089E+02  0.8712346E+01  0.5399486E+02  0.0000000E+00
Ar  4603  0.3318233E+02  0.6441404E+01  0.5719111E+02  0.0000000E+00
Ar  4604  0.3092512E+02  0.8877080E+01  0.5786276E+02  0.0000000E+00
Ar  4605  0.2966709E+02  0.6109898E+01  0.6015283E+02  0.0000000E+00
Ar  4606  0.3308669E+02  0.8329676E+01  0.6107583E+02  0.0000000E+00
Ar  4607  0.3251701E+02  0.5691804E+01  0.6310704E+02  0.0000000E+00
Ar  4608  0.3044999E+02  0.8645916E+01  0.6338069E+02  0.0000000E+00
Ar  4609  0.2985621E+02  0.6101235E+01  0.6598048E+02  0.0000000E+00
Ar  4610  0.3280659E+02  0.8726800E+01  0.6623081E+02  0.0000000E+00
Ar  4611  0.3294442E+02  0.5771686E+01  0.6788983E+02  0.0000000E+00
Ar  4612  0.2939595E+02  0.9119697E+01  0.6833812E+02  0.0000000E+00
Ar  4613  0.3043132E+02  0.6259424E+01  0.7059210E+02  0.0000000E+00
Ar  4614  0.3356086E+02  0.8388553E+01  0.7075193E+02  0.0000000E+00
Ar  4615  0.3290154E+02  0.6268913E+01  0.7406776E+02  0.0000000E+00
Ar  4616  0.2995302E+02  0.8821304E+01  0.7409074E+02  0.0000000E+00
Ar  4617  0.3048029E+02  0.6439990E+01  0.7705096E+02  0.0000000E+00
Ar  4618  0.3320424E+02  0.9034394E+01  0.7685362E+02  0.0000000E+00
Ar  4619  0.3299041E+02  0.6901267E+01  0.8055870E+02  0.0000000E+00
Ar  4620  0.3012476E+02  0.9440562E+01  0.8085022E+02  0.0000000E+00
Ar  4621  0.2997691E+02  0.1195998E+02  0.8336098E+02  0.0000000E+00
Ar  4622  0.3259837E+02  0.1471652E+02  0.8316131E+02  0.0000000E+00
Ar  4623  0.3342354E+02  0.1231112E+02  0.1319062E+01  0.0000000E+00
Ar  4624  0.3036152E+02  0.1483752E+02  0.2106409E+01  0.0000000E+00
Ar  4625  0.3022584E+02  0.1149614E+02  0.4513923E+01  0.0000000E+00
Ar  4626  0.3295237E+02  0.1480342E+02  0.4546929E+01  0.0000000E+00
Ar  4627  0.3319749E+02  0.1177149E+02  0.7153450E+01  0.0000000E+00
Ar  4628  0.3042773E+02  0.1456797E+02  0.7189066E+01  0.0000000E+00
Ar  4629  0.3072862E+02  0.1143315E+02  0.9726448E+01  0.0000000E+00
Ar  4630  0.3297998E+02  0.1442232E+02  0.9668025E+01  0.0000000E+00
Ar  4631  0.3270751E+02  0.1152295E+02  0.1273825E+02  0.0000000E+00
Ar  4632  0.3038497E+02  0.1465740E+02  0.1217891E+02  0.0000000E+00
Ar  4633  0.2997429E+02  0.1158169E+02  0.1509231E+02  0.0000000E+00
Ar  4634  0.3338267E+02  0.1472026E+02  0.1439484E+02  0.0000000E+00
Ar  4635  0.3316392E+02  0.1190892E+02  0.1807108E+02  0.0000000E+00
Ar  4636  0.3099032E+02  0.1477303E+02  0.1839205E+02  0.0000000E+00
Ar  4637  0.3077819E+02  0.1165963E+02  0.2066686E+02  0.0000000E+00
Ar  4638  0.3315586E+02  0.1458540E+02  0.2109892E+02  0.0000000E+00
Ar  4639  0.3300096E+02  0.1150188E+02  0.2389862E+02  0.0000000E+00
Ar  4640  0.3014099E+02  0.1473515E+02  0.2393806E+02  0.0000000E+00
Ar  4641  0.3031902E+02  0.1156376E+02  0.2610898E+02  0.0000000E+00
Ar  4642  0.3331721E+02  0.1469004E+02  0.2596053E+02  0.0000000E+00
Ar  4643  0.3362417E+02  0.1205008E+02  0.2904467E+02  0.0000000E+00
Ar  4644  0.3087154E+02  0.1471939E+02  0.2847926E+02  0.0000000E+00
Ar  4645  0.3034753E+02  0.1184018E+02  0.3220050E+02  0.0000000E+00
Ar  4646  0.3340484E+02  0.1460497E+02  0.3212673E+02  0.0000000E+00
Ar  4647  0.3324091E+02  0.1134615E+02  0.3437797E+02  0.0000000E+00
Ar  4648  0.3075541E+02  0.1483905E+02  0.3453157E+02  0.0000000E+00
Ar  4649  0.3049836E+02  0.1170029E+02  0.3721530E+02  0.0000000E+00
Ar  4650  0.3249940E+02  0.1477068E+02  0.3804429E+02  0.0000000E+00
Ar  4651  0.3240436E+02  0.1189247E+02  0.4058676E+02  0.0000000E+00
Ar  4652  0.3033060E+02  0.1519371E+02  0.4107796E+02  0.0000000E+00
Ar  4653  0.3039969E+02  0.1170430E+02  0.4372183E+02  0.0000000E+00
Ar  4654  0.3294058E+02  0.1489748E+02  0.4362699E+02  0.0000000E+00
Ar  4655  0.3364114E+02  0.1194460E+02  0.4564459E+02  0.0000000E+00
Ar  4656  0.3050187E+02  0.1544746E+02  0.4612989E+02  0.0000000E+00
Ar  4657  0.3031437E+02  0.1149259E+02  0.4858390E+02  0.0000000E+00
Ar  4658  0.3330710E+02  0.1434821E+02  0.4871038E+02  0.0000000E+00
Ar  4659  0.3316136E+02  0.1141156E+02  0.5160137E+02  0.0000000E+00
Ar  4660  0.3024336E+02  0.1349663E+02  0.5186857E+02  0.0000000E+00
Ar  4661  0.3031998E+02  0.1117684E+02  0.5502432E+02  0.0000000E+00
Ar  4662  0.3318775E+02  0.1466131E+02  0.5487635E+02  0.0000000E+00
Ar  4663  0.3324885E+02  0.1166815E+02  0.5749703E+02  0.0000000E+00
Ar  4664  0.3097624E+02  0.1415952E+02  0.5725649E+02  0.0000000E+00
Ar  4665  0.3111640E+02  0.1133117E+02  0.6050638E+02  0.0000000E+00
Ar  4666  0.3326991E+02  0.1443410E+02  0.6001761E+02  0.0000000E+00
Ar  4667  0.3303864E+02  0.1165436E+02  0.6341712E+02  0.0000000E+00
Ar  4668  0.3126132E+02  0.1535995E+02  0.6360398E+02  0.0000000E+00
Ar  4669  0.3025068E+02  0.1176973E+02  0.6599780E+02  0.0000000E+00
Ar  4670  0.3312942E+02  0.1430163E+02  0.6645956E+02  0.0000000E+00
Ar  4671  0.3321274E+02  0.1137734E+02  0.6860276E+02  0.0000000E+00
Ar  4672  0.3039458E+02  0.1447913E+02  0.6872582E+02  0.0000000E+00
Ar  4673  0.3022137E+02  0.1199804E+02  0.7146467E+02  0.0000000E+00
Ar  4674  0.3310643E+02  0.1425867E+02  0.7195031E+02  0.0000000E+00
Ar  4675  0.3240156E+02  0.1127253E+02  0.7411488E+02  0.0000000E+00
Ar  4676  0.2997867E+02  0.1453616E+02  0.7453917E+02  0.0000000E+00
Ar  4677  0.3069750E+02  0.1195272E+02  0.7799065E+02  0.0000000E+00
Ar  4678  0.3374027E+02  0.1432419E+02  0.7690859E+02  0.0000000E+00
Ar  4679  0.3343191E+02  0.1226339E+02  0.7997105E+02  0.0000000E+00
Ar  4680  0.3111243E+02  0.1496770E+02  0.7975155E+02  0.0000000E+00
Ar  4681  0.3041440E+02  0.1758522E+02  0.8379396E+02  0.0000000E+00
Ar  4682  0.3317882E+02  0.2021162E+02  0.8266754E+02  0.0000000E+00
Ar  4683  0.3355607E+02  0.1784935E+02  0.1337800E+01  0.0000000E+00
Ar  4684  0.3057292E+02  0.2070895E+02  0.1104476E+01  0.0000000E+00
Ar  4685  0.3000362E+02  0.1818127E+02  0.4320162E+01  0.0000000E+00
Ar  4686  0.3291797E+02  0.2017996E+02  0.4215137E+01  0.0000000E+00
Ar  4687  0.3237480E+02  0.1749116E+02  0.6897881E+01  0.0000000E+00
Ar  4688  0.2975397E+02  0.2033295E+02  0.7376905E+01  0.0000000E+00
Ar  4689  0.2940041E+02  0.1736569E+02  0.9786119E+01  0.0000000E+00
Ar  4690  0.3323268E+02  0.2048714E+02  0.9277114E+01  0.0000000E+00
Ar  4691  0.3302429E+02  0.1750879E+02  0.1189058E+02  0.0000000E+00
Ar  4692  0.3014594E+02  0.1990375E+02  0.1288278E+02  0.0000000E+00
Ar  4693  0.3076929E+02  0.1707234E+02  0.1565446E+02  0.0000000E+00
Ar  4694  0.3304264E+02  0.1978353E+02  0.1506908E+02  0.0000000E+00
Ar  4695  0.3300490E+02  0.1758305E+02  0.1829078E+02  0.0000000E+00
Ar  4696  0.3054626E+02  0.1983805E+02  0.1788260E+02  0.0000000E+00
Ar  4697  0.3024603E+02  0.1714131E+02  0.2117414E+02  0.0000000E+00
Ar  4698  0.3262829E+02  0.2038270E+02  0.2147232E+02  0.0000000E+00
Ar  4699  0.3351417E+02  0.1777359E+02  0.2378212E+02  0.0000000E+00
Ar  4700  0.2990560E+02  0.2025959E+02  0.2396654E+02  0.0000000E+00
Ar  4701  0.3036227E+02  0.1766753E+02  0.2680211E+02  0.0000000E+00
Ar  4702  0.3364750E+02  0.2074596E+02  0.2595213E+02  0.0000000E+00
Ar  4703  0.3283503E+02  0.1777581E+02  0.2952023E+02  0.0000000E+00
Ar  4704  0.3047333E+02  0.2055788E+02  0.2860575E+02  0.0000000E+00
Ar  4705  0.3028800E+02  0.1752238E+02  0.3196895E+02  0.0000000E+00
Ar  4706  0.3360616E+02  0.2051856E+02  0.3122841E+02  0.0000000E+00
Ar  4707  0.3379443E+02  0.1735386E+02  0.3487638E+02  0.0000000E+00
Ar  4708  0.3105698E+02  0.1996226E+02  0.3462562E+02  0.0000000E+00
Ar  4709  0.3041764E+02  0.1767426E+02  0.3773273E+02  0.0000000E+00
Ar  4710  0.3386613E+02  0.2052287E+02  0.3782736E+02  0.0000000E+00
Ar  4711  0.3300410E+02  0.1753487E+02  0.4037369E+02  0.0000000E+00
Ar  4712  0.3065979E+02  0.2091143E+02  0.3989476E+02  0.0000000E+00
Ar  4713  0.3009093E+02  0.1837701E+02  0.4293806E+02  0.0000000E+00
Ar  4714  0.3331120E+02  0.2075918E+02  0.4362032E+02  0.0000000E+00
Ar  4715  0.3311393E+02  0.1814872E+02  0.4601618E+02  0.0000000E+00
Ar  4716  0.2988000E+02  0.2007003E+02  0.4604107E+02  0.0000000E+00
Ar  4717  0.3075623E+02  0.1773171E+02  0.4884470E+02  0.0000000E+00
Ar  4718  0.3359923E+02  0.2047750E+02  0.4908256E+02  0.0000000E+00
Ar  4719  0.3259532E+02  0.1730321E+02  0.5188981E+02  0.0000000E+00
Ar  4720  0.3069748E+02  0.2048849E+02  0.5213112E+02  0.0000000E+00
Ar  4721  0.3047344E+02  0.1757510E+02  0.5514269E+02  0.0000000E+00
Ar  4722  0.3322220E+02  0.2069256E+02  0.5472824E+02  0.0000000E+00
Ar  4723  0.3369558E+02  0.1767969E+02  0.5777623E+02  0.0000000E+00
Ar  4724  0.3016555E+02  0.2083633E+02  0.5747187E+02  0.0000000E+00
Ar  4725  0.3012014E+02  0.1793599E+02  0.6019304E+02  0.0000000E+00
Ar  4726  0.3352550E+02  0.2072928E+02  0.6027515E+02  0.0000000E+00
Ar  4727  0.3375102E+02  0.1800481E+02  0.6304049E+02  0.0000000E+00
Ar  4728  0.3037936E+02  0.2017855E+02  0.6319634E+02  0.0000000E+00
Ar  4729  0.3006104E+02  0.1761841E+02  0.6606601E+02  0.0000000E+00
Ar  4730  0.3330987E+02  0.2003608E+02  0.6581336E+02  0.0000000E+00
Ar  4731  0.3268561E+02  0.1755600E+02  0.6858813E+02  0.0000000E+00
Ar  4732  0.3059581E+02  0.2052936E+02  0.6820804E+02  0.0000000E+00
Ar  4733  0.3018408E+02  0.1756186E+02  0.7136684E+02  0.0000000E+00
Ar  4734  0.3308144E+02  0.2025112E+02  0.7151517E+02  0.0000000E+00
Ar  4735  0.3346720E+02  0.1776643E+02  0.7462402E+02  0.0000000E+00
Ar  4736  0.3038353E+02  0.1964436E+02  0.7412737E+02  0.0000000E+00
Ar  4737  0.3084210E+02  0.1734468E+02  0.7736148E+02  0.0000000E+00
Ar  4738  0.3376124E+02  0.2031778E+02  0.7709059E+02  0.0000000E+00
Ar  4739  0.3431181E+02  0.1730098E+02  0.8030177E+02  0.0000000E+00
Ar  4740  0.3038109E+02  0.1997385E+02  0.8027056E+02  0.0000000E+00
Ar  4741  0.3095880E+02  0.2308099E+02  0.8257401E+02  0.0000000E+00
Ar  4742  0.3397769E+02  0.2629525E+02  0.8352059E+02  0.0000000E+00
Ar  4743  0.3359595E+02  0.2308042E+02  0.1147090E+01  0.0000000E+00
Ar  4744  0.3128229E+02  0.2651484E+02  0.1403485E+01  0.0000000E+00
Ar  4745  0.3027668E+02  0.2291407E+02  0.4081748E+01  0.0000000E+00
Ar  4746  0.3389941E+02  0.2537952E+02  0.4174816E+01  0.0000000E+00
Ar  4747  0.3286461E+02  0.2262636E+02  0.6828412E+01  0.0000000E+00
Ar  4748  0.3105904E+02  0.2603911E+02  0.6160520E+01  0.0000000E+00
Ar  4749  0.2989823E+02  0.2310377E+02  0.9826927E+01  0.0000000E+00
Ar  4750  0.3357798E+02  0.2622190E+02  0.9343866E+01  0.0000000E+00
Ar  4751  0.3303676E+02  0.2285588E+02  0.1208598E+02  0.0000000E+00
Ar  4752  0.3030934E+02  0.2592296E+02  0.1279451E+02  0.0000000E+00
Ar  4753  0.3122695E+02  0.2272296E+02  0.1545096E+02  0.0000000E+00
Ar  4754  0.3371211E+02  0.2532062E+02  0.1555835E+02  0.0000000E+00
Ar  4755  0.3349580E+02  0.2228420E+02  0.1849122E+02  0.0000000E+00
Ar  4756  0.3083454E+02  0.2541091E+02  0.1867720E+02  0.0000000E+00
Ar  4757  0.3044073E+02  0.2289108E+02  0.2129762E+02  0.0000000E+00
Ar  4758  0.3373339E+02  0.2606696E+02  0.2080856E+02  0.0000000E+00
Ar  4759  0.3341212E+02  0.2343353E+02  0.2350165E+02  0.0000000E+00
Ar  4760  0.2998285E+02  0.2587701E+02  0.2368025E+02  0.0000000E+00
Ar  4761  0.3060416E+02  0.2336630E+02  0.2625744E+02  0.0000000E+00
Ar  4762  0.3305565E+02  0.2565004E+02  0.2640382E+02  0.0000000E+00
Ar  4763  0.3332908E+02  0.2329541E+02  0.2881348E+02  0.0000000E+00
Ar  4764  0.3061587E+02  0.2575301E+02  0.2929189E+02  0.0000000E+00
Ar  4765  0.3050471E+02  0.2343220E+02  0.3203506E+02  0.0000000E+00
Ar  4766  0.3287166E+02  0.2623608E+02  0.3208378E+02  0.0000000E+00
Ar  4767  0.3409065E+02  0.2321736E+02  0.3450960E+02  0.0000000E+00
Ar  4768  0.3075484E+02  0.2596048E+02  0.3492521E+02  0.0000000E+00
Ar  4769  0.3043995E+02  0.2247014E+02  0.3691209E+02  0.0000000E+00
Ar  4770  0.3278907E+02  0.2500705E+02  0.3753848E+02  0.0000000E+00
Ar  4771  0.3350164E+02  0.2329003E+02  0.4049126E+02  0.0000000E+00
Ar  4772  0.3054316E+02  0.2573209E+02  0.4044850E+02  0.0000000E+00
Ar  4773  0.3014271E+02  0.2284703E+02  0.4330040E+02  0.0000000E+00
Ar  4774  0.3366319E+02  0.2637552E+02  0.4267019E+02  0.0000000E+00
Ar  4775  0.3299438E+02  0.2340692E+02  0.4613626E+02  0.0000000E+00
Ar  4776  0.3033655E+02  0.2608915E+02  0.4645636E+02  0.0000000E+00
Ar  4777  0.3065236E+02  0.2291264E+02  0.4928841E+02  0.0000000E+00
Ar  4778  0.3321046E+02  0.2577687E+02  0.4953589E+02  0.0000000E+00
Ar  4779  0.3313441E+02  0.2295692E+02  0.5179756E+02  0.0000000E+00
Ar  4780  0.3002303E+02  0.2593217E+02  0.5083479E+02  0.0000000E+00
Ar  4781  0.3024911E+02  0.2442232E+02  0.5384784E+02  0.0000000E+00
Ar  4782  0.3355939E+02  0.2593598E+02  0.5437720E+02  0.0000000E+00
Ar  4783  0.3324233E+02  0.2393728E+02  0.5805469E+02  0.0000000E+00
Ar  4784  0.3036143E+02  0.2578255E+02  0.5732895E+02  0.0000000E+00
Ar  4785  0.3035921E+02  0.2312011E+02  0.6054458E+02  0.0000000E+00
Ar  4786  0.3290571E+02  0.2684669E+02  0.5997505E+02  0.0000000E+00
Ar  4787  0.3324441E+02  0.2308696E+02  0.6342624E+02  0.0000000E+00
Ar  4788  0.3072716E+02  0.2588173E+02  0.6311530E+02  0.0000000E+00
Ar  4789  0.3089345E+02  0.2319115E+02  0.6586414E+02  0.0000000E+00
Ar  4790  0.3338807E+02  0.2598418E+02  0.6623963E+02  0.0000000E+00
Ar  4791  0.3326261E+02  0.2303550E+02  0.6875588E+02  0.0000000E+00
Ar  4792  0.3107996E+02  0.2616293E+02  0.6871426E+02  0.0000000E+00
Ar  4793  0.3064734E+02  0.2344295E+02  0.7158801E+02  0.0000000E+00
Ar  4794  0.3370352E+02  0.2561366E+02  0.7131033E+02  0.0000000E+00
Ar  4795  0.3386027E+02  0.2346993E+02  0.7395202E+02  0.0000000E+00
Ar  4796  0.3113938E+02  0.2587433E+02  0.7425002E+02  0.0000000E+00
Ar  4797  0.3117980E+02  0.2316638E+02  0.7722378E+02  0.0000000E+00
Ar  4798  0.3420237E+02  0.2564168E+02  0.7700342E+02  0.0000000E+00
Ar  4799  0.3414083E+02  0.2327904E+02  0.7983419E+02  0.0000000E+00
Ar  4800  0.3153759E+02  0.2588277E+02  0.7996779E+02  0.0000000E+00
Ar  4801  0.3049131E+02  0.2837693E+02  0.8249530E+02  0.0000000E+00
Ar  4802  0.3363435E+02  0.3203145E+02  0.8267583E+02  0.0000000E+00
Ar  4803  0.3353999E+02  0.2912894E+02  0.9479506E+00  0.0000000E+00
Ar  4804  0.3060621E+02  0.3156312E+02  0.1365080E+01  0.0000000E+00
Ar  4805  0.3111457E+02  0.2930275E+02  0.4555492E+01  0.0000000E+00
Ar  4806  0.3372556E+02  0.3135880E+02  0.3875886E+01  0.0000000E+00
Ar  4807  0.3384559E+02  0.2925019E+02  0.6819307E+01  0.0000000E+00
Ar  4808  0.3084544E+02  0.3144317E+02  0.7832100E+01  0.0000000E+00
Ar  4809  0.2989152E+02  0.2896401E+02  0.1087226E+02  0.0000000E+00
Ar  4810  0.3388090E+02  0.3117593E+02  0.9997384E+01  0.0000000E+00
Ar  4811  0.3382956E+02  0.2789199E+02  0.1275803E+02  0.0000000E+00
Ar  4812  0.3053259E+02  0.3198150E+02  0.1300802E+02  0.0000000E+00
Ar  4813  0.3025622E+02  0.2801717E+02  0.1574639E+02  0.0000000E+00
Ar  4814  0.3267817E+02  0.3084430E+02  0.1580466E+02  0.0000000E+00
Ar  4815  0.3296516E+02  0.2820002E+02  0.1801357E+02  0.0000000E+00
Ar  4816  0.3050697E+02  0.3094408E+02  0.1877062E+02  0.0000000E+00
Ar  4817  0.3085510E+02  0.2831914E+02  0.2120942E+02  0.0000000E+00
Ar  4818  0.3297718E+02  0.3111140E+02  0.2143815E+02  0.0000000E+00
Ar  4819  0.3360784E+02  0.2814539E+02  0.2373051E+02  0.0000000E+00
Ar  4820  0.3015267E+02  0.3094293E+02  0.2350218E+02  0.0000000E+00
Ar  4821  0.3030526E+02  0.2814151E+02  0.2690512E+02  0.0000000E+00
Ar  4822  0.3370823E+02  0.3041855E+02  0.2626851E+02  0.0000000E+00
Ar  4823  0.3319281E+02  0.2789474E+02  0.2886100E+02  0.0000000E+00
Ar  4824  0.3077340E+02  0.3063437E+02  0.2937248E+02  0.0000000E+00
Ar  4825  0.3049924E+02  0.2888127E+02  0.3227164E+02  0.0000000E+00
Ar  4826  0.3389726E+02  0.3100605E+02  0.3161493E+02  0.0000000E+00
Ar  4827  0.3407150E+02  0.2837377E+02  0.3494864E+02  0.0000000E+00
Ar  4828  0.3100318E+02  0.3079020E+02  0.3542205E+02  0.0000000E+00
Ar  4829  0.3035225E+02  0.2824829E+02  0.3789112E+02  0.0000000E+00
Ar  4830  0.3342652E+02  0.3142677E+02  0.3786309E+02  0.0000000E+00
Ar  4831  0.3332541E+02  0.2840387E+02  0.4019687E+02  0.0000000E+00
Ar  4832  0.3065035E+02  0.3094997E+02  0.4030672E+02  0.0000000E+00
Ar  4833  0.3047930E+02  0.2869093E+02  0.4299565E+02  0.0000000E+00
Ar  4834  0.3328593E+02  0.3128493E+02  0.4309643E+02  0.0000000E+00
Ar  4835  0.3330412E+02  0.2866183E+02  0.4594890E+02  0.0000000E+00
Ar  4836  0.3038189E+02  0.3117200E+02  0.4549686E+02  0.0000000E+00
Ar  4837  0.3019389E+02  0.2934853E+02  0.4847159E+02  0.0000000E+00
Ar  4838  0.3346702E+02  0.3144221E+02  0.4896875E+02  0.0000000E+00
Ar  4839  0.3275865E+02  0.2887745E+02  0.5164866E+02  0.0000000E+00
Ar  4840  0.2986585E+02  0.3105103E+02  0.5174365E+02  0.0000000E+00
Ar  4841  0.3064083E+02  0.2800826E+02  0.5431805E+02  0.0000000E+00
Ar  4842  0.3330133E+02  0.3107286E+02  0.5432138E+02  0.0000000E+00
Ar  4843  0.3322320E+02  0.2834229E+02  0.5707450E+02  0.0000000E+00
Ar  4844  0.3095503E+02  0.3134544E+02  0.5728826E+02  0.0000000E+00
Ar  4845  0.3030514E+02  0.2916706E+02  0.5989263E+02  0.0000000E+00
Ar  4846  0.3320655E+02  0.3065016E+02  0.6051944E+02  0.0000000E+00
Ar  4847  0.3354862E+02  0.2853264E+02  0.6327035E+02  0.0000000E+00
Ar  4848  0.3103265E+02  0.3128916E+02  0.6334501E+02  0.0000000E+00
Ar  4849  0.3082509E+02  0.2840040E+02  0.6598573E+02  0.0000000E+00
Ar  4850  0.3317541E+02  0.3122370E+02  0.6594787E+02  0.0000000E+00
Ar  4851  0.3354469E+02  0.2927319E+02  0.6914500E+02  0.0000000E+00
Ar  4852  0.3048762E+02  0.3129823E+02  0.6865835E+02  0.0000000E+00
Ar  4853  0.3107939E+02  0.2834802E+02  0.7187317E+02  0.0000000E+00
Ar  4854  0.3369091E+02  0.3135058E+02  0.7224448E+02  0.0000000E+00
Ar  4855  0.3387477E+02  0.2857439E+02  0.7417519E+02  0.0000000E+00
Ar  4856  0.3104695E+02  0.3135083E+02  0.7454193E+02  0.0000000E+00
Ar  4857  0.3151345E+02  0.2829604E+02  0.7728325E+02  0.0000000E+00
Ar  4858  0.3423839E+02  0.3167021E+02  0.7727184E+02  0.0000000E+00
Ar  4859  0.3388760E+02  0.2887508E+02  0.8102888E+02  0.0000000E+00
Ar  4860  0.3112040E+02  0.3112255E+02  0.8029439E+02  0.0000000E+00
Ar  4861  0.3062224E+02  0.3438993E+02  0.8292908E+02  0.0000000E+00
Ar  4862  0.3366914E+02  0.3655808E+02  0.8227739E+02  0.0000000E+00
Ar  4863  0.3351566E+02  0.3401933E+02  0.1343461E+01  0.0000000E+00
Ar  4864  0.3078207E+02  0.3650717E+02  0.1997344E+01  0.0000000E+00
Ar  4865  0.3077201E+02  0.3340879E+02  0.4736877E+01  0.0000000E+00
Ar  4866  0.3316399E+02  0.3614477E+02  0.4325238E+01  0.0000000E+00
Ar  4867  0.3371564E+02  0.3425921E+02  0.7770509E+01  0.0000000E+00
Ar  4868  0.3077239E+02  0.3659261E+02  0.6995486E+01  0.0000000E+00
Ar  4869  0.3119765E+02  0.3434947E+02  0.1013555E+02  0.0000000E+00
Ar  4870  0.3363520E+02  0.3701849E+02  0.1013139E+02  0.0000000E+00
Ar  4871  0.3312681E+02  0.3418001E+02  0.1342785E+02  0.0000000E+00
Ar  4872  0.3036733E+02  0.3645756E+02  0.1279185E+02  0.0000000E+00
Ar  4873  0.3042689E+02  0.3396043E+02  0.1596287E+02  0.0000000E+00
Ar  4874  0.3359998E+02  0.3712565E+02  0.1590032E+02  0.0000000E+00
Ar  4875  0.3309051E+02  0.3347397E+02  0.1852790E+02  0.0000000E+00
Ar  4876  0.3072939E+02  0.3714352E+02  0.1867042E+02  0.0000000E+00
Ar  4877  0.3013461E+02  0.3375702E+02  0.2142746E+02  0.0000000E+00
Ar  4878  0.3362762E+02  0.3634583E+02  0.2124810E+02  0.0000000E+00
Ar  4879  0.3339045E+02  0.3365697E+02  0.2373942E+02  0.0000000E+00
Ar  4880  0.3071762E+02  0.3676950E+02  0.2318418E+02  0.0000000E+00
Ar  4881  0.3076476E+02  0.3442974E+02  0.2627871E+02  0.0000000E+00
Ar  4882  0.3367439E+02  0.3679073E+02  0.2676331E+02  0.0000000E+00
Ar  4883  0.3366710E+02  0.3360104E+02  0.2867989E+02  0.0000000E+00
Ar  4884  0.3115731E+02  0.3677445E+02  0.2946632E+02  0.0000000E+00
Ar  4885  0.3066093E+02  0.3279349E+02  0.3229555E+02  0.0000000E+00
Ar  4886  0.3392592E+02  0.3653096E+02  0.3214690E+02  0.0000000E+00
Ar  4887  0.3382822E+02  0.3339115E+02  0.3476759E+02  0.0000000E+00
Ar  4888  0.3057489E+02  0.3652173E+02  0.3445448E+02  0.0000000E+00
Ar  4889  0.3100394E+02  0.3369370E+02  0.3789804E+02  0.0000000E+00
Ar  4890  0.3344874E+02  0.3647211E+02  0.3706962E+02  0.0000000E+00
Ar  4891  0.3356163E+02  0.3416923E+02  0.4024648E+02  0.0000000E+00
Ar  4892  0.3081258E+02  0.3669348E+02  0.4039797E+02  0.0000000E+00
Ar  4893  0.3108559E+02  0.3413334E+02  0.4310355E+02  0.0000000E+00
Ar  4894  0.3383542E+02  0.3672231E+02  0.4291771E+02  0.0000000E+00
Ar  4895  0.3312923E+02  0.3385075E+02  0.4610811E+02  0.0000000E+00
Ar  4896  0.3080791E+02  0.3683825E+02  0.4599946E+02  0.0000000E+00
Ar  4897  0.3039656E+02  0.3317297E+02  0.4839266E+02  0.0000000E+00
Ar  4898  0.3352203E+02  0.3684390E+02  0.4893414E+02  0.0000000E+00
Ar  4899  0.3310756E+02  0.3375386E+02  0.5158344E+02  0.0000000E+00
Ar  4900  0.3051326E+02  0.3638978E+02  0.5113066E+02  0.0000000E+00
Ar  4901  0.3067493E+02  0.3442319E+02  0.5461192E+02  0.0000000E+00
Ar  4902  0.3336283E+02  0.3670081E+02  0.5438932E+02  0.0000000E+00
Ar  4903  0.3329916E+02  0.3409936E+02  0.5720556E+02  0.0000000E+00
Ar  4904  0.3114395E+02  0.3679415E+02  0.5786685E+02  0.0000000E+00
Ar  4905  0.3130968E+02  0.3450303E+02  0.6102256E+02  0.0000000E+00
Ar  4906  0.3367753E+02  0.3741224E+02  0.6065928E+02  0.0000000E+00
Ar  4907  0.3352167E+02  0.3431532E+02  0.6386072E+02  0.0000000E+00
Ar  4908  0.3148582E+02  0.3715524E+02  0.6340293E+02  0.0000000E+00
Ar  4909  0.3035198E+02  0.3378370E+02  0.6627743E+02  0.0000000E+00
Ar  4910  0.3323052E+02  0.3634260E+02  0.6655972E+02  0.0000000E+00
Ar  4911  0.3369014E+02  0.3437329E+02  0.6974966E+02  0.0000000E+00
Ar  4912  0.3141020E+02  0.3723128E+02  0.6949608E+02  0.0000000E+00
Ar  4913  0.3072530E+02  0.3366281E+02  0.7176475E+02  0.0000000E+00
Ar  4914  0.3413506E+02  0.3811560E+02  0.7166534E+02  0.0000000E+00
Ar  4915  0.3389628E+02  0.3435535E+02  0.7421342E+02  0.0000000E+00
Ar  4916  0.3072624E+02  0.3677872E+02  0.7358904E+02  0.0000000E+00
Ar  4917  0.3087290E+02  0.3402681E+02  0.7671442E+02  0.0000000E+00
Ar  4918  0.3389559E+02  0.3665525E+02  0.7685146E+02  0.0000000E+00
Ar  4919  0.3401456E+02  0.3399549E+02  0.7984524E+02  0.0000000E+00
Ar  4920  0.3105552E+02  0.3689391E+02  0.7985914E+02  0.0000000E+00
Ar  4921  0.3158609E+02  0.3956519E+02  0.8268968E+02  0.0000000E+00
Ar  4922  0.3381722E+02  0.4304756E+02  0.8276497E+02  0.0000000E+00
Ar  4923  0.3430237E+02  0.3910345E+02  0.1686078E+01  0.0000000E+00
Ar  4924  0.3153081E+02  0.4240364E+02  0.1435622E+01  0.0000000E+00
Ar  4925  0.3097076E+02  0.3954247E+02  0.3834858E+01  0.0000000E+00
Ar  4926  0.3362645E+02  0.4188533E+02  0.4532937E+01  0.0000000E+00
Ar  4927  0.3359167E+02  0.3885164E+02  0.7000305E+01  0.0000000E+00
Ar  4928  0.3053832E+02  0.4235886E+02  0.6849344E+01  0.0000000E+00
Ar  4929  0.3106792E+02  0.4002032E+02  0.9650338E+01  0.0000000E+00
Ar  4930  0.3373400E+02  0.4214821E+02  0.9761718E+01  0.0000000E+00
Ar  4931  0.3343918E+02  0.3979775E+02  0.1274464E+02  0.0000000E+00
Ar  4932  0.3042676E+02  0.4229185E+02  0.1287204E+02  0.0000000E+00
Ar  4933  0.3105176E+02  0.3961487E+02  0.1565372E+02  0.0000000E+00
Ar  4934  0.3345013E+02  0.4241874E+02  0.1564463E+02  0.0000000E+00
Ar  4935  0.3334461E+02  0.3974343E+02  0.1840321E+02  0.0000000E+00
Ar  4936  0.3051772E+02  0.4224999E+02  0.1849335E+02  0.0000000E+00
Ar  4937  0.3022041E+02  0.3975788E+02  0.2113938E+02  0.0000000E+00
Ar  4938  0.3324382E+02  0.4266883E+02  0.2060745E+02  0.0000000E+00
Ar  4939  0.3406159E+02  0.3958390E+02  0.2359595E+02  0.0000000E+00
Ar  4940  0.3063381E+02  0.4223177E+02  0.2392553E+02  0.0000000E+00
Ar  4941  0.3086795E+02  0.3906289E+02  0.2677862E+02  0.0000000E+00
Ar  4942  0.3365123E+02  0.4193668E+02  0.2669608E+02  0.0000000E+00
Ar  4943  0.3391186E+02  0.3944404E+02  0.2931230E+02  0.0000000E+00
Ar  4944  0.3090713E+02  0.4288166E+02  0.2950984E+02  0.0000000E+00
Ar  4945  0.3024786E+02  0.3945279E+02  0.3213752E+02  0.0000000E+00
Ar  4946  0.3352074E+02  0.4296532E+02  0.3209073E+02  0.0000000E+00
Ar  4947  0.3308568E+02  0.3953088E+02  0.3442812E+02  0.0000000E+00
Ar  4948  0.3052929E+02  0.4245278E+02  0.3437749E+02  0.0000000E+00
Ar  4949  0.3123706E+02  0.3913514E+02  0.3762522E+02  0.0000000E+00
Ar  4950  0.3299274E+02  0.4285878E+02  0.3751529E+02  0.0000000E+00
Ar  4951  0.3355341E+02  0.3944783E+02  0.4040921E+02  0.0000000E+00
Ar  4952  0.3080855E+02  0.4213681E+02  0.4083642E+02  0.0000000E+00
Ar  4953  0.3068155E+02  0.3892873E+02  0.4319930E+02  0.0000000E+00
Ar  4954  0.3365808E+02  0.4179262E+02  0.4276462E+02  0.0000000E+00
Ar  4955  0.3375536E+02  0.3931643E+02  0.4565832E+02  0.0000000E+00
Ar  4956  0.3086203E+02  0.4221415E+02  0.4609882E+02  0.0000000E+00
Ar  4957  0.3114588E+02  0.3916127E+02  0.4901178E+02  0.0000000E+00
Ar  4958  0.3347276E+02  0.4227714E+02  0.4866921E+02  0.0000000E+00
Ar  4959  0.3403287E+02  0.3975959E+02  0.5138750E+02  0.0000000E+00
Ar  4960  0.3091035E+02  0.4204504E+02  0.5177174E+02  0.0000000E+00
Ar  4961  0.3050218E+02  0.3992391E+02  0.5449910E+02  0.0000000E+00
Ar  4962  0.3336442E+02  0.4229681E+02  0.5495913E+02  0.0000000E+00
Ar  4963  0.3335387E+02  0.4012227E+02  0.5788357E+02  0.0000000E+00
Ar  4964  0.3104098E+02  0.4317882E+02  0.5743075E+02  0.0000000E+00
Ar  4965  0.3119479E+02  0.4023396E+02  0.6115823E+02  0.0000000E+00
Ar  4966  0.3332884E+02  0.4315790E+02  0.6027638E+02  0.0000000E+00
Ar  4967  0.3414421E+02  0.4040593E+02  0.6336779E+02  0.0000000E+00
Ar  4968  0.3086933E+02  0.4344957E+02  0.6337937E+02  0.0000000E+00
Ar  4969  0.3162537E+02  0.4026690E+02  0.6581719E+02  0.0000000E+00
Ar  4970  0.3362523E+02  0.4361876E+02  0.6634510E+02  0.0000000E+00
Ar  4971  0.3377416E+02  0.4013070E+02  0.6853255E+02  0.0000000E+00
Ar  4972  0.3157746E+02  0.4303073E+02  0.6928798E+02  0.0000000E+00
Ar  4973  0.3118176E+02  0.4044314E+02  0.7246256E+02  0.0000000E+00
Ar  4974  0.3390714E+02  0.4400428E+02  0.7219958E+02  0.0000000E+00
Ar  4975  0.3411388E+02  0.4040042E+02  0.7484473E+02  0.0000000E+00
Ar  4976  0.3131200E+02  0.4308359E+02  0.7522994E+02  0.0000000E+00
Ar  4977  0.3074034E+02  0.3984354E+02  0.7732149E+02  0.0000000E+00
Ar  4978  0.3377817E+02  0.4306466E+02  0.7788444E+02  0.0000000E+00
Ar  4979  0.3378726E+02  0.4009891E+02  0.7952166E+02  0.0000000E+00
Ar  4980  0.3120718E+02  0.4268738E+02  0.8044191E+02  0.0000000E+00
Ar  4981  0.3119810E+02  0.4571269E+02  0.8312563E+02  0.0000000E+00
Ar  4982  0.3354520E+02  0.4841713E+02  0.8301043E+02  0.0000000E+00
Ar  4983  0.3385932E+02  0.4574420E+02  0.1301956E+01  0.0000000E+00
Ar  4984  0.3105676E+02  0.4898501E+02  0.1368979E+01  0.0000000E+00
Ar  4985  0.3123070E+02  0.4527356E+02  0.4604300E+01  0.0000000E+00
Ar  4986  0.3379754E+02  0.4822501E+02  0.4460588E+01  0.0000000E+00
Ar  4987  0.3382387E+02  0.4475390E+02  0.6867830E+01  0.0000000E+00
Ar  4988  0.3109775E+02  0.4799759E+02  0.6874465E+01  0.0000000E+00
Ar  4989  0.3070279E+02  0.4454279E+02  0.9662155E+01  0.0000000E+00
Ar  4990  0.3345202E+02  0.4768645E+02  0.9573672E+01  0.0000000E+00
Ar  4991  0.3374950E+02  0.4473187E+02  0.1211184E+02  0.0000000E+00
Ar  4992  0.3049865E+02  0.4799358E+02  0.1272995E+02  0.0000000E+00
Ar  4993  0.3082986E+02  0.4472063E+02  0.1518535E+02  0.0000000E+00
Ar  4994  0.3320684E+02  0.4769696E+02  0.1589026E+02  0.0000000E+00
Ar  4995  0.3310280E+02  0.4530068E+02  0.1853474E+02  0.0000000E+00
Ar  4996  0.3084238E+02  0.4864811E+02  0.1819554E+02  0.0000000E+00
Ar  4997  0.3061927E+02  0.4533106E+02  0.2120263E+02  0.0000000E+00
Ar  4998  0.3325018E+02  0.4816384E+02  0.2147674E+02  0.0000000E+00
Ar  4999  0.3376509E+02  0.4540049E+02  0.2361206E+02  0.0000000E+00
Ar  5000  0.3084022E+02  0.4804008E+02  0.2444449E+02  0.0000000E+00
Ar  5001  0.3080005E+02  0.4506239E+02  0.2686749E+02  0.0000000E+00
Ar  5002  0.3362824E+02  0.4760825E+02  0.2701504E+02  0.0000000E+00
Ar  5003  0.3362712E+02  0.4518984E+02  0.2938329E+02  0.0000000E+00
Ar  5004  0.3061705E+02  0.4794589E+02  0.2942114E+02  0.0000000E+00
Ar  5005  0.3049479E+02  0.4550628E+02  0.3237361E+02  0.0000000E+00
Ar  5006  0.3330105E+02  0.4780805E+02  0.3193650E+02  0.0000000E+00
Ar  5007  0.3307427E+02  0.4562136E+02  0.3473277E+02  0.0000000E+00
Ar  5008  0.3067289E+02  0.4806154E+02  0.3499134E+02  0.0000000E+00
Ar  5009  0.3064430E+02  0.4553540E+02  0.3792634E+02  0.0000000E+00
Ar  5010  0.3331877E+02  0.4794578E+02  0.3750362E+02  0.0000000E+00
Ar  5011  0.3356925E+02  0.4526183E+02  0.4056299E+02  0.0000000E+00
Ar  5012  0.3081812E+02  0.4806416E+02  0.4060456E+02  0.0000000E+00
Ar  5013  0.3085611E+02  0.4518522E+02  0.4322467E+02  0.0000000E+00
Ar  5014  0.3349512E+02  0.4787992E+02  0.4353650E+02  0.0000000E+00
Ar  5015  0.3281804E+02  0.4566079E+02  0.4625023E+02  0.0000000E+00
Ar  5016  0.3078701E+02  0.4851871E+02  0.4645106E+02  0.0000000E+00
Ar  5017  0.3086895E+02  0.4494851E+02  0.4951978E+02  0.0000000E+00
Ar  5018  0.3339616E+02  0.4795574E+02  0.4872435E+02  0.0000000E+00
Ar  5019  0.3391949E+02  0.4588025E+02  0.5206648E+02  0.0000000E+00
Ar  5020  0.3119228E+02  0.4857766E+02  0.5209454E+02  0.0000000E+00
Ar  5021  0.3156788E+02  0.4556137E+02  0.5520170E+02  0.0000000E+00
Ar  5022  0.3342545E+02  0.4884149E+02  0.5517267E+02  0.0000000E+00
Ar  5023  0.3380792E+02  0.4585633E+02  0.5824091E+02  0.0000000E+00
Ar  5024  0.3022973E+02  0.4787129E+02  0.5835169E+02  0.0000000E+00
Ar  5025  0.3143713E+02  0.4606591E+02  0.6109317E+02  0.0000000E+00
Ar  5026  0.3338872E+02  0.4899454E+02  0.6125411E+02  0.0000000E+00
Ar  5027  0.3389746E+02  0.4641156E+02  0.6399322E+02  0.0000000E+00
Ar  5028  0.3084672E+02  0.4894878E+02  0.6350162E+02  0.0000000E+00
Ar  5029  0.3091618E+02  0.4593612E+02  0.6659631E+02  0.0000000E+00
Ar  5030  0.3301123E+02  0.4905008E+02  0.6619724E+02  0.0000000E+00
Ar  5031  0.3377155E+02  0.4655590E+02  0.6884841E+02  0.0000000E+00
Ar  5032  0.3098912E+02  0.4892803E+02  0.6903389E+02  0.0000000E+00
Ar  5033  0.3090256E+02  0.4610728E+02  0.7136761E+02  0.0000000E+00
Ar  5034  0.3384843E+02  0.4853355E+02  0.7235166E+02  0.0000000E+00
Ar  5035  0.3369949E+02  0.4602975E+02  0.7552963E+02  0.0000000E+00
Ar  5036  0.3062652E+02  0.4918468E+02  0.7501831E+02  0.0000000E+00
Ar  5037  0.3086523E+02  0.4569892E+02  0.7784494E+02  0.0000000E+00
Ar  5038  0.3360093E+02  0.4882639E+02  0.7801609E+02  0.0000000E+00
Ar  5039  0.3351894E+02  0.4617649E+02  0.8011581E+02  0.0000000E+00
Ar  5040  0.3032412E+02  0.4931879E+02  0.8051042E+02  0.0000000E+00
Ar  5041  0.3124597E+02  0.5145069E+02  0.8299659E+02  0.0000000E+00
Ar  5042  0.3352351E+02  0.5426988E+02  0.8315342E+02  0.0000000E+00
Ar  5043  0.3404120E+02  0.5059368E+02  0.1863224E+01  0.0000000E+00
Ar  5044  0.3124076E+02  0.5346404E+02  0.2244481E+01  0.0000000E+00
Ar  5045  0.3091391E+02  0.5099988E+02  0.4641596E+01  0.0000000E+00
Ar  5046  0.3371521E+02  0.5354530E+02  0.4550543E+01  0.0000000E+00
Ar  5047  0.3338018E+02  0.5057177E+02  0.7584399E+01  0.0000000E+00
Ar  5048  0.3117159E+02  0.5364890E+02  0.8033655E+01  0.0000000E+00
Ar  5049  0.3111259E+02  0.5076879E+02  0.1031683E+02  0.0000000E+00
Ar  5050  0.3422188E+02  0.5478182E+02  0.9767085E+01  0.0000000E+00
Ar  5051  0.3364891E+02  0.5144566E+02  0.1298477E+02  0.0000000E+00
Ar  5052  0.3081576E+02  0.5353410E+02  0.1283346E+02  0.0000000E+00
Ar  5053  0.3105437E+02  0.5073117E+02  0.1543160E+02  0.0000000E+00
Ar  5054  0.3386595E+02  0.5422404E+02  0.1516589E+02  0.0000000E+00
Ar  5055  0.3396258E+02  0.5152990E+02  0.1745502E+02  0.0000000E+00
Ar  5056  0.3098566E+02  0.5353132E+02  0.1832245E+02  0.0000000E+00
Ar  5057  0.3150030E+02  0.5133087E+02  0.2130290E+02  0.0000000E+00
Ar  5058  0.3370649E+02  0.5427212E+02  0.2139367E+02  0.0000000E+00
Ar  5059  0.3339170E+02  0.5144505E+02  0.2393615E+02  0.0000000E+00
Ar  5060  0.3101348E+02  0.5410723E+02  0.2352009E+02  0.0000000E+00
Ar  5061  0.3075781E+02  0.5093414E+02  0.2641577E+02  0.0000000E+00
Ar  5062  0.3377996E+02  0.5424980E+02  0.2649082E+02  0.0000000E+00
Ar  5063  0.3374864E+02  0.5111369E+02  0.2905734E+02  0.0000000E+00
Ar  5064  0.3078539E+02  0.5344931E+02  0.2897650E+02  0.0000000E+00
Ar  5065  0.3089507E+02  0.5069474E+02  0.3199568E+02  0.0000000E+00
Ar  5066  0.3271638E+02  0.5354713E+02  0.3201437E+02  0.0000000E+00
Ar  5067  0.3285400E+02  0.5153003E+02  0.3501507E+02  0.0000000E+00
Ar  5068  0.2968295E+02  0.5365027E+02  0.3515151E+02  0.0000000E+00
Ar  5069  0.3048286E+02  0.5065217E+02  0.3770793E+02  0.0000000E+00
Ar  5070  0.3344931E+02  0.5346772E+02  0.3799922E+02  0.0000000E+00
Ar  5071  0.3385026E+02  0.5065243E+02  0.4045250E+02  0.0000000E+00
Ar  5072  0.3059433E+02  0.5278501E+02  0.4105712E+02  0.0000000E+00
Ar  5073  0.3022406E+02  0.5087296E+02  0.4393134E+02  0.0000000E+00
Ar  5074  0.3357433E+02  0.5388772E+02  0.4319247E+02  0.0000000E+00
Ar  5075  0.3330135E+02  0.5086567E+02  0.4616572E+02  0.0000000E+00
Ar  5076  0.3131642E+02  0.5362798E+02  0.4584484E+02  0.0000000E+00
Ar  5077  0.3039345E+02  0.5122390E+02  0.4892611E+02  0.0000000E+00
Ar  5078  0.3352128E+02  0.5389307E+02  0.4874166E+02  0.0000000E+00
Ar  5079  0.3349450E+02  0.5103729E+02  0.5158748E+02  0.0000000E+00
Ar  5080  0.3108058E+02  0.5351357E+02  0.5180162E+02  0.0000000E+00
Ar  5081  0.3109083E+02  0.5120496E+02  0.5475331E+02  0.0000000E+00
Ar  5082  0.3356546E+02  0.5375704E+02  0.5483182E+02  0.0000000E+00
Ar  5083  0.3326631E+02  0.5157396E+02  0.5767388E+02  0.0000000E+00
Ar  5084  0.3111449E+02  0.5407341E+02  0.5725844E+02  0.0000000E+00
Ar  5085  0.3095340E+02  0.5159464E+02  0.6009754E+02  0.0000000E+00
Ar  5086  0.3370709E+02  0.5384847E+02  0.6051273E+02  0.0000000E+00
Ar  5087  0.3353999E+02  0.5153410E+02  0.6365018E+02  0.0000000E+00
Ar  5088  0.3095871E+02  0.5417475E+02  0.6310505E+02  0.0000000E+00
Ar  5089  0.3032656E+02  0.5145714E+02  0.6592403E+02  0.0000000E+00
Ar  5090  0.3350758E+02  0.5373437E+02  0.6627350E+02  0.0000000E+00
Ar  5091  0.3368868E+02  0.5122023E+02  0.6932446E+02  0.0000000E+00
Ar  5092  0.3068994E+02  0.5364998E+02  0.6867783E+02  0.0000000E+00
Ar  5093  0.3059819E+02  0.5148033E+02  0.7210159E+02  0.0000000E+00
Ar  5094  0.3368071E+02  0.5442137E+02  0.7208315E+02  0.0000000E+00
Ar  5095  0.3379253E+02  0.5148236E+02  0.7476348E+02  0.0000000E+00
Ar  5096  0.3065485E+02  0.5415463E+02  0.7491534E+02  0.0000000E+00
Ar  5097  0.3078061E+02  0.5165664E+02  0.7773467E+02  0.0000000E+00
Ar  5098  0.3348668E+02  0.5426349E+02  0.7727189E+02  0.0000000E+00
Ar  5099  0.3380439E+02  0.5180852E+02  0.8009628E+02  0.0000000E+00
Ar  5100  0.3071097E+02  0.5418737E+02  0.8094083E+02  0.0000000E+00
Ar  5101  0.3041686E+02  0.5737312E+02  0.8270968E+02  0.0000000E+00
Ar  5102  0.3413698E+02  0.5925040E+02  0.8277014E+02  0.0000000E+00
Ar  5103  0.3386344E+02  0.5664261E+02  0.2536464E+01  0.0000000E+00
Ar  5104  0.3205438E+02  0.5960326E+02  0.1754535E+01  0.0000000E+00
Ar  5105  0.3112030E+02  0.5751785E+02  0.4252976E+01  0.0000000E+00
Ar  5106  0.3458447E+02  0.5955515E+02  0.3989413E+01  0.0000000E+00
Ar  5107  0.3408040E+02  0.5667300E+02  0.6840587E+01  0.0000000E+00
Ar  5108  0.3054446E+02  0.5986330E+02  0.6612558E+01  0.0000000E+00
Ar  5109  0.3115649E+02  0.5734360E+02  0.9378566E+01  0.0000000E+00
Ar  5110  0.3393321E+02  0.5975506E+02  0.8539318E+01  0.0000000E+00
Ar  5111  0.3406371E+02  0.5722565E+02  0.1278728E+02  0.0000000E+00
Ar  5112  0.3083707E+02  0.5853159E+02  0.1310502E+02  0.0000000E+00
Ar  5113  0.3097193E+02  0.5602945E+02  0.1569995E+02  0.0000000E+00
Ar  5114  0.3369617E+02  0.5900074E+02  0.1573744E+02  0.0000000E+00
Ar  5115  0.3390702E+02  0.5609149E+02  0.1847457E+02  0.0000000E+00
Ar  5116  0.3126387E+02  0.5876880E+02  0.1878362E+02  0.0000000E+00
Ar  5117  0.3046298E+02  0.5673006E+02  0.2159966E+02  0.0000000E+00
Ar  5118  0.3323875E+02  0.5936013E+02  0.2172231E+02  0.0000000E+00
Ar  5119  0.3348261E+02  0.5657434E+02  0.2398697E+02  0.0000000E+00
Ar  5120  0.3041674E+02  0.5966282E+02  0.2371844E+02  0.0000000E+00
Ar  5121  0.3099225E+02  0.5644232E+02  0.2659731E+02  0.0000000E+00
Ar  5122  0.3352846E+02  0.5962657E+02  0.2629871E+02  0.0000000E+00
Ar  5123  0.3269781E+02  0.5644951E+02  0.2976818E+02  0.0000000E+00
Ar  5124  0.3026892E+02  0.5905215E+02  0.2908730E+02  0.0000000E+00
Ar  5125  0.3049090E+02  0.5656999E+02  0.3292019E+02  0.0000000E+00
Ar  5126  0.3343064E+02  0.5870129E+02  0.3230808E+02  0.0000000E+00
Ar  5127  0.3349085E+02  0.5581041E+02  0.3552925E+02  0.0000000E+00
Ar  5128  0.3001929E+02  0.5911659E+02  0.3506430E+02  0.0000000E+00
Ar  5129  0.3028801E+02  0.5608334E+02  0.3793421E+02  0.0000000E+00
Ar  5130  0.3246212E+02  0.5950077E+02  0.3782926E+02  0.0000000E+00
Ar  5131  0.3345833E+02  0.5674039E+02  0.4034311E+02  0.0000000E+00
Ar  5132  0.3012931E+02  0.5946231E+02  0.4077862E+02  0.0000000E+00
Ar  5133  0.3086287E+02  0.5664562E+02  0.4363483E+02  0.0000000E+00
Ar  5134  0.3333427E+02  0.5906049E+02  0.4341469E+02  0.0000000E+00
Ar  5135  0.3368575E+02  0.5667245E+02  0.4604095E+02  0.0000000E+00
Ar  5136  0.3114347E+02  0.5912314E+02  0.4697180E+02  0.0000000E+00
Ar  5137  0.3119273E+02  0.5640446E+02  0.4936944E+02  0.0000000E+00
Ar  5138  0.3361591E+02  0.5991011E+02  0.4915276E+02  0.0000000E+00
Ar  5139  0.3421768E+02  0.5624482E+02  0.5208063E+02  0.0000000E+00
Ar  5140  0.3111401E+02  0.5947612E+02  0.5180294E+02  0.0000000E+00
Ar  5141  0.3156171E+02  0.5690804E+02  0.5445652E+02  0.0000000E+00
Ar  5142  0.3283851E+02  0.6056265E+02  0.5486058E+02  0.0000000E+00
Ar  5143  0.3336560E+02  0.5672762E+02  0.5740978E+02  0.0000000E+00
Ar  5144  0.3130008E+02  0.5990666E+02  0.5785197E+02  0.0000000E+00
Ar  5145  0.3118334E+02  0.5656759E+02  0.6047354E+02  0.0000000E+00
Ar  5146  0.3369338E+02  0.5994937E+02  0.6054232E+02  0.0000000E+00
Ar  5147  0.3355116E+02  0.5700712E+02  0.6326572E+02  0.0000000E+00
Ar  5148  0.3078487E+02  0.5966636E+02  0.6265804E+02  0.0000000E+00
Ar  5149  0.3109641E+02  0.5661493E+02  0.6668352E+02  0.0000000E+00
Ar  5150  0.3441824E+02  0.5953450E+02  0.6631234E+02  0.0000000E+00
Ar  5151  0.3426993E+02  0.5684383E+02  0.6867584E+02  0.0000000E+00
Ar  5152  0.3073628E+02  0.5956354E+02  0.6870355E+02  0.0000000E+00
Ar  5153  0.3061467E+02  0.5713146E+02  0.7160623E+02  0.0000000E+00
Ar  5154  0.3388567E+02  0.5931205E+02  0.7150229E+02  0.0000000E+00
Ar  5155  0.3338985E+02  0.5675370E+02  0.7453179E+02  0.0000000E+00
Ar  5156  0.3062289E+02  0.5928825E+02  0.7435756E+02  0.0000000E+00
Ar  5157  0.3060677E+02  0.5687698E+02  0.7779865E+02  0.0000000E+00
Ar  5158  0.3351132E+02  0.5954486E+02  0.7700029E+02  0.0000000E+00
Ar  5159  0.3432813E+02  0.5670500E+02  0.8029782E+02  0.0000000E+00
Ar  5160  0.3122658E+02  0.5972536E+02  0.8005872E+02  0.0000000E+00
Ar  5161  0.3098304E+02  0.6238521E+02  0.8357229E+02  0.0000000E+00
Ar  5162  0.3317176E+02  0.6511620E+02  0.8285925E+02  0.0000000E+00
Ar  5163  0.3423908E+02  0.6322866E+02  0.1873909E+01  0.0000000E+00
Ar  5164  0.3124446E+02  0.6510171E+02  0.2010886E+01  0.0000000E+00
Ar  5165  0.3140979E+02  0.6211885E+02  0.3618043E+01  0.0000000E+00
Ar  5166  0.3425172E+02  0.6668320E+02  0.3793939E+01  0.0000000E+00
Ar  5167  0.3349989E+02  0.6383841E+02  0.5861568E+01  0.0000000E+00
Ar  5168  0.2996267E+02  0.6470109E+02  0.6481629E+01  0.0000000E+00
Ar  5169  0.3034822E+02  0.6258028E+02  0.9480846E+01  0.0000000E+00
Ar  5170  0.3355979E+02  0.6525150E+02  0.9512204E+01  0.0000000E+00
Ar  5171  0.3418040E+02  0.6205083E+02  0.1174793E+02  0.0000000E+00
Ar  5172  0.3120090E+02  0.6459762E+02  0.1226906E+02  0.0000000E+00
Ar  5173  0.3164093E+02  0.6221815E+02  0.1478384E+02  0.0000000E+00
Ar  5174  0.3449716E+02  0.6537430E+02  0.1443014E+02  0.0000000E+00
Ar  5175  0.3387989E+02  0.6192549E+02  0.1856367E+02  0.0000000E+00
Ar  5176  0.3127578E+02  0.6452749E+02  0.1817167E+02  0.0000000E+00
Ar  5177  0.3085781E+02  0.6230393E+02  0.2066358E+02  0.0000000E+00
Ar  5178  0.3401620E+02  0.6484598E+02  0.2081647E+02  0.0000000E+00
Ar  5179  0.3310429E+02  0.6263447E+02  0.2340116E+02  0.0000000E+00
Ar  5180  0.3032992E+02  0.6500755E+02  0.2372722E+02  0.0000000E+00
Ar  5181  0.3061993E+02  0.6210706E+02  0.2621330E+02  0.0000000E+00
Ar  5182  0.3352217E+02  0.6472071E+02  0.2639459E+02  0.0000000E+00
Ar  5183  0.3337839E+02  0.6156052E+02  0.2972181E+02  0.0000000E+00
Ar  5184  0.3102207E+02  0.6439988E+02  0.2915610E+02  0.0000000E+00
Ar  5185  0.3059129E+02  0.6135581E+02  0.3248627E+02  0.0000000E+00
Ar  5186  0.3314735E+02  0.6484249E+02  0.3242595E+02  0.0000000E+00
Ar  5187  0.3381693E+02  0.6149914E+02  0.3450949E+02  0.0000000E+00
Ar  5188  0.3059953E+02  0.6453868E+02  0.3553806E+02  0.0000000E+00
Ar  5189  0.2986096E+02  0.6217143E+02  0.3808262E+02  0.0000000E+00
Ar  5190  0.3312252E+02  0.6443394E+02  0.3784063E+02  0.0000000E+00
Ar  5191  0.3311088E+02  0.6208146E+02  0.4071274E+02  0.0000000E+00
Ar  5192  0.3065822E+02  0.6520699E+02  0.4061112E+02  0.0000000E+00
Ar  5193  0.3109197E+02  0.6259073E+02  0.4368830E+02  0.0000000E+00
Ar  5194  0.3354286E+02  0.6512573E+02  0.4330052E+02  0.0000000E+00
Ar  5195  0.3338974E+02  0.6265352E+02  0.4636758E+02  0.0000000E+00
Ar  5196  0.3087460E+02  0.6517192E+02  0.4640136E+02  0.0000000E+00
Ar  5197  0.3092808E+02  0.6238552E+02  0.4934623E+02  0.0000000E+00
Ar  5198  0.3314524E+02  0.6543499E+02  0.4951287E+02  0.0000000E+00
Ar  5199  0.3362643E+02  0.6259010E+02  0.5165784E+02  0.0000000E+00
Ar  5200  0.3088927E+02  0.6569433E+02  0.5243251E+02  0.0000000E+00
Ar  5201  0.3053049E+02  0.6331153E+02  0.5459897E+02  0.0000000E+00
Ar  5202  0.3342616E+02  0.6549995E+02  0.5474833E+02  0.0000000E+00
Ar  5203  0.3364428E+02  0.6275613E+02  0.5761485E+02  0.0000000E+00
Ar  5204  0.3057888E+02  0.6543219E+02  0.5807241E+02  0.0000000E+00
Ar  5205  0.3066175E+02  0.6303818E+02  0.6041463E+02  0.0000000E+00
Ar  5206  0.3357422E+02  0.6503668E+02  0.6016896E+02  0.0000000E+00
Ar  5207  0.3352275E+02  0.6256601E+02  0.6319892E+02  0.0000000E+00
Ar  5208  0.3089131E+02  0.6513815E+02  0.6334674E+02  0.0000000E+00
Ar  5209  0.3099981E+02  0.6234151E+02  0.6579937E+02  0.0000000E+00
Ar  5210  0.3339136E+02  0.6528653E+02  0.6595528E+02  0.0000000E+00
Ar  5211  0.3397335E+02  0.6204269E+02  0.6887068E+02  0.0000000E+00
Ar  5212  0.3117798E+02  0.6462643E+02  0.6895635E+02  0.0000000E+00
Ar  5213  0.3104824E+02  0.6255105E+02  0.7163011E+02  0.0000000E+00
Ar  5214  0.3421216E+02  0.6517934E+02  0.7163714E+02  0.0000000E+00
Ar  5215  0.3375421E+02  0.6217060E+02  0.7422677E+02  0.0000000E+00
Ar  5216  0.3019179E+02  0.6557827E+02  0.7369626E+02  0.0000000E+00
Ar  5217  0.3067735E+02  0.6240474E+02  0.7682069E+02  0.0000000E+00
Ar  5218  0.3300485E+02  0.6587194E+02  0.7671300E+02  0.0000000E+00
Ar  5219  0.3381847E+02  0.6313694E+02  0.8013163E+02  0.0000000E+00
Ar  5220  0.3058831E+02  0.6543668E+02  0.7946993E+02  0.0000000E+00
Ar  5221  0.3023295E+02  0.6750442E+02  0.8278950E+02  0.0000000E+00
Ar  5222  0.3295173E+02  0.7053502E+02  0.8243743E+02  0.0000000E+00
Ar  5223  0.3322469E+02  0.6802275E+02  0.5905342E+00  0.0000000E+00
Ar  5224  0.3051049E+02  0.7030674E+02  0.1327864E+01  0.0000000E+00
Ar  5225  0.3092821E+02  0.6751552E+02  0.4746518E+01  0.0000000E+00
Ar  5226  0.3316919E+02  0.7041117E+02  0.3918412E+01  0.0000000E+00
Ar  5227  0.3366145E+02  0.6863448E+02  0.6782829E+01  0.0000000E+00
Ar  5228  0.3025548E+02  0.7019445E+02  0.7378764E+01  0.0000000E+00
Ar  5229  0.3073771E+02  0.6746075E+02  0.9498037E+01  0.0000000E+00
Ar  5230  0.3387452E+02  0.7099697E+02  0.1001547E+02  0.0000000E+00
Ar  5231  0.3375971E+02  0.6759236E+02  0.1188383E+02  0.0000000E+00
Ar  5232  0.3092303E+02  0.7039739E+02  0.1246411E+02  0.0000000E+00
Ar  5233  0.3126239E+02  0.6675396E+02  0.1515784E+02  0.0000000E+00
Ar  5234  0.3367589E+02  0.7031685E+02  0.1464467E+02  0.0000000E+00
Ar  5235  0.3336614E+02  0.6751962E+02  0.1802789E+02  0.0000000E+00
Ar  5236  0.3097162E+02  0.7002784E+02  0.1709034E+02  0.0000000E+00
Ar  5237  0.3080416E+02  0.6772964E+02  0.2180607E+02  0.0000000E+00
Ar  5238  0.3381020E+02  0.7031692E+02  0.2100151E+02  0.0000000E+00
Ar  5239  0.3420620E+02  0.6784478E+02  0.2370165E+02  0.0000000E+00
Ar  5240  0.3131284E+02  0.7076909E+02  0.2403821E+02  0.0000000E+00
Ar  5241  0.3057640E+02  0.6782214E+02  0.2660499E+02  0.0000000E+00
Ar  5242  0.3413852E+02  0.7067784E+02  0.2627371E+02  0.0000000E+00
Ar  5243  0.3402680E+02  0.6774490E+02  0.2912833E+02  0.0000000E+00
Ar  5244  0.3166555E+02  0.7057625E+02  0.2990927E+02  0.0000000E+00
Ar  5245  0.3075341E+02  0.6794083E+02  0.3258929E+02  0.0000000E+00
Ar  5246  0.3410402E+02  0.7084867E+02  0.3282065E+02  0.0000000E+00
Ar  5247  0.3383682E+02  0.6764349E+02  0.3486983E+02  0.0000000E+00
Ar  5248  0.3053992E+02  0.7092247E+02  0.3553040E+02  0.0000000E+00
Ar  5249  0.3074585E+02  0.6739735E+02  0.3760887E+02  0.0000000E+00
Ar  5250  0.3316553E+02  0.7012039E+02  0.3769434E+02  0.0000000E+00
Ar  5251  0.3306269E+02  0.6801958E+02  0.4072620E+02  0.0000000E+00
Ar  5252  0.3092780E+02  0.7107597E+02  0.4052020E+02  0.0000000E+00
Ar  5253  0.3086048E+02  0.6785435E+02  0.4361427E+02  0.0000000E+00
Ar  5254  0.3320042E+02  0.7077470E+02  0.4350582E+02  0.0000000E+00
Ar  5255  0.3295972E+02  0.6783782E+02  0.4672753E+02  0.0000000E+00
Ar  5256  0.3101010E+02  0.7083588E+02  0.4625821E+02  0.0000000E+00
Ar  5257  0.3081528E+02  0.6832447E+02  0.4947473E+02  0.0000000E+00
Ar  5258  0.3411199E+02  0.7148161E+02  0.4913758E+02  0.0000000E+00
Ar  5259  0.3335847E+02  0.6836627E+02  0.5206183E+02  0.0000000E+00
Ar  5260  0.3073820E+02  0.7077540E+02  0.5220274E+02  0.0000000E+00
Ar  5261  0.3048502E+02  0.6812750E+02  0.5507799E+02  0.0000000E+00
Ar  5262  0.3396188E+02  0.7037738E+02  0.5504986E+02  0.0000000E+00
Ar  5263  0.3352006E+02  0.6756255E+02  0.5784476E+02  0.0000000E+00
Ar  5264  0.3053761E+02  0.7042666E+02  0.5766323E+02  0.0000000E+00
Ar  5265  0.3058351E+02  0.6791336E+02  0.6066106E+02  0.0000000E+00
Ar  5266  0.3355400E+02  0.7009870E+02  0.6054296E+02  0.0000000E+00
Ar  5267  0.3361663E+02  0.6796545E+02  0.6327782E+02  0.0000000E+00
Ar  5268  0.3122935E+02  0.7070056E+02  0.6326236E+02  0.0000000E+00
Ar  5269  0.3084909E+02  0.6823014E+02  0.6594518E+02  0.0000000E+00
Ar  5270  0.3409121E+02  0.7057335E+02  0.6562946E+02  0.0000000E+00
Ar  5271  0.3399283E+02  0.6811628E+02  0.6873852E+02  0.0000000E+00
Ar  5272  0.3200062E+02  0.7087032E+02  0.6827578E+02  0.0000000E+00
Ar  5273  0.3101016E+02  0.6794139E+02  0.7075454E+02  0.0000000E+00
Ar  5274  0.3316932E+02  0.7147722E+02  0.7165440E+02  0.0000000E+00
Ar  5275  0.3359717E+02  0.6819325E+02  0.7376492E+02  0.0000000E+00
Ar  5276  0.3085725E+02  0.7059128E+02  0.7431452E+02  0.0000000E+00
Ar  5277  0.3012350E+02  0.6794631E+02  0.7656708E+02  0.0000000E+00
Ar  5278  0.3308343E+02  0.7053233E+02  0.7724409E+02  0.0000000E+00
Ar  5279  0.3364445E+02  0.6734063E+02  0.7991727E+02  0.0000000E+00
Ar  5280  0.3042079E+02  0.7044927E+02  0.8028041E+02  0.0000000E+00
Ar  5281  0.3048325E+02  0.7308681E+02  0.8318076E+02  0.0000000E+00
Ar  5282  0.3351133E+02  0.7609255E+02  0.8273564E+02  0.0000000E+00
Ar  5283  0.3314559E+02  0.7316499E+02  0.1681188E+01  0.0000000E+00
Ar  5284  0.3044425E+02  0.7654392E+02  0.1599435E+01  0.0000000E+00
Ar  5285  0.3072266E+02  0.7427184E+02  0.4396885E+01  0.0000000E+00
Ar  5286  0.3391946E+02  0.7687065E+02  0.3930664E+01  0.0000000E+00
Ar  5287  0.3329779E+02  0.7281431E+02  0.6659488E+01  0.0000000E+00
Ar  5288  0.3116008E+02  0.7645086E+02  0.7869089E+01  0.0000000E+00
Ar  5289  0.3092897E+02  0.7307743E+02  0.9568779E+01  0.0000000E+00
Ar  5290  0.3357031E+02  0.7643450E+02  0.1070216E+02  0.0000000E+00
Ar  5291  0.3306355E+02  0.7333368E+02  0.1257262E+02  0.0000000E+00
Ar  5292  0.3076057E+02  0.7634454E+02  0.1263415E+02  0.0000000E+00
Ar  5293  0.3106980E+02  0.7321508E+02  0.1549248E+02  0.0000000E+00
Ar  5294  0.3380685E+02  0.7571986E+02  0.1551978E+02  0.0000000E+00
Ar  5295  0.3375312E+02  0.7314042E+02  0.1817233E+02  0.0000000E+00
Ar  5296  0.3079064E+02  0.7571710E+02  0.1849937E+02  0.0000000E+00
Ar  5297  0.3094879E+02  0.7335374E+02  0.2102486E+02  0.0000000E+00
Ar  5298  0.3406655E+02  0.7587532E+02  0.2092648E+02  0.0000000E+00
Ar  5299  0.3385557E+02  0.7337911E+02  0.2338502E+02  0.0000000E+00
Ar  5300  0.3095503E+02  0.7616703E+02  0.2348991E+02  0.0000000E+00
Ar  5301  0.3157689E+02  0.7341488E+02  0.2725065E+02  0.0000000E+00
Ar  5302  0.3393892E+02  0.7615078E+02  0.2616284E+02  0.0000000E+00
Ar  5303  0.3412954E+02  0.7375159E+02  0.2990769E+02  0.0000000E+00
Ar  5304  0.2793143E+02  0.7840817E+02  0.2996141E+02  0.0000000E+00
Ar  5305  0.3141078E+02  0.7703085E+02  0.2959489E+02  0.0000000E+00
Ar  5306  0.3352425E+02  0.7619814E+02  0.3259415E+02  0.0000000E+00
Ar  5307  0.3153421E+02  0.7291353E+02  0.3278445E+02  0.0000000E+00
Ar  5308  0.3023902E+02  0.7561542E+02  0.3468388E+02  0.0000000E+00
Ar  5309  0.3066704E+02  0.7390534E+02  0.3828962E+02  0.0000000E+00
Ar  5310  0.3290648E+02  0.7669081E+02  0.3773421E+02  0.0000000E+00
Ar  5311  0.3635056E+02  0.7042258E+02  0.4057309E+02  0.0000000E+00
Ar  5312  0.3013129E+02  0.7699030E+02  0.4080219E+02  0.0000000E+00
Ar  5313  0.3011522E+02  0.7441269E+02  0.4338077E+02  0.0000000E+00
Ar  5314  0.3319294E+02  0.7465315E+02  0.4123191E+02  0.0000000E+00
Ar  5315  0.3313196E+02  0.7432079E+02  0.4576267E+02  0.0000000E+00
Ar  5316  0.3055507E+02  0.7696160E+02  0.4597877E+02  0.0000000E+00
Ar  5317  0.3063003E+02  0.7350536E+02  0.4924864E+02  0.0000000E+00
Ar  5318  0.3248250E+02  0.7636685E+02  0.4907056E+02  0.0000000E+00
Ar  5319  0.3347081E+02  0.7380004E+02  0.5184278E+02  0.0000000E+00
Ar  5320  0.3045086E+02  0.7592962E+02  0.5189456E+02  0.0000000E+00
Ar  5321  0.3015780E+02  0.7298373E+02  0.5506435E+02  0.0000000E+00
Ar  5322  0.3315196E+02  0.7645100E+02  0.5458667E+02  0.0000000E+00
Ar  5323  0.3319281E+02  0.7346484E+02  0.5764112E+02  0.0000000E+00
Ar  5324  0.3038084E+02  0.7593614E+02  0.5751250E+02  0.0000000E+00
Ar  5325  0.3041911E+02  0.7306279E+02  0.5984991E+02  0.0000000E+00
Ar  5326  0.3359691E+02  0.7655726E+02  0.6066046E+02  0.0000000E+00
Ar  5327  0.3345172E+02  0.7354638E+02  0.6335057E+02  0.0000000E+00
Ar  5328  0.2984716E+02  0.7656293E+02  0.6302548E+02  0.0000000E+00
Ar  5329  0.3047019E+02  0.7387209E+02  0.6617851E+02  0.0000000E+00
Ar  5330  0.3337768E+02  0.7652969E+02  0.6569180E+02  0.0000000E+00
Ar  5331  0.3352036E+02  0.7386739E+02  0.6798237E+02  0.0000000E+00
Ar  5332  0.3050161E+02  0.7647160E+02  0.6891780E+02  0.0000000E+00
Ar  5333  0.2975378E+02  0.7210579E+02  0.7112499E+02  0.0000000E+00
Ar  5334  0.3347127E+02  0.7583305E+02  0.7130845E+02  0.0000000E+00
Ar  5335  0.3352263E+02  0.7350374E+02  0.7409996E+02  0.0000000E+00
Ar  5336  0.3091720E+02  0.7647491E+02  0.7407434E+02  0.0000000E+00
Ar  5337  0.3028489E+02  0.7305014E+02  0.7684646E+02  0.0000000E+00
Ar  5338  0.3307829E+02  0.7578196E+02  0.7698420E+02  0.0000000E+00
Ar  5339  0.3259588E+02  0.7326332E+02  0.7990112E+02  0.0000000E+00
Ar  5340  0.3056539E+02  0.7654037E+02  0.8000619E+02  0.0000000E+00
Ar  5341  0.3066483E+02  0.7888262E+02  0.8256021E+02  0.0000000E+00
Ar  5342  0.3343538E+02  0.8172333E+02  0.8266174E+02  0.0000000E+00
Ar  5343  0.3380801E+02  0.7914536E+02  0.9391063E+00  0.0000000E+00
Ar  5344  0.3098904E+02  0.8150771E+02  0.1366810E+01  0.0000000E+00
Ar  5345  0.3088808E+02  0.7949803E+02  0.4604936E+01  0.0000000E+00
Ar  5346  0.3351121E+02  0.8239786E+02  0.4215839E+01  0.0000000E+00
Ar  5347  0.3360349E+02  0.7882268E+02  0.7392333E+01  0.0000000E+00
Ar  5348  0.2982534E+02  0.8217026E+02  0.7061884E+01  0.0000000E+00
Ar  5349  0.3044287E+02  0.7926176E+02  0.9919321E+01  0.0000000E+00
Ar  5350  0.3401899E+02  0.8127816E+02  0.1050359E+02  0.0000000E+00
Ar  5351  0.3422153E+02  0.7881414E+02  0.1330689E+02  0.0000000E+00
Ar  5352  0.3110317E+02  0.8109418E+02  0.1288424E+02  0.0000000E+00
Ar  5353  0.3201865E+02  0.7855017E+02  0.1592153E+02  0.0000000E+00
Ar  5354  0.3399351E+02  0.8182171E+02  0.1502652E+02  0.0000000E+00
Ar  5355  0.3322164E+02  0.7906681E+02  0.1931405E+02  0.0000000E+00
Ar  5356  0.3049047E+02  0.8221433E+02  0.1840258E+02  0.0000000E+00
Ar  5357  0.2975362E+02  0.7939711E+02  0.2096066E+02  0.0000000E+00
Ar  5358  0.3352053E+02  0.8215576E+02  0.2163782E+02  0.0000000E+00
Ar  5359  0.3340996E+02  0.7882574E+02  0.2315484E+02  0.0000000E+00
Ar  5360  0.2994680E+02  0.8187574E+02  0.2356867E+02  0.0000000E+00
Ar  5361  0.3017130E+02  0.7928040E+02  0.2624448E+02  0.0000000E+00
Ar  5362  0.3318647E+02  0.8170075E+02  0.2524349E+02  0.0000000E+00
Ar  5363  0.3377131E+02  0.7982785E+02  0.2845875E+02  0.0000000E+00
Ar  5364  0.2978317E+02  0.8187081E+02  0.2917846E+02  0.0000000E+00
Ar  5365  0.3049889E+02  0.7864020E+02  0.3326007E+02  0.0000000E+00
Ar  5366  0.3294416E+02  0.8199771E+02  0.3253329E+02  0.0000000E+00
Ar  5367  0.3339405E+02  0.7914953E+02  0.3550745E+02  0.0000000E+00
Ar  5368  0.3054854E+02  0.8201972E+02  0.3538933E+02  0.0000000E+00
Ar  5369  0.3039985E+02  0.7933401E+02  0.3765212E+02  0.0000000E+00
Ar  5370  0.3307017E+02  0.8247239E+02  0.3784554E+02  0.0000000E+00
Ar  5371  0.3351477E+02  0.7916808E+02  0.4076459E+02  0.0000000E+00
Ar  5372  0.3054243E+02  0.8231385E+02  0.4040413E+02  0.0000000E+00
Ar  5373  0.3053296E+02  0.7956617E+02  0.4353225E+02  0.0000000E+00
Ar  5374  0.3342626E+02  0.8156910E+02  0.4353831E+02  0.0000000E+00
Ar  5375  0.3229229E+02  0.7993110E+02  0.4697166E+02  0.0000000E+00
Ar  5376  0.2984264E+02  0.8294799E+02  0.4659296E+02  0.0000000E+00
Ar  5377  0.2998048E+02  0.8018939E+02  0.4950651E+02  0.0000000E+00
Ar  5378  0.3325097E+02  0.8254559E+02  0.4990691E+02  0.0000000E+00
Ar  5379  0.3279656E+02  0.7915277E+02  0.5154920E+02  0.0000000E+00
Ar  5380  0.2992348E+02  0.8229824E+02  0.5232180E+02  0.0000000E+00
Ar  5381  0.3031759E+02  0.7910902E+02  0.5447951E+02  0.0000000E+00
Ar  5382  0.3305908E+02  0.8184904E+02  0.5382801E+02  0.0000000E+00
Ar  5383  0.3268284E+02  0.7922326E+02  0.5728273E+02  0.0000000E+00
Ar  5384  0.3036661E+02  0.8175021E+02  0.5725160E+02  0.0000000E+00
Ar  5385  0.3047083E+02  0.7937798E+02  0.6011650E+02  0.0000000E+00
Ar  5386  0.3315307E+02  0.8227154E+02  0.5978067E+02  0.0000000E+00
Ar  5387  0.3320977E+02  0.7954964E+02  0.6268422E+02  0.0000000E+00
Ar  5388  0.2967829E+02  0.8099797E+02  0.6332905E+02  0.0000000E+00
Ar  5389  0.3050405E+02  0.7880065E+02  0.6591970E+02  0.0000000E+00
Ar  5390  0.3305193E+02  0.8135568E+02  0.6588692E+02  0.0000000E+00
Ar  5391  0.3335925E+02  0.7848268E+02  0.6871753E+02  0.0000000E+00
Ar  5392  0.3069794E+02  0.8142124E+02  0.6853839E+02  0.0000000E+00
Ar  5393  0.3035974E+02  0.7866643E+02  0.7141980E+02  0.0000000E+00
Ar  5394  0.3317247E+02  0.8189772E+02  0.7109986E+02  0.0000000E+00
Ar  5395  0.3306557E+02  0.7945272E+02  0.7349614E+02  0.0000000E+00
Ar  5396  0.2967716E+02  0.8156864E+02  0.7432698E+02  0.0000000E+00
Ar  5397  0.3091631E+02  0.7946687E+02  0.7706414E+02  0.0000000E+00
Ar  5398  0.3295640E+02  0.8208259E+02  0.7636546E+02  0.0000000E+00
Ar  5399  0.3317785E+02  0.7918123E+02  0.7995184E+02  0.0000000E+00
Ar  5400  0.3066182E+02  0.8248267E+02  0.8001675E+02  0.0000000E+00
Ar  5401  0.3527803E+02  0.7160764E+00  0.8236953E+02  0.0000000E+00
Ar  5402  0.3788547E+02  0.3696717E+01  0.8241911E+02  0.0000000E+00
Ar  5403  0.3835475E+02  0.1035125E+01  0.1027636E+01  0.0000000E+00
Ar  5404  0.3635153E+02  0.4179824E+01  0.1188700E+01  0.0000000E+00
Ar  5405  0.3611922E+02  0.8391388E+00  0.3979649E+01  0.0000000E+00
Ar  5406  0.3857545E+02  0.3751068E+01  0.4194325E+01  0.0000000E+00
Ar  5407  0.3906145E+02  0.4314508E+00  0.7207824E+01  0.0000000E+00
Ar  5408  0.3595309E+02  0.3905280E+01  0.7154775E+01  0.0000000E+00
Ar  5409  0.3641014E+02  0.8410335E+02  0.1044883E+02  0.0000000E+00
Ar  5410  0.3881145E+02  0.2793936E+01  0.1008110E+02  0.0000000E+00
Ar  5411  0.3914945E+02  0.7994615E-01  0.1254412E+02  0.0000000E+00
Ar  5412  0.3510226E+02  0.3224751E+01  0.1260479E+02  0.0000000E+00
Ar  5413  0.3614628E+02  0.8541873E+00  0.1515215E+02  0.0000000E+00
Ar  5414  0.3843807E+02  0.3082957E+01  0.1444359E+02  0.0000000E+00
Ar  5415  0.3940459E+02  0.2332242E+00  0.1768865E+02  0.0000000E+00
Ar  5416  0.3611389E+02  0.2811969E+01  0.1821068E+02  0.0000000E+00
Ar  5417  0.3577096E+02  0.4915983E+00  0.2110327E+02  0.0000000E+00
Ar  5418  0.3881925E+02  0.3191345E+01  0.2071701E+02  0.0000000E+00
Ar  5419  0.3871814E+02  0.6957618E+00  0.2352252E+02  0.0000000E+00
Ar  5420  0.3604278E+02  0.3386855E+01  0.2360007E+02  0.0000000E+00
Ar  5421  0.3588835E+02  0.5489284E+00  0.2582174E+02  0.0000000E+00
Ar  5422  0.3911667E+02  0.3491067E+01  0.2671624E+02  0.0000000E+00
Ar  5423  0.3902036E+02  0.1062938E+01  0.2920204E+02  0.0000000E+00
Ar  5424  0.3666808E+02  0.3641207E+01  0.2926155E+02  0.0000000E+00
Ar  5425  0.3555209E+02  0.5411391E+00  0.3213356E+02  0.0000000E+00
Ar  5426  0.3889932E+02  0.3835151E+01  0.3202342E+02  0.0000000E+00
Ar  5427  0.3907416E+02  0.5446954E+00  0.3505762E+02  0.0000000E+00
Ar  5428  0.3579480E+02  0.3415511E+01  0.3470340E+02  0.0000000E+00
Ar  5429  0.3616384E+02  0.2775233E+00  0.3742521E+02  0.0000000E+00
Ar  5430  0.3813821E+02  0.4016266E+01  0.3793097E+02  0.0000000E+00
Ar  5431  0.3847013E+02  0.2956492E+00  0.4123633E+02  0.0000000E+00
Ar  5432  0.3550518E+02  0.3703151E+01  0.4055457E+02  0.0000000E+00
Ar  5433  0.3604878E+02  0.3651517E+00  0.4487782E+02  0.0000000E+00
Ar  5434  0.3875334E+02  0.3495458E+01  0.4389223E+02  0.0000000E+00
Ar  5435  0.3970537E+02  0.4309271E+00  0.4620305E+02  0.0000000E+00
Ar  5436  0.3617871E+02  0.3611220E+01  0.4680320E+02  0.0000000E+00
Ar  5437  0.3710814E+02  0.6594530E+00  0.4873258E+02  0.0000000E+00
Ar  5438  0.3932340E+02  0.3607599E+01  0.4903372E+02  0.0000000E+00
Ar  5439  0.3908456E+02  0.8059288E+00  0.5188023E+02  0.0000000E+00
Ar  5440  0.3624013E+02  0.3509474E+01  0.5104950E+02  0.0000000E+00
Ar  5441  0.3620761E+02  0.7889145E+00  0.5413099E+02  0.0000000E+00
Ar  5442  0.3865241E+02  0.3641661E+01  0.5418412E+02  0.0000000E+00
Ar  5443  0.3884642E+02  0.8410229E+02  0.5743613E+02  0.0000000E+00
Ar  5444  0.3609369E+02  0.3342700E+01  0.5730380E+02  0.0000000E+00
Ar  5445  0.3557822E+02  0.6106478E+00  0.6012938E+02  0.0000000E+00
Ar  5446  0.3858468E+02  0.3465762E+01  0.6061672E+02  0.0000000E+00
Ar  5447  0.3853461E+02  0.1773310E+00  0.6373619E+02  0.0000000E+00
Ar  5448  0.3530082E+02  0.3604531E+01  0.6302420E+02  0.0000000E+00
Ar  5449  0.3538554E+02  0.8410026E+02  0.6588746E+02  0.0000000E+00
Ar  5450  0.3946598E+02  0.3506933E+01  0.6605200E+02  0.0000000E+00
Ar  5451  0.3869050E+02  0.1475636E+00  0.6925820E+02  0.0000000E+00
Ar  5452  0.3596022E+02  0.2746916E+01  0.6756510E+02  0.0000000E+00
Ar  5453  0.3576070E+02  0.8417170E+02  0.7071645E+02  0.0000000E+00
Ar  5454  0.3875953E+02  0.3050817E+01  0.7174076E+02  0.0000000E+00
Ar  5455  0.3865074E+02  0.6024138E+00  0.7445097E+02  0.0000000E+00
Ar  5456  0.3598108E+02  0.4213181E+01  0.7433274E+02  0.0000000E+00
Ar  5457  0.3522804E+02  0.2574336E+00  0.7729335E+02  0.0000000E+00
Ar  5458  0.3893662E+02  0.3896622E+01  0.7702098E+02  0.0000000E+00
Ar  5459  0.3832256E+02  0.1312414E+01  0.7943324E+02  0.0000000E+00
Ar  5460  0.3584160E+02  0.4772966E+01  0.7970278E+02  0.0000000E+00
Ar  5461  0.3583720E+02  0.6750967E+01  0.8304164E+02  0.0000000E+00
Ar  5462  0.3897633E+02  0.9192511E+01  0.8289979E+02  0.0000000E+00
Ar  5463  0.3878246E+02  0.6837151E+01  0.2445733E+01  0.0000000E+00
Ar  5464  0.3572477E+02  0.9631617E+01  0.1840027E+01  0.0000000E+00
Ar  5465  0.3627618E+02  0.6354840E+01  0.4532944E+01  0.0000000E+00
Ar  5466  0.3853343E+02  0.1042624E+02  0.4247841E+01  0.0000000E+00
Ar  5467  0.3911021E+02  0.6478870E+01  0.7245695E+01  0.0000000E+00
Ar  5468  0.3602901E+02  0.9445828E+01  0.6835777E+01  0.0000000E+00
Ar  5469  0.3638975E+02  0.6357127E+01  0.9648585E+01  0.0000000E+00
Ar  5470  0.3960488E+02  0.9091729E+01  0.1014004E+02  0.0000000E+00
Ar  5471  0.3908250E+02  0.6474439E+01  0.1273460E+02  0.0000000E+00
Ar  5472  0.3648245E+02  0.8938682E+01  0.1286012E+02  0.0000000E+00
Ar  5473  0.3595777E+02  0.6150249E+01  0.1494312E+02  0.0000000E+00
Ar  5474  0.3902711E+02  0.8668607E+01  0.1687215E+02  0.0000000E+00
Ar  5475  0.3886664E+02  0.5020704E+01  0.1780286E+02  0.0000000E+00
Ar  5476  0.3589342E+02  0.9062233E+01  0.1862149E+02  0.0000000E+00
Ar  5477  0.3607127E+02  0.5809667E+01  0.2010485E+02  0.0000000E+00
Ar  5478  0.3914277E+02  0.8439005E+01  0.2030403E+02  0.0000000E+00
Ar  5479  0.3881060E+02  0.6249349E+01  0.2362214E+02  0.0000000E+00
Ar  5480  0.3604899E+02  0.8653529E+01  0.2324254E+02  0.0000000E+00
Ar  5481  0.3586655E+02  0.6192251E+01  0.2663442E+02  0.0000000E+00
Ar  5482  0.3909096E+02  0.9050961E+01  0.2593215E+02  0.0000000E+00
Ar  5483  0.3891170E+02  0.6664137E+01  0.2915737E+02  0.0000000E+00
Ar  5484  0.3619099E+02  0.9090988E+01  0.2875982E+02  0.0000000E+00
Ar  5485  0.3626696E+02  0.6453257E+01  0.3221431E+02  0.0000000E+00
Ar  5486  0.3852672E+02  0.9238623E+01  0.3190874E+02  0.0000000E+00
Ar  5487  0.3881297E+02  0.5994334E+01  0.3488880E+02  0.0000000E+00
Ar  5488  0.3646946E+02  0.9186850E+01  0.3509102E+02  0.0000000E+00
Ar  5489  0.3575538E+02  0.6275891E+01  0.3733174E+02  0.0000000E+00
Ar  5490  0.3927182E+02  0.9377447E+01  0.3759411E+02  0.0000000E+00
Ar  5491  0.3836399E+02  0.5923639E+01  0.4095343E+02  0.0000000E+00
Ar  5492  0.3603714E+02  0.8779099E+01  0.4061262E+02  0.0000000E+00
Ar  5493  0.3558569E+02  0.6136061E+01  0.4383890E+02  0.0000000E+00
Ar  5494  0.3867909E+02  0.9304159E+01  0.4324704E+02  0.0000000E+00
Ar  5495  0.3900420E+02  0.6516771E+01  0.4661246E+02  0.0000000E+00
Ar  5496  0.3595565E+02  0.8943772E+01  0.4574681E+02  0.0000000E+00
Ar  5497  0.3589408E+02  0.6585390E+01  0.4878237E+02  0.0000000E+00
Ar  5498  0.3842519E+02  0.9176297E+01  0.4892280E+02  0.0000000E+00
Ar  5499  0.3869925E+02  0.6238113E+01  0.5159576E+02  0.0000000E+00
Ar  5500  0.3612534E+02  0.9093497E+01  0.5189760E+02  0.0000000E+00
Ar  5501  0.3597835E+02  0.6173307E+01  0.5389310E+02  0.0000000E+00
Ar  5502  0.3881625E+02  0.8574689E+01  0.5430502E+02  0.0000000E+00
Ar  5503  0.3878793E+02  0.6435673E+01  0.5774249E+02  0.0000000E+00
Ar  5504  0.3638902E+02  0.9048830E+01  0.5701879E+02  0.0000000E+00
Ar  5505  0.3560483E+02  0.5585584E+01  0.6022334E+02  0.0000000E+00
Ar  5506  0.3881109E+02  0.8581348E+01  0.6035298E+02  0.0000000E+00
Ar  5507  0.3930699E+02  0.6321136E+01  0.6291611E+02  0.0000000E+00
Ar  5508  0.3599325E+02  0.8809320E+01  0.6374672E+02  0.0000000E+00
Ar  5509  0.3656348E+02  0.5932737E+01  0.6557030E+02  0.0000000E+00
Ar  5510  0.3926861E+02  0.9541354E+01  0.6605648E+02  0.0000000E+00
Ar  5511  0.3943285E+02  0.6328008E+01  0.6825647E+02  0.0000000E+00
Ar  5512  0.3626183E+02  0.9177415E+01  0.6825493E+02  0.0000000E+00
Ar  5513  0.3552447E+02  0.5268353E+01  0.7071764E+02  0.0000000E+00
Ar  5514  0.3855891E+02  0.9456309E+01  0.7111674E+02  0.0000000E+00
Ar  5515  0.3890874E+02  0.6388515E+01  0.7402605E+02  0.0000000E+00
Ar  5516  0.3625699E+02  0.9312272E+01  0.7399345E+02  0.0000000E+00
Ar  5517  0.3633085E+02  0.6870787E+01  0.7670025E+02  0.0000000E+00
Ar  5518  0.3909521E+02  0.9060233E+01  0.7694606E+02  0.0000000E+00
Ar  5519  0.3891710E+02  0.6748837E+01  0.7964539E+02  0.0000000E+00
Ar  5520  0.3603297E+02  0.9226492E+01  0.8021772E+02  0.0000000E+00
Ar  5521  0.3691362E+02  0.1213752E+02  0.8259659E+02  0.0000000E+00
Ar  5522  0.3920513E+02  0.1489700E+02  0.8222611E+02  0.0000000E+00
Ar  5523  0.3939233E+02  0.1251096E+02  0.1172830E+01  0.0000000E+00
Ar  5524  0.3636337E+02  0.1441993E+02  0.1675042E+01  0.0000000E+00
Ar  5525  0.3562120E+02  0.1255608E+02  0.4866616E+01  0.0000000E+00
Ar  5526  0.3892784E+02  0.1472096E+02  0.4724088E+01  0.0000000E+00
Ar  5527  0.3833726E+02  0.1193720E+02  0.7666968E+01  0.0000000E+00
Ar  5528  0.3585953E+02  0.1478628E+02  0.7470571E+01  0.0000000E+00
Ar  5529  0.3576624E+02  0.1166307E+02  0.9932313E+01  0.0000000E+00
Ar  5530  0.3970096E+02  0.1484850E+02  0.9527812E+01  0.0000000E+00
Ar  5531  0.3854088E+02  0.1199386E+02  0.1202893E+02  0.0000000E+00
Ar  5532  0.3633241E+02  0.1519915E+02  0.1219416E+02  0.0000000E+00
Ar  5533  0.3660409E+02  0.1258200E+02  0.1516357E+02  0.0000000E+00
Ar  5534  0.3883900E+02  0.1551464E+02  0.1492016E+02  0.0000000E+00
Ar  5535  0.3843967E+02  0.1381208E+02  0.1845250E+02  0.0000000E+00
Ar  5536  0.3499719E+02  0.1468338E+02  0.1782833E+02  0.0000000E+00
Ar  5537  0.3627565E+02  0.1198619E+02  0.2137764E+02  0.0000000E+00
Ar  5538  0.3929625E+02  0.1482756E+02  0.2160152E+02  0.0000000E+00
Ar  5539  0.3980492E+02  0.1161929E+02  0.2317363E+02  0.0000000E+00
Ar  5540  0.3616058E+02  0.1432082E+02  0.2391225E+02  0.0000000E+00
Ar  5541  0.3635485E+02  0.1146433E+02  0.2607750E+02  0.0000000E+00
Ar  5542  0.3980367E+02  0.1428311E+02  0.2569588E+02  0.0000000E+00
Ar  5543  0.3927331E+02  0.1102408E+02  0.2886774E+02  0.0000000E+00
Ar  5544  0.3619772E+02  0.1444657E+02  0.2914667E+02  0.0000000E+00
Ar  5545  0.3652830E+02  0.1200145E+02  0.3162458E+02  0.0000000E+00
Ar  5546  0.3929795E+02  0.1421630E+02  0.3175346E+02  0.0000000E+00
Ar  5547  0.3866242E+02  0.1218725E+02  0.3458689E+02  0.0000000E+00
Ar  5548  0.3620198E+02  0.1480832E+02  0.3449413E+02  0.0000000E+00
Ar  5549  0.3596290E+02  0.1225675E+02  0.3717735E+02  0.0000000E+00
Ar  5550  0.3872905E+02  0.1475865E+02  0.3694327E+02  0.0000000E+00
Ar  5551  0.3856041E+02  0.1181772E+02  0.3979429E+02  0.0000000E+00
Ar  5552  0.3529158E+02  0.1447785E+02  0.4007393E+02  0.0000000E+00
Ar  5553  0.3607210E+02  0.1195523E+02  0.4293681E+02  0.0000000E+00
Ar  5554  0.3919632E+02  0.1419452E+02  0.4351654E+02  0.0000000E+00
Ar  5555  0.3895386E+02  0.1170605E+02  0.4652635E+02  0.0000000E+00
Ar  5556  0.3578786E+02  0.1448137E+02  0.4578320E+02  0.0000000E+00
Ar  5557  0.3543817E+02  0.1143507E+02  0.4868553E+02  0.0000000E+00
Ar  5558  0.3877014E+02  0.1422304E+02  0.4926557E+02  0.0000000E+00
Ar  5559  0.3838553E+02  0.1180270E+02  0.5232653E+02  0.0000000E+00
Ar  5560  0.3560401E+02  0.1450016E+02  0.5176996E+02  0.0000000E+00
Ar  5561  0.3571174E+02  0.1179228E+02  0.5506674E+02  0.0000000E+00
Ar  5562  0.3903400E+02  0.1427795E+02  0.5480288E+02  0.0000000E+00
Ar  5563  0.3870949E+02  0.1140442E+02  0.5745241E+02  0.0000000E+00
Ar  5564  0.3588186E+02  0.1446368E+02  0.5728239E+02  0.0000000E+00
Ar  5565  0.3576163E+02  0.1104575E+02  0.6029238E+02  0.0000000E+00
Ar  5566  0.3810371E+02  0.1428968E+02  0.6006529E+02  0.0000000E+00
Ar  5567  0.3897839E+02  0.1195662E+02  0.6286548E+02  0.0000000E+00
Ar  5568  0.3589849E+02  0.1428959E+02  0.6320100E+02  0.0000000E+00
Ar  5569  0.3613463E+02  0.1172276E+02  0.6580490E+02  0.0000000E+00
Ar  5570  0.3878841E+02  0.1448216E+02  0.6586755E+02  0.0000000E+00
Ar  5571  0.3847411E+02  0.1223598E+02  0.6871631E+02  0.0000000E+00
Ar  5572  0.3590188E+02  0.1484213E+02  0.6928520E+02  0.0000000E+00
Ar  5573  0.3584991E+02  0.1171750E+02  0.7110169E+02  0.0000000E+00
Ar  5574  0.3883311E+02  0.1478820E+02  0.7201472E+02  0.0000000E+00
Ar  5575  0.3913763E+02  0.1144310E+02  0.7418466E+02  0.0000000E+00
Ar  5576  0.3604504E+02  0.1397875E+02  0.7399358E+02  0.0000000E+00
Ar  5577  0.3637948E+02  0.1136338E+02  0.7705266E+02  0.0000000E+00
Ar  5578  0.3940253E+02  0.1392357E+02  0.7713241E+02  0.0000000E+00
Ar  5579  0.3946847E+02  0.1160011E+02  0.7951568E+02  0.0000000E+00
Ar  5580  0.3709096E+02  0.1431497E+02  0.7942224E+02  0.0000000E+00
Ar  5581  0.3615118E+02  0.1752928E+02  0.8328268E+02  0.0000000E+00
Ar  5582  0.3951966E+02  0.2024711E+02  0.8301431E+02  0.0000000E+00
Ar  5583  0.3954942E+02  0.1729275E+02  0.9052174E+00  0.0000000E+00
Ar  5584  0.3650628E+02  0.2051292E+02  0.1155272E+01  0.0000000E+00
Ar  5585  0.3589368E+02  0.1702173E+02  0.4115270E+01  0.0000000E+00
Ar  5586  0.3927322E+02  0.2001753E+02  0.3524897E+01  0.0000000E+00
Ar  5587  0.3944395E+02  0.1756598E+02  0.6828441E+01  0.0000000E+00
Ar  5588  0.3653543E+02  0.2031111E+02  0.7005983E+01  0.0000000E+00
Ar  5589  0.3652876E+02  0.1730808E+02  0.9419825E+01  0.0000000E+00
Ar  5590  0.3893486E+02  0.2046891E+02  0.9956217E+01  0.0000000E+00
Ar  5591  0.3925331E+02  0.1762337E+02  0.1187192E+02  0.0000000E+00
Ar  5592  0.3683948E+02  0.2065710E+02  0.1305873E+02  0.0000000E+00
Ar  5593  0.3614288E+02  0.1752063E+02  0.1528571E+02  0.0000000E+00
Ar  5594  0.3931818E+02  0.1948304E+02  0.1618522E+02  0.0000000E+00
Ar  5595  0.3904377E+02  0.1744023E+02  0.1917415E+02  0.0000000E+00
Ar  5596  0.3627079E+02  0.1991692E+02  0.1863002E+02  0.0000000E+00
Ar  5597  0.3626745E+02  0.1722202E+02  0.2114502E+02  0.0000000E+00
Ar  5598  0.3905840E+02  0.2027530E+02  0.2097895E+02  0.0000000E+00
Ar  5599  0.3956953E+02  0.1784172E+02  0.2377144E+02  0.0000000E+00
Ar  5600  0.3631925E+02  0.2016803E+02  0.2343200E+02  0.0000000E+00
Ar  5601  0.3667705E+02  0.1688231E+02  0.2620410E+02  0.0000000E+00
Ar  5602  0.3940361E+02  0.2008694E+02  0.2646291E+02  0.0000000E+00
Ar  5603  0.3921592E+02  0.1660273E+02  0.2870463E+02  0.0000000E+00
Ar  5604  0.3595189E+02  0.1966605E+02  0.2851083E+02  0.0000000E+00
Ar  5605  0.3635131E+02  0.1762893E+02  0.3189527E+02  0.0000000E+00
Ar  5606  0.3921430E+02  0.1991511E+02  0.3123349E+02  0.0000000E+00
Ar  5607  0.3945387E+02  0.1725636E+02  0.3453888E+02  0.0000000E+00
Ar  5608  0.3654703E+02  0.2025695E+02  0.3442084E+02  0.0000000E+00
Ar  5609  0.3595811E+02  0.1763903E+02  0.3768650E+02  0.0000000E+00
Ar  5610  0.3921318E+02  0.2086223E+02  0.3719435E+02  0.0000000E+00
Ar  5611  0.3894711E+02  0.1764216E+02  0.4053921E+02  0.0000000E+00
Ar  5612  0.3612500E+02  0.2011327E+02  0.4080079E+02  0.0000000E+00
Ar  5613  0.3654539E+02  0.1681053E+02  0.4310221E+02  0.0000000E+00
Ar  5614  0.3876851E+02  0.2007212E+02  0.4316751E+02  0.0000000E+00
Ar  5615  0.3889955E+02  0.1693816E+02  0.4619612E+02  0.0000000E+00
Ar  5616  0.3615807E+02  0.1945913E+02  0.4575419E+02  0.0000000E+00
Ar  5617  0.3559710E+02  0.1712343E+02  0.4949705E+02  0.0000000E+00
Ar  5618  0.3852413E+02  0.1962001E+02  0.4863645E+02  0.0000000E+00
Ar  5619  0.3879993E+02  0.1706215E+02  0.5176416E+02  0.0000000E+00
Ar  5620  0.3596972E+02  0.2067468E+02  0.5229969E+02  0.0000000E+00
Ar  5621  0.3618509E+02  0.1760343E+02  0.5460179E+02  0.0000000E+00
Ar  5622  0.3933541E+02  0.2009738E+02  0.5428941E+02  0.0000000E+00
Ar  5623  0.3930575E+02  0.1819778E+02  0.5758962E+02  0.0000000E+00
Ar  5624  0.3578280E+02  0.2043721E+02  0.5719864E+02  0.0000000E+00
Ar  5625  0.3686876E+02  0.1750013E+02  0.5993096E+02  0.0000000E+00
Ar  5626  0.3934367E+02  0.2079600E+02  0.6060463E+02  0.0000000E+00
Ar  5627  0.3912439E+02  0.1667922E+02  0.6321170E+02  0.0000000E+00
Ar  5628  0.3585349E+02  0.2063039E+02  0.6291129E+02  0.0000000E+00
Ar  5629  0.3595364E+02  0.1691598E+02  0.6582964E+02  0.0000000E+00
Ar  5630  0.3857767E+02  0.1902579E+02  0.6582762E+02  0.0000000E+00
Ar  5631  0.3850367E+02  0.1715301E+02  0.6909253E+02  0.0000000E+00
Ar  5632  0.3610158E+02  0.2016358E+02  0.6830744E+02  0.0000000E+00
Ar  5633  0.3571417E+02  0.1808872E+02  0.7141023E+02  0.0000000E+00
Ar  5634  0.3888993E+02  0.2043743E+02  0.7200538E+02  0.0000000E+00
Ar  5635  0.3919193E+02  0.1710821E+02  0.7474958E+02  0.0000000E+00
Ar  5636  0.3686708E+02  0.2038438E+02  0.7486568E+02  0.0000000E+00
Ar  5637  0.3612404E+02  0.1750241E+02  0.7714089E+02  0.0000000E+00
Ar  5638  0.3935125E+02  0.2023026E+02  0.7780361E+02  0.0000000E+00
Ar  5639  0.3867677E+02  0.1741881E+02  0.7978495E+02  0.0000000E+00
Ar  5640  0.3641512E+02  0.2006862E+02  0.8037964E+02  0.0000000E+00
Ar  5641  0.3615231E+02  0.2333617E+02  0.8316260E+02  0.0000000E+00
Ar  5642  0.3885659E+02  0.2611299E+02  0.8301805E+02  0.0000000E+00
Ar  5643  0.3952630E+02  0.2308032E+02  0.8315288E+00  0.0000000E+00
Ar  5644  0.3687230E+02  0.2578120E+02  0.1774715E+01  0.0000000E+00
Ar  5645  0.3621189E+02  0.2244903E+02  0.4124788E+01  0.0000000E+00
Ar  5646  0.3967424E+02  0.2546658E+02  0.3852084E+01  0.0000000E+00
Ar  5647  0.3902858E+02  0.2291441E+02  0.6423631E+01  0.0000000E+00
Ar  5648  0.3604787E+02  0.2640257E+02  0.6743437E+01  0.0000000E+00
Ar  5649  0.3643692E+02  0.2363697E+02  0.9378281E+01  0.0000000E+00
Ar  5650  0.3901846E+02  0.2573510E+02  0.9238182E+01  0.0000000E+00
Ar  5651  0.3947692E+02  0.2293478E+02  0.1306779E+02  0.0000000E+00
Ar  5652  0.3639001E+02  0.2488072E+02  0.1334569E+02  0.0000000E+00
Ar  5653  0.3712075E+02  0.2311443E+02  0.1639136E+02  0.0000000E+00
Ar  5654  0.3951894E+02  0.2592414E+02  0.1585575E+02  0.0000000E+00
Ar  5655  0.3984142E+02  0.2303854E+02  0.1825684E+02  0.0000000E+00
Ar  5656  0.3616371E+02  0.2676755E+02  0.1813798E+02  0.0000000E+00
Ar  5657  0.3630022E+02  0.2279324E+02  0.2114049E+02  0.0000000E+00
Ar  5658  0.3977144E+02  0.2558566E+02  0.2045312E+02  0.0000000E+00
Ar  5659  0.3939449E+02  0.2352727E+02  0.2394231E+02  0.0000000E+00
Ar  5660  0.3655238E+02  0.2557687E+02  0.2328153E+02  0.0000000E+00
Ar  5661  0.3623772E+02  0.2320906E+02  0.2687663E+02  0.0000000E+00
Ar  5662  0.3933368E+02  0.2624973E+02  0.2648424E+02  0.0000000E+00
Ar  5663  0.3899735E+02  0.2360958E+02  0.2921891E+02  0.0000000E+00
Ar  5664  0.3639226E+02  0.2605899E+02  0.2954092E+02  0.0000000E+00
Ar  5665  0.3620060E+02  0.2296800E+02  0.3169973E+02  0.0000000E+00
Ar  5666  0.3926802E+02  0.2655963E+02  0.3213363E+02  0.0000000E+00
Ar  5667  0.3937561E+02  0.2294693E+02  0.3435607E+02  0.0000000E+00
Ar  5668  0.3676454E+02  0.2561082E+02  0.3449050E+02  0.0000000E+00
Ar  5669  0.3636724E+02  0.2381427E+02  0.3775801E+02  0.0000000E+00
Ar  5670  0.3933365E+02  0.2589869E+02  0.3748432E+02  0.0000000E+00
Ar  5671  0.3944099E+02  0.2303750E+02  0.4010233E+02  0.0000000E+00
Ar  5672  0.3643517E+02  0.2587372E+02  0.4082108E+02  0.0000000E+00
Ar  5673  0.3657248E+02  0.2306977E+02  0.4348594E+02  0.0000000E+00
Ar  5674  0.4003196E+02  0.2653450E+02  0.4367607E+02  0.0000000E+00
Ar  5675  0.3906261E+02  0.2226812E+02  0.4571460E+02  0.0000000E+00
Ar  5676  0.3629878E+02  0.2607886E+02  0.4618632E+02  0.0000000E+00
Ar  5677  0.3690905E+02  0.2388573E+02  0.4882665E+02  0.0000000E+00
Ar  5678  0.3985679E+02  0.2590321E+02  0.4878174E+02  0.0000000E+00
Ar  5679  0.3941107E+02  0.2294585E+02  0.5186148E+02  0.0000000E+00
Ar  5680  0.3592191E+02  0.2574196E+02  0.5164360E+02  0.0000000E+00
Ar  5681  0.3585284E+02  0.2309880E+02  0.5497261E+02  0.0000000E+00
Ar  5682  0.3903922E+02  0.2532373E+02  0.5487989E+02  0.0000000E+00
Ar  5683  0.3869463E+02  0.2268192E+02  0.5730654E+02  0.0000000E+00
Ar  5684  0.3612699E+02  0.2602061E+02  0.5710934E+02  0.0000000E+00
Ar  5685  0.3682364E+02  0.2304472E+02  0.6010791E+02  0.0000000E+00
Ar  5686  0.3882979E+02  0.2626544E+02  0.6029070E+02  0.0000000E+00
Ar  5687  0.3915880E+02  0.2251454E+02  0.6373939E+02  0.0000000E+00
Ar  5688  0.3601310E+02  0.2553570E+02  0.6282118E+02  0.0000000E+00
Ar  5689  0.3586600E+02  0.2305677E+02  0.6620293E+02  0.0000000E+00
Ar  5690  0.3822687E+02  0.2642302E+02  0.6560796E+02  0.0000000E+00
Ar  5691  0.3873996E+02  0.2281354E+02  0.6823271E+02  0.0000000E+00
Ar  5692  0.3673951E+02  0.2625518E+02  0.6926263E+02  0.0000000E+00
Ar  5693  0.3648595E+02  0.2315133E+02  0.7153218E+02  0.0000000E+00
Ar  5694  0.3937504E+02  0.2560915E+02  0.7161934E+02  0.0000000E+00
Ar  5695  0.3915738E+02  0.2307397E+02  0.7432750E+02  0.0000000E+00
Ar  5696  0.3675441E+02  0.2608980E+02  0.7433813E+02  0.0000000E+00
Ar  5697  0.3710774E+02  0.2294190E+02  0.7765183E+02  0.0000000E+00
Ar  5698  0.3968388E+02  0.2548447E+02  0.7767820E+02  0.0000000E+00
Ar  5699  0.3903249E+02  0.2296666E+02  0.8067245E+02  0.0000000E+00
Ar  5700  0.3638911E+02  0.2619969E+02  0.8005996E+02  0.0000000E+00
Ar  5701  0.3668861E+02  0.2891918E+02  0.8317330E+02  0.0000000E+00
Ar  5702  0.3892531E+02  0.3171987E+02  0.8258302E+02  0.0000000E+00
Ar  5703  0.3951508E+02  0.2886171E+02  0.1597075E+01  0.0000000E+00
Ar  5704  0.3675655E+02  0.3156526E+02  0.1170563E+01  0.0000000E+00
Ar  5705  0.3611429E+02  0.2891230E+02  0.3547286E+01  0.0000000E+00
Ar  5706  0.3937908E+02  0.3142685E+02  0.4507338E+01  0.0000000E+00
Ar  5707  0.3900442E+02  0.2836076E+02  0.6734655E+01  0.0000000E+00
Ar  5708  0.3675238E+02  0.3155241E+02  0.7286359E+01  0.0000000E+00
Ar  5709  0.3631776E+02  0.2788572E+02  0.1022750E+02  0.0000000E+00
Ar  5710  0.3896132E+02  0.3114094E+02  0.1048978E+02  0.0000000E+00
Ar  5711  0.3897722E+02  0.2818584E+02  0.1269876E+02  0.0000000E+00
Ar  5712  0.3579807E+02  0.3135525E+02  0.1320741E+02  0.0000000E+00
Ar  5713  0.3639762E+02  0.2872962E+02  0.1536123E+02  0.0000000E+00
Ar  5714  0.3903124E+02  0.3090431E+02  0.1523884E+02  0.0000000E+00
Ar  5715  0.3939104E+02  0.2934476E+02  0.1837018E+02  0.0000000E+00
Ar  5716  0.3613994E+02  0.3145778E+02  0.1780640E+02  0.0000000E+00
Ar  5717  0.3595542E+02  0.2890141E+02  0.2121440E+02  0.0000000E+00
Ar  5718  0.3890828E+02  0.3116951E+02  0.2158275E+02  0.0000000E+00
Ar  5719  0.3925529E+02  0.2788963E+02  0.2349155E+02  0.0000000E+00
Ar  5720  0.3646527E+02  0.3125273E+02  0.2374727E+02  0.0000000E+00
Ar  5721  0.3640988E+02  0.2797240E+02  0.2652810E+02  0.0000000E+00
Ar  5722  0.3972398E+02  0.3162355E+02  0.2655279E+02  0.0000000E+00
Ar  5723  0.3900687E+02  0.2888845E+02  0.2896395E+02  0.0000000E+00
Ar  5724  0.3621093E+02  0.3139203E+02  0.2885866E+02  0.0000000E+00
Ar  5725  0.3649057E+02  0.2875789E+02  0.3218602E+02  0.0000000E+00
Ar  5726  0.3935456E+02  0.3167432E+02  0.3202639E+02  0.0000000E+00
Ar  5727  0.3980150E+02  0.2893017E+02  0.3462118E+02  0.0000000E+00
Ar  5728  0.3651819E+02  0.3098180E+02  0.3499686E+02  0.0000000E+00
Ar  5729  0.3601015E+02  0.2826398E+02  0.3790222E+02  0.0000000E+00
Ar  5730  0.3962272E+02  0.3136263E+02  0.3816986E+02  0.0000000E+00
Ar  5731  0.3930965E+02  0.2897229E+02  0.4067721E+02  0.0000000E+00
Ar  5732  0.3648581E+02  0.3103835E+02  0.4100979E+02  0.0000000E+00
Ar  5733  0.3670452E+02  0.2817111E+02  0.4350732E+02  0.0000000E+00
Ar  5734  0.3885173E+02  0.3132507E+02  0.4396942E+02  0.0000000E+00
Ar  5735  0.3879284E+02  0.2881155E+02  0.4673326E+02  0.0000000E+00
Ar  5736  0.3584232E+02  0.3124068E+02  0.4614797E+02  0.0000000E+00
Ar  5737  0.3563015E+02  0.2836669E+02  0.4911650E+02  0.0000000E+00
Ar  5738  0.3986547E+02  0.3043638E+02  0.5007639E+02  0.0000000E+00
Ar  5739  0.3857397E+02  0.2798078E+02  0.5219415E+02  0.0000000E+00
Ar  5740  0.3604235E+02  0.3114136E+02  0.5178901E+02  0.0000000E+00
Ar  5741  0.3580606E+02  0.2890232E+02  0.5452167E+02  0.0000000E+00
Ar  5742  0.3935547E+02  0.3172361E+02  0.5437830E+02  0.0000000E+00
Ar  5743  0.3851667E+02  0.2868106E+02  0.5683261E+02  0.0000000E+00
Ar  5744  0.3561584E+02  0.3106309E+02  0.5723260E+02  0.0000000E+00
Ar  5745  0.3593007E+02  0.2852853E+02  0.5982268E+02  0.0000000E+00
Ar  5746  0.3886275E+02  0.3123824E+02  0.6038536E+02  0.0000000E+00
Ar  5747  0.3825155E+02  0.2881329E+02  0.6283303E+02  0.0000000E+00
Ar  5748  0.3580775E+02  0.3169910E+02  0.6343153E+02  0.0000000E+00
Ar  5749  0.3602031E+02  0.2876706E+02  0.6598965E+02  0.0000000E+00
Ar  5750  0.3903145E+02  0.3155174E+02  0.6585624E+02  0.0000000E+00
Ar  5751  0.3902048E+02  0.2890854E+02  0.6910240E+02  0.0000000E+00
Ar  5752  0.3650502E+02  0.3170264E+02  0.6845024E+02  0.0000000E+00
Ar  5753  0.3689408E+02  0.2900359E+02  0.7181689E+02  0.0000000E+00
Ar  5754  0.3964634E+02  0.3160724E+02  0.7162067E+02  0.0000000E+00
Ar  5755  0.3946717E+02  0.2843110E+02  0.7604976E+02  0.0000000E+00
Ar  5756  0.3662220E+02  0.3107264E+02  0.7468314E+02  0.0000000E+00
Ar  5757  0.3629564E+02  0.2844085E+02  0.7747296E+02  0.0000000E+00
Ar  5758  0.3964841E+02  0.3174628E+02  0.7780684E+02  0.0000000E+00
Ar  5759  0.3917803E+02  0.2874188E+02  0.7966812E+02  0.0000000E+00
Ar  5760  0.3661333E+02  0.3111905E+02  0.7984070E+02  0.0000000E+00
Ar  5761  0.3676367E+02  0.3456321E+02  0.8253013E+02  0.0000000E+00
Ar  5762  0.3930086E+02  0.3670265E+02  0.8288730E+02  0.0000000E+00
Ar  5763  0.3976324E+02  0.3454832E+02  0.1153369E+01  0.0000000E+00
Ar  5764  0.3680918E+02  0.3655314E+02  0.1693603E+01  0.0000000E+00
Ar  5765  0.3602595E+02  0.3379196E+02  0.4523691E+01  0.0000000E+00
Ar  5766  0.3917095E+02  0.3640447E+02  0.4748164E+01  0.0000000E+00
Ar  5767  0.3918133E+02  0.3417601E+02  0.7819770E+01  0.0000000E+00
Ar  5768  0.3667514E+02  0.3670645E+02  0.7578662E+01  0.0000000E+00
Ar  5769  0.3607776E+02  0.3414850E+02  0.1015138E+02  0.0000000E+00
Ar  5770  0.3952336E+02  0.3708474E+02  0.9786890E+01  0.0000000E+00
Ar  5771  0.3917124E+02  0.3416516E+02  0.1238235E+02  0.0000000E+00
Ar  5772  0.3660665E+02  0.3686147E+02  0.1271887E+02  0.0000000E+00
Ar  5773  0.3664792E+02  0.3434131E+02  0.1591298E+02  0.0000000E+00
Ar  5774  0.3951121E+02  0.3698778E+02  0.1536994E+02  0.0000000E+00
Ar  5775  0.3897646E+02  0.3339827E+02  0.1850086E+02  0.0000000E+00
Ar  5776  0.3653089E+02  0.3690883E+02  0.1831437E+02  0.0000000E+00
Ar  5777  0.3632251E+02  0.3362013E+02  0.2106319E+02  0.0000000E+00
Ar  5778  0.3906118E+02  0.3621103E+02  0.2088826E+02  0.0000000E+00
Ar  5779  0.3977571E+02  0.3401814E+02  0.2402602E+02  0.0000000E+00
Ar  5780  0.3695148E+02  0.3675556E+02  0.2353551E+02  0.0000000E+00
Ar  5781  0.3669934E+02  0.3401528E+02  0.2608285E+02  0.0000000E+00
Ar  5782  0.3923882E+02  0.3711818E+02  0.2660324E+02  0.0000000E+00
Ar  5783  0.3927188E+02  0.3447084E+02  0.2911375E+02  0.0000000E+00
Ar  5784  0.3670531E+02  0.3701232E+02  0.2956251E+02  0.0000000E+00
Ar  5785  0.3650345E+02  0.3388979E+02  0.3216079E+02  0.0000000E+00
Ar  5786  0.3933975E+02  0.3697749E+02  0.3259723E+02  0.0000000E+00
Ar  5787  0.3919666E+02  0.3341575E+02  0.3501822E+02  0.0000000E+00
Ar  5788  0.3657834E+02  0.3662376E+02  0.3485905E+02  0.0000000E+00
Ar  5789  0.3664848E+02  0.3367813E+02  0.3740456E+02  0.0000000E+00
Ar  5790  0.3900273E+02  0.3664485E+02  0.3730378E+02  0.0000000E+00
Ar  5791  0.3936891E+02  0.3377584E+02  0.4101374E+02  0.0000000E+00
Ar  5792  0.3666340E+02  0.3635321E+02  0.4003411E+02  0.0000000E+00
Ar  5793  0.3652323E+02  0.3388371E+02  0.4388696E+02  0.0000000E+00
Ar  5794  0.3843202E+02  0.3699894E+02  0.4328721E+02  0.0000000E+00
Ar  5795  0.3899840E+02  0.3306354E+02  0.4723339E+02  0.0000000E+00
Ar  5796  0.3650524E+02  0.3697805E+02  0.4634924E+02  0.0000000E+00
Ar  5797  0.3605337E+02  0.3423469E+02  0.4918292E+02  0.0000000E+00
Ar  5798  0.3891969E+02  0.3679415E+02  0.4898178E+02  0.0000000E+00
Ar  5799  0.3897778E+02  0.3394132E+02  0.5171811E+02  0.0000000E+00
Ar  5800  0.3620298E+02  0.3673440E+02  0.5169851E+02  0.0000000E+00
Ar  5801  0.3585547E+02  0.3389227E+02  0.5408730E+02  0.0000000E+00
Ar  5802  0.3865212E+02  0.3695225E+02  0.5533275E+02  0.0000000E+00
Ar  5803  0.3803682E+02  0.3412266E+02  0.5735618E+02  0.0000000E+00
Ar  5804  0.3538759E+02  0.3705358E+02  0.5752507E+02  0.0000000E+00
Ar  5805  0.3603379E+02  0.3417620E+02  0.6068656E+02  0.0000000E+00
Ar  5806  0.3879115E+02  0.3730402E+02  0.6017794E+02  0.0000000E+00
Ar  5807  0.3905596E+02  0.3421834E+02  0.6339346E+02  0.0000000E+00
Ar  5808  0.3659266E+02  0.3729855E+02  0.6316082E+02  0.0000000E+00
Ar  5809  0.3652844E+02  0.3451398E+02  0.6611175E+02  0.0000000E+00
Ar  5810  0.3924995E+02  0.3730448E+02  0.6558835E+02  0.0000000E+00
Ar  5811  0.3919712E+02  0.3422684E+02  0.6877246E+02  0.0000000E+00
Ar  5812  0.3616608E+02  0.3728339E+02  0.6857158E+02  0.0000000E+00
Ar  5813  0.3636441E+02  0.3372320E+02  0.7133291E+02  0.0000000E+00
Ar  5814  0.3923190E+02  0.3737458E+02  0.7179382E+02  0.0000000E+00
Ar  5815  0.3907972E+02  0.3432642E+02  0.7486929E+02  0.0000000E+00
Ar  5816  0.3661441E+02  0.3695294E+02  0.7409937E+02  0.0000000E+00
Ar  5817  0.3710922E+02  0.3441873E+02  0.7769081E+02  0.0000000E+00
Ar  5818  0.3945062E+02  0.3749558E+02  0.7727949E+02  0.0000000E+00
Ar  5819  0.3955931E+02  0.3457591E+02  0.8017307E+02  0.0000000E+00
Ar  5820  0.3671240E+02  0.3685911E+02  0.7997370E+02  0.0000000E+00
Ar  5821  0.3638297E+02  0.3986678E+02  0.8313791E+02  0.0000000E+00
Ar  5822  0.3949312E+02  0.4268292E+02  0.8278950E+02  0.0000000E+00
Ar  5823  0.3896602E+02  0.4029349E+02  0.1691655E+01  0.0000000E+00
Ar  5824  0.3634254E+02  0.4262332E+02  0.1472917E+01  0.0000000E+00
Ar  5825  0.3669321E+02  0.3909617E+02  0.5005261E+01  0.0000000E+00
Ar  5826  0.3942529E+02  0.4266935E+02  0.4605643E+01  0.0000000E+00
Ar  5827  0.3946492E+02  0.3954708E+02  0.7088433E+01  0.0000000E+00
Ar  5828  0.3699726E+02  0.4235351E+02  0.7514496E+01  0.0000000E+00
Ar  5829  0.3695684E+02  0.3959779E+02  0.1032940E+02  0.0000000E+00
Ar  5830  0.3927282E+02  0.4237308E+02  0.9822801E+01  0.0000000E+00
Ar  5831  0.3960977E+02  0.4008967E+02  0.1257037E+02  0.0000000E+00
Ar  5832  0.3622185E+02  0.4239789E+02  0.1354252E+02  0.0000000E+00
Ar  5833  0.3628959E+02  0.3918182E+02  0.1531739E+02  0.0000000E+00
Ar  5834  0.3940464E+02  0.4093833E+02  0.1577873E+02  0.0000000E+00
Ar  5835  0.3867274E+02  0.3949328E+02  0.1901986E+02  0.0000000E+00
Ar  5836  0.3671445E+02  0.4228691E+02  0.1769380E+02  0.0000000E+00
Ar  5837  0.3598485E+02  0.4012943E+02  0.2087958E+02  0.0000000E+00
Ar  5838  0.3911104E+02  0.4262392E+02  0.2113167E+02  0.0000000E+00
Ar  5839  0.3917320E+02  0.3992101E+02  0.2396631E+02  0.0000000E+00
Ar  5840  0.3637326E+02  0.4265720E+02  0.2385149E+02  0.0000000E+00
Ar  5841  0.3630828E+02  0.3923759E+02  0.2649761E+02  0.0000000E+00
Ar  5842  0.3936782E+02  0.4258737E+02  0.2680768E+02  0.0000000E+00
Ar  5843  0.3868733E+02  0.3992453E+02  0.2975803E+02  0.0000000E+00
Ar  5844  0.3631819E+02  0.4240959E+02  0.2977308E+02  0.0000000E+00
Ar  5845  0.3616190E+02  0.3939687E+02  0.3242462E+02  0.0000000E+00
Ar  5846  0.3884849E+02  0.4243510E+02  0.3253508E+02  0.0000000E+00
Ar  5847  0.3870881E+02  0.3988559E+02  0.3493111E+02  0.0000000E+00
Ar  5848  0.3558497E+02  0.4251350E+02  0.3515526E+02  0.0000000E+00
Ar  5849  0.3617786E+02  0.3945867E+02  0.3786994E+02  0.0000000E+00
Ar  5850  0.3877870E+02  0.4295618E+02  0.3741403E+02  0.0000000E+00
Ar  5851  0.3942102E+02  0.3990694E+02  0.4094010E+02  0.0000000E+00
Ar  5852  0.3620265E+02  0.4283672E+02  0.4050722E+02  0.0000000E+00
Ar  5853  0.3646609E+02  0.4004047E+02  0.4314529E+02  0.0000000E+00
Ar  5854  0.3859066E+02  0.4268873E+02  0.4324220E+02  0.0000000E+00
Ar  5855  0.3928687E+02  0.3978770E+02  0.4646150E+02  0.0000000E+00
Ar  5856  0.3536918E+02  0.4250793E+02  0.4582025E+02  0.0000000E+00
Ar  5857  0.3629165E+02  0.3949570E+02  0.4870501E+02  0.0000000E+00
Ar  5858  0.3867630E+02  0.4283600E+02  0.4988825E+02  0.0000000E+00
Ar  5859  0.3856668E+02  0.3969591E+02  0.5219428E+02  0.0000000E+00
Ar  5860  0.3641281E+02  0.4259321E+02  0.5253463E+02  0.0000000E+00
Ar  5861  0.3607835E+02  0.3996148E+02  0.5527101E+02  0.0000000E+00
Ar  5862  0.3931548E+02  0.4279139E+02  0.5520683E+02  0.0000000E+00
Ar  5863  0.3863013E+02  0.3991327E+02  0.5802935E+02  0.0000000E+00
Ar  5864  0.3620737E+02  0.4257969E+02  0.5812800E+02  0.0000000E+00
Ar  5865  0.3588422E+02  0.3999240E+02  0.6026633E+02  0.0000000E+00
Ar  5866  0.3944835E+02  0.4266229E+02  0.5999340E+02  0.0000000E+00
Ar  5867  0.3931924E+02  0.4008997E+02  0.6313499E+02  0.0000000E+00
Ar  5868  0.3656187E+02  0.4273872E+02  0.6379931E+02  0.0000000E+00
Ar  5869  0.3641341E+02  0.3968796E+02  0.6603493E+02  0.0000000E+00
Ar  5870  0.3893203E+02  0.4208893E+02  0.6633884E+02  0.0000000E+00
Ar  5871  0.3914045E+02  0.3970658E+02  0.6911416E+02  0.0000000E+00
Ar  5872  0.3681426E+02  0.4308327E+02  0.6879058E+02  0.0000000E+00
Ar  5873  0.3614165E+02  0.4077339E+02  0.7185046E+02  0.0000000E+00
Ar  5874  0.3887268E+02  0.4357430E+02  0.7188318E+02  0.0000000E+00
Ar  5875  0.3876817E+02  0.4012752E+02  0.7410700E+02  0.0000000E+00
Ar  5876  0.3641690E+02  0.4341433E+02  0.7506122E+02  0.0000000E+00
Ar  5877  0.3646843E+02  0.3933576E+02  0.7733010E+02  0.0000000E+00
Ar  5878  0.3890479E+02  0.4282284E+02  0.7741985E+02  0.0000000E+00
Ar  5879  0.3898474E+02  0.3947466E+02  0.8082762E+02  0.0000000E+00
Ar  5880  0.3647645E+02  0.4256637E+02  0.8024571E+02  0.0000000E+00
Ar  5881  0.3614961E+02  0.4593283E+02  0.8295157E+02  0.0000000E+00
Ar  5882  0.3882711E+02  0.4811187E+02  0.8260637E+02  0.0000000E+00
Ar  5883  0.3964736E+02  0.4591116E+02  0.1699851E+01  0.0000000E+00
Ar  5884  0.3681565E+02  0.4783593E+02  0.1610481E+01  0.0000000E+00
Ar  5885  0.3624085E+02  0.4513276E+02  0.3931876E+01  0.0000000E+00
Ar  5886  0.3932851E+02  0.4814668E+02  0.4437557E+01  0.0000000E+00
Ar  5887  0.3892520E+02  0.4535398E+02  0.6588627E+01  0.0000000E+00
Ar  5888  0.3625813E+02  0.4770457E+02  0.7593671E+01  0.0000000E+00
Ar  5889  0.3648441E+02  0.4513793E+02  0.9936951E+01  0.0000000E+00
Ar  5890  0.3995774E+02  0.4823473E+02  0.1047296E+02  0.0000000E+00
Ar  5891  0.3916695E+02  0.4511973E+02  0.1230559E+02  0.0000000E+00
Ar  5892  0.3657020E+02  0.4861127E+02  0.1275596E+02  0.0000000E+00
Ar  5893  0.3691751E+02  0.4522821E+02  0.1576574E+02  0.0000000E+00
Ar  5894  0.3935633E+02  0.4802032E+02  0.1574180E+02  0.0000000E+00
Ar  5895  0.3924772E+02  0.4539592E+02  0.1833681E+02  0.0000000E+00
Ar  5896  0.3576796E+02  0.4796793E+02  0.1862795E+02  0.0000000E+00
Ar  5897  0.3642273E+02  0.4468246E+02  0.2085657E+02  0.0000000E+00
Ar  5898  0.3886949E+02  0.4789833E+02  0.2124487E+02  0.0000000E+00
Ar  5899  0.3908494E+02  0.4531846E+02  0.2365365E+02  0.0000000E+00
Ar  5900  0.3599369E+02  0.4809394E+02  0.2379910E+02  0.0000000E+00
Ar  5901  0.3668609E+02  0.4487249E+02  0.2738888E+02  0.0000000E+00
Ar  5902  0.4001360E+02  0.4761906E+02  0.2725285E+02  0.0000000E+00
Ar  5903  0.3904106E+02  0.4509572E+02  0.2997380E+02  0.0000000E+00
Ar  5904  0.3591932E+02  0.4774210E+02  0.2960136E+02  0.0000000E+00
Ar  5905  0.3598527E+02  0.4568792E+02  0.3225490E+02  0.0000000E+00
Ar  5906  0.3855874E+02  0.4854931E+02  0.3199173E+02  0.0000000E+00
Ar  5907  0.3871334E+02  0.4521041E+02  0.3478630E+02  0.0000000E+00
Ar  5908  0.3617126E+02  0.4839060E+02  0.3478865E+02  0.0000000E+00
Ar  5909  0.3579234E+02  0.4534561E+02  0.3747587E+02  0.0000000E+00
Ar  5910  0.3905797E+02  0.4799391E+02  0.3775647E+02  0.0000000E+00
Ar  5911  0.3918006E+02  0.4533641E+02  0.4084173E+02  0.0000000E+00
Ar  5912  0.3670614E+02  0.4781125E+02  0.4110374E+02  0.0000000E+00
Ar  5913  0.3578910E+02  0.4509353E+02  0.4327683E+02  0.0000000E+00
Ar  5914  0.3873145E+02  0.4754247E+02  0.4400542E+02  0.0000000E+00
Ar  5915  0.3834839E+02  0.4403958E+02  0.4657622E+02  0.0000000E+00
Ar  5916  0.3614891E+02  0.4806316E+02  0.4637550E+02  0.0000000E+00
Ar  5917  0.3581582E+02  0.4533090E+02  0.4903483E+02  0.0000000E+00
Ar  5918  0.3881003E+02  0.4720957E+02  0.4898461E+02  0.0000000E+00
Ar  5919  0.3947002E+02  0.4511702E+02  0.5233516E+02  0.0000000E+00
Ar  5920  0.3679531E+02  0.4753531E+02  0.5142812E+02  0.0000000E+00
Ar  5921  0.3620356E+02  0.4521745E+02  0.5493041E+02  0.0000000E+00
Ar  5922  0.3900671E+02  0.4839902E+02  0.5536751E+02  0.0000000E+00
Ar  5923  0.3857921E+02  0.4527578E+02  0.5815320E+02  0.0000000E+00
Ar  5924  0.3611370E+02  0.4863418E+02  0.5785674E+02  0.0000000E+00
Ar  5925  0.3647807E+02  0.4483282E+02  0.6091047E+02  0.0000000E+00
Ar  5926  0.3888730E+02  0.4797655E+02  0.6095478E+02  0.0000000E+00
Ar  5927  0.3922020E+02  0.4542250E+02  0.6404341E+02  0.0000000E+00
Ar  5928  0.3662242E+02  0.4839234E+02  0.6379605E+02  0.0000000E+00
Ar  5929  0.3633959E+02  0.4597187E+02  0.6654724E+02  0.0000000E+00
Ar  5930  0.3939181E+02  0.4878195E+02  0.6600284E+02  0.0000000E+00
Ar  5931  0.3924033E+02  0.4550954E+02  0.6815239E+02  0.0000000E+00
Ar  5932  0.3648527E+02  0.4933589E+02  0.6837437E+02  0.0000000E+00
Ar  5933  0.3638819E+02  0.4594584E+02  0.7122187E+02  0.0000000E+00
Ar  5934  0.3909479E+02  0.4829806E+02  0.7187345E+02  0.0000000E+00
Ar  5935  0.3956222E+02  0.4568885E+02  0.7486081E+02  0.0000000E+00
Ar  5936  0.3626871E+02  0.4844150E+02  0.7468787E+02  0.0000000E+00
Ar  5937  0.3621281E+02  0.4590128E+02  0.7805534E+02  0.0000000E+00
Ar  5938  0.3879508E+02  0.4860505E+02  0.7797342E+02  0.0000000E+00
Ar  5939  0.3883096E+02  0.4518075E+02  0.8056492E+02  0.0000000E+00
Ar  5940  0.3608719E+02  0.4871037E+02  0.8045532E+02  0.0000000E+00
Ar  5941  0.3658800E+02  0.5107997E+02  0.8327472E+02  0.0000000E+00
Ar  5942  0.3876271E+02  0.5405608E+02  0.8396300E+02  0.0000000E+00
Ar  5943  0.3965531E+02  0.5076337E+02  0.1294453E+01  0.0000000E+00
Ar  5944  0.3635086E+02  0.5390686E+02  0.2348374E+01  0.0000000E+00
Ar  5945  0.3690676E+02  0.5094463E+02  0.4060151E+01  0.0000000E+00
Ar  5946  0.3964083E+02  0.5388824E+02  0.3995228E+01  0.0000000E+00
Ar  5947  0.3917371E+02  0.5085303E+02  0.7489980E+01  0.0000000E+00
Ar  5948  0.3680701E+02  0.5350124E+02  0.6914749E+01  0.0000000E+00
Ar  5949  0.3610948E+02  0.5101307E+02  0.9931753E+01  0.0000000E+00
Ar  5950  0.3865835E+02  0.5382213E+02  0.1004499E+02  0.0000000E+00
Ar  5951  0.3939675E+02  0.5160414E+02  0.1301041E+02  0.0000000E+00
Ar  5952  0.3646859E+02  0.5458357E+02  0.1280545E+02  0.0000000E+00
Ar  5953  0.3652116E+02  0.5162979E+02  0.1479774E+02  0.0000000E+00
Ar  5954  0.3955036E+02  0.5391048E+02  0.1592430E+02  0.0000000E+00
Ar  5955  0.3855919E+02  0.5064521E+02  0.1832218E+02  0.0000000E+00
Ar  5956  0.3672929E+02  0.5393473E+02  0.1934125E+02  0.0000000E+00
Ar  5957  0.3591933E+02  0.5074235E+02  0.2123275E+02  0.0000000E+00
Ar  5958  0.3923334E+02  0.5280722E+02  0.2123710E+02  0.0000000E+00
Ar  5959  0.3945623E+02  0.5023632E+02  0.2435735E+02  0.0000000E+00
Ar  5960  0.3629426E+02  0.5378375E+02  0.2395884E+02  0.0000000E+00
Ar  5961  0.3686291E+02  0.5049986E+02  0.2668271E+02  0.0000000E+00
Ar  5962  0.3918869E+02  0.5359894E+02  0.2623572E+02  0.0000000E+00
Ar  5963  0.3949850E+02  0.5029545E+02  0.2905230E+02  0.0000000E+00
Ar  5964  0.3642320E+02  0.5339991E+02  0.2894546E+02  0.0000000E+00
Ar  5965  0.3593194E+02  0.5114662E+02  0.3189483E+02  0.0000000E+00
Ar  5966  0.3879637E+02  0.5335581E+02  0.3249210E+02  0.0000000E+00
Ar  5967  0.3912785E+02  0.5058375E+02  0.3473230E+02  0.0000000E+00
Ar  5968  0.3681990E+02  0.5378586E+02  0.3529601E+02  0.0000000E+00
Ar  5969  0.3658742E+02  0.5099727E+02  0.3743837E+02  0.0000000E+00
Ar  5970  0.3935885E+02  0.5299443E+02  0.3786859E+02  0.0000000E+00
Ar  5971  0.3905979E+02  0.5058488E+02  0.4077844E+02  0.0000000E+00
Ar  5972  0.3651491E+02  0.5355098E+02  0.4043747E+02  0.0000000E+00
Ar  5973  0.3603685E+02  0.5063875E+02  0.4328890E+02  0.0000000E+00
Ar  5974  0.3895883E+02  0.5394748E+02  0.4304352E+02  0.0000000E+00
Ar  5975  0.3875861E+02  0.5069365E+02  0.4652686E+02  0.0000000E+00
Ar  5976  0.3604217E+02  0.5322784E+02  0.4651643E+02  0.0000000E+00
Ar  5977  0.3724032E+02  0.5074495E+02  0.4966507E+02  0.0000000E+00
Ar  5978  0.3885966E+02  0.5374471E+02  0.4892605E+02  0.0000000E+00
Ar  5979  0.3941634E+02  0.5097806E+02  0.5260887E+02  0.0000000E+00
Ar  5980  0.3671240E+02  0.5355380E+02  0.5152692E+02  0.0000000E+00
Ar  5981  0.3665974E+02  0.5153214E+02  0.5485089E+02  0.0000000E+00
Ar  5982  0.3944059E+02  0.5428786E+02  0.5481326E+02  0.0000000E+00
Ar  5983  0.3895269E+02  0.5136398E+02  0.5798647E+02  0.0000000E+00
Ar  5984  0.3594734E+02  0.5380468E+02  0.5792344E+02  0.0000000E+00
Ar  5985  0.3640062E+02  0.5075272E+02  0.6072477E+02  0.0000000E+00
Ar  5986  0.3961460E+02  0.5397699E+02  0.6033788E+02  0.0000000E+00
Ar  5987  0.3883368E+02  0.5146161E+02  0.6312923E+02  0.0000000E+00
Ar  5988  0.3636146E+02  0.5395149E+02  0.6341885E+02  0.0000000E+00
Ar  5989  0.3656884E+02  0.5192058E+02  0.6623005E+02  0.0000000E+00
Ar  5990  0.3926622E+02  0.5405129E+02  0.6671626E+02  0.0000000E+00
Ar  5991  0.3962630E+02  0.5074109E+02  0.6933160E+02  0.0000000E+00
Ar  5992  0.3634519E+02  0.5384905E+02  0.6904629E+02  0.0000000E+00
Ar  5993  0.3690382E+02  0.5157772E+02  0.7206342E+02  0.0000000E+00
Ar  5994  0.3941698E+02  0.5388344E+02  0.7124958E+02  0.0000000E+00
Ar  5995  0.3923552E+02  0.5071834E+02  0.7489335E+02  0.0000000E+00
Ar  5996  0.3645274E+02  0.5388556E+02  0.7486502E+02  0.0000000E+00
Ar  5997  0.3663650E+02  0.5144594E+02  0.7743669E+02  0.0000000E+00
Ar  5998  0.3959060E+02  0.5389039E+02  0.7781169E+02  0.0000000E+00
Ar  5999  0.3922480E+02  0.5100716E+02  0.8052895E+02  0.0000000E+00
Ar  6000  0.3681145E+02  0.5355174E+02  0.8048730E+02  0.0000000E+00
Ar  6001  0.3630898E+02  0.5656793E+02  0.8372802E+02  0.0000000E+00
Ar  6002  0.3888669E+02  0.5916476E+02  0.8324344E+02  0.0000000E+00
Ar  6003  0.3947160E+02  0.5660853E+02  0.1739444E+01  0.0000000E+00
Ar  6004  0.3662426E+02  0.5946858E+02  0.1382192E+01  0.0000000E+00
Ar  6005  0.3702670E+02  0.5684433E+02  0.4357882E+01  0.0000000E+00
Ar  6006  0.3988322E+02  0.5922573E+02  0.4456054E+01  0.0000000E+00
Ar  6007  0.3958483E+02  0.5622366E+02  0.7352561E+01  0.0000000E+00
Ar  6008  0.3704695E+02  0.5930634E+02  0.6847511E+01  0.0000000E+00
Ar  6009  0.3691397E+02  0.5732989E+02  0.9579839E+01  0.0000000E+00
Ar  6010  0.3978564E+02  0.5966963E+02  0.1004359E+02  0.0000000E+00
Ar  6011  0.3960702E+02  0.5694287E+02  0.1291035E+02  0.0000000E+00
Ar  6012  0.3669688E+02  0.5925206E+02  0.1347020E+02  0.0000000E+00
Ar  6013  0.3685887E+02  0.5651985E+02  0.1581122E+02  0.0000000E+00
Ar  6014  0.3907082E+02  0.5896403E+02  0.1672120E+02  0.0000000E+00
Ar  6015  0.3961941E+02  0.5617414E+02  0.1931483E+02  0.0000000E+00
Ar  6016  0.3632601E+02  0.5959986E+02  0.1870354E+02  0.0000000E+00
Ar  6017  0.3605600E+02  0.5699802E+02  0.2130605E+02  0.0000000E+00
Ar  6018  0.3925402E+02  0.5950453E+02  0.2111114E+02  0.0000000E+00
Ar  6019  0.3870249E+02  0.5602217E+02  0.2384397E+02  0.0000000E+00
Ar  6020  0.3672754E+02  0.5896933E+02  0.2410526E+02  0.0000000E+00
Ar  6021  0.3655412E+02  0.5647344E+02  0.2670133E+02  0.0000000E+00
Ar  6022  0.3910591E+02  0.5885643E+02  0.2712260E+02  0.0000000E+00
Ar  6023  0.3950068E+02  0.5549072E+02  0.2934272E+02  0.0000000E+00
Ar  6024  0.3597728E+02  0.5904041E+02  0.2883387E+02  0.0000000E+00
Ar  6025  0.3555878E+02  0.5568751E+02  0.3228502E+02  0.0000000E+00
Ar  6026  0.3803990E+02  0.5830227E+02  0.3115265E+02  0.0000000E+00
Ar  6027  0.3948923E+02  0.5591644E+02  0.3503100E+02  0.0000000E+00
Ar  6028  0.3709842E+02  0.5870935E+02  0.3490951E+02  0.0000000E+00
Ar  6029  0.3587288E+02  0.5677663E+02  0.3777287E+02  0.0000000E+00
Ar  6030  0.3868115E+02  0.5882574E+02  0.3820492E+02  0.0000000E+00
Ar  6031  0.3933731E+02  0.5640807E+02  0.4046021E+02  0.0000000E+00
Ar  6032  0.3594732E+02  0.5940130E+02  0.4078734E+02  0.0000000E+00
Ar  6033  0.3637471E+02  0.5665028E+02  0.4279622E+02  0.0000000E+00
Ar  6034  0.3914253E+02  0.5924805E+02  0.4268470E+02  0.0000000E+00
Ar  6035  0.3821523E+02  0.5648313E+02  0.4584463E+02  0.0000000E+00
Ar  6036  0.3579555E+02  0.5970024E+02  0.4622394E+02  0.0000000E+00
Ar  6037  0.3562717E+02  0.5679839E+02  0.4894984E+02  0.0000000E+00
Ar  6038  0.3875332E+02  0.5890126E+02  0.4868604E+02  0.0000000E+00
Ar  6039  0.3896777E+02  0.5679047E+02  0.5202679E+02  0.0000000E+00
Ar  6040  0.3602766E+02  0.5939340E+02  0.5245054E+02  0.0000000E+00
Ar  6041  0.3649155E+02  0.5632612E+02  0.5487739E+02  0.0000000E+00
Ar  6042  0.3889736E+02  0.5977724E+02  0.5452909E+02  0.0000000E+00
Ar  6043  0.3873358E+02  0.5674293E+02  0.5751719E+02  0.0000000E+00
Ar  6044  0.3563657E+02  0.5965152E+02  0.5706731E+02  0.0000000E+00
Ar  6045  0.3569723E+02  0.5679216E+02  0.5993046E+02  0.0000000E+00
Ar  6046  0.3846745E+02  0.5958781E+02  0.5996768E+02  0.0000000E+00
Ar  6047  0.3852186E+02  0.5688765E+02  0.6281656E+02  0.0000000E+00
Ar  6048  0.3618460E+02  0.5991957E+02  0.6306789E+02  0.0000000E+00
Ar  6049  0.3706774E+02  0.5692923E+02  0.6609441E+02  0.0000000E+00
Ar  6050  0.3879817E+02  0.5992143E+02  0.6612883E+02  0.0000000E+00
Ar  6051  0.3930688E+02  0.5690078E+02  0.6909283E+02  0.0000000E+00
Ar  6052  0.3666120E+02  0.5961452E+02  0.6925708E+02  0.0000000E+00
Ar  6053  0.3722379E+02  0.5685610E+02  0.7228224E+02  0.0000000E+00
Ar  6054  0.3925590E+02  0.5955461E+02  0.7179144E+02  0.0000000E+00
Ar  6055  0.3931051E+02  0.5713730E+02  0.7508317E+02  0.0000000E+00
Ar  6056  0.3661318E+02  0.5949717E+02  0.7438181E+02  0.0000000E+00
Ar  6057  0.3648981E+02  0.5604856E+02  0.7749833E+02  0.0000000E+00
Ar  6058  0.3916527E+02  0.6001467E+02  0.7745713E+02  0.0000000E+00
Ar  6059  0.3846209E+02  0.5666653E+02  0.8053471E+02  0.0000000E+00
Ar  6060  0.3669263E+02  0.5955504E+02  0.8016818E+02  0.0000000E+00
Ar  6061  0.3599959E+02  0.6213866E+02  0.8286622E+02  0.0000000E+00
Ar  6062  0.3864718E+02  0.6584753E+02  0.8277539E+02  0.0000000E+00
Ar  6063  0.3892465E+02  0.6243877E+02  0.2243001E+01  0.0000000E+00
Ar  6064  0.3689866E+02  0.6600440E+02  0.1356098E+01  0.0000000E+00
Ar  6065  0.3664056E+02  0.6240234E+02  0.4977354E+01  0.0000000E+00
Ar  6066  0.3910156E+02  0.6511778E+02  0.4723915E+01  0.0000000E+00
Ar  6067  0.3988647E+02  0.6216334E+02  0.6629757E+01  0.0000000E+00
Ar  6068  0.3639352E+02  0.6562593E+02  0.7356697E+01  0.0000000E+00
Ar  6069  0.3708470E+02  0.6170711E+02  0.9635371E+01  0.0000000E+00
Ar  6070  0.3988593E+02  0.6545140E+02  0.8664938E+01  0.0000000E+00
Ar  6071  0.3918010E+02  0.6190149E+02  0.1294599E+02  0.0000000E+00
Ar  6072  0.3825489E+02  0.6525759E+02  0.1176203E+02  0.0000000E+00
Ar  6073  0.3652093E+02  0.6172167E+02  0.1593193E+02  0.0000000E+00
Ar  6074  0.3938154E+02  0.6461084E+02  0.1596276E+02  0.0000000E+00
Ar  6075  0.3907129E+02  0.6221181E+02  0.1855259E+02  0.0000000E+00
Ar  6076  0.3639370E+02  0.6486853E+02  0.1810675E+02  0.0000000E+00
Ar  6077  0.3623308E+02  0.6216585E+02  0.2138024E+02  0.0000000E+00
Ar  6078  0.3909903E+02  0.6476896E+02  0.2079971E+02  0.0000000E+00
Ar  6079  0.3931065E+02  0.6218087E+02  0.2394915E+02  0.0000000E+00
Ar  6080  0.3614188E+02  0.6514075E+02  0.2361271E+02  0.0000000E+00
Ar  6081  0.3620307E+02  0.6203205E+02  0.2590125E+02  0.0000000E+00
Ar  6082  0.3878723E+02  0.6477589E+02  0.2653744E+02  0.0000000E+00
Ar  6083  0.3823736E+02  0.6173481E+02  0.2894012E+02  0.0000000E+00
Ar  6084  0.3605171E+02  0.6441850E+02  0.2946182E+02  0.0000000E+00
Ar  6085  0.3690761E+02  0.6139609E+02  0.3243018E+02  0.0000000E+00
Ar  6086  0.3864765E+02  0.6443984E+02  0.3173130E+02  0.0000000E+00
Ar  6087  0.3946898E+02  0.6266652E+02  0.3556856E+02  0.0000000E+00
Ar  6088  0.3631757E+02  0.6493719E+02  0.3483660E+02  0.0000000E+00
Ar  6089  0.3636792E+02  0.6173364E+02  0.3763548E+02  0.0000000E+00
Ar  6090  0.3935043E+02  0.6479665E+02  0.3798069E+02  0.0000000E+00
Ar  6091  0.3968151E+02  0.6210045E+02  0.4035191E+02  0.0000000E+00
Ar  6092  0.3676800E+02  0.6425295E+02  0.4013859E+02  0.0000000E+00
Ar  6093  0.3623560E+02  0.6243561E+02  0.4368041E+02  0.0000000E+00
Ar  6094  0.3917891E+02  0.6491347E+02  0.4304208E+02  0.0000000E+00
Ar  6095  0.3945145E+02  0.6153860E+02  0.4586558E+02  0.0000000E+00
Ar  6096  0.3699779E+02  0.6500071E+02  0.4599655E+02  0.0000000E+00
Ar  6097  0.3610476E+02  0.6275290E+02  0.4852538E+02  0.0000000E+00
Ar  6098  0.3868621E+02  0.6565168E+02  0.4946340E+02  0.0000000E+00
Ar  6099  0.3810217E+02  0.6235488E+02  0.5181599E+02  0.0000000E+00
Ar  6100  0.3644395E+02  0.6577404E+02  0.5224875E+02  0.0000000E+00
Ar  6101  0.3617708E+02  0.6256674E+02  0.5483734E+02  0.0000000E+00
Ar  6102  0.3885077E+02  0.6534836E+02  0.5486256E+02  0.0000000E+00
Ar  6103  0.3868933E+02  0.6246797E+02  0.5735029E+02  0.0000000E+00
Ar  6104  0.3640737E+02  0.6521751E+02  0.5759432E+02  0.0000000E+00
Ar  6105  0.3655161E+02  0.6302113E+02  0.6025642E+02  0.0000000E+00
Ar  6106  0.3928494E+02  0.6575991E+02  0.6026021E+02  0.0000000E+00
Ar  6107  0.3901515E+02  0.6294574E+02  0.6328876E+02  0.0000000E+00
Ar  6108  0.3596057E+02  0.6540259E+02  0.6339789E+02  0.0000000E+00
Ar  6109  0.3601953E+02  0.6283193E+02  0.6563637E+02  0.0000000E+00
Ar  6110  0.3909175E+02  0.6502712E+02  0.6614024E+02  0.0000000E+00
Ar  6111  0.3922428E+02  0.6251300E+02  0.6904305E+02  0.0000000E+00
Ar  6112  0.3629593E+02  0.6520564E+02  0.6873185E+02  0.0000000E+00
Ar  6113  0.3631140E+02  0.6236387E+02  0.7175944E+02  0.0000000E+00
Ar  6114  0.3882860E+02  0.6529275E+02  0.7166410E+02  0.0000000E+00
Ar  6115  0.3875321E+02  0.6237275E+02  0.7459384E+02  0.0000000E+00
Ar  6116  0.3636901E+02  0.6540444E+02  0.7431143E+02  0.0000000E+00
Ar  6117  0.3639595E+02  0.6233442E+02  0.7740725E+02  0.0000000E+00
Ar  6118  0.3930065E+02  0.6581737E+02  0.7721550E+02  0.0000000E+00
Ar  6119  0.3849610E+02  0.6267081E+02  0.8043101E+02  0.0000000E+00
Ar  6120  0.3637426E+02  0.6551824E+02  0.7895017E+02  0.0000000E+00
Ar  6121  0.3601357E+02  0.6821277E+02  0.8267314E+02  0.0000000E+00
Ar  6122  0.3903580E+02  0.7210292E+02  0.8316262E+02  0.0000000E+00
Ar  6123  0.3925416E+02  0.6872820E+02  0.7935791E+00  0.0000000E+00
Ar  6124  0.3608071E+02  0.7074739E+02  0.1469906E+01  0.0000000E+00
Ar  6125  0.3714977E+02  0.6879132E+02  0.4605917E+01  0.0000000E+00
Ar  6126  0.3982876E+02  0.7104219E+02  0.3589212E+01  0.0000000E+00
Ar  6127  0.3972738E+02  0.6862693E+02  0.6847655E+01  0.0000000E+00
Ar  6128  0.3646696E+02  0.7115403E+02  0.7152301E+01  0.0000000E+00
Ar  6129  0.3684058E+02  0.6840285E+02  0.9756695E+01  0.0000000E+00
Ar  6130  0.3952160E+02  0.7108090E+02  0.9374515E+01  0.0000000E+00
Ar  6131  0.3992088E+02  0.6887882E+02  0.1220846E+02  0.0000000E+00
Ar  6132  0.3686144E+02  0.7120044E+02  0.1241881E+02  0.0000000E+00
Ar  6133  0.3693955E+02  0.6816133E+02  0.1465683E+02  0.0000000E+00
Ar  6134  0.3928361E+02  0.7091883E+02  0.1536978E+02  0.0000000E+00
Ar  6135  0.3895714E+02  0.6777676E+02  0.1753471E+02  0.0000000E+00
Ar  6136  0.3623431E+02  0.7009873E+02  0.1794229E+02  0.0000000E+00
Ar  6137  0.3631308E+02  0.6779809E+02  0.2062773E+02  0.0000000E+00
Ar  6138  0.3923319E+02  0.7030209E+02  0.2111040E+02  0.0000000E+00
Ar  6139  0.3915528E+02  0.6774563E+02  0.2399049E+02  0.0000000E+00
Ar  6140  0.3679121E+02  0.7063390E+02  0.2382459E+02  0.0000000E+00
Ar  6141  0.3627684E+02  0.6709249E+02  0.2662893E+02  0.0000000E+00
Ar  6142  0.3897981E+02  0.7048052E+02  0.2654106E+02  0.0000000E+00
Ar  6143  0.3869182E+02  0.6706381E+02  0.2946957E+02  0.0000000E+00
Ar  6144  0.3588290E+02  0.7059737E+02  0.2976811E+02  0.0000000E+00
Ar  6145  0.3609115E+02  0.6773946E+02  0.3198143E+02  0.0000000E+00
Ar  6146  0.3916367E+02  0.6995784E+02  0.3204833E+02  0.0000000E+00
Ar  6147  0.3906839E+02  0.6706574E+02  0.3526238E+02  0.0000000E+00
Ar  6148  0.3352345E+02  0.7351090E+02  0.3608730E+02  0.0000000E+00
Ar  6149  0.3647651E+02  0.7056695E+02  0.3542783E+02  0.0000000E+00
Ar  6150  0.3927304E+02  0.7052551E+02  0.3787488E+02  0.0000000E+00
Ar  6151  0.3952743E+02  0.6742858E+02  0.4055553E+02  0.0000000E+00
Ar  6152  0.3622166E+02  0.6751691E+02  0.3822391E+02  0.0000000E+00
Ar  6153  0.3619972E+02  0.6740438E+02  0.4279663E+02  0.0000000E+00
Ar  6154  0.3879895E+02  0.7020626E+02  0.4360525E+02  0.0000000E+00
Ar  6155  0.3849737E+02  0.6836427E+02  0.4715290E+02  0.0000000E+00
Ar  6156  0.3638404E+02  0.7090967E+02  0.4631982E+02  0.0000000E+00
Ar  6157  0.3571106E+02  0.6803575E+02  0.4916940E+02  0.0000000E+00
Ar  6158  0.3897314E+02  0.7090841E+02  0.4985446E+02  0.0000000E+00
Ar  6159  0.3909664E+02  0.6811025E+02  0.5261932E+02  0.0000000E+00
Ar  6160  0.3634745E+02  0.7055493E+02  0.5209171E+02  0.0000000E+00
Ar  6161  0.3655225E+02  0.6810848E+02  0.5500896E+02  0.0000000E+00
Ar  6162  0.3905079E+02  0.7073210E+02  0.5478970E+02  0.0000000E+00
Ar  6163  0.3926697E+02  0.6825683E+02  0.5742582E+02  0.0000000E+00
Ar  6164  0.3659428E+02  0.7073761E+02  0.5806866E+02  0.0000000E+00
Ar  6165  0.3626661E+02  0.6810656E+02  0.6060762E+02  0.0000000E+00
Ar  6166  0.3946816E+02  0.7168154E+02  0.5969210E+02  0.0000000E+00
Ar  6167  0.3949558E+02  0.6839144E+02  0.6248515E+02  0.0000000E+00
Ar  6168  0.3628399E+02  0.7074631E+02  0.6327875E+02  0.0000000E+00
Ar  6169  0.3654695E+02  0.6753489E+02  0.6588948E+02  0.0000000E+00
Ar  6170  0.3968847E+02  0.7101163E+02  0.6529389E+02  0.0000000E+00
Ar  6171  0.3927759E+02  0.6804712E+02  0.6863042E+02  0.0000000E+00
Ar  6172  0.3671996E+02  0.7083990E+02  0.6857562E+02  0.0000000E+00
Ar  6173  0.3661902E+02  0.6845654E+02  0.7100055E+02  0.0000000E+00
Ar  6174  0.3942768E+02  0.7086390E+02  0.7141704E+02  0.0000000E+00
Ar  6175  0.3937275E+02  0.6803951E+02  0.7389775E+02  0.0000000E+00
Ar  6176  0.3665811E+02  0.7088672E+02  0.7378328E+02  0.0000000E+00
Ar  6177  0.3611012E+02  0.6819659E+02  0.7687956E+02  0.0000000E+00
Ar  6178  0.3929548E+02  0.7132376E+02  0.7719898E+02  0.0000000E+00
Ar  6179  0.3861180E+02  0.6841841E+02  0.8018846E+02  0.0000000E+00
Ar  6180  0.3556727E+02  0.7074079E+02  0.7976399E+02  0.0000000E+00
Ar  6181  0.3565270E+02  0.7317252E+02  0.8316198E+02  0.0000000E+00
Ar  6182  0.3967973E+02  0.7668146E+02  0.8274123E+02  0.0000000E+00
Ar  6183  0.3940850E+02  0.7443976E+02  0.1873095E+01  0.0000000E+00
Ar  6184  0.3651819E+02  0.7673615E+02  0.1432060E+01  0.0000000E+00
Ar  6185  0.3641211E+02  0.7386257E+02  0.4604349E+01  0.0000000E+00
Ar  6186  0.3901292E+02  0.7696154E+02  0.4448846E+01  0.0000000E+00
Ar  6187  0.3944970E+02  0.7358360E+02  0.6194350E+01  0.0000000E+00
Ar  6188  0.3637778E+02  0.7688117E+02  0.7017874E+01  0.0000000E+00
Ar  6189  0.3562921E+02  0.7396309E+02  0.1000278E+02  0.0000000E+00
Ar  6190  0.3904427E+02  0.7552090E+02  0.9497574E+01  0.0000000E+00
Ar  6191  0.3930187E+02  0.7349127E+02  0.1225989E+02  0.0000000E+00
Ar  6192  0.3690467E+02  0.7590303E+02  0.1364953E+02  0.0000000E+00
Ar  6193  0.3668162E+02  0.7299132E+02  0.1572080E+02  0.0000000E+00
Ar  6194  0.3947139E+02  0.7636173E+02  0.1638711E+02  0.0000000E+00
Ar  6195  0.3894402E+02  0.7331666E+02  0.1855761E+02  0.0000000E+00
Ar  6196  0.3645071E+02  0.7582977E+02  0.1810872E+02  0.0000000E+00
Ar  6197  0.3688690E+02  0.7336997E+02  0.2150720E+02  0.0000000E+00
Ar  6198  0.3980394E+02  0.7605152E+02  0.2121047E+02  0.0000000E+00
Ar  6199  0.3913542E+02  0.7369009E+02  0.2429553E+02  0.0000000E+00
Ar  6200  0.3643321E+02  0.7668255E+02  0.2363951E+02  0.0000000E+00
Ar  6201  0.3629278E+02  0.7349511E+02  0.2677897E+02  0.0000000E+00
Ar  6202  0.3935628E+02  0.7676131E+02  0.2678970E+02  0.0000000E+00
Ar  6203  0.3897137E+02  0.7406969E+02  0.2947134E+02  0.0000000E+00
Ar  6204  0.3595756E+02  0.7691510E+02  0.2911404E+02  0.0000000E+00
Ar  6205  0.3671652E+02  0.7358883E+02  0.3261517E+02  0.0000000E+00
Ar  6206  0.3941546E+02  0.7585772E+02  0.3250257E+02  0.0000000E+00
Ar  6207  0.3990175E+02  0.7266410E+02  0.3483269E+02  0.0000000E+00
Ar  6208  0.3652270E+02  0.7679867E+02  0.3556914E+02  0.0000000E+00
Ar  6209  0.3648098E+02  0.7361020E+02  0.3767786E+02  0.0000000E+00
Ar  6210  0.3919583E+02  0.7671479E+02  0.3836624E+02  0.0000000E+00
Ar  6211  0.3922419E+02  0.7273613E+02  0.4075612E+02  0.0000000E+00
Ar  6212  0.3672083E+02  0.7636419E+02  0.4106477E+02  0.0000000E+00
Ar  6213  0.3616949E+02  0.7340170E+02  0.4337105E+02  0.0000000E+00
Ar  6214  0.3914905E+02  0.7637021E+02  0.4348259E+02  0.0000000E+00
Ar  6215  0.3966773E+02  0.7294796E+02  0.4621498E+02  0.0000000E+00
Ar  6216  0.3673291E+02  0.7562531E+02  0.4607611E+02  0.0000000E+00
Ar  6217  0.3630041E+02  0.7391442E+02  0.4944290E+02  0.0000000E+00
Ar  6218  0.3931406E+02  0.7576319E+02  0.4897381E+02  0.0000000E+00
Ar  6219  0.3857996E+02  0.7378290E+02  0.5245474E+02  0.0000000E+00
Ar  6220  0.3598220E+02  0.7650261E+02  0.5193318E+02  0.0000000E+00
Ar  6221  0.3604402E+02  0.7350356E+02  0.5505855E+02  0.0000000E+00
Ar  6222  0.3942823E+02  0.7653258E+02  0.5467345E+02  0.0000000E+00
Ar  6223  0.3898502E+02  0.7401710E+02  0.5708041E+02  0.0000000E+00
Ar  6224  0.3596062E+02  0.7628214E+02  0.5753377E+02  0.0000000E+00
Ar  6225  0.3569957E+02  0.7375633E+02  0.6037364E+02  0.0000000E+00
Ar  6226  0.3843223E+02  0.7671392E+02  0.6051010E+02  0.0000000E+00
Ar  6227  0.3916005E+02  0.7366757E+02  0.6297700E+02  0.0000000E+00
Ar  6228  0.3613799E+02  0.7634365E+02  0.6315030E+02  0.0000000E+00
Ar  6229  0.3654415E+02  0.7353855E+02  0.6552264E+02  0.0000000E+00
Ar  6230  0.3895221E+02  0.7658747E+02  0.6554806E+02  0.0000000E+00
Ar  6231  0.3921286E+02  0.7396954E+02  0.6795745E+02  0.0000000E+00
Ar  6232  0.3642341E+02  0.7607296E+02  0.6801878E+02  0.0000000E+00
Ar  6233  0.3623000E+02  0.7350353E+02  0.7107363E+02  0.0000000E+00
Ar  6234  0.3890160E+02  0.7600543E+02  0.7135571E+02  0.0000000E+00
Ar  6235  0.3932351E+02  0.7343494E+02  0.7411967E+02  0.0000000E+00
Ar  6236  0.3610814E+02  0.7617308E+02  0.7479218E+02  0.0000000E+00
Ar  6237  0.3623512E+02  0.7305769E+02  0.7653300E+02  0.0000000E+00
Ar  6238  0.3890025E+02  0.7646634E+02  0.7681331E+02  0.0000000E+00
Ar  6239  0.3877307E+02  0.7376590E+02  0.7962447E+02  0.0000000E+00
Ar  6240  0.3586219E+02  0.7628015E+02  0.7960976E+02  0.0000000E+00
Ar  6241  0.3650547E+02  0.7906730E+02  0.8232291E+02  0.0000000E+00
Ar  6242  0.3792449E+02  0.8240200E+02  0.8217572E+02  0.0000000E+00
Ar  6243  0.3894554E+02  0.7924039E+02  0.1252324E+01  0.0000000E+00
Ar  6244  0.3643355E+02  0.8217868E+02  0.9863637E+00  0.0000000E+00
Ar  6245  0.3677310E+02  0.7996099E+02  0.4276882E+01  0.0000000E+00
Ar  6246  0.3925637E+02  0.8265756E+02  0.3456199E+01  0.0000000E+00
Ar  6247  0.3938341E+02  0.7919011E+02  0.7393756E+01  0.0000000E+00
Ar  6248  0.3648625E+02  0.8183730E+02  0.7532294E+01  0.0000000E+00
Ar  6249  0.3673247E+02  0.7843692E+02  0.1034541E+02  0.0000000E+00
Ar  6250  0.4039891E+02  0.8116949E+02  0.1009491E+02  0.0000000E+00
Ar  6251  0.3954318E+02  0.7821368E+02  0.1275155E+02  0.0000000E+00
Ar  6252  0.3750106E+02  0.8129258E+02  0.1235235E+02  0.0000000E+00
Ar  6253  0.3661056E+02  0.7914409E+02  0.1618081E+02  0.0000000E+00
Ar  6254  0.3979940E+02  0.8123099E+02  0.1530695E+02  0.0000000E+00
Ar  6255  0.4016688E+02  0.7917838E+02  0.1830832E+02  0.0000000E+00
Ar  6256  0.3562534E+02  0.8169929E+02  0.1842541E+02  0.0000000E+00
Ar  6257  0.3658177E+02  0.7876814E+02  0.2060030E+02  0.0000000E+00
Ar  6258  0.3868342E+02  0.8177667E+02  0.2054342E+02  0.0000000E+00
Ar  6259  0.3929529E+02  0.7915287E+02  0.2319936E+02  0.0000000E+00
Ar  6260  0.3646926E+02  0.8181209E+02  0.2353756E+02  0.0000000E+00
Ar  6261  0.3643020E+02  0.7949564E+02  0.2612626E+02  0.0000000E+00
Ar  6262  0.3906943E+02  0.8172390E+02  0.2637745E+02  0.0000000E+00
Ar  6263  0.3919203E+02  0.7961513E+02  0.2978092E+02  0.0000000E+00
Ar  6264  0.3679748E+02  0.8238783E+02  0.2944467E+02  0.0000000E+00
Ar  6265  0.3622816E+02  0.7845595E+02  0.3207079E+02  0.0000000E+00
Ar  6266  0.3903949E+02  0.8210916E+02  0.3233885E+02  0.0000000E+00
Ar  6267  0.3943597E+02  0.7889882E+02  0.3519980E+02  0.0000000E+00
Ar  6268  0.3648248E+02  0.8183090E+02  0.3544137E+02  0.0000000E+00
Ar  6269  0.3604686E+02  0.7953324E+02  0.3804589E+02  0.0000000E+00
Ar  6270  0.3889415E+02  0.8155750E+02  0.3836955E+02  0.0000000E+00
Ar  6271  0.3928869E+02  0.7913762E+02  0.4108513E+02  0.0000000E+00
Ar  6272  0.3675757E+02  0.8157837E+02  0.4190577E+02  0.0000000E+00
Ar  6273  0.3568604E+02  0.7865556E+02  0.4419245E+02  0.0000000E+00
Ar  6274  0.3868081E+02  0.8180649E+02  0.4466398E+02  0.0000000E+00
Ar  6275  0.3916233E+02  0.7862989E+02  0.4652116E+02  0.0000000E+00
Ar  6276  0.3643538E+02  0.8161558E+02  0.4722056E+02  0.0000000E+00
Ar  6277  0.3637146E+02  0.7787426E+02  0.4877473E+02  0.0000000E+00
Ar  6278  0.3949817E+02  0.8180288E+02  0.4918613E+02  0.0000000E+00
Ar  6279  0.3863467E+02  0.7868577E+02  0.5189942E+02  0.0000000E+00
Ar  6280  0.3653802E+02  0.8213916E+02  0.5159032E+02  0.0000000E+00
Ar  6281  0.3538123E+02  0.7905368E+02  0.5436893E+02  0.0000000E+00
Ar  6282  0.3861311E+02  0.8199323E+02  0.5452410E+02  0.0000000E+00
Ar  6283  0.3912411E+02  0.7928908E+02  0.5741483E+02  0.0000000E+00
Ar  6284  0.3606553E+02  0.8200164E+02  0.5742325E+02  0.0000000E+00
Ar  6285  0.3600577E+02  0.7938348E+02  0.5996740E+02  0.0000000E+00
Ar  6286  0.3855103E+02  0.8259737E+02  0.6054516E+02  0.0000000E+00
Ar  6287  0.3865357E+02  0.7952132E+02  0.6242010E+02  0.0000000E+00
Ar  6288  0.3571068E+02  0.8181980E+02  0.6302367E+02  0.0000000E+00
Ar  6289  0.3621650E+02  0.7907410E+02  0.6528112E+02  0.0000000E+00
Ar  6290  0.3918507E+02  0.8181212E+02  0.6611253E+02  0.0000000E+00
Ar  6291  0.3912117E+02  0.7893252E+02  0.6885815E+02  0.0000000E+00
Ar  6292  0.3630561E+02  0.8163816E+02  0.6815096E+02  0.0000000E+00
Ar  6293  0.3586761E+02  0.7875828E+02  0.7151144E+02  0.0000000E+00
Ar  6294  0.3869537E+02  0.8183829E+02  0.7178089E+02  0.0000000E+00
Ar  6295  0.3923372E+02  0.7917309E+02  0.7424979E+02  0.0000000E+00
Ar  6296  0.3606702E+02  0.8215961E+02  0.7404931E+02  0.0000000E+00
Ar  6297  0.3538261E+02  0.7926194E+02  0.7689231E+02  0.0000000E+00
Ar  6298  0.3866885E+02  0.8208092E+02  0.7696748E+02  0.0000000E+00
Ar  6299  0.3869262E+02  0.7918482E+02  0.7933245E+02  0.0000000E+00
Ar  6300  0.3538945E+02  0.8189249E+02  0.7958125E+02  0.0000000E+00
Ar  6301  0.4084764E+02  0.1805091E+01  0.8264482E+02  0.0000000E+00
Ar  6302  0.4419744E+02  0.3238853E+01  0.8271888E+02  0.0000000E+00
Ar  6303  0.4358224E+02  0.1081526E+01  0.1152509E+01  0.0000000E+00
Ar  6304  0.4111105E+02  0.4556684E+01  0.1623593E+01  0.0000000E+00
Ar  6305  0.4127006E+02  0.1154818E+01  0.4607197E+01  0.0000000E+00
Ar  6306  0.4483132E+02  0.3222187E+01  0.4269355E+01  0.0000000E+00
Ar  6307  0.4440858E+02  0.6510633E+00  0.6893880E+01  0.0000000E+00
Ar  6308  0.4201078E+02  0.3653248E+01  0.7054855E+01  0.0000000E+00
Ar  6309  0.4228056E+02  0.4194572E+00  0.9960769E+01  0.0000000E+00
Ar  6310  0.4500019E+02  0.3481083E+01  0.1031277E+02  0.0000000E+00
Ar  6311  0.4465759E+02  0.6867659E+00  0.1275681E+02  0.0000000E+00
Ar  6312  0.4157172E+02  0.3121833E+01  0.1264161E+02  0.0000000E+00
Ar  6313  0.4183066E+02  0.2841287E+00  0.1508624E+02  0.0000000E+00
Ar  6314  0.4433219E+02  0.3671942E+01  0.1519819E+02  0.0000000E+00
Ar  6315  0.4516385E+02  0.1012416E+01  0.1816698E+02  0.0000000E+00
Ar  6316  0.4177947E+02  0.2888342E+01  0.1796630E+02  0.0000000E+00
Ar  6317  0.4152146E+02  0.5363051E+00  0.2121105E+02  0.0000000E+00
Ar  6318  0.4409363E+02  0.3117932E+01  0.2103143E+02  0.0000000E+00
Ar  6319  0.4480857E+02  0.4386831E+00  0.2367365E+02  0.0000000E+00
Ar  6320  0.4105374E+02  0.3719669E+01  0.2365479E+02  0.0000000E+00
Ar  6321  0.4140610E+02  0.6580215E+00  0.2583637E+02  0.0000000E+00
Ar  6322  0.4430274E+02  0.3204677E+01  0.2677023E+02  0.0000000E+00
Ar  6323  0.4428959E+02  0.2965009E+00  0.2869927E+02  0.0000000E+00
Ar  6324  0.4131121E+02  0.3843436E+01  0.2938808E+02  0.0000000E+00
Ar  6325  0.4147001E+02  0.1108940E+01  0.3214108E+02  0.0000000E+00
Ar  6326  0.4430079E+02  0.3164694E+01  0.3262743E+02  0.0000000E+00
Ar  6327  0.4388608E+02  0.6481120E+00  0.3535370E+02  0.0000000E+00
Ar  6328  0.4148907E+02  0.3068208E+01  0.3516992E+02  0.0000000E+00
Ar  6329  0.4186338E+02  0.8386934E+02  0.3794959E+02  0.0000000E+00
Ar  6330  0.4409227E+02  0.3197964E+01  0.3810845E+02  0.0000000E+00
Ar  6331  0.4468874E+02  0.9847484E+00  0.4078836E+02  0.0000000E+00
Ar  6332  0.4111565E+02  0.2584368E+01  0.4021805E+02  0.0000000E+00
Ar  6333  0.4199938E+02  0.1288141E+01  0.4347789E+02  0.0000000E+00
Ar  6334  0.4427272E+02  0.3835304E+01  0.4294316E+02  0.0000000E+00
Ar  6335  0.4456257E+02  0.1097913E+01  0.4595991E+02  0.0000000E+00
Ar  6336  0.4161924E+02  0.3934260E+01  0.4623437E+02  0.0000000E+00
Ar  6337  0.4133742E+02  0.6862875E+00  0.4915690E+02  0.0000000E+00
Ar  6338  0.4471571E+02  0.3564103E+01  0.4882738E+02  0.0000000E+00
Ar  6339  0.4524619E+02  0.7354550E+00  0.5154352E+02  0.0000000E+00
Ar  6340  0.4175095E+02  0.3804340E+01  0.5194088E+02  0.0000000E+00
Ar  6341  0.4191600E+02  0.1133136E+01  0.5431166E+02  0.0000000E+00
Ar  6342  0.4496350E+02  0.3837676E+01  0.5433145E+02  0.0000000E+00
Ar  6343  0.4410076E+02  0.4329718E+00  0.5727814E+02  0.0000000E+00
Ar  6344  0.4108351E+02  0.3227638E+01  0.5742761E+02  0.0000000E+00
Ar  6345  0.4235719E+02  0.8421769E+02  0.6017906E+02  0.0000000E+00
Ar  6346  0.4539266E+02  0.2331491E+01  0.5993524E+02  0.0000000E+00
Ar  6347  0.4473254E+02  0.2647394E+00  0.6382836E+02  0.0000000E+00
Ar  6348  0.4192887E+02  0.2644840E+01  0.6340456E+02  0.0000000E+00
Ar  6349  0.4135635E+02  0.6415355E+00  0.6656798E+02  0.0000000E+00
Ar  6350  0.4407643E+02  0.3408812E+01  0.6595695E+02  0.0000000E+00
Ar  6351  0.4396667E+02  0.7410421E+00  0.6915949E+02  0.0000000E+00
Ar  6352  0.4162202E+02  0.3801051E+01  0.6944958E+02  0.0000000E+00
Ar  6353  0.4128830E+02  0.5074650E+00  0.7165930E+02  0.0000000E+00
Ar  6354  0.4461877E+02  0.3618969E+01  0.7117360E+02  0.0000000E+00
Ar  6355  0.4428507E+02  0.3216485E+00  0.7343496E+02  0.0000000E+00
Ar  6356  0.4193295E+02  0.3459337E+01  0.7399719E+02  0.0000000E+00
Ar  6357  0.4200606E+02  0.6326156E+00  0.7644730E+02  0.0000000E+00
Ar  6358  0.4459862E+02  0.3615900E+01  0.7694484E+02  0.0000000E+00
Ar  6359  0.4436061E+02  0.9849429E+00  0.7943095E+02  0.0000000E+00
Ar  6360  0.4118019E+02  0.3617309E+01  0.7982435E+02  0.0000000E+00
Ar  6361  0.4173680E+02  0.6274819E+01  0.8293887E+02  0.0000000E+00
Ar  6362  0.4472885E+02  0.8079308E+01  0.8322643E+02  0.0000000E+00
Ar  6363  0.4424798E+02  0.6714869E+01  0.2138878E+01  0.0000000E+00
Ar  6364  0.4157565E+02  0.9536560E+01  0.1099052E+01  0.0000000E+00
Ar  6365  0.4172023E+02  0.7104736E+01  0.4675457E+01  0.0000000E+00
Ar  6366  0.4492817E+02  0.9701139E+01  0.4430559E+01  0.0000000E+00
Ar  6367  0.4489585E+02  0.6604839E+01  0.6771198E+01  0.0000000E+00
Ar  6368  0.4162545E+02  0.1066966E+02  0.7072911E+01  0.0000000E+00
Ar  6369  0.4273679E+02  0.7711162E+01  0.1040001E+02  0.0000000E+00
Ar  6370  0.4577975E+02  0.9572922E+01  0.9944095E+01  0.0000000E+00
Ar  6371  0.4535115E+02  0.6658461E+01  0.1293132E+02  0.0000000E+00
Ar  6372  0.4112242E+02  0.9473154E+01  0.1345420E+02  0.0000000E+00
Ar  6373  0.4162665E+02  0.6432895E+01  0.1580572E+02  0.0000000E+00
Ar  6374  0.4453782E+02  0.8720257E+01  0.1567256E+02  0.0000000E+00
Ar  6375  0.4456028E+02  0.6024780E+01  0.1778257E+02  0.0000000E+00
Ar  6376  0.4246703E+02  0.8694765E+01  0.1838207E+02  0.0000000E+00
Ar  6377  0.4155090E+02  0.5819705E+01  0.2055957E+02  0.0000000E+00
Ar  6378  0.4486067E+02  0.8288827E+01  0.2107945E+02  0.0000000E+00
Ar  6379  0.4447935E+02  0.5603494E+01  0.2343510E+02  0.0000000E+00
Ar  6380  0.4201558E+02  0.8273292E+01  0.2352400E+02  0.0000000E+00
Ar  6381  0.4186439E+02  0.6137177E+01  0.2621088E+02  0.0000000E+00
Ar  6382  0.4493132E+02  0.8326207E+01  0.2619176E+02  0.0000000E+00
Ar  6383  0.4421508E+02  0.5805302E+01  0.2967543E+02  0.0000000E+00
Ar  6384  0.4229336E+02  0.9042703E+01  0.2930093E+02  0.0000000E+00
Ar  6385  0.4133014E+02  0.6727583E+01  0.3184278E+02  0.0000000E+00
Ar  6386  0.4485849E+02  0.9182080E+01  0.3181169E+02  0.0000000E+00
Ar  6387  0.4392848E+02  0.5394482E+01  0.3548237E+02  0.0000000E+00
Ar  6388  0.4138775E+02  0.9833590E+01  0.3438179E+02  0.0000000E+00
Ar  6389  0.4143734E+02  0.5888943E+01  0.3793503E+02  0.0000000E+00
Ar  6390  0.4358871E+02  0.9072798E+01  0.3747014E+02  0.0000000E+00
Ar  6391  0.4424308E+02  0.6422816E+01  0.4039388E+02  0.0000000E+00
Ar  6392  0.4107373E+02  0.9353480E+01  0.4050282E+02  0.0000000E+00
Ar  6393  0.4156719E+02  0.6436958E+01  0.4287943E+02  0.0000000E+00
Ar  6394  0.4387633E+02  0.9476298E+01  0.4283766E+02  0.0000000E+00
Ar  6395  0.4449914E+02  0.6787010E+01  0.4529377E+02  0.0000000E+00
Ar  6396  0.4142843E+02  0.8789727E+01  0.4621891E+02  0.0000000E+00
Ar  6397  0.4195474E+02  0.6296262E+01  0.4895211E+02  0.0000000E+00
Ar  6398  0.4444520E+02  0.8758028E+01  0.4866707E+02  0.0000000E+00
Ar  6399  0.4438600E+02  0.6374374E+01  0.5227037E+02  0.0000000E+00
Ar  6400  0.4141885E+02  0.8756937E+01  0.5186752E+02  0.0000000E+00
Ar  6401  0.4195181E+02  0.6071803E+01  0.5478059E+02  0.0000000E+00
Ar  6402  0.4421089E+02  0.9040949E+01  0.5458051E+02  0.0000000E+00
Ar  6403  0.4426371E+02  0.6285696E+01  0.5767510E+02  0.0000000E+00
Ar  6404  0.4174547E+02  0.8755865E+01  0.5749788E+02  0.0000000E+00
Ar  6405  0.4155336E+02  0.5488145E+01  0.6004130E+02  0.0000000E+00
Ar  6406  0.4435691E+02  0.9029310E+01  0.6014691E+02  0.0000000E+00
Ar  6407  0.4424736E+02  0.5879314E+01  0.6253231E+02  0.0000000E+00
Ar  6408  0.4202010E+02  0.9344263E+01  0.6316827E+02  0.0000000E+00
Ar  6409  0.4193346E+02  0.6243322E+01  0.6517395E+02  0.0000000E+00
Ar  6410  0.4412776E+02  0.8935652E+01  0.6631627E+02  0.0000000E+00
Ar  6411  0.4393487E+02  0.6579166E+01  0.6871475E+02  0.0000000E+00
Ar  6412  0.4121487E+02  0.9569542E+01  0.6879942E+02  0.0000000E+00
Ar  6413  0.4128357E+02  0.6755927E+01  0.7132895E+02  0.0000000E+00
Ar  6414  0.4435266E+02  0.9243155E+01  0.7141639E+02  0.0000000E+00
Ar  6415  0.4419815E+02  0.6673356E+01  0.7414151E+02  0.0000000E+00
Ar  6416  0.4187711E+02  0.9482688E+01  0.7451284E+02  0.0000000E+00
Ar  6417  0.4185319E+02  0.6579075E+01  0.7657024E+02  0.0000000E+00
Ar  6418  0.4437954E+02  0.9083335E+01  0.7748196E+02  0.0000000E+00
Ar  6419  0.4385856E+02  0.5968386E+01  0.7945136E+02  0.0000000E+00
Ar  6420  0.4206682E+02  0.8994933E+01  0.8043930E+02  0.0000000E+00
Ar  6421  0.4198967E+02  0.1208506E+02  0.8289814E+02  0.0000000E+00
Ar  6422  0.4470359E+02  0.1534042E+02  0.8237670E+02  0.0000000E+00
Ar  6423  0.4487521E+02  0.1216504E+02  0.1576806E+01  0.0000000E+00
Ar  6424  0.4246588E+02  0.1492891E+02  0.7224461E+00  0.0000000E+00
Ar  6425  0.4207858E+02  0.1287263E+02  0.3678478E+01  0.0000000E+00
Ar  6426  0.4524306E+02  0.1447825E+02  0.4870794E+01  0.0000000E+00
Ar  6427  0.4495306E+02  0.1221572E+02  0.7443722E+01  0.0000000E+00
Ar  6428  0.4196272E+02  0.1475715E+02  0.6963555E+01  0.0000000E+00
Ar  6429  0.4222492E+02  0.1228066E+02  0.1016789E+02  0.0000000E+00
Ar  6430  0.4504053E+02  0.1533044E+02  0.9847785E+01  0.0000000E+00
Ar  6431  0.4432370E+02  0.1140214E+02  0.1275122E+02  0.0000000E+00
Ar  6432  0.4186907E+02  0.1500628E+02  0.1226220E+02  0.0000000E+00
Ar  6433  0.4086603E+02  0.1215396E+02  0.1571378E+02  0.0000000E+00
Ar  6434  0.4419267E+02  0.1432006E+02  0.1545885E+02  0.0000000E+00
Ar  6435  0.4510713E+02  0.1186322E+02  0.1773299E+02  0.0000000E+00
Ar  6436  0.4185348E+02  0.1509768E+02  0.1836580E+02  0.0000000E+00
Ar  6437  0.4211195E+02  0.1214045E+02  0.2048087E+02  0.0000000E+00
Ar  6438  0.4486123E+02  0.1466312E+02  0.2072837E+02  0.0000000E+00
Ar  6439  0.4503707E+02  0.1142045E+02  0.2334335E+02  0.0000000E+00
Ar  6440  0.4244135E+02  0.1452368E+02  0.2345280E+02  0.0000000E+00
Ar  6441  0.4199784E+02  0.1150749E+02  0.2589910E+02  0.0000000E+00
Ar  6442  0.4483973E+02  0.1415409E+02  0.2625428E+02  0.0000000E+00
Ar  6443  0.4481866E+02  0.1142884E+02  0.2831858E+02  0.0000000E+00
Ar  6444  0.4199475E+02  0.1406789E+02  0.2861381E+02  0.0000000E+00
Ar  6445  0.4258960E+02  0.1171970E+02  0.3172718E+02  0.0000000E+00
Ar  6446  0.4573812E+02  0.1465545E+02  0.3195034E+02  0.0000000E+00
Ar  6447  0.4512718E+02  0.1126160E+02  0.3461945E+02  0.0000000E+00
Ar  6448  0.4227380E+02  0.1397907E+02  0.3448311E+02  0.0000000E+00
Ar  6449  0.4112659E+02  0.1221031E+02  0.3723847E+02  0.0000000E+00
Ar  6450  0.4457471E+02  0.1471373E+02  0.3812954E+02  0.0000000E+00
Ar  6451  0.4453927E+02  0.1169691E+02  0.3996760E+02  0.0000000E+00
Ar  6452  0.4154705E+02  0.1429284E+02  0.4032491E+02  0.0000000E+00
Ar  6453  0.4145986E+02  0.1149920E+02  0.4345512E+02  0.0000000E+00
Ar  6454  0.4376364E+02  0.1424333E+02  0.4341073E+02  0.0000000E+00
Ar  6455  0.4414380E+02  0.1132503E+02  0.4605090E+02  0.0000000E+00
Ar  6456  0.4149420E+02  0.1404908E+02  0.4623936E+02  0.0000000E+00
Ar  6457  0.4122970E+02  0.1145218E+02  0.4960462E+02  0.0000000E+00
Ar  6458  0.4477808E+02  0.1433619E+02  0.4960349E+02  0.0000000E+00
Ar  6459  0.4383639E+02  0.1175995E+02  0.5241196E+02  0.0000000E+00
Ar  6460  0.4171677E+02  0.1461472E+02  0.5184895E+02  0.0000000E+00
Ar  6461  0.4106428E+02  0.1130075E+02  0.5476818E+02  0.0000000E+00
Ar  6462  0.4520078E+02  0.1480202E+02  0.5434408E+02  0.0000000E+00
Ar  6463  0.4421841E+02  0.1220691E+02  0.5713868E+02  0.0000000E+00
Ar  6464  0.4109460E+02  0.1451867E+02  0.5782998E+02  0.0000000E+00
Ar  6465  0.4125492E+02  0.1142754E+02  0.5963388E+02  0.0000000E+00
Ar  6466  0.4463831E+02  0.1455135E+02  0.5962668E+02  0.0000000E+00
Ar  6467  0.4449748E+02  0.1190712E+02  0.6238205E+02  0.0000000E+00
Ar  6468  0.4232255E+02  0.1418996E+02  0.6336490E+02  0.0000000E+00
Ar  6469  0.4143479E+02  0.1224434E+02  0.6667407E+02  0.0000000E+00
Ar  6470  0.4497948E+02  0.1495994E+02  0.6598711E+02  0.0000000E+00
Ar  6471  0.4406463E+02  0.1248539E+02  0.6848514E+02  0.0000000E+00
Ar  6472  0.4164498E+02  0.1517460E+02  0.6836476E+02  0.0000000E+00
Ar  6473  0.4198718E+02  0.1256476E+02  0.7127214E+02  0.0000000E+00
Ar  6474  0.4477271E+02  0.1496661E+02  0.7220013E+02  0.0000000E+00
Ar  6475  0.4443053E+02  0.1194173E+02  0.7456214E+02  0.0000000E+00
Ar  6476  0.4170218E+02  0.1435582E+02  0.7448717E+02  0.0000000E+00
Ar  6477  0.4225627E+02  0.1171766E+02  0.7754172E+02  0.0000000E+00
Ar  6478  0.4458095E+02  0.1485299E+02  0.7756376E+02  0.0000000E+00
Ar  6479  0.4457690E+02  0.1192113E+02  0.8015705E+02  0.0000000E+00
Ar  6480  0.4187613E+02  0.1432413E+02  0.8006743E+02  0.0000000E+00
Ar  6481  0.4179742E+02  0.1739786E+02  0.8248144E+02  0.0000000E+00
Ar  6482  0.4480971E+02  0.2052394E+02  0.8325823E+02  0.0000000E+00
Ar  6483  0.4497147E+02  0.1733587E+02  0.1200930E+01  0.0000000E+00
Ar  6484  0.4229121E+02  0.2005859E+02  0.1692466E+01  0.0000000E+00
Ar  6485  0.4160879E+02  0.1684016E+02  0.4030017E+01  0.0000000E+00
Ar  6486  0.4595932E+02  0.2015598E+02  0.3996084E+01  0.0000000E+00
Ar  6487  0.4547658E+02  0.1747002E+02  0.6629655E+01  0.0000000E+00
Ar  6488  0.4300819E+02  0.2001263E+02  0.6070498E+01  0.0000000E+00
Ar  6489  0.4209729E+02  0.1817872E+02  0.9738426E+01  0.0000000E+00
Ar  6490  0.4524361E+02  0.2003037E+02  0.9179198E+01  0.0000000E+00
Ar  6491  0.4509672E+02  0.1793777E+02  0.1266776E+02  0.0000000E+00
Ar  6492  0.4237754E+02  0.2081457E+02  0.1215467E+02  0.0000000E+00
Ar  6493  0.4244413E+02  0.1773740E+02  0.1546261E+02  0.0000000E+00
Ar  6494  0.4441418E+02  0.2049603E+02  0.1517080E+02  0.0000000E+00
Ar  6495  0.4530124E+02  0.1794509E+02  0.1789275E+02  0.0000000E+00
Ar  6496  0.4192599E+02  0.2025478E+02  0.1836234E+02  0.0000000E+00
Ar  6497  0.4271833E+02  0.1734267E+02  0.2110912E+02  0.0000000E+00
Ar  6498  0.4521772E+02  0.2031083E+02  0.2157794E+02  0.0000000E+00
Ar  6499  0.4507470E+02  0.1706126E+02  0.2370449E+02  0.0000000E+00
Ar  6500  0.4212063E+02  0.2019648E+02  0.2402750E+02  0.0000000E+00
Ar  6501  0.4245634E+02  0.1716595E+02  0.2672263E+02  0.0000000E+00
Ar  6502  0.4513516E+02  0.2040499E+02  0.2613585E+02  0.0000000E+00
Ar  6503  0.4485064E+02  0.1689475E+02  0.2917931E+02  0.0000000E+00
Ar  6504  0.4283828E+02  0.1997101E+02  0.2954524E+02  0.0000000E+00
Ar  6505  0.4190006E+02  0.1636947E+02  0.3150243E+02  0.0000000E+00
Ar  6506  0.4535528E+02  0.1927053E+02  0.3216866E+02  0.0000000E+00
Ar  6507  0.4380896E+02  0.1710686E+02  0.3537299E+02  0.0000000E+00
Ar  6508  0.4203417E+02  0.1978290E+02  0.3396199E+02  0.0000000E+00
Ar  6509  0.4188686E+02  0.1736556E+02  0.3863046E+02  0.0000000E+00
Ar  6510  0.4468323E+02  0.2000725E+02  0.3760460E+02  0.0000000E+00
Ar  6511  0.4553010E+02  0.1663962E+02  0.4099735E+02  0.0000000E+00
Ar  6512  0.4179351E+02  0.2034158E+02  0.4058262E+02  0.0000000E+00
Ar  6513  0.4154011E+02  0.1708642E+02  0.4331341E+02  0.0000000E+00
Ar  6514  0.4451923E+02  0.2007095E+02  0.4290183E+02  0.0000000E+00
Ar  6515  0.4449134E+02  0.1740284E+02  0.4590745E+02  0.0000000E+00
Ar  6516  0.4168138E+02  0.1959393E+02  0.4682840E+02  0.0000000E+00
Ar  6517  0.4206423E+02  0.1686616E+02  0.4879946E+02  0.0000000E+00
Ar  6518  0.4517394E+02  0.2038864E+02  0.4860918E+02  0.0000000E+00
Ar  6519  0.4533222E+02  0.1773164E+02  0.5146192E+02  0.0000000E+00
Ar  6520  0.4236125E+02  0.1985720E+02  0.5130841E+02  0.0000000E+00
Ar  6521  0.4178093E+02  0.1738577E+02  0.5510164E+02  0.0000000E+00
Ar  6522  0.4449986E+02  0.1952883E+02  0.5432562E+02  0.0000000E+00
Ar  6523  0.4448155E+02  0.1781383E+02  0.5739926E+02  0.0000000E+00
Ar  6524  0.4222522E+02  0.2061493E+02  0.5757426E+02  0.0000000E+00
Ar  6525  0.4183360E+02  0.1760116E+02  0.6055709E+02  0.0000000E+00
Ar  6526  0.4463097E+02  0.2087998E+02  0.6005277E+02  0.0000000E+00
Ar  6527  0.4448512E+02  0.1744694E+02  0.6323503E+02  0.0000000E+00
Ar  6528  0.4176497E+02  0.2028340E+02  0.6333804E+02  0.0000000E+00
Ar  6529  0.4228623E+02  0.1791635E+02  0.6589687E+02  0.0000000E+00
Ar  6530  0.4486428E+02  0.2056698E+02  0.6610175E+02  0.0000000E+00
Ar  6531  0.4478273E+02  0.1770282E+02  0.6947187E+02  0.0000000E+00
Ar  6532  0.4228389E+02  0.2031642E+02  0.6960106E+02  0.0000000E+00
Ar  6533  0.4159431E+02  0.1731978E+02  0.7187030E+02  0.0000000E+00
Ar  6534  0.4562889E+02  0.2063195E+02  0.7197973E+02  0.0000000E+00
Ar  6535  0.4487906E+02  0.1752991E+02  0.7491663E+02  0.0000000E+00
Ar  6536  0.4238981E+02  0.2017331E+02  0.7419849E+02  0.0000000E+00
Ar  6537  0.4219493E+02  0.1698308E+02  0.7697008E+02  0.0000000E+00
Ar  6538  0.4487914E+02  0.2028125E+02  0.7739823E+02  0.0000000E+00
Ar  6539  0.4462490E+02  0.1840809E+02  0.8036599E+02  0.0000000E+00
Ar  6540  0.4203646E+02  0.2052896E+02  0.8008197E+02  0.0000000E+00
Ar  6541  0.4217280E+02  0.2298454E+02  0.8304159E+02  0.0000000E+00
Ar  6542  0.4528818E+02  0.2560381E+02  0.8298501E+02  0.0000000E+00
Ar  6543  0.4485249E+02  0.2304616E+02  0.1535364E+01  0.0000000E+00
Ar  6544  0.4221283E+02  0.2610383E+02  0.1431493E+01  0.0000000E+00
Ar  6545  0.4234949E+02  0.2295862E+02  0.4043604E+01  0.0000000E+00
Ar  6546  0.4456735E+02  0.2603727E+02  0.3994182E+01  0.0000000E+00
Ar  6547  0.4514323E+02  0.2323594E+02  0.6648525E+01  0.0000000E+00
Ar  6548  0.4246524E+02  0.2612872E+02  0.6861136E+01  0.0000000E+00
Ar  6549  0.4227474E+02  0.2254182E+02  0.9064570E+01  0.0000000E+00
Ar  6550  0.4467296E+02  0.2601497E+02  0.9661486E+01  0.0000000E+00
Ar  6551  0.4485695E+02  0.2322745E+02  0.1211310E+02  0.0000000E+00
Ar  6552  0.4151638E+02  0.2571084E+02  0.1196153E+02  0.0000000E+00
Ar  6553  0.4211342E+02  0.2337075E+02  0.1530473E+02  0.0000000E+00
Ar  6554  0.4457562E+02  0.2549078E+02  0.1530335E+02  0.0000000E+00
Ar  6555  0.4432044E+02  0.2282918E+02  0.1811077E+02  0.0000000E+00
Ar  6556  0.4264226E+02  0.2580467E+02  0.1831554E+02  0.0000000E+00
Ar  6557  0.4262897E+02  0.2253129E+02  0.2141963E+02  0.0000000E+00
Ar  6558  0.4567619E+02  0.2522088E+02  0.2121295E+02  0.0000000E+00
Ar  6559  0.4536204E+02  0.2340318E+02  0.2412077E+02  0.0000000E+00
Ar  6560  0.4197687E+02  0.2550500E+02  0.2323858E+02  0.0000000E+00
Ar  6561  0.4257390E+02  0.2268869E+02  0.2723430E+02  0.0000000E+00
Ar  6562  0.4511030E+02  0.2605371E+02  0.2637257E+02  0.0000000E+00
Ar  6563  0.4501402E+02  0.2355278E+02  0.2976785E+02  0.0000000E+00
Ar  6564  0.4210199E+02  0.2668945E+02  0.2973394E+02  0.0000000E+00
Ar  6565  0.4215557E+02  0.2288110E+02  0.3192507E+02  0.0000000E+00
Ar  6566  0.4494106E+02  0.2611969E+02  0.3226535E+02  0.0000000E+00
Ar  6567  0.4454245E+02  0.2307212E+02  0.3478709E+02  0.0000000E+00
Ar  6568  0.4205820E+02  0.2605911E+02  0.3469184E+02  0.0000000E+00
Ar  6569  0.4172689E+02  0.2336588E+02  0.3727732E+02  0.0000000E+00
Ar  6570  0.4493906E+02  0.2571256E+02  0.3755994E+02  0.0000000E+00
Ar  6571  0.4471844E+02  0.2313163E+02  0.3969519E+02  0.0000000E+00
Ar  6572  0.4210671E+02  0.2646271E+02  0.4046638E+02  0.0000000E+00
Ar  6573  0.4160830E+02  0.2296603E+02  0.4305588E+02  0.0000000E+00
Ar  6574  0.4515840E+02  0.2564636E+02  0.4281851E+02  0.0000000E+00
Ar  6575  0.4518378E+02  0.2285091E+02  0.4594174E+02  0.0000000E+00
Ar  6576  0.4268955E+02  0.2563063E+02  0.4575991E+02  0.0000000E+00
Ar  6577  0.4234166E+02  0.2309251E+02  0.4824234E+02  0.0000000E+00
Ar  6578  0.4535324E+02  0.2557058E+02  0.4847708E+02  0.0000000E+00
Ar  6579  0.4515646E+02  0.2221467E+02  0.5165960E+02  0.0000000E+00
Ar  6580  0.4246013E+02  0.2537860E+02  0.5103548E+02  0.0000000E+00
Ar  6581  0.4190456E+02  0.2313979E+02  0.5483182E+02  0.0000000E+00
Ar  6582  0.4435151E+02  0.2563499E+02  0.5448493E+02  0.0000000E+00
Ar  6583  0.4522671E+02  0.2219439E+02  0.5669352E+02  0.0000000E+00
Ar  6584  0.4169886E+02  0.2559905E+02  0.5726097E+02  0.0000000E+00
Ar  6585  0.4127043E+02  0.2348387E+02  0.6015598E+02  0.0000000E+00
Ar  6586  0.4460057E+02  0.2581141E+02  0.6021620E+02  0.0000000E+00
Ar  6587  0.4386098E+02  0.2331382E+02  0.6320693E+02  0.0000000E+00
Ar  6588  0.4108402E+02  0.2583275E+02  0.6322873E+02  0.0000000E+00
Ar  6589  0.4180309E+02  0.2271370E+02  0.6633314E+02  0.0000000E+00
Ar  6590  0.4445167E+02  0.2584429E+02  0.6531902E+02  0.0000000E+00
Ar  6591  0.4462837E+02  0.2337257E+02  0.6857887E+02  0.0000000E+00
Ar  6592  0.4123819E+02  0.2609652E+02  0.6869667E+02  0.0000000E+00
Ar  6593  0.4202578E+02  0.2317844E+02  0.7160336E+02  0.0000000E+00
Ar  6594  0.4472987E+02  0.2588775E+02  0.7140857E+02  0.0000000E+00
Ar  6595  0.4493926E+02  0.2309055E+02  0.7453081E+02  0.0000000E+00
Ar  6596  0.4230247E+02  0.2587354E+02  0.7462112E+02  0.0000000E+00
Ar  6597  0.4231706E+02  0.2260395E+02  0.7672101E+02  0.0000000E+00
Ar  6598  0.4507936E+02  0.2569832E+02  0.7711597E+02  0.0000000E+00
Ar  6599  0.4499230E+02  0.2320936E+02  0.8008677E+02  0.0000000E+00
Ar  6600  0.4253414E+02  0.2592929E+02  0.7977691E+02  0.0000000E+00
Ar  6601  0.4220850E+02  0.2892184E+02  0.8256937E+02  0.0000000E+00
Ar  6602  0.4458379E+02  0.3213026E+02  0.8269502E+02  0.0000000E+00
Ar  6603  0.4557347E+02  0.2899299E+02  0.1765716E+01  0.0000000E+00
Ar  6604  0.4180350E+02  0.3145293E+02  0.1333718E+01  0.0000000E+00
Ar  6605  0.4248302E+02  0.2897577E+02  0.4023694E+01  0.0000000E+00
Ar  6606  0.4516668E+02  0.3153200E+02  0.4170713E+01  0.0000000E+00
Ar  6607  0.4526276E+02  0.2876056E+02  0.6443204E+01  0.0000000E+00
Ar  6608  0.4249780E+02  0.3145268E+02  0.7222608E+01  0.0000000E+00
Ar  6609  0.4142343E+02  0.2891957E+02  0.9601222E+01  0.0000000E+00
Ar  6610  0.4557670E+02  0.3117359E+02  0.1042455E+02  0.0000000E+00
Ar  6611  0.4475751E+02  0.2841275E+02  0.1249150E+02  0.0000000E+00
Ar  6612  0.4197226E+02  0.3164807E+02  0.1248568E+02  0.0000000E+00
Ar  6613  0.4213533E+02  0.2895147E+02  0.1550163E+02  0.0000000E+00
Ar  6614  0.4497648E+02  0.3089386E+02  0.1527950E+02  0.0000000E+00
Ar  6615  0.4534432E+02  0.2818958E+02  0.1803064E+02  0.0000000E+00
Ar  6616  0.4229997E+02  0.3159576E+02  0.1794779E+02  0.0000000E+00
Ar  6617  0.4209661E+02  0.2875841E+02  0.2033353E+02  0.0000000E+00
Ar  6618  0.4515900E+02  0.3150095E+02  0.2081903E+02  0.0000000E+00
Ar  6619  0.4463972E+02  0.2807241E+02  0.2322222E+02  0.0000000E+00
Ar  6620  0.4223999E+02  0.3110066E+02  0.2323743E+02  0.0000000E+00
Ar  6621  0.4245534E+02  0.2850265E+02  0.2612189E+02  0.0000000E+00
Ar  6622  0.4422741E+02  0.3158427E+02  0.2648592E+02  0.0000000E+00
Ar  6623  0.4469760E+02  0.2892285E+02  0.2926747E+02  0.0000000E+00
Ar  6624  0.4221209E+02  0.3200035E+02  0.2969061E+02  0.0000000E+00
Ar  6625  0.4245462E+02  0.2955216E+02  0.3235196E+02  0.0000000E+00
Ar  6626  0.4516329E+02  0.3196246E+02  0.3229042E+02  0.0000000E+00
Ar  6627  0.4551126E+02  0.2884044E+02  0.3462915E+02  0.0000000E+00
Ar  6628  0.4257715E+02  0.3195367E+02  0.3532275E+02  0.0000000E+00
Ar  6629  0.4233237E+02  0.2848210E+02  0.3709848E+02  0.0000000E+00
Ar  6630  0.4555920E+02  0.3163975E+02  0.3818325E+02  0.0000000E+00
Ar  6631  0.4511190E+02  0.2908843E+02  0.4060951E+02  0.0000000E+00
Ar  6632  0.4263263E+02  0.3199725E+02  0.4064632E+02  0.0000000E+00
Ar  6633  0.4224836E+02  0.2887695E+02  0.4316371E+02  0.0000000E+00
Ar  6634  0.4530843E+02  0.3125286E+02  0.4303720E+02  0.0000000E+00
Ar  6635  0.4528805E+02  0.2868363E+02  0.4581693E+02  0.0000000E+00
Ar  6636  0.4248907E+02  0.3136267E+02  0.4593011E+02  0.0000000E+00
Ar  6637  0.4243129E+02  0.2856031E+02  0.4866801E+02  0.0000000E+00
Ar  6638  0.4460342E+02  0.3185751E+02  0.4905823E+02  0.0000000E+00
Ar  6639  0.4484291E+02  0.2878021E+02  0.5162926E+02  0.0000000E+00
Ar  6640  0.4256111E+02  0.3194173E+02  0.5211158E+02  0.0000000E+00
Ar  6641  0.4194475E+02  0.2895010E+02  0.5426435E+02  0.0000000E+00
Ar  6642  0.4491330E+02  0.3167264E+02  0.5463732E+02  0.0000000E+00
Ar  6643  0.4474963E+02  0.2820037E+02  0.5700073E+02  0.0000000E+00
Ar  6644  0.4136949E+02  0.3141263E+02  0.5742380E+02  0.0000000E+00
Ar  6645  0.4186817E+02  0.2849351E+02  0.5956352E+02  0.0000000E+00
Ar  6646  0.4544951E+02  0.3118668E+02  0.6017043E+02  0.0000000E+00
Ar  6647  0.4453766E+02  0.2831570E+02  0.6263553E+02  0.0000000E+00
Ar  6648  0.4208287E+02  0.3099593E+02  0.6303513E+02  0.0000000E+00
Ar  6649  0.4131743E+02  0.2857603E+02  0.6572573E+02  0.0000000E+00
Ar  6650  0.4466002E+02  0.3078412E+02  0.6532664E+02  0.0000000E+00
Ar  6651  0.4415917E+02  0.2842189E+02  0.6833470E+02  0.0000000E+00
Ar  6652  0.4195616E+02  0.3113517E+02  0.6875948E+02  0.0000000E+00
Ar  6653  0.4161839E+02  0.2836606E+02  0.7195574E+02  0.0000000E+00
Ar  6654  0.4487928E+02  0.3099006E+02  0.7152510E+02  0.0000000E+00
Ar  6655  0.4437780E+02  0.2914427E+02  0.7423306E+02  0.0000000E+00
Ar  6656  0.4144144E+02  0.3149068E+02  0.7488279E+02  0.0000000E+00
Ar  6657  0.4255535E+02  0.2825466E+02  0.7729772E+02  0.0000000E+00
Ar  6658  0.4459025E+02  0.3165847E+02  0.7735471E+02  0.0000000E+00
Ar  6659  0.4495700E+02  0.2868081E+02  0.8030748E+02  0.0000000E+00
Ar  6660  0.4249967E+02  0.3158086E+02  0.8006675E+02  0.0000000E+00
Ar  6661  0.4269860E+02  0.3495886E+02  0.8306827E+02  0.0000000E+00
Ar  6662  0.4496132E+02  0.3763873E+02  0.8286833E+02  0.0000000E+00
Ar  6663  0.4443730E+02  0.3410356E+02  0.1726401E+01  0.0000000E+00
Ar  6664  0.4150140E+02  0.3752411E+02  0.1944626E+01  0.0000000E+00
Ar  6665  0.4215494E+02  0.3407458E+02  0.4817191E+01  0.0000000E+00
Ar  6666  0.4489601E+02  0.3739372E+02  0.3932814E+01  0.0000000E+00
Ar  6667  0.4547807E+02  0.3439717E+02  0.6382376E+01  0.0000000E+00
Ar  6668  0.4227963E+02  0.3701343E+02  0.6608006E+01  0.0000000E+00
Ar  6669  0.4241167E+02  0.3437966E+02  0.9752946E+01  0.0000000E+00
Ar  6670  0.4490120E+02  0.3701069E+02  0.8850864E+01  0.0000000E+00
Ar  6671  0.4523121E+02  0.3446179E+02  0.1201020E+02  0.0000000E+00
Ar  6672  0.4230803E+02  0.3713616E+02  0.1214527E+02  0.0000000E+00
Ar  6673  0.4230464E+02  0.3476974E+02  0.1538149E+02  0.0000000E+00
Ar  6674  0.4560424E+02  0.3671323E+02  0.1554709E+02  0.0000000E+00
Ar  6675  0.4473674E+02  0.3397208E+02  0.1832584E+02  0.0000000E+00
Ar  6676  0.4181971E+02  0.3721283E+02  0.1825842E+02  0.0000000E+00
Ar  6677  0.4173160E+02  0.3362566E+02  0.2091181E+02  0.0000000E+00
Ar  6678  0.4424101E+02  0.3756338E+02  0.2106231E+02  0.0000000E+00
Ar  6679  0.4431768E+02  0.3390287E+02  0.2355381E+02  0.0000000E+00
Ar  6680  0.4162804E+02  0.3743595E+02  0.2370687E+02  0.0000000E+00
Ar  6681  0.4221316E+02  0.3431372E+02  0.2680465E+02  0.0000000E+00
Ar  6682  0.4492346E+02  0.3723096E+02  0.2659215E+02  0.0000000E+00
Ar  6683  0.4451433E+02  0.3472511E+02  0.3030289E+02  0.0000000E+00
Ar  6684  0.4193458E+02  0.3724282E+02  0.2933107E+02  0.0000000E+00
Ar  6685  0.4196934E+02  0.3463782E+02  0.3301328E+02  0.0000000E+00
Ar  6686  0.4499392E+02  0.3772003E+02  0.3265444E+02  0.0000000E+00
Ar  6687  0.4494751E+02  0.3483995E+02  0.3488178E+02  0.0000000E+00
Ar  6688  0.4186149E+02  0.3703440E+02  0.3538313E+02  0.0000000E+00
Ar  6689  0.4185225E+02  0.3458892E+02  0.3778079E+02  0.0000000E+00
Ar  6690  0.4484329E+02  0.3683436E+02  0.3788310E+02  0.0000000E+00
Ar  6691  0.4534660E+02  0.3450503E+02  0.4048366E+02  0.0000000E+00
Ar  6692  0.4167511E+02  0.3670757E+02  0.4070760E+02  0.0000000E+00
Ar  6693  0.4135120E+02  0.3495754E+02  0.4417183E+02  0.0000000E+00
Ar  6694  0.4530730E+02  0.3775539E+02  0.4347118E+02  0.0000000E+00
Ar  6695  0.4450907E+02  0.3451081E+02  0.4586455E+02  0.0000000E+00
Ar  6696  0.4225051E+02  0.3731449E+02  0.4686640E+02  0.0000000E+00
Ar  6697  0.4170608E+02  0.3396982E+02  0.4952234E+02  0.0000000E+00
Ar  6698  0.4437050E+02  0.3700579E+02  0.4971267E+02  0.0000000E+00
Ar  6699  0.4494195E+02  0.3405965E+02  0.5160431E+02  0.0000000E+00
Ar  6700  0.4088227E+02  0.3699947E+02  0.5261422E+02  0.0000000E+00
Ar  6701  0.4143300E+02  0.3449186E+02  0.5528909E+02  0.0000000E+00
Ar  6702  0.4478341E+02  0.3666585E+02  0.5446285E+02  0.0000000E+00
Ar  6703  0.4468050E+02  0.3351330E+02  0.5757678E+02  0.0000000E+00
Ar  6704  0.4256794E+02  0.3656983E+02  0.5826309E+02  0.0000000E+00
Ar  6705  0.4145945E+02  0.3402052E+02  0.6030102E+02  0.0000000E+00
Ar  6706  0.4563014E+02  0.3563453E+02  0.6042230E+02  0.0000000E+00
Ar  6707  0.4459575E+02  0.3420491E+02  0.6331776E+02  0.0000000E+00
Ar  6708  0.4191237E+02  0.3681464E+02  0.6269734E+02  0.0000000E+00
Ar  6709  0.4206315E+02  0.3412215E+02  0.6615993E+02  0.0000000E+00
Ar  6710  0.4478117E+02  0.3699530E+02  0.6597209E+02  0.0000000E+00
Ar  6711  0.4486833E+02  0.3403626E+02  0.6853794E+02  0.0000000E+00
Ar  6712  0.4182836E+02  0.3717405E+02  0.6789326E+02  0.0000000E+00
Ar  6713  0.4216565E+02  0.3473179E+02  0.7059815E+02  0.0000000E+00
Ar  6714  0.4490998E+02  0.3669541E+02  0.7178936E+02  0.0000000E+00
Ar  6715  0.4455803E+02  0.3412285E+02  0.7437582E+02  0.0000000E+00
Ar  6716  0.4186334E+02  0.3699232E+02  0.7400982E+02  0.0000000E+00
Ar  6717  0.4196141E+02  0.3438807E+02  0.7702076E+02  0.0000000E+00
Ar  6718  0.4450705E+02  0.3695592E+02  0.7716287E+02  0.0000000E+00
Ar  6719  0.4445574E+02  0.3461298E+02  0.7995943E+02  0.0000000E+00
Ar  6720  0.4193121E+02  0.3774146E+02  0.8037036E+02  0.0000000E+00
Ar  6721  0.4182405E+02  0.3943303E+02  0.8351689E+02  0.0000000E+00
Ar  6722  0.4496070E+02  0.4247254E+02  0.8283387E+02  0.0000000E+00
Ar  6723  0.4476766E+02  0.4008645E+02  0.1592057E+01  0.0000000E+00
Ar  6724  0.4248290E+02  0.4331116E+02  0.1257806E+01  0.0000000E+00
Ar  6725  0.4211383E+02  0.3999143E+02  0.4239799E+01  0.0000000E+00
Ar  6726  0.4503007E+02  0.4325495E+02  0.4003568E+01  0.0000000E+00
Ar  6727  0.4538226E+02  0.4045972E+02  0.6784946E+01  0.0000000E+00
Ar  6728  0.4253096E+02  0.4272397E+02  0.7056454E+01  0.0000000E+00
Ar  6729  0.4243820E+02  0.3986778E+02  0.9863193E+01  0.0000000E+00
Ar  6730  0.4525809E+02  0.4397821E+02  0.1040361E+02  0.0000000E+00
Ar  6731  0.4545116E+02  0.4022287E+02  0.1191014E+02  0.0000000E+00
Ar  6732  0.4287562E+02  0.4254671E+02  0.1269648E+02  0.0000000E+00
Ar  6733  0.4295941E+02  0.3961929E+02  0.1524627E+02  0.0000000E+00
Ar  6734  0.4528276E+02  0.4281150E+02  0.1576744E+02  0.0000000E+00
Ar  6735  0.4615430E+02  0.3978222E+02  0.1803243E+02  0.0000000E+00
Ar  6736  0.4209613E+02  0.4289594E+02  0.1861138E+02  0.0000000E+00
Ar  6737  0.4193704E+02  0.4033453E+02  0.2072974E+02  0.0000000E+00
Ar  6738  0.4506275E+02  0.4269012E+02  0.2119395E+02  0.0000000E+00
Ar  6739  0.4537219E+02  0.3987648E+02  0.2375252E+02  0.0000000E+00
Ar  6740  0.4163951E+02  0.4236124E+02  0.2386642E+02  0.0000000E+00
Ar  6741  0.4213208E+02  0.4009406E+02  0.2657664E+02  0.0000000E+00
Ar  6742  0.4501489E+02  0.4227243E+02  0.2635903E+02  0.0000000E+00
Ar  6743  0.4479248E+02  0.3981093E+02  0.2954792E+02  0.0000000E+00
Ar  6744  0.4163964E+02  0.4217890E+02  0.2970395E+02  0.0000000E+00
Ar  6745  0.4203313E+02  0.4013278E+02  0.3234605E+02  0.0000000E+00
Ar  6746  0.4507331E+02  0.4210310E+02  0.3236011E+02  0.0000000E+00
Ar  6747  0.4519924E+02  0.3974852E+02  0.3564691E+02  0.0000000E+00
Ar  6748  0.4268546E+02  0.4203090E+02  0.3526474E+02  0.0000000E+00
Ar  6749  0.4092066E+02  0.4041778E+02  0.3786920E+02  0.0000000E+00
Ar  6750  0.4438103E+02  0.4289110E+02  0.3830293E+02  0.0000000E+00
Ar  6751  0.4462319E+02  0.3976144E+02  0.4002171E+02  0.0000000E+00
Ar  6752  0.4198793E+02  0.4256014E+02  0.4099414E+02  0.0000000E+00
Ar  6753  0.4250243E+02  0.3985834E+02  0.4379520E+02  0.0000000E+00
Ar  6754  0.4543503E+02  0.4185344E+02  0.4288746E+02  0.0000000E+00
Ar  6755  0.4484794E+02  0.3966751E+02  0.4748855E+02  0.0000000E+00
Ar  6756  0.4160405E+02  0.4247670E+02  0.4613694E+02  0.0000000E+00
Ar  6757  0.4139231E+02  0.3949318E+02  0.4992068E+02  0.0000000E+00
Ar  6758  0.4441885E+02  0.4225343E+02  0.4975237E+02  0.0000000E+00
Ar  6759  0.4380440E+02  0.3934526E+02  0.5236318E+02  0.0000000E+00
Ar  6760  0.4174422E+02  0.4235034E+02  0.5207018E+02  0.0000000E+00
Ar  6761  0.4134549E+02  0.3933582E+02  0.5531808E+02  0.0000000E+00
Ar  6762  0.4375434E+02  0.4245037E+02  0.5477808E+02  0.0000000E+00
Ar  6763  0.4460046E+02  0.3962349E+02  0.5734913E+02  0.0000000E+00
Ar  6764  0.4177978E+02  0.4239993E+02  0.5771117E+02  0.0000000E+00
Ar  6765  0.4209144E+02  0.3966694E+02  0.6025340E+02  0.0000000E+00
Ar  6766  0.4505847E+02  0.4255432E+02  0.6070868E+02  0.0000000E+00
Ar  6767  0.4452339E+02  0.3939909E+02  0.6277881E+02  0.0000000E+00
Ar  6768  0.4254967E+02  0.4288963E+02  0.6360986E+02  0.0000000E+00
Ar  6769  0.4186250E+02  0.4018353E+02  0.6563101E+02  0.0000000E+00
Ar  6770  0.4476074E+02  0.4241603E+02  0.6641351E+02  0.0000000E+00
Ar  6771  0.4484044E+02  0.3956064E+02  0.6902615E+02  0.0000000E+00
Ar  6772  0.4180394E+02  0.4246075E+02  0.6842555E+02  0.0000000E+00
Ar  6773  0.4232445E+02  0.3938797E+02  0.7165686E+02  0.0000000E+00
Ar  6774  0.4460998E+02  0.4237662E+02  0.7160775E+02  0.0000000E+00
Ar  6775  0.4416885E+02  0.4010011E+02  0.7441109E+02  0.0000000E+00
Ar  6776  0.4148908E+02  0.4238394E+02  0.7373363E+02  0.0000000E+00
Ar  6777  0.4182133E+02  0.4006622E+02  0.7766801E+02  0.0000000E+00
Ar  6778  0.4465065E+02  0.4255560E+02  0.7757728E+02  0.0000000E+00
Ar  6779  0.4465933E+02  0.3979522E+02  0.7971359E+02  0.0000000E+00
Ar  6780  0.4188914E+02  0.4197339E+02  0.8045465E+02  0.0000000E+00
Ar  6781  0.4189048E+02  0.4531666E+02  0.8227743E+02  0.0000000E+00
Ar  6782  0.4502088E+02  0.4800139E+02  0.8303278E+02  0.0000000E+00
Ar  6783  0.4583472E+02  0.4557067E+02  0.1144946E+01  0.0000000E+00
Ar  6784  0.4234272E+02  0.4848869E+02  0.1746295E+01  0.0000000E+00
Ar  6785  0.4193806E+02  0.4528299E+02  0.4412345E+01  0.0000000E+00
Ar  6786  0.4486675E+02  0.4796986E+02  0.4272077E+01  0.0000000E+00
Ar  6787  0.4473911E+02  0.4554898E+02  0.7126396E+01  0.0000000E+00
Ar  6788  0.4177846E+02  0.4796191E+02  0.7272058E+01  0.0000000E+00
Ar  6789  0.4175027E+02  0.4505195E+02  0.9543271E+01  0.0000000E+00
Ar  6790  0.4414801E+02  0.4843779E+02  0.1059524E+02  0.0000000E+00
Ar  6791  0.4446910E+02  0.4594820E+02  0.1348924E+02  0.0000000E+00
Ar  6792  0.4183703E+02  0.4827006E+02  0.1353848E+02  0.0000000E+00
Ar  6793  0.4139492E+02  0.4489041E+02  0.1501390E+02  0.0000000E+00
Ar  6794  0.4536477E+02  0.4859144E+02  0.1575172E+02  0.0000000E+00
Ar  6795  0.4446456E+02  0.4556894E+02  0.1839489E+02  0.0000000E+00
Ar  6796  0.4179532E+02  0.4818347E+02  0.1913270E+02  0.0000000E+00
Ar  6797  0.4233790E+02  0.4512763E+02  0.2164347E+02  0.0000000E+00
Ar  6798  0.4498857E+02  0.4785412E+02  0.2144304E+02  0.0000000E+00
Ar  6799  0.4471107E+02  0.4514895E+02  0.2404029E+02  0.0000000E+00
Ar  6800  0.4180931E+02  0.4767470E+02  0.2390712E+02  0.0000000E+00
Ar  6801  0.4238730E+02  0.4505373E+02  0.2673598E+02  0.0000000E+00
Ar  6802  0.4467920E+02  0.4788273E+02  0.2674896E+02  0.0000000E+00
Ar  6803  0.4472104E+02  0.4480988E+02  0.2969495E+02  0.0000000E+00
Ar  6804  0.4198168E+02  0.4741195E+02  0.3022965E+02  0.0000000E+00
Ar  6805  0.4205093E+02  0.4494223E+02  0.3246847E+02  0.0000000E+00
Ar  6806  0.4512966E+02  0.4727355E+02  0.3230066E+02  0.0000000E+00
Ar  6807  0.4483907E+02  0.4491781E+02  0.3494489E+02  0.0000000E+00
Ar  6808  0.4153544E+02  0.4772977E+02  0.3535645E+02  0.0000000E+00
Ar  6809  0.4163061E+02  0.4502240E+02  0.3802504E+02  0.0000000E+00
Ar  6810  0.4411811E+02  0.4760944E+02  0.3800796E+02  0.0000000E+00
Ar  6811  0.4486831E+02  0.4546188E+02  0.4117473E+02  0.0000000E+00
Ar  6812  0.4177584E+02  0.4820286E+02  0.4084435E+02  0.0000000E+00
Ar  6813  0.4171005E+02  0.4543222E+02  0.4345939E+02  0.0000000E+00
Ar  6814  0.4459521E+02  0.4784693E+02  0.4414318E+02  0.0000000E+00
Ar  6815  0.4430585E+02  0.4490976E+02  0.4662283E+02  0.0000000E+00
Ar  6816  0.4194533E+02  0.4810548E+02  0.4673539E+02  0.0000000E+00
Ar  6817  0.4212046E+02  0.4530470E+02  0.4945071E+02  0.0000000E+00
Ar  6818  0.4417912E+02  0.4826951E+02  0.4937073E+02  0.0000000E+00
Ar  6819  0.4477495E+02  0.4513005E+02  0.5229533E+02  0.0000000E+00
Ar  6820  0.4176075E+02  0.4828374E+02  0.5235964E+02  0.0000000E+00
Ar  6821  0.4165272E+02  0.4583282E+02  0.5533923E+02  0.0000000E+00
Ar  6822  0.4456325E+02  0.4847716E+02  0.5519914E+02  0.0000000E+00
Ar  6823  0.4386373E+02  0.4526113E+02  0.5796299E+02  0.0000000E+00
Ar  6824  0.4130393E+02  0.4837672E+02  0.5807801E+02  0.0000000E+00
Ar  6825  0.4148661E+02  0.4522157E+02  0.6063992E+02  0.0000000E+00
Ar  6826  0.4427092E+02  0.4851950E+02  0.6068511E+02  0.0000000E+00
Ar  6827  0.4447624E+02  0.4562923E+02  0.6316613E+02  0.0000000E+00
Ar  6828  0.4165475E+02  0.4794614E+02  0.6334458E+02  0.0000000E+00
Ar  6829  0.4205410E+02  0.4549267E+02  0.6578874E+02  0.0000000E+00
Ar  6830  0.4507052E+02  0.4870398E+02  0.6579811E+02  0.0000000E+00
Ar  6831  0.4483811E+02  0.4515769E+02  0.6875291E+02  0.0000000E+00
Ar  6832  0.4285907E+02  0.4818368E+02  0.6854857E+02  0.0000000E+00
Ar  6833  0.4219945E+02  0.4554989E+02  0.7169643E+02  0.0000000E+00
Ar  6834  0.4442917E+02  0.4837952E+02  0.7161238E+02  0.0000000E+00
Ar  6835  0.4426819E+02  0.4583041E+02  0.7480179E+02  0.0000000E+00
Ar  6836  0.4198818E+02  0.4821858E+02  0.7448570E+02  0.0000000E+00
Ar  6837  0.4234546E+02  0.4556126E+02  0.7769782E+02  0.0000000E+00
Ar  6838  0.4492245E+02  0.4814818E+02  0.7748754E+02  0.0000000E+00
Ar  6839  0.4498842E+02  0.4529555E+02  0.7984689E+02  0.0000000E+00
Ar  6840  0.4235721E+02  0.4822920E+02  0.7995376E+02  0.0000000E+00
Ar  6841  0.4255002E+02  0.5117848E+02  0.8277481E+02  0.0000000E+00
Ar  6842  0.4525442E+02  0.5409988E+02  0.8282596E+02  0.0000000E+00
Ar  6843  0.4586222E+02  0.5099279E+02  0.6143705E+00  0.0000000E+00
Ar  6844  0.4222558E+02  0.5323982E+02  0.1529871E+01  0.0000000E+00
Ar  6845  0.4225996E+02  0.5092147E+02  0.4944328E+01  0.0000000E+00
Ar  6846  0.4612948E+02  0.5352665E+02  0.3201507E+01  0.0000000E+00
Ar  6847  0.4470593E+02  0.5011123E+02  0.7060872E+01  0.0000000E+00
Ar  6848  0.4237863E+02  0.5358761E+02  0.7242609E+01  0.0000000E+00
Ar  6849  0.4203756E+02  0.5149448E+02  0.9999905E+01  0.0000000E+00
Ar  6850  0.4500228E+02  0.5378443E+02  0.1060557E+02  0.0000000E+00
Ar  6851  0.4548215E+02  0.5131029E+02  0.1344287E+02  0.0000000E+00
Ar  6852  0.4243509E+02  0.5364079E+02  0.1333626E+02  0.0000000E+00
Ar  6853  0.4264571E+02  0.5091531E+02  0.1602134E+02  0.0000000E+00
Ar  6854  0.4484933E+02  0.5404927E+02  0.1618773E+02  0.0000000E+00
Ar  6855  0.4479692E+02  0.5060583E+02  0.1888899E+02  0.0000000E+00
Ar  6856  0.4229035E+02  0.5350945E+02  0.1878936E+02  0.0000000E+00
Ar  6857  0.4230451E+02  0.5073934E+02  0.2180653E+02  0.0000000E+00
Ar  6858  0.4498799E+02  0.5363732E+02  0.2152775E+02  0.0000000E+00
Ar  6859  0.4494694E+02  0.5073235E+02  0.2442098E+02  0.0000000E+00
Ar  6860  0.4184358E+02  0.5379951E+02  0.2356174E+02  0.0000000E+00
Ar  6861  0.4206770E+02  0.5058904E+02  0.2666794E+02  0.0000000E+00
Ar  6862  0.4392695E+02  0.5379647E+02  0.2729759E+02  0.0000000E+00
Ar  6863  0.4492239E+02  0.5055537E+02  0.3007277E+02  0.0000000E+00
Ar  6864  0.4193994E+02  0.5319371E+02  0.3013748E+02  0.0000000E+00
Ar  6865  0.4211053E+02  0.5013645E+02  0.3263150E+02  0.0000000E+00
Ar  6866  0.4471470E+02  0.5356102E+02  0.3224396E+02  0.0000000E+00
Ar  6867  0.4497389E+02  0.5070389E+02  0.3495030E+02  0.0000000E+00
Ar  6868  0.4228311E+02  0.5377638E+02  0.3494173E+02  0.0000000E+00
Ar  6869  0.4192688E+02  0.5079757E+02  0.3731828E+02  0.0000000E+00
Ar  6870  0.4501895E+02  0.5357448E+02  0.3736737E+02  0.0000000E+00
Ar  6871  0.4456735E+02  0.5073101E+02  0.4129937E+02  0.0000000E+00
Ar  6872  0.4191407E+02  0.5343607E+02  0.4026549E+02  0.0000000E+00
Ar  6873  0.4174504E+02  0.5089473E+02  0.4341456E+02  0.0000000E+00
Ar  6874  0.4458412E+02  0.5366796E+02  0.4348963E+02  0.0000000E+00
Ar  6875  0.4417027E+02  0.5129153E+02  0.4703166E+02  0.0000000E+00
Ar  6876  0.4128718E+02  0.5377603E+02  0.4550178E+02  0.0000000E+00
Ar  6877  0.4103825E+02  0.5070190E+02  0.4947506E+02  0.0000000E+00
Ar  6878  0.4456046E+02  0.5413570E+02  0.4919896E+02  0.0000000E+00
Ar  6879  0.4393935E+02  0.5106735E+02  0.5165567E+02  0.0000000E+00
Ar  6880  0.4184567E+02  0.5379029E+02  0.5169661E+02  0.0000000E+00
Ar  6881  0.4163678E+02  0.5091699E+02  0.5512710E+02  0.0000000E+00
Ar  6882  0.4443097E+02  0.5363561E+02  0.5400384E+02  0.0000000E+00
Ar  6883  0.4437048E+02  0.5127984E+02  0.5775883E+02  0.0000000E+00
Ar  6884  0.4193243E+02  0.5390694E+02  0.5754582E+02  0.0000000E+00
Ar  6885  0.4155722E+02  0.5100211E+02  0.6065037E+02  0.0000000E+00
Ar  6886  0.4448193E+02  0.5413315E+02  0.6031861E+02  0.0000000E+00
Ar  6887  0.4467672E+02  0.5141307E+02  0.6311555E+02  0.0000000E+00
Ar  6888  0.4218083E+02  0.5391798E+02  0.6298477E+02  0.0000000E+00
Ar  6889  0.4252324E+02  0.5123602E+02  0.6580747E+02  0.0000000E+00
Ar  6890  0.4415964E+02  0.5461835E+02  0.6583852E+02  0.0000000E+00
Ar  6891  0.4482182E+02  0.5159623E+02  0.6852296E+02  0.0000000E+00
Ar  6892  0.4227743E+02  0.5459600E+02  0.6898687E+02  0.0000000E+00
Ar  6893  0.4218542E+02  0.5182624E+02  0.7190097E+02  0.0000000E+00
Ar  6894  0.4445364E+02  0.5445036E+02  0.7247084E+02  0.0000000E+00
Ar  6895  0.4490582E+02  0.5168745E+02  0.7430985E+02  0.0000000E+00
Ar  6896  0.4125071E+02  0.5422684E+02  0.7445200E+02  0.0000000E+00
Ar  6897  0.4268348E+02  0.5110895E+02  0.7661063E+02  0.0000000E+00
Ar  6898  0.4469103E+02  0.5419005E+02  0.7687524E+02  0.0000000E+00
Ar  6899  0.4542135E+02  0.5161070E+02  0.7987116E+02  0.0000000E+00
Ar  6900  0.4234327E+02  0.5323015E+02  0.7989097E+02  0.0000000E+00
Ar  6901  0.4145681E+02  0.5616266E+02  0.8237160E+02  0.0000000E+00
Ar  6902  0.4454930E+02  0.5970403E+02  0.8259115E+02  0.0000000E+00
Ar  6903  0.4387977E+02  0.5646420E+02  0.9229682E+00  0.0000000E+00
Ar  6904  0.4143696E+02  0.5921549E+02  0.1289689E+01  0.0000000E+00
Ar  6905  0.4272778E+02  0.5623006E+02  0.4837755E+01  0.0000000E+00
Ar  6906  0.4420011E+02  0.5961190E+02  0.3823768E+01  0.0000000E+00
Ar  6907  0.4502731E+02  0.5644013E+02  0.7352639E+01  0.0000000E+00
Ar  6908  0.4178596E+02  0.5909374E+02  0.7281762E+01  0.0000000E+00
Ar  6909  0.4197011E+02  0.5592850E+02  0.1015971E+02  0.0000000E+00
Ar  6910  0.4465936E+02  0.5923905E+02  0.9711602E+01  0.0000000E+00
Ar  6911  0.4454833E+02  0.5640637E+02  0.1299240E+02  0.0000000E+00
Ar  6912  0.4232281E+02  0.5944002E+02  0.1278365E+02  0.0000000E+00
Ar  6913  0.4214706E+02  0.5617808E+02  0.1558305E+02  0.0000000E+00
Ar  6914  0.4517713E+02  0.5902012E+02  0.1572309E+02  0.0000000E+00
Ar  6915  0.4497515E+02  0.5660926E+02  0.1872193E+02  0.0000000E+00
Ar  6916  0.4264197E+02  0.5912430E+02  0.1811193E+02  0.0000000E+00
Ar  6917  0.4252567E+02  0.5638682E+02  0.2141621E+02  0.0000000E+00
Ar  6918  0.4533154E+02  0.5940513E+02  0.2174627E+02  0.0000000E+00
Ar  6919  0.4487439E+02  0.5649095E+02  0.2398311E+02  0.0000000E+00
Ar  6920  0.4189579E+02  0.5949336E+02  0.2375490E+02  0.0000000E+00
Ar  6921  0.4167669E+02  0.5650016E+02  0.2636277E+02  0.0000000E+00
Ar  6922  0.4445462E+02  0.5908329E+02  0.2655691E+02  0.0000000E+00
Ar  6923  0.4471485E+02  0.5682307E+02  0.3049344E+02  0.0000000E+00
Ar  6924  0.4205312E+02  0.5882261E+02  0.2943608E+02  0.0000000E+00
Ar  6925  0.4179752E+02  0.5636180E+02  0.3223503E+02  0.0000000E+00
Ar  6926  0.4396378E+02  0.5983139E+02  0.3355537E+02  0.0000000E+00
Ar  6927  0.4515251E+02  0.5625758E+02  0.3488656E+02  0.0000000E+00
Ar  6928  0.4069879E+02  0.5930009E+02  0.3526462E+02  0.0000000E+00
Ar  6929  0.4274348E+02  0.5626018E+02  0.3720643E+02  0.0000000E+00
Ar  6930  0.4523941E+02  0.5925927E+02  0.3710291E+02  0.0000000E+00
Ar  6931  0.4465743E+02  0.5638243E+02  0.4007022E+02  0.0000000E+00
Ar  6932  0.4240044E+02  0.5947489E+02  0.3993400E+02  0.0000000E+00
Ar  6933  0.4231226E+02  0.5697066E+02  0.4304098E+02  0.0000000E+00
Ar  6934  0.4447658E+02  0.6015957E+02  0.4316506E+02  0.0000000E+00
Ar  6935  0.4467308E+02  0.5652399E+02  0.4599933E+02  0.0000000E+00
Ar  6936  0.4214972E+02  0.5894561E+02  0.4602621E+02  0.0000000E+00
Ar  6937  0.4140495E+02  0.5624296E+02  0.4842586E+02  0.0000000E+00
Ar  6938  0.4488780E+02  0.5914586E+02  0.4883346E+02  0.0000000E+00
Ar  6939  0.4451150E+02  0.5688787E+02  0.5210111E+02  0.0000000E+00
Ar  6940  0.4176516E+02  0.5964665E+02  0.5127136E+02  0.0000000E+00
Ar  6941  0.4149670E+02  0.5706717E+02  0.5528722E+02  0.0000000E+00
Ar  6942  0.4430613E+02  0.6009250E+02  0.5431986E+02  0.0000000E+00
Ar  6943  0.4454855E+02  0.5733412E+02  0.5709884E+02  0.0000000E+00
Ar  6944  0.4133375E+02  0.6011666E+02  0.5746971E+02  0.0000000E+00
Ar  6945  0.4206804E+02  0.5711611E+02  0.6004989E+02  0.0000000E+00
Ar  6946  0.4405556E+02  0.6036738E+02  0.5988688E+02  0.0000000E+00
Ar  6947  0.4454629E+02  0.5739181E+02  0.6309880E+02  0.0000000E+00
Ar  6948  0.4120243E+02  0.5965737E+02  0.6342670E+02  0.0000000E+00
Ar  6949  0.4136721E+02  0.5675993E+02  0.6536275E+02  0.0000000E+00
Ar  6950  0.4459826E+02  0.6030579E+02  0.6571623E+02  0.0000000E+00
Ar  6951  0.4446153E+02  0.5732538E+02  0.6837414E+02  0.0000000E+00
Ar  6952  0.4167594E+02  0.5933492E+02  0.6794081E+02  0.0000000E+00
Ar  6953  0.4128960E+02  0.5685083E+02  0.7187048E+02  0.0000000E+00
Ar  6954  0.4412218E+02  0.5947043E+02  0.7171349E+02  0.0000000E+00
Ar  6955  0.4444797E+02  0.5689183E+02  0.7484206E+02  0.0000000E+00
Ar  6956  0.4181852E+02  0.5993525E+02  0.7468604E+02  0.0000000E+00
Ar  6957  0.4180065E+02  0.5675707E+02  0.7796392E+02  0.0000000E+00
Ar  6958  0.4438457E+02  0.5954597E+02  0.7783257E+02  0.0000000E+00
Ar  6959  0.4475374E+02  0.5640280E+02  0.8001484E+02  0.0000000E+00
Ar  6960  0.4147640E+02  0.5987884E+02  0.8017629E+02  0.0000000E+00
Ar  6961  0.4172742E+02  0.6296714E+02  0.8295361E+02  0.0000000E+00
Ar  6962  0.4470798E+02  0.6511194E+02  0.8262372E+02  0.0000000E+00
Ar  6963  0.4496460E+02  0.6236404E+02  0.6720779E+00  0.0000000E+00
Ar  6964  0.4207680E+02  0.6614375E+02  0.4445715E+00  0.0000000E+00
Ar  6965  0.4234229E+02  0.6322823E+02  0.3094225E+01  0.0000000E+00
Ar  6966  0.4517078E+02  0.6544202E+02  0.3282830E+01  0.0000000E+00
Ar  6967  0.4409694E+02  0.6201301E+02  0.6739995E+01  0.0000000E+00
Ar  6968  0.4251451E+02  0.6540692E+02  0.6242807E+01  0.0000000E+00
Ar  6969  0.4181028E+02  0.6253326E+02  0.9444802E+01  0.0000000E+00
Ar  6970  0.4512624E+02  0.6505531E+02  0.9841408E+01  0.0000000E+00
Ar  6971  0.4481993E+02  0.6268626E+02  0.1220810E+02  0.0000000E+00
Ar  6972  0.4156736E+02  0.6549850E+02  0.1252852E+02  0.0000000E+00
Ar  6973  0.4262367E+02  0.6256564E+02  0.1545385E+02  0.0000000E+00
Ar  6974  0.4500358E+02  0.6509518E+02  0.1548244E+02  0.0000000E+00
Ar  6975  0.4492188E+02  0.6173953E+02  0.1881783E+02  0.0000000E+00
Ar  6976  0.4187015E+02  0.6439239E+02  0.1857505E+02  0.0000000E+00
Ar  6977  0.4206662E+02  0.6247076E+02  0.2159722E+02  0.0000000E+00
Ar  6978  0.4532549E+02  0.6458452E+02  0.2147256E+02  0.0000000E+00
Ar  6979  0.4467799E+02  0.6203440E+02  0.2398052E+02  0.0000000E+00
Ar  6980  0.4177439E+02  0.6436727E+02  0.2453060E+02  0.0000000E+00
Ar  6981  0.4149380E+02  0.6177355E+02  0.2682094E+02  0.0000000E+00
Ar  6982  0.4505811E+02  0.6399736E+02  0.2784922E+02  0.0000000E+00
Ar  6983  0.4445310E+02  0.6127361E+02  0.3018936E+02  0.0000000E+00
Ar  6984  0.4178156E+02  0.6470570E+02  0.2954898E+02  0.0000000E+00
Ar  6985  0.4059663E+02  0.6155706E+02  0.3185904E+02  0.0000000E+00
Ar  6986  0.4474712E+02  0.6434803E+02  0.3183695E+02  0.0000000E+00
Ar  6987  0.4545273E+02  0.6269366E+02  0.3480653E+02  0.0000000E+00
Ar  6988  0.4214014E+02  0.6407614E+02  0.3392030E+02  0.0000000E+00
Ar  6989  0.4212106E+02  0.6209702E+02  0.3756349E+02  0.0000000E+00
Ar  6990  0.4512967E+02  0.6525203E+02  0.3737581E+02  0.0000000E+00
Ar  6991  0.4500611E+02  0.6171487E+02  0.3998282E+02  0.0000000E+00
Ar  6992  0.4230075E+02  0.6471502E+02  0.4053073E+02  0.0000000E+00
Ar  6993  0.4205102E+02  0.6261792E+02  0.4310898E+02  0.0000000E+00
Ar  6994  0.4473134E+02  0.6532797E+02  0.4354919E+02  0.0000000E+00
Ar  6995  0.4436800E+02  0.6187009E+02  0.4650537E+02  0.0000000E+00
Ar  6996  0.4113185E+02  0.6488870E+02  0.4641718E+02  0.0000000E+00
Ar  6997  0.4140826E+02  0.6296625E+02  0.4916772E+02  0.0000000E+00
Ar  6998  0.4568152E+02  0.6548470E+02  0.4874986E+02  0.0000000E+00
Ar  6999  0.4478081E+02  0.6279823E+02  0.5147647E+02  0.0000000E+00
Ar  7000  0.4191548E+02  0.6444219E+02  0.5274425E+02  0.0000000E+00
Ar  7001  0.4184459E+02  0.6280953E+02  0.5550884E+02  0.0000000E+00
Ar  7002  0.4531704E+02  0.6519622E+02  0.5498127E+02  0.0000000E+00
Ar  7003  0.4522551E+02  0.6276320E+02  0.5774963E+02  0.0000000E+00
Ar  7004  0.4184117E+02  0.6559743E+02  0.5756891E+02  0.0000000E+00
Ar  7005  0.4137884E+02  0.6241281E+02  0.6030663E+02  0.0000000E+00
Ar  7006  0.4488254E+02  0.6553978E+02  0.6017884E+02  0.0000000E+00
Ar  7007  0.4452350E+02  0.6303101E+02  0.6312291E+02  0.0000000E+00
Ar  7008  0.4221908E+02  0.6617373E+02  0.6264363E+02  0.0000000E+00
Ar  7009  0.4213056E+02  0.6277062E+02  0.6607049E+02  0.0000000E+00
Ar  7010  0.4490473E+02  0.6542417E+02  0.6629519E+02  0.0000000E+00
Ar  7011  0.4453353E+02  0.6213913E+02  0.6878978E+02  0.0000000E+00
Ar  7012  0.4182446E+02  0.6530593E+02  0.6856107E+02  0.0000000E+00
Ar  7013  0.4194062E+02  0.6208771E+02  0.7109183E+02  0.0000000E+00
Ar  7014  0.4494168E+02  0.6570201E+02  0.7078151E+02  0.0000000E+00
Ar  7015  0.4519488E+02  0.6218555E+02  0.7391460E+02  0.0000000E+00
Ar  7016  0.4185165E+02  0.6477220E+02  0.7371430E+02  0.0000000E+00
Ar  7017  0.4154774E+02  0.6243622E+02  0.7764013E+02  0.0000000E+00
Ar  7018  0.4419311E+02  0.6499597E+02  0.7714186E+02  0.0000000E+00
Ar  7019  0.4470397E+02  0.6235773E+02  0.8002577E+02  0.0000000E+00
Ar  7020  0.4139209E+02  0.6551989E+02  0.8015943E+02  0.0000000E+00
Ar  7021  0.4150267E+02  0.6908171E+02  0.8238148E+02  0.0000000E+00
Ar  7022  0.4526389E+02  0.7075469E+02  0.8263040E+02  0.0000000E+00
Ar  7023  0.4506831E+02  0.6841181E+02  0.8360781E+00  0.0000000E+00
Ar  7024  0.4237930E+02  0.7082921E+02  0.8976218E+00  0.0000000E+00
Ar  7025  0.4159548E+02  0.6821947E+02  0.3461901E+01  0.0000000E+00
Ar  7026  0.4468068E+02  0.7113302E+02  0.3680965E+01  0.0000000E+00
Ar  7027  0.4453687E+02  0.6846232E+02  0.6168456E+01  0.0000000E+00
Ar  7028  0.4221323E+02  0.7112644E+02  0.6556246E+01  0.0000000E+00
Ar  7029  0.4255525E+02  0.6772420E+02  0.9567351E+01  0.0000000E+00
Ar  7030  0.4515227E+02  0.7085761E+02  0.9032211E+01  0.0000000E+00
Ar  7031  0.4453284E+02  0.6784292E+02  0.1272097E+02  0.0000000E+00
Ar  7032  0.4230591E+02  0.7139907E+02  0.1243311E+02  0.0000000E+00
Ar  7033  0.4181470E+02  0.6810650E+02  0.1525463E+02  0.0000000E+00
Ar  7034  0.4463540E+02  0.7094136E+02  0.1498543E+02  0.0000000E+00
Ar  7035  0.4462857E+02  0.6715133E+02  0.1889134E+02  0.0000000E+00
Ar  7036  0.4261937E+02  0.7056443E+02  0.1807871E+02  0.0000000E+00
Ar  7037  0.4136354E+02  0.6754906E+02  0.1999471E+02  0.0000000E+00
Ar  7038  0.4432183E+02  0.6944258E+02  0.2158024E+02  0.0000000E+00
Ar  7039  0.4507809E+02  0.6744353E+02  0.2579498E+02  0.0000000E+00
Ar  7040  0.4160680E+02  0.7077483E+02  0.2437601E+02  0.0000000E+00
Ar  7041  0.4165841E+02  0.6706241E+02  0.2676737E+02  0.0000000E+00
Ar  7042  0.4470994E+02  0.7077200E+02  0.2702888E+02  0.0000000E+00
Ar  7043  0.4396722E+02  0.6725926E+02  0.2992482E+02  0.0000000E+00
Ar  7044  0.4167522E+02  0.7016333E+02  0.2962272E+02  0.0000000E+00
Ar  7045  0.4131866E+02  0.6715976E+02  0.3232341E+02  0.0000000E+00
Ar  7046  0.4457897E+02  0.7074740E+02  0.3191238E+02  0.0000000E+00
Ar  7047  0.4495026E+02  0.6742312E+02  0.3396635E+02  0.0000000E+00
Ar  7048  0.4239961E+02  0.7008149E+02  0.3439254E+02  0.0000000E+00
Ar  7049  0.4224319E+02  0.6688207E+02  0.3675239E+02  0.0000000E+00
Ar  7050  0.4400347E+02  0.7005187E+02  0.3801862E+02  0.0000000E+00
Ar  7051  0.4522046E+02  0.6729193E+02  0.4080712E+02  0.0000000E+00
Ar  7052  0.4210506E+02  0.7007516E+02  0.4112881E+02  0.0000000E+00
Ar  7053  0.4193846E+02  0.6758284E+02  0.4332026E+02  0.0000000E+00
Ar  7054  0.4472040E+02  0.7004359E+02  0.4392515E+02  0.0000000E+00
Ar  7055  0.4420055E+02  0.6741618E+02  0.4631463E+02  0.0000000E+00
Ar  7056  0.4217863E+02  0.7031033E+02  0.4678216E+02  0.0000000E+00
Ar  7057  0.4219779E+02  0.6771266E+02  0.4922311E+02  0.0000000E+00
Ar  7058  0.4496900E+02  0.7041187E+02  0.4913162E+02  0.0000000E+00
Ar  7059  0.4551979E+02  0.6770520E+02  0.5207037E+02  0.0000000E+00
Ar  7060  0.4216492E+02  0.7079142E+02  0.5152752E+02  0.0000000E+00
Ar  7061  0.4228260E+02  0.6783857E+02  0.5496615E+02  0.0000000E+00
Ar  7062  0.4488363E+02  0.7083569E+02  0.5376718E+02  0.0000000E+00
Ar  7063  0.4491001E+02  0.6944648E+02  0.5706113E+02  0.0000000E+00
Ar  7064  0.4207897E+02  0.7146034E+02  0.5711769E+02  0.0000000E+00
Ar  7065  0.4227974E+02  0.6869492E+02  0.5958300E+02  0.0000000E+00
Ar  7066  0.4451434E+02  0.7203363E+02  0.5948176E+02  0.0000000E+00
Ar  7067  0.4476377E+02  0.6849365E+02  0.6298599E+02  0.0000000E+00
Ar  7068  0.4184735E+02  0.7147600E+02  0.6257246E+02  0.0000000E+00
Ar  7069  0.4185920E+02  0.6836564E+02  0.6576553E+02  0.0000000E+00
Ar  7070  0.4479993E+02  0.7110632E+02  0.6559415E+02  0.0000000E+00
Ar  7071  0.4448362E+02  0.6838591E+02  0.6808850E+02  0.0000000E+00
Ar  7072  0.4214012E+02  0.7103793E+02  0.6845161E+02  0.0000000E+00
Ar  7073  0.4186095E+02  0.6796630E+02  0.7131981E+02  0.0000000E+00
Ar  7074  0.4437467E+02  0.7088046E+02  0.7147298E+02  0.0000000E+00
Ar  7075  0.4462329E+02  0.6797855E+02  0.7350330E+02  0.0000000E+00
Ar  7076  0.4194990E+02  0.7100971E+02  0.7390987E+02  0.0000000E+00
Ar  7077  0.4213440E+02  0.6778855E+02  0.7597841E+02  0.0000000E+00
Ar  7078  0.4454520E+02  0.7088941E+02  0.7663339E+02  0.0000000E+00
Ar  7079  0.4437977E+02  0.6785080E+02  0.8007661E+02  0.0000000E+00
Ar  7080  0.4210672E+02  0.7126669E+02  0.7942600E+02  0.0000000E+00
Ar  7081  0.4271568E+02  0.7320732E+02  0.8209264E+02  0.0000000E+00
Ar  7082  0.4466886E+02  0.7641003E+02  0.8195285E+02  0.0000000E+00
Ar  7083  0.4494007E+02  0.7401342E+02  0.1013038E+01  0.0000000E+00
Ar  7084  0.4248320E+02  0.7742408E+02  0.7830947E+00  0.0000000E+00
Ar  7085  0.4215643E+02  0.7486683E+02  0.3577913E+01  0.0000000E+00
Ar  7086  0.4542497E+02  0.7664065E+02  0.3882380E+01  0.0000000E+00
Ar  7087  0.4562937E+02  0.7370107E+02  0.6614817E+01  0.0000000E+00
Ar  7088  0.4229640E+02  0.7641712E+02  0.6737510E+01  0.0000000E+00
Ar  7089  0.4252231E+02  0.7365963E+02  0.9714692E+01  0.0000000E+00
Ar  7090  0.4545451E+02  0.7601007E+02  0.9437248E+01  0.0000000E+00
Ar  7091  0.4529643E+02  0.7347501E+02  0.1201704E+02  0.0000000E+00
Ar  7092  0.4265471E+02  0.7599240E+02  0.1244987E+02  0.0000000E+00
Ar  7093  0.4173089E+02  0.7336499E+02  0.1584013E+02  0.0000000E+00
Ar  7094  0.4504468E+02  0.7581736E+02  0.1516540E+02  0.0000000E+00
Ar  7095  0.4535283E+02  0.7336394E+02  0.1771998E+02  0.0000000E+00
Ar  7096  0.4229223E+02  0.7570599E+02  0.1874310E+02  0.0000000E+00
Ar  7097  0.4253960E+02  0.7284469E+02  0.2088779E+02  0.0000000E+00
Ar  7098  0.4554044E+02  0.7592427E+02  0.2116481E+02  0.0000000E+00
Ar  7099  0.4500052E+02  0.7320221E+02  0.2466287E+02  0.0000000E+00
Ar  7100  0.4185757E+02  0.7654370E+02  0.2422481E+02  0.0000000E+00
Ar  7101  0.4167975E+02  0.7381738E+02  0.2717481E+02  0.0000000E+00
Ar  7102  0.4445022E+02  0.7636897E+02  0.2698694E+02  0.0000000E+00
Ar  7103  0.4475391E+02  0.7393370E+02  0.2957561E+02  0.0000000E+00
Ar  7104  0.4180157E+02  0.7696412E+02  0.2962069E+02  0.0000000E+00
Ar  7105  0.4174780E+02  0.7304134E+02  0.3163569E+02  0.0000000E+00
Ar  7106  0.4451889E+02  0.7723114E+02  0.3221866E+02  0.0000000E+00
Ar  7107  0.4475762E+02  0.7361457E+02  0.3480058E+02  0.0000000E+00
Ar  7108  0.4216357E+02  0.7621900E+02  0.3506000E+02  0.0000000E+00
Ar  7109  0.4209016E+02  0.7365546E+02  0.3822876E+02  0.0000000E+00
Ar  7110  0.4454620E+02  0.7633726E+02  0.3763360E+02  0.0000000E+00
Ar  7111  0.4476775E+02  0.7365121E+02  0.4045158E+02  0.0000000E+00
Ar  7112  0.4160833E+02  0.7635797E+02  0.4106460E+02  0.0000000E+00
Ar  7113  0.4191731E+02  0.7344954E+02  0.4319843E+02  0.0000000E+00
Ar  7114  0.4479152E+02  0.7630928E+02  0.4395453E+02  0.0000000E+00
Ar  7115  0.4467599E+02  0.7349412E+02  0.4628218E+02  0.0000000E+00
Ar  7116  0.4232440E+02  0.7669197E+02  0.4650221E+02  0.0000000E+00
Ar  7117  0.4195009E+02  0.7310202E+02  0.4919717E+02  0.0000000E+00
Ar  7118  0.4471514E+02  0.7642415E+02  0.4916479E+02  0.0000000E+00
Ar  7119  0.4440455E+02  0.7393642E+02  0.5200459E+02  0.0000000E+00
Ar  7120  0.4220421E+02  0.7657837E+02  0.5177276E+02  0.0000000E+00
Ar  7121  0.4189712E+02  0.7322320E+02  0.5414245E+02  0.0000000E+00
Ar  7122  0.4533262E+02  0.7677057E+02  0.5435296E+02  0.0000000E+00
Ar  7123  0.4494824E+02  0.7335417E+02  0.5615065E+02  0.0000000E+00
Ar  7124  0.4257319E+02  0.7635164E+02  0.5681489E+02  0.0000000E+00
Ar  7125  0.4169351E+02  0.7443911E+02  0.6001641E+02  0.0000000E+00
Ar  7126  0.4516897E+02  0.7703590E+02  0.6026755E+02  0.0000000E+00
Ar  7127  0.4450303E+02  0.7414284E+02  0.6261935E+02  0.0000000E+00
Ar  7128  0.4177257E+02  0.7619026E+02  0.6370602E+02  0.0000000E+00
Ar  7129  0.4188960E+02  0.7339178E+02  0.6576936E+02  0.0000000E+00
Ar  7130  0.4475275E+02  0.7679933E+02  0.6582650E+02  0.0000000E+00
Ar  7131  0.4495432E+02  0.7392620E+02  0.6849772E+02  0.0000000E+00
Ar  7132  0.4165416E+02  0.7625496E+02  0.6829900E+02  0.0000000E+00
Ar  7133  0.4238612E+02  0.7376638E+02  0.7109395E+02  0.0000000E+00
Ar  7134  0.4495853E+02  0.7617183E+02  0.7151515E+02  0.0000000E+00
Ar  7135  0.4509069E+02  0.7347698E+02  0.7448048E+02  0.0000000E+00
Ar  7136  0.4210419E+02  0.7633748E+02  0.7431774E+02  0.0000000E+00
Ar  7137  0.4205114E+02  0.7375467E+02  0.7654395E+02  0.0000000E+00
Ar  7138  0.4509148E+02  0.7694664E+02  0.7661526E+02  0.0000000E+00
Ar  7139  0.4490922E+02  0.7429169E+02  0.7881515E+02  0.0000000E+00
Ar  7140  0.4174778E+02  0.7648743E+02  0.7927304E+02  0.0000000E+00
Ar  7141  0.4181611E+02  0.7940530E+02  0.8183417E+02  0.0000000E+00
Ar  7142  0.4428400E+02  0.8255734E+02  0.8248885E+02  0.0000000E+00
Ar  7143  0.4465212E+02  0.7976787E+02  0.1747982E+01  0.0000000E+00
Ar  7144  0.4175113E+02  0.8200885E+02  0.9212862E+00  0.0000000E+00
Ar  7145  0.4171451E+02  0.7922333E+02  0.3981325E+01  0.0000000E+00
Ar  7146  0.4406073E+02  0.8280708E+02  0.4295306E+01  0.0000000E+00
Ar  7147  0.4494803E+02  0.7898205E+02  0.7216078E+01  0.0000000E+00
Ar  7148  0.4271912E+02  0.8190512E+02  0.7821580E+01  0.0000000E+00
Ar  7149  0.4258178E+02  0.7811277E+02  0.9679914E+01  0.0000000E+00
Ar  7150  0.4543675E+02  0.8248236E+02  0.9996680E+01  0.0000000E+00
Ar  7151  0.4517727E+02  0.7884488E+02  0.1221982E+02  0.0000000E+00
Ar  7152  0.4250595E+02  0.8090592E+02  0.1285792E+02  0.0000000E+00
Ar  7153  0.4238182E+02  0.7819005E+02  0.1547512E+02  0.0000000E+00
Ar  7154  0.4466862E+02  0.8215589E+02  0.1547756E+02  0.0000000E+00
Ar  7155  0.4552743E+02  0.7827305E+02  0.1790142E+02  0.0000000E+00
Ar  7156  0.4274248E+02  0.8233400E+02  0.1846430E+02  0.0000000E+00
Ar  7157  0.4286722E+02  0.7944591E+02  0.2092768E+02  0.0000000E+00
Ar  7158  0.4538649E+02  0.8181442E+02  0.2115424E+02  0.0000000E+00
Ar  7159  0.4513904E+02  0.7862588E+02  0.2339185E+02  0.0000000E+00
Ar  7160  0.4168403E+02  0.8196922E+02  0.2322592E+02  0.0000000E+00
Ar  7161  0.4204298E+02  0.7932580E+02  0.2638061E+02  0.0000000E+00
Ar  7162  0.4489823E+02  0.8156671E+02  0.2596394E+02  0.0000000E+00
Ar  7163  0.4412729E+02  0.7976805E+02  0.2936467E+02  0.0000000E+00
Ar  7164  0.4180507E+02  0.8271388E+02  0.2977101E+02  0.0000000E+00
Ar  7165  0.4200457E+02  0.7965472E+02  0.3198177E+02  0.0000000E+00
Ar  7166  0.4442440E+02  0.8251735E+02  0.3239095E+02  0.0000000E+00
Ar  7167  0.4461787E+02  0.7902408E+02  0.3529824E+02  0.0000000E+00
Ar  7168  0.4164025E+02  0.8148891E+02  0.3541448E+02  0.0000000E+00
Ar  7169  0.4196163E+02  0.7931067E+02  0.3884661E+02  0.0000000E+00
Ar  7170  0.4480661E+02  0.8200382E+02  0.3843702E+02  0.0000000E+00
Ar  7171  0.4461206E+02  0.7956799E+02  0.4145964E+02  0.0000000E+00
Ar  7172  0.4175875E+02  0.8232942E+02  0.4126497E+02  0.0000000E+00
Ar  7173  0.4166366E+02  0.7941138E+02  0.4381290E+02  0.0000000E+00
Ar  7174  0.4472314E+02  0.8202169E+02  0.4381288E+02  0.0000000E+00
Ar  7175  0.4487671E+02  0.7931329E+02  0.4611951E+02  0.0000000E+00
Ar  7176  0.4226299E+02  0.8179781E+02  0.4623965E+02  0.0000000E+00
Ar  7177  0.4237112E+02  0.7936125E+02  0.4879876E+02  0.0000000E+00
Ar  7178  0.4459167E+02  0.8256263E+02  0.4889003E+02  0.0000000E+00
Ar  7179  0.4494776E+02  0.7917412E+02  0.5164036E+02  0.0000000E+00
Ar  7180  0.4191362E+02  0.8206567E+02  0.5187731E+02  0.0000000E+00
Ar  7181  0.4181223E+02  0.7896421E+02  0.5445180E+02  0.0000000E+00
Ar  7182  0.4428724E+02  0.8162489E+02  0.5453899E+02  0.0000000E+00
Ar  7183  0.4473741E+02  0.7904462E+02  0.5711530E+02  0.0000000E+00
Ar  7184  0.4163808E+02  0.8223081E+02  0.5664491E+02  0.0000000E+00
Ar  7185  0.4170880E+02  0.7919070E+02  0.6062183E+02  0.0000000E+00
Ar  7186  0.4474941E+02  0.8140911E+02  0.6034428E+02  0.0000000E+00
Ar  7187  0.4473593E+02  0.7899036E+02  0.6321972E+02  0.0000000E+00
Ar  7188  0.4201727E+02  0.8245883E+02  0.6337729E+02  0.0000000E+00
Ar  7189  0.4181439E+02  0.7929928E+02  0.6577327E+02  0.0000000E+00
Ar  7190  0.4508334E+02  0.8134406E+02  0.6596123E+02  0.0000000E+00
Ar  7191  0.4436137E+02  0.7901999E+02  0.6879340E+02  0.0000000E+00
Ar  7192  0.4203077E+02  0.8189408E+02  0.6890245E+02  0.0000000E+00
Ar  7193  0.4196501E+02  0.7858509E+02  0.7116998E+02  0.0000000E+00
Ar  7194  0.4483596E+02  0.8166589E+02  0.7137955E+02  0.0000000E+00
Ar  7195  0.4494477E+02  0.7959102E+02  0.7418819E+02  0.0000000E+00
Ar  7196  0.4166405E+02  0.8186100E+02  0.7383645E+02  0.0000000E+00
Ar  7197  0.4198833E+02  0.8002783E+02  0.7770331E+02  0.0000000E+00
Ar  7198  0.4454287E+02  0.8220833E+02  0.7659679E+02  0.0000000E+00
Ar  7199  0.4499392E+02  0.7946035E+02  0.7931760E+02  0.0000000E+00
Ar  7200  0.4121327E+02  0.8273934E+02  0.7996225E+02  0.0000000E+00
Ar  7201  0.4712349E+02  0.4958585E+00  0.8253883E+02  0.0000000E+00
Ar  7202  0.4997536E+02  0.3263685E+01  0.8241652E+02  0.0000000E+00
Ar  7203  0.5054170E+02  0.5166209E+00  0.1354414E+01  0.0000000E+00
Ar  7204  0.4722435E+02  0.2936070E+01  0.1486497E+01  0.0000000E+00
Ar  7205  0.4791804E+02  0.1075125E+01  0.4579438E+01  0.0000000E+00
Ar  7206  0.5085316E+02  0.3138208E+01  0.3980709E+01  0.0000000E+00
Ar  7207  0.5079153E+02  0.1342730E+00  0.6990530E+01  0.0000000E+00
Ar  7208  0.4738585E+02  0.3970886E+01  0.7157041E+01  0.0000000E+00
Ar  7209  0.4770658E+02  0.9133023E+00  0.9094811E+01  0.0000000E+00
Ar  7210  0.5020115E+02  0.3746380E+01  0.9155923E+01  0.0000000E+00
Ar  7211  0.5095144E+02  0.8418768E+02  0.1322436E+02  0.0000000E+00
Ar  7212  0.4809514E+02  0.3246220E+01  0.1208939E+02  0.0000000E+00
Ar  7213  0.4810929E+02  0.8381261E+02  0.1563812E+02  0.0000000E+00
Ar  7214  0.5075843E+02  0.3180092E+01  0.1525233E+02  0.0000000E+00
Ar  7215  0.5096659E+02  0.8401170E+02  0.1813303E+02  0.0000000E+00
Ar  7216  0.4802406E+02  0.3224925E+01  0.1797187E+02  0.0000000E+00
Ar  7217  0.4802637E+02  0.4207658E+00  0.2064482E+02  0.0000000E+00
Ar  7218  0.5066804E+02  0.3531723E+01  0.2103661E+02  0.0000000E+00
Ar  7219  0.5076408E+02  0.8761738E+00  0.2376813E+02  0.0000000E+00
Ar  7220  0.4735818E+02  0.3660791E+01  0.2302468E+02  0.0000000E+00
Ar  7221  0.4741384E+02  0.1222332E+01  0.2647663E+02  0.0000000E+00
Ar  7222  0.5063672E+02  0.3087871E+01  0.2657105E+02  0.0000000E+00
Ar  7223  0.5025682E+02  0.6723030E+00  0.2950100E+02  0.0000000E+00
Ar  7224  0.4652315E+02  0.2746875E+01  0.2989583E+02  0.0000000E+00
Ar  7225  0.4695670E+02  0.6701253E+00  0.3261221E+02  0.0000000E+00
Ar  7226  0.4959903E+02  0.3256186E+01  0.3224126E+02  0.0000000E+00
Ar  7227  0.5027165E+02  0.4267340E+00  0.3506749E+02  0.0000000E+00
Ar  7228  0.4709286E+02  0.3751926E+01  0.3479980E+02  0.0000000E+00
Ar  7229  0.4698866E+02  0.1019676E+01  0.3748103E+02  0.0000000E+00
Ar  7230  0.4974592E+02  0.3968334E+01  0.3798126E+02  0.0000000E+00
Ar  7231  0.5015414E+02  0.8274647E+00  0.4025996E+02  0.0000000E+00
Ar  7232  0.4694172E+02  0.3667895E+01  0.4034005E+02  0.0000000E+00
Ar  7233  0.4762508E+02  0.1072669E+01  0.4307871E+02  0.0000000E+00
Ar  7234  0.5015669E+02  0.3592010E+01  0.4314916E+02  0.0000000E+00
Ar  7235  0.4993329E+02  0.9659074E+00  0.4592012E+02  0.0000000E+00
Ar  7236  0.4725184E+02  0.4133751E+01  0.4585854E+02  0.0000000E+00
Ar  7237  0.4713525E+02  0.1156886E+01  0.4848093E+02  0.0000000E+00
Ar  7238  0.5040612E+02  0.4029865E+01  0.4839168E+02  0.0000000E+00
Ar  7239  0.4940235E+02  0.4984737E+00  0.5181570E+02  0.0000000E+00
Ar  7240  0.4714938E+02  0.4049909E+01  0.5155834E+02  0.0000000E+00
Ar  7241  0.4761163E+02  0.6987498E+00  0.5487288E+02  0.0000000E+00
Ar  7242  0.5027194E+02  0.3447728E+01  0.5489127E+02  0.0000000E+00
Ar  7243  0.5025502E+02  0.8414908E+02  0.5781323E+02  0.0000000E+00
Ar  7244  0.4694226E+02  0.3600461E+01  0.5722345E+02  0.0000000E+00
Ar  7245  0.4761499E+02  0.8379112E+02  0.6078447E+02  0.0000000E+00
Ar  7246  0.4953396E+02  0.2696670E+01  0.6028033E+02  0.0000000E+00
Ar  7247  0.4957615E+02  0.9863677E+00  0.6350902E+02  0.0000000E+00
Ar  7248  0.4701719E+02  0.3670634E+01  0.6310342E+02  0.0000000E+00
Ar  7249  0.4724820E+02  0.1050301E+01  0.6620097E+02  0.0000000E+00
Ar  7250  0.4952573E+02  0.4493395E+01  0.6589216E+02  0.0000000E+00
Ar  7251  0.4961724E+02  0.1165300E+01  0.6887329E+02  0.0000000E+00
Ar  7252  0.4697219E+02  0.3830929E+01  0.6851401E+02  0.0000000E+00
Ar  7253  0.4723990E+02  0.1005750E+01  0.7133907E+02  0.0000000E+00
Ar  7254  0.4999247E+02  0.4100663E+01  0.7105340E+02  0.0000000E+00
Ar  7255  0.5008689E+02  0.1031653E+01  0.7413491E+02  0.0000000E+00
Ar  7256  0.4696065E+02  0.3632607E+01  0.7393114E+02  0.0000000E+00
Ar  7257  0.4701153E+02  0.7724738E+00  0.7677453E+02  0.0000000E+00
Ar  7258  0.5072421E+02  0.3732335E+01  0.7630503E+02  0.0000000E+00
Ar  7259  0.4985149E+02  0.1048459E+01  0.7898805E+02  0.0000000E+00
Ar  7260  0.4697948E+02  0.3526020E+01  0.8003621E+02  0.0000000E+00
Ar  7261  0.4716724E+02  0.5672787E+01  0.8363073E+02  0.0000000E+00
Ar  7262  0.4935086E+02  0.8690492E+01  0.8319399E+02  0.0000000E+00
Ar  7263  0.5088806E+02  0.5536896E+01  0.1286024E+01  0.0000000E+00
Ar  7264  0.4734211E+02  0.8531276E+01  0.1941437E+01  0.0000000E+00
Ar  7265  0.4764698E+02  0.5934120E+01  0.3958919E+01  0.0000000E+00
Ar  7266  0.5058339E+02  0.8960435E+01  0.3750389E+01  0.0000000E+00
Ar  7267  0.5061292E+02  0.6145799E+01  0.6471782E+01  0.0000000E+00
Ar  7268  0.4780474E+02  0.9159110E+01  0.6869245E+01  0.0000000E+00
Ar  7269  0.4721698E+02  0.6307086E+01  0.9686766E+01  0.0000000E+00
Ar  7270  0.5024937E+02  0.9221789E+01  0.9736138E+01  0.0000000E+00
Ar  7271  0.5042383E+02  0.6047841E+01  0.1218131E+02  0.0000000E+00
Ar  7272  0.4786242E+02  0.9062625E+01  0.1320932E+02  0.0000000E+00
Ar  7273  0.4788822E+02  0.5298198E+01  0.1510896E+02  0.0000000E+00
Ar  7274  0.5074301E+02  0.8448058E+01  0.1556259E+02  0.0000000E+00
Ar  7275  0.5077937E+02  0.5825517E+01  0.1801585E+02  0.0000000E+00
Ar  7276  0.4741833E+02  0.8966636E+01  0.1782766E+02  0.0000000E+00
Ar  7277  0.4719523E+02  0.5887493E+01  0.2032944E+02  0.0000000E+00
Ar  7278  0.5023504E+02  0.8592053E+01  0.2012588E+02  0.0000000E+00
Ar  7279  0.5021258E+02  0.6069994E+01  0.2331264E+02  0.0000000E+00
Ar  7280  0.4733019E+02  0.7850444E+01  0.2350387E+02  0.0000000E+00
Ar  7281  0.4719768E+02  0.5180249E+01  0.2742721E+02  0.0000000E+00
Ar  7282  0.5013818E+02  0.7997524E+01  0.2609885E+02  0.0000000E+00
Ar  7283  0.5029038E+02  0.5747771E+01  0.2927240E+02  0.0000000E+00
Ar  7284  0.4758893E+02  0.8370230E+01  0.2910786E+02  0.0000000E+00
Ar  7285  0.4706267E+02  0.5969790E+01  0.3177866E+02  0.0000000E+00
Ar  7286  0.5057398E+02  0.9034100E+01  0.3163536E+02  0.0000000E+00
Ar  7287  0.5039779E+02  0.5620409E+01  0.3506152E+02  0.0000000E+00
Ar  7288  0.4763168E+02  0.8552724E+01  0.3416279E+02  0.0000000E+00
Ar  7289  0.4700259E+02  0.6577174E+01  0.3781631E+02  0.0000000E+00
Ar  7290  0.5054961E+02  0.8607183E+01  0.3739230E+02  0.0000000E+00
Ar  7291  0.4995287E+02  0.6234069E+01  0.4070197E+02  0.0000000E+00
Ar  7292  0.4756761E+02  0.9186154E+01  0.4068041E+02  0.0000000E+00
Ar  7293  0.4712510E+02  0.6112904E+01  0.4306516E+02  0.0000000E+00
Ar  7294  0.5028661E+02  0.9222606E+01  0.4304888E+02  0.0000000E+00
Ar  7295  0.4975590E+02  0.6642571E+01  0.4565852E+02  0.0000000E+00
Ar  7296  0.4766342E+02  0.9434548E+01  0.4586265E+02  0.0000000E+00
Ar  7297  0.4770083E+02  0.6550780E+01  0.4870469E+02  0.0000000E+00
Ar  7298  0.5042758E+02  0.9404088E+01  0.4842510E+02  0.0000000E+00
Ar  7299  0.5052174E+02  0.6496075E+01  0.5165690E+02  0.0000000E+00
Ar  7300  0.4702139E+02  0.9035519E+01  0.5116363E+02  0.0000000E+00
Ar  7301  0.4766290E+02  0.6347556E+01  0.5394395E+02  0.0000000E+00
Ar  7302  0.4950701E+02  0.9317849E+01  0.5394275E+02  0.0000000E+00
Ar  7303  0.4989156E+02  0.5860098E+01  0.5737942E+02  0.0000000E+00
Ar  7304  0.4746915E+02  0.8772182E+01  0.5696973E+02  0.0000000E+00
Ar  7305  0.4668652E+02  0.6662551E+01  0.5998093E+02  0.0000000E+00
Ar  7306  0.4928834E+02  0.8916253E+01  0.6037999E+02  0.0000000E+00
Ar  7307  0.4938371E+02  0.6291931E+01  0.6283359E+02  0.0000000E+00
Ar  7308  0.4674745E+02  0.9266526E+01  0.6315663E+02  0.0000000E+00
Ar  7309  0.4638298E+02  0.6422488E+01  0.6597717E+02  0.0000000E+00
Ar  7310  0.4915504E+02  0.9153455E+01  0.6578534E+02  0.0000000E+00
Ar  7311  0.4959249E+02  0.6817184E+01  0.6868402E+02  0.0000000E+00
Ar  7312  0.4696855E+02  0.9155280E+01  0.6905032E+02  0.0000000E+00
Ar  7313  0.4722969E+02  0.6015464E+01  0.7133588E+02  0.0000000E+00
Ar  7314  0.4936921E+02  0.9037615E+01  0.7144356E+02  0.0000000E+00
Ar  7315  0.4987995E+02  0.6517316E+01  0.7428208E+02  0.0000000E+00
Ar  7316  0.4698203E+02  0.8969273E+01  0.7401025E+02  0.0000000E+00
Ar  7317  0.4694040E+02  0.6164789E+01  0.7678691E+02  0.0000000E+00
Ar  7318  0.4984562E+02  0.8967979E+01  0.7684625E+02  0.0000000E+00
Ar  7319  0.4938236E+02  0.6281989E+01  0.7966023E+02  0.0000000E+00
Ar  7320  0.4677416E+02  0.9108123E+01  0.7994593E+02  0.0000000E+00
Ar  7321  0.4713689E+02  0.1116737E+02  0.8300466E+02  0.0000000E+00
Ar  7322  0.4929302E+02  0.1464251E+02  0.8278849E+02  0.0000000E+00
Ar  7323  0.4999802E+02  0.1191090E+02  0.1143527E+01  0.0000000E+00
Ar  7324  0.4746142E+02  0.1460317E+02  0.1566414E+01  0.0000000E+00
Ar  7325  0.4781709E+02  0.1203724E+02  0.4021542E+01  0.0000000E+00
Ar  7326  0.5053409E+02  0.1436042E+02  0.3747258E+01  0.0000000E+00
Ar  7327  0.5071551E+02  0.1147789E+02  0.6562263E+01  0.0000000E+00
Ar  7328  0.4817975E+02  0.1490375E+02  0.7334897E+01  0.0000000E+00
Ar  7329  0.4723626E+02  0.1246554E+02  0.1042290E+02  0.0000000E+00
Ar  7330  0.5063153E+02  0.1483620E+02  0.9802837E+01  0.0000000E+00
Ar  7331  0.5089670E+02  0.1192278E+02  0.1255666E+02  0.0000000E+00
Ar  7332  0.4776699E+02  0.1523319E+02  0.1258788E+02  0.0000000E+00
Ar  7333  0.4775611E+02  0.1167625E+02  0.1543124E+02  0.0000000E+00
Ar  7334  0.5046712E+02  0.1488915E+02  0.1545060E+02  0.0000000E+00
Ar  7335  0.5019128E+02  0.1151307E+02  0.1828845E+02  0.0000000E+00
Ar  7336  0.4754812E+02  0.1510792E+02  0.1714753E+02  0.0000000E+00
Ar  7337  0.4796477E+02  0.1137951E+02  0.2116432E+02  0.0000000E+00
Ar  7338  0.5090587E+02  0.1471233E+02  0.2033257E+02  0.0000000E+00
Ar  7339  0.5067152E+02  0.1225053E+02  0.2343088E+02  0.0000000E+00
Ar  7340  0.4792522E+02  0.1501395E+02  0.2352034E+02  0.0000000E+00
Ar  7341  0.4816339E+02  0.1100972E+02  0.2586673E+02  0.0000000E+00
Ar  7342  0.5040420E+02  0.1517859E+02  0.2598174E+02  0.0000000E+00
Ar  7343  0.5109801E+02  0.1099260E+02  0.2861528E+02  0.0000000E+00
Ar  7344  0.4854389E+02  0.1334414E+02  0.2861142E+02  0.0000000E+00
Ar  7345  0.4815309E+02  0.1165738E+02  0.3202131E+02  0.0000000E+00
Ar  7346  0.5038790E+02  0.1489685E+02  0.3212689E+02  0.0000000E+00
Ar  7347  0.4999585E+02  0.1213239E+02  0.3481499E+02  0.0000000E+00
Ar  7348  0.4731643E+02  0.1404156E+02  0.3574879E+02  0.0000000E+00
Ar  7349  0.4721017E+02  0.1032512E+02  0.3723397E+02  0.0000000E+00
Ar  7350  0.5047719E+02  0.1472098E+02  0.3720487E+02  0.0000000E+00
Ar  7351  0.5077799E+02  0.1115413E+02  0.4027176E+02  0.0000000E+00
Ar  7352  0.4814166E+02  0.1365290E+02  0.3961604E+02  0.0000000E+00
Ar  7353  0.4692668E+02  0.1207766E+02  0.4282968E+02  0.0000000E+00
Ar  7354  0.5018590E+02  0.1479441E+02  0.4294877E+02  0.0000000E+00
Ar  7355  0.4997189E+02  0.1207124E+02  0.4552290E+02  0.0000000E+00
Ar  7356  0.4680144E+02  0.1467891E+02  0.4535275E+02  0.0000000E+00
Ar  7357  0.4690002E+02  0.1211283E+02  0.4823980E+02  0.0000000E+00
Ar  7358  0.5033031E+02  0.1388985E+02  0.4855664E+02  0.0000000E+00
Ar  7359  0.4918497E+02  0.1210753E+02  0.5145385E+02  0.0000000E+00
Ar  7360  0.4785288E+02  0.1524390E+02  0.5183828E+02  0.0000000E+00
Ar  7361  0.4711474E+02  0.1164934E+02  0.5490118E+02  0.0000000E+00
Ar  7362  0.5007776E+02  0.1411033E+02  0.5450302E+02  0.0000000E+00
Ar  7363  0.4966670E+02  0.1191353E+02  0.5772339E+02  0.0000000E+00
Ar  7364  0.4754277E+02  0.1510528E+02  0.5743876E+02  0.0000000E+00
Ar  7365  0.4773327E+02  0.1240720E+02  0.6041859E+02  0.0000000E+00
Ar  7366  0.5041604E+02  0.1590840E+02  0.5993484E+02  0.0000000E+00
Ar  7367  0.4934884E+02  0.1182820E+02  0.6349050E+02  0.0000000E+00
Ar  7368  0.4695292E+02  0.1498823E+02  0.6310811E+02  0.0000000E+00
Ar  7369  0.4662420E+02  0.1161945E+02  0.6591301E+02  0.0000000E+00
Ar  7370  0.4981316E+02  0.1540630E+02  0.6545961E+02  0.0000000E+00
Ar  7371  0.4958965E+02  0.1255860E+02  0.6774211E+02  0.0000000E+00
Ar  7372  0.4739234E+02  0.1502975E+02  0.6898763E+02  0.0000000E+00
Ar  7373  0.4658546E+02  0.1189186E+02  0.7127984E+02  0.0000000E+00
Ar  7374  0.4966761E+02  0.1420531E+02  0.7145571E+02  0.0000000E+00
Ar  7375  0.4964057E+02  0.1178285E+02  0.7459591E+02  0.0000000E+00
Ar  7376  0.4694148E+02  0.1449913E+02  0.7475818E+02  0.0000000E+00
Ar  7377  0.4703334E+02  0.1156597E+02  0.7709165E+02  0.0000000E+00
Ar  7378  0.4999139E+02  0.1436974E+02  0.7698426E+02  0.0000000E+00
Ar  7379  0.4998045E+02  0.1174411E+02  0.8017968E+02  0.0000000E+00
Ar  7380  0.4739604E+02  0.1444226E+02  0.8011002E+02  0.0000000E+00
Ar  7381  0.4736723E+02  0.1769762E+02  0.8261945E+02  0.0000000E+00
Ar  7382  0.5019951E+02  0.2017169E+02  0.8286661E+02  0.0000000E+00
Ar  7383  0.5038913E+02  0.1763795E+02  0.1213912E+01  0.0000000E+00
Ar  7384  0.4793681E+02  0.2048973E+02  0.9767998E+00  0.0000000E+00
Ar  7385  0.4822692E+02  0.1742871E+02  0.4102758E+01  0.0000000E+00
Ar  7386  0.5079462E+02  0.2040015E+02  0.3765911E+01  0.0000000E+00
Ar  7387  0.5129097E+02  0.1753783E+02  0.7314300E+01  0.0000000E+00
Ar  7388  0.4878799E+02  0.2019605E+02  0.6496509E+01  0.0000000E+00
Ar  7389  0.4783318E+02  0.1725917E+02  0.9827619E+01  0.0000000E+00
Ar  7390  0.5106695E+02  0.2048953E+02  0.9692327E+01  0.0000000E+00
Ar  7391  0.5042010E+02  0.1837179E+02  0.1241840E+02  0.0000000E+00
Ar  7392  0.4736344E+02  0.2058832E+02  0.1197574E+02  0.0000000E+00
Ar  7393  0.4821216E+02  0.1834933E+02  0.1530726E+02  0.0000000E+00
Ar  7394  0.5116983E+02  0.2075862E+02  0.1539382E+02  0.0000000E+00
Ar  7395  0.5048523E+02  0.1777726E+02  0.1794693E+02  0.0000000E+00
Ar  7396  0.4749747E+02  0.2088899E+02  0.1847688E+02  0.0000000E+00
Ar  7397  0.4768700E+02  0.1763535E+02  0.2042203E+02  0.0000000E+00
Ar  7398  0.5121801E+02  0.2039192E+02  0.2057210E+02  0.0000000E+00
Ar  7399  0.5051163E+02  0.1857345E+02  0.2381163E+02  0.0000000E+00
Ar  7400  0.4810566E+02  0.2098552E+02  0.2401116E+02  0.0000000E+00
Ar  7401  0.4765444E+02  0.1798009E+02  0.2617114E+02  0.0000000E+00
Ar  7402  0.5024559E+02  0.2059627E+02  0.2708065E+02  0.0000000E+00
Ar  7403  0.5109800E+02  0.1751933E+02  0.2907728E+02  0.0000000E+00
Ar  7404  0.4734890E+02  0.2067541E+02  0.2921895E+02  0.0000000E+00
Ar  7405  0.4783885E+02  0.1706925E+02  0.3134605E+02  0.0000000E+00
Ar  7406  0.5073849E+02  0.2051791E+02  0.3171794E+02  0.0000000E+00
Ar  7407  0.5048881E+02  0.1761165E+02  0.3440054E+02  0.0000000E+00
Ar  7408  0.4815838E+02  0.2016018E+02  0.3471084E+02  0.0000000E+00
Ar  7409  0.4736284E+02  0.1749656E+02  0.3737392E+02  0.0000000E+00
Ar  7410  0.4993431E+02  0.2017452E+02  0.3777022E+02  0.0000000E+00
Ar  7411  0.4978086E+02  0.1727269E+02  0.3997606E+02  0.0000000E+00
Ar  7412  0.4739225E+02  0.2020810E+02  0.4043510E+02  0.0000000E+00
Ar  7413  0.4742628E+02  0.1799628E+02  0.4378369E+02  0.0000000E+00
Ar  7414  0.5142079E+02  0.1960856E+02  0.4346223E+02  0.0000000E+00
Ar  7415  0.5060260E+02  0.1763570E+02  0.4611820E+02  0.0000000E+00
Ar  7416  0.4834135E+02  0.2044400E+02  0.4617886E+02  0.0000000E+00
Ar  7417  0.4750965E+02  0.1713177E+02  0.4825171E+02  0.0000000E+00
Ar  7418  0.5061221E+02  0.2059851E+02  0.4913525E+02  0.0000000E+00
Ar  7419  0.5035022E+02  0.1757404E+02  0.5128031E+02  0.0000000E+00
Ar  7420  0.4806706E+02  0.2006040E+02  0.5143782E+02  0.0000000E+00
Ar  7421  0.4739987E+02  0.1769417E+02  0.5441497E+02  0.0000000E+00
Ar  7422  0.5041430E+02  0.2103684E+02  0.5431411E+02  0.0000000E+00
Ar  7423  0.5061396E+02  0.1716012E+02  0.5650563E+02  0.0000000E+00
Ar  7424  0.4808352E+02  0.1995107E+02  0.5756537E+02  0.0000000E+00
Ar  7425  0.4672416E+02  0.1800056E+02  0.6012706E+02  0.0000000E+00
Ar  7426  0.5030685E+02  0.2050977E+02  0.6046599E+02  0.0000000E+00
Ar  7427  0.4941865E+02  0.1793537E+02  0.6267513E+02  0.0000000E+00
Ar  7428  0.4694744E+02  0.2079205E+02  0.6307231E+02  0.0000000E+00
Ar  7429  0.4726733E+02  0.1762146E+02  0.6614929E+02  0.0000000E+00
Ar  7430  0.4985897E+02  0.2007371E+02  0.6587001E+02  0.0000000E+00
Ar  7431  0.5011430E+02  0.1765053E+02  0.6884897E+02  0.0000000E+00
Ar  7432  0.4757120E+02  0.2010380E+02  0.6901825E+02  0.0000000E+00
Ar  7433  0.4777087E+02  0.1748776E+02  0.7154367E+02  0.0000000E+00
Ar  7434  0.4970187E+02  0.2099270E+02  0.7164469E+02  0.0000000E+00
Ar  7435  0.4999440E+02  0.1685209E+02  0.7411374E+02  0.0000000E+00
Ar  7436  0.4779805E+02  0.2024621E+02  0.7471540E+02  0.0000000E+00
Ar  7437  0.4750501E+02  0.1721245E+02  0.7768777E+02  0.0000000E+00
Ar  7438  0.5056414E+02  0.2049247E+02  0.7710323E+02  0.0000000E+00
Ar  7439  0.5063656E+02  0.1710925E+02  0.8000987E+02  0.0000000E+00
Ar  7440  0.4823469E+02  0.2053201E+02  0.7994207E+02  0.0000000E+00
Ar  7441  0.4797339E+02  0.2313016E+02  0.8244624E+02  0.0000000E+00
Ar  7442  0.5066668E+02  0.2530088E+02  0.8304164E+02  0.0000000E+00
Ar  7443  0.5067904E+02  0.2263928E+02  0.1246067E+01  0.0000000E+00
Ar  7444  0.4802648E+02  0.2586274E+02  0.1679752E+01  0.0000000E+00
Ar  7445  0.4807214E+02  0.2313745E+02  0.4416230E+01  0.0000000E+00
Ar  7446  0.5089289E+02  0.2553855E+02  0.3460167E+01  0.0000000E+00
Ar  7447  0.5085812E+02  0.2281710E+02  0.6869903E+01  0.0000000E+00
Ar  7448  0.4863169E+02  0.2616575E+02  0.6431301E+01  0.0000000E+00
Ar  7449  0.4774077E+02  0.2279148E+02  0.9012746E+01  0.0000000E+00
Ar  7450  0.5096185E+02  0.2516759E+02  0.9847093E+01  0.0000000E+00
Ar  7451  0.5013599E+02  0.2293916E+02  0.1252894E+02  0.0000000E+00
Ar  7452  0.4742172E+02  0.2556266E+02  0.1254503E+02  0.0000000E+00
Ar  7453  0.4748361E+02  0.2277311E+02  0.1509446E+02  0.0000000E+00
Ar  7454  0.5057576E+02  0.2524101E+02  0.1531654E+02  0.0000000E+00
Ar  7455  0.5038254E+02  0.2307212E+02  0.1824434E+02  0.0000000E+00
Ar  7456  0.4771404E+02  0.2536431E+02  0.1825293E+02  0.0000000E+00
Ar  7457  0.4832410E+02  0.2280444E+02  0.2132085E+02  0.0000000E+00
Ar  7458  0.5070824E+02  0.2570341E+02  0.2091700E+02  0.0000000E+00
Ar  7459  0.5098052E+02  0.2316699E+02  0.2377275E+02  0.0000000E+00
Ar  7460  0.4783727E+02  0.2590738E+02  0.2419239E+02  0.0000000E+00
Ar  7461  0.4769545E+02  0.2339308E+02  0.2725959E+02  0.0000000E+00
Ar  7462  0.5026630E+02  0.2589868E+02  0.2675306E+02  0.0000000E+00
Ar  7463  0.5035438E+02  0.2358154E+02  0.3023542E+02  0.0000000E+00
Ar  7464  0.4758254E+02  0.2629454E+02  0.2932813E+02  0.0000000E+00
Ar  7465  0.4736340E+02  0.2288877E+02  0.3252926E+02  0.0000000E+00
Ar  7466  0.5100693E+02  0.2626959E+02  0.3274462E+02  0.0000000E+00
Ar  7467  0.5049889E+02  0.2295733E+02  0.3464011E+02  0.0000000E+00
Ar  7468  0.4755839E+02  0.2556776E+02  0.3499939E+02  0.0000000E+00
Ar  7469  0.4766129E+02  0.2259946E+02  0.3745507E+02  0.0000000E+00
Ar  7470  0.5056631E+02  0.2505651E+02  0.3786918E+02  0.0000000E+00
Ar  7471  0.5059801E+02  0.2257075E+02  0.4067045E+02  0.0000000E+00
Ar  7472  0.4817499E+02  0.2546250E+02  0.4039011E+02  0.0000000E+00
Ar  7473  0.4787788E+02  0.2268961E+02  0.4314689E+02  0.0000000E+00
Ar  7474  0.5063451E+02  0.2560583E+02  0.4323396E+02  0.0000000E+00
Ar  7475  0.5074118E+02  0.2304433E+02  0.4637689E+02  0.0000000E+00
Ar  7476  0.4841768E+02  0.2558277E+02  0.4584075E+02  0.0000000E+00
Ar  7477  0.4800986E+02  0.2289664E+02  0.4853676E+02  0.0000000E+00
Ar  7478  0.5046617E+02  0.2616520E+02  0.4894095E+02  0.0000000E+00
Ar  7479  0.5029783E+02  0.2363994E+02  0.5162436E+02  0.0000000E+00
Ar  7480  0.4755830E+02  0.2594434E+02  0.5164028E+02  0.0000000E+00
Ar  7481  0.4741090E+02  0.2377844E+02  0.5436281E+02  0.0000000E+00
Ar  7482  0.5030322E+02  0.2619801E+02  0.5478695E+02  0.0000000E+00
Ar  7483  0.5075782E+02  0.2308891E+02  0.5743099E+02  0.0000000E+00
Ar  7484  0.4742116E+02  0.2614781E+02  0.5751661E+02  0.0000000E+00
Ar  7485  0.4778663E+02  0.2330090E+02  0.6009056E+02  0.0000000E+00
Ar  7486  0.5031796E+02  0.2582330E+02  0.5923803E+02  0.0000000E+00
Ar  7487  0.4979510E+02  0.2301704E+02  0.6310940E+02  0.0000000E+00
Ar  7488  0.4722993E+02  0.2592008E+02  0.6298711E+02  0.0000000E+00
Ar  7489  0.4683093E+02  0.2331743E+02  0.6581275E+02  0.0000000E+00
Ar  7490  0.5063518E+02  0.2546125E+02  0.6534575E+02  0.0000000E+00
Ar  7491  0.4958876E+02  0.2341953E+02  0.6837094E+02  0.0000000E+00
Ar  7492  0.4823175E+02  0.2666870E+02  0.6920326E+02  0.0000000E+00
Ar  7493  0.4762228E+02  0.2359516E+02  0.7175488E+02  0.0000000E+00
Ar  7494  0.5036778E+02  0.2652637E+02  0.7192739E+02  0.0000000E+00
Ar  7495  0.5053046E+02  0.2318913E+02  0.7449800E+02  0.0000000E+00
Ar  7496  0.4745256E+02  0.2670929E+02  0.7426213E+02  0.0000000E+00
Ar  7497  0.4777069E+02  0.2315765E+02  0.7721475E+02  0.0000000E+00
Ar  7498  0.5053738E+02  0.2589090E+02  0.7672495E+02  0.0000000E+00
Ar  7499  0.5076085E+02  0.2305239E+02  0.8001021E+02  0.0000000E+00
Ar  7500  0.4781933E+02  0.2612303E+02  0.8014794E+02  0.0000000E+00
Ar  7501  0.4786614E+02  0.2885710E+02  0.8314755E+02  0.0000000E+00
Ar  7502  0.5041833E+02  0.3181822E+02  0.8233818E+02  0.0000000E+00
Ar  7503  0.5072623E+02  0.2885615E+02  0.2006490E+01  0.0000000E+00
Ar  7504  0.4813421E+02  0.3152964E+02  0.1477209E+01  0.0000000E+00
Ar  7505  0.4816914E+02  0.2953084E+02  0.4271227E+01  0.0000000E+00
Ar  7506  0.5082061E+02  0.3254560E+02  0.4004403E+01  0.0000000E+00
Ar  7507  0.5136822E+02  0.2909429E+02  0.6665845E+01  0.0000000E+00
Ar  7508  0.4761846E+02  0.3141610E+02  0.7482303E+01  0.0000000E+00
Ar  7509  0.4776390E+02  0.2810419E+02  0.9880420E+01  0.0000000E+00
Ar  7510  0.5011933E+02  0.3072353E+02  0.9940648E+01  0.0000000E+00
Ar  7511  0.5042893E+02  0.2793512E+02  0.1234938E+02  0.0000000E+00
Ar  7512  0.4800063E+02  0.3095443E+02  0.1310023E+02  0.0000000E+00
Ar  7513  0.4776130E+02  0.2837393E+02  0.1532246E+02  0.0000000E+00
Ar  7514  0.5063105E+02  0.3093505E+02  0.1557237E+02  0.0000000E+00
Ar  7515  0.5051370E+02  0.2862294E+02  0.1826994E+02  0.0000000E+00
Ar  7516  0.4786932E+02  0.3068846E+02  0.1821862E+02  0.0000000E+00
Ar  7517  0.4757098E+02  0.2838789E+02  0.2081818E+02  0.0000000E+00
Ar  7518  0.4992386E+02  0.3104835E+02  0.2179260E+02  0.0000000E+00
Ar  7519  0.5014582E+02  0.2857719E+02  0.2417357E+02  0.0000000E+00
Ar  7520  0.4700309E+02  0.3076656E+02  0.2401624E+02  0.0000000E+00
Ar  7521  0.4761728E+02  0.2882501E+02  0.2685084E+02  0.0000000E+00
Ar  7522  0.5016717E+02  0.3123062E+02  0.2658768E+02  0.0000000E+00
Ar  7523  0.5101854E+02  0.2835047E+02  0.2959926E+02  0.0000000E+00
Ar  7524  0.4747485E+02  0.3152087E+02  0.2950355E+02  0.0000000E+00
Ar  7525  0.4775511E+02  0.2893479E+02  0.3193610E+02  0.0000000E+00
Ar  7526  0.5120596E+02  0.3102714E+02  0.3228909E+02  0.0000000E+00
Ar  7527  0.5042782E+02  0.2855041E+02  0.3512500E+02  0.0000000E+00
Ar  7528  0.4816783E+02  0.3172780E+02  0.3539015E+02  0.0000000E+00
Ar  7529  0.4788842E+02  0.2886760E+02  0.3825988E+02  0.0000000E+00
Ar  7530  0.5084619E+02  0.3126234E+02  0.3810324E+02  0.0000000E+00
Ar  7531  0.5056026E+02  0.2821825E+02  0.4072467E+02  0.0000000E+00
Ar  7532  0.4800012E+02  0.3199636E+02  0.4046382E+02  0.0000000E+00
Ar  7533  0.4831117E+02  0.2888668E+02  0.4319573E+02  0.0000000E+00
Ar  7534  0.5051792E+02  0.3196276E+02  0.4381064E+02  0.0000000E+00
Ar  7535  0.5060202E+02  0.2873478E+02  0.4624219E+02  0.0000000E+00
Ar  7536  0.4758030E+02  0.3170496E+02  0.4624812E+02  0.0000000E+00
Ar  7537  0.4775740E+02  0.2927041E+02  0.4887812E+02  0.0000000E+00
Ar  7538  0.5085326E+02  0.3185440E+02  0.4939551E+02  0.0000000E+00
Ar  7539  0.5026133E+02  0.2862519E+02  0.5213217E+02  0.0000000E+00
Ar  7540  0.4764566E+02  0.3117695E+02  0.5222093E+02  0.0000000E+00
Ar  7541  0.4747562E+02  0.2860078E+02  0.5457152E+02  0.0000000E+00
Ar  7542  0.5035631E+02  0.3131224E+02  0.5503048E+02  0.0000000E+00
Ar  7543  0.5010215E+02  0.2880400E+02  0.5770696E+02  0.0000000E+00
Ar  7544  0.4715860E+02  0.3078769E+02  0.5733642E+02  0.0000000E+00
Ar  7545  0.4827346E+02  0.2877397E+02  0.6054744E+02  0.0000000E+00
Ar  7546  0.5125216E+02  0.3145635E+02  0.5969452E+02  0.0000000E+00
Ar  7547  0.5097223E+02  0.2907361E+02  0.6352966E+02  0.0000000E+00
Ar  7548  0.4761190E+02  0.3168430E+02  0.6330935E+02  0.0000000E+00
Ar  7549  0.4746629E+02  0.2852345E+02  0.6550326E+02  0.0000000E+00
Ar  7550  0.5012690E+02  0.3175132E+02  0.6608929E+02  0.0000000E+00
Ar  7551  0.5071468E+02  0.2894347E+02  0.6850307E+02  0.0000000E+00
Ar  7552  0.4757907E+02  0.3110504E+02  0.6859587E+02  0.0000000E+00
Ar  7553  0.4803145E+02  0.2975269E+02  0.7191286E+02  0.0000000E+00
Ar  7554  0.5128531E+02  0.3174958E+02  0.7110744E+02  0.0000000E+00
Ar  7555  0.5041496E+02  0.2916196E+02  0.7459601E+02  0.0000000E+00
Ar  7556  0.4748777E+02  0.3199471E+02  0.7522273E+02  0.0000000E+00
Ar  7557  0.4789914E+02  0.2884746E+02  0.7720037E+02  0.0000000E+00
Ar  7558  0.5012455E+02  0.3170741E+02  0.7777914E+02  0.0000000E+00
Ar  7559  0.5044599E+02  0.2892456E+02  0.8043350E+02  0.0000000E+00
Ar  7560  0.4696670E+02  0.3189225E+02  0.8007901E+02  0.0000000E+00
Ar  7561  0.4771379E+02  0.3400789E+02  0.8330949E+02  0.0000000E+00
Ar  7562  0.5008327E+02  0.3697081E+02  0.8240217E+02  0.0000000E+00
Ar  7563  0.5074884E+02  0.3484648E+02  0.1077904E+01  0.0000000E+00
Ar  7564  0.4767098E+02  0.3729465E+02  0.1013793E+01  0.0000000E+00
Ar  7565  0.4759555E+02  0.3459895E+02  0.3560317E+01  0.0000000E+00
Ar  7566  0.5055173E+02  0.3735432E+02  0.3628340E+01  0.0000000E+00
Ar  7567  0.4999661E+02  0.3492331E+02  0.6334754E+01  0.0000000E+00
Ar  7568  0.4743334E+02  0.3744914E+02  0.6327302E+01  0.0000000E+00
Ar  7569  0.4798711E+02  0.3449342E+02  0.9229900E+01  0.0000000E+00
Ar  7570  0.5026828E+02  0.3692352E+02  0.9328140E+01  0.0000000E+00
Ar  7571  0.4987899E+02  0.3416115E+02  0.1241517E+02  0.0000000E+00
Ar  7572  0.4755724E+02  0.3713459E+02  0.1203054E+02  0.0000000E+00
Ar  7573  0.4786192E+02  0.3393226E+02  0.1536513E+02  0.0000000E+00
Ar  7574  0.4992516E+02  0.3705976E+02  0.1568639E+02  0.0000000E+00
Ar  7575  0.5026093E+02  0.3353312E+02  0.1930895E+02  0.0000000E+00
Ar  7576  0.4836312E+02  0.3675854E+02  0.1864998E+02  0.0000000E+00
Ar  7577  0.4770204E+02  0.3440086E+02  0.2179766E+02  0.0000000E+00
Ar  7578  0.5043369E+02  0.3761362E+02  0.2140145E+02  0.0000000E+00
Ar  7579  0.5067909E+02  0.3432278E+02  0.2397317E+02  0.0000000E+00
Ar  7580  0.4830202E+02  0.3738829E+02  0.2421363E+02  0.0000000E+00
Ar  7581  0.4737494E+02  0.3408178E+02  0.2664772E+02  0.0000000E+00
Ar  7582  0.5003639E+02  0.3654614E+02  0.2718089E+02  0.0000000E+00
Ar  7583  0.5018323E+02  0.3389143E+02  0.2941337E+02  0.0000000E+00
Ar  7584  0.4744304E+02  0.3713324E+02  0.2991338E+02  0.0000000E+00
Ar  7585  0.4782900E+02  0.3437376E+02  0.3220942E+02  0.0000000E+00
Ar  7586  0.5062244E+02  0.3655695E+02  0.3212470E+02  0.0000000E+00
Ar  7587  0.5121982E+02  0.3419010E+02  0.3503132E+02  0.0000000E+00
Ar  7588  0.4792327E+02  0.3686455E+02  0.3468975E+02  0.0000000E+00
Ar  7589  0.4753681E+02  0.3451439E+02  0.3747847E+02  0.0000000E+00
Ar  7590  0.5070969E+02  0.3713000E+02  0.3741683E+02  0.0000000E+00
Ar  7591  0.5067049E+02  0.3437235E+02  0.4004804E+02  0.0000000E+00
Ar  7592  0.4800626E+02  0.3684099E+02  0.4058718E+02  0.0000000E+00
Ar  7593  0.4705929E+02  0.3471301E+02  0.4350958E+02  0.0000000E+00
Ar  7594  0.5051653E+02  0.3696611E+02  0.4306263E+02  0.0000000E+00
Ar  7595  0.5028162E+02  0.3412854E+02  0.4648234E+02  0.0000000E+00
Ar  7596  0.4760282E+02  0.3748400E+02  0.4657595E+02  0.0000000E+00
Ar  7597  0.4740318E+02  0.3447255E+02  0.4845643E+02  0.0000000E+00
Ar  7598  0.5070300E+02  0.3689776E+02  0.4852138E+02  0.0000000E+00
Ar  7599  0.5105112E+02  0.3452978E+02  0.5226624E+02  0.0000000E+00
Ar  7600  0.4743326E+02  0.3701991E+02  0.5159707E+02  0.0000000E+00
Ar  7601  0.4750476E+02  0.3398122E+02  0.5423174E+02  0.0000000E+00
Ar  7602  0.5117193E+02  0.3691306E+02  0.5522756E+02  0.0000000E+00
Ar  7603  0.5013013E+02  0.3409205E+02  0.5689471E+02  0.0000000E+00
Ar  7604  0.4764070E+02  0.3693128E+02  0.5715669E+02  0.0000000E+00
Ar  7605  0.4796492E+02  0.3324555E+02  0.6006711E+02  0.0000000E+00
Ar  7606  0.5005832E+02  0.3682237E+02  0.6003496E+02  0.0000000E+00
Ar  7607  0.5020957E+02  0.3432476E+02  0.6330869E+02  0.0000000E+00
Ar  7608  0.4772326E+02  0.3717718E+02  0.6359384E+02  0.0000000E+00
Ar  7609  0.4742713E+02  0.3432081E+02  0.6597002E+02  0.0000000E+00
Ar  7610  0.5038092E+02  0.3724715E+02  0.6621431E+02  0.0000000E+00
Ar  7611  0.5081467E+02  0.3417126E+02  0.6864474E+02  0.0000000E+00
Ar  7612  0.4790020E+02  0.3689573E+02  0.6945364E+02  0.0000000E+00
Ar  7613  0.4799111E+02  0.3380078E+02  0.7141358E+02  0.0000000E+00
Ar  7614  0.5067399E+02  0.3699945E+02  0.7176086E+02  0.0000000E+00
Ar  7615  0.5019298E+02  0.3448713E+02  0.7430726E+02  0.0000000E+00
Ar  7616  0.4750695E+02  0.3708907E+02  0.7472362E+02  0.0000000E+00
Ar  7617  0.4774577E+02  0.3462838E+02  0.7749986E+02  0.0000000E+00
Ar  7618  0.5012571E+02  0.3744097E+02  0.7735561E+02  0.0000000E+00
Ar  7619  0.5053142E+02  0.3440800E+02  0.7988309E+02  0.0000000E+00
Ar  7620  0.4753696E+02  0.3750328E+02  0.7992984E+02  0.0000000E+00
Ar  7621  0.4773022E+02  0.3996325E+02  0.8254310E+02  0.0000000E+00
Ar  7622  0.5104843E+02  0.4283159E+02  0.8215216E+02  0.0000000E+00
Ar  7623  0.5077404E+02  0.3954313E+02  0.7564146E+00  0.0000000E+00
Ar  7624  0.4776082E+02  0.4261705E+02  0.1349278E+01  0.0000000E+00
Ar  7625  0.4785366E+02  0.4009731E+02  0.3694428E+01  0.0000000E+00
Ar  7626  0.5109451E+02  0.4229458E+02  0.4129896E+01  0.0000000E+00
Ar  7627  0.5079236E+02  0.3930856E+02  0.6895238E+01  0.0000000E+00
Ar  7628  0.4839832E+02  0.4250261E+02  0.6989425E+01  0.0000000E+00
Ar  7629  0.4800799E+02  0.3954118E+02  0.9260663E+01  0.0000000E+00
Ar  7630  0.5012600E+02  0.4226386E+02  0.9986834E+01  0.0000000E+00
Ar  7631  0.5084878E+02  0.3945810E+02  0.1243184E+02  0.0000000E+00
Ar  7632  0.4797968E+02  0.4345243E+02  0.1277583E+02  0.0000000E+00
Ar  7633  0.4816407E+02  0.4006939E+02  0.1510724E+02  0.0000000E+00
Ar  7634  0.5057311E+02  0.4331583E+02  0.1599160E+02  0.0000000E+00
Ar  7635  0.5028581E+02  0.3971033E+02  0.1837880E+02  0.0000000E+00
Ar  7636  0.4748907E+02  0.4340095E+02  0.1849714E+02  0.0000000E+00
Ar  7637  0.4802184E+02  0.4022233E+02  0.2106810E+02  0.0000000E+00
Ar  7638  0.5089050E+02  0.4273886E+02  0.2125661E+02  0.0000000E+00
Ar  7639  0.5059879E+02  0.4005377E+02  0.2414231E+02  0.0000000E+00
Ar  7640  0.4816693E+02  0.4277071E+02  0.2403794E+02  0.0000000E+00
Ar  7641  0.4796652E+02  0.3972699E+02  0.2691420E+02  0.0000000E+00
Ar  7642  0.5029595E+02  0.4265501E+02  0.2683305E+02  0.0000000E+00
Ar  7643  0.5036433E+02  0.3942879E+02  0.2985933E+02  0.0000000E+00
Ar  7644  0.4744502E+02  0.4248951E+02  0.2926586E+02  0.0000000E+00
Ar  7645  0.4782923E+02  0.3985814E+02  0.3225277E+02  0.0000000E+00
Ar  7646  0.5048304E+02  0.4262164E+02  0.3257722E+02  0.0000000E+00
Ar  7647  0.5083422E+02  0.3971757E+02  0.3446647E+02  0.0000000E+00
Ar  7648  0.4789021E+02  0.4216139E+02  0.3547188E+02  0.0000000E+00
Ar  7649  0.4771646E+02  0.3992395E+02  0.3802493E+02  0.0000000E+00
Ar  7650  0.5071819E+02  0.4229035E+02  0.3803199E+02  0.0000000E+00
Ar  7651  0.5082353E+02  0.3962133E+02  0.4055270E+02  0.0000000E+00
Ar  7652  0.4778943E+02  0.4264566E+02  0.4037041E+02  0.0000000E+00
Ar  7653  0.4803307E+02  0.3953167E+02  0.4257341E+02  0.0000000E+00
Ar  7654  0.5021492E+02  0.4242916E+02  0.4337517E+02  0.0000000E+00
Ar  7655  0.5101072E+02  0.3998624E+02  0.4618736E+02  0.0000000E+00
Ar  7656  0.4828392E+02  0.4228209E+02  0.4645142E+02  0.0000000E+00
Ar  7657  0.4848706E+02  0.4041156E+02  0.4937658E+02  0.0000000E+00
Ar  7658  0.5143915E+02  0.4258541E+02  0.4869542E+02  0.0000000E+00
Ar  7659  0.5162584E+02  0.4008227E+02  0.5166687E+02  0.0000000E+00
Ar  7660  0.4767375E+02  0.4288563E+02  0.5206473E+02  0.0000000E+00
Ar  7661  0.4813869E+02  0.3937436E+02  0.5450204E+02  0.0000000E+00
Ar  7662  0.5049313E+02  0.4259849E+02  0.5523719E+02  0.0000000E+00
Ar  7663  0.5068655E+02  0.3967757E+02  0.5738066E+02  0.0000000E+00
Ar  7664  0.4743582E+02  0.4200548E+02  0.5724847E+02  0.0000000E+00
Ar  7665  0.4713920E+02  0.3976667E+02  0.6021687E+02  0.0000000E+00
Ar  7666  0.4989843E+02  0.4218786E+02  0.6027166E+02  0.0000000E+00
Ar  7667  0.5009293E+02  0.3962251E+02  0.6323467E+02  0.0000000E+00
Ar  7668  0.4719248E+02  0.4188453E+02  0.6359137E+02  0.0000000E+00
Ar  7669  0.4785541E+02  0.3950543E+02  0.6650954E+02  0.0000000E+00
Ar  7670  0.5008040E+02  0.4252839E+02  0.6625198E+02  0.0000000E+00
Ar  7671  0.5066923E+02  0.3954423E+02  0.6862580E+02  0.0000000E+00
Ar  7672  0.4752944E+02  0.4236030E+02  0.6920900E+02  0.0000000E+00
Ar  7673  0.4716609E+02  0.3979900E+02  0.7165733E+02  0.0000000E+00
Ar  7674  0.5001623E+02  0.4305804E+02  0.7238782E+02  0.0000000E+00
Ar  7675  0.4972501E+02  0.3991765E+02  0.7423649E+02  0.0000000E+00
Ar  7676  0.4714698E+02  0.4248722E+02  0.7439299E+02  0.0000000E+00
Ar  7677  0.4718451E+02  0.3981672E+02  0.7694950E+02  0.0000000E+00
Ar  7678  0.5029935E+02  0.4267247E+02  0.7692269E+02  0.0000000E+00
Ar  7679  0.5034988E+02  0.4009093E+02  0.7985274E+02  0.0000000E+00
Ar  7680  0.4814153E+02  0.4316185E+02  0.7948689E+02  0.0000000E+00
Ar  7681  0.4814252E+02  0.4498856E+02  0.8268035E+02  0.0000000E+00
Ar  7682  0.5069214E+02  0.4784862E+02  0.8254039E+02  0.0000000E+00
Ar  7683  0.5077515E+02  0.4483997E+02  0.7966360E+00  0.0000000E+00
Ar  7684  0.4858795E+02  0.4762615E+02  0.8798061E+00  0.0000000E+00
Ar  7685  0.4778389E+02  0.4526785E+02  0.4661906E+01  0.0000000E+00
Ar  7686  0.5079684E+02  0.4772853E+02  0.3832790E+01  0.0000000E+00
Ar  7687  0.5144773E+02  0.4481137E+02  0.6751573E+01  0.0000000E+00
Ar  7688  0.4815382E+02  0.4795830E+02  0.7096009E+01  0.0000000E+00
Ar  7689  0.4774342E+02  0.4677952E+02  0.1026072E+02  0.0000000E+00
Ar  7690  0.5079456E+02  0.4905456E+02  0.1000083E+02  0.0000000E+00
Ar  7691  0.5046961E+02  0.4622034E+02  0.1315237E+02  0.0000000E+00
Ar  7692  0.4753992E+02  0.4874139E+02  0.1321879E+02  0.0000000E+00
Ar  7693  0.4754527E+02  0.4573672E+02  0.1554545E+02  0.0000000E+00
Ar  7694  0.4984170E+02  0.4849350E+02  0.1616737E+02  0.0000000E+00
Ar  7695  0.5091228E+02  0.4578579E+02  0.1871708E+02  0.0000000E+00
Ar  7696  0.4768635E+02  0.4804160E+02  0.1874572E+02  0.0000000E+00
Ar  7697  0.4752298E+02  0.4524844E+02  0.2147916E+02  0.0000000E+00
Ar  7698  0.5020418E+02  0.4826921E+02  0.2138450E+02  0.0000000E+00
Ar  7699  0.5063799E+02  0.4549008E+02  0.2432786E+02  0.0000000E+00
Ar  7700  0.4763945E+02  0.4820409E+02  0.2429603E+02  0.0000000E+00
Ar  7701  0.4720513E+02  0.4507930E+02  0.2686418E+02  0.0000000E+00
Ar  7702  0.5008504E+02  0.4770604E+02  0.2715551E+02  0.0000000E+00
Ar  7703  0.5033215E+02  0.4471397E+02  0.2964106E+02  0.0000000E+00
Ar  7704  0.4753154E+02  0.4766447E+02  0.2979721E+02  0.0000000E+00
Ar  7705  0.4745821E+02  0.4454819E+02  0.3237758E+02  0.0000000E+00
Ar  7706  0.5041916E+02  0.4758745E+02  0.3239429E+02  0.0000000E+00
Ar  7707  0.5060276E+02  0.4504811E+02  0.3530057E+02  0.0000000E+00
Ar  7708  0.4765828E+02  0.4807331E+02  0.3517761E+02  0.0000000E+00
Ar  7709  0.4770766E+02  0.4566070E+02  0.3846128E+02  0.0000000E+00
Ar  7710  0.5050262E+02  0.4753536E+02  0.3748256E+02  0.0000000E+00
Ar  7711  0.5042959E+02  0.4597534E+02  0.4091942E+02  0.0000000E+00
Ar  7712  0.4720062E+02  0.4816610E+02  0.4168778E+02  0.0000000E+00
Ar  7713  0.4724785E+02  0.4544387E+02  0.4381451E+02  0.0000000E+00
Ar  7714  0.5013898E+02  0.4794831E+02  0.4459894E+02  0.0000000E+00
Ar  7715  0.5069650E+02  0.4489665E+02  0.4644397E+02  0.0000000E+00
Ar  7716  0.4746049E+02  0.4807797E+02  0.4736928E+02  0.0000000E+00
Ar  7717  0.4691106E+02  0.4506829E+02  0.4942471E+02  0.0000000E+00
Ar  7718  0.5089227E+02  0.4796900E+02  0.4930820E+02  0.0000000E+00
Ar  7719  0.4981993E+02  0.4548641E+02  0.5179105E+02  0.0000000E+00
Ar  7720  0.4708358E+02  0.4778422E+02  0.5274976E+02  0.0000000E+00
Ar  7721  0.4681799E+02  0.4502560E+02  0.5538970E+02  0.0000000E+00
Ar  7722  0.4963197E+02  0.4746388E+02  0.5564226E+02  0.0000000E+00
Ar  7723  0.4968057E+02  0.4515512E+02  0.5812408E+02  0.0000000E+00
Ar  7724  0.4668073E+02  0.4785728E+02  0.5836818E+02  0.0000000E+00
Ar  7725  0.4769872E+02  0.4498035E+02  0.6123251E+02  0.0000000E+00
Ar  7726  0.5025448E+02  0.4773086E+02  0.6047188E+02  0.0000000E+00
Ar  7727  0.5047131E+02  0.4464626E+02  0.6325365E+02  0.0000000E+00
Ar  7728  0.4793140E+02  0.4765434E+02  0.6372410E+02  0.0000000E+00
Ar  7729  0.4705167E+02  0.4516627E+02  0.6618693E+02  0.0000000E+00
Ar  7730  0.5075497E+02  0.4720481E+02  0.6584626E+02  0.0000000E+00
Ar  7731  0.4968631E+02  0.4559273E+02  0.6937318E+02  0.0000000E+00
Ar  7732  0.4699072E+02  0.4807334E+02  0.6884966E+02  0.0000000E+00
Ar  7733  0.4672441E+02  0.4530152E+02  0.7253280E+02  0.0000000E+00
Ar  7734  0.5021108E+02  0.4855054E+02  0.7144025E+02  0.0000000E+00
Ar  7735  0.4993523E+02  0.4600096E+02  0.7422821E+02  0.0000000E+00
Ar  7736  0.4669481E+02  0.4877964E+02  0.7458373E+02  0.0000000E+00
Ar  7737  0.4718877E+02  0.4541898E+02  0.7666496E+02  0.0000000E+00
Ar  7738  0.5055383E+02  0.4838460E+02  0.7725712E+02  0.0000000E+00
Ar  7739  0.5107599E+02  0.4553475E+02  0.7931671E+02  0.0000000E+00
Ar  7740  0.4802868E+02  0.4736873E+02  0.7997038E+02  0.0000000E+00
Ar  7741  0.4799278E+02  0.5030821E+02  0.8215668E+02  0.0000000E+00
Ar  7742  0.5086283E+02  0.5406437E+02  0.8243570E+02  0.0000000E+00
Ar  7743  0.5070208E+02  0.5074523E+02  0.1181886E+01  0.0000000E+00
Ar  7744  0.4847747E+02  0.5366079E+02  0.4230304E+00  0.0000000E+00
Ar  7745  0.4787320E+02  0.5029716E+02  0.3554237E+01  0.0000000E+00
Ar  7746  0.5042955E+02  0.5370991E+02  0.3742502E+01  0.0000000E+00
Ar  7747  0.4998983E+02  0.5101504E+02  0.6109818E+01  0.0000000E+00
Ar  7748  0.4700359E+02  0.5326097E+02  0.7562253E+01  0.0000000E+00
Ar  7749  0.4723636E+02  0.5063332E+02  0.9936469E+01  0.0000000E+00
Ar  7750  0.5020160E+02  0.5302182E+02  0.9626641E+01  0.0000000E+00
Ar  7751  0.5075003E+02  0.5051194E+02  0.1352104E+02  0.0000000E+00
Ar  7752  0.4841181E+02  0.5318768E+02  0.1299999E+02  0.0000000E+00
Ar  7753  0.4773661E+02  0.5127204E+02  0.1611088E+02  0.0000000E+00
Ar  7754  0.5093246E+02  0.5329671E+02  0.1542344E+02  0.0000000E+00
Ar  7755  0.4989899E+02  0.5099294E+02  0.1872462E+02  0.0000000E+00
Ar  7756  0.4730756E+02  0.5334437E+02  0.1885268E+02  0.0000000E+00
Ar  7757  0.4744837E+02  0.5065015E+02  0.2136060E+02  0.0000000E+00
Ar  7758  0.5160969E+02  0.5325337E+02  0.2140132E+02  0.0000000E+00
Ar  7759  0.4988208E+02  0.5168862E+02  0.2414091E+02  0.0000000E+00
Ar  7760  0.4724408E+02  0.5389749E+02  0.2510425E+02  0.0000000E+00
Ar  7761  0.4735826E+02  0.5089745E+02  0.2712609E+02  0.0000000E+00
Ar  7762  0.5092225E+02  0.5426226E+02  0.2724943E+02  0.0000000E+00
Ar  7763  0.5007757E+02  0.5127252E+02  0.2922145E+02  0.0000000E+00
Ar  7764  0.4729813E+02  0.5351454E+02  0.2962014E+02  0.0000000E+00
Ar  7765  0.4801026E+02  0.5097379E+02  0.3228727E+02  0.0000000E+00
Ar  7766  0.5058136E+02  0.5386330E+02  0.3184607E+02  0.0000000E+00
Ar  7767  0.5045840E+02  0.5062234E+02  0.3504682E+02  0.0000000E+00
Ar  7768  0.4811254E+02  0.5348129E+02  0.3467398E+02  0.0000000E+00
Ar  7769  0.4731167E+02  0.5018085E+02  0.3826405E+02  0.0000000E+00
Ar  7770  0.5050025E+02  0.5375793E+02  0.3716283E+02  0.0000000E+00
Ar  7771  0.5098593E+02  0.5107479E+02  0.3974690E+02  0.0000000E+00
Ar  7772  0.4734277E+02  0.5334887E+02  0.4058659E+02  0.0000000E+00
Ar  7773  0.4716389E+02  0.5072057E+02  0.4498423E+02  0.0000000E+00
Ar  7774  0.5013209E+02  0.5325621E+02  0.4305641E+02  0.0000000E+00
Ar  7775  0.5045633E+02  0.5183813E+02  0.4662297E+02  0.0000000E+00
Ar  7776  0.4796616E+02  0.5442701E+02  0.4629901E+02  0.0000000E+00
Ar  7777  0.4702638E+02  0.5108773E+02  0.4959889E+02  0.0000000E+00
Ar  7778  0.4998156E+02  0.5337610E+02  0.4959177E+02  0.0000000E+00
Ar  7779  0.4989726E+02  0.4985392E+02  0.5240374E+02  0.0000000E+00
Ar  7780  0.4728532E+02  0.5399150E+02  0.5185593E+02  0.0000000E+00
Ar  7781  0.4711994E+02  0.5111869E+02  0.5480365E+02  0.0000000E+00
Ar  7782  0.4990459E+02  0.5324854E+02  0.5479736E+02  0.0000000E+00
Ar  7783  0.5001028E+02  0.5076992E+02  0.5719250E+02  0.0000000E+00
Ar  7784  0.4678609E+02  0.5366507E+02  0.5713585E+02  0.0000000E+00
Ar  7785  0.4757733E+02  0.5026438E+02  0.6068315E+02  0.0000000E+00
Ar  7786  0.5003551E+02  0.5366632E+02  0.6046971E+02  0.0000000E+00
Ar  7787  0.5000035E+02  0.5105602E+02  0.6339638E+02  0.0000000E+00
Ar  7788  0.4730721E+02  0.5429482E+02  0.6283388E+02  0.0000000E+00
Ar  7789  0.4728280E+02  0.5163715E+02  0.6595787E+02  0.0000000E+00
Ar  7790  0.4983754E+02  0.5398554E+02  0.6600646E+02  0.0000000E+00
Ar  7791  0.5020284E+02  0.5117959E+02  0.6826582E+02  0.0000000E+00
Ar  7792  0.4675402E+02  0.5438455E+02  0.6868443E+02  0.0000000E+00
Ar  7793  0.4724769E+02  0.5069716E+02  0.7141187E+02  0.0000000E+00
Ar  7794  0.4960391E+02  0.5451245E+02  0.7102971E+02  0.0000000E+00
Ar  7795  0.5002670E+02  0.5121341E+02  0.7368298E+02  0.0000000E+00
Ar  7796  0.4751344E+02  0.5455023E+02  0.7411808E+02  0.0000000E+00
Ar  7797  0.4771933E+02  0.5150791E+02  0.7700132E+02  0.0000000E+00
Ar  7798  0.5040705E+02  0.5412312E+02  0.7637670E+02  0.0000000E+00
Ar  7799  0.5047763E+02  0.5084630E+02  0.8004564E+02  0.0000000E+00
Ar  7800  0.4836476E+02  0.5382675E+02  0.7983330E+02  0.0000000E+00
Ar  7801  0.4768661E+02  0.5697614E+02  0.8294825E+02  0.0000000E+00
Ar  7802  0.5023536E+02  0.5995560E+02  0.8295541E+02  0.0000000E+00
Ar  7803  0.5021660E+02  0.5658989E+02  0.1842854E+01  0.0000000E+00
Ar  7804  0.4755011E+02  0.5972164E+02  0.1474024E+01  0.0000000E+00
Ar  7805  0.4726892E+02  0.5649213E+02  0.4306586E+01  0.0000000E+00
Ar  7806  0.5058296E+02  0.5858046E+02  0.4806769E+01  0.0000000E+00
Ar  7807  0.4947298E+02  0.5545263E+02  0.6838001E+01  0.0000000E+00
Ar  7808  0.4704185E+02  0.5929797E+02  0.6936895E+01  0.0000000E+00
Ar  7809  0.4769257E+02  0.5604526E+02  0.9777780E+01  0.0000000E+00
Ar  7810  0.5002001E+02  0.6000051E+02  0.9872301E+01  0.0000000E+00
Ar  7811  0.5084641E+02  0.5599484E+02  0.1302680E+02  0.0000000E+00
Ar  7812  0.4727598E+02  0.5909459E+02  0.1306618E+02  0.0000000E+00
Ar  7813  0.4794603E+02  0.5587876E+02  0.1547975E+02  0.0000000E+00
Ar  7814  0.5003319E+02  0.5939797E+02  0.1584403E+02  0.0000000E+00
Ar  7815  0.5096677E+02  0.5598288E+02  0.1843593E+02  0.0000000E+00
Ar  7816  0.4776124E+02  0.5897261E+02  0.1911450E+02  0.0000000E+00
Ar  7817  0.4850930E+02  0.5579544E+02  0.2129545E+02  0.0000000E+00
Ar  7818  0.5101782E+02  0.5854671E+02  0.2093568E+02  0.0000000E+00
Ar  7819  0.5139930E+02  0.5667156E+02  0.2372911E+02  0.0000000E+00
Ar  7820  0.4800916E+02  0.5858168E+02  0.2399313E+02  0.0000000E+00
Ar  7821  0.4747090E+02  0.5633996E+02  0.2760189E+02  0.0000000E+00
Ar  7822  0.5086406E+02  0.5884812E+02  0.2671802E+02  0.0000000E+00
Ar  7823  0.5140061E+02  0.5700038E+02  0.2955131E+02  0.0000000E+00
Ar  7824  0.4795750E+02  0.5936826E+02  0.3007355E+02  0.0000000E+00
Ar  7825  0.4833820E+02  0.5629070E+02  0.3204447E+02  0.0000000E+00
Ar  7826  0.5079889E+02  0.5927674E+02  0.3283502E+02  0.0000000E+00
Ar  7827  0.5071326E+02  0.5656186E+02  0.3487696E+02  0.0000000E+00
Ar  7828  0.4795197E+02  0.5923504E+02  0.3479306E+02  0.0000000E+00
Ar  7829  0.4781227E+02  0.5643176E+02  0.3729806E+02  0.0000000E+00
Ar  7830  0.5035188E+02  0.5916220E+02  0.3748568E+02  0.0000000E+00
Ar  7831  0.5036071E+02  0.5605821E+02  0.3988709E+02  0.0000000E+00
Ar  7832  0.4746662E+02  0.5928464E+02  0.3974175E+02  0.0000000E+00
Ar  7833  0.4798288E+02  0.5696625E+02  0.4273154E+02  0.0000000E+00
Ar  7834  0.5023467E+02  0.5948057E+02  0.4350510E+02  0.0000000E+00
Ar  7835  0.5024668E+02  0.5686417E+02  0.4673447E+02  0.0000000E+00
Ar  7836  0.4755557E+02  0.5906268E+02  0.4659127E+02  0.0000000E+00
Ar  7837  0.4788065E+02  0.5661817E+02  0.4953234E+02  0.0000000E+00
Ar  7838  0.5056211E+02  0.5936471E+02  0.4925660E+02  0.0000000E+00
Ar  7839  0.5005191E+02  0.5604601E+02  0.5252415E+02  0.0000000E+00
Ar  7840  0.4727911E+02  0.5927785E+02  0.5182886E+02  0.0000000E+00
Ar  7841  0.4727646E+02  0.5671940E+02  0.5465280E+02  0.0000000E+00
Ar  7842  0.4982997E+02  0.6003245E+02  0.5462575E+02  0.0000000E+00
Ar  7843  0.4993240E+02  0.5546932E+02  0.5746114E+02  0.0000000E+00
Ar  7844  0.4762880E+02  0.5907113E+02  0.5769809E+02  0.0000000E+00
Ar  7845  0.4689382E+02  0.5730760E+02  0.6051404E+02  0.0000000E+00
Ar  7846  0.5051210E+02  0.5977724E+02  0.6117606E+02  0.0000000E+00
Ar  7847  0.5020205E+02  0.5653170E+02  0.6304186E+02  0.0000000E+00
Ar  7848  0.4705304E+02  0.5998735E+02  0.6298589E+02  0.0000000E+00
Ar  7849  0.4717137E+02  0.5749925E+02  0.6589315E+02  0.0000000E+00
Ar  7850  0.5091332E+02  0.5964266E+02  0.6584213E+02  0.0000000E+00
Ar  7851  0.5001592E+02  0.5700210E+02  0.6804381E+02  0.0000000E+00
Ar  7852  0.4759272E+02  0.5976296E+02  0.6833510E+02  0.0000000E+00
Ar  7853  0.4734420E+02  0.5728010E+02  0.7121890E+02  0.0000000E+00
Ar  7854  0.5048166E+02  0.5913711E+02  0.7099001E+02  0.0000000E+00
Ar  7855  0.5038639E+02  0.5684708E+02  0.7419768E+02  0.0000000E+00
Ar  7856  0.4734031E+02  0.5943602E+02  0.7416386E+02  0.0000000E+00
Ar  7857  0.4756503E+02  0.5694924E+02  0.7749445E+02  0.0000000E+00
Ar  7858  0.5052489E+02  0.5947446E+02  0.7709762E+02  0.0000000E+00
Ar  7859  0.5036623E+02  0.5685579E+02  0.7997146E+02  0.0000000E+00
Ar  7860  0.4741939E+02  0.5996802E+02  0.7970407E+02  0.0000000E+00
Ar  7861  0.4816058E+02  0.6262713E+02  0.8226861E+02  0.0000000E+00
Ar  7862  0.5082940E+02  0.6519602E+02  0.8246024E+02  0.0000000E+00
Ar  7863  0.5110972E+02  0.6259460E+02  0.7754421E+00  0.0000000E+00
Ar  7864  0.4771835E+02  0.6548522E+02  0.4755227E+00  0.0000000E+00
Ar  7865  0.4672746E+02  0.6215396E+02  0.4053916E+01  0.0000000E+00
Ar  7866  0.5021126E+02  0.6522864E+02  0.3633154E+01  0.0000000E+00
Ar  7867  0.4956328E+02  0.6229434E+02  0.6605202E+01  0.0000000E+00
Ar  7868  0.4699488E+02  0.6520481E+02  0.6595131E+01  0.0000000E+00
Ar  7869  0.4721385E+02  0.6221100E+02  0.9527964E+01  0.0000000E+00
Ar  7870  0.4983105E+02  0.6437837E+02  0.9915797E+01  0.0000000E+00
Ar  7871  0.5042017E+02  0.6256509E+02  0.1304334E+02  0.0000000E+00
Ar  7872  0.4736960E+02  0.6512129E+02  0.1266227E+02  0.0000000E+00
Ar  7873  0.4692510E+02  0.6203540E+02  0.1548630E+02  0.0000000E+00
Ar  7874  0.4982719E+02  0.6474288E+02  0.1565629E+02  0.0000000E+00
Ar  7875  0.5006561E+02  0.6170058E+02  0.1902738E+02  0.0000000E+00
Ar  7876  0.4744604E+02  0.6488671E+02  0.1854730E+02  0.0000000E+00
Ar  7877  0.4836486E+02  0.6183053E+02  0.2210799E+02  0.0000000E+00
Ar  7878  0.5002513E+02  0.6476755E+02  0.2114139E+02  0.0000000E+00
Ar  7879  0.5016754E+02  0.6235262E+02  0.2529104E+02  0.0000000E+00
Ar  7880  0.4785130E+02  0.6516846E+02  0.2517788E+02  0.0000000E+00
Ar  7881  0.4722765E+02  0.6099605E+02  0.2655874E+02  0.0000000E+00
Ar  7882  0.5081875E+02  0.6522760E+02  0.2713799E+02  0.0000000E+00
Ar  7883  0.5132555E+02  0.6162354E+02  0.3014585E+02  0.0000000E+00
Ar  7884  0.4849813E+02  0.6306880E+02  0.2890783E+02  0.0000000E+00
Ar  7885  0.4790668E+02  0.6227074E+02  0.3219445E+02  0.0000000E+00
Ar  7886  0.5134786E+02  0.6465993E+02  0.3240703E+02  0.0000000E+00
Ar  7887  0.5061298E+02  0.6201691E+02  0.3494718E+02  0.0000000E+00
Ar  7888  0.4850020E+02  0.6536143E+02  0.3519468E+02  0.0000000E+00
Ar  7889  0.4776468E+02  0.6229854E+02  0.3764824E+02  0.0000000E+00
Ar  7890  0.5055173E+02  0.6470340E+02  0.3777009E+02  0.0000000E+00
Ar  7891  0.5073440E+02  0.6188574E+02  0.4078052E+02  0.0000000E+00
Ar  7892  0.4846829E+02  0.6487129E+02  0.4063965E+02  0.0000000E+00
Ar  7893  0.4756181E+02  0.6223601E+02  0.4353203E+02  0.0000000E+00
Ar  7894  0.5134832E+02  0.6439466E+02  0.4359193E+02  0.0000000E+00
Ar  7895  0.5008875E+02  0.6251337E+02  0.4632169E+02  0.0000000E+00
Ar  7896  0.4799105E+02  0.6613833E+02  0.4625101E+02  0.0000000E+00
Ar  7897  0.4764088E+02  0.6189014E+02  0.4901546E+02  0.0000000E+00
Ar  7898  0.5095597E+02  0.6521328E+02  0.4893176E+02  0.0000000E+00
Ar  7899  0.5033831E+02  0.6241986E+02  0.5152819E+02  0.0000000E+00
Ar  7900  0.4823416E+02  0.6509514E+02  0.5151370E+02  0.0000000E+00
Ar  7901  0.4755170E+02  0.6256830E+02  0.5454601E+02  0.0000000E+00
Ar  7902  0.4994074E+02  0.6564595E+02  0.5481991E+02  0.0000000E+00
Ar  7903  0.4954976E+02  0.6267829E+02  0.5782396E+02  0.0000000E+00
Ar  7904  0.4766162E+02  0.6579530E+02  0.5767923E+02  0.0000000E+00
Ar  7905  0.4801270E+02  0.6301707E+02  0.6111443E+02  0.0000000E+00
Ar  7906  0.5020059E+02  0.6579144E+02  0.6046479E+02  0.0000000E+00
Ar  7907  0.5059582E+02  0.6305957E+02  0.6354246E+02  0.0000000E+00
Ar  7908  0.4780867E+02  0.6574622E+02  0.6318578E+02  0.0000000E+00
Ar  7909  0.4747604E+02  0.6281145E+02  0.6551585E+02  0.0000000E+00
Ar  7910  0.5046209E+02  0.6583273E+02  0.6602044E+02  0.0000000E+00
Ar  7911  0.4996176E+02  0.6257456E+02  0.6863314E+02  0.0000000E+00
Ar  7912  0.4784629E+02  0.6567167E+02  0.6874267E+02  0.0000000E+00
Ar  7913  0.4750137E+02  0.6230258E+02  0.7143993E+02  0.0000000E+00
Ar  7914  0.5020488E+02  0.6565146E+02  0.7156154E+02  0.0000000E+00
Ar  7915  0.5043000E+02  0.6257001E+02  0.7397488E+02  0.0000000E+00
Ar  7916  0.4726235E+02  0.6506255E+02  0.7418316E+02  0.0000000E+00
Ar  7917  0.4749856E+02  0.6253853E+02  0.7664794E+02  0.0000000E+00
Ar  7918  0.5031033E+02  0.6473037E+02  0.7680523E+02  0.0000000E+00
Ar  7919  0.5006206E+02  0.6240969E+02  0.7931638E+02  0.0000000E+00
Ar  7920  0.4707140E+02  0.6498303E+02  0.7967191E+02  0.0000000E+00
Ar  7921  0.4755789E+02  0.6763262E+02  0.8151522E+02  0.0000000E+00
Ar  7922  0.4989782E+02  0.7084585E+02  0.8167728E+02  0.0000000E+00
Ar  7923  0.4977985E+02  0.6845801E+02  0.1979542E+00  0.0000000E+00
Ar  7924  0.4798996E+02  0.7166411E+02  0.6951000E+00  0.0000000E+00
Ar  7925  0.4769060E+02  0.6823709E+02  0.3384969E+01  0.0000000E+00
Ar  7926  0.5005964E+02  0.7132399E+02  0.3386810E+01  0.0000000E+00
Ar  7927  0.5000145E+02  0.6711239E+02  0.6714936E+01  0.0000000E+00
Ar  7928  0.4759782E+02  0.7028004E+02  0.6268231E+01  0.0000000E+00
Ar  7929  0.4743595E+02  0.6808653E+02  0.9599680E+01  0.0000000E+00
Ar  7930  0.5075463E+02  0.7034517E+02  0.9655366E+01  0.0000000E+00
Ar  7931  0.5031813E+02  0.6692542E+02  0.1252967E+02  0.0000000E+00
Ar  7932  0.4740098E+02  0.7054366E+02  0.1234599E+02  0.0000000E+00
Ar  7933  0.4775154E+02  0.6816334E+02  0.1524155E+02  0.0000000E+00
Ar  7934  0.5102188E+02  0.6982567E+02  0.1512466E+02  0.0000000E+00
Ar  7935  0.5049181E+02  0.6756042E+02  0.1854333E+02  0.0000000E+00
Ar  7936  0.4699737E+02  0.6988398E+02  0.1900965E+02  0.0000000E+00
Ar  7937  0.4737594E+02  0.6760937E+02  0.2201141E+02  0.0000000E+00
Ar  7938  0.4993280E+02  0.6982931E+02  0.2148142E+02  0.0000000E+00
Ar  7939  0.5053240E+02  0.6737415E+02  0.2420313E+02  0.0000000E+00
Ar  7940  0.4710537E+02  0.7019802E+02  0.2440901E+02  0.0000000E+00
Ar  7941  0.4783112E+02  0.6636819E+02  0.2868292E+02  0.0000000E+00
Ar  7942  0.5075782E+02  0.6996225E+02  0.2663915E+02  0.0000000E+00
Ar  7943  0.5060350E+02  0.6811240E+02  0.2972649E+02  0.0000000E+00
Ar  7944  0.4737981E+02  0.6992779E+02  0.2985930E+02  0.0000000E+00
Ar  7945  0.4836824E+02  0.6685818E+02  0.3208278E+02  0.0000000E+00
Ar  7946  0.5043400E+02  0.6995330E+02  0.3286595E+02  0.0000000E+00
Ar  7947  0.5128318E+02  0.6800111E+02  0.3600051E+02  0.0000000E+00
Ar  7948  0.4706771E+02  0.7024468E+02  0.3530560E+02  0.0000000E+00
Ar  7949  0.4789290E+02  0.6806406E+02  0.3814022E+02  0.0000000E+00
Ar  7950  0.5012404E+02  0.7073863E+02  0.3789197E+02  0.0000000E+00
Ar  7951  0.5126241E+02  0.6738976E+02  0.4049677E+02  0.0000000E+00
Ar  7952  0.4788646E+02  0.7108094E+02  0.4066662E+02  0.0000000E+00
Ar  7953  0.4788184E+02  0.6799796E+02  0.4330524E+02  0.0000000E+00
Ar  7954  0.5052550E+02  0.7104001E+02  0.4320006E+02  0.0000000E+00
Ar  7955  0.5090794E+02  0.6843467E+02  0.4637931E+02  0.0000000E+00
Ar  7956  0.4790220E+02  0.7094601E+02  0.4635256E+02  0.0000000E+00
Ar  7957  0.4817132E+02  0.6831435E+02  0.4943990E+02  0.0000000E+00
Ar  7958  0.5071822E+02  0.7123778E+02  0.4890812E+02  0.0000000E+00
Ar  7959  0.5085179E+02  0.6793266E+02  0.5212272E+02  0.0000000E+00
Ar  7960  0.4803260E+02  0.7069526E+02  0.5204304E+02  0.0000000E+00
Ar  7961  0.4749863E+02  0.6830828E+02  0.5510836E+02  0.0000000E+00
Ar  7962  0.5079974E+02  0.7058920E+02  0.5459353E+02  0.0000000E+00
Ar  7963  0.5062673E+02  0.6837019E+02  0.5779029E+02  0.0000000E+00
Ar  7964  0.4787208E+02  0.7108925E+02  0.5808072E+02  0.0000000E+00
Ar  7965  0.4699328E+02  0.6866352E+02  0.6038057E+02  0.0000000E+00
Ar  7966  0.5031742E+02  0.7152262E+02  0.6043857E+02  0.0000000E+00
Ar  7967  0.5007157E+02  0.6868820E+02  0.6356336E+02  0.0000000E+00
Ar  7968  0.4779578E+02  0.7127299E+02  0.6281345E+02  0.0000000E+00
Ar  7969  0.4737012E+02  0.6817477E+02  0.6618992E+02  0.0000000E+00
Ar  7970  0.5062796E+02  0.7110367E+02  0.6670769E+02  0.0000000E+00
Ar  7971  0.5061622E+02  0.6822332E+02  0.6875992E+02  0.0000000E+00
Ar  7972  0.4767880E+02  0.7111576E+02  0.6861381E+02  0.0000000E+00
Ar  7973  0.4778338E+02  0.6814953E+02  0.7167385E+02  0.0000000E+00
Ar  7974  0.5082933E+02  0.7065817E+02  0.7204296E+02  0.0000000E+00
Ar  7975  0.5055714E+02  0.6798539E+02  0.7453066E+02  0.0000000E+00
Ar  7976  0.4783966E+02  0.7079535E+02  0.7441887E+02  0.0000000E+00
Ar  7977  0.4637890E+02  0.6762621E+02  0.7659242E+02  0.0000000E+00
Ar  7978  0.5133588E+02  0.7094514E+02  0.7698636E+02  0.0000000E+00
Ar  7979  0.5037957E+02  0.6786764E+02  0.7867443E+02  0.0000000E+00
Ar  7980  0.4689846E+02  0.7018732E+02  0.7921490E+02  0.0000000E+00
Ar  7981  0.4701172E+02  0.7359511E+02  0.8176866E+02  0.0000000E+00
Ar  7982  0.5000674E+02  0.7717466E+02  0.8234576E+02  0.0000000E+00
Ar  7983  0.5038241E+02  0.7413963E+02 -0.6848010E-01  0.0000000E+00
Ar  7984  0.4715436E+02  0.7701392E+02  0.2092638E+00  0.0000000E+00
Ar  7985  0.4810309E+02  0.7423799E+02  0.3018677E+01  0.0000000E+00
Ar  7986  0.4997842E+02  0.7751573E+02  0.2400161E+01  0.0000000E+00
Ar  7987  0.5100865E+02  0.7322570E+02  0.6341931E+01  0.0000000E+00
Ar  7988  0.4787357E+02  0.7639201E+02  0.6514809E+01  0.0000000E+00
Ar  7989  0.4836280E+02  0.7279610E+02  0.9048002E+01  0.0000000E+00
Ar  7990  0.5066287E+02  0.7570874E+02  0.8798330E+01  0.0000000E+00
Ar  7991  0.5051244E+02  0.7264037E+02  0.1223151E+02  0.0000000E+00
Ar  7992  0.4823541E+02  0.7563332E+02  0.1187581E+02  0.0000000E+00
Ar  7993  0.4846254E+02  0.7241824E+02  0.1511811E+02  0.0000000E+00
Ar  7994  0.5110668E+02  0.7617169E+02  0.1470398E+02  0.0000000E+00
Ar  7995  0.4945547E+02  0.7268302E+02  0.1906712E+02  0.0000000E+00
Ar  7996  0.4819446E+02  0.7559503E+02  0.1696972E+02  0.0000000E+00
Ar  7997  0.4687022E+02  0.7256255E+02  0.2166620E+02  0.0000000E+00
Ar  7998  0.4924443E+02  0.7572681E+02  0.2079048E+02  0.0000000E+00
Ar  7999  0.4932884E+02  0.7268690E+02  0.2388368E+02  0.0000000E+00
Ar  8000  0.4761437E+02  0.7578142E+02  0.2454373E+02  0.0000000E+00
Ar  8001  0.4777302E+02  0.7280517E+02  0.2761522E+02  0.0000000E+00
Ar  8002  0.4977838E+02  0.7596608E+02  0.2703787E+02  0.0000000E+00
Ar  8003  0.5049020E+02  0.7210929E+02  0.3008764E+02  0.0000000E+00
Ar  8004  0.4696243E+02  0.7701409E+02  0.2946832E+02  0.0000000E+00
Ar  8005  0.4729880E+02  0.7308959E+02  0.3224885E+02  0.0000000E+00
Ar  8006  0.4947534E+02  0.7601863E+02  0.3160533E+02  0.0000000E+00
Ar  8007  0.4971924E+02  0.7388233E+02  0.3438472E+02  0.0000000E+00
Ar  8008  0.4706377E+02  0.7658506E+02  0.3499708E+02  0.0000000E+00
Ar  8009  0.4818886E+02  0.7410267E+02  0.3819308E+02  0.0000000E+00
Ar  8010  0.5012345E+02  0.7692575E+02  0.3811363E+02  0.0000000E+00
Ar  8011  0.5047823E+02  0.7368825E+02  0.4084374E+02  0.0000000E+00
Ar  8012  0.4694429E+02  0.7633363E+02  0.4075524E+02  0.0000000E+00
Ar  8013  0.4744136E+02  0.7358148E+02  0.4287254E+02  0.0000000E+00
Ar  8014  0.5025742E+02  0.7599240E+02  0.4356971E+02  0.0000000E+00
Ar  8015  0.4982436E+02  0.7372018E+02  0.4595526E+02  0.0000000E+00
Ar  8016  0.4740522E+02  0.7623545E+02  0.4656217E+02  0.0000000E+00
Ar  8017  0.4746598E+02  0.7333774E+02  0.4888738E+02  0.0000000E+00
Ar  8018  0.5036020E+02  0.7579867E+02  0.4890445E+02  0.0000000E+00
Ar  8019  0.5058397E+02  0.7322769E+02  0.5196101E+02  0.0000000E+00
Ar  8020  0.4793817E+02  0.7579915E+02  0.5171973E+02  0.0000000E+00
Ar  8021  0.4784462E+02  0.7356366E+02  0.5443659E+02  0.0000000E+00
Ar  8022  0.5061468E+02  0.7626117E+02  0.5444096E+02  0.0000000E+00
Ar  8023  0.5072088E+02  0.7401807E+02  0.5718076E+02  0.0000000E+00
Ar  8024  0.4778764E+02  0.7674368E+02  0.5697939E+02  0.0000000E+00
Ar  8025  0.4759688E+02  0.7409357E+02  0.6044060E+02  0.0000000E+00
Ar  8026  0.5034946E+02  0.7651941E+02  0.6011602E+02  0.0000000E+00
Ar  8027  0.5101638E+02  0.7367084E+02  0.6366069E+02  0.0000000E+00
Ar  8028  0.4838023E+02  0.7681665E+02  0.6341059E+02  0.0000000E+00
Ar  8029  0.4777156E+02  0.7426231E+02  0.6573369E+02  0.0000000E+00
Ar  8030  0.5059264E+02  0.7664529E+02  0.6643248E+02  0.0000000E+00
Ar  8031  0.5053583E+02  0.7411686E+02  0.6898556E+02  0.0000000E+00
Ar  8032  0.4743360E+02  0.7692078E+02  0.6863966E+02  0.0000000E+00
Ar  8033  0.4759433E+02  0.7339162E+02  0.7130214E+02  0.0000000E+00
Ar  8034  0.5043491E+02  0.7668702E+02  0.7122890E+02  0.0000000E+00
Ar  8035  0.5123463E+02  0.7370689E+02  0.7471975E+02  0.0000000E+00
Ar  8036  0.4788396E+02  0.7625522E+02  0.7400590E+02  0.0000000E+00
Ar  8037  0.4780556E+02  0.7388894E+02  0.7722823E+02  0.0000000E+00
Ar  8038  0.5017973E+02  0.7649036E+02  0.7660454E+02  0.0000000E+00
Ar  8039  0.5051183E+02  0.7394218E+02  0.7988980E+02  0.0000000E+00
Ar  8040  0.4757097E+02  0.7670083E+02  0.7929800E+02  0.0000000E+00
Ar  8041  0.4687811E+02  0.7997920E+02  0.8229227E+02  0.0000000E+00
Ar  8042  0.5032047E+02  0.8261897E+02  0.8197184E+02  0.0000000E+00
Ar  8043  0.5005065E+02  0.8093592E+02  0.9598553E+00  0.0000000E+00
Ar  8044  0.4699850E+02  0.8292835E+02  0.1907236E+01  0.0000000E+00
Ar  8045  0.4755662E+02  0.7968418E+02  0.4143099E+01  0.0000000E+00
Ar  8046  0.5078723E+02  0.8216114E+02  0.4420243E+01  0.0000000E+00
Ar  8047  0.5075249E+02  0.7913014E+02  0.6403757E+01  0.0000000E+00
Ar  8048  0.4809211E+02  0.8216220E+02  0.6699627E+01  0.0000000E+00
Ar  8049  0.4848147E+02  0.7854766E+02  0.9979281E+01  0.0000000E+00
Ar  8050  0.5109686E+02  0.8165351E+02  0.9915764E+01  0.0000000E+00
Ar  8051  0.5182959E+02  0.7924634E+02  0.1299199E+02  0.0000000E+00
Ar  8052  0.4811758E+02  0.8139274E+02  0.1277196E+02  0.0000000E+00
Ar  8053  0.4783943E+02  0.7904309E+02  0.1514805E+02  0.0000000E+00
Ar  8054  0.5075975E+02  0.8128165E+02  0.1528972E+02  0.0000000E+00
Ar  8055  0.5091280E+02  0.7830059E+02  0.1774131E+02  0.0000000E+00
Ar  8056  0.4813947E+02  0.8155214E+02  0.1839664E+02  0.0000000E+00
Ar  8057  0.4795335E+02  0.7913412E+02  0.2113914E+02  0.0000000E+00
Ar  8058  0.5087144E+02  0.8134854E+02  0.2101666E+02  0.0000000E+00
Ar  8059  0.4994085E+02  0.7847292E+02  0.2455229E+02  0.0000000E+00
Ar  8060  0.4809623E+02  0.8178815E+02  0.2385926E+02  0.0000000E+00
Ar  8061  0.4695544E+02  0.7879792E+02  0.2635409E+02  0.0000000E+00
Ar  8062  0.5049963E+02  0.8218552E+02  0.2706643E+02  0.0000000E+00
Ar  8063  0.5022664E+02  0.7916274E+02  0.2889613E+02  0.0000000E+00
Ar  8064  0.4717011E+02  0.8170425E+02  0.2925152E+02  0.0000000E+00
Ar  8065  0.4730083E+02  0.7941785E+02  0.3242123E+02  0.0000000E+00
Ar  8066  0.4984460E+02  0.8222877E+02  0.3212530E+02  0.0000000E+00
Ar  8067  0.5071418E+02  0.7917601E+02  0.3535425E+02  0.0000000E+00
Ar  8068  0.4780008E+02  0.8194563E+02  0.3500500E+02  0.0000000E+00
Ar  8069  0.4721531E+02  0.7913050E+02  0.3827426E+02  0.0000000E+00
Ar  8070  0.5074060E+02  0.8197909E+02  0.3793665E+02  0.0000000E+00
Ar  8071  0.4985940E+02  0.7939481E+02  0.4065812E+02  0.0000000E+00
Ar  8072  0.4738322E+02  0.8198667E+02  0.4111428E+02  0.0000000E+00
Ar  8073  0.4780654E+02  0.7952390E+02  0.4336104E+02  0.0000000E+00
Ar  8074  0.5027185E+02  0.8222368E+02  0.4312258E+02  0.0000000E+00
Ar  8075  0.5036709E+02  0.7975283E+02  0.4557641E+02  0.0000000E+00
Ar  8076  0.4744662E+02  0.8236160E+02  0.4613836E+02  0.0000000E+00
Ar  8077  0.4763211E+02  0.7920214E+02  0.4863411E+02  0.0000000E+00
Ar  8078  0.4989587E+02  0.8285541E+02  0.4865567E+02  0.0000000E+00
Ar  8079  0.5007615E+02  0.7882155E+02  0.5127589E+02  0.0000000E+00
Ar  8080  0.4768103E+02  0.8181767E+02  0.5139058E+02  0.0000000E+00
Ar  8081  0.4740799E+02  0.7933460E+02  0.5456970E+02  0.0000000E+00
Ar  8082  0.5001984E+02  0.8210666E+02  0.5457583E+02  0.0000000E+00
Ar  8083  0.5075653E+02  0.7929380E+02  0.5701139E+02  0.0000000E+00
Ar  8084  0.4715616E+02  0.8201492E+02  0.5745224E+02  0.0000000E+00
Ar  8085  0.4814493E+02  0.7908994E+02  0.5979673E+02  0.0000000E+00
Ar  8086  0.5091944E+02  0.8153182E+02  0.6046128E+02  0.0000000E+00
Ar  8087  0.5128686E+02  0.7950063E+02  0.6332465E+02  0.0000000E+00
Ar  8088  0.4784235E+02  0.8120446E+02  0.6310184E+02  0.0000000E+00
Ar  8089  0.4780870E+02  0.7916124E+02  0.6584569E+02  0.0000000E+00
Ar  8090  0.5027454E+02  0.8215187E+02  0.6605485E+02  0.0000000E+00
Ar  8091  0.5014376E+02  0.7926621E+02  0.6886333E+02  0.0000000E+00
Ar  8092  0.4730858E+02  0.8223852E+02  0.6872410E+02  0.0000000E+00
Ar  8093  0.4722907E+02  0.7901880E+02  0.7175958E+02  0.0000000E+00
Ar  8094  0.5041729E+02  0.8229398E+02  0.7098056E+02  0.0000000E+00
Ar  8095  0.5027219E+02  0.7937114E+02  0.7423082E+02  0.0000000E+00
Ar  8096  0.4777292E+02  0.8262162E+02  0.7329669E+02  0.0000000E+00
Ar  8097  0.4765402E+02  0.7956240E+02  0.7650998E+02  0.0000000E+00
Ar  8098  0.5062900E+02  0.8254779E+02  0.7671816E+02  0.0000000E+00
Ar  8099  0.5027969E+02  0.7974838E+02  0.7935184E+02  0.0000000E+00
Ar  8100  0.4723123E+02  0.8224143E+02  0.7938652E+02  0.0000000E+00
Ar  8101  0.5318045E+02  0.1297433E+01  0.8236501E+02  0.0000000E+00
Ar  8102  0.5572255E+02  0.3499145E+01  0.8275128E+02  0.0000000E+00
Ar  8103  0.5650966E+02  0.9344536E+00  0.1045526E+01  0.0000000E+00
Ar  8104  0.5346196E+02  0.2883246E+01  0.1164647E+01  0.0000000E+00
Ar  8105  0.5326304E+02  0.8104713E+00  0.3876988E+01  0.0000000E+00
Ar  8106  0.5601940E+02  0.3146737E+01  0.3712214E+01  0.0000000E+00
Ar  8107  0.5552211E+02  0.8188843E+00  0.6863167E+01  0.0000000E+00
Ar  8108  0.5303708E+02  0.3496550E+01  0.6979449E+01  0.0000000E+00
Ar  8109  0.5297872E+02  0.9806280E+00  0.9769639E+01  0.0000000E+00
Ar  8110  0.5604900E+02  0.3426210E+01  0.9520564E+01  0.0000000E+00
Ar  8111  0.5661036E+02  0.4547691E+00  0.1267214E+02  0.0000000E+00
Ar  8112  0.5317559E+02  0.3251649E+01  0.1247495E+02  0.0000000E+00
Ar  8113  0.5374930E+02  0.3362134E+00  0.1572731E+02  0.0000000E+00
Ar  8114  0.5652268E+02  0.2438576E+01  0.1590707E+02  0.0000000E+00
Ar  8115  0.5641165E+02  0.8324929E+02  0.1831465E+02  0.0000000E+00
Ar  8116  0.5327535E+02  0.3016427E+01  0.1805088E+02  0.0000000E+00
Ar  8117  0.5369054E+02  0.8419091E+02  0.2055032E+02  0.0000000E+00
Ar  8118  0.5577720E+02  0.2837665E+01  0.2049997E+02  0.0000000E+00
Ar  8119  0.5546853E+02  0.6756564E+00  0.2377483E+02  0.0000000E+00
Ar  8120  0.5320482E+02  0.3539365E+01  0.2380246E+02  0.0000000E+00
Ar  8121  0.5326830E+02  0.6603687E+00  0.2692085E+02  0.0000000E+00
Ar  8122  0.5605765E+02  0.3008933E+01  0.2662072E+02  0.0000000E+00
Ar  8123  0.5607362E+02  0.5162709E+00  0.2917008E+02  0.0000000E+00
Ar  8124  0.5306393E+02  0.3523649E+01  0.2911913E+02  0.0000000E+00
Ar  8125  0.5289631E+02  0.8042800E+00  0.3191171E+02  0.0000000E+00
Ar  8126  0.5578665E+02  0.3299040E+01  0.3201277E+02  0.0000000E+00
Ar  8127  0.5567777E+02  0.6792514E+00  0.3462661E+02  0.0000000E+00
Ar  8128  0.5299794E+02  0.3393791E+01  0.3498583E+02  0.0000000E+00
Ar  8129  0.5291980E+02  0.8508111E+00  0.3749010E+02  0.0000000E+00
Ar  8130  0.5579920E+02  0.3236967E+01  0.3762642E+02  0.0000000E+00
Ar  8131  0.5552121E+02  0.1257219E+01  0.4079626E+02  0.0000000E+00
Ar  8132  0.5315058E+02  0.4098053E+01  0.4042292E+02  0.0000000E+00
Ar  8133  0.5270189E+02  0.9284271E+00  0.4328227E+02  0.0000000E+00
Ar  8134  0.5581668E+02  0.4168341E+01  0.4308515E+02  0.0000000E+00
Ar  8135  0.5589211E+02  0.1575795E+01  0.4560044E+02  0.0000000E+00
Ar  8136  0.5260375E+02  0.4024198E+01  0.4557287E+02  0.0000000E+00
Ar  8137  0.5282649E+02  0.1306831E+01  0.4796340E+02  0.0000000E+00
Ar  8138  0.5553404E+02  0.3500913E+01  0.4855646E+02  0.0000000E+00
Ar  8139  0.5502038E+02  0.7342118E+00  0.5156530E+02  0.0000000E+00
Ar  8140  0.5263615E+02  0.3282455E+01  0.5138039E+02  0.0000000E+00
Ar  8141  0.5230608E+02  0.5851015E+00  0.5431959E+02  0.0000000E+00
Ar  8142  0.5520704E+02  0.3014150E+01  0.5459583E+02  0.0000000E+00
Ar  8143  0.5530957E+02  0.7824557E+00  0.5815637E+02  0.0000000E+00
Ar  8144  0.5226242E+02  0.2975693E+01  0.5781215E+02  0.0000000E+00
Ar  8145  0.5277832E+02  0.7169080E+00  0.6069836E+02  0.0000000E+00
Ar  8146  0.5497444E+02  0.3798418E+01  0.6061479E+02  0.0000000E+00
Ar  8147  0.5610914E+02  0.1007611E+01  0.6296097E+02  0.0000000E+00
Ar  8148  0.5209643E+02  0.3798680E+01  0.6297622E+02  0.0000000E+00
Ar  8149  0.5218724E+02  0.1867647E+01  0.6637379E+02  0.0000000E+00
Ar  8150  0.5522366E+02  0.3900280E+01  0.6474968E+02  0.0000000E+00
Ar  8151  0.5539103E+02  0.1797028E+01  0.6760500E+02  0.0000000E+00
Ar  8152  0.5299085E+02  0.4357926E+01  0.6892830E+02  0.0000000E+00
Ar  8153  0.5281136E+02  0.7175749E+00  0.7101543E+02  0.0000000E+00
Ar  8154  0.5625006E+02  0.2858897E+01  0.7091612E+02  0.0000000E+00
Ar  8155  0.5581791E+02  0.7605162E+00  0.7399698E+02  0.0000000E+00
Ar  8156  0.5331468E+02  0.3630896E+01  0.7309383E+02  0.0000000E+00
Ar  8157  0.5325975E+02  0.6896250E+00  0.7640519E+02  0.0000000E+00
Ar  8158  0.5646826E+02  0.4454538E+01  0.7666839E+02  0.0000000E+00
Ar  8159  0.5534271E+02  0.1190390E+01  0.7974041E+02  0.0000000E+00
Ar  8160  0.5301682E+02  0.4139569E+01  0.8006691E+02  0.0000000E+00
Ar  8161  0.5315786E+02  0.6039092E+01  0.8289063E+02  0.0000000E+00
Ar  8162  0.5616874E+02  0.8791862E+01  0.8301627E+02  0.0000000E+00
Ar  8163  0.5600160E+02  0.6260898E+01  0.1693764E+01  0.0000000E+00
Ar  8164  0.5312431E+02  0.8690076E+01  0.1673020E+01  0.0000000E+00
Ar  8165  0.5314635E+02  0.5879576E+01  0.3970130E+01  0.0000000E+00
Ar  8166  0.5655977E+02  0.9422133E+01  0.3959985E+01  0.0000000E+00
Ar  8167  0.5575001E+02  0.5520231E+01  0.6489742E+01  0.0000000E+00
Ar  8168  0.5333329E+02  0.8549143E+01  0.6797206E+01  0.0000000E+00
Ar  8169  0.5300378E+02  0.5988351E+01  0.9898682E+01  0.0000000E+00
Ar  8170  0.5587430E+02  0.7859171E+01  0.9074680E+01  0.0000000E+00
Ar  8171  0.5656708E+02  0.6102420E+01  0.1246278E+02  0.0000000E+00
Ar  8172  0.5326988E+02  0.8810813E+01  0.1246062E+02  0.0000000E+00
Ar  8173  0.5389443E+02  0.5550266E+01  0.1526734E+02  0.0000000E+00
Ar  8174  0.5604909E+02  0.8343800E+01  0.1489446E+02  0.0000000E+00
Ar  8175  0.5632604E+02  0.5503328E+01  0.1823371E+02  0.0000000E+00
Ar  8176  0.5375969E+02  0.8355004E+01  0.1739825E+02  0.0000000E+00
Ar  8177  0.5304399E+02  0.6172666E+01  0.2075650E+02  0.0000000E+00
Ar  8178  0.5631746E+02  0.8804355E+01  0.2064519E+02  0.0000000E+00
Ar  8179  0.5538401E+02  0.6382139E+01  0.2329207E+02  0.0000000E+00
Ar  8180  0.5256811E+02  0.8983070E+01  0.2315508E+02  0.0000000E+00
Ar  8181  0.5358918E+02  0.6070879E+01  0.2649308E+02  0.0000000E+00
Ar  8182  0.5630105E+02  0.9117393E+01  0.2607404E+02  0.0000000E+00
Ar  8183  0.5631877E+02  0.5620527E+01  0.2922776E+02  0.0000000E+00
Ar  8184  0.5357227E+02  0.8593444E+01  0.2946338E+02  0.0000000E+00
Ar  8185  0.5263101E+02  0.6135372E+01  0.3217359E+02  0.0000000E+00
Ar  8186  0.5576382E+02  0.8815071E+01  0.3202900E+02  0.0000000E+00
Ar  8187  0.5616446E+02  0.5995343E+01  0.3539961E+02  0.0000000E+00
Ar  8188  0.5256816E+02  0.9333244E+01  0.3436884E+02  0.0000000E+00
Ar  8189  0.5318238E+02  0.6210322E+01  0.3751752E+02  0.0000000E+00
Ar  8190  0.5647515E+02  0.9739891E+01  0.3753264E+02  0.0000000E+00
Ar  8191  0.5636202E+02  0.6541622E+01  0.4016121E+02  0.0000000E+00
Ar  8192  0.5396038E+02  0.9270569E+01  0.3995066E+02  0.0000000E+00
Ar  8193  0.5295725E+02  0.6854940E+01  0.4327496E+02  0.0000000E+00
Ar  8194  0.5584404E+02  0.8826223E+01  0.4311139E+02  0.0000000E+00
Ar  8195  0.5572612E+02  0.6838266E+01  0.4623803E+02  0.0000000E+00
Ar  8196  0.5325187E+02  0.9822115E+01  0.4607882E+02  0.0000000E+00
Ar  8197  0.5303139E+02  0.6742370E+01  0.4909050E+02  0.0000000E+00
Ar  8198  0.5580131E+02  0.9197483E+01  0.4880148E+02  0.0000000E+00
Ar  8199  0.5549989E+02  0.5978757E+01  0.5197749E+02  0.0000000E+00
Ar  8200  0.5369207E+02  0.9407778E+01  0.5160376E+02  0.0000000E+00
Ar  8201  0.5381112E+02  0.6856066E+01  0.5565856E+02  0.0000000E+00
Ar  8202  0.5574964E+02  0.9696069E+01  0.5592343E+02  0.0000000E+00
Ar  8203  0.5657460E+02  0.5308409E+01  0.5762842E+02  0.0000000E+00
Ar  8204  0.5233202E+02  0.9597611E+01  0.5764182E+02  0.0000000E+00
Ar  8205  0.5235658E+02  0.6908709E+01  0.5988693E+02  0.0000000E+00
Ar  8206  0.5691396E+02  0.9651864E+01  0.5977179E+02  0.0000000E+00
Ar  8207  0.5550726E+02  0.7159562E+01  0.6219688E+02  0.0000000E+00
Ar  8208  0.5248651E+02  0.9343393E+01  0.6239724E+02  0.0000000E+00
Ar  8209  0.5272453E+02  0.6891189E+01  0.6520678E+02  0.0000000E+00
Ar  8210  0.5576351E+02  0.9283953E+01  0.6529486E+02  0.0000000E+00
Ar  8211  0.5576896E+02  0.6223982E+01  0.6733033E+02  0.0000000E+00
Ar  8212  0.5375227E+02  0.8427764E+01  0.6857487E+02  0.0000000E+00
Ar  8213  0.5219260E+02  0.6684331E+01  0.7151181E+02  0.0000000E+00
Ar  8214  0.5509915E+02  0.9829984E+01  0.7138409E+02  0.0000000E+00
Ar  8215  0.5616359E+02  0.5734317E+01  0.7338916E+02  0.0000000E+00
Ar  8216  0.5226430E+02  0.9116900E+01  0.7405782E+02  0.0000000E+00
Ar  8217  0.5295714E+02  0.6516445E+01  0.7660659E+02  0.0000000E+00
Ar  8218  0.5623366E+02  0.8329996E+01  0.7635863E+02  0.0000000E+00
Ar  8219  0.5556231E+02  0.6868995E+01  0.7985653E+02  0.0000000E+00
Ar  8220  0.5204018E+02  0.8620034E+01  0.8017962E+02  0.0000000E+00
Ar  8221  0.5274102E+02  0.1179689E+02  0.8332593E+02  0.0000000E+00
Ar  8222  0.5615104E+02  0.1356190E+02  0.8317974E+02  0.0000000E+00
Ar  8223  0.5791727E+02  0.1113356E+02  0.1012914E+01  0.0000000E+00
Ar  8224  0.5356225E+02  0.1457672E+02  0.1145391E+01  0.0000000E+00
Ar  8225  0.5300046E+02  0.1166951E+02  0.4011578E+01  0.0000000E+00
Ar  8226  0.5582474E+02  0.1488296E+02  0.4530263E+01  0.0000000E+00
Ar  8227  0.5574119E+02  0.1138434E+02  0.6929805E+01  0.0000000E+00
Ar  8228  0.5296951E+02  0.1427888E+02  0.6843850E+01  0.0000000E+00
Ar  8229  0.5327153E+02  0.1210880E+02  0.9994455E+01  0.0000000E+00
Ar  8230  0.5588804E+02  0.1515614E+02  0.9664781E+01  0.0000000E+00
Ar  8231  0.5614061E+02  0.1087761E+02  0.1244061E+02  0.0000000E+00
Ar  8232  0.5342533E+02  0.1444451E+02  0.1276088E+02  0.0000000E+00
Ar  8233  0.5365600E+02  0.1157545E+02  0.1523977E+02  0.0000000E+00
Ar  8234  0.5646151E+02  0.1395278E+02  0.1500913E+02  0.0000000E+00
Ar  8235  0.5573132E+02  0.1204961E+02  0.1813659E+02  0.0000000E+00
Ar  8236  0.5327000E+02  0.1477864E+02  0.1792563E+02  0.0000000E+00
Ar  8237  0.5310234E+02  0.1147010E+02  0.2025517E+02  0.0000000E+00
Ar  8238  0.5595941E+02  0.1421009E+02  0.2097959E+02  0.0000000E+00
Ar  8239  0.5535870E+02  0.1116432E+02  0.2311664E+02  0.0000000E+00
Ar  8240  0.5310562E+02  0.1483071E+02  0.2317823E+02  0.0000000E+00
Ar  8241  0.5308160E+02  0.1166386E+02  0.2586443E+02  0.0000000E+00
Ar  8242  0.5600462E+02  0.1399813E+02  0.2574322E+02  0.0000000E+00
Ar  8243  0.5602474E+02  0.1242304E+02  0.2901701E+02  0.0000000E+00
Ar  8244  0.5298133E+02  0.1436991E+02  0.2925400E+02  0.0000000E+00
Ar  8245  0.5291772E+02  0.1169482E+02  0.3170319E+02  0.0000000E+00
Ar  8246  0.5578873E+02  0.1472858E+02  0.3223263E+02  0.0000000E+00
Ar  8247  0.5552446E+02  0.1171738E+02  0.3464314E+02  0.0000000E+00
Ar  8248  0.5295748E+02  0.1502327E+02  0.3496103E+02  0.0000000E+00
Ar  8249  0.5302851E+02  0.1175702E+02  0.3752839E+02  0.0000000E+00
Ar  8250  0.5638440E+02  0.1366006E+02  0.3769058E+02  0.0000000E+00
Ar  8251  0.5574488E+02  0.1204196E+02  0.4061658E+02  0.0000000E+00
Ar  8252  0.5287276E+02  0.1445559E+02  0.4075146E+02  0.0000000E+00
Ar  8253  0.5344351E+02  0.1209251E+02  0.4358332E+02  0.0000000E+00
Ar  8254  0.5600300E+02  0.1475867E+02  0.4353774E+02  0.0000000E+00
Ar  8255  0.5586515E+02  0.1187253E+02  0.4627600E+02  0.0000000E+00
Ar  8256  0.5301701E+02  0.1449737E+02  0.4651117E+02  0.0000000E+00
Ar  8257  0.5368565E+02  0.1219986E+02  0.4931952E+02  0.0000000E+00
Ar  8258  0.5638882E+02  0.1480281E+02  0.4808645E+02  0.0000000E+00
Ar  8259  0.5629551E+02  0.1269783E+02  0.5216979E+02  0.0000000E+00
Ar  8260  0.5315758E+02  0.1516892E+02  0.5130263E+02  0.0000000E+00
Ar  8261  0.5297242E+02  0.1155458E+02  0.5484412E+02  0.0000000E+00
Ar  8262  0.5597580E+02  0.1563613E+02  0.5480422E+02  0.0000000E+00
Ar  8263  0.5615700E+02  0.1237995E+02  0.5762267E+02  0.0000000E+00
Ar  8264  0.5322302E+02  0.1457186E+02  0.5721853E+02  0.0000000E+00
Ar  8265  0.5256976E+02  0.1245479E+02  0.6004796E+02  0.0000000E+00
Ar  8266  0.5574394E+02  0.1451018E+02  0.6059746E+02  0.0000000E+00
Ar  8267  0.5490451E+02  0.1180752E+02  0.6270409E+02  0.0000000E+00
Ar  8268  0.5276229E+02  0.1462300E+02  0.6318802E+02  0.0000000E+00
Ar  8269  0.5263380E+02  0.1091686E+02  0.6578039E+02  0.0000000E+00
Ar  8270  0.5583074E+02  0.1455847E+02  0.6573194E+02  0.0000000E+00
Ar  8271  0.5487785E+02  0.1177851E+02  0.6838975E+02  0.0000000E+00
Ar  8272  0.5266410E+02  0.1486212E+02  0.6823484E+02  0.0000000E+00
Ar  8273  0.5214255E+02  0.1212527E+02  0.7067556E+02  0.0000000E+00
Ar  8274  0.5539233E+02  0.1390227E+02  0.7129623E+02  0.0000000E+00
Ar  8275  0.5580015E+02  0.1160734E+02  0.7415793E+02  0.0000000E+00
Ar  8276  0.5265840E+02  0.1395091E+02  0.7352956E+02  0.0000000E+00
Ar  8277  0.5327880E+02  0.1069129E+02  0.7726812E+02  0.0000000E+00
Ar  8278  0.5514503E+02  0.1428574E+02  0.7693083E+02  0.0000000E+00
Ar  8279  0.5576582E+02  0.1093733E+02  0.7974146E+02  0.0000000E+00
Ar  8280  0.5311425E+02  0.1372006E+02  0.7988654E+02  0.0000000E+00
Ar  8281  0.5296098E+02  0.1676551E+02  0.8256330E+02  0.0000000E+00
Ar  8282  0.5563603E+02  0.1929520E+02  0.8249004E+02  0.0000000E+00
Ar  8283  0.5642344E+02  0.1713746E+02  0.1720089E+01  0.0000000E+00
Ar  8284  0.5379550E+02  0.1944220E+02  0.1201522E+01  0.0000000E+00
Ar  8285  0.5337283E+02  0.1726487E+02  0.4170804E+01  0.0000000E+00
Ar  8286  0.5642899E+02  0.2015952E+02  0.4006734E+01  0.0000000E+00
Ar  8287  0.5622735E+02  0.1769539E+02  0.6757891E+01  0.0000000E+00
Ar  8288  0.5368048E+02  0.2031905E+02  0.6602239E+01  0.0000000E+00
Ar  8289  0.5332258E+02  0.1787717E+02  0.1050022E+02  0.0000000E+00
Ar  8290  0.5621761E+02  0.2051475E+02  0.9707717E+01  0.0000000E+00
Ar  8291  0.5649850E+02  0.1733211E+02  0.1266744E+02  0.0000000E+00
Ar  8292  0.5359751E+02  0.2054659E+02  0.1268747E+02  0.0000000E+00
Ar  8293  0.5328611E+02  0.1757194E+02  0.1541772E+02  0.0000000E+00
Ar  8294  0.5673186E+02  0.2000953E+02  0.1524403E+02  0.0000000E+00
Ar  8295  0.5619139E+02  0.1708142E+02  0.1781815E+02  0.0000000E+00
Ar  8296  0.5407710E+02  0.1996939E+02  0.1827706E+02  0.0000000E+00
Ar  8297  0.5310887E+02  0.1759046E+02  0.2051536E+02  0.0000000E+00
Ar  8298  0.5631223E+02  0.2059772E+02  0.2147711E+02  0.0000000E+00
Ar  8299  0.5628103E+02  0.1740453E+02  0.2363414E+02  0.0000000E+00
Ar  8300  0.5374825E+02  0.2056798E+02  0.2405903E+02  0.0000000E+00
Ar  8301  0.5324644E+02  0.1726256E+02  0.2587178E+02  0.0000000E+00
Ar  8302  0.5667167E+02  0.1957471E+02  0.2611991E+02  0.0000000E+00
Ar  8303  0.5687467E+02  0.1689211E+02  0.2942920E+02  0.0000000E+00
Ar  8304  0.5418083E+02  0.1985659E+02  0.2850919E+02  0.0000000E+00
Ar  8305  0.5366319E+02  0.1769126E+02  0.3204804E+02  0.0000000E+00
Ar  8306  0.5677978E+02  0.1996002E+02  0.3209879E+02  0.0000000E+00
Ar  8307  0.5581084E+02  0.1736790E+02  0.3499683E+02  0.0000000E+00
Ar  8308  0.5299009E+02  0.1971799E+02  0.3497463E+02  0.0000000E+00
Ar  8309  0.5272988E+02  0.1751327E+02  0.3794034E+02  0.0000000E+00
Ar  8310  0.5582968E+02  0.1974787E+02  0.3766915E+02  0.0000000E+00
Ar  8311  0.5568581E+02  0.1657682E+02  0.3985047E+02  0.0000000E+00
Ar  8312  0.5302467E+02  0.1971378E+02  0.4047238E+02  0.0000000E+00
Ar  8313  0.5336038E+02  0.1677148E+02  0.4351442E+02  0.0000000E+00
Ar  8314  0.5569102E+02  0.1976423E+02  0.4308609E+02  0.0000000E+00
Ar  8315  0.5621944E+02  0.1778452E+02  0.4596917E+02  0.0000000E+00
Ar  8316  0.5338191E+02  0.2080031E+02  0.4651121E+02  0.0000000E+00
Ar  8317  0.5418075E+02  0.1781025E+02  0.4887035E+02  0.0000000E+00
Ar  8318  0.5641838E+02  0.2099843E+02  0.4949260E+02  0.0000000E+00
Ar  8319  0.5597493E+02  0.1757412E+02  0.5167551E+02  0.0000000E+00
Ar  8320  0.5283067E+02  0.2041734E+02  0.5176058E+02  0.0000000E+00
Ar  8321  0.5301378E+02  0.1740005E+02  0.5378152E+02  0.0000000E+00
Ar  8322  0.5519009E+02  0.2023691E+02  0.5488298E+02  0.0000000E+00
Ar  8323  0.5611060E+02  0.1704187E+02  0.5808383E+02  0.0000000E+00
Ar  8324  0.5330872E+02  0.2019452E+02  0.5783032E+02  0.0000000E+00
Ar  8325  0.5326428E+02  0.1750811E+02  0.6064621E+02  0.0000000E+00
Ar  8326  0.5580355E+02  0.2052665E+02  0.6051470E+02  0.0000000E+00
Ar  8327  0.5621346E+02  0.1771975E+02  0.6308247E+02  0.0000000E+00
Ar  8328  0.5316863E+02  0.2013892E+02  0.6298018E+02  0.0000000E+00
Ar  8329  0.5328135E+02  0.1739178E+02  0.6546604E+02  0.0000000E+00
Ar  8330  0.5592009E+02  0.2006573E+02  0.6668197E+02  0.0000000E+00
Ar  8331  0.5590087E+02  0.1721029E+02  0.6901218E+02  0.0000000E+00
Ar  8332  0.5295843E+02  0.1969407E+02  0.6851658E+02  0.0000000E+00
Ar  8333  0.5330592E+02  0.1691296E+02  0.7149143E+02  0.0000000E+00
Ar  8334  0.5551961E+02  0.2007108E+02  0.7131710E+02  0.0000000E+00
Ar  8335  0.5537914E+02  0.1733699E+02  0.7437321E+02  0.0000000E+00
Ar  8336  0.5293571E+02  0.1978110E+02  0.7424668E+02  0.0000000E+00
Ar  8337  0.5263753E+02  0.1725463E+02  0.7672875E+02  0.0000000E+00
Ar  8338  0.5512397E+02  0.2036361E+02  0.7750092E+02  0.0000000E+00
Ar  8339  0.5517965E+02  0.1677218E+02  0.7990273E+02  0.0000000E+00
Ar  8340  0.5294753E+02  0.2004835E+02  0.8017365E+02  0.0000000E+00
Ar  8341  0.5320382E+02  0.2228297E+02  0.8293704E+02  0.0000000E+00
Ar  8342  0.5548481E+02  0.2699269E+02  0.8230449E+02  0.0000000E+00
Ar  8343  0.5666746E+02  0.2235531E+02  0.8908558E+00  0.0000000E+00
Ar  8344  0.5433269E+02  0.2554195E+02  0.1092673E+01  0.0000000E+00
Ar  8345  0.5337473E+02  0.2283925E+02  0.3826279E+01  0.0000000E+00
Ar  8346  0.5631927E+02  0.2649850E+02  0.4165494E+01  0.0000000E+00
Ar  8347  0.5617425E+02  0.2349417E+02  0.6961339E+01  0.0000000E+00
Ar  8348  0.5339196E+02  0.2548535E+02  0.6446798E+01  0.0000000E+00
Ar  8349  0.5385186E+02  0.2303344E+02  0.1002792E+02  0.0000000E+00
Ar  8350  0.5583906E+02  0.2606050E+02  0.9597722E+01  0.0000000E+00
Ar  8351  0.5636371E+02  0.2320627E+02  0.1276295E+02  0.0000000E+00
Ar  8352  0.5332146E+02  0.2516758E+02  0.1291684E+02  0.0000000E+00
Ar  8353  0.5443644E+02  0.2270936E+02  0.1597479E+02  0.0000000E+00
Ar  8354  0.5691976E+02  0.2613956E+02  0.1539493E+02  0.0000000E+00
Ar  8355  0.5682705E+02  0.2382329E+02  0.1845787E+02  0.0000000E+00
Ar  8356  0.5321137E+02  0.2573747E+02  0.1789920E+02  0.0000000E+00
Ar  8357  0.5361829E+02  0.2296785E+02  0.2070228E+02  0.0000000E+00
Ar  8358  0.5665221E+02  0.2604148E+02  0.2103843E+02  0.0000000E+00
Ar  8359  0.5618086E+02  0.2354237E+02  0.2409817E+02  0.0000000E+00
Ar  8360  0.5312897E+02  0.2623167E+02  0.2406228E+02  0.0000000E+00
Ar  8361  0.5308544E+02  0.2369459E+02  0.2652552E+02  0.0000000E+00
Ar  8362  0.5640572E+02  0.2593422E+02  0.2670309E+02  0.0000000E+00
Ar  8363  0.5757936E+02  0.2287486E+02  0.2992585E+02  0.0000000E+00
Ar  8364  0.5379017E+02  0.2563357E+02  0.2978428E+02  0.0000000E+00
Ar  8365  0.5369572E+02  0.2288850E+02  0.3263289E+02  0.0000000E+00
Ar  8366  0.5681639E+02  0.2556154E+02  0.3302923E+02  0.0000000E+00
Ar  8367  0.5629827E+02  0.2265453E+02  0.3539089E+02  0.0000000E+00
Ar  8368  0.5368727E+02  0.2537953E+02  0.3539766E+02  0.0000000E+00
Ar  8369  0.5331060E+02  0.2217990E+02  0.3752196E+02  0.0000000E+00
Ar  8370  0.5581115E+02  0.2507251E+02  0.3809282E+02  0.0000000E+00
Ar  8371  0.5585072E+02  0.2233089E+02  0.4097799E+02  0.0000000E+00
Ar  8372  0.5318069E+02  0.2549929E+02  0.4027026E+02  0.0000000E+00
Ar  8373  0.5297678E+02  0.2291611E+02  0.4331961E+02  0.0000000E+00
Ar  8374  0.5592754E+02  0.2540437E+02  0.4357835E+02  0.0000000E+00
Ar  8375  0.5610851E+02  0.2343261E+02  0.4671741E+02  0.0000000E+00
Ar  8376  0.5328072E+02  0.2590571E+02  0.4648648E+02  0.0000000E+00
Ar  8377  0.5339413E+02  0.2334629E+02  0.4909147E+02  0.0000000E+00
Ar  8378  0.5674161E+02  0.2603244E+02  0.4894485E+02  0.0000000E+00
Ar  8379  0.5633093E+02  0.2384194E+02  0.5192079E+02  0.0000000E+00
Ar  8380  0.5314628E+02  0.2573755E+02  0.5215217E+02  0.0000000E+00
Ar  8381  0.5340164E+02  0.2314910E+02  0.5427166E+02  0.0000000E+00
Ar  8382  0.5631328E+02  0.2635320E+02  0.5472343E+02  0.0000000E+00
Ar  8383  0.5554198E+02  0.2292757E+02  0.5725362E+02  0.0000000E+00
Ar  8384  0.5334488E+02  0.2527458E+02  0.5746535E+02  0.0000000E+00
Ar  8385  0.5336175E+02  0.2373285E+02  0.6078560E+02  0.0000000E+00
Ar  8386  0.5626818E+02  0.2587319E+02  0.6064926E+02  0.0000000E+00
Ar  8387  0.5572178E+02  0.2325562E+02  0.6355008E+02  0.0000000E+00
Ar  8388  0.5369427E+02  0.2634612E+02  0.6355678E+02  0.0000000E+00
Ar  8389  0.5291948E+02  0.2239374E+02  0.6596223E+02  0.0000000E+00
Ar  8390  0.5585127E+02  0.2624741E+02  0.6642013E+02  0.0000000E+00
Ar  8391  0.5539686E+02  0.2278210E+02  0.6860406E+02  0.0000000E+00
Ar  8392  0.5259025E+02  0.2557043E+02  0.6871944E+02  0.0000000E+00
Ar  8393  0.5267719E+02  0.2291452E+02  0.7164646E+02  0.0000000E+00
Ar  8394  0.5583962E+02  0.2604569E+02  0.7051653E+02  0.0000000E+00
Ar  8395  0.5575422E+02  0.2371964E+02  0.7375075E+02  0.0000000E+00
Ar  8396  0.5328191E+02  0.2657912E+02  0.7452986E+02  0.0000000E+00
Ar  8397  0.5308946E+02  0.2332958E+02  0.7693773E+02  0.0000000E+00
Ar  8398  0.5601263E+02  0.2556606E+02  0.7696488E+02  0.0000000E+00
Ar  8399  0.5541738E+02  0.2329095E+02  0.8024675E+02  0.0000000E+00
Ar  8400  0.5268378E+02  0.2630641E+02  0.7967337E+02  0.0000000E+00
Ar  8401  0.5259291E+02  0.2887022E+02  0.8344871E+02  0.0000000E+00
Ar  8402  0.5642500E+02  0.3158755E+02  0.8315648E+02  0.0000000E+00
Ar  8403  0.5628604E+02  0.2921599E+02  0.1323730E+01  0.0000000E+00
Ar  8404  0.5363508E+02  0.3225644E+02  0.1149463E+01  0.0000000E+00
Ar  8405  0.5379687E+02  0.2909699E+02  0.3856754E+01  0.0000000E+00
Ar  8406  0.5615299E+02  0.3163093E+02  0.3915997E+01  0.0000000E+00
Ar  8407  0.5548148E+02  0.2978342E+02  0.7374152E+01  0.0000000E+00
Ar  8408  0.5282930E+02  0.3246667E+02  0.7758706E+01  0.0000000E+00
Ar  8409  0.5343482E+02  0.2924701E+02  0.1032790E+02  0.0000000E+00
Ar  8410  0.5627222E+02  0.3148312E+02  0.1027996E+02  0.0000000E+00
Ar  8411  0.5631987E+02  0.2890449E+02  0.1262534E+02  0.0000000E+00
Ar  8412  0.5295863E+02  0.3132722E+02  0.1291503E+02  0.0000000E+00
Ar  8413  0.5308817E+02  0.2809511E+02  0.1542272E+02  0.0000000E+00
Ar  8414  0.5587251E+02  0.3082444E+02  0.1558640E+02  0.0000000E+00
Ar  8415  0.5636785E+02  0.2861278E+02  0.1825766E+02  0.0000000E+00
Ar  8416  0.5355969E+02  0.3085878E+02  0.1812563E+02  0.0000000E+00
Ar  8417  0.5352473E+02  0.2868348E+02  0.2185092E+02  0.0000000E+00
Ar  8418  0.5590460E+02  0.3114206E+02  0.2137565E+02  0.0000000E+00
Ar  8419  0.5645313E+02  0.2831957E+02  0.2402385E+02  0.0000000E+00
Ar  8420  0.5289586E+02  0.3119557E+02  0.2410093E+02  0.0000000E+00
Ar  8421  0.5360947E+02  0.2796984E+02  0.2709266E+02  0.0000000E+00
Ar  8422  0.5662170E+02  0.3130383E+02  0.2738876E+02  0.0000000E+00
Ar  8423  0.5626955E+02  0.2805825E+02  0.2941278E+02  0.0000000E+00
Ar  8424  0.5420336E+02  0.3072296E+02  0.3020742E+02  0.0000000E+00
Ar  8425  0.5384912E+02  0.2817809E+02  0.3273599E+02  0.0000000E+00
Ar  8426  0.5665104E+02  0.3110820E+02  0.3295654E+02  0.0000000E+00
Ar  8427  0.5709446E+02  0.2823507E+02  0.3574359E+02  0.0000000E+00
Ar  8428  0.5377769E+02  0.3084270E+02  0.3524768E+02  0.0000000E+00
Ar  8429  0.5333335E+02  0.2849799E+02  0.3828323E+02  0.0000000E+00
Ar  8430  0.5660059E+02  0.3098938E+02  0.3766096E+02  0.0000000E+00
Ar  8431  0.5637096E+02  0.2826760E+02  0.4024464E+02  0.0000000E+00
Ar  8432  0.5287105E+02  0.3167759E+02  0.4110234E+02  0.0000000E+00
Ar  8433  0.5354017E+02  0.2876239E+02  0.4415267E+02  0.0000000E+00
Ar  8434  0.5708596E+02  0.3111716E+02  0.4326088E+02  0.0000000E+00
Ar  8435  0.5659360E+02  0.2891053E+02  0.4623846E+02  0.0000000E+00
Ar  8436  0.5316203E+02  0.3179078E+02  0.4625905E+02  0.0000000E+00
Ar  8437  0.5338877E+02  0.2849235E+02  0.4871915E+02  0.0000000E+00
Ar  8438  0.5627094E+02  0.3148763E+02  0.4875808E+02  0.0000000E+00
Ar  8439  0.5588260E+02  0.2875035E+02  0.5147543E+02  0.0000000E+00
Ar  8440  0.5357972E+02  0.3170248E+02  0.5151146E+02  0.0000000E+00
Ar  8441  0.5333376E+02  0.2909910E+02  0.5426173E+02  0.0000000E+00
Ar  8442  0.5616190E+02  0.3143734E+02  0.5439220E+02  0.0000000E+00
Ar  8443  0.5537166E+02  0.2860150E+02  0.5779315E+02  0.0000000E+00
Ar  8444  0.5354819E+02  0.3186183E+02  0.5695045E+02  0.0000000E+00
Ar  8445  0.5306601E+02  0.2833399E+02  0.6041248E+02  0.0000000E+00
Ar  8446  0.5593207E+02  0.3195587E+02  0.6029324E+02  0.0000000E+00
Ar  8447  0.5668329E+02  0.2886568E+02  0.6278553E+02  0.0000000E+00
Ar  8448  0.5352095E+02  0.3126452E+02  0.6273488E+02  0.0000000E+00
Ar  8449  0.5333443E+02  0.2851073E+02  0.6626718E+02  0.0000000E+00
Ar  8450  0.5653768E+02  0.3124606E+02  0.6565665E+02  0.0000000E+00
Ar  8451  0.5670349E+02  0.2883725E+02  0.6848879E+02  0.0000000E+00
Ar  8452  0.5361875E+02  0.3163016E+02  0.6825276E+02  0.0000000E+00
Ar  8453  0.5309478E+02  0.2870503E+02  0.7134357E+02  0.0000000E+00
Ar  8454  0.5667222E+02  0.3196951E+02  0.7055632E+02  0.0000000E+00
Ar  8455  0.5594859E+02  0.2907103E+02  0.7403619E+02  0.0000000E+00
Ar  8456  0.5283273E+02  0.3175204E+02  0.7439344E+02  0.0000000E+00
Ar  8457  0.5271180E+02  0.2933803E+02  0.7748336E+02  0.0000000E+00
Ar  8458  0.5592648E+02  0.3201150E+02  0.7669682E+02  0.0000000E+00
Ar  8459  0.5646854E+02  0.2878624E+02  0.7915898E+02  0.0000000E+00
Ar  8460  0.5370771E+02  0.3078999E+02  0.8057441E+02  0.0000000E+00
Ar  8461  0.5313410E+02  0.3432253E+02  0.8285518E+02  0.0000000E+00
Ar  8462  0.5660202E+02  0.3670723E+02  0.8295158E+02  0.0000000E+00
Ar  8463  0.5665659E+02  0.3434473E+02  0.1379017E+01  0.0000000E+00
Ar  8464  0.5376848E+02  0.3711939E+02  0.1378995E+01  0.0000000E+00
Ar  8465  0.5383769E+02  0.3424856E+02  0.4623348E+01  0.0000000E+00
Ar  8466  0.5634372E+02  0.3690454E+02  0.3842253E+01  0.0000000E+00
Ar  8467  0.5642272E+02  0.3438843E+02  0.6786762E+01  0.0000000E+00
Ar  8468  0.5316878E+02  0.3660475E+02  0.7346174E+01  0.0000000E+00
Ar  8469  0.5325531E+02  0.3447273E+02  0.1044300E+02  0.0000000E+00
Ar  8470  0.5659774E+02  0.3667226E+02  0.1058558E+02  0.0000000E+00
Ar  8471  0.5580361E+02  0.3386084E+02  0.1331444E+02  0.0000000E+00
Ar  8472  0.5309173E+02  0.3678750E+02  0.1282943E+02  0.0000000E+00
Ar  8473  0.5276731E+02  0.3394893E+02  0.1547383E+02  0.0000000E+00
Ar  8474  0.5554786E+02  0.3666630E+02  0.1600344E+02  0.0000000E+00
Ar  8475  0.5625853E+02  0.3332847E+02  0.1862978E+02  0.0000000E+00
Ar  8476  0.5253285E+02  0.3623786E+02  0.1873287E+02  0.0000000E+00
Ar  8477  0.5313639E+02  0.3403016E+02  0.2159180E+02  0.0000000E+00
Ar  8478  0.5623168E+02  0.3623109E+02  0.2115100E+02  0.0000000E+00
Ar  8479  0.5620697E+02  0.3395498E+02  0.2415281E+02  0.0000000E+00
Ar  8480  0.5356983E+02  0.3703492E+02  0.2387284E+02  0.0000000E+00
Ar  8481  0.5304968E+02  0.3457153E+02  0.2667485E+02  0.0000000E+00
Ar  8482  0.5598177E+02  0.3726629E+02  0.2663587E+02  0.0000000E+00
Ar  8483  0.5644825E+02  0.3365306E+02  0.2996584E+02  0.0000000E+00
Ar  8484  0.5379497E+02  0.3629483E+02  0.2936968E+02  0.0000000E+00
Ar  8485  0.5351659E+02  0.3377073E+02  0.3215576E+02  0.0000000E+00
Ar  8486  0.5663569E+02  0.3645152E+02  0.3204719E+02  0.0000000E+00
Ar  8487  0.5615332E+02  0.3438513E+02  0.3514727E+02  0.0000000E+00
Ar  8488  0.5358431E+02  0.3727359E+02  0.3458874E+02  0.0000000E+00
Ar  8489  0.5358930E+02  0.3448838E+02  0.3780397E+02  0.0000000E+00
Ar  8490  0.5667966E+02  0.3685238E+02  0.3797680E+02  0.0000000E+00
Ar  8491  0.5626737E+02  0.3377805E+02  0.3981381E+02  0.0000000E+00
Ar  8492  0.5314695E+02  0.3682896E+02  0.4020429E+02  0.0000000E+00
Ar  8493  0.5381647E+02  0.3440036E+02  0.4300154E+02  0.0000000E+00
Ar  8494  0.5640371E+02  0.3681160E+02  0.4280071E+02  0.0000000E+00
Ar  8495  0.5630492E+02  0.3401675E+02  0.4575659E+02  0.0000000E+00
Ar  8496  0.5354657E+02  0.3684078E+02  0.4551683E+02  0.0000000E+00
Ar  8497  0.5331536E+02  0.3446378E+02  0.4895745E+02  0.0000000E+00
Ar  8498  0.5603908E+02  0.3674532E+02  0.4837848E+02  0.0000000E+00
Ar  8499  0.5643993E+02  0.3411778E+02  0.5145748E+02  0.0000000E+00
Ar  8500  0.5367423E+02  0.3735199E+02  0.5225449E+02  0.0000000E+00
Ar  8501  0.5406360E+02  0.3468954E+02  0.5475239E+02  0.0000000E+00
Ar  8502  0.5659327E+02  0.3777927E+02  0.5518422E+02  0.0000000E+00
Ar  8503  0.5647740E+02  0.3474703E+02  0.5777417E+02  0.0000000E+00
Ar  8504  0.5392541E+02  0.3771336E+02  0.5734583E+02  0.0000000E+00
Ar  8505  0.5306091E+02  0.3451953E+02  0.5931723E+02  0.0000000E+00
Ar  8506  0.5651750E+02  0.3776079E+02  0.6059401E+02  0.0000000E+00
Ar  8507  0.5600878E+02  0.3466770E+02  0.6259256E+02  0.0000000E+00
Ar  8508  0.5274005E+02  0.3689627E+02  0.6295830E+02  0.0000000E+00
Ar  8509  0.5391600E+02  0.3427155E+02  0.6539492E+02  0.0000000E+00
Ar  8510  0.5630168E+02  0.3653813E+02  0.6563430E+02  0.0000000E+00
Ar  8511  0.5607553E+02  0.3453844E+02  0.6864020E+02  0.0000000E+00
Ar  8512  0.5305625E+02  0.3667924E+02  0.6899325E+02  0.0000000E+00
Ar  8513  0.5342472E+02  0.3473401E+02  0.7177766E+02  0.0000000E+00
Ar  8514  0.5582973E+02  0.3717425E+02  0.7183422E+02  0.0000000E+00
Ar  8515  0.5603565E+02  0.3457638E+02  0.7401028E+02  0.0000000E+00
Ar  8516  0.5299011E+02  0.3683885E+02  0.7464500E+02  0.0000000E+00
Ar  8517  0.5282521E+02  0.3404842E+02  0.7718400E+02  0.0000000E+00
Ar  8518  0.5558294E+02  0.3698414E+02  0.7719506E+02  0.0000000E+00
Ar  8519  0.5611309E+02  0.3407196E+02  0.8043486E+02  0.0000000E+00
Ar  8520  0.5308435E+02  0.3716273E+02  0.7986814E+02  0.0000000E+00
Ar  8521  0.5297669E+02  0.3970063E+02  0.8233752E+02  0.0000000E+00
Ar  8522  0.5635695E+02  0.4194816E+02  0.8288235E+02  0.0000000E+00
Ar  8523  0.5661543E+02  0.3965484E+02  0.1561884E+01  0.0000000E+00
Ar  8524  0.5367224E+02  0.4194014E+02  0.9329551E+00  0.0000000E+00
Ar  8525  0.5386938E+02  0.3928993E+02  0.4500619E+01  0.0000000E+00
Ar  8526  0.5617314E+02  0.4199191E+02  0.4097933E+01  0.0000000E+00
Ar  8527  0.5602424E+02  0.3900140E+02  0.7283111E+01  0.0000000E+00
Ar  8528  0.5395858E+02  0.4207755E+02  0.6994647E+01  0.0000000E+00
Ar  8529  0.5349134E+02  0.3920488E+02  0.1025082E+02  0.0000000E+00
Ar  8530  0.5590223E+02  0.4248136E+02  0.1039371E+02  0.0000000E+00
Ar  8531  0.5613935E+02  0.3941388E+02  0.1305266E+02  0.0000000E+00
Ar  8532  0.5321192E+02  0.4250153E+02  0.1293635E+02  0.0000000E+00
Ar  8533  0.5340109E+02  0.3980083E+02  0.1545483E+02  0.0000000E+00
Ar  8534  0.5586021E+02  0.4267498E+02  0.1570621E+02  0.0000000E+00
Ar  8535  0.5609603E+02  0.3956827E+02  0.1789883E+02  0.0000000E+00
Ar  8536  0.5360648E+02  0.4242115E+02  0.1905391E+02  0.0000000E+00
Ar  8537  0.5392413E+02  0.3934391E+02  0.2095835E+02  0.0000000E+00
Ar  8538  0.5652316E+02  0.4238268E+02  0.2176297E+02  0.0000000E+00
Ar  8539  0.5657186E+02  0.3914454E+02  0.2331286E+02  0.0000000E+00
Ar  8540  0.5352427E+02  0.4252476E+02  0.2406022E+02  0.0000000E+00
Ar  8541  0.5288093E+02  0.3975948E+02  0.2684672E+02  0.0000000E+00
Ar  8542  0.5632475E+02  0.4119302E+02  0.2629131E+02  0.0000000E+00
Ar  8543  0.5603553E+02  0.3918065E+02  0.2965808E+02  0.0000000E+00
Ar  8544  0.5352267E+02  0.4214968E+02  0.2939971E+02  0.0000000E+00
Ar  8545  0.5325064E+02  0.3921203E+02  0.3197039E+02  0.0000000E+00
Ar  8546  0.5674080E+02  0.4197873E+02  0.3191321E+02  0.0000000E+00
Ar  8547  0.5683722E+02  0.3969128E+02  0.3511235E+02  0.0000000E+00
Ar  8548  0.5355846E+02  0.4217777E+02  0.3545457E+02  0.0000000E+00
Ar  8549  0.5398557E+02  0.3945383E+02  0.3762533E+02  0.0000000E+00
Ar  8550  0.5683422E+02  0.4228308E+02  0.3791117E+02  0.0000000E+00
Ar  8551  0.5673519E+02  0.3970532E+02  0.4043387E+02  0.0000000E+00
Ar  8552  0.5400780E+02  0.4217482E+02  0.3994292E+02  0.0000000E+00
Ar  8553  0.5366679E+02  0.3981679E+02  0.4264594E+02  0.0000000E+00
Ar  8554  0.5647031E+02  0.4234347E+02  0.4261476E+02  0.0000000E+00
Ar  8555  0.5631092E+02  0.3963053E+02  0.4537070E+02  0.0000000E+00
Ar  8556  0.5365814E+02  0.4273678E+02  0.4521957E+02  0.0000000E+00
Ar  8557  0.5336050E+02  0.3914441E+02  0.4876195E+02  0.0000000E+00
Ar  8558  0.5532388E+02  0.4225401E+02  0.4852339E+02  0.0000000E+00
Ar  8559  0.5516331E+02  0.4080100E+02  0.5170471E+02  0.0000000E+00
Ar  8560  0.5280431E+02  0.4369803E+02  0.5257006E+02  0.0000000E+00
Ar  8561  0.5296775E+02  0.4027869E+02  0.5510596E+02  0.0000000E+00
Ar  8562  0.5536843E+02  0.4280795E+02  0.5496859E+02  0.0000000E+00
Ar  8563  0.5634195E+02  0.4042150E+02  0.5742092E+02  0.0000000E+00
Ar  8564  0.5294069E+02  0.4243812E+02  0.5801572E+02  0.0000000E+00
Ar  8565  0.5269691E+02  0.3931356E+02  0.6048765E+02  0.0000000E+00
Ar  8566  0.5577580E+02  0.4146958E+02  0.6056918E+02  0.0000000E+00
Ar  8567  0.5649839E+02  0.3983885E+02  0.6364190E+02  0.0000000E+00
Ar  8568  0.5338386E+02  0.4216745E+02  0.6304670E+02  0.0000000E+00
Ar  8569  0.5360013E+02  0.3949164E+02  0.6579194E+02  0.0000000E+00
Ar  8570  0.5605305E+02  0.4285182E+02  0.6602877E+02  0.0000000E+00
Ar  8571  0.5682255E+02  0.4024287E+02  0.6901774E+02  0.0000000E+00
Ar  8572  0.5373176E+02  0.4267306E+02  0.6864156E+02  0.0000000E+00
Ar  8573  0.5307702E+02  0.3977520E+02  0.7138638E+02  0.0000000E+00
Ar  8574  0.5610797E+02  0.4259393E+02  0.7222022E+02  0.0000000E+00
Ar  8575  0.5558842E+02  0.3986595E+02  0.7439832E+02  0.0000000E+00
Ar  8576  0.5269398E+02  0.4218479E+02  0.7420318E+02  0.0000000E+00
Ar  8577  0.5302949E+02  0.4000530E+02  0.7716698E+02  0.0000000E+00
Ar  8578  0.5538719E+02  0.4269621E+02  0.7642447E+02  0.0000000E+00
Ar  8579  0.5563311E+02  0.3961215E+02  0.8020105E+02  0.0000000E+00
Ar  8580  0.5347319E+02  0.4230817E+02  0.7981849E+02  0.0000000E+00
Ar  8581  0.5382255E+02  0.4527920E+02  0.8250047E+02  0.0000000E+00
Ar  8582  0.5647994E+02  0.4818627E+02  0.8227164E+02  0.0000000E+00
Ar  8583  0.5634696E+02  0.4435381E+02  0.9887454E+00  0.0000000E+00
Ar  8584  0.5360687E+02  0.4828181E+02  0.1200332E+01  0.0000000E+00
Ar  8585  0.5382676E+02  0.4518549E+02  0.3952270E+01  0.0000000E+00
Ar  8586  0.5588730E+02  0.4785323E+02  0.4517593E+01  0.0000000E+00
Ar  8587  0.5608041E+02  0.4530292E+02  0.7239936E+01  0.0000000E+00
Ar  8588  0.5318304E+02  0.4817380E+02  0.6480701E+01  0.0000000E+00
Ar  8589  0.5298585E+02  0.4562119E+02  0.1019040E+02  0.0000000E+00
Ar  8590  0.5577706E+02  0.4820821E+02  0.1032430E+02  0.0000000E+00
Ar  8591  0.5618075E+02  0.4575971E+02  0.1291793E+02  0.0000000E+00
Ar  8592  0.5329739E+02  0.4814493E+02  0.1271678E+02  0.0000000E+00
Ar  8593  0.5297074E+02  0.4595798E+02  0.1567674E+02  0.0000000E+00
Ar  8594  0.5617436E+02  0.4801685E+02  0.1592921E+02  0.0000000E+00
Ar  8595  0.5571842E+02  0.4592013E+02  0.1914726E+02  0.0000000E+00
Ar  8596  0.5313521E+02  0.4896067E+02  0.1882312E+02  0.0000000E+00
Ar  8597  0.5324456E+02  0.4584994E+02  0.2175244E+02  0.0000000E+00
Ar  8598  0.5623069E+02  0.4804082E+02  0.2218272E+02  0.0000000E+00
Ar  8599  0.5657132E+02  0.4472194E+02  0.2440360E+02  0.0000000E+00
Ar  8600  0.5251864E+02  0.4924611E+02  0.2437724E+02  0.0000000E+00
Ar  8601  0.5370134E+02  0.4535955E+02  0.2689033E+02  0.0000000E+00
Ar  8602  0.5601738E+02  0.4836545E+02  0.2664615E+02  0.0000000E+00
Ar  8603  0.5658160E+02  0.4493780E+02  0.2979309E+02  0.0000000E+00
Ar  8604  0.5273615E+02  0.4804339E+02  0.2965763E+02  0.0000000E+00
Ar  8605  0.5323984E+02  0.4520996E+02  0.3172977E+02  0.0000000E+00
Ar  8606  0.5644322E+02  0.4824062E+02  0.3274036E+02  0.0000000E+00
Ar  8607  0.5652979E+02  0.4440099E+02  0.3464653E+02  0.0000000E+00
Ar  8608  0.5291540E+02  0.4762701E+02  0.3462536E+02  0.0000000E+00
Ar  8609  0.5365827E+02  0.4514051E+02  0.3760294E+02  0.0000000E+00
Ar  8610  0.5618920E+02  0.4805804E+02  0.3687171E+02  0.0000000E+00
Ar  8611  0.5681177E+02  0.4560689E+02  0.3935576E+02  0.0000000E+00
Ar  8612  0.5350208E+02  0.4781013E+02  0.3960807E+02  0.0000000E+00
Ar  8613  0.5461131E+02  0.4505933E+02  0.4254237E+02  0.0000000E+00
Ar  8614  0.5597701E+02  0.4859028E+02  0.4253048E+02  0.0000000E+00
Ar  8615  0.5596559E+02  0.4561083E+02  0.4573803E+02  0.0000000E+00
Ar  8616  0.5374240E+02  0.4828040E+02  0.4599936E+02  0.0000000E+00
Ar  8617  0.5356888E+02  0.4568051E+02  0.4886663E+02  0.0000000E+00
Ar  8618  0.5580456E+02  0.4832982E+02  0.4925648E+02  0.0000000E+00
Ar  8619  0.5579897E+02  0.4490584E+02  0.5146675E+02  0.0000000E+00
Ar  8620  0.5274283E+02  0.4750224E+02  0.5283257E+02  0.0000000E+00
Ar  8621  0.5269466E+02  0.4529589E+02  0.5581326E+02  0.0000000E+00
Ar  8622  0.5557775E+02  0.4741568E+02  0.5508784E+02  0.0000000E+00
Ar  8623  0.5582282E+02  0.4444436E+02  0.5805585E+02  0.0000000E+00
Ar  8624  0.5276027E+02  0.4852549E+02  0.5775898E+02  0.0000000E+00
Ar  8625  0.5312328E+02  0.4566916E+02  0.6064346E+02  0.0000000E+00
Ar  8626  0.5597203E+02  0.4775616E+02  0.5990353E+02  0.0000000E+00
Ar  8627  0.5608304E+02  0.4457219E+02  0.6269622E+02  0.0000000E+00
Ar  8628  0.5340328E+02  0.4806798E+02  0.6366839E+02  0.0000000E+00
Ar  8629  0.5340569E+02  0.4520613E+02  0.6549978E+02  0.0000000E+00
Ar  8630  0.5642595E+02  0.4778175E+02  0.6647418E+02  0.0000000E+00
Ar  8631  0.5655133E+02  0.4507157E+02  0.6948916E+02  0.0000000E+00
Ar  8632  0.5321113E+02  0.4747832E+02  0.6843358E+02  0.0000000E+00
Ar  8633  0.5328382E+02  0.4505370E+02  0.7137353E+02  0.0000000E+00
Ar  8634  0.5584933E+02  0.4816723E+02  0.7139857E+02  0.0000000E+00
Ar  8635  0.5586675E+02  0.4566457E+02  0.7391291E+02  0.0000000E+00
Ar  8636  0.5295832E+02  0.4790554E+02  0.7358684E+02  0.0000000E+00
Ar  8637  0.5308272E+02  0.4621702E+02  0.7670907E+02  0.0000000E+00
Ar  8638  0.5604226E+02  0.4853108E+02  0.7702251E+02  0.0000000E+00
Ar  8639  0.5573737E+02  0.4533620E+02  0.7909934E+02  0.0000000E+00
Ar  8640  0.5352426E+02  0.4824970E+02  0.7974221E+02  0.0000000E+00
Ar  8641  0.5292436E+02  0.5097983E+02  0.8292262E+02  0.0000000E+00
Ar  8642  0.5527252E+02  0.5384109E+02  0.8226204E+02  0.0000000E+00
Ar  8643  0.5609158E+02  0.5148118E+02  0.1521012E+01  0.0000000E+00
Ar  8644  0.5298335E+02  0.5409680E+02  0.8830220E+00  0.0000000E+00
Ar  8645  0.5355817E+02  0.5123267E+02  0.3970180E+01  0.0000000E+00
Ar  8646  0.5611112E+02  0.5413037E+02  0.4658114E+01  0.0000000E+00
Ar  8647  0.5591360E+02  0.5086568E+02  0.7225735E+01  0.0000000E+00
Ar  8648  0.5285372E+02  0.5318231E+02  0.7159943E+01  0.0000000E+00
Ar  8649  0.5364434E+02  0.5123571E+02  0.1021590E+02  0.0000000E+00
Ar  8650  0.5591899E+02  0.5404807E+02  0.1010746E+02  0.0000000E+00
Ar  8651  0.5689268E+02  0.5061767E+02  0.1282743E+02  0.0000000E+00
Ar  8652  0.5406534E+02  0.5375008E+02  0.1334237E+02  0.0000000E+00
Ar  8653  0.5396682E+02  0.5091488E+02  0.1557234E+02  0.0000000E+00
Ar  8654  0.5688649E+02  0.5375410E+02  0.1547333E+02  0.0000000E+00
Ar  8655  0.5630348E+02  0.5071145E+02  0.1832264E+02  0.0000000E+00
Ar  8656  0.5385133E+02  0.5399072E+02  0.1842239E+02  0.0000000E+00
Ar  8657  0.5415628E+02  0.5072919E+02  0.2148848E+02  0.0000000E+00
Ar  8658  0.5624595E+02  0.5329558E+02  0.2167093E+02  0.0000000E+00
Ar  8659  0.5647559E+02  0.5092440E+02  0.2437943E+02  0.0000000E+00
Ar  8660  0.5336988E+02  0.5335855E+02  0.2449293E+02  0.0000000E+00
Ar  8661  0.5373737E+02  0.5096015E+02  0.2769038E+02  0.0000000E+00
Ar  8662  0.5646081E+02  0.5356633E+02  0.2705788E+02  0.0000000E+00
Ar  8663  0.5661845E+02  0.5101643E+02  0.2977947E+02  0.0000000E+00
Ar  8664  0.5346963E+02  0.5411923E+02  0.2991536E+02  0.0000000E+00
Ar  8665  0.5323881E+02  0.5108282E+02  0.3244138E+02  0.0000000E+00
Ar  8666  0.5638884E+02  0.5386577E+02  0.3265016E+02  0.0000000E+00
Ar  8667  0.5632713E+02  0.5113833E+02  0.3483538E+02  0.0000000E+00
Ar  8668  0.5339450E+02  0.5355453E+02  0.3504480E+02  0.0000000E+00
Ar  8669  0.5360055E+02  0.5072295E+02  0.3749712E+02  0.0000000E+00
Ar  8670  0.5600197E+02  0.5374331E+02  0.3759054E+02  0.0000000E+00
Ar  8671  0.5660711E+02  0.5097459E+02  0.3987491E+02  0.0000000E+00
Ar  8672  0.5366625E+02  0.5320671E+02  0.4010366E+02  0.0000000E+00
Ar  8673  0.5316851E+02  0.5067655E+02  0.4253498E+02  0.0000000E+00
Ar  8674  0.5593687E+02  0.5345793E+02  0.4320472E+02  0.0000000E+00
Ar  8675  0.5616269E+02  0.5083884E+02  0.4624771E+02  0.0000000E+00
Ar  8676  0.5312378E+02  0.5486144E+02  0.4565002E+02  0.0000000E+00
Ar  8677  0.5349439E+02  0.5115419E+02  0.4863456E+02  0.0000000E+00
Ar  8678  0.5571256E+02  0.5384080E+02  0.4897153E+02  0.0000000E+00
Ar  8679  0.5587524E+02  0.5044373E+02  0.5215637E+02  0.0000000E+00
Ar  8680  0.5311172E+02  0.5353970E+02  0.5187535E+02  0.0000000E+00
Ar  8681  0.5294130E+02  0.5047357E+02  0.5478711E+02  0.0000000E+00
Ar  8682  0.5615984E+02  0.5305431E+02  0.5488482E+02  0.0000000E+00
Ar  8683  0.5595528E+02  0.5033479E+02  0.5698354E+02  0.0000000E+00
Ar  8684  0.5283278E+02  0.5292566E+02  0.5798763E+02  0.0000000E+00
Ar  8685  0.5348728E+02  0.5066228E+02  0.6115561E+02  0.0000000E+00
Ar  8686  0.5570472E+02  0.5371714E+02  0.5993690E+02  0.0000000E+00
Ar  8687  0.5658259E+02  0.5054252E+02  0.6396704E+02  0.0000000E+00
Ar  8688  0.5304842E+02  0.5385202E+02  0.6238936E+02  0.0000000E+00
Ar  8689  0.5276300E+02  0.5132288E+02  0.6537585E+02  0.0000000E+00
Ar  8690  0.5538621E+02  0.5383689E+02  0.6598858E+02  0.0000000E+00
Ar  8691  0.5531433E+02  0.5068549E+02  0.6866302E+02  0.0000000E+00
Ar  8692  0.5281937E+02  0.5366792E+02  0.6887623E+02  0.0000000E+00
Ar  8693  0.5347768E+02  0.5083313E+02  0.7157035E+02  0.0000000E+00
Ar  8694  0.5605540E+02  0.5400504E+02  0.7123084E+02  0.0000000E+00
Ar  8695  0.5613678E+02  0.5132301E+02  0.7436706E+02  0.0000000E+00
Ar  8696  0.5259170E+02  0.5375875E+02  0.7380875E+02  0.0000000E+00
Ar  8697  0.5306010E+02  0.5101874E+02  0.7641262E+02  0.0000000E+00
Ar  8698  0.5584482E+02  0.5356302E+02  0.7684966E+02  0.0000000E+00
Ar  8699  0.5632848E+02  0.5078446E+02  0.7976811E+02  0.0000000E+00
Ar  8700  0.5298523E+02  0.5353633E+02  0.7904477E+02  0.0000000E+00
Ar  8701  0.5228689E+02  0.5700872E+02  0.8295507E+02  0.0000000E+00
Ar  8702  0.5550481E+02  0.5941548E+02  0.8277918E+02  0.0000000E+00
Ar  8703  0.5595330E+02  0.5645093E+02  0.1096369E+01  0.0000000E+00
Ar  8704  0.5287867E+02  0.5902113E+02  0.1628482E+01  0.0000000E+00
Ar  8705  0.5319779E+02  0.5599736E+02  0.4391203E+01  0.0000000E+00
Ar  8706  0.5520676E+02  0.5964064E+02  0.4156550E+01  0.0000000E+00
Ar  8707  0.5542839E+02  0.5657883E+02  0.7341689E+01  0.0000000E+00
Ar  8708  0.5323526E+02  0.5954576E+02  0.7301121E+01  0.0000000E+00
Ar  8709  0.5272422E+02  0.5617361E+02  0.9783349E+01  0.0000000E+00
Ar  8710  0.5583014E+02  0.5975772E+02  0.1021748E+02  0.0000000E+00
Ar  8711  0.5609447E+02  0.5687454E+02  0.1246129E+02  0.0000000E+00
Ar  8712  0.5269221E+02  0.5936136E+02  0.1287606E+02  0.0000000E+00
Ar  8713  0.5343672E+02  0.5648277E+02  0.1581913E+02  0.0000000E+00
Ar  8714  0.5604819E+02  0.5935074E+02  0.1562131E+02  0.0000000E+00
Ar  8715  0.5670912E+02  0.5612477E+02  0.1822610E+02  0.0000000E+00
Ar  8716  0.5363299E+02  0.5915560E+02  0.1839329E+02  0.0000000E+00
Ar  8717  0.5409752E+02  0.5623611E+02  0.2137916E+02  0.0000000E+00
Ar  8718  0.5674946E+02  0.5921855E+02  0.2030213E+02  0.0000000E+00
Ar  8719  0.5698142E+02  0.5604327E+02  0.2407438E+02  0.0000000E+00
Ar  8720  0.5383753E+02  0.5926411E+02  0.2351170E+02  0.0000000E+00
Ar  8721  0.5408256E+02  0.5699986E+02  0.2656674E+02  0.0000000E+00
Ar  8722  0.5701523E+02  0.5895555E+02  0.2664133E+02  0.0000000E+00
Ar  8723  0.5672576E+02  0.5652424E+02  0.3002190E+02  0.0000000E+00
Ar  8724  0.5417633E+02  0.5954531E+02  0.2980950E+02  0.0000000E+00
Ar  8725  0.5386842E+02  0.5686842E+02  0.3277556E+02  0.0000000E+00
Ar  8726  0.5693947E+02  0.5955777E+02  0.3277463E+02  0.0000000E+00
Ar  8727  0.5660483E+02  0.5622400E+02  0.3511119E+02  0.0000000E+00
Ar  8728  0.5351192E+02  0.5929160E+02  0.3551152E+02  0.0000000E+00
Ar  8729  0.5350501E+02  0.5620897E+02  0.3754720E+02  0.0000000E+00
Ar  8730  0.5607962E+02  0.5896047E+02  0.3814588E+02  0.0000000E+00
Ar  8731  0.5580119E+02  0.5615024E+02  0.4082616E+02  0.0000000E+00
Ar  8732  0.5335997E+02  0.5947629E+02  0.4042831E+02  0.0000000E+00
Ar  8733  0.5275701E+02  0.5647853E+02  0.4271139E+02  0.0000000E+00
Ar  8734  0.5608883E+02  0.5863257E+02  0.4336559E+02  0.0000000E+00
Ar  8735  0.5673051E+02  0.5578850E+02  0.4600814E+02  0.0000000E+00
Ar  8736  0.5353503E+02  0.5849297E+02  0.4688257E+02  0.0000000E+00
Ar  8737  0.5296544E+02  0.5627213E+02  0.4959668E+02  0.0000000E+00
Ar  8738  0.5634339E+02  0.5912521E+02  0.5029463E+02  0.0000000E+00
Ar  8739  0.5560841E+02  0.5620356E+02  0.5272575E+02  0.0000000E+00
Ar  8740  0.5283894E+02  0.6016590E+02  0.5218626E+02  0.0000000E+00
Ar  8741  0.5239978E+02  0.5691135E+02  0.5487201E+02  0.0000000E+00
Ar  8742  0.5545689E+02  0.5913689E+02  0.5471223E+02  0.0000000E+00
Ar  8743  0.5611231E+02  0.5698456E+02  0.5727183E+02  0.0000000E+00
Ar  8744  0.5209843E+02  0.6002963E+02  0.5744822E+02  0.0000000E+00
Ar  8745  0.5293689E+02  0.5682864E+02  0.5994140E+02  0.0000000E+00
Ar  8746  0.5556354E+02  0.5984909E+02  0.5982935E+02  0.0000000E+00
Ar  8747  0.5582930E+02  0.5652937E+02  0.6248933E+02  0.0000000E+00
Ar  8748  0.5326693E+02  0.5913065E+02  0.6322031E+02  0.0000000E+00
Ar  8749  0.5297692E+02  0.5656123E+02  0.6576645E+02  0.0000000E+00
Ar  8750  0.5596321E+02  0.5968827E+02  0.6577103E+02  0.0000000E+00
Ar  8751  0.5535993E+02  0.5666118E+02  0.6831281E+02  0.0000000E+00
Ar  8752  0.5346835E+02  0.5995421E+02  0.6843961E+02  0.0000000E+00
Ar  8753  0.5299376E+02  0.5638465E+02  0.7096295E+02  0.0000000E+00
Ar  8754  0.5568301E+02  0.5937417E+02  0.7182564E+02  0.0000000E+00
Ar  8755  0.5499072E+02  0.5654041E+02  0.7409126E+02  0.0000000E+00
Ar  8756  0.5275179E+02  0.5928783E+02  0.7349781E+02  0.0000000E+00
Ar  8757  0.5267212E+02  0.5681457E+02  0.7686007E+02  0.0000000E+00
Ar  8758  0.5556583E+02  0.5960574E+02  0.7745508E+02  0.0000000E+00
Ar  8759  0.5548041E+02  0.5649502E+02  0.7946023E+02  0.0000000E+00
Ar  8760  0.5303822E+02  0.5909329E+02  0.7995601E+02  0.0000000E+00
Ar  8761  0.5324635E+02  0.6252440E+02  0.8185965E+02  0.0000000E+00
Ar  8762  0.5588658E+02  0.6488866E+02  0.8267440E+02  0.0000000E+00
Ar  8763  0.5494771E+02  0.6217769E+02  0.1647205E+01  0.0000000E+00
Ar  8764  0.5367419E+02  0.6572816E+02  0.1646687E+01  0.0000000E+00
Ar  8765  0.5265499E+02  0.6201096E+02  0.4273059E+01  0.0000000E+00
Ar  8766  0.5857700E+02  0.6520870E+02  0.9951678E+00  0.0000000E+00
Ar  8767  0.5598072E+02  0.6199686E+02  0.7112181E+01  0.0000000E+00
Ar  8768  0.5249634E+02  0.6425433E+02  0.7201504E+01  0.0000000E+00
Ar  8769  0.5328912E+02  0.6258163E+02  0.1060918E+02  0.0000000E+00
Ar  8770  0.5591981E+02  0.6474962E+02  0.9661974E+01  0.0000000E+00
Ar  8771  0.5614436E+02  0.6267052E+02  0.1319157E+02  0.0000000E+00
Ar  8772  0.5319152E+02  0.6506443E+02  0.1368290E+02  0.0000000E+00
Ar  8773  0.5246269E+02  0.6171256E+02  0.1579248E+02  0.0000000E+00
Ar  8774  0.5660186E+02  0.6526830E+02  0.1534697E+02  0.0000000E+00
Ar  8775  0.5590475E+02  0.6244101E+02  0.1822898E+02  0.0000000E+00
Ar  8776  0.5284139E+02  0.6468656E+02  0.1757481E+02  0.0000000E+00
Ar  8777  0.5270765E+02  0.6197671E+02  0.2132964E+02  0.0000000E+00
Ar  8778  0.5592183E+02  0.6393565E+02  0.2131194E+02  0.0000000E+00
Ar  8779  0.5568895E+02  0.6233439E+02  0.2485401E+02  0.0000000E+00
Ar  8780  0.5310218E+02  0.6450863E+02  0.2408817E+02  0.0000000E+00
Ar  8781  0.5315154E+02  0.6218788E+02  0.2706759E+02  0.0000000E+00
Ar  8782  0.5659947E+02  0.6501992E+02  0.2695331E+02  0.0000000E+00
Ar  8783  0.5632180E+02  0.6227093E+02  0.3002342E+02  0.0000000E+00
Ar  8784  0.5354005E+02  0.6466526E+02  0.2957418E+02  0.0000000E+00
Ar  8785  0.5396627E+02  0.6174287E+02  0.3271184E+02  0.0000000E+00
Ar  8786  0.5637569E+02  0.6518009E+02  0.3238237E+02  0.0000000E+00
Ar  8787  0.5633097E+02  0.6226790E+02  0.3557920E+02  0.0000000E+00
Ar  8788  0.5382103E+02  0.6495007E+02  0.3562313E+02  0.0000000E+00
Ar  8789  0.5359710E+02  0.6206999E+02  0.3762715E+02  0.0000000E+00
Ar  8790  0.5651488E+02  0.6547439E+02  0.3826761E+02  0.0000000E+00
Ar  8791  0.5618086E+02  0.6200070E+02  0.4041811E+02  0.0000000E+00
Ar  8792  0.5369124E+02  0.6437405E+02  0.4089281E+02  0.0000000E+00
Ar  8793  0.5319383E+02  0.6126103E+02  0.4426925E+02  0.0000000E+00
Ar  8794  0.5627254E+02  0.6403705E+02  0.4328622E+02  0.0000000E+00
Ar  8795  0.5658635E+02  0.6141309E+02  0.4690523E+02  0.0000000E+00
Ar  8796  0.5422107E+02  0.6500901E+02  0.4598858E+02  0.0000000E+00
Ar  8797  0.5335392E+02  0.6181658E+02  0.4828443E+02  0.0000000E+00
Ar  8798  0.5581053E+02  0.6451957E+02  0.4918717E+02  0.0000000E+00
Ar  8799  0.5649984E+02  0.6188152E+02  0.5259416E+02  0.0000000E+00
Ar  8800  0.5335943E+02  0.6489164E+02  0.5142847E+02  0.0000000E+00
Ar  8801  0.5271502E+02  0.6310131E+02  0.5480520E+02  0.0000000E+00
Ar  8802  0.5562956E+02  0.6477204E+02  0.5510480E+02  0.0000000E+00
Ar  8803  0.5565106E+02  0.6198938E+02  0.5707184E+02  0.0000000E+00
Ar  8804  0.5351224E+02  0.6548838E+02  0.5824348E+02  0.0000000E+00
Ar  8805  0.5308758E+02  0.6224173E+02  0.6075061E+02  0.0000000E+00
Ar  8806  0.5608970E+02  0.6492824E+02  0.6097321E+02  0.0000000E+00
Ar  8807  0.5610358E+02  0.6206187E+02  0.6283895E+02  0.0000000E+00
Ar  8808  0.5291515E+02  0.6579397E+02  0.6308092E+02  0.0000000E+00
Ar  8809  0.5315722E+02  0.6238336E+02  0.6600573E+02  0.0000000E+00
Ar  8810  0.5572903E+02  0.6518316E+02  0.6592251E+02  0.0000000E+00
Ar  8811  0.5618920E+02  0.6267698E+02  0.6882548E+02  0.0000000E+00
Ar  8812  0.5358309E+02  0.6541259E+02  0.6908057E+02  0.0000000E+00
Ar  8813  0.5322399E+02  0.6223046E+02  0.7146175E+02  0.0000000E+00
Ar  8814  0.5558352E+02  0.6484860E+02  0.7164482E+02  0.0000000E+00
Ar  8815  0.5587210E+02  0.6238603E+02  0.7433950E+02  0.0000000E+00
Ar  8816  0.5279496E+02  0.6502612E+02  0.7419409E+02  0.0000000E+00
Ar  8817  0.5326759E+02  0.6223682E+02  0.7673718E+02  0.0000000E+00
Ar  8818  0.5575725E+02  0.6495709E+02  0.7662287E+02  0.0000000E+00
Ar  8819  0.5603136E+02  0.6287074E+02  0.7958927E+02  0.0000000E+00
Ar  8820  0.5305339E+02  0.6485523E+02  0.7918159E+02  0.0000000E+00
Ar  8821  0.5275693E+02  0.6806618E+02  0.8166571E+02  0.0000000E+00
Ar  8822  0.5600242E+02  0.7098098E+02  0.8211637E+02  0.0000000E+00
Ar  8823  0.5557259E+02  0.6839902E+02  0.2150364E+00  0.0000000E+00
Ar  8824  0.5273328E+02  0.7089781E+02  0.8239305E+00  0.0000000E+00
Ar  8825  0.5184132E+02  0.6836462E+02  0.3435319E+01  0.0000000E+00
Ar  8826  0.5410606E+02  0.7195516E+02  0.3988466E+01  0.0000000E+00
Ar  8827  0.5554030E+02  0.6661654E+02  0.6575789E+01  0.0000000E+00
Ar  8828  0.5312456E+02  0.7014381E+02  0.6949676E+01  0.0000000E+00
Ar  8829  0.5281051E+02  0.6726232E+02  0.9343016E+01  0.0000000E+00
Ar  8830  0.5628216E+02  0.7051874E+02  0.9562356E+01  0.0000000E+00
Ar  8831  0.5585028E+02  0.6730019E+02  0.1259416E+02  0.0000000E+00
Ar  8832  0.5319404E+02  0.7012239E+02  0.1198748E+02  0.0000000E+00
Ar  8833  0.5386699E+02  0.6787309E+02  0.1586667E+02  0.0000000E+00
Ar  8834  0.5563112E+02  0.7059299E+02  0.1479443E+02  0.0000000E+00
Ar  8835  0.5614699E+02  0.6681058E+02  0.1873880E+02  0.0000000E+00
Ar  8836  0.5269791E+02  0.7103277E+02  0.1822959E+02  0.0000000E+00
Ar  8837  0.5279500E+02  0.6695390E+02  0.2106532E+02  0.0000000E+00
Ar  8838  0.5569328E+02  0.7032836E+02  0.2058991E+02  0.0000000E+00
Ar  8839  0.5604241E+02  0.6745131E+02  0.2338729E+02  0.0000000E+00
Ar  8840  0.5286745E+02  0.7039912E+02  0.2370945E+02  0.0000000E+00
Ar  8841  0.5383443E+02  0.6753984E+02  0.2647020E+02  0.0000000E+00
Ar  8842  0.5561502E+02  0.7038959E+02  0.2634132E+02  0.0000000E+00
Ar  8843  0.5600064E+02  0.6754435E+02  0.2996275E+02  0.0000000E+00
Ar  8844  0.5352801E+02  0.6982719E+02  0.2950440E+02  0.0000000E+00
Ar  8845  0.5336236E+02  0.6780162E+02  0.3251870E+02  0.0000000E+00
Ar  8846  0.5636021E+02  0.7054464E+02  0.3249248E+02  0.0000000E+00
Ar  8847  0.5650034E+02  0.6784579E+02  0.3557174E+02  0.0000000E+00
Ar  8848  0.5342660E+02  0.7118704E+02  0.3530885E+02  0.0000000E+00
Ar  8849  0.5403862E+02  0.6804817E+02  0.3815179E+02  0.0000000E+00
Ar  8850  0.5648697E+02  0.7083701E+02  0.3808492E+02  0.0000000E+00
Ar  8851  0.5611816E+02  0.6832450E+02  0.4117831E+02  0.0000000E+00
Ar  8852  0.5348833E+02  0.7094169E+02  0.4009809E+02  0.0000000E+00
Ar  8853  0.5339102E+02  0.6752407E+02  0.4345671E+02  0.0000000E+00
Ar  8854  0.5609888E+02  0.7137918E+02  0.4322075E+02  0.0000000E+00
Ar  8855  0.5609762E+02  0.6777468E+02  0.4704396E+02  0.0000000E+00
Ar  8856  0.5357991E+02  0.7154606E+02  0.4574682E+02  0.0000000E+00
Ar  8857  0.5345500E+02  0.6813635E+02  0.4926372E+02  0.0000000E+00
Ar  8858  0.5657983E+02  0.7093086E+02  0.4902319E+02  0.0000000E+00
Ar  8859  0.5597235E+02  0.6772410E+02  0.5149526E+02  0.0000000E+00
Ar  8860  0.5355797E+02  0.7074212E+02  0.5194198E+02  0.0000000E+00
Ar  8861  0.5369121E+02  0.6767385E+02  0.5449271E+02  0.0000000E+00
Ar  8862  0.5592411E+02  0.7048245E+02  0.5497280E+02  0.0000000E+00
Ar  8863  0.5644307E+02  0.6834972E+02  0.5819060E+02  0.0000000E+00
Ar  8864  0.5284947E+02  0.7116244E+02  0.5750018E+02  0.0000000E+00
Ar  8865  0.5263706E+02  0.6893297E+02  0.6107602E+02  0.0000000E+00
Ar  8866  0.5629868E+02  0.7118259E+02  0.6051897E+02  0.0000000E+00
Ar  8867  0.5615224E+02  0.6807798E+02  0.6347312E+02  0.0000000E+00
Ar  8868  0.5365127E+02  0.7072903E+02  0.6394495E+02  0.0000000E+00
Ar  8869  0.5336453E+02  0.6809812E+02  0.6623039E+02  0.0000000E+00
Ar  8870  0.5645491E+02  0.7087776E+02  0.6643121E+02  0.0000000E+00
Ar  8871  0.5633606E+02  0.6824851E+02  0.6893905E+02  0.0000000E+00
Ar  8872  0.5338044E+02  0.7068789E+02  0.6890898E+02  0.0000000E+00
Ar  8873  0.5349806E+02  0.6789810E+02  0.7165266E+02  0.0000000E+00
Ar  8874  0.5623724E+02  0.7105239E+02  0.7172045E+02  0.0000000E+00
Ar  8875  0.5611581E+02  0.6757579E+02  0.7418733E+02  0.0000000E+00
Ar  8876  0.5399626E+02  0.7074140E+02  0.7435914E+02  0.0000000E+00
Ar  8877  0.5341605E+02  0.6818094E+02  0.7666684E+02  0.0000000E+00
Ar  8878  0.5629823E+02  0.7039441E+02  0.7690487E+02  0.0000000E+00
Ar  8879  0.5560246E+02  0.6791122E+02  0.7968967E+02  0.0000000E+00
Ar  8880  0.5321698E+02  0.7093289E+02  0.7960018E+02  0.0000000E+00
Ar  8881  0.5330616E+02  0.7336130E+02  0.8239524E+02  0.0000000E+00
Ar  8882  0.5616524E+02  0.7695164E+02  0.8268108E+02  0.0000000E+00
Ar  8883  0.5588573E+02  0.7377135E+02  0.7862533E+00  0.0000000E+00
Ar  8884  0.5338005E+02  0.7697773E+02  0.4477430E+00  0.0000000E+00
Ar  8885  0.5193082E+02  0.7446910E+02  0.3267333E+01  0.0000000E+00
Ar  8886  0.5594488E+02  0.7678651E+02  0.3291422E+01  0.0000000E+00
Ar  8887  0.5599141E+02  0.7372045E+02  0.6956963E+01  0.0000000E+00
Ar  8888  0.5354458E+02  0.7644752E+02  0.6191670E+01  0.0000000E+00
Ar  8889  0.5364957E+02  0.7304191E+02  0.9411201E+01  0.0000000E+00
Ar  8890  0.5591941E+02  0.7587589E+02  0.9491986E+01  0.0000000E+00
Ar  8891  0.5538034E+02  0.7328142E+02  0.1234560E+02  0.0000000E+00
Ar  8892  0.5276671E+02  0.7557005E+02  0.1172997E+02  0.0000000E+00
Ar  8893  0.5284170E+02  0.7267357E+02  0.1483273E+02  0.0000000E+00
Ar  8894  0.5522241E+02  0.7553269E+02  0.1511667E+02  0.0000000E+00
Ar  8895  0.5572771E+02  0.7301323E+02  0.1792697E+02  0.0000000E+00
Ar  8896  0.5251017E+02  0.7476994E+02  0.1835654E+02  0.0000000E+00
Ar  8897  0.5308368E+02  0.7292306E+02  0.2127805E+02  0.0000000E+00
Ar  8898  0.5576818E+02  0.7558720E+02  0.2103278E+02  0.0000000E+00
Ar  8899  0.5550489E+02  0.7286361E+02  0.2364901E+02  0.0000000E+00
Ar  8900  0.5184042E+02  0.7534258E+02  0.2412075E+02  0.0000000E+00
Ar  8901  0.5257159E+02  0.7284855E+02  0.2670050E+02  0.0000000E+00
Ar  8902  0.5514413E+02  0.7533853E+02  0.2655607E+02  0.0000000E+00
Ar  8903  0.5590991E+02  0.7345150E+02  0.2930961E+02  0.0000000E+00
Ar  8904  0.5262914E+02  0.7518680E+02  0.2962631E+02  0.0000000E+00
Ar  8905  0.5326433E+02  0.7318388E+02  0.3250805E+02  0.0000000E+00
Ar  8906  0.5561184E+02  0.7600969E+02  0.3231759E+02  0.0000000E+00
Ar  8907  0.5610299E+02  0.7404465E+02  0.3559292E+02  0.0000000E+00
Ar  8908  0.5291902E+02  0.7623929E+02  0.3527968E+02  0.0000000E+00
Ar  8909  0.5278596E+02  0.7393403E+02  0.3815647E+02  0.0000000E+00
Ar  8910  0.5628154E+02  0.7686908E+02  0.3822949E+02  0.0000000E+00
Ar  8911  0.5605141E+02  0.7427466E+02  0.4031045E+02  0.0000000E+00
Ar  8912  0.5319599E+02  0.7676013E+02  0.4081058E+02  0.0000000E+00
Ar  8913  0.5349888E+02  0.7391655E+02  0.4291095E+02  0.0000000E+00
Ar  8914  0.5635770E+02  0.7699653E+02  0.4259223E+02  0.0000000E+00
Ar  8915  0.5627718E+02  0.7395231E+02  0.4621284E+02  0.0000000E+00
Ar  8916  0.5320807E+02  0.7616310E+02  0.4669012E+02  0.0000000E+00
Ar  8917  0.5358530E+02  0.7331013E+02  0.4869076E+02  0.0000000E+00
Ar  8918  0.5608738E+02  0.7656155E+02  0.4898846E+02  0.0000000E+00
Ar  8919  0.5694138E+02  0.7320536E+02  0.5194665E+02  0.0000000E+00
Ar  8920  0.5314926E+02  0.7589470E+02  0.5130331E+02  0.0000000E+00
Ar  8921  0.5334405E+02  0.7366986E+02  0.5466835E+02  0.0000000E+00
Ar  8922  0.5610441E+02  0.7608477E+02  0.5388651E+02  0.0000000E+00
Ar  8923  0.5581836E+02  0.7311934E+02  0.5712575E+02  0.0000000E+00
Ar  8924  0.5379643E+02  0.7616249E+02  0.5714414E+02  0.0000000E+00
Ar  8925  0.5343006E+02  0.7340376E+02  0.6084078E+02  0.0000000E+00
Ar  8926  0.5604363E+02  0.7581541E+02  0.6101239E+02  0.0000000E+00
Ar  8927  0.5617912E+02  0.7345941E+02  0.6373092E+02  0.0000000E+00
Ar  8928  0.5346418E+02  0.7651632E+02  0.6335395E+02  0.0000000E+00
Ar  8929  0.5342096E+02  0.7358120E+02  0.6664372E+02  0.0000000E+00
Ar  8930  0.5595500E+02  0.7629701E+02  0.6591971E+02  0.0000000E+00
Ar  8931  0.5630454E+02  0.7352604E+02  0.6884031E+02  0.0000000E+00
Ar  8932  0.5329471E+02  0.7640333E+02  0.6915735E+02  0.0000000E+00
Ar  8933  0.5319558E+02  0.7345852E+02  0.7163413E+02  0.0000000E+00
Ar  8934  0.5577069E+02  0.7628666E+02  0.7162319E+02  0.0000000E+00
Ar  8935  0.5563229E+02  0.7398338E+02  0.7478156E+02  0.0000000E+00
Ar  8936  0.5289283E+02  0.7692941E+02  0.7447775E+02  0.0000000E+00
Ar  8937  0.5327268E+02  0.7388234E+02  0.7762496E+02  0.0000000E+00
Ar  8938  0.5610958E+02  0.7676726E+02  0.7692129E+02  0.0000000E+00
Ar  8939  0.5642421E+02  0.7339598E+02  0.7960923E+02  0.0000000E+00
Ar  8940  0.5328857E+02  0.7684931E+02  0.8042727E+02  0.0000000E+00
Ar  8941  0.5296363E+02  0.7990046E+02  0.8232785E+02  0.0000000E+00
Ar  8942  0.5575183E+02  0.8222054E+02  0.8255670E+02  0.0000000E+00
Ar  8943  0.5611191E+02  0.7915770E+02  0.1019837E+01  0.0000000E+00
Ar  8944  0.5353928E+02  0.8261127E+02  0.7960796E+00  0.0000000E+00
Ar  8945  0.5286312E+02  0.7950317E+02  0.3282013E+01  0.0000000E+00
Ar  8946  0.5626470E+02  0.8180586E+02  0.3879211E+01  0.0000000E+00
Ar  8947  0.5592546E+02  0.7915160E+02  0.6279855E+01  0.0000000E+00
Ar  8948  0.5361974E+02  0.8164234E+02  0.6644207E+01  0.0000000E+00
Ar  8949  0.5319737E+02  0.7854987E+02  0.9338338E+01  0.0000000E+00
Ar  8950  0.5623240E+02  0.8107534E+02  0.9190950E+01  0.0000000E+00
Ar  8951  0.5553001E+02  0.7827077E+02  0.1245283E+02  0.0000000E+00
Ar  8952  0.5375113E+02  0.8202832E+02  0.1265131E+02  0.0000000E+00
Ar  8953  0.5385382E+02  0.7857758E+02  0.1586705E+02  0.0000000E+00
Ar  8954  0.5621970E+02  0.8128584E+02  0.1514403E+02  0.0000000E+00
Ar  8955  0.5610042E+02  0.7831848E+02  0.1857454E+02  0.0000000E+00
Ar  8956  0.5333715E+02  0.8135992E+02  0.1804036E+02  0.0000000E+00
Ar  8957  0.5268763E+02  0.7779990E+02  0.2184321E+02  0.0000000E+00
Ar  8958  0.5544856E+02  0.8090447E+02  0.2121058E+02  0.0000000E+00
Ar  8959  0.5540982E+02  0.7852552E+02  0.2425353E+02  0.0000000E+00
Ar  8960  0.5312752E+02  0.8192876E+02  0.2416643E+02  0.0000000E+00
Ar  8961  0.5302251E+02  0.7863293E+02  0.2685579E+02  0.0000000E+00
Ar  8962  0.5611079E+02  0.8217097E+02  0.2657732E+02  0.0000000E+00
Ar  8963  0.5570061E+02  0.7839843E+02  0.2954680E+02  0.0000000E+00
Ar  8964  0.5277747E+02  0.8196734E+02  0.2969734E+02  0.0000000E+00
Ar  8965  0.5265989E+02  0.7841089E+02  0.3177720E+02  0.0000000E+00
Ar  8966  0.5547742E+02  0.8233978E+02  0.3185876E+02  0.0000000E+00
Ar  8967  0.5537972E+02  0.7889944E+02  0.3528235E+02  0.0000000E+00
Ar  8968  0.5338744E+02  0.8210522E+02  0.3499510E+02  0.0000000E+00
Ar  8969  0.5311154E+02  0.7926923E+02  0.3821304E+02  0.0000000E+00
Ar  8970  0.5558486E+02  0.8252909E+02  0.3787636E+02  0.0000000E+00
Ar  8971  0.5540521E+02  0.7999883E+02  0.4050031E+02  0.0000000E+00
Ar  8972  0.5303093E+02  0.8246262E+02  0.4057695E+02  0.0000000E+00
Ar  8973  0.5339289E+02  0.7928056E+02  0.4333281E+02  0.0000000E+00
Ar  8974  0.5561163E+02  0.8235835E+02  0.4336942E+02  0.0000000E+00
Ar  8975  0.5577313E+02  0.7979409E+02  0.4599051E+02  0.0000000E+00
Ar  8976  0.5267365E+02  0.8225018E+02  0.4609682E+02  0.0000000E+00
Ar  8977  0.5351406E+02  0.7915953E+02  0.4884505E+02  0.0000000E+00
Ar  8978  0.5586136E+02  0.8209224E+02  0.4895296E+02  0.0000000E+00
Ar  8979  0.5612209E+02  0.7919371E+02  0.5207302E+02  0.0000000E+00
Ar  8980  0.5226524E+02  0.8216121E+02  0.5151742E+02  0.0000000E+00
Ar  8981  0.5258086E+02  0.7964749E+02  0.5399993E+02  0.0000000E+00
Ar  8982  0.5622839E+02  0.8206155E+02  0.5412293E+02  0.0000000E+00
Ar  8983  0.5575305E+02  0.7931002E+02  0.5610131E+02  0.0000000E+00
Ar  8984  0.5343847E+02  0.8187056E+02  0.5746161E+02  0.0000000E+00
Ar  8985  0.5372825E+02  0.7861898E+02  0.6067362E+02  0.0000000E+00
Ar  8986  0.5636649E+02  0.8151494E+02  0.5981427E+02  0.0000000E+00
Ar  8987  0.5598234E+02  0.7909851E+02  0.6338027E+02  0.0000000E+00
Ar  8988  0.5295249E+02  0.8292052E+02  0.6373335E+02  0.0000000E+00
Ar  8989  0.5339050E+02  0.7893372E+02  0.6646056E+02  0.0000000E+00
Ar  8990  0.5633675E+02  0.8161658E+02  0.6624324E+02  0.0000000E+00
Ar  8991  0.5646577E+02  0.7931188E+02  0.6885593E+02  0.0000000E+00
Ar  8992  0.5315010E+02  0.8271215E+02  0.6800990E+02  0.0000000E+00
Ar  8993  0.5343204E+02  0.7969953E+02  0.7085308E+02  0.0000000E+00
Ar  8994  0.5673867E+02  0.8206485E+02  0.7139184E+02  0.0000000E+00
Ar  8995  0.5534250E+02  0.7987863E+02  0.7410188E+02  0.0000000E+00
Ar  8996  0.5299634E+02  0.8226344E+02  0.7405019E+02  0.0000000E+00
Ar  8997  0.5344267E+02  0.7943985E+02  0.7736552E+02  0.0000000E+00
Ar  8998  0.5588559E+02  0.8236663E+02  0.7688730E+02  0.0000000E+00
Ar  8999  0.5588718E+02  0.7954978E+02  0.7959719E+02  0.0000000E+00
Ar  9000  0.5354472E+02  0.8221349E+02  0.7972855E+02  0.0000000E+00
Ar  9001  0.5808214E+02  0.8187617E+00  0.8219073E+02  0.0000000E+00
Ar  9002  0.6155471E+02  0.3603943E+01  0.8249822E+02  0.0000000E+00
Ar  9003  0.6195311E+02  0.4750916E+00  0.1305329E+01  0.0000000E+00
Ar  9004  0.5920378E+02  0.3038884E+01  0.5694502E+00  0.0000000E+00
Ar  9005  0.5909384E+02  0.6193741E+00  0.3673629E+01  0.0000000E+00
Ar  9006  0.6248500E+02  0.2745865E+01  0.4263165E+01  0.0000000E+00
Ar  9007  0.6175416E+02  0.8143109E+00  0.7328468E+01  0.0000000E+00
Ar  9008  0.5872467E+02  0.3540923E+01  0.6638751E+01  0.0000000E+00
Ar  9009  0.5852800E+02  0.8421634E+02  0.9526886E+01  0.0000000E+00
Ar  9010  0.6132009E+02  0.2529271E+01  0.1083092E+02  0.0000000E+00
Ar  9011  0.6127186E+02  0.8332813E+02  0.1190189E+02  0.0000000E+00
Ar  9012  0.5888880E+02  0.3228303E+01  0.1304808E+02  0.0000000E+00
Ar  9013  0.5931612E+02  0.8421707E+02  0.1704888E+02  0.0000000E+00
Ar  9014  0.6217798E+02  0.3528456E+01  0.1560717E+02  0.0000000E+00
Ar  9015  0.6241877E+02  0.1313528E+01  0.1816277E+02  0.0000000E+00
Ar  9016  0.5947502E+02  0.3528028E+01  0.1839529E+02  0.0000000E+00
Ar  9017  0.5914105E+02  0.7216778E+00  0.2102806E+02  0.0000000E+00
Ar  9018  0.6158346E+02  0.3310227E+01  0.2137192E+02  0.0000000E+00
Ar  9019  0.6257475E+02  0.5543666E+00  0.2384109E+02  0.0000000E+00
Ar  9020  0.5837491E+02  0.3958588E+01  0.2332395E+02  0.0000000E+00
Ar  9021  0.5896453E+02  0.9489555E+00  0.2525570E+02  0.0000000E+00
Ar  9022  0.6214852E+02  0.3331961E+01  0.2623495E+02  0.0000000E+00
Ar  9023  0.6152033E+02  0.8418650E+02  0.2858933E+02  0.0000000E+00
Ar  9024  0.5877779E+02  0.2705227E+01  0.2864209E+02  0.0000000E+00
Ar  9025  0.5929747E+02  0.1359505E+01  0.3169227E+02  0.0000000E+00
Ar  9026  0.6203924E+02  0.3395090E+01  0.3235283E+02  0.0000000E+00
Ar  9027  0.6176371E+02  0.1382132E+01  0.3561038E+02  0.0000000E+00
Ar  9028  0.5940392E+02  0.3982461E+01  0.3564877E+02  0.0000000E+00
Ar  9029  0.5856894E+02  0.7557431E+00  0.3775393E+02  0.0000000E+00
Ar  9030  0.6203868E+02  0.3955308E+01  0.3853333E+02  0.0000000E+00
Ar  9031  0.6152369E+02  0.1580532E+01  0.4110745E+02  0.0000000E+00
Ar  9032  0.5852819E+02  0.3957757E+01  0.4009766E+02  0.0000000E+00
Ar  9033  0.5853745E+02  0.1157800E+01  0.4326930E+02  0.0000000E+00
Ar  9034  0.6101049E+02  0.4399722E+01  0.4348216E+02  0.0000000E+00
Ar  9035  0.6143059E+02  0.9288190E+00  0.4557368E+02  0.0000000E+00
Ar  9036  0.5859162E+02  0.3968327E+01  0.4617381E+02  0.0000000E+00
Ar  9037  0.5822039E+02  0.1043628E+01  0.4827859E+02  0.0000000E+00
Ar  9038  0.6150166E+02  0.4147844E+01  0.4928531E+02  0.0000000E+00
Ar  9039  0.6135146E+02  0.8449351E+00  0.5133323E+02  0.0000000E+00
Ar  9040  0.5838464E+02  0.3022855E+01  0.5183261E+02  0.0000000E+00
Ar  9041  0.5849833E+02  0.1038417E+01  0.5490137E+02  0.0000000E+00
Ar  9042  0.6144009E+02  0.3160508E+01  0.5414252E+02  0.0000000E+00
Ar  9043  0.6147439E+02  0.4045195E+00  0.5745562E+02  0.0000000E+00
Ar  9044  0.5976387E+02  0.3755073E+01  0.5725492E+02  0.0000000E+00
Ar  9045  0.5858188E+02  0.9163757E+00  0.5972390E+02  0.0000000E+00
Ar  9046  0.6184386E+02  0.3750400E+01  0.6062868E+02  0.0000000E+00
Ar  9047  0.6185700E+02  0.1430353E+01  0.6330206E+02  0.0000000E+00
Ar  9048  0.5870078E+02  0.3666019E+01  0.6234709E+02  0.0000000E+00
Ar  9049  0.5929062E+02  0.1795199E+01  0.6568265E+02  0.0000000E+00
Ar  9050  0.6214988E+02  0.3527922E+01  0.6626416E+02  0.0000000E+00
Ar  9051  0.6196693E+02  0.7361155E+00  0.6904832E+02  0.0000000E+00
Ar  9052  0.5914017E+02  0.3367708E+01  0.6858241E+02  0.0000000E+00
Ar  9053  0.5941052E+02  0.1502845E+01  0.7159729E+02  0.0000000E+00
Ar  9054  0.6184815E+02  0.4117739E+01  0.7071354E+02  0.0000000E+00
Ar  9055  0.6170368E+02  0.9249540E+00  0.7478109E+02  0.0000000E+00
Ar  9056  0.5901878E+02  0.3512810E+01  0.7444403E+02  0.0000000E+00
Ar  9057  0.5843591E+02  0.8320330E+00  0.7744186E+02  0.0000000E+00
Ar  9058  0.6222200E+02  0.4113950E+01  0.7679934E+02  0.0000000E+00
Ar  9059  0.6123742E+02  0.1621476E+01  0.7942402E+02  0.0000000E+00
Ar  9060  0.5791535E+02  0.3888805E+01  0.8003579E+02  0.0000000E+00
Ar  9061  0.5883057E+02  0.6565623E+01  0.8269627E+02  0.0000000E+00
Ar  9062  0.6160220E+02  0.9252542E+01  0.8196086E+02  0.0000000E+00
Ar  9063  0.6252071E+02  0.5442156E+01  0.1231869E+01  0.0000000E+00
Ar  9064  0.6013496E+02  0.8577623E+01  0.8222771E+00  0.0000000E+00
Ar  9065  0.5907274E+02  0.5222281E+01  0.3367301E+01  0.0000000E+00
Ar  9066  0.6151484E+02  0.9152388E+01  0.4183962E+01  0.0000000E+00
Ar  9067  0.6213811E+02  0.5899899E+01  0.6469373E+01  0.0000000E+00
Ar  9068  0.5877688E+02  0.7890350E+01  0.6386993E+01  0.0000000E+00
Ar  9069  0.5911295E+02  0.5614522E+01  0.9510118E+01  0.0000000E+00
Ar  9070  0.6193498E+02  0.8991678E+01  0.8487090E+01  0.0000000E+00
Ar  9071  0.6183526E+02  0.6358757E+01  0.1180412E+02  0.0000000E+00
Ar  9072  0.5930952E+02  0.8608330E+01  0.1245310E+02  0.0000000E+00
Ar  9073  0.5890272E+02  0.5655442E+01  0.1577324E+02  0.0000000E+00
Ar  9074  0.6222289E+02  0.8659453E+01  0.1506430E+02  0.0000000E+00
Ar  9075  0.6192636E+02  0.6529419E+01  0.1791960E+02  0.0000000E+00
Ar  9076  0.5850261E+02  0.9726152E+01  0.1760860E+02  0.0000000E+00
Ar  9077  0.5947070E+02  0.6497615E+01  0.2046066E+02  0.0000000E+00
Ar  9078  0.6180678E+02  0.9110612E+01  0.2065140E+02  0.0000000E+00
Ar  9079  0.6123642E+02  0.5966152E+01  0.2351479E+02  0.0000000E+00
Ar  9080  0.5922025E+02  0.8758902E+01  0.2323834E+02  0.0000000E+00
Ar  9081  0.5830272E+02  0.6152840E+01  0.2661308E+02  0.0000000E+00
Ar  9082  0.6161685E+02  0.8804709E+01  0.2645953E+02  0.0000000E+00
Ar  9083  0.6157747E+02  0.5681773E+01  0.2921276E+02  0.0000000E+00
Ar  9084  0.5892524E+02  0.9133447E+01  0.2926122E+02  0.0000000E+00
Ar  9085  0.5826186E+02  0.6007609E+01  0.3199358E+02  0.0000000E+00
Ar  9086  0.6155585E+02  0.8617380E+01  0.3218549E+02  0.0000000E+00
Ar  9087  0.6190147E+02  0.6440496E+01  0.3528108E+02  0.0000000E+00
Ar  9088  0.5901384E+02  0.9360020E+01  0.3479606E+02  0.0000000E+00
Ar  9089  0.5909073E+02  0.6823637E+01  0.3792978E+02  0.0000000E+00
Ar  9090  0.6166126E+02  0.9013447E+01  0.3779609E+02  0.0000000E+00
Ar  9091  0.6172848E+02  0.6939023E+01  0.4050924E+02  0.0000000E+00
Ar  9092  0.5841860E+02  0.9459145E+01  0.4078403E+02  0.0000000E+00
Ar  9093  0.5832110E+02  0.6657080E+01  0.4334057E+02  0.0000000E+00
Ar  9094  0.6144780E+02  0.9057251E+01  0.4334889E+02  0.0000000E+00
Ar  9095  0.6178670E+02  0.6421626E+01  0.4602694E+02  0.0000000E+00
Ar  9096  0.5849944E+02  0.8855510E+01  0.4620779E+02  0.0000000E+00
Ar  9097  0.5851446E+02  0.6456965E+01  0.4896409E+02  0.0000000E+00
Ar  9098  0.6151730E+02  0.9075406E+01  0.4871386E+02  0.0000000E+00
Ar  9099  0.6154012E+02  0.6492872E+01  0.5220637E+02  0.0000000E+00
Ar  9100  0.5839491E+02  0.9224883E+01  0.5172763E+02  0.0000000E+00
Ar  9101  0.5842899E+02  0.6030980E+01  0.5428528E+02  0.0000000E+00
Ar  9102  0.6145879E+02  0.9827114E+01  0.5426310E+02  0.0000000E+00
Ar  9103  0.6159607E+02  0.6655299E+01  0.5681855E+02  0.0000000E+00
Ar  9104  0.5920332E+02  0.9502090E+01  0.5713817E+02  0.0000000E+00
Ar  9105  0.5961045E+02  0.6537087E+01  0.5972578E+02  0.0000000E+00
Ar  9106  0.6209620E+02  0.9456143E+01  0.5976577E+02  0.0000000E+00
Ar  9107  0.6247640E+02  0.6291260E+01  0.6308769E+02  0.0000000E+00
Ar  9108  0.5935987E+02  0.9933318E+01  0.6207433E+02  0.0000000E+00
Ar  9109  0.5934365E+02  0.5756654E+01  0.6549079E+02  0.0000000E+00
Ar  9110  0.6151288E+02  0.9209315E+01  0.6509970E+02  0.0000000E+00
Ar  9111  0.6193445E+02  0.7187961E+01  0.6822605E+02  0.0000000E+00
Ar  9112  0.5823101E+02  0.8660783E+01  0.6796595E+02  0.0000000E+00
Ar  9113  0.5916482E+02  0.6506903E+01  0.7059948E+02  0.0000000E+00
Ar  9114  0.6160857E+02  0.9331613E+01  0.7144843E+02  0.0000000E+00
Ar  9115  0.6197653E+02  0.6453340E+01  0.7335938E+02  0.0000000E+00
Ar  9116  0.5878933E+02  0.8952686E+01  0.7366337E+02  0.0000000E+00
Ar  9117  0.5943312E+02  0.6340217E+01  0.7660057E+02  0.0000000E+00
Ar  9118  0.6182985E+02  0.9229981E+01  0.7663715E+02  0.0000000E+00
Ar  9119  0.6174321E+02  0.6510289E+01  0.7960771E+02  0.0000000E+00
Ar  9120  0.5912387E+02  0.8886134E+01  0.7942858E+02  0.0000000E+00
Ar  9121  0.5948993E+02  0.1240603E+02  0.8269498E+02  0.0000000E+00
Ar  9122  0.6211056E+02  0.1500760E+02  0.8271694E+02  0.0000000E+00
Ar  9123  0.6237566E+02  0.1198537E+02  0.1665860E+01  0.0000000E+00
Ar  9124  0.5923481E+02  0.1468308E+02  0.1198714E+01  0.0000000E+00
Ar  9125  0.5830194E+02  0.1235805E+02  0.4447715E+01  0.0000000E+00
Ar  9126  0.6167972E+02  0.1481479E+02  0.4098552E+01  0.0000000E+00
Ar  9127  0.6123044E+02  0.1223331E+02  0.6783210E+01  0.0000000E+00
Ar  9128  0.5884398E+02  0.1511632E+02  0.7598337E+01  0.0000000E+00
Ar  9129  0.5859227E+02  0.1033959E+02  0.8886101E+01  0.0000000E+00
Ar  9130  0.6199307E+02  0.1479882E+02  0.9603315E+01  0.0000000E+00
Ar  9131  0.6131241E+02  0.1155494E+02  0.1150794E+02  0.0000000E+00
Ar  9132  0.5859847E+02  0.1446845E+02  0.1196073E+02  0.0000000E+00
Ar  9133  0.5994286E+02  0.1217660E+02  0.1484707E+02  0.0000000E+00
Ar  9134  0.6235117E+02  0.1477854E+02  0.1557350E+02  0.0000000E+00
Ar  9135  0.6165428E+02  0.1181102E+02  0.1810972E+02  0.0000000E+00
Ar  9136  0.5873840E+02  0.1423646E+02  0.1796016E+02  0.0000000E+00
Ar  9137  0.5873372E+02  0.1157205E+02  0.2100291E+02  0.0000000E+00
Ar  9138  0.6206208E+02  0.1461993E+02  0.2089861E+02  0.0000000E+00
Ar  9139  0.6134312E+02  0.1162903E+02  0.2377938E+02  0.0000000E+00
Ar  9140  0.5920694E+02  0.1475543E+02  0.2348297E+02  0.0000000E+00
Ar  9141  0.5907214E+02  0.1204605E+02  0.2669371E+02  0.0000000E+00
Ar  9142  0.6201374E+02  0.1455769E+02  0.2652350E+02  0.0000000E+00
Ar  9143  0.6184614E+02  0.1124289E+02  0.2968702E+02  0.0000000E+00
Ar  9144  0.5918943E+02  0.1398223E+02  0.2976341E+02  0.0000000E+00
Ar  9145  0.5828654E+02  0.1144428E+02  0.3218772E+02  0.0000000E+00
Ar  9146  0.6191526E+02  0.1479442E+02  0.3221778E+02  0.0000000E+00
Ar  9147  0.6185060E+02  0.1149037E+02  0.3440752E+02  0.0000000E+00
Ar  9148  0.5832981E+02  0.1436823E+02  0.3460424E+02  0.0000000E+00
Ar  9149  0.5966468E+02  0.1163928E+02  0.3768525E+02  0.0000000E+00
Ar  9150  0.6207864E+02  0.1430046E+02  0.3772570E+02  0.0000000E+00
Ar  9151  0.6200271E+02  0.1218342E+02  0.4061453E+02  0.0000000E+00
Ar  9152  0.5855861E+02  0.1422315E+02  0.4064692E+02  0.0000000E+00
Ar  9153  0.5858005E+02  0.1172977E+02  0.4329398E+02  0.0000000E+00
Ar  9154  0.6182271E+02  0.1494739E+02  0.4337082E+02  0.0000000E+00
Ar  9155  0.6195613E+02  0.1184868E+02  0.4574374E+02  0.0000000E+00
Ar  9156  0.5893820E+02  0.1462353E+02  0.4561876E+02  0.0000000E+00
Ar  9157  0.5867775E+02  0.1193375E+02  0.4898425E+02  0.0000000E+00
Ar  9158  0.6140165E+02  0.1464271E+02  0.4795112E+02  0.0000000E+00
Ar  9159  0.6088429E+02  0.1180448E+02  0.5142233E+02  0.0000000E+00
Ar  9160  0.5922912E+02  0.1526673E+02  0.5096592E+02  0.0000000E+00
Ar  9161  0.5867411E+02  0.1212128E+02  0.5480974E+02  0.0000000E+00
Ar  9162  0.6148708E+02  0.1489751E+02  0.5406218E+02  0.0000000E+00
Ar  9163  0.6169918E+02  0.1266409E+02  0.5685852E+02  0.0000000E+00
Ar  9164  0.5908671E+02  0.1496994E+02  0.5706461E+02  0.0000000E+00
Ar  9165  0.5918514E+02  0.1255637E+02  0.5950374E+02  0.0000000E+00
Ar  9166  0.6173285E+02  0.1502501E+02  0.6010680E+02  0.0000000E+00
Ar  9167  0.6232472E+02  0.1224774E+02  0.6281513E+02  0.0000000E+00
Ar  9168  0.5839678E+02  0.1502672E+02  0.6311749E+02  0.0000000E+00
Ar  9169  0.5855202E+02  0.1197723E+02  0.6648215E+02  0.0000000E+00
Ar  9170  0.6095235E+02  0.1481651E+02  0.6555365E+02  0.0000000E+00
Ar  9171  0.6170454E+02  0.1233737E+02  0.6781858E+02  0.0000000E+00
Ar  9172  0.5789280E+02  0.1461379E+02  0.6886195E+02  0.0000000E+00
Ar  9173  0.5796323E+02  0.1129012E+02  0.7023567E+02  0.0000000E+00
Ar  9174  0.6103524E+02  0.1481198E+02  0.7143490E+02  0.0000000E+00
Ar  9175  0.6104729E+02  0.1190132E+02  0.7408576E+02  0.0000000E+00
Ar  9176  0.5812470E+02  0.1430934E+02  0.7448639E+02  0.0000000E+00
Ar  9177  0.5841721E+02  0.1120584E+02  0.7673465E+02  0.0000000E+00
Ar  9178  0.6130654E+02  0.1470225E+02  0.7649222E+02  0.0000000E+00
Ar  9179  0.6175747E+02  0.1275509E+02  0.8006614E+02  0.0000000E+00
Ar  9180  0.5795032E+02  0.1454432E+02  0.7950380E+02  0.0000000E+00
Ar  9181  0.5902450E+02  0.1676253E+02  0.8234745E+02  0.0000000E+00
Ar  9182  0.6124446E+02  0.2058659E+02  0.8249727E+02  0.0000000E+00
Ar  9183  0.6217664E+02  0.1730668E+02  0.1611508E+01  0.0000000E+00
Ar  9184  0.5938820E+02  0.1969838E+02  0.1181236E+01  0.0000000E+00
Ar  9185  0.5900239E+02  0.1728985E+02  0.4381602E+01  0.0000000E+00
Ar  9186  0.6207405E+02  0.2014309E+02  0.4169151E+01  0.0000000E+00
Ar  9187  0.6149419E+02  0.1734805E+02  0.7142596E+01  0.0000000E+00
Ar  9188  0.5819026E+02  0.2031451E+02  0.6834466E+01  0.0000000E+00
Ar  9189  0.5864901E+02  0.1792940E+02  0.9889159E+01  0.0000000E+00
Ar  9190  0.6203258E+02  0.1983179E+02  0.9473786E+01  0.0000000E+00
Ar  9191  0.6205268E+02  0.1677272E+02  0.1279558E+02  0.0000000E+00
Ar  9192  0.5982762E+02  0.1991063E+02  0.1263346E+02  0.0000000E+00
Ar  9193  0.5910157E+02  0.1671853E+02  0.1507073E+02  0.0000000E+00
Ar  9194  0.6234840E+02  0.1985567E+02  0.1580182E+02  0.0000000E+00
Ar  9195  0.6223464E+02  0.1697638E+02  0.1807999E+02  0.0000000E+00
Ar  9196  0.5806737E+02  0.1992696E+02  0.1837991E+02  0.0000000E+00
Ar  9197  0.5878480E+02  0.1711573E+02  0.2027320E+02  0.0000000E+00
Ar  9198  0.6162208E+02  0.2020923E+02  0.2113660E+02  0.0000000E+00
Ar  9199  0.6188438E+02  0.1706906E+02  0.2353370E+02  0.0000000E+00
Ar  9200  0.5939674E+02  0.2030454E+02  0.2384912E+02  0.0000000E+00
Ar  9201  0.5924867E+02  0.1700048E+02  0.2650005E+02  0.0000000E+00
Ar  9202  0.6188725E+02  0.1981293E+02  0.2683901E+02  0.0000000E+00
Ar  9203  0.6244237E+02  0.1710244E+02  0.2898528E+02  0.0000000E+00
Ar  9204  0.5944141E+02  0.1980107E+02  0.2947562E+02  0.0000000E+00
Ar  9205  0.5915234E+02  0.1691851E+02  0.3241275E+02  0.0000000E+00
Ar  9206  0.6182737E+02  0.1990552E+02  0.3267925E+02  0.0000000E+00
Ar  9207  0.6187545E+02  0.1759581E+02  0.3549809E+02  0.0000000E+00
Ar  9208  0.5899418E+02  0.1964203E+02  0.3556767E+02  0.0000000E+00
Ar  9209  0.5892593E+02  0.1677442E+02  0.3755220E+02  0.0000000E+00
Ar  9210  0.6179088E+02  0.2032122E+02  0.3742868E+02  0.0000000E+00
Ar  9211  0.6148886E+02  0.1710049E+02  0.4023911E+02  0.0000000E+00
Ar  9212  0.5888129E+02  0.2021708E+02  0.4027787E+02  0.0000000E+00
Ar  9213  0.5859427E+02  0.1751879E+02  0.4300437E+02  0.0000000E+00
Ar  9214  0.6191060E+02  0.2026281E+02  0.4284044E+02  0.0000000E+00
Ar  9215  0.6116152E+02  0.1769124E+02  0.4616049E+02  0.0000000E+00
Ar  9216  0.6181123E+02  0.2387554E+02  0.4600573E+02  0.0000000E+00
Ar  9217  0.5865622E+02  0.1806493E+02  0.4916857E+02  0.0000000E+00
Ar  9218  0.6205044E+02  0.2100437E+02  0.4861504E+02  0.0000000E+00
Ar  9219  0.6189821E+02  0.1765683E+02  0.5074993E+02  0.0000000E+00
Ar  9220  0.5839542E+02  0.2070806E+02  0.5243452E+02  0.0000000E+00
Ar  9221  0.5895111E+02  0.1738226E+02  0.5426540E+02  0.0000000E+00
Ar  9222  0.6183585E+02  0.2058590E+02  0.5477006E+02  0.0000000E+00
Ar  9223  0.6156107E+02  0.1796495E+02  0.5763508E+02  0.0000000E+00
Ar  9224  0.5828161E+02  0.2017713E+02  0.5713297E+02  0.0000000E+00
Ar  9225  0.5892739E+02  0.1734118E+02  0.6017469E+02  0.0000000E+00
Ar  9226  0.6069115E+02  0.2041727E+02  0.6035575E+02  0.0000000E+00
Ar  9227  0.6105752E+02  0.1737467E+02  0.6315524E+02  0.0000000E+00
Ar  9228  0.5846517E+02  0.2024038E+02  0.6380145E+02  0.0000000E+00
Ar  9229  0.5845671E+02  0.1726474E+02  0.6633421E+02  0.0000000E+00
Ar  9230  0.6138329E+02  0.1969605E+02  0.6640174E+02  0.0000000E+00
Ar  9231  0.6185046E+02  0.1681799E+02  0.6884476E+02  0.0000000E+00
Ar  9232  0.5872034E+02  0.1986484E+02  0.6909258E+02  0.0000000E+00
Ar  9233  0.5813756E+02  0.1682463E+02  0.7175042E+02  0.0000000E+00
Ar  9234  0.6084344E+02  0.2030597E+02  0.7203809E+02  0.0000000E+00
Ar  9235  0.6086110E+02  0.1703692E+02  0.7394517E+02  0.0000000E+00
Ar  9236  0.5773914E+02  0.2032395E+02  0.7398584E+02  0.0000000E+00
Ar  9237  0.5856778E+02  0.1820098E+02  0.7738961E+02  0.0000000E+00
Ar  9238  0.6127914E+02  0.2073638E+02  0.7662948E+02  0.0000000E+00
Ar  9239  0.6136127E+02  0.1760983E+02  0.7986276E+02  0.0000000E+00
Ar  9240  0.5797872E+02  0.2036097E+02  0.8022125E+02  0.0000000E+00
Ar  9241  0.5871204E+02  0.2353066E+02  0.8255663E+02  0.0000000E+00
Ar  9242  0.6153473E+02  0.2581417E+02  0.8240406E+02  0.0000000E+00
Ar  9243  0.6080040E+02  0.2292960E+02  0.1451090E+01  0.0000000E+00
Ar  9244  0.5858253E+02  0.2595193E+02  0.1380610E+01  0.0000000E+00
Ar  9245  0.5836749E+02  0.2333494E+02  0.4253519E+01  0.0000000E+00
Ar  9246  0.6179561E+02  0.2593301E+02  0.3578898E+01  0.0000000E+00
Ar  9247  0.6150803E+02  0.2294893E+02  0.6223791E+01  0.0000000E+00
Ar  9248  0.5845334E+02  0.2745236E+02  0.7111016E+01  0.0000000E+00
Ar  9249  0.5914001E+02  0.2314176E+02  0.9543147E+01  0.0000000E+00
Ar  9250  0.6177028E+02  0.2607040E+02  0.8992264E+01  0.0000000E+00
Ar  9251  0.6192196E+02  0.2300116E+02  0.1246696E+02  0.0000000E+00
Ar  9252  0.5996901E+02  0.2643381E+02  0.1205430E+02  0.0000000E+00
Ar  9253  0.5942872E+02  0.2329526E+02  0.1473555E+02  0.0000000E+00
Ar  9254  0.6208872E+02  0.2610347E+02  0.1512893E+02  0.0000000E+00
Ar  9255  0.6165910E+02  0.2283368E+02  0.1838998E+02  0.0000000E+00
Ar  9256  0.5924667E+02  0.2648979E+02  0.1810323E+02  0.0000000E+00
Ar  9257  0.5921254E+02  0.2290565E+02  0.2152978E+02  0.0000000E+00
Ar  9258  0.6177735E+02  0.2558004E+02  0.2147383E+02  0.0000000E+00
Ar  9259  0.6239975E+02  0.2277412E+02  0.2461073E+02  0.0000000E+00
Ar  9260  0.5926913E+02  0.2620883E+02  0.2427432E+02  0.0000000E+00
Ar  9261  0.5961202E+02  0.2234352E+02  0.2687028E+02  0.0000000E+00
Ar  9262  0.6313855E+02  0.2587133E+02  0.2679105E+02  0.0000000E+00
Ar  9263  0.6212508E+02  0.2204983E+02  0.2977566E+02  0.0000000E+00
Ar  9264  0.6023311E+02  0.2541973E+02  0.2914801E+02  0.0000000E+00
Ar  9265  0.5968690E+02  0.2266590E+02  0.3261138E+02  0.0000000E+00
Ar  9266  0.6245408E+02  0.2518000E+02  0.3241449E+02  0.0000000E+00
Ar  9267  0.6263750E+02  0.2241109E+02  0.3480776E+02  0.0000000E+00
Ar  9268  0.6005745E+02  0.2506880E+02  0.3540894E+02  0.0000000E+00
Ar  9269  0.5925899E+02  0.2234384E+02  0.3754157E+02  0.0000000E+00
Ar  9270  0.6303441E+02  0.2544982E+02  0.3835974E+02  0.0000000E+00
Ar  9271  0.6193282E+02  0.2289082E+02  0.4061647E+02  0.0000000E+00
Ar  9272  0.5876597E+02  0.2510496E+02  0.4018048E+02  0.0000000E+00
Ar  9273  0.5848107E+02  0.2060990E+02  0.4573989E+02  0.0000000E+00
Ar  9274  0.6245356E+02  0.2604694E+02  0.4326475E+02  0.0000000E+00
Ar  9275  0.5964896E+02  0.2302743E+02  0.4304735E+02  0.0000000E+00
Ar  9276  0.5895148E+02  0.2589898E+02  0.4620632E+02  0.0000000E+00
Ar  9277  0.5944888E+02  0.2355869E+02  0.4869634E+02  0.0000000E+00
Ar  9278  0.6193276E+02  0.2620838E+02  0.4909243E+02  0.0000000E+00
Ar  9279  0.6189859E+02  0.2381349E+02  0.5274053E+02  0.0000000E+00
Ar  9280  0.5937811E+02  0.2599663E+02  0.5180819E+02  0.0000000E+00
Ar  9281  0.5867570E+02  0.2374176E+02  0.5494497E+02  0.0000000E+00
Ar  9282  0.6222788E+02  0.2596129E+02  0.5518776E+02  0.0000000E+00
Ar  9283  0.6181194E+02  0.2300500E+02  0.5749396E+02  0.0000000E+00
Ar  9284  0.5871041E+02  0.2630656E+02  0.5749018E+02  0.0000000E+00
Ar  9285  0.5850987E+02  0.2309565E+02  0.6047773E+02  0.0000000E+00
Ar  9286  0.6158320E+02  0.2617130E+02  0.6003258E+02  0.0000000E+00
Ar  9287  0.6078834E+02  0.2272470E+02  0.6304461E+02  0.0000000E+00
Ar  9288  0.5883983E+02  0.2591147E+02  0.6330443E+02  0.0000000E+00
Ar  9289  0.5812387E+02  0.2315517E+02  0.6617137E+02  0.0000000E+00
Ar  9290  0.6153834E+02  0.2592956E+02  0.6609247E+02  0.0000000E+00
Ar  9291  0.6083299E+02  0.2254321E+02  0.6820324E+02  0.0000000E+00
Ar  9292  0.5899809E+02  0.2580561E+02  0.6873282E+02  0.0000000E+00
Ar  9293  0.5867390E+02  0.2316184E+02  0.7125722E+02  0.0000000E+00
Ar  9294  0.6176900E+02  0.2558493E+02  0.7161713E+02  0.0000000E+00
Ar  9295  0.6110404E+02  0.2297022E+02  0.7415422E+02  0.0000000E+00
Ar  9296  0.5861285E+02  0.2610002E+02  0.7399053E+02  0.0000000E+00
Ar  9297  0.5848614E+02  0.2273184E+02  0.7688910E+02  0.0000000E+00
Ar  9298  0.6128865E+02  0.2583617E+02  0.7661245E+02  0.0000000E+00
Ar  9299  0.6117509E+02  0.2336936E+02  0.7940935E+02  0.0000000E+00
Ar  9300  0.5858730E+02  0.2555079E+02  0.7941276E+02  0.0000000E+00
Ar  9301  0.5905954E+02  0.2864363E+02  0.8244694E+02  0.0000000E+00
Ar  9302  0.6165176E+02  0.3172175E+02  0.8256751E+02  0.0000000E+00
Ar  9303  0.6156376E+02  0.2851142E+02  0.9407440E+00  0.0000000E+00
Ar  9304  0.5919175E+02  0.3154548E+02  0.1378988E+01  0.0000000E+00
Ar  9305  0.5920583E+02  0.2914285E+02  0.4024823E+01  0.0000000E+00
Ar  9306  0.6177363E+02  0.3215014E+02  0.4064569E+01  0.0000000E+00
Ar  9307  0.6205144E+02  0.2846216E+02  0.6133924E+01  0.0000000E+00
Ar  9308  0.5898569E+02  0.3130627E+02  0.6815994E+01  0.0000000E+00
Ar  9309  0.5896437E+02  0.2905492E+02  0.9849459E+01  0.0000000E+00
Ar  9310  0.6195663E+02  0.3117559E+02  0.9191238E+01  0.0000000E+00
Ar  9311  0.6152063E+02  0.2961013E+02  0.1224361E+02  0.0000000E+00
Ar  9312  0.5855969E+02  0.3178992E+02  0.1267960E+02  0.0000000E+00
Ar  9313  0.5943790E+02  0.2895272E+02  0.1520753E+02  0.0000000E+00
Ar  9314  0.6254704E+02  0.3110973E+02  0.1562121E+02  0.0000000E+00
Ar  9315  0.6238038E+02  0.2812994E+02  0.1837713E+02  0.0000000E+00
Ar  9316  0.5961662E+02  0.3100124E+02  0.1850416E+02  0.0000000E+00
Ar  9317  0.5883554E+02  0.2863465E+02  0.2106335E+02  0.0000000E+00
Ar  9318  0.6193662E+02  0.3065134E+02  0.2077992E+02  0.0000000E+00
Ar  9319  0.6159192E+02  0.2916474E+02  0.2413299E+02  0.0000000E+00
Ar  9320  0.5900386E+02  0.3193409E+02  0.2359079E+02  0.0000000E+00
Ar  9321  0.5921310E+02  0.2844893E+02  0.2740445E+02  0.0000000E+00
Ar  9322  0.6226126E+02  0.3154852E+02  0.2657989E+02  0.0000000E+00
Ar  9323  0.6253017E+02  0.2843355E+02  0.2933581E+02  0.0000000E+00
Ar  9324  0.5907191E+02  0.3109244E+02  0.3011847E+02  0.0000000E+00
Ar  9325  0.5976814E+02  0.2808950E+02  0.3211347E+02  0.0000000E+00
Ar  9326  0.6199416E+02  0.3099563E+02  0.3238314E+02  0.0000000E+00
Ar  9327  0.6179255E+02  0.2847740E+02  0.3528021E+02  0.0000000E+00
Ar  9328  0.5953228E+02  0.3082988E+02  0.3568643E+02  0.0000000E+00
Ar  9329  0.5966554E+02  0.2833123E+02  0.3849057E+02  0.0000000E+00
Ar  9330  0.6253133E+02  0.3116037E+02  0.3772189E+02  0.0000000E+00
Ar  9331  0.6253697E+02  0.2863329E+02  0.4067777E+02  0.0000000E+00
Ar  9332  0.5968615E+02  0.3114960E+02  0.4046334E+02  0.0000000E+00
Ar  9333  0.5894963E+02  0.2796343E+02  0.4316411E+02  0.0000000E+00
Ar  9334  0.6160308E+02  0.3127110E+02  0.4362646E+02  0.0000000E+00
Ar  9335  0.6202855E+02  0.2831745E+02  0.4605108E+02  0.0000000E+00
Ar  9336  0.5913046E+02  0.3165029E+02  0.4600527E+02  0.0000000E+00
Ar  9337  0.5928322E+02  0.2888982E+02  0.4892254E+02  0.0000000E+00
Ar  9338  0.6190758E+02  0.3168043E+02  0.4867351E+02  0.0000000E+00
Ar  9339  0.6156986E+02  0.2864948E+02  0.5219217E+02  0.0000000E+00
Ar  9340  0.5857839E+02  0.3173975E+02  0.5171381E+02  0.0000000E+00
Ar  9341  0.5909575E+02  0.2920317E+02  0.5463689E+02  0.0000000E+00
Ar  9342  0.6197716E+02  0.3204784E+02  0.5487082E+02  0.0000000E+00
Ar  9343  0.6147828E+02  0.2862126E+02  0.5739675E+02  0.0000000E+00
Ar  9344  0.5881066E+02  0.3184817E+02  0.5729167E+02  0.0000000E+00
Ar  9345  0.5885992E+02  0.2898265E+02  0.5978396E+02  0.0000000E+00
Ar  9346  0.6189259E+02  0.3162483E+02  0.5968347E+02  0.0000000E+00
Ar  9347  0.6136521E+02  0.2926274E+02  0.6233059E+02  0.0000000E+00
Ar  9348  0.5899113E+02  0.3183471E+02  0.6243808E+02  0.0000000E+00
Ar  9349  0.5888540E+02  0.2846138E+02  0.6574126E+02  0.0000000E+00
Ar  9350  0.6180143E+02  0.3121343E+02  0.6548655E+02  0.0000000E+00
Ar  9351  0.6162015E+02  0.2893590E+02  0.6881949E+02  0.0000000E+00
Ar  9352  0.5910479E+02  0.3152133E+02  0.6818479E+02  0.0000000E+00
Ar  9353  0.5886730E+02  0.2823521E+02  0.7143076E+02  0.0000000E+00
Ar  9354  0.6201963E+02  0.3128906E+02  0.7151950E+02  0.0000000E+00
Ar  9355  0.6132279E+02  0.2876888E+02  0.7436669E+02  0.0000000E+00
Ar  9356  0.5872867E+02  0.3195807E+02  0.7456811E+02  0.0000000E+00
Ar  9357  0.5852632E+02  0.2864410E+02  0.7644584E+02  0.0000000E+00
Ar  9358  0.6136198E+02  0.3139120E+02  0.7719958E+02  0.0000000E+00
Ar  9359  0.6150627E+02  0.2833569E+02  0.7962251E+02  0.0000000E+00
Ar  9360  0.5918993E+02  0.3167526E+02  0.8010853E+02  0.0000000E+00
Ar  9361  0.5895902E+02  0.3420719E+02  0.8256979E+02  0.0000000E+00
Ar  9362  0.6151611E+02  0.3692873E+02  0.8268283E+02  0.0000000E+00
Ar  9363  0.6201993E+02  0.3438276E+02  0.1061383E+01  0.0000000E+00
Ar  9364  0.5942166E+02  0.3694242E+02  0.1473636E+01  0.0000000E+00
Ar  9365  0.5877796E+02  0.3422631E+02  0.4494058E+01  0.0000000E+00
Ar  9366  0.6185130E+02  0.3636210E+02  0.4605542E+01  0.0000000E+00
Ar  9367  0.6157995E+02  0.3417052E+02  0.7480139E+01  0.0000000E+00
Ar  9368  0.5890190E+02  0.3688950E+02  0.7612799E+01  0.0000000E+00
Ar  9369  0.5883590E+02  0.3378633E+02  0.1007477E+02  0.0000000E+00
Ar  9370  0.6140261E+02  0.3651284E+02  0.1018525E+02  0.0000000E+00
Ar  9371  0.6172126E+02  0.3370128E+02  0.1273254E+02  0.0000000E+00
Ar  9372  0.5872237E+02  0.3587576E+02  0.1309869E+02  0.0000000E+00
Ar  9373  0.5890042E+02  0.3363222E+02  0.1604533E+02  0.0000000E+00
Ar  9374  0.6211372E+02  0.3602401E+02  0.1566440E+02  0.0000000E+00
Ar  9375  0.6224605E+02  0.3336832E+02  0.1815317E+02  0.0000000E+00
Ar  9376  0.5890678E+02  0.3670136E+02  0.1760157E+02  0.0000000E+00
Ar  9377  0.5955040E+02  0.3429494E+02  0.2042314E+02  0.0000000E+00
Ar  9378  0.6206378E+02  0.3678900E+02  0.2110009E+02  0.0000000E+00
Ar  9379  0.6252834E+02  0.3412970E+02  0.2370555E+02  0.0000000E+00
Ar  9380  0.5942256E+02  0.3624696E+02  0.2394468E+02  0.0000000E+00
Ar  9381  0.5916715E+02  0.3409937E+02  0.2661997E+02  0.0000000E+00
Ar  9382  0.6222603E+02  0.3728662E+02  0.2638941E+02  0.0000000E+00
Ar  9383  0.6284634E+02  0.3394305E+02  0.2910920E+02  0.0000000E+00
Ar  9384  0.5914090E+02  0.3720652E+02  0.2914231E+02  0.0000000E+00
Ar  9385  0.5987363E+02  0.3399901E+02  0.3242028E+02  0.0000000E+00
Ar  9386  0.6262192E+02  0.3717056E+02  0.3180054E+02  0.0000000E+00
Ar  9387  0.6263569E+02  0.3393612E+02  0.3547972E+02  0.0000000E+00
Ar  9388  0.5920876E+02  0.3619965E+02  0.3528888E+02  0.0000000E+00
Ar  9389  0.5950388E+02  0.3404586E+02  0.3794231E+02  0.0000000E+00
Ar  9390  0.6216611E+02  0.3698148E+02  0.3808669E+02  0.0000000E+00
Ar  9391  0.6172721E+02  0.3389720E+02  0.4074345E+02  0.0000000E+00
Ar  9392  0.5948186E+02  0.3712306E+02  0.4064889E+02  0.0000000E+00
Ar  9393  0.5918619E+02  0.3446929E+02  0.4314581E+02  0.0000000E+00
Ar  9394  0.6237535E+02  0.3738797E+02  0.4335748E+02  0.0000000E+00
Ar  9395  0.6186050E+02  0.3452231E+02  0.4605427E+02  0.0000000E+00
Ar  9396  0.5856460E+02  0.3674287E+02  0.4610560E+02  0.0000000E+00
Ar  9397  0.5919015E+02  0.3423420E+02  0.4855938E+02  0.0000000E+00
Ar  9398  0.6119641E+02  0.3706386E+02  0.4874796E+02  0.0000000E+00
Ar  9399  0.6159878E+02  0.3421816E+02  0.5175668E+02  0.0000000E+00
Ar  9400  0.5823353E+02  0.3735454E+02  0.5166734E+02  0.0000000E+00
Ar  9401  0.5855627E+02  0.3429859E+02  0.5455607E+02  0.0000000E+00
Ar  9402  0.6119113E+02  0.3712525E+02  0.5427544E+02  0.0000000E+00
Ar  9403  0.6136932E+02  0.3470931E+02  0.5697219E+02  0.0000000E+00
Ar  9404  0.5904345E+02  0.3825152E+02  0.5763377E+02  0.0000000E+00
Ar  9405  0.5933160E+02  0.3440792E+02  0.5986227E+02  0.0000000E+00
Ar  9406  0.6178155E+02  0.3788004E+02  0.6003896E+02  0.0000000E+00
Ar  9407  0.6164095E+02  0.3474452E+02  0.6227753E+02  0.0000000E+00
Ar  9408  0.5910204E+02  0.3724153E+02  0.6309226E+02  0.0000000E+00
Ar  9409  0.5923777E+02  0.3440055E+02  0.6566729E+02  0.0000000E+00
Ar  9410  0.6203290E+02  0.3723311E+02  0.6573066E+02  0.0000000E+00
Ar  9411  0.6140512E+02  0.3413425E+02  0.6835953E+02  0.0000000E+00
Ar  9412  0.5906845E+02  0.3714586E+02  0.6911971E+02  0.0000000E+00
Ar  9413  0.5951522E+02  0.3417007E+02  0.7110343E+02  0.0000000E+00
Ar  9414  0.6165860E+02  0.3721839E+02  0.7171894E+02  0.0000000E+00
Ar  9415  0.6164781E+02  0.3439407E+02  0.7511043E+02  0.0000000E+00
Ar  9416  0.5885826E+02  0.3709403E+02  0.7464013E+02  0.0000000E+00
Ar  9417  0.5846441E+02  0.3466917E+02  0.7750737E+02  0.0000000E+00
Ar  9418  0.6164521E+02  0.3692841E+02  0.7762581E+02  0.0000000E+00
Ar  9419  0.6183727E+02  0.3450794E+02  0.8037330E+02  0.0000000E+00
Ar  9420  0.5884575E+02  0.3704855E+02  0.7999713E+02  0.0000000E+00
Ar  9421  0.5900208E+02  0.3960711E+02  0.8313959E+02  0.0000000E+00
Ar  9422  0.6124425E+02  0.4272484E+02  0.8240452E+02  0.0000000E+00
Ar  9423  0.6218447E+02  0.3956235E+02  0.1509493E+01  0.0000000E+00
Ar  9424  0.5941837E+02  0.4233606E+02  0.1892447E+01  0.0000000E+00
Ar  9425  0.5947647E+02  0.3898049E+02  0.4930919E+01  0.0000000E+00
Ar  9426  0.6230264E+02  0.4257893E+02  0.3924100E+01  0.0000000E+00
Ar  9427  0.6225018E+02  0.3895035E+02  0.7238618E+01  0.0000000E+00
Ar  9428  0.5853148E+02  0.4245711E+02  0.7221296E+01  0.0000000E+00
Ar  9429  0.5885079E+02  0.4023839E+02  0.1051072E+02  0.0000000E+00
Ar  9430  0.6167371E+02  0.4201387E+02  0.9110195E+01  0.0000000E+00
Ar  9431  0.6183036E+02  0.3917919E+02  0.1278041E+02  0.0000000E+00
Ar  9432  0.5916083E+02  0.4254976E+02  0.1331855E+02  0.0000000E+00
Ar  9433  0.5899465E+02  0.3991956E+02  0.1537797E+02  0.0000000E+00
Ar  9434  0.6218150E+02  0.4256238E+02  0.1608963E+02  0.0000000E+00
Ar  9435  0.6193510E+02  0.3962784E+02  0.1776952E+02  0.0000000E+00
Ar  9436  0.5871369E+02  0.4259134E+02  0.1802653E+02  0.0000000E+00
Ar  9437  0.5908982E+02  0.3951165E+02  0.2030040E+02  0.0000000E+00
Ar  9438  0.6201580E+02  0.4240223E+02  0.2105744E+02  0.0000000E+00
Ar  9439  0.6191686E+02  0.3944543E+02  0.2326036E+02  0.0000000E+00
Ar  9440  0.5978543E+02  0.4246118E+02  0.2349845E+02  0.0000000E+00
Ar  9441  0.5929253E+02  0.3921876E+02  0.2605038E+02  0.0000000E+00
Ar  9442  0.6194428E+02  0.4248547E+02  0.2705175E+02  0.0000000E+00
Ar  9443  0.6242939E+02  0.4004133E+02  0.2954730E+02  0.0000000E+00
Ar  9444  0.5889660E+02  0.4218984E+02  0.2897815E+02  0.0000000E+00
Ar  9445  0.5939294E+02  0.3984009E+02  0.3207160E+02  0.0000000E+00
Ar  9446  0.6203028E+02  0.4260686E+02  0.3169099E+02  0.0000000E+00
Ar  9447  0.6193593E+02  0.3918151E+02  0.3468162E+02  0.0000000E+00
Ar  9448  0.5978171E+02  0.4282803E+02  0.3455249E+02  0.0000000E+00
Ar  9449  0.5948431E+02  0.3957019E+02  0.3778343E+02  0.0000000E+00
Ar  9450  0.6202711E+02  0.4244927E+02  0.3719191E+02  0.0000000E+00
Ar  9451  0.6217821E+02  0.4019626E+02  0.4091571E+02  0.0000000E+00
Ar  9452  0.5949008E+02  0.4234424E+02  0.4015357E+02  0.0000000E+00
Ar  9453  0.5885060E+02  0.3975050E+02  0.4306423E+02  0.0000000E+00
Ar  9454  0.6124258E+02  0.4241820E+02  0.4368804E+02  0.0000000E+00
Ar  9455  0.6106753E+02  0.3962840E+02  0.4595251E+02  0.0000000E+00
Ar  9456  0.5827091E+02  0.4281750E+02  0.4577223E+02  0.0000000E+00
Ar  9457  0.5804845E+02  0.3967347E+02  0.4870761E+02  0.0000000E+00
Ar  9458  0.6179153E+02  0.4282635E+02  0.4896299E+02  0.0000000E+00
Ar  9459  0.6196914E+02  0.4007373E+02  0.5187040E+02  0.0000000E+00
Ar  9460  0.5852339E+02  0.4238165E+02  0.5106838E+02  0.0000000E+00
Ar  9461  0.5864282E+02  0.4060437E+02  0.5427441E+02  0.0000000E+00
Ar  9462  0.6215541E+02  0.4260214E+02  0.5423990E+02  0.0000000E+00
Ar  9463  0.6191583E+02  0.4009091E+02  0.5684623E+02  0.0000000E+00
Ar  9464  0.5902359E+02  0.4262492E+02  0.5757838E+02  0.0000000E+00
Ar  9465  0.5904775E+02  0.4055405E+02  0.6061744E+02  0.0000000E+00
Ar  9466  0.6226180E+02  0.4233953E+02  0.5972189E+02  0.0000000E+00
Ar  9467  0.6187836E+02  0.3990132E+02  0.6337039E+02  0.0000000E+00
Ar  9468  0.5902618E+02  0.4291869E+02  0.6363267E+02  0.0000000E+00
Ar  9469  0.5888201E+02  0.4017613E+02  0.6620715E+02  0.0000000E+00
Ar  9470  0.6185130E+02  0.4281703E+02  0.6576990E+02  0.0000000E+00
Ar  9471  0.6165875E+02  0.3973128E+02  0.6874320E+02  0.0000000E+00
Ar  9472  0.5964807E+02  0.4270873E+02  0.6873182E+02  0.0000000E+00
Ar  9473  0.5883551E+02  0.3941392E+02  0.7180597E+02  0.0000000E+00
Ar  9474  0.6185319E+02  0.4311590E+02  0.7197950E+02  0.0000000E+00
Ar  9475  0.6124880E+02  0.3989860E+02  0.7475868E+02  0.0000000E+00
Ar  9476  0.5896544E+02  0.4248107E+02  0.7413778E+02  0.0000000E+00
Ar  9477  0.5830483E+02  0.4007717E+02  0.7726192E+02  0.0000000E+00
Ar  9478  0.6156269E+02  0.4290150E+02  0.7688131E+02  0.0000000E+00
Ar  9479  0.6109665E+02  0.3996885E+02  0.7963927E+02  0.0000000E+00
Ar  9480  0.5848149E+02  0.4293236E+02  0.7984790E+02  0.0000000E+00
Ar  9481  0.5893935E+02  0.4530333E+02  0.8296349E+02  0.0000000E+00
Ar  9482  0.6165197E+02  0.4829202E+02  0.8281068E+02  0.0000000E+00
Ar  9483  0.6173615E+02  0.4537756E+02  0.1151831E+01  0.0000000E+00
Ar  9484  0.5913685E+02  0.4849348E+02  0.1476587E+01  0.0000000E+00
Ar  9485  0.5861728E+02  0.4507158E+02  0.4417691E+01  0.0000000E+00
Ar  9486  0.6142269E+02  0.4774102E+02  0.4585271E+01  0.0000000E+00
Ar  9487  0.6146456E+02  0.4554112E+02  0.7597852E+01  0.0000000E+00
Ar  9488  0.5883916E+02  0.4826276E+02  0.6702064E+01  0.0000000E+00
Ar  9489  0.5864396E+02  0.4538483E+02  0.1070455E+02  0.0000000E+00
Ar  9490  0.6156015E+02  0.4886923E+02  0.1033298E+02  0.0000000E+00
Ar  9491  0.6230304E+02  0.4503008E+02  0.1257578E+02  0.0000000E+00
Ar  9492  0.5962791E+02  0.4795707E+02  0.1320419E+02  0.0000000E+00
Ar  9493  0.5951910E+02  0.4523489E+02  0.1606619E+02  0.0000000E+00
Ar  9494  0.6237451E+02  0.4821039E+02  0.1624202E+02  0.0000000E+00
Ar  9495  0.6249340E+02  0.4558370E+02  0.1847685E+02  0.0000000E+00
Ar  9496  0.5968971E+02  0.4796984E+02  0.1856867E+02  0.0000000E+00
Ar  9497  0.5897533E+02  0.4546944E+02  0.2100600E+02  0.0000000E+00
Ar  9498  0.6235279E+02  0.4799287E+02  0.2117298E+02  0.0000000E+00
Ar  9499  0.6219341E+02  0.4513730E+02  0.2368800E+02  0.0000000E+00
Ar  9500  0.5937713E+02  0.4798214E+02  0.2387778E+02  0.0000000E+00
Ar  9501  0.5963478E+02  0.4548580E+02  0.2675755E+02  0.0000000E+00
Ar  9502  0.6190545E+02  0.4831455E+02  0.2646508E+02  0.0000000E+00
Ar  9503  0.6180969E+02  0.4542073E+02  0.2958643E+02  0.0000000E+00
Ar  9504  0.5878866E+02  0.4820313E+02  0.2921476E+02  0.0000000E+00
Ar  9505  0.5923428E+02  0.4528507E+02  0.3247162E+02  0.0000000E+00
Ar  9506  0.6197934E+02  0.4869083E+02  0.3186780E+02  0.0000000E+00
Ar  9507  0.6249847E+02  0.4542842E+02  0.3460436E+02  0.0000000E+00
Ar  9508  0.5978297E+02  0.4822983E+02  0.3491646E+02  0.0000000E+00
Ar  9509  0.6014430E+02  0.4557235E+02  0.3738566E+02  0.0000000E+00
Ar  9510  0.6223196E+02  0.4820559E+02  0.3789776E+02  0.0000000E+00
Ar  9511  0.6199128E+02  0.4477833E+02  0.4073451E+02  0.0000000E+00
Ar  9512  0.5898697E+02  0.4803720E+02  0.4030818E+02  0.0000000E+00
Ar  9513  0.5888519E+02  0.4586770E+02  0.4345394E+02  0.0000000E+00
Ar  9514  0.6146448E+02  0.4804024E+02  0.4329619E+02  0.0000000E+00
Ar  9515  0.6168269E+02  0.4524953E+02  0.4580557E+02  0.0000000E+00
Ar  9516  0.5866564E+02  0.4811413E+02  0.4617743E+02  0.0000000E+00
Ar  9517  0.5880508E+02  0.4564122E+02  0.4918663E+02  0.0000000E+00
Ar  9518  0.6148249E+02  0.4789605E+02  0.4908487E+02  0.0000000E+00
Ar  9519  0.6130335E+02  0.4543490E+02  0.5159913E+02  0.0000000E+00
Ar  9520  0.5867289E+02  0.4819418E+02  0.5190180E+02  0.0000000E+00
Ar  9521  0.5840011E+02  0.4507255E+02  0.5437307E+02  0.0000000E+00
Ar  9522  0.6166678E+02  0.4781217E+02  0.5442797E+02  0.0000000E+00
Ar  9523  0.6181724E+02  0.4540081E+02  0.5683924E+02  0.0000000E+00
Ar  9524  0.5872733E+02  0.4719514E+02  0.5708937E+02  0.0000000E+00
Ar  9525  0.5894544E+02  0.4467316E+02  0.6026199E+02  0.0000000E+00
Ar  9526  0.6165362E+02  0.4801992E+02  0.5998491E+02  0.0000000E+00
Ar  9527  0.6114655E+02  0.4590137E+02  0.6263953E+02  0.0000000E+00
Ar  9528  0.5831351E+02  0.4740665E+02  0.6301054E+02  0.0000000E+00
Ar  9529  0.5961519E+02  0.4566277E+02  0.6669710E+02  0.0000000E+00
Ar  9530  0.6143207E+02  0.4843886E+02  0.6624075E+02  0.0000000E+00
Ar  9531  0.6197739E+02  0.4577973E+02  0.6911123E+02  0.0000000E+00
Ar  9532  0.5893745E+02  0.4855284E+02  0.6935243E+02  0.0000000E+00
Ar  9533  0.5880381E+02  0.4521902E+02  0.7198835E+02  0.0000000E+00
Ar  9534  0.6154826E+02  0.4865359E+02  0.7171744E+02  0.0000000E+00
Ar  9535  0.6186535E+02  0.4602514E+02  0.7415396E+02  0.0000000E+00
Ar  9536  0.5865542E+02  0.4821123E+02  0.7392173E+02  0.0000000E+00
Ar  9537  0.5877855E+02  0.4558552E+02  0.7676503E+02  0.0000000E+00
Ar  9538  0.6186047E+02  0.4811663E+02  0.7699462E+02  0.0000000E+00
Ar  9539  0.6122899E+02  0.4538020E+02  0.7964346E+02  0.0000000E+00
Ar  9540  0.5865323E+02  0.4791315E+02  0.7952324E+02  0.0000000E+00
Ar  9541  0.5853162E+02  0.5157054E+02  0.8252571E+02  0.0000000E+00
Ar  9542  0.6099917E+02  0.5425682E+02  0.8248387E+02  0.0000000E+00
Ar  9543  0.6140708E+02  0.5140099E+02  0.1225782E+01  0.0000000E+00
Ar  9544  0.5855944E+02  0.5423568E+02  0.1477014E+01  0.0000000E+00
Ar  9545  0.5848201E+02  0.5102868E+02  0.4248209E+01  0.0000000E+00
Ar  9546  0.6131149E+02  0.5350643E+02  0.4462421E+01  0.0000000E+00
Ar  9547  0.6122618E+02  0.5057461E+02  0.7278399E+01  0.0000000E+00
Ar  9548  0.5899774E+02  0.5400013E+02  0.7127868E+01  0.0000000E+00
Ar  9549  0.5889043E+02  0.5129041E+02  0.9772453E+01  0.0000000E+00
Ar  9550  0.6186741E+02  0.5373580E+02  0.9842998E+01  0.0000000E+00
Ar  9551  0.6189097E+02  0.5145535E+02  0.1287112E+02  0.0000000E+00
Ar  9552  0.5899930E+02  0.5445773E+02  0.1235885E+02  0.0000000E+00
Ar  9553  0.5921192E+02  0.5064589E+02  0.1609690E+02  0.0000000E+00
Ar  9554  0.6114954E+02  0.5370811E+02  0.1556086E+02  0.0000000E+00
Ar  9555  0.6203720E+02  0.5072928E+02  0.1869041E+02  0.0000000E+00
Ar  9556  0.5858940E+02  0.5323299E+02  0.1880775E+02  0.0000000E+00
Ar  9557  0.5898754E+02  0.5033507E+02  0.2119171E+02  0.0000000E+00
Ar  9558  0.6196288E+02  0.5405033E+02  0.2127891E+02  0.0000000E+00
Ar  9559  0.6174478E+02  0.5061891E+02  0.2357380E+02  0.0000000E+00
Ar  9560  0.5938801E+02  0.5331866E+02  0.2416122E+02  0.0000000E+00
Ar  9561  0.5914316E+02  0.5046887E+02  0.2691057E+02  0.0000000E+00
Ar  9562  0.6143768E+02  0.5350790E+02  0.2690290E+02  0.0000000E+00
Ar  9563  0.6190285E+02  0.5121352E+02  0.2944588E+02  0.0000000E+00
Ar  9564  0.5889483E+02  0.5373958E+02  0.2991376E+02  0.0000000E+00
Ar  9565  0.5908106E+02  0.5096806E+02  0.3216580E+02  0.0000000E+00
Ar  9566  0.6185275E+02  0.5368942E+02  0.3272512E+02  0.0000000E+00
Ar  9567  0.6197808E+02  0.5099525E+02  0.3521134E+02  0.0000000E+00
Ar  9568  0.5908835E+02  0.5352621E+02  0.3517332E+02  0.0000000E+00
Ar  9569  0.5979100E+02  0.5075113E+02  0.3791389E+02  0.0000000E+00
Ar  9570  0.6177581E+02  0.5380262E+02  0.3820916E+02  0.0000000E+00
Ar  9571  0.6141036E+02  0.5129254E+02  0.4136368E+02  0.0000000E+00
Ar  9572  0.5891643E+02  0.5354631E+02  0.4020171E+02  0.0000000E+00
Ar  9573  0.5889169E+02  0.5131934E+02  0.4387535E+02  0.0000000E+00
Ar  9574  0.6213275E+02  0.5358609E+02  0.4465343E+02  0.0000000E+00
Ar  9575  0.6162722E+02  0.5045074E+02  0.4627839E+02  0.0000000E+00
Ar  9576  0.5916776E+02  0.5370040E+02  0.4694527E+02  0.0000000E+00
Ar  9577  0.5862858E+02  0.5082433E+02  0.4918345E+02  0.0000000E+00
Ar  9578  0.6172752E+02  0.5374828E+02  0.4970345E+02  0.0000000E+00
Ar  9579  0.6150338E+02  0.5025235E+02  0.5187428E+02  0.0000000E+00
Ar  9580  0.5861854E+02  0.5279110E+02  0.5219072E+02  0.0000000E+00
Ar  9581  0.5909819E+02  0.5039157E+02  0.5463445E+02  0.0000000E+00
Ar  9582  0.6143219E+02  0.5309387E+02  0.5466624E+02  0.0000000E+00
Ar  9583  0.6126989E+02  0.5057412E+02  0.5717517E+02  0.0000000E+00
Ar  9584  0.5841902E+02  0.5324845E+02  0.5771942E+02  0.0000000E+00
Ar  9585  0.5816455E+02  0.5106028E+02  0.6045761E+02  0.0000000E+00
Ar  9586  0.6193384E+02  0.5403597E+02  0.5950353E+02  0.0000000E+00
Ar  9587  0.6158202E+02  0.5185309E+02  0.6279226E+02  0.0000000E+00
Ar  9588  0.5876391E+02  0.5433766E+02  0.6218878E+02  0.0000000E+00
Ar  9589  0.5877970E+02  0.5106376E+02  0.6693155E+02  0.0000000E+00
Ar  9590  0.6132023E+02  0.5482738E+02  0.6507217E+02  0.0000000E+00
Ar  9591  0.6222769E+02  0.5116890E+02  0.6882593E+02  0.0000000E+00
Ar  9592  0.5818922E+02  0.5439367E+02  0.6824989E+02  0.0000000E+00
Ar  9593  0.5904312E+02  0.5121366E+02  0.7198456E+02  0.0000000E+00
Ar  9594  0.6103918E+02  0.5457370E+02  0.7134300E+02  0.0000000E+00
Ar  9595  0.6152957E+02  0.5091303E+02  0.7451372E+02  0.0000000E+00
Ar  9596  0.5853821E+02  0.5409114E+02  0.7427599E+02  0.0000000E+00
Ar  9597  0.5915113E+02  0.5092115E+02  0.7704251E+02  0.0000000E+00
Ar  9598  0.6109731E+02  0.5418614E+02  0.7651775E+02  0.0000000E+00
Ar  9599  0.6123426E+02  0.5112885E+02  0.8031410E+02  0.0000000E+00
Ar  9600  0.5833886E+02  0.5438314E+02  0.7985640E+02  0.0000000E+00
Ar  9601  0.5842083E+02  0.5661343E+02  0.8272528E+02  0.0000000E+00
Ar  9602  0.6112026E+02  0.6016307E+02  0.8240553E+02  0.0000000E+00
Ar  9603  0.6156936E+02  0.5635343E+02  0.1616107E+01  0.0000000E+00
Ar  9604  0.5901885E+02  0.5931474E+02  0.8815932E+00  0.0000000E+00
Ar  9605  0.5801647E+02  0.5715816E+02  0.4110527E+01  0.0000000E+00
Ar  9606  0.6177064E+02  0.5896615E+02  0.4268087E+01  0.0000000E+00
Ar  9607  0.6192031E+02  0.5667532E+02  0.7037941E+01  0.0000000E+00
Ar  9608  0.5829559E+02  0.5927635E+02  0.6971264E+01  0.0000000E+00
Ar  9609  0.5840293E+02  0.5707133E+02  0.9825436E+01  0.0000000E+00
Ar  9610  0.6134241E+02  0.5932948E+02  0.1046378E+02  0.0000000E+00
Ar  9611  0.6181214E+02  0.5665048E+02  0.1290135E+02  0.0000000E+00
Ar  9612  0.5881427E+02  0.5966337E+02  0.1273691E+02  0.0000000E+00
Ar  9613  0.5871504E+02  0.5698732E+02  0.1501162E+02  0.0000000E+00
Ar  9614  0.6183658E+02  0.5952468E+02  0.1532841E+02  0.0000000E+00
Ar  9615  0.6116310E+02  0.5623680E+02  0.1836713E+02  0.0000000E+00
Ar  9616  0.5922519E+02  0.5978977E+02  0.1789051E+02  0.0000000E+00
Ar  9617  0.5849943E+02  0.5587756E+02  0.2094444E+02  0.0000000E+00
Ar  9618  0.6182067E+02  0.5922327E+02  0.2034956E+02  0.0000000E+00
Ar  9619  0.6118678E+02  0.5638208E+02  0.2380235E+02  0.0000000E+00
Ar  9620  0.5850996E+02  0.5906905E+02  0.2321203E+02  0.0000000E+00
Ar  9621  0.5975322E+02  0.5683777E+02  0.2748728E+02  0.0000000E+00
Ar  9622  0.6196843E+02  0.6014652E+02  0.2619423E+02  0.0000000E+00
Ar  9623  0.6181142E+02  0.5657541E+02  0.3036548E+02  0.0000000E+00
Ar  9624  0.5916374E+02  0.5957951E+02  0.2959783E+02  0.0000000E+00
Ar  9625  0.5926061E+02  0.5623269E+02  0.3265235E+02  0.0000000E+00
Ar  9626  0.6133493E+02  0.5906232E+02  0.3266334E+02  0.0000000E+00
Ar  9627  0.6170794E+02  0.5627778E+02  0.3524643E+02  0.0000000E+00
Ar  9628  0.5875855E+02  0.5949658E+02  0.3564021E+02  0.0000000E+00
Ar  9629  0.5913545E+02  0.5665501E+02  0.3808941E+02  0.0000000E+00
Ar  9630  0.6192542E+02  0.5933596E+02  0.3824659E+02  0.0000000E+00
Ar  9631  0.6201103E+02  0.5688416E+02  0.4122347E+02  0.0000000E+00
Ar  9632  0.5889219E+02  0.5923684E+02  0.4064109E+02  0.0000000E+00
Ar  9633  0.5956424E+02  0.5562765E+02  0.4379702E+02  0.0000000E+00
Ar  9634  0.6226714E+02  0.5927410E+02  0.4387527E+02  0.0000000E+00
Ar  9635  0.6229000E+02  0.5626229E+02  0.4693210E+02  0.0000000E+00
Ar  9636  0.5909032E+02  0.5847852E+02  0.4678979E+02  0.0000000E+00
Ar  9637  0.5853978E+02  0.5634246E+02  0.5024039E+02  0.0000000E+00
Ar  9638  0.6192685E+02  0.5838356E+02  0.5028940E+02  0.0000000E+00
Ar  9639  0.6136236E+02  0.5605659E+02  0.5279790E+02  0.0000000E+00
Ar  9640  0.5883241E+02  0.5926170E+02  0.5261197E+02  0.0000000E+00
Ar  9641  0.5856980E+02  0.5585705E+02  0.5508900E+02  0.0000000E+00
Ar  9642  0.6132331E+02  0.5958447E+02  0.5496301E+02  0.0000000E+00
Ar  9643  0.6119271E+02  0.5670050E+02  0.5734664E+02  0.0000000E+00
Ar  9644  0.5827076E+02  0.5959564E+02  0.5704198E+02  0.0000000E+00
Ar  9645  0.5824854E+02  0.5694735E+02  0.5995566E+02  0.0000000E+00
Ar  9646  0.6181692E+02  0.6004351E+02  0.5966201E+02  0.0000000E+00
Ar  9647  0.6105272E+02  0.5683909E+02  0.6199267E+02  0.0000000E+00
Ar  9648  0.5878426E+02  0.5957278E+02  0.6237424E+02  0.0000000E+00
Ar  9649  0.5811626E+02  0.5706474E+02  0.6505383E+02  0.0000000E+00
Ar  9650  0.6092056E+02  0.5906625E+02  0.6582687E+02  0.0000000E+00
Ar  9651  0.6137079E+02  0.5674875E+02  0.6845237E+02  0.0000000E+00
Ar  9652  0.5875562E+02  0.5961615E+02  0.6829395E+02  0.0000000E+00
Ar  9653  0.5829594E+02  0.5722560E+02  0.7173531E+02  0.0000000E+00
Ar  9654  0.6153913E+02  0.5916085E+02  0.7131687E+02  0.0000000E+00
Ar  9655  0.6105807E+02  0.5701636E+02  0.7394875E+02  0.0000000E+00
Ar  9656  0.5844680E+02  0.5966405E+02  0.7442679E+02  0.0000000E+00
Ar  9657  0.5848161E+02  0.5687249E+02  0.7679866E+02  0.0000000E+00
Ar  9658  0.6131382E+02  0.5945579E+02  0.7727463E+02  0.0000000E+00
Ar  9659  0.6127834E+02  0.5693800E+02  0.8022316E+02  0.0000000E+00
Ar  9660  0.5856569E+02  0.5931422E+02  0.7978342E+02  0.0000000E+00
Ar  9661  0.5834968E+02  0.6232570E+02  0.8247670E+02  0.0000000E+00
Ar  9662  0.6095398E+02  0.6466701E+02  0.8286328E+02  0.0000000E+00
Ar  9663  0.6091268E+02  0.6221028E+02  0.1575525E+01  0.0000000E+00
Ar  9664  0.5897774E+02  0.6779296E+02  0.3708472E+01  0.0000000E+00
Ar  9665  0.5821993E+02  0.6203049E+02  0.3870326E+01  0.0000000E+00
Ar  9666  0.6142190E+02  0.6490203E+02  0.3711268E+01  0.0000000E+00
Ar  9667  0.6126644E+02  0.6172693E+02  0.7058073E+01  0.0000000E+00
Ar  9668  0.5889137E+02  0.6435633E+02  0.6949248E+01  0.0000000E+00
Ar  9669  0.5851121E+02  0.6195246E+02  0.1027881E+02  0.0000000E+00
Ar  9670  0.6156216E+02  0.6494597E+02  0.9162927E+01  0.0000000E+00
Ar  9671  0.6186297E+02  0.6220911E+02  0.1232666E+02  0.0000000E+00
Ar  9672  0.5914471E+02  0.6481559E+02  0.1207124E+02  0.0000000E+00
Ar  9673  0.5912536E+02  0.6248808E+02  0.1553846E+02  0.0000000E+00
Ar  9674  0.6110709E+02  0.6530096E+02  0.1479991E+02  0.0000000E+00
Ar  9675  0.6211911E+02  0.6216089E+02  0.1814129E+02  0.0000000E+00
Ar  9676  0.5948604E+02  0.6501585E+02  0.1833222E+02  0.0000000E+00
Ar  9677  0.5891129E+02  0.6208824E+02  0.2075960E+02  0.0000000E+00
Ar  9678  0.6123072E+02  0.6468980E+02  0.2134047E+02  0.0000000E+00
Ar  9679  0.6139318E+02  0.6149827E+02  0.2326813E+02  0.0000000E+00
Ar  9680  0.5935138E+02  0.6431376E+02  0.2466132E+02  0.0000000E+00
Ar  9681  0.5881488E+02  0.6197388E+02  0.2719459E+02  0.0000000E+00
Ar  9682  0.6198977E+02  0.6531941E+02  0.2767543E+02  0.0000000E+00
Ar  9683  0.6183641E+02  0.6178366E+02  0.2928163E+02  0.0000000E+00
Ar  9684  0.5909456E+02  0.6518665E+02  0.3011785E+02  0.0000000E+00
Ar  9685  0.5929641E+02  0.6266505E+02  0.3238079E+02  0.0000000E+00
Ar  9686  0.6188449E+02  0.6563452E+02  0.3228581E+02  0.0000000E+00
Ar  9687  0.6142447E+02  0.6146685E+02  0.3547692E+02  0.0000000E+00
Ar  9688  0.5921172E+02  0.6521018E+02  0.3513190E+02  0.0000000E+00
Ar  9689  0.5937126E+02  0.6232045E+02  0.3843635E+02  0.0000000E+00
Ar  9690  0.6198077E+02  0.6503364E+02  0.3794709E+02  0.0000000E+00
Ar  9691  0.6181244E+02  0.6190832E+02  0.4124375E+02  0.0000000E+00
Ar  9692  0.5891279E+02  0.6507265E+02  0.4095368E+02  0.0000000E+00
Ar  9693  0.5911587E+02  0.6156121E+02  0.4413098E+02  0.0000000E+00
Ar  9694  0.6118313E+02  0.6463063E+02  0.4385445E+02  0.0000000E+00
Ar  9695  0.6192530E+02  0.6128296E+02  0.4695283E+02  0.0000000E+00
Ar  9696  0.5844442E+02  0.6483779E+02  0.4673940E+02  0.0000000E+00
Ar  9697  0.5894635E+02  0.6183898E+02  0.4978317E+02  0.0000000E+00
Ar  9698  0.6189507E+02  0.6464509E+02  0.4879505E+02  0.0000000E+00
Ar  9699  0.6179261E+02  0.6220307E+02  0.5170565E+02  0.0000000E+00
Ar  9700  0.5816187E+02  0.6504073E+02  0.5233616E+02  0.0000000E+00
Ar  9701  0.5905063E+02  0.6263598E+02  0.5513789E+02  0.0000000E+00
Ar  9702  0.6148506E+02  0.6520637E+02  0.5445532E+02  0.0000000E+00
Ar  9703  0.6161771E+02  0.6312363E+02  0.5746469E+02  0.0000000E+00
Ar  9704  0.5860809E+02  0.6540130E+02  0.5799366E+02  0.0000000E+00
Ar  9705  0.5887821E+02  0.6222437E+02  0.6009938E+02  0.0000000E+00
Ar  9706  0.6213465E+02  0.6450364E+02  0.6070984E+02  0.0000000E+00
Ar  9707  0.6165449E+02  0.6222318E+02  0.6347064E+02  0.0000000E+00
Ar  9708  0.5927808E+02  0.6507930E+02  0.6366801E+02  0.0000000E+00
Ar  9709  0.5870504E+02  0.6185859E+02  0.6566537E+02  0.0000000E+00
Ar  9710  0.6200151E+02  0.6471088E+02  0.6593677E+02  0.0000000E+00
Ar  9711  0.6173170E+02  0.6147953E+02  0.6851896E+02  0.0000000E+00
Ar  9712  0.5931846E+02  0.6468474E+02  0.6814332E+02  0.0000000E+00
Ar  9713  0.5911680E+02  0.6155606E+02  0.7138356E+02  0.0000000E+00
Ar  9714  0.6151438E+02  0.6433768E+02  0.7131653E+02  0.0000000E+00
Ar  9715  0.6196388E+02  0.6183266E+02  0.7392971E+02  0.0000000E+00
Ar  9716  0.5925861E+02  0.6476232E+02  0.7410534E+02  0.0000000E+00
Ar  9717  0.5841721E+02  0.6198147E+02  0.7691104E+02  0.0000000E+00
Ar  9718  0.6141662E+02  0.6481256E+02  0.7687029E+02  0.0000000E+00
Ar  9719  0.6141626E+02  0.6272315E+02  0.7962143E+02  0.0000000E+00
Ar  9720  0.5881208E+02  0.6513601E+02  0.7936909E+02  0.0000000E+00
Ar  9721  0.5890011E+02  0.6783606E+02  0.8205230E+02  0.0000000E+00
Ar  9722  0.6135541E+02  0.7053624E+02  0.8225510E+02  0.0000000E+00
Ar  9723  0.6162345E+02  0.6797680E+02  0.8282734E+00  0.0000000E+00
Ar  9724  0.5864667E+02  0.7043288E+02  0.1019534E+01  0.0000000E+00
Ar  9725  0.5545029E+02  0.6908021E+02  0.3626021E+01  0.0000000E+00
Ar  9726  0.6136686E+02  0.7089910E+02  0.3431957E+01  0.0000000E+00
Ar  9727  0.6192147E+02  0.6771313E+02  0.6333692E+01  0.0000000E+00
Ar  9728  0.5832347E+02  0.7088367E+02  0.5771706E+01  0.0000000E+00
Ar  9729  0.5866790E+02  0.6799207E+02  0.8643625E+01  0.0000000E+00
Ar  9730  0.6130214E+02  0.7088236E+02  0.9433504E+01  0.0000000E+00
Ar  9731  0.6159723E+02  0.6819752E+02  0.1213579E+02  0.0000000E+00
Ar  9732  0.5888283E+02  0.7103100E+02  0.1229665E+02  0.0000000E+00
Ar  9733  0.5894164E+02  0.6824019E+02  0.1482855E+02  0.0000000E+00
Ar  9734  0.6176264E+02  0.7074027E+02  0.1516376E+02  0.0000000E+00
Ar  9735  0.6177802E+02  0.6784188E+02  0.1747455E+02  0.0000000E+00
Ar  9736  0.5849892E+02  0.6995470E+02  0.1820995E+02  0.0000000E+00
Ar  9737  0.5884068E+02  0.6753542E+02  0.2102234E+02  0.0000000E+00
Ar  9738  0.6177996E+02  0.6992356E+02  0.2045264E+02  0.0000000E+00
Ar  9739  0.6201067E+02  0.6728114E+02  0.2464552E+02  0.0000000E+00
Ar  9740  0.5845958E+02  0.7039142E+02  0.2395131E+02  0.0000000E+00
Ar  9741  0.5919756E+02  0.6816013E+02  0.2660885E+02  0.0000000E+00
Ar  9742  0.6302868E+02  0.6995916E+02  0.2682103E+02  0.0000000E+00
Ar  9743  0.6135386E+02  0.6819651E+02  0.2988094E+02  0.0000000E+00
Ar  9744  0.5856630E+02  0.7085301E+02  0.2954803E+02  0.0000000E+00
Ar  9745  0.5887793E+02  0.6765592E+02  0.3268350E+02  0.0000000E+00
Ar  9746  0.6110895E+02  0.7152323E+02  0.3171179E+02  0.0000000E+00
Ar  9747  0.6180812E+02  0.6819760E+02  0.3553845E+02  0.0000000E+00
Ar  9748  0.5922720E+02  0.7044076E+02  0.3534143E+02  0.0000000E+00
Ar  9749  0.5909007E+02  0.6776380E+02  0.3845283E+02  0.0000000E+00
Ar  9750  0.6151470E+02  0.7066297E+02  0.3822579E+02  0.0000000E+00
Ar  9751  0.6180498E+02  0.6781545E+02  0.4042379E+02  0.0000000E+00
Ar  9752  0.5909138E+02  0.7114794E+02  0.4087844E+02  0.0000000E+00
Ar  9753  0.5867719E+02  0.6785058E+02  0.4374451E+02  0.0000000E+00
Ar  9754  0.6169235E+02  0.7037464E+02  0.4346504E+02  0.0000000E+00
Ar  9755  0.6140922E+02  0.6744764E+02  0.4619172E+02  0.0000000E+00
Ar  9756  0.5875511E+02  0.7113636E+02  0.4560706E+02  0.0000000E+00
Ar  9757  0.5952029E+02  0.6725021E+02  0.4951578E+02  0.0000000E+00
Ar  9758  0.6132937E+02  0.7051616E+02  0.4941105E+02  0.0000000E+00
Ar  9759  0.6185318E+02  0.6758676E+02  0.5192951E+02  0.0000000E+00
Ar  9760  0.5880022E+02  0.7013635E+02  0.5248234E+02  0.0000000E+00
Ar  9761  0.5810971E+02  0.6733257E+02  0.5494019E+02  0.0000000E+00
Ar  9762  0.6173528E+02  0.7047109E+02  0.5467693E+02  0.0000000E+00
Ar  9763  0.6171623E+02  0.6792502E+02  0.5781437E+02  0.0000000E+00
Ar  9764  0.5913209E+02  0.7044296E+02  0.5780724E+02  0.0000000E+00
Ar  9765  0.5886303E+02  0.6835584E+02  0.6092546E+02  0.0000000E+00
Ar  9766  0.6145944E+02  0.7065118E+02  0.6049279E+02  0.0000000E+00
Ar  9767  0.6191750E+02  0.6789735E+02  0.6336115E+02  0.0000000E+00
Ar  9768  0.5939359E+02  0.7093805E+02  0.6325926E+02  0.0000000E+00
Ar  9769  0.5898157E+02  0.6789478E+02  0.6608263E+02  0.0000000E+00
Ar  9770  0.6212570E+02  0.7074142E+02  0.6609612E+02  0.0000000E+00
Ar  9771  0.6148265E+02  0.6765599E+02  0.6873907E+02  0.0000000E+00
Ar  9772  0.5906040E+02  0.7044256E+02  0.6988773E+02  0.0000000E+00
Ar  9773  0.5916987E+02  0.6710064E+02  0.7110633E+02  0.0000000E+00
Ar  9774  0.6192428E+02  0.7048528E+02  0.7171460E+02  0.0000000E+00
Ar  9775  0.6161435E+02  0.6755019E+02  0.7410429E+02  0.0000000E+00
Ar  9776  0.5868169E+02  0.7027014E+02  0.7389164E+02  0.0000000E+00
Ar  9777  0.5877371E+02  0.6780334E+02  0.7654451E+02  0.0000000E+00
Ar  9778  0.6164733E+02  0.7046396E+02  0.7664991E+02  0.0000000E+00
Ar  9779  0.6145418E+02  0.6752797E+02  0.7944105E+02  0.0000000E+00
Ar  9780  0.5859666E+02  0.7017455E+02  0.7932424E+02  0.0000000E+00
Ar  9781  0.5823390E+02  0.7369107E+02  0.8240131E+02  0.0000000E+00
Ar  9782  0.6130417E+02  0.7587167E+02  0.8242961E+02  0.0000000E+00
Ar  9783  0.6141028E+02  0.7345109E+02  0.1131535E+01  0.0000000E+00
Ar  9784  0.5872115E+02  0.7680605E+02  0.1066895E+01  0.0000000E+00
Ar  9785  0.5830004E+02  0.7346036E+02  0.3351131E+01  0.0000000E+00
Ar  9786  0.6159191E+02  0.7615339E+02  0.3776814E+01  0.0000000E+00
Ar  9787  0.6089950E+02  0.7327561E+02  0.6772069E+01  0.0000000E+00
Ar  9788  0.5856462E+02  0.7595139E+02  0.5870085E+01  0.0000000E+00
Ar  9789  0.5823764E+02  0.7337889E+02  0.9492785E+01  0.0000000E+00
Ar  9790  0.6110311E+02  0.7590754E+02  0.1001707E+02  0.0000000E+00
Ar  9791  0.6108394E+02  0.7363543E+02  0.1297370E+02  0.0000000E+00
Ar  9792  0.5844818E+02  0.7602303E+02  0.1230779E+02  0.0000000E+00
Ar  9793  0.5824481E+02  0.7354924E+02  0.1507081E+02  0.0000000E+00
Ar  9794  0.6204393E+02  0.7610988E+02  0.1580234E+02  0.0000000E+00
Ar  9795  0.6205758E+02  0.7321916E+02  0.1794724E+02  0.0000000E+00
Ar  9796  0.5908326E+02  0.7529689E+02  0.1837584E+02  0.0000000E+00
Ar  9797  0.5860433E+02  0.7293626E+02  0.2114896E+02  0.0000000E+00
Ar  9798  0.6151299E+02  0.7595767E+02  0.2128939E+02  0.0000000E+00
Ar  9799  0.6144394E+02  0.7268872E+02  0.2356429E+02  0.0000000E+00
Ar  9800  0.5825565E+02  0.7536520E+02  0.2399733E+02  0.0000000E+00
Ar  9801  0.5849447E+02  0.7276399E+02  0.2668969E+02  0.0000000E+00
Ar  9802  0.6145271E+02  0.7635574E+02  0.2637485E+02  0.0000000E+00
Ar  9803  0.6172573E+02  0.7329772E+02  0.2846190E+02  0.0000000E+00
Ar  9804  0.5877842E+02  0.7557326E+02  0.2875095E+02  0.0000000E+00
Ar  9805  0.5823414E+02  0.7358993E+02  0.3256505E+02  0.0000000E+00
Ar  9806  0.6125914E+02  0.7636759E+02  0.3124008E+02  0.0000000E+00
Ar  9807  0.6117005E+02  0.7341154E+02  0.3451367E+02  0.0000000E+00
Ar  9808  0.5917014E+02  0.7689683E+02  0.3581359E+02  0.0000000E+00
Ar  9809  0.5904993E+02  0.7358893E+02  0.3759726E+02  0.0000000E+00
Ar  9810  0.6177043E+02  0.7568217E+02  0.3805795E+02  0.0000000E+00
Ar  9811  0.6168508E+02  0.7318093E+02  0.4126822E+02  0.0000000E+00
Ar  9812  0.5912687E+02  0.7616374E+02  0.4017258E+02  0.0000000E+00
Ar  9813  0.5832930E+02  0.7416641E+02  0.4281043E+02  0.0000000E+00
Ar  9814  0.6133853E+02  0.7661473E+02  0.4336862E+02  0.0000000E+00
Ar  9815  0.6135316E+02  0.7387564E+02  0.4610020E+02  0.0000000E+00
Ar  9816  0.5856867E+02  0.7694528E+02  0.4567459E+02  0.0000000E+00
Ar  9817  0.5885952E+02  0.7368132E+02  0.4869645E+02  0.0000000E+00
Ar  9818  0.6136904E+02  0.7651473E+02  0.4883565E+02  0.0000000E+00
Ar  9819  0.6098584E+02  0.7321712E+02  0.5159335E+02  0.0000000E+00
Ar  9820  0.5877488E+02  0.7607877E+02  0.5113792E+02  0.0000000E+00
Ar  9821  0.5955998E+02  0.7330258E+02  0.5515570E+02  0.0000000E+00
Ar  9822  0.6140948E+02  0.7661957E+02  0.5567536E+02  0.0000000E+00
Ar  9823  0.6212139E+02  0.7366280E+02  0.5792599E+02  0.0000000E+00
Ar  9824  0.5739859E+02  0.7617825E+02  0.5740693E+02  0.0000000E+00
Ar  9825  0.5921397E+02  0.7390380E+02  0.6030889E+02  0.0000000E+00
Ar  9826  0.6153777E+02  0.7662928E+02  0.6052690E+02  0.0000000E+00
Ar  9827  0.6155222E+02  0.7394073E+02  0.6305482E+02  0.0000000E+00
Ar  9828  0.5857533E+02  0.7607167E+02  0.6351672E+02  0.0000000E+00
Ar  9829  0.5926775E+02  0.7309374E+02  0.6593743E+02  0.0000000E+00
Ar  9830  0.6157362E+02  0.7651301E+02  0.6605425E+02  0.0000000E+00
Ar  9831  0.6175304E+02  0.7287222E+02  0.6877365E+02  0.0000000E+00
Ar  9832  0.5862433E+02  0.7641988E+02  0.6941346E+02  0.0000000E+00
Ar  9833  0.5944405E+02  0.7361535E+02  0.7158102E+02  0.0000000E+00
Ar  9834  0.6164811E+02  0.7688363E+02  0.7101366E+02  0.0000000E+00
Ar  9835  0.6197187E+02  0.7369921E+02  0.7489075E+02  0.0000000E+00
Ar  9836  0.5877479E+02  0.7593818E+02  0.7438846E+02  0.0000000E+00
Ar  9837  0.5912392E+02  0.7347653E+02  0.7721910E+02  0.0000000E+00
Ar  9838  0.6113156E+02  0.7648017E+02  0.7710751E+02  0.0000000E+00
Ar  9839  0.6145867E+02  0.7358251E+02  0.7969915E+02  0.0000000E+00
Ar  9840  0.5852043E+02  0.7603718E+02  0.7990516E+02  0.0000000E+00
Ar  9841  0.5881496E+02  0.7977241E+02  0.8293245E+02  0.0000000E+00
Ar  9842  0.6136873E+02  0.8296138E+02  0.8186073E+02  0.0000000E+00
Ar  9843  0.6172789E+02  0.7876704E+02  0.4554803E+00  0.0000000E+00
Ar  9844  0.5914982E+02  0.8260705E+02  0.9449136E+00  0.0000000E+00
Ar  9845  0.5909650E+02  0.7954300E+02  0.3553045E+01  0.0000000E+00
Ar  9846  0.6182809E+02  0.8192313E+02  0.3932967E+01  0.0000000E+00
Ar  9847  0.6143731E+02  0.7807662E+02  0.6596085E+01  0.0000000E+00
Ar  9848  0.5891625E+02  0.8201911E+02  0.6541653E+01  0.0000000E+00
Ar  9849  0.5868559E+02  0.7800383E+02  0.9084945E+01  0.0000000E+00
Ar  9850  0.6096799E+02  0.8060160E+02  0.9346475E+01  0.0000000E+00
Ar  9851  0.6146398E+02  0.7846604E+02  0.1277070E+02  0.0000000E+00
Ar  9852  0.5862904E+02  0.8092128E+02  0.1178777E+02  0.0000000E+00
Ar  9853  0.5818193E+02  0.7815577E+02  0.1518471E+02  0.0000000E+00
Ar  9854  0.6104621E+02  0.8142370E+02  0.1606032E+02  0.0000000E+00
Ar  9855  0.6193351E+02  0.7840197E+02  0.1852676E+02  0.0000000E+00
Ar  9856  0.5886036E+02  0.8094103E+02  0.1912811E+02  0.0000000E+00
Ar  9857  0.5869074E+02  0.7814746E+02  0.2159343E+02  0.0000000E+00
Ar  9858  0.6205022E+02  0.8220101E+02  0.2141086E+02  0.0000000E+00
Ar  9859  0.6202718E+02  0.7882225E+02  0.2325436E+02  0.0000000E+00
Ar  9860  0.5824996E+02  0.8206296E+02  0.2304538E+02  0.0000000E+00
Ar  9861  0.5842376E+02  0.7958530E+02  0.2670657E+02  0.0000000E+00
Ar  9862  0.6129297E+02  0.8140106E+02  0.2537021E+02  0.0000000E+00
Ar  9863  0.6126412E+02  0.7965968E+02  0.2960683E+02  0.0000000E+00
Ar  9864  0.5824069E+02  0.8199298E+02  0.2974965E+02  0.0000000E+00
Ar  9865  0.5815240E+02  0.7896423E+02  0.3228388E+02  0.0000000E+00
Ar  9866  0.6136614E+02  0.8182343E+02  0.3220048E+02  0.0000000E+00
Ar  9867  0.6163644E+02  0.7899336E+02  0.3468838E+02  0.0000000E+00
Ar  9868  0.5903721E+02  0.8193048E+02  0.3515883E+02  0.0000000E+00
Ar  9869  0.5817013E+02  0.8012137E+02  0.3819485E+02  0.0000000E+00
Ar  9870  0.6140115E+02  0.8252347E+02  0.3818195E+02  0.0000000E+00
Ar  9871  0.6092666E+02  0.7928755E+02  0.4042044E+02  0.0000000E+00
Ar  9872  0.5879732E+02  0.8231984E+02  0.4092263E+02  0.0000000E+00
Ar  9873  0.5828203E+02  0.7954984E+02  0.4339587E+02  0.0000000E+00
Ar  9874  0.6201461E+02  0.8200815E+02  0.4369885E+02  0.0000000E+00
Ar  9875  0.6157095E+02  0.7930763E+02  0.4642848E+02  0.0000000E+00
Ar  9876  0.5882599E+02  0.8249162E+02  0.4602624E+02  0.0000000E+00
Ar  9877  0.5848041E+02  0.7992883E+02  0.4858597E+02  0.0000000E+00
Ar  9878  0.6122145E+02  0.8249093E+02  0.4902204E+02  0.0000000E+00
Ar  9879  0.6114410E+02  0.7925307E+02  0.5108819E+02  0.0000000E+00
Ar  9880  0.5840263E+02  0.8267871E+02  0.5161320E+02  0.0000000E+00
Ar  9881  0.5871385E+02  0.7939002E+02  0.5468195E+02  0.0000000E+00
Ar  9882  0.6122558E+02  0.8180313E+02  0.5379622E+02  0.0000000E+00
Ar  9883  0.6207556E+02  0.8032783E+02  0.5751992E+02  0.0000000E+00
Ar  9884  0.5846318E+02  0.8193458E+02  0.5694641E+02  0.0000000E+00
Ar  9885  0.5875283E+02  0.7902237E+02  0.5943958E+02  0.0000000E+00
Ar  9886  0.6142945E+02  0.8186239E+02  0.6106279E+02  0.0000000E+00
Ar  9887  0.6152571E+02  0.7931147E+02  0.6348692E+02  0.0000000E+00
Ar  9888  0.5849969E+02  0.8205429E+02  0.6325343E+02  0.0000000E+00
Ar  9889  0.5877767E+02  0.7880381E+02  0.6582366E+02  0.0000000E+00
Ar  9890  0.6126956E+02  0.8201694E+02  0.6584889E+02  0.0000000E+00
Ar  9891  0.6065427E+02  0.7927439E+02  0.6860101E+02  0.0000000E+00
Ar  9892  0.5879317E+02  0.8339339E+02  0.6837404E+02  0.0000000E+00
Ar  9893  0.5874681E+02  0.7923972E+02  0.7245158E+02  0.0000000E+00
Ar  9894  0.6182829E+02  0.8194915E+02  0.7150115E+02  0.0000000E+00
Ar  9895  0.6194326E+02  0.8023642E+02  0.7469696E+02  0.0000000E+00
Ar  9896  0.5890053E+02  0.8277458E+02  0.7456360E+02  0.0000000E+00
Ar  9897  0.5865776E+02  0.7937074E+02  0.7652485E+02  0.0000000E+00
Ar  9898  0.6151323E+02  0.8283366E+02  0.7750366E+02  0.0000000E+00
Ar  9899  0.6115485E+02  0.7991320E+02  0.7958395E+02  0.0000000E+00
Ar  9900  0.5820975E+02  0.8229252E+02  0.7966592E+02  0.0000000E+00
Ar  9901  0.6486375E+02  0.8424648E+02  0.8249381E+02  0.0000000E+00
Ar  9902  0.6708369E+02  0.2885963E+01  0.8229199E+02  0.0000000E+00
Ar  9903  0.6756071E+02  0.8388928E+02  0.9485313E+00  0.0000000E+00
Ar  9904  0.6560276E+02  0.3037891E+01  0.1451691E+01  0.0000000E+00
Ar  9905  0.6498523E+02  0.8420517E+02  0.4091172E+01  0.0000000E+00
Ar  9906  0.6759036E+02  0.2529193E+01  0.4684473E+01  0.0000000E+00
Ar  9907  0.6751450E+02  0.8394711E+02  0.6892269E+01  0.0000000E+00
Ar  9908  0.6470383E+02  0.3235504E+01  0.6822555E+01  0.0000000E+00
Ar  9909  0.6472636E+02  0.8417971E+02  0.9294496E+01  0.0000000E+00
Ar  9910  0.6784220E+02  0.3263915E+01  0.9549209E+01  0.0000000E+00
Ar  9911  0.6734189E+02  0.5877933E+00  0.1166651E+02  0.0000000E+00
Ar  9912  0.6484463E+02  0.3443549E+01  0.1169537E+02  0.0000000E+00
Ar  9913  0.6486914E+02  0.9263989E+00  0.1496363E+02  0.0000000E+00
Ar  9914  0.6750317E+02  0.3500136E+01  0.1507922E+02  0.0000000E+00
Ar  9915  0.6764094E+02  0.8885660E+00  0.1804364E+02  0.0000000E+00
Ar  9916  0.6499713E+02  0.3253696E+01  0.1780943E+02  0.0000000E+00
Ar  9917  0.6479520E+02  0.8469270E+00  0.2106032E+02  0.0000000E+00
Ar  9918  0.6782244E+02  0.3178986E+01  0.2057776E+02  0.0000000E+00
Ar  9919  0.6759177E+02  0.8104918E+00  0.2335866E+02  0.0000000E+00
Ar  9920  0.6522122E+02  0.3776496E+01  0.2356013E+02  0.0000000E+00
Ar  9921  0.6501482E+02  0.8378691E+02  0.2643841E+02  0.0000000E+00
Ar  9922  0.6748783E+02  0.3429940E+01  0.2658319E+02  0.0000000E+00
Ar  9923  0.6706937E+02  0.1033878E+01  0.2935361E+02  0.0000000E+00
Ar  9924  0.6400571E+02  0.2539257E+01  0.2947431E+02  0.0000000E+00
Ar  9925  0.6515465E+02  0.6533347E+00  0.3273877E+02  0.0000000E+00
Ar  9926  0.6728808E+02  0.3519957E+01  0.3188513E+02  0.0000000E+00
Ar  9927  0.6710078E+02  0.1345896E+00  0.3565868E+02  0.0000000E+00
Ar  9928  0.6465262E+02  0.3537358E+01  0.3525421E+02  0.0000000E+00
Ar  9929  0.6424174E+02  0.8667478E+00  0.3845450E+02  0.0000000E+00
Ar  9930  0.6711997E+02  0.3815328E+01  0.3838177E+02  0.0000000E+00
Ar  9931  0.6655976E+02  0.1258626E+01  0.4129957E+02  0.0000000E+00
Ar  9932  0.6438968E+02  0.3953011E+01  0.4093379E+02  0.0000000E+00
Ar  9933  0.6412231E+02  0.1122320E+01  0.4365747E+02  0.0000000E+00
Ar  9934  0.6711898E+02  0.3736728E+01  0.4346558E+02  0.0000000E+00
Ar  9935  0.6711618E+02  0.1053149E+01  0.4597253E+02  0.0000000E+00
Ar  9936  0.6435381E+02  0.3837876E+01  0.4576519E+02  0.0000000E+00
Ar  9937  0.6402367E+02  0.1496013E+01  0.4903955E+02  0.0000000E+00
Ar  9938  0.6684088E+02  0.3797915E+01  0.4877073E+02  0.0000000E+00
Ar  9939  0.6692281E+02  0.8872943E+00  0.5210021E+02  0.0000000E+00
Ar  9940  0.6445046E+02  0.4344336E+01  0.5240345E+02  0.0000000E+00
Ar  9941  0.6395879E+02  0.1095060E+01  0.5509497E+02  0.0000000E+00
Ar  9942  0.6701875E+02  0.3643281E+01  0.5466699E+02  0.0000000E+00
Ar  9943  0.6736717E+02  0.5186801E+00  0.5711306E+02  0.0000000E+00
Ar  9944  0.6419564E+02  0.3418493E+01  0.5793070E+02  0.0000000E+00
Ar  9945  0.6368386E+02  0.4236844E+00  0.6041023E+02  0.0000000E+00
Ar  9946  0.6699706E+02  0.3395631E+01  0.6043340E+02  0.0000000E+00
Ar  9947  0.6742864E+02  0.6842688E+00  0.6277185E+02  0.0000000E+00
Ar  9948  0.6455569E+02  0.3540094E+01  0.6382054E+02  0.0000000E+00
Ar  9949  0.6457367E+02  0.8911045E+00  0.6626543E+02  0.0000000E+00
Ar  9950  0.6761460E+02  0.3626348E+01  0.6538598E+02  0.0000000E+00
Ar  9951  0.6754938E+02  0.1081423E+01  0.6892559E+02  0.0000000E+00
Ar  9952  0.6540022E+02  0.4505861E+01  0.6840166E+02  0.0000000E+00
Ar  9953  0.6458179E+02  0.1026806E+01  0.7166132E+02  0.0000000E+00
Ar  9954  0.6753501E+02  0.3853687E+01  0.7100849E+02  0.0000000E+00
Ar  9955  0.6783825E+02  0.5544849E+00  0.7325837E+02  0.0000000E+00
Ar  9956  0.6494472E+02  0.4066886E+01  0.7450839E+02  0.0000000E+00
Ar  9957  0.6453239E+02  0.7726882E+00  0.7751619E+02  0.0000000E+00
Ar  9958  0.6723523E+02  0.3150819E+01  0.7762836E+02  0.0000000E+00
Ar  9959  0.6745576E+02  0.8413501E+02  0.7984763E+02  0.0000000E+00
Ar  9960  0.6426209E+02  0.3657578E+01  0.8002552E+02  0.0000000E+00
Ar  9961  0.6475739E+02  0.7410268E+01  0.8251530E+02  0.0000000E+00
Ar  9962  0.6801808E+02  0.9074856E+01  0.8262237E+02  0.0000000E+00
Ar  9963  0.6718519E+02  0.6188899E+01  0.4661563E+00  0.0000000E+00
Ar  9964  0.6430703E+02  0.8917360E+01  0.1773615E+01  0.0000000E+00
Ar  9965  0.6534774E+02  0.6077030E+01  0.3915141E+01  0.0000000E+00
Ar  9966  0.6762176E+02  0.9586907E+01  0.4391614E+01  0.0000000E+00
Ar  9967  0.6797104E+02  0.5581743E+01  0.6952374E+01  0.0000000E+00
Ar  9968  0.6487792E+02  0.8847482E+01  0.6546213E+01  0.0000000E+00
Ar  9969  0.6467901E+02  0.6340030E+01  0.9344332E+01  0.0000000E+00
Ar  9970  0.6725091E+02  0.9157863E+01  0.9501251E+01  0.0000000E+00
Ar  9971  0.6761276E+02  0.6008550E+01  0.1230889E+02  0.0000000E+00
Ar  9972  0.6397851E+02  0.9368027E+01  0.1186944E+02  0.0000000E+00
Ar  9973  0.6450308E+02  0.5934904E+01  0.1511089E+02  0.0000000E+00
Ar  9974  0.6721519E+02  0.8981578E+01  0.1541156E+02  0.0000000E+00
Ar  9975  0.6732747E+02  0.6203299E+01  0.1779946E+02  0.0000000E+00
Ar  9976  0.6491742E+02  0.8579921E+01  0.1885164E+02  0.0000000E+00
Ar  9977  0.6455849E+02  0.5520380E+01  0.2053988E+02  0.0000000E+00
Ar  9978  0.6785780E+02  0.9462679E+01  0.2094890E+02  0.0000000E+00
Ar  9979  0.6864690E+02  0.6764690E+01  0.2352502E+02  0.0000000E+00
Ar  9980  0.6436691E+02  0.8055440E+01  0.2334369E+02  0.0000000E+00
Ar  9981  0.6442415E+02  0.6146951E+01  0.2643388E+02  0.0000000E+00
Ar  9982  0.6721873E+02  0.8858540E+01  0.2583539E+02  0.0000000E+00
Ar  9983  0.6746139E+02  0.6645607E+01  0.2992891E+02  0.0000000E+00
Ar  9984  0.6432635E+02  0.8273481E+01  0.2952328E+02  0.0000000E+00
Ar  9985  0.6482752E+02  0.6034562E+01  0.3253290E+02  0.0000000E+00
Ar  9986  0.6784489E+02  0.9314591E+01  0.3211032E+02  0.0000000E+00
Ar  9987  0.6757108E+02  0.6550345E+01  0.3472800E+02  0.0000000E+00
Ar  9988  0.6475446E+02  0.9458892E+01  0.3485457E+02  0.0000000E+00
Ar  9989  0.6496237E+02  0.6831749E+01  0.3758201E+02  0.0000000E+00
Ar  9990  0.6810421E+02  0.9773628E+01  0.3786281E+02  0.0000000E+00
Ar  9991  0.6774228E+02  0.7103767E+01  0.4100892E+02  0.0000000E+00
Ar  9992  0.6474791E+02  0.9201005E+01  0.4037416E+02  0.0000000E+00
Ar  9993  0.6426862E+02  0.6705604E+01  0.4329765E+02  0.0000000E+00
Ar  9994  0.6790527E+02  0.9014274E+01  0.4418513E+02  0.0000000E+00
Ar  9995  0.6728948E+02  0.6069142E+01  0.4595007E+02  0.0000000E+00
Ar  9996  0.6435318E+02  0.8815777E+01  0.4637164E+02  0.0000000E+00
Ar  9997  0.6439179E+02  0.6124715E+01  0.4912457E+02  0.0000000E+00
Ar  9998  0.6786160E+02  0.8755620E+01  0.4871677E+02  0.0000000E+00
Ar  9999  0.6729547E+02  0.6566758E+01  0.5137020E+02  0.0000000E+00
Ar 10000  0.6480254E+02  0.9479186E+01  0.5086331E+02  0.0000000E+00
Ar 10001  0.6480859E+02  0.6602951E+01  0.5498207E+02  0.0000000E+00
Ar 10002  0.6710188E+02  0.9365335E+01  0.5424315E+02  0.0000000E+00
Ar 10003  0.6778326E+02  0.6480855E+01  0.5814261E+02  0.0000000E+00
Ar 10004  0.6398183E+02  0.9842081E+01  0.5688803E+02  0.0000000E+00
Ar 10005  0.6435112E+02  0.6444735E+01  0.5974756E+02  0.0000000E+00
Ar 10006  0.6778754E+02  0.9388617E+01  0.6079553E+02  0.0000000E+00
Ar 10007  0.6705404E+02  0.6120019E+01  0.6290875E+02  0.0000000E+00
Ar 10008  0.6479952E+02  0.9053631E+01  0.6249708E+02  0.0000000E+00
Ar 10009  0.6484002E+02  0.7182417E+01  0.6562114E+02  0.0000000E+00
Ar 10010  0.6809958E+02  0.9143499E+01  0.6587107E+02  0.0000000E+00
Ar 10011  0.6828218E+02  0.6803886E+01  0.6910429E+02  0.0000000E+00
Ar 10012  0.6581904E+02  0.9436560E+01  0.6867733E+02  0.0000000E+00
Ar 10013  0.6507725E+02  0.6629201E+01  0.7160814E+02  0.0000000E+00
Ar 10014  0.6786417E+02  0.9423863E+01  0.7209361E+02  0.0000000E+00
Ar 10015  0.6773795E+02  0.6519449E+01  0.7398975E+02  0.0000000E+00
Ar 10016  0.6486339E+02  0.8686173E+01  0.7472741E+02  0.0000000E+00
Ar 10017  0.6528879E+02  0.6330121E+01  0.7751722E+02  0.0000000E+00
Ar 10018  0.6774700E+02  0.8988066E+01  0.7766815E+02  0.0000000E+00
Ar 10019  0.6701837E+02  0.6046380E+01  0.8063371E+02  0.0000000E+00
Ar 10020  0.6454868E+02  0.9918770E+01  0.7966855E+02  0.0000000E+00
Ar 10021  0.6417904E+02  0.1191140E+02  0.8280290E+02  0.0000000E+00
Ar 10022  0.6638265E+02  0.1497042E+02  0.8195339E+02  0.0000000E+00
Ar 10023  0.6718739E+02  0.1158708E+02  0.1290074E+01  0.0000000E+00
Ar 10024  0.6494869E+02  0.1471939E+02  0.1176843E+01  0.0000000E+00
Ar 10025  0.6493968E+02  0.1182632E+02  0.4163536E+01  0.0000000E+00
Ar 10026  0.6772460E+02  0.1470361E+02  0.3536511E+01  0.0000000E+00
Ar 10027  0.6773350E+02  0.1285338E+02  0.6878760E+01  0.0000000E+00
Ar 10028  0.6461682E+02  0.1435151E+02  0.7028367E+01  0.0000000E+00
Ar 10029  0.6452595E+02  0.1144997E+02  0.9307156E+01  0.0000000E+00
Ar 10030  0.6702382E+02  0.1375433E+02  0.1017302E+02  0.0000000E+00
Ar 10031  0.6664183E+02  0.1126523E+02  0.1266094E+02  0.0000000E+00
Ar 10032  0.6398840E+02  0.1377570E+02  0.1220681E+02  0.0000000E+00
Ar 10033  0.6459020E+02  0.1146368E+02  0.1654568E+02  0.0000000E+00
Ar 10034  0.6683693E+02  0.1431714E+02  0.1545567E+02  0.0000000E+00
Ar 10035  0.6775464E+02  0.1147206E+02  0.1794394E+02  0.0000000E+00
Ar 10036  0.6501832E+02  0.1443533E+02  0.1868503E+02  0.0000000E+00
Ar 10037  0.6443575E+02  0.1144678E+02  0.2173570E+02  0.0000000E+00
Ar 10038  0.6825340E+02  0.1560964E+02  0.2126111E+02  0.0000000E+00
Ar 10039  0.6776745E+02  0.1214760E+02  0.2361697E+02  0.0000000E+00
Ar 10040  0.6483685E+02  0.1469476E+02  0.2342192E+02  0.0000000E+00
Ar 10041  0.6449030E+02  0.1141863E+02  0.2592028E+02  0.0000000E+00
Ar 10042  0.6730052E+02  0.1423401E+02  0.2638577E+02  0.0000000E+00
Ar 10043  0.6685276E+02  0.1079931E+02  0.2879644E+02  0.0000000E+00
Ar 10044  0.6476611E+02  0.1388783E+02  0.2904988E+02  0.0000000E+00
Ar 10045  0.6466099E+02  0.1169350E+02  0.3202903E+02  0.0000000E+00
Ar 10046  0.6721047E+02  0.1412537E+02  0.3240322E+02  0.0000000E+00
Ar 10047  0.6779572E+02  0.1180557E+02  0.3489696E+02  0.0000000E+00
Ar 10048  0.6433619E+02  0.1404634E+02  0.3478813E+02  0.0000000E+00
Ar 10049  0.6471138E+02  0.1120375E+02  0.3758571E+02  0.0000000E+00
Ar 10050  0.6758891E+02  0.1479978E+02  0.3789634E+02  0.0000000E+00
Ar 10051  0.6756128E+02  0.1244218E+02  0.4033414E+02  0.0000000E+00
Ar 10052  0.6467187E+02  0.1492618E+02  0.4118743E+02  0.0000000E+00
Ar 10053  0.6512447E+02  0.1158443E+02  0.4376493E+02  0.0000000E+00
Ar 10054  0.6845025E+02  0.1561493E+02  0.4391716E+02  0.0000000E+00
Ar 10055  0.6761991E+02  0.1240346E+02  0.4626418E+02  0.0000000E+00
Ar 10056  0.6464095E+02  0.1431043E+02  0.4580157E+02  0.0000000E+00
Ar 10057  0.6429149E+02  0.1225207E+02  0.4891992E+02  0.0000000E+00
Ar 10058  0.6786414E+02  0.1492860E+02  0.4893123E+02  0.0000000E+00
Ar 10059  0.6760960E+02  0.1209751E+02  0.5148445E+02  0.0000000E+00
Ar 10060  0.6466828E+02  0.1523331E+02  0.5190917E+02  0.0000000E+00
Ar 10061  0.6433051E+02  0.1207037E+02  0.5406325E+02  0.0000000E+00
Ar 10062  0.6711411E+02  0.1431571E+02  0.5420835E+02  0.0000000E+00
Ar 10063  0.6731601E+02  0.1194374E+02  0.5739324E+02  0.0000000E+00
Ar 10064  0.6444435E+02  0.1529414E+02  0.5748456E+02  0.0000000E+00
Ar 10065  0.6439806E+02  0.1199299E+02  0.5979551E+02  0.0000000E+00
Ar 10066  0.6662818E+02  0.1473325E+02  0.6019089E+02  0.0000000E+00
Ar 10067  0.6699197E+02  0.1233893E+02  0.6264087E+02  0.0000000E+00
Ar 10068  0.6423969E+02  0.1499754E+02  0.6307393E+02  0.0000000E+00
Ar 10069  0.6509478E+02  0.1114218E+02  0.6568815E+02  0.0000000E+00
Ar 10070  0.6712830E+02  0.1464441E+02  0.6557865E+02  0.0000000E+00
Ar 10071  0.6764911E+02  0.1240696E+02  0.6856458E+02  0.0000000E+00
Ar 10072  0.6443486E+02  0.1455170E+02  0.6935190E+02  0.0000000E+00
Ar 10073  0.6477336E+02  0.1162445E+02  0.7153710E+02  0.0000000E+00
Ar 10074  0.6721701E+02  0.1454689E+02  0.7163412E+02  0.0000000E+00
Ar 10075  0.6688268E+02  0.1159717E+02  0.7467190E+02  0.0000000E+00
Ar 10076  0.6376634E+02  0.1446962E+02  0.7371362E+02  0.0000000E+00
Ar 10077  0.6474568E+02  0.1241101E+02  0.7709476E+02  0.0000000E+00
Ar 10078  0.6727715E+02  0.1477621E+02  0.7686335E+02  0.0000000E+00
Ar 10079  0.6711359E+02  0.1210716E+02  0.8015024E+02  0.0000000E+00
Ar 10080  0.6412357E+02  0.1518471E+02  0.7931975E+02  0.0000000E+00
Ar 10081  0.6412417E+02  0.1790007E+02  0.8232264E+02  0.0000000E+00
Ar 10082  0.6700212E+02  0.2005420E+02  0.8224884E+02  0.0000000E+00
Ar 10083  0.6746217E+02  0.1742973E+02  0.1251365E+01  0.0000000E+00
Ar 10084  0.6403672E+02  0.2040188E+02  0.9341139E+00  0.0000000E+00
Ar 10085  0.6507465E+02  0.1680458E+02  0.4279257E+01  0.0000000E+00
Ar 10086  0.6681041E+02  0.1993712E+02  0.3503606E+01  0.0000000E+00
Ar 10087  0.6783707E+02  0.1687694E+02  0.7212184E+01  0.0000000E+00
Ar 10088  0.6468611E+02  0.1991019E+02  0.6637077E+01  0.0000000E+00
Ar 10089  0.6439863E+02  0.1690871E+02  0.1022706E+02  0.0000000E+00
Ar 10090  0.6665412E+02  0.2061825E+02  0.9787053E+01  0.0000000E+00
Ar 10091  0.6737040E+02  0.1679527E+02  0.1266828E+02  0.0000000E+00
Ar 10092  0.6403497E+02  0.2011314E+02  0.1259161E+02  0.0000000E+00
Ar 10093  0.6506463E+02  0.1754359E+02  0.1519111E+02  0.0000000E+00
Ar 10094  0.6718520E+02  0.2048262E+02  0.1413130E+02  0.0000000E+00
Ar 10095  0.6765899E+02  0.1794976E+02  0.1789740E+02  0.0000000E+00
Ar 10096  0.6465948E+02  0.2035905E+02  0.1845059E+02  0.0000000E+00
Ar 10097  0.6524418E+02  0.1750150E+02  0.2062908E+02  0.0000000E+00
Ar 10098  0.6728575E+02  0.2005800E+02  0.2132534E+02  0.0000000E+00
Ar 10099  0.6803705E+02  0.1799382E+02  0.2400895E+02  0.0000000E+00
Ar 10100  0.6466885E+02  0.1972312E+02  0.2414716E+02  0.0000000E+00
Ar 10101  0.6483019E+02  0.1707064E+02  0.2631892E+02  0.0000000E+00
Ar 10102  0.6793009E+02  0.2029702E+02  0.2661887E+02  0.0000000E+00
Ar 10103  0.6696310E+02  0.1685152E+02  0.2927350E+02  0.0000000E+00
Ar 10104  0.6526582E+02  0.1972034E+02  0.2897103E+02  0.0000000E+00
Ar 10105  0.6467837E+02  0.1731082E+02  0.3204249E+02  0.0000000E+00
Ar 10106  0.6790329E+02  0.1992148E+02  0.3209902E+02  0.0000000E+00
Ar 10107  0.6697325E+02  0.1660953E+02  0.3462492E+02  0.0000000E+00
Ar 10108  0.6498856E+02  0.1957978E+02  0.3549734E+02  0.0000000E+00
Ar 10109  0.6437866E+02  0.1732999E+02  0.3835929E+02  0.0000000E+00
Ar 10110  0.6760569E+02  0.1937118E+02  0.3780212E+02  0.0000000E+00
Ar 10111  0.6746319E+02  0.1748670E+02  0.4090680E+02  0.0000000E+00
Ar 10112  0.6476015E+02  0.2029301E+02  0.4071345E+02  0.0000000E+00
Ar 10113  0.6448071E+02  0.1796047E+02  0.4425723E+02  0.0000000E+00
Ar 10114  0.6758751E+02  0.2026838E+02  0.4314897E+02  0.0000000E+00
Ar 10115  0.6772497E+02  0.1775724E+02  0.4648189E+02  0.0000000E+00
Ar 10116  0.6473801E+02  0.2116229E+02  0.4614428E+02  0.0000000E+00
Ar 10117  0.6478188E+02  0.1784859E+02  0.4861932E+02  0.0000000E+00
Ar 10118  0.6710517E+02  0.2064189E+02  0.4876135E+02  0.0000000E+00
Ar 10119  0.6686235E+02  0.1789296E+02  0.5157845E+02  0.0000000E+00
Ar 10120  0.6417315E+02  0.2026994E+02  0.5176658E+02  0.0000000E+00
Ar 10121  0.6417199E+02  0.1780303E+02  0.5439076E+02  0.0000000E+00
Ar 10122  0.6729457E+02  0.1979094E+02  0.5477769E+02  0.0000000E+00
Ar 10123  0.6708525E+02  0.1810377E+02  0.5850499E+02  0.0000000E+00
Ar 10124  0.6448165E+02  0.2032375E+02  0.5763970E+02  0.0000000E+00
Ar 10125  0.6427503E+02  0.1801440E+02  0.6051065E+02  0.0000000E+00
Ar 10126  0.6749988E+02  0.2057084E+02  0.6115971E+02  0.0000000E+00
Ar 10127  0.6688461E+02  0.1758246E+02  0.6296727E+02  0.0000000E+00
Ar 10128  0.6384174E+02  0.2018378E+02  0.6310954E+02  0.0000000E+00
Ar 10129  0.6402489E+02  0.1709293E+02  0.6598849E+02  0.0000000E+00
Ar 10130  0.6642656E+02  0.2024789E+02  0.6592712E+02  0.0000000E+00
Ar 10131  0.6667976E+02  0.1754365E+02  0.6907307E+02  0.0000000E+00
Ar 10132  0.6394714E+02  0.2059761E+02  0.6880461E+02  0.0000000E+00
Ar 10133  0.6422535E+02  0.1724412E+02  0.7130190E+02  0.0000000E+00
Ar 10134  0.6688959E+02  0.2034085E+02  0.7127925E+02  0.0000000E+00
Ar 10135  0.6680876E+02  0.1716979E+02  0.7397403E+02  0.0000000E+00
Ar 10136  0.6428064E+02  0.1984897E+02  0.7363689E+02  0.0000000E+00
Ar 10137  0.6330328E+02  0.1733974E+02  0.7662932E+02  0.0000000E+00
Ar 10138  0.6641302E+02  0.1988452E+02  0.7666650E+02  0.0000000E+00
Ar 10139  0.6754923E+02  0.1738318E+02  0.7966023E+02  0.0000000E+00
Ar 10140  0.6365703E+02  0.2064454E+02  0.7944967E+02  0.0000000E+00
Ar 10141  0.6415888E+02  0.2274858E+02  0.8244176E+02  0.0000000E+00
Ar 10142  0.6675193E+02  0.2551944E+02  0.8255361E+02  0.0000000E+00
Ar 10143  0.6729875E+02  0.2274909E+02  0.8650017E+00  0.0000000E+00
Ar 10144  0.6429214E+02  0.2550382E+02  0.6927232E+00  0.0000000E+00
Ar 10145  0.6422205E+02  0.2300696E+02  0.3594041E+01  0.0000000E+00
Ar 10146  0.6740169E+02  0.2584900E+02  0.3294546E+01  0.0000000E+00
Ar 10147  0.6679952E+02  0.2302465E+02  0.5983270E+01  0.0000000E+00
Ar 10148  0.6469924E+02  0.2601139E+02  0.6015986E+01  0.0000000E+00
Ar 10149  0.6387953E+02  0.2300938E+02  0.9318470E+01  0.0000000E+00
Ar 10150  0.6718674E+02  0.2531227E+02  0.8808551E+01  0.0000000E+00
Ar 10151  0.6662730E+02  0.2362788E+02  0.1237474E+02  0.0000000E+00
Ar 10152  0.6405526E+02  0.2692823E+02  0.1218183E+02  0.0000000E+00
Ar 10153  0.6430641E+02  0.2313732E+02  0.1514374E+02  0.0000000E+00
Ar 10154  0.6777070E+02  0.2583027E+02  0.1591392E+02  0.0000000E+00
Ar 10155  0.6759321E+02  0.2259437E+02  0.1794899E+02  0.0000000E+00
Ar 10156  0.6444370E+02  0.2509831E+02  0.1802694E+02  0.0000000E+00
Ar 10157  0.6476168E+02  0.2263660E+02  0.2139102E+02  0.0000000E+00
Ar 10158  0.6805944E+02  0.2569303E+02  0.2073930E+02  0.0000000E+00
Ar 10159  0.6716153E+02  0.2272644E+02  0.2407186E+02  0.0000000E+00
Ar 10160  0.6494718E+02  0.2611016E+02  0.2337060E+02  0.0000000E+00
Ar 10161  0.6495117E+02  0.2274359E+02  0.2672290E+02  0.0000000E+00
Ar 10162  0.6767808E+02  0.2540247E+02  0.2656812E+02  0.0000000E+00
Ar 10163  0.6735525E+02  0.2255940E+02  0.2916043E+02  0.0000000E+00
Ar 10164  0.6537616E+02  0.2641415E+02  0.2940680E+02  0.0000000E+00
Ar 10165  0.6536017E+02  0.2272761E+02  0.3198768E+02  0.0000000E+00
Ar 10166  0.6757788E+02  0.2593104E+02  0.3268471E+02  0.0000000E+00
Ar 10167  0.6776523E+02  0.2347995E+02  0.3535908E+02  0.0000000E+00
Ar 10168  0.6448896E+02  0.2566645E+02  0.3523950E+02  0.0000000E+00
Ar 10169  0.6518346E+02  0.2246747E+02  0.3769300E+02  0.0000000E+00
Ar 10170  0.6767847E+02  0.2576439E+02  0.3803974E+02  0.0000000E+00
Ar 10171  0.6738336E+02  0.2310773E+02  0.4051597E+02  0.0000000E+00
Ar 10172  0.6534377E+02  0.2611114E+02  0.4089586E+02  0.0000000E+00
Ar 10173  0.6506066E+02  0.2328937E+02  0.4313353E+02  0.0000000E+00
Ar 10174  0.6819672E+02  0.2525857E+02  0.4310538E+02  0.0000000E+00
Ar 10175  0.6778611E+02  0.2340632E+02  0.4590150E+02  0.0000000E+00
Ar 10176  0.6528480E+02  0.2554202E+02  0.4656662E+02  0.0000000E+00
Ar 10177  0.6471609E+02  0.2342126E+02  0.4968339E+02  0.0000000E+00
Ar 10178  0.6739314E+02  0.2568153E+02  0.4956391E+02  0.0000000E+00
Ar 10179  0.6721724E+02  0.2269596E+02  0.5251134E+02  0.0000000E+00
Ar 10180  0.6469797E+02  0.2621927E+02  0.5194132E+02  0.0000000E+00
Ar 10181  0.6466516E+02  0.2280022E+02  0.5505312E+02  0.0000000E+00
Ar 10182  0.6699597E+02  0.2610568E+02  0.5490867E+02  0.0000000E+00
Ar 10183  0.6765903E+02  0.2265027E+02  0.5751887E+02  0.0000000E+00
Ar 10184  0.6474475E+02  0.2601452E+02  0.5774234E+02  0.0000000E+00
Ar 10185  0.6492704E+02  0.2310241E+02  0.6014703E+02  0.0000000E+00
Ar 10186  0.6732844E+02  0.2570295E+02  0.6046738E+02  0.0000000E+00
Ar 10187  0.6737675E+02  0.2351906E+02  0.6355633E+02  0.0000000E+00
Ar 10188  0.6400946E+02  0.2580702E+02  0.6320916E+02  0.0000000E+00
Ar 10189  0.6375461E+02  0.2257915E+02  0.6571765E+02  0.0000000E+00
Ar 10190  0.6644321E+02  0.2572329E+02  0.6614004E+02  0.0000000E+00
Ar 10191  0.6635454E+02  0.2309536E+02  0.6861398E+02  0.0000000E+00
Ar 10192  0.6371779E+02  0.2565075E+02  0.6881452E+02  0.0000000E+00
Ar 10193  0.6426006E+02  0.2275334E+02  0.7179170E+02  0.0000000E+00
Ar 10194  0.6704177E+02  0.2606317E+02  0.7143927E+02  0.0000000E+00
Ar 10195  0.6716368E+02  0.2334992E+02  0.7410850E+02  0.0000000E+00
Ar 10196  0.6429997E+02  0.2562964E+02  0.7421549E+02  0.0000000E+00
Ar 10197  0.6414719E+02  0.2326870E+02  0.7703088E+02  0.0000000E+00
Ar 10198  0.6714346E+02  0.2610480E+02  0.7665635E+02  0.0000000E+00
Ar 10199  0.6710923E+02  0.2246232E+02  0.7955456E+02  0.0000000E+00
Ar 10200  0.6503205E+02  0.2616694E+02  0.7957577E+02  0.0000000E+00
Ar 10201  0.6416561E+02  0.2827689E+02  0.8237009E+02  0.0000000E+00
Ar 10202  0.6718676E+02  0.3161229E+02  0.8233352E+02  0.0000000E+00
Ar 10203  0.6760600E+02  0.2850561E+02  0.6805405E+00  0.0000000E+00
Ar 10204  0.6520059E+02  0.3171583E+02  0.8857561E+00  0.0000000E+00
Ar 10205  0.6457187E+02  0.2824682E+02  0.2965179E+01  0.0000000E+00
Ar 10206  0.6753396E+02  0.3093973E+02  0.3893192E+01  0.0000000E+00
Ar 10207  0.6725609E+02  0.2841056E+02  0.6452592E+01  0.0000000E+00
Ar 10208  0.6487360E+02  0.3138332E+02  0.6223297E+01  0.0000000E+00
Ar 10209  0.6441215E+02  0.2856433E+02  0.8786751E+01  0.0000000E+00
Ar 10210  0.6765963E+02  0.3138295E+02  0.9306645E+01  0.0000000E+00
Ar 10211  0.6765513E+02  0.2792839E+02  0.1285523E+02  0.0000000E+00
Ar 10212  0.6503407E+02  0.3082784E+02  0.1228661E+02  0.0000000E+00
Ar 10213  0.6532406E+02  0.2833055E+02  0.1593109E+02  0.0000000E+00
Ar 10214  0.6739253E+02  0.3122321E+02  0.1507418E+02  0.0000000E+00
Ar 10215  0.6859388E+02  0.2894228E+02  0.1814850E+02  0.0000000E+00
Ar 10216  0.6542831E+02  0.3119100E+02  0.1793233E+02  0.0000000E+00
Ar 10217  0.6519164E+02  0.2845137E+02  0.2065233E+02  0.0000000E+00
Ar 10218  0.6772633E+02  0.3093046E+02  0.2113583E+02  0.0000000E+00
Ar 10219  0.6757308E+02  0.2828588E+02  0.2401986E+02  0.0000000E+00
Ar 10220  0.6456902E+02  0.3107833E+02  0.2328797E+02  0.0000000E+00
Ar 10221  0.6507322E+02  0.2906776E+02  0.2626650E+02  0.0000000E+00
Ar 10222  0.6777619E+02  0.3150571E+02  0.2641509E+02  0.0000000E+00
Ar 10223  0.6812356E+02  0.2898202E+02  0.2920997E+02  0.0000000E+00
Ar 10224  0.6496569E+02  0.3135940E+02  0.2928139E+02  0.0000000E+00
Ar 10225  0.6495669E+02  0.2833328E+02  0.3235995E+02  0.0000000E+00
Ar 10226  0.6740359E+02  0.3102453E+02  0.3275510E+02  0.0000000E+00
Ar 10227  0.6778766E+02  0.2823356E+02  0.3532166E+02  0.0000000E+00
Ar 10228  0.6451674E+02  0.3109775E+02  0.3494918E+02  0.0000000E+00
Ar 10229  0.6497909E+02  0.2842246E+02  0.3785009E+02  0.0000000E+00
Ar 10230  0.6750447E+02  0.3111506E+02  0.3752009E+02  0.0000000E+00
Ar 10231  0.6743077E+02  0.2902797E+02  0.4052495E+02  0.0000000E+00
Ar 10232  0.6474262E+02  0.3124339E+02  0.4108215E+02  0.0000000E+00
Ar 10233  0.6486252E+02  0.2868922E+02  0.4399692E+02  0.0000000E+00
Ar 10234  0.6788417E+02  0.3181910E+02  0.4337564E+02  0.0000000E+00
Ar 10235  0.6767957E+02  0.2833653E+02  0.4631911E+02  0.0000000E+00
Ar 10236  0.6424150E+02  0.3187047E+02  0.4610873E+02  0.0000000E+00
Ar 10237  0.6488407E+02  0.2883829E+02  0.4882011E+02  0.0000000E+00
Ar 10238  0.6788865E+02  0.3143536E+02  0.4857499E+02  0.0000000E+00
Ar 10239  0.6749314E+02  0.2893830E+02  0.5187987E+02  0.0000000E+00
Ar 10240  0.6436096E+02  0.3163529E+02  0.5161631E+02  0.0000000E+00
Ar 10241  0.6444976E+02  0.2900979E+02  0.5473108E+02  0.0000000E+00
Ar 10242  0.6697875E+02  0.3200163E+02  0.5404111E+02  0.0000000E+00
Ar 10243  0.6736967E+02  0.2882360E+02  0.5815768E+02  0.0000000E+00
Ar 10244  0.6490617E+02  0.3127627E+02  0.5758839E+02  0.0000000E+00
Ar 10245  0.6442083E+02  0.2889534E+02  0.6052577E+02  0.0000000E+00
Ar 10246  0.6756466E+02  0.3179660E+02  0.6050504E+02  0.0000000E+00
Ar 10247  0.6756919E+02  0.2821541E+02  0.6367163E+02  0.0000000E+00
Ar 10248  0.6432386E+02  0.3184028E+02  0.6294805E+02  0.0000000E+00
Ar 10249  0.6389369E+02  0.2842762E+02  0.6602412E+02  0.0000000E+00
Ar 10250  0.6770512E+02  0.3097080E+02  0.6604961E+02  0.0000000E+00
Ar 10251  0.6630056E+02  0.2932301E+02  0.6897146E+02  0.0000000E+00
Ar 10252  0.6429912E+02  0.3205959E+02  0.6884841E+02  0.0000000E+00
Ar 10253  0.6406897E+02  0.2831296E+02  0.7155259E+02  0.0000000E+00
Ar 10254  0.6666420E+02  0.3166614E+02  0.7154645E+02  0.0000000E+00
Ar 10255  0.6705300E+02  0.2844389E+02  0.7405413E+02  0.0000000E+00
Ar 10256  0.6437802E+02  0.3090759E+02  0.7423031E+02  0.0000000E+00
Ar 10257  0.6436625E+02  0.2826910E+02  0.7678409E+02  0.0000000E+00
Ar 10258  0.6676032E+02  0.3100026E+02  0.7721065E+02  0.0000000E+00
Ar 10259  0.6658562E+02  0.2901858E+02  0.7994933E+02  0.0000000E+00
Ar 10260  0.6424164E+02  0.3145796E+02  0.7987901E+02  0.0000000E+00
Ar 10261  0.6437830E+02  0.3415030E+02  0.8249038E+02  0.0000000E+00
Ar 10262  0.6705877E+02  0.3654341E+02  0.8204545E+02  0.0000000E+00
Ar 10263  0.6780120E+02  0.3446318E+02  0.8372987E+00  0.0000000E+00
Ar 10264  0.6496067E+02  0.3704224E+02  0.1000081E+01  0.0000000E+00
Ar 10265  0.6503765E+02  0.3425192E+02  0.3760794E+01  0.0000000E+00
Ar 10266  0.6771986E+02  0.3707095E+02  0.3480827E+01  0.0000000E+00
Ar 10267  0.6803148E+02  0.3415488E+02  0.5518522E+01  0.0000000E+00
Ar 10268  0.6451053E+02  0.3615161E+02  0.7179577E+01  0.0000000E+00
Ar 10269  0.6489472E+02  0.3369536E+02  0.9809955E+01  0.0000000E+00
Ar 10270  0.6756400E+02  0.3637915E+02  0.9261539E+01  0.0000000E+00
Ar 10271  0.6778823E+02  0.3401516E+02  0.1219319E+02  0.0000000E+00
Ar 10272  0.6499599E+02  0.3696573E+02  0.1262844E+02  0.0000000E+00
Ar 10273  0.6503991E+02  0.3404506E+02  0.1533959E+02  0.0000000E+00
Ar 10274  0.6782138E+02  0.3740946E+02  0.1484031E+02  0.0000000E+00
Ar 10275  0.6800809E+02  0.3328914E+02  0.1767891E+02  0.0000000E+00
Ar 10276  0.6545155E+02  0.3666389E+02  0.1805815E+02  0.0000000E+00
Ar 10277  0.6532638E+02  0.3400033E+02  0.2024504E+02  0.0000000E+00
Ar 10278  0.6794352E+02  0.3742520E+02  0.2090759E+02  0.0000000E+00
Ar 10279  0.6792236E+02  0.3447357E+02  0.2290217E+02  0.0000000E+00
Ar 10280  0.6478960E+02  0.3719118E+02  0.2358512E+02  0.0000000E+00
Ar 10281  0.6563146E+02  0.3421833E+02  0.2588720E+02  0.0000000E+00
Ar 10282  0.6785279E+02  0.3722713E+02  0.2705529E+02  0.0000000E+00
Ar 10283  0.6727460E+02  0.3393770E+02  0.2997082E+02  0.0000000E+00
Ar 10284  0.6493801E+02  0.3742015E+02  0.2891592E+02  0.0000000E+00
Ar 10285  0.6495527E+02  0.3374729E+02  0.3263986E+02  0.0000000E+00
Ar 10286  0.6743656E+02  0.3722084E+02  0.3211529E+02  0.0000000E+00
Ar 10287  0.6726590E+02  0.3388256E+02  0.3526892E+02  0.0000000E+00
Ar 10288  0.6499788E+02  0.3689601E+02  0.3501367E+02  0.0000000E+00
Ar 10289  0.6486688E+02  0.3408219E+02  0.3841154E+02  0.0000000E+00
Ar 10290  0.6743650E+02  0.3704059E+02  0.3822666E+02  0.0000000E+00
Ar 10291  0.6848186E+02  0.3389024E+02  0.4027836E+02  0.0000000E+00
Ar 10292  0.6530466E+02  0.3775242E+02  0.4046469E+02  0.0000000E+00
Ar 10293  0.6484226E+02  0.3421816E+02  0.4318110E+02  0.0000000E+00
Ar 10294  0.6796552E+02  0.3658048E+02  0.4285738E+02  0.0000000E+00
Ar 10295  0.6769818E+02  0.3403398E+02  0.4584334E+02  0.0000000E+00
Ar 10296  0.6507728E+02  0.3672349E+02  0.4618933E+02  0.0000000E+00
Ar 10297  0.6433589E+02  0.3476051E+02  0.4905026E+02  0.0000000E+00
Ar 10298  0.6792692E+02  0.3663294E+02  0.4898528E+02  0.0000000E+00
Ar 10299  0.6686236E+02  0.3513431E+02  0.5233522E+02  0.0000000E+00
Ar 10300  0.6415653E+02  0.3723825E+02  0.5154267E+02  0.0000000E+00
Ar 10301  0.6455630E+02  0.3435974E+02  0.5475785E+02  0.0000000E+00
Ar 10302  0.6736304E+02  0.3747099E+02  0.5497051E+02  0.0000000E+00
Ar 10303  0.6735676E+02  0.3388832E+02  0.5747263E+02  0.0000000E+00
Ar 10304  0.6393286E+02  0.3718017E+02  0.5723930E+02  0.0000000E+00
Ar 10305  0.6420085E+02  0.3446980E+02  0.5996543E+02  0.0000000E+00
Ar 10306  0.6700406E+02  0.3658711E+02  0.6021932E+02  0.0000000E+00
Ar 10307  0.6731045E+02  0.3411455E+02  0.6333741E+02  0.0000000E+00
Ar 10308  0.6472093E+02  0.3699592E+02  0.6298313E+02  0.0000000E+00
Ar 10309  0.6467983E+02  0.3435886E+02  0.6609357E+02  0.0000000E+00
Ar 10310  0.6736836E+02  0.3738153E+02  0.6616329E+02  0.0000000E+00
Ar 10311  0.6715146E+02  0.3454323E+02  0.6899011E+02  0.0000000E+00
Ar 10312  0.6405542E+02  0.3696106E+02  0.6889230E+02  0.0000000E+00
Ar 10313  0.6418433E+02  0.3401330E+02  0.7153278E+02  0.0000000E+00
Ar 10314  0.6681507E+02  0.3691828E+02  0.7179857E+02  0.0000000E+00
Ar 10315  0.6662368E+02  0.3446440E+02  0.7428994E+02  0.0000000E+00
Ar 10316  0.6387870E+02  0.3712469E+02  0.7480291E+02  0.0000000E+00
Ar 10317  0.6464849E+02  0.3436028E+02  0.7748858E+02  0.0000000E+00
Ar 10318  0.6663928E+02  0.3713924E+02  0.7714853E+02  0.0000000E+00
Ar 10319  0.6711689E+02  0.3366323E+02  0.7969007E+02  0.0000000E+00
Ar 10320  0.6423166E+02  0.3757684E+02  0.8002686E+02  0.0000000E+00
Ar 10321  0.6439107E+02  0.4020859E+02  0.8263889E+02  0.0000000E+00
Ar 10322  0.6721440E+02  0.4249252E+02  0.8288305E+02  0.0000000E+00
Ar 10323  0.6779285E+02  0.3987612E+02  0.1037672E+01  0.0000000E+00
Ar 10324  0.6474681E+02  0.4292935E+02  0.9701100E+00  0.0000000E+00
Ar 10325  0.6510744E+02  0.3962556E+02  0.4306202E+01  0.0000000E+00
Ar 10326  0.6778599E+02  0.4286325E+02  0.4004815E+01  0.0000000E+00
Ar 10327  0.6805949E+02  0.3943166E+02  0.6772874E+01  0.0000000E+00
Ar 10328  0.6520324E+02  0.4223058E+02  0.7089901E+01  0.0000000E+00
Ar 10329  0.6570705E+02  0.3951122E+02  0.9312295E+01  0.0000000E+00
Ar 10330  0.6743435E+02  0.4300456E+02  0.9944733E+01  0.0000000E+00
Ar 10331  0.6820575E+02  0.3975986E+02  0.1220013E+02  0.0000000E+00
Ar 10332  0.6528135E+02  0.4222126E+02  0.1249874E+02  0.0000000E+00
Ar 10333  0.6476794E+02  0.3976278E+02  0.1524883E+02  0.0000000E+00
Ar 10334  0.6811143E+02  0.4222796E+02  0.1525909E+02  0.0000000E+00
Ar 10335  0.6720081E+02  0.3965565E+02  0.1795749E+02  0.0000000E+00
Ar 10336  0.6462292E+02  0.4208404E+02  0.1867553E+02  0.0000000E+00
Ar 10337  0.6487234E+02  0.3935676E+02  0.2088568E+02  0.0000000E+00
Ar 10338  0.6729730E+02  0.4271554E+02  0.2133878E+02  0.0000000E+00
Ar 10339  0.6726461E+02  0.4041369E+02  0.2379727E+02  0.0000000E+00
Ar 10340  0.6464947E+02  0.4265468E+02  0.2413520E+02  0.0000000E+00
Ar 10341  0.6458689E+02  0.4001522E+02  0.2644519E+02  0.0000000E+00
Ar 10342  0.6810335E+02  0.4251201E+02  0.2662803E+02  0.0000000E+00
Ar 10343  0.6787675E+02  0.3989460E+02  0.2951022E+02  0.0000000E+00
Ar 10344  0.6540619E+02  0.4230222E+02  0.2898353E+02  0.0000000E+00
Ar 10345  0.6514266E+02  0.4075635E+02  0.3272585E+02  0.0000000E+00
Ar 10346  0.6790831E+02  0.4299463E+02  0.3244318E+02  0.0000000E+00
Ar 10347  0.6768707E+02  0.4025843E+02  0.3571558E+02  0.0000000E+00
Ar 10348  0.6538508E+02  0.4321996E+02  0.3563104E+02  0.0000000E+00
Ar 10349  0.6479192E+02  0.3972904E+02  0.3764213E+02  0.0000000E+00
Ar 10350  0.6830429E+02  0.4257979E+02  0.3825778E+02  0.0000000E+00
Ar 10351  0.6817615E+02  0.3980189E+02  0.4119886E+02  0.0000000E+00
Ar 10352  0.6527388E+02  0.4200526E+02  0.4051151E+02  0.0000000E+00
Ar 10353  0.6460884E+02  0.4028590E+02  0.4369001E+02  0.0000000E+00
Ar 10354  0.6844015E+02  0.4221524E+02  0.4372035E+02  0.0000000E+00
Ar 10355  0.6697756E+02  0.4005258E+02  0.4635386E+02  0.0000000E+00
Ar 10356  0.6436407E+02  0.4288223E+02  0.4630774E+02  0.0000000E+00
Ar 10357  0.6390645E+02  0.3956922E+02  0.4847807E+02  0.0000000E+00
Ar 10358  0.6777545E+02  0.4246118E+02  0.4891082E+02  0.0000000E+00
Ar 10359  0.6755006E+02  0.3927194E+02  0.5174364E+02  0.0000000E+00
Ar 10360  0.6454614E+02  0.4266436E+02  0.5112703E+02  0.0000000E+00
Ar 10361  0.6485762E+02  0.3992430E+02  0.5440704E+02  0.0000000E+00
Ar 10362  0.6769265E+02  0.4220392E+02  0.5493869E+02  0.0000000E+00
Ar 10363  0.6741999E+02  0.4016438E+02  0.5767409E+02  0.0000000E+00
Ar 10364  0.6481605E+02  0.4255919E+02  0.5694128E+02  0.0000000E+00
Ar 10365  0.6521346E+02  0.3998240E+02  0.6093137E+02  0.0000000E+00
Ar 10366  0.6738671E+02  0.4276609E+02  0.6044037E+02  0.0000000E+00
Ar 10367  0.6721507E+02  0.4050682E+02  0.6361788E+02  0.0000000E+00
Ar 10368  0.6478922E+02  0.4312666E+02  0.6355597E+02  0.0000000E+00
Ar 10369  0.6449731E+02  0.3996586E+02  0.6598913E+02  0.0000000E+00
Ar 10370  0.6755838E+02  0.4330682E+02  0.6650454E+02  0.0000000E+00
Ar 10371  0.6744810E+02  0.4009253E+02  0.6940524E+02  0.0000000E+00
Ar 10372  0.6458453E+02  0.4323228E+02  0.6886181E+02  0.0000000E+00
Ar 10373  0.6464577E+02  0.4027572E+02  0.7108196E+02  0.0000000E+00
Ar 10374  0.6751179E+02  0.4276651E+02  0.7189683E+02  0.0000000E+00
Ar 10375  0.6725707E+02  0.3992430E+02  0.7405440E+02  0.0000000E+00
Ar 10376  0.6416814E+02  0.4215083E+02  0.7422804E+02  0.0000000E+00
Ar 10377  0.6396717E+02  0.3995319E+02  0.7716019E+02  0.0000000E+00
Ar 10378  0.6664451E+02  0.4280318E+02  0.7678995E+02  0.0000000E+00
Ar 10379  0.6663521E+02  0.4035539E+02  0.7974913E+02  0.0000000E+00
Ar 10380  0.6380641E+02  0.4300665E+02  0.7953582E+02  0.0000000E+00
Ar 10381  0.6428893E+02  0.4540969E+02  0.8236556E+02  0.0000000E+00
Ar 10382  0.6685167E+02  0.4834612E+02  0.8259253E+02  0.0000000E+00
Ar 10383  0.6680078E+02  0.4554775E+02  0.1472077E+01  0.0000000E+00
Ar 10384  0.6393142E+02  0.4816599E+02  0.1513670E+01  0.0000000E+00
Ar 10385  0.6443005E+02  0.4526158E+02  0.4772662E+01  0.0000000E+00
Ar 10386  0.6700404E+02  0.4825197E+02  0.4106273E+01  0.0000000E+00
Ar 10387  0.6743699E+02  0.4541105E+02  0.6942690E+01  0.0000000E+00
Ar 10388  0.6417968E+02  0.4827150E+02  0.7072204E+01  0.0000000E+00
Ar 10389  0.6470676E+02  0.4543477E+02  0.9437385E+01  0.0000000E+00
Ar 10390  0.6781588E+02  0.4842887E+02  0.9652164E+01  0.0000000E+00
Ar 10391  0.6723906E+02  0.4598847E+02  0.1226940E+02  0.0000000E+00
Ar 10392  0.6459916E+02  0.4850026E+02  0.1273152E+02  0.0000000E+00
Ar 10393  0.6521749E+02  0.4447231E+02  0.1525819E+02  0.0000000E+00
Ar 10394  0.6703357E+02  0.4757862E+02  0.1530643E+02  0.0000000E+00
Ar 10395  0.6696131E+02  0.4517049E+02  0.1833135E+02  0.0000000E+00
Ar 10396  0.6498492E+02  0.4838887E+02  0.1892015E+02  0.0000000E+00
Ar 10397  0.6481870E+02  0.4558594E+02  0.2129515E+02  0.0000000E+00
Ar 10398  0.6740021E+02  0.4832179E+02  0.2165054E+02  0.0000000E+00
Ar 10399  0.6755502E+02  0.4561062E+02  0.2468635E+02  0.0000000E+00
Ar 10400  0.6478320E+02  0.4803631E+02  0.2432986E+02  0.0000000E+00
Ar 10401  0.6433376E+02  0.4517102E+02  0.2672476E+02  0.0000000E+00
Ar 10402  0.6734282E+02  0.4804097E+02  0.2732896E+02  0.0000000E+00
Ar 10403  0.6793466E+02  0.4518013E+02  0.2953033E+02  0.0000000E+00
Ar 10404  0.6454594E+02  0.4804527E+02  0.2964982E+02  0.0000000E+00
Ar 10405  0.6476317E+02  0.4515854E+02  0.3172286E+02  0.0000000E+00
Ar 10406  0.6779475E+02  0.4835426E+02  0.3190391E+02  0.0000000E+00
Ar 10407  0.6711566E+02  0.4608712E+02  0.3487647E+02  0.0000000E+00
Ar 10408  0.6483253E+02  0.4862703E+02  0.3427318E+02  0.0000000E+00
Ar 10409  0.6490939E+02  0.4532370E+02  0.3829851E+02  0.0000000E+00
Ar 10410  0.6736470E+02  0.4849986E+02  0.3756296E+02  0.0000000E+00
Ar 10411  0.6826823E+02  0.4495600E+02  0.4139299E+02  0.0000000E+00
Ar 10412  0.6578505E+02  0.4780307E+02  0.4078857E+02  0.0000000E+00
Ar 10413  0.6491525E+02  0.4511654E+02  0.4337919E+02  0.0000000E+00
Ar 10414  0.6803005E+02  0.4806140E+02  0.4367980E+02  0.0000000E+00
Ar 10415  0.6742101E+02  0.4501530E+02  0.4622652E+02  0.0000000E+00
Ar 10416  0.6449508E+02  0.4807378E+02  0.4600129E+02  0.0000000E+00
Ar 10417  0.6460952E+02  0.4584844E+02  0.4876979E+02  0.0000000E+00
Ar 10418  0.6752113E+02  0.4796064E+02  0.4883130E+02  0.0000000E+00
Ar 10419  0.6718633E+02  0.4606440E+02  0.5178415E+02  0.0000000E+00
Ar 10420  0.6399721E+02  0.4756486E+02  0.5190535E+02  0.0000000E+00
Ar 10421  0.6530167E+02  0.4487145E+02  0.5466646E+02  0.0000000E+00
Ar 10422  0.6782255E+02  0.4816794E+02  0.5479653E+02  0.0000000E+00
Ar 10423  0.6728953E+02  0.4526490E+02  0.5794734E+02  0.0000000E+00
Ar 10424  0.6486411E+02  0.4761693E+02  0.5744128E+02  0.0000000E+00
Ar 10425  0.6427183E+02  0.4489912E+02  0.6065829E+02  0.0000000E+00
Ar 10426  0.6738781E+02  0.4809710E+02  0.6053209E+02  0.0000000E+00
Ar 10427  0.6737740E+02  0.4562073E+02  0.6341409E+02  0.0000000E+00
Ar 10428  0.6404615E+02  0.4793037E+02  0.6309649E+02  0.0000000E+00
Ar 10429  0.6408138E+02  0.4562942E+02  0.6600731E+02  0.0000000E+00
Ar 10430  0.6703012E+02  0.4903805E+02  0.6508708E+02  0.0000000E+00
Ar 10431  0.6706917E+02  0.4590525E+02  0.6899478E+02  0.0000000E+00
Ar 10432  0.6443000E+02  0.4849545E+02  0.6839362E+02  0.0000000E+00
Ar 10433  0.6476465E+02  0.4548242E+02  0.7171088E+02  0.0000000E+00
Ar 10434  0.6657826E+02  0.4863598E+02  0.7144095E+02  0.0000000E+00
Ar 10435  0.6720460E+02  0.4549869E+02  0.7429698E+02  0.0000000E+00
Ar 10436  0.6435167E+02  0.4854074E+02  0.7413837E+02  0.0000000E+00
Ar 10437  0.6438089E+02  0.4590582E+02  0.7747191E+02  0.0000000E+00
Ar 10438  0.6678661E+02  0.4838206E+02  0.7723039E+02  0.0000000E+00
Ar 10439  0.6688806E+02  0.4511933E+02  0.7995879E+02  0.0000000E+00
Ar 10440  0.6401577E+02  0.4825095E+02  0.8006407E+02  0.0000000E+00
Ar 10441  0.6389002E+02  0.5109877E+02  0.8314340E+02  0.0000000E+00
Ar 10442  0.6758399E+02  0.5386712E+02  0.8266711E+02  0.0000000E+00
Ar 10443  0.6648719E+02  0.5112362E+02  0.1757932E+01  0.0000000E+00
Ar 10444  0.6421806E+02  0.5420436E+02  0.1278679E+01  0.0000000E+00
Ar 10445  0.6366477E+02  0.5041702E+02  0.4026690E+01  0.0000000E+00
Ar 10446  0.6731264E+02  0.5350241E+02  0.4364461E+01  0.0000000E+00
Ar 10447  0.6721841E+02  0.5114210E+02  0.7042694E+01  0.0000000E+00
Ar 10448  0.6434236E+02  0.5335374E+02  0.6270943E+01  0.0000000E+00
Ar 10449  0.6465412E+02  0.5071967E+02  0.9524482E+01  0.0000000E+00
Ar 10450  0.6742778E+02  0.5353360E+02  0.1008042E+02  0.0000000E+00
Ar 10451  0.6691304E+02  0.5097561E+02  0.1245270E+02  0.0000000E+00
Ar 10452  0.6438807E+02  0.5383993E+02  0.1210212E+02  0.0000000E+00
Ar 10453  0.6510192E+02  0.5039135E+02  0.1587726E+02  0.0000000E+00
Ar 10454  0.6683212E+02  0.5354616E+02  0.1603498E+02  0.0000000E+00
Ar 10455  0.6744160E+02  0.5089666E+02  0.1872039E+02  0.0000000E+00
Ar 10456  0.6453434E+02  0.5404988E+02  0.1874272E+02  0.0000000E+00
Ar 10457  0.6460859E+02  0.5116966E+02  0.2151234E+02  0.0000000E+00
Ar 10458  0.6732652E+02  0.5321723E+02  0.2183032E+02  0.0000000E+00
Ar 10459  0.6726907E+02  0.5096821E+02  0.2450504E+02  0.0000000E+00
Ar 10460  0.6428557E+02  0.5333573E+02  0.2426192E+02  0.0000000E+00
Ar 10461  0.6459870E+02  0.5131468E+02  0.2730224E+02  0.0000000E+00
Ar 10462  0.6746047E+02  0.5424945E+02  0.2675577E+02  0.0000000E+00
Ar 10463  0.6795210E+02  0.5114397E+02  0.2909218E+02  0.0000000E+00
Ar 10464  0.6423098E+02  0.5406563E+02  0.2938242E+02  0.0000000E+00
Ar 10465  0.6472239E+02  0.5136003E+02  0.3203709E+02  0.0000000E+00
Ar 10466  0.6748677E+02  0.5379718E+02  0.3231062E+02  0.0000000E+00
Ar 10467  0.6743418E+02  0.5085926E+02  0.3436971E+02  0.0000000E+00
Ar 10468  0.6493886E+02  0.5313935E+02  0.3556503E+02  0.0000000E+00
Ar 10469  0.6432232E+02  0.5098262E+02  0.3861779E+02  0.0000000E+00
Ar 10470  0.6735611E+02  0.5346345E+02  0.3841682E+02  0.0000000E+00
Ar 10471  0.6789291E+02  0.5068089E+02  0.4066325E+02  0.0000000E+00
Ar 10472  0.6487628E+02  0.5342144E+02  0.4136293E+02  0.0000000E+00
Ar 10473  0.6534046E+02  0.5078898E+02  0.4352543E+02  0.0000000E+00
Ar 10474  0.6764499E+02  0.5375601E+02  0.4391199E+02  0.0000000E+00
Ar 10475  0.6807541E+02  0.5079256E+02  0.4670394E+02  0.0000000E+00
Ar 10476  0.6536004E+02  0.5315946E+02  0.4697928E+02  0.0000000E+00
Ar 10477  0.6471314E+02  0.5014010E+02  0.4899173E+02  0.0000000E+00
Ar 10478  0.6816009E+02  0.5348697E+02  0.4945768E+02  0.0000000E+00
Ar 10479  0.6739450E+02  0.4999197E+02  0.5179226E+02  0.0000000E+00
Ar 10480  0.6412784E+02  0.5293865E+02  0.5240389E+02  0.0000000E+00
Ar 10481  0.6445409E+02  0.5044527E+02  0.5513169E+02  0.0000000E+00
Ar 10482  0.6781879E+02  0.5283264E+02  0.5487225E+02  0.0000000E+00
Ar 10483  0.6799420E+02  0.5054473E+02  0.5772362E+02  0.0000000E+00
Ar 10484  0.6446395E+02  0.5414925E+02  0.5685861E+02  0.0000000E+00
Ar 10485  0.6431645E+02  0.5103988E+02  0.5917479E+02  0.0000000E+00
Ar 10486  0.6714824E+02  0.5396304E+02  0.5905161E+02  0.0000000E+00
Ar 10487  0.6686537E+02  0.5157968E+02  0.6224266E+02  0.0000000E+00
Ar 10488  0.6462815E+02  0.5432903E+02  0.6298149E+02  0.0000000E+00
Ar 10489  0.6382930E+02  0.5195148E+02  0.6572144E+02  0.0000000E+00
Ar 10490  0.6675087E+02  0.5426201E+02  0.6611257E+02  0.0000000E+00
Ar 10491  0.6666444E+02  0.5108531E+02  0.6884018E+02  0.0000000E+00
Ar 10492  0.6413238E+02  0.5425600E+02  0.6944668E+02  0.0000000E+00
Ar 10493  0.6433589E+02  0.5183160E+02  0.7178244E+02  0.0000000E+00
Ar 10494  0.6707360E+02  0.5408903E+02  0.7166253E+02  0.0000000E+00
Ar 10495  0.6674642E+02  0.5120696E+02  0.7463937E+02  0.0000000E+00
Ar 10496  0.6377000E+02  0.5408297E+02  0.7416129E+02  0.0000000E+00
Ar 10497  0.6424733E+02  0.5242724E+02  0.7736709E+02  0.0000000E+00
Ar 10498  0.6772058E+02  0.5409755E+02  0.7707304E+02  0.0000000E+00
Ar 10499  0.6672338E+02  0.5147834E+02  0.8016332E+02  0.0000000E+00
Ar 10500  0.6389271E+02  0.5439636E+02  0.8054666E+02  0.0000000E+00
Ar 10501  0.6373139E+02  0.5700611E+02  0.8305510E+02  0.0000000E+00
Ar 10502  0.6730708E+02  0.5964237E+02  0.8293901E+02  0.0000000E+00
Ar 10503  0.6725224E+02  0.5611201E+02  0.1040467E+01  0.0000000E+00
Ar 10504  0.6354217E+02  0.5951836E+02  0.1031762E+01  0.0000000E+00
Ar 10505  0.6469960E+02  0.5628807E+02  0.4115942E+01  0.0000000E+00
Ar 10506  0.6708569E+02  0.5906502E+02  0.3207317E+01  0.0000000E+00
Ar 10507  0.6735619E+02  0.5635828E+02  0.6934805E+01  0.0000000E+00
Ar 10508  0.6429007E+02  0.5969080E+02  0.7029949E+01  0.0000000E+00
Ar 10509  0.6430030E+02  0.5701263E+02  0.1007169E+02  0.0000000E+00
Ar 10510  0.6719571E+02  0.5943879E+02  0.9223168E+01  0.0000000E+00
Ar 10511  0.6754041E+02  0.5620235E+02  0.1322340E+02  0.0000000E+00
Ar 10512  0.6457215E+02  0.5951125E+02  0.1288483E+02  0.0000000E+00
Ar 10513  0.6461852E+02  0.5617836E+02  0.1511257E+02  0.0000000E+00
Ar 10514  0.6754208E+02  0.5974690E+02  0.1483026E+02  0.0000000E+00
Ar 10515  0.6804462E+02  0.5666435E+02  0.1806568E+02  0.0000000E+00
Ar 10516  0.6473486E+02  0.5895879E+02  0.1822502E+02  0.0000000E+00
Ar 10517  0.6515464E+02  0.5623914E+02  0.2155991E+02  0.0000000E+00
Ar 10518  0.6771521E+02  0.5903781E+02  0.2106776E+02  0.0000000E+00
Ar 10519  0.6787280E+02  0.5629545E+02  0.2373687E+02  0.0000000E+00
Ar 10520  0.6440712E+02  0.5911390E+02  0.2333717E+02  0.0000000E+00
Ar 10521  0.6321774E+02  0.5676376E+02  0.2679250E+02  0.0000000E+00
Ar 10522  0.6733820E+02  0.5927360E+02  0.2669941E+02  0.0000000E+00
Ar 10523  0.6720154E+02  0.5616166E+02  0.2976035E+02  0.0000000E+00
Ar 10524  0.6471977E+02  0.5867171E+02  0.2937962E+02  0.0000000E+00
Ar 10525  0.6468838E+02  0.5676036E+02  0.3284000E+02  0.0000000E+00
Ar 10526  0.6732882E+02  0.5893316E+02  0.3295068E+02  0.0000000E+00
Ar 10527  0.6747668E+02  0.5700002E+02  0.3594135E+02  0.0000000E+00
Ar 10528  0.6462396E+02  0.5904369E+02  0.3588466E+02  0.0000000E+00
Ar 10529  0.6470144E+02  0.5628651E+02  0.3847283E+02  0.0000000E+00
Ar 10530  0.6778209E+02  0.5956902E+02  0.3835211E+02  0.0000000E+00
Ar 10531  0.6719643E+02  0.5672507E+02  0.4103485E+02  0.0000000E+00
Ar 10532  0.6434367E+02  0.5933812E+02  0.4060147E+02  0.0000000E+00
Ar 10533  0.6456310E+02  0.5637548E+02  0.4360572E+02  0.0000000E+00
Ar 10534  0.6739221E+02  0.6004719E+02  0.4387035E+02  0.0000000E+00
Ar 10535  0.6738282E+02  0.5639165E+02  0.4625862E+02  0.0000000E+00
Ar 10536  0.6448173E+02  0.5928076E+02  0.4706624E+02  0.0000000E+00
Ar 10537  0.6519983E+02  0.5588130E+02  0.4973832E+02  0.0000000E+00
Ar 10538  0.6742302E+02  0.5963066E+02  0.4963254E+02  0.0000000E+00
Ar 10539  0.6806751E+02  0.5604578E+02  0.5302892E+02  0.0000000E+00
Ar 10540  0.6459359E+02  0.5980969E+02  0.5228805E+02  0.0000000E+00
Ar 10541  0.6465838E+02  0.5694655E+02  0.5452606E+02  0.0000000E+00
Ar 10542  0.6720185E+02  0.5978816E+02  0.5464525E+02  0.0000000E+00
Ar 10543  0.6768366E+02  0.5667433E+02  0.5701720E+02  0.0000000E+00
Ar 10544  0.6460037E+02  0.5960321E+02  0.5725314E+02  0.0000000E+00
Ar 10545  0.6471090E+02  0.5667028E+02  0.6010292E+02  0.0000000E+00
Ar 10546  0.6789240E+02  0.5922054E+02  0.5903363E+02  0.0000000E+00
Ar 10547  0.6765451E+02  0.5724645E+02  0.6259352E+02  0.0000000E+00
Ar 10548  0.6487325E+02  0.6000439E+02  0.6349826E+02  0.0000000E+00
Ar 10549  0.6444874E+02  0.5695162E+02  0.6533136E+02  0.0000000E+00
Ar 10550  0.6756060E+02  0.5965200E+02  0.6592085E+02  0.0000000E+00
Ar 10551  0.6745937E+02  0.5657336E+02  0.6859287E+02  0.0000000E+00
Ar 10552  0.6454411E+02  0.5917544E+02  0.6836381E+02  0.0000000E+00
Ar 10553  0.6488919E+02  0.5686064E+02  0.7134858E+02  0.0000000E+00
Ar 10554  0.6728299E+02  0.5971793E+02  0.7090405E+02  0.0000000E+00
Ar 10555  0.6679972E+02  0.5621001E+02  0.7452376E+02  0.0000000E+00
Ar 10556  0.6468828E+02  0.5908123E+02  0.7451489E+02  0.0000000E+00
Ar 10557  0.6420350E+02  0.5667389E+02  0.7717871E+02  0.0000000E+00
Ar 10558  0.6731052E+02  0.5879265E+02  0.7687326E+02  0.0000000E+00
Ar 10559  0.6656831E+02  0.5733888E+02  0.8028384E+02  0.0000000E+00
Ar 10560  0.6382614E+02  0.5917215E+02  0.7979802E+02  0.0000000E+00
Ar 10561  0.6419298E+02  0.6271277E+02  0.8276183E+02  0.0000000E+00
Ar 10562  0.6674212E+02  0.6502987E+02  0.8327923E+02  0.0000000E+00
Ar 10563  0.6669476E+02  0.6187753E+02  0.1151493E+01  0.0000000E+00
Ar 10564  0.6470829E+02  0.6469999E+02  0.1885097E+01  0.0000000E+00
Ar 10565  0.6423024E+02  0.6200350E+02  0.4247783E+01  0.0000000E+00
Ar 10566  0.6724861E+02  0.6526097E+02  0.4510294E+01  0.0000000E+00
Ar 10567  0.6749176E+02  0.6223843E+02  0.6721803E+01  0.0000000E+00
Ar 10568  0.6462749E+02  0.6470201E+02  0.6856019E+01  0.0000000E+00
Ar 10569  0.6455528E+02  0.6214189E+02  0.9299875E+01  0.0000000E+00
Ar 10570  0.6689255E+02  0.6538409E+02  0.9563439E+01  0.0000000E+00
Ar 10571  0.6731105E+02  0.6206915E+02  0.1224061E+02  0.0000000E+00
Ar 10572  0.6442567E+02  0.6472815E+02  0.1211602E+02  0.0000000E+00
Ar 10573  0.6434495E+02  0.6279802E+02  0.1501922E+02  0.0000000E+00
Ar 10574  0.6781325E+02  0.6610484E+02  0.1572334E+02  0.0000000E+00
Ar 10575  0.6759041E+02  0.6269349E+02  0.1769400E+02  0.0000000E+00
Ar 10576  0.6501566E+02  0.6460422E+02  0.1905460E+02  0.0000000E+00
Ar 10577  0.6413553E+02  0.6195272E+02  0.2115659E+02  0.0000000E+00
Ar 10578  0.6709774E+02  0.6510598E+02  0.2183206E+02  0.0000000E+00
Ar 10579  0.6695135E+02  0.6143234E+02  0.2380702E+02  0.0000000E+00
Ar 10580  0.6397049E+02  0.6429867E+02  0.2421056E+02  0.0000000E+00
Ar 10581  0.6493970E+02  0.6194160E+02  0.2744133E+02  0.0000000E+00
Ar 10582  0.6751139E+02  0.6423270E+02  0.2685942E+02  0.0000000E+00
Ar 10583  0.6750771E+02  0.6186517E+02  0.2987181E+02  0.0000000E+00
Ar 10584  0.6454632E+02  0.6460733E+02  0.3004283E+02  0.0000000E+00
Ar 10585  0.6463852E+02  0.6168024E+02  0.3259840E+02  0.0000000E+00
Ar 10586  0.6741198E+02  0.6467224E+02  0.3243678E+02  0.0000000E+00
Ar 10587  0.6722782E+02  0.6212677E+02  0.3531275E+02  0.0000000E+00
Ar 10588  0.6492826E+02  0.6505402E+02  0.3493860E+02  0.0000000E+00
Ar 10589  0.6425527E+02  0.6218442E+02  0.3750352E+02  0.0000000E+00
Ar 10590  0.6665398E+02  0.6449966E+02  0.3818610E+02  0.0000000E+00
Ar 10591  0.6679124E+02  0.6237648E+02  0.4126237E+02  0.0000000E+00
Ar 10592  0.6430494E+02  0.6520698E+02  0.4174442E+02  0.0000000E+00
Ar 10593  0.6453097E+02  0.6207106E+02  0.4459093E+02  0.0000000E+00
Ar 10594  0.6761019E+02  0.6530872E+02  0.4312289E+02  0.0000000E+00
Ar 10595  0.6788445E+02  0.6247599E+02  0.4649323E+02  0.0000000E+00
Ar 10596  0.6494523E+02  0.6515019E+02  0.4666496E+02  0.0000000E+00
Ar 10597  0.6455799E+02  0.6212795E+02  0.4951364E+02  0.0000000E+00
Ar 10598  0.6737148E+02  0.6477313E+02  0.4922924E+02  0.0000000E+00
Ar 10599  0.6659411E+02  0.6275447E+02  0.5223660E+02  0.0000000E+00
Ar 10600  0.6450880E+02  0.6518131E+02  0.5151351E+02  0.0000000E+00
Ar 10601  0.6417175E+02  0.6305604E+02  0.5484953E+02  0.0000000E+00
Ar 10602  0.6690942E+02  0.6580141E+02  0.5456452E+02  0.0000000E+00
Ar 10603  0.6776011E+02  0.6293925E+02  0.5719154E+02  0.0000000E+00
Ar 10604  0.6472644E+02  0.6547111E+02  0.5765042E+02  0.0000000E+00
Ar 10605  0.6578906E+02  0.6228258E+02  0.6000931E+02  0.0000000E+00
Ar 10606  0.6755164E+02  0.6544906E+02  0.6054328E+02  0.0000000E+00
Ar 10607  0.6794121E+02  0.6203776E+02  0.6327742E+02  0.0000000E+00
Ar 10608  0.6499486E+02  0.6427756E+02  0.6282179E+02  0.0000000E+00
Ar 10609  0.6472731E+02  0.6220290E+02  0.6630185E+02  0.0000000E+00
Ar 10610  0.6714536E+02  0.6545237E+02  0.6595136E+02  0.0000000E+00
Ar 10611  0.6813295E+02  0.6244673E+02  0.6817002E+02  0.0000000E+00
Ar 10612  0.6449368E+02  0.6547901E+02  0.6889914E+02  0.0000000E+00
Ar 10613  0.6463754E+02  0.6202542E+02  0.7131005E+02  0.0000000E+00
Ar 10614  0.6692101E+02  0.6533619E+02  0.7145608E+02  0.0000000E+00
Ar 10615  0.6688664E+02  0.6209156E+02  0.7394249E+02  0.0000000E+00
Ar 10616  0.6395106E+02  0.6462185E+02  0.7373711E+02  0.0000000E+00
Ar 10617  0.6397139E+02  0.6184239E+02  0.7730652E+02  0.0000000E+00
Ar 10618  0.6687128E+02  0.6473040E+02  0.7648200E+02  0.0000000E+00
Ar 10619  0.6647634E+02  0.6170199E+02  0.7986393E+02  0.0000000E+00
Ar 10620  0.6437533E+02  0.6484826E+02  0.7927662E+02  0.0000000E+00
Ar 10621  0.6411106E+02  0.6741034E+02  0.8208588E+02  0.0000000E+00
Ar 10622  0.6736650E+02  0.7075882E+02  0.8161146E+02  0.0000000E+00
Ar 10623  0.6757456E+02  0.6794397E+02  0.9056992E+00  0.0000000E+00
Ar 10624  0.6401852E+02  0.7040500E+02  0.8512502E+00  0.0000000E+00
Ar 10625  0.6456869E+02  0.6792039E+02  0.3769826E+01  0.0000000E+00
Ar 10626  0.6704235E+02  0.7037839E+02  0.3654088E+01  0.0000000E+00
Ar 10627  0.6688001E+02  0.6787614E+02  0.6721933E+01  0.0000000E+00
Ar 10628  0.6395340E+02  0.7118587E+02  0.6746878E+01  0.0000000E+00
Ar 10629  0.6421638E+02  0.6783609E+02  0.9289234E+01  0.0000000E+00
Ar 10630  0.6753207E+02  0.7102890E+02  0.9467125E+01  0.0000000E+00
Ar 10631  0.6701125E+02  0.6833436E+02  0.1190532E+02  0.0000000E+00
Ar 10632  0.6400088E+02  0.7140043E+02  0.1203709E+02  0.0000000E+00
Ar 10633  0.6463831E+02  0.6731683E+02  0.1474840E+02  0.0000000E+00
Ar 10634  0.6719404E+02  0.7061659E+02  0.1505357E+02  0.0000000E+00
Ar 10635  0.6681147E+02  0.6788628E+02  0.1888576E+02  0.0000000E+00
Ar 10636  0.6441917E+02  0.7057551E+02  0.1777342E+02  0.0000000E+00
Ar 10637  0.6439135E+02  0.6780977E+02  0.2107347E+02  0.0000000E+00
Ar 10638  0.6662934E+02  0.7069605E+02  0.2091031E+02  0.0000000E+00
Ar 10639  0.6681090E+02  0.6807978E+02  0.2415056E+02  0.0000000E+00
Ar 10640  0.6424975E+02  0.7064136E+02  0.2331726E+02  0.0000000E+00
Ar 10641  0.6526500E+02  0.6700570E+02  0.2712516E+02  0.0000000E+00
Ar 10642  0.6774583E+02  0.7032173E+02  0.2679040E+02  0.0000000E+00
Ar 10643  0.6761203E+02  0.6699613E+02  0.2973604E+02  0.0000000E+00
Ar 10644  0.6506686E+02  0.7016984E+02  0.3030528E+02  0.0000000E+00
Ar 10645  0.6433947E+02  0.6798984E+02  0.3277031E+02  0.0000000E+00
Ar 10646  0.6745678E+02  0.7045806E+02  0.3299928E+02  0.0000000E+00
Ar 10647  0.6759792E+02  0.6747170E+02  0.3550175E+02  0.0000000E+00
Ar 10648  0.6449680E+02  0.7113016E+02  0.3535979E+02  0.0000000E+00
Ar 10649  0.6455231E+02  0.6783328E+02  0.3771581E+02  0.0000000E+00
Ar 10650  0.6715802E+02  0.7085202E+02  0.3807663E+02  0.0000000E+00
Ar 10651  0.6720846E+02  0.6723845E+02  0.4031117E+02  0.0000000E+00
Ar 10652  0.6493724E+02  0.7051765E+02  0.4130763E+02  0.0000000E+00
Ar 10653  0.6438962E+02  0.6752860E+02  0.4420479E+02  0.0000000E+00
Ar 10654  0.6712915E+02  0.7087985E+02  0.4459906E+02  0.0000000E+00
Ar 10655  0.6705660E+02  0.6787001E+02  0.4623379E+02  0.0000000E+00
Ar 10656  0.6364195E+02  0.7093520E+02  0.4642730E+02  0.0000000E+00
Ar 10657  0.6443616E+02  0.6806971E+02  0.4912156E+02  0.0000000E+00
Ar 10658  0.6718978E+02  0.7046154E+02  0.4905742E+02  0.0000000E+00
Ar 10659  0.6720562E+02  0.6767323E+02  0.5160108E+02  0.0000000E+00
Ar 10660  0.6434048E+02  0.7029325E+02  0.5175622E+02  0.0000000E+00
Ar 10661  0.6421523E+02  0.6797260E+02  0.5512749E+02  0.0000000E+00
Ar 10662  0.6732185E+02  0.7080930E+02  0.5484110E+02  0.0000000E+00
Ar 10663  0.6689465E+02  0.6843341E+02  0.5752124E+02  0.0000000E+00
Ar 10664  0.6449698E+02  0.7061004E+02  0.5814680E+02  0.0000000E+00
Ar 10665  0.6454791E+02  0.6797513E+02  0.6038009E+02  0.0000000E+00
Ar 10666  0.6713273E+02  0.7138105E+02  0.6047096E+02  0.0000000E+00
Ar 10667  0.6669903E+02  0.6798971E+02  0.6322181E+02  0.0000000E+00
Ar 10668  0.6454405E+02  0.7082290E+02  0.6370379E+02  0.0000000E+00
Ar 10669  0.6408849E+02  0.6773213E+02  0.6610222E+02  0.0000000E+00
Ar 10670  0.6684678E+02  0.7092812E+02  0.6636272E+02  0.0000000E+00
Ar 10671  0.6712282E+02  0.6780498E+02  0.6824923E+02  0.0000000E+00
Ar 10672  0.6440810E+02  0.7025020E+02  0.6874223E+02  0.0000000E+00
Ar 10673  0.6389127E+02  0.6751590E+02  0.7136019E+02  0.0000000E+00
Ar 10674  0.6716783E+02  0.7050614E+02  0.7097433E+02  0.0000000E+00
Ar 10675  0.6753709E+02  0.6744216E+02  0.7418594E+02  0.0000000E+00
Ar 10676  0.6477843E+02  0.6993605E+02  0.7363080E+02  0.0000000E+00
Ar 10677  0.6448729E+02  0.6775101E+02  0.7654562E+02  0.0000000E+00
Ar 10678  0.6749534E+02  0.7051048E+02  0.7702322E+02  0.0000000E+00
Ar 10679  0.6690225E+02  0.6774024E+02  0.7945354E+02  0.0000000E+00
Ar 10680  0.6420969E+02  0.7003618E+02  0.7994703E+02  0.0000000E+00
Ar 10681  0.6435253E+02  0.7347409E+02  0.8207127E+02  0.0000000E+00
Ar 10682  0.6740625E+02  0.7575670E+02  0.8230990E+02  0.0000000E+00
Ar 10683  0.6745902E+02  0.7315431E+02  0.6585937E+00  0.0000000E+00
Ar 10684  0.6503539E+02  0.7597874E+02  0.4849956E+00  0.0000000E+00
Ar 10685  0.6447036E+02  0.7301576E+02  0.2958003E+01  0.0000000E+00
Ar 10686  0.6721203E+02  0.7646345E+02  0.3819302E+01  0.0000000E+00
Ar 10687  0.6717079E+02  0.7312523E+02  0.6596217E+01  0.0000000E+00
Ar 10688  0.6431872E+02  0.7570360E+02  0.5821827E+01  0.0000000E+00
Ar 10689  0.6445318E+02  0.7405150E+02  0.9012959E+01  0.0000000E+00
Ar 10690  0.6784793E+02  0.7595493E+02  0.9082811E+01  0.0000000E+00
Ar 10691  0.6749477E+02  0.7342404E+02  0.1235934E+02  0.0000000E+00
Ar 10692  0.6409303E+02  0.7607588E+02  0.1269314E+02  0.0000000E+00
Ar 10693  0.6453912E+02  0.7288926E+02  0.1538241E+02  0.0000000E+00
Ar 10694  0.6686476E+02  0.7629882E+02  0.1507553E+02  0.0000000E+00
Ar 10695  0.6691858E+02  0.7315073E+02  0.1848471E+02  0.0000000E+00
Ar 10696  0.6495563E+02  0.7616742E+02  0.1846515E+02  0.0000000E+00
Ar 10697  0.6462122E+02  0.7354446E+02  0.2116084E+02  0.0000000E+00
Ar 10698  0.6762281E+02  0.7636509E+02  0.2159800E+02  0.0000000E+00
Ar 10699  0.6742679E+02  0.7351617E+02  0.2392983E+02  0.0000000E+00
Ar 10700  0.6456352E+02  0.7648535E+02  0.2389417E+02  0.0000000E+00
Ar 10701  0.6438497E+02  0.7336263E+02  0.2614367E+02  0.0000000E+00
Ar 10702  0.6760462E+02  0.7604498E+02  0.2608467E+02  0.0000000E+00
Ar 10703  0.6747317E+02  0.7327922E+02  0.2846152E+02  0.0000000E+00
Ar 10704  0.6442477E+02  0.7624869E+02  0.2959188E+02  0.0000000E+00
Ar 10705  0.6433410E+02  0.7380797E+02  0.3215977E+02  0.0000000E+00
Ar 10706  0.6727952E+02  0.7687224E+02  0.3190400E+02  0.0000000E+00
Ar 10707  0.6724644E+02  0.7346709E+02  0.3533641E+02  0.0000000E+00
Ar 10708  0.6436991E+02  0.7650686E+02  0.3432617E+02  0.0000000E+00
Ar 10709  0.6447857E+02  0.7307597E+02  0.3883524E+02  0.0000000E+00
Ar 10710  0.6704728E+02  0.7595503E+02  0.3841832E+02  0.0000000E+00
Ar 10711  0.6746668E+02  0.7285787E+02  0.4091504E+02  0.0000000E+00
Ar 10712  0.6463679E+02  0.7624046E+02  0.4099347E+02  0.0000000E+00
Ar 10713  0.6433868E+02  0.7370357E+02  0.4373342E+02  0.0000000E+00
Ar 10714  0.6715094E+02  0.7558331E+02  0.4314512E+02  0.0000000E+00
Ar 10715  0.6710393E+02  0.7335494E+02  0.4723927E+02  0.0000000E+00
Ar 10716  0.6417527E+02  0.7585006E+02  0.4652416E+02  0.0000000E+00
Ar 10717  0.6376759E+02  0.7359182E+02  0.4947696E+02  0.0000000E+00
Ar 10718  0.6710630E+02  0.7610854E+02  0.4966321E+02  0.0000000E+00
Ar 10719  0.6700142E+02  0.7327961E+02  0.5220480E+02  0.0000000E+00
Ar 10720  0.6371820E+02  0.7636974E+02  0.5304603E+02  0.0000000E+00
Ar 10721  0.6416935E+02  0.7312470E+02  0.5468236E+02  0.0000000E+00
Ar 10722  0.6712879E+02  0.7684377E+02  0.5439315E+02  0.0000000E+00
Ar 10723  0.6695182E+02  0.7352611E+02  0.5731600E+02  0.0000000E+00
Ar 10724  0.6417394E+02  0.7701955E+02  0.5777119E+02  0.0000000E+00
Ar 10725  0.6422827E+02  0.7423786E+02  0.6054088E+02  0.0000000E+00
Ar 10726  0.6713695E+02  0.7657803E+02  0.6038000E+02  0.0000000E+00
Ar 10727  0.6661946E+02  0.7368124E+02  0.6343815E+02  0.0000000E+00
Ar 10728  0.6463798E+02  0.7698827E+02  0.6329756E+02  0.0000000E+00
Ar 10729  0.6392946E+02  0.7367277E+02  0.6570767E+02  0.0000000E+00
Ar 10730  0.6648814E+02  0.7590226E+02  0.6617862E+02  0.0000000E+00
Ar 10731  0.6615633E+02  0.7377233E+02  0.6894264E+02  0.0000000E+00
Ar 10732  0.6396096E+02  0.7633394E+02  0.6844379E+02  0.0000000E+00
Ar 10733  0.6419082E+02  0.7312452E+02  0.7169780E+02  0.0000000E+00
Ar 10734  0.6701026E+02  0.7686031E+02  0.7060581E+02  0.0000000E+00
Ar 10735  0.6703106E+02  0.7279641E+02  0.7410132E+02  0.0000000E+00
Ar 10736  0.6455833E+02  0.7620687E+02  0.7321747E+02  0.0000000E+00
Ar 10737  0.6416865E+02  0.7323349E+02  0.7756573E+02  0.0000000E+00
Ar 10738  0.6683203E+02  0.7641516E+02  0.7667193E+02  0.0000000E+00
Ar 10739  0.6733699E+02  0.7344906E+02  0.7955396E+02  0.0000000E+00
Ar 10740  0.6410453E+02  0.7660274E+02  0.7951878E+02  0.0000000E+00
Ar 10741  0.6449783E+02  0.7849894E+02  0.8257522E+02  0.0000000E+00
Ar 10742  0.6779198E+02  0.8166605E+02  0.8271747E+02  0.0000000E+00
Ar 10743  0.6757095E+02  0.7871396E+02  0.7589333E+00  0.0000000E+00
Ar 10744  0.6451524E+02  0.8173235E+02  0.8295226E+00  0.0000000E+00
Ar 10745  0.6428674E+02  0.7928916E+02  0.3893895E+01  0.0000000E+00
Ar 10746  0.6722909E+02  0.8100470E+02  0.3534284E+01  0.0000000E+00
Ar 10747  0.6745153E+02  0.7872004E+02  0.6823572E+01  0.0000000E+00
Ar 10748  0.6466709E+02  0.8114989E+02  0.6837849E+01  0.0000000E+00
Ar 10749  0.6404276E+02  0.7799813E+02  0.8819068E+01  0.0000000E+00
Ar 10750  0.6803462E+02  0.8109525E+02  0.9647815E+01  0.0000000E+00
Ar 10751  0.6649464E+02  0.7830761E+02  0.1186938E+02  0.0000000E+00
Ar 10752  0.6446686E+02  0.8146783E+02  0.1195541E+02  0.0000000E+00
Ar 10753  0.6383260E+02  0.7920581E+02  0.1532744E+02  0.0000000E+00
Ar 10754  0.6719905E+02  0.8214120E+02  0.1482436E+02  0.0000000E+00
Ar 10755  0.6709263E+02  0.7914167E+02  0.1793811E+02  0.0000000E+00
Ar 10756  0.6459235E+02  0.8255473E+02  0.1859125E+02  0.0000000E+00
Ar 10757  0.6427347E+02  0.7960380E+02  0.2072577E+02  0.0000000E+00
Ar 10758  0.6715857E+02  0.8217065E+02  0.2096275E+02  0.0000000E+00
Ar 10759  0.6744249E+02  0.7955635E+02  0.2431317E+02  0.0000000E+00
Ar 10760  0.6485347E+02  0.8171425E+02  0.2371742E+02  0.0000000E+00
Ar 10761  0.6438036E+02  0.7914169E+02  0.2613177E+02  0.0000000E+00
Ar 10762  0.6786172E+02  0.8182900E+02  0.2701531E+02  0.0000000E+00
Ar 10763  0.6728203E+02  0.7928100E+02  0.2923771E+02  0.0000000E+00
Ar 10764  0.6432565E+02  0.8172019E+02  0.2915365E+02  0.0000000E+00
Ar 10765  0.6420383E+02  0.7912464E+02  0.3187009E+02  0.0000000E+00
Ar 10766  0.6682283E+02  0.8183694E+02  0.3192785E+02  0.0000000E+00
Ar 10767  0.6664005E+02  0.8002889E+02  0.3488048E+02  0.0000000E+00
Ar 10768  0.6344428E+02  0.8215887E+02  0.3494860E+02  0.0000000E+00
Ar 10769  0.6407103E+02  0.7867455E+02  0.3742593E+02  0.0000000E+00
Ar 10770  0.6734666E+02  0.8148189E+02  0.3817474E+02  0.0000000E+00
Ar 10771  0.6681167E+02  0.7917558E+02  0.4154781E+02  0.0000000E+00
Ar 10772  0.6430317E+02  0.8204536E+02  0.4033511E+02  0.0000000E+00
Ar 10773  0.6388520E+02  0.7913954E+02  0.4403162E+02  0.0000000E+00
Ar 10774  0.6662988E+02  0.8206767E+02  0.4384380E+02  0.0000000E+00
Ar 10775  0.6749561E+02  0.7898842E+02  0.4592979E+02  0.0000000E+00
Ar 10776  0.6447777E+02  0.8245606E+02  0.4654151E+02  0.0000000E+00
Ar 10777  0.6481642E+02  0.7926114E+02  0.4834150E+02  0.0000000E+00
Ar 10778  0.6761667E+02  0.8203072E+02  0.4904680E+02  0.0000000E+00
Ar 10779  0.6671690E+02  0.7916157E+02  0.5143990E+02  0.0000000E+00
Ar 10780  0.6404627E+02  0.8218409E+02  0.5113052E+02  0.0000000E+00
Ar 10781  0.6489877E+02  0.7960421E+02  0.5442379E+02  0.0000000E+00
Ar 10782  0.6731938E+02  0.8200272E+02  0.5389035E+02  0.0000000E+00
Ar 10783  0.6717524E+02  0.7926013E+02  0.5786869E+02  0.0000000E+00
Ar 10784  0.6502142E+02  0.8212478E+02  0.5737137E+02  0.0000000E+00
Ar 10785  0.6442972E+02  0.7974174E+02  0.6055771E+02  0.0000000E+00
Ar 10786  0.6728358E+02  0.8208504E+02  0.6012972E+02  0.0000000E+00
Ar 10787  0.6689629E+02  0.7935380E+02  0.6346688E+02  0.0000000E+00
Ar 10788  0.6435776E+02  0.8222144E+02  0.6333996E+02  0.0000000E+00
Ar 10789  0.6350909E+02  0.7913518E+02  0.6632249E+02  0.0000000E+00
Ar 10790  0.6722819E+02  0.8204987E+02  0.6630784E+02  0.0000000E+00
Ar 10791  0.6658148E+02  0.7917351E+02  0.6811144E+02  0.0000000E+00
Ar 10792  0.6454083E+02  0.8210736E+02  0.6870974E+02  0.0000000E+00
Ar 10793  0.6423674E+02  0.7926879E+02  0.7083393E+02  0.0000000E+00
Ar 10794  0.6706720E+02  0.8159175E+02  0.7127741E+02  0.0000000E+00
Ar 10795  0.6700245E+02  0.7947645E+02  0.7374217E+02  0.0000000E+00
Ar 10796  0.6446967E+02  0.8211236E+02  0.7423442E+02  0.0000000E+00
Ar 10797  0.6463266E+02  0.7976472E+02  0.7686611E+02  0.0000000E+00
Ar 10798  0.6759855E+02  0.8187138E+02  0.7693193E+02  0.0000000E+00
Ar 10799  0.6747966E+02  0.7914227E+02  0.7998848E+02  0.0000000E+00
Ar 10800  0.6442837E+02  0.8180798E+02  0.7984720E+02  0.0000000E+00
Ar 10801  0.7021893E+02  0.4195782E+00  0.8286260E+02  0.0000000E+00
Ar 10802  0.7292262E+02  0.3115649E+01  0.8277795E+02  0.0000000E+00
Ar 10803  0.7258176E+02  0.5662471E+00  0.1206245E+01  0.0000000E+00
Ar 10804  0.6962234E+02  0.3282988E+01  0.1028707E+01  0.0000000E+00
Ar 10805  0.7032731E+02  0.8401711E+02  0.3683293E+01  0.0000000E+00
Ar 10806  0.7331305E+02  0.2949993E+01  0.3770800E+01  0.0000000E+00
Ar 10807  0.7385489E+02  0.8415290E+02  0.5914607E+01  0.0000000E+00
Ar 10808  0.7028940E+02  0.2034867E+01  0.6700208E+01  0.0000000E+00
Ar 10809  0.7016025E+02  0.8397639E+02  0.9354725E+01  0.0000000E+00
Ar 10810  0.7247603E+02  0.3906980E+01  0.9120369E+01  0.0000000E+00
Ar 10811  0.7273190E+02  0.8412434E+02  0.1232389E+02  0.0000000E+00
Ar 10812  0.7006076E+02  0.2497279E+01  0.1292046E+02  0.0000000E+00
Ar 10813  0.7020530E+02  0.8406776E+02  0.1544196E+02  0.0000000E+00
Ar 10814  0.7272312E+02  0.3010303E+01  0.1524428E+02  0.0000000E+00
Ar 10815  0.7264179E+02  0.5782519E+00  0.1842912E+02  0.0000000E+00
Ar 10816  0.7009911E+02  0.3899987E+01  0.1788412E+02  0.0000000E+00
Ar 10817  0.7011299E+02  0.4096989E+00  0.2073615E+02  0.0000000E+00
Ar 10818  0.7267561E+02  0.3660161E+01  0.2044897E+02  0.0000000E+00
Ar 10819  0.7382380E+02  0.7891003E+00  0.2283379E+02  0.0000000E+00
Ar 10820  0.7050796E+02  0.3395153E+01  0.2350837E+02  0.0000000E+00
Ar 10821  0.7099176E+02  0.2702430E+00  0.2536420E+02  0.0000000E+00
Ar 10822  0.7218070E+02  0.3690358E+01  0.2661816E+02  0.0000000E+00
Ar 10823  0.7229703E+02  0.4304142E+00  0.3023915E+02  0.0000000E+00
Ar 10824  0.6981374E+02  0.3609797E+01  0.2936549E+02  0.0000000E+00
Ar 10825  0.6905907E+02  0.1677779E+00  0.3287950E+02  0.0000000E+00
Ar 10826  0.7181319E+02  0.3523345E+01  0.3283731E+02  0.0000000E+00
Ar 10827  0.7260844E+02  0.1065503E+01  0.3570212E+02  0.0000000E+00
Ar 10828  0.6881318E+02  0.3378059E+01  0.3522021E+02  0.0000000E+00
Ar 10829  0.6927912E+02  0.7222729E+00  0.3880979E+02  0.0000000E+00
Ar 10830  0.7326379E+02  0.4005082E+01  0.3804141E+02  0.0000000E+00
Ar 10831  0.7244276E+02  0.1222512E+01  0.4070652E+02  0.0000000E+00
Ar 10832  0.7025965E+02  0.3850842E+01  0.4129918E+02  0.0000000E+00
Ar 10833  0.6949321E+02  0.1513015E+00  0.4332553E+02  0.0000000E+00
Ar 10834  0.7328125E+02  0.4109925E+01  0.4320054E+02  0.0000000E+00
Ar 10835  0.7257684E+02  0.1402421E+01  0.4540961E+02  0.0000000E+00
Ar 10836  0.7014839E+02  0.3840660E+01  0.4601934E+02  0.0000000E+00
Ar 10837  0.6979637E+02  0.8926509E+00  0.4885460E+02  0.0000000E+00
Ar 10838  0.7292141E+02  0.3107729E+01  0.4931852E+02  0.0000000E+00
Ar 10839  0.7296008E+02  0.6408465E+00  0.5188593E+02  0.0000000E+00
Ar 10840  0.6987617E+02  0.3924314E+01  0.5164694E+02  0.0000000E+00
Ar 10841  0.6988509E+02  0.8486555E+00  0.5433770E+02  0.0000000E+00
Ar 10842  0.7258510E+02  0.3768923E+01  0.5405822E+02  0.0000000E+00
Ar 10843  0.7228539E+02  0.8161634E+00  0.5763567E+02  0.0000000E+00
Ar 10844  0.7012614E+02  0.3940302E+01  0.5813884E+02  0.0000000E+00
Ar 10845  0.6987858E+02  0.7162040E+00  0.5998838E+02  0.0000000E+00
Ar 10846  0.7344943E+02  0.3818369E+01  0.6076742E+02  0.0000000E+00
Ar 10847  0.7215283E+02  0.1072964E+01  0.6283478E+02  0.0000000E+00
Ar 10848  0.7001230E+02  0.3950200E+01  0.6252866E+02  0.0000000E+00
Ar 10849  0.6983060E+02  0.8431953E+00  0.6587099E+02  0.0000000E+00
Ar 10850  0.7269730E+02  0.3606429E+01  0.6585854E+02  0.0000000E+00
Ar 10851  0.7352906E+02  0.2596663E+00  0.6831523E+02  0.0000000E+00
Ar 10852  0.7007051E+02  0.3831796E+01  0.6864999E+02  0.0000000E+00
Ar 10853  0.7087730E+02  0.6272078E+00  0.7063897E+02  0.0000000E+00
Ar 10854  0.7315731E+02  0.3807353E+01  0.7144668E+02  0.0000000E+00
Ar 10855  0.7294014E+02  0.9602364E+00  0.7358161E+02  0.0000000E+00
Ar 10856  0.6969762E+02  0.3499891E+01  0.7459491E+02  0.0000000E+00
Ar 10857  0.7011771E+02  0.4191219E+00  0.7667560E+02  0.0000000E+00
Ar 10858  0.7294865E+02  0.3037201E+01  0.7659107E+02  0.0000000E+00
Ar 10859  0.7288089E+02  0.6521969E+00  0.8009854E+02  0.0000000E+00
Ar 10860  0.7045424E+02  0.3853942E+01  0.7950370E+02  0.0000000E+00
Ar 10861  0.7018457E+02  0.6186369E+01  0.8258262E+02  0.0000000E+00
Ar 10862  0.7302020E+02  0.9641960E+01  0.8286910E+02  0.0000000E+00
Ar 10863  0.7260063E+02  0.5645286E+01  0.1227347E+01  0.0000000E+00
Ar 10864  0.7017140E+02  0.9409392E+01  0.1266434E+01  0.0000000E+00
Ar 10865  0.6945525E+02  0.5554160E+01  0.3915603E+01  0.0000000E+00
Ar 10866  0.7340291E+02  0.9575044E+01  0.2704001E+01  0.0000000E+00
Ar 10867  0.7212747E+02  0.5696585E+01  0.6216238E+01  0.0000000E+00
Ar 10868  0.7038858E+02  0.9426712E+01  0.6826708E+01  0.0000000E+00
Ar 10869  0.7044329E+02  0.6810725E+01  0.9639309E+01  0.0000000E+00
Ar 10870  0.7317851E+02  0.9336076E+01  0.9283477E+01  0.0000000E+00
Ar 10871  0.7272385E+02  0.5749949E+01  0.1208521E+02  0.0000000E+00
Ar 10872  0.7026409E+02  0.9346236E+01  0.1246968E+02  0.0000000E+00
Ar 10873  0.7046765E+02  0.6314427E+01  0.1472926E+02  0.0000000E+00
Ar 10874  0.7345261E+02  0.8954161E+01  0.1480321E+02  0.0000000E+00
Ar 10875  0.7312619E+02  0.6579289E+01  0.1806445E+02  0.0000000E+00
Ar 10876  0.7015196E+02  0.8797730E+01  0.1777998E+02  0.0000000E+00
Ar 10877  0.7066015E+02  0.6723332E+01  0.2072564E+02  0.0000000E+00
Ar 10878  0.7296169E+02  0.9710532E+01  0.2012272E+02  0.0000000E+00
Ar 10879  0.7230161E+02  0.6528404E+01  0.2417328E+02  0.0000000E+00
Ar 10880  0.7050009E+02  0.9763160E+01  0.2372940E+02  0.0000000E+00
Ar 10881  0.6986249E+02  0.7012124E+01  0.2676048E+02  0.0000000E+00
Ar 10882  0.7311462E+02  0.1014955E+02  0.2653518E+02  0.0000000E+00
Ar 10883  0.7283262E+02  0.6701703E+01  0.2921314E+02  0.0000000E+00
Ar 10884  0.7036951E+02  0.9896933E+01  0.2936546E+02  0.0000000E+00
Ar 10885  0.7019698E+02  0.6884937E+01  0.3236570E+02  0.0000000E+00
Ar 10886  0.7293068E+02  0.9464678E+01  0.3198263E+02  0.0000000E+00
Ar 10887  0.7275422E+02  0.6435644E+01  0.3546942E+02  0.0000000E+00
Ar 10888  0.7015296E+02  0.9431404E+01  0.3529467E+02  0.0000000E+00
Ar 10889  0.7008337E+02  0.6671248E+01  0.3814542E+02  0.0000000E+00
Ar 10890  0.7265434E+02  0.9610722E+01  0.3822724E+02  0.0000000E+00
Ar 10891  0.7315502E+02  0.7128042E+01  0.4083066E+02  0.0000000E+00
Ar 10892  0.7016810E+02  0.9927965E+01  0.4080696E+02  0.0000000E+00
Ar 10893  0.7043360E+02  0.6416760E+01  0.4379144E+02  0.0000000E+00
Ar 10894  0.7351004E+02  0.9506558E+01  0.4401503E+02  0.0000000E+00
Ar 10895  0.7338533E+02  0.6578868E+01  0.4674950E+02  0.0000000E+00
Ar 10896  0.7091217E+02  0.9159813E+01  0.4665427E+02  0.0000000E+00
Ar 10897  0.7042335E+02  0.6429738E+01  0.4882259E+02  0.0000000E+00
Ar 10898  0.7383970E+02  0.9335878E+01  0.4922418E+02  0.0000000E+00
Ar 10899  0.7284922E+02  0.6506961E+01  0.5181615E+02  0.0000000E+00
Ar 10900  0.7089304E+02  0.9313557E+01  0.5125853E+02  0.0000000E+00
Ar 10901  0.6911690E+02  0.6213614E+01  0.5471685E+02  0.0000000E+00
Ar 10902  0.7229402E+02  0.9077231E+01  0.5443452E+02  0.0000000E+00
Ar 10903  0.7343274E+02  0.5997461E+01  0.5703530E+02  0.0000000E+00
Ar 10904  0.6993003E+02  0.9460828E+01  0.5740899E+02  0.0000000E+00
Ar 10905  0.7052510E+02  0.7123693E+01  0.6002547E+02  0.0000000E+00
Ar 10906  0.7312989E+02  0.9215656E+01  0.6038764E+02  0.0000000E+00
Ar 10907  0.7274796E+02  0.6506496E+01  0.6300989E+02  0.0000000E+00
Ar 10908  0.7078228E+02  0.9574241E+01  0.6324893E+02  0.0000000E+00
Ar 10909  0.7079958E+02  0.6589193E+01  0.6611482E+02  0.0000000E+00
Ar 10910  0.7310063E+02  0.1002990E+02  0.6589577E+02  0.0000000E+00
Ar 10911  0.7327780E+02  0.6221857E+01  0.6889545E+02  0.0000000E+00
Ar 10912  0.7049812E+02  0.9538192E+01  0.6866038E+02  0.0000000E+00
Ar 10913  0.7064613E+02  0.6140449E+01  0.7185054E+02  0.0000000E+00
Ar 10914  0.7335284E+02  0.8761514E+01  0.7103849E+02  0.0000000E+00
Ar 10915  0.7360462E+02  0.6095269E+01  0.7424981E+02  0.0000000E+00
Ar 10916  0.7111813E+02  0.8953577E+01  0.7395113E+02  0.0000000E+00
Ar 10917  0.7063373E+02  0.6080666E+01  0.7675153E+02  0.0000000E+00
Ar 10918  0.7366059E+02  0.8951919E+01  0.7667243E+02  0.0000000E+00
Ar 10919  0.7272498E+02  0.6444931E+01  0.7970921E+02  0.0000000E+00
Ar 10920  0.7092516E+02  0.9326758E+01  0.7980768E+02  0.0000000E+00
Ar 10921  0.7010918E+02  0.1220184E+02  0.8293149E+02  0.0000000E+00
Ar 10922  0.7264679E+02  0.1424414E+02  0.8181454E+02  0.0000000E+00
Ar 10923  0.7306067E+02  0.1254787E+02  0.7880725E+00  0.0000000E+00
Ar 10924  0.6970988E+02  0.1452177E+02  0.9506199E+00  0.0000000E+00
Ar 10925  0.7040614E+02  0.1232842E+02  0.4332491E+01  0.0000000E+00
Ar 10926  0.7365155E+02  0.1461667E+02  0.3908199E+01  0.0000000E+00
Ar 10927  0.7370103E+02  0.1170899E+02  0.6171806E+01  0.0000000E+00
Ar 10928  0.7056236E+02  0.1496857E+02  0.7052885E+01  0.0000000E+00
Ar 10929  0.7075357E+02  0.1191743E+02  0.9249765E+01  0.0000000E+00
Ar 10930  0.7322123E+02  0.1520105E+02  0.9871248E+01  0.0000000E+00
Ar 10931  0.7332625E+02  0.1213659E+02  0.1281221E+02  0.0000000E+00
Ar 10932  0.7017746E+02  0.1383244E+02  0.1213887E+02  0.0000000E+00
Ar 10933  0.7002952E+02  0.1208989E+02  0.1519772E+02  0.0000000E+00
Ar 10934  0.7203062E+02  0.1513841E+02  0.1493990E+02  0.0000000E+00
Ar 10935  0.7303266E+02  0.1209840E+02  0.1732368E+02  0.0000000E+00
Ar 10936  0.7086837E+02  0.1503177E+02  0.1816585E+02  0.0000000E+00
Ar 10937  0.7061336E+02  0.1222163E+02  0.2088861E+02  0.0000000E+00
Ar 10938  0.7366734E+02  0.1451939E+02  0.2076406E+02  0.0000000E+00
Ar 10939  0.7332387E+02  0.1233212E+02  0.2369075E+02  0.0000000E+00
Ar 10940  0.7027606E+02  0.1484342E+02  0.2389944E+02  0.0000000E+00
Ar 10941  0.7013517E+02  0.1212887E+02  0.2622665E+02  0.0000000E+00
Ar 10942  0.7299222E+02  0.1428172E+02  0.2653878E+02  0.0000000E+00
Ar 10943  0.7317851E+02  0.1236134E+02  0.2953975E+02  0.0000000E+00
Ar 10944  0.6951872E+02  0.1396812E+02  0.2925955E+02  0.0000000E+00
Ar 10945  0.7072278E+02  0.1209979E+02  0.3247064E+02  0.0000000E+00
Ar 10946  0.7313018E+02  0.1498631E+02  0.3199043E+02  0.0000000E+00
Ar 10947  0.7280807E+02  0.1200462E+02  0.3535257E+02  0.0000000E+00
Ar 10948  0.7022997E+02  0.1535151E+02  0.3452978E+02  0.0000000E+00
Ar 10949  0.7055761E+02  0.1267517E+02  0.3809250E+02  0.0000000E+00
Ar 10950  0.7340156E+02  0.1466386E+02  0.3804997E+02  0.0000000E+00
Ar 10951  0.7324206E+02  0.1230407E+02  0.4114987E+02  0.0000000E+00
Ar 10952  0.7124649E+02  0.1549849E+02  0.4125394E+02  0.0000000E+00
Ar 10953  0.7067137E+02  0.1219473E+02  0.4383703E+02  0.0000000E+00
Ar 10954  0.7327978E+02  0.1484359E+02  0.4411661E+02  0.0000000E+00
Ar 10955  0.7340521E+02  0.1172003E+02  0.4651760E+02  0.0000000E+00
Ar 10956  0.7071721E+02  0.1545496E+02  0.4666021E+02  0.0000000E+00
Ar 10957  0.7050668E+02  0.1227409E+02  0.4864734E+02  0.0000000E+00
Ar 10958  0.7333628E+02  0.1506995E+02  0.4905180E+02  0.0000000E+00
Ar 10959  0.7347969E+02  0.1220947E+02  0.5177838E+02  0.0000000E+00
Ar 10960  0.7063195E+02  0.1489983E+02  0.5183655E+02  0.0000000E+00
Ar 10961  0.6953878E+02  0.1201120E+02  0.5480365E+02  0.0000000E+00
Ar 10962  0.7345278E+02  0.1460663E+02  0.5457714E+02  0.0000000E+00
Ar 10963  0.7263302E+02  0.1241319E+02  0.5710739E+02  0.0000000E+00
Ar 10964  0.6973735E+02  0.1509399E+02  0.5835867E+02  0.0000000E+00
Ar 10965  0.7031409E+02  0.1192504E+02  0.6011811E+02  0.0000000E+00
Ar 10966  0.7279874E+02  0.1532274E+02  0.6067862E+02  0.0000000E+00
Ar 10967  0.7322019E+02  0.1238901E+02  0.6307814E+02  0.0000000E+00
Ar 10968  0.6975545E+02  0.1479769E+02  0.6296883E+02  0.0000000E+00
Ar 10969  0.7026595E+02  0.1257430E+02  0.6534336E+02  0.0000000E+00
Ar 10970  0.7254933E+02  0.1537966E+02  0.6601666E+02  0.0000000E+00
Ar 10971  0.7313708E+02  0.1254814E+02  0.6835701E+02  0.0000000E+00
Ar 10972  0.6989623E+02  0.1522231E+02  0.6861132E+02  0.0000000E+00
Ar 10973  0.7056565E+02  0.1213515E+02  0.7129361E+02  0.0000000E+00
Ar 10974  0.7300064E+02  0.1574142E+02  0.7136165E+02  0.0000000E+00
Ar 10975  0.7325440E+02  0.1207960E+02  0.7413231E+02  0.0000000E+00
Ar 10976  0.7000952E+02  0.1452563E+02  0.7452427E+02  0.0000000E+00
Ar 10977  0.7012534E+02  0.1153209E+02  0.7657118E+02  0.0000000E+00
Ar 10978  0.7353666E+02  0.1434656E+02  0.7690526E+02  0.0000000E+00
Ar 10979  0.7319636E+02  0.1173892E+02  0.7882711E+02  0.0000000E+00
Ar 10980  0.7042950E+02  0.1507917E+02  0.7884686E+02  0.0000000E+00
Ar 10981  0.7040240E+02  0.1698908E+02  0.8160041E+02  0.0000000E+00
Ar 10982  0.7256404E+02  0.1992629E+02  0.8234835E+02  0.0000000E+00
Ar 10983  0.7255927E+02  0.1731635E+02  0.1190644E+01  0.0000000E+00
Ar 10984  0.6993190E+02  0.1990275E+02  0.4629776E-01  0.0000000E+00
Ar 10985  0.7008455E+02  0.1759772E+02  0.3792607E+01  0.0000000E+00
Ar 10986  0.7288115E+02  0.2070247E+02  0.4273661E+01  0.0000000E+00
Ar 10987  0.7303992E+02  0.1755963E+02  0.6233275E+01  0.0000000E+00
Ar 10988  0.6996246E+02  0.2182482E+02  0.6349884E+01  0.0000000E+00
Ar 10989  0.7048347E+02  0.1749930E+02  0.9425844E+01  0.0000000E+00
Ar 10990  0.7299099E+02  0.2064359E+02  0.8679545E+01  0.0000000E+00
Ar 10991  0.7336266E+02  0.1780834E+02  0.1266998E+02  0.0000000E+00
Ar 10992  0.6999030E+02  0.2063062E+02  0.1142387E+02  0.0000000E+00
Ar 10993  0.7047074E+02  0.1863121E+02  0.1483410E+02  0.0000000E+00
Ar 10994  0.7331163E+02  0.2116803E+02  0.1497623E+02  0.0000000E+00
Ar 10995  0.7377803E+02  0.1796743E+02  0.1756153E+02  0.0000000E+00
Ar 10996  0.7092598E+02  0.2058635E+02  0.1771612E+02  0.0000000E+00
Ar 10997  0.7046887E+02  0.1786794E+02  0.2032852E+02  0.0000000E+00
Ar 10998  0.7337215E+02  0.2041783E+02  0.2127964E+02  0.0000000E+00
Ar 10999  0.7290182E+02  0.1701301E+02  0.2328606E+02  0.0000000E+00
Ar 11000  0.7081746E+02  0.2005710E+02  0.2409819E+02  0.0000000E+00
Ar 11001  0.7030643E+02  0.1731052E+02  0.2682726E+02  0.0000000E+00
Ar 11002  0.7348474E+02  0.2005697E+02  0.2660387E+02  0.0000000E+00
Ar 11003  0.7338645E+02  0.1725407E+02  0.2929732E+02  0.0000000E+00
Ar 11004  0.7025572E+02  0.2036252E+02  0.2963239E+02  0.0000000E+00
Ar 11005  0.6995944E+02  0.1709955E+02  0.3126736E+02  0.0000000E+00
Ar 11006  0.7380391E+02  0.2040679E+02  0.3275218E+02  0.0000000E+00
Ar 11007  0.7295784E+02  0.1754164E+02  0.3484718E+02  0.0000000E+00
Ar 11008  0.7052933E+02  0.2017010E+02  0.3502235E+02  0.0000000E+00
Ar 11009  0.7091346E+02  0.1735882E+02  0.3789896E+02  0.0000000E+00
Ar 11010  0.7336541E+02  0.2025108E+02  0.3741786E+02  0.0000000E+00
Ar 11011  0.7355844E+02  0.1796580E+02  0.4003293E+02  0.0000000E+00
Ar 11012  0.7058252E+02  0.2033404E+02  0.4033567E+02  0.0000000E+00
Ar 11013  0.7048311E+02  0.1886985E+02  0.4403296E+02  0.0000000E+00
Ar 11014  0.7340241E+02  0.2034111E+02  0.4277980E+02  0.0000000E+00
Ar 11015  0.7331674E+02  0.1798730E+02  0.4634371E+02  0.0000000E+00
Ar 11016  0.7008881E+02  0.2087824E+02  0.4667158E+02  0.0000000E+00
Ar 11017  0.7019062E+02  0.1774062E+02  0.4934948E+02  0.0000000E+00
Ar 11018  0.7319509E+02  0.2037713E+02  0.4872587E+02  0.0000000E+00
Ar 11019  0.7250348E+02  0.1784526E+02  0.5234348E+02  0.0000000E+00
Ar 11020  0.6973014E+02  0.2023528E+02  0.5216496E+02  0.0000000E+00
Ar 11021  0.6957840E+02  0.1758896E+02  0.5584527E+02  0.0000000E+00
Ar 11022  0.7337382E+02  0.2051512E+02  0.5480641E+02  0.0000000E+00
Ar 11023  0.7268652E+02  0.1744080E+02  0.5767271E+02  0.0000000E+00
Ar 11024  0.7040559E+02  0.2056343E+02  0.5782309E+02  0.0000000E+00
Ar 11025  0.6980765E+02  0.1786448E+02  0.6045263E+02  0.0000000E+00
Ar 11026  0.7321876E+02  0.2026848E+02  0.6028405E+02  0.0000000E+00
Ar 11027  0.7255359E+02  0.1808303E+02  0.6342592E+02  0.0000000E+00
Ar 11028  0.7002006E+02  0.2035349E+02  0.6376420E+02  0.0000000E+00
Ar 11029  0.6933613E+02  0.1779081E+02  0.6628189E+02  0.0000000E+00
Ar 11030  0.7309015E+02  0.2127189E+02  0.6560899E+02  0.0000000E+00
Ar 11031  0.7262367E+02  0.1878759E+02  0.6801672E+02  0.0000000E+00
Ar 11032  0.6970593E+02  0.2067822E+02  0.6908390E+02  0.0000000E+00
Ar 11033  0.7010977E+02  0.1750386E+02  0.7129549E+02  0.0000000E+00
Ar 11034  0.7303328E+02  0.2094530E+02  0.7091233E+02  0.0000000E+00
Ar 11035  0.7269076E+02  0.1779764E+02  0.7410679E+02  0.0000000E+00
Ar 11036  0.7001735E+02  0.2067146E+02  0.7379373E+02  0.0000000E+00
Ar 11037  0.6945262E+02  0.1763653E+02  0.7661244E+02  0.0000000E+00
Ar 11038  0.7267931E+02  0.2096841E+02  0.7653188E+02  0.0000000E+00
Ar 11039  0.7340467E+02  0.1764726E+02  0.7893935E+02  0.0000000E+00
Ar 11040  0.7000657E+02  0.2000977E+02  0.7979025E+02  0.0000000E+00
Ar 11041  0.6976514E+02  0.2304635E+02  0.8214545E+02  0.0000000E+00
Ar 11042  0.7281944E+02  0.2550847E+02  0.8235562E+02  0.0000000E+00
Ar 11043  0.7292421E+02  0.2239917E+02  0.1186710E+01  0.0000000E+00
Ar 11044  0.7005721E+02  0.2538079E+02  0.4801030E+00  0.0000000E+00
Ar 11045  0.7000671E+02  0.2284374E+02  0.3105304E+01  0.0000000E+00
Ar 11046  0.7342141E+02  0.2516612E+02  0.3272192E+01  0.0000000E+00
Ar 11047  0.7361812E+02  0.2309523E+02  0.6428825E+01  0.0000000E+00
Ar 11048  0.7050437E+02  0.2575549E+02  0.5716083E+01  0.0000000E+00
Ar 11049  0.7065141E+02  0.2352498E+02  0.9239255E+01  0.0000000E+00
Ar 11050  0.7370196E+02  0.2570087E+02  0.9446135E+01  0.0000000E+00
Ar 11051  0.7309416E+02  0.2268515E+02  0.1190344E+02  0.0000000E+00
Ar 11052  0.7006234E+02  0.2571807E+02  0.1181052E+02  0.0000000E+00
Ar 11053  0.6983649E+02  0.2327592E+02  0.1505751E+02  0.0000000E+00
Ar 11054  0.7326248E+02  0.2527979E+02  0.1505451E+02  0.0000000E+00
Ar 11055  0.7389492E+02  0.2270496E+02  0.1815174E+02  0.0000000E+00
Ar 11056  0.7076731E+02  0.2603221E+02  0.1843809E+02  0.0000000E+00
Ar 11057  0.7034893E+02  0.2292159E+02  0.2034789E+02  0.0000000E+00
Ar 11058  0.7309075E+02  0.2516267E+02  0.2129287E+02  0.0000000E+00
Ar 11059  0.7352433E+02  0.2344867E+02  0.2416810E+02  0.0000000E+00
Ar 11060  0.7019453E+02  0.2555807E+02  0.2402672E+02  0.0000000E+00
Ar 11061  0.7063310E+02  0.2329588E+02  0.2775329E+02  0.0000000E+00
Ar 11062  0.7342456E+02  0.2622696E+02  0.2692390E+02  0.0000000E+00
Ar 11063  0.7336791E+02  0.2284088E+02  0.3016735E+02  0.0000000E+00
Ar 11064  0.7044596E+02  0.2624853E+02  0.2943453E+02  0.0000000E+00
Ar 11065  0.6987261E+02  0.2302770E+02  0.3224761E+02  0.0000000E+00
Ar 11066  0.7312296E+02  0.2604107E+02  0.3225652E+02  0.0000000E+00
Ar 11067  0.7268610E+02  0.2335060E+02  0.3443269E+02  0.0000000E+00
Ar 11068  0.7021698E+02  0.2604428E+02  0.3521346E+02  0.0000000E+00
Ar 11069  0.7068200E+02  0.2295434E+02  0.3749321E+02  0.0000000E+00
Ar 11070  0.7303882E+02  0.2614211E+02  0.3809821E+02  0.0000000E+00
Ar 11071  0.7307236E+02  0.2280813E+02  0.4058549E+02  0.0000000E+00
Ar 11072  0.7037461E+02  0.2615033E+02  0.4055168E+02  0.0000000E+00
Ar 11073  0.7067639E+02  0.2282995E+02  0.4337421E+02  0.0000000E+00
Ar 11074  0.7311101E+02  0.2619890E+02  0.4399135E+02  0.0000000E+00
Ar 11075  0.7298341E+02  0.2329801E+02  0.4611738E+02  0.0000000E+00
Ar 11076  0.7044399E+02  0.2574971E+02  0.4736305E+02  0.0000000E+00
Ar 11077  0.7042176E+02  0.2302212E+02  0.4947055E+02  0.0000000E+00
Ar 11078  0.7289556E+02  0.2579637E+02  0.4990689E+02  0.0000000E+00
Ar 11079  0.7273550E+02  0.2279405E+02  0.5205647E+02  0.0000000E+00
Ar 11080  0.6982682E+02  0.2609498E+02  0.5240980E+02  0.0000000E+00
Ar 11081  0.6995102E+02  0.2331504E+02  0.5471028E+02  0.0000000E+00
Ar 11082  0.7373279E+02  0.2562339E+02  0.5440177E+02  0.0000000E+00
Ar 11083  0.7311899E+02  0.2353081E+02  0.5731581E+02  0.0000000E+00
Ar 11084  0.7055809E+02  0.2622104E+02  0.5721565E+02  0.0000000E+00
Ar 11085  0.7041966E+02  0.2344025E+02  0.6072278E+02  0.0000000E+00
Ar 11086  0.7289667E+02  0.2599705E+02  0.6001383E+02  0.0000000E+00
Ar 11087  0.7347812E+02  0.2313769E+02  0.6234758E+02  0.0000000E+00
Ar 11088  0.7063100E+02  0.2605963E+02  0.6313607E+02  0.0000000E+00
Ar 11089  0.6946929E+02  0.2319938E+02  0.6630101E+02  0.0000000E+00
Ar 11090  0.7267348E+02  0.2561104E+02  0.6565266E+02  0.0000000E+00
Ar 11091  0.7298118E+02  0.2352396E+02  0.6875009E+02  0.0000000E+00
Ar 11092  0.6933728E+02  0.2630468E+02  0.6818342E+02  0.0000000E+00
Ar 11093  0.6992425E+02  0.2372468E+02  0.7120408E+02  0.0000000E+00
Ar 11094  0.7281200E+02  0.2649107E+02  0.7053835E+02  0.0000000E+00
Ar 11095  0.7308793E+02  0.2325120E+02  0.7377707E+02  0.0000000E+00
Ar 11096  0.6974774E+02  0.2580886E+02  0.7387018E+02  0.0000000E+00
Ar 11097  0.6958643E+02  0.2281356E+02  0.7679500E+02  0.0000000E+00
Ar 11098  0.7233010E+02  0.2560452E+02  0.7629931E+02  0.0000000E+00
Ar 11099  0.7276045E+02  0.2361466E+02  0.7903460E+02  0.0000000E+00
Ar 11100  0.6944116E+02  0.2613227E+02  0.7991695E+02  0.0000000E+00
Ar 11101  0.6980509E+02  0.2878903E+02  0.8266257E+02  0.0000000E+00
Ar 11102  0.7255134E+02  0.3144435E+02  0.8238594E+02  0.0000000E+00
Ar 11103  0.7269323E+02  0.2865572E+02  0.3456120E+00  0.0000000E+00
Ar 11104  0.7003133E+02  0.3101027E+02  0.9687385E+00  0.0000000E+00
Ar 11105  0.7044691E+02  0.2889202E+02  0.3528739E+01  0.0000000E+00
Ar 11106  0.7333966E+02  0.3113059E+02  0.3722781E+01  0.0000000E+00
Ar 11107  0.7320894E+02  0.2816232E+02  0.6230447E+01  0.0000000E+00
Ar 11108  0.7029468E+02  0.3116484E+02  0.6412515E+01  0.0000000E+00
Ar 11109  0.7033324E+02  0.2803943E+02  0.9039977E+01  0.0000000E+00
Ar 11110  0.7314767E+02  0.3133142E+02  0.9482632E+01  0.0000000E+00
Ar 11111  0.7372989E+02  0.2884745E+02  0.1196479E+02  0.0000000E+00
Ar 11112  0.6990348E+02  0.3027571E+02  0.1221098E+02  0.0000000E+00
Ar 11113  0.7110393E+02  0.2811638E+02  0.1473192E+02  0.0000000E+00
Ar 11114  0.7306652E+02  0.3150845E+02  0.1472782E+02  0.0000000E+00
Ar 11115  0.7371762E+02  0.2785143E+02  0.1901803E+02  0.0000000E+00
Ar 11116  0.7141622E+02  0.3096924E+02  0.1823669E+02  0.0000000E+00
Ar 11117  0.7082170E+02  0.2847273E+02  0.2131685E+02  0.0000000E+00
Ar 11118  0.7430452E+02  0.3086286E+02  0.2154566E+02  0.0000000E+00
Ar 11119  0.7308368E+02  0.2858058E+02  0.2407736E+02  0.0000000E+00
Ar 11120  0.7058478E+02  0.3138612E+02  0.2402344E+02  0.0000000E+00
Ar 11121  0.7035532E+02  0.2910185E+02  0.2644412E+02  0.0000000E+00
Ar 11122  0.7307959E+02  0.3146472E+02  0.2658492E+02  0.0000000E+00
Ar 11123  0.7279432E+02  0.2878440E+02  0.2964395E+02  0.0000000E+00
Ar 11124  0.7049900E+02  0.3177182E+02  0.2997909E+02  0.0000000E+00
Ar 11125  0.7033976E+02  0.2860756E+02  0.3283491E+02  0.0000000E+00
Ar 11126  0.7318187E+02  0.3140210E+02  0.3265591E+02  0.0000000E+00
Ar 11127  0.7346768E+02  0.2840991E+02  0.3520322E+02  0.0000000E+00
Ar 11128  0.7037557E+02  0.3110619E+02  0.3532960E+02  0.0000000E+00
Ar 11129  0.7032548E+02  0.2884324E+02  0.3823572E+02  0.0000000E+00
Ar 11130  0.7308474E+02  0.3093624E+02  0.3770895E+02  0.0000000E+00
Ar 11131  0.7338469E+02  0.2891017E+02  0.4041604E+02  0.0000000E+00
Ar 11132  0.7065449E+02  0.3100322E+02  0.4085273E+02  0.0000000E+00
Ar 11133  0.7022441E+02  0.2834319E+02  0.4400641E+02  0.0000000E+00
Ar 11134  0.7344926E+02  0.3153120E+02  0.4357706E+02  0.0000000E+00
Ar 11135  0.7294568E+02  0.2866446E+02  0.4641653E+02  0.0000000E+00
Ar 11136  0.7039962E+02  0.3190547E+02  0.4606147E+02  0.0000000E+00
Ar 11137  0.7015861E+02  0.2854895E+02  0.4955295E+02  0.0000000E+00
Ar 11138  0.7309880E+02  0.3134851E+02  0.4883556E+02  0.0000000E+00
Ar 11139  0.7280314E+02  0.2886677E+02  0.5222346E+02  0.0000000E+00
Ar 11140  0.7018280E+02  0.3165046E+02  0.5181827E+02  0.0000000E+00
Ar 11141  0.6976029E+02  0.2938778E+02  0.5475071E+02  0.0000000E+00
Ar 11142  0.7246110E+02  0.3171901E+02  0.5489763E+02  0.0000000E+00
Ar 11143  0.7324360E+02  0.2869442E+02  0.5752287E+02  0.0000000E+00
Ar 11144  0.7045254E+02  0.3131637E+02  0.5809121E+02  0.0000000E+00
Ar 11145  0.7016296E+02  0.2843355E+02  0.6063972E+02  0.0000000E+00
Ar 11146  0.7336351E+02  0.3116196E+02  0.6052152E+02  0.0000000E+00
Ar 11147  0.7361645E+02  0.2842282E+02  0.6300377E+02  0.0000000E+00
Ar 11148  0.7010782E+02  0.3115865E+02  0.6303267E+02  0.0000000E+00
Ar 11149  0.7063955E+02  0.2878990E+02  0.6580392E+02  0.0000000E+00
Ar 11150  0.7305588E+02  0.3159230E+02  0.6554028E+02  0.0000000E+00
Ar 11151  0.7323371E+02  0.2899658E+02  0.6813736E+02  0.0000000E+00
Ar 11152  0.6995476E+02  0.3223494E+02  0.6819924E+02  0.0000000E+00
Ar 11153  0.6954568E+02  0.2965674E+02  0.7097066E+02  0.0000000E+00
Ar 11154  0.7272224E+02  0.3164233E+02  0.7179444E+02  0.0000000E+00
Ar 11155  0.7190662E+02  0.2870320E+02  0.7390510E+02  0.0000000E+00
Ar 11156  0.6927105E+02  0.3129240E+02  0.7451985E+02  0.0000000E+00
Ar 11157  0.6983921E+02  0.2886508E+02  0.7727956E+02  0.0000000E+00
Ar 11158  0.7279718E+02  0.3092255E+02  0.7695468E+02  0.0000000E+00
Ar 11159  0.7233060E+02  0.2846605E+02  0.7996339E+02  0.0000000E+00
Ar 11160  0.7013053E+02  0.3115366E+02  0.7978974E+02  0.0000000E+00
Ar 11161  0.6993353E+02  0.3431393E+02  0.8212071E+02  0.0000000E+00
Ar 11162  0.7262767E+02  0.3731053E+02  0.8254324E+02  0.0000000E+00
Ar 11163  0.7319630E+02  0.3406824E+02  0.5097434E+00  0.0000000E+00
Ar 11164  0.7029858E+02  0.3700471E+02  0.4932901E+00  0.0000000E+00
Ar 11165  0.7074429E+02  0.3413778E+02  0.3667969E+01  0.0000000E+00
Ar 11166  0.7367594E+02  0.3684051E+02  0.3354257E+01  0.0000000E+00
Ar 11167  0.7327711E+02  0.3403091E+02  0.6975852E+01  0.0000000E+00
Ar 11168  0.7043523E+02  0.3647309E+02  0.6321313E+01  0.0000000E+00
Ar 11169  0.7015688E+02  0.3378194E+02  0.8965660E+01  0.0000000E+00
Ar 11170  0.7343840E+02  0.3716235E+02  0.8668630E+01  0.0000000E+00
Ar 11171  0.7306275E+02  0.3468250E+02  0.1118270E+02  0.0000000E+00
Ar 11172  0.7026757E+02  0.3685958E+02  0.1175586E+02  0.0000000E+00
Ar 11173  0.7040146E+02  0.3386653E+02  0.1531001E+02  0.0000000E+00
Ar 11174  0.7285872E+02  0.3688179E+02  0.1480760E+02  0.0000000E+00
Ar 11175  0.7308834E+02  0.3411479E+02  0.1768669E+02  0.0000000E+00
Ar 11176  0.7043878E+02  0.3751957E+02  0.1767365E+02  0.0000000E+00
Ar 11177  0.7060179E+02  0.3372034E+02  0.2071528E+02  0.0000000E+00
Ar 11178  0.7290698E+02  0.3737631E+02  0.2053952E+02  0.0000000E+00
Ar 11179  0.7247038E+02  0.3445850E+02  0.2429089E+02  0.0000000E+00
Ar 11180  0.7017530E+02  0.3714420E+02  0.2454157E+02  0.0000000E+00
Ar 11181  0.7023333E+02  0.3417170E+02  0.2711565E+02  0.0000000E+00
Ar 11182  0.7312700E+02  0.3682683E+02  0.2692326E+02  0.0000000E+00
Ar 11183  0.7325928E+02  0.3450382E+02  0.3016548E+02  0.0000000E+00
Ar 11184  0.7022666E+02  0.3677422E+02  0.3008653E+02  0.0000000E+00
Ar 11185  0.7047226E+02  0.3408772E+02  0.3332738E+02  0.0000000E+00
Ar 11186  0.7366529E+02  0.3663884E+02  0.3321336E+02  0.0000000E+00
Ar 11187  0.7323440E+02  0.3376943E+02  0.3524596E+02  0.0000000E+00
Ar 11188  0.6933827E+02  0.3704971E+02  0.3557315E+02  0.0000000E+00
Ar 11189  0.7058551E+02  0.3415687E+02  0.3769732E+02  0.0000000E+00
Ar 11190  0.7325597E+02  0.3704360E+02  0.3787788E+02  0.0000000E+00
Ar 11191  0.7333753E+02  0.3361092E+02  0.4063172E+02  0.0000000E+00
Ar 11192  0.7091775E+02  0.3721746E+02  0.4049917E+02  0.0000000E+00
Ar 11193  0.7091203E+02  0.3421093E+02  0.4318554E+02  0.0000000E+00
Ar 11194  0.7328572E+02  0.3721608E+02  0.4348908E+02  0.0000000E+00
Ar 11195  0.7330953E+02  0.3403311E+02  0.4646514E+02  0.0000000E+00
Ar 11196  0.7074906E+02  0.3633544E+02  0.4618172E+02  0.0000000E+00
Ar 11197  0.7054898E+02  0.3430883E+02  0.4920694E+02  0.0000000E+00
Ar 11198  0.7316886E+02  0.3744183E+02  0.4894710E+02  0.0000000E+00
Ar 11199  0.7281991E+02  0.3439072E+02  0.5208552E+02  0.0000000E+00
Ar 11200  0.7019046E+02  0.3653946E+02  0.5210024E+02  0.0000000E+00
Ar 11201  0.6964292E+02  0.3396675E+02  0.5446171E+02  0.0000000E+00
Ar 11202  0.7264109E+02  0.3665398E+02  0.5508329E+02  0.0000000E+00
Ar 11203  0.7295125E+02  0.3400895E+02  0.5760867E+02  0.0000000E+00
Ar 11204  0.7039079E+02  0.3666780E+02  0.5796023E+02  0.0000000E+00
Ar 11205  0.7063314E+02  0.3404293E+02  0.6057957E+02  0.0000000E+00
Ar 11206  0.7300755E+02  0.3657722E+02  0.6033400E+02  0.0000000E+00
Ar 11207  0.7285346E+02  0.3426358E+02  0.6333157E+02  0.0000000E+00
Ar 11208  0.6961734E+02  0.3724906E+02  0.6280842E+02  0.0000000E+00
Ar 11209  0.7003086E+02  0.3500138E+02  0.6580858E+02  0.0000000E+00
Ar 11210  0.7269191E+02  0.3723052E+02  0.6583351E+02  0.0000000E+00
Ar 11211  0.7292631E+02  0.3434021E+02  0.6890643E+02  0.0000000E+00
Ar 11212  0.6998531E+02  0.3683457E+02  0.6870286E+02  0.0000000E+00
Ar 11213  0.6969052E+02  0.3441476E+02  0.7180907E+02  0.0000000E+00
Ar 11214  0.7250565E+02  0.3672663E+02  0.7169927E+02  0.0000000E+00
Ar 11215  0.7281470E+02  0.3430406E+02  0.7434728E+02  0.0000000E+00
Ar 11216  0.6931716E+02  0.3680981E+02  0.7457869E+02  0.0000000E+00
Ar 11217  0.6986594E+02  0.3365316E+02  0.7690143E+02  0.0000000E+00
Ar 11218  0.7300685E+02  0.3743634E+02  0.7676799E+02  0.0000000E+00
Ar 11219  0.7320447E+02  0.3420718E+02  0.7972190E+02  0.0000000E+00
Ar 11220  0.6955664E+02  0.3680674E+02  0.7938323E+02  0.0000000E+00
Ar 11221  0.6975729E+02  0.3958664E+02  0.8228223E+02  0.0000000E+00
Ar 11222  0.7235728E+02  0.4266513E+02  0.8242557E+02  0.0000000E+00
Ar 11223  0.7242121E+02  0.4015573E+02  0.5515876E+00  0.0000000E+00
Ar 11224  0.7039643E+02  0.4303491E+02  0.1104781E+01  0.0000000E+00
Ar 11225  0.7068364E+02  0.3983233E+02  0.3939821E+01  0.0000000E+00
Ar 11226  0.7287236E+02  0.4290118E+02  0.3834608E+01  0.0000000E+00
Ar 11227  0.7348406E+02  0.3979978E+02  0.6217656E+01  0.0000000E+00
Ar 11228  0.7050702E+02  0.4225690E+02  0.7156787E+01  0.0000000E+00
Ar 11229  0.7082041E+02  0.3963237E+02  0.9816670E+01  0.0000000E+00
Ar 11230  0.7343393E+02  0.4308559E+02  0.9265054E+01  0.0000000E+00
Ar 11231  0.7302802E+02  0.3963841E+02  0.1237938E+02  0.0000000E+00
Ar 11232  0.7078479E+02  0.4256788E+02  0.1221923E+02  0.0000000E+00
Ar 11233  0.7065154E+02  0.3954146E+02  0.1489709E+02  0.0000000E+00
Ar 11234  0.7260364E+02  0.4257238E+02  0.1585674E+02  0.0000000E+00
Ar 11235  0.7348537E+02  0.3951352E+02  0.1744087E+02  0.0000000E+00
Ar 11236  0.6992267E+02  0.4364675E+02  0.1826236E+02  0.0000000E+00
Ar 11237  0.7049326E+02  0.4028890E+02  0.2017405E+02  0.0000000E+00
Ar 11238  0.7280201E+02  0.4282422E+02  0.2038918E+02  0.0000000E+00
Ar 11239  0.7303557E+02  0.3962612E+02  0.2323685E+02  0.0000000E+00
Ar 11240  0.7078507E+02  0.4234521E+02  0.2342210E+02  0.0000000E+00
Ar 11241  0.7079947E+02  0.3982291E+02  0.2730501E+02  0.0000000E+00
Ar 11242  0.7281408E+02  0.4288457E+02  0.2665673E+02  0.0000000E+00
Ar 11243  0.7252330E+02  0.4001517E+02  0.3030618E+02  0.0000000E+00
Ar 11244  0.7080842E+02  0.4313618E+02  0.2965081E+02  0.0000000E+00
Ar 11245  0.7032345E+02  0.3961835E+02  0.3332349E+02  0.0000000E+00
Ar 11246  0.7329833E+02  0.4327706E+02  0.3229675E+02  0.0000000E+00
Ar 11247  0.7293866E+02  0.4038901E+02  0.3562239E+02  0.0000000E+00
Ar 11248  0.7012344E+02  0.4287024E+02  0.3519190E+02  0.0000000E+00
Ar 11249  0.7085729E+02  0.3996172E+02  0.3840582E+02  0.0000000E+00
Ar 11250  0.7312219E+02  0.4322023E+02  0.3849975E+02  0.0000000E+00
Ar 11251  0.7366149E+02  0.3996090E+02  0.4022047E+02  0.0000000E+00
Ar 11252  0.7089621E+02  0.4274266E+02  0.4084180E+02  0.0000000E+00
Ar 11253  0.7109174E+02  0.3992015E+02  0.4368883E+02  0.0000000E+00
Ar 11254  0.7348810E+02  0.4314383E+02  0.4363146E+02  0.0000000E+00
Ar 11255  0.7431830E+02  0.4027590E+02  0.4607077E+02  0.0000000E+00
Ar 11256  0.7044418E+02  0.4247886E+02  0.4661471E+02  0.0000000E+00
Ar 11257  0.7044317E+02  0.3953097E+02  0.4867586E+02  0.0000000E+00
Ar 11258  0.7298289E+02  0.4256348E+02  0.4906570E+02  0.0000000E+00
Ar 11259  0.7274429E+02  0.3935708E+02  0.5193094E+02  0.0000000E+00
Ar 11260  0.7009841E+02  0.4178703E+02  0.5149271E+02  0.0000000E+00
Ar 11261  0.7036691E+02  0.3974050E+02  0.5462182E+02  0.0000000E+00
Ar 11262  0.7274560E+02  0.4248588E+02  0.5454811E+02  0.0000000E+00
Ar 11263  0.7288833E+02  0.4021295E+02  0.5748050E+02  0.0000000E+00
Ar 11264  0.7049864E+02  0.4266034E+02  0.5790778E+02  0.0000000E+00
Ar 11265  0.6994399E+02  0.3997490E+02  0.6039480E+02  0.0000000E+00
Ar 11266  0.7337300E+02  0.4287708E+02  0.6041542E+02  0.0000000E+00
Ar 11267  0.7253520E+02  0.3988409E+02  0.6274599E+02  0.0000000E+00
Ar 11268  0.7006141E+02  0.4259973E+02  0.6301443E+02  0.0000000E+00
Ar 11269  0.6989217E+02  0.4012650E+02  0.6622703E+02  0.0000000E+00
Ar 11270  0.7251563E+02  0.4271969E+02  0.6559486E+02  0.0000000E+00
Ar 11271  0.7277312E+02  0.3953039E+02  0.6900312E+02  0.0000000E+00
Ar 11272  0.7054643E+02  0.4370022E+02  0.6844877E+02  0.0000000E+00
Ar 11273  0.7005119E+02  0.3910126E+02  0.7186207E+02  0.0000000E+00
Ar 11274  0.7224181E+02  0.4217579E+02  0.7137510E+02  0.0000000E+00
Ar 11275  0.7280222E+02  0.3998482E+02  0.7420863E+02  0.0000000E+00
Ar 11276  0.7010728E+02  0.4272424E+02  0.7474684E+02  0.0000000E+00
Ar 11277  0.6968213E+02  0.3948845E+02  0.7704408E+02  0.0000000E+00
Ar 11278  0.7323268E+02  0.4269866E+02  0.7712320E+02  0.0000000E+00
Ar 11279  0.7298126E+02  0.4031535E+02  0.7959177E+02  0.0000000E+00
Ar 11280  0.7002606E+02  0.4291815E+02  0.7977996E+02  0.0000000E+00
Ar 11281  0.6961701E+02  0.4540555E+02  0.8220373E+02  0.0000000E+00
Ar 11282  0.7206911E+02  0.4774950E+02  0.8304052E+02  0.0000000E+00
Ar 11283  0.7333402E+02  0.4533061E+02  0.1196949E+01  0.0000000E+00
Ar 11284  0.6974276E+02  0.4805051E+02  0.1561786E+01  0.0000000E+00
Ar 11285  0.6964979E+02  0.4576831E+02  0.4203143E+01  0.0000000E+00
Ar 11286  0.7281500E+02  0.4821238E+02  0.3826213E+01  0.0000000E+00
Ar 11287  0.7251769E+02  0.4568074E+02  0.6543610E+01  0.0000000E+00
Ar 11288  0.6995264E+02  0.4829538E+02  0.6586720E+01  0.0000000E+00
Ar 11289  0.7023614E+02  0.4536609E+02  0.9386107E+01  0.0000000E+00
Ar 11290  0.7260288E+02  0.4823920E+02  0.9253046E+01  0.0000000E+00
Ar 11291  0.7278474E+02  0.4541483E+02  0.1243108E+02  0.0000000E+00
Ar 11292  0.7029451E+02  0.4860920E+02  0.1236705E+02  0.0000000E+00
Ar 11293  0.7019346E+02  0.4587002E+02  0.1519592E+02  0.0000000E+00
Ar 11294  0.7321108E+02  0.4832556E+02  0.1467005E+02  0.0000000E+00
Ar 11295  0.7282118E+02  0.4543278E+02  0.1801957E+02  0.0000000E+00
Ar 11296  0.6964171E+02  0.4766917E+02  0.1840940E+02  0.0000000E+00
Ar 11297  0.6972322E+02  0.4535466E+02  0.2157137E+02  0.0000000E+00
Ar 11298  0.7316949E+02  0.4799243E+02  0.2100787E+02  0.0000000E+00
Ar 11299  0.7280156E+02  0.4517054E+02  0.2350735E+02  0.0000000E+00
Ar 11300  0.7035373E+02  0.4824314E+02  0.2364016E+02  0.0000000E+00
Ar 11301  0.7050327E+02  0.4600004E+02  0.2648686E+02  0.0000000E+00
Ar 11302  0.7334299E+02  0.4847997E+02  0.2649280E+02  0.0000000E+00
Ar 11303  0.7314476E+02  0.4542342E+02  0.2954504E+02  0.0000000E+00
Ar 11304  0.7038083E+02  0.4823498E+02  0.2959813E+02  0.0000000E+00
Ar 11305  0.7068700E+02  0.4608260E+02  0.3212038E+02  0.0000000E+00
Ar 11306  0.7359716E+02  0.4838985E+02  0.3244681E+02  0.0000000E+00
Ar 11307  0.7318211E+02  0.4527637E+02  0.3518712E+02  0.0000000E+00
Ar 11308  0.7066191E+02  0.4814480E+02  0.3485786E+02  0.0000000E+00
Ar 11309  0.7024632E+02  0.4608427E+02  0.3832530E+02  0.0000000E+00
Ar 11310  0.7292705E+02  0.4827783E+02  0.3830861E+02  0.0000000E+00
Ar 11311  0.7343065E+02  0.4583977E+02  0.4107370E+02  0.0000000E+00
Ar 11312  0.7086636E+02  0.4854942E+02  0.4126331E+02  0.0000000E+00
Ar 11313  0.7095928E+02  0.4534626E+02  0.4417708E+02  0.0000000E+00
Ar 11314  0.7366247E+02  0.4817552E+02  0.4379872E+02  0.0000000E+00
Ar 11315  0.7381042E+02  0.4559113E+02  0.4650216E+02  0.0000000E+00
Ar 11316  0.7034521E+02  0.4816081E+02  0.4619323E+02  0.0000000E+00
Ar 11317  0.7054898E+02  0.4599529E+02  0.5014851E+02  0.0000000E+00
Ar 11318  0.7349245E+02  0.4840642E+02  0.4912547E+02  0.0000000E+00
Ar 11319  0.7361904E+02  0.4595293E+02  0.5173931E+02  0.0000000E+00
Ar 11320  0.7040698E+02  0.4860494E+02  0.5246822E+02  0.0000000E+00
Ar 11321  0.7025351E+02  0.4533060E+02  0.5442754E+02  0.0000000E+00
Ar 11322  0.7303725E+02  0.4810460E+02  0.5497122E+02  0.0000000E+00
Ar 11323  0.7317332E+02  0.4563277E+02  0.5773280E+02  0.0000000E+00
Ar 11324  0.7026723E+02  0.4786111E+02  0.5731947E+02  0.0000000E+00
Ar 11325  0.7011765E+02  0.4543619E+02  0.5992761E+02  0.0000000E+00
Ar 11326  0.7242284E+02  0.4774360E+02  0.6027674E+02  0.0000000E+00
Ar 11327  0.7261561E+02  0.4548628E+02  0.6344765E+02  0.0000000E+00
Ar 11328  0.7031252E+02  0.4841232E+02  0.6275701E+02  0.0000000E+00
Ar 11329  0.6932232E+02  0.4684087E+02  0.6605745E+02  0.0000000E+00
Ar 11330  0.7279063E+02  0.4825999E+02  0.6560520E+02  0.0000000E+00
Ar 11331  0.7265297E+02  0.4649362E+02  0.6890961E+02  0.0000000E+00
Ar 11332  0.6964063E+02  0.4960580E+02  0.6838661E+02  0.0000000E+00
Ar 11333  0.7033440E+02  0.4563477E+02  0.7168909E+02  0.0000000E+00
Ar 11334  0.7253944E+02  0.4856031E+02  0.7170933E+02  0.0000000E+00
Ar 11335  0.7276542E+02  0.4590557E+02  0.7439535E+02  0.0000000E+00
Ar 11336  0.6960036E+02  0.4874186E+02  0.7360752E+02  0.0000000E+00
Ar 11337  0.7013840E+02  0.4600095E+02  0.7730551E+02  0.0000000E+00
Ar 11338  0.7325451E+02  0.4887792E+02  0.7753091E+02  0.0000000E+00
Ar 11339  0.7287284E+02  0.4561761E+02  0.7989382E+02  0.0000000E+00
Ar 11340  0.6956009E+02  0.4837231E+02  0.8007692E+02  0.0000000E+00
Ar 11341  0.6984121E+02  0.5058794E+02  0.8252360E+02  0.0000000E+00
Ar 11342  0.7240188E+02  0.5379365E+02  0.8284729E+02  0.0000000E+00
Ar 11343  0.7282017E+02  0.5089280E+02  0.7076317E+00  0.0000000E+00
Ar 11344  0.6981538E+02  0.5400843E+02  0.1627890E+01  0.0000000E+00
Ar 11345  0.7076216E+02  0.5156932E+02  0.3959428E+01  0.0000000E+00
Ar 11346  0.7364712E+02  0.5403729E+02  0.4229544E+01  0.0000000E+00
Ar 11347  0.7265569E+02  0.5106346E+02  0.6735574E+01  0.0000000E+00
Ar 11348  0.6997349E+02  0.5397530E+02  0.6471285E+01  0.0000000E+00
Ar 11349  0.7013327E+02  0.5115977E+02  0.9630580E+01  0.0000000E+00
Ar 11350  0.7263214E+02  0.5372658E+02  0.9493897E+01  0.0000000E+00
Ar 11351  0.7336311E+02  0.5095604E+02  0.1191110E+02  0.0000000E+00
Ar 11352  0.6998241E+02  0.5382492E+02  0.1207540E+02  0.0000000E+00
Ar 11353  0.6990324E+02  0.5013071E+02  0.1554774E+02  0.0000000E+00
Ar 11354  0.7271455E+02  0.5346374E+02  0.1504381E+02  0.0000000E+00
Ar 11355  0.7285888E+02  0.5089952E+02  0.1766484E+02  0.0000000E+00
Ar 11356  0.7055797E+02  0.5369441E+02  0.1770898E+02  0.0000000E+00
Ar 11357  0.6989632E+02  0.5076673E+02  0.2105742E+02  0.0000000E+00
Ar 11358  0.7299295E+02  0.5358689E+02  0.2059057E+02  0.0000000E+00
Ar 11359  0.7350933E+02  0.5090213E+02  0.2325292E+02  0.0000000E+00
Ar 11360  0.7035993E+02  0.5326682E+02  0.2374181E+02  0.0000000E+00
Ar 11361  0.7046770E+02  0.5136688E+02  0.2663338E+02  0.0000000E+00
Ar 11362  0.7345324E+02  0.5397758E+02  0.2638010E+02  0.0000000E+00
Ar 11363  0.7370840E+02  0.5089254E+02  0.2959425E+02  0.0000000E+00
Ar 11364  0.7042086E+02  0.5374324E+02  0.2974920E+02  0.0000000E+00
Ar 11365  0.7108375E+02  0.5072936E+02  0.3264027E+02  0.0000000E+00
Ar 11366  0.7332049E+02  0.5378389E+02  0.3310371E+02  0.0000000E+00
Ar 11367  0.7353745E+02  0.5128251E+02  0.3589223E+02  0.0000000E+00
Ar 11368  0.6986180E+02  0.5416521E+02  0.3572003E+02  0.0000000E+00
Ar 11369  0.7021474E+02  0.5130580E+02  0.3779155E+02  0.0000000E+00
Ar 11370  0.7265725E+02  0.5390222E+02  0.3809263E+02  0.0000000E+00
Ar 11371  0.7304488E+02  0.5133891E+02  0.4041135E+02  0.0000000E+00
Ar 11372  0.7040271E+02  0.5368863E+02  0.4146576E+02  0.0000000E+00
Ar 11373  0.7029873E+02  0.5089713E+02  0.4377664E+02  0.0000000E+00
Ar 11374  0.7334912E+02  0.5367673E+02  0.4357820E+02  0.0000000E+00
Ar 11375  0.7319662E+02  0.5090129E+02  0.4637747E+02  0.0000000E+00
Ar 11376  0.7013116E+02  0.5368379E+02  0.4634047E+02  0.0000000E+00
Ar 11377  0.7083104E+02  0.5066611E+02  0.4931757E+02  0.0000000E+00
Ar 11378  0.7258978E+02  0.5367470E+02  0.4970806E+02  0.0000000E+00
Ar 11379  0.7326570E+02  0.5046239E+02  0.5245498E+02  0.0000000E+00
Ar 11380  0.7046630E+02  0.5287267E+02  0.5237146E+02  0.0000000E+00
Ar 11381  0.7071157E+02  0.5070148E+02  0.5517324E+02  0.0000000E+00
Ar 11382  0.7364668E+02  0.5358307E+02  0.5392042E+02  0.0000000E+00
Ar 11383  0.7365903E+02  0.5204851E+02  0.5750531E+02  0.0000000E+00
Ar 11384  0.7048361E+02  0.5362550E+02  0.5760859E+02  0.0000000E+00
Ar 11385  0.7035057E+02  0.5102168E+02  0.6005127E+02  0.0000000E+00
Ar 11386  0.7317100E+02  0.5412528E+02  0.6059742E+02  0.0000000E+00
Ar 11387  0.7338541E+02  0.5134185E+02  0.6286816E+02  0.0000000E+00
Ar 11388  0.7028011E+02  0.5439499E+02  0.6242997E+02  0.0000000E+00
Ar 11389  0.6966721E+02  0.5126525E+02  0.6458574E+02  0.0000000E+00
Ar 11390  0.7266863E+02  0.5312468E+02  0.6640951E+02  0.0000000E+00
Ar 11391  0.7308794E+02  0.5037034E+02  0.6881689E+02  0.0000000E+00
Ar 11392  0.6972843E+02  0.5387341E+02  0.6867335E+02  0.0000000E+00
Ar 11393  0.6958075E+02  0.5169925E+02  0.7191670E+02  0.0000000E+00
Ar 11394  0.7267793E+02  0.5317450E+02  0.7112880E+02  0.0000000E+00
Ar 11395  0.7247164E+02  0.5170674E+02  0.7426992E+02  0.0000000E+00
Ar 11396  0.7014889E+02  0.5447160E+02  0.7452544E+02  0.0000000E+00
Ar 11397  0.6978793E+02  0.5089365E+02  0.7705365E+02  0.0000000E+00
Ar 11398  0.7297685E+02  0.5366286E+02  0.7741396E+02  0.0000000E+00
Ar 11399  0.7296335E+02  0.5147533E+02  0.8008020E+02  0.0000000E+00
Ar 11400  0.7021534E+02  0.5355301E+02  0.7994306E+02  0.0000000E+00
Ar 11401  0.6982162E+02  0.5666287E+02  0.8275228E+02  0.0000000E+00
Ar 11402  0.7276985E+02  0.5885372E+02  0.8289559E+02  0.0000000E+00
Ar 11403  0.7274444E+02  0.5693464E+02  0.1629801E+01  0.0000000E+00
Ar 11404  0.7065196E+02  0.5984288E+02  0.1167124E+01  0.0000000E+00
Ar 11405  0.6973834E+02  0.5711625E+02  0.3998798E+01  0.0000000E+00
Ar 11406  0.7269810E+02  0.5995097E+02  0.4269408E+01  0.0000000E+00
Ar 11407  0.7238691E+02  0.5677328E+02  0.6556934E+01  0.0000000E+00
Ar 11408  0.7009546E+02  0.5977463E+02  0.6944485E+01  0.0000000E+00
Ar 11409  0.6983826E+02  0.5666623E+02  0.9435216E+01  0.0000000E+00
Ar 11410  0.7257489E+02  0.5977831E+02  0.9703412E+01  0.0000000E+00
Ar 11411  0.7299120E+02  0.5653153E+02  0.1288837E+02  0.0000000E+00
Ar 11412  0.7017911E+02  0.5971148E+02  0.1213716E+02  0.0000000E+00
Ar 11413  0.7006302E+02  0.5703774E+02  0.1530460E+02  0.0000000E+00
Ar 11414  0.7346093E+02  0.5932520E+02  0.1526458E+02  0.0000000E+00
Ar 11415  0.7276795E+02  0.5642163E+02  0.1816256E+02  0.0000000E+00
Ar 11416  0.7015291E+02  0.5986950E+02  0.1801085E+02  0.0000000E+00
Ar 11417  0.7027913E+02  0.5639670E+02  0.2079507E+02  0.0000000E+00
Ar 11418  0.7248475E+02  0.5998084E+02  0.2070601E+02  0.0000000E+00
Ar 11419  0.7279395E+02  0.5630140E+02  0.2370371E+02  0.0000000E+00
Ar 11420  0.7063289E+02  0.5980142E+02  0.2354705E+02  0.0000000E+00
Ar 11421  0.7007701E+02  0.5703588E+02  0.2690748E+02  0.0000000E+00
Ar 11422  0.7332260E+02  0.5941641E+02  0.2602491E+02  0.0000000E+00
Ar 11423  0.7310055E+02  0.5628176E+02  0.2919863E+02  0.0000000E+00
Ar 11424  0.7055709E+02  0.5935907E+02  0.2995644E+02  0.0000000E+00
Ar 11425  0.7032266E+02  0.5651772E+02  0.3209804E+02  0.0000000E+00
Ar 11426  0.7244605E+02  0.5967587E+02  0.3302217E+02  0.0000000E+00
Ar 11427  0.7212218E+02  0.5661746E+02  0.3532735E+02  0.0000000E+00
Ar 11428  0.6985576E+02  0.5973439E+02  0.3547393E+02  0.0000000E+00
Ar 11429  0.7030960E+02  0.5614631E+02  0.3892869E+02  0.0000000E+00
Ar 11430  0.7244942E+02  0.5919811E+02  0.3824518E+02  0.0000000E+00
Ar 11431  0.7314929E+02  0.5661955E+02  0.4122436E+02  0.0000000E+00
Ar 11432  0.6988219E+02  0.5928187E+02  0.4152939E+02  0.0000000E+00
Ar 11433  0.7009639E+02  0.5620237E+02  0.4367447E+02  0.0000000E+00
Ar 11434  0.7307048E+02  0.5933550E+02  0.4382206E+02  0.0000000E+00
Ar 11435  0.7305751E+02  0.5638742E+02  0.4634939E+02  0.0000000E+00
Ar 11436  0.7018542E+02  0.5925654E+02  0.4642097E+02  0.0000000E+00
Ar 11437  0.6990587E+02  0.5708329E+02  0.5027732E+02  0.0000000E+00
Ar 11438  0.7241648E+02  0.6012718E+02  0.4912150E+02  0.0000000E+00
Ar 11439  0.7298859E+02  0.5669052E+02  0.5212715E+02  0.0000000E+00
Ar 11440  0.7024875E+02  0.5951533E+02  0.5254014E+02  0.0000000E+00
Ar 11441  0.7075128E+02  0.5639128E+02  0.5534183E+02  0.0000000E+00
Ar 11442  0.7356787E+02  0.5921149E+02  0.5539406E+02  0.0000000E+00
Ar 11443  0.7376812E+02  0.5582908E+02  0.5734088E+02  0.0000000E+00
Ar 11444  0.7043218E+02  0.5981954E+02  0.5656688E+02  0.0000000E+00
Ar 11445  0.7039478E+02  0.5644184E+02  0.5952724E+02  0.0000000E+00
Ar 11446  0.7207649E+02  0.5970624E+02  0.5953959E+02  0.0000000E+00
Ar 11447  0.7370252E+02  0.5714851E+02  0.6285312E+02  0.0000000E+00
Ar 11448  0.7098694E+02  0.5950676E+02  0.6296458E+02  0.0000000E+00
Ar 11449  0.7037835E+02  0.5637570E+02  0.6577100E+02  0.0000000E+00
Ar 11450  0.7319939E+02  0.5956118E+02  0.6555852E+02  0.0000000E+00
Ar 11451  0.7270982E+02  0.5652218E+02  0.6821957E+02  0.0000000E+00
Ar 11452  0.7038217E+02  0.5934233E+02  0.6804378E+02  0.0000000E+00
Ar 11453  0.7021846E+02  0.5659377E+02  0.7102935E+02  0.0000000E+00
Ar 11454  0.7313079E+02  0.5903294E+02  0.7149130E+02  0.0000000E+00
Ar 11455  0.7260819E+02  0.5672019E+02  0.7409083E+02  0.0000000E+00
Ar 11456  0.6974451E+02  0.5896345E+02  0.7413433E+02  0.0000000E+00
Ar 11457  0.7020739E+02  0.5667358E+02  0.7733194E+02  0.0000000E+00
Ar 11458  0.7298099E+02  0.5929402E+02  0.7685615E+02  0.0000000E+00
Ar 11459  0.7263941E+02  0.5673269E+02  0.7997442E+02  0.0000000E+00
Ar 11460  0.6999627E+02  0.5956234E+02  0.7944045E+02  0.0000000E+00
Ar 11461  0.7015930E+02  0.6204629E+02  0.8232384E+02  0.0000000E+00
Ar 11462  0.7284401E+02  0.6466743E+02  0.8282665E+02  0.0000000E+00
Ar 11463  0.7286383E+02  0.6275016E+02  0.1555226E+01  0.0000000E+00
Ar 11464  0.6988999E+02  0.6469993E+02  0.1450505E+01  0.0000000E+00
Ar 11465  0.6925811E+02  0.6187994E+02  0.3786645E+01  0.0000000E+00
Ar 11466  0.7267368E+02  0.6523019E+02  0.3969864E+01  0.0000000E+00
Ar 11467  0.7262969E+02  0.6228986E+02  0.7075080E+01  0.0000000E+00
Ar 11468  0.6981942E+02  0.6521392E+02  0.7037218E+01  0.0000000E+00
Ar 11469  0.6972203E+02  0.6229181E+02  0.9705802E+01  0.0000000E+00
Ar 11470  0.7243711E+02  0.6540377E+02  0.9936045E+01  0.0000000E+00
Ar 11471  0.7285474E+02  0.6228523E+02  0.1220726E+02  0.0000000E+00
Ar 11472  0.7013069E+02  0.6515989E+02  0.1247688E+02  0.0000000E+00
Ar 11473  0.6988972E+02  0.6248368E+02  0.1487768E+02  0.0000000E+00
Ar 11474  0.7267252E+02  0.6488376E+02  0.1507864E+02  0.0000000E+00
Ar 11475  0.7294299E+02  0.6234845E+02  0.1794158E+02  0.0000000E+00
Ar 11476  0.7025041E+02  0.6515150E+02  0.1787394E+02  0.0000000E+00
Ar 11477  0.6979973E+02  0.6230777E+02  0.2079495E+02  0.0000000E+00
Ar 11478  0.7383262E+02  0.6507888E+02  0.2090264E+02  0.0000000E+00
Ar 11479  0.7318869E+02  0.6198516E+02  0.2342478E+02  0.0000000E+00
Ar 11480  0.7017504E+02  0.6393704E+02  0.2413918E+02  0.0000000E+00
Ar 11481  0.7020954E+02  0.6140680E+02  0.2716516E+02  0.0000000E+00
Ar 11482  0.7294461E+02  0.6459645E+02  0.2642332E+02  0.0000000E+00
Ar 11483  0.7319539E+02  0.6211276E+02  0.2898424E+02  0.0000000E+00
Ar 11484  0.7006852E+02  0.6436744E+02  0.2915816E+02  0.0000000E+00
Ar 11485  0.7049627E+02  0.6276502E+02  0.3245444E+02  0.0000000E+00
Ar 11486  0.7341036E+02  0.6481264E+02  0.3355626E+02  0.0000000E+00
Ar 11487  0.7304755E+02  0.6230463E+02  0.3614076E+02  0.0000000E+00
Ar 11488  0.6987415E+02  0.6460982E+02  0.3542923E+02  0.0000000E+00
Ar 11489  0.6984865E+02  0.6226705E+02  0.3905758E+02  0.0000000E+00
Ar 11490  0.7267314E+02  0.6466298E+02  0.3838558E+02  0.0000000E+00
Ar 11491  0.7317583E+02  0.6213115E+02  0.4098447E+02  0.0000000E+00
Ar 11492  0.7057873E+02  0.6570285E+02  0.4108886E+02  0.0000000E+00
Ar 11493  0.7019916E+02  0.6230407E+02  0.4312363E+02  0.0000000E+00
Ar 11494  0.7322638E+02  0.6552217E+02  0.4408465E+02  0.0000000E+00
Ar 11495  0.7269052E+02  0.6246711E+02  0.4619058E+02  0.0000000E+00
Ar 11496  0.7001914E+02  0.6511558E+02  0.4618522E+02  0.0000000E+00
Ar 11497  0.6974187E+02  0.6220529E+02  0.4942472E+02  0.0000000E+00
Ar 11498  0.7292473E+02  0.6478477E+02  0.4948372E+02  0.0000000E+00
Ar 11499  0.7256075E+02  0.6194889E+02  0.5220413E+02  0.0000000E+00
Ar 11500  0.7014780E+02  0.6539571E+02  0.5177356E+02  0.0000000E+00
Ar 11501  0.6973601E+02  0.6268053E+02  0.5416587E+02  0.0000000E+00
Ar 11502  0.7290301E+02  0.6480944E+02  0.5457349E+02  0.0000000E+00
Ar 11503  0.7258419E+02  0.6281846E+02  0.5746583E+02  0.0000000E+00
Ar 11504  0.7004339E+02  0.6634964E+02  0.5746722E+02  0.0000000E+00
Ar 11505  0.6983283E+02  0.6272006E+02  0.5999353E+02  0.0000000E+00
Ar 11506  0.7269490E+02  0.6524217E+02  0.6001421E+02  0.0000000E+00
Ar 11507  0.7309190E+02  0.6233733E+02  0.6213334E+02  0.0000000E+00
Ar 11508  0.7063463E+02  0.6505641E+02  0.6304348E+02  0.0000000E+00
Ar 11509  0.7066020E+02  0.6260762E+02  0.6553990E+02  0.0000000E+00
Ar 11510  0.7306743E+02  0.6554037E+02  0.6608245E+02  0.0000000E+00
Ar 11511  0.7333391E+02  0.6210905E+02  0.6819451E+02  0.0000000E+00
Ar 11512  0.7005358E+02  0.6531056E+02  0.6814441E+02  0.0000000E+00
Ar 11513  0.7119126E+02  0.6208653E+02  0.7115687E+02  0.0000000E+00
Ar 11514  0.7298040E+02  0.6529715E+02  0.7032526E+02  0.0000000E+00
Ar 11515  0.7304355E+02  0.6156335E+02  0.7414741E+02  0.0000000E+00
Ar 11516  0.6965876E+02  0.6464767E+02  0.7371214E+02  0.0000000E+00
Ar 11517  0.6960177E+02  0.6176683E+02  0.7607324E+02  0.0000000E+00
Ar 11518  0.7217557E+02  0.6432861E+02  0.7674044E+02  0.0000000E+00
Ar 11519  0.7269983E+02  0.6227012E+02  0.7980088E+02  0.0000000E+00
Ar 11520  0.6947768E+02  0.6424138E+02  0.7940488E+02  0.0000000E+00
Ar 11521  0.7026050E+02  0.6704376E+02  0.8247777E+02  0.0000000E+00
Ar 11522  0.7297129E+02  0.7012381E+02  0.8282500E+02  0.0000000E+00
Ar 11523  0.7284402E+02  0.6727845E+02  0.1407539E+01  0.0000000E+00
Ar 11524  0.7031120E+02  0.7044068E+02  0.8244204E+00  0.0000000E+00
Ar 11525  0.6957735E+02  0.6832512E+02  0.3928044E+01  0.0000000E+00
Ar 11526  0.7258252E+02  0.7045428E+02  0.3723648E+01  0.0000000E+00
Ar 11527  0.7264293E+02  0.6783822E+02  0.6870274E+01  0.0000000E+00
Ar 11528  0.7010130E+02  0.7079110E+02  0.6720951E+01  0.0000000E+00
Ar 11529  0.6994252E+02  0.6815128E+02  0.9638636E+01  0.0000000E+00
Ar 11530  0.7332285E+02  0.7057859E+02  0.9625933E+01  0.0000000E+00
Ar 11531  0.7301586E+02  0.6786764E+02  0.1233412E+02  0.0000000E+00
Ar 11532  0.7028973E+02  0.7045599E+02  0.1206471E+02  0.0000000E+00
Ar 11533  0.7074341E+02  0.6814200E+02  0.1517138E+02  0.0000000E+00
Ar 11534  0.7314422E+02  0.7082611E+02  0.1524299E+02  0.0000000E+00
Ar 11535  0.7288432E+02  0.6782264E+02  0.1834941E+02  0.0000000E+00
Ar 11536  0.7000821E+02  0.7089994E+02  0.1752144E+02  0.0000000E+00
Ar 11537  0.7011411E+02  0.6743555E+02  0.2039976E+02  0.0000000E+00
Ar 11538  0.7285326E+02  0.7043116E+02  0.2058090E+02  0.0000000E+00
Ar 11539  0.7313529E+02  0.6756686E+02  0.2335110E+02  0.0000000E+00
Ar 11540  0.7009525E+02  0.7012416E+02  0.2378100E+02  0.0000000E+00
Ar 11541  0.6924815E+02  0.6732597E+02  0.2663774E+02  0.0000000E+00
Ar 11542  0.7283922E+02  0.6927517E+02  0.2653024E+02  0.0000000E+00
Ar 11543  0.7290457E+02  0.6684450E+02  0.2986140E+02  0.0000000E+00
Ar 11544  0.7065125E+02  0.7039191E+02  0.2941013E+02  0.0000000E+00
Ar 11545  0.7034072E+02  0.6685390E+02  0.3250908E+02  0.0000000E+00
Ar 11546  0.7279840E+02  0.6969988E+02  0.3257724E+02  0.0000000E+00
Ar 11547  0.7316530E+02  0.6781956E+02  0.3614165E+02  0.0000000E+00
Ar 11548  0.6992435E+02  0.7027235E+02  0.3564683E+02  0.0000000E+00
Ar 11549  0.7027704E+02  0.6795216E+02  0.3827490E+02  0.0000000E+00
Ar 11550  0.7291426E+02  0.7079897E+02  0.3800490E+02  0.0000000E+00
Ar 11551  0.7361100E+02  0.6781621E+02  0.4057034E+02  0.0000000E+00
Ar 11552  0.7077788E+02  0.7031028E+02  0.4107308E+02  0.0000000E+00
Ar 11553  0.6996816E+02  0.6829871E+02  0.4456658E+02  0.0000000E+00
Ar 11554  0.7299351E+02  0.7064687E+02  0.4402251E+02  0.0000000E+00
Ar 11555  0.7316389E+02  0.6895654E+02  0.4734287E+02  0.0000000E+00
Ar 11556  0.7022744E+02  0.7098081E+02  0.4712927E+02  0.0000000E+00
Ar 11557  0.7002215E+02  0.6790232E+02  0.4912986E+02  0.0000000E+00
Ar 11558  0.7268919E+02  0.7110571E+02  0.5020759E+02  0.0000000E+00
Ar 11559  0.7378603E+02  0.6768576E+02  0.5184918E+02  0.0000000E+00
Ar 11560  0.6959045E+02  0.7039465E+02  0.5207185E+02  0.0000000E+00
Ar 11561  0.7035767E+02  0.6794348E+02  0.5437736E+02  0.0000000E+00
Ar 11562  0.7351824E+02  0.7042136E+02  0.5440162E+02  0.0000000E+00
Ar 11563  0.7315952E+02  0.6723231E+02  0.5704074E+02  0.0000000E+00
Ar 11564  0.7051103E+02  0.6988642E+02  0.5746915E+02  0.0000000E+00
Ar 11565  0.7049012E+02  0.6808244E+02  0.6049226E+02  0.0000000E+00
Ar 11566  0.7273320E+02  0.7078481E+02  0.6014099E+02  0.0000000E+00
Ar 11567  0.7359914E+02  0.6778694E+02  0.6283930E+02  0.0000000E+00
Ar 11568  0.6952967E+02  0.7075075E+02  0.6291245E+02  0.0000000E+00
Ar 11569  0.7011227E+02  0.6830767E+02  0.6549724E+02  0.0000000E+00
Ar 11570  0.7283782E+02  0.7040185E+02  0.6492907E+02  0.0000000E+00
Ar 11571  0.7256938E+02  0.6823056E+02  0.6853493E+02  0.0000000E+00
Ar 11572  0.6986801E+02  0.7099165E+02  0.6875631E+02  0.0000000E+00
Ar 11573  0.6981241E+02  0.6769015E+02  0.7108575E+02  0.0000000E+00
Ar 11574  0.7230720E+02  0.7078065E+02  0.7168286E+02  0.0000000E+00
Ar 11575  0.7245698E+02  0.6745854E+02  0.7386359E+02  0.0000000E+00
Ar 11576  0.6964184E+02  0.7037056E+02  0.7397507E+02  0.0000000E+00
Ar 11577  0.7032996E+02  0.6773234E+02  0.7642262E+02  0.0000000E+00
Ar 11578  0.7223817E+02  0.7105995E+02  0.7625359E+02  0.0000000E+00
Ar 11579  0.7266628E+02  0.6724739E+02  0.7939603E+02  0.0000000E+00
Ar 11580  0.7080440E+02  0.7012812E+02  0.7938015E+02  0.0000000E+00
Ar 11581  0.7060307E+02  0.7317880E+02  0.8260578E+02  0.0000000E+00
Ar 11582  0.7289809E+02  0.7604022E+02  0.8263375E+02  0.0000000E+00
Ar 11583  0.7327654E+02  0.7286690E+02  0.6716662E+00  0.0000000E+00
Ar 11584  0.7024265E+02  0.7604121E+02  0.7735734E+00  0.0000000E+00
Ar 11585  0.6977048E+02  0.7319652E+02  0.3579188E+01  0.0000000E+00
Ar 11586  0.7308684E+02  0.7573611E+02  0.3327066E+01  0.0000000E+00
Ar 11587  0.7328151E+02  0.7327132E+02  0.6460621E+01  0.0000000E+00
Ar 11588  0.7064829E+02  0.7572104E+02  0.6074814E+01  0.0000000E+00
Ar 11589  0.7037660E+02  0.7349615E+02  0.9543097E+01  0.0000000E+00
Ar 11590  0.7315470E+02  0.7641190E+02  0.9183584E+01  0.0000000E+00
Ar 11591  0.7256541E+02  0.7380504E+02  0.1288555E+02  0.0000000E+00
Ar 11592  0.7022061E+02  0.7641455E+02  0.1209571E+02  0.0000000E+00
Ar 11593  0.7000489E+02  0.7324002E+02  0.1521690E+02  0.0000000E+00
Ar 11594  0.7229459E+02  0.7620064E+02  0.1569500E+02  0.0000000E+00
Ar 11595  0.7241789E+02  0.7340315E+02  0.1812882E+02  0.0000000E+00
Ar 11596  0.6940841E+02  0.7552195E+02  0.1779727E+02  0.0000000E+00
Ar 11597  0.6941907E+02  0.7265906E+02  0.2089580E+02  0.0000000E+00
Ar 11598  0.7295590E+02  0.7659260E+02  0.2061021E+02  0.0000000E+00
Ar 11599  0.7227186E+02  0.7303816E+02  0.2298464E+02  0.0000000E+00
Ar 11600  0.7035049E+02  0.7644552E+02  0.2350629E+02  0.0000000E+00
Ar 11601  0.7102250E+02  0.7263471E+02  0.2644584E+02  0.0000000E+00
Ar 11602  0.7274987E+02  0.7599283E+02  0.2645381E+02  0.0000000E+00
Ar 11603  0.7248300E+02  0.7321391E+02  0.3021842E+02  0.0000000E+00
Ar 11604  0.6992504E+02  0.7603673E+02  0.2952187E+02  0.0000000E+00
Ar 11605  0.6963418E+02  0.7327960E+02  0.3248947E+02  0.0000000E+00
Ar 11606  0.7196977E+02  0.7645524E+02  0.3257620E+02  0.0000000E+00
Ar 11607  0.7273955E+02  0.7303459E+02  0.3528847E+02  0.0000000E+00
Ar 11608  0.7000346E+02  0.7599765E+02  0.3519762E+02  0.0000000E+00
Ar 11609  0.7017630E+02  0.7335439E+02  0.3763956E+02  0.0000000E+00
Ar 11610  0.7266786E+02  0.7668235E+02  0.3810061E+02  0.0000000E+00
Ar 11611  0.7270908E+02  0.7381065E+02  0.4053758E+02  0.0000000E+00
Ar 11612  0.7001378E+02  0.7640742E+02  0.4112774E+02  0.0000000E+00
Ar 11613  0.7022267E+02  0.7330062E+02  0.4366412E+02  0.0000000E+00
Ar 11614  0.7296740E+02  0.7614856E+02  0.4360909E+02  0.0000000E+00
Ar 11615  0.7381075E+02  0.7342724E+02  0.4609437E+02  0.0000000E+00
Ar 11616  0.7072995E+02  0.7637414E+02  0.4712309E+02  0.0000000E+00
Ar 11617  0.6990742E+02  0.7370365E+02  0.5003738E+02  0.0000000E+00
Ar 11618  0.7307179E+02  0.7704852E+02  0.4984200E+02  0.0000000E+00
Ar 11619  0.7309108E+02  0.7402847E+02  0.5195984E+02  0.0000000E+00
Ar 11620  0.7062306E+02  0.7678226E+02  0.5193063E+02  0.0000000E+00
Ar 11621  0.7017938E+02  0.7387840E+02  0.5455739E+02  0.0000000E+00
Ar 11622  0.7292381E+02  0.7668369E+02  0.5516054E+02  0.0000000E+00
Ar 11623  0.7243713E+02  0.7396080E+02  0.5802451E+02  0.0000000E+00
Ar 11624  0.7005909E+02  0.7642194E+02  0.5730154E+02  0.0000000E+00
Ar 11625  0.6955136E+02  0.7415029E+02  0.6047720E+02  0.0000000E+00
Ar 11626  0.7251508E+02  0.7628894E+02  0.6120115E+02  0.0000000E+00
Ar 11627  0.7223006E+02  0.7364549E+02  0.6356556E+02  0.0000000E+00
Ar 11628  0.6960880E+02  0.7617616E+02  0.6366242E+02  0.0000000E+00
Ar 11629  0.6969098E+02  0.7383958E+02  0.6613530E+02  0.0000000E+00
Ar 11630  0.7311482E+02  0.7685257E+02  0.6571774E+02  0.0000000E+00
Ar 11631  0.7265673E+02  0.7324807E+02  0.6812880E+02  0.0000000E+00
Ar 11632  0.7070875E+02  0.7671780E+02  0.6817306E+02  0.0000000E+00
Ar 11633  0.6925081E+02  0.7374850E+02  0.7102671E+02  0.0000000E+00
Ar 11634  0.7290627E+02  0.7631148E+02  0.7127170E+02  0.0000000E+00
Ar 11635  0.7227850E+02  0.7361371E+02  0.7369970E+02  0.0000000E+00
Ar 11636  0.6967592E+02  0.7666045E+02  0.7386053E+02  0.0000000E+00
Ar 11637  0.6978563E+02  0.7368487E+02  0.7647741E+02  0.0000000E+00
Ar 11638  0.7238872E+02  0.7658986E+02  0.7664663E+02  0.0000000E+00
Ar 11639  0.7275704E+02  0.7347738E+02  0.7933061E+02  0.0000000E+00
Ar 11640  0.6977179E+02  0.7628507E+02  0.7983250E+02  0.0000000E+00
Ar 11641  0.7034301E+02  0.7917642E+02  0.8249489E+02  0.0000000E+00
Ar 11642  0.7342695E+02  0.8183158E+02  0.8289360E+02  0.0000000E+00
Ar 11643  0.7302334E+02  0.7874042E+02  0.7604796E+00  0.0000000E+00
Ar 11644  0.7063715E+02  0.8154099E+02  0.1205109E+01  0.0000000E+00
Ar 11645  0.7043276E+02  0.7862290E+02  0.3899079E+01  0.0000000E+00
Ar 11646  0.7344347E+02  0.8112131E+02  0.3541987E+01  0.0000000E+00
Ar 11647  0.7400725E+02  0.7838031E+02  0.6410343E+01  0.0000000E+00
Ar 11648  0.7040433E+02  0.8178609E+02  0.6379528E+01  0.0000000E+00
Ar 11649  0.7060234E+02  0.7857266E+02  0.8129401E+01  0.0000000E+00
Ar 11650  0.7272511E+02  0.8158889E+02  0.9127377E+01  0.0000000E+00
Ar 11651  0.7291892E+02  0.7899267E+02  0.1204750E+02  0.0000000E+00
Ar 11652  0.7005132E+02  0.8127548E+02  0.1253306E+02  0.0000000E+00
Ar 11653  0.6981237E+02  0.7893807E+02  0.1580999E+02  0.0000000E+00
Ar 11654  0.7301044E+02  0.8186985E+02  0.1517571E+02  0.0000000E+00
Ar 11655  0.7317932E+02  0.7935764E+02  0.1763728E+02  0.0000000E+00
Ar 11656  0.7050475E+02  0.8157156E+02  0.1816656E+02  0.0000000E+00
Ar 11657  0.7019979E+02  0.7902518E+02  0.2047721E+02  0.0000000E+00
Ar 11658  0.7300288E+02  0.8144828E+02  0.2070703E+02  0.0000000E+00
Ar 11659  0.7264987E+02  0.7917476E+02  0.2341774E+02  0.0000000E+00
Ar 11660  0.7020394E+02  0.8168993E+02  0.2320367E+02  0.0000000E+00
Ar 11661  0.7013207E+02  0.7839064E+02  0.2702873E+02  0.0000000E+00
Ar 11662  0.7242928E+02  0.8160594E+02  0.2694794E+02  0.0000000E+00
Ar 11663  0.7274211E+02  0.7829281E+02  0.2948883E+02  0.0000000E+00
Ar 11664  0.6986127E+02  0.8170712E+02  0.3000903E+02  0.0000000E+00
Ar 11665  0.6956961E+02  0.7925264E+02  0.3298593E+02  0.0000000E+00
Ar 11666  0.7276245E+02  0.8217110E+02  0.3273081E+02  0.0000000E+00
Ar 11667  0.7291519E+02  0.7919676E+02  0.3579237E+02  0.0000000E+00
Ar 11668  0.7027375E+02  0.8195283E+02  0.3569324E+02  0.0000000E+00
Ar 11669  0.6964715E+02  0.7850063E+02  0.3764880E+02  0.0000000E+00
Ar 11670  0.7346057E+02  0.8221051E+02  0.3816776E+02  0.0000000E+00
Ar 11671  0.7290049E+02  0.7914072E+02  0.4089472E+02  0.0000000E+00
Ar 11672  0.7005564E+02  0.8111682E+02  0.4043888E+02  0.0000000E+00
Ar 11673  0.7067662E+02  0.7898917E+02  0.4377792E+02  0.0000000E+00
Ar 11674  0.7275938E+02  0.8210144E+02  0.4358854E+02  0.0000000E+00
Ar 11675  0.7313296E+02  0.7939684E+02  0.4670100E+02  0.0000000E+00
Ar 11676  0.7023053E+02  0.8173091E+02  0.4607951E+02  0.0000000E+00
Ar 11677  0.7025370E+02  0.7936680E+02  0.4920554E+02  0.0000000E+00
Ar 11678  0.7279332E+02  0.8239789E+02  0.4844447E+02  0.0000000E+00
Ar 11679  0.7275053E+02  0.7996978E+02  0.5215520E+02  0.0000000E+00
Ar 11680  0.7007687E+02  0.8236201E+02  0.5170919E+02  0.0000000E+00
Ar 11681  0.6954376E+02  0.7928936E+02  0.5506590E+02  0.0000000E+00
Ar 11682  0.7285134E+02  0.8218469E+02  0.5506897E+02  0.0000000E+00
Ar 11683  0.7307997E+02  0.7980154E+02  0.5777484E+02  0.0000000E+00
Ar 11684  0.6984293E+02  0.8172303E+02  0.5749429E+02  0.0000000E+00
Ar 11685  0.6988353E+02  0.7869990E+02  0.6003067E+02  0.0000000E+00
Ar 11686  0.7337849E+02  0.8245924E+02  0.6062774E+02  0.0000000E+00
Ar 11687  0.7232582E+02  0.7922725E+02  0.6340187E+02  0.0000000E+00
Ar 11688  0.7011895E+02  0.8211372E+02  0.6263595E+02  0.0000000E+00
Ar 11689  0.6951945E+02  0.7900992E+02  0.6603548E+02  0.0000000E+00
Ar 11690  0.7238282E+02  0.8198347E+02  0.6550708E+02  0.0000000E+00
Ar 11691  0.7323287E+02  0.7915099E+02  0.6822533E+02  0.0000000E+00
Ar 11692  0.7038843E+02  0.8184793E+02  0.6854849E+02  0.0000000E+00
Ar 11693  0.6998168E+02  0.7921593E+02  0.7083935E+02  0.0000000E+00
Ar 11694  0.7319161E+02  0.8153039E+02  0.7109400E+02  0.0000000E+00
Ar 11695  0.7249670E+02  0.7907536E+02  0.7370879E+02  0.0000000E+00
Ar 11696  0.7034276E+02  0.8183135E+02  0.7332807E+02  0.0000000E+00
Ar 11697  0.7051426E+02  0.7937223E+02  0.7641578E+02  0.0000000E+00
Ar 11698  0.7277832E+02  0.8192720E+02  0.7588558E+02  0.0000000E+00
Ar 11699  0.7309607E+02  0.7913972E+02  0.7918448E+02  0.0000000E+00
Ar 11700  0.7029702E+02  0.8178254E+02  0.7976757E+02  0.0000000E+00
Ar 11701  0.7606561E+02  0.8416851E+02  0.8295877E+02  0.0000000E+00
Ar 11702  0.7893671E+02  0.3215429E+01  0.8196444E+02  0.0000000E+00
Ar 11703  0.7910915E+02  0.8422255E+02  0.6015192E+00  0.0000000E+00
Ar 11704  0.7649618E+02  0.3072757E+01  0.1974614E+00  0.0000000E+00
Ar 11705  0.7582532E+02  0.5108109E+00  0.2921171E+01  0.0000000E+00
Ar 11706  0.7954484E+02  0.2696365E+01  0.3365891E+01  0.0000000E+00
Ar 11707  0.7876885E+02  0.4336287E+00  0.6966593E+01  0.0000000E+00
Ar 11708  0.7626780E+02  0.2943093E+01  0.7189320E+01  0.0000000E+00
Ar 11709  0.7550714E+02  0.8417208E+02  0.9129165E+01  0.0000000E+00
Ar 11710  0.7816469E+02  0.2555143E+01  0.9872501E+01  0.0000000E+00
Ar 11711  0.7824193E+02  0.6864805E+00  0.1277943E+02  0.0000000E+00
Ar 11712  0.7519816E+02  0.2977138E+01  0.1239525E+02  0.0000000E+00
Ar 11713  0.7551050E+02  0.5274219E+00  0.1528122E+02  0.0000000E+00
Ar 11714  0.7854448E+02  0.4101199E+01  0.1445299E+02  0.0000000E+00
Ar 11715  0.7868764E+02  0.8426634E+02  0.1745496E+02  0.0000000E+00
Ar 11716  0.7551235E+02  0.3489251E+01  0.1760765E+02  0.0000000E+00
Ar 11717  0.7622149E+02  0.7585308E+00  0.2022372E+02  0.0000000E+00
Ar 11718  0.7794756E+02  0.3677800E+01  0.2110551E+02  0.0000000E+00
Ar 11719  0.7756308E+02  0.7729412E+00  0.2440015E+02  0.0000000E+00
Ar 11720  0.7556214E+02  0.3629817E+01  0.2379070E+02  0.0000000E+00
Ar 11721  0.7513513E+02  0.1164632E+01  0.2744436E+02  0.0000000E+00
Ar 11722  0.7796088E+02  0.3423463E+01  0.2662290E+02  0.0000000E+00
Ar 11723  0.7781339E+02  0.6079887E+00  0.2962923E+02  0.0000000E+00
Ar 11724  0.7473666E+02  0.3990928E+01  0.2975308E+02  0.0000000E+00
Ar 11725  0.7511955E+02  0.7343213E+00  0.3251908E+02  0.0000000E+00
Ar 11726  0.7781253E+02  0.3401964E+01  0.3236524E+02  0.0000000E+00
Ar 11727  0.7850478E+02  0.7037916E+00  0.3511431E+02  0.0000000E+00
Ar 11728  0.7557049E+02  0.3042477E+01  0.3539069E+02  0.0000000E+00
Ar 11729  0.7561504E+02  0.1017106E+01  0.3875478E+02  0.0000000E+00
Ar 11730  0.7878535E+02  0.3341968E+01  0.3741318E+02  0.0000000E+00
Ar 11731  0.7853214E+02  0.1026006E+01  0.4123030E+02  0.0000000E+00
Ar 11732  0.7607820E+02  0.4514880E+01  0.4083765E+02  0.0000000E+00
Ar 11733  0.7518642E+02  0.5179528E+00  0.4301604E+02  0.0000000E+00
Ar 11734  0.7864486E+02  0.3569831E+01  0.4441813E+02  0.0000000E+00
Ar 11735  0.7836394E+02  0.5366956E+00  0.4717859E+02  0.0000000E+00
Ar 11736  0.7525188E+02  0.3772740E+01  0.4609986E+02  0.0000000E+00
Ar 11737  0.7540635E+02  0.7354888E+00  0.4904306E+02  0.0000000E+00
Ar 11738  0.7843604E+02  0.3337370E+01  0.4896500E+02  0.0000000E+00
Ar 11739  0.7832268E+02  0.1324323E+01  0.5198835E+02  0.0000000E+00
Ar 11740  0.7565539E+02  0.4256619E+01  0.5168393E+02  0.0000000E+00
Ar 11741  0.7548147E+02  0.8398565E+00  0.5464012E+02  0.0000000E+00
Ar 11742  0.7822492E+02  0.3964374E+01  0.5423601E+02  0.0000000E+00
Ar 11743  0.7822025E+02  0.5498708E+00  0.5782809E+02  0.0000000E+00
Ar 11744  0.7627738E+02  0.3831211E+01  0.5715056E+02  0.0000000E+00
Ar 11745  0.7590794E+02  0.9817340E+00  0.6080443E+02  0.0000000E+00
Ar 11746  0.7843577E+02  0.3661484E+01  0.6063994E+02  0.0000000E+00
Ar 11747  0.7858948E+02  0.3164074E+00  0.6353958E+02  0.0000000E+00
Ar 11748  0.7556416E+02  0.3846947E+01  0.6336990E+02  0.0000000E+00
Ar 11749  0.7553985E+02  0.5674252E+00  0.6553154E+02  0.0000000E+00
Ar 11750  0.7825347E+02  0.3501566E+01  0.6558402E+02  0.0000000E+00
Ar 11751  0.7864026E+02  0.1483045E+01  0.6839014E+02  0.0000000E+00
Ar 11752  0.7563891E+02  0.3489286E+01  0.6786118E+02  0.0000000E+00
Ar 11753  0.7614266E+02  0.1923849E+00  0.7093803E+02  0.0000000E+00
Ar 11754  0.7874591E+02  0.3704051E+01  0.7174287E+02  0.0000000E+00
Ar 11755  0.7824079E+02  0.2643612E+00  0.7418818E+02  0.0000000E+00
Ar 11756  0.7584970E+02  0.3070705E+01  0.7438364E+02  0.0000000E+00
Ar 11757  0.7544830E+02  0.8407657E+02  0.7681677E+02  0.0000000E+00
Ar 11758  0.7880613E+02  0.3124345E+01  0.7816557E+02  0.0000000E+00
Ar 11759  0.7879726E+02  0.8424635E+02  0.8007995E+02  0.0000000E+00
Ar 11760  0.7562552E+02  0.2947747E+01  0.7982699E+02  0.0000000E+00
Ar 11761  0.7553687E+02  0.6043982E+01  0.8213589E+02  0.0000000E+00
Ar 11762  0.7884339E+02  0.9058444E+01  0.8248910E+02  0.0000000E+00
Ar 11763  0.7914306E+02  0.5833601E+01  0.7815329E+00  0.0000000E+00
Ar 11764  0.7640914E+02  0.8699123E+01  0.9753264E+00  0.0000000E+00
Ar 11765  0.7622480E+02  0.5564716E+01  0.4050893E+01  0.0000000E+00
Ar 11766  0.7967294E+02  0.9239487E+01  0.3061474E+01  0.0000000E+00
Ar 11767  0.7913480E+02  0.6725999E+01  0.6226140E+01  0.0000000E+00
Ar 11768  0.7562774E+02  0.8167230E+01  0.6760385E+01  0.0000000E+00
Ar 11769  0.7600441E+02  0.6152064E+01  0.9449994E+01  0.0000000E+00
Ar 11770  0.7833400E+02  0.9347276E+01  0.9754458E+01  0.0000000E+00
Ar 11771  0.7868999E+02  0.6861653E+01  0.1206549E+02  0.0000000E+00
Ar 11772  0.7596574E+02  0.9166806E+01  0.1219021E+02  0.0000000E+00
Ar 11773  0.7521623E+02  0.5624996E+01  0.1478056E+02  0.0000000E+00
Ar 11774  0.7780572E+02  0.8318261E+01  0.1501885E+02  0.0000000E+00
Ar 11775  0.7765624E+02  0.6456313E+01  0.1815719E+02  0.0000000E+00
Ar 11776  0.7581475E+02  0.9895058E+01  0.1772237E+02  0.0000000E+00
Ar 11777  0.7526210E+02  0.6710141E+01  0.2094342E+02  0.0000000E+00
Ar 11778  0.7805663E+02  0.8850921E+01  0.2119089E+02  0.0000000E+00
Ar 11779  0.7811268E+02  0.6393454E+01  0.2377458E+02  0.0000000E+00
Ar 11780  0.7560675E+02  0.9336576E+01  0.2391662E+02  0.0000000E+00
Ar 11781  0.7514323E+02  0.6152438E+01  0.2639915E+02  0.0000000E+00
Ar 11782  0.7855576E+02  0.8762537E+01  0.2667937E+02  0.0000000E+00
Ar 11783  0.7789604E+02  0.5960905E+01  0.2900868E+02  0.0000000E+00
Ar 11784  0.7575735E+02  0.9108679E+01  0.2916741E+02  0.0000000E+00
Ar 11785  0.7507329E+02  0.6449938E+01  0.3259839E+02  0.0000000E+00
Ar 11786  0.7815811E+02  0.8118983E+01  0.3156783E+02  0.0000000E+00
Ar 11787  0.7833334E+02  0.6356169E+01  0.3520284E+02  0.0000000E+00
Ar 11788  0.7564635E+02  0.9529408E+01  0.3541073E+02  0.0000000E+00
Ar 11789  0.7594261E+02  0.6219382E+01  0.3748130E+02  0.0000000E+00
Ar 11790  0.7865316E+02  0.9514751E+01  0.3811683E+02  0.0000000E+00
Ar 11791  0.7860142E+02  0.6722058E+01  0.4080312E+02  0.0000000E+00
Ar 11792  0.7612783E+02  0.9622437E+01  0.4116483E+02  0.0000000E+00
Ar 11793  0.7613430E+02  0.6944050E+01  0.4380038E+02  0.0000000E+00
Ar 11794  0.7899581E+02  0.9280418E+01  0.4369274E+02  0.0000000E+00
Ar 11795  0.7900803E+02  0.6653839E+01  0.4648213E+02  0.0000000E+00
Ar 11796  0.7633401E+02  0.9219334E+01  0.4628432E+02  0.0000000E+00
Ar 11797  0.7616585E+02  0.6719495E+01  0.4894068E+02  0.0000000E+00
Ar 11798  0.7887755E+02  0.9003100E+01  0.4939155E+02  0.0000000E+00
Ar 11799  0.7903198E+02  0.6563335E+01  0.5201114E+02  0.0000000E+00
Ar 11800  0.7615588E+02  0.8982991E+01  0.5211003E+02  0.0000000E+00
Ar 11801  0.7548553E+02  0.6269842E+01  0.5437208E+02  0.0000000E+00
Ar 11802  0.7850776E+02  0.8825222E+01  0.5472515E+02  0.0000000E+00
Ar 11803  0.7918678E+02  0.6651900E+01  0.5757325E+02  0.0000000E+00
Ar 11804  0.7553589E+02  0.9763068E+01  0.5734472E+02  0.0000000E+00
Ar 11805  0.7579724E+02  0.6151313E+01  0.5991472E+02  0.0000000E+00
Ar 11806  0.7797317E+02  0.8846069E+01  0.6009667E+02  0.0000000E+00
Ar 11807  0.7826602E+02  0.6157782E+01  0.6312958E+02  0.0000000E+00
Ar 11808  0.7631319E+02  0.9322676E+01  0.6293919E+02  0.0000000E+00
Ar 11809  0.7554065E+02  0.6794975E+01  0.6556911E+02  0.0000000E+00
Ar 11810  0.7863048E+02  0.9203297E+01  0.6569498E+02  0.0000000E+00
Ar 11811  0.7881959E+02  0.5599936E+01  0.6878469E+02  0.0000000E+00
Ar 11812  0.7617076E+02  0.9417048E+01  0.6849611E+02  0.0000000E+00
Ar 11813  0.7603650E+02  0.5764901E+01  0.7145078E+02  0.0000000E+00
Ar 11814  0.7844603E+02  0.1031647E+02  0.7095182E+02  0.0000000E+00
Ar 11815  0.7892193E+02  0.7157809E+01  0.7367958E+02  0.0000000E+00
Ar 11816  0.7587137E+02  0.9412636E+01  0.7404127E+02  0.0000000E+00
Ar 11817  0.7534820E+02  0.5380307E+01  0.7723098E+02  0.0000000E+00
Ar 11818  0.7852655E+02  0.9323598E+01  0.7735428E+02  0.0000000E+00
Ar 11819  0.7863072E+02  0.6283358E+01  0.7928869E+02  0.0000000E+00
Ar 11820  0.7595513E+02  0.9469271E+01  0.7976151E+02  0.0000000E+00
Ar 11821  0.7635572E+02  0.1177050E+02  0.8264823E+02  0.0000000E+00
Ar 11822  0.7898738E+02  0.1525304E+02  0.8207987E+02  0.0000000E+00
Ar 11823  0.7931584E+02  0.1220115E+02  0.6010619E+00  0.0000000E+00
Ar 11824  0.7606106E+02  0.1444059E+02  0.5989715E+00  0.0000000E+00
Ar 11825  0.7617359E+02  0.1137645E+02  0.3721434E+01  0.0000000E+00
Ar 11826  0.7766530E+02  0.1448901E+02  0.4207230E+01  0.0000000E+00
Ar 11827  0.7871525E+02  0.1201659E+02  0.6739833E+01  0.0000000E+00
Ar 11828  0.7557490E+02  0.1509058E+02  0.7037052E+01  0.0000000E+00
Ar 11829  0.7569154E+02  0.1220540E+02  0.9557429E+01  0.0000000E+00
Ar 11830  0.7893302E+02  0.1462822E+02  0.9579957E+01  0.0000000E+00
Ar 11831  0.7937819E+02  0.1194351E+02  0.1216452E+02  0.0000000E+00
Ar 11832  0.7600845E+02  0.1456274E+02  0.1212402E+02  0.0000000E+00
Ar 11833  0.7658949E+02  0.1198642E+02  0.1492007E+02  0.0000000E+00
Ar 11834  0.7867700E+02  0.1494264E+02  0.1525393E+02  0.0000000E+00
Ar 11835  0.7898615E+02  0.1158282E+02  0.1782519E+02  0.0000000E+00
Ar 11836  0.7569812E+02  0.1401889E+02  0.1803602E+02  0.0000000E+00
Ar 11837  0.7601297E+02  0.1168177E+02  0.2073847E+02  0.0000000E+00
Ar 11838  0.7855875E+02  0.1448071E+02  0.2069362E+02  0.0000000E+00
Ar 11839  0.7874057E+02  0.1222811E+02  0.2348071E+02  0.0000000E+00
Ar 11840  0.7613326E+02  0.1453444E+02  0.2354829E+02  0.0000000E+00
Ar 11841  0.7611353E+02  0.1233838E+02  0.2654384E+02  0.0000000E+00
Ar 11842  0.7867654E+02  0.1469206E+02  0.2673881E+02  0.0000000E+00
Ar 11843  0.7839211E+02  0.1162246E+02  0.2985570E+02  0.0000000E+00
Ar 11844  0.7615798E+02  0.1484668E+02  0.2995238E+02  0.0000000E+00
Ar 11845  0.7575621E+02  0.1126284E+02  0.3247687E+02  0.0000000E+00
Ar 11846  0.7862342E+02  0.1413619E+02  0.3228914E+02  0.0000000E+00
Ar 11847  0.7900293E+02  0.1168381E+02  0.3530729E+02  0.0000000E+00
Ar 11848  0.7538104E+02  0.1446244E+02  0.3495933E+02  0.0000000E+00
Ar 11849  0.7573767E+02  0.1228332E+02  0.3790685E+02  0.0000000E+00
Ar 11850  0.7888848E+02  0.1458968E+02  0.3794646E+02  0.0000000E+00
Ar 11851  0.7864607E+02  0.1172961E+02  0.4082502E+02  0.0000000E+00
Ar 11852  0.7603959E+02  0.1494012E+02  0.4018390E+02  0.0000000E+00
Ar 11853  0.7590704E+02  0.1201372E+02  0.4382293E+02  0.0000000E+00
Ar 11854  0.7858980E+02  0.1465176E+02  0.4327321E+02  0.0000000E+00
Ar 11855  0.7883442E+02  0.1156826E+02  0.4664721E+02  0.0000000E+00
Ar 11856  0.7677030E+02  0.1472755E+02  0.4636091E+02  0.0000000E+00
Ar 11857  0.7621123E+02  0.1200493E+02  0.4936713E+02  0.0000000E+00
Ar 11858  0.7890239E+02  0.1480421E+02  0.4916010E+02  0.0000000E+00
Ar 11859  0.7880279E+02  0.1183913E+02  0.5229514E+02  0.0000000E+00
Ar 11860  0.7601122E+02  0.1503327E+02  0.5212971E+02  0.0000000E+00
Ar 11861  0.7582405E+02  0.1202319E+02  0.5453858E+02  0.0000000E+00
Ar 11862  0.7901589E+02  0.1457866E+02  0.5443265E+02  0.0000000E+00
Ar 11863  0.7847602E+02  0.1157448E+02  0.5716604E+02  0.0000000E+00
Ar 11864  0.7582345E+02  0.1491368E+02  0.5720413E+02  0.0000000E+00
Ar 11865  0.7570049E+02  0.1252194E+02  0.5971777E+02  0.0000000E+00
Ar 11866  0.7895605E+02  0.1531926E+02  0.5977794E+02  0.0000000E+00
Ar 11867  0.7824392E+02  0.1251617E+02  0.6266426E+02  0.0000000E+00
Ar 11868  0.7622532E+02  0.1507900E+02  0.6244670E+02  0.0000000E+00
Ar 11869  0.7591235E+02  0.1179549E+02  0.6551014E+02  0.0000000E+00
Ar 11870  0.7843517E+02  0.1504406E+02  0.6562499E+02  0.0000000E+00
Ar 11871  0.7839725E+02  0.1228682E+02  0.6790190E+02  0.0000000E+00
Ar 11872  0.7551016E+02  0.1505525E+02  0.6891263E+02  0.0000000E+00
Ar 11873  0.7528022E+02  0.1198535E+02  0.7141806E+02  0.0000000E+00
Ar 11874  0.7852668E+02  0.1444338E+02  0.7095947E+02  0.0000000E+00
Ar 11875  0.7875603E+02  0.1185896E+02  0.7413012E+02  0.0000000E+00
Ar 11876  0.7557726E+02  0.1459809E+02  0.7392123E+02  0.0000000E+00
Ar 11877  0.7624199E+02  0.1199820E+02  0.7705432E+02  0.0000000E+00
Ar 11878  0.7802761E+02  0.1494179E+02  0.7731444E+02  0.0000000E+00
Ar 11879  0.7874854E+02  0.1187929E+02  0.7992286E+02  0.0000000E+00
Ar 11880  0.7562000E+02  0.1418697E+02  0.7987395E+02  0.0000000E+00
Ar 11881  0.7534754E+02  0.1710693E+02  0.8219699E+02  0.0000000E+00
Ar 11882  0.7858022E+02  0.2055363E+02  0.8191466E+02  0.0000000E+00
Ar 11883  0.7872623E+02  0.1778298E+02  0.6866111E+00  0.0000000E+00
Ar 11884  0.7554539E+02  0.2024393E+02  0.5772779E+00  0.0000000E+00
Ar 11885  0.7645072E+02  0.1799963E+02  0.3640096E+01  0.0000000E+00
Ar 11886  0.7882509E+02  0.2076561E+02  0.4285542E+01  0.0000000E+00
Ar 11887  0.7844817E+02  0.1719080E+02  0.6758168E+01  0.0000000E+00
Ar 11888  0.7582429E+02  0.2014702E+02  0.6309380E+01  0.0000000E+00
Ar 11889  0.7613082E+02  0.1775954E+02  0.9647493E+01  0.0000000E+00
Ar 11890  0.7916627E+02  0.2016258E+02  0.8980970E+01  0.0000000E+00
Ar 11891  0.7990054E+02  0.1677812E+02  0.1234366E+02  0.0000000E+00
Ar 11892  0.7591367E+02  0.2052610E+02  0.1220882E+02  0.0000000E+00
Ar 11893  0.7623186E+02  0.1746509E+02  0.1505007E+02  0.0000000E+00
Ar 11894  0.7998770E+02  0.2129769E+02  0.1554950E+02  0.0000000E+00
Ar 11895  0.7760723E+02  0.1717238E+02  0.1828086E+02  0.0000000E+00
Ar 11896  0.7688897E+02  0.2077931E+02  0.1764400E+02  0.0000000E+00
Ar 11897  0.7542034E+02  0.1752651E+02  0.2143770E+02  0.0000000E+00
Ar 11898  0.7862111E+02  0.2007729E+02  0.2141859E+02  0.0000000E+00
Ar 11899  0.7853111E+02  0.1748736E+02  0.2359875E+02  0.0000000E+00
Ar 11900  0.7594695E+02  0.1970922E+02  0.2401253E+02  0.0000000E+00
Ar 11901  0.7557429E+02  0.1698243E+02  0.2626656E+02  0.0000000E+00
Ar 11902  0.7870209E+02  0.1930784E+02  0.2645830E+02  0.0000000E+00
Ar 11903  0.7886493E+02  0.1750510E+02  0.2931559E+02  0.0000000E+00
Ar 11904  0.7589532E+02  0.2061458E+02  0.2926056E+02  0.0000000E+00
Ar 11905  0.7624890E+02  0.1759620E+02  0.3262157E+02  0.0000000E+00
Ar 11906  0.7878440E+02  0.2015462E+02  0.3260239E+02  0.0000000E+00
Ar 11907  0.7886688E+02  0.1701237E+02  0.3534314E+02  0.0000000E+00
Ar 11908  0.7642631E+02  0.2092280E+02  0.3497362E+02  0.0000000E+00
Ar 11909  0.7584771E+02  0.1742125E+02  0.3718389E+02  0.0000000E+00
Ar 11910  0.7879883E+02  0.2062462E+02  0.3759518E+02  0.0000000E+00
Ar 11911  0.7852100E+02  0.1750582E+02  0.4068444E+02  0.0000000E+00
Ar 11912  0.7593169E+02  0.2062930E+02  0.3966294E+02  0.0000000E+00
Ar 11913  0.7589437E+02  0.1719124E+02  0.4302172E+02  0.0000000E+00
Ar 11914  0.7809344E+02  0.1998529E+02  0.4327780E+02  0.0000000E+00
Ar 11915  0.7888525E+02  0.1751724E+02  0.4605511E+02  0.0000000E+00
Ar 11916  0.7607704E+02  0.2134120E+02  0.4613264E+02  0.0000000E+00
Ar 11917  0.7593078E+02  0.1744275E+02  0.4863912E+02  0.0000000E+00
Ar 11918  0.7880965E+02  0.2029748E+02  0.4875611E+02  0.0000000E+00
Ar 11919  0.7839262E+02  0.1739327E+02  0.5189922E+02  0.0000000E+00
Ar 11920  0.7611825E+02  0.2037212E+02  0.5158183E+02  0.0000000E+00
Ar 11921  0.7582196E+02  0.1787269E+02  0.5445098E+02  0.0000000E+00
Ar 11922  0.7940894E+02  0.2012514E+02  0.5453146E+02  0.0000000E+00
Ar 11923  0.7865168E+02  0.1771937E+02  0.5729899E+02  0.0000000E+00
Ar 11924  0.7631255E+02  0.2074812E+02  0.5730993E+02  0.0000000E+00
Ar 11925  0.7580907E+02  0.1758360E+02  0.5971081E+02  0.0000000E+00
Ar 11926  0.7895714E+02  0.2027075E+02  0.5989057E+02  0.0000000E+00
Ar 11927  0.7859190E+02  0.1757775E+02  0.6285632E+02  0.0000000E+00
Ar 11928  0.7567317E+02  0.2021545E+02  0.6314181E+02  0.0000000E+00
Ar 11929  0.7578840E+02  0.1764242E+02  0.6568319E+02  0.0000000E+00
Ar 11930  0.7851984E+02  0.2032050E+02  0.6586897E+02  0.0000000E+00
Ar 11931  0.7789001E+02  0.1784130E+02  0.6883360E+02  0.0000000E+00
Ar 11932  0.7583682E+02  0.2092651E+02  0.6832721E+02  0.0000000E+00
Ar 11933  0.7546241E+02  0.1814646E+02  0.7156879E+02  0.0000000E+00
Ar 11934  0.7809358E+02  0.2046637E+02  0.7170967E+02  0.0000000E+00
Ar 11935  0.7870066E+02  0.1691029E+02  0.7385782E+02  0.0000000E+00
Ar 11936  0.7583033E+02  0.2047686E+02  0.7419669E+02  0.0000000E+00
Ar 11937  0.7577303E+02  0.1744798E+02  0.7637734E+02  0.0000000E+00
Ar 11938  0.7851572E+02  0.2058783E+02  0.7698760E+02  0.0000000E+00
Ar 11939  0.7786390E+02  0.1746848E+02  0.7994079E+02  0.0000000E+00
Ar 11940  0.7539239E+02  0.2073928E+02  0.7941782E+02  0.0000000E+00
Ar 11941  0.7606987E+02  0.2289644E+02  0.8236391E+02  0.0000000E+00
Ar 11942  0.7869793E+02  0.2609978E+02  0.8164761E+02  0.0000000E+00
Ar 11943  0.7856014E+02  0.2256940E+02  0.1374434E+01  0.0000000E+00
Ar 11944  0.7600431E+02  0.2530805E+02  0.5837044E+00  0.0000000E+00
Ar 11945  0.7603161E+02  0.2284738E+02  0.3912788E+01  0.0000000E+00
Ar 11946  0.7808376E+02  0.2623229E+02  0.3478058E+01  0.0000000E+00
Ar 11947  0.7929399E+02  0.2347572E+02  0.6822521E+01  0.0000000E+00
Ar 11948  0.7639780E+02  0.2562910E+02  0.6735972E+01  0.0000000E+00
Ar 11949  0.7609404E+02  0.2313848E+02  0.9407794E+01  0.0000000E+00
Ar 11950  0.7954557E+02  0.2589978E+02  0.9484002E+01  0.0000000E+00
Ar 11951  0.7953959E+02  0.2367416E+02  0.1216293E+02  0.0000000E+00
Ar 11952  0.7641207E+02  0.2567986E+02  0.1251153E+02  0.0000000E+00
Ar 11953  0.7730311E+02  0.2332040E+02  0.1504254E+02  0.0000000E+00
Ar 11954  0.7875123E+02  0.2662445E+02  0.1537412E+02  0.0000000E+00
Ar 11955  0.7898925E+02  0.2359891E+02  0.1821330E+02  0.0000000E+00
Ar 11956  0.7593777E+02  0.2536420E+02  0.1760340E+02  0.0000000E+00
Ar 11957  0.7620726E+02  0.2351883E+02  0.2091353E+02  0.0000000E+00
Ar 11958  0.7914290E+02  0.2558429E+02  0.2187617E+02  0.0000000E+00
Ar 11959  0.7904270E+02  0.2276323E+02  0.2398970E+02  0.0000000E+00
Ar 11960  0.7568001E+02  0.2603195E+02  0.2416687E+02  0.0000000E+00
Ar 11961  0.7633728E+02  0.2299209E+02  0.2662034E+02  0.0000000E+00
Ar 11962  0.7966814E+02  0.2559721E+02  0.2637173E+02  0.0000000E+00
Ar 11963  0.7854817E+02  0.2361671E+02  0.2927412E+02  0.0000000E+00
Ar 11964  0.7616059E+02  0.2636433E+02  0.2938591E+02  0.0000000E+00
Ar 11965  0.7607786E+02  0.2307351E+02  0.3204914E+02  0.0000000E+00
Ar 11966  0.7929921E+02  0.2612167E+02  0.3233457E+02  0.0000000E+00
Ar 11967  0.7917051E+02  0.2350462E+02  0.3481356E+02  0.0000000E+00
Ar 11968  0.7608980E+02  0.2584054E+02  0.3472890E+02  0.0000000E+00
Ar 11969  0.7568344E+02  0.2355199E+02  0.3764819E+02  0.0000000E+00
Ar 11970  0.7847512E+02  0.2610122E+02  0.3757380E+02  0.0000000E+00
Ar 11971  0.7924008E+02  0.2376741E+02  0.4066812E+02  0.0000000E+00
Ar 11972  0.7602582E+02  0.2587580E+02  0.4070202E+02  0.0000000E+00
Ar 11973  0.7585716E+02  0.2337462E+02  0.4301281E+02  0.0000000E+00
Ar 11974  0.7876522E+02  0.2571803E+02  0.4393929E+02  0.0000000E+00
Ar 11975  0.7967614E+02  0.2314395E+02  0.4630165E+02  0.0000000E+00
Ar 11976  0.7595547E+02  0.2554054E+02  0.4603824E+02  0.0000000E+00
Ar 11977  0.7561313E+02  0.2342177E+02  0.4924111E+02  0.0000000E+00
Ar 11978  0.7935810E+02  0.2543745E+02  0.4951341E+02  0.0000000E+00
Ar 11979  0.7883186E+02  0.2283868E+02  0.5174963E+02  0.0000000E+00
Ar 11980  0.7618122E+02  0.2621900E+02  0.5144058E+02  0.0000000E+00
Ar 11981  0.7625734E+02  0.2277867E+02  0.5417954E+02  0.0000000E+00
Ar 11982  0.7903165E+02  0.2607168E+02  0.5414566E+02  0.0000000E+00
Ar 11983  0.7876586E+02  0.2325565E+02  0.5735677E+02  0.0000000E+00
Ar 11984  0.7614064E+02  0.2576111E+02  0.5778324E+02  0.0000000E+00
Ar 11985  0.7644537E+02  0.2287152E+02  0.6016409E+02  0.0000000E+00
Ar 11986  0.7898994E+02  0.2602611E+02  0.6010189E+02  0.0000000E+00
Ar 11987  0.7896402E+02  0.2260907E+02  0.6277176E+02  0.0000000E+00
Ar 11988  0.7650170E+02  0.2608620E+02  0.6303731E+02  0.0000000E+00
Ar 11989  0.7604305E+02  0.2317873E+02  0.6517802E+02  0.0000000E+00
Ar 11990  0.7905951E+02  0.2589315E+02  0.6539924E+02  0.0000000E+00
Ar 11991  0.7854393E+02  0.2361283E+02  0.6815586E+02  0.0000000E+00
Ar 11992  0.7584933E+02  0.2617811E+02  0.6729417E+02  0.0000000E+00
Ar 11993  0.7557666E+02  0.2352633E+02  0.7111097E+02  0.0000000E+00
Ar 11994  0.7834331E+02  0.2614193E+02  0.7102994E+02  0.0000000E+00
Ar 11995  0.7855946E+02  0.2331900E+02  0.7421421E+02  0.0000000E+00
Ar 11996  0.7544398E+02  0.2597647E+02  0.7359622E+02  0.0000000E+00
Ar 11997  0.7556065E+02  0.2386937E+02  0.7631316E+02  0.0000000E+00
Ar 11998  0.7850695E+02  0.2619776E+02  0.7665227E+02  0.0000000E+00
Ar 11999  0.7829407E+02  0.2348344E+02  0.7902350E+02  0.0000000E+00
Ar 12000  0.7561077E+02  0.2607221E+02  0.7942891E+02  0.0000000E+00
Ar 12001  0.7522930E+02  0.2892459E+02  0.8214600E+02  0.0000000E+00
Ar 12002  0.7835856E+02  0.3147288E+02  0.8229663E+02  0.0000000E+00
Ar 12003  0.7860044E+02  0.2861588E+02  0.5052148E+00  0.0000000E+00
Ar 12004  0.7595893E+02  0.3161167E+02  0.9845158E+00  0.0000000E+00
Ar 12005  0.7498904E+02  0.2819959E+02  0.2617365E+01  0.0000000E+00
Ar 12006  0.7898531E+02  0.3171189E+02  0.4266754E+01  0.0000000E+00
Ar 12007  0.7890315E+02  0.2896224E+02  0.6502812E+01  0.0000000E+00
Ar 12008  0.7622118E+02  0.3134937E+02  0.6618600E+01  0.0000000E+00
Ar 12009  0.7650706E+02  0.2949955E+02  0.9541845E+01  0.0000000E+00
Ar 12010  0.7965676E+02  0.3176343E+02  0.8830777E+01  0.0000000E+00
Ar 12011  0.7923805E+02  0.2953412E+02  0.1297889E+02  0.0000000E+00
Ar 12012  0.7641737E+02  0.3166077E+02  0.1282420E+02  0.0000000E+00
Ar 12013  0.7521986E+02  0.2834101E+02  0.1559422E+02  0.0000000E+00
Ar 12014  0.7912215E+02  0.3224221E+02  0.1554805E+02  0.0000000E+00
Ar 12015  0.7849934E+02  0.2951819E+02  0.1753310E+02  0.0000000E+00
Ar 12016  0.7527824E+02  0.3167447E+02  0.1833886E+02  0.0000000E+00
Ar 12017  0.7652516E+02  0.2779697E+02  0.2087918E+02  0.0000000E+00
Ar 12018  0.7820149E+02  0.3170065E+02  0.2095822E+02  0.0000000E+00
Ar 12019  0.7839831E+02  0.2923470E+02  0.2352171E+02  0.0000000E+00
Ar 12020  0.7608605E+02  0.3197503E+02  0.2447973E+02  0.0000000E+00
Ar 12021  0.7594734E+02  0.2864721E+02  0.2663521E+02  0.0000000E+00
Ar 12022  0.7843860E+02  0.3142203E+02  0.2713302E+02  0.0000000E+00
Ar 12023  0.7953935E+02  0.2869763E+02  0.2913008E+02  0.0000000E+00
Ar 12024  0.7555144E+02  0.3118144E+02  0.2972446E+02  0.0000000E+00
Ar 12025  0.7661226E+02  0.2880923E+02  0.3223938E+02  0.0000000E+00
Ar 12026  0.7920398E+02  0.3098604E+02  0.3210458E+02  0.0000000E+00
Ar 12027  0.7900455E+02  0.2870089E+02  0.3500943E+02  0.0000000E+00
Ar 12028  0.7670425E+02  0.3158339E+02  0.3450496E+02  0.0000000E+00
Ar 12029  0.7633146E+02  0.2911550E+02  0.3748032E+02  0.0000000E+00
Ar 12030  0.7891404E+02  0.3152244E+02  0.3741462E+02  0.0000000E+00
Ar 12031  0.7925847E+02  0.2882095E+02  0.4035195E+02  0.0000000E+00
Ar 12032  0.7621257E+02  0.3135349E+02  0.4081223E+02  0.0000000E+00
Ar 12033  0.7609069E+02  0.2808337E+02  0.4343536E+02  0.0000000E+00
Ar 12034  0.7920635E+02  0.3117886E+02  0.4361266E+02  0.0000000E+00
Ar 12035  0.7871975E+02  0.2817914E+02  0.4646387E+02  0.0000000E+00
Ar 12036  0.7616219E+02  0.3089086E+02  0.4619370E+02  0.0000000E+00
Ar 12037  0.7595003E+02  0.2831727E+02  0.4862249E+02  0.0000000E+00
Ar 12038  0.7857827E+02  0.3147212E+02  0.4866625E+02  0.0000000E+00
Ar 12039  0.7886438E+02  0.2891404E+02  0.5128979E+02  0.0000000E+00
Ar 12040  0.7562869E+02  0.3130303E+02  0.5220793E+02  0.0000000E+00
Ar 12041  0.7636754E+02  0.2846390E+02  0.5470221E+02  0.0000000E+00
Ar 12042  0.7855617E+02  0.3170347E+02  0.5434394E+02  0.0000000E+00
Ar 12043  0.7892384E+02  0.2907346E+02  0.5740566E+02  0.0000000E+00
Ar 12044  0.7547628E+02  0.3141147E+02  0.5651497E+02  0.0000000E+00
Ar 12045  0.7635441E+02  0.2941148E+02  0.5969204E+02  0.0000000E+00
Ar 12046  0.7950250E+02  0.3209163E+02  0.5989200E+02  0.0000000E+00
Ar 12047  0.7936828E+02  0.2936452E+02  0.6256445E+02  0.0000000E+00
Ar 12048  0.7581374E+02  0.3168673E+02  0.6297026E+02  0.0000000E+00
Ar 12049  0.7592801E+02  0.2938421E+02  0.6551910E+02  0.0000000E+00
Ar 12050  0.7928541E+02  0.3201278E+02  0.6658245E+02  0.0000000E+00
Ar 12051  0.7838853E+02  0.2915624E+02  0.6845523E+02  0.0000000E+00
Ar 12052  0.7591123E+02  0.3164650E+02  0.6860329E+02  0.0000000E+00
Ar 12053  0.7520136E+02  0.2895276E+02  0.7160280E+02  0.0000000E+00
Ar 12054  0.7804629E+02  0.3193446E+02  0.7184072E+02  0.0000000E+00
Ar 12055  0.7823370E+02  0.2881164E+02  0.7360508E+02  0.0000000E+00
Ar 12056  0.7528950E+02  0.3168808E+02  0.7448891E+02  0.0000000E+00
Ar 12057  0.7502380E+02  0.2809642E+02  0.7641511E+02  0.0000000E+00
Ar 12058  0.7864372E+02  0.3154603E+02  0.7668801E+02  0.0000000E+00
Ar 12059  0.7848445E+02  0.2893800E+02  0.7931621E+02  0.0000000E+00
Ar 12060  0.7577885E+02  0.3120790E+02  0.7954762E+02  0.0000000E+00
Ar 12061  0.7548096E+02  0.3366968E+02  0.8217738E+02  0.0000000E+00
Ar 12062  0.7870736E+02  0.3719851E+02  0.8256113E+02  0.0000000E+00
Ar 12063  0.7894680E+02  0.3429652E+02  0.7205886E+00  0.0000000E+00
Ar 12064  0.7608546E+02  0.3665048E+02  0.3330238E+00  0.0000000E+00
Ar 12065  0.7620424E+02  0.3417988E+02  0.3641869E+01  0.0000000E+00
Ar 12066  0.7893078E+02  0.3690861E+02  0.3770319E+01  0.0000000E+00
Ar 12067  0.7882256E+02  0.3452963E+02  0.6622507E+01  0.0000000E+00
Ar 12068  0.7599860E+02  0.3662050E+02  0.5898070E+01  0.0000000E+00
Ar 12069  0.7605525E+02  0.3457129E+02  0.9251969E+01  0.0000000E+00
Ar 12070  0.7890508E+02  0.3699847E+02  0.9277503E+01  0.0000000E+00
Ar 12071  0.7915609E+02  0.3452730E+02  0.1268541E+02  0.0000000E+00
Ar 12072  0.7631421E+02  0.3651912E+02  0.1222861E+02  0.0000000E+00
Ar 12073  0.7581834E+02  0.3417623E+02  0.1535115E+02  0.0000000E+00
Ar 12074  0.7885748E+02  0.3697221E+02  0.1530837E+02  0.0000000E+00
Ar 12075  0.7821235E+02  0.3452625E+02  0.1862241E+02  0.0000000E+00
Ar 12076  0.7547309E+02  0.3683544E+02  0.1778429E+02  0.0000000E+00
Ar 12077  0.7530461E+02  0.3468165E+02  0.2106629E+02  0.0000000E+00
Ar 12078  0.7717854E+02  0.3746159E+02  0.2130504E+02  0.0000000E+00
Ar 12079  0.7835856E+02  0.3454209E+02  0.2381175E+02  0.0000000E+00
Ar 12080  0.7542805E+02  0.3679119E+02  0.2408784E+02  0.0000000E+00
Ar 12081  0.7601778E+02  0.3461217E+02  0.2698653E+02  0.0000000E+00
Ar 12082  0.7860823E+02  0.3719448E+02  0.2642682E+02  0.0000000E+00
Ar 12083  0.7873983E+02  0.3417872E+02  0.2917878E+02  0.0000000E+00
Ar 12084  0.7566253E+02  0.3738104E+02  0.2976249E+02  0.0000000E+00
Ar 12085  0.7650927E+02  0.3411908E+02  0.3215290E+02  0.0000000E+00
Ar 12086  0.7868778E+02  0.3701517E+02  0.3217004E+02  0.0000000E+00
Ar 12087  0.7850376E+02  0.3470828E+02  0.3503635E+02  0.0000000E+00
Ar 12088  0.7606939E+02  0.3693785E+02  0.3572506E+02  0.0000000E+00
Ar 12089  0.7552811E+02  0.3422331E+02  0.3774270E+02  0.0000000E+00
Ar 12090  0.7907429E+02  0.3709013E+02  0.3781277E+02  0.0000000E+00
Ar 12091  0.7866986E+02  0.3440852E+02  0.4098919E+02  0.0000000E+00
Ar 12092  0.7662966E+02  0.3797638E+02  0.4102364E+02  0.0000000E+00
Ar 12093  0.7621930E+02  0.3432325E+02  0.4334100E+02  0.0000000E+00
Ar 12094  0.7963156E+02  0.3754981E+02  0.4376005E+02  0.0000000E+00
Ar 12095  0.7865798E+02  0.3441646E+02  0.4598274E+02  0.0000000E+00
Ar 12096  0.7594835E+02  0.3693396E+02  0.4641749E+02  0.0000000E+00
Ar 12097  0.7611232E+02  0.3434062E+02  0.4862722E+02  0.0000000E+00
Ar 12098  0.7870840E+02  0.3745390E+02  0.4931099E+02  0.0000000E+00
Ar 12099  0.7851433E+02  0.3467681E+02  0.5183109E+02  0.0000000E+00
Ar 12100  0.7544630E+02  0.3654993E+02  0.5157348E+02  0.0000000E+00
Ar 12101  0.7577605E+02  0.3447392E+02  0.5497869E+02  0.0000000E+00
Ar 12102  0.7905980E+02  0.3732772E+02  0.5424445E+02  0.0000000E+00
Ar 12103  0.7884549E+02  0.3456574E+02  0.5687740E+02  0.0000000E+00
Ar 12104  0.7514820E+02  0.3701537E+02  0.5734061E+02  0.0000000E+00
Ar 12105  0.7569277E+02  0.3394256E+02  0.6005633E+02  0.0000000E+00
Ar 12106  0.7801985E+02  0.3671395E+02  0.6009690E+02  0.0000000E+00
Ar 12107  0.7895547E+02  0.3406081E+02  0.6328655E+02  0.0000000E+00
Ar 12108  0.7576646E+02  0.3754373E+02  0.6320586E+02  0.0000000E+00
Ar 12109  0.7569315E+02  0.3390763E+02  0.6587944E+02  0.0000000E+00
Ar 12110  0.7835519E+02  0.3638560E+02  0.6605954E+02  0.0000000E+00
Ar 12111  0.7881517E+02  0.3484635E+02  0.6911699E+02  0.0000000E+00
Ar 12112  0.7585235E+02  0.3690152E+02  0.6884086E+02  0.0000000E+00
Ar 12113  0.7551404E+02  0.3476739E+02  0.7180154E+02  0.0000000E+00
Ar 12114  0.7811384E+02  0.3779176E+02  0.7162604E+02  0.0000000E+00
Ar 12115  0.7861950E+02  0.3456883E+02  0.7434217E+02  0.0000000E+00
Ar 12116  0.7583700E+02  0.3740293E+02  0.7441652E+02  0.0000000E+00
Ar 12117  0.7528539E+02  0.3493649E+02  0.7705410E+02  0.0000000E+00
Ar 12118  0.7840276E+02  0.3730458E+02  0.7710936E+02  0.0000000E+00
Ar 12119  0.7853001E+02  0.3442927E+02  0.8009940E+02  0.0000000E+00
Ar 12120  0.7590043E+02  0.3711147E+02  0.8031478E+02  0.0000000E+00
Ar 12121  0.7563431E+02  0.3988116E+02  0.8288136E+02  0.0000000E+00
Ar 12122  0.7822543E+02  0.4305758E+02  0.8279541E+02  0.0000000E+00
Ar 12123  0.7916865E+02  0.3973272E+02  0.1021204E+01  0.0000000E+00
Ar 12124  0.7542834E+02  0.4231448E+02  0.1492160E+01  0.0000000E+00
Ar 12125  0.7681608E+02  0.3966288E+02  0.3369606E+01  0.0000000E+00
Ar 12126  0.7879911E+02  0.4253911E+02  0.3545966E+01  0.0000000E+00
Ar 12127  0.7870936E+02  0.3930950E+02  0.6435270E+01  0.0000000E+00
Ar 12128  0.7602721E+02  0.4225293E+02  0.6845992E+01  0.0000000E+00
Ar 12129  0.7630292E+02  0.3935112E+02  0.9798296E+01  0.0000000E+00
Ar 12130  0.7788967E+02  0.4263676E+02  0.1004421E+02  0.0000000E+00
Ar 12131  0.7899089E+02  0.3974857E+02  0.1215563E+02  0.0000000E+00
Ar 12132  0.7533599E+02  0.4274795E+02  0.1270303E+02  0.0000000E+00
Ar 12133  0.7628593E+02  0.3941853E+02  0.1528453E+02  0.0000000E+00
Ar 12134  0.7852073E+02  0.4249366E+02  0.1473897E+02  0.0000000E+00
Ar 12135  0.7808200E+02  0.3959086E+02  0.1839655E+02  0.0000000E+00
Ar 12136  0.7655864E+02  0.4280446E+02  0.1785871E+02  0.0000000E+00
Ar 12137  0.7568425E+02  0.4046633E+02  0.2111865E+02  0.0000000E+00
Ar 12138  0.7854390E+02  0.4330114E+02  0.2152055E+02  0.0000000E+00
Ar 12139  0.7882621E+02  0.4027514E+02  0.2378277E+02  0.0000000E+00
Ar 12140  0.7542268E+02  0.4276358E+02  0.2384012E+02  0.0000000E+00
Ar 12141  0.7540851E+02  0.3981759E+02  0.2641550E+02  0.0000000E+00
Ar 12142  0.7812602E+02  0.4262748E+02  0.2662343E+02  0.0000000E+00
Ar 12143  0.7885501E+02  0.3948406E+02  0.2928785E+02  0.0000000E+00
Ar 12144  0.7574230E+02  0.4235216E+02  0.2900511E+02  0.0000000E+00
Ar 12145  0.7574216E+02  0.3967399E+02  0.3264839E+02  0.0000000E+00
Ar 12146  0.7901087E+02  0.4289626E+02  0.3298636E+02  0.0000000E+00
Ar 12147  0.7870623E+02  0.3931008E+02  0.3511779E+02  0.0000000E+00
Ar 12148  0.7608119E+02  0.4224222E+02  0.3528846E+02  0.0000000E+00
Ar 12149  0.7649945E+02  0.3999001E+02  0.3819472E+02  0.0000000E+00
Ar 12150  0.7973066E+02  0.4341087E+02  0.3770483E+02  0.0000000E+00
Ar 12151  0.7927336E+02  0.4078575E+02  0.4099737E+02  0.0000000E+00
Ar 12152  0.7625498E+02  0.4353402E+02  0.4016721E+02  0.0000000E+00
Ar 12153  0.7637656E+02  0.4099063E+02  0.4314548E+02  0.0000000E+00
Ar 12154  0.7923781E+02  0.4335127E+02  0.4386438E+02  0.0000000E+00
Ar 12155  0.7936171E+02  0.4009735E+02  0.4612198E+02  0.0000000E+00
Ar 12156  0.7662842E+02  0.4291969E+02  0.4645541E+02  0.0000000E+00
Ar 12157  0.7591221E+02  0.4002370E+02  0.4937560E+02  0.0000000E+00
Ar 12158  0.7909728E+02  0.4261464E+02  0.4921834E+02  0.0000000E+00
Ar 12159  0.7910290E+02  0.4052047E+02  0.5234035E+02  0.0000000E+00
Ar 12160  0.7601216E+02  0.4275894E+02  0.5167416E+02  0.0000000E+00
Ar 12161  0.7602485E+02  0.3987516E+02  0.5447026E+02  0.0000000E+00
Ar 12162  0.7887627E+02  0.4256119E+02  0.5499084E+02  0.0000000E+00
Ar 12163  0.7798277E+02  0.3954798E+02  0.5758492E+02  0.0000000E+00
Ar 12164  0.7558746E+02  0.4274071E+02  0.5739710E+02  0.0000000E+00
Ar 12165  0.7535268E+02  0.3954138E+02  0.5994637E+02  0.0000000E+00
Ar 12166  0.7783241E+02  0.4214774E+02  0.6012152E+02  0.0000000E+00
Ar 12167  0.7835112E+02  0.3962881E+02  0.6284609E+02  0.0000000E+00
Ar 12168  0.7529435E+02  0.4187429E+02  0.6342569E+02  0.0000000E+00
Ar 12169  0.7558075E+02  0.3987871E+02  0.6631447E+02  0.0000000E+00
Ar 12170  0.7856696E+02  0.4172900E+02  0.6598873E+02  0.0000000E+00
Ar 12171  0.7874377E+02  0.3972270E+02  0.6908642E+02  0.0000000E+00
Ar 12172  0.7479639E+02  0.4289391E+02  0.6885195E+02  0.0000000E+00
Ar 12173  0.7562187E+02  0.4000412E+02  0.7128204E+02  0.0000000E+00
Ar 12174  0.7827059E+02  0.4269176E+02  0.7193582E+02  0.0000000E+00
Ar 12175  0.7852221E+02  0.3984923E+02  0.7470146E+02  0.0000000E+00
Ar 12176  0.7571208E+02  0.4217696E+02  0.7439725E+02  0.0000000E+00
Ar 12177  0.7560831E+02  0.3981119E+02  0.7739625E+02  0.0000000E+00
Ar 12178  0.7830029E+02  0.4293098E+02  0.7737195E+02  0.0000000E+00
Ar 12179  0.7857718E+02  0.3951019E+02  0.7999519E+02  0.0000000E+00
Ar 12180  0.7586626E+02  0.4266085E+02  0.7984434E+02  0.0000000E+00
Ar 12181  0.7518559E+02  0.4544714E+02  0.8237784E+02  0.0000000E+00
Ar 12182  0.7818687E+02  0.4824550E+02  0.8282381E+02  0.0000000E+00
Ar 12183  0.7786410E+02  0.4543165E+02  0.1365045E+01  0.0000000E+00
Ar 12184  0.7575796E+02  0.4814283E+02  0.1905627E+01  0.0000000E+00
Ar 12185  0.7564781E+02  0.4496651E+02  0.4359578E+01  0.0000000E+00
Ar 12186  0.7857841E+02  0.4790677E+02  0.4148742E+01  0.0000000E+00
Ar 12187  0.7849990E+02  0.4519761E+02  0.6844607E+01  0.0000000E+00
Ar 12188  0.7567267E+02  0.4757443E+02  0.6883731E+01  0.0000000E+00
Ar 12189  0.7549075E+02  0.4559242E+02  0.9882354E+01  0.0000000E+00
Ar 12190  0.7927389E+02  0.4725389E+02  0.9644879E+01  0.0000000E+00
Ar 12191  0.7817862E+02  0.4571917E+02  0.1276082E+02  0.0000000E+00
Ar 12192  0.7556129E+02  0.4820566E+02  0.1206766E+02  0.0000000E+00
Ar 12193  0.7577915E+02  0.4505695E+02  0.1529521E+02  0.0000000E+00
Ar 12194  0.7798455E+02  0.4838093E+02  0.1512690E+02  0.0000000E+00
Ar 12195  0.7866902E+02  0.4565795E+02  0.1847110E+02  0.0000000E+00
Ar 12196  0.7563573E+02  0.4792513E+02  0.1805146E+02  0.0000000E+00
Ar 12197  0.7538777E+02  0.4523978E+02  0.2096700E+02  0.0000000E+00
Ar 12198  0.7803019E+02  0.4826189E+02  0.2094278E+02  0.0000000E+00
Ar 12199  0.7870971E+02  0.4553800E+02  0.2464829E+02  0.0000000E+00
Ar 12200  0.7559417E+02  0.4818216E+02  0.2359340E+02  0.0000000E+00
Ar 12201  0.7562714E+02  0.4548858E+02  0.2605896E+02  0.0000000E+00
Ar 12202  0.7864745E+02  0.4877114E+02  0.2607098E+02  0.0000000E+00
Ar 12203  0.7846889E+02  0.4517598E+02  0.2860845E+02  0.0000000E+00
Ar 12204  0.7622049E+02  0.4809603E+02  0.2927696E+02  0.0000000E+00
Ar 12205  0.7611694E+02  0.4567951E+02  0.3200645E+02  0.0000000E+00
Ar 12206  0.7869682E+02  0.4914935E+02  0.3262219E+02  0.0000000E+00
Ar 12207  0.7890444E+02  0.4590868E+02  0.3497574E+02  0.0000000E+00
Ar 12208  0.7647678E+02  0.4857169E+02  0.3518267E+02  0.0000000E+00
Ar 12209  0.7598538E+02  0.4615913E+02  0.3795264E+02  0.0000000E+00
Ar 12210  0.7900043E+02  0.4815404E+02  0.3762234E+02  0.0000000E+00
Ar 12211  0.7925901E+02  0.4587304E+02  0.4061414E+02  0.0000000E+00
Ar 12212  0.7625427E+02  0.4819608E+02  0.4067851E+02  0.0000000E+00
Ar 12213  0.7649047E+02  0.4581576E+02  0.4416008E+02  0.0000000E+00
Ar 12214  0.7884968E+02  0.4831330E+02  0.4374429E+02  0.0000000E+00
Ar 12215  0.7878680E+02  0.4600290E+02  0.4703738E+02  0.0000000E+00
Ar 12216  0.7597688E+02  0.4827261E+02  0.4654847E+02  0.0000000E+00
Ar 12217  0.7620398E+02  0.4552252E+02  0.4942215E+02  0.0000000E+00
Ar 12218  0.7899998E+02  0.4899186E+02  0.4924063E+02  0.0000000E+00
Ar 12219  0.7951568E+02  0.4565610E+02  0.5193006E+02  0.0000000E+00
Ar 12220  0.7685673E+02  0.4805012E+02  0.5209084E+02  0.0000000E+00
Ar 12221  0.7563821E+02  0.4517584E+02  0.5454463E+02  0.0000000E+00
Ar 12222  0.7812474E+02  0.4821701E+02  0.5561062E+02  0.0000000E+00
Ar 12223  0.7819731E+02  0.4511025E+02  0.5733945E+02  0.0000000E+00
Ar 12224  0.7564292E+02  0.4820003E+02  0.5815199E+02  0.0000000E+00
Ar 12225  0.7526084E+02  0.4575310E+02  0.6076990E+02  0.0000000E+00
Ar 12226  0.7868516E+02  0.4726216E+02  0.6015273E+02  0.0000000E+00
Ar 12227  0.7780487E+02  0.4486300E+02  0.6337707E+02  0.0000000E+00
Ar 12228  0.7617705E+02  0.4868053E+02  0.6294975E+02  0.0000000E+00
Ar 12229  0.7508120E+02  0.4548696E+02  0.6595817E+02  0.0000000E+00
Ar 12230  0.7832442E+02  0.4832299E+02  0.6615702E+02  0.0000000E+00
Ar 12231  0.7791947E+02  0.4454899E+02  0.6797291E+02  0.0000000E+00
Ar 12232  0.7626242E+02  0.4803285E+02  0.6905360E+02  0.0000000E+00
Ar 12233  0.7504495E+02  0.4577397E+02  0.7162585E+02  0.0000000E+00
Ar 12234  0.7825420E+02  0.4805053E+02  0.7203475E+02  0.0000000E+00
Ar 12235  0.7844006E+02  0.4573216E+02  0.7485828E+02  0.0000000E+00
Ar 12236  0.7557650E+02  0.4771905E+02  0.7451758E+02  0.0000000E+00
Ar 12237  0.7565873E+02  0.4519840E+02  0.7691013E+02  0.0000000E+00
Ar 12238  0.7857684E+02  0.4862268E+02  0.7701625E+02  0.0000000E+00
Ar 12239  0.7804512E+02  0.4542049E+02  0.8029347E+02  0.0000000E+00
Ar 12240  0.7516166E+02  0.4821981E+02  0.8054666E+02  0.0000000E+00
Ar 12241  0.7556138E+02  0.5133143E+02  0.8274157E+02  0.0000000E+00
Ar 12242  0.7810685E+02  0.5466089E+02  0.8255779E+02  0.0000000E+00
Ar 12243  0.7845539E+02  0.5136076E+02  0.1510476E+01  0.0000000E+00
Ar 12244  0.7548658E+02  0.5387141E+02  0.1004069E+01  0.0000000E+00
Ar 12245  0.7565319E+02  0.5111462E+02  0.4031888E+01  0.0000000E+00
Ar 12246  0.7817577E+02  0.5392574E+02  0.4491141E+01  0.0000000E+00
Ar 12247  0.7809807E+02  0.5049702E+02  0.6907360E+01  0.0000000E+00
Ar 12248  0.7570642E+02  0.5376926E+02  0.6897499E+01  0.0000000E+00
Ar 12249  0.7539152E+02  0.5088353E+02  0.9290630E+01  0.0000000E+00
Ar 12250  0.7859139E+02  0.5363190E+02  0.9455029E+01  0.0000000E+00
Ar 12251  0.7842210E+02  0.5067841E+02  0.1167669E+02  0.0000000E+00
Ar 12252  0.7559361E+02  0.5432133E+02  0.1156179E+02  0.0000000E+00
Ar 12253  0.7603453E+02  0.5102520E+02  0.1441207E+02  0.0000000E+00
Ar 12254  0.7816793E+02  0.5390371E+02  0.1454303E+02  0.0000000E+00
Ar 12255  0.7855708E+02  0.5105581E+02  0.1770394E+02  0.0000000E+00
Ar 12256  0.7604624E+02  0.5386954E+02  0.1758365E+02  0.0000000E+00
Ar 12257  0.7551778E+02  0.5103642E+02  0.1981339E+02  0.0000000E+00
Ar 12258  0.7802119E+02  0.5369045E+02  0.2104119E+02  0.0000000E+00
Ar 12259  0.7885278E+02  0.5142234E+02  0.2376210E+02  0.0000000E+00
Ar 12260  0.7599593E+02  0.5433016E+02  0.2387211E+02  0.0000000E+00
Ar 12261  0.7583907E+02  0.5136192E+02  0.2641459E+02  0.0000000E+00
Ar 12262  0.7846495E+02  0.5453098E+02  0.2685981E+02  0.0000000E+00
Ar 12263  0.7827997E+02  0.5170931E+02  0.2945136E+02  0.0000000E+00
Ar 12264  0.7587909E+02  0.5419395E+02  0.2937198E+02  0.0000000E+00
Ar 12265  0.7578294E+02  0.5118763E+02  0.3263786E+02  0.0000000E+00
Ar 12266  0.7841754E+02  0.5389267E+02  0.3285679E+02  0.0000000E+00
Ar 12267  0.7882749E+02  0.5132457E+02  0.3540745E+02  0.0000000E+00
Ar 12268  0.7559009E+02  0.5403560E+02  0.3591524E+02  0.0000000E+00
Ar 12269  0.7623893E+02  0.5086427E+02  0.3840156E+02  0.0000000E+00
Ar 12270  0.7900991E+02  0.5351810E+02  0.3821013E+02  0.0000000E+00
Ar 12271  0.7893556E+02  0.5046078E+02  0.4048275E+02  0.0000000E+00
Ar 12272  0.7560771E+02  0.5389152E+02  0.4079015E+02  0.0000000E+00
Ar 12273  0.7551570E+02  0.5130267E+02  0.4345273E+02  0.0000000E+00
Ar 12274  0.7869987E+02  0.5372388E+02  0.4313255E+02  0.0000000E+00
Ar 12275  0.7870059E+02  0.5101166E+02  0.4604308E+02  0.0000000E+00
Ar 12276  0.7675902E+02  0.5402790E+02  0.4641356E+02  0.0000000E+00
Ar 12277  0.7636127E+02  0.5124317E+02  0.4872987E+02  0.0000000E+00
Ar 12278  0.7926927E+02  0.5415519E+02  0.4932314E+02  0.0000000E+00
Ar 12279  0.7931219E+02  0.5110414E+02  0.5253372E+02  0.0000000E+00
Ar 12280  0.7644959E+02  0.5344289E+02  0.5173583E+02  0.0000000E+00
Ar 12281  0.7602989E+02  0.5099654E+02  0.5473110E+02  0.0000000E+00
Ar 12282  0.7953893E+02  0.5344778E+02  0.5493150E+02  0.0000000E+00
Ar 12283  0.7855220E+02  0.5080886E+02  0.5774810E+02  0.0000000E+00
Ar 12284  0.7664392E+02  0.5382005E+02  0.5740909E+02  0.0000000E+00
Ar 12285  0.7624953E+02  0.5128233E+02  0.6040511E+02  0.0000000E+00
Ar 12286  0.7902921E+02  0.5350542E+02  0.6021210E+02  0.0000000E+00
Ar 12287  0.7871254E+02  0.5104463E+02  0.6373228E+02  0.0000000E+00
Ar 12288  0.7653937E+02  0.5401255E+02  0.6348167E+02  0.0000000E+00
Ar 12289  0.7538382E+02  0.5111013E+02  0.6605228E+02  0.0000000E+00
Ar 12290  0.7893215E+02  0.5357867E+02  0.6600628E+02  0.0000000E+00
Ar 12291  0.7844438E+02  0.5088834E+02  0.6910934E+02  0.0000000E+00
Ar 12292  0.7577950E+02  0.5358931E+02  0.6865819E+02  0.0000000E+00
Ar 12293  0.7577001E+02  0.5065697E+02  0.7192553E+02  0.0000000E+00
Ar 12294  0.7854479E+02  0.5369152E+02  0.7202912E+02  0.0000000E+00
Ar 12295  0.7766436E+02  0.5145089E+02  0.7455505E+02  0.0000000E+00
Ar 12296  0.7538856E+02  0.5414497E+02  0.7418446E+02  0.0000000E+00
Ar 12297  0.7589407E+02  0.5123219E+02  0.7762474E+02  0.0000000E+00
Ar 12298  0.7898221E+02  0.5394863E+02  0.7790558E+02  0.0000000E+00
Ar 12299  0.7863003E+02  0.5130116E+02  0.8071776E+02  0.0000000E+00
Ar 12300  0.7533294E+02  0.5410440E+02  0.8033500E+02  0.0000000E+00
Ar 12301  0.7566068E+02  0.5692928E+02  0.8311816E+02  0.0000000E+00
Ar 12302  0.7798245E+02  0.5949582E+02  0.8206175E+02  0.0000000E+00
Ar 12303  0.7817145E+02  0.5638050E+02  0.1458702E+01  0.0000000E+00
Ar 12304  0.7532559E+02  0.5972537E+02  0.1583841E+01  0.0000000E+00
Ar 12305  0.7570801E+02  0.5714990E+02  0.4482405E+01  0.0000000E+00
Ar 12306  0.7893539E+02  0.5912807E+02  0.3868776E+01  0.0000000E+00
Ar 12307  0.7829556E+02  0.5661577E+02  0.6865159E+01  0.0000000E+00
Ar 12308  0.7662333E+02  0.5994905E+02  0.6526384E+01  0.0000000E+00
Ar 12309  0.7534537E+02  0.5701250E+02  0.9066441E+01  0.0000000E+00
Ar 12310  0.7888605E+02  0.5974715E+02  0.9289226E+01  0.0000000E+00
Ar 12311  0.7848472E+02  0.5674317E+02  0.1230101E+02  0.0000000E+00
Ar 12312  0.7584960E+02  0.5939328E+02  0.1263783E+02  0.0000000E+00
Ar 12313  0.7581373E+02  0.5627894E+02  0.1517986E+02  0.0000000E+00
Ar 12314  0.7851352E+02  0.5906121E+02  0.1489616E+02  0.0000000E+00
Ar 12315  0.7859953E+02  0.5635300E+02  0.1846679E+02  0.0000000E+00
Ar 12316  0.7579606E+02  0.5895076E+02  0.1791049E+02  0.0000000E+00
Ar 12317  0.7548160E+02  0.5664251E+02  0.2101798E+02  0.0000000E+00
Ar 12318  0.7896161E+02  0.5914669E+02  0.2084394E+02  0.0000000E+00
Ar 12319  0.7885578E+02  0.5583947E+02  0.2374758E+02  0.0000000E+00
Ar 12320  0.7658653E+02  0.5909735E+02  0.2419251E+02  0.0000000E+00
Ar 12321  0.7594440E+02  0.5668526E+02  0.2670209E+02  0.0000000E+00
Ar 12322  0.7877018E+02  0.5919874E+02  0.2689569E+02  0.0000000E+00
Ar 12323  0.7854030E+02  0.5692166E+02  0.2983697E+02  0.0000000E+00
Ar 12324  0.7509594E+02  0.5938102E+02  0.2974915E+02  0.0000000E+00
Ar 12325  0.7556433E+02  0.5694372E+02  0.3280253E+02  0.0000000E+00
Ar 12326  0.7828663E+02  0.5979918E+02  0.3259566E+02  0.0000000E+00
Ar 12327  0.7818763E+02  0.5624962E+02  0.3613275E+02  0.0000000E+00
Ar 12328  0.7560149E+02  0.5935942E+02  0.3529509E+02  0.0000000E+00
Ar 12329  0.7538235E+02  0.5683817E+02  0.3843612E+02  0.0000000E+00
Ar 12330  0.7846758E+02  0.5943501E+02  0.3824961E+02  0.0000000E+00
Ar 12331  0.7848682E+02  0.5701105E+02  0.4072990E+02  0.0000000E+00
Ar 12332  0.7525341E+02  0.5936674E+02  0.4091155E+02  0.0000000E+00
Ar 12333  0.7578868E+02  0.5634724E+02  0.4393484E+02  0.0000000E+00
Ar 12334  0.7798260E+02  0.5937903E+02  0.4371588E+02  0.0000000E+00
Ar 12335  0.7902450E+02  0.5681266E+02  0.4630609E+02  0.0000000E+00
Ar 12336  0.7560398E+02  0.5925823E+02  0.4734936E+02  0.0000000E+00
Ar 12337  0.7579318E+02  0.5643575E+02  0.4920847E+02  0.0000000E+00
Ar 12338  0.7897164E+02  0.5977433E+02  0.4875683E+02  0.0000000E+00
Ar 12339  0.7892994E+02  0.5696036E+02  0.5152194E+02  0.0000000E+00
Ar 12340  0.7623626E+02  0.5945708E+02  0.5102424E+02  0.0000000E+00
Ar 12341  0.7614437E+02  0.5603912E+02  0.5422401E+02  0.0000000E+00
Ar 12342  0.7835541E+02  0.5939376E+02  0.5465100E+02  0.0000000E+00
Ar 12343  0.7953529E+02  0.5600530E+02  0.5751169E+02  0.0000000E+00
Ar 12344  0.7555265E+02  0.5926790E+02  0.5848115E+02  0.0000000E+00
Ar 12345  0.7693503E+02  0.5642877E+02  0.6020444E+02  0.0000000E+00
Ar 12346  0.7893974E+02  0.5990867E+02  0.6033614E+02  0.0000000E+00
Ar 12347  0.7844860E+02  0.5690920E+02  0.6337681E+02  0.0000000E+00
Ar 12348  0.7608109E+02  0.6021404E+02  0.6323250E+02  0.0000000E+00
Ar 12349  0.7586154E+02  0.5708013E+02  0.6624659E+02  0.0000000E+00
Ar 12350  0.7945586E+02  0.5954843E+02  0.6719653E+02  0.0000000E+00
Ar 12351  0.7913813E+02  0.5620368E+02  0.6938641E+02  0.0000000E+00
Ar 12352  0.7634109E+02  0.5988938E+02  0.6870542E+02  0.0000000E+00
Ar 12353  0.7537623E+02  0.5615077E+02  0.7121848E+02  0.0000000E+00
Ar 12354  0.7832684E+02  0.5889282E+02  0.7207428E+02  0.0000000E+00
Ar 12355  0.7842187E+02  0.5620813E+02  0.7484347E+02  0.0000000E+00
Ar 12356  0.7593869E+02  0.5926687E+02  0.7436049E+02  0.0000000E+00
Ar 12357  0.7538974E+02  0.5665271E+02  0.7718311E+02  0.0000000E+00
Ar 12358  0.7879034E+02  0.5963055E+02  0.7626130E+02  0.0000000E+00
Ar 12359  0.7825154E+02  0.5722689E+02  0.7946341E+02  0.0000000E+00
Ar 12360  0.7511625E+02  0.5948497E+02  0.7975448E+02  0.0000000E+00
Ar 12361  0.7586368E+02  0.6221854E+02  0.8261757E+02  0.0000000E+00
Ar 12362  0.7825976E+02  0.6458043E+02  0.8304573E+02  0.0000000E+00
Ar 12363  0.7846631E+02  0.6158992E+02  0.1133209E+01  0.0000000E+00
Ar 12364  0.7582773E+02  0.6490446E+02  0.1568888E+01  0.0000000E+00
Ar 12365  0.7556318E+02  0.6216849E+02  0.4025411E+01  0.0000000E+00
Ar 12366  0.7848180E+02  0.6434859E+02  0.4204621E+01  0.0000000E+00
Ar 12367  0.7975563E+02  0.6202926E+02  0.6732874E+01  0.0000000E+00
Ar 12368  0.7549281E+02  0.6495755E+02  0.7149598E+01  0.0000000E+00
Ar 12369  0.7574832E+02  0.6144958E+02  0.9464918E+01  0.0000000E+00
Ar 12370  0.7884744E+02  0.6495266E+02  0.9242864E+01  0.0000000E+00
Ar 12371  0.7855480E+02  0.6215242E+02  0.1229855E+02  0.0000000E+00
Ar 12372  0.7579217E+02  0.6526334E+02  0.1181198E+02  0.0000000E+00
Ar 12373  0.7605438E+02  0.6218719E+02  0.1549928E+02  0.0000000E+00
Ar 12374  0.7857335E+02  0.6511520E+02  0.1520558E+02  0.0000000E+00
Ar 12375  0.7895756E+02  0.6210828E+02  0.1770429E+02  0.0000000E+00
Ar 12376  0.7591496E+02  0.6507339E+02  0.1790060E+02  0.0000000E+00
Ar 12377  0.7607948E+02  0.6151671E+02  0.2048720E+02  0.0000000E+00
Ar 12378  0.7864263E+02  0.6534954E+02  0.2091651E+02  0.0000000E+00
Ar 12379  0.7883032E+02  0.6168405E+02  0.2357186E+02  0.0000000E+00
Ar 12380  0.7611169E+02  0.6458175E+02  0.2360927E+02  0.0000000E+00
Ar 12381  0.7619871E+02  0.6189311E+02  0.2626097E+02  0.0000000E+00
Ar 12382  0.7858312E+02  0.6514911E+02  0.2645462E+02  0.0000000E+00
Ar 12383  0.7856611E+02  0.6139425E+02  0.2966714E+02  0.0000000E+00
Ar 12384  0.7587719E+02  0.6424798E+02  0.2973425E+02  0.0000000E+00
Ar 12385  0.7544985E+02  0.6210071E+02  0.3274338E+02  0.0000000E+00
Ar 12386  0.7769983E+02  0.6461442E+02  0.3327637E+02  0.0000000E+00
Ar 12387  0.7844695E+02  0.6225433E+02  0.3541277E+02  0.0000000E+00
Ar 12388  0.7547625E+02  0.6476392E+02  0.3625400E+02  0.0000000E+00
Ar 12389  0.7579854E+02  0.6180045E+02  0.3848193E+02  0.0000000E+00
Ar 12390  0.7874717E+02  0.6530332E+02  0.3789520E+02  0.0000000E+00
Ar 12391  0.7867740E+02  0.6209704E+02  0.4108359E+02  0.0000000E+00
Ar 12392  0.7618431E+02  0.6526035E+02  0.4013420E+02  0.0000000E+00
Ar 12393  0.7540064E+02  0.6200907E+02  0.4357978E+02  0.0000000E+00
Ar 12394  0.7844558E+02  0.6561237E+02  0.4368061E+02  0.0000000E+00
Ar 12395  0.7850926E+02  0.6237956E+02  0.4620462E+02  0.0000000E+00
Ar 12396  0.7592221E+02  0.6532678E+02  0.4678956E+02  0.0000000E+00
Ar 12397  0.7556702E+02  0.6254525E+02  0.4904364E+02  0.0000000E+00
Ar 12398  0.7870822E+02  0.6494041E+02  0.4929040E+02  0.0000000E+00
Ar 12399  0.7895059E+02  0.6206001E+02  0.5156688E+02  0.0000000E+00
Ar 12400  0.7630463E+02  0.6468425E+02  0.5238586E+02  0.0000000E+00
Ar 12401  0.7582569E+02  0.6214732E+02  0.5511619E+02  0.0000000E+00
Ar 12402  0.7871781E+02  0.6465766E+02  0.5463774E+02  0.0000000E+00
Ar 12403  0.7887397E+02  0.6230103E+02  0.5749311E+02  0.0000000E+00
Ar 12404  0.7597254E+02  0.6490418E+02  0.5718148E+02  0.0000000E+00
Ar 12405  0.7660505E+02  0.6322177E+02  0.6020514E+02  0.0000000E+00
Ar 12406  0.7842610E+02  0.6633757E+02  0.6086635E+02  0.0000000E+00
Ar 12407  0.7894174E+02  0.6280091E+02  0.6287886E+02  0.0000000E+00
Ar 12408  0.7597359E+02  0.6544210E+02  0.6355830E+02  0.0000000E+00
Ar 12409  0.7685901E+02  0.6245832E+02  0.6617215E+02  0.0000000E+00
Ar 12410  0.7865470E+02  0.6602494E+02  0.6623650E+02  0.0000000E+00
Ar 12411  0.7939313E+02  0.6217813E+02  0.6941169E+02  0.0000000E+00
Ar 12412  0.7593216E+02  0.6544008E+02  0.6834879E+02  0.0000000E+00
Ar 12413  0.7486749E+02  0.6210653E+02  0.7125963E+02  0.0000000E+00
Ar 12414  0.7858122E+02  0.6597786E+02  0.7126114E+02  0.0000000E+00
Ar 12415  0.7774591E+02  0.6248558E+02  0.7392113E+02  0.0000000E+00
Ar 12416  0.7505137E+02  0.6516864E+02  0.7407702E+02  0.0000000E+00
Ar 12417  0.7576913E+02  0.6255284E+02  0.7736570E+02  0.0000000E+00
Ar 12418  0.7785526E+02  0.6545086E+02  0.7694150E+02  0.0000000E+00
Ar 12419  0.7875527E+02  0.6214189E+02  0.7897221E+02  0.0000000E+00
Ar 12420  0.7542400E+02  0.6467780E+02  0.7984685E+02  0.0000000E+00
Ar 12421  0.7535168E+02  0.6728258E+02  0.8296426E+02  0.0000000E+00
Ar 12422  0.7714514E+02  0.7032910E+02  0.8276823E+02  0.0000000E+00
Ar 12423  0.7847151E+02  0.6744547E+02  0.1651325E+01  0.0000000E+00
Ar 12424  0.7558012E+02  0.6967315E+02  0.1998350E+01  0.0000000E+00
Ar 12425  0.7584691E+02  0.6688016E+02  0.4335014E+01  0.0000000E+00
Ar 12426  0.7871429E+02  0.7002028E+02  0.4332674E+01  0.0000000E+00
Ar 12427  0.7831739E+02  0.6742703E+02  0.6878977E+01  0.0000000E+00
Ar 12428  0.7604443E+02  0.7042090E+02  0.6934690E+01  0.0000000E+00
Ar 12429  0.7578664E+02  0.6791181E+02  0.9584452E+01  0.0000000E+00
Ar 12430  0.7832278E+02  0.7062427E+02  0.9819379E+01  0.0000000E+00
Ar 12431  0.7839373E+02  0.6777044E+02  0.1231715E+02  0.0000000E+00
Ar 12432  0.7541035E+02  0.7119014E+02  0.1256922E+02  0.0000000E+00
Ar 12433  0.7553807E+02  0.6809931E+02  0.1546332E+02  0.0000000E+00
Ar 12434  0.7872282E+02  0.7040141E+02  0.1491868E+02  0.0000000E+00
Ar 12435  0.7854552E+02  0.6817074E+02  0.1800137E+02  0.0000000E+00
Ar 12436  0.7580041E+02  0.7109205E+02  0.1847036E+02  0.0000000E+00
Ar 12437  0.7623236E+02  0.6782729E+02  0.2147779E+02  0.0000000E+00
Ar 12438  0.7778466E+02  0.7103608E+02  0.2102427E+02  0.0000000E+00
Ar 12439  0.7935756E+02  0.6774907E+02  0.2425858E+02  0.0000000E+00
Ar 12440  0.7486917E+02  0.7074678E+02  0.2336070E+02  0.0000000E+00
Ar 12441  0.7574671E+02  0.6734876E+02  0.2617587E+02  0.0000000E+00
Ar 12442  0.7737546E+02  0.7061581E+02  0.2622317E+02  0.0000000E+00
Ar 12443  0.7673170E+02  0.6776819E+02  0.2975531E+02  0.0000000E+00
Ar 12444  0.7498086E+02  0.7078878E+02  0.2944072E+02  0.0000000E+00
Ar 12445  0.7558864E+02  0.6761019E+02  0.3349088E+02  0.0000000E+00
Ar 12446  0.7775772E+02  0.7033864E+02  0.3204606E+02  0.0000000E+00
Ar 12447  0.7921505E+02  0.6831555E+02  0.3508190E+02  0.0000000E+00
Ar 12448  0.7560917E+02  0.7072611E+02  0.3515954E+02  0.0000000E+00
Ar 12449  0.7590577E+02  0.6826427E+02  0.3795450E+02  0.0000000E+00
Ar 12450  0.7933059E+02  0.7055267E+02  0.3774309E+02  0.0000000E+00
Ar 12451  0.7826867E+02  0.6826223E+02  0.4082358E+02  0.0000000E+00
Ar 12452  0.7555468E+02  0.7079975E+02  0.4050337E+02  0.0000000E+00
Ar 12453  0.7602746E+02  0.6813747E+02  0.4441779E+02  0.0000000E+00
Ar 12454  0.7866634E+02  0.7043890E+02  0.4355415E+02  0.0000000E+00
Ar 12455  0.7911107E+02  0.6823334E+02  0.4645435E+02  0.0000000E+00
Ar 12456  0.7661881E+02  0.7082261E+02  0.4663495E+02  0.0000000E+00
Ar 12457  0.7691855E+02  0.6777666E+02  0.4980578E+02  0.0000000E+00
Ar 12458  0.7903750E+02  0.7040486E+02  0.4945736E+02  0.0000000E+00
Ar 12459  0.7926432E+02  0.6777286E+02  0.5246638E+02  0.0000000E+00
Ar 12460  0.7640453E+02  0.7135423E+02  0.5197288E+02  0.0000000E+00
Ar 12461  0.7598638E+02  0.6749006E+02  0.5477317E+02  0.0000000E+00
Ar 12462  0.7921346E+02  0.7146817E+02  0.5523087E+02  0.0000000E+00
Ar 12463  0.7922361E+02  0.6738327E+02  0.5712853E+02  0.0000000E+00
Ar 12464  0.7583358E+02  0.7118796E+02  0.5731439E+02  0.0000000E+00
Ar 12465  0.7554000E+02  0.6818446E+02  0.5952920E+02  0.0000000E+00
Ar 12466  0.7827120E+02  0.7048276E+02  0.6007088E+02  0.0000000E+00
Ar 12467  0.7928664E+02  0.6877250E+02  0.6369874E+02  0.0000000E+00
Ar 12468  0.7576892E+02  0.7018284E+02  0.6265331E+02  0.0000000E+00
Ar 12469  0.7563788E+02  0.6865550E+02  0.6617669E+02  0.0000000E+00
Ar 12470  0.7854818E+02  0.7166461E+02  0.6570760E+02  0.0000000E+00
Ar 12471  0.7813248E+02  0.6881130E+02  0.6869997E+02  0.0000000E+00
Ar 12472  0.7488226E+02  0.7097391E+02  0.6923382E+02  0.0000000E+00
Ar 12473  0.7544550E+02  0.6818075E+02  0.7135444E+02  0.0000000E+00
Ar 12474  0.7807712E+02  0.7088303E+02  0.7176734E+02  0.0000000E+00
Ar 12475  0.7747088E+02  0.6757034E+02  0.7413971E+02  0.0000000E+00
Ar 12476  0.7506550E+02  0.7064648E+02  0.7405237E+02  0.0000000E+00
Ar 12477  0.7458121E+02  0.6732128E+02  0.7671897E+02  0.0000000E+00
Ar 12478  0.7790768E+02  0.6992516E+02  0.7752534E+02  0.0000000E+00
Ar 12479  0.7762509E+02  0.6751871E+02  0.8021553E+02  0.0000000E+00
Ar 12480  0.7521116E+02  0.7004157E+02  0.7944540E+02  0.0000000E+00
Ar 12481  0.7509454E+02  0.7343803E+02  0.8211157E+02  0.0000000E+00
Ar 12482  0.7875150E+02  0.7628825E+02  0.8220292E+02  0.0000000E+00
Ar 12483  0.7804600E+02  0.7323392E+02  0.1343276E+01  0.0000000E+00
Ar 12484  0.7620721E+02  0.7657926E+02  0.5225889E+00  0.0000000E+00
Ar 12485  0.7586039E+02  0.7317289E+02  0.3869695E+01  0.0000000E+00
Ar 12486  0.7922037E+02  0.7598294E+02  0.4107359E+01  0.0000000E+00
Ar 12487  0.7891098E+02  0.7314193E+02  0.6852411E+01  0.0000000E+00
Ar 12488  0.7649257E+02  0.7525733E+02  0.6611752E+01  0.0000000E+00
Ar 12489  0.7586163E+02  0.7339713E+02  0.9677638E+01  0.0000000E+00
Ar 12490  0.7843069E+02  0.7639696E+02  0.9721121E+01  0.0000000E+00
Ar 12491  0.7860422E+02  0.7356666E+02  0.1226081E+02  0.0000000E+00
Ar 12492  0.7545833E+02  0.7626646E+02  0.1224445E+02  0.0000000E+00
Ar 12493  0.7551109E+02  0.7349477E+02  0.1530705E+02  0.0000000E+00
Ar 12494  0.7884149E+02  0.7655429E+02  0.1484450E+02  0.0000000E+00
Ar 12495  0.7826581E+02  0.7318623E+02  0.1741357E+02  0.0000000E+00
Ar 12496  0.7538954E+02  0.7619370E+02  0.1832111E+02  0.0000000E+00
Ar 12497  0.7531614E+02  0.7362494E+02  0.2129967E+02  0.0000000E+00
Ar 12498  0.7850312E+02  0.7612298E+02  0.2087293E+02  0.0000000E+00
Ar 12499  0.7818019E+02  0.7404866E+02  0.2366004E+02  0.0000000E+00
Ar 12500  0.7511024E+02  0.7641585E+02  0.2371578E+02  0.0000000E+00
Ar 12501  0.7481048E+02  0.7295311E+02  0.2610430E+02  0.0000000E+00
Ar 12502  0.7735545E+02  0.7570632E+02  0.2708352E+02  0.0000000E+00
Ar 12503  0.7780027E+02  0.7325437E+02  0.2980558E+02  0.0000000E+00
Ar 12504  0.7542855E+02  0.7607830E+02  0.3065762E+02  0.0000000E+00
Ar 12505  0.7528422E+02  0.7317037E+02  0.3247099E+02  0.0000000E+00
Ar 12506  0.7872079E+02  0.7645958E+02  0.3326832E+02  0.0000000E+00
Ar 12507  0.7841362E+02  0.7345313E+02  0.3544464E+02  0.0000000E+00
Ar 12508  0.7460388E+02  0.7620773E+02  0.3485208E+02  0.0000000E+00
Ar 12509  0.7587545E+02  0.7409893E+02  0.3788729E+02  0.0000000E+00
Ar 12510  0.7887241E+02  0.7617328E+02  0.3806009E+02  0.0000000E+00
Ar 12511  0.7857375E+02  0.7308228E+02  0.4040334E+02  0.0000000E+00
Ar 12512  0.7587559E+02  0.7662159E+02  0.4050288E+02  0.0000000E+00
Ar 12513  0.7636591E+02  0.7360217E+02  0.4326340E+02  0.0000000E+00
Ar 12514  0.7876198E+02  0.7649245E+02  0.4367742E+02  0.0000000E+00
Ar 12515  0.7910289E+02  0.7332972E+02  0.4722449E+02  0.0000000E+00
Ar 12516  0.7558704E+02  0.7646828E+02  0.4674612E+02  0.0000000E+00
Ar 12517  0.7601038E+02  0.7394381E+02  0.4926689E+02  0.0000000E+00
Ar 12518  0.7882318E+02  0.7620216E+02  0.4982839E+02  0.0000000E+00
Ar 12519  0.7943061E+02  0.7373202E+02  0.5212366E+02  0.0000000E+00
Ar 12520  0.7565145E+02  0.7643720E+02  0.5250814E+02  0.0000000E+00
Ar 12521  0.7607988E+02  0.7384735E+02  0.5504778E+02  0.0000000E+00
Ar 12522  0.7811605E+02  0.7680084E+02  0.5483447E+02  0.0000000E+00
Ar 12523  0.7839867E+02  0.7399873E+02  0.5748951E+02  0.0000000E+00
Ar 12524  0.7538910E+02  0.7701053E+02  0.5818676E+02  0.0000000E+00
Ar 12525  0.7510125E+02  0.7329150E+02  0.6071736E+02  0.0000000E+00
Ar 12526  0.7882522E+02  0.7676180E+02  0.6059238E+02  0.0000000E+00
Ar 12527  0.7807327E+02  0.7387713E+02  0.6276439E+02  0.0000000E+00
Ar 12528  0.7603267E+02  0.7689333E+02  0.6287264E+02  0.0000000E+00
Ar 12529  0.7550689E+02  0.7300523E+02  0.6600660E+02  0.0000000E+00
Ar 12530  0.7752393E+02  0.7624793E+02  0.6586119E+02  0.0000000E+00
Ar 12531  0.7831056E+02  0.7335479E+02  0.6910068E+02  0.0000000E+00
Ar 12532  0.7560549E+02  0.7607268E+02  0.6885348E+02  0.0000000E+00
Ar 12533  0.7552222E+02  0.7386187E+02  0.7163453E+02  0.0000000E+00
Ar 12534  0.7822159E+02  0.7601046E+02  0.7151270E+02  0.0000000E+00
Ar 12535  0.7823428E+02  0.7328932E+02  0.7428177E+02  0.0000000E+00
Ar 12536  0.7512744E+02  0.7546102E+02  0.7466380E+02  0.0000000E+00
Ar 12537  0.7564137E+02  0.7272076E+02  0.7672056E+02  0.0000000E+00
Ar 12538  0.7864770E+02  0.7589869E+02  0.7696789E+02  0.0000000E+00
Ar 12539  0.7804606E+02  0.7301185E+02  0.7973407E+02  0.0000000E+00
Ar 12540  0.7571528E+02  0.7607301E+02  0.7916747E+02  0.0000000E+00
Ar 12541  0.7545301E+02  0.7886165E+02  0.8188546E+02  0.0000000E+00
Ar 12542  0.7823718E+02  0.8142235E+02  0.8234724E+02  0.0000000E+00
Ar 12543  0.7945766E+02  0.7786188E+02  0.1116423E+01  0.0000000E+00
Ar 12544  0.7648946E+02  0.8033012E+02  0.9769550E+00  0.0000000E+00
Ar 12545  0.7600741E+02  0.7813689E+02  0.3871678E+01  0.0000000E+00
Ar 12546  0.7856269E+02  0.8033972E+02  0.3701913E+01  0.0000000E+00
Ar 12547  0.7858805E+02  0.7889044E+02  0.6669860E+01  0.0000000E+00
Ar 12548  0.7668111E+02  0.8186680E+02  0.6002899E+01  0.0000000E+00
Ar 12549  0.7601357E+02  0.7908176E+02  0.9678905E+01  0.0000000E+00
Ar 12550  0.7846000E+02  0.8187332E+02  0.9559500E+01  0.0000000E+00
Ar 12551  0.7814345E+02  0.7954296E+02  0.1229991E+02  0.0000000E+00
Ar 12552  0.7537179E+02  0.8203244E+02  0.1219908E+02  0.0000000E+00
Ar 12553  0.7479717E+02  0.7855702E+02  0.1484967E+02  0.0000000E+00
Ar 12554  0.7864497E+02  0.8206469E+02  0.1485896E+02  0.0000000E+00
Ar 12555  0.7789456E+02  0.7881178E+02  0.1789608E+02  0.0000000E+00
Ar 12556  0.7592718E+02  0.8174078E+02  0.1810923E+02  0.0000000E+00
Ar 12557  0.7598417E+02  0.7881381E+02  0.2151461E+02  0.0000000E+00
Ar 12558  0.7808721E+02  0.8178512E+02  0.2106843E+02  0.0000000E+00
Ar 12559  0.7786859E+02  0.7934453E+02  0.2454774E+02  0.0000000E+00
Ar 12560  0.7518083E+02  0.8174830E+02  0.2390306E+02  0.0000000E+00
Ar 12561  0.7510053E+02  0.7892499E+02  0.2674894E+02  0.0000000E+00
Ar 12562  0.7770842E+02  0.8205268E+02  0.2658333E+02  0.0000000E+00
Ar 12563  0.7828141E+02  0.7935785E+02  0.2966628E+02  0.0000000E+00
Ar 12564  0.7527173E+02  0.8189069E+02  0.2954894E+02  0.0000000E+00
Ar 12565  0.7476770E+02  0.7896083E+02  0.3246611E+02  0.0000000E+00
Ar 12566  0.7774418E+02  0.8193510E+02  0.3213941E+02  0.0000000E+00
Ar 12567  0.7785159E+02  0.7933859E+02  0.3503066E+02  0.0000000E+00
Ar 12568  0.7580083E+02  0.8239476E+02  0.3510763E+02  0.0000000E+00
Ar 12569  0.7563046E+02  0.7931949E+02  0.3788382E+02  0.0000000E+00
Ar 12570  0.7891777E+02  0.8226116E+02  0.3770484E+02  0.0000000E+00
Ar 12571  0.7843590E+02  0.7923872E+02  0.4056521E+02  0.0000000E+00
Ar 12572  0.7574984E+02  0.8122024E+02  0.4120246E+02  0.0000000E+00
Ar 12573  0.7554603E+02  0.7896361E+02  0.4389647E+02  0.0000000E+00
Ar 12574  0.7836869E+02  0.8263198E+02  0.4362350E+02  0.0000000E+00
Ar 12575  0.7853029E+02  0.7868385E+02  0.4678979E+02  0.0000000E+00
Ar 12576  0.7592731E+02  0.8192737E+02  0.4624848E+02  0.0000000E+00
Ar 12577  0.7612271E+02  0.7868117E+02  0.4987058E+02  0.0000000E+00
Ar 12578  0.7790986E+02  0.8172702E+02  0.4951460E+02  0.0000000E+00
Ar 12579  0.7857668E+02  0.7900094E+02  0.5194572E+02  0.0000000E+00
Ar 12580  0.7575907E+02  0.8203453E+02  0.5216916E+02  0.0000000E+00
Ar 12581  0.7528639E+02  0.7950433E+02  0.5496753E+02  0.0000000E+00
Ar 12582  0.7796649E+02  0.8160971E+02  0.5536558E+02  0.0000000E+00
Ar 12583  0.7820757E+02  0.7901594E+02  0.5739510E+02  0.0000000E+00
Ar 12584  0.7541888E+02  0.8234708E+02  0.5797091E+02  0.0000000E+00
Ar 12585  0.7574382E+02  0.7948448E+02  0.6039780E+02  0.0000000E+00
Ar 12586  0.7899469E+02  0.8249577E+02  0.6014577E+02  0.0000000E+00
Ar 12587  0.7861788E+02  0.7930559E+02  0.6326896E+02  0.0000000E+00
Ar 12588  0.7573658E+02  0.8203500E+02  0.6326917E+02  0.0000000E+00
Ar 12589  0.7573491E+02  0.7952266E+02  0.6557986E+02  0.0000000E+00
Ar 12590  0.7899361E+02  0.8165307E+02  0.6649769E+02  0.0000000E+00
Ar 12591  0.7914783E+02  0.7804128E+02  0.6879750E+02  0.0000000E+00
Ar 12592  0.7589070E+02  0.8169085E+02  0.6843772E+02  0.0000000E+00
Ar 12593  0.7599597E+02  0.7882595E+02  0.7100484E+02  0.0000000E+00
Ar 12594  0.7871629E+02  0.8123784E+02  0.7120558E+02  0.0000000E+00
Ar 12595  0.7820432E+02  0.7855668E+02  0.7445038E+02  0.0000000E+00
Ar 12596  0.7563598E+02  0.8187688E+02  0.7388869E+02  0.0000000E+00
Ar 12597  0.7534209E+02  0.7925855E+02  0.7648635E+02  0.0000000E+00
Ar 12598  0.7867955E+02  0.8160302E+02  0.7663528E+02  0.0000000E+00
Ar 12599  0.7817909E+02  0.7903597E+02  0.7918169E+02  0.0000000E+00
Ar 12600  0.7545671E+02  0.8202467E+02  0.7962715E+02  0.0000000E+00
Ar 12601  0.8143587E+02  0.8926353E+00  0.8258516E+02  0.0000000E+00
Ar 12602 -0.1607983E+00  0.2669895E+01  0.8223954E+02  0.0000000E+00
Ar 12603  0.8428613E+02  0.8418436E+02  0.9048051E+00  0.0000000E+00
Ar 12604  0.8202018E+02  0.3438943E+01  0.6774941E+00  0.0000000E+00
Ar 12605  0.8101778E+02  0.8316003E+02  0.3745719E+01  0.0000000E+00
Ar 12606  0.8402351E+02  0.2798157E+01  0.4119942E+01  0.0000000E+00
Ar 12607  0.8411089E+02  0.8420126E+02  0.6297208E+01  0.0000000E+00
Ar 12608  0.8121609E+02  0.3744679E+01  0.6650788E+01  0.0000000E+00
Ar 12609  0.8180855E+02  0.1001102E+01  0.8736634E+01  0.0000000E+00
Ar 12610  0.8416925E+02  0.3511208E+01  0.8681092E+01  0.0000000E+00
Ar 12611  0.8379628E+02  0.1044534E+01  0.1233307E+02  0.0000000E+00
Ar 12612  0.8113816E+02  0.3743738E+01  0.1160395E+02  0.0000000E+00
Ar 12613  0.8097405E+02  0.1776724E+01  0.1470096E+02  0.0000000E+00
Ar 12614  0.8402355E+02  0.4131342E+01  0.1483503E+02  0.0000000E+00
Ar 12615  0.8308724E+02  0.8687912E+00  0.1817659E+02  0.0000000E+00
Ar 12616  0.8054941E+02  0.3513492E+01  0.1801541E+02  0.0000000E+00
Ar 12617  0.8009699E+02  0.6506986E+00  0.2087872E+02  0.0000000E+00
Ar 12618  0.8416608E+02  0.3099503E+01  0.2132095E+02  0.0000000E+00
Ar 12619  0.8347432E+02  0.8419904E+02  0.2404047E+02  0.0000000E+00
Ar 12620  0.8045549E+02  0.3282997E+01  0.2402791E+02  0.0000000E+00
Ar 12621  0.8079262E+02  0.3303812E+00  0.2695833E+02  0.0000000E+00
Ar 12622  0.8343363E+02  0.2780872E+01  0.2624035E+02  0.0000000E+00
Ar 12623  0.8407422E+02  0.1214996E+01  0.2956170E+02  0.0000000E+00
Ar 12624  0.8101635E+02  0.2832387E+01  0.2955041E+02  0.0000000E+00
Ar 12625  0.8069680E+02  0.7691643E+00  0.3238053E+02  0.0000000E+00
Ar 12626  0.8367361E+02  0.2949725E+01  0.3284416E+02  0.0000000E+00
Ar 12627  0.8349947E+02  0.3108953E+00  0.3531880E+02  0.0000000E+00
Ar 12628  0.8135229E+02  0.3486812E+01  0.3520233E+02  0.0000000E+00
Ar 12629  0.8141223E+02  0.8139084E+00  0.3816143E+02  0.0000000E+00
Ar 12630  0.8396733E+02  0.3535929E+01  0.3852070E+02  0.0000000E+00
Ar 12631  0.8403875E+02  0.5614569E+00  0.4059677E+02  0.0000000E+00
Ar 12632  0.8071988E+02  0.3875788E+01  0.4105094E+02  0.0000000E+00
Ar 12633  0.8135907E+02  0.9711150E+00  0.4331117E+02  0.0000000E+00
Ar 12634 -0.8790339E-01  0.3271348E+01  0.4410697E+02  0.0000000E+00
Ar 12635  0.8345618E+02  0.5153364E+00  0.4673700E+02  0.0000000E+00
Ar 12636  0.8133672E+02  0.3132180E+01  0.4664120E+02  0.0000000E+00
Ar 12637  0.8109798E+02  0.7847494E+00  0.4951733E+02  0.0000000E+00
Ar 12638 -0.1106464E+00  0.3525383E+01  0.4999740E+02  0.0000000E+00
Ar 12639  0.8369607E+02  0.8918180E+00  0.5253807E+02  0.0000000E+00
Ar 12640  0.8131620E+02  0.3453124E+01  0.5218629E+02  0.0000000E+00
Ar 12641  0.8041205E+02  0.1073642E+01  0.5479088E+02  0.0000000E+00
Ar 12642  0.8354877E+02  0.4009828E+01  0.5464588E+02  0.0000000E+00
Ar 12643 -0.7072962E-01  0.6541151E+00  0.5807968E+02  0.0000000E+00
Ar 12644  0.8083230E+02  0.3358363E+01  0.5751941E+02  0.0000000E+00
Ar 12645  0.8152580E+02  0.1022675E+01  0.5992614E+02  0.0000000E+00
Ar 12646  0.8406668E+02  0.3404351E+01  0.6047313E+02  0.0000000E+00
Ar 12647 -0.9248830E-01  0.7644200E+00  0.6326831E+02  0.0000000E+00
Ar 12648  0.8097990E+02  0.3660856E+01  0.6329031E+02  0.0000000E+00
Ar 12649  0.8123550E+02  0.6860481E+00  0.6566989E+02  0.0000000E+00
Ar 12650  0.8419924E+02  0.3821764E+01  0.6551832E+02  0.0000000E+00
Ar 12651  0.8427225E+02  0.7460579E+00  0.6881965E+02  0.0000000E+00
Ar 12652  0.8184410E+02  0.3268511E+01  0.6792954E+02  0.0000000E+00
Ar 12653  0.8109903E+02  0.5229228E+00  0.7144800E+02  0.0000000E+00
Ar 12654 -0.6887346E-01  0.3582683E+01  0.7164662E+02  0.0000000E+00
Ar 12655  0.7764134E-01  0.3634793E+00  0.7423419E+02  0.0000000E+00
Ar 12656  0.8153620E+02  0.3678156E+01  0.7496904E+02  0.0000000E+00
Ar 12657  0.8069596E+02  0.3556580E+00  0.7707097E+02  0.0000000E+00
Ar 12658  0.1144030E+01  0.3250691E+01  0.7693986E+02  0.0000000E+00
Ar 12659  0.8399544E+02  0.5344815E+00  0.7824319E+02  0.0000000E+00
Ar 12660  0.8203062E+02  0.3798723E+01  0.7918420E+02  0.0000000E+00
Ar 12661  0.8204836E+02  0.6321407E+01  0.8251683E+02  0.0000000E+00
Ar 12662  0.3017628E+00  0.9404406E+01  0.8282031E+02  0.0000000E+00
Ar 12663  0.7996978E-02  0.5696738E+01  0.1436743E+01  0.0000000E+00
Ar 12664  0.8249233E+02  0.9265699E+01  0.1106739E+01  0.0000000E+00
Ar 12665  0.8151647E+02  0.6220731E+01  0.3394931E+01  0.0000000E+00
Ar 12666  0.1279055E-01  0.8983590E+01  0.4174082E+01  0.0000000E+00
Ar 12667  0.8408478E+02  0.6025247E+01  0.6117511E+01  0.0000000E+00
Ar 12668  0.8165398E+02  0.9347674E+01  0.5918209E+01  0.0000000E+00
Ar 12669  0.8116903E+02  0.6348169E+01  0.9076542E+01  0.0000000E+00
Ar 12670  0.8408650E+02  0.8663448E+01  0.8959211E+01  0.0000000E+00
Ar 12671  0.8382967E+02  0.6476731E+01  0.1194260E+02  0.0000000E+00
Ar 12672  0.8168232E+02  0.9490595E+01  0.1241270E+02  0.0000000E+00
Ar 12673  0.8085521E+02  0.6303511E+01  0.1581314E+02  0.0000000E+00
Ar 12674  0.8418956E+02  0.8456133E+01  0.1513022E+02  0.0000000E+00
Ar 12675  0.8400064E+02  0.5255281E+01  0.1812998E+02  0.0000000E+00
Ar 12676  0.8063997E+02  0.8336408E+01  0.1859201E+02  0.0000000E+00
Ar 12677  0.8127741E+02  0.6369883E+01  0.2156167E+02  0.0000000E+00
Ar 12678  0.8404690E+02  0.8868949E+01  0.2108837E+02  0.0000000E+00
Ar 12679  0.8412992E+02  0.5907248E+01  0.2366272E+02  0.0000000E+00
Ar 12680  0.8132747E+02  0.8634524E+01  0.2439945E+02  0.0000000E+00
Ar 12681  0.8148026E+02  0.5631936E+01  0.2676398E+02  0.0000000E+00
Ar 12682  0.8410680E+02  0.8469299E+01  0.2671955E+02  0.0000000E+00
Ar 12683  0.3536633E-01  0.5716473E+01  0.2974147E+02  0.0000000E+00
Ar 12684  0.8131179E+02  0.8840607E+01  0.2888012E+02  0.0000000E+00
Ar 12685  0.8121061E+02  0.5705785E+01  0.3164330E+02  0.0000000E+00
Ar 12686  0.8375748E+02  0.8303047E+01  0.3273443E+02  0.0000000E+00
Ar 12687  0.8400101E+02  0.6227492E+01  0.3572136E+02  0.0000000E+00
Ar 12688  0.8141654E+02  0.9075481E+01  0.3540833E+02  0.0000000E+00
Ar 12689  0.8108048E+02  0.6531833E+01  0.3775555E+02  0.0000000E+00
Ar 12690  0.6686050E+00  0.9216897E+01  0.3836010E+02  0.0000000E+00
Ar 12691  0.8427188E+02  0.6476570E+01  0.4045222E+02  0.0000000E+00
Ar 12692  0.8155875E+02  0.9427188E+01  0.4128221E+02  0.0000000E+00
Ar 12693  0.8119806E+02  0.6094189E+01  0.4389802E+02  0.0000000E+00
Ar 12694  0.8411606E+02  0.9236537E+01  0.4389217E+02  0.0000000E+00
Ar 12695  0.1886470E+00  0.6193104E+01  0.4669839E+02  0.0000000E+00
Ar 12696  0.8161578E+02  0.9300596E+01  0.4672335E+02  0.0000000E+00
Ar 12697  0.8165475E+02  0.6188471E+01  0.4905990E+02  0.0000000E+00
Ar 12698  0.3147855E-01  0.8810754E+01  0.4924637E+02  0.0000000E+00
Ar 12699  0.1844486E+00  0.6435256E+01  0.5239885E+02  0.0000000E+00
Ar 12700  0.8209121E+02  0.9115292E+01  0.5179169E+02  0.0000000E+00
Ar 12701  0.8169283E+02  0.7135100E+01  0.5519291E+02  0.0000000E+00
Ar 12702  0.3498043E+00  0.9277910E+01  0.5516353E+02  0.0000000E+00
Ar 12703  0.8399610E+02  0.6860497E+01  0.5807783E+02  0.0000000E+00
Ar 12704  0.8154304E+02  0.9785009E+01  0.5776723E+02  0.0000000E+00
Ar 12705  0.8106441E+02  0.6194589E+01  0.6044680E+02  0.0000000E+00
Ar 12706  0.8430671E+02  0.9518573E+01  0.6053454E+02  0.0000000E+00
Ar 12707  0.8349383E+02  0.6670615E+01  0.6293795E+02  0.0000000E+00
Ar 12708  0.8032923E+02  0.9643405E+01  0.6263841E+02  0.0000000E+00
Ar 12709  0.8128675E+02  0.6298199E+01  0.6613094E+02  0.0000000E+00
Ar 12710  0.8385661E+02  0.9154714E+01  0.6564525E+02  0.0000000E+00
Ar 12711 -0.1083928E+00  0.6807918E+01  0.6864171E+02  0.0000000E+00
Ar 12712  0.8102103E+02  0.9697288E+01  0.6820772E+02  0.0000000E+00
Ar 12713  0.8192400E+02  0.6526312E+01  0.7161931E+02  0.0000000E+00
Ar 12714 -0.1257942E-01  0.8983806E+01  0.7169905E+02  0.0000000E+00
Ar 12715  0.8416457E+02  0.6239486E+01  0.7423430E+02  0.0000000E+00
Ar 12716  0.8153351E+02  0.9307530E+01  0.7430153E+02  0.0000000E+00
Ar 12717  0.8174764E+02  0.6402189E+01  0.7700639E+02  0.0000000E+00
Ar 12718 -0.1069431E+00  0.9109690E+01  0.7708473E+02  0.0000000E+00
Ar 12719  0.1626963E+00  0.6662629E+01  0.7952655E+02  0.0000000E+00
Ar 12720  0.8193624E+02  0.9450809E+01  0.7948875E+02  0.0000000E+00
Ar 12721  0.8187861E+02  0.1228966E+02  0.8222364E+02  0.0000000E+00
Ar 12722  0.4003683E+00  0.1454561E+02  0.8224450E+02  0.0000000E+00
Ar 12723  0.3652643E+00  0.1221143E+02  0.6029781E+00  0.0000000E+00
Ar 12724  0.8204991E+02  0.1506395E+02  0.2725268E-01  0.0000000E+00
Ar 12725  0.8179092E+02  0.1198796E+02  0.3458812E+01  0.0000000E+00
Ar 12726  0.6937780E+00  0.1478330E+02  0.3894591E+01  0.0000000E+00
Ar 12727  0.8433534E+02  0.1232167E+02  0.6878843E+01  0.0000000E+00
Ar 12728  0.8110948E+02  0.1443623E+02  0.6799803E+01  0.0000000E+00
Ar 12729  0.8163137E+02  0.1114968E+02  0.8999111E+01  0.0000000E+00
Ar 12730  0.1233901E+01  0.1466959E+02  0.9505579E+01  0.0000000E+00
Ar 12731  0.8423090E+02  0.1180351E+02  0.1261962E+02  0.0000000E+00
Ar 12732  0.8202638E+02  0.1406014E+02  0.1105474E+02  0.0000000E+00
Ar 12733  0.8171863E+02  0.1114086E+02  0.1546598E+02  0.0000000E+00
Ar 12734  0.8326719E+02  0.1450589E+02  0.1449900E+02  0.0000000E+00
Ar 12735  0.8349339E+02  0.1130841E+02  0.1861913E+02  0.0000000E+00
Ar 12736  0.8104648E+02  0.1496981E+02  0.1797667E+02  0.0000000E+00
Ar 12737  0.8137108E+02  0.1109174E+02  0.2153615E+02  0.0000000E+00
Ar 12738  0.8350389E+02  0.1403938E+02  0.2076131E+02  0.0000000E+00
Ar 12739  0.8418441E+02  0.1163439E+02  0.2420173E+02  0.0000000E+00
Ar 12740  0.8097574E+02  0.1502685E+02  0.2346644E+02  0.0000000E+00
Ar 12741  0.8064283E+02  0.1160802E+02  0.2690838E+02  0.0000000E+00
Ar 12742  0.8361282E+02  0.1447536E+02  0.2663234E+02  0.0000000E+00
Ar 12743  0.1881362E+01  0.1435709E+02  0.2969372E+02  0.0000000E+00
Ar 12744  0.8135715E+02  0.1455490E+02  0.2977556E+02  0.0000000E+00
Ar 12745  0.8148270E+02  0.1181860E+02  0.3245570E+02  0.0000000E+00
Ar 12746  0.8434749E+02  0.1447134E+02  0.3275269E+02  0.0000000E+00
Ar 12747  0.2475552E+00  0.1190504E+02  0.3525141E+02  0.0000000E+00
Ar 12748  0.8146958E+02  0.1448184E+02  0.3516833E+02  0.0000000E+00
Ar 12749  0.8175403E+02  0.1178179E+02  0.3823477E+02  0.0000000E+00
Ar 12750  0.8435445E+02  0.1462317E+02  0.3798850E+02  0.0000000E+00
Ar 12751  0.8023455E-02  0.1181824E+02  0.4111442E+02  0.0000000E+00
Ar 12752  0.8197156E+02  0.1507391E+02  0.4067872E+02  0.0000000E+00
Ar 12753  0.8157247E+02  0.1188298E+02  0.4397006E+02  0.0000000E+00
Ar 12754  0.6108816E+00  0.1459797E+02  0.4390238E+02  0.0000000E+00
Ar 12755  0.1752532E+00  0.1146281E+02  0.4654944E+02  0.0000000E+00
Ar 12756  0.8192023E+02  0.1456976E+02  0.4640683E+02  0.0000000E+00
Ar 12757  0.8138987E+02  0.1220124E+02  0.4944854E+02  0.0000000E+00
Ar 12758  0.8416776E+02  0.1484179E+02  0.4934422E+02  0.0000000E+00
Ar 12759  0.8419450E+02  0.1167453E+02  0.5176055E+02  0.0000000E+00
Ar 12760  0.8158025E+02  0.1477420E+02  0.5187663E+02  0.0000000E+00
Ar 12761  0.8171972E+02  0.1135743E+02  0.5474762E+02  0.0000000E+00
Ar 12762 -0.1981431E-01  0.1422433E+02  0.5422340E+02  0.0000000E+00
Ar 12763  0.4701456E+00  0.1231286E+02  0.5715821E+02  0.0000000E+00
Ar 12764  0.8223476E+02  0.1452344E+02  0.5760167E+02  0.0000000E+00
Ar 12765  0.8139752E+02  0.1253172E+02  0.6029985E+02  0.0000000E+00
Ar 12766  0.8419823E+02  0.1487470E+02  0.6070585E+02  0.0000000E+00
Ar 12767  0.2377777E-01  0.1207597E+02  0.6359199E+02  0.0000000E+00
Ar 12768  0.8137014E+02  0.1515293E+02  0.6312139E+02  0.0000000E+00
Ar 12769  0.8094145E+02  0.1234005E+02  0.6525978E+02  0.0000000E+00
Ar 12770  0.8384421E+02  0.1461696E+02  0.6561859E+02  0.0000000E+00
Ar 12771  0.8397212E+02  0.1218440E+02  0.6851433E+02  0.0000000E+00
Ar 12772  0.8115207E+02  0.1483074E+02  0.6810623E+02  0.0000000E+00
Ar 12773  0.8138198E+02  0.1228515E+02  0.7106946E+02  0.0000000E+00
Ar 12774  0.8426900E+02  0.1455823E+02  0.7146363E+02  0.0000000E+00
Ar 12775  0.5760265E-01  0.1121289E+02  0.7437354E+02  0.0000000E+00
Ar 12776  0.8138529E+02  0.1438421E+02  0.7399609E+02  0.0000000E+00
Ar 12777  0.8127464E+02  0.1213867E+02  0.7703382E+02  0.0000000E+00
Ar 12778  0.8420156E+02  0.1440501E+02  0.7617938E+02  0.0000000E+00
Ar 12779  0.8418452E+02  0.1203047E+02  0.7959981E+02  0.0000000E+00
Ar 12780  0.8195204E+02  0.1506030E+02  0.7888579E+02  0.0000000E+00
Ar 12781  0.8177662E+02  0.1773789E+02  0.8210651E+02  0.0000000E+00
Ar 12782  0.8397604E+02  0.2074610E+02  0.8311336E+02  0.0000000E+00
Ar 12783  0.8443380E+02  0.1774914E+02  0.8194195E+00  0.0000000E+00
Ar 12784  0.8215247E+02  0.2032719E+02  0.1771697E+01  0.0000000E+00
Ar 12785  0.8179678E+02  0.1700226E+02  0.3234491E+01  0.0000000E+00
Ar 12786  0.6555255E+00  0.2099953E+02  0.4365211E+01  0.0000000E+00
Ar 12787  0.5248773E+00  0.1707913E+02  0.7132354E+01  0.0000000E+00
Ar 12788  0.8157111E+02  0.1957451E+02  0.6190843E+01  0.0000000E+00
Ar 12789  0.8156136E+02  0.1757042E+02  0.9173626E+01  0.0000000E+00
Ar 12790  0.1245172E+00  0.1996421E+02  0.9316649E+01  0.0000000E+00
Ar 12791  0.8409878E+02  0.1710118E+02  0.1190949E+02  0.0000000E+00
Ar 12792  0.8203282E+02  0.2005130E+02  0.1225356E+02  0.0000000E+00
Ar 12793  0.8164846E+02  0.1751923E+02  0.1548437E+02  0.0000000E+00
Ar 12794  0.8394887E+02  0.2066789E+02  0.1536189E+02  0.0000000E+00
Ar 12795  0.8401744E+02  0.1742487E+02  0.1859471E+02  0.0000000E+00
Ar 12796  0.8227498E+02  0.2072677E+02  0.1859333E+02  0.0000000E+00
Ar 12797  0.8100309E+02  0.1794434E+02  0.2049830E+02  0.0000000E+00
Ar 12798  0.3667294E-01  0.2110660E+02  0.2140572E+02  0.0000000E+00
Ar 12799  0.8375004E+02  0.1723848E+02  0.2342437E+02  0.0000000E+00
Ar 12800  0.8126404E+02  0.1988626E+02  0.2360592E+02  0.0000000E+00
Ar 12801  0.8131999E+02  0.1699505E+02  0.2647786E+02  0.0000000E+00
Ar 12802  0.8419415E+02  0.1935135E+02  0.2647534E+02  0.0000000E+00
Ar 12803  0.8364282E+02  0.1698482E+02  0.2975859E+02  0.0000000E+00
Ar 12804  0.8135992E+02  0.1971591E+02  0.2997006E+02  0.0000000E+00
Ar 12805  0.8159671E+02  0.1736948E+02  0.3306896E+02  0.0000000E+00
Ar 12806  0.8404219E+02  0.2044864E+02  0.3249860E+02  0.0000000E+00
Ar 12807  0.8426467E+02  0.1744336E+02  0.3526981E+02  0.0000000E+00
Ar 12808  0.8141151E+02  0.2043700E+02  0.3494022E+02  0.0000000E+00
Ar 12809  0.8161229E+02  0.1720816E+02  0.3772781E+02  0.0000000E+00
Ar 12810  0.8385187E+02  0.2055941E+02  0.3715241E+02  0.0000000E+00
Ar 12811  0.4004666E+00  0.1753821E+02  0.4062866E+02  0.0000000E+00
Ar 12812  0.8119432E+02  0.1998033E+02  0.4043754E+02  0.0000000E+00
Ar 12813  0.8136155E+02  0.1761798E+02  0.4352684E+02  0.0000000E+00
Ar 12814  0.8401604E+02  0.2055666E+02  0.4302431E+02  0.0000000E+00
Ar 12815 -0.4041760E-01  0.1733007E+02  0.4627439E+02  0.0000000E+00
Ar 12816  0.8227095E+02  0.2036150E+02  0.4598820E+02  0.0000000E+00
Ar 12817  0.8108084E+02  0.1738537E+02  0.4876628E+02  0.0000000E+00
Ar 12818  0.8430644E+02  0.2056650E+02  0.4878089E+02  0.0000000E+00
Ar 12819 -0.2061655E-01  0.1762607E+02  0.5216136E+02  0.0000000E+00
Ar 12820  0.8231653E+02  0.2087420E+02  0.5207231E+02  0.0000000E+00
Ar 12821  0.8170764E+02  0.1735240E+02  0.5480875E+02  0.0000000E+00
Ar 12822  0.3552773E+00  0.2059857E+02  0.5479893E+02  0.0000000E+00
Ar 12823 -0.7884416E-01  0.1785255E+02  0.5734628E+02  0.0000000E+00
Ar 12824  0.8149239E+02  0.1994462E+02  0.5733391E+02  0.0000000E+00
Ar 12825  0.8238712E+02  0.1799408E+02  0.6039140E+02  0.0000000E+00
Ar 12826  0.8428028E+02  0.2082674E+02  0.5936169E+02  0.0000000E+00
Ar 12827  0.8407177E+02  0.1765388E+02  0.6378692E+02  0.0000000E+00
Ar 12828  0.8133030E+02  0.2005234E+02  0.6343738E+02  0.0000000E+00
Ar 12829  0.8102718E+02  0.1732720E+02  0.6605541E+02  0.0000000E+00
Ar 12830  0.8375169E+02  0.2058826E+02  0.6598321E+02  0.0000000E+00
Ar 12831  0.1679153E-02  0.1761255E+02  0.6920777E+02  0.0000000E+00
Ar 12832  0.8150276E+02  0.1999954E+02  0.6849605E+02  0.0000000E+00
Ar 12833  0.8151538E+02  0.1740233E+02  0.7139213E+02  0.0000000E+00
Ar 12834  0.8405880E+02  0.2035746E+02  0.7119709E+02  0.0000000E+00
Ar 12835  0.2026671E+00  0.1728688E+02  0.7424107E+02  0.0000000E+00
Ar 12836  0.8145239E+02  0.2083142E+02  0.7403851E+02  0.0000000E+00
Ar 12837  0.8139850E+02  0.1715628E+02  0.7594528E+02  0.0000000E+00
Ar 12838  0.4402436E+00  0.1991093E+02  0.7672310E+02  0.0000000E+00
Ar 12839  0.3014390E+00  0.1783898E+02  0.7991235E+02  0.0000000E+00
Ar 12840  0.8173990E+02  0.1972732E+02  0.7872162E+02  0.0000000E+00
Ar 12841  0.8135627E+02  0.2350011E+02  0.8189041E+02  0.0000000E+00
Ar 12842 -0.6724752E-01  0.2555926E+02  0.8256108E+02  0.0000000E+00
Ar 12843  0.8409046E+02  0.2337424E+02  0.1270986E+01  0.0000000E+00
Ar 12844  0.8092442E+02  0.2552275E+02  0.8186757E+00  0.0000000E+00
Ar 12845  0.8177995E+02  0.2312928E+02  0.4243060E+01  0.0000000E+00
Ar 12846  0.8413962E+02  0.2675582E+02  0.4082928E+01  0.0000000E+00
Ar 12847  0.2042245E+00  0.2365831E+02  0.7024948E+01  0.0000000E+00
Ar 12848  0.8147031E+02  0.2643292E+02  0.6326994E+01  0.0000000E+00
Ar 12849  0.8193013E+02  0.2271090E+02  0.9226700E+01  0.0000000E+00
Ar 12850  0.8352331E+02  0.2623082E+02  0.9932635E+01  0.0000000E+00
Ar 12851  0.8385001E+02  0.2364146E+02  0.1217018E+02  0.0000000E+00
Ar 12852  0.8180671E+02  0.2692079E+02  0.1314278E+02  0.0000000E+00
Ar 12853  0.8179669E+02  0.2426584E+02  0.1564966E+02  0.0000000E+00
Ar 12854  0.4712307E+00  0.2590708E+02  0.1526346E+02  0.0000000E+00
Ar 12855  0.8442189E+02  0.2367634E+02  0.1826334E+02  0.0000000E+00
Ar 12856  0.8110696E+02  0.2649526E+02  0.1839442E+02  0.0000000E+00
Ar 12857  0.8203209E+02  0.2372242E+02  0.2130177E+02  0.0000000E+00
Ar 12858  0.8417243E+02  0.2642816E+02  0.2101538E+02  0.0000000E+00
Ar 12859  0.8354440E+02  0.2273226E+02  0.2464883E+02  0.0000000E+00
Ar 12860  0.8196666E+02  0.2640751E+02  0.2400763E+02  0.0000000E+00
Ar 12861  0.8121186E+02  0.2186699E+02  0.2708373E+02  0.0000000E+00
Ar 12862  0.8409846E+02  0.2540691E+02  0.2704450E+02  0.0000000E+00
Ar 12863  0.8401775E+02  0.2243677E+02  0.2971376E+02  0.0000000E+00
Ar 12864  0.8171695E+02  0.2533228E+02  0.2956605E+02  0.0000000E+00
Ar 12865  0.8155063E+02  0.2306931E+02  0.3251006E+02  0.0000000E+00
Ar 12866 -0.2783123E-01  0.2563881E+02  0.3245746E+02  0.0000000E+00
Ar 12867  0.4007438E+00  0.2305839E+02  0.3513559E+02  0.0000000E+00
Ar 12868  0.8235411E+02  0.2578957E+02  0.3486085E+02  0.0000000E+00
Ar 12869  0.8143208E+02  0.2363704E+02  0.3779373E+02  0.0000000E+00
Ar 12870  0.3606287E+00  0.2696893E+02  0.3763832E+02  0.0000000E+00
Ar 12871  0.8392015E+02  0.2364737E+02  0.4033958E+02  0.0000000E+00
Ar 12872  0.8169656E+02  0.2625060E+02  0.4032430E+02  0.0000000E+00
Ar 12873  0.8194641E+02  0.2346544E+02  0.4362535E+02  0.0000000E+00
Ar 12874  0.2591645E-01  0.2583803E+02  0.4311675E+02  0.0000000E+00
Ar 12875 -0.6103608E-01  0.2364897E+02  0.4691141E+02  0.0000000E+00
Ar 12876  0.8206499E+02  0.2633104E+02  0.4603228E+02  0.0000000E+00
Ar 12877  0.8193204E+02  0.2319171E+02  0.4919596E+02  0.0000000E+00
Ar 12878  0.4892057E+00  0.2667010E+02  0.4946299E+02  0.0000000E+00
Ar 12879  0.3196741E+00  0.2328364E+02  0.5201058E+02  0.0000000E+00
Ar 12880  0.8169274E+02  0.2654955E+02  0.5173959E+02  0.0000000E+00
Ar 12881  0.8146153E+02  0.2301074E+02  0.5484050E+02  0.0000000E+00
Ar 12882  0.8423965E+02  0.2595049E+02  0.5447166E+02  0.0000000E+00
Ar 12883  0.8436919E+02  0.2361366E+02  0.5705562E+02  0.0000000E+00
Ar 12884  0.8142632E+02  0.2602711E+02  0.5683095E+02  0.0000000E+00
Ar 12885  0.8132663E+02  0.2341850E+02  0.6013840E+02  0.0000000E+00
Ar 12886  0.8394817E+02  0.2604990E+02  0.6031646E+02  0.0000000E+00
Ar 12887  0.8399507E+02  0.2343216E+02  0.6295411E+02  0.0000000E+00
Ar 12888  0.8127689E+02  0.2621770E+02  0.6278515E+02  0.0000000E+00
Ar 12889  0.8127585E+02  0.2323372E+02  0.6592948E+02  0.0000000E+00
Ar 12890  0.8426707E+02  0.2574203E+02  0.6589204E+02  0.0000000E+00
Ar 12891  0.8421657E+02  0.2301298E+02  0.6890729E+02  0.0000000E+00
Ar 12892  0.8152346E+02  0.2576528E+02  0.6854258E+02  0.0000000E+00
Ar 12893  0.8057706E+02  0.2335807E+02  0.7093161E+02  0.0000000E+00
Ar 12894  0.8400088E+02  0.2578455E+02  0.7132591E+02  0.0000000E+00
Ar 12895 -0.3484368E-03  0.2329053E+02  0.7494322E+02  0.0000000E+00
Ar 12896  0.8111205E+02  0.2553785E+02  0.7420098E+02  0.0000000E+00
Ar 12897  0.8193272E+02  0.2308439E+02  0.7747898E+02  0.0000000E+00
Ar 12898  0.8425659E+02  0.2668913E+02  0.7639203E+02  0.0000000E+00
Ar 12899  0.3367931E+00  0.2311968E+02  0.7989108E+02  0.0000000E+00
Ar 12900  0.8176016E+02  0.2690417E+02  0.7947599E+02  0.0000000E+00
Ar 12901  0.8156925E+02  0.2882015E+02  0.8235661E+02  0.0000000E+00
Ar 12902  0.8367565E+02  0.3192855E+02  0.8228609E+02  0.0000000E+00
Ar 12903  0.8404525E+02  0.2894007E+02  0.1015636E+01  0.0000000E+00
Ar 12904  0.8105566E+02  0.3113932E+02  0.5507301E+00  0.0000000E+00
Ar 12905  0.8108603E+02  0.2875761E+02  0.3351870E+01  0.0000000E+00
Ar 12906  0.3117986E+00  0.3087624E+02  0.4207752E+01  0.0000000E+00
Ar 12907  0.3071974E+00  0.2878133E+02  0.7389511E+01  0.0000000E+00
Ar 12908  0.8197842E+02  0.3143122E+02  0.6227337E+01  0.0000000E+00
Ar 12909  0.8183454E+02  0.2924917E+02  0.9732658E+01  0.0000000E+00
Ar 12910  0.1182197E+00  0.3128407E+02  0.1022962E+02  0.0000000E+00
Ar 12911  0.8443785E+02  0.2913815E+02  0.1285134E+02  0.0000000E+00
Ar 12912  0.8157098E+02  0.3195793E+02  0.1234849E+02  0.0000000E+00
Ar 12913  0.8172117E+02  0.2975318E+02  0.1558751E+02  0.0000000E+00
Ar 12914  0.3834418E+00  0.3132704E+02  0.1571344E+02  0.0000000E+00
Ar 12915  0.2150465E+00  0.2942116E+02  0.1883775E+02  0.0000000E+00
Ar 12916  0.8138895E+02  0.3127911E+02  0.1895294E+02  0.0000000E+00
Ar 12917  0.8144352E+02  0.2896652E+02  0.2138868E+02  0.0000000E+00
Ar 12918  0.8410445E+02  0.3227511E+02  0.2095771E+02  0.0000000E+00
Ar 12919  0.6539028E-02  0.2879736E+02  0.2415613E+02  0.0000000E+00
Ar 12920  0.8128502E+02  0.3208506E+02  0.2363547E+02  0.0000000E+00
Ar 12921  0.8103733E+02  0.2911022E+02  0.2577586E+02  0.0000000E+00
Ar 12922  0.8434950E+02  0.3210645E+02  0.2619950E+02  0.0000000E+00
Ar 12923  0.8425253E+02  0.2893299E+02  0.2939934E+02  0.0000000E+00
Ar 12924  0.8146653E+02  0.3233114E+02  0.2948525E+02  0.0000000E+00
Ar 12925  0.8173187E+02  0.2854769E+02  0.3247867E+02  0.0000000E+00
Ar 12926  0.5569559E+00  0.3189193E+02  0.3234829E+02  0.0000000E+00
Ar 12927  0.1534189E+00  0.2894981E+02  0.3472731E+02  0.0000000E+00
Ar 12928  0.8168215E+02  0.3130933E+02  0.3457753E+02  0.0000000E+00
Ar 12929  0.8176072E+02  0.2841171E+02  0.3727539E+02  0.0000000E+00
Ar 12930  0.8397349E+02  0.3180154E+02  0.3811909E+02  0.0000000E+00
Ar 12931  0.8431635E+02  0.2883568E+02  0.4062352E+02  0.0000000E+00
Ar 12932  0.8167563E+02  0.3133796E+02  0.4061437E+02  0.0000000E+00
Ar 12933  0.8224973E+02  0.2873760E+02  0.4348493E+02  0.0000000E+00
Ar 12934  0.2797967E+00  0.3120749E+02  0.4348487E+02  0.0000000E+00
Ar 12935  0.4146167E+00  0.2893488E+02  0.4655915E+02  0.0000000E+00
Ar 12936  0.8215702E+02  0.3128497E+02  0.4578112E+02  0.0000000E+00
Ar 12937  0.8157707E+02  0.2849373E+02  0.4870916E+02  0.0000000E+00
Ar 12938  0.4205314E+00  0.3174423E+02  0.4930823E+02  0.0000000E+00
Ar 12939  0.8420584E+02  0.2916602E+02  0.5204827E+02  0.0000000E+00
Ar 12940  0.8157350E+02  0.3178865E+02  0.5166795E+02  0.0000000E+00
Ar 12941  0.8160124E+02  0.2937639E+02  0.5454581E+02  0.0000000E+00
Ar 12942  0.8425040E+02  0.3178532E+02  0.5460551E+02  0.0000000E+00
Ar 12943  0.8382269E+02  0.2861056E+02  0.5737742E+02  0.0000000E+00
Ar 12944  0.8217805E+02  0.3169577E+02  0.5733280E+02  0.0000000E+00
Ar 12945  0.8153184E+02  0.2898355E+02  0.5983904E+02  0.0000000E+00
Ar 12946  0.8393257E+02  0.3150390E+02  0.6045777E+02  0.0000000E+00
Ar 12947  0.8394886E+02  0.2854594E+02  0.6302106E+02  0.0000000E+00
Ar 12948  0.8175677E+02  0.3190509E+02  0.6338592E+02  0.0000000E+00
Ar 12949  0.8115026E+02  0.2853849E+02  0.6606595E+02  0.0000000E+00
Ar 12950  0.4315651E+00  0.3169197E+02  0.6633112E+02  0.0000000E+00
Ar 12951  0.8371496E+02  0.2876842E+02  0.6852898E+02  0.0000000E+00
Ar 12952  0.8193841E+02  0.3222342E+02  0.6924172E+02  0.0000000E+00
Ar 12953  0.8103185E+02  0.2906626E+02  0.7081003E+02  0.0000000E+00
Ar 12954  0.2997657E+00  0.3175372E+02  0.7197577E+02  0.0000000E+00
Ar 12955  0.8342618E+02  0.2863407E+02  0.7333813E+02  0.0000000E+00
Ar 12956  0.8112888E+02  0.3197519E+02  0.7422492E+02  0.0000000E+00
Ar 12957  0.8105471E+02  0.2861186E+02  0.7623369E+02  0.0000000E+00
Ar 12958  0.8408844E+02  0.3138543E+02  0.7621683E+02  0.0000000E+00
Ar 12959  0.8386193E+02  0.2937995E+02  0.7919026E+02  0.0000000E+00
Ar 12960  0.8133214E+02  0.3206003E+02  0.7917085E+02  0.0000000E+00
Ar 12961  0.8119888E+02  0.3463472E+02  0.8226018E+02  0.0000000E+00
Ar 12962 -0.1354528E+00  0.3675394E+02  0.8276637E+02  0.0000000E+00
Ar 12963  0.8402896E+02  0.3416792E+02  0.8239480E+00  0.0000000E+00
Ar 12964  0.8191001E+02  0.3714699E+02  0.9519664E+00  0.0000000E+00
Ar 12965  0.8153873E+02  0.3439964E+02  0.3233130E+01  0.0000000E+00
Ar 12966  0.8440764E+02  0.3747737E+02  0.3213589E+01  0.0000000E+00
Ar 12967  0.8442996E+02  0.3461078E+02  0.5713107E+01  0.0000000E+00
Ar 12968  0.8165435E+02  0.3691220E+02  0.6327911E+01  0.0000000E+00
Ar 12969  0.8213503E+02  0.3430442E+02  0.9216470E+01  0.0000000E+00
Ar 12970  0.3311442E+00  0.3677459E+02  0.9195217E+01  0.0000000E+00
Ar 12971  0.1585438E+01  0.3469352E+02  0.1192335E+02  0.0000000E+00
Ar 12972  0.8138087E+02  0.3702004E+02  0.1243842E+02  0.0000000E+00
Ar 12973  0.8294341E+02  0.3440389E+02  0.1447646E+02  0.0000000E+00
Ar 12974  0.8419689E+02  0.3756988E+02  0.1515841E+02  0.0000000E+00
Ar 12975  0.8377132E+02  0.3437692E+02  0.1799733E+02  0.0000000E+00
Ar 12976  0.8148694E+02  0.3727430E+02  0.1769719E+02  0.0000000E+00
Ar 12977  0.8157889E+02  0.3483933E+02  0.2104423E+02  0.0000000E+00
Ar 12978  0.8413851E+02  0.3756861E+02  0.2068719E+02  0.0000000E+00
Ar 12979  0.8407063E+02  0.3504224E+02  0.2367071E+02  0.0000000E+00
Ar 12980  0.8127961E+02  0.3739243E+02  0.2373084E+02  0.0000000E+00
Ar 12981  0.8091828E+02  0.3457221E+02  0.2619743E+02  0.0000000E+00
Ar 12982  0.8410929E+02  0.3745367E+02  0.2617116E+02  0.0000000E+00
Ar 12983  0.8445908E+02  0.3551544E+02  0.2945383E+02  0.0000000E+00
Ar 12984  0.8177260E+02  0.3732126E+02  0.2882030E+02  0.0000000E+00
Ar 12985  0.8195728E+02  0.3442896E+02  0.3258117E+02  0.0000000E+00
Ar 12986  0.8412840E+02  0.3699080E+02  0.3274458E+02  0.0000000E+00
Ar 12987 -0.2222416E-01  0.3366020E+02  0.3533982E+02  0.0000000E+00
Ar 12988  0.8160897E+02  0.3705764E+02  0.3480431E+02  0.0000000E+00
Ar 12989  0.8116343E+02  0.3442205E+02  0.3824613E+02  0.0000000E+00
Ar 12990  0.8412141E+02  0.3734081E+02  0.3771942E+02  0.0000000E+00
Ar 12991  0.8375294E+02  0.3465843E+02  0.4067808E+02  0.0000000E+00
Ar 12992  0.8170522E+02  0.3748417E+02  0.4042724E+02  0.0000000E+00
Ar 12993  0.8156157E+02  0.3437793E+02  0.4359835E+02  0.0000000E+00
Ar 12994  0.8354492E+02  0.3753190E+02  0.4360410E+02  0.0000000E+00
Ar 12995  0.9885238E-01  0.3451399E+02  0.4631390E+02  0.0000000E+00
Ar 12996  0.8180426E+02  0.3667121E+02  0.4696248E+02  0.0000000E+00
Ar 12997  0.8186816E+02  0.3312624E+02  0.4860975E+02  0.0000000E+00
Ar 12998 -0.6203208E-01  0.3682033E+02  0.4971419E+02  0.0000000E+00
Ar 12999  0.1464886E+00  0.3414641E+02  0.5203468E+02  0.0000000E+00
Ar 13000  0.8167248E+02  0.3700669E+02  0.5154400E+02  0.0000000E+00
Ar 13001  0.8171233E+02  0.3429494E+02  0.5448800E+02  0.0000000E+00
Ar 13002  0.5099784E+00  0.3697090E+02  0.5420312E+02  0.0000000E+00
Ar 13003  0.4110360E+00  0.3504610E+02  0.5766862E+02  0.0000000E+00
Ar 13004  0.8184720E+02  0.3725213E+02  0.5677439E+02  0.0000000E+00
Ar 13005  0.8152625E+02  0.3488950E+02  0.5995312E+02  0.0000000E+00
Ar 13006  0.3715256E+00  0.3661764E+02  0.6104514E+02  0.0000000E+00
Ar 13007  0.5597062E-01  0.3411808E+02  0.6377789E+02  0.0000000E+00
Ar 13008  0.8162937E+02  0.3693599E+02  0.6329506E+02  0.0000000E+00
Ar 13009  0.8208852E+02  0.3432972E+02  0.6638450E+02  0.0000000E+00
Ar 13010  0.2504832E+00  0.3704099E+02  0.6593657E+02  0.0000000E+00
Ar 13011  0.8423782E+02  0.3479573E+02  0.6920029E+02  0.0000000E+00
Ar 13012  0.8127393E+02  0.3706609E+02  0.6895047E+02  0.0000000E+00
Ar 13013  0.8093240E+02  0.3472397E+02  0.7169211E+02  0.0000000E+00
Ar 13014 -0.7523758E-01  0.3756049E+02  0.7199130E+02  0.0000000E+00
Ar 13015  0.8409889E+02  0.3484279E+02  0.7487821E+02  0.0000000E+00
Ar 13016  0.8138926E+02  0.3748425E+02  0.7386032E+02  0.0000000E+00
Ar 13017  0.8124592E+02  0.3519349E+02  0.7700492E+02  0.0000000E+00
Ar 13018 -0.8280628E-01  0.3745939E+02  0.7765983E+02  0.0000000E+00
Ar 13019  0.8419746E+02  0.3439447E+02  0.7932959E+02  0.0000000E+00
Ar 13020  0.8151523E+02  0.3731002E+02  0.8000512E+02  0.0000000E+00
Ar 13021  0.8143444E+02  0.3963422E+02  0.8262274E+02  0.0000000E+00
Ar 13022  0.8387339E+02  0.4303553E+02  0.8290566E+02  0.0000000E+00
Ar 13023  0.3203047E+00  0.3954727E+02  0.9690003E+00  0.0000000E+00
Ar 13024  0.8139797E+02  0.4297622E+02  0.1136740E+01  0.0000000E+00
Ar 13025  0.8189246E+02  0.4000416E+02  0.4041900E+01  0.0000000E+00
Ar 13026  0.8388638E+02  0.4289168E+02  0.4223442E+01  0.0000000E+00
Ar 13027  0.4262080E+00  0.3925431E+02  0.6463322E+01  0.0000000E+00
Ar 13028  0.8089625E+02  0.4260564E+02  0.6536298E+01  0.0000000E+00
Ar 13029  0.8176150E+02  0.3929896E+02  0.8912254E+01  0.0000000E+00
Ar 13030  0.8328862E+02  0.4206680E+02  0.9432753E+01  0.0000000E+00
Ar 13031  0.8400529E+02  0.3947393E+02  0.1202988E+02  0.0000000E+00
Ar 13032  0.8124841E+02  0.4314341E+02  0.1271832E+02  0.0000000E+00
Ar 13033  0.8138518E+02  0.4012244E+02  0.1510619E+02  0.0000000E+00
Ar 13034  0.8381609E+02  0.4275300E+02  0.1561276E+02  0.0000000E+00
Ar 13035  0.8411593E+02  0.4017167E+02  0.1788653E+02  0.0000000E+00
Ar 13036  0.8053429E+02  0.4271868E+02  0.1761157E+02  0.0000000E+00
Ar 13037  0.8065030E+02  0.3884206E+02  0.2059828E+02  0.0000000E+00
Ar 13038  0.8428911E+02  0.4255391E+02  0.2042548E+02  0.0000000E+00
Ar 13039  0.8431865E+02  0.3982028E+02  0.2351472E+02  0.0000000E+00
Ar 13040  0.8167615E+02  0.4208008E+02  0.2330232E+02  0.0000000E+00
Ar 13041  0.8126705E+02  0.4004171E+02  0.2651695E+02  0.0000000E+00
Ar 13042  0.8420019E+02  0.4187794E+02  0.2707728E+02  0.0000000E+00
Ar 13043  0.1990665E+00  0.3891423E+02  0.2952091E+02  0.0000000E+00
Ar 13044  0.8113154E+02  0.4242902E+02  0.2920431E+02  0.0000000E+00
Ar 13045  0.8216486E+02  0.4010461E+02  0.3166243E+02  0.0000000E+00
Ar 13046  0.1049927E+00  0.4276761E+02  0.3269457E+02  0.0000000E+00
Ar 13047  0.8431362E+02  0.4016220E+02  0.3495733E+02  0.0000000E+00
Ar 13048  0.8183975E+02  0.4249048E+02  0.3477289E+02  0.0000000E+00
Ar 13049  0.8165687E+02  0.4013753E+02  0.3748905E+02  0.0000000E+00
Ar 13050  0.1315910E+00  0.4321744E+02  0.3818584E+02  0.0000000E+00
Ar 13051  0.8432744E+02  0.4085293E+02  0.4065253E+02  0.0000000E+00
Ar 13052  0.8184697E+02  0.4337687E+02  0.4035143E+02  0.0000000E+00
Ar 13053  0.8195895E+02  0.4053897E+02  0.4316332E+02  0.0000000E+00
Ar 13054  0.8437983E+02  0.4313757E+02  0.4400154E+02  0.0000000E+00
Ar 13055  0.8435561E+02  0.3987575E+02  0.4659218E+02  0.0000000E+00
Ar 13056  0.8160476E+02  0.4298595E+02  0.4644467E+02  0.0000000E+00
Ar 13057  0.8168018E+02  0.4004063E+02  0.4953599E+02  0.0000000E+00
Ar 13058  0.8434721E+02  0.4277015E+02  0.4900933E+02  0.0000000E+00
Ar 13059  0.1065416E+00  0.3946225E+02  0.5175264E+02  0.0000000E+00
Ar 13060  0.8168399E+02  0.4297002E+02  0.5208002E+02  0.0000000E+00
Ar 13061  0.8210703E+02  0.4004106E+02  0.5432803E+02  0.0000000E+00
Ar 13062  0.5169031E+00  0.4220405E+02  0.5497350E+02  0.0000000E+00
Ar 13063  0.6558848E+00  0.3927800E+02  0.5768696E+02  0.0000000E+00
Ar 13064  0.8171422E+02  0.4164502E+02  0.5733475E+02  0.0000000E+00
Ar 13065  0.8109266E+02  0.3950972E+02  0.5990345E+02  0.0000000E+00
Ar 13066  0.8400387E+02  0.4233630E+02  0.6004383E+02  0.0000000E+00
Ar 13067 -0.3012164E-01  0.3995465E+02  0.6323293E+02  0.0000000E+00
Ar 13068  0.8094992E+02  0.4204926E+02  0.6296487E+02  0.0000000E+00
Ar 13069  0.8115922E+02  0.3938888E+02  0.6600406E+02  0.0000000E+00
Ar 13070  0.8393510E+02  0.4352975E+02  0.6625217E+02  0.0000000E+00
Ar 13071  0.8403768E+02  0.3924723E+02  0.6880360E+02  0.0000000E+00
Ar 13072  0.8156739E+02  0.4242265E+02  0.6865675E+02  0.0000000E+00
Ar 13073  0.8176880E+02  0.4053555E+02  0.7184096E+02  0.0000000E+00
Ar 13074  0.8428641E+02  0.4290098E+02  0.7188240E+02  0.0000000E+00
Ar 13075 -0.1577048E-02  0.3964551E+02  0.7460256E+02  0.0000000E+00
Ar 13076  0.8137001E+02  0.4286094E+02  0.7538332E+02  0.0000000E+00
Ar 13077  0.8122723E+02  0.3949186E+02  0.7690651E+02  0.0000000E+00
Ar 13078  0.8421333E+02  0.4232891E+02  0.7727265E+02  0.0000000E+00
Ar 13079  0.7675012E-01  0.3990952E+02  0.8052514E+02  0.0000000E+00
Ar 13080  0.8096927E+02  0.4250377E+02  0.7966220E+02  0.0000000E+00
Ar 13081  0.8102722E+02  0.4560469E+02  0.8348014E+02  0.0000000E+00
Ar 13082  0.8399615E+02  0.4852638E+02  0.8323569E+02  0.0000000E+00
Ar 13083  0.8438078E+02  0.4581758E+02  0.1655234E+01  0.0000000E+00
Ar 13084  0.8057393E+02  0.4846330E+02  0.1215263E+01  0.0000000E+00
Ar 13085  0.8112031E+02  0.4565930E+02  0.3846969E+01  0.0000000E+00
Ar 13086  0.8364669E+02  0.4880426E+02  0.3782110E+01  0.0000000E+00
Ar 13087  0.8373547E+02  0.4582078E+02  0.6514954E+01  0.0000000E+00
Ar 13088  0.8130605E+02  0.4848340E+02  0.6600961E+01  0.0000000E+00
Ar 13089  0.8123566E+02  0.4488680E+02  0.8912825E+01  0.0000000E+00
Ar 13090  0.8332100E+02  0.4772972E+02  0.9590409E+01  0.0000000E+00
Ar 13091  0.8414315E+02  0.4606638E+02  0.1277503E+02  0.0000000E+00
Ar 13092  0.8106448E+02  0.4826706E+02  0.1256875E+02  0.0000000E+00
Ar 13093  0.8084063E+02  0.4538533E+02  0.1548657E+02  0.0000000E+00
Ar 13094  0.8334324E+02  0.4818671E+02  0.1549490E+02  0.0000000E+00
Ar 13095  0.8409225E+02  0.4515235E+02  0.1785359E+02  0.0000000E+00
Ar 13096  0.8072160E+02  0.4854734E+02  0.1818789E+02  0.0000000E+00
Ar 13097  0.8172843E+02  0.4476460E+02  0.2062161E+02  0.0000000E+00
Ar 13098  0.8431592E+02  0.4838897E+02  0.2126955E+02  0.0000000E+00
Ar 13099  0.8418161E+02  0.4541315E+02  0.2348294E+02  0.0000000E+00
Ar 13100  0.8131883E+02  0.4882846E+02  0.2400805E+02  0.0000000E+00
Ar 13101  0.8190623E+02  0.4492082E+02  0.2663569E+02  0.0000000E+00
Ar 13102  0.7632911E-01  0.4812820E+02  0.2691165E+02  0.0000000E+00
Ar 13103  0.8446467E+02  0.4466006E+02  0.2931387E+02  0.0000000E+00
Ar 13104  0.8048375E+02  0.4887432E+02  0.2942149E+02  0.0000000E+00
Ar 13105  0.8158337E+02  0.4478962E+02  0.3134492E+02  0.0000000E+00
Ar 13106  0.8366385E+02  0.4805940E+02  0.3049677E+02  0.0000000E+00
Ar 13107  0.4443956E+00  0.4580622E+02  0.3473762E+02  0.0000000E+00
Ar 13108  0.8171851E+02  0.4870031E+02  0.3464149E+02  0.0000000E+00
Ar 13109  0.8212456E+02  0.4634643E+02  0.3775365E+02  0.0000000E+00
Ar 13110  0.5676480E-01  0.4857318E+02  0.3763505E+02  0.0000000E+00
Ar 13111  0.2501942E+00  0.4633895E+02  0.4028422E+02  0.0000000E+00
Ar 13112  0.8177446E+02  0.4831836E+02  0.4038724E+02  0.0000000E+00
Ar 13113  0.8204886E+02  0.4565693E+02  0.4324021E+02  0.0000000E+00
Ar 13114  0.4851178E+00  0.4905365E+02  0.4353252E+02  0.0000000E+00
Ar 13115  0.8408374E+02  0.4640490E+02  0.4661276E+02  0.0000000E+00
Ar 13116  0.8126473E+02  0.4862931E+02  0.4648640E+02  0.0000000E+00
Ar 13117  0.8190220E+02  0.4570554E+02  0.4915941E+02  0.0000000E+00
Ar 13118  0.8440587E+02  0.4854995E+02  0.4965573E+02  0.0000000E+00
Ar 13119  0.1165987E-01  0.4540760E+02  0.5225970E+02  0.0000000E+00
Ar 13120  0.8188002E+02  0.4855278E+02  0.5231924E+02  0.0000000E+00
Ar 13121  0.8192465E+02  0.4555677E+02  0.5504382E+02  0.0000000E+00
Ar 13122  0.9025655E-01  0.4795594E+02  0.5514737E+02  0.0000000E+00
Ar 13123  0.8429698E+02  0.4502175E+02  0.5741496E+02  0.0000000E+00
Ar 13124  0.8157671E+02  0.4750374E+02  0.5792588E+02  0.0000000E+00
Ar 13125  0.8117000E+02  0.4455613E+02  0.5998171E+02  0.0000000E+00
Ar 13126  0.8430072E+02  0.4765183E+02  0.6012462E+02  0.0000000E+00
Ar 13127  0.8435168E+02  0.4523413E+02  0.6287673E+02  0.0000000E+00
Ar 13128  0.8154925E+02  0.4829444E+02  0.6304957E+02  0.0000000E+00
Ar 13129  0.8072928E+02  0.4550103E+02  0.6557880E+02  0.0000000E+00
Ar 13130  0.8408263E+02  0.4760777E+02  0.6617642E+02  0.0000000E+00
Ar 13131  0.8394751E+02  0.4551335E+02  0.6912664E+02  0.0000000E+00
Ar 13132  0.8037986E+02  0.4757099E+02  0.6907670E+02  0.0000000E+00
Ar 13133  0.8151297E+02  0.4521857E+02  0.7245705E+02  0.0000000E+00
Ar 13134  0.8429300E+02  0.4847817E+02  0.7181155E+02  0.0000000E+00
Ar 13135  0.8431824E+02  0.4526705E+02  0.7495142E+02  0.0000000E+00
Ar 13136  0.8172144E+02  0.4822921E+02  0.7451764E+02  0.0000000E+00
Ar 13137  0.8076116E+02  0.4563066E+02  0.7750406E+02  0.0000000E+00
Ar 13138  0.8394355E+02  0.4787108E+02  0.7727903E+02  0.0000000E+00
Ar 13139  0.8325147E+02  0.4541096E+02  0.8036129E+02  0.0000000E+00
Ar 13140  0.8107568E+02  0.4814598E+02  0.8016422E+02  0.0000000E+00
Ar 13141  0.8134846E+02  0.5112426E+02  0.8283221E+02  0.0000000E+00
Ar 13142  0.5116507E-01  0.5470088E+02  0.8303460E+02  0.0000000E+00
Ar 13143  0.8424825E+02  0.5171011E+02  0.8231977E+00  0.0000000E+00
Ar 13144  0.8145785E+02  0.5426587E+02  0.6781812E+00  0.0000000E+00
Ar 13145  0.8116049E+02  0.5200561E+02  0.3835803E+01  0.0000000E+00
Ar 13146  0.8423221E+02  0.5430185E+02  0.3874013E+01  0.0000000E+00
Ar 13147  0.7975163E-01  0.5108732E+02  0.7234820E+01  0.0000000E+00
Ar 13148  0.8115065E+02  0.5434766E+02  0.6396038E+01  0.0000000E+00
Ar 13149  0.8134402E+02  0.5131305E+02  0.9004111E+01  0.0000000E+00
Ar 13150  0.8416146E+02  0.5382414E+02  0.9780714E+01  0.0000000E+00
Ar 13151  0.8381807E+02  0.5082136E+02  0.1222028E+02  0.0000000E+00
Ar 13152  0.8142111E+02  0.5409900E+02  0.1229714E+02  0.0000000E+00
Ar 13153  0.8089976E+02  0.5089423E+02  0.1458843E+02  0.0000000E+00
Ar 13154  0.8338535E+02  0.5419215E+02  0.1501130E+02  0.0000000E+00
Ar 13155  0.8377020E+02  0.5147765E+02  0.1793961E+02  0.0000000E+00
Ar 13156  0.8109433E+02  0.5381111E+02  0.1795371E+02  0.0000000E+00
Ar 13157  0.8086402E+02  0.5117789E+02  0.2083897E+02  0.0000000E+00
Ar 13158  0.8450634E+02  0.5356839E+02  0.2058784E+02  0.0000000E+00
Ar 13159  0.5056946E-01  0.5073893E+02  0.2384764E+02  0.0000000E+00
Ar 13160  0.8183069E+02  0.5395526E+02  0.2386488E+02  0.0000000E+00
Ar 13161  0.8161595E+02  0.5183630E+02  0.2686795E+02  0.0000000E+00
Ar 13162  0.5665432E+00  0.5351335E+02  0.2645502E+02  0.0000000E+00
Ar 13163  0.5095026E-01  0.5136549E+02  0.2933346E+02  0.0000000E+00
Ar 13164  0.8158503E+02  0.5439221E+02  0.2975478E+02  0.0000000E+00
Ar 13165  0.8142403E+02  0.5161312E+02  0.3230672E+02  0.0000000E+00
Ar 13166  0.1736461E+00  0.5423159E+02  0.3201331E+02  0.0000000E+00
Ar 13167  0.8405394E+02  0.5171080E+02  0.3485400E+02  0.0000000E+00
Ar 13168  0.8129065E+02  0.5390365E+02  0.3543480E+02  0.0000000E+00
Ar 13169  0.8177383E+02  0.5122816E+02  0.3832956E+02  0.0000000E+00
Ar 13170  0.8392161E+02  0.5417608E+02  0.3828468E+02  0.0000000E+00
Ar 13171  0.8419067E+02  0.5222540E+02  0.4107728E+02  0.0000000E+00
Ar 13172  0.8093742E+02  0.5430520E+02  0.4080029E+02  0.0000000E+00
Ar 13173  0.8115497E+02  0.5130505E+02  0.4355086E+02  0.0000000E+00
Ar 13174  0.1844629E+00  0.5410390E+02  0.4465373E+02  0.0000000E+00
Ar 13175  0.8415222E+02  0.5082171E+02  0.4656975E+02  0.0000000E+00
Ar 13176  0.8145526E+02  0.5369720E+02  0.4658357E+02  0.0000000E+00
Ar 13177  0.8190194E+02  0.5133841E+02  0.4969490E+02  0.0000000E+00
Ar 13178  0.2844920E+00  0.5413537E+02  0.4902077E+02  0.0000000E+00
Ar 13179 -0.4095306E-01  0.5069527E+02  0.5269117E+02  0.0000000E+00
Ar 13180  0.8173821E+02  0.5363285E+02  0.5236876E+02  0.0000000E+00
Ar 13181  0.8129955E+02  0.5051842E+02  0.5575600E+02  0.0000000E+00
Ar 13182  0.8398257E+02  0.5381084E+02  0.5472747E+02  0.0000000E+00
Ar 13183 -0.6571467E-01  0.5044673E+02  0.5837858E+02  0.0000000E+00
Ar 13184  0.8200163E+02  0.5354468E+02  0.5804624E+02  0.0000000E+00
Ar 13185  0.8097471E+02  0.5054514E+02  0.6058987E+02  0.0000000E+00
Ar 13186  0.2607579E+00  0.5422527E+02  0.6047121E+02  0.0000000E+00
Ar 13187  0.1534842E+00  0.5067425E+02  0.6307801E+02  0.0000000E+00
Ar 13188  0.8192649E+02  0.5386698E+02  0.6341040E+02  0.0000000E+00
Ar 13189  0.8157210E+02  0.4987315E+02  0.6665962E+02  0.0000000E+00
Ar 13190  0.8420780E+02  0.5356701E+02  0.6632517E+02  0.0000000E+00
Ar 13191  0.8431051E+02  0.5084091E+02  0.6855095E+02  0.0000000E+00
Ar 13192  0.8127231E+02  0.5321123E+02  0.6919531E+02  0.0000000E+00
Ar 13193  0.8135951E+02  0.5109375E+02  0.7233410E+02  0.0000000E+00
Ar 13194  0.3378307E+00  0.5332947E+02  0.7118589E+02  0.0000000E+00
Ar 13195  0.8404460E+02  0.5098339E+02  0.7522353E+02  0.0000000E+00
Ar 13196  0.8118832E+02  0.5340514E+02  0.7539202E+02  0.0000000E+00
Ar 13197  0.8108991E+02  0.5078974E+02  0.7792115E+02  0.0000000E+00
Ar 13198  0.8408721E+02  0.5401751E+02  0.7726542E+02  0.0000000E+00
Ar 13199  0.1146044E-01  0.5064931E+02  0.8073444E+02  0.0000000E+00
Ar 13200  0.8122581E+02  0.5383768E+02  0.8056697E+02  0.0000000E+00
Ar 13201  0.8092818E+02  0.5699268E+02  0.8237817E+02  0.0000000E+00
Ar 13202  0.8420954E+02  0.5921905E+02  0.8251525E+02  0.0000000E+00
Ar 13203  0.2016138E+00  0.5684443E+02  0.1551208E+01  0.0000000E+00
Ar 13204  0.8126126E+02  0.5892269E+02  0.1076391E+01  0.0000000E+00
Ar 13205  0.8160101E+02  0.5661870E+02  0.3612599E+01  0.0000000E+00
Ar 13206  0.8375108E+02  0.5953120E+02  0.3777197E+01  0.0000000E+00
Ar 13207  0.8451788E+02  0.5721222E+02  0.6572097E+01  0.0000000E+00
Ar 13208  0.8126560E+02  0.5871103E+02  0.6754367E+01  0.0000000E+00
Ar 13209  0.8075495E+02  0.5667589E+02  0.9258245E+01  0.0000000E+00
Ar 13210  0.8400299E+02  0.5906081E+02  0.9803050E+01  0.0000000E+00
Ar 13211  0.8437079E+02  0.5674475E+02  0.1268444E+02  0.0000000E+00
Ar 13212  0.8116262E+02  0.5900204E+02  0.1237842E+02  0.0000000E+00
Ar 13213  0.8124116E+02  0.5693531E+02  0.1556513E+02  0.0000000E+00
Ar 13214  0.8440351E+02  0.5918891E+02  0.1497981E+02  0.0000000E+00
Ar 13215  0.8373780E+02  0.5684104E+02  0.1810865E+02  0.0000000E+00
Ar 13216  0.8131936E+02  0.5949277E+02  0.1795874E+02  0.0000000E+00
Ar 13217  0.8119018E+02  0.5633686E+02  0.2101279E+02  0.0000000E+00
Ar 13218  0.8382333E+02  0.5930956E+02  0.2114272E+02  0.0000000E+00
Ar 13219  0.1117563E+00  0.5623306E+02  0.2362764E+02  0.0000000E+00
Ar 13220  0.8140525E+02  0.5895763E+02  0.2412759E+02  0.0000000E+00
Ar 13221  0.8166239E+02  0.5642114E+02  0.2663506E+02  0.0000000E+00
Ar 13222  0.8431803E+02  0.5956611E+02  0.2639997E+02  0.0000000E+00
Ar 13223  0.9178155E-01  0.5661017E+02  0.2905068E+02  0.0000000E+00
Ar 13224  0.8156876E+02  0.5892266E+02  0.2924396E+02  0.0000000E+00
Ar 13225  0.8083208E+02  0.5642549E+02  0.3262079E+02  0.0000000E+00
Ar 13226  0.8404777E+02  0.5843595E+02  0.3242867E+02  0.0000000E+00
Ar 13227  0.8346840E+02  0.5637564E+02  0.3577831E+02  0.0000000E+00
Ar 13228  0.8117912E+02  0.5938958E+02  0.3518538E+02  0.0000000E+00
Ar 13229  0.8137497E+02  0.5704893E+02  0.3856495E+02  0.0000000E+00
Ar 13230  0.8377850E+02  0.5937308E+02  0.3810903E+02  0.0000000E+00
Ar 13231  0.8410905E+02  0.5681013E+02  0.4154215E+02  0.0000000E+00
Ar 13232  0.8175781E+02  0.5970543E+02  0.4126843E+02  0.0000000E+00
Ar 13233  0.8154181E+02  0.5635767E+02  0.4381180E+02  0.0000000E+00
Ar 13234  0.8410254E+02  0.5964677E+02  0.4419383E+02  0.0000000E+00
Ar 13235  0.8414135E+02  0.5694911E+02  0.4668124E+02  0.0000000E+00
Ar 13236  0.8148517E+02  0.5985579E+02  0.4667708E+02  0.0000000E+00
Ar 13237  0.8163333E+02  0.5714006E+02  0.4899095E+02  0.0000000E+00
Ar 13238  0.4573857E-01  0.5970690E+02  0.4923572E+02  0.0000000E+00
Ar 13239  0.8440780E+02  0.5639636E+02  0.5161387E+02  0.0000000E+00
Ar 13240  0.8156287E+02  0.5964067E+02  0.5145037E+02  0.0000000E+00
Ar 13241  0.8187285E+02  0.5751022E+02  0.5453654E+02  0.0000000E+00
Ar 13242  0.6967148E+00  0.5888730E+02  0.5416657E+02  0.0000000E+00
Ar 13243  0.8382247E+02  0.5748558E+02  0.5727097E+02  0.0000000E+00
Ar 13244  0.8071138E+02  0.5953718E+02  0.5728923E+02  0.0000000E+00
Ar 13245  0.8086170E+02  0.5697985E+02  0.6105551E+02  0.0000000E+00
Ar 13246  0.8334244E+02  0.5960525E+02  0.6048870E+02  0.0000000E+00
Ar 13247  0.8424950E+02  0.5649866E+02  0.6340701E+02  0.0000000E+00
Ar 13248  0.8158815E+02  0.5908138E+02  0.6391791E+02  0.0000000E+00
Ar 13249  0.8196769E+02  0.5685242E+02  0.6678576E+02  0.0000000E+00
Ar 13250  0.8381996E+02  0.6017989E+02  0.6630472E+02  0.0000000E+00
Ar 13251  0.1672654E+01  0.5660998E+02  0.6792376E+02  0.0000000E+00
Ar 13252  0.8142706E+02  0.5936971E+02  0.7027109E+02  0.0000000E+00
Ar 13253  0.8166758E+02  0.5610003E+02  0.7208830E+02  0.0000000E+00
Ar 13254  0.4784363E+00  0.5955776E+02  0.7213347E+02  0.0000000E+00
Ar 13255  0.3306601E+00  0.5636421E+02  0.7423329E+02  0.0000000E+00
Ar 13256  0.8161530E+02  0.5966735E+02  0.7398134E+02  0.0000000E+00
Ar 13257  0.8122084E+02  0.5665583E+02  0.7679370E+02  0.0000000E+00
Ar 13258  0.3840293E-01  0.5987628E+02  0.7687975E+02  0.0000000E+00
Ar 13259  0.8359063E+02  0.5719228E+02  0.7947974E+02  0.0000000E+00
Ar 13260  0.8104233E+02  0.5967748E+02  0.7991514E+02  0.0000000E+00
Ar 13261  0.8080236E+02  0.6169719E+02  0.8271936E+02  0.0000000E+00
Ar 13262  0.8408311E+02  0.6514719E+02  0.8267013E+02  0.0000000E+00
Ar 13263  0.8444351E+02  0.6243190E+02  0.7229782E+00  0.0000000E+00
Ar 13264  0.8163330E+02  0.6482569E+02  0.8662682E+00  0.0000000E+00
Ar 13265  0.8193153E+02  0.6276535E+02  0.3854989E+01  0.0000000E+00
Ar 13266  0.8456979E+02  0.6488948E+02  0.3663860E+01  0.0000000E+00
Ar 13267  0.8382686E+02  0.6239476E+02  0.7145422E+01  0.0000000E+00
Ar 13268  0.8196876E+02  0.6531433E+02  0.6434294E+01  0.0000000E+00
Ar 13269  0.8153773E+02  0.6268782E+02  0.9585287E+01  0.0000000E+00
Ar 13270  0.8378582E+02  0.6519576E+02  0.1016905E+02  0.0000000E+00
Ar 13271  0.8381313E+02  0.6220843E+02  0.1272147E+02  0.0000000E+00
Ar 13272  0.8160263E+02  0.6528012E+02  0.1266059E+02  0.0000000E+00
Ar 13273  0.8131352E+02  0.6233190E+02  0.1520907E+02  0.0000000E+00
Ar 13274  0.8403494E+02  0.6473095E+02  0.1507954E+02  0.0000000E+00
Ar 13275  0.8366435E+02  0.6254983E+02  0.1835454E+02  0.0000000E+00
Ar 13276  0.8130498E+02  0.6523906E+02  0.1793963E+02  0.0000000E+00
Ar 13277  0.8129870E+02  0.6190763E+02  0.2102419E+02  0.0000000E+00
Ar 13278  0.8313890E+02  0.6511095E+02  0.2106225E+02  0.0000000E+00
Ar 13279  0.8397383E+02  0.6201833E+02  0.2392313E+02  0.0000000E+00
Ar 13280  0.8105036E+02  0.6455106E+02  0.2399927E+02  0.0000000E+00
Ar 13281  0.8115730E+02  0.6206742E+02  0.2656754E+02  0.0000000E+00
Ar 13282  0.8196859E+02  0.6638727E+02  0.2697274E+02  0.0000000E+00
Ar 13283  0.8255251E+02  0.6361213E+02  0.2973733E+02  0.0000000E+00
Ar 13284  0.7977730E+02  0.6562714E+02  0.3020616E+02  0.0000000E+00
Ar 13285  0.8113106E+02  0.6269346E+02  0.3296208E+02  0.0000000E+00
Ar 13286  0.8437111E+02  0.6510420E+02  0.3261447E+02  0.0000000E+00
Ar 13287  0.6082632E-01  0.6164131E+02  0.3540310E+02  0.0000000E+00
Ar 13288  0.8113628E+02  0.6529074E+02  0.3503800E+02  0.0000000E+00
Ar 13289  0.8141040E+02  0.6249934E+02  0.3832034E+02  0.0000000E+00
Ar 13290  0.8445088E+02  0.6504396E+02  0.3737397E+02  0.0000000E+00
Ar 13291  0.1693068E+00  0.6214003E+02  0.4060119E+02  0.0000000E+00
Ar 13292  0.8079483E+02  0.6518479E+02  0.4076214E+02  0.0000000E+00
Ar 13293  0.8124434E+02  0.6269059E+02  0.4375904E+02  0.0000000E+00
Ar 13294  0.7391761E+00  0.6399555E+02  0.4374716E+02  0.0000000E+00
Ar 13295  0.1700709E+00  0.6226457E+02  0.4692196E+02  0.0000000E+00
Ar 13296  0.8125504E+02  0.6509229E+02  0.4661559E+02  0.0000000E+00
Ar 13297  0.8155844E+02  0.6247323E+02  0.4917498E+02  0.0000000E+00
Ar 13298  0.8415942E+02  0.6526698E+02  0.4926468E+02  0.0000000E+00
Ar 13299  0.8413152E+02  0.6211278E+02  0.5184003E+02  0.0000000E+00
Ar 13300  0.8161950E+02  0.6539393E+02  0.5161064E+02  0.0000000E+00
Ar 13301  0.8105571E+02  0.6191362E+02  0.5429373E+02  0.0000000E+00
Ar 13302  0.8417931E+02  0.6469981E+02  0.5446326E+02  0.0000000E+00
Ar 13303  0.8408691E+02  0.6216815E+02  0.5766056E+02  0.0000000E+00
Ar 13304  0.8146766E+02  0.6484409E+02  0.5744856E+02  0.0000000E+00
Ar 13305  0.8165556E+02  0.6291397E+02  0.6071491E+02  0.0000000E+00
Ar 13306  0.8400325E+02  0.6524936E+02  0.5996384E+02  0.0000000E+00
Ar 13307  0.8428838E+02  0.6209227E+02  0.6336830E+02  0.0000000E+00
Ar 13308  0.8119971E+02  0.6564769E+02  0.6325589E+02  0.0000000E+00
Ar 13309  0.8063761E+02  0.6280532E+02  0.6590511E+02  0.0000000E+00
Ar 13310  0.8391684E+02  0.6453778E+02  0.6633846E+02  0.0000000E+00
Ar 13311  0.3088794E-01  0.6197672E+02  0.6943958E+02  0.0000000E+00
Ar 13312  0.8150388E+02  0.6532339E+02  0.6907897E+02  0.0000000E+00
Ar 13313  0.8172165E+02  0.6320821E+02  0.7208155E+02  0.0000000E+00
Ar 13314  0.7069187E+00  0.6480237E+02  0.7163617E+02  0.0000000E+00
Ar 13315  0.5343517E-01  0.6226432E+02  0.7422737E+02  0.0000000E+00
Ar 13316  0.8079017E+02  0.6565411E+02  0.7407326E+02  0.0000000E+00
Ar 13317  0.8112019E+02  0.6263437E+02  0.7640284E+02  0.0000000E+00
Ar 13318  0.8372198E+02  0.6502274E+02  0.7651012E+02  0.0000000E+00
Ar 13319  0.8378717E+02  0.6296752E+02  0.7965263E+02  0.0000000E+00
Ar 13320  0.8091472E+02  0.6537090E+02  0.8092668E+02  0.0000000E+00
Ar 13321  0.8074793E+02  0.6796446E+02  0.8305192E+02  0.0000000E+00
Ar 13322  0.8379671E+02  0.7099893E+02  0.8244583E+02  0.0000000E+00
Ar 13323  0.2052474E+00  0.6838191E+02  0.1408232E+01  0.0000000E+00
Ar 13324  0.8058929E+02  0.7062720E+02  0.1049579E+01  0.0000000E+00
Ar 13325  0.8202317E+02  0.6771486E+02  0.3593886E+01  0.0000000E+00
Ar 13326  0.4198390E+00  0.7060019E+02  0.4412788E+01  0.0000000E+00
Ar 13327  0.5424860E+00  0.6818245E+02  0.7696366E+01  0.0000000E+00
Ar 13328  0.8078298E+02  0.6998140E+02  0.6963308E+01  0.0000000E+00
Ar 13329  0.8095085E+02  0.6809788E+02  0.9822557E+01  0.0000000E+00
Ar 13330  0.8435551E+02  0.7126174E+02  0.1053972E+02  0.0000000E+00
Ar 13331  0.1338256E+00  0.6767878E+02  0.1304844E+02  0.0000000E+00
Ar 13332  0.8203636E+02  0.7081076E+02  0.1319705E+02  0.0000000E+00
Ar 13333  0.8169004E+02  0.6762282E+02  0.1513981E+02  0.0000000E+00
Ar 13334  0.3648424E+00  0.7019429E+02  0.1613711E+02  0.0000000E+00
Ar 13335  0.8447323E+02  0.6745386E+02  0.1832560E+02  0.0000000E+00
Ar 13336  0.8139941E+02  0.7122821E+02  0.1822277E+02  0.0000000E+00
Ar 13337  0.8148154E+02  0.6789798E+02  0.2029432E+02  0.0000000E+00
Ar 13338  0.2000812E+00  0.7029827E+02  0.2056556E+02  0.0000000E+00
Ar 13339  0.8309337E+02  0.6791944E+02  0.2318054E+02  0.0000000E+00
Ar 13340  0.8085964E+02  0.7136599E+02  0.2286042E+02  0.0000000E+00
Ar 13341  0.7957843E+02  0.6945560E+02  0.2867139E+02  0.0000000E+00
Ar 13342  0.8195637E+02  0.6989973E+02  0.2609762E+02  0.0000000E+00
Ar 13343  0.8422830E+02  0.6806723E+02  0.2982372E+02  0.0000000E+00
Ar 13344  0.8208564E+02  0.7131814E+02  0.3008601E+02  0.0000000E+00
Ar 13345  0.8199590E+02  0.6798425E+02  0.3219922E+02  0.0000000E+00
Ar 13346  0.2619908E+00  0.7080042E+02  0.3331289E+02  0.0000000E+00
Ar 13347  0.8412132E+02  0.6801175E+02  0.3509803E+02  0.0000000E+00
Ar 13348  0.8150383E+02  0.7115830E+02  0.3533269E+02  0.0000000E+00
Ar 13349  0.8157116E+02  0.6748753E+02  0.3792423E+02  0.0000000E+00
Ar 13350  0.8424170E+02  0.7042000E+02  0.3774524E+02  0.0000000E+00
Ar 13351  0.8431521E+02  0.6756428E+02  0.4022080E+02  0.0000000E+00
Ar 13352  0.8132221E+02  0.7020147E+02  0.4115522E+02  0.0000000E+00
Ar 13353  0.8196024E+02  0.6732313E+02  0.4371470E+02  0.0000000E+00
Ar 13354  0.8411099E+02  0.7039751E+02  0.4341661E+02  0.0000000E+00
Ar 13355  0.8433294E+02  0.6817181E+02  0.4665264E+02  0.0000000E+00
Ar 13356  0.8133701E+02  0.7096456E+02  0.4639092E+02  0.0000000E+00
Ar 13357  0.8176238E+02  0.6814698E+02  0.4947415E+02  0.0000000E+00
Ar 13358  0.8378923E+02  0.7104088E+02  0.4925502E+02  0.0000000E+00
Ar 13359  0.8351069E-01  0.6750769E+02  0.5226193E+02  0.0000000E+00
Ar 13360  0.8175602E+02  0.7080323E+02  0.5236873E+02  0.0000000E+00
Ar 13361  0.8191550E+02  0.6748528E+02  0.5468410E+02  0.0000000E+00
Ar 13362  0.8388326E+02  0.7028736E+02  0.5520614E+02  0.0000000E+00
Ar 13363  0.8418877E+02  0.6755308E+02  0.5742874E+02  0.0000000E+00
Ar 13364  0.8171328E+02  0.7021104E+02  0.5799184E+02  0.0000000E+00
Ar 13365  0.8105087E+02  0.6835206E+02  0.6080637E+02  0.0000000E+00
Ar 13366  0.8418831E+02  0.7066533E+02  0.6057957E+02  0.0000000E+00
Ar 13367  0.8430960E+02  0.6822716E+02  0.6345028E+02  0.0000000E+00
Ar 13368  0.8161706E+02  0.7133193E+02  0.6325470E+02  0.0000000E+00
Ar 13369  0.8231607E+02  0.6804895E+02  0.6623820E+02  0.0000000E+00
Ar 13370  0.7021029E-01  0.7053523E+02  0.6610510E+02  0.0000000E+00
Ar 13371  0.8422956E+02  0.6757084E+02  0.6923863E+02  0.0000000E+00
Ar 13372  0.8173224E+02  0.7120026E+02  0.6829465E+02  0.0000000E+00
Ar 13373  0.8129909E+02  0.6825849E+02  0.7131834E+02  0.0000000E+00
Ar 13374  0.8401762E+02  0.7106482E+02  0.7116780E+02  0.0000000E+00
Ar 13375  0.8411936E+02  0.6807749E+02  0.7365904E+02  0.0000000E+00
Ar 13376  0.8015744E+02  0.7013609E+02  0.7453603E+02  0.0000000E+00
Ar 13377  0.8140003E+02  0.6775676E+02  0.7683670E+02  0.0000000E+00
Ar 13378  0.3574807E-01  0.7066510E+02  0.7697578E+02  0.0000000E+00
Ar 13379  0.8400439E+02  0.6768546E+02  0.7920513E+02  0.0000000E+00
Ar 13380  0.8093178E+02  0.7099504E+02  0.7948811E+02  0.0000000E+00
Ar 13381  0.8103186E+02  0.7360789E+02  0.8347364E+02  0.0000000E+00
Ar 13382  0.8396980E+02  0.7581281E+02  0.8175418E+02  0.0000000E+00
Ar 13383  0.8450198E+02  0.7303824E+02  0.1148162E+01  0.0000000E+00
Ar 13384  0.8276059E+02  0.7645763E+02  0.1671513E+01  0.0000000E+00
Ar 13385  0.8148246E+02  0.7354550E+02  0.4303096E+01  0.0000000E+00
Ar 13386  0.6410570E+00  0.7681311E+02  0.4368273E+01  0.0000000E+00
Ar 13387  0.1832922E+00  0.7301084E+02  0.7532918E+01  0.0000000E+00
Ar 13388  0.8232119E+02  0.7610955E+02  0.6567555E+01  0.0000000E+00
Ar 13389  0.8138358E+02  0.7298736E+02  0.9828635E+01  0.0000000E+00
Ar 13390  0.1735363E+00  0.7625039E+02  0.1045056E+02  0.0000000E+00
Ar 13391  0.8456737E+02  0.7393774E+02  0.1281415E+02  0.0000000E+00
Ar 13392  0.8161648E+02  0.7607013E+02  0.1255947E+02  0.0000000E+00
Ar 13393  0.8183106E+02  0.7362308E+02  0.1537741E+02  0.0000000E+00
Ar 13394  0.8427142E+02  0.7650258E+02  0.1527794E+02  0.0000000E+00
Ar 13395  0.2114129E+00  0.7349746E+02  0.1783900E+02  0.0000000E+00
Ar 13396  0.8099438E+02  0.7634434E+02  0.1815323E+02  0.0000000E+00
Ar 13397  0.8230669E+02  0.7386727E+02  0.2053091E+02  0.0000000E+00
Ar 13398  0.8381309E+02  0.7706328E+02  0.2106505E+02  0.0000000E+00
Ar 13399  0.8398499E+02  0.7289312E+02  0.2449039E+02  0.0000000E+00
Ar 13400  0.8033975E+02  0.7659248E+02  0.2493271E+02  0.0000000E+00
Ar 13401  0.8029944E+02  0.7305685E+02  0.2688597E+02  0.0000000E+00
Ar 13402  0.8350477E+02  0.7575024E+02  0.2698838E+02  0.0000000E+00
Ar 13403  0.5660593E-01  0.7136469E+02  0.2807473E+02  0.0000000E+00
Ar 13404  0.8040973E+02  0.7580977E+02  0.2893038E+02  0.0000000E+00
Ar 13405  0.8112062E+02  0.7387290E+02  0.3256361E+02  0.0000000E+00
Ar 13406  0.8436284E+02  0.7544487E+02  0.3119639E+02  0.0000000E+00
Ar 13407  0.3925159E+00  0.7394762E+02  0.3510731E+02  0.0000000E+00
Ar 13408  0.8138214E+02  0.7711933E+02  0.3553976E+02  0.0000000E+00
Ar 13409  0.8186510E+02  0.7378042E+02  0.3775847E+02  0.0000000E+00
Ar 13410  0.8421188E+02  0.7663206E+02  0.3816572E+02  0.0000000E+00
Ar 13411  0.8342604E+02  0.7365771E+02  0.4146341E+02  0.0000000E+00
Ar 13412  0.8145027E+02  0.7626373E+02  0.4092720E+02  0.0000000E+00
Ar 13413  0.8052393E+02  0.7340719E+02  0.4330709E+02  0.0000000E+00
Ar 13414  0.8439043E+02  0.7644840E+02  0.4310486E+02  0.0000000E+00
Ar 13415  0.8438457E+02  0.7380743E+02  0.4565682E+02  0.0000000E+00
Ar 13416  0.8165168E+02  0.7617971E+02  0.4580949E+02  0.0000000E+00
Ar 13417  0.8183347E+02  0.7408691E+02  0.4951588E+02  0.0000000E+00
Ar 13418  0.8446530E+02  0.7636824E+02  0.4933674E+02  0.0000000E+00
Ar 13419  0.8433116E+02  0.7356632E+02  0.5207748E+02  0.0000000E+00
Ar 13420  0.8166474E+02  0.7663280E+02  0.5271732E+02  0.0000000E+00
Ar 13421  0.8155553E+02  0.7385584E+02  0.5495115E+02  0.0000000E+00
Ar 13422  0.8431046E+02  0.7646351E+02  0.5510863E+02  0.0000000E+00
Ar 13423  0.8379698E+02  0.7330506E+02  0.5802206E+02  0.0000000E+00
Ar 13424  0.8119107E+02  0.7658030E+02  0.5720616E+02  0.0000000E+00
Ar 13425  0.8097843E+02  0.7305811E+02  0.5990518E+02  0.0000000E+00
Ar 13426  0.8443604E+02  0.7663392E+02  0.6013481E+02  0.0000000E+00
Ar 13427  0.8400473E+02  0.7397511E+02  0.6270057E+02  0.0000000E+00
Ar 13428  0.8147503E+02  0.7662648E+02  0.6282098E+02  0.0000000E+00
Ar 13429  0.8087391E+02  0.7423514E+02  0.6522455E+02  0.0000000E+00
Ar 13430  0.8422962E+02  0.7628686E+02  0.6579340E+02  0.0000000E+00
Ar 13431  0.6879166E+00  0.7350760E+02  0.6930049E+02  0.0000000E+00
Ar 13432  0.8168192E+02  0.7523292E+02  0.6846308E+02  0.0000000E+00
Ar 13433  0.8080176E+02  0.7299470E+02  0.7178013E+02  0.0000000E+00
Ar 13434  0.1722992E+00  0.7638162E+02  0.7164257E+02  0.0000000E+00
Ar 13435  0.8414546E+02  0.7339075E+02  0.7368783E+02  0.0000000E+00
Ar 13436  0.8144508E+02  0.7604661E+02  0.7352419E+02  0.0000000E+00
Ar 13437  0.8094068E+02  0.7297418E+02  0.7664619E+02  0.0000000E+00
Ar 13438  0.6492568E+00  0.7544724E+02  0.7707237E+02  0.0000000E+00
Ar 13439  0.2682358E+00  0.7286483E+02  0.7967910E+02  0.0000000E+00
Ar 13440  0.8119723E+02  0.7735947E+02  0.7941709E+02  0.0000000E+00
Ar 13441  0.8161078E+02  0.7885705E+02  0.8258362E+02  0.0000000E+00
Ar 13442  0.1266501E+00  0.8136826E+02  0.8258092E+02  0.0000000E+00
Ar 13443  0.1789689E+00  0.7917392E+02  0.1393269E+01  0.0000000E+00
Ar 13444  0.8129406E+02  0.8128692E+02  0.9685516E+00  0.0000000E+00
Ar 13445  0.8175569E+02  0.7883995E+02  0.4212048E+01  0.0000000E+00
Ar 13446  0.5446690E+00  0.8170125E+02  0.3875533E+01  0.0000000E+00
Ar 13447  0.8424654E+02  0.7928021E+02  0.6984550E+01  0.0000000E+00
Ar 13448  0.8132612E+02  0.8146255E+02  0.6595689E+01  0.0000000E+00
Ar 13449  0.8133849E+02  0.7890536E+02  0.9430964E+01  0.0000000E+00
Ar 13450  0.8424722E+02  0.8166628E+02  0.9439169E+01  0.0000000E+00
Ar 13451  0.8438646E+02  0.7909825E+02  0.1246891E+02  0.0000000E+00
Ar 13452  0.8163872E+02  0.8192273E+02  0.1127816E+02  0.0000000E+00
Ar 13453  0.8196847E+02  0.7912176E+02  0.1522279E+02  0.0000000E+00
Ar 13454  0.8300835E+02  0.8275414E+02  0.1538857E+02  0.0000000E+00
Ar 13455  0.8412272E+02  0.7956653E+02  0.1803923E+02  0.0000000E+00
Ar 13456  0.8089298E+02  0.8146015E+02  0.1788169E+02  0.0000000E+00
Ar 13457  0.8085814E+02  0.7912133E+02  0.2062040E+02  0.0000000E+00
Ar 13458  0.8293504E+02  0.8225546E+02  0.2075683E+02  0.0000000E+00
Ar 13459  0.8358234E+02  0.7942722E+02  0.2406053E+02  0.0000000E+00
Ar 13460  0.8062389E+02  0.8146127E+02  0.2357077E+02  0.0000000E+00
Ar 13461  0.8127346E+02  0.8036425E+02  0.2672843E+02  0.0000000E+00
Ar 13462  0.8392520E+02  0.8250460E+02  0.2715644E+02  0.0000000E+00
Ar 13463  0.8298011E+02  0.7835632E+02  0.2953797E+02  0.0000000E+00
Ar 13464  0.8153938E+02  0.8240978E+02  0.3018941E+02  0.0000000E+00
Ar 13465  0.8085229E+02  0.7946672E+02  0.3225791E+02  0.0000000E+00
Ar 13466  0.8381730E+02  0.8181942E+02  0.3268481E+02  0.0000000E+00
Ar 13467  0.8425515E+02  0.7926365E+02  0.3471281E+02  0.0000000E+00
Ar 13468  0.8107691E+02  0.8096608E+02  0.3523597E+02  0.0000000E+00
Ar 13469  0.8150336E+02  0.7899799E+02  0.3840205E+02  0.0000000E+00
Ar 13470  0.8378062E+02  0.8181620E+02  0.3775746E+02  0.0000000E+00
Ar 13471  0.8390235E+02  0.7962732E+02  0.4080519E+02  0.0000000E+00
Ar 13472  0.8111950E+02  0.8213272E+02  0.4074587E+02  0.0000000E+00
Ar 13473  0.8108472E+02  0.7953147E+02  0.4351491E+02  0.0000000E+00
Ar 13474  0.8372518E+02  0.8189535E+02  0.4400175E+02  0.0000000E+00
Ar 13475  0.8432996E+02  0.7900295E+02  0.4635590E+02  0.0000000E+00
Ar 13476  0.8082285E+02  0.8158352E+02  0.4724309E+02  0.0000000E+00
Ar 13477  0.8118289E+02  0.7928436E+02  0.4967320E+02  0.0000000E+00
Ar 13478  0.8375659E+02  0.8200477E+02  0.4918935E+02  0.0000000E+00
Ar 13479  0.8373514E+02  0.7975268E+02  0.5220458E+02  0.0000000E+00
Ar 13480  0.8096360E+02  0.8239277E+02  0.5198357E+02  0.0000000E+00
Ar 13481  0.8064422E+02  0.7983862E+02  0.5454695E+02  0.0000000E+00
Ar 13482  0.8400147E+02  0.8237073E+02  0.5520412E+02  0.0000000E+00
Ar 13483  0.8419532E+02  0.7935791E+02  0.5730982E+02  0.0000000E+00
Ar 13484  0.8128839E+02  0.8216724E+02  0.5743427E+02  0.0000000E+00
Ar 13485  0.8165359E+02  0.7928898E+02  0.6019653E+02  0.0000000E+00
Ar 13486 -0.1782328E-01  0.8248184E+02  0.6050837E+02  0.0000000E+00
Ar 13487  0.8402481E+02  0.7917506E+02  0.6292523E+02  0.0000000E+00
Ar 13488  0.8127846E+02  0.8179482E+02  0.6328975E+02  0.0000000E+00
Ar 13489  0.8175653E+02  0.7914896E+02  0.6594338E+02  0.0000000E+00
Ar 13490  0.8414784E+02  0.8148715E+02  0.6615897E+02  0.0000000E+00
Ar 13491  0.8409405E+02  0.7867222E+02  0.6879621E+02  0.0000000E+00
Ar 13492  0.8234777E+02  0.8147786E+02  0.6902335E+02  0.0000000E+00
Ar 13493  0.8167689E+02  0.7890537E+02  0.7150463E+02  0.0000000E+00
Ar 13494  0.5878873E+00  0.8144088E+02  0.7168840E+02  0.0000000E+00
Ar 13495  0.8437711E+02  0.7904208E+02  0.7414333E+02  0.0000000E+00
Ar 13496  0.8122979E+02  0.8177746E+02  0.7400934E+02  0.0000000E+00
Ar 13497  0.8130897E+02  0.7884458E+02  0.7618074E+02  0.0000000E+00
Ar 13498  0.8416964E+02  0.8082084E+02  0.7730636E+02  0.0000000E+00
Ar 13499  0.2688723E+00  0.7858135E+02  0.8017804E+02  0.0000000E+00
Ar 13500  0.8172532E+02  0.8196871E+02  0.7984332E+02  0.0000000E+00
