        1372
Lattice="  0.3778015E+02  0.0000000E+00  0.0000000E+00  0.0000000E+00  0.3778015E+02  0.0000000E+00  0.0000000E+00  0.0000000E+00  0.3778015E+02" Properties=species:S:1:id:I:1:pos:R:3:tempK:R:1
Ar    1  0.3678709E+02  0.3678709E+02  0.3678709E+02  0.5370012E+03
Ar    2  0.1716685E+01  0.1716685E+01  0.3712563E+02  0.1749665E+03
Ar    3  0.1716685E+01  0.3712563E+02  0.1716685E+01  0.1749665E+03
Ar    4  0.3712563E+02  0.1716685E+01  0.1716685E+01  0.1749665E+03
Ar    5  0.3699294E+02  0.3699294E+02  0.4564033E+01  0.2366390E+03
Ar    6  0.1887249E+01  0.1887249E+01  0.4788539E+01  0.4944179E+02
Ar    7  0.2241306E+01  0.3749748E+02  0.7777152E+01  0.1913852E+03
Ar    8  0.3749748E+02  0.2241306E+01  0.7777152E+01  0.1913852E+03
Ar    9  0.3747421E+02  0.3747421E+02  0.1086064E+02  0.4269852E+03
Ar   10  0.2081357E+01  0.2081357E+01  0.1091789E+02  0.3342637E+03
Ar   11  0.2456942E+01  0.3759890E+02  0.1396724E+02  0.2341600E+03
Ar   12  0.3759890E+02  0.2456942E+01  0.1396724E+02  0.2341600E+03
Ar   13  0.9038502E-01  0.9038502E-01  0.1717048E+02  0.3338686E+03
Ar   14  0.2462923E+01  0.2462923E+01  0.1730547E+02  0.2694664E+02
Ar   15  0.2460232E+01  0.3754101E+02  0.1996743E+02  0.3672709E+02
Ar   16  0.3754101E+02  0.2460232E+01  0.1996743E+02  0.3672709E+02
Ar   17  0.3743110E+02  0.3743110E+02  0.2247810E+02  0.1516363E+04
Ar   18  0.2267331E+01  0.2267331E+01  0.2301717E+02  0.5662540E+03
Ar   19  0.2173044E+01  0.3748522E+02  0.2517562E+02  0.1297554E+03
Ar   20  0.3748522E+02  0.2173044E+01  0.2517562E+02  0.1297554E+03
Ar   21  0.3701273E+02  0.3701273E+02  0.2720752E+02  0.6253050E+03
Ar   22  0.2565699E+01  0.2565699E+01  0.2730751E+02  0.9846456E+02
Ar   23  0.2100996E+01  0.3730765E+02  0.2949139E+02  0.7242148E+02
Ar   24  0.3730765E+02  0.2100996E+01  0.2949139E+02  0.7242148E+02
Ar   25  0.3687752E+02  0.3687752E+02  0.3214247E+02  0.3899504E+03
Ar   26  0.2022981E+01  0.2022981E+01  0.3221988E+02  0.1707532E+03
Ar   27  0.1760172E+01  0.3696779E+02  0.3439585E+02  0.1210245E+03
Ar   28  0.3696779E+02  0.1760172E+01  0.3439585E+02  0.1210245E+03
Ar   29  0.3699294E+02  0.4564033E+01  0.3699294E+02  0.2366390E+03
Ar   30  0.2241306E+01  0.7777152E+01  0.3749748E+02  0.1913852E+03
Ar   31  0.1887249E+01  0.4788539E+01  0.1887249E+01  0.4944179E+02
Ar   32  0.3749748E+02  0.7777152E+01  0.2241306E+01  0.1913852E+03
Ar   33  0.3763189E+02  0.4712578E+01  0.4712578E+01  0.2966592E+03
Ar   34  0.2286336E+01  0.7506172E+01  0.5014581E+01  0.1298309E+03
Ar   35  0.2286336E+01  0.5014581E+01  0.7506172E+01  0.1298309E+03
Ar   36  0.3744925E+02  0.7792977E+01  0.7792977E+01  0.2527086E+03
Ar   37  0.3777395E+02  0.4808033E+01  0.1056835E+02  0.1602552E+03
Ar   38  0.2281748E+01  0.7496004E+01  0.1055347E+02  0.1492753E+03
Ar   39  0.2369038E+01  0.4947346E+01  0.1359578E+02  0.1787423E+03
Ar   40  0.2404142E+00  0.7815573E+01  0.1365655E+02  0.2879490E+03
Ar   41  0.3767071E+02  0.5232450E+01  0.1675542E+02  0.8635954E+02
Ar   42  0.2523673E+01  0.8019376E+01  0.1649919E+02  0.1561398E+03
Ar   43  0.2550830E+01  0.5317383E+01  0.1979703E+02  0.1928103E+02
Ar   44  0.3776057E+02  0.8117668E+01  0.1984899E+02  0.6688042E+03
Ar   45  0.3769569E+02  0.5172388E+01  0.2248434E+02  0.2144225E+03
Ar   46  0.2511620E+01  0.8267442E+01  0.2250831E+02  0.6277926E+03
Ar   47  0.2523223E+01  0.5593387E+01  0.2509399E+02  0.1726617E+03
Ar   48  0.3775306E+02  0.8311443E+01  0.2494286E+02  0.2730057E+03
Ar   49  0.3740678E+02  0.5569782E+01  0.2746625E+02  0.1686297E+03
Ar   50  0.2414077E+01  0.8168146E+01  0.2778190E+02  0.2628358E+03
Ar   51  0.2342595E+01  0.4949553E+01  0.3002572E+02  0.2309309E+02
Ar   52  0.3749309E+02  0.8539986E+01  0.3000037E+02  0.2013412E+03
Ar   53  0.3718870E+02  0.5434338E+01  0.3231120E+02  0.2291506E+03
Ar   54  0.2263065E+01  0.8086340E+01  0.3269287E+02  0.2093261E+03
Ar   55  0.2319334E+01  0.4968477E+01  0.3486680E+02  0.8679564E+02
Ar   56  0.3725723E+02  0.8175006E+01  0.3491141E+02  0.9138563E+03
Ar   57  0.3747421E+02  0.1086064E+02  0.3747421E+02  0.4269852E+03
Ar   58  0.2456942E+01  0.1396724E+02  0.3759890E+02  0.2341600E+03
Ar   59  0.2081357E+01  0.1091789E+02  0.2081357E+01  0.3342637E+03
Ar   60  0.3759890E+02  0.1396724E+02  0.2456942E+01  0.2341600E+03
Ar   61  0.3777395E+02  0.1056835E+02  0.4808033E+01  0.1602552E+03
Ar   62  0.2369038E+01  0.1359578E+02  0.4947346E+01  0.1787423E+03
Ar   63  0.2281748E+01  0.1055347E+02  0.7496004E+01  0.1492753E+03
Ar   64  0.2404142E+00  0.1365655E+02  0.7815573E+01  0.2879490E+03
Ar   65  0.2121359E+00  0.1068752E+02  0.1068752E+02  0.1216448E+03
Ar   66  0.2685555E+01  0.1338170E+02  0.1042411E+02  0.4031582E+02
Ar   67  0.2685555E+01  0.1042411E+02  0.1338170E+02  0.4031582E+02
Ar   68  0.2940258E+00  0.1320626E+02  0.1320626E+02  0.3083706E+03
Ar   69  0.3595084E+00  0.1047950E+02  0.1637525E+02  0.9033841E+02
Ar   70  0.3132878E+01  0.1320737E+02  0.1581488E+02  0.8944356E+02
Ar   71  0.3009847E+01  0.1041406E+02  0.1897250E+02  0.1055499E+03
Ar   72  0.6492348E+00  0.1337938E+02  0.1889575E+02  0.8163284E+02
Ar   73  0.4789382E+00  0.1087410E+02  0.2227941E+02  0.3782946E+03
Ar   74  0.3104606E+01  0.1315544E+02  0.2177306E+02  0.4670289E+03
Ar   75  0.2685029E+01  0.1100184E+02  0.2533683E+02  0.2196008E+03
Ar   76  0.7906584E+00  0.1419063E+02  0.2458682E+02  0.6696076E+03
Ar   77  0.1496127E+00  0.1138741E+02  0.2760442E+02  0.1507882E+03
Ar   78  0.2981493E+01  0.1394260E+02  0.2747562E+02  0.1534552E+03
Ar   79  0.2839775E+01  0.1111790E+02  0.3030527E+02  0.5725511E+02
Ar   80  0.2186837E+00  0.1405936E+02  0.3008571E+02  0.6253415E+01
Ar   81  0.2944239E-01  0.1131304E+02  0.3253841E+02  0.7189730E+02
Ar   82  0.2847967E+01  0.1412816E+02  0.3285848E+02  0.2060560E+03
Ar   83  0.2517636E+01  0.1082288E+02  0.3501677E+02  0.2511092E+03
Ar   84  0.3777994E+02  0.1419051E+02  0.3515676E+02  0.6371939E+02
Ar   85  0.9038502E-01  0.1717048E+02  0.9038502E-01  0.3338686E+03
Ar   86  0.2460232E+01  0.1996743E+02  0.3754101E+02  0.3672709E+02
Ar   87  0.2462923E+01  0.1730547E+02  0.2462923E+01  0.2694664E+02
Ar   88  0.3754101E+02  0.1996743E+02  0.2460232E+01  0.3672709E+02
Ar   89  0.3767071E+02  0.1675542E+02  0.5232450E+01  0.8635954E+02
Ar   90  0.2550830E+01  0.1979703E+02  0.5317383E+01  0.1928103E+02
Ar   91  0.2523673E+01  0.1649919E+02  0.8019376E+01  0.1561398E+03
Ar   92  0.3776057E+02  0.1984899E+02  0.8117668E+01  0.6688042E+03
Ar   93  0.3595084E+00  0.1637525E+02  0.1047950E+02  0.9033841E+02
Ar   94  0.3009847E+01  0.1897250E+02  0.1041406E+02  0.1055499E+03
Ar   95  0.3132878E+01  0.1581488E+02  0.1320737E+02  0.8944356E+02
Ar   96  0.6492348E+00  0.1889575E+02  0.1337938E+02  0.8163284E+02
Ar   97  0.9947189E+00  0.1610216E+02  0.1610216E+02  0.4248898E+03
Ar   98  0.3458478E+01  0.1885562E+02  0.1573907E+02  0.2855909E+03
Ar   99  0.3458478E+01  0.1573907E+02  0.1885562E+02  0.2855909E+03
Ar  100  0.1579024E+01  0.1889997E+02  0.1889997E+02  0.1819631E+02
Ar  101  0.1257606E+01  0.1648310E+02  0.2161045E+02  0.2521740E+03
Ar  102  0.4000218E+01  0.1919471E+02  0.2189298E+02  0.1145714E+03
Ar  103  0.3659315E+01  0.1661809E+02  0.2460279E+02  0.7847801E+02
Ar  104  0.1119627E+01  0.1939497E+02  0.2440647E+02  0.8185423E+02
Ar  105  0.7952394E+00  0.1687245E+02  0.2711145E+02  0.1832667E+03
Ar  106  0.3857517E+01  0.1921849E+02  0.2717713E+02  0.4823546E+03
Ar  107  0.3085672E+01  0.1670028E+02  0.3026448E+02  0.2092751E+02
Ar  108  0.5748880E+00  0.1937775E+02  0.2951478E+02  0.1861576E+03
Ar  109  0.1363111E+00  0.1688827E+02  0.3253468E+02  0.1018202E+03
Ar  110  0.2921403E+01  0.1978263E+02  0.3253248E+02  0.5236417E+03
Ar  111  0.2545880E+01  0.1680046E+02  0.3484321E+02  0.3807913E+03
Ar  112  0.3761344E+02  0.1985397E+02  0.3487889E+02  0.4249632E+03
Ar  113  0.3743110E+02  0.2247810E+02  0.3743110E+02  0.1516363E+04
Ar  114  0.2173044E+01  0.2517562E+02  0.3748522E+02  0.1297554E+03
Ar  115  0.2267331E+01  0.2301717E+02  0.2267331E+01  0.5662540E+03
Ar  116  0.3748522E+02  0.2517562E+02  0.2173044E+01  0.1297554E+03
Ar  117  0.3769569E+02  0.2248434E+02  0.5172388E+01  0.2144225E+03
Ar  118  0.2523223E+01  0.2509399E+02  0.5593387E+01  0.1726617E+03
Ar  119  0.2511620E+01  0.2250831E+02  0.8267442E+01  0.6277926E+03
Ar  120  0.3775306E+02  0.2494286E+02  0.8311443E+01  0.2730057E+03
Ar  121  0.4789382E+00  0.2227941E+02  0.1087410E+02  0.3782946E+03
Ar  122  0.2685029E+01  0.2533683E+02  0.1100184E+02  0.2196008E+03
Ar  123  0.3104606E+01  0.2177306E+02  0.1315544E+02  0.4670289E+03
Ar  124  0.7906584E+00  0.2458682E+02  0.1419063E+02  0.6696076E+03
Ar  125  0.1257606E+01  0.2161045E+02  0.1648310E+02  0.2521740E+03
Ar  126  0.3659315E+01  0.2460279E+02  0.1661809E+02  0.7847801E+02
Ar  127  0.4000218E+01  0.2189298E+02  0.1919471E+02  0.1145714E+03
Ar  128  0.1119627E+01  0.2440647E+02  0.1939497E+02  0.8185423E+02
Ar  129  0.1386780E+01  0.2194084E+02  0.2194084E+02  0.1786801E+03
Ar  130  0.4139993E+01  0.2482562E+02  0.2167669E+02  0.1918587E+02
Ar  131  0.4139993E+01  0.2167669E+02  0.2482562E+02  0.1918587E+02
Ar  132  0.1669176E+00  0.2466258E+02  0.2466258E+02  0.8980084E+01
Ar  133  0.1079888E+01  0.2162455E+02  0.2662624E+02  0.4280052E+03
Ar  134  0.4034219E+01  0.2420691E+02  0.2703380E+02  0.2158822E+03
Ar  135  0.3386255E+01  0.2195672E+02  0.2962060E+02  0.1443007E+03
Ar  136  0.3772722E+02  0.2395785E+02  0.2894637E+02  0.2094772E+03
Ar  137  0.5294794E-01  0.2181922E+02  0.3225269E+02  0.6183116E+03
Ar  138  0.2907509E+01  0.2442031E+02  0.3215450E+02  0.1398031E+03
Ar  139  0.2533430E+01  0.2234983E+02  0.3487220E+02  0.2315678E+03
Ar  140  0.3729079E+02  0.2443879E+02  0.3459879E+02  0.1679250E+03
Ar  141  0.3701273E+02  0.2720752E+02  0.3701273E+02  0.6253050E+03
Ar  142  0.2100996E+01  0.2949139E+02  0.3730765E+02  0.7242148E+02
Ar  143  0.2565699E+01  0.2730751E+02  0.2565699E+01  0.9846456E+02
Ar  144  0.3730765E+02  0.2949139E+02  0.2100996E+01  0.7242148E+02
Ar  145  0.3740678E+02  0.2746625E+02  0.5569782E+01  0.1686297E+03
Ar  146  0.2342595E+01  0.3002572E+02  0.4949553E+01  0.2309309E+02
Ar  147  0.2414077E+01  0.2778190E+02  0.8168146E+01  0.2628358E+03
Ar  148  0.3749309E+02  0.3000037E+02  0.8539986E+01  0.2013412E+03
Ar  149  0.1496127E+00  0.2760442E+02  0.1138741E+02  0.1507882E+03
Ar  150  0.2839775E+01  0.3030527E+02  0.1111790E+02  0.5725511E+02
Ar  151  0.2981493E+01  0.2747562E+02  0.1394260E+02  0.1534552E+03
Ar  152  0.2186837E+00  0.3008571E+02  0.1405936E+02  0.6253415E+01
Ar  153  0.7952394E+00  0.2711145E+02  0.1687245E+02  0.1832667E+03
Ar  154  0.3085672E+01  0.3026448E+02  0.1670028E+02  0.2092751E+02
Ar  155  0.3857517E+01  0.2717713E+02  0.1921849E+02  0.4823546E+03
Ar  156  0.5748880E+00  0.2951478E+02  0.1937775E+02  0.1861576E+03
Ar  157  0.1079888E+01  0.2662624E+02  0.2162455E+02  0.4280052E+03
Ar  158  0.3386255E+01  0.2962060E+02  0.2195672E+02  0.1443007E+03
Ar  159  0.4034219E+01  0.2703380E+02  0.2420691E+02  0.2158822E+03
Ar  160  0.3772722E+02  0.2894637E+02  0.2395785E+02  0.2094772E+03
Ar  161  0.9836395E-01  0.2708119E+02  0.2708119E+02  0.1377122E+03
Ar  162  0.3198121E+01  0.2965030E+02  0.2698414E+02  0.3522954E+02
Ar  163  0.3198121E+01  0.2698414E+02  0.2965030E+02  0.3522954E+02
Ar  164  0.3777471E+02  0.2969919E+02  0.2969919E+02  0.3695375E+02
Ar  165  0.3734570E+02  0.2639345E+02  0.3145028E+02  0.3878956E+03
Ar  166  0.3375136E+01  0.2964439E+02  0.3215230E+02  0.8167009E+02
Ar  167  0.2168120E+01  0.2696734E+02  0.3438558E+02  0.2649999E+03
Ar  168  0.3693912E+02  0.2937226E+02  0.3396177E+02  0.8758089E+02
Ar  169  0.3687752E+02  0.3214247E+02  0.3687752E+02  0.3899504E+03
Ar  170  0.1760172E+01  0.3439585E+02  0.3696779E+02  0.1210245E+03
Ar  171  0.2022981E+01  0.3221988E+02  0.2022981E+01  0.1707532E+03
Ar  172  0.3696779E+02  0.3439585E+02  0.1760172E+01  0.1210245E+03
Ar  173  0.3718870E+02  0.3231120E+02  0.5434338E+01  0.2291506E+03
Ar  174  0.2319334E+01  0.3486680E+02  0.4968477E+01  0.8679564E+02
Ar  175  0.2263065E+01  0.3269287E+02  0.8086340E+01  0.2093261E+03
Ar  176  0.3725723E+02  0.3491141E+02  0.8175006E+01  0.9138563E+03
Ar  177  0.2944239E-01  0.3253841E+02  0.1131304E+02  0.7189730E+02
Ar  178  0.2517636E+01  0.3501677E+02  0.1082288E+02  0.2511092E+03
Ar  179  0.2847967E+01  0.3285848E+02  0.1412816E+02  0.2060560E+03
Ar  180  0.3777994E+02  0.3515676E+02  0.1419051E+02  0.6371939E+02
Ar  181  0.1363111E+00  0.3253468E+02  0.1688827E+02  0.1018202E+03
Ar  182  0.2545880E+01  0.3484321E+02  0.1680046E+02  0.3807913E+03
Ar  183  0.2921403E+01  0.3253248E+02  0.1978263E+02  0.5236417E+03
Ar  184  0.3761344E+02  0.3487889E+02  0.1985397E+02  0.4249632E+03
Ar  185  0.5294794E-01  0.3225269E+02  0.2181922E+02  0.6183116E+03
Ar  186  0.2533430E+01  0.3487220E+02  0.2234983E+02  0.2315678E+03
Ar  187  0.2907509E+01  0.3215450E+02  0.2442031E+02  0.1398031E+03
Ar  188  0.3729079E+02  0.3459879E+02  0.2443879E+02  0.1679250E+03
Ar  189  0.3734570E+02  0.3145028E+02  0.2639345E+02  0.3878956E+03
Ar  190  0.2168120E+01  0.3438558E+02  0.2696734E+02  0.2649999E+03
Ar  191  0.3375136E+01  0.3215230E+02  0.2964439E+02  0.8167009E+02
Ar  192  0.3693912E+02  0.3396177E+02  0.2937226E+02  0.8758089E+02
Ar  193  0.3903638E+00  0.3228303E+02  0.3228303E+02  0.2976322E+02
Ar  194  0.2774353E+01  0.3480540E+02  0.3181274E+02  0.1732927E+03
Ar  195  0.2774353E+01  0.3181274E+02  0.3480540E+02  0.1732927E+03
Ar  196  0.3710520E+02  0.3452317E+02  0.3452317E+02  0.2431381E+03
Ar  197  0.4564033E+01  0.3699294E+02  0.3699294E+02  0.2366390E+03
Ar  198  0.7777152E+01  0.2241306E+01  0.3749748E+02  0.1913852E+03
Ar  199  0.7777152E+01  0.3749748E+02  0.2241306E+01  0.1913852E+03
Ar  200  0.4788539E+01  0.1887249E+01  0.1887249E+01  0.4944179E+02
Ar  201  0.4712578E+01  0.3763189E+02  0.4712578E+01  0.2966592E+03
Ar  202  0.7506172E+01  0.2286336E+01  0.5014581E+01  0.1298309E+03
Ar  203  0.7792977E+01  0.3744925E+02  0.7792977E+01  0.2527086E+03
Ar  204  0.5014581E+01  0.2286336E+01  0.7506172E+01  0.1298309E+03
Ar  205  0.4808033E+01  0.3777395E+02  0.1056835E+02  0.1602552E+03
Ar  206  0.7496004E+01  0.2281748E+01  0.1055347E+02  0.1492753E+03
Ar  207  0.7815573E+01  0.2404142E+00  0.1365655E+02  0.2879490E+03
Ar  208  0.4947346E+01  0.2369038E+01  0.1359578E+02  0.1787423E+03
Ar  209  0.5232450E+01  0.3767071E+02  0.1675542E+02  0.8635954E+02
Ar  210  0.8019376E+01  0.2523673E+01  0.1649919E+02  0.1561398E+03
Ar  211  0.8117668E+01  0.3776057E+02  0.1984899E+02  0.6688042E+03
Ar  212  0.5317383E+01  0.2550830E+01  0.1979703E+02  0.1928103E+02
Ar  213  0.5172388E+01  0.3769569E+02  0.2248434E+02  0.2144225E+03
Ar  214  0.8267442E+01  0.2511620E+01  0.2250831E+02  0.6277926E+03
Ar  215  0.8311443E+01  0.3775306E+02  0.2494286E+02  0.2730057E+03
Ar  216  0.5593387E+01  0.2523223E+01  0.2509399E+02  0.1726617E+03
Ar  217  0.5569782E+01  0.3740678E+02  0.2746625E+02  0.1686297E+03
Ar  218  0.8168146E+01  0.2414077E+01  0.2778190E+02  0.2628358E+03
Ar  219  0.8539986E+01  0.3749309E+02  0.3000037E+02  0.2013412E+03
Ar  220  0.4949553E+01  0.2342595E+01  0.3002572E+02  0.2309309E+02
Ar  221  0.5434338E+01  0.3718870E+02  0.3231120E+02  0.2291506E+03
Ar  222  0.8086340E+01  0.2263065E+01  0.3269287E+02  0.2093261E+03
Ar  223  0.8175006E+01  0.3725723E+02  0.3491141E+02  0.9138563E+03
Ar  224  0.4968477E+01  0.2319334E+01  0.3486680E+02  0.8679564E+02
Ar  225  0.4712578E+01  0.4712578E+01  0.3763189E+02  0.2966592E+03
Ar  226  0.7792977E+01  0.7792977E+01  0.3744925E+02  0.2527086E+03
Ar  227  0.7506172E+01  0.5014581E+01  0.2286336E+01  0.1298309E+03
Ar  228  0.5014581E+01  0.7506172E+01  0.2286336E+01  0.1298309E+03
Ar  229  0.4736231E+01  0.4736231E+01  0.4736231E+01  0.6255163E+03
Ar  230  0.7788289E+01  0.7788289E+01  0.4891661E+01  0.2894285E+03
Ar  231  0.7788289E+01  0.4891661E+01  0.7788289E+01  0.2894285E+03
Ar  232  0.4891661E+01  0.7788289E+01  0.7788289E+01  0.2894285E+03
Ar  233  0.4706362E+01  0.4706362E+01  0.1044079E+02  0.1450017E+03
Ar  234  0.7495962E+01  0.7495962E+01  0.1038965E+02  0.1724455E+03
Ar  235  0.7550203E+01  0.4930326E+01  0.1308341E+02  0.1086479E+02
Ar  236  0.4930326E+01  0.7550203E+01  0.1308341E+02  0.1086479E+02
Ar  237  0.4880848E+01  0.4880848E+01  0.1637262E+02  0.1093868E+04
Ar  238  0.7449945E+01  0.7449945E+01  0.1536550E+02  0.4361951E+03
Ar  239  0.8005788E+01  0.5273380E+01  0.1940113E+02  0.6334798E+02
Ar  240  0.5273380E+01  0.8005788E+01  0.1940113E+02  0.6334798E+02
Ar  241  0.5262233E+01  0.5262233E+01  0.2288065E+02  0.9783463E+03
Ar  242  0.7891982E+01  0.7891982E+01  0.2274061E+02  0.2983900E+03
Ar  243  0.8219245E+01  0.5177059E+01  0.2553384E+02  0.2148153E+03
Ar  244  0.5177059E+01  0.8219245E+01  0.2553384E+02  0.2148153E+03
Ar  245  0.5267680E+01  0.5267680E+01  0.2763926E+02  0.1173250E+02
Ar  246  0.7973257E+01  0.7973257E+01  0.2757539E+02  0.2772473E+03
Ar  247  0.7993557E+01  0.5286938E+01  0.3039185E+02  0.1060454E+02
Ar  248  0.5286938E+01  0.7993557E+01  0.3039185E+02  0.1060454E+02
Ar  249  0.5358801E+01  0.5358801E+01  0.3265757E+02  0.4137277E+03
Ar  250  0.7932402E+01  0.7932402E+01  0.3288459E+02  0.7136287E+02
Ar  251  0.7794971E+01  0.5013947E+01  0.3530186E+02  0.8315368E+02
Ar  252  0.5013947E+01  0.7794971E+01  0.3530186E+02  0.8315368E+02
Ar  253  0.4808033E+01  0.1056835E+02  0.3777395E+02  0.1602552E+03
Ar  254  0.7815573E+01  0.1365655E+02  0.2404142E+00  0.2879490E+03
Ar  255  0.7496004E+01  0.1055347E+02  0.2281748E+01  0.1492753E+03
Ar  256  0.4947346E+01  0.1359578E+02  0.2369038E+01  0.1787423E+03
Ar  257  0.4706362E+01  0.1044079E+02  0.4706362E+01  0.1450017E+03
Ar  258  0.7550203E+01  0.1308341E+02  0.4930326E+01  0.1086479E+02
Ar  259  0.7495962E+01  0.1038965E+02  0.7495962E+01  0.1724455E+03
Ar  260  0.4930326E+01  0.1308341E+02  0.7550203E+01  0.1086479E+02
Ar  261  0.4739382E+01  0.1027023E+02  0.1027023E+02  0.5704330E+03
Ar  262  0.7504827E+01  0.1263151E+02  0.1016419E+02  0.1320773E+03
Ar  263  0.7504827E+01  0.1016419E+02  0.1263151E+02  0.1320773E+03
Ar  264  0.5111907E+01  0.1299316E+02  0.1299316E+02  0.5352728E+02
Ar  265  0.5318184E+01  0.1016488E+02  0.1590485E+02  0.1499051E+03
Ar  266  0.7443162E+01  0.1264572E+02  0.1546341E+02  0.1537226E+03
Ar  267  0.7686111E+01  0.1021255E+02  0.1859957E+02  0.6245940E+03
Ar  268  0.5607804E+01  0.1310325E+02  0.1880413E+02  0.1697056E+03
Ar  269  0.5203556E+01  0.1044524E+02  0.2253745E+02  0.1737901E+03
Ar  270  0.8062402E+01  0.1305672E+02  0.2178420E+02  0.8690003E+02
Ar  271  0.7926484E+01  0.1061546E+02  0.2510417E+02  0.6759065E+03
Ar  272  0.5528604E+01  0.1337152E+02  0.2476052E+02  0.1777314E+03
Ar  273  0.5257037E+01  0.1105373E+02  0.2798107E+02  0.5268537E+03
Ar  274  0.8143785E+01  0.1336924E+02  0.2760822E+02  0.6097995E+03
Ar  275  0.7977503E+01  0.1096788E+02  0.3049604E+02  0.4708015E+02
Ar  276  0.5502230E+01  0.1393425E+02  0.3025039E+02  0.1886337E+03
Ar  277  0.5222460E+01  0.1102302E+02  0.3300308E+02  0.1536236E+03
Ar  278  0.7908530E+01  0.1369812E+02  0.3300987E+02  0.4060441E+03
Ar  279  0.7826781E+01  0.1062710E+02  0.3552571E+02  0.8731035E+01
Ar  280  0.5345628E+01  0.1368782E+02  0.3545402E+02  0.2354138E+03
Ar  281  0.5232450E+01  0.1675542E+02  0.3767071E+02  0.8635954E+02
Ar  282  0.8117668E+01  0.1984899E+02  0.3776057E+02  0.6688042E+03
Ar  283  0.8019376E+01  0.1649919E+02  0.2523673E+01  0.1561398E+03
Ar  284  0.5317383E+01  0.1979703E+02  0.2550830E+01  0.1928103E+02
Ar  285  0.4880848E+01  0.1637262E+02  0.4880848E+01  0.1093868E+04
Ar  286  0.8005788E+01  0.1940113E+02  0.5273380E+01  0.6334798E+02
Ar  287  0.7449945E+01  0.1536550E+02  0.7449945E+01  0.4361951E+03
Ar  288  0.5273380E+01  0.1940113E+02  0.8005788E+01  0.6334798E+02
Ar  289  0.5318184E+01  0.1590485E+02  0.1016488E+02  0.1499051E+03
Ar  290  0.7686111E+01  0.1859957E+02  0.1021255E+02  0.6245940E+03
Ar  291  0.7443162E+01  0.1546341E+02  0.1264572E+02  0.1537226E+03
Ar  292  0.5607804E+01  0.1880413E+02  0.1310325E+02  0.1697056E+03
Ar  293  0.5531914E+01  0.1578627E+02  0.1578627E+02  0.3397255E+03
Ar  294  0.7855058E+01  0.1843701E+02  0.1568390E+02  0.7111633E+02
Ar  295  0.7855058E+01  0.1568390E+02  0.1843701E+02  0.7111633E+02
Ar  296  0.5835707E+01  0.1857396E+02  0.1857396E+02  0.1030443E+03
Ar  297  0.5685819E+01  0.1576989E+02  0.2193487E+02  0.1028060E+03
Ar  298  0.8275355E+01  0.1842409E+02  0.2129590E+02  0.1267011E+03
Ar  299  0.7769653E+01  0.1572239E+02  0.2483238E+02  0.6888035E+03
Ar  300  0.6452859E+01  0.1892092E+02  0.2465247E+02  0.9752019E+02
Ar  301  0.5918341E+01  0.1644226E+02  0.2778517E+02  0.3510812E+03
Ar  302  0.8682184E+01  0.1874768E+02  0.2775743E+02  0.5993618E+03
Ar  303  0.8447426E+01  0.1632265E+02  0.3064225E+02  0.8815844E+02
Ar  304  0.6079508E+01  0.1930995E+02  0.2999699E+02  0.2665919E+02
Ar  305  0.5381518E+01  0.1679982E+02  0.3270605E+02  0.1944901E+03
Ar  306  0.8539234E+01  0.1940400E+02  0.3305035E+02  0.3440529E+03
Ar  307  0.8055953E+01  0.1659210E+02  0.3535114E+02  0.1545742E+03
Ar  308  0.5454586E+01  0.1939341E+02  0.3545638E+02  0.1667547E+03
Ar  309  0.5172388E+01  0.2248434E+02  0.3769569E+02  0.2144225E+03
Ar  310  0.8311443E+01  0.2494286E+02  0.3775306E+02  0.2730057E+03
Ar  311  0.8267442E+01  0.2250831E+02  0.2511620E+01  0.6277926E+03
Ar  312  0.5593387E+01  0.2509399E+02  0.2523223E+01  0.1726617E+03
Ar  313  0.5262233E+01  0.2288065E+02  0.5262233E+01  0.9783463E+03
Ar  314  0.8219245E+01  0.2553384E+02  0.5177059E+01  0.2148153E+03
Ar  315  0.7891982E+01  0.2274061E+02  0.7891982E+01  0.2983900E+03
Ar  316  0.5177059E+01  0.2553384E+02  0.8219245E+01  0.2148153E+03
Ar  317  0.5203556E+01  0.2253745E+02  0.1044524E+02  0.1737901E+03
Ar  318  0.7926484E+01  0.2510417E+02  0.1061546E+02  0.6759065E+03
Ar  319  0.8062402E+01  0.2178420E+02  0.1305672E+02  0.8690003E+02
Ar  320  0.5528604E+01  0.2476052E+02  0.1337152E+02  0.1777314E+03
Ar  321  0.5685819E+01  0.2193487E+02  0.1576989E+02  0.1028060E+03
Ar  322  0.7769653E+01  0.2483238E+02  0.1572239E+02  0.6888035E+03
Ar  323  0.8275355E+01  0.2129590E+02  0.1842409E+02  0.1267011E+03
Ar  324  0.6452859E+01  0.2465247E+02  0.1892092E+02  0.9752019E+02
Ar  325  0.6417135E+01  0.2169364E+02  0.2169364E+02  0.2141339E+02
Ar  326  0.9112220E+01  0.2395595E+02  0.2145850E+02  0.6048765E+02
Ar  327  0.9112220E+01  0.2145850E+02  0.2395595E+02  0.6048765E+02
Ar  328  0.6427879E+01  0.2475147E+02  0.2475147E+02  0.1670361E+03
Ar  329  0.6885715E+01  0.2180803E+02  0.2704826E+02  0.3134714E+03
Ar  330  0.9190295E+01  0.2468674E+02  0.2737925E+02  0.7446383E+02
Ar  331  0.8957582E+01  0.2199646E+02  0.3019020E+02  0.4164441E+03
Ar  332  0.6343846E+01  0.2449308E+02  0.2976312E+02  0.2251415E+03
Ar  333  0.5842598E+01  0.2213118E+02  0.3288916E+02  0.3478881E+03
Ar  334  0.8760803E+01  0.2481219E+02  0.3282137E+02  0.2125215E+03
Ar  335  0.8351819E+01  0.2214175E+02  0.3564164E+02  0.1725536E+03
Ar  336  0.5568530E+01  0.2489706E+02  0.3499461E+02  0.9549886E+02
Ar  337  0.5569782E+01  0.2746625E+02  0.3740678E+02  0.1686297E+03
Ar  338  0.8539986E+01  0.3000037E+02  0.3749309E+02  0.2013412E+03
Ar  339  0.8168146E+01  0.2778190E+02  0.2414077E+01  0.2628358E+03
Ar  340  0.4949553E+01  0.3002572E+02  0.2342595E+01  0.2309309E+02
Ar  341  0.5267680E+01  0.2763926E+02  0.5267680E+01  0.1173250E+02
Ar  342  0.7993557E+01  0.3039185E+02  0.5286938E+01  0.1060454E+02
Ar  343  0.7973257E+01  0.2757539E+02  0.7973257E+01  0.2772473E+03
Ar  344  0.5286938E+01  0.3039185E+02  0.7993557E+01  0.1060454E+02
Ar  345  0.5257037E+01  0.2798107E+02  0.1105373E+02  0.5268537E+03
Ar  346  0.7977503E+01  0.3049604E+02  0.1096788E+02  0.4708015E+02
Ar  347  0.8143785E+01  0.2760822E+02  0.1336924E+02  0.6097995E+03
Ar  348  0.5502230E+01  0.3025039E+02  0.1393425E+02  0.1886337E+03
Ar  349  0.5918341E+01  0.2778517E+02  0.1644226E+02  0.3510812E+03
Ar  350  0.8447426E+01  0.3064225E+02  0.1632265E+02  0.8815844E+02
Ar  351  0.8682184E+01  0.2775743E+02  0.1874768E+02  0.5993618E+03
Ar  352  0.6079508E+01  0.2999699E+02  0.1930995E+02  0.2665919E+02
Ar  353  0.6885715E+01  0.2704826E+02  0.2180803E+02  0.3134714E+03
Ar  354  0.8957582E+01  0.3019020E+02  0.2199646E+02  0.4164441E+03
Ar  355  0.9190295E+01  0.2737925E+02  0.2468674E+02  0.7446383E+02
Ar  356  0.6343846E+01  0.2976312E+02  0.2449308E+02  0.2251415E+03
Ar  357  0.5940472E+01  0.2708177E+02  0.2708177E+02  0.5927714E+03
Ar  358  0.8812102E+01  0.3007006E+02  0.2721141E+02  0.2072280E+03
Ar  359  0.8812102E+01  0.2721141E+02  0.3007006E+02  0.2072280E+03
Ar  360  0.6125029E+01  0.2973999E+02  0.2973999E+02  0.2287897E+03
Ar  361  0.5879005E+01  0.2707100E+02  0.3238850E+02  0.3161999E+03
Ar  362  0.8968275E+01  0.3009124E+02  0.3257006E+02  0.1880525E+03
Ar  363  0.8738591E+01  0.2759025E+02  0.3504598E+02  0.1804476E+02
Ar  364  0.6033131E+01  0.2979471E+02  0.3469037E+02  0.3514203E+03
Ar  365  0.5434338E+01  0.3231120E+02  0.3718870E+02  0.2291506E+03
Ar  366  0.8175006E+01  0.3491141E+02  0.3725723E+02  0.9138563E+03
Ar  367  0.8086340E+01  0.3269287E+02  0.2263065E+01  0.2093261E+03
Ar  368  0.4968477E+01  0.3486680E+02  0.2319334E+01  0.8679564E+02
Ar  369  0.5358801E+01  0.3265757E+02  0.5358801E+01  0.4137277E+03
Ar  370  0.7794971E+01  0.3530186E+02  0.5013947E+01  0.8315368E+02
Ar  371  0.7932402E+01  0.3288459E+02  0.7932402E+01  0.7136287E+02
Ar  372  0.5013947E+01  0.3530186E+02  0.7794971E+01  0.8315368E+02
Ar  373  0.5222460E+01  0.3300308E+02  0.1102302E+02  0.1536236E+03
Ar  374  0.7826781E+01  0.3552571E+02  0.1062710E+02  0.8731035E+01
Ar  375  0.7908530E+01  0.3300987E+02  0.1369812E+02  0.4060441E+03
Ar  376  0.5345628E+01  0.3545402E+02  0.1368782E+02  0.2354138E+03
Ar  377  0.5381518E+01  0.3270605E+02  0.1679982E+02  0.1944901E+03
Ar  378  0.8055953E+01  0.3535114E+02  0.1659210E+02  0.1545742E+03
Ar  379  0.8539234E+01  0.3305035E+02  0.1940400E+02  0.3440529E+03
Ar  380  0.5454586E+01  0.3545638E+02  0.1939341E+02  0.1667547E+03
Ar  381  0.5842598E+01  0.3288916E+02  0.2213118E+02  0.3478881E+03
Ar  382  0.8351819E+01  0.3564164E+02  0.2214175E+02  0.1725536E+03
Ar  383  0.8760803E+01  0.3282137E+02  0.2481219E+02  0.2125215E+03
Ar  384  0.5568530E+01  0.3499461E+02  0.2489706E+02  0.9549886E+02
Ar  385  0.5879005E+01  0.3238850E+02  0.2707100E+02  0.3161999E+03
Ar  386  0.8738591E+01  0.3504598E+02  0.2759025E+02  0.1804476E+02
Ar  387  0.8968275E+01  0.3257006E+02  0.3009124E+02  0.1880525E+03
Ar  388  0.6033131E+01  0.3469037E+02  0.2979471E+02  0.3514203E+03
Ar  389  0.6282768E+01  0.3222017E+02  0.3222017E+02  0.4635068E+03
Ar  390  0.8820434E+01  0.3500191E+02  0.3245769E+02  0.1861863E+03
Ar  391  0.8820434E+01  0.3245769E+02  0.3500191E+02  0.1861863E+03
Ar  392  0.5806694E+01  0.3462288E+02  0.3462288E+02  0.9932542E+01
Ar  393  0.1086064E+02  0.3747421E+02  0.3747421E+02  0.4269852E+03
Ar  394  0.1396724E+02  0.2456942E+01  0.3759890E+02  0.2341600E+03
Ar  395  0.1396724E+02  0.3759890E+02  0.2456942E+01  0.2341600E+03
Ar  396  0.1091789E+02  0.2081357E+01  0.2081357E+01  0.3342637E+03
Ar  397  0.1056835E+02  0.3777395E+02  0.4808033E+01  0.1602552E+03
Ar  398  0.1359578E+02  0.2369038E+01  0.4947346E+01  0.1787423E+03
Ar  399  0.1365655E+02  0.2404142E+00  0.7815573E+01  0.2879490E+03
Ar  400  0.1055347E+02  0.2281748E+01  0.7496004E+01  0.1492753E+03
Ar  401  0.1068752E+02  0.2121359E+00  0.1068752E+02  0.1216448E+03
Ar  402  0.1338170E+02  0.2685555E+01  0.1042411E+02  0.4031582E+02
Ar  403  0.1320626E+02  0.2940258E+00  0.1320626E+02  0.3083706E+03
Ar  404  0.1042411E+02  0.2685555E+01  0.1338170E+02  0.4031582E+02
Ar  405  0.1047950E+02  0.3595084E+00  0.1637525E+02  0.9033841E+02
Ar  406  0.1320737E+02  0.3132878E+01  0.1581488E+02  0.8944356E+02
Ar  407  0.1337938E+02  0.6492348E+00  0.1889575E+02  0.8163284E+02
Ar  408  0.1041406E+02  0.3009847E+01  0.1897250E+02  0.1055499E+03
Ar  409  0.1087410E+02  0.4789382E+00  0.2227941E+02  0.3782946E+03
Ar  410  0.1315544E+02  0.3104606E+01  0.2177306E+02  0.4670289E+03
Ar  411  0.1419063E+02  0.7906584E+00  0.2458682E+02  0.6696076E+03
Ar  412  0.1100184E+02  0.2685029E+01  0.2533683E+02  0.2196008E+03
Ar  413  0.1138741E+02  0.1496127E+00  0.2760442E+02  0.1507882E+03
Ar  414  0.1394260E+02  0.2981493E+01  0.2747562E+02  0.1534552E+03
Ar  415  0.1405936E+02  0.2186837E+00  0.3008571E+02  0.6253415E+01
Ar  416  0.1111790E+02  0.2839775E+01  0.3030527E+02  0.5725511E+02
Ar  417  0.1131304E+02  0.2944239E-01  0.3253841E+02  0.7189730E+02
Ar  418  0.1412816E+02  0.2847967E+01  0.3285848E+02  0.2060560E+03
Ar  419  0.1419051E+02  0.3777994E+02  0.3515676E+02  0.6371939E+02
Ar  420  0.1082288E+02  0.2517636E+01  0.3501677E+02  0.2511092E+03
Ar  421  0.1056835E+02  0.4808033E+01  0.3777395E+02  0.1602552E+03
Ar  422  0.1365655E+02  0.7815573E+01  0.2404142E+00  0.2879490E+03
Ar  423  0.1359578E+02  0.4947346E+01  0.2369038E+01  0.1787423E+03
Ar  424  0.1055347E+02  0.7496004E+01  0.2281748E+01  0.1492753E+03
Ar  425  0.1044079E+02  0.4706362E+01  0.4706362E+01  0.1450017E+03
Ar  426  0.1308341E+02  0.7550203E+01  0.4930326E+01  0.1086479E+02
Ar  427  0.1308341E+02  0.4930326E+01  0.7550203E+01  0.1086479E+02
Ar  428  0.1038965E+02  0.7495962E+01  0.7495962E+01  0.1724455E+03
Ar  429  0.1027023E+02  0.4739382E+01  0.1027023E+02  0.5704330E+03
Ar  430  0.1263151E+02  0.7504827E+01  0.1016419E+02  0.1320773E+03
Ar  431  0.1299316E+02  0.5111907E+01  0.1299316E+02  0.5352728E+02
Ar  432  0.1016419E+02  0.7504827E+01  0.1263151E+02  0.1320773E+03
Ar  433  0.1016488E+02  0.5318184E+01  0.1590485E+02  0.1499051E+03
Ar  434  0.1264572E+02  0.7443162E+01  0.1546341E+02  0.1537226E+03
Ar  435  0.1310325E+02  0.5607804E+01  0.1880413E+02  0.1697056E+03
Ar  436  0.1021255E+02  0.7686111E+01  0.1859957E+02  0.6245940E+03
Ar  437  0.1044524E+02  0.5203556E+01  0.2253745E+02  0.1737901E+03
Ar  438  0.1305672E+02  0.8062402E+01  0.2178420E+02  0.8690003E+02
Ar  439  0.1337152E+02  0.5528604E+01  0.2476052E+02  0.1777314E+03
Ar  440  0.1061546E+02  0.7926484E+01  0.2510417E+02  0.6759065E+03
Ar  441  0.1105373E+02  0.5257037E+01  0.2798107E+02  0.5268537E+03
Ar  442  0.1336924E+02  0.8143785E+01  0.2760822E+02  0.6097995E+03
Ar  443  0.1393425E+02  0.5502230E+01  0.3025039E+02  0.1886337E+03
Ar  444  0.1096788E+02  0.7977503E+01  0.3049604E+02  0.4708015E+02
Ar  445  0.1102302E+02  0.5222460E+01  0.3300308E+02  0.1536236E+03
Ar  446  0.1369812E+02  0.7908530E+01  0.3300987E+02  0.4060441E+03
Ar  447  0.1368782E+02  0.5345628E+01  0.3545402E+02  0.2354138E+03
Ar  448  0.1062710E+02  0.7826781E+01  0.3552571E+02  0.8731035E+01
Ar  449  0.1068752E+02  0.1068752E+02  0.2121359E+00  0.1216448E+03
Ar  450  0.1320626E+02  0.1320626E+02  0.2940258E+00  0.3083706E+03
Ar  451  0.1338170E+02  0.1042411E+02  0.2685555E+01  0.4031582E+02
Ar  452  0.1042411E+02  0.1338170E+02  0.2685555E+01  0.4031582E+02
Ar  453  0.1027023E+02  0.1027023E+02  0.4739382E+01  0.5704330E+03
Ar  454  0.1299316E+02  0.1299316E+02  0.5111907E+01  0.5352728E+02
Ar  455  0.1263151E+02  0.1016419E+02  0.7504827E+01  0.1320773E+03
Ar  456  0.1016419E+02  0.1263151E+02  0.7504827E+01  0.1320773E+03
Ar  457  0.9879167E+01  0.9879167E+01  0.9879167E+01  0.2571628E+03
Ar  458  0.1272730E+02  0.1272730E+02  0.1010429E+02  0.2063560E+03
Ar  459  0.1272730E+02  0.1010429E+02  0.1272730E+02  0.2063560E+03
Ar  460  0.1010429E+02  0.1272730E+02  0.1272730E+02  0.2063560E+03
Ar  461  0.1009903E+02  0.1009903E+02  0.1548269E+02  0.3825360E+03
Ar  462  0.1257741E+02  0.1257741E+02  0.1577681E+02  0.1878664E+02
Ar  463  0.1286194E+02  0.1029255E+02  0.1864817E+02  0.1362774E+03
Ar  464  0.1029255E+02  0.1286194E+02  0.1864817E+02  0.1362774E+03
Ar  465  0.1037430E+02  0.1037430E+02  0.2166796E+02  0.2184376E+03
Ar  466  0.1283957E+02  0.1283957E+02  0.2159760E+02  0.1909114E+03
Ar  467  0.1317453E+02  0.1056166E+02  0.2469385E+02  0.5098811E+03
Ar  468  0.1056166E+02  0.1317453E+02  0.2469385E+02  0.5098811E+03
Ar  469  0.1082070E+02  0.1082070E+02  0.2807749E+02  0.9362407E+01
Ar  470  0.1327105E+02  0.1327105E+02  0.2791278E+02  0.4750182E+02
Ar  471  0.1353233E+02  0.1077596E+02  0.3085930E+02  0.8598316E+02
Ar  472  0.1077596E+02  0.1353233E+02  0.3085930E+02  0.8598316E+02
Ar  473  0.1068724E+02  0.1068724E+02  0.3325484E+02  0.7935800E+02
Ar  474  0.1334065E+02  0.1334065E+02  0.3331342E+02  0.2559159E+03
Ar  475  0.1368067E+02  0.1051260E+02  0.3576186E+02  0.2306520E+03
Ar  476  0.1051260E+02  0.1368067E+02  0.3576186E+02  0.2306520E+03
Ar  477  0.1047950E+02  0.1637525E+02  0.3595084E+00  0.9033841E+02
Ar  478  0.1337938E+02  0.1889575E+02  0.6492348E+00  0.8163284E+02
Ar  479  0.1320737E+02  0.1581488E+02  0.3132878E+01  0.8944356E+02
Ar  480  0.1041406E+02  0.1897250E+02  0.3009847E+01  0.1055499E+03
Ar  481  0.1016488E+02  0.1590485E+02  0.5318184E+01  0.1499051E+03
Ar  482  0.1310325E+02  0.1880413E+02  0.5607804E+01  0.1697056E+03
Ar  483  0.1264572E+02  0.1546341E+02  0.7443162E+01  0.1537226E+03
Ar  484  0.1021255E+02  0.1859957E+02  0.7686111E+01  0.6245940E+03
Ar  485  0.1009903E+02  0.1548269E+02  0.1009903E+02  0.3825360E+03
Ar  486  0.1286194E+02  0.1864817E+02  0.1029255E+02  0.1362774E+03
Ar  487  0.1257741E+02  0.1577681E+02  0.1257741E+02  0.1878664E+02
Ar  488  0.1029255E+02  0.1864817E+02  0.1286194E+02  0.1362774E+03
Ar  489  0.1005213E+02  0.1540183E+02  0.1540183E+02  0.9496670E+02
Ar  490  0.1267460E+02  0.1794073E+02  0.1550399E+02  0.2510393E+03
Ar  491  0.1267460E+02  0.1550399E+02  0.1794073E+02  0.2510393E+03
Ar  492  0.9946861E+01  0.1831606E+02  0.1831606E+02  0.4121382E+03
Ar  493  0.1044479E+02  0.1528190E+02  0.2127811E+02  0.1806622E+03
Ar  494  0.1275436E+02  0.1790462E+02  0.2061695E+02  0.1872659E+03
Ar  495  0.1309385E+02  0.1558858E+02  0.2422099E+02  0.2117322E+03
Ar  496  0.1059232E+02  0.1801670E+02  0.2402440E+02  0.3270489E+03
Ar  497  0.1059746E+02  0.1568095E+02  0.2752929E+02  0.1119356E+03
Ar  498  0.1292712E+02  0.1839284E+02  0.2688857E+02  0.1967005E+03
Ar  499  0.1320733E+02  0.1570731E+02  0.3062541E+02  0.6805407E+02
Ar  500  0.1138583E+02  0.1876691E+02  0.3034487E+02  0.4841098E+03
Ar  501  0.1086677E+02  0.1618397E+02  0.3295953E+02  0.5292080E+02
Ar  502  0.1349142E+02  0.1882889E+02  0.3372819E+02  0.7854927E+02
Ar  503  0.1352900E+02  0.1604368E+02  0.3586169E+02  0.4452504E+02
Ar  504  0.1099952E+02  0.1906373E+02  0.3589922E+02  0.3709123E+03
Ar  505  0.1087410E+02  0.2227941E+02  0.4789382E+00  0.3782946E+03
Ar  506  0.1419063E+02  0.2458682E+02  0.7906584E+00  0.6696076E+03
Ar  507  0.1315544E+02  0.2177306E+02  0.3104606E+01  0.4670289E+03
Ar  508  0.1100184E+02  0.2533683E+02  0.2685029E+01  0.2196008E+03
Ar  509  0.1044524E+02  0.2253745E+02  0.5203556E+01  0.1737901E+03
Ar  510  0.1337152E+02  0.2476052E+02  0.5528604E+01  0.1777314E+03
Ar  511  0.1305672E+02  0.2178420E+02  0.8062402E+01  0.8690003E+02
Ar  512  0.1061546E+02  0.2510417E+02  0.7926484E+01  0.6759065E+03
Ar  513  0.1037430E+02  0.2166796E+02  0.1037430E+02  0.2184376E+03
Ar  514  0.1317453E+02  0.2469385E+02  0.1056166E+02  0.5098811E+03
Ar  515  0.1283957E+02  0.2159760E+02  0.1283957E+02  0.1909114E+03
Ar  516  0.1056166E+02  0.2469385E+02  0.1317453E+02  0.5098811E+03
Ar  517  0.1044479E+02  0.2127811E+02  0.1528190E+02  0.1806622E+03
Ar  518  0.1309385E+02  0.2422099E+02  0.1558858E+02  0.2117322E+03
Ar  519  0.1275436E+02  0.2061695E+02  0.1790462E+02  0.1872659E+03
Ar  520  0.1059232E+02  0.2402440E+02  0.1801670E+02  0.3270489E+03
Ar  521  0.1084282E+02  0.2098399E+02  0.2098399E+02  0.1660707E+03
Ar  522  0.1290943E+02  0.2374481E+02  0.2095974E+02  0.5737078E+03
Ar  523  0.1290943E+02  0.2095974E+02  0.2374481E+02  0.5737078E+03
Ar  524  0.1131118E+02  0.2422891E+02  0.2422891E+02  0.1326268E+03
Ar  525  0.1121763E+02  0.2165149E+02  0.2698732E+02  0.1963992E+02
Ar  526  0.1403489E+02  0.2365708E+02  0.2659176E+02  0.1865993E+03
Ar  527  0.1389780E+02  0.2121729E+02  0.2993773E+02  0.5634393E+03
Ar  528  0.1208689E+02  0.2467940E+02  0.2966779E+02  0.2071833E+03
Ar  529  0.1154912E+02  0.2211531E+02  0.3305324E+02  0.3664785E+03
Ar  530  0.1468064E+02  0.2427997E+02  0.3276709E+02  0.5198342E+03
Ar  531  0.1387881E+02  0.2193058E+02  0.3608415E+02  0.3469120E+03
Ar  532  0.1118543E+02  0.2481303E+02  0.3563563E+02  0.6429924E+02
Ar  533  0.1138741E+02  0.2760442E+02  0.1496127E+00  0.1507882E+03
Ar  534  0.1405936E+02  0.3008571E+02  0.2186837E+00  0.6253415E+01
Ar  535  0.1394260E+02  0.2747562E+02  0.2981493E+01  0.1534552E+03
Ar  536  0.1111790E+02  0.3030527E+02  0.2839775E+01  0.5725511E+02
Ar  537  0.1105373E+02  0.2798107E+02  0.5257037E+01  0.5268537E+03
Ar  538  0.1393425E+02  0.3025039E+02  0.5502230E+01  0.1886337E+03
Ar  539  0.1336924E+02  0.2760822E+02  0.8143785E+01  0.6097995E+03
Ar  540  0.1096788E+02  0.3049604E+02  0.7977503E+01  0.4708015E+02
Ar  541  0.1082070E+02  0.2807749E+02  0.1082070E+02  0.9362407E+01
Ar  542  0.1353233E+02  0.3085930E+02  0.1077596E+02  0.8598316E+02
Ar  543  0.1327105E+02  0.2791278E+02  0.1327105E+02  0.4750182E+02
Ar  544  0.1077596E+02  0.3085930E+02  0.1353233E+02  0.8598316E+02
Ar  545  0.1059746E+02  0.2752929E+02  0.1568095E+02  0.1119356E+03
Ar  546  0.1320733E+02  0.3062541E+02  0.1570731E+02  0.6805407E+02
Ar  547  0.1292712E+02  0.2688857E+02  0.1839284E+02  0.1967005E+03
Ar  548  0.1138583E+02  0.3034487E+02  0.1876691E+02  0.4841098E+03
Ar  549  0.1121763E+02  0.2698732E+02  0.2165149E+02  0.1963992E+02
Ar  550  0.1389780E+02  0.2993773E+02  0.2121729E+02  0.5634393E+03
Ar  551  0.1403489E+02  0.2659176E+02  0.2365708E+02  0.1865993E+03
Ar  552  0.1208689E+02  0.2966779E+02  0.2467940E+02  0.2071833E+03
Ar  553  0.1197819E+02  0.2682650E+02  0.2682650E+02  0.2267511E+01
Ar  554  0.1477519E+02  0.2963406E+02  0.2678720E+02  0.9056294E+02
Ar  555  0.1477519E+02  0.2678720E+02  0.2963406E+02  0.9056294E+02
Ar  556  0.1208339E+02  0.2950603E+02  0.2950603E+02  0.2035911E+03
Ar  557  0.1177707E+02  0.2723122E+02  0.3274987E+02  0.9615991E+02
Ar  558  0.1483850E+02  0.2937285E+02  0.3216826E+02  0.4796312E+02
Ar  559  0.1434123E+02  0.2699879E+02  0.3535270E+02  0.8862976E+02
Ar  560  0.1173074E+02  0.2993158E+02  0.3525380E+02  0.2052499E+03
Ar  561  0.1131304E+02  0.3253841E+02  0.2944239E-01  0.7189730E+02
Ar  562  0.1419051E+02  0.3515676E+02  0.3777994E+02  0.6371939E+02
Ar  563  0.1412816E+02  0.3285848E+02  0.2847967E+01  0.2060560E+03
Ar  564  0.1082288E+02  0.3501677E+02  0.2517636E+01  0.2511092E+03
Ar  565  0.1102302E+02  0.3300308E+02  0.5222460E+01  0.1536236E+03
Ar  566  0.1368782E+02  0.3545402E+02  0.5345628E+01  0.2354138E+03
Ar  567  0.1369812E+02  0.3300987E+02  0.7908530E+01  0.4060441E+03
Ar  568  0.1062710E+02  0.3552571E+02  0.7826781E+01  0.8731035E+01
Ar  569  0.1068724E+02  0.3325484E+02  0.1068724E+02  0.7935800E+02
Ar  570  0.1368067E+02  0.3576186E+02  0.1051260E+02  0.2306520E+03
Ar  571  0.1334065E+02  0.3331342E+02  0.1334065E+02  0.2559159E+03
Ar  572  0.1051260E+02  0.3576186E+02  0.1368067E+02  0.2306520E+03
Ar  573  0.1086677E+02  0.3295953E+02  0.1618397E+02  0.5292080E+02
Ar  574  0.1352900E+02  0.3586169E+02  0.1604368E+02  0.4452504E+02
Ar  575  0.1349142E+02  0.3372819E+02  0.1882889E+02  0.7854927E+02
Ar  576  0.1099952E+02  0.3589922E+02  0.1906373E+02  0.3709123E+03
Ar  577  0.1154912E+02  0.3305324E+02  0.2211531E+02  0.3664785E+03
Ar  578  0.1387881E+02  0.3608415E+02  0.2193058E+02  0.3469120E+03
Ar  579  0.1468064E+02  0.3276709E+02  0.2427997E+02  0.5198342E+03
Ar  580  0.1118543E+02  0.3563563E+02  0.2481303E+02  0.6429924E+02
Ar  581  0.1177707E+02  0.3274987E+02  0.2723122E+02  0.9615991E+02
Ar  582  0.1434123E+02  0.3535270E+02  0.2699879E+02  0.8862976E+02
Ar  583  0.1483850E+02  0.3216826E+02  0.2937285E+02  0.4796312E+02
Ar  584  0.1173074E+02  0.3525380E+02  0.2993158E+02  0.2052499E+03
Ar  585  0.1237886E+02  0.3211873E+02  0.3211873E+02  0.3481616E+03
Ar  586  0.1466873E+02  0.3484580E+02  0.3216151E+02  0.6606751E+02
Ar  587  0.1466873E+02  0.3216151E+02  0.3484580E+02  0.6606751E+02
Ar  588  0.1179187E+02  0.3486644E+02  0.3486644E+02  0.4196168E+03
Ar  589  0.1717048E+02  0.9038502E-01  0.9038502E-01  0.3338686E+03
Ar  590  0.1996743E+02  0.2460232E+01  0.3754101E+02  0.3672709E+02
Ar  591  0.1996743E+02  0.3754101E+02  0.2460232E+01  0.3672709E+02
Ar  592  0.1730547E+02  0.2462923E+01  0.2462923E+01  0.2694664E+02
Ar  593  0.1675542E+02  0.3767071E+02  0.5232450E+01  0.8635954E+02
Ar  594  0.1979703E+02  0.2550830E+01  0.5317383E+01  0.1928103E+02
Ar  595  0.1984899E+02  0.3776057E+02  0.8117668E+01  0.6688042E+03
Ar  596  0.1649919E+02  0.2523673E+01  0.8019376E+01  0.1561398E+03
Ar  597  0.1637525E+02  0.3595084E+00  0.1047950E+02  0.9033841E+02
Ar  598  0.1897250E+02  0.3009847E+01  0.1041406E+02  0.1055499E+03
Ar  599  0.1889575E+02  0.6492348E+00  0.1337938E+02  0.8163284E+02
Ar  600  0.1581488E+02  0.3132878E+01  0.1320737E+02  0.8944356E+02
Ar  601  0.1610216E+02  0.9947189E+00  0.1610216E+02  0.4248898E+03
Ar  602  0.1885562E+02  0.3458478E+01  0.1573907E+02  0.2855909E+03
Ar  603  0.1889997E+02  0.1579024E+01  0.1889997E+02  0.1819631E+02
Ar  604  0.1573907E+02  0.3458478E+01  0.1885562E+02  0.2855909E+03
Ar  605  0.1648310E+02  0.1257606E+01  0.2161045E+02  0.2521740E+03
Ar  606  0.1919471E+02  0.4000218E+01  0.2189298E+02  0.1145714E+03
Ar  607  0.1939497E+02  0.1119627E+01  0.2440647E+02  0.8185423E+02
Ar  608  0.1661809E+02  0.3659315E+01  0.2460279E+02  0.7847801E+02
Ar  609  0.1687245E+02  0.7952394E+00  0.2711145E+02  0.1832667E+03
Ar  610  0.1921849E+02  0.3857517E+01  0.2717713E+02  0.4823546E+03
Ar  611  0.1937775E+02  0.5748880E+00  0.2951478E+02  0.1861576E+03
Ar  612  0.1670028E+02  0.3085672E+01  0.3026448E+02  0.2092751E+02
Ar  613  0.1688827E+02  0.1363111E+00  0.3253468E+02  0.1018202E+03
Ar  614  0.1978263E+02  0.2921403E+01  0.3253248E+02  0.5236417E+03
Ar  615  0.1985397E+02  0.3761344E+02  0.3487889E+02  0.4249632E+03
Ar  616  0.1680046E+02  0.2545880E+01  0.3484321E+02  0.3807913E+03
Ar  617  0.1675542E+02  0.5232450E+01  0.3767071E+02  0.8635954E+02
Ar  618  0.1984899E+02  0.8117668E+01  0.3776057E+02  0.6688042E+03
Ar  619  0.1979703E+02  0.5317383E+01  0.2550830E+01  0.1928103E+02
Ar  620  0.1649919E+02  0.8019376E+01  0.2523673E+01  0.1561398E+03
Ar  621  0.1637262E+02  0.4880848E+01  0.4880848E+01  0.1093868E+04
Ar  622  0.1940113E+02  0.8005788E+01  0.5273380E+01  0.6334798E+02
Ar  623  0.1940113E+02  0.5273380E+01  0.8005788E+01  0.6334798E+02
Ar  624  0.1536550E+02  0.7449945E+01  0.7449945E+01  0.4361951E+03
Ar  625  0.1590485E+02  0.5318184E+01  0.1016488E+02  0.1499051E+03
Ar  626  0.1859957E+02  0.7686111E+01  0.1021255E+02  0.6245940E+03
Ar  627  0.1880413E+02  0.5607804E+01  0.1310325E+02  0.1697056E+03
Ar  628  0.1546341E+02  0.7443162E+01  0.1264572E+02  0.1537226E+03
Ar  629  0.1578627E+02  0.5531914E+01  0.1578627E+02  0.3397255E+03
Ar  630  0.1843701E+02  0.7855058E+01  0.1568390E+02  0.7111633E+02
Ar  631  0.1857396E+02  0.5835707E+01  0.1857396E+02  0.1030443E+03
Ar  632  0.1568390E+02  0.7855058E+01  0.1843701E+02  0.7111633E+02
Ar  633  0.1576989E+02  0.5685819E+01  0.2193487E+02  0.1028060E+03
Ar  634  0.1842409E+02  0.8275355E+01  0.2129590E+02  0.1267011E+03
Ar  635  0.1892092E+02  0.6452859E+01  0.2465247E+02  0.9752019E+02
Ar  636  0.1572239E+02  0.7769653E+01  0.2483238E+02  0.6888035E+03
Ar  637  0.1644226E+02  0.5918341E+01  0.2778517E+02  0.3510812E+03
Ar  638  0.1874768E+02  0.8682184E+01  0.2775743E+02  0.5993618E+03
Ar  639  0.1930995E+02  0.6079508E+01  0.2999699E+02  0.2665919E+02
Ar  640  0.1632265E+02  0.8447426E+01  0.3064225E+02  0.8815844E+02
Ar  641  0.1679982E+02  0.5381518E+01  0.3270605E+02  0.1944901E+03
Ar  642  0.1940400E+02  0.8539234E+01  0.3305035E+02  0.3440529E+03
Ar  643  0.1939341E+02  0.5454586E+01  0.3545638E+02  0.1667547E+03
Ar  644  0.1659210E+02  0.8055953E+01  0.3535114E+02  0.1545742E+03
Ar  645  0.1637525E+02  0.1047950E+02  0.3595084E+00  0.9033841E+02
Ar  646  0.1889575E+02  0.1337938E+02  0.6492348E+00  0.8163284E+02
Ar  647  0.1897250E+02  0.1041406E+02  0.3009847E+01  0.1055499E+03
Ar  648  0.1581488E+02  0.1320737E+02  0.3132878E+01  0.8944356E+02
Ar  649  0.1590485E+02  0.1016488E+02  0.5318184E+01  0.1499051E+03
Ar  650  0.1880413E+02  0.1310325E+02  0.5607804E+01  0.1697056E+03
Ar  651  0.1859957E+02  0.1021255E+02  0.7686111E+01  0.6245940E+03
Ar  652  0.1546341E+02  0.1264572E+02  0.7443162E+01  0.1537226E+03
Ar  653  0.1548269E+02  0.1009903E+02  0.1009903E+02  0.3825360E+03
Ar  654  0.1864817E+02  0.1286194E+02  0.1029255E+02  0.1362774E+03
Ar  655  0.1864817E+02  0.1029255E+02  0.1286194E+02  0.1362774E+03
Ar  656  0.1577681E+02  0.1257741E+02  0.1257741E+02  0.1878664E+02
Ar  657  0.1540183E+02  0.1005213E+02  0.1540183E+02  0.9496670E+02
Ar  658  0.1794073E+02  0.1267460E+02  0.1550399E+02  0.2510393E+03
Ar  659  0.1831606E+02  0.9946861E+01  0.1831606E+02  0.4121382E+03
Ar  660  0.1550399E+02  0.1267460E+02  0.1794073E+02  0.2510393E+03
Ar  661  0.1528190E+02  0.1044479E+02  0.2127811E+02  0.1806622E+03
Ar  662  0.1790462E+02  0.1275436E+02  0.2061695E+02  0.1872659E+03
Ar  663  0.1801670E+02  0.1059232E+02  0.2402440E+02  0.3270489E+03
Ar  664  0.1558858E+02  0.1309385E+02  0.2422099E+02  0.2117322E+03
Ar  665  0.1568095E+02  0.1059746E+02  0.2752929E+02  0.1119356E+03
Ar  666  0.1839284E+02  0.1292712E+02  0.2688857E+02  0.1967005E+03
Ar  667  0.1876691E+02  0.1138583E+02  0.3034487E+02  0.4841098E+03
Ar  668  0.1570731E+02  0.1320733E+02  0.3062541E+02  0.6805407E+02
Ar  669  0.1618397E+02  0.1086677E+02  0.3295953E+02  0.5292080E+02
Ar  670  0.1882889E+02  0.1349142E+02  0.3372819E+02  0.7854927E+02
Ar  671  0.1906373E+02  0.1099952E+02  0.3589922E+02  0.3709123E+03
Ar  672  0.1604368E+02  0.1352900E+02  0.3586169E+02  0.4452504E+02
Ar  673  0.1610216E+02  0.1610216E+02  0.9947189E+00  0.4248898E+03
Ar  674  0.1889997E+02  0.1889997E+02  0.1579024E+01  0.1819631E+02
Ar  675  0.1885562E+02  0.1573907E+02  0.3458478E+01  0.2855909E+03
Ar  676  0.1573907E+02  0.1885562E+02  0.3458478E+01  0.2855909E+03
Ar  677  0.1578627E+02  0.1578627E+02  0.5531914E+01  0.3397255E+03
Ar  678  0.1857396E+02  0.1857396E+02  0.5835707E+01  0.1030443E+03
Ar  679  0.1843701E+02  0.1568390E+02  0.7855058E+01  0.7111633E+02
Ar  680  0.1568390E+02  0.1843701E+02  0.7855058E+01  0.7111633E+02
Ar  681  0.1540183E+02  0.1540183E+02  0.1005213E+02  0.9496670E+02
Ar  682  0.1831606E+02  0.1831606E+02  0.9946861E+01  0.4121382E+03
Ar  683  0.1794073E+02  0.1550399E+02  0.1267460E+02  0.2510393E+03
Ar  684  0.1550399E+02  0.1794073E+02  0.1267460E+02  0.2510393E+03
Ar  685  0.1526357E+02  0.1526357E+02  0.1526357E+02  0.1295991E+03
Ar  686  0.1788608E+02  0.1788608E+02  0.1545337E+02  0.4049109E+02
Ar  687  0.1788608E+02  0.1545337E+02  0.1788608E+02  0.4049109E+02
Ar  688  0.1545337E+02  0.1788608E+02  0.1788608E+02  0.4049109E+02
Ar  689  0.1521698E+02  0.1521698E+02  0.2072283E+02  0.2049888E+03
Ar  690  0.1785266E+02  0.1785266E+02  0.2038955E+02  0.4630060E+02
Ar  691  0.1822588E+02  0.1561762E+02  0.2362521E+02  0.1506198E+03
Ar  692  0.1561762E+02  0.1822588E+02  0.2362521E+02  0.1506198E+03
Ar  693  0.1576280E+02  0.1576280E+02  0.2673090E+02  0.7862609E+03
Ar  694  0.1835359E+02  0.1835359E+02  0.2671156E+02  0.4479494E+03
Ar  695  0.1827743E+02  0.1563261E+02  0.3040915E+02  0.8402391E+02
Ar  696  0.1563261E+02  0.1827743E+02  0.3040915E+02  0.8402391E+02
Ar  697  0.1628668E+02  0.1628668E+02  0.3324093E+02  0.9556149E+02
Ar  698  0.1857558E+02  0.1857558E+02  0.3303001E+02  0.2151498E+03
Ar  699  0.1898477E+02  0.1649298E+02  0.3636934E+02  0.2000619E+03
Ar  700  0.1649298E+02  0.1898477E+02  0.3636934E+02  0.2000619E+03
Ar  701  0.1648310E+02  0.2161045E+02  0.1257606E+01  0.2521740E+03
Ar  702  0.1939497E+02  0.2440647E+02  0.1119627E+01  0.8185423E+02
Ar  703  0.1919471E+02  0.2189298E+02  0.4000218E+01  0.1145714E+03
Ar  704  0.1661809E+02  0.2460279E+02  0.3659315E+01  0.7847801E+02
Ar  705  0.1576989E+02  0.2193487E+02  0.5685819E+01  0.1028060E+03
Ar  706  0.1892092E+02  0.2465247E+02  0.6452859E+01  0.9752019E+02
Ar  707  0.1842409E+02  0.2129590E+02  0.8275355E+01  0.1267011E+03
Ar  708  0.1572239E+02  0.2483238E+02  0.7769653E+01  0.6888035E+03
Ar  709  0.1528190E+02  0.2127811E+02  0.1044479E+02  0.1806622E+03
Ar  710  0.1801670E+02  0.2402440E+02  0.1059232E+02  0.3270489E+03
Ar  711  0.1790462E+02  0.2061695E+02  0.1275436E+02  0.1872659E+03
Ar  712  0.1558858E+02  0.2422099E+02  0.1309385E+02  0.2117322E+03
Ar  713  0.1521698E+02  0.2072283E+02  0.1521698E+02  0.2049888E+03
Ar  714  0.1822588E+02  0.2362521E+02  0.1561762E+02  0.1506198E+03
Ar  715  0.1785266E+02  0.2038955E+02  0.1785266E+02  0.4630060E+02
Ar  716  0.1561762E+02  0.2362521E+02  0.1822588E+02  0.1506198E+03
Ar  717  0.1532069E+02  0.2070677E+02  0.2070677E+02  0.8909302E+02
Ar  718  0.1824902E+02  0.2325460E+02  0.2071008E+02  0.1140205E+03
Ar  719  0.1824902E+02  0.2071008E+02  0.2325460E+02  0.1140205E+03
Ar  720  0.1581300E+02  0.2333242E+02  0.2333242E+02  0.1652391E+03
Ar  721  0.1575424E+02  0.2055155E+02  0.2697512E+02  0.9420626E+02
Ar  722  0.1838861E+02  0.2336718E+02  0.2625463E+02  0.5304810E+03
Ar  723  0.1843331E+02  0.2091358E+02  0.3023219E+02  0.8684071E+02
Ar  724  0.1659255E+02  0.2370584E+02  0.2940444E+02  0.3037607E+03
Ar  725  0.1619815E+02  0.2119169E+02  0.3297623E+02  0.2597923E+03
Ar  726  0.1879074E+02  0.2391788E+02  0.3277873E+02  0.3851484E+02
Ar  727  0.1898283E+02  0.2145946E+02  0.3629286E+02  0.2101908E+02
Ar  728  0.1678627E+02  0.2442560E+02  0.3609909E+02  0.1669162E+03
Ar  729  0.1687245E+02  0.2711145E+02  0.7952394E+00  0.1832667E+03
Ar  730  0.1937775E+02  0.2951478E+02  0.5748880E+00  0.1861576E+03
Ar  731  0.1921849E+02  0.2717713E+02  0.3857517E+01  0.4823546E+03
Ar  732  0.1670028E+02  0.3026448E+02  0.3085672E+01  0.2092751E+02
Ar  733  0.1644226E+02  0.2778517E+02  0.5918341E+01  0.3510812E+03
Ar  734  0.1930995E+02  0.2999699E+02  0.6079508E+01  0.2665919E+02
Ar  735  0.1874768E+02  0.2775743E+02  0.8682184E+01  0.5993618E+03
Ar  736  0.1632265E+02  0.3064225E+02  0.8447426E+01  0.8815844E+02
Ar  737  0.1568095E+02  0.2752929E+02  0.1059746E+02  0.1119356E+03
Ar  738  0.1876691E+02  0.3034487E+02  0.1138583E+02  0.4841098E+03
Ar  739  0.1839284E+02  0.2688857E+02  0.1292712E+02  0.1967005E+03
Ar  740  0.1570731E+02  0.3062541E+02  0.1320733E+02  0.6805407E+02
Ar  741  0.1576280E+02  0.2673090E+02  0.1576280E+02  0.7862609E+03
Ar  742  0.1827743E+02  0.3040915E+02  0.1563261E+02  0.8402391E+02
Ar  743  0.1835359E+02  0.2671156E+02  0.1835359E+02  0.4479494E+03
Ar  744  0.1563261E+02  0.3040915E+02  0.1827743E+02  0.8402391E+02
Ar  745  0.1575424E+02  0.2697512E+02  0.2055155E+02  0.9420626E+02
Ar  746  0.1843331E+02  0.3023219E+02  0.2091358E+02  0.8684071E+02
Ar  747  0.1838861E+02  0.2625463E+02  0.2336718E+02  0.5304810E+03
Ar  748  0.1659255E+02  0.2940444E+02  0.2370584E+02  0.3037607E+03
Ar  749  0.1664397E+02  0.2647798E+02  0.2647798E+02  0.4557114E+03
Ar  750  0.1896082E+02  0.2932428E+02  0.2649181E+02  0.5075008E+03
Ar  751  0.1896082E+02  0.2649181E+02  0.2932428E+02  0.5075008E+03
Ar  752  0.1743792E+02  0.2946947E+02  0.2946947E+02  0.5645764E+02
Ar  753  0.1720804E+02  0.2702446E+02  0.3230877E+02  0.7985322E+02
Ar  754  0.1969841E+02  0.2952985E+02  0.3227316E+02  0.1815428E+02
Ar  755  0.1913755E+02  0.2648526E+02  0.3560254E+02  0.1605760E+03
Ar  756  0.1698977E+02  0.2934757E+02  0.3509236E+02  0.1180690E+03
Ar  757  0.1688827E+02  0.3253468E+02  0.1363111E+00  0.1018202E+03
Ar  758  0.1985397E+02  0.3487889E+02  0.3761344E+02  0.4249632E+03
Ar  759  0.1978263E+02  0.3253248E+02  0.2921403E+01  0.5236417E+03
Ar  760  0.1680046E+02  0.3484321E+02  0.2545880E+01  0.3807913E+03
Ar  761  0.1679982E+02  0.3270605E+02  0.5381518E+01  0.1944901E+03
Ar  762  0.1939341E+02  0.3545638E+02  0.5454586E+01  0.1667547E+03
Ar  763  0.1940400E+02  0.3305035E+02  0.8539234E+01  0.3440529E+03
Ar  764  0.1659210E+02  0.3535114E+02  0.8055953E+01  0.1545742E+03
Ar  765  0.1618397E+02  0.3295953E+02  0.1086677E+02  0.5292080E+02
Ar  766  0.1906373E+02  0.3589922E+02  0.1099952E+02  0.3709123E+03
Ar  767  0.1882889E+02  0.3372819E+02  0.1349142E+02  0.7854927E+02
Ar  768  0.1604368E+02  0.3586169E+02  0.1352900E+02  0.4452504E+02
Ar  769  0.1628668E+02  0.3324093E+02  0.1628668E+02  0.9556149E+02
Ar  770  0.1898477E+02  0.3636934E+02  0.1649298E+02  0.2000619E+03
Ar  771  0.1857558E+02  0.3303001E+02  0.1857558E+02  0.2151498E+03
Ar  772  0.1649298E+02  0.3636934E+02  0.1898477E+02  0.2000619E+03
Ar  773  0.1619815E+02  0.3297623E+02  0.2119169E+02  0.2597923E+03
Ar  774  0.1898283E+02  0.3629286E+02  0.2145946E+02  0.2101908E+02
Ar  775  0.1879074E+02  0.3277873E+02  0.2391788E+02  0.3851484E+02
Ar  776  0.1678627E+02  0.3609909E+02  0.2442560E+02  0.1669162E+03
Ar  777  0.1720804E+02  0.3230877E+02  0.2702446E+02  0.7985322E+02
Ar  778  0.1913755E+02  0.3560254E+02  0.2648526E+02  0.1605760E+03
Ar  779  0.1969841E+02  0.3227316E+02  0.2952985E+02  0.1815428E+02
Ar  780  0.1698977E+02  0.3509236E+02  0.2934757E+02  0.1180690E+03
Ar  781  0.1728044E+02  0.3201318E+02  0.3201318E+02  0.1525484E+03
Ar  782  0.1951112E+02  0.3514589E+02  0.3208925E+02  0.4084344E+03
Ar  783  0.1951112E+02  0.3208925E+02  0.3514589E+02  0.4084344E+03
Ar  784  0.1702846E+02  0.3503823E+02  0.3503823E+02  0.3935284E+03
Ar  785  0.2247810E+02  0.3743110E+02  0.3743110E+02  0.1516363E+04
Ar  786  0.2517562E+02  0.2173044E+01  0.3748522E+02  0.1297554E+03
Ar  787  0.2517562E+02  0.3748522E+02  0.2173044E+01  0.1297554E+03
Ar  788  0.2301717E+02  0.2267331E+01  0.2267331E+01  0.5662540E+03
Ar  789  0.2248434E+02  0.3769569E+02  0.5172388E+01  0.2144225E+03
Ar  790  0.2509399E+02  0.2523223E+01  0.5593387E+01  0.1726617E+03
Ar  791  0.2494286E+02  0.3775306E+02  0.8311443E+01  0.2730057E+03
Ar  792  0.2250831E+02  0.2511620E+01  0.8267442E+01  0.6277926E+03
Ar  793  0.2227941E+02  0.4789382E+00  0.1087410E+02  0.3782946E+03
Ar  794  0.2533683E+02  0.2685029E+01  0.1100184E+02  0.2196008E+03
Ar  795  0.2458682E+02  0.7906584E+00  0.1419063E+02  0.6696076E+03
Ar  796  0.2177306E+02  0.3104606E+01  0.1315544E+02  0.4670289E+03
Ar  797  0.2161045E+02  0.1257606E+01  0.1648310E+02  0.2521740E+03
Ar  798  0.2460279E+02  0.3659315E+01  0.1661809E+02  0.7847801E+02
Ar  799  0.2440647E+02  0.1119627E+01  0.1939497E+02  0.8185423E+02
Ar  800  0.2189298E+02  0.4000218E+01  0.1919471E+02  0.1145714E+03
Ar  801  0.2194084E+02  0.1386780E+01  0.2194084E+02  0.1786801E+03
Ar  802  0.2482562E+02  0.4139993E+01  0.2167669E+02  0.1918587E+02
Ar  803  0.2466258E+02  0.1669176E+00  0.2466258E+02  0.8980084E+01
Ar  804  0.2167669E+02  0.4139993E+01  0.2482562E+02  0.1918587E+02
Ar  805  0.2162455E+02  0.1079888E+01  0.2662624E+02  0.4280052E+03
Ar  806  0.2420691E+02  0.4034219E+01  0.2703380E+02  0.2158822E+03
Ar  807  0.2395785E+02  0.3772722E+02  0.2894637E+02  0.2094772E+03
Ar  808  0.2195672E+02  0.3386255E+01  0.2962060E+02  0.1443007E+03
Ar  809  0.2181922E+02  0.5294794E-01  0.3225269E+02  0.6183116E+03
Ar  810  0.2442031E+02  0.2907509E+01  0.3215450E+02  0.1398031E+03
Ar  811  0.2443879E+02  0.3729079E+02  0.3459879E+02  0.1679250E+03
Ar  812  0.2234983E+02  0.2533430E+01  0.3487220E+02  0.2315678E+03
Ar  813  0.2248434E+02  0.5172388E+01  0.3769569E+02  0.2144225E+03
Ar  814  0.2494286E+02  0.8311443E+01  0.3775306E+02  0.2730057E+03
Ar  815  0.2509399E+02  0.5593387E+01  0.2523223E+01  0.1726617E+03
Ar  816  0.2250831E+02  0.8267442E+01  0.2511620E+01  0.6277926E+03
Ar  817  0.2288065E+02  0.5262233E+01  0.5262233E+01  0.9783463E+03
Ar  818  0.2553384E+02  0.8219245E+01  0.5177059E+01  0.2148153E+03
Ar  819  0.2553384E+02  0.5177059E+01  0.8219245E+01  0.2148153E+03
Ar  820  0.2274061E+02  0.7891982E+01  0.7891982E+01  0.2983900E+03
Ar  821  0.2253745E+02  0.5203556E+01  0.1044524E+02  0.1737901E+03
Ar  822  0.2510417E+02  0.7926484E+01  0.1061546E+02  0.6759065E+03
Ar  823  0.2476052E+02  0.5528604E+01  0.1337152E+02  0.1777314E+03
Ar  824  0.2178420E+02  0.8062402E+01  0.1305672E+02  0.8690003E+02
Ar  825  0.2193487E+02  0.5685819E+01  0.1576989E+02  0.1028060E+03
Ar  826  0.2483238E+02  0.7769653E+01  0.1572239E+02  0.6888035E+03
Ar  827  0.2465247E+02  0.6452859E+01  0.1892092E+02  0.9752019E+02
Ar  828  0.2129590E+02  0.8275355E+01  0.1842409E+02  0.1267011E+03
Ar  829  0.2169364E+02  0.6417135E+01  0.2169364E+02  0.2141339E+02
Ar  830  0.2395595E+02  0.9112220E+01  0.2145850E+02  0.6048765E+02
Ar  831  0.2475147E+02  0.6427879E+01  0.2475147E+02  0.1670361E+03
Ar  832  0.2145850E+02  0.9112220E+01  0.2395595E+02  0.6048765E+02
Ar  833  0.2180803E+02  0.6885715E+01  0.2704826E+02  0.3134714E+03
Ar  834  0.2468674E+02  0.9190295E+01  0.2737925E+02  0.7446383E+02
Ar  835  0.2449308E+02  0.6343846E+01  0.2976312E+02  0.2251415E+03
Ar  836  0.2199646E+02  0.8957582E+01  0.3019020E+02  0.4164441E+03
Ar  837  0.2213118E+02  0.5842598E+01  0.3288916E+02  0.3478881E+03
Ar  838  0.2481219E+02  0.8760803E+01  0.3282137E+02  0.2125215E+03
Ar  839  0.2489706E+02  0.5568530E+01  0.3499461E+02  0.9549886E+02
Ar  840  0.2214175E+02  0.8351819E+01  0.3564164E+02  0.1725536E+03
Ar  841  0.2227941E+02  0.1087410E+02  0.4789382E+00  0.3782946E+03
Ar  842  0.2458682E+02  0.1419063E+02  0.7906584E+00  0.6696076E+03
Ar  843  0.2533683E+02  0.1100184E+02  0.2685029E+01  0.2196008E+03
Ar  844  0.2177306E+02  0.1315544E+02  0.3104606E+01  0.4670289E+03
Ar  845  0.2253745E+02  0.1044524E+02  0.5203556E+01  0.1737901E+03
Ar  846  0.2476052E+02  0.1337152E+02  0.5528604E+01  0.1777314E+03
Ar  847  0.2510417E+02  0.1061546E+02  0.7926484E+01  0.6759065E+03
Ar  848  0.2178420E+02  0.1305672E+02  0.8062402E+01  0.8690003E+02
Ar  849  0.2166796E+02  0.1037430E+02  0.1037430E+02  0.2184376E+03
Ar  850  0.2469385E+02  0.1317453E+02  0.1056166E+02  0.5098811E+03
Ar  851  0.2469385E+02  0.1056166E+02  0.1317453E+02  0.5098811E+03
Ar  852  0.2159760E+02  0.1283957E+02  0.1283957E+02  0.1909114E+03
Ar  853  0.2127811E+02  0.1044479E+02  0.1528190E+02  0.1806622E+03
Ar  854  0.2422099E+02  0.1309385E+02  0.1558858E+02  0.2117322E+03
Ar  855  0.2402440E+02  0.1059232E+02  0.1801670E+02  0.3270489E+03
Ar  856  0.2061695E+02  0.1275436E+02  0.1790462E+02  0.1872659E+03
Ar  857  0.2098399E+02  0.1084282E+02  0.2098399E+02  0.1660707E+03
Ar  858  0.2374481E+02  0.1290943E+02  0.2095974E+02  0.5737078E+03
Ar  859  0.2422891E+02  0.1131118E+02  0.2422891E+02  0.1326268E+03
Ar  860  0.2095974E+02  0.1290943E+02  0.2374481E+02  0.5737078E+03
Ar  861  0.2165149E+02  0.1121763E+02  0.2698732E+02  0.1963992E+02
Ar  862  0.2365708E+02  0.1403489E+02  0.2659176E+02  0.1865993E+03
Ar  863  0.2467940E+02  0.1208689E+02  0.2966779E+02  0.2071833E+03
Ar  864  0.2121729E+02  0.1389780E+02  0.2993773E+02  0.5634393E+03
Ar  865  0.2211531E+02  0.1154912E+02  0.3305324E+02  0.3664785E+03
Ar  866  0.2427997E+02  0.1468064E+02  0.3276709E+02  0.5198342E+03
Ar  867  0.2481303E+02  0.1118543E+02  0.3563563E+02  0.6429924E+02
Ar  868  0.2193058E+02  0.1387881E+02  0.3608415E+02  0.3469120E+03
Ar  869  0.2161045E+02  0.1648310E+02  0.1257606E+01  0.2521740E+03
Ar  870  0.2440647E+02  0.1939497E+02  0.1119627E+01  0.8185423E+02
Ar  871  0.2460279E+02  0.1661809E+02  0.3659315E+01  0.7847801E+02
Ar  872  0.2189298E+02  0.1919471E+02  0.4000218E+01  0.1145714E+03
Ar  873  0.2193487E+02  0.1576989E+02  0.5685819E+01  0.1028060E+03
Ar  874  0.2465247E+02  0.1892092E+02  0.6452859E+01  0.9752019E+02
Ar  875  0.2483238E+02  0.1572239E+02  0.7769653E+01  0.6888035E+03
Ar  876  0.2129590E+02  0.1842409E+02  0.8275355E+01  0.1267011E+03
Ar  877  0.2127811E+02  0.1528190E+02  0.1044479E+02  0.1806622E+03
Ar  878  0.2402440E+02  0.1801670E+02  0.1059232E+02  0.3270489E+03
Ar  879  0.2422099E+02  0.1558858E+02  0.1309385E+02  0.2117322E+03
Ar  880  0.2061695E+02  0.1790462E+02  0.1275436E+02  0.1872659E+03
Ar  881  0.2072283E+02  0.1521698E+02  0.1521698E+02  0.2049888E+03
Ar  882  0.2362521E+02  0.1822588E+02  0.1561762E+02  0.1506198E+03
Ar  883  0.2362521E+02  0.1561762E+02  0.1822588E+02  0.1506198E+03
Ar  884  0.2038955E+02  0.1785266E+02  0.1785266E+02  0.4630060E+02
Ar  885  0.2070677E+02  0.1532069E+02  0.2070677E+02  0.8909302E+02
Ar  886  0.2325460E+02  0.1824902E+02  0.2071008E+02  0.1140205E+03
Ar  887  0.2333242E+02  0.1581300E+02  0.2333242E+02  0.1652391E+03
Ar  888  0.2071008E+02  0.1824902E+02  0.2325460E+02  0.1140205E+03
Ar  889  0.2055155E+02  0.1575424E+02  0.2697512E+02  0.9420626E+02
Ar  890  0.2336718E+02  0.1838861E+02  0.2625463E+02  0.5304810E+03
Ar  891  0.2370584E+02  0.1659255E+02  0.2940444E+02  0.3037607E+03
Ar  892  0.2091358E+02  0.1843331E+02  0.3023219E+02  0.8684071E+02
Ar  893  0.2119169E+02  0.1619815E+02  0.3297623E+02  0.2597923E+03
Ar  894  0.2391788E+02  0.1879074E+02  0.3277873E+02  0.3851484E+02
Ar  895  0.2442560E+02  0.1678627E+02  0.3609909E+02  0.1669162E+03
Ar  896  0.2145946E+02  0.1898283E+02  0.3629286E+02  0.2101908E+02
Ar  897  0.2194084E+02  0.2194084E+02  0.1386780E+01  0.1786801E+03
Ar  898  0.2466258E+02  0.2466258E+02  0.1669176E+00  0.8980084E+01
Ar  899  0.2482562E+02  0.2167669E+02  0.4139993E+01  0.1918587E+02
Ar  900  0.2167669E+02  0.2482562E+02  0.4139993E+01  0.1918587E+02
Ar  901  0.2169364E+02  0.2169364E+02  0.6417135E+01  0.2141339E+02
Ar  902  0.2475147E+02  0.2475147E+02  0.6427879E+01  0.1670361E+03
Ar  903  0.2395595E+02  0.2145850E+02  0.9112220E+01  0.6048765E+02
Ar  904  0.2145850E+02  0.2395595E+02  0.9112220E+01  0.6048765E+02
Ar  905  0.2098399E+02  0.2098399E+02  0.1084282E+02  0.1660707E+03
Ar  906  0.2422891E+02  0.2422891E+02  0.1131118E+02  0.1326268E+03
Ar  907  0.2374481E+02  0.2095974E+02  0.1290943E+02  0.5737078E+03
Ar  908  0.2095974E+02  0.2374481E+02  0.1290943E+02  0.5737078E+03
Ar  909  0.2070677E+02  0.2070677E+02  0.1532069E+02  0.8909302E+02
Ar  910  0.2333242E+02  0.2333242E+02  0.1581300E+02  0.1652391E+03
Ar  911  0.2325460E+02  0.2071008E+02  0.1824902E+02  0.1140205E+03
Ar  912  0.2071008E+02  0.2325460E+02  0.1824902E+02  0.1140205E+03
Ar  913  0.2040076E+02  0.2040076E+02  0.2040076E+02  0.2104610E+03
Ar  914  0.2326254E+02  0.2326254E+02  0.2077782E+02  0.2013023E+03
Ar  915  0.2326254E+02  0.2077782E+02  0.2326254E+02  0.2013023E+03
Ar  916  0.2077782E+02  0.2326254E+02  0.2326254E+02  0.2013023E+03
Ar  917  0.2084007E+02  0.2084007E+02  0.2612753E+02  0.5788428E+02
Ar  918  0.2332161E+02  0.2332161E+02  0.2596216E+02  0.4263248E+02
Ar  919  0.2342495E+02  0.2089688E+02  0.2877725E+02  0.6919503E+02
Ar  920  0.2089688E+02  0.2342495E+02  0.2877725E+02  0.6919503E+02
Ar  921  0.2105439E+02  0.2105439E+02  0.3272536E+02  0.6247133E+02
Ar  922  0.2340167E+02  0.2340167E+02  0.3188913E+02  0.1311748E+03
Ar  923  0.2386672E+02  0.2138609E+02  0.3556820E+02  0.8937033E+02
Ar  924  0.2138609E+02  0.2386672E+02  0.3556820E+02  0.8937033E+02
Ar  925  0.2162455E+02  0.2662624E+02  0.1079888E+01  0.4280052E+03
Ar  926  0.2395785E+02  0.2894637E+02  0.3772722E+02  0.2094772E+03
Ar  927  0.2420691E+02  0.2703380E+02  0.4034219E+01  0.2158822E+03
Ar  928  0.2195672E+02  0.2962060E+02  0.3386255E+01  0.1443007E+03
Ar  929  0.2180803E+02  0.2704826E+02  0.6885715E+01  0.3134714E+03
Ar  930  0.2449308E+02  0.2976312E+02  0.6343846E+01  0.2251415E+03
Ar  931  0.2468674E+02  0.2737925E+02  0.9190295E+01  0.7446383E+02
Ar  932  0.2199646E+02  0.3019020E+02  0.8957582E+01  0.4164441E+03
Ar  933  0.2165149E+02  0.2698732E+02  0.1121763E+02  0.1963992E+02
Ar  934  0.2467940E+02  0.2966779E+02  0.1208689E+02  0.2071833E+03
Ar  935  0.2365708E+02  0.2659176E+02  0.1403489E+02  0.1865993E+03
Ar  936  0.2121729E+02  0.2993773E+02  0.1389780E+02  0.5634393E+03
Ar  937  0.2055155E+02  0.2697512E+02  0.1575424E+02  0.9420626E+02
Ar  938  0.2370584E+02  0.2940444E+02  0.1659255E+02  0.3037607E+03
Ar  939  0.2336718E+02  0.2625463E+02  0.1838861E+02  0.5304810E+03
Ar  940  0.2091358E+02  0.3023219E+02  0.1843331E+02  0.8684071E+02
Ar  941  0.2084007E+02  0.2612753E+02  0.2084007E+02  0.5788428E+02
Ar  942  0.2342495E+02  0.2877725E+02  0.2089688E+02  0.6919503E+02
Ar  943  0.2332161E+02  0.2596216E+02  0.2332161E+02  0.4263248E+02
Ar  944  0.2089688E+02  0.2877725E+02  0.2342495E+02  0.6919503E+02
Ar  945  0.2041222E+02  0.2579392E+02  0.2579392E+02  0.5102840E+03
Ar  946  0.2317612E+02  0.2859748E+02  0.2596052E+02  0.2191478E+03
Ar  947  0.2317612E+02  0.2596052E+02  0.2859748E+02  0.2191478E+03
Ar  948  0.2110277E+02  0.2906453E+02  0.2906453E+02  0.3661648E+03
Ar  949  0.2134810E+02  0.2656118E+02  0.3169063E+02  0.7780536E+02
Ar  950  0.2351740E+02  0.2887506E+02  0.3167201E+02  0.2787567E+03
Ar  951  0.2361569E+02  0.2630947E+02  0.3463794E+02  0.3359540E+03
Ar  952  0.2166985E+02  0.2933057E+02  0.3518417E+02  0.1974830E+03
Ar  953  0.2181922E+02  0.3225269E+02  0.5294794E-01  0.6183116E+03
Ar  954  0.2443879E+02  0.3459879E+02  0.3729079E+02  0.1679250E+03
Ar  955  0.2442031E+02  0.3215450E+02  0.2907509E+01  0.1398031E+03
Ar  956  0.2234983E+02  0.3487220E+02  0.2533430E+01  0.2315678E+03
Ar  957  0.2213118E+02  0.3288916E+02  0.5842598E+01  0.3478881E+03
Ar  958  0.2489706E+02  0.3499461E+02  0.5568530E+01  0.9549886E+02
Ar  959  0.2481219E+02  0.3282137E+02  0.8760803E+01  0.2125215E+03
Ar  960  0.2214175E+02  0.3564164E+02  0.8351819E+01  0.1725536E+03
Ar  961  0.2211531E+02  0.3305324E+02  0.1154912E+02  0.3664785E+03
Ar  962  0.2481303E+02  0.3563563E+02  0.1118543E+02  0.6429924E+02
Ar  963  0.2427997E+02  0.3276709E+02  0.1468064E+02  0.5198342E+03
Ar  964  0.2193058E+02  0.3608415E+02  0.1387881E+02  0.3469120E+03
Ar  965  0.2119169E+02  0.3297623E+02  0.1619815E+02  0.2597923E+03
Ar  966  0.2442560E+02  0.3609909E+02  0.1678627E+02  0.1669162E+03
Ar  967  0.2391788E+02  0.3277873E+02  0.1879074E+02  0.3851484E+02
Ar  968  0.2145946E+02  0.3629286E+02  0.1898283E+02  0.2101908E+02
Ar  969  0.2105439E+02  0.3272536E+02  0.2105439E+02  0.6247133E+02
Ar  970  0.2386672E+02  0.3556820E+02  0.2138609E+02  0.8937033E+02
Ar  971  0.2340167E+02  0.3188913E+02  0.2340167E+02  0.1311748E+03
Ar  972  0.2138609E+02  0.3556820E+02  0.2386672E+02  0.8937033E+02
Ar  973  0.2134810E+02  0.3169063E+02  0.2656118E+02  0.7780536E+02
Ar  974  0.2361569E+02  0.3463794E+02  0.2630947E+02  0.3359540E+03
Ar  975  0.2351740E+02  0.3167201E+02  0.2887506E+02  0.2787567E+03
Ar  976  0.2166985E+02  0.3518417E+02  0.2933057E+02  0.1974830E+03
Ar  977  0.2177183E+02  0.3230223E+02  0.3230223E+02  0.1141846E+04
Ar  978  0.2426655E+02  0.3464460E+02  0.3204546E+02  0.3338332E+03
Ar  979  0.2426655E+02  0.3204546E+02  0.3464460E+02  0.3338332E+03
Ar  980  0.2237251E+02  0.3456577E+02  0.3456577E+02  0.4521484E+03
Ar  981  0.2720752E+02  0.3701273E+02  0.3701273E+02  0.6253050E+03
Ar  982  0.2949139E+02  0.2100996E+01  0.3730765E+02  0.7242148E+02
Ar  983  0.2949139E+02  0.3730765E+02  0.2100996E+01  0.7242148E+02
Ar  984  0.2730751E+02  0.2565699E+01  0.2565699E+01  0.9846456E+02
Ar  985  0.2746625E+02  0.3740678E+02  0.5569782E+01  0.1686297E+03
Ar  986  0.3002572E+02  0.2342595E+01  0.4949553E+01  0.2309309E+02
Ar  987  0.3000037E+02  0.3749309E+02  0.8539986E+01  0.2013412E+03
Ar  988  0.2778190E+02  0.2414077E+01  0.8168146E+01  0.2628358E+03
Ar  989  0.2760442E+02  0.1496127E+00  0.1138741E+02  0.1507882E+03
Ar  990  0.3030527E+02  0.2839775E+01  0.1111790E+02  0.5725511E+02
Ar  991  0.3008571E+02  0.2186837E+00  0.1405936E+02  0.6253415E+01
Ar  992  0.2747562E+02  0.2981493E+01  0.1394260E+02  0.1534552E+03
Ar  993  0.2711145E+02  0.7952394E+00  0.1687245E+02  0.1832667E+03
Ar  994  0.3026448E+02  0.3085672E+01  0.1670028E+02  0.2092751E+02
Ar  995  0.2951478E+02  0.5748880E+00  0.1937775E+02  0.1861576E+03
Ar  996  0.2717713E+02  0.3857517E+01  0.1921849E+02  0.4823546E+03
Ar  997  0.2662624E+02  0.1079888E+01  0.2162455E+02  0.4280052E+03
Ar  998  0.2962060E+02  0.3386255E+01  0.2195672E+02  0.1443007E+03
Ar  999  0.2894637E+02  0.3772722E+02  0.2395785E+02  0.2094772E+03
Ar 1000  0.2703380E+02  0.4034219E+01  0.2420691E+02  0.2158822E+03
Ar 1001  0.2708119E+02  0.9836395E-01  0.2708119E+02  0.1377122E+03
Ar 1002  0.2965030E+02  0.3198121E+01  0.2698414E+02  0.3522954E+02
Ar 1003  0.2969919E+02  0.3777471E+02  0.2969919E+02  0.3695375E+02
Ar 1004  0.2698414E+02  0.3198121E+01  0.2965030E+02  0.3522954E+02
Ar 1005  0.2639345E+02  0.3734570E+02  0.3145028E+02  0.3878956E+03
Ar 1006  0.2964439E+02  0.3375136E+01  0.3215230E+02  0.8167009E+02
Ar 1007  0.2937226E+02  0.3693912E+02  0.3396177E+02  0.8758089E+02
Ar 1008  0.2696734E+02  0.2168120E+01  0.3438558E+02  0.2649999E+03
Ar 1009  0.2746625E+02  0.5569782E+01  0.3740678E+02  0.1686297E+03
Ar 1010  0.3000037E+02  0.8539986E+01  0.3749309E+02  0.2013412E+03
Ar 1011  0.3002572E+02  0.4949553E+01  0.2342595E+01  0.2309309E+02
Ar 1012  0.2778190E+02  0.8168146E+01  0.2414077E+01  0.2628358E+03
Ar 1013  0.2763926E+02  0.5267680E+01  0.5267680E+01  0.1173250E+02
Ar 1014  0.3039185E+02  0.7993557E+01  0.5286938E+01  0.1060454E+02
Ar 1015  0.3039185E+02  0.5286938E+01  0.7993557E+01  0.1060454E+02
Ar 1016  0.2757539E+02  0.7973257E+01  0.7973257E+01  0.2772473E+03
Ar 1017  0.2798107E+02  0.5257037E+01  0.1105373E+02  0.5268537E+03
Ar 1018  0.3049604E+02  0.7977503E+01  0.1096788E+02  0.4708015E+02
Ar 1019  0.3025039E+02  0.5502230E+01  0.1393425E+02  0.1886337E+03
Ar 1020  0.2760822E+02  0.8143785E+01  0.1336924E+02  0.6097995E+03
Ar 1021  0.2778517E+02  0.5918341E+01  0.1644226E+02  0.3510812E+03
Ar 1022  0.3064225E+02  0.8447426E+01  0.1632265E+02  0.8815844E+02
Ar 1023  0.2999699E+02  0.6079508E+01  0.1930995E+02  0.2665919E+02
Ar 1024  0.2775743E+02  0.8682184E+01  0.1874768E+02  0.5993618E+03
Ar 1025  0.2704826E+02  0.6885715E+01  0.2180803E+02  0.3134714E+03
Ar 1026  0.3019020E+02  0.8957582E+01  0.2199646E+02  0.4164441E+03
Ar 1027  0.2976312E+02  0.6343846E+01  0.2449308E+02  0.2251415E+03
Ar 1028  0.2737925E+02  0.9190295E+01  0.2468674E+02  0.7446383E+02
Ar 1029  0.2708177E+02  0.5940472E+01  0.2708177E+02  0.5927714E+03
Ar 1030  0.3007006E+02  0.8812102E+01  0.2721141E+02  0.2072280E+03
Ar 1031  0.2973999E+02  0.6125029E+01  0.2973999E+02  0.2287897E+03
Ar 1032  0.2721141E+02  0.8812102E+01  0.3007006E+02  0.2072280E+03
Ar 1033  0.2707100E+02  0.5879005E+01  0.3238850E+02  0.3161999E+03
Ar 1034  0.3009124E+02  0.8968275E+01  0.3257006E+02  0.1880525E+03
Ar 1035  0.2979471E+02  0.6033131E+01  0.3469037E+02  0.3514203E+03
Ar 1036  0.2759025E+02  0.8738591E+01  0.3504598E+02  0.1804476E+02
Ar 1037  0.2760442E+02  0.1138741E+02  0.1496127E+00  0.1507882E+03
Ar 1038  0.3008571E+02  0.1405936E+02  0.2186837E+00  0.6253415E+01
Ar 1039  0.3030527E+02  0.1111790E+02  0.2839775E+01  0.5725511E+02
Ar 1040  0.2747562E+02  0.1394260E+02  0.2981493E+01  0.1534552E+03
Ar 1041  0.2798107E+02  0.1105373E+02  0.5257037E+01  0.5268537E+03
Ar 1042  0.3025039E+02  0.1393425E+02  0.5502230E+01  0.1886337E+03
Ar 1043  0.3049604E+02  0.1096788E+02  0.7977503E+01  0.4708015E+02
Ar 1044  0.2760822E+02  0.1336924E+02  0.8143785E+01  0.6097995E+03
Ar 1045  0.2807749E+02  0.1082070E+02  0.1082070E+02  0.9362407E+01
Ar 1046  0.3085930E+02  0.1353233E+02  0.1077596E+02  0.8598316E+02
Ar 1047  0.3085930E+02  0.1077596E+02  0.1353233E+02  0.8598316E+02
Ar 1048  0.2791278E+02  0.1327105E+02  0.1327105E+02  0.4750182E+02
Ar 1049  0.2752929E+02  0.1059746E+02  0.1568095E+02  0.1119356E+03
Ar 1050  0.3062541E+02  0.1320733E+02  0.1570731E+02  0.6805407E+02
Ar 1051  0.3034487E+02  0.1138583E+02  0.1876691E+02  0.4841098E+03
Ar 1052  0.2688857E+02  0.1292712E+02  0.1839284E+02  0.1967005E+03
Ar 1053  0.2698732E+02  0.1121763E+02  0.2165149E+02  0.1963992E+02
Ar 1054  0.2993773E+02  0.1389780E+02  0.2121729E+02  0.5634393E+03
Ar 1055  0.2966779E+02  0.1208689E+02  0.2467940E+02  0.2071833E+03
Ar 1056  0.2659176E+02  0.1403489E+02  0.2365708E+02  0.1865993E+03
Ar 1057  0.2682650E+02  0.1197819E+02  0.2682650E+02  0.2267511E+01
Ar 1058  0.2963406E+02  0.1477519E+02  0.2678720E+02  0.9056294E+02
Ar 1059  0.2950603E+02  0.1208339E+02  0.2950603E+02  0.2035911E+03
Ar 1060  0.2678720E+02  0.1477519E+02  0.2963406E+02  0.9056294E+02
Ar 1061  0.2723122E+02  0.1177707E+02  0.3274987E+02  0.9615991E+02
Ar 1062  0.2937285E+02  0.1483850E+02  0.3216826E+02  0.4796312E+02
Ar 1063  0.2993158E+02  0.1173074E+02  0.3525380E+02  0.2052499E+03
Ar 1064  0.2699879E+02  0.1434123E+02  0.3535270E+02  0.8862976E+02
Ar 1065  0.2711145E+02  0.1687245E+02  0.7952394E+00  0.1832667E+03
Ar 1066  0.2951478E+02  0.1937775E+02  0.5748880E+00  0.1861576E+03
Ar 1067  0.3026448E+02  0.1670028E+02  0.3085672E+01  0.2092751E+02
Ar 1068  0.2717713E+02  0.1921849E+02  0.3857517E+01  0.4823546E+03
Ar 1069  0.2778517E+02  0.1644226E+02  0.5918341E+01  0.3510812E+03
Ar 1070  0.2999699E+02  0.1930995E+02  0.6079508E+01  0.2665919E+02
Ar 1071  0.3064225E+02  0.1632265E+02  0.8447426E+01  0.8815844E+02
Ar 1072  0.2775743E+02  0.1874768E+02  0.8682184E+01  0.5993618E+03
Ar 1073  0.2752929E+02  0.1568095E+02  0.1059746E+02  0.1119356E+03
Ar 1074  0.3034487E+02  0.1876691E+02  0.1138583E+02  0.4841098E+03
Ar 1075  0.3062541E+02  0.1570731E+02  0.1320733E+02  0.6805407E+02
Ar 1076  0.2688857E+02  0.1839284E+02  0.1292712E+02  0.1967005E+03
Ar 1077  0.2673090E+02  0.1576280E+02  0.1576280E+02  0.7862609E+03
Ar 1078  0.3040915E+02  0.1827743E+02  0.1563261E+02  0.8402391E+02
Ar 1079  0.3040915E+02  0.1563261E+02  0.1827743E+02  0.8402391E+02
Ar 1080  0.2671156E+02  0.1835359E+02  0.1835359E+02  0.4479494E+03
Ar 1081  0.2697512E+02  0.1575424E+02  0.2055155E+02  0.9420626E+02
Ar 1082  0.3023219E+02  0.1843331E+02  0.2091358E+02  0.8684071E+02
Ar 1083  0.2940444E+02  0.1659255E+02  0.2370584E+02  0.3037607E+03
Ar 1084  0.2625463E+02  0.1838861E+02  0.2336718E+02  0.5304810E+03
Ar 1085  0.2647798E+02  0.1664397E+02  0.2647798E+02  0.4557114E+03
Ar 1086  0.2932428E+02  0.1896082E+02  0.2649181E+02  0.5075008E+03
Ar 1087  0.2946947E+02  0.1743792E+02  0.2946947E+02  0.5645764E+02
Ar 1088  0.2649181E+02  0.1896082E+02  0.2932428E+02  0.5075008E+03
Ar 1089  0.2702446E+02  0.1720804E+02  0.3230877E+02  0.7985322E+02
Ar 1090  0.2952985E+02  0.1969841E+02  0.3227316E+02  0.1815428E+02
Ar 1091  0.2934757E+02  0.1698977E+02  0.3509236E+02  0.1180690E+03
Ar 1092  0.2648526E+02  0.1913755E+02  0.3560254E+02  0.1605760E+03
Ar 1093  0.2662624E+02  0.2162455E+02  0.1079888E+01  0.4280052E+03
Ar 1094  0.2894637E+02  0.2395785E+02  0.3772722E+02  0.2094772E+03
Ar 1095  0.2962060E+02  0.2195672E+02  0.3386255E+01  0.1443007E+03
Ar 1096  0.2703380E+02  0.2420691E+02  0.4034219E+01  0.2158822E+03
Ar 1097  0.2704826E+02  0.2180803E+02  0.6885715E+01  0.3134714E+03
Ar 1098  0.2976312E+02  0.2449308E+02  0.6343846E+01  0.2251415E+03
Ar 1099  0.3019020E+02  0.2199646E+02  0.8957582E+01  0.4164441E+03
Ar 1100  0.2737925E+02  0.2468674E+02  0.9190295E+01  0.7446383E+02
Ar 1101  0.2698732E+02  0.2165149E+02  0.1121763E+02  0.1963992E+02
Ar 1102  0.2966779E+02  0.2467940E+02  0.1208689E+02  0.2071833E+03
Ar 1103  0.2993773E+02  0.2121729E+02  0.1389780E+02  0.5634393E+03
Ar 1104  0.2659176E+02  0.2365708E+02  0.1403489E+02  0.1865993E+03
Ar 1105  0.2697512E+02  0.2055155E+02  0.1575424E+02  0.9420626E+02
Ar 1106  0.2940444E+02  0.2370584E+02  0.1659255E+02  0.3037607E+03
Ar 1107  0.3023219E+02  0.2091358E+02  0.1843331E+02  0.8684071E+02
Ar 1108  0.2625463E+02  0.2336718E+02  0.1838861E+02  0.5304810E+03
Ar 1109  0.2612753E+02  0.2084007E+02  0.2084007E+02  0.5788428E+02
Ar 1110  0.2877725E+02  0.2342495E+02  0.2089688E+02  0.6919503E+02
Ar 1111  0.2877725E+02  0.2089688E+02  0.2342495E+02  0.6919503E+02
Ar 1112  0.2596216E+02  0.2332161E+02  0.2332161E+02  0.4263248E+02
Ar 1113  0.2579392E+02  0.2041222E+02  0.2579392E+02  0.5102840E+03
Ar 1114  0.2859748E+02  0.2317612E+02  0.2596052E+02  0.2191478E+03
Ar 1115  0.2906453E+02  0.2110277E+02  0.2906453E+02  0.3661648E+03
Ar 1116  0.2596052E+02  0.2317612E+02  0.2859748E+02  0.2191478E+03
Ar 1117  0.2656118E+02  0.2134810E+02  0.3169063E+02  0.7780536E+02
Ar 1118  0.2887506E+02  0.2351740E+02  0.3167201E+02  0.2787567E+03
Ar 1119  0.2933057E+02  0.2166985E+02  0.3518417E+02  0.1974830E+03
Ar 1120  0.2630947E+02  0.2361569E+02  0.3463794E+02  0.3359540E+03
Ar 1121  0.2708119E+02  0.2708119E+02  0.9836395E-01  0.1377122E+03
Ar 1122  0.2969919E+02  0.2969919E+02  0.3777471E+02  0.3695375E+02
Ar 1123  0.2965030E+02  0.2698414E+02  0.3198121E+01  0.3522954E+02
Ar 1124  0.2698414E+02  0.2965030E+02  0.3198121E+01  0.3522954E+02
Ar 1125  0.2708177E+02  0.2708177E+02  0.5940472E+01  0.5927714E+03
Ar 1126  0.2973999E+02  0.2973999E+02  0.6125029E+01  0.2287897E+03
Ar 1127  0.3007006E+02  0.2721141E+02  0.8812102E+01  0.2072280E+03
Ar 1128  0.2721141E+02  0.3007006E+02  0.8812102E+01  0.2072280E+03
Ar 1129  0.2682650E+02  0.2682650E+02  0.1197819E+02  0.2267511E+01
Ar 1130  0.2950603E+02  0.2950603E+02  0.1208339E+02  0.2035911E+03
Ar 1131  0.2963406E+02  0.2678720E+02  0.1477519E+02  0.9056294E+02
Ar 1132  0.2678720E+02  0.2963406E+02  0.1477519E+02  0.9056294E+02
Ar 1133  0.2647798E+02  0.2647798E+02  0.1664397E+02  0.4557114E+03
Ar 1134  0.2946947E+02  0.2946947E+02  0.1743792E+02  0.5645764E+02
Ar 1135  0.2932428E+02  0.2649181E+02  0.1896082E+02  0.5075008E+03
Ar 1136  0.2649181E+02  0.2932428E+02  0.1896082E+02  0.5075008E+03
Ar 1137  0.2579392E+02  0.2579392E+02  0.2041222E+02  0.5102840E+03
Ar 1138  0.2906453E+02  0.2906453E+02  0.2110277E+02  0.3661648E+03
Ar 1139  0.2859748E+02  0.2596052E+02  0.2317612E+02  0.2191478E+03
Ar 1140  0.2596052E+02  0.2859748E+02  0.2317612E+02  0.2191478E+03
Ar 1141  0.2575891E+02  0.2575891E+02  0.2575891E+02  0.1718836E+03
Ar 1142  0.2849213E+02  0.2849213E+02  0.2580993E+02  0.2404385E+03
Ar 1143  0.2849213E+02  0.2580993E+02  0.2849213E+02  0.2404385E+03
Ar 1144  0.2580993E+02  0.2849213E+02  0.2849213E+02  0.2404385E+03
Ar 1145  0.2585955E+02  0.2585955E+02  0.3126040E+02  0.8613762E+02
Ar 1146  0.2849354E+02  0.2849354E+02  0.3136245E+02  0.8479882E+02
Ar 1147  0.2877363E+02  0.2608556E+02  0.3444392E+02  0.3393214E+03
Ar 1148  0.2608556E+02  0.2877363E+02  0.3444392E+02  0.3393214E+03
Ar 1149  0.2639345E+02  0.3145028E+02  0.3734570E+02  0.3878956E+03
Ar 1150  0.2937226E+02  0.3396177E+02  0.3693912E+02  0.8758089E+02
Ar 1151  0.2964439E+02  0.3215230E+02  0.3375136E+01  0.8167009E+02
Ar 1152  0.2696734E+02  0.3438558E+02  0.2168120E+01  0.2649999E+03
Ar 1153  0.2707100E+02  0.3238850E+02  0.5879005E+01  0.3161999E+03
Ar 1154  0.2979471E+02  0.3469037E+02  0.6033131E+01  0.3514203E+03
Ar 1155  0.3009124E+02  0.3257006E+02  0.8968275E+01  0.1880525E+03
Ar 1156  0.2759025E+02  0.3504598E+02  0.8738591E+01  0.1804476E+02
Ar 1157  0.2723122E+02  0.3274987E+02  0.1177707E+02  0.9615991E+02
Ar 1158  0.2993158E+02  0.3525380E+02  0.1173074E+02  0.2052499E+03
Ar 1159  0.2937285E+02  0.3216826E+02  0.1483850E+02  0.4796312E+02
Ar 1160  0.2699879E+02  0.3535270E+02  0.1434123E+02  0.8862976E+02
Ar 1161  0.2702446E+02  0.3230877E+02  0.1720804E+02  0.7985322E+02
Ar 1162  0.2934757E+02  0.3509236E+02  0.1698977E+02  0.1180690E+03
Ar 1163  0.2952985E+02  0.3227316E+02  0.1969841E+02  0.1815428E+02
Ar 1164  0.2648526E+02  0.3560254E+02  0.1913755E+02  0.1605760E+03
Ar 1165  0.2656118E+02  0.3169063E+02  0.2134810E+02  0.7780536E+02
Ar 1166  0.2933057E+02  0.3518417E+02  0.2166985E+02  0.1974830E+03
Ar 1167  0.2887506E+02  0.3167201E+02  0.2351740E+02  0.2787567E+03
Ar 1168  0.2630947E+02  0.3463794E+02  0.2361569E+02  0.3359540E+03
Ar 1169  0.2585955E+02  0.3126040E+02  0.2585955E+02  0.8613762E+02
Ar 1170  0.2877363E+02  0.3444392E+02  0.2608556E+02  0.3393214E+03
Ar 1171  0.2849354E+02  0.3136245E+02  0.2849354E+02  0.8479882E+02
Ar 1172  0.2608556E+02  0.3444392E+02  0.2877363E+02  0.3393214E+03
Ar 1173  0.2627085E+02  0.3150421E+02  0.3150421E+02  0.1262587E+03
Ar 1174  0.2885520E+02  0.3419133E+02  0.3138368E+02  0.1049013E+03
Ar 1175  0.2885520E+02  0.3138368E+02  0.3419133E+02  0.1049013E+03
Ar 1176  0.2701351E+02  0.3442556E+02  0.3442556E+02  0.1431082E+03
Ar 1177  0.3214247E+02  0.3687752E+02  0.3687752E+02  0.3899504E+03
Ar 1178  0.3439585E+02  0.1760172E+01  0.3696779E+02  0.1210245E+03
Ar 1179  0.3439585E+02  0.3696779E+02  0.1760172E+01  0.1210245E+03
Ar 1180  0.3221988E+02  0.2022981E+01  0.2022981E+01  0.1707532E+03
Ar 1181  0.3231120E+02  0.3718870E+02  0.5434338E+01  0.2291506E+03
Ar 1182  0.3486680E+02  0.2319334E+01  0.4968477E+01  0.8679564E+02
Ar 1183  0.3491141E+02  0.3725723E+02  0.8175006E+01  0.9138563E+03
Ar 1184  0.3269287E+02  0.2263065E+01  0.8086340E+01  0.2093261E+03
Ar 1185  0.3253841E+02  0.2944239E-01  0.1131304E+02  0.7189730E+02
Ar 1186  0.3501677E+02  0.2517636E+01  0.1082288E+02  0.2511092E+03
Ar 1187  0.3515676E+02  0.3777994E+02  0.1419051E+02  0.6371939E+02
Ar 1188  0.3285848E+02  0.2847967E+01  0.1412816E+02  0.2060560E+03
Ar 1189  0.3253468E+02  0.1363111E+00  0.1688827E+02  0.1018202E+03
Ar 1190  0.3484321E+02  0.2545880E+01  0.1680046E+02  0.3807913E+03
Ar 1191  0.3487889E+02  0.3761344E+02  0.1985397E+02  0.4249632E+03
Ar 1192  0.3253248E+02  0.2921403E+01  0.1978263E+02  0.5236417E+03
Ar 1193  0.3225269E+02  0.5294794E-01  0.2181922E+02  0.6183116E+03
Ar 1194  0.3487220E+02  0.2533430E+01  0.2234983E+02  0.2315678E+03
Ar 1195  0.3459879E+02  0.3729079E+02  0.2443879E+02  0.1679250E+03
Ar 1196  0.3215450E+02  0.2907509E+01  0.2442031E+02  0.1398031E+03
Ar 1197  0.3145028E+02  0.3734570E+02  0.2639345E+02  0.3878956E+03
Ar 1198  0.3438558E+02  0.2168120E+01  0.2696734E+02  0.2649999E+03
Ar 1199  0.3396177E+02  0.3693912E+02  0.2937226E+02  0.8758089E+02
Ar 1200  0.3215230E+02  0.3375136E+01  0.2964439E+02  0.8167009E+02
Ar 1201  0.3228303E+02  0.3903638E+00  0.3228303E+02  0.2976322E+02
Ar 1202  0.3480540E+02  0.2774353E+01  0.3181274E+02  0.1732927E+03
Ar 1203  0.3452317E+02  0.3710520E+02  0.3452317E+02  0.2431381E+03
Ar 1204  0.3181274E+02  0.2774353E+01  0.3480540E+02  0.1732927E+03
Ar 1205  0.3231120E+02  0.5434338E+01  0.3718870E+02  0.2291506E+03
Ar 1206  0.3491141E+02  0.8175006E+01  0.3725723E+02  0.9138563E+03
Ar 1207  0.3486680E+02  0.4968477E+01  0.2319334E+01  0.8679564E+02
Ar 1208  0.3269287E+02  0.8086340E+01  0.2263065E+01  0.2093261E+03
Ar 1209  0.3265757E+02  0.5358801E+01  0.5358801E+01  0.4137277E+03
Ar 1210  0.3530186E+02  0.7794971E+01  0.5013947E+01  0.8315368E+02
Ar 1211  0.3530186E+02  0.5013947E+01  0.7794971E+01  0.8315368E+02
Ar 1212  0.3288459E+02  0.7932402E+01  0.7932402E+01  0.7136287E+02
Ar 1213  0.3300308E+02  0.5222460E+01  0.1102302E+02  0.1536236E+03
Ar 1214  0.3552571E+02  0.7826781E+01  0.1062710E+02  0.8731035E+01
Ar 1215  0.3545402E+02  0.5345628E+01  0.1368782E+02  0.2354138E+03
Ar 1216  0.3300987E+02  0.7908530E+01  0.1369812E+02  0.4060441E+03
Ar 1217  0.3270605E+02  0.5381518E+01  0.1679982E+02  0.1944901E+03
Ar 1218  0.3535114E+02  0.8055953E+01  0.1659210E+02  0.1545742E+03
Ar 1219  0.3545638E+02  0.5454586E+01  0.1939341E+02  0.1667547E+03
Ar 1220  0.3305035E+02  0.8539234E+01  0.1940400E+02  0.3440529E+03
Ar 1221  0.3288916E+02  0.5842598E+01  0.2213118E+02  0.3478881E+03
Ar 1222  0.3564164E+02  0.8351819E+01  0.2214175E+02  0.1725536E+03
Ar 1223  0.3499461E+02  0.5568530E+01  0.2489706E+02  0.9549886E+02
Ar 1224  0.3282137E+02  0.8760803E+01  0.2481219E+02  0.2125215E+03
Ar 1225  0.3238850E+02  0.5879005E+01  0.2707100E+02  0.3161999E+03
Ar 1226  0.3504598E+02  0.8738591E+01  0.2759025E+02  0.1804476E+02
Ar 1227  0.3469037E+02  0.6033131E+01  0.2979471E+02  0.3514203E+03
Ar 1228  0.3257006E+02  0.8968275E+01  0.3009124E+02  0.1880525E+03
Ar 1229  0.3222017E+02  0.6282768E+01  0.3222017E+02  0.4635068E+03
Ar 1230  0.3500191E+02  0.8820434E+01  0.3245769E+02  0.1861863E+03
Ar 1231  0.3462288E+02  0.5806694E+01  0.3462288E+02  0.9932542E+01
Ar 1232  0.3245769E+02  0.8820434E+01  0.3500191E+02  0.1861863E+03
Ar 1233  0.3253841E+02  0.1131304E+02  0.2944239E-01  0.7189730E+02
Ar 1234  0.3515676E+02  0.1419051E+02  0.3777994E+02  0.6371939E+02
Ar 1235  0.3501677E+02  0.1082288E+02  0.2517636E+01  0.2511092E+03
Ar 1236  0.3285848E+02  0.1412816E+02  0.2847967E+01  0.2060560E+03
Ar 1237  0.3300308E+02  0.1102302E+02  0.5222460E+01  0.1536236E+03
Ar 1238  0.3545402E+02  0.1368782E+02  0.5345628E+01  0.2354138E+03
Ar 1239  0.3552571E+02  0.1062710E+02  0.7826781E+01  0.8731035E+01
Ar 1240  0.3300987E+02  0.1369812E+02  0.7908530E+01  0.4060441E+03
Ar 1241  0.3325484E+02  0.1068724E+02  0.1068724E+02  0.7935800E+02
Ar 1242  0.3576186E+02  0.1368067E+02  0.1051260E+02  0.2306520E+03
Ar 1243  0.3576186E+02  0.1051260E+02  0.1368067E+02  0.2306520E+03
Ar 1244  0.3331342E+02  0.1334065E+02  0.1334065E+02  0.2559159E+03
Ar 1245  0.3295953E+02  0.1086677E+02  0.1618397E+02  0.5292080E+02
Ar 1246  0.3586169E+02  0.1352900E+02  0.1604368E+02  0.4452504E+02
Ar 1247  0.3589922E+02  0.1099952E+02  0.1906373E+02  0.3709123E+03
Ar 1248  0.3372819E+02  0.1349142E+02  0.1882889E+02  0.7854927E+02
Ar 1249  0.3305324E+02  0.1154912E+02  0.2211531E+02  0.3664785E+03
Ar 1250  0.3608415E+02  0.1387881E+02  0.2193058E+02  0.3469120E+03
Ar 1251  0.3563563E+02  0.1118543E+02  0.2481303E+02  0.6429924E+02
Ar 1252  0.3276709E+02  0.1468064E+02  0.2427997E+02  0.5198342E+03
Ar 1253  0.3274987E+02  0.1177707E+02  0.2723122E+02  0.9615991E+02
Ar 1254  0.3535270E+02  0.1434123E+02  0.2699879E+02  0.8862976E+02
Ar 1255  0.3525380E+02  0.1173074E+02  0.2993158E+02  0.2052499E+03
Ar 1256  0.3216826E+02  0.1483850E+02  0.2937285E+02  0.4796312E+02
Ar 1257  0.3211873E+02  0.1237886E+02  0.3211873E+02  0.3481616E+03
Ar 1258  0.3484580E+02  0.1466873E+02  0.3216151E+02  0.6606751E+02
Ar 1259  0.3486644E+02  0.1179187E+02  0.3486644E+02  0.4196168E+03
Ar 1260  0.3216151E+02  0.1466873E+02  0.3484580E+02  0.6606751E+02
Ar 1261  0.3253468E+02  0.1688827E+02  0.1363111E+00  0.1018202E+03
Ar 1262  0.3487889E+02  0.1985397E+02  0.3761344E+02  0.4249632E+03
Ar 1263  0.3484321E+02  0.1680046E+02  0.2545880E+01  0.3807913E+03
Ar 1264  0.3253248E+02  0.1978263E+02  0.2921403E+01  0.5236417E+03
Ar 1265  0.3270605E+02  0.1679982E+02  0.5381518E+01  0.1944901E+03
Ar 1266  0.3545638E+02  0.1939341E+02  0.5454586E+01  0.1667547E+03
Ar 1267  0.3535114E+02  0.1659210E+02  0.8055953E+01  0.1545742E+03
Ar 1268  0.3305035E+02  0.1940400E+02  0.8539234E+01  0.3440529E+03
Ar 1269  0.3295953E+02  0.1618397E+02  0.1086677E+02  0.5292080E+02
Ar 1270  0.3589922E+02  0.1906373E+02  0.1099952E+02  0.3709123E+03
Ar 1271  0.3586169E+02  0.1604368E+02  0.1352900E+02  0.4452504E+02
Ar 1272  0.3372819E+02  0.1882889E+02  0.1349142E+02  0.7854927E+02
Ar 1273  0.3324093E+02  0.1628668E+02  0.1628668E+02  0.9556149E+02
Ar 1274  0.3636934E+02  0.1898477E+02  0.1649298E+02  0.2000619E+03
Ar 1275  0.3636934E+02  0.1649298E+02  0.1898477E+02  0.2000619E+03
Ar 1276  0.3303001E+02  0.1857558E+02  0.1857558E+02  0.2151498E+03
Ar 1277  0.3297623E+02  0.1619815E+02  0.2119169E+02  0.2597923E+03
Ar 1278  0.3629286E+02  0.1898283E+02  0.2145946E+02  0.2101908E+02
Ar 1279  0.3609909E+02  0.1678627E+02  0.2442560E+02  0.1669162E+03
Ar 1280  0.3277873E+02  0.1879074E+02  0.2391788E+02  0.3851484E+02
Ar 1281  0.3230877E+02  0.1720804E+02  0.2702446E+02  0.7985322E+02
Ar 1282  0.3560254E+02  0.1913755E+02  0.2648526E+02  0.1605760E+03
Ar 1283  0.3509236E+02  0.1698977E+02  0.2934757E+02  0.1180690E+03
Ar 1284  0.3227316E+02  0.1969841E+02  0.2952985E+02  0.1815428E+02
Ar 1285  0.3201318E+02  0.1728044E+02  0.3201318E+02  0.1525484E+03
Ar 1286  0.3514589E+02  0.1951112E+02  0.3208925E+02  0.4084344E+03
Ar 1287  0.3503823E+02  0.1702846E+02  0.3503823E+02  0.3935284E+03
Ar 1288  0.3208925E+02  0.1951112E+02  0.3514589E+02  0.4084344E+03
Ar 1289  0.3225269E+02  0.2181922E+02  0.5294794E-01  0.6183116E+03
Ar 1290  0.3459879E+02  0.2443879E+02  0.3729079E+02  0.1679250E+03
Ar 1291  0.3487220E+02  0.2234983E+02  0.2533430E+01  0.2315678E+03
Ar 1292  0.3215450E+02  0.2442031E+02  0.2907509E+01  0.1398031E+03
Ar 1293  0.3288916E+02  0.2213118E+02  0.5842598E+01  0.3478881E+03
Ar 1294  0.3499461E+02  0.2489706E+02  0.5568530E+01  0.9549886E+02
Ar 1295  0.3564164E+02  0.2214175E+02  0.8351819E+01  0.1725536E+03
Ar 1296  0.3282137E+02  0.2481219E+02  0.8760803E+01  0.2125215E+03
Ar 1297  0.3305324E+02  0.2211531E+02  0.1154912E+02  0.3664785E+03
Ar 1298  0.3563563E+02  0.2481303E+02  0.1118543E+02  0.6429924E+02
Ar 1299  0.3608415E+02  0.2193058E+02  0.1387881E+02  0.3469120E+03
Ar 1300  0.3276709E+02  0.2427997E+02  0.1468064E+02  0.5198342E+03
Ar 1301  0.3297623E+02  0.2119169E+02  0.1619815E+02  0.2597923E+03
Ar 1302  0.3609909E+02  0.2442560E+02  0.1678627E+02  0.1669162E+03
Ar 1303  0.3629286E+02  0.2145946E+02  0.1898283E+02  0.2101908E+02
Ar 1304  0.3277873E+02  0.2391788E+02  0.1879074E+02  0.3851484E+02
Ar 1305  0.3272536E+02  0.2105439E+02  0.2105439E+02  0.6247133E+02
Ar 1306  0.3556820E+02  0.2386672E+02  0.2138609E+02  0.8937033E+02
Ar 1307  0.3556820E+02  0.2138609E+02  0.2386672E+02  0.8937033E+02
Ar 1308  0.3188913E+02  0.2340167E+02  0.2340167E+02  0.1311748E+03
Ar 1309  0.3169063E+02  0.2134810E+02  0.2656118E+02  0.7780536E+02
Ar 1310  0.3463794E+02  0.2361569E+02  0.2630947E+02  0.3359540E+03
Ar 1311  0.3518417E+02  0.2166985E+02  0.2933057E+02  0.1974830E+03
Ar 1312  0.3167201E+02  0.2351740E+02  0.2887506E+02  0.2787567E+03
Ar 1313  0.3230223E+02  0.2177183E+02  0.3230223E+02  0.1141846E+04
Ar 1314  0.3464460E+02  0.2426655E+02  0.3204546E+02  0.3338332E+03
Ar 1315  0.3456577E+02  0.2237251E+02  0.3456577E+02  0.4521484E+03
Ar 1316  0.3204546E+02  0.2426655E+02  0.3464460E+02  0.3338332E+03
Ar 1317  0.3145028E+02  0.2639345E+02  0.3734570E+02  0.3878956E+03
Ar 1318  0.3396177E+02  0.2937226E+02  0.3693912E+02  0.8758089E+02
Ar 1319  0.3438558E+02  0.2696734E+02  0.2168120E+01  0.2649999E+03
Ar 1320  0.3215230E+02  0.2964439E+02  0.3375136E+01  0.8167009E+02
Ar 1321  0.3238850E+02  0.2707100E+02  0.5879005E+01  0.3161999E+03
Ar 1322  0.3469037E+02  0.2979471E+02  0.6033131E+01  0.3514203E+03
Ar 1323  0.3504598E+02  0.2759025E+02  0.8738591E+01  0.1804476E+02
Ar 1324  0.3257006E+02  0.3009124E+02  0.8968275E+01  0.1880525E+03
Ar 1325  0.3274987E+02  0.2723122E+02  0.1177707E+02  0.9615991E+02
Ar 1326  0.3525380E+02  0.2993158E+02  0.1173074E+02  0.2052499E+03
Ar 1327  0.3535270E+02  0.2699879E+02  0.1434123E+02  0.8862976E+02
Ar 1328  0.3216826E+02  0.2937285E+02  0.1483850E+02  0.4796312E+02
Ar 1329  0.3230877E+02  0.2702446E+02  0.1720804E+02  0.7985322E+02
Ar 1330  0.3509236E+02  0.2934757E+02  0.1698977E+02  0.1180690E+03
Ar 1331  0.3560254E+02  0.2648526E+02  0.1913755E+02  0.1605760E+03
Ar 1332  0.3227316E+02  0.2952985E+02  0.1969841E+02  0.1815428E+02
Ar 1333  0.3169063E+02  0.2656118E+02  0.2134810E+02  0.7780536E+02
Ar 1334  0.3518417E+02  0.2933057E+02  0.2166985E+02  0.1974830E+03
Ar 1335  0.3463794E+02  0.2630947E+02  0.2361569E+02  0.3359540E+03
Ar 1336  0.3167201E+02  0.2887506E+02  0.2351740E+02  0.2787567E+03
Ar 1337  0.3126040E+02  0.2585955E+02  0.2585955E+02  0.8613762E+02
Ar 1338  0.3444392E+02  0.2877363E+02  0.2608556E+02  0.3393214E+03
Ar 1339  0.3444392E+02  0.2608556E+02  0.2877363E+02  0.3393214E+03
Ar 1340  0.3136245E+02  0.2849354E+02  0.2849354E+02  0.8479882E+02
Ar 1341  0.3150421E+02  0.2627085E+02  0.3150421E+02  0.1262587E+03
Ar 1342  0.3419133E+02  0.2885520E+02  0.3138368E+02  0.1049013E+03
Ar 1343  0.3442556E+02  0.2701351E+02  0.3442556E+02  0.1431082E+03
Ar 1344  0.3138368E+02  0.2885520E+02  0.3419133E+02  0.1049013E+03
Ar 1345  0.3228303E+02  0.3228303E+02  0.3903638E+00  0.2976322E+02
Ar 1346  0.3452317E+02  0.3452317E+02  0.3710520E+02  0.2431381E+03
Ar 1347  0.3480540E+02  0.3181274E+02  0.2774353E+01  0.1732927E+03
Ar 1348  0.3181274E+02  0.3480540E+02  0.2774353E+01  0.1732927E+03
Ar 1349  0.3222017E+02  0.3222017E+02  0.6282768E+01  0.4635068E+03
Ar 1350  0.3462288E+02  0.3462288E+02  0.5806694E+01  0.9932542E+01
Ar 1351  0.3500191E+02  0.3245769E+02  0.8820434E+01  0.1861863E+03
Ar 1352  0.3245769E+02  0.3500191E+02  0.8820434E+01  0.1861863E+03
Ar 1353  0.3211873E+02  0.3211873E+02  0.1237886E+02  0.3481616E+03
Ar 1354  0.3486644E+02  0.3486644E+02  0.1179187E+02  0.4196168E+03
Ar 1355  0.3484580E+02  0.3216151E+02  0.1466873E+02  0.6606751E+02
Ar 1356  0.3216151E+02  0.3484580E+02  0.1466873E+02  0.6606751E+02
Ar 1357  0.3201318E+02  0.3201318E+02  0.1728044E+02  0.1525484E+03
Ar 1358  0.3503823E+02  0.3503823E+02  0.1702846E+02  0.3935284E+03
Ar 1359  0.3514589E+02  0.3208925E+02  0.1951112E+02  0.4084344E+03
Ar 1360  0.3208925E+02  0.3514589E+02  0.1951112E+02  0.4084344E+03
Ar 1361  0.3230223E+02  0.3230223E+02  0.2177183E+02  0.1141846E+04
Ar 1362  0.3456577E+02  0.3456577E+02  0.2237251E+02  0.4521484E+03
Ar 1363  0.3464460E+02  0.3204546E+02  0.2426655E+02  0.3338332E+03
Ar 1364  0.3204546E+02  0.3464460E+02  0.2426655E+02  0.3338332E+03
Ar 1365  0.3150421E+02  0.3150421E+02  0.2627085E+02  0.1262587E+03
Ar 1366  0.3442556E+02  0.3442556E+02  0.2701351E+02  0.1431082E+03
Ar 1367  0.3419133E+02  0.3138368E+02  0.2885520E+02  0.1049013E+03
Ar 1368  0.3138368E+02  0.3419133E+02  0.2885520E+02  0.1049013E+03
Ar 1369  0.3126024E+02  0.3126024E+02  0.3126024E+02  0.5277105E+01
Ar 1370  0.3433686E+02  0.3433686E+02  0.3172858E+02  0.2288801E+03
Ar 1371  0.3433686E+02  0.3172858E+02  0.3433686E+02  0.2288801E+03
Ar 1372  0.3172858E+02  0.3433686E+02  0.3433686E+02  0.2288801E+03
