         864
Lattice="  0.7933831E+02  0.0000000E+00  0.0000000E+00  0.0000000E+00  0.7933831E+02  0.0000000E+00  0.0000000E+00  0.0000000E+00  0.7933831E+02" Properties=species:S:1:id:I:1:pos:R:3:tempK:R:1
Ar    1  0.5198813E+01  0.5198813E+01  0.5198813E+01  0.1973596E+02
Ar    2  0.2347590E+02  0.2347590E+02  0.6824168E+02  0.1910011E+03
Ar    3  0.2347590E+02  0.6824168E+02  0.2347590E+02  0.1910011E+03
Ar    4  0.6824168E+02  0.2347590E+02  0.2347590E+02  0.1910011E+03
Ar    5  0.7021663E+02  0.7021663E+02  0.7873555E+02  0.2048057E+04
Ar    6  0.6590924E+02  0.6590924E+02  0.1399907E+02  0.7344852E+03
Ar    7  0.3333716E+01  0.7903131E+02  0.2063750E+02  0.2818357E+03
Ar    8  0.7903131E+02  0.3333716E+01  0.2063750E+02  0.2818357E+03
Ar    9  0.7110431E+02  0.7110431E+02  0.3238667E+01  0.6979072E+03
Ar   10  0.7675574E+02  0.7675574E+02  0.1844139E+02  0.3080867E+03
Ar   11  0.4562825E+01  0.6639892E+02  0.1259940E+02  0.1784347E+04
Ar   12  0.6639892E+02  0.4562825E+01  0.1259940E+02  0.1784347E+04
Ar   13  0.6808355E+02  0.6808355E+02  0.2643669E+02  0.5232392E+03
Ar   14  0.7900528E+02  0.7900528E+02  0.2196828E+02  0.1768098E+03
Ar   15  0.2406791E+01  0.6687372E+02  0.4161771E+02  0.5615984E+03
Ar   16  0.6687372E+02  0.2406791E+01  0.4161771E+02  0.5615984E+03
Ar   17  0.6847708E+02  0.6847708E+02  0.1864591E+02  0.7941480E+03
Ar   18  0.7794526E+02  0.7794526E+02  0.2973525E+02  0.3102501E+03
Ar   19  0.7254238E+02  0.6457954E+02  0.2075685E+02  0.3870676E+03
Ar   20  0.6457954E+02  0.7254238E+02  0.2075685E+02  0.3870676E+03
Ar   21  0.7064578E+02  0.7064578E+02  0.5021879E+02  0.9773627E+03
Ar   22  0.7055288E+02  0.7055288E+02  0.5903302E+02  0.2238740E+04
Ar   23  0.2880388E-01  0.7064578E+02  0.5894011E+02  0.9773627E+03
Ar   24  0.7064578E+02  0.2880388E-01  0.5894011E+02  0.9773627E+03
Ar   25  0.7021663E+02  0.7873555E+02  0.7021663E+02  0.2048057E+04
Ar   26  0.3333716E+01  0.2063750E+02  0.7903131E+02  0.2818357E+03
Ar   27  0.6590924E+02  0.1399907E+02  0.6590924E+02  0.7344852E+03
Ar   28  0.7903131E+02  0.2063750E+02  0.3333716E+01  0.2818357E+03
Ar   29  0.5620633E+02  0.7677693E+02  0.7677693E+02  0.3922712E+03
Ar   30  0.5260598E+02  0.7206103E+01  0.9122587E+00  0.1210755E+04
Ar   31  0.5260598E+02  0.9122587E+00  0.7206103E+01  0.1210755E+04
Ar   32  0.5326542E+02  0.1987532E+02  0.1987532E+02  0.8331319E+03
Ar   33  0.7594582E+02  0.3618767E+01  0.2240740E+02  0.1040917E+03
Ar   34  0.3183257E+01  0.9360229E+01  0.1995554E+02  0.1296419E+03
Ar   35  0.2826635E+01  0.5816594E+01  0.2156655E+02  0.5647062E+02
Ar   36  0.7901873E+02  0.6970241E+01  0.2301370E+02  0.1944049E+03
Ar   37  0.7970323E+00  0.3573336E+01  0.2446905E+02  0.2577575E+03
Ar   38  0.7704608E+02  0.5764153E+01  0.2641784E+02  0.1564156E+03
Ar   39  0.1111013E+01  0.3598572E+01  0.2812348E+02  0.3153703E+03
Ar   40  0.7695456E+02  0.7287768E+00  0.2667316E+02  0.4895583E+03
Ar   41  0.1947147E+01  0.5147132E+01  0.3659995E+02  0.1168758E+03
Ar   42  0.6373041E+01  0.2292315E+02  0.2732444E+02  0.1766291E+03
Ar   43  0.5513287E+02  0.4163925E+01  0.4608367E+02  0.2804882E+04
Ar   44  0.1947147E+01  0.1364764E+02  0.4510046E+02  0.1168758E+03
Ar   45  0.6457954E+02  0.2949074E+02  0.5704352E+02  0.3870676E+03
Ar   46  0.7794526E+02  0.2051234E+02  0.5164064E+02  0.3102501E+03
Ar   47  0.7254238E+02  0.2949074E+02  0.6500636E+02  0.3870676E+03
Ar   48  0.6847708E+02  0.3160168E+02  0.6110882E+02  0.7941480E+03
Ar   49  0.7110431E+02  0.3238667E+01  0.7110431E+02  0.6979072E+03
Ar   50  0.4562825E+01  0.1259940E+02  0.6639892E+02  0.1784347E+04
Ar   51  0.7675574E+02  0.1844139E+02  0.7675574E+02  0.3080867E+03
Ar   52  0.6639892E+02  0.1259940E+02  0.4562825E+01  0.1784347E+04
Ar   53  0.7594582E+02  0.2240740E+02  0.3618767E+01  0.1040917E+03
Ar   54  0.2826635E+01  0.2156655E+02  0.5816594E+01  0.5647062E+02
Ar   55  0.3183257E+01  0.1995554E+02  0.9360229E+01  0.1296419E+03
Ar   56  0.7901873E+02  0.2301370E+02  0.6970241E+01  0.1944049E+03
Ar   57  0.1093658E+02  0.2118509E+02  0.2118509E+02  0.2690137E+01
Ar   58  0.1169793E+02  0.2461869E+02  0.2074525E+02  0.8525877E+02
Ar   59  0.1169793E+02  0.2074525E+02  0.2461869E+02  0.8525877E+02
Ar   60  0.6247924E+01  0.1639736E+02  0.1639736E+02  0.6265226E+01
Ar   61  0.7824262E+01  0.1775733E+02  0.2035877E+02  0.6154303E+02
Ar   62  0.1430260E+02  0.2378415E+02  0.2646344E+02  0.1644495E+03
Ar   63  0.1031222E+02  0.2390590E+02  0.2634169E+02  0.3040845E+03
Ar   64  0.7824262E+01  0.2988882E+02  0.3249026E+02  0.6154303E+02
Ar   65  0.7695456E+02  0.2357443E+02  0.4951881E+02  0.4895583E+03
Ar   66  0.7704608E+02  0.2382975E+02  0.4448344E+02  0.1564156E+03
Ar   67  0.1111013E+01  0.2212411E+02  0.4664902E+02  0.3153703E+03
Ar   68  0.7970323E+00  0.2577854E+02  0.4667425E+02  0.2577575E+03
Ar   69  0.6687372E+02  0.8629881E+01  0.4784080E+02  0.5615984E+03
Ar   70  0.7900528E+02  0.2827931E+02  0.5058062E+02  0.1768098E+03
Ar   71  0.2406791E+01  0.8629881E+01  0.6271217E+02  0.5615984E+03
Ar   72  0.6808355E+02  0.2381090E+02  0.6150235E+02  0.5232392E+03
Ar   73  0.6808355E+02  0.2643669E+02  0.6808355E+02  0.5232392E+03
Ar   74  0.2406791E+01  0.4161771E+02  0.6687372E+02  0.5615984E+03
Ar   75  0.7900528E+02  0.2196828E+02  0.7900528E+02  0.1768098E+03
Ar   76  0.6687372E+02  0.4161771E+02  0.2406791E+01  0.5615984E+03
Ar   77  0.7970323E+00  0.2446905E+02  0.3573336E+01  0.2577575E+03
Ar   78  0.1111013E+01  0.2812348E+02  0.3598572E+01  0.3153703E+03
Ar   79  0.7704608E+02  0.2641784E+02  0.5764153E+01  0.1564156E+03
Ar   80  0.7695456E+02  0.2667316E+02  0.7287768E+00  0.4895583E+03
Ar   81  0.7824262E+01  0.2035877E+02  0.1775733E+02  0.6154303E+02
Ar   82  0.1031222E+02  0.2634169E+02  0.2390590E+02  0.3040845E+03
Ar   83  0.1430260E+02  0.2646344E+02  0.2378415E+02  0.1644495E+03
Ar   84  0.7824262E+01  0.3249026E+02  0.2988882E+02  0.6154303E+02
Ar   85  0.6247924E+01  0.3385023E+02  0.3385023E+02  0.6265226E+01
Ar   86  0.1169793E+02  0.2950234E+02  0.2562890E+02  0.8525877E+02
Ar   87  0.1169793E+02  0.2562890E+02  0.2950234E+02  0.8525877E+02
Ar   88  0.1093658E+02  0.2906250E+02  0.2906250E+02  0.2690137E+01
Ar   89  0.7901873E+02  0.2723389E+02  0.4327735E+02  0.1944049E+03
Ar   90  0.3183257E+01  0.3029205E+02  0.4088736E+02  0.1296419E+03
Ar   91  0.2826635E+01  0.2868104E+02  0.4443100E+02  0.5647062E+02
Ar   92  0.7594582E+02  0.2784019E+02  0.4662882E+02  0.1040917E+03
Ar   93  0.6639892E+02  0.3764819E+02  0.4568477E+02  0.1784347E+04
Ar   94  0.7675574E+02  0.3180620E+02  0.5283016E+02  0.3080867E+03
Ar   95  0.4562825E+01  0.3764819E+02  0.6318698E+02  0.1784347E+04
Ar   96  0.7110431E+02  0.4700892E+02  0.5848158E+02  0.6979072E+03
Ar   97  0.6847708E+02  0.1864591E+02  0.6847708E+02  0.7941480E+03
Ar   98  0.7254238E+02  0.2075685E+02  0.6457954E+02  0.3870676E+03
Ar   99  0.7794526E+02  0.2973525E+02  0.7794526E+02  0.3102501E+03
Ar  100  0.6457954E+02  0.2075685E+02  0.7254238E+02  0.3870676E+03
Ar  101  0.1947147E+01  0.3659995E+02  0.5147132E+01  0.1168758E+03
Ar  102  0.5513287E+02  0.4608367E+02  0.4163925E+01  0.2804882E+04
Ar  103  0.6373041E+01  0.2732444E+02  0.2292315E+02  0.1766291E+03
Ar  104  0.1947147E+01  0.4510046E+02  0.1364764E+02  0.1168758E+03
Ar  105  0.7695456E+02  0.4951881E+02  0.2357443E+02  0.4895583E+03
Ar  106  0.1111013E+01  0.4664902E+02  0.2212411E+02  0.3153703E+03
Ar  107  0.7704608E+02  0.4448344E+02  0.2382975E+02  0.1564156E+03
Ar  108  0.7970323E+00  0.4667425E+02  0.2577854E+02  0.2577575E+03
Ar  109  0.7901873E+02  0.4327735E+02  0.2723389E+02  0.1944049E+03
Ar  110  0.2826635E+01  0.4443100E+02  0.2868104E+02  0.5647062E+02
Ar  111  0.3183257E+01  0.4088736E+02  0.3029205E+02  0.1296419E+03
Ar  112  0.7594582E+02  0.4662882E+02  0.2784019E+02  0.1040917E+03
Ar  113  0.5326542E+02  0.3037227E+02  0.3037227E+02  0.8331319E+03
Ar  114  0.5260598E+02  0.4933533E+02  0.4304149E+02  0.1210755E+04
Ar  115  0.5260598E+02  0.4304149E+02  0.4933533E+02  0.1210755E+04
Ar  116  0.5620633E+02  0.5280897E+02  0.5280897E+02  0.3922713E+03
Ar  117  0.7903131E+02  0.2961009E+02  0.4691387E+02  0.2818357E+03
Ar  118  0.6590924E+02  0.3624852E+02  0.6367665E+02  0.7344852E+03
Ar  119  0.3333716E+01  0.2961009E+02  0.5055459E+02  0.2818357E+03
Ar  120  0.7021663E+02  0.5085035E+02  0.5936927E+02  0.2048057E+04
Ar  121  0.7064578E+02  0.5021879E+02  0.7064578E+02  0.9773627E+03
Ar  122  0.2880388E-01  0.5894011E+02  0.7064578E+02  0.9773627E+03
Ar  123  0.7055288E+02  0.5903302E+02  0.7055288E+02  0.2238740E+04
Ar  124  0.7064578E+02  0.5894011E+02  0.2880388E-01  0.9773627E+03
Ar  125  0.6457954E+02  0.5704352E+02  0.2949074E+02  0.3870676E+03
Ar  126  0.7254238E+02  0.6500636E+02  0.2949074E+02  0.3870676E+03
Ar  127  0.7794526E+02  0.5164064E+02  0.2051234E+02  0.3102501E+03
Ar  128  0.6847708E+02  0.6110882E+02  0.3160168E+02  0.7941480E+03
Ar  129  0.6687372E+02  0.4784080E+02  0.8629881E+01  0.5615984E+03
Ar  130  0.2406791E+01  0.6271217E+02  0.8629881E+01  0.5615984E+03
Ar  131  0.7900528E+02  0.5058062E+02  0.2827931E+02  0.1768098E+03
Ar  132  0.6808355E+02  0.6150235E+02  0.2381090E+02  0.5232392E+03
Ar  133  0.6639892E+02  0.4568477E+02  0.3764819E+02  0.1784347E+04
Ar  134  0.4562825E+01  0.6318698E+02  0.3764819E+02  0.1784347E+04
Ar  135  0.7675574E+02  0.5283016E+02  0.3180620E+02  0.3080867E+03
Ar  136  0.7110431E+02  0.5848158E+02  0.4700892E+02  0.6979072E+03
Ar  137  0.7903131E+02  0.4691387E+02  0.2961009E+02  0.2818357E+03
Ar  138  0.3333716E+01  0.5055459E+02  0.2961009E+02  0.2818357E+03
Ar  139  0.6590924E+02  0.6367665E+02  0.3624852E+02  0.7344852E+03
Ar  140  0.7021663E+02  0.5936927E+02  0.5085035E+02  0.2048057E+04
Ar  141  0.6824168E+02  0.2677169E+02  0.2677169E+02  0.1910011E+03
Ar  142  0.2347590E+02  0.6134422E+02  0.2677169E+02  0.1910011E+03
Ar  143  0.2347590E+02  0.2677169E+02  0.6134422E+02  0.1910011E+03
Ar  144  0.5198813E+01  0.4504878E+02  0.4504878E+02  0.1973596E+02
Ar  145  0.7873555E+02  0.7021663E+02  0.7021663E+02  0.2048057E+04
Ar  146  0.2063750E+02  0.3333716E+01  0.7903131E+02  0.2818357E+03
Ar  147  0.2063750E+02  0.7903131E+02  0.3333716E+01  0.2818357E+03
Ar  148  0.1399907E+02  0.6590924E+02  0.6590924E+02  0.7344852E+03
Ar  149  0.7677693E+02  0.5620633E+02  0.7677693E+02  0.3922712E+03
Ar  150  0.7206103E+01  0.5260598E+02  0.9122587E+00  0.1210755E+04
Ar  151  0.1987532E+02  0.5326542E+02  0.1987532E+02  0.8331319E+03
Ar  152  0.9122587E+00  0.5260598E+02  0.7206103E+01  0.1210755E+04
Ar  153  0.3618767E+01  0.7594582E+02  0.2240740E+02  0.1040917E+03
Ar  154  0.9360229E+01  0.3183257E+01  0.1995554E+02  0.1296419E+03
Ar  155  0.6970241E+01  0.7901873E+02  0.2301370E+02  0.1944049E+03
Ar  156  0.5816594E+01  0.2826635E+01  0.2156655E+02  0.5647062E+02
Ar  157  0.3573336E+01  0.7970323E+00  0.2446905E+02  0.2577575E+03
Ar  158  0.5764153E+01  0.7704608E+02  0.2641784E+02  0.1564156E+03
Ar  159  0.7287768E+00  0.7695456E+02  0.2667316E+02  0.4895583E+03
Ar  160  0.3598572E+01  0.1111013E+01  0.2812348E+02  0.3153703E+03
Ar  161  0.5147132E+01  0.1947147E+01  0.3659995E+02  0.1168758E+03
Ar  162  0.2292315E+02  0.6373041E+01  0.2732444E+02  0.1766291E+03
Ar  163  0.1364764E+02  0.1947147E+01  0.4510046E+02  0.1168758E+03
Ar  164  0.4163925E+01  0.5513287E+02  0.4608367E+02  0.2804882E+04
Ar  165  0.2949074E+02  0.6457954E+02  0.5704352E+02  0.3870676E+03
Ar  166  0.2051234E+02  0.7794526E+02  0.5164064E+02  0.3102501E+03
Ar  167  0.3160168E+02  0.6847708E+02  0.6110882E+02  0.7941480E+03
Ar  168  0.2949074E+02  0.7254238E+02  0.6500636E+02  0.3870676E+03
Ar  169  0.7677693E+02  0.7677693E+02  0.5620633E+02  0.3922712E+03
Ar  170  0.1987532E+02  0.1987532E+02  0.5326542E+02  0.8331319E+03
Ar  171  0.7206103E+01  0.9122587E+00  0.5260598E+02  0.1210755E+04
Ar  172  0.9122587E+00  0.7206103E+01  0.5260598E+02  0.1210755E+04
Ar  173  0.1415239E+02  0.1415239E+02  0.1415239E+02  0.4572125E+04
Ar  174  0.2015686E+02  0.2015686E+02  0.1614193E+02  0.6897048E+02
Ar  175  0.2015686E+02  0.1614193E+02  0.2015686E+02  0.6897048E+02
Ar  176  0.1614193E+02  0.2015686E+02  0.2015686E+02  0.6897048E+02
Ar  177  0.6752865E+02  0.6752865E+02  0.8285879E+01  0.1915849E+03
Ar  178  0.1831909E+02  0.1831909E+02  0.2253925E+02  0.6323394E+02
Ar  179  0.9208113E+01  0.2634254E+01  0.2383757E+02  0.2450400E+03
Ar  180  0.2634254E+01  0.9208113E+01  0.2383757E+02  0.2450400E+03
Ar  181  0.5320944E+01  0.5320944E+01  0.2459829E+02  0.1559442E+03
Ar  182  0.2061337E+01  0.2061337E+01  0.3353952E+02  0.1522279E+03
Ar  183  0.7156590E+01  0.1372073E+01  0.2674762E+02  0.1112618E+03
Ar  184  0.1372073E+01  0.7156590E+01  0.2674762E+02  0.1112618E+03
Ar  185  0.7136672E+02  0.7136672E+02  0.5355168E+02  0.1863130E+04
Ar  186  0.7504187E+02  0.7504187E+02  0.5454402E+02  0.4639132E+03
Ar  187  0.7603422E+02  0.7136672E+02  0.5821917E+02  0.1863130E+04
Ar  188  0.7136672E+02  0.7603422E+02  0.5821917E+02  0.1863130E+04
Ar  189  0.4163925E+01  0.4163925E+01  0.7445302E+02  0.2804882E+04
Ar  190  0.2292315E+02  0.2292315E+02  0.4387455E+02  0.1766291E+03
Ar  191  0.1364764E+02  0.5147132E+01  0.4830044E+02  0.1168758E+03
Ar  192  0.5147132E+01  0.1364764E+02  0.4830044E+02  0.1168758E+03
Ar  193  0.3618767E+01  0.2240740E+02  0.7594582E+02  0.1040917E+03
Ar  194  0.6970241E+01  0.2301370E+02  0.7901873E+02  0.1944049E+03
Ar  195  0.9360229E+01  0.1995554E+02  0.3183257E+01  0.1296419E+03
Ar  196  0.5816594E+01  0.2156655E+02  0.2826635E+01  0.5647062E+02
Ar  197  0.6752865E+02  0.8285879E+01  0.6752865E+02  0.1915849E+03
Ar  198  0.9208113E+01  0.2383757E+02  0.2634254E+01  0.2450400E+03
Ar  199  0.1831909E+02  0.2253925E+02  0.1831909E+02  0.6323394E+02
Ar  200  0.2634254E+01  0.2383757E+02  0.9208113E+01  0.2450400E+03
Ar  201  0.1370378E+02  0.2305550E+02  0.2305550E+02  0.1049315E+03
Ar  202  0.1681592E+02  0.2545624E+02  0.2121259E+02  0.3007383E+03
Ar  203  0.1681592E+02  0.2121259E+02  0.2545624E+02  0.3007383E+03
Ar  204  0.6602560E+01  0.2126084E+02  0.2126084E+02  0.8713121E+02
Ar  205  0.7409873E+01  0.2009804E+02  0.2523049E+02  0.1053230E+03
Ar  206  0.1920302E+02  0.2361044E+02  0.2663715E+02  0.3688538E+01
Ar  207  0.9345211E+01  0.2159161E+02  0.2865598E+02  0.1568301E+03
Ar  208  0.7409873E+01  0.2501710E+02  0.3014955E+02  0.1053230E+03
Ar  209  0.1372073E+01  0.2349997E+02  0.4309100E+02  0.1112618E+03
Ar  210  0.2061337E+01  0.1670807E+02  0.4818625E+02  0.1522279E+03
Ar  211  0.7156590E+01  0.2349997E+02  0.4887552E+02  0.1112618E+03
Ar  212  0.5320944E+01  0.2564930E+02  0.4492665E+02  0.1559442E+03
Ar  213  0.3598572E+01  0.2212411E+02  0.4913658E+02  0.3153703E+03
Ar  214  0.5764153E+01  0.2382975E+02  0.5253982E+02  0.1564156E+03
Ar  215  0.7287768E+00  0.2357443E+02  0.5263134E+02  0.4895583E+03
Ar  216  0.3573336E+01  0.2577854E+02  0.4945056E+02  0.2577575E+03
Ar  217  0.3573336E+01  0.2446905E+02  0.7970323E+00  0.2577575E+03
Ar  218  0.7287768E+00  0.2667316E+02  0.7695456E+02  0.4895583E+03
Ar  219  0.5764153E+01  0.2641784E+02  0.7704608E+02  0.1564156E+03
Ar  220  0.3598572E+01  0.2812348E+02  0.1111013E+01  0.3153703E+03
Ar  221  0.5320944E+01  0.2459829E+02  0.5320944E+01  0.1559442E+03
Ar  222  0.7156590E+01  0.2674762E+02  0.1372073E+01  0.1112618E+03
Ar  223  0.2061337E+01  0.3353952E+02  0.2061337E+01  0.1522279E+03
Ar  224  0.1372073E+01  0.2674762E+02  0.7156590E+01  0.1112618E+03
Ar  225  0.7409873E+01  0.2523049E+02  0.2009804E+02  0.1053230E+03
Ar  226  0.9345211E+01  0.2865598E+02  0.2159161E+02  0.1568301E+03
Ar  227  0.1920302E+02  0.2663715E+02  0.2361044E+02  0.3688538E+01
Ar  228  0.7409873E+01  0.3014955E+02  0.2501710E+02  0.1053230E+03
Ar  229  0.6602560E+01  0.2898675E+02  0.2898675E+02  0.8713121E+02
Ar  230  0.1681592E+02  0.2903500E+02  0.2479135E+02  0.3007383E+03
Ar  231  0.1681592E+02  0.2479135E+02  0.2903500E+02  0.3007383E+03
Ar  232  0.1370378E+02  0.2719209E+02  0.2719209E+02  0.1049315E+03
Ar  233  0.2634254E+01  0.2641002E+02  0.4103948E+02  0.2450400E+03
Ar  234  0.1831909E+02  0.2770834E+02  0.3192850E+02  0.6323394E+02
Ar  235  0.9208113E+01  0.2641002E+02  0.4761334E+02  0.2450400E+03
Ar  236  0.6752865E+02  0.4196171E+02  0.6205724E+02  0.1915849E+03
Ar  237  0.5816594E+01  0.2868104E+02  0.4742096E+02  0.5647062E+02
Ar  238  0.9360229E+01  0.3029205E+02  0.4706433E+02  0.1296419E+03
Ar  239  0.6970241E+01  0.2723389E+02  0.5056716E+02  0.1944049E+03
Ar  240  0.3618767E+01  0.2784019E+02  0.5364008E+02  0.1040917E+03
Ar  241  0.5147132E+01  0.3659995E+02  0.1947147E+01  0.1168758E+03
Ar  242  0.1364764E+02  0.4510046E+02  0.1947147E+01  0.1168758E+03
Ar  243  0.2292315E+02  0.2732444E+02  0.6373041E+01  0.1766291E+03
Ar  244  0.4163925E+01  0.4608367E+02  0.5513287E+02  0.2804882E+04
Ar  245  0.7136672E+02  0.5355168E+02  0.7136672E+02  0.1863130E+04
Ar  246  0.7603422E+02  0.5821917E+02  0.7136672E+02  0.1863130E+04
Ar  247  0.7504187E+02  0.5454402E+02  0.7504187E+02  0.4639132E+03
Ar  248  0.7136672E+02  0.5821917E+02  0.7603422E+02  0.1863130E+04
Ar  249  0.1372073E+01  0.4309100E+02  0.2349997E+02  0.1112618E+03
Ar  250  0.7156590E+01  0.4887552E+02  0.2349997E+02  0.1112618E+03
Ar  251  0.2061337E+01  0.4818625E+02  0.1670807E+02  0.1522279E+03
Ar  252  0.5320944E+01  0.4492665E+02  0.2564930E+02  0.1559442E+03
Ar  253  0.2634254E+01  0.4103948E+02  0.2641002E+02  0.2450400E+03
Ar  254  0.9208113E+01  0.4761334E+02  0.2641002E+02  0.2450400E+03
Ar  255  0.1831909E+02  0.3192850E+02  0.2770834E+02  0.6323394E+02
Ar  256  0.6752865E+02  0.6205724E+02  0.4196171E+02  0.1915849E+03
Ar  257  0.1614193E+02  0.3009073E+02  0.3009073E+02  0.6897048E+02
Ar  258  0.2015686E+02  0.3410566E+02  0.3009073E+02  0.6897048E+02
Ar  259  0.2015686E+02  0.3009073E+02  0.3410566E+02  0.6897048E+02
Ar  260  0.1415239E+02  0.3609520E+02  0.3609520E+02  0.4572125E+04
Ar  261  0.9122587E+00  0.4304149E+02  0.7697992E+02  0.1210755E+04
Ar  262  0.7206103E+01  0.4933533E+02  0.7697992E+02  0.1210755E+04
Ar  263  0.1987532E+02  0.3037227E+02  0.7632048E+02  0.8331319E+03
Ar  264  0.7677693E+02  0.5280897E+02  0.7337957E+02  0.3922712E+03
Ar  265  0.2949074E+02  0.5704352E+02  0.6457954E+02  0.3870676E+03
Ar  266  0.3160168E+02  0.6110882E+02  0.6847708E+02  0.7941480E+03
Ar  267  0.2051234E+02  0.5164064E+02  0.7794526E+02  0.3102501E+03
Ar  268  0.2949074E+02  0.6500636E+02  0.7254238E+02  0.3870676E+03
Ar  269  0.4163925E+01  0.7445302E+02  0.4163925E+01  0.2804882E+04
Ar  270  0.1364764E+02  0.4830044E+02  0.5147132E+01  0.1168758E+03
Ar  271  0.2292315E+02  0.4387455E+02  0.2292315E+02  0.1766291E+03
Ar  272  0.5147132E+01  0.4830044E+02  0.1364764E+02  0.1168758E+03
Ar  273  0.3598572E+01  0.4913658E+02  0.2212411E+02  0.3153703E+03
Ar  274  0.7287768E+00  0.5263134E+02  0.2357443E+02  0.4895583E+03
Ar  275  0.5764153E+01  0.5253982E+02  0.2382975E+02  0.1564156E+03
Ar  276  0.3573336E+01  0.4945056E+02  0.2577854E+02  0.2577575E+03
Ar  277  0.5816594E+01  0.4742096E+02  0.2868104E+02  0.5647062E+02
Ar  278  0.6970241E+01  0.5056716E+02  0.2723389E+02  0.1944049E+03
Ar  279  0.9360229E+01  0.4706433E+02  0.3029205E+02  0.1296419E+03
Ar  280  0.3618767E+01  0.5364008E+02  0.2784019E+02  0.1040917E+03
Ar  281  0.9122587E+00  0.7697992E+02  0.4304149E+02  0.1210755E+04
Ar  282  0.1987532E+02  0.7632048E+02  0.3037227E+02  0.8331319E+03
Ar  283  0.7206103E+01  0.7697992E+02  0.4933533E+02  0.1210755E+04
Ar  284  0.7677693E+02  0.7337957E+02  0.5280897E+02  0.3922712E+03
Ar  285  0.1399907E+02  0.6367665E+02  0.6367665E+02  0.7344852E+03
Ar  286  0.2063750E+02  0.5055459E+02  0.4691387E+02  0.2818357E+03
Ar  287  0.2063750E+02  0.4691387E+02  0.5055459E+02  0.2818357E+03
Ar  288  0.7873555E+02  0.5936927E+02  0.5936927E+02  0.2048057E+04
Ar  289  0.3238667E+01  0.7110431E+02  0.7110431E+02  0.6979072E+03
Ar  290  0.1259940E+02  0.4562825E+01  0.6639892E+02  0.1784347E+04
Ar  291  0.1259940E+02  0.6639892E+02  0.4562825E+01  0.1784347E+04
Ar  292  0.1844139E+02  0.7675574E+02  0.7675574E+02  0.3080867E+03
Ar  293  0.2240740E+02  0.7594582E+02  0.3618767E+01  0.1040917E+03
Ar  294  0.2156655E+02  0.2826635E+01  0.5816594E+01  0.5647062E+02
Ar  295  0.2301370E+02  0.7901873E+02  0.6970241E+01  0.1944049E+03
Ar  296  0.1995554E+02  0.3183257E+01  0.9360229E+01  0.1296419E+03
Ar  297  0.2118509E+02  0.1093658E+02  0.2118509E+02  0.2690137E+01
Ar  298  0.2461869E+02  0.1169793E+02  0.2074525E+02  0.8525877E+02
Ar  299  0.1639736E+02  0.6247924E+01  0.1639736E+02  0.6265226E+01
Ar  300  0.2074525E+02  0.1169793E+02  0.2461869E+02  0.8525877E+02
Ar  301  0.1775733E+02  0.7824262E+01  0.2035877E+02  0.6154303E+02
Ar  302  0.2378415E+02  0.1430260E+02  0.2646344E+02  0.1644495E+03
Ar  303  0.2988882E+02  0.7824262E+01  0.3249026E+02  0.6154303E+02
Ar  304  0.2390590E+02  0.1031222E+02  0.2634169E+02  0.3040845E+03
Ar  305  0.2357443E+02  0.7695456E+02  0.4951881E+02  0.4895583E+03
Ar  306  0.2382975E+02  0.7704608E+02  0.4448344E+02  0.1564156E+03
Ar  307  0.2577854E+02  0.7970323E+00  0.4667425E+02  0.2577575E+03
Ar  308  0.2212411E+02  0.1111013E+01  0.4664902E+02  0.3153703E+03
Ar  309  0.8629881E+01  0.6687372E+02  0.4784080E+02  0.5615984E+03
Ar  310  0.2827931E+02  0.7900528E+02  0.5058062E+02  0.1768098E+03
Ar  311  0.2381090E+02  0.6808355E+02  0.6150235E+02  0.5232392E+03
Ar  312  0.8629881E+01  0.2406791E+01  0.6271217E+02  0.5615984E+03
Ar  313  0.2240740E+02  0.3618767E+01  0.7594582E+02  0.1040917E+03
Ar  314  0.2301370E+02  0.6970241E+01  0.7901873E+02  0.1944049E+03
Ar  315  0.2156655E+02  0.5816594E+01  0.2826635E+01  0.5647062E+02
Ar  316  0.1995554E+02  0.9360229E+01  0.3183257E+01  0.1296419E+03
Ar  317  0.8285879E+01  0.6752865E+02  0.6752865E+02  0.1915849E+03
Ar  318  0.2383757E+02  0.9208113E+01  0.2634254E+01  0.2450400E+03
Ar  319  0.2383757E+02  0.2634254E+01  0.9208113E+01  0.2450400E+03
Ar  320  0.2253925E+02  0.1831909E+02  0.1831909E+02  0.6323394E+02
Ar  321  0.2305550E+02  0.1370378E+02  0.2305550E+02  0.1049315E+03
Ar  322  0.2545624E+02  0.1681592E+02  0.2121259E+02  0.3007383E+03
Ar  323  0.2126084E+02  0.6602560E+01  0.2126084E+02  0.8713121E+02
Ar  324  0.2121259E+02  0.1681592E+02  0.2545624E+02  0.3007383E+03
Ar  325  0.2009804E+02  0.7409873E+01  0.2523049E+02  0.1053230E+03
Ar  326  0.2361044E+02  0.1920302E+02  0.2663715E+02  0.3688538E+01
Ar  327  0.2501710E+02  0.7409873E+01  0.3014955E+02  0.1053230E+03
Ar  328  0.2159161E+02  0.9345211E+01  0.2865598E+02  0.1568301E+03
Ar  329  0.2349997E+02  0.1372073E+01  0.4309100E+02  0.1112618E+03
Ar  330  0.1670807E+02  0.2061337E+01  0.4818625E+02  0.1522279E+03
Ar  331  0.2564930E+02  0.5320944E+01  0.4492665E+02  0.1559442E+03
Ar  332  0.2349997E+02  0.7156590E+01  0.4887552E+02  0.1112618E+03
Ar  333  0.2212411E+02  0.3598572E+01  0.4913658E+02  0.3153703E+03
Ar  334  0.2382975E+02  0.5764153E+01  0.5253982E+02  0.1564156E+03
Ar  335  0.2577854E+02  0.3573336E+01  0.4945056E+02  0.2577575E+03
Ar  336  0.2357443E+02  0.7287768E+00  0.5263134E+02  0.4895583E+03
Ar  337  0.2118509E+02  0.2118509E+02  0.1093658E+02  0.2690137E+01
Ar  338  0.1639736E+02  0.1639736E+02  0.6247924E+01  0.6265226E+01
Ar  339  0.2461869E+02  0.2074525E+02  0.1169793E+02  0.8525877E+02
Ar  340  0.2074525E+02  0.2461869E+02  0.1169793E+02  0.8525877E+02
Ar  341  0.2305550E+02  0.2305550E+02  0.1370378E+02  0.1049315E+03
Ar  342  0.2126084E+02  0.2126084E+02  0.6602560E+01  0.8713121E+02
Ar  343  0.2545624E+02  0.2121259E+02  0.1681592E+02  0.3007383E+03
Ar  344  0.2121259E+02  0.2545624E+02  0.1681592E+02  0.3007383E+03
Ar  345  0.1630379E+02  0.1630379E+02  0.1630379E+02  0.1578823E+03
Ar  346  0.2258340E+02  0.2258340E+02  0.1929954E+02  0.1608853E+03
Ar  347  0.2258340E+02  0.1929954E+02  0.2258340E+02  0.1608853E+03
Ar  348  0.1929954E+02  0.2258340E+02  0.2258340E+02  0.1608853E+03
Ar  349  0.2045842E+02  0.2045842E+02  0.2556208E+02  0.3643249E+03
Ar  350  0.2375358E+02  0.2375358E+02  0.2649401E+02  0.7969224E+01
Ar  351  0.2468551E+02  0.2045842E+02  0.2978917E+02  0.3643249E+03
Ar  352  0.2045842E+02  0.2468551E+02  0.2978917E+02  0.3643249E+03
Ar  353  0.2159161E+02  0.2159161E+02  0.4090238E+02  0.1568301E+03
Ar  354  0.2361044E+02  0.2361044E+02  0.3104457E+02  0.3688538E+01
Ar  355  0.2501710E+02  0.2009804E+02  0.4283772E+02  0.1053230E+03
Ar  356  0.2009804E+02  0.2501710E+02  0.4283772E+02  0.1053230E+03
Ar  357  0.2390590E+02  0.2390590E+02  0.3993537E+02  0.3040845E+03
Ar  358  0.2378415E+02  0.2378415E+02  0.3594499E+02  0.1644495E+03
Ar  359  0.2988882E+02  0.1775733E+02  0.4242333E+02  0.6154303E+02
Ar  360  0.1775733E+02  0.2988882E+02  0.4242333E+02  0.6154303E+02
Ar  361  0.1775733E+02  0.2035877E+02  0.7824262E+01  0.6154303E+02
Ar  362  0.2988882E+02  0.3249026E+02  0.7824262E+01  0.6154303E+02
Ar  363  0.2378415E+02  0.2646344E+02  0.1430260E+02  0.1644495E+03
Ar  364  0.2390590E+02  0.2634169E+02  0.1031222E+02  0.3040845E+03
Ar  365  0.2009804E+02  0.2523049E+02  0.7409873E+01  0.1053230E+03
Ar  366  0.2501710E+02  0.3014955E+02  0.7409873E+01  0.1053230E+03
Ar  367  0.2361044E+02  0.2663715E+02  0.1920302E+02  0.3688538E+01
Ar  368  0.2159161E+02  0.2865598E+02  0.9345211E+01  0.1568301E+03
Ar  369  0.2045842E+02  0.2556208E+02  0.2045842E+02  0.3643249E+03
Ar  370  0.2468551E+02  0.2978917E+02  0.2045842E+02  0.3643249E+03
Ar  371  0.2375358E+02  0.2649401E+02  0.2375358E+02  0.7969224E+01
Ar  372  0.2045842E+02  0.2978917E+02  0.2468551E+02  0.3643249E+03
Ar  373  0.1929954E+02  0.2766419E+02  0.2766419E+02  0.1608853E+03
Ar  374  0.2258340E+02  0.3094805E+02  0.2766419E+02  0.1608853E+03
Ar  375  0.2258340E+02  0.2766419E+02  0.3094805E+02  0.1608853E+03
Ar  376  0.1630379E+02  0.3394380E+02  0.3394380E+02  0.1578823E+03
Ar  377  0.2121259E+02  0.2479135E+02  0.3343167E+02  0.3007383E+03
Ar  378  0.2545624E+02  0.2903500E+02  0.3343167E+02  0.3007383E+03
Ar  379  0.2126084E+02  0.2898675E+02  0.4364503E+02  0.8713121E+02
Ar  380  0.2305550E+02  0.2719209E+02  0.3654381E+02  0.1049315E+03
Ar  381  0.2074525E+02  0.2562890E+02  0.3854966E+02  0.8525877E+02
Ar  382  0.2461869E+02  0.2950234E+02  0.3854966E+02  0.8525877E+02
Ar  383  0.1639736E+02  0.3385023E+02  0.4399967E+02  0.6265226E+01
Ar  384  0.2118509E+02  0.2906250E+02  0.3931101E+02  0.2690137E+01
Ar  385  0.2357443E+02  0.4951881E+02  0.7695456E+02  0.4895583E+03
Ar  386  0.2577854E+02  0.4667425E+02  0.7970323E+00  0.2577575E+03
Ar  387  0.2382975E+02  0.4448344E+02  0.7704608E+02  0.1564156E+03
Ar  388  0.2212411E+02  0.4664902E+02  0.1111013E+01  0.3153703E+03
Ar  389  0.2349997E+02  0.4309100E+02  0.1372073E+01  0.1112618E+03
Ar  390  0.2564930E+02  0.4492665E+02  0.5320944E+01  0.1559442E+03
Ar  391  0.1670807E+02  0.4818625E+02  0.2061337E+01  0.1522279E+03
Ar  392  0.2349997E+02  0.4887552E+02  0.7156590E+01  0.1112618E+03
Ar  393  0.2159161E+02  0.4090238E+02  0.2159161E+02  0.1568301E+03
Ar  394  0.2501710E+02  0.4283772E+02  0.2009804E+02  0.1053230E+03
Ar  395  0.2361044E+02  0.3104457E+02  0.2361044E+02  0.3688538E+01
Ar  396  0.2009804E+02  0.4283772E+02  0.2501710E+02  0.1053230E+03
Ar  397  0.2121259E+02  0.3343167E+02  0.2479135E+02  0.3007383E+03
Ar  398  0.2126084E+02  0.4364503E+02  0.2898675E+02  0.8713121E+02
Ar  399  0.2545624E+02  0.3343167E+02  0.2903500E+02  0.3007383E+03
Ar  400  0.2305550E+02  0.3654381E+02  0.2719209E+02  0.1049315E+03
Ar  401  0.2253925E+02  0.3192850E+02  0.3192850E+02  0.6323394E+02
Ar  402  0.2383757E+02  0.4761334E+02  0.4103948E+02  0.2450400E+03
Ar  403  0.2383757E+02  0.4103948E+02  0.4761334E+02  0.2450400E+03
Ar  404  0.8285879E+01  0.6205724E+02  0.6205724E+02  0.1915849E+03
Ar  405  0.1995554E+02  0.4088736E+02  0.4706433E+02  0.1296419E+03
Ar  406  0.2156655E+02  0.4443100E+02  0.4742096E+02  0.5647062E+02
Ar  407  0.2301370E+02  0.4327735E+02  0.5056716E+02  0.1944049E+03
Ar  408  0.2240740E+02  0.4662882E+02  0.5364008E+02  0.1040917E+03
Ar  409  0.8629881E+01  0.4784080E+02  0.6687372E+02  0.5615984E+03
Ar  410  0.2381090E+02  0.6150235E+02  0.6808355E+02  0.5232392E+03
Ar  411  0.2827931E+02  0.5058062E+02  0.7900528E+02  0.1768098E+03
Ar  412  0.8629881E+01  0.6271217E+02  0.2406791E+01  0.5615984E+03
Ar  413  0.2212411E+02  0.4913658E+02  0.3598572E+01  0.3153703E+03
Ar  414  0.2577854E+02  0.4945056E+02  0.3573336E+01  0.2577575E+03
Ar  415  0.2382975E+02  0.5253982E+02  0.5764153E+01  0.1564156E+03
Ar  416  0.2357443E+02  0.5263134E+02  0.7287768E+00  0.4895583E+03
Ar  417  0.2390590E+02  0.3993537E+02  0.2390590E+02  0.3040845E+03
Ar  418  0.2988882E+02  0.4242333E+02  0.1775733E+02  0.6154303E+02
Ar  419  0.2378415E+02  0.3594499E+02  0.2378415E+02  0.1644495E+03
Ar  420  0.1775733E+02  0.4242333E+02  0.2988882E+02  0.6154303E+02
Ar  421  0.2074525E+02  0.3854966E+02  0.2562890E+02  0.8525877E+02
Ar  422  0.1639736E+02  0.4399967E+02  0.3385023E+02  0.6265226E+01
Ar  423  0.2461869E+02  0.3854966E+02  0.2950234E+02  0.8525877E+02
Ar  424  0.2118509E+02  0.3931101E+02  0.2906250E+02  0.2690137E+01
Ar  425  0.1995554E+02  0.4706433E+02  0.4088736E+02  0.1296419E+03
Ar  426  0.2301370E+02  0.5056716E+02  0.4327735E+02  0.1944049E+03
Ar  427  0.2156655E+02  0.4742096E+02  0.4443100E+02  0.5647062E+02
Ar  428  0.2240740E+02  0.5364008E+02  0.4662882E+02  0.1040917E+03
Ar  429  0.1844139E+02  0.5283016E+02  0.5283016E+02  0.3080867E+03
Ar  430  0.1259940E+02  0.6318698E+02  0.4568477E+02  0.1784347E+04
Ar  431  0.1259940E+02  0.4568477E+02  0.6318698E+02  0.1784347E+04
Ar  432  0.3238667E+01  0.5848158E+02  0.5848158E+02  0.6979072E+03
Ar  433  0.2643669E+02  0.6808355E+02  0.6808355E+02  0.5232392E+03
Ar  434  0.4161771E+02  0.2406791E+01  0.6687372E+02  0.5615984E+03
Ar  435  0.4161771E+02  0.6687372E+02  0.2406791E+01  0.5615984E+03
Ar  436  0.2196828E+02  0.7900528E+02  0.7900528E+02  0.1768098E+03
Ar  437  0.2446905E+02  0.7970323E+00  0.3573336E+01  0.2577575E+03
Ar  438  0.2812348E+02  0.1111013E+01  0.3598572E+01  0.3153703E+03
Ar  439  0.2667316E+02  0.7695456E+02  0.7287768E+00  0.4895583E+03
Ar  440  0.2641784E+02  0.7704608E+02  0.5764153E+01  0.1564156E+03
Ar  441  0.2035877E+02  0.7824262E+01  0.1775733E+02  0.6154303E+02
Ar  442  0.2634169E+02  0.1031222E+02  0.2390590E+02  0.3040845E+03
Ar  443  0.3249026E+02  0.7824262E+01  0.2988882E+02  0.6154303E+02
Ar  444  0.2646344E+02  0.1430260E+02  0.2378415E+02  0.1644495E+03
Ar  445  0.3385023E+02  0.6247924E+01  0.3385023E+02  0.6265226E+01
Ar  446  0.2950234E+02  0.1169793E+02  0.2562890E+02  0.8525877E+02
Ar  447  0.2906250E+02  0.1093658E+02  0.2906250E+02  0.2690137E+01
Ar  448  0.2562890E+02  0.1169793E+02  0.2950234E+02  0.8525877E+02
Ar  449  0.2723389E+02  0.7901873E+02  0.4327735E+02  0.1944049E+03
Ar  450  0.3029205E+02  0.3183257E+01  0.4088736E+02  0.1296419E+03
Ar  451  0.2784019E+02  0.7594582E+02  0.4662882E+02  0.1040917E+03
Ar  452  0.2868104E+02  0.2826635E+01  0.4443100E+02  0.5647062E+02
Ar  453  0.3764819E+02  0.6639892E+02  0.4568477E+02  0.1784347E+04
Ar  454  0.3180620E+02  0.7675574E+02  0.5283016E+02  0.3080867E+03
Ar  455  0.4700892E+02  0.7110431E+02  0.5848158E+02  0.6979072E+03
Ar  456  0.3764819E+02  0.4562825E+01  0.6318698E+02  0.1784347E+04
Ar  457  0.2446905E+02  0.3573336E+01  0.7970323E+00  0.2577575E+03
Ar  458  0.2667316E+02  0.7287768E+00  0.7695456E+02  0.4895583E+03
Ar  459  0.2812348E+02  0.3598572E+01  0.1111013E+01  0.3153703E+03
Ar  460  0.2641784E+02  0.5764153E+01  0.7704608E+02  0.1564156E+03
Ar  461  0.2459829E+02  0.5320944E+01  0.5320944E+01  0.1559442E+03
Ar  462  0.2674762E+02  0.7156590E+01  0.1372073E+01  0.1112618E+03
Ar  463  0.2674762E+02  0.1372073E+01  0.7156590E+01  0.1112618E+03
Ar  464  0.3353952E+02  0.2061337E+01  0.2061337E+01  0.1522279E+03
Ar  465  0.2523049E+02  0.7409873E+01  0.2009804E+02  0.1053230E+03
Ar  466  0.2865598E+02  0.9345211E+01  0.2159161E+02  0.1568301E+03
Ar  467  0.3014955E+02  0.7409873E+01  0.2501710E+02  0.1053230E+03
Ar  468  0.2663715E+02  0.1920302E+02  0.2361044E+02  0.3688538E+01
Ar  469  0.2898675E+02  0.6602560E+01  0.2898675E+02  0.8713121E+02
Ar  470  0.2903500E+02  0.1681592E+02  0.2479135E+02  0.3007383E+03
Ar  471  0.2719209E+02  0.1370378E+02  0.2719209E+02  0.1049315E+03
Ar  472  0.2479135E+02  0.1681592E+02  0.2903500E+02  0.3007383E+03
Ar  473  0.2641002E+02  0.2634254E+01  0.4103948E+02  0.2450400E+03
Ar  474  0.2770834E+02  0.1831909E+02  0.3192850E+02  0.6323394E+02
Ar  475  0.4196171E+02  0.6752865E+02  0.6205724E+02  0.1915849E+03
Ar  476  0.2641002E+02  0.9208113E+01  0.4761334E+02  0.2450400E+03
Ar  477  0.2868104E+02  0.5816594E+01  0.4742096E+02  0.5647062E+02
Ar  478  0.3029205E+02  0.9360229E+01  0.4706433E+02  0.1296419E+03
Ar  479  0.2784019E+02  0.3618767E+01  0.5364008E+02  0.1040917E+03
Ar  480  0.2723389E+02  0.6970241E+01  0.5056716E+02  0.1944049E+03
Ar  481  0.2035877E+02  0.1775733E+02  0.7824262E+01  0.6154303E+02
Ar  482  0.3249026E+02  0.2988882E+02  0.7824262E+01  0.6154303E+02
Ar  483  0.2634169E+02  0.2390590E+02  0.1031222E+02  0.3040845E+03
Ar  484  0.2646344E+02  0.2378415E+02  0.1430260E+02  0.1644495E+03
Ar  485  0.2523049E+02  0.2009804E+02  0.7409873E+01  0.1053230E+03
Ar  486  0.3014955E+02  0.2501710E+02  0.7409873E+01  0.1053230E+03
Ar  487  0.2865598E+02  0.2159161E+02  0.9345211E+01  0.1568301E+03
Ar  488  0.2663715E+02  0.2361044E+02  0.1920302E+02  0.3688538E+01
Ar  489  0.2556208E+02  0.2045842E+02  0.2045842E+02  0.3643249E+03
Ar  490  0.2978917E+02  0.2468551E+02  0.2045842E+02  0.3643249E+03
Ar  491  0.2978917E+02  0.2045842E+02  0.2468551E+02  0.3643249E+03
Ar  492  0.2649401E+02  0.2375358E+02  0.2375358E+02  0.7969224E+01
Ar  493  0.2766419E+02  0.1929954E+02  0.2766419E+02  0.1608853E+03
Ar  494  0.3094805E+02  0.2258340E+02  0.2766419E+02  0.1608853E+03
Ar  495  0.3394380E+02  0.1630379E+02  0.3394380E+02  0.1578823E+03
Ar  496  0.2766419E+02  0.2258340E+02  0.3094805E+02  0.1608853E+03
Ar  497  0.2479135E+02  0.2121259E+02  0.3343167E+02  0.3007383E+03
Ar  498  0.2903500E+02  0.2545624E+02  0.3343167E+02  0.3007383E+03
Ar  499  0.2719209E+02  0.2305550E+02  0.3654381E+02  0.1049315E+03
Ar  500  0.2898675E+02  0.2126084E+02  0.4364503E+02  0.8713121E+02
Ar  501  0.2562890E+02  0.2074525E+02  0.3854966E+02  0.8525877E+02
Ar  502  0.2950234E+02  0.2461869E+02  0.3854966E+02  0.8525877E+02
Ar  503  0.2906250E+02  0.2118509E+02  0.3931101E+02  0.2690137E+01
Ar  504  0.3385023E+02  0.1639736E+02  0.4399967E+02  0.6265226E+01
Ar  505  0.3385023E+02  0.3385023E+02  0.6247924E+01  0.6265226E+01
Ar  506  0.2906250E+02  0.2906250E+02  0.1093658E+02  0.2690137E+01
Ar  507  0.2950234E+02  0.2562890E+02  0.1169793E+02  0.8525877E+02
Ar  508  0.2562890E+02  0.2950234E+02  0.1169793E+02  0.8525877E+02
Ar  509  0.2898675E+02  0.2898675E+02  0.6602560E+01  0.8713121E+02
Ar  510  0.2719209E+02  0.2719209E+02  0.1370378E+02  0.1049315E+03
Ar  511  0.2903500E+02  0.2479135E+02  0.1681592E+02  0.3007383E+03
Ar  512  0.2479135E+02  0.2903500E+02  0.1681592E+02  0.3007383E+03
Ar  513  0.2766419E+02  0.2766419E+02  0.1929954E+02  0.1608853E+03
Ar  514  0.3394380E+02  0.3394380E+02  0.1630379E+02  0.1578823E+03
Ar  515  0.3094805E+02  0.2766419E+02  0.2258340E+02  0.1608853E+03
Ar  516  0.2766419E+02  0.3094805E+02  0.2258340E+02  0.1608853E+03
Ar  517  0.2649401E+02  0.2649401E+02  0.2649401E+02  0.7969225E+01
Ar  518  0.2978917E+02  0.2978917E+02  0.2556208E+02  0.3643249E+03
Ar  519  0.2978917E+02  0.2556208E+02  0.2978917E+02  0.3643249E+03
Ar  520  0.2556208E+02  0.2978917E+02  0.2978917E+02  0.3643249E+03
Ar  521  0.2663715E+02  0.2663715E+02  0.3104457E+02  0.3688538E+01
Ar  522  0.2865598E+02  0.2865598E+02  0.4090238E+02  0.1568301E+03
Ar  523  0.3014955E+02  0.2523049E+02  0.4283772E+02  0.1053230E+03
Ar  524  0.2523049E+02  0.3014955E+02  0.4283772E+02  0.1053230E+03
Ar  525  0.2646344E+02  0.2646344E+02  0.3594499E+02  0.1644495E+03
Ar  526  0.2634169E+02  0.2634169E+02  0.3993537E+02  0.3040845E+03
Ar  527  0.3249026E+02  0.2035877E+02  0.4242333E+02  0.6154303E+02
Ar  528  0.2035877E+02  0.3249026E+02  0.4242333E+02  0.6154303E+02
Ar  529  0.2723389E+02  0.4327735E+02  0.7901873E+02  0.1944049E+03
Ar  530  0.2784019E+02  0.4662882E+02  0.7594582E+02  0.1040917E+03
Ar  531  0.3029205E+02  0.4088736E+02  0.3183257E+01  0.1296419E+03
Ar  532  0.2868104E+02  0.4443100E+02  0.2826635E+01  0.5647062E+02
Ar  533  0.2641002E+02  0.4103948E+02  0.2634254E+01  0.2450400E+03
Ar  534  0.4196171E+02  0.6205724E+02  0.6752865E+02  0.1915849E+03
Ar  535  0.2770834E+02  0.3192850E+02  0.1831909E+02  0.6323394E+02
Ar  536  0.2641002E+02  0.4761334E+02  0.9208113E+01  0.2450400E+03
Ar  537  0.2479135E+02  0.3343167E+02  0.2121259E+02  0.3007383E+03
Ar  538  0.2719209E+02  0.3654381E+02  0.2305550E+02  0.1049315E+03
Ar  539  0.2903500E+02  0.3343167E+02  0.2545624E+02  0.3007383E+03
Ar  540  0.2898675E+02  0.4364503E+02  0.2126084E+02  0.8713121E+02
Ar  541  0.2663715E+02  0.3104457E+02  0.2663715E+02  0.3688537E+01
Ar  542  0.3014955E+02  0.4283772E+02  0.2523049E+02  0.1053230E+03
Ar  543  0.2865598E+02  0.4090238E+02  0.2865598E+02  0.1568301E+03
Ar  544  0.2523049E+02  0.4283772E+02  0.3014955E+02  0.1053230E+03
Ar  545  0.3353952E+02  0.4818625E+02  0.4818625E+02  0.1522279E+03
Ar  546  0.2674762E+02  0.4887552E+02  0.4309100E+02  0.1112618E+03
Ar  547  0.2674762E+02  0.4309100E+02  0.4887552E+02  0.1112618E+03
Ar  548  0.2459829E+02  0.4492665E+02  0.4492665E+02  0.1559442E+03
Ar  549  0.2641784E+02  0.4448344E+02  0.5253982E+02  0.1564156E+03
Ar  550  0.2812348E+02  0.4664902E+02  0.4913658E+02  0.3153703E+03
Ar  551  0.2667316E+02  0.4951881E+02  0.5263134E+02  0.4895583E+03
Ar  552  0.2446905E+02  0.4667425E+02  0.4945056E+02  0.2577575E+03
Ar  553  0.3764819E+02  0.4568477E+02  0.6639892E+02  0.1784347E+04
Ar  554  0.4700892E+02  0.5848158E+02  0.7110431E+02  0.6979072E+03
Ar  555  0.3180620E+02  0.5283016E+02  0.7675574E+02  0.3080867E+03
Ar  556  0.3764819E+02  0.6318698E+02  0.4562825E+01  0.1784347E+04
Ar  557  0.2868104E+02  0.4742096E+02  0.5816594E+01  0.5647062E+02
Ar  558  0.2784019E+02  0.5364008E+02  0.3618767E+01  0.1040917E+03
Ar  559  0.3029205E+02  0.4706433E+02  0.9360229E+01  0.1296419E+03
Ar  560  0.2723389E+02  0.5056716E+02  0.6970241E+01  0.1944049E+03
Ar  561  0.2562890E+02  0.3854966E+02  0.2074525E+02  0.8525877E+02
Ar  562  0.2906250E+02  0.3931101E+02  0.2118509E+02  0.2690137E+01
Ar  563  0.2950234E+02  0.3854966E+02  0.2461869E+02  0.8525877E+02
Ar  564  0.3385023E+02  0.4399967E+02  0.1639736E+02  0.6265226E+01
Ar  565  0.2646344E+02  0.3594499E+02  0.2646344E+02  0.1644495E+03
Ar  566  0.3249026E+02  0.4242333E+02  0.2035877E+02  0.6154303E+02
Ar  567  0.2634169E+02  0.3993537E+02  0.2634169E+02  0.3040845E+03
Ar  568  0.2035877E+02  0.4242333E+02  0.3249026E+02  0.6154303E+02
Ar  569  0.2641784E+02  0.5253982E+02  0.4448344E+02  0.1564156E+03
Ar  570  0.2667316E+02  0.5263134E+02  0.4951881E+02  0.4895583E+03
Ar  571  0.2812348E+02  0.4913658E+02  0.4664902E+02  0.3153703E+03
Ar  572  0.2446905E+02  0.4945056E+02  0.4667425E+02  0.2577575E+03
Ar  573  0.2196828E+02  0.5058062E+02  0.5058062E+02  0.1768098E+03
Ar  574  0.4161771E+02  0.6271217E+02  0.4784080E+02  0.5615984E+03
Ar  575  0.4161771E+02  0.4784080E+02  0.6271217E+02  0.5615984E+03
Ar  576  0.2643669E+02  0.6150235E+02  0.6150235E+02  0.5232392E+03
Ar  577  0.1864591E+02  0.6847708E+02  0.6847708E+02  0.7941480E+03
Ar  578  0.2075685E+02  0.7254238E+02  0.6457954E+02  0.3870676E+03
Ar  579  0.2075685E+02  0.6457954E+02  0.7254238E+02  0.3870676E+03
Ar  580  0.2973525E+02  0.7794526E+02  0.7794526E+02  0.3102501E+03
Ar  581  0.3659995E+02  0.1947147E+01  0.5147132E+01  0.1168758E+03
Ar  582  0.4608367E+02  0.5513287E+02  0.4163925E+01  0.2804882E+04
Ar  583  0.4510046E+02  0.1947147E+01  0.1364764E+02  0.1168758E+03
Ar  584  0.2732444E+02  0.6373041E+01  0.2292315E+02  0.1766291E+03
Ar  585  0.4951881E+02  0.7695456E+02  0.2357443E+02  0.4895583E+03
Ar  586  0.4664902E+02  0.1111013E+01  0.2212411E+02  0.3153703E+03
Ar  587  0.4667425E+02  0.7970323E+00  0.2577854E+02  0.2577575E+03
Ar  588  0.4448344E+02  0.7704608E+02  0.2382975E+02  0.1564156E+03
Ar  589  0.4327735E+02  0.7901873E+02  0.2723389E+02  0.1944049E+03
Ar  590  0.4443100E+02  0.2826635E+01  0.2868104E+02  0.5647062E+02
Ar  591  0.4662882E+02  0.7594582E+02  0.2784019E+02  0.1040917E+03
Ar  592  0.4088736E+02  0.3183257E+01  0.3029205E+02  0.1296419E+03
Ar  593  0.3037227E+02  0.5326542E+02  0.3037227E+02  0.8331319E+03
Ar  594  0.4933533E+02  0.5260598E+02  0.4304149E+02  0.1210755E+04
Ar  595  0.5280897E+02  0.5620633E+02  0.5280897E+02  0.3922713E+03
Ar  596  0.4304149E+02  0.5260598E+02  0.4933533E+02  0.1210755E+04
Ar  597  0.2961009E+02  0.7903131E+02  0.4691387E+02  0.2818357E+03
Ar  598  0.3624852E+02  0.6590924E+02  0.6367665E+02  0.7344852E+03
Ar  599  0.5085035E+02  0.7021663E+02  0.5936927E+02  0.2048057E+04
Ar  600  0.2961009E+02  0.3333716E+01  0.5055459E+02  0.2818357E+03
Ar  601  0.3659995E+02  0.5147132E+01  0.1947147E+01  0.1168758E+03
Ar  602  0.4510046E+02  0.1364764E+02  0.1947147E+01  0.1168758E+03
Ar  603  0.4608367E+02  0.4163925E+01  0.5513287E+02  0.2804882E+04
Ar  604  0.2732444E+02  0.2292315E+02  0.6373041E+01  0.1766291E+03
Ar  605  0.5355168E+02  0.7136672E+02  0.7136672E+02  0.1863130E+04
Ar  606  0.5821917E+02  0.7603422E+02  0.7136672E+02  0.1863130E+04
Ar  607  0.5821917E+02  0.7136672E+02  0.7603422E+02  0.1863130E+04
Ar  608  0.5454402E+02  0.7504187E+02  0.7504187E+02  0.4639132E+03
Ar  609  0.4309100E+02  0.1372073E+01  0.2349997E+02  0.1112618E+03
Ar  610  0.4887552E+02  0.7156590E+01  0.2349997E+02  0.1112618E+03
Ar  611  0.4492665E+02  0.5320944E+01  0.2564930E+02  0.1559442E+03
Ar  612  0.4818625E+02  0.2061337E+01  0.1670807E+02  0.1522279E+03
Ar  613  0.4103948E+02  0.2634254E+01  0.2641002E+02  0.2450400E+03
Ar  614  0.4761334E+02  0.9208113E+01  0.2641002E+02  0.2450400E+03
Ar  615  0.6205724E+02  0.6752865E+02  0.4196171E+02  0.1915849E+03
Ar  616  0.3192850E+02  0.1831909E+02  0.2770834E+02  0.6323394E+02
Ar  617  0.3009073E+02  0.1614193E+02  0.3009073E+02  0.6897048E+02
Ar  618  0.3410566E+02  0.2015686E+02  0.3009073E+02  0.6897048E+02
Ar  619  0.3609520E+02  0.1415239E+02  0.3609520E+02  0.4572125E+04
Ar  620  0.3009073E+02  0.2015686E+02  0.3410566E+02  0.6897048E+02
Ar  621  0.4304149E+02  0.9122587E+00  0.7697992E+02  0.1210755E+04
Ar  622  0.4933533E+02  0.7206103E+01  0.7697992E+02  0.1210755E+04
Ar  623  0.5280897E+02  0.7677693E+02  0.7337957E+02  0.3922712E+03
Ar  624  0.3037227E+02  0.1987532E+02  0.7632048E+02  0.8331319E+03
Ar  625  0.4951881E+02  0.2357443E+02  0.7695456E+02  0.4895583E+03
Ar  626  0.4667425E+02  0.2577854E+02  0.7970323E+00  0.2577575E+03
Ar  627  0.4664902E+02  0.2212411E+02  0.1111013E+01  0.3153703E+03
Ar  628  0.4448344E+02  0.2382975E+02  0.7704608E+02  0.1564156E+03
Ar  629  0.4309100E+02  0.2349997E+02  0.1372073E+01  0.1112618E+03
Ar  630  0.4492665E+02  0.2564930E+02  0.5320944E+01  0.1559442E+03
Ar  631  0.4887552E+02  0.2349997E+02  0.7156590E+01  0.1112618E+03
Ar  632  0.4818625E+02  0.1670807E+02  0.2061337E+01  0.1522279E+03
Ar  633  0.4090238E+02  0.2159161E+02  0.2159161E+02  0.1568301E+03
Ar  634  0.4283772E+02  0.2501710E+02  0.2009804E+02  0.1053230E+03
Ar  635  0.4283772E+02  0.2009804E+02  0.2501710E+02  0.1053230E+03
Ar  636  0.3104457E+02  0.2361044E+02  0.2361044E+02  0.3688538E+01
Ar  637  0.3343167E+02  0.2121259E+02  0.2479135E+02  0.3007383E+03
Ar  638  0.4364503E+02  0.2126084E+02  0.2898675E+02  0.8713121E+02
Ar  639  0.3654381E+02  0.2305550E+02  0.2719209E+02  0.1049315E+03
Ar  640  0.3343167E+02  0.2545624E+02  0.2903500E+02  0.3007383E+03
Ar  641  0.3192850E+02  0.2253925E+02  0.3192850E+02  0.6323394E+02
Ar  642  0.4761334E+02  0.2383757E+02  0.4103948E+02  0.2450400E+03
Ar  643  0.6205724E+02  0.8285879E+01  0.6205724E+02  0.1915849E+03
Ar  644  0.4103948E+02  0.2383757E+02  0.4761334E+02  0.2450400E+03
Ar  645  0.4088736E+02  0.1995554E+02  0.4706433E+02  0.1296419E+03
Ar  646  0.4443100E+02  0.2156655E+02  0.4742096E+02  0.5647062E+02
Ar  647  0.4662882E+02  0.2240740E+02  0.5364008E+02  0.1040917E+03
Ar  648  0.4327735E+02  0.2301370E+02  0.5056716E+02  0.1944049E+03
Ar  649  0.4327735E+02  0.2723389E+02  0.7901873E+02  0.1944049E+03
Ar  650  0.4662882E+02  0.2784019E+02  0.7594582E+02  0.1040917E+03
Ar  651  0.4443100E+02  0.2868104E+02  0.2826635E+01  0.5647062E+02
Ar  652  0.4088736E+02  0.3029205E+02  0.3183257E+01  0.1296419E+03
Ar  653  0.4103948E+02  0.2641002E+02  0.2634254E+01  0.2450400E+03
Ar  654  0.6205724E+02  0.4196171E+02  0.6752865E+02  0.1915849E+03
Ar  655  0.4761334E+02  0.2641002E+02  0.9208113E+01  0.2450400E+03
Ar  656  0.3192850E+02  0.2770834E+02  0.1831909E+02  0.6323394E+02
Ar  657  0.3343167E+02  0.2479135E+02  0.2121259E+02  0.3007383E+03
Ar  658  0.3654381E+02  0.2719209E+02  0.2305550E+02  0.1049315E+03
Ar  659  0.4364503E+02  0.2898675E+02  0.2126084E+02  0.8713121E+02
Ar  660  0.3343167E+02  0.2903500E+02  0.2545624E+02  0.3007383E+03
Ar  661  0.3104457E+02  0.2663715E+02  0.2663715E+02  0.3688537E+01
Ar  662  0.4283772E+02  0.3014955E+02  0.2523049E+02  0.1053230E+03
Ar  663  0.4283772E+02  0.2523049E+02  0.3014955E+02  0.1053230E+03
Ar  664  0.4090238E+02  0.2865598E+02  0.2865598E+02  0.1568301E+03
Ar  665  0.4818625E+02  0.3353952E+02  0.4818625E+02  0.1522279E+03
Ar  666  0.4887552E+02  0.2674762E+02  0.4309100E+02  0.1112618E+03
Ar  667  0.4492665E+02  0.2459829E+02  0.4492665E+02  0.1559442E+03
Ar  668  0.4309100E+02  0.2674762E+02  0.4887552E+02  0.1112618E+03
Ar  669  0.4448344E+02  0.2641784E+02  0.5253982E+02  0.1564156E+03
Ar  670  0.4664902E+02  0.2812348E+02  0.4913658E+02  0.3153703E+03
Ar  671  0.4667425E+02  0.2446905E+02  0.4945056E+02  0.2577575E+03
Ar  672  0.4951881E+02  0.2667316E+02  0.5263134E+02  0.4895583E+03
Ar  673  0.3037227E+02  0.3037227E+02  0.5326542E+02  0.8331319E+03
Ar  674  0.5280897E+02  0.5280897E+02  0.5620633E+02  0.3922713E+03
Ar  675  0.4933533E+02  0.4304149E+02  0.5260598E+02  0.1210755E+04
Ar  676  0.4304149E+02  0.4933533E+02  0.5260598E+02  0.1210755E+04
Ar  677  0.3009073E+02  0.3009073E+02  0.1614193E+02  0.6897048E+02
Ar  678  0.3609520E+02  0.3609520E+02  0.1415239E+02  0.4572125E+04
Ar  679  0.3410566E+02  0.3009073E+02  0.2015686E+02  0.6897048E+02
Ar  680  0.3009073E+02  0.3410566E+02  0.2015686E+02  0.6897048E+02
Ar  681  0.3192850E+02  0.3192850E+02  0.2253925E+02  0.6323394E+02
Ar  682  0.6205724E+02  0.6205724E+02  0.8285879E+01  0.1915849E+03
Ar  683  0.4761334E+02  0.4103948E+02  0.2383757E+02  0.2450400E+03
Ar  684  0.4103948E+02  0.4761334E+02  0.2383757E+02  0.2450400E+03
Ar  685  0.4818625E+02  0.4818625E+02  0.3353952E+02  0.1522279E+03
Ar  686  0.4492665E+02  0.4492665E+02  0.2459829E+02  0.1559442E+03
Ar  687  0.4887552E+02  0.4309100E+02  0.2674762E+02  0.1112618E+03
Ar  688  0.4309100E+02  0.4887552E+02  0.2674762E+02  0.1112618E+03
Ar  689  0.5454402E+02  0.5454402E+02  0.5454402E+02  0.4639132E+03
Ar  690  0.5821917E+02  0.5821917E+02  0.5355168E+02  0.1863130E+04
Ar  691  0.5821917E+02  0.5355168E+02  0.5821917E+02  0.1863130E+04
Ar  692  0.5355168E+02  0.5821917E+02  0.5821917E+02  0.1863130E+04
Ar  693  0.2732444E+02  0.2732444E+02  0.4387455E+02  0.1766291E+03
Ar  694  0.4608367E+02  0.4608367E+02  0.7445302E+02  0.2804882E+04
Ar  695  0.4510046E+02  0.3659995E+02  0.4830044E+02  0.1168758E+03
Ar  696  0.3659995E+02  0.4510046E+02  0.4830044E+02  0.1168758E+03
Ar  697  0.2961009E+02  0.4691387E+02  0.7903131E+02  0.2818357E+03
Ar  698  0.5085035E+02  0.5936927E+02  0.7021663E+02  0.2048057E+04
Ar  699  0.3624852E+02  0.6367665E+02  0.6590924E+02  0.7344852E+03
Ar  700  0.2961009E+02  0.5055459E+02  0.3333716E+01  0.2818357E+03
Ar  701  0.4304149E+02  0.7697992E+02  0.9122587E+00  0.1210755E+04
Ar  702  0.5280897E+02  0.7337957E+02  0.7677693E+02  0.3922712E+03
Ar  703  0.4933533E+02  0.7697992E+02  0.7206103E+01  0.1210755E+04
Ar  704  0.3037227E+02  0.7632048E+02  0.1987532E+02  0.8331319E+03
Ar  705  0.4088736E+02  0.4706433E+02  0.1995554E+02  0.1296419E+03
Ar  706  0.4662882E+02  0.5364008E+02  0.2240740E+02  0.1040917E+03
Ar  707  0.4443100E+02  0.4742096E+02  0.2156655E+02  0.5647062E+02
Ar  708  0.4327735E+02  0.5056716E+02  0.2301370E+02  0.1944049E+03
Ar  709  0.4448344E+02  0.5253982E+02  0.2641784E+02  0.1564156E+03
Ar  710  0.4667425E+02  0.4945056E+02  0.2446905E+02  0.2577575E+03
Ar  711  0.4664902E+02  0.4913658E+02  0.2812348E+02  0.3153703E+03
Ar  712  0.4951881E+02  0.5263134E+02  0.2667316E+02  0.4895583E+03
Ar  713  0.2732444E+02  0.4387455E+02  0.2732444E+02  0.1766291E+03
Ar  714  0.4510046E+02  0.4830044E+02  0.3659995E+02  0.1168758E+03
Ar  715  0.4608367E+02  0.7445302E+02  0.4608367E+02  0.2804882E+04
Ar  716  0.3659995E+02  0.4830044E+02  0.4510046E+02  0.1168758E+03
Ar  717  0.2973525E+02  0.5164064E+02  0.5164064E+02  0.3102501E+03
Ar  718  0.2075685E+02  0.6500636E+02  0.5704352E+02  0.3870676E+03
Ar  719  0.2075685E+02  0.5704352E+02  0.6500636E+02  0.3870676E+03
Ar  720  0.1864591E+02  0.6110882E+02  0.6110882E+02  0.7941480E+03
Ar  721  0.5021879E+02  0.7064578E+02  0.7064578E+02  0.9773627E+03
Ar  722  0.5894011E+02  0.2880388E-01  0.7064578E+02  0.9773627E+03
Ar  723  0.5894011E+02  0.7064578E+02  0.2880387E-01  0.9773627E+03
Ar  724  0.5903302E+02  0.7055288E+02  0.7055288E+02  0.2238740E+04
Ar  725  0.5704352E+02  0.6457954E+02  0.2949074E+02  0.3870676E+03
Ar  726  0.6500636E+02  0.7254238E+02  0.2949074E+02  0.3870676E+03
Ar  727  0.6110882E+02  0.6847708E+02  0.3160168E+02  0.7941480E+03
Ar  728  0.5164064E+02  0.7794526E+02  0.2051234E+02  0.3102501E+03
Ar  729  0.4784080E+02  0.6687372E+02  0.8629881E+01  0.5615984E+03
Ar  730  0.6271217E+02  0.2406791E+01  0.8629881E+01  0.5615984E+03
Ar  731  0.6150235E+02  0.6808355E+02  0.2381090E+02  0.5232392E+03
Ar  732  0.5058062E+02  0.7900528E+02  0.2827931E+02  0.1768098E+03
Ar  733  0.4568477E+02  0.6639892E+02  0.3764819E+02  0.1784347E+04
Ar  734  0.6318698E+02  0.4562825E+01  0.3764819E+02  0.1784347E+04
Ar  735  0.5848158E+02  0.7110431E+02  0.4700892E+02  0.6979072E+03
Ar  736  0.5283016E+02  0.7675574E+02  0.3180620E+02  0.3080867E+03
Ar  737  0.4691387E+02  0.7903131E+02  0.2961009E+02  0.2818357E+03
Ar  738  0.5055459E+02  0.3333716E+01  0.2961009E+02  0.2818357E+03
Ar  739  0.5936927E+02  0.7021663E+02  0.5085035E+02  0.2048057E+04
Ar  740  0.6367665E+02  0.6590924E+02  0.3624852E+02  0.7344852E+03
Ar  741  0.2677169E+02  0.6824168E+02  0.2677169E+02  0.1910011E+03
Ar  742  0.6134422E+02  0.2347590E+02  0.2677169E+02  0.1910011E+03
Ar  743  0.4504878E+02  0.5198813E+01  0.4504878E+02  0.1973596E+02
Ar  744  0.2677169E+02  0.2347590E+02  0.6134422E+02  0.1910011E+03
Ar  745  0.5704352E+02  0.2949074E+02  0.6457954E+02  0.3870676E+03
Ar  746  0.6110882E+02  0.3160168E+02  0.6847708E+02  0.7941480E+03
Ar  747  0.6500636E+02  0.2949074E+02  0.7254238E+02  0.3870676E+03
Ar  748  0.5164064E+02  0.2051234E+02  0.7794526E+02  0.3102501E+03
Ar  749  0.7445302E+02  0.4163925E+01  0.4163925E+01  0.2804882E+04
Ar  750  0.4830044E+02  0.1364764E+02  0.5147132E+01  0.1168758E+03
Ar  751  0.4830044E+02  0.5147132E+01  0.1364764E+02  0.1168758E+03
Ar  752  0.4387455E+02  0.2292315E+02  0.2292315E+02  0.1766291E+03
Ar  753  0.4913658E+02  0.3598572E+01  0.2212411E+02  0.3153703E+03
Ar  754  0.5263134E+02  0.7287768E+00  0.2357443E+02  0.4895583E+03
Ar  755  0.4945056E+02  0.3573336E+01  0.2577854E+02  0.2577575E+03
Ar  756  0.5253982E+02  0.5764153E+01  0.2382975E+02  0.1564156E+03
Ar  757  0.4742096E+02  0.5816594E+01  0.2868104E+02  0.5647062E+02
Ar  758  0.5056716E+02  0.6970241E+01  0.2723389E+02  0.1944049E+03
Ar  759  0.5364008E+02  0.3618767E+01  0.2784019E+02  0.1040917E+03
Ar  760  0.4706433E+02  0.9360229E+01  0.3029205E+02  0.1296419E+03
Ar  761  0.7697992E+02  0.9122587E+00  0.4304149E+02  0.1210755E+04
Ar  762  0.7632048E+02  0.1987532E+02  0.3037227E+02  0.8331319E+03
Ar  763  0.7337957E+02  0.7677693E+02  0.5280897E+02  0.3922712E+03
Ar  764  0.7697992E+02  0.7206103E+01  0.4933533E+02  0.1210755E+04
Ar  765  0.6367665E+02  0.1399907E+02  0.6367665E+02  0.7344852E+03
Ar  766  0.5055459E+02  0.2063750E+02  0.4691387E+02  0.2818357E+03
Ar  767  0.5936927E+02  0.7873555E+02  0.5936927E+02  0.2048057E+04
Ar  768  0.4691387E+02  0.2063750E+02  0.5055459E+02  0.2818357E+03
Ar  769  0.4784080E+02  0.8629881E+01  0.6687372E+02  0.5615984E+03
Ar  770  0.6150235E+02  0.2381090E+02  0.6808355E+02  0.5232392E+03
Ar  771  0.6271217E+02  0.8629881E+01  0.2406791E+01  0.5615984E+03
Ar  772  0.5058062E+02  0.2827931E+02  0.7900528E+02  0.1768098E+03
Ar  773  0.4913658E+02  0.2212411E+02  0.3598572E+01  0.3153703E+03
Ar  774  0.4945056E+02  0.2577854E+02  0.3573336E+01  0.2577575E+03
Ar  775  0.5263134E+02  0.2357443E+02  0.7287768E+00  0.4895583E+03
Ar  776  0.5253982E+02  0.2382975E+02  0.5764153E+01  0.1564156E+03
Ar  777  0.3993537E+02  0.2390590E+02  0.2390590E+02  0.3040845E+03
Ar  778  0.4242333E+02  0.2988882E+02  0.1775733E+02  0.6154303E+02
Ar  779  0.4242333E+02  0.1775733E+02  0.2988882E+02  0.6154303E+02
Ar  780  0.3594499E+02  0.2378415E+02  0.2378415E+02  0.1644495E+03
Ar  781  0.3854966E+02  0.2074525E+02  0.2562890E+02  0.8525877E+02
Ar  782  0.4399967E+02  0.1639736E+02  0.3385023E+02  0.6265226E+01
Ar  783  0.3931101E+02  0.2118509E+02  0.2906250E+02  0.2690137E+01
Ar  784  0.3854966E+02  0.2461869E+02  0.2950234E+02  0.8525877E+02
Ar  785  0.4706433E+02  0.1995554E+02  0.4088736E+02  0.1296419E+03
Ar  786  0.5056716E+02  0.2301370E+02  0.4327735E+02  0.1944049E+03
Ar  787  0.5364008E+02  0.2240740E+02  0.4662882E+02  0.1040917E+03
Ar  788  0.4742096E+02  0.2156655E+02  0.4443100E+02  0.5647062E+02
Ar  789  0.5283016E+02  0.1844139E+02  0.5283016E+02  0.3080867E+03
Ar  790  0.6318698E+02  0.1259940E+02  0.4568477E+02  0.1784347E+04
Ar  791  0.5848158E+02  0.3238667E+01  0.5848158E+02  0.6979072E+03
Ar  792  0.4568477E+02  0.1259940E+02  0.6318698E+02  0.1784347E+04
Ar  793  0.4568477E+02  0.3764819E+02  0.6639892E+02  0.1784347E+04
Ar  794  0.5848158E+02  0.4700892E+02  0.7110431E+02  0.6979072E+03
Ar  795  0.6318698E+02  0.3764819E+02  0.4562825E+01  0.1784347E+04
Ar  796  0.5283016E+02  0.3180620E+02  0.7675574E+02  0.3080867E+03
Ar  797  0.4742096E+02  0.2868104E+02  0.5816594E+01  0.5647062E+02
Ar  798  0.5364008E+02  0.2784019E+02  0.3618767E+01  0.1040917E+03
Ar  799  0.5056716E+02  0.2723389E+02  0.6970241E+01  0.1944049E+03
Ar  800  0.4706433E+02  0.3029205E+02  0.9360229E+01  0.1296419E+03
Ar  801  0.3854966E+02  0.2562890E+02  0.2074525E+02  0.8525877E+02
Ar  802  0.3931101E+02  0.2906250E+02  0.2118509E+02  0.2690137E+01
Ar  803  0.4399967E+02  0.3385023E+02  0.1639736E+02  0.6265226E+01
Ar  804  0.3854966E+02  0.2950234E+02  0.2461869E+02  0.8525877E+02
Ar  805  0.3594499E+02  0.2646344E+02  0.2646344E+02  0.1644495E+03
Ar  806  0.4242333E+02  0.3249026E+02  0.2035877E+02  0.6154303E+02
Ar  807  0.4242333E+02  0.2035877E+02  0.3249026E+02  0.6154303E+02
Ar  808  0.3993537E+02  0.2634169E+02  0.2634169E+02  0.3040845E+03
Ar  809  0.5253982E+02  0.2641784E+02  0.4448344E+02  0.1564156E+03
Ar  810  0.5263134E+02  0.2667316E+02  0.4951881E+02  0.4895583E+03
Ar  811  0.4945056E+02  0.2446905E+02  0.4667425E+02  0.2577575E+03
Ar  812  0.4913658E+02  0.2812348E+02  0.4664902E+02  0.3153703E+03
Ar  813  0.5058062E+02  0.2196828E+02  0.5058062E+02  0.1768098E+03
Ar  814  0.6271217E+02  0.4161771E+02  0.4784080E+02  0.5615984E+03
Ar  815  0.6150235E+02  0.2643669E+02  0.6150235E+02  0.5232392E+03
Ar  816  0.4784080E+02  0.4161771E+02  0.6271217E+02  0.5615984E+03
Ar  817  0.4691387E+02  0.2961009E+02  0.7903131E+02  0.2818357E+03
Ar  818  0.5936927E+02  0.5085035E+02  0.7021663E+02  0.2048057E+04
Ar  819  0.5055459E+02  0.2961009E+02  0.3333716E+01  0.2818357E+03
Ar  820  0.6367665E+02  0.3624852E+02  0.6590924E+02  0.7344852E+03
Ar  821  0.7697992E+02  0.4304149E+02  0.9122587E+00  0.1210755E+04
Ar  822  0.7337957E+02  0.5280897E+02  0.7677693E+02  0.3922712E+03
Ar  823  0.7632048E+02  0.3037227E+02  0.1987532E+02  0.8331319E+03
Ar  824  0.7697992E+02  0.4933533E+02  0.7206103E+01  0.1210755E+04
Ar  825  0.4706433E+02  0.4088736E+02  0.1995554E+02  0.1296419E+03
Ar  826  0.5364008E+02  0.4662882E+02  0.2240740E+02  0.1040917E+03
Ar  827  0.5056716E+02  0.4327735E+02  0.2301370E+02  0.1944049E+03
Ar  828  0.4742096E+02  0.4443100E+02  0.2156655E+02  0.5647062E+02
Ar  829  0.5253982E+02  0.4448344E+02  0.2641784E+02  0.1564156E+03
Ar  830  0.4945056E+02  0.4667425E+02  0.2446905E+02  0.2577575E+03
Ar  831  0.5263134E+02  0.4951881E+02  0.2667316E+02  0.4895583E+03
Ar  832  0.4913658E+02  0.4664902E+02  0.2812348E+02  0.3153703E+03
Ar  833  0.4387455E+02  0.2732444E+02  0.2732444E+02  0.1766291E+03
Ar  834  0.4830044E+02  0.4510046E+02  0.3659995E+02  0.1168758E+03
Ar  835  0.4830044E+02  0.3659995E+02  0.4510046E+02  0.1168758E+03
Ar  836  0.7445302E+02  0.4608367E+02  0.4608367E+02  0.2804882E+04
Ar  837  0.5164064E+02  0.2973525E+02  0.5164064E+02  0.3102501E+03
Ar  838  0.6500636E+02  0.2075685E+02  0.5704352E+02  0.3870676E+03
Ar  839  0.6110882E+02  0.1864591E+02  0.6110882E+02  0.7941480E+03
Ar  840  0.5704352E+02  0.2075685E+02  0.6500636E+02  0.3870676E+03
Ar  841  0.2677169E+02  0.2677169E+02  0.6824168E+02  0.1910011E+03
Ar  842  0.4504878E+02  0.4504878E+02  0.5198813E+01  0.1973596E+02
Ar  843  0.6134422E+02  0.2677169E+02  0.2347590E+02  0.1910011E+03
Ar  844  0.2677169E+02  0.6134422E+02  0.2347590E+02  0.1910011E+03
Ar  845  0.6367665E+02  0.6367665E+02  0.1399907E+02  0.7344852E+03
Ar  846  0.5936927E+02  0.5936927E+02  0.7873555E+02  0.2048057E+04
Ar  847  0.5055459E+02  0.4691387E+02  0.2063750E+02  0.2818357E+03
Ar  848  0.4691387E+02  0.5055459E+02  0.2063750E+02  0.2818357E+03
Ar  849  0.5283016E+02  0.5283016E+02  0.1844139E+02  0.3080867E+03
Ar  850  0.5848158E+02  0.5848158E+02  0.3238667E+01  0.6979072E+03
Ar  851  0.6318698E+02  0.4568477E+02  0.1259940E+02  0.1784347E+04
Ar  852  0.4568477E+02  0.6318698E+02  0.1259940E+02  0.1784347E+04
Ar  853  0.5058062E+02  0.5058062E+02  0.2196828E+02  0.1768098E+03
Ar  854  0.6150235E+02  0.6150235E+02  0.2643669E+02  0.5232392E+03
Ar  855  0.6271217E+02  0.4784080E+02  0.4161771E+02  0.5615984E+03
Ar  856  0.4784080E+02  0.6271217E+02  0.4161771E+02  0.5615984E+03
Ar  857  0.5164064E+02  0.5164064E+02  0.2973525E+02  0.3102501E+03
Ar  858  0.6110882E+02  0.6110882E+02  0.1864591E+02  0.7941480E+03
Ar  859  0.6500636E+02  0.5704352E+02  0.2075685E+02  0.3870676E+03
Ar  860  0.5704352E+02  0.6500636E+02  0.2075685E+02  0.3870676E+03
Ar  861  0.5903302E+02  0.5903302E+02  0.5903302E+02  0.2238740E+04
Ar  862  0.5894011E+02  0.5894011E+02  0.5021879E+02  0.9773627E+03
Ar  863  0.5894011E+02  0.5021879E+02  0.5894011E+02  0.9773627E+03
Ar  864  0.5021879E+02  0.5894011E+02  0.5894011E+02  0.9773627E+03
