         864
Lattice="  0.9994748E+02  0.0000000E+00  0.0000000E+00  0.0000000E+00  0.9994748E+02  0.0000000E+00  0.0000000E+00  0.0000000E+00  0.9994748E+02" Properties=species:S:1:id:I:1:pos:R:3:tempK:R:1
Ar    1  0.5861071E+00  0.5861071E+00  0.5861071E+00  0.2603144E+02
Ar    2  0.3026786E+01  0.3026786E+01  0.3795355E+00  0.8442361E+02
Ar    3  0.3026786E+01  0.3795355E+00  0.3026786E+01  0.8442361E+02
Ar    4  0.3795355E+00  0.3026786E+01  0.3026786E+01  0.8442361E+02
Ar    5  0.3949925E+00  0.3949925E+00  0.5682452E+01  0.6378614E+02
Ar    6  0.3037500E+01  0.3037500E+01  0.5643033E+01  0.5604214E+02
Ar    7  0.3105849E+01  0.1840835E+00  0.8245232E+01  0.1720304E+02
Ar    8  0.1840835E+00  0.3105849E+01  0.8245232E+01  0.1720304E+02
Ar    9  0.1035576E+00  0.1035576E+00  0.1063599E+02  0.3354661E+02
Ar   10  0.2925457E+01  0.2925457E+01  0.1069046E+02  0.4151368E+02
Ar   11  0.2879129E+01  0.1591644E+00  0.1327403E+02  0.1785194E+02
Ar   12  0.1591644E+00  0.2879129E+01  0.1327403E+02  0.1785194E+02
Ar   13  0.2302223E+00  0.2302223E+00  0.1583821E+02  0.4685991E+01
Ar   14  0.2890613E+01  0.2890613E+01  0.1571691E+02  0.6432157E+01
Ar   15  0.2814280E+01  0.2648913E+00  0.1845650E+02  0.5296607E+02
Ar   16  0.2648913E+00  0.2814280E+01  0.1845650E+02  0.5296607E+02
Ar   17  0.9018955E-01  0.9018955E-01  0.2116860E+02  0.1764887E+02
Ar   18  0.2919930E+01  0.2919930E+01  0.2096001E+02  0.5240329E+02
Ar   19  0.2947166E+01  0.1206213E+00  0.2363209E+02  0.7179167E+02
Ar   20  0.1206213E+00  0.2947166E+01  0.2363209E+02  0.7179167E+02
Ar   21  0.3012760E+00  0.3012760E+00  0.2620790E+02  0.4550097E+02
Ar   22  0.3006417E+01  0.3006417E+01  0.2608429E+02  0.1438927E+03
Ar   23  0.2882809E+01  0.3012792E+00  0.2878943E+02  0.4550237E+02
Ar   24  0.3012792E+00  0.2882809E+01  0.2878943E+02  0.4550237E+02
Ar   25  0.3949925E+00  0.5682452E+01  0.3949925E+00  0.6378614E+02
Ar   26  0.3105849E+01  0.8245232E+01  0.1840835E+00  0.1720304E+02
Ar   27  0.3037500E+01  0.5643033E+01  0.3037500E+01  0.5604214E+02
Ar   28  0.1840835E+00  0.8245232E+01  0.3105849E+01  0.1720304E+02
Ar   29  0.2887175E+00  0.5504587E+01  0.5504587E+01  0.5975105E+02
Ar   30  0.2929474E+01  0.8152390E+01  0.5614377E+01  0.8085965E+02
Ar   31  0.2929474E+01  0.5614377E+01  0.8152390E+01  0.8085965E+02
Ar   32  0.1192405E+00  0.8265730E+01  0.8265730E+01  0.3351312E+02
Ar   33  0.4314111E-01  0.5618818E+01  0.1084735E+02  0.1911454E+02
Ar   34  0.2797992E+01  0.8247870E+01  0.1076139E+02  0.8348153E+01
Ar   35  0.2785551E+01  0.5571815E+01  0.1324872E+02  0.1488780E+02
Ar   36 -0.7737122E-01  0.8180168E+01  0.1337396E+02  0.1511332E+02
Ar   37 -0.8305076E-01  0.5552283E+01  0.1591487E+02  0.5797878E+01
Ar   38  0.2658574E+01  0.8178678E+01  0.1581667E+02  0.5488573E+02
Ar   39  0.2815417E+01  0.5552065E+01  0.1838664E+02  0.1127834E+02
Ar   40 -0.1752896E+00  0.8153762E+01  0.1837025E+02  0.1806647E+02
Ar   41  0.1422609E+00  0.5470893E+01  0.2097023E+02  0.1714142E+02
Ar   42  0.2822175E+01  0.8172719E+01  0.2091799E+02  0.5853242E+02
Ar   43  0.2927609E+01  0.5630986E+01  0.2345972E+02  0.2301296E+02
Ar   44  0.1422574E+00  0.8120490E+01  0.2361982E+02  0.1714156E+02
Ar   45  0.1206239E+00  0.5458624E+01  0.2614354E+02  0.7179078E+02
Ar   46  0.2919938E+01  0.8130704E+01  0.2617078E+02  0.5239969E+02
Ar   47  0.2947167E+01  0.5458620E+01  0.2897008E+02  0.7179038E+02
Ar   48  0.9018729E-01  0.7922114E+01  0.2900053E+02  0.1764829E+02
Ar   49  0.1035576E+00  0.1063599E+02  0.1035576E+00  0.3354661E+02
Ar   50  0.2879129E+01  0.1327403E+02  0.1591644E+00  0.1785194E+02
Ar   51  0.2925457E+01  0.1069046E+02  0.2925457E+01  0.4151368E+02
Ar   52  0.1591644E+00  0.1327403E+02  0.2879129E+01  0.1785194E+02
Ar   53  0.4314111E-01  0.1084735E+02  0.5618818E+01  0.1911454E+02
Ar   54  0.2785551E+01  0.1324872E+02  0.5571815E+01  0.1488780E+02
Ar   55  0.2797992E+01  0.1076139E+02  0.8247870E+01  0.8348153E+01
Ar   56 -0.7737122E-01  0.1337396E+02  0.8180168E+01  0.1511332E+02
Ar   57  0.3853012E-01  0.1070348E+02  0.1070348E+02  0.5759375E+02
Ar   58  0.2814250E+01  0.1327257E+02  0.1074949E+02  0.3523423E+02
Ar   59  0.2814250E+01  0.1074949E+02  0.1327257E+02  0.3523423E+02
Ar   60 -0.1740408E+00  0.1331079E+02  0.1331079E+02  0.8473339E+00
Ar   61 -0.1282940E+00  0.1069518E+02  0.1578618E+02  0.2588869E+02
Ar   62  0.2768671E+01  0.1325064E+02  0.1584007E+02  0.2628404E+02
Ar   63  0.2659204E+01  0.1061109E+02  0.1847962E+02  0.1266990E+02
Ar   64 -0.1282985E+00  0.1330452E+02  0.1839552E+02  0.2588805E+02
Ar   65 -0.1752949E+00  0.1072045E+02  0.2093694E+02  0.1806516E+02
Ar   66  0.2658569E+01  0.1327404E+02  0.2091204E+02  0.5488768E+02
Ar   67  0.2815420E+01  0.1070407E+02  0.2353865E+02  0.1127797E+02
Ar   68 -0.8303902E-01  0.1317583E+02  0.2353842E+02  0.5798289E+01
Ar   69  0.2648964E+00  0.1063421E+02  0.2627643E+02  0.5296705E+02
Ar   70  0.2890616E+01  0.1337380E+02  0.2620010E+02  0.6431747E+01
Ar   71  0.2814280E+01  0.1063421E+02  0.2882582E+02  0.5296667E+02
Ar   72  0.2302202E+00  0.1325249E+02  0.2886049E+02  0.4686223E+01
Ar   73  0.2302223E+00  0.1583821E+02  0.2302223E+00  0.4685991E+01
Ar   74  0.2814280E+01  0.1845650E+02  0.2648913E+00  0.5296607E+02
Ar   75  0.2890613E+01  0.1571691E+02  0.2890613E+01  0.6432157E+01
Ar   76  0.2648913E+00  0.1845650E+02  0.2814280E+01  0.5296607E+02
Ar   77 -0.8305076E-01  0.1591487E+02  0.5552283E+01  0.5797878E+01
Ar   78  0.2815417E+01  0.1838664E+02  0.5552065E+01  0.1127834E+02
Ar   79  0.2658574E+01  0.1581667E+02  0.8178678E+01  0.5488573E+02
Ar   80 -0.1752896E+00  0.1837025E+02  0.8153762E+01  0.1806647E+02
Ar   81 -0.1282940E+00  0.1578618E+02  0.1069518E+02  0.2588869E+02
Ar   82  0.2659204E+01  0.1847962E+02  0.1061109E+02  0.1266990E+02
Ar   83  0.2768671E+01  0.1584007E+02  0.1325064E+02  0.2628404E+02
Ar   84 -0.1282985E+00  0.1839552E+02  0.1330452E+02  0.2588805E+02
Ar   85 -0.1740286E+00  0.1577991E+02  0.1577991E+02  0.8470878E+00
Ar   86  0.2814247E+01  0.1834122E+02  0.1581814E+02  0.3523535E+02
Ar   87  0.2814247E+01  0.1581814E+02  0.1834122E+02  0.3523535E+02
Ar   88  0.3852308E-01  0.1838723E+02  0.1838723E+02  0.5759306E+02
Ar   89 -0.7737400E-01  0.1571674E+02  0.2091054E+02  0.1511309E+02
Ar   90  0.2797993E+01  0.1832932E+02  0.2084284E+02  0.8348928E+01
Ar   91  0.2785551E+01  0.1584199E+02  0.2351889E+02  0.1488775E+02
Ar   92  0.4314180E-01  0.1824336E+02  0.2347189E+02  0.1911453E+02
Ar   93  0.1591632E+00  0.1581667E+02  0.2621158E+02  0.1785126E+02
Ar   94  0.2925453E+01  0.1840025E+02  0.2616526E+02  0.4151101E+02
Ar   95  0.2879128E+01  0.1581667E+02  0.2893155E+02  0.1785105E+02
Ar   96  0.1035700E+00  0.1845472E+02  0.2898715E+02  0.3354596E+02
Ar   97  0.9018955E-01  0.2116860E+02  0.9018955E-01  0.1764887E+02
Ar   98  0.2947166E+01  0.2363209E+02  0.1206213E+00  0.7179167E+02
Ar   99  0.2919930E+01  0.2096001E+02  0.2919930E+01  0.5240329E+02
Ar  100  0.1206213E+00  0.2363209E+02  0.2947166E+01  0.7179167E+02
Ar  101  0.1422609E+00  0.2097023E+02  0.5470893E+01  0.1714142E+02
Ar  102  0.2927609E+01  0.2345972E+02  0.5630986E+01  0.2301296E+02
Ar  103  0.2822175E+01  0.2091799E+02  0.8172719E+01  0.5853242E+02
Ar  104  0.1422574E+00  0.2361982E+02  0.8120490E+01  0.1714156E+02
Ar  105 -0.1752949E+00  0.2093694E+02  0.1072045E+02  0.1806516E+02
Ar  106  0.2815420E+01  0.2353865E+02  0.1070407E+02  0.1127797E+02
Ar  107  0.2658569E+01  0.2091204E+02  0.1327404E+02  0.5488768E+02
Ar  108 -0.8303902E-01  0.2353842E+02  0.1317583E+02  0.5798289E+01
Ar  109 -0.7737400E-01  0.2091054E+02  0.1571674E+02  0.1511309E+02
Ar  110  0.2785551E+01  0.2351889E+02  0.1584199E+02  0.1488775E+02
Ar  111  0.2797993E+01  0.2084284E+02  0.1832932E+02  0.8348928E+01
Ar  112  0.4314180E-01  0.2347189E+02  0.1824336E+02  0.1911453E+02
Ar  113  0.1192558E+00  0.2082497E+02  0.2082497E+02  0.3350877E+02
Ar  114  0.2929472E+01  0.2347633E+02  0.2093832E+02  0.8086073E+02
Ar  115  0.2929472E+01  0.2093832E+02  0.2347633E+02  0.8086073E+02
Ar  116  0.2887185E+00  0.2358612E+02  0.2358612E+02  0.5974819E+02
Ar  117  0.1840771E+00  0.2084548E+02  0.2598486E+02  0.1720453E+02
Ar  118  0.3037497E+01  0.2344767E+02  0.2605321E+02  0.5604353E+02
Ar  119  0.3105852E+01  0.2084548E+02  0.2890663E+02  0.1720341E+02
Ar  120  0.3949900E+00  0.2340826E+02  0.2869572E+02  0.6378591E+02
Ar  121  0.3012760E+00  0.2620790E+02  0.3012760E+00  0.4550097E+02
Ar  122  0.2882809E+01  0.2878943E+02  0.3012792E+00  0.4550237E+02
Ar  123  0.3006417E+01  0.2608429E+02  0.3006417E+01  0.1438927E+03
Ar  124  0.3012792E+00  0.2878943E+02  0.2882809E+01  0.4550237E+02
Ar  125  0.1206239E+00  0.2614354E+02  0.5458624E+01  0.7179078E+02
Ar  126  0.2947167E+01  0.2897008E+02  0.5458620E+01  0.7179038E+02
Ar  127  0.2919938E+01  0.2617078E+02  0.8130704E+01  0.5239969E+02
Ar  128  0.9018729E-01  0.2900053E+02  0.7922114E+01  0.1764829E+02
Ar  129  0.2648964E+00  0.2627643E+02  0.1063421E+02  0.5296705E+02
Ar  130  0.2814280E+01  0.2882582E+02  0.1063421E+02  0.5296667E+02
Ar  131  0.2890616E+01  0.2620010E+02  0.1337380E+02  0.6431747E+01
Ar  132  0.2302202E+00  0.2886049E+02  0.1325249E+02  0.4686223E+01
Ar  133  0.1591632E+00  0.2621158E+02  0.1581667E+02  0.1785126E+02
Ar  134  0.2879128E+01  0.2893155E+02  0.1581667E+02  0.1785105E+02
Ar  135  0.2925453E+01  0.2616526E+02  0.1840025E+02  0.4151101E+02
Ar  136  0.1035700E+00  0.2898715E+02  0.1845472E+02  0.3354596E+02
Ar  137  0.1840771E+00  0.2598486E+02  0.2084548E+02  0.1720453E+02
Ar  138  0.3105852E+01  0.2890663E+02  0.2084548E+02  0.1720341E+02
Ar  139  0.3037497E+01  0.2605321E+02  0.2344767E+02  0.5604353E+02
Ar  140  0.3949900E+00  0.2869572E+02  0.2340826E+02  0.6378591E+02
Ar  141  0.3795346E+00  0.2606393E+02  0.2606393E+02  0.8442669E+02
Ar  142  0.3026783E+01  0.2871117E+02  0.2606392E+02  0.8442172E+02
Ar  143  0.3026783E+01  0.2606392E+02  0.2871117E+02  0.8442172E+02
Ar  144  0.5861090E+00  0.2850460E+02  0.2850460E+02  0.2603591E+02
Ar  145  0.5682452E+01  0.3949925E+00  0.3949925E+00  0.6378614E+02
Ar  146  0.8245232E+01  0.3105849E+01  0.1840835E+00  0.1720304E+02
Ar  147  0.8245232E+01  0.1840835E+00  0.3105849E+01  0.1720304E+02
Ar  148  0.5643033E+01  0.3037500E+01  0.3037500E+01  0.5604214E+02
Ar  149  0.5504587E+01  0.2887175E+00  0.5504587E+01  0.5975105E+02
Ar  150  0.8152390E+01  0.2929474E+01  0.5614377E+01  0.8085965E+02
Ar  151  0.8265730E+01  0.1192405E+00  0.8265730E+01  0.3351312E+02
Ar  152  0.5614377E+01  0.2929474E+01  0.8152390E+01  0.8085965E+02
Ar  153  0.5618818E+01  0.4314111E-01  0.1084735E+02  0.1911454E+02
Ar  154  0.8247870E+01  0.2797992E+01  0.1076139E+02  0.8348153E+01
Ar  155  0.8180168E+01 -0.7737122E-01  0.1337396E+02  0.1511332E+02
Ar  156  0.5571815E+01  0.2785551E+01  0.1324872E+02  0.1488780E+02
Ar  157  0.5552283E+01 -0.8305076E-01  0.1591487E+02  0.5797878E+01
Ar  158  0.8178678E+01  0.2658574E+01  0.1581667E+02  0.5488573E+02
Ar  159  0.8153762E+01 -0.1752896E+00  0.1837025E+02  0.1806647E+02
Ar  160  0.5552065E+01  0.2815417E+01  0.1838664E+02  0.1127834E+02
Ar  161  0.5470893E+01  0.1422609E+00  0.2097023E+02  0.1714142E+02
Ar  162  0.8172719E+01  0.2822175E+01  0.2091799E+02  0.5853242E+02
Ar  163  0.8120490E+01  0.1422574E+00  0.2361982E+02  0.1714156E+02
Ar  164  0.5630986E+01  0.2927609E+01  0.2345972E+02  0.2301296E+02
Ar  165  0.5458624E+01  0.1206239E+00  0.2614354E+02  0.7179078E+02
Ar  166  0.8130704E+01  0.2919938E+01  0.2617078E+02  0.5239969E+02
Ar  167  0.7922114E+01  0.9018729E-01  0.2900053E+02  0.1764829E+02
Ar  168  0.5458620E+01  0.2947167E+01  0.2897008E+02  0.7179038E+02
Ar  169  0.5504587E+01  0.5504587E+01  0.2887175E+00  0.5975105E+02
Ar  170  0.8265730E+01  0.8265730E+01  0.1192405E+00  0.3351312E+02
Ar  171  0.8152390E+01  0.5614377E+01  0.2929474E+01  0.8085965E+02
Ar  172  0.5614377E+01  0.8152390E+01  0.2929474E+01  0.8085965E+02
Ar  173  0.5662162E+01  0.5662162E+01  0.5662162E+01  0.3739916E+02
Ar  174  0.8190643E+01  0.8190643E+01  0.5578507E+01  0.5084941E+01
Ar  175  0.8190643E+01  0.5578507E+01  0.8190643E+01  0.5084941E+01
Ar  176  0.5578507E+01  0.8190643E+01  0.8190643E+01  0.5084941E+01
Ar  177  0.5563872E+01  0.5563872E+01  0.1065095E+02  0.9419345E+01
Ar  178  0.8150784E+01  0.8150784E+01  0.1072077E+02  0.3180856E+01
Ar  179  0.8051020E+01  0.5509829E+01  0.1332731E+02  0.2608934E+02
Ar  180  0.5509829E+01  0.8051020E+01  0.1332731E+02  0.2608934E+02
Ar  181  0.5462168E+01  0.5462168E+01  0.1585914E+02  0.4449075E+02
Ar  182  0.8117094E+01  0.8117094E+01  0.1583170E+02  0.4875293E+01
Ar  183  0.8168117E+01  0.5459403E+01  0.1832443E+02  0.1176322E+02
Ar  184  0.5459403E+01  0.8168117E+01  0.1832443E+02  0.1176322E+02
Ar  185  0.5641725E+01  0.5641725E+01  0.2089082E+02  0.7576207E+02
Ar  186  0.8202500E+01  0.8202500E+01  0.2088821E+02  0.1578024E+02
Ar  187  0.8199888E+01  0.5641724E+01  0.2344899E+02  0.7575886E+02
Ar  188  0.5641724E+01  0.8199888E+01  0.2344899E+02  0.7575886E+02
Ar  189  0.5630988E+01  0.5630988E+01  0.2616310E+02  0.2301168E+02
Ar  190  0.8172721E+01  0.8172721E+01  0.2626854E+02  0.5853258E+02
Ar  191  0.8120486E+01  0.5470895E+01  0.2894845E+02  0.1714217E+02
Ar  192  0.5470895E+01  0.8120486E+01  0.2894845E+02  0.1714217E+02
Ar  193  0.5618818E+01  0.1084735E+02  0.4314111E-01  0.1911454E+02
Ar  194  0.8180168E+01  0.1337396E+02 -0.7737122E-01  0.1511332E+02
Ar  195  0.8247870E+01  0.1076139E+02  0.2797992E+01  0.8348153E+01
Ar  196  0.5571815E+01  0.1324872E+02  0.2785551E+01  0.1488780E+02
Ar  197  0.5563872E+01  0.1065095E+02  0.5563872E+01  0.9419345E+01
Ar  198  0.8051020E+01  0.1332731E+02  0.5509829E+01  0.2608934E+02
Ar  199  0.8150784E+01  0.1072077E+02  0.8150784E+01  0.3180856E+01
Ar  200  0.5509829E+01  0.1332731E+02  0.8051020E+01  0.2608934E+02
Ar  201  0.5464749E+01  0.1065180E+02  0.1065180E+02  0.1041598E+01
Ar  202  0.8051299E+01  0.1325900E+02  0.1070034E+02  0.1860435E+02
Ar  203  0.8051299E+01  0.1070034E+02  0.1325900E+02  0.1860435E+02
Ar  204  0.5446176E+01  0.1326541E+02  0.1326541E+02  0.5529907E+01
Ar  205  0.5431787E+01  0.1064916E+02  0.1586807E+02  0.1049362E+02
Ar  206  0.8014396E+01  0.1329201E+02  0.1579870E+02  0.4967040E+01
Ar  207  0.8126769E+01  0.1071668E+02  0.1837403E+02  0.1009061E+02
Ar  208  0.5431785E+01  0.1322264E+02  0.1844155E+02  0.1049365E+02
Ar  209  0.5459403E+01  0.1076628E+02  0.2092259E+02  0.1176226E+02
Ar  210  0.8117097E+01  0.1325901E+02  0.2097362E+02  0.4875026E+01
Ar  211  0.8168119E+01  0.1076628E+02  0.2363131E+02  0.1176271E+02
Ar  212  0.5462171E+01  0.1323157E+02  0.2362854E+02  0.4448947E+02
Ar  213  0.5552068E+01  0.1070407E+02  0.2627530E+02  0.1127965E+02
Ar  214  0.8178676E+01  0.1327404E+02  0.2643214E+02  0.5488764E+02
Ar  215  0.8153765E+01  0.1072045E+02  0.2926600E+02  0.1806553E+02
Ar  216  0.5552290E+01  0.1317584E+02  0.2917375E+02  0.5797734E+01
Ar  217  0.5552283E+01  0.1591487E+02 -0.8305076E-01  0.5797878E+01
Ar  218  0.8153762E+01  0.1837025E+02 -0.1752896E+00  0.1806647E+02
Ar  219  0.8178678E+01  0.1581667E+02  0.2658574E+01  0.5488573E+02
Ar  220  0.5552065E+01  0.1838664E+02  0.2815417E+01  0.1127834E+02
Ar  221  0.5462168E+01  0.1585914E+02  0.5462168E+01  0.4449075E+02
Ar  222  0.8168117E+01  0.1832443E+02  0.5459403E+01  0.1176322E+02
Ar  223  0.8117094E+01  0.1583170E+02  0.8117094E+01  0.4875293E+01
Ar  224  0.5459403E+01  0.1832443E+02  0.8168117E+01  0.1176322E+02
Ar  225  0.5431787E+01  0.1586807E+02  0.1064916E+02  0.1049362E+02
Ar  226  0.8126769E+01  0.1837403E+02  0.1071668E+02  0.1009061E+02
Ar  227  0.8014396E+01  0.1579870E+02  0.1329201E+02  0.4967040E+01
Ar  228  0.5431785E+01  0.1844155E+02  0.1322264E+02  0.1049365E+02
Ar  229  0.5446173E+01  0.1582530E+02  0.1582530E+02  0.5529658E+01
Ar  230  0.8051301E+01  0.1839037E+02  0.1583171E+02  0.1860428E+02
Ar  231  0.8051301E+01  0.1583171E+02  0.1839037E+02  0.1860428E+02
Ar  232  0.5464753E+01  0.1843890E+02  0.1843890E+02  0.1041700E+01
Ar  233  0.5509830E+01  0.1576340E+02  0.2103969E+02  0.2608938E+02
Ar  234  0.8150783E+01  0.1836994E+02  0.2093993E+02  0.3181742E+01
Ar  235  0.8051021E+01  0.1576340E+02  0.2358088E+02  0.2609170E+02
Ar  236  0.5563870E+01  0.1843976E+02  0.2352684E+02  0.9419770E+01
Ar  237  0.5571816E+01  0.1584200E+02  0.2630516E+02  0.1488667E+02
Ar  238  0.8247872E+01  0.1832932E+02  0.2629272E+02  0.8348742E+01
Ar  239  0.8180171E+01  0.1571675E+02  0.2916808E+02  0.1511418E+02
Ar  240  0.5618823E+01  0.1824336E+02  0.2904757E+02  0.1911534E+02
Ar  241  0.5470893E+01  0.2097023E+02  0.1422609E+00  0.1714142E+02
Ar  242  0.8120490E+01  0.2361982E+02  0.1422574E+00  0.1714156E+02
Ar  243  0.8172719E+01  0.2091799E+02  0.2822175E+01  0.5853242E+02
Ar  244  0.5630986E+01  0.2345972E+02  0.2927609E+01  0.2301296E+02
Ar  245  0.5641725E+01  0.2089082E+02  0.5641725E+01  0.7576207E+02
Ar  246  0.8199888E+01  0.2344899E+02  0.5641724E+01  0.7575886E+02
Ar  247  0.8202500E+01  0.2088821E+02  0.8202500E+01  0.1578024E+02
Ar  248  0.5641724E+01  0.2344899E+02  0.8199888E+01  0.7575886E+02
Ar  249  0.5459403E+01  0.2092259E+02  0.1076628E+02  0.1176226E+02
Ar  250  0.8168119E+01  0.2363131E+02  0.1076628E+02  0.1176271E+02
Ar  251  0.8117097E+01  0.2097362E+02  0.1325901E+02  0.4875026E+01
Ar  252  0.5462171E+01  0.2362854E+02  0.1323157E+02  0.4448947E+02
Ar  253  0.5509830E+01  0.2103969E+02  0.1576340E+02  0.2608938E+02
Ar  254  0.8051021E+01  0.2358088E+02  0.1576340E+02  0.2609170E+02
Ar  255  0.8150783E+01  0.2093993E+02  0.1836994E+02  0.3181742E+01
Ar  256  0.5563870E+01  0.2352684E+02  0.1843976E+02  0.9419770E+01
Ar  257  0.5578508E+01  0.2090006E+02  0.2090006E+02  0.5084690E+01
Ar  258  0.8190644E+01  0.2351220E+02  0.2090007E+02  0.5085330E+01
Ar  259  0.8190644E+01  0.2090007E+02  0.2351220E+02  0.5085330E+01
Ar  260  0.5662161E+01  0.2342855E+02  0.2342855E+02  0.3740067E+02
Ar  261  0.5614377E+01  0.2093832E+02  0.2616124E+02  0.8086021E+02
Ar  262  0.8152391E+01  0.2347633E+02  0.2616124E+02  0.8085844E+02
Ar  263  0.8265731E+01  0.2082498E+02  0.2897147E+02  0.3351209E+02
Ar  264  0.5504586E+01  0.2358613E+02  0.2880199E+02  0.5974892E+02
Ar  265  0.5458624E+01  0.2614354E+02  0.1206239E+00  0.7179078E+02
Ar  266  0.7922114E+01  0.2900053E+02  0.9018729E-01  0.1764829E+02
Ar  267  0.8130704E+01  0.2617078E+02  0.2919938E+01  0.5239969E+02
Ar  268  0.5458620E+01  0.2897008E+02  0.2947167E+01  0.7179038E+02
Ar  269  0.5630988E+01  0.2616310E+02  0.5630988E+01  0.2301168E+02
Ar  270  0.8120486E+01  0.2894845E+02  0.5470895E+01  0.1714217E+02
Ar  271  0.8172721E+01  0.2626854E+02  0.8172721E+01  0.5853258E+02
Ar  272  0.5470895E+01  0.2894845E+02  0.8120486E+01  0.1714217E+02
Ar  273  0.5552068E+01  0.2627530E+02  0.1070407E+02  0.1127965E+02
Ar  274  0.8153765E+01  0.2926600E+02  0.1072045E+02  0.1806553E+02
Ar  275  0.8178676E+01  0.2643214E+02  0.1327404E+02  0.5488764E+02
Ar  276  0.5552290E+01  0.2917375E+02  0.1317584E+02  0.5797734E+01
Ar  277  0.5571816E+01  0.2630516E+02  0.1584200E+02  0.1488667E+02
Ar  278  0.8180171E+01  0.2916808E+02  0.1571675E+02  0.1511418E+02
Ar  279  0.8247872E+01  0.2629272E+02  0.1832932E+02  0.8348742E+01
Ar  280  0.5618823E+01  0.2904757E+02  0.1824336E+02  0.1911534E+02
Ar  281  0.5614377E+01  0.2616124E+02  0.2093832E+02  0.8086021E+02
Ar  282  0.8265731E+01  0.2897147E+02  0.2082498E+02  0.3351209E+02
Ar  283  0.8152391E+01  0.2616124E+02  0.2347633E+02  0.8085844E+02
Ar  284  0.5504586E+01  0.2880199E+02  0.2358613E+02  0.5974892E+02
Ar  285  0.5643033E+01  0.2605321E+02  0.2605321E+02  0.5604454E+02
Ar  286  0.8245227E+01  0.2890663E+02  0.2598486E+02  0.1720403E+02
Ar  287  0.8245227E+01  0.2598486E+02  0.2890663E+02  0.1720403E+02
Ar  288  0.5682446E+01  0.2869572E+02  0.2869572E+02  0.6378610E+02
Ar  289  0.1063599E+02  0.1035576E+00  0.1035576E+00  0.3354661E+02
Ar  290  0.1327403E+02  0.2879129E+01  0.1591644E+00  0.1785194E+02
Ar  291  0.1327403E+02  0.1591644E+00  0.2879129E+01  0.1785194E+02
Ar  292  0.1069046E+02  0.2925457E+01  0.2925457E+01  0.4151368E+02
Ar  293  0.1084735E+02  0.4314111E-01  0.5618818E+01  0.1911454E+02
Ar  294  0.1324872E+02  0.2785551E+01  0.5571815E+01  0.1488780E+02
Ar  295  0.1337396E+02 -0.7737122E-01  0.8180168E+01  0.1511332E+02
Ar  296  0.1076139E+02  0.2797992E+01  0.8247870E+01  0.8348153E+01
Ar  297  0.1070348E+02  0.3853012E-01  0.1070348E+02  0.5759375E+02
Ar  298  0.1327257E+02  0.2814250E+01  0.1074949E+02  0.3523423E+02
Ar  299  0.1331079E+02 -0.1740408E+00  0.1331079E+02  0.8473339E+00
Ar  300  0.1074949E+02  0.2814250E+01  0.1327257E+02  0.3523423E+02
Ar  301  0.1069518E+02 -0.1282940E+00  0.1578618E+02  0.2588869E+02
Ar  302  0.1325064E+02  0.2768671E+01  0.1584007E+02  0.2628404E+02
Ar  303  0.1330452E+02 -0.1282985E+00  0.1839552E+02  0.2588805E+02
Ar  304  0.1061109E+02  0.2659204E+01  0.1847962E+02  0.1266990E+02
Ar  305  0.1072045E+02 -0.1752949E+00  0.2093694E+02  0.1806516E+02
Ar  306  0.1327404E+02  0.2658569E+01  0.2091204E+02  0.5488768E+02
Ar  307  0.1317583E+02 -0.8303902E-01  0.2353842E+02  0.5798289E+01
Ar  308  0.1070407E+02  0.2815420E+01  0.2353865E+02  0.1127797E+02
Ar  309  0.1063421E+02  0.2648964E+00  0.2627643E+02  0.5296705E+02
Ar  310  0.1337380E+02  0.2890616E+01  0.2620010E+02  0.6431747E+01
Ar  311  0.1325249E+02  0.2302202E+00  0.2886049E+02  0.4686223E+01
Ar  312  0.1063421E+02  0.2814280E+01  0.2882582E+02  0.5296667E+02
Ar  313  0.1084735E+02  0.5618818E+01  0.4314111E-01  0.1911454E+02
Ar  314  0.1337396E+02  0.8180168E+01 -0.7737122E-01  0.1511332E+02
Ar  315  0.1324872E+02  0.5571815E+01  0.2785551E+01  0.1488780E+02
Ar  316  0.1076139E+02  0.8247870E+01  0.2797992E+01  0.8348153E+01
Ar  317  0.1065095E+02  0.5563872E+01  0.5563872E+01  0.9419345E+01
Ar  318  0.1332731E+02  0.8051020E+01  0.5509829E+01  0.2608934E+02
Ar  319  0.1332731E+02  0.5509829E+01  0.8051020E+01  0.2608934E+02
Ar  320  0.1072077E+02  0.8150784E+01  0.8150784E+01  0.3180856E+01
Ar  321  0.1065180E+02  0.5464749E+01  0.1065180E+02  0.1041598E+01
Ar  322  0.1325900E+02  0.8051299E+01  0.1070034E+02  0.1860435E+02
Ar  323  0.1326541E+02  0.5446176E+01  0.1326541E+02  0.5529907E+01
Ar  324  0.1070034E+02  0.8051299E+01  0.1325900E+02  0.1860435E+02
Ar  325  0.1064916E+02  0.5431787E+01  0.1586807E+02  0.1049362E+02
Ar  326  0.1329201E+02  0.8014396E+01  0.1579870E+02  0.4967040E+01
Ar  327  0.1322264E+02  0.5431785E+01  0.1844155E+02  0.1049365E+02
Ar  328  0.1071668E+02  0.8126769E+01  0.1837403E+02  0.1009061E+02
Ar  329  0.1076628E+02  0.5459403E+01  0.2092259E+02  0.1176226E+02
Ar  330  0.1325901E+02  0.8117097E+01  0.2097362E+02  0.4875026E+01
Ar  331  0.1323157E+02  0.5462171E+01  0.2362854E+02  0.4448947E+02
Ar  332  0.1076628E+02  0.8168119E+01  0.2363131E+02  0.1176271E+02
Ar  333  0.1070407E+02  0.5552068E+01  0.2627530E+02  0.1127965E+02
Ar  334  0.1327404E+02  0.8178676E+01  0.2643214E+02  0.5488764E+02
Ar  335  0.1317584E+02  0.5552290E+01  0.2917375E+02  0.5797734E+01
Ar  336  0.1072045E+02  0.8153765E+01  0.2926600E+02  0.1806553E+02
Ar  337  0.1070348E+02  0.1070348E+02  0.3853012E-01  0.5759375E+02
Ar  338  0.1331079E+02  0.1331079E+02 -0.1740408E+00  0.8473339E+00
Ar  339  0.1327257E+02  0.1074949E+02  0.2814250E+01  0.3523423E+02
Ar  340  0.1074949E+02  0.1327257E+02  0.2814250E+01  0.3523423E+02
Ar  341  0.1065180E+02  0.1065180E+02  0.5464749E+01  0.1041598E+01
Ar  342  0.1326541E+02  0.1326541E+02  0.5446176E+01  0.5529907E+01
Ar  343  0.1325900E+02  0.1070034E+02  0.8051299E+01  0.1860435E+02
Ar  344  0.1070034E+02  0.1325900E+02  0.8051299E+01  0.1860435E+02
Ar  345  0.1074192E+02  0.1074192E+02  0.1074192E+02  0.3830086E+00
Ar  346  0.1328544E+02  0.1328544E+02  0.1071760E+02  0.1546149E+02
Ar  347  0.1328544E+02  0.1071760E+02  0.1328544E+02  0.1546149E+02
Ar  348  0.1071760E+02  0.1328544E+02  0.1328544E+02  0.1546149E+02
Ar  349  0.1067213E+02  0.1067213E+02  0.1578433E+02  0.4511414E+01
Ar  350  0.1324205E+02  0.1324205E+02  0.1584867E+02  0.7155432E+00
Ar  351  0.1330637E+02  0.1067213E+02  0.1841858E+02  0.4510553E+01
Ar  352  0.1067213E+02  0.1330637E+02  0.1841858E+02  0.4510553E+01
Ar  353  0.1071668E+02  0.1071668E+02  0.2096394E+02  0.1009017E+02
Ar  354  0.1329202E+02  0.1329202E+02  0.2107631E+02  0.4967478E+01
Ar  355  0.1322264E+02  0.1064916E+02  0.2365893E+02  0.1049370E+02
Ar  356  0.1064916E+02  0.1322264E+02  0.2365893E+02  0.1049370E+02
Ar  357  0.1061109E+02  0.1061109E+02  0.2643151E+02  0.1267152E+02
Ar  358  0.1325064E+02  0.1325064E+02  0.2632205E+02  0.2628323E+02
Ar  359  0.1330453E+02  0.1069518E+02  0.2921901E+02  0.2588873E+02
Ar  360  0.1069518E+02  0.1330453E+02  0.2921901E+02  0.2588873E+02
Ar  361  0.1069518E+02  0.1578618E+02 -0.1282940E+00  0.2588869E+02
Ar  362  0.1330452E+02  0.1839552E+02 -0.1282985E+00  0.2588805E+02
Ar  363  0.1325064E+02  0.1584007E+02  0.2768671E+01  0.2628404E+02
Ar  364  0.1061109E+02  0.1847962E+02  0.2659204E+01  0.1266990E+02
Ar  365  0.1064916E+02  0.1586807E+02  0.5431787E+01  0.1049362E+02
Ar  366  0.1322264E+02  0.1844155E+02  0.5431785E+01  0.1049365E+02
Ar  367  0.1329201E+02  0.1579870E+02  0.8014396E+01  0.4967040E+01
Ar  368  0.1071668E+02  0.1837403E+02  0.8126769E+01  0.1009061E+02
Ar  369  0.1067213E+02  0.1578433E+02  0.1067213E+02  0.4511414E+01
Ar  370  0.1330637E+02  0.1841858E+02  0.1067213E+02  0.4510553E+01
Ar  371  0.1324205E+02  0.1584867E+02  0.1324205E+02  0.7155432E+00
Ar  372  0.1067213E+02  0.1841858E+02  0.1330637E+02  0.4510553E+01
Ar  373  0.1071760E+02  0.1580527E+02  0.1580527E+02  0.1546130E+02
Ar  374  0.1328544E+02  0.1837311E+02  0.1580527E+02  0.1546309E+02
Ar  375  0.1328544E+02  0.1580527E+02  0.1837311E+02  0.1546309E+02
Ar  376  0.1074191E+02  0.1834879E+02  0.1834879E+02  0.3830398E+00
Ar  377  0.1070034E+02  0.1583171E+02  0.2103941E+02  0.1860513E+02
Ar  378  0.1325900E+02  0.1839037E+02  0.2103941E+02  0.1860363E+02
Ar  379  0.1326542E+02  0.1582530E+02  0.2364454E+02  0.5529834E+01
Ar  380  0.1065181E+02  0.1843891E+02  0.2362596E+02  0.1041342E+01
Ar  381  0.1074949E+02  0.1581814E+02  0.2627646E+02  0.3523379E+02
Ar  382  0.1327257E+02  0.1834122E+02  0.2627646E+02  0.3523420E+02
Ar  383  0.1331079E+02  0.1577991E+02  0.2926474E+02  0.8473537E+00
Ar  384  0.1070349E+02  0.1838723E+02  0.2905218E+02  0.5759439E+02
Ar  385  0.1072045E+02  0.2093694E+02 -0.1752949E+00  0.1806516E+02
Ar  386  0.1317583E+02  0.2353842E+02 -0.8303902E-01  0.5798289E+01
Ar  387  0.1327404E+02  0.2091204E+02  0.2658569E+01  0.5488768E+02
Ar  388  0.1070407E+02  0.2353865E+02  0.2815420E+01  0.1127797E+02
Ar  389  0.1076628E+02  0.2092259E+02  0.5459403E+01  0.1176226E+02
Ar  390  0.1323157E+02  0.2362854E+02  0.5462171E+01  0.4448947E+02
Ar  391  0.1325901E+02  0.2097362E+02  0.8117097E+01  0.4875026E+01
Ar  392  0.1076628E+02  0.2363131E+02  0.8168119E+01  0.1176271E+02
Ar  393  0.1071668E+02  0.2096394E+02  0.1071668E+02  0.1009017E+02
Ar  394  0.1322264E+02  0.2365893E+02  0.1064916E+02  0.1049370E+02
Ar  395  0.1329202E+02  0.2107631E+02  0.1329202E+02  0.4967478E+01
Ar  396  0.1064916E+02  0.2365893E+02  0.1322264E+02  0.1049370E+02
Ar  397  0.1070034E+02  0.2103941E+02  0.1583171E+02  0.1860513E+02
Ar  398  0.1326542E+02  0.2364454E+02  0.1582530E+02  0.5529834E+01
Ar  399  0.1325900E+02  0.2103941E+02  0.1839037E+02  0.1860363E+02
Ar  400  0.1065181E+02  0.2362596E+02  0.1843891E+02  0.1041342E+01
Ar  401  0.1072077E+02  0.2093993E+02  0.2093993E+02  0.3181341E+01
Ar  402  0.1332731E+02  0.2358088E+02  0.2103969E+02  0.2609175E+02
Ar  403  0.1332731E+02  0.2103969E+02  0.2358088E+02  0.2609175E+02
Ar  404  0.1065095E+02  0.2352684E+02  0.2352684E+02  0.9419636E+01
Ar  405  0.1076139E+02  0.2084284E+02  0.2629272E+02  0.8348740E+01
Ar  406  0.1324872E+02  0.2351890E+02  0.2630516E+02  0.1488776E+02
Ar  407  0.1337396E+02  0.2091054E+02  0.2916808E+02  0.1511360E+02
Ar  408  0.1084735E+02  0.2347189E+02  0.2904757E+02  0.1911555E+02
Ar  409  0.1063421E+02  0.2627643E+02  0.2648964E+00  0.5296705E+02
Ar  410  0.1325249E+02  0.2886049E+02  0.2302202E+00  0.4686223E+01
Ar  411  0.1337380E+02  0.2620010E+02  0.2890616E+01  0.6431747E+01
Ar  412  0.1063421E+02  0.2882582E+02  0.2814280E+01  0.5296667E+02
Ar  413  0.1070407E+02  0.2627530E+02  0.5552068E+01  0.1127965E+02
Ar  414  0.1317584E+02  0.2917375E+02  0.5552290E+01  0.5797734E+01
Ar  415  0.1327404E+02  0.2643214E+02  0.8178676E+01  0.5488764E+02
Ar  416  0.1072045E+02  0.2926600E+02  0.8153765E+01  0.1806553E+02
Ar  417  0.1061109E+02  0.2643151E+02  0.1061109E+02  0.1267152E+02
Ar  418  0.1330453E+02  0.2921901E+02  0.1069518E+02  0.2588873E+02
Ar  419  0.1325064E+02  0.2632205E+02  0.1325064E+02  0.2628323E+02
Ar  420  0.1069518E+02  0.2921901E+02  0.1330453E+02  0.2588873E+02
Ar  421  0.1074949E+02  0.2627646E+02  0.1581814E+02  0.3523379E+02
Ar  422  0.1331079E+02  0.2926474E+02  0.1577991E+02  0.8473537E+00
Ar  423  0.1327257E+02  0.2627646E+02  0.1834122E+02  0.3523420E+02
Ar  424  0.1070349E+02  0.2905218E+02  0.1838723E+02  0.5759439E+02
Ar  425  0.1076139E+02  0.2629272E+02  0.2084284E+02  0.8348740E+01
Ar  426  0.1337396E+02  0.2916808E+02  0.2091054E+02  0.1511360E+02
Ar  427  0.1324872E+02  0.2630516E+02  0.2351890E+02  0.1488776E+02
Ar  428  0.1084735E+02  0.2904757E+02  0.2347189E+02  0.1911555E+02
Ar  429  0.1069047E+02  0.2616525E+02  0.2616525E+02  0.4151075E+02
Ar  430  0.1327404E+02  0.2893155E+02  0.2621159E+02  0.1785142E+02
Ar  431  0.1327404E+02  0.2621159E+02  0.2893155E+02  0.1785142E+02
Ar  432  0.1063599E+02  0.2898714E+02  0.2898714E+02  0.3354572E+02
Ar  433  0.1583821E+02  0.2302223E+00  0.2302223E+00  0.4685991E+01
Ar  434  0.1845650E+02  0.2814280E+01  0.2648913E+00  0.5296607E+02
Ar  435  0.1845650E+02  0.2648913E+00  0.2814280E+01  0.5296607E+02
Ar  436  0.1571691E+02  0.2890613E+01  0.2890613E+01  0.6432157E+01
Ar  437  0.1591487E+02 -0.8305076E-01  0.5552283E+01  0.5797878E+01
Ar  438  0.1838664E+02  0.2815417E+01  0.5552065E+01  0.1127834E+02
Ar  439  0.1837025E+02 -0.1752896E+00  0.8153762E+01  0.1806647E+02
Ar  440  0.1581667E+02  0.2658574E+01  0.8178678E+01  0.5488573E+02
Ar  441  0.1578618E+02 -0.1282940E+00  0.1069518E+02  0.2588869E+02
Ar  442  0.1847962E+02  0.2659204E+01  0.1061109E+02  0.1266990E+02
Ar  443  0.1839552E+02 -0.1282985E+00  0.1330452E+02  0.2588805E+02
Ar  444  0.1584007E+02  0.2768671E+01  0.1325064E+02  0.2628404E+02
Ar  445  0.1577991E+02 -0.1740286E+00  0.1577991E+02  0.8470878E+00
Ar  446  0.1834122E+02  0.2814247E+01  0.1581814E+02  0.3523535E+02
Ar  447  0.1838723E+02  0.3852308E-01  0.1838723E+02  0.5759306E+02
Ar  448  0.1581814E+02  0.2814247E+01  0.1834122E+02  0.3523535E+02
Ar  449  0.1571674E+02 -0.7737400E-01  0.2091054E+02  0.1511309E+02
Ar  450  0.1832932E+02  0.2797993E+01  0.2084284E+02  0.8348928E+01
Ar  451  0.1824336E+02  0.4314180E-01  0.2347189E+02  0.1911453E+02
Ar  452  0.1584199E+02  0.2785551E+01  0.2351889E+02  0.1488775E+02
Ar  453  0.1581667E+02  0.1591632E+00  0.2621158E+02  0.1785126E+02
Ar  454  0.1840025E+02  0.2925453E+01  0.2616526E+02  0.4151101E+02
Ar  455  0.1845472E+02  0.1035700E+00  0.2898715E+02  0.3354596E+02
Ar  456  0.1581667E+02  0.2879128E+01  0.2893155E+02  0.1785105E+02
Ar  457  0.1591487E+02  0.5552283E+01 -0.8305076E-01  0.5797878E+01
Ar  458  0.1837025E+02  0.8153762E+01 -0.1752896E+00  0.1806647E+02
Ar  459  0.1838664E+02  0.5552065E+01  0.2815417E+01  0.1127834E+02
Ar  460  0.1581667E+02  0.8178678E+01  0.2658574E+01  0.5488573E+02
Ar  461  0.1585914E+02  0.5462168E+01  0.5462168E+01  0.4449075E+02
Ar  462  0.1832443E+02  0.8168117E+01  0.5459403E+01  0.1176322E+02
Ar  463  0.1832443E+02  0.5459403E+01  0.8168117E+01  0.1176322E+02
Ar  464  0.1583170E+02  0.8117094E+01  0.8117094E+01  0.4875293E+01
Ar  465  0.1586807E+02  0.5431787E+01  0.1064916E+02  0.1049362E+02
Ar  466  0.1837403E+02  0.8126769E+01  0.1071668E+02  0.1009061E+02
Ar  467  0.1844155E+02  0.5431785E+01  0.1322264E+02  0.1049365E+02
Ar  468  0.1579870E+02  0.8014396E+01  0.1329201E+02  0.4967040E+01
Ar  469  0.1582530E+02  0.5446173E+01  0.1582530E+02  0.5529658E+01
Ar  470  0.1839037E+02  0.8051301E+01  0.1583171E+02  0.1860428E+02
Ar  471  0.1843890E+02  0.5464753E+01  0.1843890E+02  0.1041700E+01
Ar  472  0.1583171E+02  0.8051301E+01  0.1839037E+02  0.1860428E+02
Ar  473  0.1576340E+02  0.5509830E+01  0.2103969E+02  0.2608938E+02
Ar  474  0.1836994E+02  0.8150783E+01  0.2093993E+02  0.3181742E+01
Ar  475  0.1843976E+02  0.5563870E+01  0.2352684E+02  0.9419770E+01
Ar  476  0.1576340E+02  0.8051021E+01  0.2358088E+02  0.2609170E+02
Ar  477  0.1584200E+02  0.5571816E+01  0.2630516E+02  0.1488667E+02
Ar  478  0.1832932E+02  0.8247872E+01  0.2629272E+02  0.8348742E+01
Ar  479  0.1824336E+02  0.5618823E+01  0.2904757E+02  0.1911534E+02
Ar  480  0.1571675E+02  0.8180171E+01  0.2916808E+02  0.1511418E+02
Ar  481  0.1578618E+02  0.1069518E+02 -0.1282940E+00  0.2588869E+02
Ar  482  0.1839552E+02  0.1330452E+02 -0.1282985E+00  0.2588805E+02
Ar  483  0.1847962E+02  0.1061109E+02  0.2659204E+01  0.1266990E+02
Ar  484  0.1584007E+02  0.1325064E+02  0.2768671E+01  0.2628404E+02
Ar  485  0.1586807E+02  0.1064916E+02  0.5431787E+01  0.1049362E+02
Ar  486  0.1844155E+02  0.1322264E+02  0.5431785E+01  0.1049365E+02
Ar  487  0.1837403E+02  0.1071668E+02  0.8126769E+01  0.1009061E+02
Ar  488  0.1579870E+02  0.1329201E+02  0.8014396E+01  0.4967040E+01
Ar  489  0.1578433E+02  0.1067213E+02  0.1067213E+02  0.4511414E+01
Ar  490  0.1841858E+02  0.1330637E+02  0.1067213E+02  0.4510553E+01
Ar  491  0.1841858E+02  0.1067213E+02  0.1330637E+02  0.4510553E+01
Ar  492  0.1584867E+02  0.1324205E+02  0.1324205E+02  0.7155432E+00
Ar  493  0.1580527E+02  0.1071760E+02  0.1580527E+02  0.1546130E+02
Ar  494  0.1837311E+02  0.1328544E+02  0.1580527E+02  0.1546309E+02
Ar  495  0.1834879E+02  0.1074191E+02  0.1834879E+02  0.3830398E+00
Ar  496  0.1580527E+02  0.1328544E+02  0.1837311E+02  0.1546309E+02
Ar  497  0.1583171E+02  0.1070034E+02  0.2103941E+02  0.1860513E+02
Ar  498  0.1839037E+02  0.1325900E+02  0.2103941E+02  0.1860363E+02
Ar  499  0.1843891E+02  0.1065181E+02  0.2362596E+02  0.1041342E+01
Ar  500  0.1582530E+02  0.1326542E+02  0.2364454E+02  0.5529834E+01
Ar  501  0.1581814E+02  0.1074949E+02  0.2627646E+02  0.3523379E+02
Ar  502  0.1834122E+02  0.1327257E+02  0.2627646E+02  0.3523420E+02
Ar  503  0.1838723E+02  0.1070349E+02  0.2905218E+02  0.5759439E+02
Ar  504  0.1577991E+02  0.1331079E+02  0.2926474E+02  0.8473537E+00
Ar  505  0.1577991E+02  0.1577991E+02 -0.1740286E+00  0.8470878E+00
Ar  506  0.1838723E+02  0.1838723E+02  0.3852308E-01  0.5759306E+02
Ar  507  0.1834122E+02  0.1581814E+02  0.2814247E+01  0.3523535E+02
Ar  508  0.1581814E+02  0.1834122E+02  0.2814247E+01  0.3523535E+02
Ar  509  0.1582530E+02  0.1582530E+02  0.5446173E+01  0.5529658E+01
Ar  510  0.1843890E+02  0.1843890E+02  0.5464753E+01  0.1041700E+01
Ar  511  0.1839037E+02  0.1583171E+02  0.8051301E+01  0.1860428E+02
Ar  512  0.1583171E+02  0.1839037E+02  0.8051301E+01  0.1860428E+02
Ar  513  0.1580527E+02  0.1580527E+02  0.1071760E+02  0.1546130E+02
Ar  514  0.1834879E+02  0.1834879E+02  0.1074191E+02  0.3830398E+00
Ar  515  0.1837311E+02  0.1580527E+02  0.1328544E+02  0.1546309E+02
Ar  516  0.1580527E+02  0.1837311E+02  0.1328544E+02  0.1546309E+02
Ar  517  0.1584867E+02  0.1584867E+02  0.1584867E+02  0.7159183E+00
Ar  518  0.1841858E+02  0.1841858E+02  0.1578434E+02  0.4511301E+01
Ar  519  0.1841858E+02  0.1578434E+02  0.1841858E+02  0.4511301E+01
Ar  520  0.1578434E+02  0.1841858E+02  0.1841858E+02  0.4511301E+01
Ar  521  0.1579870E+02  0.1579870E+02  0.2107631E+02  0.4967515E+01
Ar  522  0.1837403E+02  0.1837403E+02  0.2096394E+02  0.1009072E+02
Ar  523  0.1844154E+02  0.1586807E+02  0.2365892E+02  0.1049385E+02
Ar  524  0.1586807E+02  0.1844154E+02  0.2365892E+02  0.1049385E+02
Ar  525  0.1584007E+02  0.1584007E+02  0.2632204E+02  0.2628468E+02
Ar  526  0.1847962E+02  0.1847962E+02  0.2643151E+02  0.1266894E+02
Ar  527  0.1839552E+02  0.1578618E+02  0.2921901E+02  0.2588979E+02
Ar  528  0.1578618E+02  0.1839552E+02  0.2921901E+02  0.2588979E+02
Ar  529  0.1571674E+02  0.2091054E+02 -0.7737400E-01  0.1511309E+02
Ar  530  0.1824336E+02  0.2347189E+02  0.4314180E-01  0.1911453E+02
Ar  531  0.1832932E+02  0.2084284E+02  0.2797993E+01  0.8348928E+01
Ar  532  0.1584199E+02  0.2351889E+02  0.2785551E+01  0.1488775E+02
Ar  533  0.1576340E+02  0.2103969E+02  0.5509830E+01  0.2608938E+02
Ar  534  0.1843976E+02  0.2352684E+02  0.5563870E+01  0.9419770E+01
Ar  535  0.1836994E+02  0.2093993E+02  0.8150783E+01  0.3181742E+01
Ar  536  0.1576340E+02  0.2358088E+02  0.8051021E+01  0.2609170E+02
Ar  537  0.1583171E+02  0.2103941E+02  0.1070034E+02  0.1860513E+02
Ar  538  0.1843891E+02  0.2362596E+02  0.1065181E+02  0.1041342E+01
Ar  539  0.1839037E+02  0.2103941E+02  0.1325900E+02  0.1860363E+02
Ar  540  0.1582530E+02  0.2364454E+02  0.1326542E+02  0.5529834E+01
Ar  541  0.1579870E+02  0.2107631E+02  0.1579870E+02  0.4967515E+01
Ar  542  0.1844154E+02  0.2365892E+02  0.1586807E+02  0.1049385E+02
Ar  543  0.1837403E+02  0.2096394E+02  0.1837403E+02  0.1009072E+02
Ar  544  0.1586807E+02  0.2365892E+02  0.1844154E+02  0.1049385E+02
Ar  545  0.1583171E+02  0.2097361E+02  0.2097361E+02  0.4875370E+01
Ar  546  0.1832443E+02  0.2363131E+02  0.2092259E+02  0.1176255E+02
Ar  547  0.1832443E+02  0.2092259E+02  0.2363131E+02  0.1176255E+02
Ar  548  0.1585914E+02  0.2362854E+02  0.2362854E+02  0.4449084E+02
Ar  549  0.1581667E+02  0.2091203E+02  0.2643214E+02  0.5488879E+02
Ar  550  0.1838664E+02  0.2353864E+02  0.2627529E+02  0.1127827E+02
Ar  551  0.1837025E+02  0.2093694E+02  0.2926600E+02  0.1806581E+02
Ar  552  0.1591488E+02  0.2353843E+02  0.2917376E+02  0.5798069E+01
Ar  553  0.1581667E+02  0.2621158E+02  0.1591632E+00  0.1785126E+02
Ar  554  0.1845472E+02  0.2898715E+02  0.1035700E+00  0.3354596E+02
Ar  555  0.1840025E+02  0.2616526E+02  0.2925453E+01  0.4151101E+02
Ar  556  0.1581667E+02  0.2893155E+02  0.2879128E+01  0.1785105E+02
Ar  557  0.1584200E+02  0.2630516E+02  0.5571816E+01  0.1488667E+02
Ar  558  0.1824336E+02  0.2904757E+02  0.5618823E+01  0.1911534E+02
Ar  559  0.1832932E+02  0.2629272E+02  0.8247872E+01  0.8348742E+01
Ar  560  0.1571675E+02  0.2916808E+02  0.8180171E+01  0.1511418E+02
Ar  561  0.1581814E+02  0.2627646E+02  0.1074949E+02  0.3523379E+02
Ar  562  0.1838723E+02  0.2905218E+02  0.1070349E+02  0.5759439E+02
Ar  563  0.1834122E+02  0.2627646E+02  0.1327257E+02  0.3523420E+02
Ar  564  0.1577991E+02  0.2926474E+02  0.1331079E+02  0.8473537E+00
Ar  565  0.1584007E+02  0.2632204E+02  0.1584007E+02  0.2628468E+02
Ar  566  0.1839552E+02  0.2921901E+02  0.1578618E+02  0.2588979E+02
Ar  567  0.1847962E+02  0.2643151E+02  0.1847962E+02  0.1266894E+02
Ar  568  0.1578618E+02  0.2921901E+02  0.1839552E+02  0.2588979E+02
Ar  569  0.1581667E+02  0.2643214E+02  0.2091203E+02  0.5488879E+02
Ar  570  0.1837025E+02  0.2926600E+02  0.2093694E+02  0.1806581E+02
Ar  571  0.1838664E+02  0.2627529E+02  0.2353864E+02  0.1127827E+02
Ar  572  0.1591488E+02  0.2917376E+02  0.2353843E+02  0.5798069E+01
Ar  573  0.1571691E+02  0.2620010E+02  0.2620010E+02  0.6431414E+01
Ar  574  0.1845650E+02  0.2882582E+02  0.2627643E+02  0.5296686E+02
Ar  575  0.1845650E+02  0.2627643E+02  0.2882582E+02  0.5296686E+02
Ar  576  0.1583822E+02  0.2886050E+02  0.2886050E+02  0.4686152E+01
Ar  577  0.2116860E+02  0.9018955E-01  0.9018955E-01  0.1764887E+02
Ar  578  0.2363209E+02  0.2947166E+01  0.1206213E+00  0.7179167E+02
Ar  579  0.2363209E+02  0.1206213E+00  0.2947166E+01  0.7179167E+02
Ar  580  0.2096001E+02  0.2919930E+01  0.2919930E+01  0.5240329E+02
Ar  581  0.2097023E+02  0.1422609E+00  0.5470893E+01  0.1714142E+02
Ar  582  0.2345972E+02  0.2927609E+01  0.5630986E+01  0.2301296E+02
Ar  583  0.2361982E+02  0.1422574E+00  0.8120490E+01  0.1714156E+02
Ar  584  0.2091799E+02  0.2822175E+01  0.8172719E+01  0.5853242E+02
Ar  585  0.2093694E+02 -0.1752949E+00  0.1072045E+02  0.1806516E+02
Ar  586  0.2353865E+02  0.2815420E+01  0.1070407E+02  0.1127797E+02
Ar  587  0.2353842E+02 -0.8303902E-01  0.1317583E+02  0.5798289E+01
Ar  588  0.2091204E+02  0.2658569E+01  0.1327404E+02  0.5488768E+02
Ar  589  0.2091054E+02 -0.7737400E-01  0.1571674E+02  0.1511309E+02
Ar  590  0.2351889E+02  0.2785551E+01  0.1584199E+02  0.1488775E+02
Ar  591  0.2347189E+02  0.4314180E-01  0.1824336E+02  0.1911453E+02
Ar  592  0.2084284E+02  0.2797993E+01  0.1832932E+02  0.8348928E+01
Ar  593  0.2082497E+02  0.1192558E+00  0.2082497E+02  0.3350877E+02
Ar  594  0.2347633E+02  0.2929472E+01  0.2093832E+02  0.8086073E+02
Ar  595  0.2358612E+02  0.2887185E+00  0.2358612E+02  0.5974819E+02
Ar  596  0.2093832E+02  0.2929472E+01  0.2347633E+02  0.8086073E+02
Ar  597  0.2084548E+02  0.1840771E+00  0.2598486E+02  0.1720453E+02
Ar  598  0.2344767E+02  0.3037497E+01  0.2605321E+02  0.5604353E+02
Ar  599  0.2340826E+02  0.3949900E+00  0.2869572E+02  0.6378591E+02
Ar  600  0.2084548E+02  0.3105852E+01  0.2890663E+02  0.1720341E+02
Ar  601  0.2097023E+02  0.5470893E+01  0.1422609E+00  0.1714142E+02
Ar  602  0.2361982E+02  0.8120490E+01  0.1422574E+00  0.1714156E+02
Ar  603  0.2345972E+02  0.5630986E+01  0.2927609E+01  0.2301296E+02
Ar  604  0.2091799E+02  0.8172719E+01  0.2822175E+01  0.5853242E+02
Ar  605  0.2089082E+02  0.5641725E+01  0.5641725E+01  0.7576207E+02
Ar  606  0.2344899E+02  0.8199888E+01  0.5641724E+01  0.7575886E+02
Ar  607  0.2344899E+02  0.5641724E+01  0.8199888E+01  0.7575886E+02
Ar  608  0.2088821E+02  0.8202500E+01  0.8202500E+01  0.1578024E+02
Ar  609  0.2092259E+02  0.5459403E+01  0.1076628E+02  0.1176226E+02
Ar  610  0.2363131E+02  0.8168119E+01  0.1076628E+02  0.1176271E+02
Ar  611  0.2362854E+02  0.5462171E+01  0.1323157E+02  0.4448947E+02
Ar  612  0.2097362E+02  0.8117097E+01  0.1325901E+02  0.4875026E+01
Ar  613  0.2103969E+02  0.5509830E+01  0.1576340E+02  0.2608938E+02
Ar  614  0.2358088E+02  0.8051021E+01  0.1576340E+02  0.2609170E+02
Ar  615  0.2352684E+02  0.5563870E+01  0.1843976E+02  0.9419770E+01
Ar  616  0.2093993E+02  0.8150783E+01  0.1836994E+02  0.3181742E+01
Ar  617  0.2090006E+02  0.5578508E+01  0.2090006E+02  0.5084690E+01
Ar  618  0.2351220E+02  0.8190644E+01  0.2090007E+02  0.5085330E+01
Ar  619  0.2342855E+02  0.5662161E+01  0.2342855E+02  0.3740067E+02
Ar  620  0.2090007E+02  0.8190644E+01  0.2351220E+02  0.5085330E+01
Ar  621  0.2093832E+02  0.5614377E+01  0.2616124E+02  0.8086021E+02
Ar  622  0.2347633E+02  0.8152391E+01  0.2616124E+02  0.8085844E+02
Ar  623  0.2358613E+02  0.5504586E+01  0.2880199E+02  0.5974892E+02
Ar  624  0.2082498E+02  0.8265731E+01  0.2897147E+02  0.3351209E+02
Ar  625  0.2093694E+02  0.1072045E+02 -0.1752949E+00  0.1806516E+02
Ar  626  0.2353842E+02  0.1317583E+02 -0.8303902E-01  0.5798289E+01
Ar  627  0.2353865E+02  0.1070407E+02  0.2815420E+01  0.1127797E+02
Ar  628  0.2091204E+02  0.1327404E+02  0.2658569E+01  0.5488768E+02
Ar  629  0.2092259E+02  0.1076628E+02  0.5459403E+01  0.1176226E+02
Ar  630  0.2362854E+02  0.1323157E+02  0.5462171E+01  0.4448947E+02
Ar  631  0.2363131E+02  0.1076628E+02  0.8168119E+01  0.1176271E+02
Ar  632  0.2097362E+02  0.1325901E+02  0.8117097E+01  0.4875026E+01
Ar  633  0.2096394E+02  0.1071668E+02  0.1071668E+02  0.1009017E+02
Ar  634  0.2365893E+02  0.1322264E+02  0.1064916E+02  0.1049370E+02
Ar  635  0.2365893E+02  0.1064916E+02  0.1322264E+02  0.1049370E+02
Ar  636  0.2107631E+02  0.1329202E+02  0.1329202E+02  0.4967478E+01
Ar  637  0.2103941E+02  0.1070034E+02  0.1583171E+02  0.1860513E+02
Ar  638  0.2364454E+02  0.1326542E+02  0.1582530E+02  0.5529834E+01
Ar  639  0.2362596E+02  0.1065181E+02  0.1843891E+02  0.1041342E+01
Ar  640  0.2103941E+02  0.1325900E+02  0.1839037E+02  0.1860363E+02
Ar  641  0.2093993E+02  0.1072077E+02  0.2093993E+02  0.3181341E+01
Ar  642  0.2358088E+02  0.1332731E+02  0.2103969E+02  0.2609175E+02
Ar  643  0.2352684E+02  0.1065095E+02  0.2352684E+02  0.9419636E+01
Ar  644  0.2103969E+02  0.1332731E+02  0.2358088E+02  0.2609175E+02
Ar  645  0.2084284E+02  0.1076139E+02  0.2629272E+02  0.8348740E+01
Ar  646  0.2351890E+02  0.1324872E+02  0.2630516E+02  0.1488776E+02
Ar  647  0.2347189E+02  0.1084735E+02  0.2904757E+02  0.1911555E+02
Ar  648  0.2091054E+02  0.1337396E+02  0.2916808E+02  0.1511360E+02
Ar  649  0.2091054E+02  0.1571674E+02 -0.7737400E-01  0.1511309E+02
Ar  650  0.2347189E+02  0.1824336E+02  0.4314180E-01  0.1911453E+02
Ar  651  0.2351889E+02  0.1584199E+02  0.2785551E+01  0.1488775E+02
Ar  652  0.2084284E+02  0.1832932E+02  0.2797993E+01  0.8348928E+01
Ar  653  0.2103969E+02  0.1576340E+02  0.5509830E+01  0.2608938E+02
Ar  654  0.2352684E+02  0.1843976E+02  0.5563870E+01  0.9419770E+01
Ar  655  0.2358088E+02  0.1576340E+02  0.8051021E+01  0.2609170E+02
Ar  656  0.2093993E+02  0.1836994E+02  0.8150783E+01  0.3181742E+01
Ar  657  0.2103941E+02  0.1583171E+02  0.1070034E+02  0.1860513E+02
Ar  658  0.2362596E+02  0.1843891E+02  0.1065181E+02  0.1041342E+01
Ar  659  0.2364454E+02  0.1582530E+02  0.1326542E+02  0.5529834E+01
Ar  660  0.2103941E+02  0.1839037E+02  0.1325900E+02  0.1860363E+02
Ar  661  0.2107631E+02  0.1579870E+02  0.1579870E+02  0.4967515E+01
Ar  662  0.2365892E+02  0.1844154E+02  0.1586807E+02  0.1049385E+02
Ar  663  0.2365892E+02  0.1586807E+02  0.1844154E+02  0.1049385E+02
Ar  664  0.2096394E+02  0.1837403E+02  0.1837403E+02  0.1009072E+02
Ar  665  0.2097361E+02  0.1583171E+02  0.2097361E+02  0.4875370E+01
Ar  666  0.2363131E+02  0.1832443E+02  0.2092259E+02  0.1176255E+02
Ar  667  0.2362854E+02  0.1585914E+02  0.2362854E+02  0.4449084E+02
Ar  668  0.2092259E+02  0.1832443E+02  0.2363131E+02  0.1176255E+02
Ar  669  0.2091203E+02  0.1581667E+02  0.2643214E+02  0.5488879E+02
Ar  670  0.2353864E+02  0.1838664E+02  0.2627529E+02  0.1127827E+02
Ar  671  0.2353843E+02  0.1591488E+02  0.2917376E+02  0.5798069E+01
Ar  672  0.2093694E+02  0.1837025E+02  0.2926600E+02  0.1806581E+02
Ar  673  0.2082497E+02  0.2082497E+02  0.1192558E+00  0.3350877E+02
Ar  674  0.2358612E+02  0.2358612E+02  0.2887185E+00  0.5974819E+02
Ar  675  0.2347633E+02  0.2093832E+02  0.2929472E+01  0.8086073E+02
Ar  676  0.2093832E+02  0.2347633E+02  0.2929472E+01  0.8086073E+02
Ar  677  0.2090006E+02  0.2090006E+02  0.5578508E+01  0.5084690E+01
Ar  678  0.2342855E+02  0.2342855E+02  0.5662161E+01  0.3740067E+02
Ar  679  0.2351220E+02  0.2090007E+02  0.8190644E+01  0.5085330E+01
Ar  680  0.2090007E+02  0.2351220E+02  0.8190644E+01  0.5085330E+01
Ar  681  0.2093993E+02  0.2093993E+02  0.1072077E+02  0.3181341E+01
Ar  682  0.2352684E+02  0.2352684E+02  0.1065095E+02  0.9419636E+01
Ar  683  0.2358088E+02  0.2103969E+02  0.1332731E+02  0.2609175E+02
Ar  684  0.2103969E+02  0.2358088E+02  0.1332731E+02  0.2609175E+02
Ar  685  0.2097361E+02  0.2097361E+02  0.1583171E+02  0.4875370E+01
Ar  686  0.2362854E+02  0.2362854E+02  0.1585914E+02  0.4449084E+02
Ar  687  0.2363131E+02  0.2092259E+02  0.1832443E+02  0.1176255E+02
Ar  688  0.2092259E+02  0.2363131E+02  0.1832443E+02  0.1176255E+02
Ar  689  0.2088821E+02  0.2088821E+02  0.2088821E+02  0.1578411E+02
Ar  690  0.2344898E+02  0.2344898E+02  0.2089082E+02  0.7576041E+02
Ar  691  0.2344898E+02  0.2089082E+02  0.2344898E+02  0.7576041E+02
Ar  692  0.2089082E+02  0.2344898E+02  0.2344898E+02  0.7576041E+02
Ar  693  0.2091799E+02  0.2091799E+02  0.2626853E+02  0.5853243E+02
Ar  694  0.2345973E+02  0.2345973E+02  0.2616310E+02  0.2301310E+02
Ar  695  0.2361982E+02  0.2097022E+02  0.2894845E+02  0.1714147E+02
Ar  696  0.2097022E+02  0.2361982E+02  0.2894845E+02  0.1714147E+02
Ar  697  0.2084548E+02  0.2598486E+02  0.1840771E+00  0.1720453E+02
Ar  698  0.2340826E+02  0.2869572E+02  0.3949900E+00  0.6378591E+02
Ar  699  0.2344767E+02  0.2605321E+02  0.3037497E+01  0.5604353E+02
Ar  700  0.2084548E+02  0.2890663E+02  0.3105852E+01  0.1720341E+02
Ar  701  0.2093832E+02  0.2616124E+02  0.5614377E+01  0.8086021E+02
Ar  702  0.2358613E+02  0.2880199E+02  0.5504586E+01  0.5974892E+02
Ar  703  0.2347633E+02  0.2616124E+02  0.8152391E+01  0.8085844E+02
Ar  704  0.2082498E+02  0.2897147E+02  0.8265731E+01  0.3351209E+02
Ar  705  0.2084284E+02  0.2629272E+02  0.1076139E+02  0.8348740E+01
Ar  706  0.2347189E+02  0.2904757E+02  0.1084735E+02  0.1911555E+02
Ar  707  0.2351890E+02  0.2630516E+02  0.1324872E+02  0.1488776E+02
Ar  708  0.2091054E+02  0.2916808E+02  0.1337396E+02  0.1511360E+02
Ar  709  0.2091203E+02  0.2643214E+02  0.1581667E+02  0.5488879E+02
Ar  710  0.2353843E+02  0.2917376E+02  0.1591488E+02  0.5798069E+01
Ar  711  0.2353864E+02  0.2627529E+02  0.1838664E+02  0.1127827E+02
Ar  712  0.2093694E+02  0.2926600E+02  0.1837025E+02  0.1806581E+02
Ar  713  0.2091799E+02  0.2626853E+02  0.2091799E+02  0.5853243E+02
Ar  714  0.2361982E+02  0.2894845E+02  0.2097022E+02  0.1714147E+02
Ar  715  0.2345973E+02  0.2616310E+02  0.2345973E+02  0.2301310E+02
Ar  716  0.2097022E+02  0.2894845E+02  0.2361982E+02  0.1714147E+02
Ar  717  0.2096000E+02  0.2617078E+02  0.2617078E+02  0.5239894E+02
Ar  718  0.2363209E+02  0.2897009E+02  0.2614354E+02  0.7179152E+02
Ar  719  0.2363209E+02  0.2614354E+02  0.2897009E+02  0.7179152E+02
Ar  720  0.2116859E+02  0.2900052E+02  0.2900052E+02  0.1764830E+02
Ar  721  0.2620790E+02  0.3012760E+00  0.3012760E+00  0.4550097E+02
Ar  722  0.2878943E+02  0.2882809E+01  0.3012792E+00  0.4550237E+02
Ar  723  0.2878943E+02  0.3012792E+00  0.2882809E+01  0.4550237E+02
Ar  724  0.2608429E+02  0.3006417E+01  0.3006417E+01  0.1438927E+03
Ar  725  0.2614354E+02  0.1206239E+00  0.5458624E+01  0.7179078E+02
Ar  726  0.2897008E+02  0.2947167E+01  0.5458620E+01  0.7179038E+02
Ar  727  0.2900053E+02  0.9018729E-01  0.7922114E+01  0.1764829E+02
Ar  728  0.2617078E+02  0.2919938E+01  0.8130704E+01  0.5239969E+02
Ar  729  0.2627643E+02  0.2648964E+00  0.1063421E+02  0.5296705E+02
Ar  730  0.2882582E+02  0.2814280E+01  0.1063421E+02  0.5296667E+02
Ar  731  0.2886049E+02  0.2302202E+00  0.1325249E+02  0.4686223E+01
Ar  732  0.2620010E+02  0.2890616E+01  0.1337380E+02  0.6431747E+01
Ar  733  0.2621158E+02  0.1591632E+00  0.1581667E+02  0.1785126E+02
Ar  734  0.2893155E+02  0.2879128E+01  0.1581667E+02  0.1785105E+02
Ar  735  0.2898715E+02  0.1035700E+00  0.1845472E+02  0.3354596E+02
Ar  736  0.2616526E+02  0.2925453E+01  0.1840025E+02  0.4151101E+02
Ar  737  0.2598486E+02  0.1840771E+00  0.2084548E+02  0.1720453E+02
Ar  738  0.2890663E+02  0.3105852E+01  0.2084548E+02  0.1720341E+02
Ar  739  0.2869572E+02  0.3949900E+00  0.2340826E+02  0.6378591E+02
Ar  740  0.2605321E+02  0.3037497E+01  0.2344767E+02  0.5604353E+02
Ar  741  0.2606393E+02  0.3795346E+00  0.2606393E+02  0.8442669E+02
Ar  742  0.2871117E+02  0.3026783E+01  0.2606392E+02  0.8442172E+02
Ar  743  0.2850460E+02  0.5861090E+00  0.2850460E+02  0.2603591E+02
Ar  744  0.2606392E+02  0.3026783E+01  0.2871117E+02  0.8442172E+02
Ar  745  0.2614354E+02  0.5458624E+01  0.1206239E+00  0.7179078E+02
Ar  746  0.2900053E+02  0.7922114E+01  0.9018729E-01  0.1764829E+02
Ar  747  0.2897008E+02  0.5458620E+01  0.2947167E+01  0.7179038E+02
Ar  748  0.2617078E+02  0.8130704E+01  0.2919938E+01  0.5239969E+02
Ar  749  0.2616310E+02  0.5630988E+01  0.5630988E+01  0.2301168E+02
Ar  750  0.2894845E+02  0.8120486E+01  0.5470895E+01  0.1714217E+02
Ar  751  0.2894845E+02  0.5470895E+01  0.8120486E+01  0.1714217E+02
Ar  752  0.2626854E+02  0.8172721E+01  0.8172721E+01  0.5853258E+02
Ar  753  0.2627530E+02  0.5552068E+01  0.1070407E+02  0.1127965E+02
Ar  754  0.2926600E+02  0.8153765E+01  0.1072045E+02  0.1806553E+02
Ar  755  0.2917375E+02  0.5552290E+01  0.1317584E+02  0.5797734E+01
Ar  756  0.2643214E+02  0.8178676E+01  0.1327404E+02  0.5488764E+02
Ar  757  0.2630516E+02  0.5571816E+01  0.1584200E+02  0.1488667E+02
Ar  758  0.2916808E+02  0.8180171E+01  0.1571675E+02  0.1511418E+02
Ar  759  0.2904757E+02  0.5618823E+01  0.1824336E+02  0.1911534E+02
Ar  760  0.2629272E+02  0.8247872E+01  0.1832932E+02  0.8348742E+01
Ar  761  0.2616124E+02  0.5614377E+01  0.2093832E+02  0.8086021E+02
Ar  762  0.2897147E+02  0.8265731E+01  0.2082498E+02  0.3351209E+02
Ar  763  0.2880199E+02  0.5504586E+01  0.2358613E+02  0.5974892E+02
Ar  764  0.2616124E+02  0.8152391E+01  0.2347633E+02  0.8085844E+02
Ar  765  0.2605321E+02  0.5643033E+01  0.2605321E+02  0.5604454E+02
Ar  766  0.2890663E+02  0.8245227E+01  0.2598486E+02  0.1720403E+02
Ar  767  0.2869572E+02  0.5682446E+01  0.2869572E+02  0.6378610E+02
Ar  768  0.2598486E+02  0.8245227E+01  0.2890663E+02  0.1720403E+02
Ar  769  0.2627643E+02  0.1063421E+02  0.2648964E+00  0.5296705E+02
Ar  770  0.2886049E+02  0.1325249E+02  0.2302202E+00  0.4686223E+01
Ar  771  0.2882582E+02  0.1063421E+02  0.2814280E+01  0.5296667E+02
Ar  772  0.2620010E+02  0.1337380E+02  0.2890616E+01  0.6431747E+01
Ar  773  0.2627530E+02  0.1070407E+02  0.5552068E+01  0.1127965E+02
Ar  774  0.2917375E+02  0.1317584E+02  0.5552290E+01  0.5797734E+01
Ar  775  0.2926600E+02  0.1072045E+02  0.8153765E+01  0.1806553E+02
Ar  776  0.2643214E+02  0.1327404E+02  0.8178676E+01  0.5488764E+02
Ar  777  0.2643151E+02  0.1061109E+02  0.1061109E+02  0.1267152E+02
Ar  778  0.2921901E+02  0.1330453E+02  0.1069518E+02  0.2588873E+02
Ar  779  0.2921901E+02  0.1069518E+02  0.1330453E+02  0.2588873E+02
Ar  780  0.2632205E+02  0.1325064E+02  0.1325064E+02  0.2628323E+02
Ar  781  0.2627646E+02  0.1074949E+02  0.1581814E+02  0.3523379E+02
Ar  782  0.2926474E+02  0.1331079E+02  0.1577991E+02  0.8473537E+00
Ar  783  0.2905218E+02  0.1070349E+02  0.1838723E+02  0.5759439E+02
Ar  784  0.2627646E+02  0.1327257E+02  0.1834122E+02  0.3523420E+02
Ar  785  0.2629272E+02  0.1076139E+02  0.2084284E+02  0.8348740E+01
Ar  786  0.2916808E+02  0.1337396E+02  0.2091054E+02  0.1511360E+02
Ar  787  0.2904757E+02  0.1084735E+02  0.2347189E+02  0.1911555E+02
Ar  788  0.2630516E+02  0.1324872E+02  0.2351890E+02  0.1488776E+02
Ar  789  0.2616525E+02  0.1069047E+02  0.2616525E+02  0.4151075E+02
Ar  790  0.2893155E+02  0.1327404E+02  0.2621159E+02  0.1785142E+02
Ar  791  0.2898714E+02  0.1063599E+02  0.2898714E+02  0.3354572E+02
Ar  792  0.2621159E+02  0.1327404E+02  0.2893155E+02  0.1785142E+02
Ar  793  0.2621158E+02  0.1581667E+02  0.1591632E+00  0.1785126E+02
Ar  794  0.2898715E+02  0.1845472E+02  0.1035700E+00  0.3354596E+02
Ar  795  0.2893155E+02  0.1581667E+02  0.2879128E+01  0.1785105E+02
Ar  796  0.2616526E+02  0.1840025E+02  0.2925453E+01  0.4151101E+02
Ar  797  0.2630516E+02  0.1584200E+02  0.5571816E+01  0.1488667E+02
Ar  798  0.2904757E+02  0.1824336E+02  0.5618823E+01  0.1911534E+02
Ar  799  0.2916808E+02  0.1571675E+02  0.8180171E+01  0.1511418E+02
Ar  800  0.2629272E+02  0.1832932E+02  0.8247872E+01  0.8348742E+01
Ar  801  0.2627646E+02  0.1581814E+02  0.1074949E+02  0.3523379E+02
Ar  802  0.2905218E+02  0.1838723E+02  0.1070349E+02  0.5759439E+02
Ar  803  0.2926474E+02  0.1577991E+02  0.1331079E+02  0.8473537E+00
Ar  804  0.2627646E+02  0.1834122E+02  0.1327257E+02  0.3523420E+02
Ar  805  0.2632204E+02  0.1584007E+02  0.1584007E+02  0.2628468E+02
Ar  806  0.2921901E+02  0.1839552E+02  0.1578618E+02  0.2588979E+02
Ar  807  0.2921901E+02  0.1578618E+02  0.1839552E+02  0.2588979E+02
Ar  808  0.2643151E+02  0.1847962E+02  0.1847962E+02  0.1266894E+02
Ar  809  0.2643214E+02  0.1581667E+02  0.2091203E+02  0.5488879E+02
Ar  810  0.2926600E+02  0.1837025E+02  0.2093694E+02  0.1806581E+02
Ar  811  0.2917376E+02  0.1591488E+02  0.2353843E+02  0.5798069E+01
Ar  812  0.2627529E+02  0.1838664E+02  0.2353864E+02  0.1127827E+02
Ar  813  0.2620010E+02  0.1571691E+02  0.2620010E+02  0.6431414E+01
Ar  814  0.2882582E+02  0.1845650E+02  0.2627643E+02  0.5296686E+02
Ar  815  0.2886050E+02  0.1583822E+02  0.2886050E+02  0.4686152E+01
Ar  816  0.2627643E+02  0.1845650E+02  0.2882582E+02  0.5296686E+02
Ar  817  0.2598486E+02  0.2084548E+02  0.1840771E+00  0.1720453E+02
Ar  818  0.2869572E+02  0.2340826E+02  0.3949900E+00  0.6378591E+02
Ar  819  0.2890663E+02  0.2084548E+02  0.3105852E+01  0.1720341E+02
Ar  820  0.2605321E+02  0.2344767E+02  0.3037497E+01  0.5604353E+02
Ar  821  0.2616124E+02  0.2093832E+02  0.5614377E+01  0.8086021E+02
Ar  822  0.2880199E+02  0.2358613E+02  0.5504586E+01  0.5974892E+02
Ar  823  0.2897147E+02  0.2082498E+02  0.8265731E+01  0.3351209E+02
Ar  824  0.2616124E+02  0.2347633E+02  0.8152391E+01  0.8085844E+02
Ar  825  0.2629272E+02  0.2084284E+02  0.1076139E+02  0.8348740E+01
Ar  826  0.2904757E+02  0.2347189E+02  0.1084735E+02  0.1911555E+02
Ar  827  0.2916808E+02  0.2091054E+02  0.1337396E+02  0.1511360E+02
Ar  828  0.2630516E+02  0.2351890E+02  0.1324872E+02  0.1488776E+02
Ar  829  0.2643214E+02  0.2091203E+02  0.1581667E+02  0.5488879E+02
Ar  830  0.2917376E+02  0.2353843E+02  0.1591488E+02  0.5798069E+01
Ar  831  0.2926600E+02  0.2093694E+02  0.1837025E+02  0.1806581E+02
Ar  832  0.2627529E+02  0.2353864E+02  0.1838664E+02  0.1127827E+02
Ar  833  0.2626853E+02  0.2091799E+02  0.2091799E+02  0.5853243E+02
Ar  834  0.2894845E+02  0.2361982E+02  0.2097022E+02  0.1714147E+02
Ar  835  0.2894845E+02  0.2097022E+02  0.2361982E+02  0.1714147E+02
Ar  836  0.2616310E+02  0.2345973E+02  0.2345973E+02  0.2301310E+02
Ar  837  0.2617078E+02  0.2096000E+02  0.2617078E+02  0.5239894E+02
Ar  838  0.2897009E+02  0.2363209E+02  0.2614354E+02  0.7179152E+02
Ar  839  0.2900052E+02  0.2116859E+02  0.2900052E+02  0.1764830E+02
Ar  840  0.2614354E+02  0.2363209E+02  0.2897009E+02  0.7179152E+02
Ar  841  0.2606393E+02  0.2606393E+02  0.3795346E+00  0.8442669E+02
Ar  842  0.2850460E+02  0.2850460E+02  0.5861090E+00  0.2603591E+02
Ar  843  0.2871117E+02  0.2606392E+02  0.3026783E+01  0.8442172E+02
Ar  844  0.2606392E+02  0.2871117E+02  0.3026783E+01  0.8442172E+02
Ar  845  0.2605321E+02  0.2605321E+02  0.5643033E+01  0.5604454E+02
Ar  846  0.2869572E+02  0.2869572E+02  0.5682446E+01  0.6378610E+02
Ar  847  0.2890663E+02  0.2598486E+02  0.8245227E+01  0.1720403E+02
Ar  848  0.2598486E+02  0.2890663E+02  0.8245227E+01  0.1720403E+02
Ar  849  0.2616525E+02  0.2616525E+02  0.1069047E+02  0.4151075E+02
Ar  850  0.2898714E+02  0.2898714E+02  0.1063599E+02  0.3354572E+02
Ar  851  0.2893155E+02  0.2621159E+02  0.1327404E+02  0.1785142E+02
Ar  852  0.2621159E+02  0.2893155E+02  0.1327404E+02  0.1785142E+02
Ar  853  0.2620010E+02  0.2620010E+02  0.1571691E+02  0.6431414E+01
Ar  854  0.2886050E+02  0.2886050E+02  0.1583822E+02  0.4686152E+01
Ar  855  0.2882582E+02  0.2627643E+02  0.1845650E+02  0.5296686E+02
Ar  856  0.2627643E+02  0.2882582E+02  0.1845650E+02  0.5296686E+02
Ar  857  0.2617078E+02  0.2617078E+02  0.2096000E+02  0.5239894E+02
Ar  858  0.2900052E+02  0.2900052E+02  0.2116859E+02  0.1764830E+02
Ar  859  0.2897009E+02  0.2614354E+02  0.2363209E+02  0.7179152E+02
Ar  860  0.2614354E+02  0.2897009E+02  0.2363209E+02  0.7179152E+02
Ar  861  0.2608429E+02  0.2608429E+02  0.2608429E+02  0.1438910E+03
Ar  862  0.2878943E+02  0.2878943E+02  0.2620790E+02  0.4550198E+02
Ar  863  0.2878943E+02  0.2620790E+02  0.2878943E+02  0.4550198E+02
Ar  864  0.2620790E+02  0.2878943E+02  0.2878943E+02  0.4550198E+02
