         864
Lattice="  0.9994748E+02  0.0000000E+00  0.0000000E+00  0.0000000E+00  0.9994748E+02  0.0000000E+00  0.0000000E+00  0.0000000E+00  0.9994748E+02" Properties=species:S:1:id:I:1:pos:R:3:tempK:R:1
Ar    1 -0.6702640E+00 -0.6702640E+00 -0.6702640E+00  0.4922869E+01
Ar    2  0.2243616E+01  0.2243616E+01 -0.4712073E+00  0.3138536E+02
Ar    3  0.2243616E+01 -0.4712073E+00  0.2243616E+01  0.3138536E+02
Ar    4 -0.4712073E+00  0.2243616E+01  0.2243616E+01  0.3138536E+02
Ar    5 -0.3210524E+00 -0.3210524E+00  0.5050508E+01  0.1755759E+02
Ar    6  0.2334221E+01  0.2334221E+01  0.4990789E+01  0.9369775E+01
Ar    7  0.2444204E+01 -0.2684478E+00  0.7739505E+01  0.1094363E+02
Ar    8 -0.2684478E+00  0.2444204E+01  0.7739505E+01  0.1094363E+02
Ar    9 -0.1711613E+00 -0.1711613E+00  0.1047784E+02  0.2194253E+02
Ar   10  0.2522342E+01  0.2522342E+01  0.1044803E+02  0.3556231E+01
Ar   11  0.2496844E+01 -0.1211176E+00  0.1316193E+02  0.3948692E+01
Ar   12 -0.1211176E+00  0.2496844E+01  0.1316193E+02  0.3948692E+01
Ar   13 -0.1707972E+00 -0.1707972E+00  0.1590277E+02  0.1994308E+02
Ar   14  0.2583880E+01  0.2583880E+01  0.1600420E+02  0.1661459E+02
Ar   15  0.2529012E+01 -0.1686086E+00  0.1861250E+02  0.4380225E+01
Ar   16 -0.1686086E+00  0.2529012E+01  0.1861250E+02  0.4380225E+01
Ar   17 -0.3254768E+00 -0.3254768E+00  0.2110672E+02  0.1070820E+02
Ar   18  0.2356708E+01  0.2356708E+01  0.2148026E+02  0.1663387E+01
Ar   19  0.2295935E+01 -0.3647999E+00  0.2404338E+02  0.5420278E+01
Ar   20 -0.3647999E+00  0.2295935E+01  0.2404338E+02  0.5420278E+01
Ar   21 -0.3887322E+00 -0.3887322E+00  0.2675874E+02  0.1704505E+02
Ar   22  0.2228596E+01  0.2228596E+01  0.2686211E+02  0.1795358E+00
Ar   23  0.2331965E+01 -0.3887325E+00  0.2947944E+02  0.1704390E+02
Ar   24 -0.3887325E+00  0.2331965E+01  0.2947944E+02  0.1704390E+02
Ar   25 -0.3210524E+00  0.5050508E+01 -0.3210524E+00  0.1755759E+02
Ar   26  0.2444204E+01  0.7739505E+01 -0.2684478E+00  0.1094363E+02
Ar   27  0.2334221E+01  0.4990789E+01  0.2334221E+01  0.9369775E+01
Ar   28 -0.2684478E+00  0.7739505E+01  0.2444204E+01  0.1094363E+02
Ar   29 -0.2109571E+00  0.4954125E+01  0.4954125E+01  0.1353580E+02
Ar   30  0.2417857E+01  0.7657337E+01  0.5013398E+01  0.9101991E+01
Ar   31  0.2417857E+01  0.5013398E+01  0.7657337E+01  0.9101991E+01
Ar   32 -0.1631436E+00  0.7665106E+01  0.7665106E+01  0.6707558E+01
Ar   33 -0.1627947E+00  0.5138226E+01  0.1038564E+02  0.7419064E+01
Ar   34  0.2544958E+01  0.7713243E+01  0.1036175E+02  0.7200210E+01
Ar   35  0.2506079E+01  0.5122325E+01  0.1317005E+02  0.1668618E+02
Ar   36 -0.8198445E-01  0.7809086E+01  0.1316568E+02  0.4869948E+01
Ar   37 -0.2679744E-01  0.5258186E+01  0.1596207E+02  0.6178192E+01
Ar   38  0.2617159E+01  0.7886678E+01  0.1590839E+02  0.6439213E+01
Ar   39  0.2541036E+01  0.5152209E+01  0.1859685E+02  0.3483151E+01
Ar   40  0.6893079E-01  0.7750366E+01  0.1867362E+02  0.1002048E+02
Ar   41 -0.1531423E+00  0.5085764E+01  0.2133062E+02  0.4187210E+01
Ar   42  0.2589315E+01  0.7699290E+01  0.2139142E+02  0.1627387E+02
Ar   43  0.2313492E+01  0.4971687E+01  0.2411902E+02  0.2720980E+02
Ar   44 -0.1531419E+00  0.7760089E+01  0.2400495E+02  0.4187535E+01
Ar   45 -0.3648018E+00  0.5047326E+01  0.2679478E+02  0.5420427E+01
Ar   46  0.2356707E+01  0.7610452E+01  0.2673400E+02  0.1663593E+01
Ar   47  0.2295935E+01  0.5047328E+01  0.2945551E+02  0.5420271E+01
Ar   48 -0.3254774E+00  0.7983990E+01  0.2941619E+02  0.1070839E+02
Ar   49 -0.1711613E+00  0.1047784E+02 -0.1711613E+00  0.2194253E+02
Ar   50  0.2496844E+01  0.1316193E+02 -0.1211176E+00  0.3948692E+01
Ar   51  0.2522342E+01  0.1044803E+02  0.2522342E+01  0.3556231E+01
Ar   52 -0.1211176E+00  0.1316193E+02  0.2496844E+01  0.3948692E+01
Ar   53 -0.1627947E+00  0.1038564E+02  0.5138226E+01  0.7419064E+01
Ar   54  0.2506079E+01  0.1317005E+02  0.5122325E+01  0.1668618E+02
Ar   55  0.2544958E+01  0.1036175E+02  0.7713243E+01  0.7200210E+01
Ar   56 -0.8198445E-01  0.1316568E+02  0.7809086E+01  0.4869948E+01
Ar   57 -0.3524514E-01  0.1046760E+02  0.1046760E+02  0.6574336E+00
Ar   58  0.2727239E+01  0.1315951E+02  0.1046951E+02  0.1274668E+01
Ar   59  0.2727239E+01  0.1046951E+02  0.1315951E+02  0.1274668E+01
Ar   60  0.1792654E+00  0.1315968E+02  0.1315968E+02  0.1194863E+02
Ar   61  0.6318920E-01  0.1047152E+02  0.1590567E+02  0.3770757E+01
Ar   62  0.2730974E+01  0.1314408E+02  0.1594663E+02  0.7256647E+01
Ar   63  0.2610562E+01  0.1041096E+02  0.1867975E+02  0.1948448E+01
Ar   64  0.6319073E-01  0.1318504E+02  0.1861919E+02  0.3770689E+01
Ar   65  0.6893267E-01  0.1041709E+02  0.2134034E+02  0.1002069E+02
Ar   66  0.2617159E+01  0.1318232E+02  0.2120403E+02  0.6439465E+01
Ar   67  0.2541037E+01  0.1049386E+02  0.2393850E+02  0.3483108E+01
Ar   68 -0.2679791E-01  0.1312863E+02  0.2383252E+02  0.6178113E+01
Ar   69 -0.1686093E+00  0.1047821E+02  0.2656170E+02  0.4380242E+01
Ar   70  0.2583879E+01  0.1308651E+02  0.2650683E+02  0.1661448E+02
Ar   71  0.2529012E+01  0.1047821E+02  0.2925932E+02  0.4380093E+01
Ar   72 -0.1707988E+00  0.1318794E+02  0.2926151E+02  0.1994335E+02
Ar   73 -0.1707972E+00  0.1590277E+02 -0.1707972E+00  0.1994308E+02
Ar   74  0.2529012E+01  0.1861250E+02 -0.1686086E+00  0.4380225E+01
Ar   75  0.2583880E+01  0.1600420E+02  0.2583880E+01  0.1661459E+02
Ar   76 -0.1686086E+00  0.1861250E+02  0.2529012E+01  0.4380225E+01
Ar   77 -0.2679744E-01  0.1596207E+02  0.5258186E+01  0.6178192E+01
Ar   78  0.2541036E+01  0.1859685E+02  0.5152209E+01  0.3483151E+01
Ar   79  0.2617159E+01  0.1590839E+02  0.7886678E+01  0.6439213E+01
Ar   80  0.6893079E-01  0.1867362E+02  0.7750366E+01  0.1002048E+02
Ar   81  0.6318920E-01  0.1590567E+02  0.1047152E+02  0.3770757E+01
Ar   82  0.2610562E+01  0.1867975E+02  0.1041096E+02  0.1948448E+01
Ar   83  0.2730974E+01  0.1594663E+02  0.1314408E+02  0.7256647E+01
Ar   84  0.6319073E-01  0.1861919E+02  0.1318504E+02  0.3770689E+01
Ar   85  0.1792631E+00  0.1593102E+02  0.1593102E+02  0.1194907E+02
Ar   86  0.2727239E+01  0.1862120E+02  0.1593120E+02  0.1274654E+01
Ar   87  0.2727239E+01  0.1593120E+02  0.1862120E+02  0.1274654E+01
Ar   88 -0.3524528E-01  0.1862311E+02  0.1862311E+02  0.6572751E+00
Ar   89 -0.8198680E-01  0.1592503E+02  0.2128163E+02  0.4869776E+01
Ar   90  0.2544958E+01  0.1872896E+02  0.2137747E+02  0.7200672E+01
Ar   91  0.2506078E+01  0.1592066E+02  0.2396838E+02  0.1668637E+02
Ar   92 -0.1627952E+00  0.1870507E+02  0.2395248E+02  0.7418763E+01
Ar   93 -0.1211206E+00  0.1592878E+02  0.2659387E+02  0.3948608E+01
Ar   94  0.2522343E+01  0.1864268E+02  0.2656837E+02  0.3556066E+01
Ar   95  0.2496844E+01  0.1592878E+02  0.2921183E+02  0.3948733E+01
Ar   96 -0.1711604E+00  0.1861287E+02  0.2926187E+02  0.2194200E+02
Ar   97 -0.3254768E+00  0.2110672E+02 -0.3254768E+00  0.1070820E+02
Ar   98  0.2295935E+01  0.2404338E+02 -0.3647999E+00  0.5420278E+01
Ar   99  0.2356708E+01  0.2148026E+02  0.2356708E+01  0.1663387E+01
Ar  100 -0.3647999E+00  0.2404338E+02  0.2295935E+01  0.5420278E+01
Ar  101 -0.1531423E+00  0.2133062E+02  0.5085764E+01  0.4187210E+01
Ar  102  0.2313492E+01  0.2411902E+02  0.4971687E+01  0.2720980E+02
Ar  103  0.2589315E+01  0.2139142E+02  0.7699290E+01  0.1627387E+02
Ar  104 -0.1531419E+00  0.2400495E+02  0.7760089E+01  0.4187535E+01
Ar  105  0.6893267E-01  0.2134034E+02  0.1041709E+02  0.1002069E+02
Ar  106  0.2541037E+01  0.2393850E+02  0.1049386E+02  0.3483108E+01
Ar  107  0.2617159E+01  0.2120403E+02  0.1318232E+02  0.6439465E+01
Ar  108 -0.2679791E-01  0.2383252E+02  0.1312863E+02  0.6178113E+01
Ar  109 -0.8198680E-01  0.2128163E+02  0.1592503E+02  0.4869776E+01
Ar  110  0.2506078E+01  0.2396838E+02  0.1592066E+02  0.1668637E+02
Ar  111  0.2544958E+01  0.2137747E+02  0.1872896E+02  0.7200672E+01
Ar  112 -0.1627952E+00  0.2395248E+02  0.1870507E+02  0.7418763E+01
Ar  113 -0.1631489E+00  0.2142561E+02  0.2142561E+02  0.6707456E+01
Ar  114  0.2417857E+01  0.2407731E+02  0.2143337E+02  0.9101769E+01
Ar  115  0.2417857E+01  0.2143337E+02  0.2407731E+02  0.9101769E+01
Ar  116 -0.2109577E+00  0.2413659E+02  0.2413659E+02  0.1353580E+02
Ar  117 -0.2684500E+00  0.2135121E+02  0.2664651E+02  0.1094356E+02
Ar  118  0.2334220E+01  0.2409992E+02  0.2675649E+02  0.9369601E+01
Ar  119  0.2444203E+01  0.2135120E+02  0.2935916E+02  0.1094363E+02
Ar  120 -0.3210536E+00  0.2404020E+02  0.2941176E+02  0.1755731E+02
Ar  121 -0.3887322E+00  0.2675874E+02 -0.3887322E+00  0.1704505E+02
Ar  122  0.2331965E+01  0.2947944E+02 -0.3887325E+00  0.1704390E+02
Ar  123  0.2228596E+01  0.2686211E+02  0.2228596E+01  0.1795358E+00
Ar  124 -0.3887325E+00  0.2947944E+02  0.2331965E+01  0.1704390E+02
Ar  125 -0.3648018E+00  0.2679478E+02  0.5047326E+01  0.5420427E+01
Ar  126  0.2295935E+01  0.2945551E+02  0.5047328E+01  0.5420271E+01
Ar  127  0.2356707E+01  0.2673400E+02  0.7610452E+01  0.1663593E+01
Ar  128 -0.3254774E+00  0.2941619E+02  0.7983990E+01  0.1070839E+02
Ar  129 -0.1686093E+00  0.2656170E+02  0.1047821E+02  0.4380242E+01
Ar  130  0.2529012E+01  0.2925932E+02  0.1047821E+02  0.4380093E+01
Ar  131  0.2583879E+01  0.2650683E+02  0.1308651E+02  0.1661448E+02
Ar  132 -0.1707988E+00  0.2926151E+02  0.1318794E+02  0.1994335E+02
Ar  133 -0.1211206E+00  0.2659387E+02  0.1592878E+02  0.3948608E+01
Ar  134  0.2496844E+01  0.2921183E+02  0.1592878E+02  0.3948733E+01
Ar  135  0.2522343E+01  0.2656837E+02  0.1864268E+02  0.3556066E+01
Ar  136 -0.1711604E+00  0.2926187E+02  0.1861287E+02  0.2194200E+02
Ar  137 -0.2684500E+00  0.2664651E+02  0.2135121E+02  0.1094356E+02
Ar  138  0.2444203E+01  0.2935916E+02  0.2135120E+02  0.1094363E+02
Ar  139  0.2334220E+01  0.2675649E+02  0.2409992E+02  0.9369601E+01
Ar  140 -0.3210536E+00  0.2941176E+02  0.2404020E+02  0.1755731E+02
Ar  141 -0.4712064E+00  0.2684710E+02  0.2684710E+02  0.3138466E+02
Ar  142  0.2243616E+01  0.2956192E+02  0.2684709E+02  0.3138511E+02
Ar  143  0.2243616E+01  0.2684709E+02  0.2956192E+02  0.3138511E+02
Ar  144 -0.6702643E+00  0.2976097E+02  0.2976097E+02  0.4923042E+01
Ar  145  0.5050508E+01 -0.3210524E+00 -0.3210524E+00  0.1755759E+02
Ar  146  0.7739505E+01  0.2444204E+01 -0.2684478E+00  0.1094363E+02
Ar  147  0.7739505E+01 -0.2684478E+00  0.2444204E+01  0.1094363E+02
Ar  148  0.4990789E+01  0.2334221E+01  0.2334221E+01  0.9369775E+01
Ar  149  0.4954125E+01 -0.2109571E+00  0.4954125E+01  0.1353580E+02
Ar  150  0.7657337E+01  0.2417857E+01  0.5013398E+01  0.9101991E+01
Ar  151  0.7665106E+01 -0.1631436E+00  0.7665106E+01  0.6707558E+01
Ar  152  0.5013398E+01  0.2417857E+01  0.7657337E+01  0.9101991E+01
Ar  153  0.5138226E+01 -0.1627947E+00  0.1038564E+02  0.7419064E+01
Ar  154  0.7713243E+01  0.2544958E+01  0.1036175E+02  0.7200210E+01
Ar  155  0.7809086E+01 -0.8198445E-01  0.1316568E+02  0.4869948E+01
Ar  156  0.5122325E+01  0.2506079E+01  0.1317005E+02  0.1668618E+02
Ar  157  0.5258186E+01 -0.2679744E-01  0.1596207E+02  0.6178192E+01
Ar  158  0.7886678E+01  0.2617159E+01  0.1590839E+02  0.6439213E+01
Ar  159  0.7750366E+01  0.6893079E-01  0.1867362E+02  0.1002048E+02
Ar  160  0.5152209E+01  0.2541036E+01  0.1859685E+02  0.3483151E+01
Ar  161  0.5085764E+01 -0.1531423E+00  0.2133062E+02  0.4187210E+01
Ar  162  0.7699290E+01  0.2589315E+01  0.2139142E+02  0.1627387E+02
Ar  163  0.7760089E+01 -0.1531419E+00  0.2400495E+02  0.4187535E+01
Ar  164  0.4971687E+01  0.2313492E+01  0.2411902E+02  0.2720980E+02
Ar  165  0.5047326E+01 -0.3648018E+00  0.2679478E+02  0.5420427E+01
Ar  166  0.7610452E+01  0.2356707E+01  0.2673400E+02  0.1663593E+01
Ar  167  0.7983990E+01 -0.3254774E+00  0.2941619E+02  0.1070839E+02
Ar  168  0.5047328E+01  0.2295935E+01  0.2945551E+02  0.5420271E+01
Ar  169  0.4954125E+01  0.4954125E+01 -0.2109571E+00  0.1353580E+02
Ar  170  0.7665106E+01  0.7665106E+01 -0.1631436E+00  0.6707558E+01
Ar  171  0.7657337E+01  0.5013398E+01  0.2417857E+01  0.9101991E+01
Ar  172  0.5013398E+01  0.7657337E+01  0.2417857E+01  0.9101991E+01
Ar  173  0.5002276E+01  0.5002276E+01  0.5002276E+01  0.4048504E+01
Ar  174  0.7687635E+01  0.7687635E+01  0.5058150E+01  0.1331600E+02
Ar  175  0.7687635E+01  0.5058150E+01  0.7687635E+01  0.1331600E+02
Ar  176  0.5058150E+01  0.7687635E+01  0.7687635E+01  0.1331600E+02
Ar  177  0.5079291E+01  0.5079291E+01  0.1037565E+02  0.5867375E+01
Ar  178  0.7805945E+01  0.7805945E+01  0.1044489E+02  0.3833240E+01
Ar  179  0.7794945E+01  0.5156554E+01  0.1308814E+02  0.4383127E+01
Ar  180  0.5156554E+01  0.7794945E+01  0.1308814E+02  0.4383127E+01
Ar  181  0.5156938E+01  0.5156938E+01  0.1586763E+02  0.5021838E-01
Ar  182  0.7785388E+01  0.7785388E+01  0.1575999E+02  0.2972451E+02
Ar  183  0.7756355E+01  0.5171202E+01  0.1865422E+02  0.3351702E+00
Ar  184  0.5171202E+01  0.7756355E+01  0.1865422E+02  0.3351702E+00
Ar  185  0.5017020E+01  0.5017020E+01  0.2139827E+02  0.2599411E+02
Ar  186  0.7794461E+01  0.7794461E+01  0.2129625E+02  0.7877689E+01
Ar  187  0.7692442E+01  0.5017021E+01  0.2407369E+02  0.2599449E+02
Ar  188  0.5017021E+01  0.7692442E+01  0.2407369E+02  0.2599449E+02
Ar  189  0.4971686E+01  0.4971686E+01  0.2677722E+02  0.2720952E+02
Ar  190  0.7699291E+01  0.7699291E+01  0.2650140E+02  0.1627365E+02
Ar  191  0.7760090E+01  0.5085764E+01  0.2924385E+02  0.4187400E+01
Ar  192  0.5085764E+01  0.7760090E+01  0.2924385E+02  0.4187400E+01
Ar  193  0.5138226E+01  0.1038564E+02 -0.1627947E+00  0.7419064E+01
Ar  194  0.7809086E+01  0.1316568E+02 -0.8198445E-01  0.4869948E+01
Ar  195  0.7713243E+01  0.1036175E+02  0.2544958E+01  0.7200210E+01
Ar  196  0.5122325E+01  0.1317005E+02  0.2506079E+01  0.1668618E+02
Ar  197  0.5079291E+01  0.1037565E+02  0.5079291E+01  0.5867375E+01
Ar  198  0.7794945E+01  0.1308814E+02  0.5156554E+01  0.4383127E+01
Ar  199  0.7805945E+01  0.1044489E+02  0.7805945E+01  0.3833240E+01
Ar  200  0.5156554E+01  0.1308814E+02  0.7794945E+01  0.4383127E+01
Ar  201  0.5168277E+01  0.1036305E+02  0.1036305E+02  0.1473469E+02
Ar  202  0.7835281E+01  0.1314680E+02  0.1047965E+02  0.1802476E+02
Ar  203  0.7835281E+01  0.1047965E+02  0.1314680E+02  0.1802476E+02
Ar  204  0.5250694E+01  0.1313667E+02  0.1313667E+02  0.6302232E+01
Ar  205  0.5234136E+01  0.1043576E+02  0.1595073E+02  0.2365270E+01
Ar  206  0.7828515E+01  0.1318405E+02  0.1590666E+02  0.3627051E+01
Ar  207  0.7848572E+01  0.1045009E+02  0.1864062E+02  0.3861929E+01
Ar  208  0.5234134E+01  0.1313998E+02  0.1865495E+02  0.2365342E+01
Ar  209  0.5171203E+01  0.1043650E+02  0.2133436E+02  0.3351924E+00
Ar  210  0.7785389E+01  0.1333072E+02  0.2130532E+02  0.2972449E+02
Ar  211  0.7756355E+01  0.1043649E+02  0.2391951E+02  0.3351611E+00
Ar  212  0.5156938E+01  0.1322308E+02  0.2393377E+02  0.5020875E-01
Ar  213  0.5152210E+01  0.1049386E+02  0.2654967E+02  0.3483144E+01
Ar  214  0.7886677E+01  0.1318232E+02  0.2647355E+02  0.6439272E+01
Ar  215  0.7750369E+01  0.1041709E+02  0.2902178E+02  0.1002069E+02
Ar  216  0.5258185E+01  0.1312864E+02  0.2911751E+02  0.6178190E+01
Ar  217  0.5258186E+01  0.1596207E+02 -0.2679744E-01  0.6178192E+01
Ar  218  0.7750366E+01  0.1867362E+02  0.6893079E-01  0.1002048E+02
Ar  219  0.7886678E+01  0.1590839E+02  0.2617159E+01  0.6439213E+01
Ar  220  0.5152209E+01  0.1859685E+02  0.2541036E+01  0.3483151E+01
Ar  221  0.5156938E+01  0.1586763E+02  0.5156938E+01  0.5021838E-01
Ar  222  0.7756355E+01  0.1865422E+02  0.5171202E+01  0.3351702E+00
Ar  223  0.7785388E+01  0.1575999E+02  0.7785388E+01  0.2972451E+02
Ar  224  0.5171202E+01  0.1865422E+02  0.7756355E+01  0.3351702E+00
Ar  225  0.5234136E+01  0.1595073E+02  0.1043576E+02  0.2365270E+01
Ar  226  0.7848572E+01  0.1864062E+02  0.1045009E+02  0.3861929E+01
Ar  227  0.7828515E+01  0.1590666E+02  0.1318405E+02  0.3627051E+01
Ar  228  0.5234134E+01  0.1865495E+02  0.1313998E+02  0.2365342E+01
Ar  229  0.5250694E+01  0.1595404E+02  0.1595404E+02  0.6302414E+01
Ar  230  0.7835281E+01  0.1861106E+02  0.1594391E+02  0.1802514E+02
Ar  231  0.7835281E+01  0.1594391E+02  0.1861106E+02  0.1802514E+02
Ar  232  0.5168277E+01  0.1872766E+02  0.1872766E+02  0.1473457E+02
Ar  233  0.5156553E+01  0.1600257E+02  0.2129577E+02  0.4383045E+01
Ar  234  0.7805944E+01  0.1864582E+02  0.2128477E+02  0.3833318E+01
Ar  235  0.7794946E+01  0.1600257E+02  0.2393416E+02  0.4383177E+01
Ar  236  0.5079291E+01  0.1871506E+02  0.2401142E+02  0.5867648E+01
Ar  237  0.5122326E+01  0.1592066E+02  0.2658463E+02  0.1668625E+02
Ar  238  0.7713240E+01  0.1872896E+02  0.2654575E+02  0.7200603E+01
Ar  239  0.7809081E+01  0.1592503E+02  0.2917270E+02  0.4869739E+01
Ar  240  0.5138226E+01  0.1870507E+02  0.2925351E+02  0.7418880E+01
Ar  241  0.5085764E+01  0.2133062E+02 -0.1531423E+00  0.4187210E+01
Ar  242  0.7760089E+01  0.2400495E+02 -0.1531419E+00  0.4187535E+01
Ar  243  0.7699290E+01  0.2139142E+02  0.2589315E+01  0.1627387E+02
Ar  244  0.4971687E+01  0.2411902E+02  0.2313492E+01  0.2720980E+02
Ar  245  0.5017020E+01  0.2139827E+02  0.5017020E+01  0.2599411E+02
Ar  246  0.7692442E+01  0.2407369E+02  0.5017021E+01  0.2599449E+02
Ar  247  0.7794461E+01  0.2129625E+02  0.7794461E+01  0.7877689E+01
Ar  248  0.5017021E+01  0.2407369E+02  0.7692442E+01  0.2599449E+02
Ar  249  0.5171203E+01  0.2133436E+02  0.1043650E+02  0.3351924E+00
Ar  250  0.7756355E+01  0.2391951E+02  0.1043649E+02  0.3351611E+00
Ar  251  0.7785389E+01  0.2130532E+02  0.1333072E+02  0.2972449E+02
Ar  252  0.5156938E+01  0.2393377E+02  0.1322308E+02  0.5020875E-01
Ar  253  0.5156553E+01  0.2129577E+02  0.1600257E+02  0.4383045E+01
Ar  254  0.7794946E+01  0.2393416E+02  0.1600257E+02  0.4383177E+01
Ar  255  0.7805944E+01  0.2128477E+02  0.1864582E+02  0.3833318E+01
Ar  256  0.5079291E+01  0.2401142E+02  0.1871506E+02  0.5867648E+01
Ar  257  0.5058148E+01  0.2140308E+02  0.2140308E+02  0.1331602E+02
Ar  258  0.7687630E+01  0.2403256E+02  0.2140308E+02  0.1331617E+02
Ar  259  0.7687630E+01  0.2140308E+02  0.2403256E+02  0.1331617E+02
Ar  260  0.5002277E+01  0.2408843E+02  0.2408843E+02  0.4049046E+01
Ar  261  0.5013397E+01  0.2143338E+02  0.2667285E+02  0.9101984E+01
Ar  262  0.7657338E+01  0.2407731E+02  0.2667285E+02  0.9102174E+01
Ar  263  0.7665105E+01  0.2142561E+02  0.2925386E+02  0.6707749E+01
Ar  264  0.4954126E+01  0.2413659E+02  0.2930167E+02  0.1353588E+02
Ar  265  0.5047326E+01  0.2679478E+02 -0.3648018E+00  0.5420427E+01
Ar  266  0.7983990E+01  0.2941619E+02 -0.3254774E+00  0.1070839E+02
Ar  267  0.7610452E+01  0.2673400E+02  0.2356707E+01  0.1663593E+01
Ar  268  0.5047328E+01  0.2945551E+02  0.2295935E+01  0.5420271E+01
Ar  269  0.4971686E+01  0.2677722E+02  0.4971686E+01  0.2720952E+02
Ar  270  0.7760090E+01  0.2924385E+02  0.5085764E+01  0.4187400E+01
Ar  271  0.7699291E+01  0.2650140E+02  0.7699291E+01  0.1627365E+02
Ar  272  0.5085764E+01  0.2924385E+02  0.7760090E+01  0.4187400E+01
Ar  273  0.5152210E+01  0.2654967E+02  0.1049386E+02  0.3483144E+01
Ar  274  0.7750369E+01  0.2902178E+02  0.1041709E+02  0.1002069E+02
Ar  275  0.7886677E+01  0.2647355E+02  0.1318232E+02  0.6439272E+01
Ar  276  0.5258185E+01  0.2911751E+02  0.1312864E+02  0.6178190E+01
Ar  277  0.5122326E+01  0.2658463E+02  0.1592066E+02  0.1668625E+02
Ar  278  0.7809081E+01  0.2917270E+02  0.1592503E+02  0.4869739E+01
Ar  279  0.7713240E+01  0.2654575E+02  0.1872896E+02  0.7200603E+01
Ar  280  0.5138226E+01  0.2925351E+02  0.1870507E+02  0.7418880E+01
Ar  281  0.5013397E+01  0.2667285E+02  0.2143338E+02  0.9101984E+01
Ar  282  0.7665105E+01  0.2925386E+02  0.2142561E+02  0.6707749E+01
Ar  283  0.7657338E+01  0.2667285E+02  0.2407731E+02  0.9102174E+01
Ar  284  0.4954126E+01  0.2930167E+02  0.2413659E+02  0.1353588E+02
Ar  285  0.4990791E+01  0.2675649E+02  0.2675649E+02  0.9369361E+01
Ar  286  0.7739507E+01  0.2935916E+02  0.2664650E+02  0.1094371E+02
Ar  287  0.7739507E+01  0.2664650E+02  0.2935916E+02  0.1094371E+02
Ar  288  0.5050509E+01  0.2941176E+02  0.2941176E+02  0.1755744E+02
Ar  289  0.1047784E+02 -0.1711613E+00 -0.1711613E+00  0.2194253E+02
Ar  290  0.1316193E+02  0.2496844E+01 -0.1211176E+00  0.3948692E+01
Ar  291  0.1316193E+02 -0.1211176E+00  0.2496844E+01  0.3948692E+01
Ar  292  0.1044803E+02  0.2522342E+01  0.2522342E+01  0.3556231E+01
Ar  293  0.1038564E+02 -0.1627947E+00  0.5138226E+01  0.7419064E+01
Ar  294  0.1317005E+02  0.2506079E+01  0.5122325E+01  0.1668618E+02
Ar  295  0.1316568E+02 -0.8198445E-01  0.7809086E+01  0.4869948E+01
Ar  296  0.1036175E+02  0.2544958E+01  0.7713243E+01  0.7200210E+01
Ar  297  0.1046760E+02 -0.3524514E-01  0.1046760E+02  0.6574336E+00
Ar  298  0.1315951E+02  0.2727239E+01  0.1046951E+02  0.1274668E+01
Ar  299  0.1315968E+02  0.1792654E+00  0.1315968E+02  0.1194863E+02
Ar  300  0.1046951E+02  0.2727239E+01  0.1315951E+02  0.1274668E+01
Ar  301  0.1047152E+02  0.6318920E-01  0.1590567E+02  0.3770757E+01
Ar  302  0.1314408E+02  0.2730974E+01  0.1594663E+02  0.7256647E+01
Ar  303  0.1318504E+02  0.6319073E-01  0.1861919E+02  0.3770689E+01
Ar  304  0.1041096E+02  0.2610562E+01  0.1867975E+02  0.1948448E+01
Ar  305  0.1041709E+02  0.6893267E-01  0.2134034E+02  0.1002069E+02
Ar  306  0.1318232E+02  0.2617159E+01  0.2120403E+02  0.6439465E+01
Ar  307  0.1312863E+02 -0.2679791E-01  0.2383252E+02  0.6178113E+01
Ar  308  0.1049386E+02  0.2541037E+01  0.2393850E+02  0.3483108E+01
Ar  309  0.1047821E+02 -0.1686093E+00  0.2656170E+02  0.4380242E+01
Ar  310  0.1308651E+02  0.2583879E+01  0.2650683E+02  0.1661448E+02
Ar  311  0.1318794E+02 -0.1707988E+00  0.2926151E+02  0.1994335E+02
Ar  312  0.1047821E+02  0.2529012E+01  0.2925932E+02  0.4380093E+01
Ar  313  0.1038564E+02  0.5138226E+01 -0.1627947E+00  0.7419064E+01
Ar  314  0.1316568E+02  0.7809086E+01 -0.8198445E-01  0.4869948E+01
Ar  315  0.1317005E+02  0.5122325E+01  0.2506079E+01  0.1668618E+02
Ar  316  0.1036175E+02  0.7713243E+01  0.2544958E+01  0.7200210E+01
Ar  317  0.1037565E+02  0.5079291E+01  0.5079291E+01  0.5867375E+01
Ar  318  0.1308814E+02  0.7794945E+01  0.5156554E+01  0.4383127E+01
Ar  319  0.1308814E+02  0.5156554E+01  0.7794945E+01  0.4383127E+01
Ar  320  0.1044489E+02  0.7805945E+01  0.7805945E+01  0.3833240E+01
Ar  321  0.1036305E+02  0.5168277E+01  0.1036305E+02  0.1473469E+02
Ar  322  0.1314680E+02  0.7835281E+01  0.1047965E+02  0.1802476E+02
Ar  323  0.1313667E+02  0.5250694E+01  0.1313667E+02  0.6302232E+01
Ar  324  0.1047965E+02  0.7835281E+01  0.1314680E+02  0.1802476E+02
Ar  325  0.1043576E+02  0.5234136E+01  0.1595073E+02  0.2365270E+01
Ar  326  0.1318405E+02  0.7828515E+01  0.1590666E+02  0.3627051E+01
Ar  327  0.1313998E+02  0.5234134E+01  0.1865495E+02  0.2365342E+01
Ar  328  0.1045009E+02  0.7848572E+01  0.1864062E+02  0.3861929E+01
Ar  329  0.1043650E+02  0.5171203E+01  0.2133436E+02  0.3351924E+00
Ar  330  0.1333072E+02  0.7785389E+01  0.2130532E+02  0.2972449E+02
Ar  331  0.1322308E+02  0.5156938E+01  0.2393377E+02  0.5020875E-01
Ar  332  0.1043649E+02  0.7756355E+01  0.2391951E+02  0.3351611E+00
Ar  333  0.1049386E+02  0.5152210E+01  0.2654967E+02  0.3483144E+01
Ar  334  0.1318232E+02  0.7886677E+01  0.2647355E+02  0.6439272E+01
Ar  335  0.1312864E+02  0.5258185E+01  0.2911751E+02  0.6178190E+01
Ar  336  0.1041709E+02  0.7750369E+01  0.2902178E+02  0.1002069E+02
Ar  337  0.1046760E+02  0.1046760E+02 -0.3524514E-01  0.6574336E+00
Ar  338  0.1315968E+02  0.1315968E+02  0.1792654E+00  0.1194863E+02
Ar  339  0.1315951E+02  0.1046951E+02  0.2727239E+01  0.1274668E+01
Ar  340  0.1046951E+02  0.1315951E+02  0.2727239E+01  0.1274668E+01
Ar  341  0.1036305E+02  0.1036305E+02  0.5168277E+01  0.1473469E+02
Ar  342  0.1313667E+02  0.1313667E+02  0.5250694E+01  0.6302232E+01
Ar  343  0.1314680E+02  0.1047965E+02  0.7835281E+01  0.1802476E+02
Ar  344  0.1047965E+02  0.1314680E+02  0.7835281E+01  0.1802476E+02
Ar  345  0.1041788E+02  0.1041788E+02  0.1041788E+02  0.4044701E+01
Ar  346  0.1316419E+02  0.1316419E+02  0.1050526E+02  0.4640161E+01
Ar  347  0.1316419E+02  0.1050526E+02  0.1316419E+02  0.4640161E+01
Ar  348  0.1050526E+02  0.1316419E+02  0.1316419E+02  0.4640161E+01
Ar  349  0.1049716E+02  0.1049716E+02  0.1591253E+02  0.1091334E+01
Ar  350  0.1313709E+02  0.1313709E+02  0.1595362E+02  0.3446187E+00
Ar  351  0.1317818E+02  0.1049716E+02  0.1859354E+02  0.1091302E+01
Ar  352  0.1049716E+02  0.1317818E+02  0.1859354E+02  0.1091302E+01
Ar  353  0.1045009E+02  0.1045009E+02  0.2124214E+02  0.3861787E+01
Ar  354  0.1318405E+02  0.1318405E+02  0.2126219E+02  0.3627101E+01
Ar  355  0.1313998E+02  0.1043575E+02  0.2385658E+02  0.2365373E+01
Ar  356  0.1043575E+02  0.1313998E+02  0.2385658E+02  0.2365373E+01
Ar  357  0.1041096E+02  0.1041096E+02  0.2648015E+02  0.1948351E+01
Ar  358  0.1314408E+02  0.1314408E+02  0.2635974E+02  0.7256704E+01
Ar  359  0.1318504E+02  0.1047151E+02  0.2902752E+02  0.3770560E+01
Ar  360  0.1047151E+02  0.1318504E+02  0.2902752E+02  0.3770560E+01
Ar  361  0.1047152E+02  0.1590567E+02  0.6318920E-01  0.3770757E+01
Ar  362  0.1318504E+02  0.1861919E+02  0.6319073E-01  0.3770689E+01
Ar  363  0.1314408E+02  0.1594663E+02  0.2730974E+01  0.7256647E+01
Ar  364  0.1041096E+02  0.1867975E+02  0.2610562E+01  0.1948448E+01
Ar  365  0.1043576E+02  0.1595073E+02  0.5234136E+01  0.2365270E+01
Ar  366  0.1313998E+02  0.1865495E+02  0.5234134E+01  0.2365342E+01
Ar  367  0.1318405E+02  0.1590666E+02  0.7828515E+01  0.3627051E+01
Ar  368  0.1045009E+02  0.1864062E+02  0.7848572E+01  0.3861929E+01
Ar  369  0.1049716E+02  0.1591253E+02  0.1049716E+02  0.1091334E+01
Ar  370  0.1317818E+02  0.1859354E+02  0.1049716E+02  0.1091302E+01
Ar  371  0.1313709E+02  0.1595362E+02  0.1313709E+02  0.3446187E+00
Ar  372  0.1049716E+02  0.1859354E+02  0.1317818E+02  0.1091302E+01
Ar  373  0.1050526E+02  0.1592653E+02  0.1592653E+02  0.4640195E+01
Ar  374  0.1316418E+02  0.1858545E+02  0.1592653E+02  0.4640327E+01
Ar  375  0.1316418E+02  0.1592653E+02  0.1858545E+02  0.4640327E+01
Ar  376  0.1041788E+02  0.1867283E+02  0.1867283E+02  0.4044678E+01
Ar  377  0.1047965E+02  0.1594391E+02  0.2125543E+02  0.1802475E+02
Ar  378  0.1314680E+02  0.1861106E+02  0.2125543E+02  0.1802491E+02
Ar  379  0.1313667E+02  0.1595404E+02  0.2384002E+02  0.6302473E+01
Ar  380  0.1036305E+02  0.1872766E+02  0.2392243E+02  0.1473430E+02
Ar  381  0.1046951E+02  0.1593120E+02  0.2636347E+02  0.1274563E+01
Ar  382  0.1315951E+02  0.1862120E+02  0.2636347E+02  0.1274448E+01
Ar  383  0.1315968E+02  0.1593102E+02  0.2891144E+02  0.1194836E+02
Ar  384  0.1046760E+02  0.1862311E+02  0.2912595E+02  0.6573790E+00
Ar  385  0.1041709E+02  0.2134034E+02  0.6893267E-01  0.1002069E+02
Ar  386  0.1312863E+02  0.2383252E+02 -0.2679791E-01  0.6178113E+01
Ar  387  0.1318232E+02  0.2120403E+02  0.2617159E+01  0.6439465E+01
Ar  388  0.1049386E+02  0.2393850E+02  0.2541037E+01  0.3483108E+01
Ar  389  0.1043650E+02  0.2133436E+02  0.5171203E+01  0.3351924E+00
Ar  390  0.1322308E+02  0.2393377E+02  0.5156938E+01  0.5020875E-01
Ar  391  0.1333072E+02  0.2130532E+02  0.7785389E+01  0.2972449E+02
Ar  392  0.1043649E+02  0.2391951E+02  0.7756355E+01  0.3351611E+00
Ar  393  0.1045009E+02  0.2124214E+02  0.1045009E+02  0.3861787E+01
Ar  394  0.1313998E+02  0.2385658E+02  0.1043575E+02  0.2365373E+01
Ar  395  0.1318405E+02  0.2126219E+02  0.1318405E+02  0.3627101E+01
Ar  396  0.1043575E+02  0.2385658E+02  0.1313998E+02  0.2365373E+01
Ar  397  0.1047965E+02  0.2125543E+02  0.1594391E+02  0.1802475E+02
Ar  398  0.1313667E+02  0.2384002E+02  0.1595404E+02  0.6302473E+01
Ar  399  0.1314680E+02  0.2125543E+02  0.1861106E+02  0.1802491E+02
Ar  400  0.1036305E+02  0.2392243E+02  0.1872766E+02  0.1473430E+02
Ar  401  0.1044489E+02  0.2128477E+02  0.2128477E+02  0.3833059E+01
Ar  402  0.1308814E+02  0.2393416E+02  0.2129576E+02  0.4383089E+01
Ar  403  0.1308814E+02  0.2129576E+02  0.2393416E+02  0.4383089E+01
Ar  404  0.1037565E+02  0.2401142E+02  0.2401142E+02  0.5867487E+01
Ar  405  0.1036175E+02  0.2137747E+02  0.2654575E+02  0.7200198E+01
Ar  406  0.1317005E+02  0.2396838E+02  0.2658463E+02  0.1668650E+02
Ar  407  0.1316568E+02  0.2128163E+02  0.2917270E+02  0.4869913E+01
Ar  408  0.1038564E+02  0.2395248E+02  0.2925350E+02  0.7418815E+01
Ar  409  0.1047821E+02  0.2656170E+02 -0.1686093E+00  0.4380242E+01
Ar  410  0.1318794E+02  0.2926151E+02 -0.1707988E+00  0.1994335E+02
Ar  411  0.1308651E+02  0.2650683E+02  0.2583879E+01  0.1661448E+02
Ar  412  0.1047821E+02  0.2925932E+02  0.2529012E+01  0.4380093E+01
Ar  413  0.1049386E+02  0.2654967E+02  0.5152210E+01  0.3483144E+01
Ar  414  0.1312864E+02  0.2911751E+02  0.5258185E+01  0.6178190E+01
Ar  415  0.1318232E+02  0.2647355E+02  0.7886677E+01  0.6439272E+01
Ar  416  0.1041709E+02  0.2902178E+02  0.7750369E+01  0.1002069E+02
Ar  417  0.1041096E+02  0.2648015E+02  0.1041096E+02  0.1948351E+01
Ar  418  0.1318504E+02  0.2902752E+02  0.1047151E+02  0.3770560E+01
Ar  419  0.1314408E+02  0.2635974E+02  0.1314408E+02  0.7256704E+01
Ar  420  0.1047151E+02  0.2902752E+02  0.1318504E+02  0.3770560E+01
Ar  421  0.1046951E+02  0.2636347E+02  0.1593120E+02  0.1274563E+01
Ar  422  0.1315968E+02  0.2891144E+02  0.1593102E+02  0.1194836E+02
Ar  423  0.1315951E+02  0.2636347E+02  0.1862120E+02  0.1274448E+01
Ar  424  0.1046760E+02  0.2912595E+02  0.1862311E+02  0.6573790E+00
Ar  425  0.1036175E+02  0.2654575E+02  0.2137747E+02  0.7200198E+01
Ar  426  0.1316568E+02  0.2917270E+02  0.2128163E+02  0.4869913E+01
Ar  427  0.1317005E+02  0.2658463E+02  0.2396838E+02  0.1668650E+02
Ar  428  0.1038564E+02  0.2925350E+02  0.2395248E+02  0.7418815E+01
Ar  429  0.1044803E+02  0.2656837E+02  0.2656837E+02  0.3555996E+01
Ar  430  0.1316193E+02  0.2921183E+02  0.2659386E+02  0.3948592E+01
Ar  431  0.1316193E+02  0.2659386E+02  0.2921183E+02  0.3948592E+01
Ar  432  0.1047784E+02  0.2926187E+02  0.2926187E+02  0.2194250E+02
Ar  433  0.1590277E+02 -0.1707972E+00 -0.1707972E+00  0.1994308E+02
Ar  434  0.1861250E+02  0.2529012E+01 -0.1686086E+00  0.4380225E+01
Ar  435  0.1861250E+02 -0.1686086E+00  0.2529012E+01  0.4380225E+01
Ar  436  0.1600420E+02  0.2583880E+01  0.2583880E+01  0.1661459E+02
Ar  437  0.1596207E+02 -0.2679744E-01  0.5258186E+01  0.6178192E+01
Ar  438  0.1859685E+02  0.2541036E+01  0.5152209E+01  0.3483151E+01
Ar  439  0.1867362E+02  0.6893079E-01  0.7750366E+01  0.1002048E+02
Ar  440  0.1590839E+02  0.2617159E+01  0.7886678E+01  0.6439213E+01
Ar  441  0.1590567E+02  0.6318920E-01  0.1047152E+02  0.3770757E+01
Ar  442  0.1867975E+02  0.2610562E+01  0.1041096E+02  0.1948448E+01
Ar  443  0.1861919E+02  0.6319073E-01  0.1318504E+02  0.3770689E+01
Ar  444  0.1594663E+02  0.2730974E+01  0.1314408E+02  0.7256647E+01
Ar  445  0.1593102E+02  0.1792631E+00  0.1593102E+02  0.1194907E+02
Ar  446  0.1862120E+02  0.2727239E+01  0.1593120E+02  0.1274654E+01
Ar  447  0.1862311E+02 -0.3524528E-01  0.1862311E+02  0.6572751E+00
Ar  448  0.1593120E+02  0.2727239E+01  0.1862120E+02  0.1274654E+01
Ar  449  0.1592503E+02 -0.8198680E-01  0.2128163E+02  0.4869776E+01
Ar  450  0.1872896E+02  0.2544958E+01  0.2137747E+02  0.7200672E+01
Ar  451  0.1870507E+02 -0.1627952E+00  0.2395248E+02  0.7418763E+01
Ar  452  0.1592066E+02  0.2506078E+01  0.2396838E+02  0.1668637E+02
Ar  453  0.1592878E+02 -0.1211206E+00  0.2659387E+02  0.3948608E+01
Ar  454  0.1864268E+02  0.2522343E+01  0.2656837E+02  0.3556066E+01
Ar  455  0.1861287E+02 -0.1711604E+00  0.2926187E+02  0.2194200E+02
Ar  456  0.1592878E+02  0.2496844E+01  0.2921183E+02  0.3948733E+01
Ar  457  0.1596207E+02  0.5258186E+01 -0.2679744E-01  0.6178192E+01
Ar  458  0.1867362E+02  0.7750366E+01  0.6893079E-01  0.1002048E+02
Ar  459  0.1859685E+02  0.5152209E+01  0.2541036E+01  0.3483151E+01
Ar  460  0.1590839E+02  0.7886678E+01  0.2617159E+01  0.6439213E+01
Ar  461  0.1586763E+02  0.5156938E+01  0.5156938E+01  0.5021838E-01
Ar  462  0.1865422E+02  0.7756355E+01  0.5171202E+01  0.3351702E+00
Ar  463  0.1865422E+02  0.5171202E+01  0.7756355E+01  0.3351702E+00
Ar  464  0.1575999E+02  0.7785388E+01  0.7785388E+01  0.2972451E+02
Ar  465  0.1595073E+02  0.5234136E+01  0.1043576E+02  0.2365270E+01
Ar  466  0.1864062E+02  0.7848572E+01  0.1045009E+02  0.3861929E+01
Ar  467  0.1865495E+02  0.5234134E+01  0.1313998E+02  0.2365342E+01
Ar  468  0.1590666E+02  0.7828515E+01  0.1318405E+02  0.3627051E+01
Ar  469  0.1595404E+02  0.5250694E+01  0.1595404E+02  0.6302414E+01
Ar  470  0.1861106E+02  0.7835281E+01  0.1594391E+02  0.1802514E+02
Ar  471  0.1872766E+02  0.5168277E+01  0.1872766E+02  0.1473457E+02
Ar  472  0.1594391E+02  0.7835281E+01  0.1861106E+02  0.1802514E+02
Ar  473  0.1600257E+02  0.5156553E+01  0.2129577E+02  0.4383045E+01
Ar  474  0.1864582E+02  0.7805944E+01  0.2128477E+02  0.3833318E+01
Ar  475  0.1871506E+02  0.5079291E+01  0.2401142E+02  0.5867648E+01
Ar  476  0.1600257E+02  0.7794946E+01  0.2393416E+02  0.4383177E+01
Ar  477  0.1592066E+02  0.5122326E+01  0.2658463E+02  0.1668625E+02
Ar  478  0.1872896E+02  0.7713240E+01  0.2654575E+02  0.7200603E+01
Ar  479  0.1870507E+02  0.5138226E+01  0.2925351E+02  0.7418880E+01
Ar  480  0.1592503E+02  0.7809081E+01  0.2917270E+02  0.4869739E+01
Ar  481  0.1590567E+02  0.1047152E+02  0.6318920E-01  0.3770757E+01
Ar  482  0.1861919E+02  0.1318504E+02  0.6319073E-01  0.3770689E+01
Ar  483  0.1867975E+02  0.1041096E+02  0.2610562E+01  0.1948448E+01
Ar  484  0.1594663E+02  0.1314408E+02  0.2730974E+01  0.7256647E+01
Ar  485  0.1595073E+02  0.1043576E+02  0.5234136E+01  0.2365270E+01
Ar  486  0.1865495E+02  0.1313998E+02  0.5234134E+01  0.2365342E+01
Ar  487  0.1864062E+02  0.1045009E+02  0.7848572E+01  0.3861929E+01
Ar  488  0.1590666E+02  0.1318405E+02  0.7828515E+01  0.3627051E+01
Ar  489  0.1591253E+02  0.1049716E+02  0.1049716E+02  0.1091334E+01
Ar  490  0.1859354E+02  0.1317818E+02  0.1049716E+02  0.1091302E+01
Ar  491  0.1859354E+02  0.1049716E+02  0.1317818E+02  0.1091302E+01
Ar  492  0.1595362E+02  0.1313709E+02  0.1313709E+02  0.3446187E+00
Ar  493  0.1592653E+02  0.1050526E+02  0.1592653E+02  0.4640195E+01
Ar  494  0.1858545E+02  0.1316418E+02  0.1592653E+02  0.4640327E+01
Ar  495  0.1867283E+02  0.1041788E+02  0.1867283E+02  0.4044678E+01
Ar  496  0.1592653E+02  0.1316418E+02  0.1858545E+02  0.4640327E+01
Ar  497  0.1594391E+02  0.1047965E+02  0.2125543E+02  0.1802475E+02
Ar  498  0.1861106E+02  0.1314680E+02  0.2125543E+02  0.1802491E+02
Ar  499  0.1872766E+02  0.1036305E+02  0.2392243E+02  0.1473430E+02
Ar  500  0.1595404E+02  0.1313667E+02  0.2384002E+02  0.6302473E+01
Ar  501  0.1593120E+02  0.1046951E+02  0.2636347E+02  0.1274563E+01
Ar  502  0.1862120E+02  0.1315951E+02  0.2636347E+02  0.1274448E+01
Ar  503  0.1862311E+02  0.1046760E+02  0.2912595E+02  0.6573790E+00
Ar  504  0.1593102E+02  0.1315968E+02  0.2891144E+02  0.1194836E+02
Ar  505  0.1593102E+02  0.1593102E+02  0.1792631E+00  0.1194907E+02
Ar  506  0.1862311E+02  0.1862311E+02 -0.3524528E-01  0.6572751E+00
Ar  507  0.1862120E+02  0.1593120E+02  0.2727239E+01  0.1274654E+01
Ar  508  0.1593120E+02  0.1862120E+02  0.2727239E+01  0.1274654E+01
Ar  509  0.1595404E+02  0.1595404E+02  0.5250694E+01  0.6302414E+01
Ar  510  0.1872766E+02  0.1872766E+02  0.5168277E+01  0.1473457E+02
Ar  511  0.1861106E+02  0.1594391E+02  0.7835281E+01  0.1802514E+02
Ar  512  0.1594391E+02  0.1861106E+02  0.7835281E+01  0.1802514E+02
Ar  513  0.1592653E+02  0.1592653E+02  0.1050526E+02  0.4640195E+01
Ar  514  0.1867283E+02  0.1867283E+02  0.1041788E+02  0.4044678E+01
Ar  515  0.1858545E+02  0.1592653E+02  0.1316418E+02  0.4640327E+01
Ar  516  0.1592653E+02  0.1858545E+02  0.1316418E+02  0.4640327E+01
Ar  517  0.1595362E+02  0.1595362E+02  0.1595362E+02  0.3446216E+00
Ar  518  0.1859355E+02  0.1859355E+02  0.1591253E+02  0.1091563E+01
Ar  519  0.1859355E+02  0.1591253E+02  0.1859355E+02  0.1091563E+01
Ar  520  0.1591253E+02  0.1859355E+02  0.1859355E+02  0.1091563E+01
Ar  521  0.1590666E+02  0.1590666E+02  0.2126219E+02  0.3627225E+01
Ar  522  0.1864062E+02  0.1864062E+02  0.2124214E+02  0.3861766E+01
Ar  523  0.1865495E+02  0.1595073E+02  0.2385658E+02  0.2365532E+01
Ar  524  0.1595073E+02  0.1865495E+02  0.2385658E+02  0.2365532E+01
Ar  525  0.1594663E+02  0.1594663E+02  0.2635974E+02  0.7256548E+01
Ar  526  0.1867975E+02  0.1867975E+02  0.2648015E+02  0.1948571E+01
Ar  527  0.1861920E+02  0.1590567E+02  0.2902752E+02  0.3770518E+01
Ar  528  0.1590567E+02  0.1861920E+02  0.2902752E+02  0.3770518E+01
Ar  529  0.1592503E+02  0.2128163E+02 -0.8198680E-01  0.4869776E+01
Ar  530  0.1870507E+02  0.2395248E+02 -0.1627952E+00  0.7418763E+01
Ar  531  0.1872896E+02  0.2137747E+02  0.2544958E+01  0.7200672E+01
Ar  532  0.1592066E+02  0.2396838E+02  0.2506078E+01  0.1668637E+02
Ar  533  0.1600257E+02  0.2129577E+02  0.5156553E+01  0.4383045E+01
Ar  534  0.1871506E+02  0.2401142E+02  0.5079291E+01  0.5867648E+01
Ar  535  0.1864582E+02  0.2128477E+02  0.7805944E+01  0.3833318E+01
Ar  536  0.1600257E+02  0.2393416E+02  0.7794946E+01  0.4383177E+01
Ar  537  0.1594391E+02  0.2125543E+02  0.1047965E+02  0.1802475E+02
Ar  538  0.1872766E+02  0.2392243E+02  0.1036305E+02  0.1473430E+02
Ar  539  0.1861106E+02  0.2125543E+02  0.1314680E+02  0.1802491E+02
Ar  540  0.1595404E+02  0.2384002E+02  0.1313667E+02  0.6302473E+01
Ar  541  0.1590666E+02  0.2126219E+02  0.1590666E+02  0.3627225E+01
Ar  542  0.1865495E+02  0.2385658E+02  0.1595073E+02  0.2365532E+01
Ar  543  0.1864062E+02  0.2124214E+02  0.1864062E+02  0.3861766E+01
Ar  544  0.1595073E+02  0.2385658E+02  0.1865495E+02  0.2365532E+01
Ar  545  0.1575999E+02  0.2130532E+02  0.2130532E+02  0.2972391E+02
Ar  546  0.1865421E+02  0.2391951E+02  0.2133436E+02  0.3351463E+00
Ar  547  0.1865421E+02  0.2133436E+02  0.2391951E+02  0.3351463E+00
Ar  548  0.1586763E+02  0.2393377E+02  0.2393377E+02  0.5024388E-01
Ar  549  0.1590839E+02  0.2120403E+02  0.2647355E+02  0.6439164E+01
Ar  550  0.1859685E+02  0.2393850E+02  0.2654967E+02  0.3483124E+01
Ar  551  0.1867362E+02  0.2134034E+02  0.2902178E+02  0.1002093E+02
Ar  552  0.1596207E+02  0.2383253E+02  0.2911751E+02  0.6178177E+01
Ar  553  0.1592878E+02  0.2659387E+02 -0.1211206E+00  0.3948608E+01
Ar  554  0.1861287E+02  0.2926187E+02 -0.1711604E+00  0.2194200E+02
Ar  555  0.1864268E+02  0.2656837E+02  0.2522343E+01  0.3556066E+01
Ar  556  0.1592878E+02  0.2921183E+02  0.2496844E+01  0.3948733E+01
Ar  557  0.1592066E+02  0.2658463E+02  0.5122326E+01  0.1668625E+02
Ar  558  0.1870507E+02  0.2925351E+02  0.5138226E+01  0.7418880E+01
Ar  559  0.1872896E+02  0.2654575E+02  0.7713240E+01  0.7200603E+01
Ar  560  0.1592503E+02  0.2917270E+02  0.7809081E+01  0.4869739E+01
Ar  561  0.1593120E+02  0.2636347E+02  0.1046951E+02  0.1274563E+01
Ar  562  0.1862311E+02  0.2912595E+02  0.1046760E+02  0.6573790E+00
Ar  563  0.1862120E+02  0.2636347E+02  0.1315951E+02  0.1274448E+01
Ar  564  0.1593102E+02  0.2891144E+02  0.1315968E+02  0.1194836E+02
Ar  565  0.1594663E+02  0.2635974E+02  0.1594663E+02  0.7256548E+01
Ar  566  0.1861920E+02  0.2902752E+02  0.1590567E+02  0.3770518E+01
Ar  567  0.1867975E+02  0.2648015E+02  0.1867975E+02  0.1948571E+01
Ar  568  0.1590567E+02  0.2902752E+02  0.1861920E+02  0.3770518E+01
Ar  569  0.1590839E+02  0.2647355E+02  0.2120403E+02  0.6439164E+01
Ar  570  0.1867362E+02  0.2902178E+02  0.2134034E+02  0.1002093E+02
Ar  571  0.1859685E+02  0.2654967E+02  0.2393850E+02  0.3483124E+01
Ar  572  0.1596207E+02  0.2911751E+02  0.2383253E+02  0.6178177E+01
Ar  573  0.1600420E+02  0.2650683E+02  0.2650683E+02  0.1661483E+02
Ar  574  0.1861250E+02  0.2925932E+02  0.2656170E+02  0.4380195E+01
Ar  575  0.1861250E+02  0.2656170E+02  0.2925932E+02  0.4380195E+01
Ar  576  0.1590277E+02  0.2926151E+02  0.2926151E+02  0.1994301E+02
Ar  577  0.2110672E+02 -0.3254768E+00 -0.3254768E+00  0.1070820E+02
Ar  578  0.2404338E+02  0.2295935E+01 -0.3647999E+00  0.5420278E+01
Ar  579  0.2404338E+02 -0.3647999E+00  0.2295935E+01  0.5420278E+01
Ar  580  0.2148026E+02  0.2356708E+01  0.2356708E+01  0.1663387E+01
Ar  581  0.2133062E+02 -0.1531423E+00  0.5085764E+01  0.4187210E+01
Ar  582  0.2411902E+02  0.2313492E+01  0.4971687E+01  0.2720980E+02
Ar  583  0.2400495E+02 -0.1531419E+00  0.7760089E+01  0.4187535E+01
Ar  584  0.2139142E+02  0.2589315E+01  0.7699290E+01  0.1627387E+02
Ar  585  0.2134034E+02  0.6893267E-01  0.1041709E+02  0.1002069E+02
Ar  586  0.2393850E+02  0.2541037E+01  0.1049386E+02  0.3483108E+01
Ar  587  0.2383252E+02 -0.2679791E-01  0.1312863E+02  0.6178113E+01
Ar  588  0.2120403E+02  0.2617159E+01  0.1318232E+02  0.6439465E+01
Ar  589  0.2128163E+02 -0.8198680E-01  0.1592503E+02  0.4869776E+01
Ar  590  0.2396838E+02  0.2506078E+01  0.1592066E+02  0.1668637E+02
Ar  591  0.2395248E+02 -0.1627952E+00  0.1870507E+02  0.7418763E+01
Ar  592  0.2137747E+02  0.2544958E+01  0.1872896E+02  0.7200672E+01
Ar  593  0.2142561E+02 -0.1631489E+00  0.2142561E+02  0.6707456E+01
Ar  594  0.2407731E+02  0.2417857E+01  0.2143337E+02  0.9101769E+01
Ar  595  0.2413659E+02 -0.2109577E+00  0.2413659E+02  0.1353580E+02
Ar  596  0.2143337E+02  0.2417857E+01  0.2407731E+02  0.9101769E+01
Ar  597  0.2135121E+02 -0.2684500E+00  0.2664651E+02  0.1094356E+02
Ar  598  0.2409992E+02  0.2334220E+01  0.2675649E+02  0.9369601E+01
Ar  599  0.2404020E+02 -0.3210536E+00  0.2941176E+02  0.1755731E+02
Ar  600  0.2135120E+02  0.2444203E+01  0.2935916E+02  0.1094363E+02
Ar  601  0.2133062E+02  0.5085764E+01 -0.1531423E+00  0.4187210E+01
Ar  602  0.2400495E+02  0.7760089E+01 -0.1531419E+00  0.4187535E+01
Ar  603  0.2411902E+02  0.4971687E+01  0.2313492E+01  0.2720980E+02
Ar  604  0.2139142E+02  0.7699290E+01  0.2589315E+01  0.1627387E+02
Ar  605  0.2139827E+02  0.5017020E+01  0.5017020E+01  0.2599411E+02
Ar  606  0.2407369E+02  0.7692442E+01  0.5017021E+01  0.2599449E+02
Ar  607  0.2407369E+02  0.5017021E+01  0.7692442E+01  0.2599449E+02
Ar  608  0.2129625E+02  0.7794461E+01  0.7794461E+01  0.7877689E+01
Ar  609  0.2133436E+02  0.5171203E+01  0.1043650E+02  0.3351924E+00
Ar  610  0.2391951E+02  0.7756355E+01  0.1043649E+02  0.3351611E+00
Ar  611  0.2393377E+02  0.5156938E+01  0.1322308E+02  0.5020875E-01
Ar  612  0.2130532E+02  0.7785389E+01  0.1333072E+02  0.2972449E+02
Ar  613  0.2129577E+02  0.5156553E+01  0.1600257E+02  0.4383045E+01
Ar  614  0.2393416E+02  0.7794946E+01  0.1600257E+02  0.4383177E+01
Ar  615  0.2401142E+02  0.5079291E+01  0.1871506E+02  0.5867648E+01
Ar  616  0.2128477E+02  0.7805944E+01  0.1864582E+02  0.3833318E+01
Ar  617  0.2140308E+02  0.5058148E+01  0.2140308E+02  0.1331602E+02
Ar  618  0.2403256E+02  0.7687630E+01  0.2140308E+02  0.1331617E+02
Ar  619  0.2408843E+02  0.5002277E+01  0.2408843E+02  0.4049046E+01
Ar  620  0.2140308E+02  0.7687630E+01  0.2403256E+02  0.1331617E+02
Ar  621  0.2143338E+02  0.5013397E+01  0.2667285E+02  0.9101984E+01
Ar  622  0.2407731E+02  0.7657338E+01  0.2667285E+02  0.9102174E+01
Ar  623  0.2413659E+02  0.4954126E+01  0.2930167E+02  0.1353588E+02
Ar  624  0.2142561E+02  0.7665105E+01  0.2925386E+02  0.6707749E+01
Ar  625  0.2134034E+02  0.1041709E+02  0.6893267E-01  0.1002069E+02
Ar  626  0.2383252E+02  0.1312863E+02 -0.2679791E-01  0.6178113E+01
Ar  627  0.2393850E+02  0.1049386E+02  0.2541037E+01  0.3483108E+01
Ar  628  0.2120403E+02  0.1318232E+02  0.2617159E+01  0.6439465E+01
Ar  629  0.2133436E+02  0.1043650E+02  0.5171203E+01  0.3351924E+00
Ar  630  0.2393377E+02  0.1322308E+02  0.5156938E+01  0.5020875E-01
Ar  631  0.2391951E+02  0.1043649E+02  0.7756355E+01  0.3351611E+00
Ar  632  0.2130532E+02  0.1333072E+02  0.7785389E+01  0.2972449E+02
Ar  633  0.2124214E+02  0.1045009E+02  0.1045009E+02  0.3861787E+01
Ar  634  0.2385658E+02  0.1313998E+02  0.1043575E+02  0.2365373E+01
Ar  635  0.2385658E+02  0.1043575E+02  0.1313998E+02  0.2365373E+01
Ar  636  0.2126219E+02  0.1318405E+02  0.1318405E+02  0.3627101E+01
Ar  637  0.2125543E+02  0.1047965E+02  0.1594391E+02  0.1802475E+02
Ar  638  0.2384002E+02  0.1313667E+02  0.1595404E+02  0.6302473E+01
Ar  639  0.2392243E+02  0.1036305E+02  0.1872766E+02  0.1473430E+02
Ar  640  0.2125543E+02  0.1314680E+02  0.1861106E+02  0.1802491E+02
Ar  641  0.2128477E+02  0.1044489E+02  0.2128477E+02  0.3833059E+01
Ar  642  0.2393416E+02  0.1308814E+02  0.2129576E+02  0.4383089E+01
Ar  643  0.2401142E+02  0.1037565E+02  0.2401142E+02  0.5867487E+01
Ar  644  0.2129576E+02  0.1308814E+02  0.2393416E+02  0.4383089E+01
Ar  645  0.2137747E+02  0.1036175E+02  0.2654575E+02  0.7200198E+01
Ar  646  0.2396838E+02  0.1317005E+02  0.2658463E+02  0.1668650E+02
Ar  647  0.2395248E+02  0.1038564E+02  0.2925350E+02  0.7418815E+01
Ar  648  0.2128163E+02  0.1316568E+02  0.2917270E+02  0.4869913E+01
Ar  649  0.2128163E+02  0.1592503E+02 -0.8198680E-01  0.4869776E+01
Ar  650  0.2395248E+02  0.1870507E+02 -0.1627952E+00  0.7418763E+01
Ar  651  0.2396838E+02  0.1592066E+02  0.2506078E+01  0.1668637E+02
Ar  652  0.2137747E+02  0.1872896E+02  0.2544958E+01  0.7200672E+01
Ar  653  0.2129577E+02  0.1600257E+02  0.5156553E+01  0.4383045E+01
Ar  654  0.2401142E+02  0.1871506E+02  0.5079291E+01  0.5867648E+01
Ar  655  0.2393416E+02  0.1600257E+02  0.7794946E+01  0.4383177E+01
Ar  656  0.2128477E+02  0.1864582E+02  0.7805944E+01  0.3833318E+01
Ar  657  0.2125543E+02  0.1594391E+02  0.1047965E+02  0.1802475E+02
Ar  658  0.2392243E+02  0.1872766E+02  0.1036305E+02  0.1473430E+02
Ar  659  0.2384002E+02  0.1595404E+02  0.1313667E+02  0.6302473E+01
Ar  660  0.2125543E+02  0.1861106E+02  0.1314680E+02  0.1802491E+02
Ar  661  0.2126219E+02  0.1590666E+02  0.1590666E+02  0.3627225E+01
Ar  662  0.2385658E+02  0.1865495E+02  0.1595073E+02  0.2365532E+01
Ar  663  0.2385658E+02  0.1595073E+02  0.1865495E+02  0.2365532E+01
Ar  664  0.2124214E+02  0.1864062E+02  0.1864062E+02  0.3861766E+01
Ar  665  0.2130532E+02  0.1575999E+02  0.2130532E+02  0.2972391E+02
Ar  666  0.2391951E+02  0.1865421E+02  0.2133436E+02  0.3351463E+00
Ar  667  0.2393377E+02  0.1586763E+02  0.2393377E+02  0.5024388E-01
Ar  668  0.2133436E+02  0.1865421E+02  0.2391951E+02  0.3351463E+00
Ar  669  0.2120403E+02  0.1590839E+02  0.2647355E+02  0.6439164E+01
Ar  670  0.2393850E+02  0.1859685E+02  0.2654967E+02  0.3483124E+01
Ar  671  0.2383253E+02  0.1596207E+02  0.2911751E+02  0.6178177E+01
Ar  672  0.2134034E+02  0.1867362E+02  0.2902178E+02  0.1002093E+02
Ar  673  0.2142561E+02  0.2142561E+02 -0.1631489E+00  0.6707456E+01
Ar  674  0.2413659E+02  0.2413659E+02 -0.2109577E+00  0.1353580E+02
Ar  675  0.2407731E+02  0.2143337E+02  0.2417857E+01  0.9101769E+01
Ar  676  0.2143337E+02  0.2407731E+02  0.2417857E+01  0.9101769E+01
Ar  677  0.2140308E+02  0.2140308E+02  0.5058148E+01  0.1331602E+02
Ar  678  0.2408843E+02  0.2408843E+02  0.5002277E+01  0.4049046E+01
Ar  679  0.2403256E+02  0.2140308E+02  0.7687630E+01  0.1331617E+02
Ar  680  0.2140308E+02  0.2403256E+02  0.7687630E+01  0.1331617E+02
Ar  681  0.2128477E+02  0.2128477E+02  0.1044489E+02  0.3833059E+01
Ar  682  0.2401142E+02  0.2401142E+02  0.1037565E+02  0.5867487E+01
Ar  683  0.2393416E+02  0.2129576E+02  0.1308814E+02  0.4383089E+01
Ar  684  0.2129576E+02  0.2393416E+02  0.1308814E+02  0.4383089E+01
Ar  685  0.2130532E+02  0.2130532E+02  0.1575999E+02  0.2972391E+02
Ar  686  0.2393377E+02  0.2393377E+02  0.1586763E+02  0.5024388E-01
Ar  687  0.2391951E+02  0.2133436E+02  0.1865421E+02  0.3351463E+00
Ar  688  0.2133436E+02  0.2391951E+02  0.1865421E+02  0.3351463E+00
Ar  689  0.2129625E+02  0.2129625E+02  0.2129625E+02  0.7878042E+01
Ar  690  0.2407369E+02  0.2407369E+02  0.2139827E+02  0.2599428E+02
Ar  691  0.2407369E+02  0.2139827E+02  0.2407369E+02  0.2599428E+02
Ar  692  0.2139827E+02  0.2407369E+02  0.2407369E+02  0.2599428E+02
Ar  693  0.2139142E+02  0.2139142E+02  0.2650139E+02  0.1627364E+02
Ar  694  0.2411902E+02  0.2411902E+02  0.2677722E+02  0.2720994E+02
Ar  695  0.2400495E+02  0.2133062E+02  0.2924385E+02  0.4187541E+01
Ar  696  0.2133062E+02  0.2400495E+02  0.2924385E+02  0.4187541E+01
Ar  697  0.2135121E+02  0.2664651E+02 -0.2684500E+00  0.1094356E+02
Ar  698  0.2404020E+02  0.2941176E+02 -0.3210536E+00  0.1755731E+02
Ar  699  0.2409992E+02  0.2675649E+02  0.2334220E+01  0.9369601E+01
Ar  700  0.2135120E+02  0.2935916E+02  0.2444203E+01  0.1094363E+02
Ar  701  0.2143338E+02  0.2667285E+02  0.5013397E+01  0.9101984E+01
Ar  702  0.2413659E+02  0.2930167E+02  0.4954126E+01  0.1353588E+02
Ar  703  0.2407731E+02  0.2667285E+02  0.7657338E+01  0.9102174E+01
Ar  704  0.2142561E+02  0.2925386E+02  0.7665105E+01  0.6707749E+01
Ar  705  0.2137747E+02  0.2654575E+02  0.1036175E+02  0.7200198E+01
Ar  706  0.2395248E+02  0.2925350E+02  0.1038564E+02  0.7418815E+01
Ar  707  0.2396838E+02  0.2658463E+02  0.1317005E+02  0.1668650E+02
Ar  708  0.2128163E+02  0.2917270E+02  0.1316568E+02  0.4869913E+01
Ar  709  0.2120403E+02  0.2647355E+02  0.1590839E+02  0.6439164E+01
Ar  710  0.2383253E+02  0.2911751E+02  0.1596207E+02  0.6178177E+01
Ar  711  0.2393850E+02  0.2654967E+02  0.1859685E+02  0.3483124E+01
Ar  712  0.2134034E+02  0.2902178E+02  0.1867362E+02  0.1002093E+02
Ar  713  0.2139142E+02  0.2650139E+02  0.2139142E+02  0.1627364E+02
Ar  714  0.2400495E+02  0.2924385E+02  0.2133062E+02  0.4187541E+01
Ar  715  0.2411902E+02  0.2677722E+02  0.2411902E+02  0.2720994E+02
Ar  716  0.2133062E+02  0.2924385E+02  0.2400495E+02  0.4187541E+01
Ar  717  0.2148026E+02  0.2673400E+02  0.2673400E+02  0.1663524E+01
Ar  718  0.2404338E+02  0.2945551E+02  0.2679478E+02  0.5420369E+01
Ar  719  0.2404338E+02  0.2679478E+02  0.2945551E+02  0.5420369E+01
Ar  720  0.2110672E+02  0.2941619E+02  0.2941619E+02  0.1070830E+02
Ar  721  0.2675874E+02 -0.3887322E+00 -0.3887322E+00  0.1704505E+02
Ar  722  0.2947944E+02  0.2331965E+01 -0.3887325E+00  0.1704390E+02
Ar  723  0.2947944E+02 -0.3887325E+00  0.2331965E+01  0.1704390E+02
Ar  724  0.2686211E+02  0.2228596E+01  0.2228596E+01  0.1795358E+00
Ar  725  0.2679478E+02 -0.3648018E+00  0.5047326E+01  0.5420427E+01
Ar  726  0.2945551E+02  0.2295935E+01  0.5047328E+01  0.5420271E+01
Ar  727  0.2941619E+02 -0.3254774E+00  0.7983990E+01  0.1070839E+02
Ar  728  0.2673400E+02  0.2356707E+01  0.7610452E+01  0.1663593E+01
Ar  729  0.2656170E+02 -0.1686093E+00  0.1047821E+02  0.4380242E+01
Ar  730  0.2925932E+02  0.2529012E+01  0.1047821E+02  0.4380093E+01
Ar  731  0.2926151E+02 -0.1707988E+00  0.1318794E+02  0.1994335E+02
Ar  732  0.2650683E+02  0.2583879E+01  0.1308651E+02  0.1661448E+02
Ar  733  0.2659387E+02 -0.1211206E+00  0.1592878E+02  0.3948608E+01
Ar  734  0.2921183E+02  0.2496844E+01  0.1592878E+02  0.3948733E+01
Ar  735  0.2926187E+02 -0.1711604E+00  0.1861287E+02  0.2194200E+02
Ar  736  0.2656837E+02  0.2522343E+01  0.1864268E+02  0.3556066E+01
Ar  737  0.2664651E+02 -0.2684500E+00  0.2135121E+02  0.1094356E+02
Ar  738  0.2935916E+02  0.2444203E+01  0.2135120E+02  0.1094363E+02
Ar  739  0.2941176E+02 -0.3210536E+00  0.2404020E+02  0.1755731E+02
Ar  740  0.2675649E+02  0.2334220E+01  0.2409992E+02  0.9369601E+01
Ar  741  0.2684710E+02 -0.4712064E+00  0.2684710E+02  0.3138466E+02
Ar  742  0.2956192E+02  0.2243616E+01  0.2684709E+02  0.3138511E+02
Ar  743  0.2976097E+02 -0.6702643E+00  0.2976097E+02  0.4923042E+01
Ar  744  0.2684709E+02  0.2243616E+01  0.2956192E+02  0.3138511E+02
Ar  745  0.2679478E+02  0.5047326E+01 -0.3648018E+00  0.5420427E+01
Ar  746  0.2941619E+02  0.7983990E+01 -0.3254774E+00  0.1070839E+02
Ar  747  0.2945551E+02  0.5047328E+01  0.2295935E+01  0.5420271E+01
Ar  748  0.2673400E+02  0.7610452E+01  0.2356707E+01  0.1663593E+01
Ar  749  0.2677722E+02  0.4971686E+01  0.4971686E+01  0.2720952E+02
Ar  750  0.2924385E+02  0.7760090E+01  0.5085764E+01  0.4187400E+01
Ar  751  0.2924385E+02  0.5085764E+01  0.7760090E+01  0.4187400E+01
Ar  752  0.2650140E+02  0.7699291E+01  0.7699291E+01  0.1627365E+02
Ar  753  0.2654967E+02  0.5152210E+01  0.1049386E+02  0.3483144E+01
Ar  754  0.2902178E+02  0.7750369E+01  0.1041709E+02  0.1002069E+02
Ar  755  0.2911751E+02  0.5258185E+01  0.1312864E+02  0.6178190E+01
Ar  756  0.2647355E+02  0.7886677E+01  0.1318232E+02  0.6439272E+01
Ar  757  0.2658463E+02  0.5122326E+01  0.1592066E+02  0.1668625E+02
Ar  758  0.2917270E+02  0.7809081E+01  0.1592503E+02  0.4869739E+01
Ar  759  0.2925351E+02  0.5138226E+01  0.1870507E+02  0.7418880E+01
Ar  760  0.2654575E+02  0.7713240E+01  0.1872896E+02  0.7200603E+01
Ar  761  0.2667285E+02  0.5013397E+01  0.2143338E+02  0.9101984E+01
Ar  762  0.2925386E+02  0.7665105E+01  0.2142561E+02  0.6707749E+01
Ar  763  0.2930167E+02  0.4954126E+01  0.2413659E+02  0.1353588E+02
Ar  764  0.2667285E+02  0.7657338E+01  0.2407731E+02  0.9102174E+01
Ar  765  0.2675649E+02  0.4990791E+01  0.2675649E+02  0.9369361E+01
Ar  766  0.2935916E+02  0.7739507E+01  0.2664650E+02  0.1094371E+02
Ar  767  0.2941176E+02  0.5050509E+01  0.2941176E+02  0.1755744E+02
Ar  768  0.2664650E+02  0.7739507E+01  0.2935916E+02  0.1094371E+02
Ar  769  0.2656170E+02  0.1047821E+02 -0.1686093E+00  0.4380242E+01
Ar  770  0.2926151E+02  0.1318794E+02 -0.1707988E+00  0.1994335E+02
Ar  771  0.2925932E+02  0.1047821E+02  0.2529012E+01  0.4380093E+01
Ar  772  0.2650683E+02  0.1308651E+02  0.2583879E+01  0.1661448E+02
Ar  773  0.2654967E+02  0.1049386E+02  0.5152210E+01  0.3483144E+01
Ar  774  0.2911751E+02  0.1312864E+02  0.5258185E+01  0.6178190E+01
Ar  775  0.2902178E+02  0.1041709E+02  0.7750369E+01  0.1002069E+02
Ar  776  0.2647355E+02  0.1318232E+02  0.7886677E+01  0.6439272E+01
Ar  777  0.2648015E+02  0.1041096E+02  0.1041096E+02  0.1948351E+01
Ar  778  0.2902752E+02  0.1318504E+02  0.1047151E+02  0.3770560E+01
Ar  779  0.2902752E+02  0.1047151E+02  0.1318504E+02  0.3770560E+01
Ar  780  0.2635974E+02  0.1314408E+02  0.1314408E+02  0.7256704E+01
Ar  781  0.2636347E+02  0.1046951E+02  0.1593120E+02  0.1274563E+01
Ar  782  0.2891144E+02  0.1315968E+02  0.1593102E+02  0.1194836E+02
Ar  783  0.2912595E+02  0.1046760E+02  0.1862311E+02  0.6573790E+00
Ar  784  0.2636347E+02  0.1315951E+02  0.1862120E+02  0.1274448E+01
Ar  785  0.2654575E+02  0.1036175E+02  0.2137747E+02  0.7200198E+01
Ar  786  0.2917270E+02  0.1316568E+02  0.2128163E+02  0.4869913E+01
Ar  787  0.2925350E+02  0.1038564E+02  0.2395248E+02  0.7418815E+01
Ar  788  0.2658463E+02  0.1317005E+02  0.2396838E+02  0.1668650E+02
Ar  789  0.2656837E+02  0.1044803E+02  0.2656837E+02  0.3555996E+01
Ar  790  0.2921183E+02  0.1316193E+02  0.2659386E+02  0.3948592E+01
Ar  791  0.2926187E+02  0.1047784E+02  0.2926187E+02  0.2194250E+02
Ar  792  0.2659386E+02  0.1316193E+02  0.2921183E+02  0.3948592E+01
Ar  793  0.2659387E+02  0.1592878E+02 -0.1211206E+00  0.3948608E+01
Ar  794  0.2926187E+02  0.1861287E+02 -0.1711604E+00  0.2194200E+02
Ar  795  0.2921183E+02  0.1592878E+02  0.2496844E+01  0.3948733E+01
Ar  796  0.2656837E+02  0.1864268E+02  0.2522343E+01  0.3556066E+01
Ar  797  0.2658463E+02  0.1592066E+02  0.5122326E+01  0.1668625E+02
Ar  798  0.2925351E+02  0.1870507E+02  0.5138226E+01  0.7418880E+01
Ar  799  0.2917270E+02  0.1592503E+02  0.7809081E+01  0.4869739E+01
Ar  800  0.2654575E+02  0.1872896E+02  0.7713240E+01  0.7200603E+01
Ar  801  0.2636347E+02  0.1593120E+02  0.1046951E+02  0.1274563E+01
Ar  802  0.2912595E+02  0.1862311E+02  0.1046760E+02  0.6573790E+00
Ar  803  0.2891144E+02  0.1593102E+02  0.1315968E+02  0.1194836E+02
Ar  804  0.2636347E+02  0.1862120E+02  0.1315951E+02  0.1274448E+01
Ar  805  0.2635974E+02  0.1594663E+02  0.1594663E+02  0.7256548E+01
Ar  806  0.2902752E+02  0.1861920E+02  0.1590567E+02  0.3770518E+01
Ar  807  0.2902752E+02  0.1590567E+02  0.1861920E+02  0.3770518E+01
Ar  808  0.2648015E+02  0.1867975E+02  0.1867975E+02  0.1948571E+01
Ar  809  0.2647355E+02  0.1590839E+02  0.2120403E+02  0.6439164E+01
Ar  810  0.2902178E+02  0.1867362E+02  0.2134034E+02  0.1002093E+02
Ar  811  0.2911751E+02  0.1596207E+02  0.2383253E+02  0.6178177E+01
Ar  812  0.2654967E+02  0.1859685E+02  0.2393850E+02  0.3483124E+01
Ar  813  0.2650683E+02  0.1600420E+02  0.2650683E+02  0.1661483E+02
Ar  814  0.2925932E+02  0.1861250E+02  0.2656170E+02  0.4380195E+01
Ar  815  0.2926151E+02  0.1590277E+02  0.2926151E+02  0.1994301E+02
Ar  816  0.2656170E+02  0.1861250E+02  0.2925932E+02  0.4380195E+01
Ar  817  0.2664651E+02  0.2135121E+02 -0.2684500E+00  0.1094356E+02
Ar  818  0.2941176E+02  0.2404020E+02 -0.3210536E+00  0.1755731E+02
Ar  819  0.2935916E+02  0.2135120E+02  0.2444203E+01  0.1094363E+02
Ar  820  0.2675649E+02  0.2409992E+02  0.2334220E+01  0.9369601E+01
Ar  821  0.2667285E+02  0.2143338E+02  0.5013397E+01  0.9101984E+01
Ar  822  0.2930167E+02  0.2413659E+02  0.4954126E+01  0.1353588E+02
Ar  823  0.2925386E+02  0.2142561E+02  0.7665105E+01  0.6707749E+01
Ar  824  0.2667285E+02  0.2407731E+02  0.7657338E+01  0.9102174E+01
Ar  825  0.2654575E+02  0.2137747E+02  0.1036175E+02  0.7200198E+01
Ar  826  0.2925350E+02  0.2395248E+02  0.1038564E+02  0.7418815E+01
Ar  827  0.2917270E+02  0.2128163E+02  0.1316568E+02  0.4869913E+01
Ar  828  0.2658463E+02  0.2396838E+02  0.1317005E+02  0.1668650E+02
Ar  829  0.2647355E+02  0.2120403E+02  0.1590839E+02  0.6439164E+01
Ar  830  0.2911751E+02  0.2383253E+02  0.1596207E+02  0.6178177E+01
Ar  831  0.2902178E+02  0.2134034E+02  0.1867362E+02  0.1002093E+02
Ar  832  0.2654967E+02  0.2393850E+02  0.1859685E+02  0.3483124E+01
Ar  833  0.2650139E+02  0.2139142E+02  0.2139142E+02  0.1627364E+02
Ar  834  0.2924385E+02  0.2400495E+02  0.2133062E+02  0.4187541E+01
Ar  835  0.2924385E+02  0.2133062E+02  0.2400495E+02  0.4187541E+01
Ar  836  0.2677722E+02  0.2411902E+02  0.2411902E+02  0.2720994E+02
Ar  837  0.2673400E+02  0.2148026E+02  0.2673400E+02  0.1663524E+01
Ar  838  0.2945551E+02  0.2404338E+02  0.2679478E+02  0.5420369E+01
Ar  839  0.2941619E+02  0.2110672E+02  0.2941619E+02  0.1070830E+02
Ar  840  0.2679478E+02  0.2404338E+02  0.2945551E+02  0.5420369E+01
Ar  841  0.2684710E+02  0.2684710E+02 -0.4712064E+00  0.3138466E+02
Ar  842  0.2976097E+02  0.2976097E+02 -0.6702643E+00  0.4923042E+01
Ar  843  0.2956192E+02  0.2684709E+02  0.2243616E+01  0.3138511E+02
Ar  844  0.2684709E+02  0.2956192E+02  0.2243616E+01  0.3138511E+02
Ar  845  0.2675649E+02  0.2675649E+02  0.4990791E+01  0.9369361E+01
Ar  846  0.2941176E+02  0.2941176E+02  0.5050509E+01  0.1755744E+02
Ar  847  0.2935916E+02  0.2664650E+02  0.7739507E+01  0.1094371E+02
Ar  848  0.2664650E+02  0.2935916E+02  0.7739507E+01  0.1094371E+02
Ar  849  0.2656837E+02  0.2656837E+02  0.1044803E+02  0.3555996E+01
Ar  850  0.2926187E+02  0.2926187E+02  0.1047784E+02  0.2194250E+02
Ar  851  0.2921183E+02  0.2659386E+02  0.1316193E+02  0.3948592E+01
Ar  852  0.2659386E+02  0.2921183E+02  0.1316193E+02  0.3948592E+01
Ar  853  0.2650683E+02  0.2650683E+02  0.1600420E+02  0.1661483E+02
Ar  854  0.2926151E+02  0.2926151E+02  0.1590277E+02  0.1994301E+02
Ar  855  0.2925932E+02  0.2656170E+02  0.1861250E+02  0.4380195E+01
Ar  856  0.2656170E+02  0.2925932E+02  0.1861250E+02  0.4380195E+01
Ar  857  0.2673400E+02  0.2673400E+02  0.2148026E+02  0.1663524E+01
Ar  858  0.2941619E+02  0.2941619E+02  0.2110672E+02  0.1070830E+02
Ar  859  0.2945551E+02  0.2679478E+02  0.2404338E+02  0.5420369E+01
Ar  860  0.2679478E+02  0.2945551E+02  0.2404338E+02  0.5420369E+01
Ar  861  0.2686212E+02  0.2686212E+02  0.2686212E+02  0.1794145E+00
Ar  862  0.2947944E+02  0.2947944E+02  0.2675875E+02  0.1704413E+02
Ar  863  0.2947944E+02  0.2675875E+02  0.2947944E+02  0.1704413E+02
Ar  864  0.2675875E+02  0.2947944E+02  0.2947944E+02  0.1704413E+02
