        1372
Lattice="  0.3778015E+02  0.0000000E+00  0.0000000E+00  0.0000000E+00  0.3778015E+02  0.0000000E+00  0.0000000E+00  0.0000000E+00  0.3778015E+02" Properties=species:S:1:id:I:1:pos:R:3:tempK:R:1
Ar    1  0.3765948E+02  0.3765948E+02  0.3765948E+02  0.4162801E+02
Ar    2  0.2278814E+01  0.2278814E+01  0.3641345E+02  0.5249175E+03
Ar    3  0.2278814E+01  0.3641345E+02  0.2278814E+01  0.5249175E+03
Ar    4  0.3641345E+02  0.2278814E+01  0.2278814E+01  0.5249175E+03
Ar    5  0.3729163E+02  0.3729163E+02  0.3816898E+01  0.1090279E+02
Ar    6  0.1885083E+01  0.1885083E+01  0.5230969E+01  0.1678318E+03
Ar    7  0.2175467E+01  0.3725283E+02  0.7206165E+01  0.1857459E+03
Ar    8  0.3725283E+02  0.2175467E+01  0.7206165E+01  0.1857459E+03
Ar    9  0.3696388E+02  0.3696388E+02  0.1162500E+02  0.9474887E+03
Ar   10  0.1914487E+01  0.1914487E+01  0.1035145E+02  0.1219233E+04
Ar   11  0.2464027E+01  0.3704879E+02  0.1288855E+02  0.1003267E+03
Ar   12  0.3704879E+02  0.2464027E+01  0.1288855E+02  0.1003267E+03
Ar   13  0.3713588E+02  0.3713588E+02  0.1562142E+02  0.1539034E+03
Ar   14  0.1816244E+01  0.1816244E+01  0.1540370E+02  0.2941600E+03
Ar   15  0.2120784E+01  0.3728030E+02  0.1911287E+02  0.8370634E+03
Ar   16  0.3728030E+02  0.2120784E+01  0.1911287E+02  0.8370634E+03
Ar   17  0.3769175E+02  0.3769175E+02  0.2195467E+02  0.2196650E+03
Ar   18  0.2374486E+01  0.2374486E+01  0.2162083E+02  0.1185172E+04
Ar   19  0.2525106E+01  0.3741554E+02  0.2385395E+02  0.1866043E+03
Ar   20  0.3741554E+02  0.2525106E+01  0.2385395E+02  0.1866043E+03
Ar   21  0.3740347E+02  0.3740347E+02  0.2625363E+02  0.2251295E+03
Ar   22  0.2303314E+01  0.2303314E+01  0.2647461E+02  0.4094440E+03
Ar   23  0.2820561E+01  0.3738795E+02  0.2894988E+02  0.2186200E+03
Ar   24  0.3738795E+02  0.2820561E+01  0.2894988E+02  0.2186200E+03
Ar   25  0.3732776E+02  0.3732776E+02  0.3066853E+02  0.4701317E+03
Ar   26  0.2186875E+01  0.2186875E+01  0.3208792E+02  0.5438869E+03
Ar   27  0.1611292E+01  0.3696168E+02  0.3408331E+02  0.6319792E+02
Ar   28  0.3696168E+02  0.1611292E+01  0.3408331E+02  0.6319792E+02
Ar   29  0.3729163E+02  0.3816898E+01  0.3729163E+02  0.1090279E+02
Ar   30  0.2175467E+01  0.7206165E+01  0.3725283E+02  0.1857459E+03
Ar   31  0.1885083E+01  0.5230969E+01  0.1885083E+01  0.1678318E+03
Ar   32  0.3725283E+02  0.7206165E+01  0.2175467E+01  0.1857459E+03
Ar   33  0.3654035E+02  0.5000533E+01  0.5000533E+01  0.1460481E+04
Ar   34  0.2247329E+01  0.7066665E+01  0.4794015E+01  0.2505870E+03
Ar   35  0.2247329E+01  0.4794015E+01  0.7066665E+01  0.2505870E+03
Ar   36  0.1977167E+00  0.7521725E+01  0.7521725E+01  0.2416768E+03
Ar   37  0.3729430E+02  0.4765032E+01  0.1033216E+02  0.4155758E+03
Ar   38  0.2133701E+01  0.7251843E+01  0.1040180E+02  0.6646264E+03
Ar   39  0.2277522E+01  0.4990958E+01  0.1306009E+02  0.2437396E+03
Ar   40  0.3743107E+02  0.7789909E+01  0.1351691E+02  0.1708198E+03
Ar   41  0.3734644E+02  0.4725358E+01  0.1602228E+02  0.1842722E+03
Ar   42  0.2206836E+01  0.7120724E+01  0.1579517E+02  0.4757862E+03
Ar   43  0.1868862E+01  0.4741020E+01  0.1853324E+02  0.8536131E+02
Ar   44  0.7334150E-01  0.7428396E+01  0.1901079E+02  0.3082739E+03
Ar   45  0.3746505E+02  0.4788684E+01  0.2136139E+02  0.1591320E+03
Ar   46  0.2330004E+01  0.7968227E+01  0.2151489E+02  0.1415511E+03
Ar   47  0.2104295E+01  0.5525504E+01  0.2393388E+02  0.2118354E+02
Ar   48  0.3734392E+02  0.8543134E+01  0.2431920E+02  0.2058507E+03
Ar   49  0.3746006E+02  0.5598563E+01  0.2679631E+02  0.3094421E+03
Ar   50  0.2091601E+01  0.7901003E+01  0.2650713E+02  0.3847014E+03
Ar   51  0.2523735E+01  0.5098626E+01  0.2877894E+02  0.2086702E+03
Ar   52  0.3756818E+02  0.8052399E+01  0.2933472E+02  0.2683477E+03
Ar   53  0.3718099E+02  0.5553703E+01  0.3163565E+02  0.2075003E+03
Ar   54  0.2325669E+01  0.7390183E+01  0.3198467E+02  0.8993259E+03
Ar   55  0.1418926E+01  0.5025623E+01  0.3436311E+02  0.1643629E+03
Ar   56  0.3728103E+02  0.8525721E+01  0.3411446E+02  0.6927923E+03
Ar   57  0.3696388E+02  0.1162500E+02  0.3696388E+02  0.9474887E+03
Ar   58  0.2464027E+01  0.1288855E+02  0.3704879E+02  0.1003267E+03
Ar   59  0.1914487E+01  0.1035145E+02  0.1914487E+01  0.1219233E+04
Ar   60  0.3704879E+02  0.1288855E+02  0.2464027E+01  0.1003267E+03
Ar   61  0.3729430E+02  0.1033216E+02  0.4765032E+01  0.4155758E+03
Ar   62  0.2277522E+01  0.1306009E+02  0.4990958E+01  0.2437396E+03
Ar   63  0.2133701E+01  0.1040180E+02  0.7251843E+01  0.6646264E+03
Ar   64  0.3743107E+02  0.1351691E+02  0.7789909E+01  0.1708198E+03
Ar   65  0.3713502E+02  0.1013262E+02  0.1013262E+02  0.4374592E+03
Ar   66  0.2722255E+01  0.1263729E+02  0.1033698E+02  0.1671656E+03
Ar   67  0.2722255E+01  0.1033698E+02  0.1263729E+02  0.1671656E+03
Ar   68  0.2751538E+00  0.1327320E+02  0.1327320E+02  0.4887503E+03
Ar   69  0.4138168E-02  0.9757994E+01  0.1628262E+02  0.1058516E+03
Ar   70  0.2241135E+01  0.1333954E+02  0.1614868E+02  0.1465456E+03
Ar   71  0.2599856E+01  0.1022436E+02  0.1855950E+02  0.3344016E+03
Ar   72  0.3728050E+02  0.1369661E+02  0.1865614E+02  0.3301787E+02
Ar   73  0.3708389E+02  0.1035119E+02  0.2131504E+02  0.1478423E+03
Ar   74  0.1782135E+01  0.1255598E+02  0.2094425E+02  0.3680694E+03
Ar   75  0.2244728E+01  0.1048652E+02  0.2392419E+02  0.3934534E+03
Ar   76  0.3659095E+02  0.1274525E+02  0.2365461E+02  0.4852157E+03
Ar   77  0.3764050E+02  0.1077328E+02  0.2688483E+02  0.1599915E+03
Ar   78  0.2271343E+01  0.1326257E+02  0.2644179E+02  0.2469107E+03
Ar   79  0.2465197E+01  0.1046236E+02  0.2891819E+02  0.1315095E+03
Ar   80  0.3756599E+02  0.1341261E+02  0.2917341E+02  0.6629501E+01
Ar   81  0.3711841E+02  0.1084137E+02  0.3151941E+02  0.4496671E+03
Ar   82  0.2333868E+01  0.1290721E+02  0.3164851E+02  0.1478738E+03
Ar   83  0.2287755E+01  0.1032525E+02  0.3438151E+02  0.4250272E+03
Ar   84  0.2840485E+00  0.1308925E+02  0.3408292E+02  0.2207920E+03
Ar   85  0.3713588E+02  0.1562142E+02  0.3713588E+02  0.1539034E+03
Ar   86  0.2120784E+01  0.1911287E+02  0.3728030E+02  0.8370634E+03
Ar   87  0.1816244E+01  0.1540370E+02  0.1816244E+01  0.2941600E+03
Ar   88  0.3728030E+02  0.1911287E+02  0.2120784E+01  0.8370634E+03
Ar   89  0.3734644E+02  0.1602228E+02  0.4725358E+01  0.1842722E+03
Ar   90  0.1868862E+01  0.1853324E+02  0.4741020E+01  0.8536131E+02
Ar   91  0.2206836E+01  0.1579517E+02  0.7120724E+01  0.4757862E+03
Ar   92  0.7334150E-01  0.1901079E+02  0.7428396E+01  0.3082739E+03
Ar   93  0.4138168E-02  0.1628262E+02  0.9757994E+01  0.1058516E+03
Ar   94  0.2599856E+01  0.1855950E+02  0.1022436E+02  0.3344016E+03
Ar   95  0.2241135E+01  0.1614868E+02  0.1333954E+02  0.1465456E+03
Ar   96  0.3728050E+02  0.1865614E+02  0.1369661E+02  0.3301787E+02
Ar   97  0.1703484E+00  0.1618314E+02  0.1618314E+02  0.9394942E+02
Ar   98  0.2196460E+01  0.1863704E+02  0.1620579E+02  0.3936193E+03
Ar   99  0.2196460E+01  0.1620579E+02  0.1863704E+02  0.3936193E+03
Ar  100  0.3688234E+02  0.1894669E+02  0.1894669E+02  0.3328916E+02
Ar  101  0.3729489E+02  0.1586173E+02  0.2138108E+02  0.3151647E+03
Ar  102  0.2194365E+01  0.1894808E+02  0.2190678E+02  0.2468573E+03
Ar  103  0.1992317E+01  0.1554250E+02  0.2391192E+02  0.9634621E+02
Ar  104  0.3742875E+02  0.1833752E+02  0.2395039E+02  0.2219820E+03
Ar  105  0.3763416E+02  0.1616395E+02  0.2681639E+02  0.1589349E+03
Ar  106  0.2440358E+01  0.1867052E+02  0.2680474E+02  0.5846922E+02
Ar  107  0.2127387E+01  0.1586546E+02  0.2928133E+02  0.8366604E+03
Ar  108  0.2038430E+00  0.1904814E+02  0.2936220E+02  0.1635926E+03
Ar  109  0.2883153E+00  0.1614331E+02  0.3220298E+02  0.2117178E+03
Ar  110  0.2491009E+01  0.1860233E+02  0.3280616E+02  0.7447142E+02
Ar  111  0.2372660E+01  0.1618497E+02  0.3469412E+02  0.7198935E+03
Ar  112  0.3764378E+02  0.1880379E+02  0.3490509E+02  0.3122403E+02
Ar  113  0.3769175E+02  0.2195467E+02  0.3769175E+02  0.2196650E+03
Ar  114  0.2525106E+01  0.2385395E+02  0.3741554E+02  0.1866043E+03
Ar  115  0.2374486E+01  0.2162083E+02  0.2374486E+01  0.1185172E+04
Ar  116  0.3741554E+02  0.2385395E+02  0.2525106E+01  0.1866043E+03
Ar  117  0.3746505E+02  0.2136139E+02  0.4788684E+01  0.1591320E+03
Ar  118  0.2104295E+01  0.2393388E+02  0.5525504E+01  0.2118354E+02
Ar  119  0.2330004E+01  0.2151489E+02  0.7968227E+01  0.1415511E+03
Ar  120  0.3734392E+02  0.2431920E+02  0.8543134E+01  0.2058507E+03
Ar  121  0.3708389E+02  0.2131504E+02  0.1035119E+02  0.1478423E+03
Ar  122  0.2244728E+01  0.2392419E+02  0.1048652E+02  0.3934534E+03
Ar  123  0.1782135E+01  0.2094425E+02  0.1255598E+02  0.3680694E+03
Ar  124  0.3659095E+02  0.2365461E+02  0.1274525E+02  0.4852157E+03
Ar  125  0.3729489E+02  0.2138108E+02  0.1586173E+02  0.3151647E+03
Ar  126  0.1992317E+01  0.2391192E+02  0.1554250E+02  0.9634621E+02
Ar  127  0.2194365E+01  0.2190678E+02  0.1894808E+02  0.2468573E+03
Ar  128  0.3742875E+02  0.2395039E+02  0.1833752E+02  0.2219820E+03
Ar  129  0.3678257E+02  0.2199800E+02  0.2199800E+02  0.1824737E+02
Ar  130  0.2480642E+01  0.2454639E+02  0.2139655E+02  0.6303349E+02
Ar  131  0.2480642E+01  0.2139655E+02  0.2454639E+02  0.6303349E+02
Ar  132  0.3666735E+02  0.2453375E+02  0.2453375E+02  0.5684168E+02
Ar  133  0.3744176E+02  0.2158768E+02  0.2647743E+02  0.1008828E+03
Ar  134  0.2184819E+01  0.2434077E+02  0.2658909E+02  0.2463023E+03
Ar  135  0.2945764E+01  0.2166679E+02  0.2914258E+02  0.5466296E+03
Ar  136  0.3760047E+02  0.2356718E+02  0.2940133E+02  0.3158873E+03
Ar  137  0.3767064E+02  0.2147159E+02  0.3213807E+02  0.1340729E+03
Ar  138  0.2393736E+01  0.2366729E+02  0.3179952E+02  0.8511932E+02
Ar  139  0.2080483E+01  0.2142302E+02  0.3468388E+02  0.4239577E+03
Ar  140  0.3750615E+02  0.2406425E+02  0.3462292E+02  0.9441924E+02
Ar  141  0.3740347E+02  0.2625363E+02  0.3740347E+02  0.2251295E+03
Ar  142  0.2820561E+01  0.2894988E+02  0.3738795E+02  0.2186200E+03
Ar  143  0.2303314E+01  0.2647461E+02  0.2303314E+01  0.4094440E+03
Ar  144  0.3738795E+02  0.2894988E+02  0.2820561E+01  0.2186200E+03
Ar  145  0.3746006E+02  0.2679631E+02  0.5598563E+01  0.3094421E+03
Ar  146  0.2523735E+01  0.2877894E+02  0.5098626E+01  0.2086702E+03
Ar  147  0.2091601E+01  0.2650713E+02  0.7901003E+01  0.3847014E+03
Ar  148  0.3756818E+02  0.2933472E+02  0.8052399E+01  0.2683477E+03
Ar  149  0.3764050E+02  0.2688483E+02  0.1077328E+02  0.1599915E+03
Ar  150  0.2465197E+01  0.2891819E+02  0.1046236E+02  0.1315095E+03
Ar  151  0.2271343E+01  0.2644179E+02  0.1326257E+02  0.2469107E+03
Ar  152  0.3756599E+02  0.2917341E+02  0.1341261E+02  0.6629501E+01
Ar  153  0.3763416E+02  0.2681639E+02  0.1616395E+02  0.1589349E+03
Ar  154  0.2127387E+01  0.2928133E+02  0.1586546E+02  0.8366604E+03
Ar  155  0.2440358E+01  0.2680474E+02  0.1867052E+02  0.5846922E+02
Ar  156  0.2038430E+00  0.2936220E+02  0.1904814E+02  0.1635926E+03
Ar  157  0.3744176E+02  0.2647743E+02  0.2158768E+02  0.1008828E+03
Ar  158  0.2945764E+01  0.2914258E+02  0.2166679E+02  0.5466296E+03
Ar  159  0.2184819E+01  0.2658909E+02  0.2434077E+02  0.2463023E+03
Ar  160  0.3760047E+02  0.2940133E+02  0.2356718E+02  0.3158873E+03
Ar  161  0.3706897E+02  0.2682082E+02  0.2682082E+02  0.1991098E+03
Ar  162  0.2851001E+01  0.2901542E+02  0.2661093E+02  0.2894223E+02
Ar  163  0.2851001E+01  0.2661093E+02  0.2901542E+02  0.2894223E+02
Ar  164  0.1147496E+00  0.2910043E+02  0.2910043E+02  0.3574879E+02
Ar  165  0.3764557E+02  0.2642912E+02  0.3236984E+02  0.2608356E+03
Ar  166  0.3130827E+01  0.2933366E+02  0.3200728E+02  0.5953130E+02
Ar  167  0.2676556E+01  0.2663878E+02  0.3479911E+02  0.3337230E+03
Ar  168  0.3777282E+02  0.2925372E+02  0.3433452E+02  0.4317951E+03
Ar  169  0.3732776E+02  0.3066853E+02  0.3732776E+02  0.4701317E+03
Ar  170  0.1611292E+01  0.3408331E+02  0.3696168E+02  0.6319792E+02
Ar  171  0.2186875E+01  0.3208792E+02  0.2186875E+01  0.5438869E+03
Ar  172  0.3696168E+02  0.3408331E+02  0.1611292E+01  0.6319792E+02
Ar  173  0.3718099E+02  0.3163565E+02  0.5553703E+01  0.2075003E+03
Ar  174  0.1418926E+01  0.3436311E+02  0.5025623E+01  0.1643629E+03
Ar  175  0.2325669E+01  0.3198467E+02  0.7390183E+01  0.8993259E+03
Ar  176  0.3728103E+02  0.3411446E+02  0.8525721E+01  0.6927923E+03
Ar  177  0.3711841E+02  0.3151941E+02  0.1084137E+02  0.4496671E+03
Ar  178  0.2287755E+01  0.3438151E+02  0.1032525E+02  0.4250272E+03
Ar  179  0.2333868E+01  0.3164851E+02  0.1290721E+02  0.1478738E+03
Ar  180  0.2840485E+00  0.3408292E+02  0.1308925E+02  0.2207920E+03
Ar  181  0.2883153E+00  0.3220298E+02  0.1614331E+02  0.2117178E+03
Ar  182  0.2372660E+01  0.3469412E+02  0.1618497E+02  0.7198935E+03
Ar  183  0.2491009E+01  0.3280616E+02  0.1860233E+02  0.7447142E+02
Ar  184  0.3764378E+02  0.3490509E+02  0.1880379E+02  0.3122403E+02
Ar  185  0.3767064E+02  0.3213807E+02  0.2147159E+02  0.1340729E+03
Ar  186  0.2080483E+01  0.3468388E+02  0.2142302E+02  0.4239577E+03
Ar  187  0.2393736E+01  0.3179952E+02  0.2366729E+02  0.8511932E+02
Ar  188  0.3750615E+02  0.3462292E+02  0.2406425E+02  0.9441924E+02
Ar  189  0.3764557E+02  0.3236984E+02  0.2642912E+02  0.2608356E+03
Ar  190  0.2676556E+01  0.3479911E+02  0.2663878E+02  0.3337230E+03
Ar  191  0.3130827E+01  0.3200728E+02  0.2933366E+02  0.5953130E+02
Ar  192  0.3777282E+02  0.3433452E+02  0.2925372E+02  0.4317951E+03
Ar  193  0.3743909E+00  0.3169361E+02  0.3169361E+02  0.3694050E+03
Ar  194  0.2703521E+01  0.3510550E+02  0.3134933E+02  0.3540231E+03
Ar  195  0.2703521E+01  0.3134933E+02  0.3510550E+02  0.3540231E+03
Ar  196  0.3690073E+02  0.3461978E+02  0.3461978E+02  0.1730279E+03
Ar  197  0.3816898E+01  0.3729163E+02  0.3729163E+02  0.1090279E+02
Ar  198  0.7206165E+01  0.2175467E+01  0.3725283E+02  0.1857459E+03
Ar  199  0.7206165E+01  0.3725283E+02  0.2175467E+01  0.1857459E+03
Ar  200  0.5230969E+01  0.1885083E+01  0.1885083E+01  0.1678318E+03
Ar  201  0.5000533E+01  0.3654035E+02  0.5000533E+01  0.1460481E+04
Ar  202  0.7066665E+01  0.2247329E+01  0.4794015E+01  0.2505870E+03
Ar  203  0.7521725E+01  0.1977167E+00  0.7521725E+01  0.2416768E+03
Ar  204  0.4794015E+01  0.2247329E+01  0.7066665E+01  0.2505870E+03
Ar  205  0.4765032E+01  0.3729430E+02  0.1033216E+02  0.4155758E+03
Ar  206  0.7251843E+01  0.2133701E+01  0.1040180E+02  0.6646264E+03
Ar  207  0.7789909E+01  0.3743107E+02  0.1351691E+02  0.1708198E+03
Ar  208  0.4990958E+01  0.2277522E+01  0.1306009E+02  0.2437396E+03
Ar  209  0.4725358E+01  0.3734644E+02  0.1602228E+02  0.1842722E+03
Ar  210  0.7120724E+01  0.2206836E+01  0.1579517E+02  0.4757862E+03
Ar  211  0.7428396E+01  0.7334150E-01  0.1901079E+02  0.3082739E+03
Ar  212  0.4741020E+01  0.1868862E+01  0.1853324E+02  0.8536131E+02
Ar  213  0.4788684E+01  0.3746505E+02  0.2136139E+02  0.1591320E+03
Ar  214  0.7968227E+01  0.2330004E+01  0.2151489E+02  0.1415511E+03
Ar  215  0.8543134E+01  0.3734392E+02  0.2431920E+02  0.2058507E+03
Ar  216  0.5525504E+01  0.2104295E+01  0.2393388E+02  0.2118354E+02
Ar  217  0.5598563E+01  0.3746006E+02  0.2679631E+02  0.3094421E+03
Ar  218  0.7901003E+01  0.2091601E+01  0.2650713E+02  0.3847014E+03
Ar  219  0.8052399E+01  0.3756818E+02  0.2933472E+02  0.2683477E+03
Ar  220  0.5098626E+01  0.2523735E+01  0.2877894E+02  0.2086702E+03
Ar  221  0.5553703E+01  0.3718099E+02  0.3163565E+02  0.2075003E+03
Ar  222  0.7390183E+01  0.2325669E+01  0.3198467E+02  0.8993259E+03
Ar  223  0.8525721E+01  0.3728103E+02  0.3411446E+02  0.6927923E+03
Ar  224  0.5025623E+01  0.1418926E+01  0.3436311E+02  0.1643629E+03
Ar  225  0.5000533E+01  0.5000533E+01  0.3654035E+02  0.1460481E+04
Ar  226  0.7521725E+01  0.7521725E+01  0.1977167E+00  0.2416768E+03
Ar  227  0.7066665E+01  0.4794015E+01  0.2247329E+01  0.2505870E+03
Ar  228  0.4794015E+01  0.7066665E+01  0.2247329E+01  0.2505870E+03
Ar  229  0.5268807E+01  0.5268807E+01  0.5268807E+01  0.6185994E+03
Ar  230  0.7683116E+01  0.7683116E+01  0.4954701E+01  0.5258361E+03
Ar  231  0.7683116E+01  0.4954701E+01  0.7683116E+01  0.5258361E+03
Ar  232  0.4954701E+01  0.7683116E+01  0.7683116E+01  0.5258361E+03
Ar  233  0.4608257E+01  0.4608257E+01  0.1032397E+02  0.1736187E+03
Ar  234  0.7747975E+01  0.7747975E+01  0.1029966E+02  0.2044493E+03
Ar  235  0.7718085E+01  0.4789333E+01  0.1254506E+02  0.1875581E+03
Ar  236  0.4789333E+01  0.7718085E+01  0.1254506E+02  0.1875581E+03
Ar  237  0.4852205E+01  0.4852205E+01  0.1562368E+02  0.2297172E+02
Ar  238  0.7233801E+01  0.7233801E+01  0.1606609E+02  0.3851395E+02
Ar  239  0.7610506E+01  0.4903150E+01  0.1831740E+02  0.2433813E+03
Ar  240  0.4903150E+01  0.7610506E+01  0.1831740E+02  0.2433813E+03
Ar  241  0.4849186E+01  0.4849186E+01  0.2139362E+02  0.5991836E+02
Ar  242  0.7689625E+01  0.7689625E+01  0.2082990E+02  0.1791613E+03
Ar  243  0.7734660E+01  0.5245561E+01  0.2420118E+02  0.2321073E+03
Ar  244  0.5245561E+01  0.7734660E+01  0.2420118E+02  0.2321073E+03
Ar  245  0.5063800E+01  0.5063800E+01  0.2614741E+02  0.7186020E+03
Ar  246  0.8171369E+01  0.8171369E+01  0.2640677E+02  0.1786715E+02
Ar  247  0.7631378E+01  0.4864037E+01  0.2928666E+02  0.1817364E+03
Ar  248  0.4864037E+01  0.7631378E+01  0.2928666E+02  0.1817364E+03
Ar  249  0.4744650E+01  0.4744650E+01  0.3158771E+02  0.4546977E+02
Ar  250  0.7629924E+01  0.7629924E+01  0.3156874E+02  0.7605546E+03
Ar  251  0.7825750E+01  0.4887073E+01  0.3440860E+02  0.1929951E+02
Ar  252  0.4887073E+01  0.7825750E+01  0.3440860E+02  0.1929951E+02
Ar  253  0.4765032E+01  0.1033216E+02  0.3729430E+02  0.4155758E+03
Ar  254  0.7789909E+01  0.1351691E+02  0.3743107E+02  0.1708198E+03
Ar  255  0.7251843E+01  0.1040180E+02  0.2133701E+01  0.6646264E+03
Ar  256  0.4990958E+01  0.1306009E+02  0.2277522E+01  0.2437396E+03
Ar  257  0.4608257E+01  0.1032397E+02  0.4608257E+01  0.1736187E+03
Ar  258  0.7718085E+01  0.1254506E+02  0.4789333E+01  0.1875581E+03
Ar  259  0.7747975E+01  0.1029966E+02  0.7747975E+01  0.2044493E+03
Ar  260  0.4789333E+01  0.1254506E+02  0.7718085E+01  0.1875581E+03
Ar  261  0.5157892E+01  0.1021612E+02  0.1021612E+02  0.4472762E+03
Ar  262  0.7765373E+01  0.1342456E+02  0.1009657E+02  0.1686311E+03
Ar  263  0.7765373E+01  0.1009657E+02  0.1342456E+02  0.1686311E+03
Ar  264  0.5511294E+01  0.1288385E+02  0.1288385E+02  0.4926481E+03
Ar  265  0.4499013E+01  0.1020329E+02  0.1557007E+02  0.1183014E+03
Ar  266  0.7928125E+01  0.1289739E+02  0.1558871E+02  0.7057420E+02
Ar  267  0.7109001E+01  0.1056889E+02  0.1787737E+02  0.6791121E+03
Ar  268  0.4667279E+01  0.1323820E+02  0.1890605E+02  0.1685202E+03
Ar  269  0.5123505E+01  0.9696879E+01  0.2136823E+02  0.1779238E+03
Ar  270  0.7794479E+01  0.1303218E+02  0.2102962E+02  0.2421320E+03
Ar  271  0.8028330E+01  0.1028693E+02  0.2357423E+02  0.1276078E+03
Ar  272  0.4944377E+01  0.1332001E+02  0.2334942E+02  0.5434530E+02
Ar  273  0.5209148E+01  0.1072384E+02  0.2576613E+02  0.1751712E+03
Ar  274  0.8166680E+01  0.1307978E+02  0.2597458E+02  0.1837109E+03
Ar  275  0.7301456E+01  0.1056828E+02  0.2898887E+02  0.5521999E+02
Ar  276  0.4768784E+01  0.1333156E+02  0.2895736E+02  0.9957998E+02
Ar  277  0.4978870E+01  0.1038574E+02  0.3188821E+02  0.1179507E+04
Ar  278  0.7454782E+01  0.1371213E+02  0.3267036E+02  0.7891074E+02
Ar  279  0.7251389E+01  0.1049069E+02  0.3536389E+02  0.1969526E+03
Ar  280  0.4816549E+01  0.1260030E+02  0.3437976E+02  0.1181735E+02
Ar  281  0.4725358E+01  0.1602228E+02  0.3734644E+02  0.1842722E+03
Ar  282  0.7428396E+01  0.1901079E+02  0.7334150E-01  0.3082739E+03
Ar  283  0.7120724E+01  0.1579517E+02  0.2206836E+01  0.4757862E+03
Ar  284  0.4741020E+01  0.1853324E+02  0.1868862E+01  0.8536131E+02
Ar  285  0.4852205E+01  0.1562368E+02  0.4852205E+01  0.2297172E+02
Ar  286  0.7610506E+01  0.1831740E+02  0.4903150E+01  0.2433813E+03
Ar  287  0.7233801E+01  0.1606609E+02  0.7233801E+01  0.3851395E+02
Ar  288  0.4903150E+01  0.1831740E+02  0.7610506E+01  0.2433813E+03
Ar  289  0.4499013E+01  0.1557007E+02  0.1020329E+02  0.1183014E+03
Ar  290  0.7109001E+01  0.1787737E+02  0.1056889E+02  0.6791121E+03
Ar  291  0.7928125E+01  0.1558871E+02  0.1289739E+02  0.7057420E+02
Ar  292  0.4667279E+01  0.1890605E+02  0.1323820E+02  0.1685202E+03
Ar  293  0.4806523E+01  0.1610837E+02  0.1610837E+02  0.6538501E+03
Ar  294  0.7444124E+01  0.1851120E+02  0.1572056E+02  0.1389387E+03
Ar  295  0.7444124E+01  0.1572056E+02  0.1851120E+02  0.1389387E+03
Ar  296  0.5070838E+01  0.1846301E+02  0.1846301E+02  0.1109702E+02
Ar  297  0.4466633E+01  0.1621327E+02  0.2149493E+02  0.2254805E+03
Ar  298  0.6747423E+01  0.1887943E+02  0.2158056E+02  0.2732984E+02
Ar  299  0.7927159E+01  0.1581396E+02  0.2320381E+02  0.1188846E+03
Ar  300  0.4662659E+01  0.1848238E+02  0.2440149E+02  0.1022902E+03
Ar  301  0.4456603E+01  0.1608260E+02  0.2679126E+02  0.3822367E+02
Ar  302  0.8334756E+01  0.1840371E+02  0.2620673E+02  0.5280999E+03
Ar  303  0.7397509E+01  0.1577362E+02  0.2913548E+02  0.1553078E+03
Ar  304  0.4824160E+01  0.1846026E+02  0.2961438E+02  0.8350738E+02
Ar  305  0.4678423E+01  0.1557089E+02  0.3204344E+02  0.2334624E+03
Ar  306  0.7272308E+01  0.1857846E+02  0.3183459E+02  0.1354619E+03
Ar  307  0.7372664E+01  0.1663750E+02  0.3514720E+02  0.1414077E+04
Ar  308  0.5035070E+01  0.1952536E+02  0.3450280E+02  0.1175515E+03
Ar  309  0.4788684E+01  0.2136139E+02  0.3746505E+02  0.1591320E+03
Ar  310  0.8543134E+01  0.2431920E+02  0.3734392E+02  0.2058507E+03
Ar  311  0.7968227E+01  0.2151489E+02  0.2330004E+01  0.1415511E+03
Ar  312  0.5525504E+01  0.2393388E+02  0.2104295E+01  0.2118354E+02
Ar  313  0.4849186E+01  0.2139362E+02  0.4849186E+01  0.5991836E+02
Ar  314  0.7734660E+01  0.2420118E+02  0.5245561E+01  0.2321073E+03
Ar  315  0.7689625E+01  0.2082990E+02  0.7689625E+01  0.1791613E+03
Ar  316  0.5245561E+01  0.2420118E+02  0.7734660E+01  0.2321073E+03
Ar  317  0.5123505E+01  0.2136823E+02  0.9696879E+01  0.1779238E+03
Ar  318  0.8028330E+01  0.2357423E+02  0.1028693E+02  0.1276078E+03
Ar  319  0.7794479E+01  0.2102962E+02  0.1303218E+02  0.2421320E+03
Ar  320  0.4944377E+01  0.2334942E+02  0.1332001E+02  0.5434530E+02
Ar  321  0.4466633E+01  0.2149493E+02  0.1621327E+02  0.2254805E+03
Ar  322  0.7927159E+01  0.2320381E+02  0.1581396E+02  0.1188846E+03
Ar  323  0.6747423E+01  0.2158056E+02  0.1887943E+02  0.2732984E+02
Ar  324  0.4662659E+01  0.2440149E+02  0.1848238E+02  0.1022902E+03
Ar  325  0.5294655E+01  0.2195711E+02  0.2195711E+02  0.4480035E+03
Ar  326  0.8318776E+01  0.2372750E+02  0.2132896E+02  0.2492024E+03
Ar  327  0.8318776E+01  0.2132896E+02  0.2372750E+02  0.2492024E+03
Ar  328  0.4611995E+01  0.2406758E+02  0.2406758E+02  0.4790443E+03
Ar  329  0.5695391E+01  0.2107149E+02  0.2647274E+02  0.8417630E+02
Ar  330  0.7686299E+01  0.2362863E+02  0.2614960E+02  0.2826442E+03
Ar  331  0.7618428E+01  0.2119043E+02  0.2938918E+02  0.5266359E+02
Ar  332  0.5551762E+01  0.2429966E+02  0.2931113E+02  0.1785045E+03
Ar  333  0.5099459E+01  0.2134926E+02  0.3191676E+02  0.1029528E+02
Ar  334  0.7603455E+01  0.2397656E+02  0.3196233E+02  0.6113915E+03
Ar  335  0.7890779E+01  0.2139634E+02  0.3456729E+02  0.2776125E+03
Ar  336  0.5242708E+01  0.2418040E+02  0.3485382E+02  0.8168201E+03
Ar  337  0.5598563E+01  0.2679631E+02  0.3746006E+02  0.3094421E+03
Ar  338  0.8052399E+01  0.2933472E+02  0.3756818E+02  0.2683477E+03
Ar  339  0.7901003E+01  0.2650713E+02  0.2091601E+01  0.3847014E+03
Ar  340  0.5098626E+01  0.2877894E+02  0.2523735E+01  0.2086702E+03
Ar  341  0.5063800E+01  0.2614741E+02  0.5063800E+01  0.7186020E+03
Ar  342  0.7631378E+01  0.2928666E+02  0.4864037E+01  0.1817364E+03
Ar  343  0.8171369E+01  0.2640677E+02  0.8171369E+01  0.1786715E+02
Ar  344  0.4864037E+01  0.2928666E+02  0.7631378E+01  0.1817364E+03
Ar  345  0.5209148E+01  0.2576613E+02  0.1072384E+02  0.1751712E+03
Ar  346  0.7301456E+01  0.2898887E+02  0.1056828E+02  0.5521999E+02
Ar  347  0.8166680E+01  0.2597458E+02  0.1307978E+02  0.1837109E+03
Ar  348  0.4768784E+01  0.2895736E+02  0.1333156E+02  0.9957998E+02
Ar  349  0.4456603E+01  0.2679126E+02  0.1608260E+02  0.3822367E+02
Ar  350  0.7397509E+01  0.2913548E+02  0.1577362E+02  0.1553078E+03
Ar  351  0.8334756E+01  0.2620673E+02  0.1840371E+02  0.5280999E+03
Ar  352  0.4824160E+01  0.2961438E+02  0.1846026E+02  0.8350738E+02
Ar  353  0.5695391E+01  0.2647274E+02  0.2107149E+02  0.8417630E+02
Ar  354  0.7618428E+01  0.2938918E+02  0.2119043E+02  0.5266359E+02
Ar  355  0.7686299E+01  0.2614960E+02  0.2362863E+02  0.2826442E+03
Ar  356  0.5551762E+01  0.2931113E+02  0.2429966E+02  0.1785045E+03
Ar  357  0.5881177E+01  0.2655479E+02  0.2655479E+02  0.2355200E+03
Ar  358  0.7701620E+01  0.2980404E+02  0.2685666E+02  0.1953507E+03
Ar  359  0.7701620E+01  0.2685666E+02  0.2980404E+02  0.1953507E+03
Ar  360  0.5112301E+01  0.2957145E+02  0.2957145E+02  0.6388083E+02
Ar  361  0.5194158E+01  0.2649065E+02  0.3208570E+02  0.2554684E+03
Ar  362  0.8231616E+01  0.2908610E+02  0.3209780E+02  0.3701626E+03
Ar  363  0.8023135E+01  0.2628163E+02  0.3449436E+02  0.3641732E+03
Ar  364  0.5537097E+01  0.2901059E+02  0.3467148E+02  0.1893192E+03
Ar  365  0.5553703E+01  0.3163565E+02  0.3718099E+02  0.2075003E+03
Ar  366  0.8525721E+01  0.3411446E+02  0.3728103E+02  0.6927923E+03
Ar  367  0.7390183E+01  0.3198467E+02  0.2325669E+01  0.8993259E+03
Ar  368  0.5025623E+01  0.3436311E+02  0.1418926E+01  0.1643629E+03
Ar  369  0.4744650E+01  0.3158771E+02  0.4744650E+01  0.4546977E+02
Ar  370  0.7825750E+01  0.3440860E+02  0.4887073E+01  0.1929951E+02
Ar  371  0.7629924E+01  0.3156874E+02  0.7629924E+01  0.7605546E+03
Ar  372  0.4887073E+01  0.3440860E+02  0.7825750E+01  0.1929951E+02
Ar  373  0.4978870E+01  0.3188821E+02  0.1038574E+02  0.1179507E+04
Ar  374  0.7251389E+01  0.3536389E+02  0.1049069E+02  0.1969526E+03
Ar  375  0.7454782E+01  0.3267036E+02  0.1371213E+02  0.7891074E+02
Ar  376  0.4816549E+01  0.3437976E+02  0.1260030E+02  0.1181735E+02
Ar  377  0.4678423E+01  0.3204344E+02  0.1557089E+02  0.2334624E+03
Ar  378  0.7372664E+01  0.3514720E+02  0.1663750E+02  0.1414077E+04
Ar  379  0.7272308E+01  0.3183459E+02  0.1857846E+02  0.1354619E+03
Ar  380  0.5035070E+01  0.3450280E+02  0.1952536E+02  0.1175515E+03
Ar  381  0.5099459E+01  0.3191676E+02  0.2134926E+02  0.1029528E+02
Ar  382  0.7890779E+01  0.3456729E+02  0.2139634E+02  0.2776125E+03
Ar  383  0.7603455E+01  0.3196233E+02  0.2397656E+02  0.6113915E+03
Ar  384  0.5242708E+01  0.3485382E+02  0.2418040E+02  0.8168201E+03
Ar  385  0.5194158E+01  0.3208570E+02  0.2649065E+02  0.2554684E+03
Ar  386  0.8023135E+01  0.3449436E+02  0.2628163E+02  0.3641732E+03
Ar  387  0.8231616E+01  0.3209780E+02  0.2908610E+02  0.3701626E+03
Ar  388  0.5537097E+01  0.3467148E+02  0.2901059E+02  0.1893192E+03
Ar  389  0.5867188E+01  0.3213653E+02  0.3213653E+02  0.9671571E+02
Ar  390  0.8127633E+01  0.3466380E+02  0.3184982E+02  0.2754916E+03
Ar  391  0.8127633E+01  0.3184982E+02  0.3466380E+02  0.2754916E+03
Ar  392  0.5254754E+01  0.3451686E+02  0.3451686E+02  0.9890487E+03
Ar  393  0.1162500E+02  0.3696388E+02  0.3696388E+02  0.9474887E+03
Ar  394  0.1288855E+02  0.2464027E+01  0.3704879E+02  0.1003267E+03
Ar  395  0.1288855E+02  0.3704879E+02  0.2464027E+01  0.1003267E+03
Ar  396  0.1035145E+02  0.1914487E+01  0.1914487E+01  0.1219233E+04
Ar  397  0.1033216E+02  0.3729430E+02  0.4765032E+01  0.4155758E+03
Ar  398  0.1306009E+02  0.2277522E+01  0.4990958E+01  0.2437396E+03
Ar  399  0.1351691E+02  0.3743107E+02  0.7789909E+01  0.1708198E+03
Ar  400  0.1040180E+02  0.2133701E+01  0.7251843E+01  0.6646264E+03
Ar  401  0.1013262E+02  0.3713502E+02  0.1013262E+02  0.4374592E+03
Ar  402  0.1263729E+02  0.2722255E+01  0.1033698E+02  0.1671656E+03
Ar  403  0.1327320E+02  0.2751538E+00  0.1327320E+02  0.4887503E+03
Ar  404  0.1033698E+02  0.2722255E+01  0.1263729E+02  0.1671656E+03
Ar  405  0.9757994E+01  0.4138168E-02  0.1628262E+02  0.1058516E+03
Ar  406  0.1333954E+02  0.2241135E+01  0.1614868E+02  0.1465456E+03
Ar  407  0.1369661E+02  0.3728050E+02  0.1865614E+02  0.3301787E+02
Ar  408  0.1022436E+02  0.2599856E+01  0.1855950E+02  0.3344016E+03
Ar  409  0.1035119E+02  0.3708389E+02  0.2131504E+02  0.1478423E+03
Ar  410  0.1255598E+02  0.1782135E+01  0.2094425E+02  0.3680694E+03
Ar  411  0.1274525E+02  0.3659095E+02  0.2365461E+02  0.4852157E+03
Ar  412  0.1048652E+02  0.2244728E+01  0.2392419E+02  0.3934534E+03
Ar  413  0.1077328E+02  0.3764050E+02  0.2688483E+02  0.1599915E+03
Ar  414  0.1326257E+02  0.2271343E+01  0.2644179E+02  0.2469107E+03
Ar  415  0.1341261E+02  0.3756599E+02  0.2917341E+02  0.6629501E+01
Ar  416  0.1046236E+02  0.2465197E+01  0.2891819E+02  0.1315095E+03
Ar  417  0.1084137E+02  0.3711841E+02  0.3151941E+02  0.4496671E+03
Ar  418  0.1290721E+02  0.2333868E+01  0.3164851E+02  0.1478738E+03
Ar  419  0.1308925E+02  0.2840485E+00  0.3408292E+02  0.2207920E+03
Ar  420  0.1032525E+02  0.2287755E+01  0.3438151E+02  0.4250272E+03
Ar  421  0.1033216E+02  0.4765032E+01  0.3729430E+02  0.4155758E+03
Ar  422  0.1351691E+02  0.7789909E+01  0.3743107E+02  0.1708198E+03
Ar  423  0.1306009E+02  0.4990958E+01  0.2277522E+01  0.2437396E+03
Ar  424  0.1040180E+02  0.7251843E+01  0.2133701E+01  0.6646264E+03
Ar  425  0.1032397E+02  0.4608257E+01  0.4608257E+01  0.1736187E+03
Ar  426  0.1254506E+02  0.7718085E+01  0.4789333E+01  0.1875581E+03
Ar  427  0.1254506E+02  0.4789333E+01  0.7718085E+01  0.1875581E+03
Ar  428  0.1029966E+02  0.7747975E+01  0.7747975E+01  0.2044493E+03
Ar  429  0.1021612E+02  0.5157892E+01  0.1021612E+02  0.4472762E+03
Ar  430  0.1342456E+02  0.7765373E+01  0.1009657E+02  0.1686311E+03
Ar  431  0.1288385E+02  0.5511294E+01  0.1288385E+02  0.4926481E+03
Ar  432  0.1009657E+02  0.7765373E+01  0.1342456E+02  0.1686311E+03
Ar  433  0.1020329E+02  0.4499013E+01  0.1557007E+02  0.1183014E+03
Ar  434  0.1289739E+02  0.7928125E+01  0.1558871E+02  0.7057420E+02
Ar  435  0.1323820E+02  0.4667279E+01  0.1890605E+02  0.1685202E+03
Ar  436  0.1056889E+02  0.7109001E+01  0.1787737E+02  0.6791121E+03
Ar  437  0.9696879E+01  0.5123505E+01  0.2136823E+02  0.1779238E+03
Ar  438  0.1303218E+02  0.7794479E+01  0.2102962E+02  0.2421320E+03
Ar  439  0.1332001E+02  0.4944377E+01  0.2334942E+02  0.5434530E+02
Ar  440  0.1028693E+02  0.8028330E+01  0.2357423E+02  0.1276078E+03
Ar  441  0.1072384E+02  0.5209148E+01  0.2576613E+02  0.1751712E+03
Ar  442  0.1307978E+02  0.8166680E+01  0.2597458E+02  0.1837109E+03
Ar  443  0.1333156E+02  0.4768784E+01  0.2895736E+02  0.9957998E+02
Ar  444  0.1056828E+02  0.7301456E+01  0.2898887E+02  0.5521999E+02
Ar  445  0.1038574E+02  0.4978870E+01  0.3188821E+02  0.1179507E+04
Ar  446  0.1371213E+02  0.7454782E+01  0.3267036E+02  0.7891074E+02
Ar  447  0.1260030E+02  0.4816549E+01  0.3437976E+02  0.1181735E+02
Ar  448  0.1049069E+02  0.7251389E+01  0.3536389E+02  0.1969526E+03
Ar  449  0.1013262E+02  0.1013262E+02  0.3713502E+02  0.4374592E+03
Ar  450  0.1327320E+02  0.1327320E+02  0.2751538E+00  0.4887503E+03
Ar  451  0.1263729E+02  0.1033698E+02  0.2722255E+01  0.1671656E+03
Ar  452  0.1033698E+02  0.1263729E+02  0.2722255E+01  0.1671656E+03
Ar  453  0.1021612E+02  0.1021612E+02  0.5157892E+01  0.4472762E+03
Ar  454  0.1288385E+02  0.1288385E+02  0.5511294E+01  0.4926481E+03
Ar  455  0.1342456E+02  0.1009657E+02  0.7765373E+01  0.1686311E+03
Ar  456  0.1009657E+02  0.1342456E+02  0.7765373E+01  0.1686311E+03
Ar  457  0.1067782E+02  0.1067782E+02  0.1067782E+02  0.8242654E+03
Ar  458  0.1305393E+02  0.1305393E+02  0.1061057E+02  0.1263827E+03
Ar  459  0.1305393E+02  0.1061057E+02  0.1305393E+02  0.1263827E+03
Ar  460  0.1061057E+02  0.1305393E+02  0.1305393E+02  0.1263827E+03
Ar  461  0.1081379E+02  0.1081379E+02  0.1593597E+02  0.1527728E+03
Ar  462  0.1351425E+02  0.1351425E+02  0.1580397E+02  0.8017631E+03
Ar  463  0.1333207E+02  0.1045811E+02  0.1849118E+02  0.3226413E+03
Ar  464  0.1045811E+02  0.1333207E+02  0.1849118E+02  0.3226413E+03
Ar  465  0.1025960E+02  0.1025960E+02  0.2084498E+02  0.1287931E+03
Ar  466  0.1337266E+02  0.1337266E+02  0.2068606E+02  0.5130674E+01
Ar  467  0.1340676E+02  0.1060983E+02  0.2350655E+02  0.3611866E+03
Ar  468  0.1060983E+02  0.1340676E+02  0.2350655E+02  0.3611866E+03
Ar  469  0.1059138E+02  0.1059138E+02  0.2641686E+02  0.3010210E+02
Ar  470  0.1313890E+02  0.1313890E+02  0.2564593E+02  0.6549963E+02
Ar  471  0.1305210E+02  0.9747097E+01  0.2945602E+02  0.7904071E+02
Ar  472  0.9747097E+01  0.1305210E+02  0.2945602E+02  0.7904071E+02
Ar  473  0.1041980E+02  0.1041980E+02  0.3151162E+02  0.7855942E+02
Ar  474  0.1263880E+02  0.1263880E+02  0.3201120E+02  0.5023476E+02
Ar  475  0.1257686E+02  0.1024705E+02  0.3494789E+02  0.6992047E+03
Ar  476  0.1024705E+02  0.1257686E+02  0.3494789E+02  0.6992047E+03
Ar  477  0.9757994E+01  0.1628262E+02  0.4138168E-02  0.1058516E+03
Ar  478  0.1369661E+02  0.1865614E+02  0.3728050E+02  0.3301787E+02
Ar  479  0.1333954E+02  0.1614868E+02  0.2241135E+01  0.1465456E+03
Ar  480  0.1022436E+02  0.1855950E+02  0.2599856E+01  0.3344016E+03
Ar  481  0.1020329E+02  0.1557007E+02  0.4499013E+01  0.1183014E+03
Ar  482  0.1323820E+02  0.1890605E+02  0.4667279E+01  0.1685202E+03
Ar  483  0.1289739E+02  0.1558871E+02  0.7928125E+01  0.7057420E+02
Ar  484  0.1056889E+02  0.1787737E+02  0.7109001E+01  0.6791121E+03
Ar  485  0.1081379E+02  0.1593597E+02  0.1081379E+02  0.1527728E+03
Ar  486  0.1333207E+02  0.1849118E+02  0.1045811E+02  0.3226413E+03
Ar  487  0.1351425E+02  0.1580397E+02  0.1351425E+02  0.8017631E+03
Ar  488  0.1045811E+02  0.1849118E+02  0.1333207E+02  0.3226413E+03
Ar  489  0.9894258E+01  0.1568185E+02  0.1568185E+02  0.3459668E+02
Ar  490  0.1319806E+02  0.1836972E+02  0.1578987E+02  0.5811103E+03
Ar  491  0.1319806E+02  0.1578987E+02  0.1836972E+02  0.5811103E+03
Ar  492  0.1055957E+02  0.1810225E+02  0.1810225E+02  0.4703770E+03
Ar  493  0.1091432E+02  0.1581460E+02  0.2105868E+02  0.1370529E+03
Ar  494  0.1318850E+02  0.1825973E+02  0.2096976E+02  0.5484225E+03
Ar  495  0.1332332E+02  0.1607897E+02  0.2376893E+02  0.1669047E+03
Ar  496  0.1069783E+02  0.1836567E+02  0.2338420E+02  0.1220289E+03
Ar  497  0.1051237E+02  0.1551541E+02  0.2661401E+02  0.5820571E+03
Ar  498  0.1292534E+02  0.1813961E+02  0.2636452E+02  0.2615219E+03
Ar  499  0.1300472E+02  0.1543655E+02  0.2995585E+02  0.2124170E+03
Ar  500  0.1010207E+02  0.1838815E+02  0.2951623E+02  0.3257953E+03
Ar  501  0.9945419E+01  0.1596518E+02  0.3234921E+02  0.1269633E+02
Ar  502  0.1271864E+02  0.1775466E+02  0.3239539E+02  0.2295646E+03
Ar  503  0.1262975E+02  0.1556504E+02  0.3548010E+02  0.2103238E+03
Ar  504  0.1001929E+02  0.1851561E+02  0.3501637E+02  0.1142916E+03
Ar  505  0.1035119E+02  0.2131504E+02  0.3708389E+02  0.1478423E+03
Ar  506  0.1274525E+02  0.2365461E+02  0.3659095E+02  0.4852157E+03
Ar  507  0.1255598E+02  0.2094425E+02  0.1782135E+01  0.3680694E+03
Ar  508  0.1048652E+02  0.2392419E+02  0.2244728E+01  0.3934534E+03
Ar  509  0.9696879E+01  0.2136823E+02  0.5123505E+01  0.1779238E+03
Ar  510  0.1332001E+02  0.2334942E+02  0.4944377E+01  0.5434530E+02
Ar  511  0.1303218E+02  0.2102962E+02  0.7794479E+01  0.2421320E+03
Ar  512  0.1028693E+02  0.2357423E+02  0.8028330E+01  0.1276078E+03
Ar  513  0.1025960E+02  0.2084498E+02  0.1025960E+02  0.1287931E+03
Ar  514  0.1340676E+02  0.2350655E+02  0.1060983E+02  0.3611866E+03
Ar  515  0.1337266E+02  0.2068606E+02  0.1337266E+02  0.5130674E+01
Ar  516  0.1060983E+02  0.2350655E+02  0.1340676E+02  0.3611866E+03
Ar  517  0.1091432E+02  0.2105868E+02  0.1581460E+02  0.1370529E+03
Ar  518  0.1332332E+02  0.2376893E+02  0.1607897E+02  0.1669047E+03
Ar  519  0.1318850E+02  0.2096976E+02  0.1825973E+02  0.5484225E+03
Ar  520  0.1069783E+02  0.2338420E+02  0.1836567E+02  0.1220289E+03
Ar  521  0.1019108E+02  0.2063987E+02  0.2063987E+02  0.7206296E+01
Ar  522  0.1331841E+02  0.2376677E+02  0.2091954E+02  0.8600818E+02
Ar  523  0.1331841E+02  0.2091954E+02  0.2376677E+02  0.8600818E+02
Ar  524  0.1120755E+02  0.2391716E+02  0.2391716E+02  0.5420261E+03
Ar  525  0.1082264E+02  0.2138114E+02  0.2617949E+02  0.2045729E+03
Ar  526  0.1331851E+02  0.2339899E+02  0.2725974E+02  0.1400473E+03
Ar  527  0.1285360E+02  0.2049501E+02  0.2948013E+02  0.1192019E+03
Ar  528  0.1055726E+02  0.2444156E+02  0.2900443E+02  0.5640742E+03
Ar  529  0.1045618E+02  0.2134600E+02  0.3162352E+02  0.2549807E+03
Ar  530  0.1336669E+02  0.2395318E+02  0.3150119E+02  0.2438057E+02
Ar  531  0.1289677E+02  0.2088572E+02  0.3452370E+02  0.2736301E+03
Ar  532  0.1032025E+02  0.2394598E+02  0.3412403E+02  0.4993268E+03
Ar  533  0.1077328E+02  0.2688483E+02  0.3764050E+02  0.1599915E+03
Ar  534  0.1341261E+02  0.2917341E+02  0.3756599E+02  0.6629501E+01
Ar  535  0.1326257E+02  0.2644179E+02  0.2271343E+01  0.2469107E+03
Ar  536  0.1046236E+02  0.2891819E+02  0.2465197E+01  0.1315095E+03
Ar  537  0.1072384E+02  0.2576613E+02  0.5209148E+01  0.1751712E+03
Ar  538  0.1333156E+02  0.2895736E+02  0.4768784E+01  0.9957999E+02
Ar  539  0.1307978E+02  0.2597458E+02  0.8166680E+01  0.1837109E+03
Ar  540  0.1056828E+02  0.2898887E+02  0.7301456E+01  0.5521999E+02
Ar  541  0.1059138E+02  0.2641686E+02  0.1059138E+02  0.3010210E+02
Ar  542  0.1305210E+02  0.2945602E+02  0.9747097E+01  0.7904071E+02
Ar  543  0.1313890E+02  0.2564593E+02  0.1313890E+02  0.6549963E+02
Ar  544  0.9747097E+01  0.2945602E+02  0.1305210E+02  0.7904071E+02
Ar  545  0.1051237E+02  0.2661401E+02  0.1551541E+02  0.5820571E+03
Ar  546  0.1300472E+02  0.2995585E+02  0.1543655E+02  0.2124170E+03
Ar  547  0.1292534E+02  0.2636452E+02  0.1813961E+02  0.2615219E+03
Ar  548  0.1010207E+02  0.2951623E+02  0.1838815E+02  0.3257953E+03
Ar  549  0.1082264E+02  0.2617949E+02  0.2138114E+02  0.2045729E+03
Ar  550  0.1285360E+02  0.2948013E+02  0.2049501E+02  0.1192019E+03
Ar  551  0.1331851E+02  0.2725974E+02  0.2339899E+02  0.1400473E+03
Ar  552  0.1055726E+02  0.2900443E+02  0.2444156E+02  0.5640742E+03
Ar  553  0.9874878E+01  0.2672923E+02  0.2672923E+02  0.7037355E+02
Ar  554  0.1409542E+02  0.2906553E+02  0.2648933E+02  0.2624264E+03
Ar  555  0.1409542E+02  0.2648933E+02  0.2906553E+02  0.2624264E+03
Ar  556  0.1151368E+02  0.2947871E+02  0.2947871E+02  0.1270298E+02
Ar  557  0.1078775E+02  0.2653289E+02  0.3179076E+02  0.3140115E+02
Ar  558  0.1356099E+02  0.2873414E+02  0.3253325E+02  0.4566999E+03
Ar  559  0.1277209E+02  0.2662298E+02  0.3502044E+02  0.3364412E+02
Ar  560  0.1082434E+02  0.2932269E+02  0.3458373E+02  0.3211088E+03
Ar  561  0.1084137E+02  0.3151941E+02  0.3711841E+02  0.4496671E+03
Ar  562  0.1308925E+02  0.3408292E+02  0.2840485E+00  0.2207920E+03
Ar  563  0.1290721E+02  0.3164851E+02  0.2333868E+01  0.1478738E+03
Ar  564  0.1032525E+02  0.3438151E+02  0.2287755E+01  0.4250272E+03
Ar  565  0.1038574E+02  0.3188821E+02  0.4978870E+01  0.1179507E+04
Ar  566  0.1260030E+02  0.3437976E+02  0.4816549E+01  0.1181735E+02
Ar  567  0.1371213E+02  0.3267036E+02  0.7454782E+01  0.7891074E+02
Ar  568  0.1049069E+02  0.3536389E+02  0.7251389E+01  0.1969526E+03
Ar  569  0.1041980E+02  0.3151162E+02  0.1041980E+02  0.7855942E+02
Ar  570  0.1257686E+02  0.3494789E+02  0.1024705E+02  0.6992047E+03
Ar  571  0.1263880E+02  0.3201120E+02  0.1263880E+02  0.5023476E+02
Ar  572  0.1024705E+02  0.3494789E+02  0.1257686E+02  0.6992047E+03
Ar  573  0.9945419E+01  0.3234921E+02  0.1596518E+02  0.1269633E+02
Ar  574  0.1262975E+02  0.3548010E+02  0.1556504E+02  0.2103238E+03
Ar  575  0.1271864E+02  0.3239539E+02  0.1775466E+02  0.2295646E+03
Ar  576  0.1001929E+02  0.3501637E+02  0.1851561E+02  0.1142916E+03
Ar  577  0.1045618E+02  0.3162352E+02  0.2134600E+02  0.2549807E+03
Ar  578  0.1289677E+02  0.3452370E+02  0.2088572E+02  0.2736301E+03
Ar  579  0.1336669E+02  0.3150119E+02  0.2395318E+02  0.2438057E+02
Ar  580  0.1032025E+02  0.3412403E+02  0.2394598E+02  0.4993268E+03
Ar  581  0.1078775E+02  0.3179076E+02  0.2653289E+02  0.3140115E+02
Ar  582  0.1277209E+02  0.3502044E+02  0.2662298E+02  0.3364412E+02
Ar  583  0.1356099E+02  0.3253325E+02  0.2873414E+02  0.4566999E+03
Ar  584  0.1082434E+02  0.3458373E+02  0.2932269E+02  0.3211088E+03
Ar  585  0.1186360E+02  0.3164610E+02  0.3164610E+02  0.4971329E+02
Ar  586  0.1353164E+02  0.3502202E+02  0.3168059E+02  0.6823753E+02
Ar  587  0.1353164E+02  0.3168059E+02  0.3502202E+02  0.6823753E+02
Ar  588  0.1101102E+02  0.3403047E+02  0.3403047E+02  0.4928789E+03
Ar  589  0.1562142E+02  0.3713588E+02  0.3713588E+02  0.1539034E+03
Ar  590  0.1911287E+02  0.2120784E+01  0.3728030E+02  0.8370634E+03
Ar  591  0.1911287E+02  0.3728030E+02  0.2120784E+01  0.8370634E+03
Ar  592  0.1540370E+02  0.1816244E+01  0.1816244E+01  0.2941600E+03
Ar  593  0.1602228E+02  0.3734644E+02  0.4725358E+01  0.1842722E+03
Ar  594  0.1853324E+02  0.1868862E+01  0.4741020E+01  0.8536131E+02
Ar  595  0.1901079E+02  0.7334150E-01  0.7428396E+01  0.3082739E+03
Ar  596  0.1579517E+02  0.2206836E+01  0.7120724E+01  0.4757862E+03
Ar  597  0.1628262E+02  0.4138168E-02  0.9757994E+01  0.1058516E+03
Ar  598  0.1855950E+02  0.2599856E+01  0.1022436E+02  0.3344016E+03
Ar  599  0.1865614E+02  0.3728050E+02  0.1369661E+02  0.3301787E+02
Ar  600  0.1614868E+02  0.2241135E+01  0.1333954E+02  0.1465456E+03
Ar  601  0.1618314E+02  0.1703484E+00  0.1618314E+02  0.9394942E+02
Ar  602  0.1863704E+02  0.2196460E+01  0.1620579E+02  0.3936193E+03
Ar  603  0.1894669E+02  0.3688234E+02  0.1894669E+02  0.3328916E+02
Ar  604  0.1620579E+02  0.2196460E+01  0.1863704E+02  0.3936193E+03
Ar  605  0.1586173E+02  0.3729489E+02  0.2138108E+02  0.3151647E+03
Ar  606  0.1894808E+02  0.2194365E+01  0.2190678E+02  0.2468573E+03
Ar  607  0.1833752E+02  0.3742875E+02  0.2395039E+02  0.2219820E+03
Ar  608  0.1554250E+02  0.1992317E+01  0.2391192E+02  0.9634621E+02
Ar  609  0.1616395E+02  0.3763416E+02  0.2681639E+02  0.1589349E+03
Ar  610  0.1867052E+02  0.2440358E+01  0.2680474E+02  0.5846922E+02
Ar  611  0.1904814E+02  0.2038430E+00  0.2936220E+02  0.1635926E+03
Ar  612  0.1586546E+02  0.2127387E+01  0.2928133E+02  0.8366604E+03
Ar  613  0.1614331E+02  0.2883153E+00  0.3220298E+02  0.2117178E+03
Ar  614  0.1860233E+02  0.2491009E+01  0.3280616E+02  0.7447142E+02
Ar  615  0.1880379E+02  0.3764378E+02  0.3490509E+02  0.3122403E+02
Ar  616  0.1618497E+02  0.2372660E+01  0.3469412E+02  0.7198935E+03
Ar  617  0.1602228E+02  0.4725358E+01  0.3734644E+02  0.1842722E+03
Ar  618  0.1901079E+02  0.7428396E+01  0.7334150E-01  0.3082739E+03
Ar  619  0.1853324E+02  0.4741020E+01  0.1868862E+01  0.8536131E+02
Ar  620  0.1579517E+02  0.7120724E+01  0.2206836E+01  0.4757862E+03
Ar  621  0.1562368E+02  0.4852205E+01  0.4852205E+01  0.2297172E+02
Ar  622  0.1831740E+02  0.7610506E+01  0.4903150E+01  0.2433813E+03
Ar  623  0.1831740E+02  0.4903150E+01  0.7610506E+01  0.2433813E+03
Ar  624  0.1606609E+02  0.7233801E+01  0.7233801E+01  0.3851395E+02
Ar  625  0.1557007E+02  0.4499013E+01  0.1020329E+02  0.1183014E+03
Ar  626  0.1787737E+02  0.7109001E+01  0.1056889E+02  0.6791121E+03
Ar  627  0.1890605E+02  0.4667279E+01  0.1323820E+02  0.1685202E+03
Ar  628  0.1558871E+02  0.7928125E+01  0.1289739E+02  0.7057420E+02
Ar  629  0.1610837E+02  0.4806523E+01  0.1610837E+02  0.6538501E+03
Ar  630  0.1851120E+02  0.7444124E+01  0.1572056E+02  0.1389387E+03
Ar  631  0.1846301E+02  0.5070838E+01  0.1846301E+02  0.1109702E+02
Ar  632  0.1572056E+02  0.7444124E+01  0.1851120E+02  0.1389387E+03
Ar  633  0.1621327E+02  0.4466633E+01  0.2149493E+02  0.2254805E+03
Ar  634  0.1887943E+02  0.6747423E+01  0.2158056E+02  0.2732984E+02
Ar  635  0.1848238E+02  0.4662659E+01  0.2440149E+02  0.1022902E+03
Ar  636  0.1581396E+02  0.7927159E+01  0.2320381E+02  0.1188846E+03
Ar  637  0.1608260E+02  0.4456603E+01  0.2679126E+02  0.3822367E+02
Ar  638  0.1840371E+02  0.8334756E+01  0.2620673E+02  0.5280999E+03
Ar  639  0.1846026E+02  0.4824160E+01  0.2961438E+02  0.8350738E+02
Ar  640  0.1577362E+02  0.7397509E+01  0.2913548E+02  0.1553078E+03
Ar  641  0.1557089E+02  0.4678423E+01  0.3204344E+02  0.2334624E+03
Ar  642  0.1857846E+02  0.7272308E+01  0.3183459E+02  0.1354619E+03
Ar  643  0.1952536E+02  0.5035070E+01  0.3450280E+02  0.1175515E+03
Ar  644  0.1663750E+02  0.7372664E+01  0.3514720E+02  0.1414077E+04
Ar  645  0.1628262E+02  0.9757994E+01  0.4138168E-02  0.1058516E+03
Ar  646  0.1865614E+02  0.1369661E+02  0.3728050E+02  0.3301787E+02
Ar  647  0.1855950E+02  0.1022436E+02  0.2599856E+01  0.3344016E+03
Ar  648  0.1614868E+02  0.1333954E+02  0.2241135E+01  0.1465456E+03
Ar  649  0.1557007E+02  0.1020329E+02  0.4499013E+01  0.1183014E+03
Ar  650  0.1890605E+02  0.1323820E+02  0.4667279E+01  0.1685202E+03
Ar  651  0.1787737E+02  0.1056889E+02  0.7109001E+01  0.6791121E+03
Ar  652  0.1558871E+02  0.1289739E+02  0.7928125E+01  0.7057420E+02
Ar  653  0.1593597E+02  0.1081379E+02  0.1081379E+02  0.1527728E+03
Ar  654  0.1849118E+02  0.1333207E+02  0.1045811E+02  0.3226413E+03
Ar  655  0.1849118E+02  0.1045811E+02  0.1333207E+02  0.3226413E+03
Ar  656  0.1580397E+02  0.1351425E+02  0.1351425E+02  0.8017631E+03
Ar  657  0.1568185E+02  0.9894258E+01  0.1568185E+02  0.3459668E+02
Ar  658  0.1836972E+02  0.1319806E+02  0.1578987E+02  0.5811103E+03
Ar  659  0.1810225E+02  0.1055957E+02  0.1810225E+02  0.4703770E+03
Ar  660  0.1578987E+02  0.1319806E+02  0.1836972E+02  0.5811103E+03
Ar  661  0.1581460E+02  0.1091432E+02  0.2105868E+02  0.1370529E+03
Ar  662  0.1825973E+02  0.1318850E+02  0.2096976E+02  0.5484225E+03
Ar  663  0.1836567E+02  0.1069783E+02  0.2338420E+02  0.1220289E+03
Ar  664  0.1607897E+02  0.1332332E+02  0.2376893E+02  0.1669047E+03
Ar  665  0.1551541E+02  0.1051237E+02  0.2661401E+02  0.5820571E+03
Ar  666  0.1813961E+02  0.1292534E+02  0.2636452E+02  0.2615219E+03
Ar  667  0.1838815E+02  0.1010207E+02  0.2951623E+02  0.3257953E+03
Ar  668  0.1543655E+02  0.1300472E+02  0.2995585E+02  0.2124170E+03
Ar  669  0.1596518E+02  0.9945419E+01  0.3234921E+02  0.1269633E+02
Ar  670  0.1775466E+02  0.1271864E+02  0.3239539E+02  0.2295646E+03
Ar  671  0.1851561E+02  0.1001929E+02  0.3501637E+02  0.1142916E+03
Ar  672  0.1556504E+02  0.1262975E+02  0.3548010E+02  0.2103238E+03
Ar  673  0.1618314E+02  0.1618314E+02  0.1703484E+00  0.9394942E+02
Ar  674  0.1894669E+02  0.1894669E+02  0.3688234E+02  0.3328916E+02
Ar  675  0.1863704E+02  0.1620579E+02  0.2196460E+01  0.3936193E+03
Ar  676  0.1620579E+02  0.1863704E+02  0.2196460E+01  0.3936193E+03
Ar  677  0.1610837E+02  0.1610837E+02  0.4806523E+01  0.6538501E+03
Ar  678  0.1846301E+02  0.1846301E+02  0.5070838E+01  0.1109702E+02
Ar  679  0.1851120E+02  0.1572056E+02  0.7444124E+01  0.1389387E+03
Ar  680  0.1572056E+02  0.1851120E+02  0.7444124E+01  0.1389387E+03
Ar  681  0.1568185E+02  0.1568185E+02  0.9894258E+01  0.3459668E+02
Ar  682  0.1810225E+02  0.1810225E+02  0.1055957E+02  0.4703770E+03
Ar  683  0.1836972E+02  0.1578987E+02  0.1319806E+02  0.5811103E+03
Ar  684  0.1578987E+02  0.1836972E+02  0.1319806E+02  0.5811103E+03
Ar  685  0.1596846E+02  0.1596846E+02  0.1596846E+02  0.8834002E-02
Ar  686  0.1837061E+02  0.1837061E+02  0.1573924E+02  0.8657223E+03
Ar  687  0.1837061E+02  0.1573924E+02  0.1837061E+02  0.8657223E+03
Ar  688  0.1573924E+02  0.1837061E+02  0.1837061E+02  0.8657223E+03
Ar  689  0.1592740E+02  0.1592740E+02  0.2071620E+02  0.8884896E+02
Ar  690  0.1841805E+02  0.1841805E+02  0.2111158E+02  0.8436847E+02
Ar  691  0.1842561E+02  0.1574769E+02  0.2336789E+02  0.2330052E+02
Ar  692  0.1574769E+02  0.1842561E+02  0.2336789E+02  0.2330052E+02
Ar  693  0.1573698E+02  0.1573698E+02  0.2693062E+02  0.5600856E+03
Ar  694  0.1841072E+02  0.1841072E+02  0.2678151E+02  0.1028020E+04
Ar  695  0.1853473E+02  0.1595460E+02  0.2908888E+02  0.2553254E+03
Ar  696  0.1595460E+02  0.1853473E+02  0.2908888E+02  0.2553254E+03
Ar  697  0.1585767E+02  0.1585767E+02  0.3278934E+02  0.3911219E+03
Ar  698  0.1861447E+02  0.1861447E+02  0.3130418E+02  0.4469641E+03
Ar  699  0.1878111E+02  0.1562224E+02  0.3435759E+02  0.8273997E+02
Ar  700  0.1562224E+02  0.1878111E+02  0.3435759E+02  0.8273997E+02
Ar  701  0.1586173E+02  0.2138108E+02  0.3729489E+02  0.3151647E+03
Ar  702  0.1833752E+02  0.2395039E+02  0.3742875E+02  0.2219820E+03
Ar  703  0.1894808E+02  0.2190678E+02  0.2194365E+01  0.2468573E+03
Ar  704  0.1554250E+02  0.2391192E+02  0.1992317E+01  0.9634621E+02
Ar  705  0.1621327E+02  0.2149493E+02  0.4466633E+01  0.2254805E+03
Ar  706  0.1848238E+02  0.2440149E+02  0.4662659E+01  0.1022902E+03
Ar  707  0.1887943E+02  0.2158056E+02  0.6747423E+01  0.2732984E+02
Ar  708  0.1581396E+02  0.2320381E+02  0.7927159E+01  0.1188846E+03
Ar  709  0.1581460E+02  0.2105868E+02  0.1091432E+02  0.1370529E+03
Ar  710  0.1836567E+02  0.2338420E+02  0.1069783E+02  0.1220289E+03
Ar  711  0.1825973E+02  0.2096976E+02  0.1318850E+02  0.5484225E+03
Ar  712  0.1607897E+02  0.2376893E+02  0.1332332E+02  0.1669047E+03
Ar  713  0.1592740E+02  0.2071620E+02  0.1592740E+02  0.8884896E+02
Ar  714  0.1842561E+02  0.2336789E+02  0.1574769E+02  0.2330052E+02
Ar  715  0.1841805E+02  0.2111158E+02  0.1841805E+02  0.8436847E+02
Ar  716  0.1574769E+02  0.2336789E+02  0.1842561E+02  0.2330052E+02
Ar  717  0.1593643E+02  0.2099939E+02  0.2099939E+02  0.4113908E+03
Ar  718  0.1836075E+02  0.2364882E+02  0.2113961E+02  0.3712073E+03
Ar  719  0.1836075E+02  0.2113961E+02  0.2364882E+02  0.3712073E+03
Ar  720  0.1543554E+02  0.2384008E+02  0.2384008E+02  0.8110927E+03
Ar  721  0.1578349E+02  0.2084624E+02  0.2612801E+02  0.3080316E+03
Ar  722  0.1848469E+02  0.2346372E+02  0.2674164E+02  0.2824334E+03
Ar  723  0.1890089E+02  0.2104687E+02  0.2908955E+02  0.6918688E+02
Ar  724  0.1617492E+02  0.2373966E+02  0.2928008E+02  0.5706646E+02
Ar  725  0.1582340E+02  0.2114647E+02  0.3178562E+02  0.8792679E+02
Ar  726  0.1865153E+02  0.2403546E+02  0.3204316E+02  0.4951989E+02
Ar  727  0.1839568E+02  0.2152382E+02  0.3485352E+02  0.7654296E+02
Ar  728  0.1589746E+02  0.2389431E+02  0.3451598E+02  0.1783781E+03
Ar  729  0.1616395E+02  0.2681639E+02  0.3763416E+02  0.1589349E+03
Ar  730  0.1904814E+02  0.2936220E+02  0.2038430E+00  0.1635926E+03
Ar  731  0.1867052E+02  0.2680474E+02  0.2440358E+01  0.5846922E+02
Ar  732  0.1586546E+02  0.2928133E+02  0.2127387E+01  0.8366604E+03
Ar  733  0.1608260E+02  0.2679126E+02  0.4456603E+01  0.3822367E+02
Ar  734  0.1846026E+02  0.2961438E+02  0.4824160E+01  0.8350738E+02
Ar  735  0.1840371E+02  0.2620673E+02  0.8334756E+01  0.5280999E+03
Ar  736  0.1577362E+02  0.2913548E+02  0.7397509E+01  0.1553078E+03
Ar  737  0.1551541E+02  0.2661401E+02  0.1051237E+02  0.5820571E+03
Ar  738  0.1838815E+02  0.2951623E+02  0.1010207E+02  0.3257953E+03
Ar  739  0.1813961E+02  0.2636452E+02  0.1292534E+02  0.2615219E+03
Ar  740  0.1543655E+02  0.2995585E+02  0.1300472E+02  0.2124170E+03
Ar  741  0.1573698E+02  0.2693062E+02  0.1573698E+02  0.5600856E+03
Ar  742  0.1853473E+02  0.2908888E+02  0.1595460E+02  0.2553254E+03
Ar  743  0.1841072E+02  0.2678151E+02  0.1841072E+02  0.1028020E+04
Ar  744  0.1595460E+02  0.2908888E+02  0.1853473E+02  0.2553254E+03
Ar  745  0.1578349E+02  0.2612801E+02  0.2084624E+02  0.3080316E+03
Ar  746  0.1890089E+02  0.2908955E+02  0.2104687E+02  0.6918688E+02
Ar  747  0.1848469E+02  0.2674164E+02  0.2346372E+02  0.2824334E+03
Ar  748  0.1617492E+02  0.2928008E+02  0.2373966E+02  0.5706646E+02
Ar  749  0.1612426E+02  0.2633573E+02  0.2633573E+02  0.4262199E+02
Ar  750  0.1875488E+02  0.2940111E+02  0.2715549E+02  0.2124796E+03
Ar  751  0.1875488E+02  0.2715549E+02  0.2940111E+02  0.2124796E+03
Ar  752  0.1591745E+02  0.2897165E+02  0.2897165E+02  0.6096495E+03
Ar  753  0.1625606E+02  0.2706844E+02  0.3255162E+02  0.2339680E+03
Ar  754  0.1870243E+02  0.2930125E+02  0.3215848E+02  0.1435313E+03
Ar  755  0.1869183E+02  0.2681257E+02  0.3542914E+02  0.1789307E+03
Ar  756  0.1635973E+02  0.2964221E+02  0.3512757E+02  0.2850691E+03
Ar  757  0.1614331E+02  0.3220298E+02  0.2883153E+00  0.2117178E+03
Ar  758  0.1880379E+02  0.3490509E+02  0.3764378E+02  0.3122403E+02
Ar  759  0.1860233E+02  0.3280616E+02  0.2491009E+01  0.7447142E+02
Ar  760  0.1618497E+02  0.3469412E+02  0.2372660E+01  0.7198935E+03
Ar  761  0.1557089E+02  0.3204344E+02  0.4678423E+01  0.2334624E+03
Ar  762  0.1952536E+02  0.3450280E+02  0.5035070E+01  0.1175515E+03
Ar  763  0.1857846E+02  0.3183459E+02  0.7272308E+01  0.1354619E+03
Ar  764  0.1663750E+02  0.3514720E+02  0.7372664E+01  0.1414077E+04
Ar  765  0.1596518E+02  0.3234921E+02  0.9945419E+01  0.1269633E+02
Ar  766  0.1851561E+02  0.3501637E+02  0.1001929E+02  0.1142916E+03
Ar  767  0.1775466E+02  0.3239539E+02  0.1271864E+02  0.2295646E+03
Ar  768  0.1556504E+02  0.3548010E+02  0.1262975E+02  0.2103238E+03
Ar  769  0.1585767E+02  0.3278934E+02  0.1585767E+02  0.3911219E+03
Ar  770  0.1878111E+02  0.3435759E+02  0.1562224E+02  0.8273997E+02
Ar  771  0.1861447E+02  0.3130418E+02  0.1861447E+02  0.4469641E+03
Ar  772  0.1562224E+02  0.3435759E+02  0.1878111E+02  0.8273997E+02
Ar  773  0.1582340E+02  0.3178562E+02  0.2114647E+02  0.8792679E+02
Ar  774  0.1839568E+02  0.3485352E+02  0.2152382E+02  0.7654296E+02
Ar  775  0.1865153E+02  0.3204316E+02  0.2403546E+02  0.4951989E+02
Ar  776  0.1589746E+02  0.3451598E+02  0.2389431E+02  0.1783781E+03
Ar  777  0.1625606E+02  0.3255162E+02  0.2706844E+02  0.2339680E+03
Ar  778  0.1869183E+02  0.3542914E+02  0.2681257E+02  0.1789307E+03
Ar  779  0.1870243E+02  0.3215848E+02  0.2930125E+02  0.1435313E+03
Ar  780  0.1635973E+02  0.3512757E+02  0.2964221E+02  0.2850691E+03
Ar  781  0.1586433E+02  0.3170746E+02  0.3170746E+02  0.3737516E+02
Ar  782  0.1828556E+02  0.3492331E+02  0.3217666E+02  0.2658004E+03
Ar  783  0.1828556E+02  0.3217666E+02  0.3492331E+02  0.2658004E+03
Ar  784  0.1584163E+02  0.3478682E+02  0.3478682E+02  0.2421629E+03
Ar  785  0.2195467E+02  0.3769175E+02  0.3769175E+02  0.2196650E+03
Ar  786  0.2385395E+02  0.2525106E+01  0.3741554E+02  0.1866043E+03
Ar  787  0.2385395E+02  0.3741554E+02  0.2525106E+01  0.1866043E+03
Ar  788  0.2162083E+02  0.2374486E+01  0.2374486E+01  0.1185172E+04
Ar  789  0.2136139E+02  0.3746505E+02  0.4788684E+01  0.1591320E+03
Ar  790  0.2393388E+02  0.2104295E+01  0.5525504E+01  0.2118354E+02
Ar  791  0.2431920E+02  0.3734392E+02  0.8543134E+01  0.2058507E+03
Ar  792  0.2151489E+02  0.2330004E+01  0.7968227E+01  0.1415511E+03
Ar  793  0.2131504E+02  0.3708389E+02  0.1035119E+02  0.1478423E+03
Ar  794  0.2392419E+02  0.2244728E+01  0.1048652E+02  0.3934534E+03
Ar  795  0.2365461E+02  0.3659095E+02  0.1274525E+02  0.4852157E+03
Ar  796  0.2094425E+02  0.1782135E+01  0.1255598E+02  0.3680694E+03
Ar  797  0.2138108E+02  0.3729489E+02  0.1586173E+02  0.3151647E+03
Ar  798  0.2391192E+02  0.1992317E+01  0.1554250E+02  0.9634621E+02
Ar  799  0.2395039E+02  0.3742875E+02  0.1833752E+02  0.2219820E+03
Ar  800  0.2190678E+02  0.2194365E+01  0.1894808E+02  0.2468573E+03
Ar  801  0.2199800E+02  0.3678257E+02  0.2199800E+02  0.1824737E+02
Ar  802  0.2454639E+02  0.2480642E+01  0.2139655E+02  0.6303349E+02
Ar  803  0.2453375E+02  0.3666735E+02  0.2453375E+02  0.5684168E+02
Ar  804  0.2139655E+02  0.2480642E+01  0.2454639E+02  0.6303349E+02
Ar  805  0.2158768E+02  0.3744176E+02  0.2647743E+02  0.1008828E+03
Ar  806  0.2434077E+02  0.2184819E+01  0.2658909E+02  0.2463023E+03
Ar  807  0.2356718E+02  0.3760047E+02  0.2940133E+02  0.3158873E+03
Ar  808  0.2166679E+02  0.2945764E+01  0.2914258E+02  0.5466296E+03
Ar  809  0.2147159E+02  0.3767064E+02  0.3213807E+02  0.1340729E+03
Ar  810  0.2366729E+02  0.2393736E+01  0.3179952E+02  0.8511932E+02
Ar  811  0.2406425E+02  0.3750615E+02  0.3462292E+02  0.9441924E+02
Ar  812  0.2142302E+02  0.2080483E+01  0.3468388E+02  0.4239577E+03
Ar  813  0.2136139E+02  0.4788684E+01  0.3746505E+02  0.1591320E+03
Ar  814  0.2431920E+02  0.8543134E+01  0.3734392E+02  0.2058507E+03
Ar  815  0.2393388E+02  0.5525504E+01  0.2104295E+01  0.2118354E+02
Ar  816  0.2151489E+02  0.7968227E+01  0.2330004E+01  0.1415511E+03
Ar  817  0.2139362E+02  0.4849186E+01  0.4849186E+01  0.5991836E+02
Ar  818  0.2420118E+02  0.7734660E+01  0.5245561E+01  0.2321073E+03
Ar  819  0.2420118E+02  0.5245561E+01  0.7734660E+01  0.2321073E+03
Ar  820  0.2082990E+02  0.7689625E+01  0.7689625E+01  0.1791613E+03
Ar  821  0.2136823E+02  0.5123505E+01  0.9696879E+01  0.1779238E+03
Ar  822  0.2357423E+02  0.8028330E+01  0.1028693E+02  0.1276078E+03
Ar  823  0.2334942E+02  0.4944377E+01  0.1332001E+02  0.5434530E+02
Ar  824  0.2102962E+02  0.7794479E+01  0.1303218E+02  0.2421320E+03
Ar  825  0.2149493E+02  0.4466633E+01  0.1621327E+02  0.2254805E+03
Ar  826  0.2320381E+02  0.7927159E+01  0.1581396E+02  0.1188846E+03
Ar  827  0.2440149E+02  0.4662659E+01  0.1848238E+02  0.1022902E+03
Ar  828  0.2158056E+02  0.6747423E+01  0.1887943E+02  0.2732984E+02
Ar  829  0.2195711E+02  0.5294655E+01  0.2195711E+02  0.4480035E+03
Ar  830  0.2372750E+02  0.8318776E+01  0.2132896E+02  0.2492024E+03
Ar  831  0.2406758E+02  0.4611995E+01  0.2406758E+02  0.4790443E+03
Ar  832  0.2132896E+02  0.8318776E+01  0.2372750E+02  0.2492024E+03
Ar  833  0.2107149E+02  0.5695391E+01  0.2647274E+02  0.8417630E+02
Ar  834  0.2362863E+02  0.7686299E+01  0.2614960E+02  0.2826442E+03
Ar  835  0.2429966E+02  0.5551762E+01  0.2931113E+02  0.1785045E+03
Ar  836  0.2119043E+02  0.7618428E+01  0.2938918E+02  0.5266359E+02
Ar  837  0.2134926E+02  0.5099459E+01  0.3191676E+02  0.1029528E+02
Ar  838  0.2397656E+02  0.7603455E+01  0.3196233E+02  0.6113915E+03
Ar  839  0.2418040E+02  0.5242708E+01  0.3485382E+02  0.8168201E+03
Ar  840  0.2139634E+02  0.7890779E+01  0.3456729E+02  0.2776125E+03
Ar  841  0.2131504E+02  0.1035119E+02  0.3708389E+02  0.1478423E+03
Ar  842  0.2365461E+02  0.1274525E+02  0.3659095E+02  0.4852157E+03
Ar  843  0.2392419E+02  0.1048652E+02  0.2244728E+01  0.3934534E+03
Ar  844  0.2094425E+02  0.1255598E+02  0.1782135E+01  0.3680694E+03
Ar  845  0.2136823E+02  0.9696879E+01  0.5123505E+01  0.1779238E+03
Ar  846  0.2334942E+02  0.1332001E+02  0.4944377E+01  0.5434530E+02
Ar  847  0.2357423E+02  0.1028693E+02  0.8028330E+01  0.1276078E+03
Ar  848  0.2102962E+02  0.1303218E+02  0.7794479E+01  0.2421320E+03
Ar  849  0.2084498E+02  0.1025960E+02  0.1025960E+02  0.1287931E+03
Ar  850  0.2350655E+02  0.1340676E+02  0.1060983E+02  0.3611866E+03
Ar  851  0.2350655E+02  0.1060983E+02  0.1340676E+02  0.3611866E+03
Ar  852  0.2068606E+02  0.1337266E+02  0.1337266E+02  0.5130674E+01
Ar  853  0.2105868E+02  0.1091432E+02  0.1581460E+02  0.1370529E+03
Ar  854  0.2376893E+02  0.1332332E+02  0.1607897E+02  0.1669047E+03
Ar  855  0.2338420E+02  0.1069783E+02  0.1836567E+02  0.1220289E+03
Ar  856  0.2096976E+02  0.1318850E+02  0.1825973E+02  0.5484225E+03
Ar  857  0.2063987E+02  0.1019108E+02  0.2063987E+02  0.7206296E+01
Ar  858  0.2376677E+02  0.1331841E+02  0.2091954E+02  0.8600818E+02
Ar  859  0.2391716E+02  0.1120755E+02  0.2391716E+02  0.5420261E+03
Ar  860  0.2091954E+02  0.1331841E+02  0.2376677E+02  0.8600818E+02
Ar  861  0.2138114E+02  0.1082264E+02  0.2617949E+02  0.2045729E+03
Ar  862  0.2339899E+02  0.1331851E+02  0.2725974E+02  0.1400473E+03
Ar  863  0.2444156E+02  0.1055726E+02  0.2900443E+02  0.5640742E+03
Ar  864  0.2049501E+02  0.1285360E+02  0.2948013E+02  0.1192019E+03
Ar  865  0.2134600E+02  0.1045618E+02  0.3162352E+02  0.2549807E+03
Ar  866  0.2395318E+02  0.1336669E+02  0.3150119E+02  0.2438057E+02
Ar  867  0.2394598E+02  0.1032025E+02  0.3412403E+02  0.4993268E+03
Ar  868  0.2088572E+02  0.1289677E+02  0.3452370E+02  0.2736301E+03
Ar  869  0.2138108E+02  0.1586173E+02  0.3729489E+02  0.3151647E+03
Ar  870  0.2395039E+02  0.1833752E+02  0.3742875E+02  0.2219820E+03
Ar  871  0.2391192E+02  0.1554250E+02  0.1992317E+01  0.9634621E+02
Ar  872  0.2190678E+02  0.1894808E+02  0.2194365E+01  0.2468573E+03
Ar  873  0.2149493E+02  0.1621327E+02  0.4466633E+01  0.2254805E+03
Ar  874  0.2440149E+02  0.1848238E+02  0.4662659E+01  0.1022902E+03
Ar  875  0.2320381E+02  0.1581396E+02  0.7927159E+01  0.1188846E+03
Ar  876  0.2158056E+02  0.1887943E+02  0.6747423E+01  0.2732984E+02
Ar  877  0.2105868E+02  0.1581460E+02  0.1091432E+02  0.1370529E+03
Ar  878  0.2338420E+02  0.1836567E+02  0.1069783E+02  0.1220289E+03
Ar  879  0.2376893E+02  0.1607897E+02  0.1332332E+02  0.1669047E+03
Ar  880  0.2096976E+02  0.1825973E+02  0.1318850E+02  0.5484225E+03
Ar  881  0.2071620E+02  0.1592740E+02  0.1592740E+02  0.8884896E+02
Ar  882  0.2336789E+02  0.1842561E+02  0.1574769E+02  0.2330052E+02
Ar  883  0.2336789E+02  0.1574769E+02  0.1842561E+02  0.2330052E+02
Ar  884  0.2111158E+02  0.1841805E+02  0.1841805E+02  0.8436847E+02
Ar  885  0.2099939E+02  0.1593643E+02  0.2099939E+02  0.4113908E+03
Ar  886  0.2364882E+02  0.1836075E+02  0.2113961E+02  0.3712073E+03
Ar  887  0.2384008E+02  0.1543554E+02  0.2384008E+02  0.8110927E+03
Ar  888  0.2113961E+02  0.1836075E+02  0.2364882E+02  0.3712073E+03
Ar  889  0.2084624E+02  0.1578349E+02  0.2612801E+02  0.3080316E+03
Ar  890  0.2346372E+02  0.1848469E+02  0.2674164E+02  0.2824334E+03
Ar  891  0.2373966E+02  0.1617492E+02  0.2928008E+02  0.5706646E+02
Ar  892  0.2104687E+02  0.1890089E+02  0.2908955E+02  0.6918688E+02
Ar  893  0.2114647E+02  0.1582340E+02  0.3178562E+02  0.8792679E+02
Ar  894  0.2403546E+02  0.1865153E+02  0.3204316E+02  0.4951989E+02
Ar  895  0.2389431E+02  0.1589746E+02  0.3451598E+02  0.1783781E+03
Ar  896  0.2152382E+02  0.1839568E+02  0.3485352E+02  0.7654296E+02
Ar  897  0.2199800E+02  0.2199800E+02  0.3678257E+02  0.1824737E+02
Ar  898  0.2453375E+02  0.2453375E+02  0.3666735E+02  0.5684168E+02
Ar  899  0.2454639E+02  0.2139655E+02  0.2480642E+01  0.6303349E+02
Ar  900  0.2139655E+02  0.2454639E+02  0.2480642E+01  0.6303349E+02
Ar  901  0.2195711E+02  0.2195711E+02  0.5294655E+01  0.4480035E+03
Ar  902  0.2406758E+02  0.2406758E+02  0.4611995E+01  0.4790443E+03
Ar  903  0.2372750E+02  0.2132896E+02  0.8318776E+01  0.2492024E+03
Ar  904  0.2132896E+02  0.2372750E+02  0.8318776E+01  0.2492024E+03
Ar  905  0.2063987E+02  0.2063987E+02  0.1019108E+02  0.7206296E+01
Ar  906  0.2391716E+02  0.2391716E+02  0.1120755E+02  0.5420261E+03
Ar  907  0.2376677E+02  0.2091954E+02  0.1331841E+02  0.8600818E+02
Ar  908  0.2091954E+02  0.2376677E+02  0.1331841E+02  0.8600818E+02
Ar  909  0.2099939E+02  0.2099939E+02  0.1593643E+02  0.4113908E+03
Ar  910  0.2384008E+02  0.2384008E+02  0.1543554E+02  0.8110927E+03
Ar  911  0.2364882E+02  0.2113961E+02  0.1836075E+02  0.3712073E+03
Ar  912  0.2113961E+02  0.2364882E+02  0.1836075E+02  0.3712073E+03
Ar  913  0.2152360E+02  0.2152360E+02  0.2152360E+02  0.6576530E+03
Ar  914  0.2379800E+02  0.2379800E+02  0.2127974E+02  0.1502295E+03
Ar  915  0.2379800E+02  0.2127974E+02  0.2379800E+02  0.1502295E+03
Ar  916  0.2127974E+02  0.2379800E+02  0.2379800E+02  0.1502295E+03
Ar  917  0.2092742E+02  0.2092742E+02  0.2628483E+02  0.4020358E+03
Ar  918  0.2387274E+02  0.2387274E+02  0.2617283E+02  0.2530039E+03
Ar  919  0.2428490E+02  0.2107726E+02  0.2902652E+02  0.5123763E+03
Ar  920  0.2107726E+02  0.2428490E+02  0.2902652E+02  0.5123763E+03
Ar  921  0.2120839E+02  0.2120839E+02  0.3189302E+02  0.1075579E+03
Ar  922  0.2392690E+02  0.2392690E+02  0.3178283E+02  0.2771834E+03
Ar  923  0.2403545E+02  0.2114060E+02  0.3441731E+02  0.3427420E+03
Ar  924  0.2114060E+02  0.2403545E+02  0.3441731E+02  0.3427420E+03
Ar  925  0.2158768E+02  0.2647743E+02  0.3744176E+02  0.1008828E+03
Ar  926  0.2356718E+02  0.2940133E+02  0.3760047E+02  0.3158873E+03
Ar  927  0.2434077E+02  0.2658909E+02  0.2184819E+01  0.2463023E+03
Ar  928  0.2166679E+02  0.2914258E+02  0.2945764E+01  0.5466296E+03
Ar  929  0.2107149E+02  0.2647274E+02  0.5695391E+01  0.8417630E+02
Ar  930  0.2429966E+02  0.2931113E+02  0.5551762E+01  0.1785045E+03
Ar  931  0.2362863E+02  0.2614960E+02  0.7686299E+01  0.2826442E+03
Ar  932  0.2119043E+02  0.2938918E+02  0.7618428E+01  0.5266359E+02
Ar  933  0.2138114E+02  0.2617949E+02  0.1082264E+02  0.2045729E+03
Ar  934  0.2444156E+02  0.2900443E+02  0.1055726E+02  0.5640742E+03
Ar  935  0.2339899E+02  0.2725974E+02  0.1331851E+02  0.1400473E+03
Ar  936  0.2049501E+02  0.2948013E+02  0.1285360E+02  0.1192019E+03
Ar  937  0.2084624E+02  0.2612801E+02  0.1578349E+02  0.3080316E+03
Ar  938  0.2373966E+02  0.2928008E+02  0.1617492E+02  0.5706646E+02
Ar  939  0.2346372E+02  0.2674164E+02  0.1848469E+02  0.2824334E+03
Ar  940  0.2104687E+02  0.2908955E+02  0.1890089E+02  0.6918688E+02
Ar  941  0.2092742E+02  0.2628483E+02  0.2092742E+02  0.4020358E+03
Ar  942  0.2428490E+02  0.2902652E+02  0.2107726E+02  0.5123763E+03
Ar  943  0.2387274E+02  0.2617283E+02  0.2387274E+02  0.2530039E+03
Ar  944  0.2107726E+02  0.2902652E+02  0.2428490E+02  0.5123763E+03
Ar  945  0.2096168E+02  0.2649560E+02  0.2649560E+02  0.5810490E+02
Ar  946  0.2367378E+02  0.2910514E+02  0.2659314E+02  0.1109568E+03
Ar  947  0.2367378E+02  0.2659314E+02  0.2910514E+02  0.1109568E+03
Ar  948  0.2135411E+02  0.2968375E+02  0.2968375E+02  0.4060702E+02
Ar  949  0.2141795E+02  0.2697434E+02  0.3201829E+02  0.3325816E+03
Ar  950  0.2359823E+02  0.2965943E+02  0.3211521E+02  0.1659116E+03
Ar  951  0.2357513E+02  0.2725222E+02  0.3458972E+02  0.4905689E+02
Ar  952  0.2091170E+02  0.2973793E+02  0.3483729E+02  0.4386545E+03
Ar  953  0.2147159E+02  0.3213807E+02  0.3767064E+02  0.1340729E+03
Ar  954  0.2406425E+02  0.3462292E+02  0.3750615E+02  0.9441924E+02
Ar  955  0.2366729E+02  0.3179952E+02  0.2393736E+01  0.8511932E+02
Ar  956  0.2142302E+02  0.3468388E+02  0.2080483E+01  0.4239577E+03
Ar  957  0.2134926E+02  0.3191676E+02  0.5099459E+01  0.1029528E+02
Ar  958  0.2418040E+02  0.3485382E+02  0.5242708E+01  0.8168201E+03
Ar  959  0.2397656E+02  0.3196233E+02  0.7603455E+01  0.6113915E+03
Ar  960  0.2139634E+02  0.3456729E+02  0.7890779E+01  0.2776125E+03
Ar  961  0.2134600E+02  0.3162352E+02  0.1045618E+02  0.2549807E+03
Ar  962  0.2394598E+02  0.3412403E+02  0.1032025E+02  0.4993268E+03
Ar  963  0.2395318E+02  0.3150119E+02  0.1336669E+02  0.2438057E+02
Ar  964  0.2088572E+02  0.3452370E+02  0.1289677E+02  0.2736301E+03
Ar  965  0.2114647E+02  0.3178562E+02  0.1582340E+02  0.8792679E+02
Ar  966  0.2389431E+02  0.3451598E+02  0.1589746E+02  0.1783781E+03
Ar  967  0.2403546E+02  0.3204316E+02  0.1865153E+02  0.4951989E+02
Ar  968  0.2152382E+02  0.3485352E+02  0.1839568E+02  0.7654296E+02
Ar  969  0.2120839E+02  0.3189302E+02  0.2120839E+02  0.1075579E+03
Ar  970  0.2403545E+02  0.3441731E+02  0.2114060E+02  0.3427420E+03
Ar  971  0.2392690E+02  0.3178283E+02  0.2392690E+02  0.2771834E+03
Ar  972  0.2114060E+02  0.3441731E+02  0.2403545E+02  0.3427420E+03
Ar  973  0.2141795E+02  0.3201829E+02  0.2697434E+02  0.3325816E+03
Ar  974  0.2357513E+02  0.3458972E+02  0.2725222E+02  0.4905689E+02
Ar  975  0.2359823E+02  0.3211521E+02  0.2965943E+02  0.1659116E+03
Ar  976  0.2091170E+02  0.3483729E+02  0.2973793E+02  0.4386545E+03
Ar  977  0.2067818E+02  0.3239024E+02  0.3239024E+02  0.8065152E+03
Ar  978  0.2347572E+02  0.3514513E+02  0.3222889E+02  0.2803615E+03
Ar  979  0.2347572E+02  0.3222889E+02  0.3514513E+02  0.2803615E+03
Ar  980  0.2155997E+02  0.3487642E+02  0.3487642E+02  0.6801928E+03
Ar  981  0.2625363E+02  0.3740347E+02  0.3740347E+02  0.2251295E+03
Ar  982  0.2894988E+02  0.2820561E+01  0.3738795E+02  0.2186200E+03
Ar  983  0.2894988E+02  0.3738795E+02  0.2820561E+01  0.2186200E+03
Ar  984  0.2647461E+02  0.2303314E+01  0.2303314E+01  0.4094440E+03
Ar  985  0.2679631E+02  0.3746006E+02  0.5598563E+01  0.3094421E+03
Ar  986  0.2877894E+02  0.2523735E+01  0.5098626E+01  0.2086702E+03
Ar  987  0.2933472E+02  0.3756818E+02  0.8052399E+01  0.2683477E+03
Ar  988  0.2650713E+02  0.2091601E+01  0.7901003E+01  0.3847014E+03
Ar  989  0.2688483E+02  0.3764050E+02  0.1077328E+02  0.1599915E+03
Ar  990  0.2891819E+02  0.2465197E+01  0.1046236E+02  0.1315095E+03
Ar  991  0.2917341E+02  0.3756599E+02  0.1341261E+02  0.6629501E+01
Ar  992  0.2644179E+02  0.2271343E+01  0.1326257E+02  0.2469107E+03
Ar  993  0.2681639E+02  0.3763416E+02  0.1616395E+02  0.1589349E+03
Ar  994  0.2928133E+02  0.2127387E+01  0.1586546E+02  0.8366604E+03
Ar  995  0.2936220E+02  0.2038430E+00  0.1904814E+02  0.1635926E+03
Ar  996  0.2680474E+02  0.2440358E+01  0.1867052E+02  0.5846922E+02
Ar  997  0.2647743E+02  0.3744176E+02  0.2158768E+02  0.1008828E+03
Ar  998  0.2914258E+02  0.2945764E+01  0.2166679E+02  0.5466296E+03
Ar  999  0.2940133E+02  0.3760047E+02  0.2356718E+02  0.3158873E+03
Ar 1000  0.2658909E+02  0.2184819E+01  0.2434077E+02  0.2463023E+03
Ar 1001  0.2682082E+02  0.3706897E+02  0.2682082E+02  0.1991098E+03
Ar 1002  0.2901542E+02  0.2851001E+01  0.2661093E+02  0.2894223E+02
Ar 1003  0.2910043E+02  0.1147496E+00  0.2910043E+02  0.3574879E+02
Ar 1004  0.2661093E+02  0.2851001E+01  0.2901542E+02  0.2894223E+02
Ar 1005  0.2642912E+02  0.3764557E+02  0.3236984E+02  0.2608356E+03
Ar 1006  0.2933366E+02  0.3130827E+01  0.3200728E+02  0.5953130E+02
Ar 1007  0.2925372E+02  0.3777282E+02  0.3433452E+02  0.4317951E+03
Ar 1008  0.2663878E+02  0.2676556E+01  0.3479911E+02  0.3337230E+03
Ar 1009  0.2679631E+02  0.5598563E+01  0.3746006E+02  0.3094421E+03
Ar 1010  0.2933472E+02  0.8052399E+01  0.3756818E+02  0.2683477E+03
Ar 1011  0.2877894E+02  0.5098626E+01  0.2523735E+01  0.2086702E+03
Ar 1012  0.2650713E+02  0.7901003E+01  0.2091601E+01  0.3847014E+03
Ar 1013  0.2614741E+02  0.5063800E+01  0.5063800E+01  0.7186020E+03
Ar 1014  0.2928666E+02  0.7631378E+01  0.4864037E+01  0.1817364E+03
Ar 1015  0.2928666E+02  0.4864037E+01  0.7631378E+01  0.1817364E+03
Ar 1016  0.2640677E+02  0.8171369E+01  0.8171369E+01  0.1786715E+02
Ar 1017  0.2576613E+02  0.5209148E+01  0.1072384E+02  0.1751712E+03
Ar 1018  0.2898887E+02  0.7301456E+01  0.1056828E+02  0.5521999E+02
Ar 1019  0.2895736E+02  0.4768784E+01  0.1333156E+02  0.9957998E+02
Ar 1020  0.2597458E+02  0.8166680E+01  0.1307978E+02  0.1837109E+03
Ar 1021  0.2679126E+02  0.4456603E+01  0.1608260E+02  0.3822367E+02
Ar 1022  0.2913548E+02  0.7397509E+01  0.1577362E+02  0.1553078E+03
Ar 1023  0.2961438E+02  0.4824160E+01  0.1846026E+02  0.8350738E+02
Ar 1024  0.2620673E+02  0.8334756E+01  0.1840371E+02  0.5280999E+03
Ar 1025  0.2647274E+02  0.5695391E+01  0.2107149E+02  0.8417630E+02
Ar 1026  0.2938918E+02  0.7618428E+01  0.2119043E+02  0.5266359E+02
Ar 1027  0.2931113E+02  0.5551762E+01  0.2429966E+02  0.1785045E+03
Ar 1028  0.2614960E+02  0.7686299E+01  0.2362863E+02  0.2826442E+03
Ar 1029  0.2655479E+02  0.5881177E+01  0.2655479E+02  0.2355200E+03
Ar 1030  0.2980404E+02  0.7701620E+01  0.2685666E+02  0.1953507E+03
Ar 1031  0.2957145E+02  0.5112301E+01  0.2957145E+02  0.6388083E+02
Ar 1032  0.2685666E+02  0.7701620E+01  0.2980404E+02  0.1953507E+03
Ar 1033  0.2649065E+02  0.5194158E+01  0.3208570E+02  0.2554684E+03
Ar 1034  0.2908610E+02  0.8231616E+01  0.3209780E+02  0.3701626E+03
Ar 1035  0.2901059E+02  0.5537097E+01  0.3467148E+02  0.1893192E+03
Ar 1036  0.2628163E+02  0.8023135E+01  0.3449436E+02  0.3641732E+03
Ar 1037  0.2688483E+02  0.1077328E+02  0.3764050E+02  0.1599915E+03
Ar 1038  0.2917341E+02  0.1341261E+02  0.3756599E+02  0.6629501E+01
Ar 1039  0.2891819E+02  0.1046236E+02  0.2465197E+01  0.1315095E+03
Ar 1040  0.2644179E+02  0.1326257E+02  0.2271343E+01  0.2469107E+03
Ar 1041  0.2576613E+02  0.1072384E+02  0.5209148E+01  0.1751712E+03
Ar 1042  0.2895736E+02  0.1333156E+02  0.4768784E+01  0.9957999E+02
Ar 1043  0.2898887E+02  0.1056828E+02  0.7301456E+01  0.5521999E+02
Ar 1044  0.2597458E+02  0.1307978E+02  0.8166680E+01  0.1837109E+03
Ar 1045  0.2641686E+02  0.1059138E+02  0.1059138E+02  0.3010210E+02
Ar 1046  0.2945602E+02  0.1305210E+02  0.9747097E+01  0.7904071E+02
Ar 1047  0.2945602E+02  0.9747097E+01  0.1305210E+02  0.7904071E+02
Ar 1048  0.2564593E+02  0.1313890E+02  0.1313890E+02  0.6549963E+02
Ar 1049  0.2661401E+02  0.1051237E+02  0.1551541E+02  0.5820571E+03
Ar 1050  0.2995585E+02  0.1300472E+02  0.1543655E+02  0.2124170E+03
Ar 1051  0.2951623E+02  0.1010207E+02  0.1838815E+02  0.3257953E+03
Ar 1052  0.2636452E+02  0.1292534E+02  0.1813961E+02  0.2615219E+03
Ar 1053  0.2617949E+02  0.1082264E+02  0.2138114E+02  0.2045729E+03
Ar 1054  0.2948013E+02  0.1285360E+02  0.2049501E+02  0.1192019E+03
Ar 1055  0.2900443E+02  0.1055726E+02  0.2444156E+02  0.5640742E+03
Ar 1056  0.2725974E+02  0.1331851E+02  0.2339899E+02  0.1400473E+03
Ar 1057  0.2672923E+02  0.9874878E+01  0.2672923E+02  0.7037355E+02
Ar 1058  0.2906553E+02  0.1409542E+02  0.2648933E+02  0.2624264E+03
Ar 1059  0.2947871E+02  0.1151368E+02  0.2947871E+02  0.1270298E+02
Ar 1060  0.2648933E+02  0.1409542E+02  0.2906553E+02  0.2624264E+03
Ar 1061  0.2653289E+02  0.1078775E+02  0.3179076E+02  0.3140115E+02
Ar 1062  0.2873414E+02  0.1356099E+02  0.3253325E+02  0.4566999E+03
Ar 1063  0.2932269E+02  0.1082434E+02  0.3458373E+02  0.3211088E+03
Ar 1064  0.2662298E+02  0.1277209E+02  0.3502044E+02  0.3364412E+02
Ar 1065  0.2681639E+02  0.1616395E+02  0.3763416E+02  0.1589349E+03
Ar 1066  0.2936220E+02  0.1904814E+02  0.2038430E+00  0.1635926E+03
Ar 1067  0.2928133E+02  0.1586546E+02  0.2127387E+01  0.8366604E+03
Ar 1068  0.2680474E+02  0.1867052E+02  0.2440358E+01  0.5846922E+02
Ar 1069  0.2679126E+02  0.1608260E+02  0.4456603E+01  0.3822367E+02
Ar 1070  0.2961438E+02  0.1846026E+02  0.4824160E+01  0.8350738E+02
Ar 1071  0.2913548E+02  0.1577362E+02  0.7397509E+01  0.1553078E+03
Ar 1072  0.2620673E+02  0.1840371E+02  0.8334756E+01  0.5280999E+03
Ar 1073  0.2661401E+02  0.1551541E+02  0.1051237E+02  0.5820571E+03
Ar 1074  0.2951623E+02  0.1838815E+02  0.1010207E+02  0.3257953E+03
Ar 1075  0.2995585E+02  0.1543655E+02  0.1300472E+02  0.2124170E+03
Ar 1076  0.2636452E+02  0.1813961E+02  0.1292534E+02  0.2615219E+03
Ar 1077  0.2693062E+02  0.1573698E+02  0.1573698E+02  0.5600856E+03
Ar 1078  0.2908888E+02  0.1853473E+02  0.1595460E+02  0.2553254E+03
Ar 1079  0.2908888E+02  0.1595460E+02  0.1853473E+02  0.2553254E+03
Ar 1080  0.2678151E+02  0.1841072E+02  0.1841072E+02  0.1028020E+04
Ar 1081  0.2612801E+02  0.1578349E+02  0.2084624E+02  0.3080316E+03
Ar 1082  0.2908955E+02  0.1890089E+02  0.2104687E+02  0.6918688E+02
Ar 1083  0.2928008E+02  0.1617492E+02  0.2373966E+02  0.5706646E+02
Ar 1084  0.2674164E+02  0.1848469E+02  0.2346372E+02  0.2824334E+03
Ar 1085  0.2633573E+02  0.1612426E+02  0.2633573E+02  0.4262199E+02
Ar 1086  0.2940111E+02  0.1875488E+02  0.2715549E+02  0.2124796E+03
Ar 1087  0.2897165E+02  0.1591745E+02  0.2897165E+02  0.6096495E+03
Ar 1088  0.2715549E+02  0.1875488E+02  0.2940111E+02  0.2124796E+03
Ar 1089  0.2706844E+02  0.1625606E+02  0.3255162E+02  0.2339680E+03
Ar 1090  0.2930125E+02  0.1870243E+02  0.3215848E+02  0.1435313E+03
Ar 1091  0.2964221E+02  0.1635973E+02  0.3512757E+02  0.2850691E+03
Ar 1092  0.2681257E+02  0.1869183E+02  0.3542914E+02  0.1789307E+03
Ar 1093  0.2647743E+02  0.2158768E+02  0.3744176E+02  0.1008828E+03
Ar 1094  0.2940133E+02  0.2356718E+02  0.3760047E+02  0.3158873E+03
Ar 1095  0.2914258E+02  0.2166679E+02  0.2945764E+01  0.5466296E+03
Ar 1096  0.2658909E+02  0.2434077E+02  0.2184819E+01  0.2463023E+03
Ar 1097  0.2647274E+02  0.2107149E+02  0.5695391E+01  0.8417630E+02
Ar 1098  0.2931113E+02  0.2429966E+02  0.5551762E+01  0.1785045E+03
Ar 1099  0.2938918E+02  0.2119043E+02  0.7618428E+01  0.5266359E+02
Ar 1100  0.2614960E+02  0.2362863E+02  0.7686299E+01  0.2826442E+03
Ar 1101  0.2617949E+02  0.2138114E+02  0.1082264E+02  0.2045729E+03
Ar 1102  0.2900443E+02  0.2444156E+02  0.1055726E+02  0.5640742E+03
Ar 1103  0.2948013E+02  0.2049501E+02  0.1285360E+02  0.1192019E+03
Ar 1104  0.2725974E+02  0.2339899E+02  0.1331851E+02  0.1400473E+03
Ar 1105  0.2612801E+02  0.2084624E+02  0.1578349E+02  0.3080316E+03
Ar 1106  0.2928008E+02  0.2373966E+02  0.1617492E+02  0.5706646E+02
Ar 1107  0.2908955E+02  0.2104687E+02  0.1890089E+02  0.6918688E+02
Ar 1108  0.2674164E+02  0.2346372E+02  0.1848469E+02  0.2824334E+03
Ar 1109  0.2628483E+02  0.2092742E+02  0.2092742E+02  0.4020358E+03
Ar 1110  0.2902652E+02  0.2428490E+02  0.2107726E+02  0.5123763E+03
Ar 1111  0.2902652E+02  0.2107726E+02  0.2428490E+02  0.5123763E+03
Ar 1112  0.2617283E+02  0.2387274E+02  0.2387274E+02  0.2530039E+03
Ar 1113  0.2649560E+02  0.2096168E+02  0.2649560E+02  0.5810490E+02
Ar 1114  0.2910514E+02  0.2367378E+02  0.2659314E+02  0.1109568E+03
Ar 1115  0.2968375E+02  0.2135411E+02  0.2968375E+02  0.4060702E+02
Ar 1116  0.2659314E+02  0.2367378E+02  0.2910514E+02  0.1109568E+03
Ar 1117  0.2697434E+02  0.2141795E+02  0.3201829E+02  0.3325816E+03
Ar 1118  0.2965943E+02  0.2359823E+02  0.3211521E+02  0.1659116E+03
Ar 1119  0.2973793E+02  0.2091170E+02  0.3483729E+02  0.4386545E+03
Ar 1120  0.2725222E+02  0.2357513E+02  0.3458972E+02  0.4905689E+02
Ar 1121  0.2682082E+02  0.2682082E+02  0.3706897E+02  0.1991098E+03
Ar 1122  0.2910043E+02  0.2910043E+02  0.1147496E+00  0.3574879E+02
Ar 1123  0.2901542E+02  0.2661093E+02  0.2851001E+01  0.2894223E+02
Ar 1124  0.2661093E+02  0.2901542E+02  0.2851001E+01  0.2894223E+02
Ar 1125  0.2655479E+02  0.2655479E+02  0.5881177E+01  0.2355200E+03
Ar 1126  0.2957145E+02  0.2957145E+02  0.5112301E+01  0.6388083E+02
Ar 1127  0.2980404E+02  0.2685666E+02  0.7701620E+01  0.1953507E+03
Ar 1128  0.2685666E+02  0.2980404E+02  0.7701620E+01  0.1953507E+03
Ar 1129  0.2672923E+02  0.2672923E+02  0.9874878E+01  0.7037355E+02
Ar 1130  0.2947871E+02  0.2947871E+02  0.1151368E+02  0.1270298E+02
Ar 1131  0.2906553E+02  0.2648933E+02  0.1409542E+02  0.2624264E+03
Ar 1132  0.2648933E+02  0.2906553E+02  0.1409542E+02  0.2624264E+03
Ar 1133  0.2633573E+02  0.2633573E+02  0.1612426E+02  0.4262199E+02
Ar 1134  0.2897165E+02  0.2897165E+02  0.1591745E+02  0.6096495E+03
Ar 1135  0.2940111E+02  0.2715549E+02  0.1875488E+02  0.2124796E+03
Ar 1136  0.2715549E+02  0.2940111E+02  0.1875488E+02  0.2124796E+03
Ar 1137  0.2649560E+02  0.2649560E+02  0.2096168E+02  0.5810491E+02
Ar 1138  0.2968375E+02  0.2968375E+02  0.2135411E+02  0.4060702E+02
Ar 1139  0.2910514E+02  0.2659314E+02  0.2367378E+02  0.1109568E+03
Ar 1140  0.2659314E+02  0.2910514E+02  0.2367378E+02  0.1109568E+03
Ar 1141  0.2685077E+02  0.2685077E+02  0.2685077E+02  0.2190970E+04
Ar 1142  0.2941064E+02  0.2941064E+02  0.2674223E+02  0.7904656E+03
Ar 1143  0.2941064E+02  0.2674223E+02  0.2941064E+02  0.7904656E+03
Ar 1144  0.2674223E+02  0.2941064E+02  0.2941064E+02  0.7904656E+03
Ar 1145  0.2609693E+02  0.2609693E+02  0.3216335E+02  0.9272045E+01
Ar 1146  0.2851010E+02  0.2851010E+02  0.3264180E+02  0.2553108E+03
Ar 1147  0.2933812E+02  0.2602743E+02  0.3496887E+02  0.5106402E+03
Ar 1148  0.2602743E+02  0.2933812E+02  0.3496887E+02  0.5106402E+03
Ar 1149  0.2642912E+02  0.3236984E+02  0.3764557E+02  0.2608356E+03
Ar 1150  0.2925372E+02  0.3433452E+02  0.3777282E+02  0.4317951E+03
Ar 1151  0.2933366E+02  0.3200728E+02  0.3130827E+01  0.5953130E+02
Ar 1152  0.2663878E+02  0.3479911E+02  0.2676556E+01  0.3337230E+03
Ar 1153  0.2649065E+02  0.3208570E+02  0.5194158E+01  0.2554684E+03
Ar 1154  0.2901059E+02  0.3467148E+02  0.5537097E+01  0.1893192E+03
Ar 1155  0.2908610E+02  0.3209780E+02  0.8231616E+01  0.3701626E+03
Ar 1156  0.2628163E+02  0.3449436E+02  0.8023135E+01  0.3641732E+03
Ar 1157  0.2653289E+02  0.3179076E+02  0.1078775E+02  0.3140115E+02
Ar 1158  0.2932269E+02  0.3458373E+02  0.1082434E+02  0.3211088E+03
Ar 1159  0.2873414E+02  0.3253325E+02  0.1356099E+02  0.4566999E+03
Ar 1160  0.2662298E+02  0.3502044E+02  0.1277209E+02  0.3364412E+02
Ar 1161  0.2706844E+02  0.3255162E+02  0.1625606E+02  0.2339680E+03
Ar 1162  0.2964221E+02  0.3512757E+02  0.1635973E+02  0.2850691E+03
Ar 1163  0.2930125E+02  0.3215848E+02  0.1870243E+02  0.1435313E+03
Ar 1164  0.2681257E+02  0.3542914E+02  0.1869183E+02  0.1789307E+03
Ar 1165  0.2697434E+02  0.3201829E+02  0.2141795E+02  0.3325816E+03
Ar 1166  0.2973793E+02  0.3483729E+02  0.2091170E+02  0.4386545E+03
Ar 1167  0.2965943E+02  0.3211521E+02  0.2359823E+02  0.1659116E+03
Ar 1168  0.2725222E+02  0.3458972E+02  0.2357513E+02  0.4905689E+02
Ar 1169  0.2609693E+02  0.3216335E+02  0.2609693E+02  0.9272045E+01
Ar 1170  0.2933812E+02  0.3496887E+02  0.2602743E+02  0.5106402E+03
Ar 1171  0.2851010E+02  0.3264180E+02  0.2851010E+02  0.2553108E+03
Ar 1172  0.2602743E+02  0.3496887E+02  0.2933812E+02  0.5106402E+03
Ar 1173  0.2571609E+02  0.3267686E+02  0.3267686E+02  0.5147188E+03
Ar 1174  0.2903486E+02  0.3505668E+02  0.3149735E+02  0.2754933E+03
Ar 1175  0.2903486E+02  0.3149735E+02  0.3505668E+02  0.2754933E+03
Ar 1176  0.2736063E+02  0.3505378E+02  0.3505378E+02  0.7481407E+02
Ar 1177  0.3066853E+02  0.3732776E+02  0.3732776E+02  0.4701317E+03
Ar 1178  0.3408331E+02  0.1611292E+01  0.3696168E+02  0.6319792E+02
Ar 1179  0.3408331E+02  0.3696168E+02  0.1611292E+01  0.6319792E+02
Ar 1180  0.3208792E+02  0.2186875E+01  0.2186875E+01  0.5438869E+03
Ar 1181  0.3163565E+02  0.3718099E+02  0.5553703E+01  0.2075003E+03
Ar 1182  0.3436311E+02  0.1418926E+01  0.5025623E+01  0.1643629E+03
Ar 1183  0.3411446E+02  0.3728103E+02  0.8525721E+01  0.6927923E+03
Ar 1184  0.3198467E+02  0.2325669E+01  0.7390183E+01  0.8993259E+03
Ar 1185  0.3151941E+02  0.3711841E+02  0.1084137E+02  0.4496671E+03
Ar 1186  0.3438151E+02  0.2287755E+01  0.1032525E+02  0.4250272E+03
Ar 1187  0.3408292E+02  0.2840485E+00  0.1308925E+02  0.2207920E+03
Ar 1188  0.3164851E+02  0.2333868E+01  0.1290721E+02  0.1478738E+03
Ar 1189  0.3220298E+02  0.2883153E+00  0.1614331E+02  0.2117178E+03
Ar 1190  0.3469412E+02  0.2372660E+01  0.1618497E+02  0.7198935E+03
Ar 1191  0.3490509E+02  0.3764378E+02  0.1880379E+02  0.3122403E+02
Ar 1192  0.3280616E+02  0.2491009E+01  0.1860233E+02  0.7447142E+02
Ar 1193  0.3213807E+02  0.3767064E+02  0.2147159E+02  0.1340729E+03
Ar 1194  0.3468388E+02  0.2080483E+01  0.2142302E+02  0.4239577E+03
Ar 1195  0.3462292E+02  0.3750615E+02  0.2406425E+02  0.9441924E+02
Ar 1196  0.3179952E+02  0.2393736E+01  0.2366729E+02  0.8511932E+02
Ar 1197  0.3236984E+02  0.3764557E+02  0.2642912E+02  0.2608356E+03
Ar 1198  0.3479911E+02  0.2676556E+01  0.2663878E+02  0.3337230E+03
Ar 1199  0.3433452E+02  0.3777282E+02  0.2925372E+02  0.4317951E+03
Ar 1200  0.3200728E+02  0.3130827E+01  0.2933366E+02  0.5953130E+02
Ar 1201  0.3169361E+02  0.3743909E+00  0.3169361E+02  0.3694050E+03
Ar 1202  0.3510550E+02  0.2703521E+01  0.3134933E+02  0.3540231E+03
Ar 1203  0.3461978E+02  0.3690073E+02  0.3461978E+02  0.1730279E+03
Ar 1204  0.3134933E+02  0.2703521E+01  0.3510550E+02  0.3540231E+03
Ar 1205  0.3163565E+02  0.5553703E+01  0.3718099E+02  0.2075003E+03
Ar 1206  0.3411446E+02  0.8525721E+01  0.3728103E+02  0.6927923E+03
Ar 1207  0.3436311E+02  0.5025623E+01  0.1418926E+01  0.1643629E+03
Ar 1208  0.3198467E+02  0.7390183E+01  0.2325669E+01  0.8993259E+03
Ar 1209  0.3158771E+02  0.4744650E+01  0.4744650E+01  0.4546977E+02
Ar 1210  0.3440860E+02  0.7825750E+01  0.4887073E+01  0.1929951E+02
Ar 1211  0.3440860E+02  0.4887073E+01  0.7825750E+01  0.1929951E+02
Ar 1212  0.3156874E+02  0.7629924E+01  0.7629924E+01  0.7605546E+03
Ar 1213  0.3188821E+02  0.4978870E+01  0.1038574E+02  0.1179507E+04
Ar 1214  0.3536389E+02  0.7251389E+01  0.1049069E+02  0.1969526E+03
Ar 1215  0.3437976E+02  0.4816549E+01  0.1260030E+02  0.1181735E+02
Ar 1216  0.3267036E+02  0.7454782E+01  0.1371213E+02  0.7891074E+02
Ar 1217  0.3204344E+02  0.4678423E+01  0.1557089E+02  0.2334624E+03
Ar 1218  0.3514720E+02  0.7372664E+01  0.1663750E+02  0.1414077E+04
Ar 1219  0.3450280E+02  0.5035070E+01  0.1952536E+02  0.1175515E+03
Ar 1220  0.3183459E+02  0.7272308E+01  0.1857846E+02  0.1354619E+03
Ar 1221  0.3191676E+02  0.5099459E+01  0.2134926E+02  0.1029528E+02
Ar 1222  0.3456729E+02  0.7890779E+01  0.2139634E+02  0.2776125E+03
Ar 1223  0.3485382E+02  0.5242708E+01  0.2418040E+02  0.8168201E+03
Ar 1224  0.3196233E+02  0.7603455E+01  0.2397656E+02  0.6113915E+03
Ar 1225  0.3208570E+02  0.5194158E+01  0.2649065E+02  0.2554684E+03
Ar 1226  0.3449436E+02  0.8023135E+01  0.2628163E+02  0.3641732E+03
Ar 1227  0.3467148E+02  0.5537097E+01  0.2901059E+02  0.1893192E+03
Ar 1228  0.3209780E+02  0.8231616E+01  0.2908610E+02  0.3701626E+03
Ar 1229  0.3213653E+02  0.5867188E+01  0.3213653E+02  0.9671571E+02
Ar 1230  0.3466380E+02  0.8127633E+01  0.3184982E+02  0.2754916E+03
Ar 1231  0.3451686E+02  0.5254754E+01  0.3451686E+02  0.9890487E+03
Ar 1232  0.3184982E+02  0.8127633E+01  0.3466380E+02  0.2754916E+03
Ar 1233  0.3151941E+02  0.1084137E+02  0.3711841E+02  0.4496671E+03
Ar 1234  0.3408292E+02  0.1308925E+02  0.2840485E+00  0.2207920E+03
Ar 1235  0.3438151E+02  0.1032525E+02  0.2287755E+01  0.4250272E+03
Ar 1236  0.3164851E+02  0.1290721E+02  0.2333868E+01  0.1478738E+03
Ar 1237  0.3188821E+02  0.1038574E+02  0.4978870E+01  0.1179507E+04
Ar 1238  0.3437976E+02  0.1260030E+02  0.4816549E+01  0.1181735E+02
Ar 1239  0.3536389E+02  0.1049069E+02  0.7251389E+01  0.1969526E+03
Ar 1240  0.3267036E+02  0.1371213E+02  0.7454782E+01  0.7891074E+02
Ar 1241  0.3151162E+02  0.1041980E+02  0.1041980E+02  0.7855942E+02
Ar 1242  0.3494789E+02  0.1257686E+02  0.1024705E+02  0.6992047E+03
Ar 1243  0.3494789E+02  0.1024705E+02  0.1257686E+02  0.6992047E+03
Ar 1244  0.3201120E+02  0.1263880E+02  0.1263880E+02  0.5023476E+02
Ar 1245  0.3234921E+02  0.9945419E+01  0.1596518E+02  0.1269633E+02
Ar 1246  0.3548010E+02  0.1262975E+02  0.1556504E+02  0.2103238E+03
Ar 1247  0.3501637E+02  0.1001929E+02  0.1851561E+02  0.1142916E+03
Ar 1248  0.3239539E+02  0.1271864E+02  0.1775466E+02  0.2295646E+03
Ar 1249  0.3162352E+02  0.1045618E+02  0.2134600E+02  0.2549807E+03
Ar 1250  0.3452370E+02  0.1289677E+02  0.2088572E+02  0.2736301E+03
Ar 1251  0.3412403E+02  0.1032025E+02  0.2394598E+02  0.4993268E+03
Ar 1252  0.3150119E+02  0.1336669E+02  0.2395318E+02  0.2438057E+02
Ar 1253  0.3179076E+02  0.1078775E+02  0.2653289E+02  0.3140115E+02
Ar 1254  0.3502044E+02  0.1277209E+02  0.2662298E+02  0.3364412E+02
Ar 1255  0.3458373E+02  0.1082434E+02  0.2932269E+02  0.3211088E+03
Ar 1256  0.3253325E+02  0.1356099E+02  0.2873414E+02  0.4566999E+03
Ar 1257  0.3164610E+02  0.1186360E+02  0.3164610E+02  0.4971329E+02
Ar 1258  0.3502202E+02  0.1353164E+02  0.3168059E+02  0.6823753E+02
Ar 1259  0.3403047E+02  0.1101102E+02  0.3403047E+02  0.4928789E+03
Ar 1260  0.3168059E+02  0.1353164E+02  0.3502202E+02  0.6823753E+02
Ar 1261  0.3220298E+02  0.1614331E+02  0.2883153E+00  0.2117178E+03
Ar 1262  0.3490509E+02  0.1880379E+02  0.3764378E+02  0.3122403E+02
Ar 1263  0.3469412E+02  0.1618497E+02  0.2372660E+01  0.7198935E+03
Ar 1264  0.3280616E+02  0.1860233E+02  0.2491009E+01  0.7447142E+02
Ar 1265  0.3204344E+02  0.1557089E+02  0.4678423E+01  0.2334624E+03
Ar 1266  0.3450280E+02  0.1952536E+02  0.5035070E+01  0.1175515E+03
Ar 1267  0.3514720E+02  0.1663750E+02  0.7372664E+01  0.1414077E+04
Ar 1268  0.3183459E+02  0.1857846E+02  0.7272308E+01  0.1354619E+03
Ar 1269  0.3234921E+02  0.1596518E+02  0.9945419E+01  0.1269633E+02
Ar 1270  0.3501637E+02  0.1851561E+02  0.1001929E+02  0.1142916E+03
Ar 1271  0.3548010E+02  0.1556504E+02  0.1262975E+02  0.2103238E+03
Ar 1272  0.3239539E+02  0.1775466E+02  0.1271864E+02  0.2295646E+03
Ar 1273  0.3278934E+02  0.1585767E+02  0.1585767E+02  0.3911219E+03
Ar 1274  0.3435759E+02  0.1878111E+02  0.1562224E+02  0.8273997E+02
Ar 1275  0.3435759E+02  0.1562224E+02  0.1878111E+02  0.8273997E+02
Ar 1276  0.3130418E+02  0.1861447E+02  0.1861447E+02  0.4469641E+03
Ar 1277  0.3178562E+02  0.1582340E+02  0.2114647E+02  0.8792679E+02
Ar 1278  0.3485352E+02  0.1839568E+02  0.2152382E+02  0.7654296E+02
Ar 1279  0.3451598E+02  0.1589746E+02  0.2389431E+02  0.1783781E+03
Ar 1280  0.3204316E+02  0.1865153E+02  0.2403546E+02  0.4951989E+02
Ar 1281  0.3255162E+02  0.1625606E+02  0.2706844E+02  0.2339680E+03
Ar 1282  0.3542914E+02  0.1869183E+02  0.2681257E+02  0.1789307E+03
Ar 1283  0.3512757E+02  0.1635973E+02  0.2964221E+02  0.2850691E+03
Ar 1284  0.3215848E+02  0.1870243E+02  0.2930125E+02  0.1435313E+03
Ar 1285  0.3170746E+02  0.1586433E+02  0.3170746E+02  0.3737516E+02
Ar 1286  0.3492331E+02  0.1828556E+02  0.3217666E+02  0.2658004E+03
Ar 1287  0.3478682E+02  0.1584163E+02  0.3478682E+02  0.2421629E+03
Ar 1288  0.3217666E+02  0.1828556E+02  0.3492331E+02  0.2658004E+03
Ar 1289  0.3213807E+02  0.2147159E+02  0.3767064E+02  0.1340729E+03
Ar 1290  0.3462292E+02  0.2406425E+02  0.3750615E+02  0.9441924E+02
Ar 1291  0.3468388E+02  0.2142302E+02  0.2080483E+01  0.4239577E+03
Ar 1292  0.3179952E+02  0.2366729E+02  0.2393736E+01  0.8511932E+02
Ar 1293  0.3191676E+02  0.2134926E+02  0.5099459E+01  0.1029528E+02
Ar 1294  0.3485382E+02  0.2418040E+02  0.5242708E+01  0.8168201E+03
Ar 1295  0.3456729E+02  0.2139634E+02  0.7890779E+01  0.2776125E+03
Ar 1296  0.3196233E+02  0.2397656E+02  0.7603455E+01  0.6113915E+03
Ar 1297  0.3162352E+02  0.2134600E+02  0.1045618E+02  0.2549807E+03
Ar 1298  0.3412403E+02  0.2394598E+02  0.1032025E+02  0.4993268E+03
Ar 1299  0.3452370E+02  0.2088572E+02  0.1289677E+02  0.2736301E+03
Ar 1300  0.3150119E+02  0.2395318E+02  0.1336669E+02  0.2438057E+02
Ar 1301  0.3178562E+02  0.2114647E+02  0.1582340E+02  0.8792679E+02
Ar 1302  0.3451598E+02  0.2389431E+02  0.1589746E+02  0.1783781E+03
Ar 1303  0.3485352E+02  0.2152382E+02  0.1839568E+02  0.7654296E+02
Ar 1304  0.3204316E+02  0.2403546E+02  0.1865153E+02  0.4951989E+02
Ar 1305  0.3189302E+02  0.2120839E+02  0.2120839E+02  0.1075579E+03
Ar 1306  0.3441731E+02  0.2403545E+02  0.2114060E+02  0.3427420E+03
Ar 1307  0.3441731E+02  0.2114060E+02  0.2403545E+02  0.3427420E+03
Ar 1308  0.3178283E+02  0.2392690E+02  0.2392690E+02  0.2771834E+03
Ar 1309  0.3201829E+02  0.2141795E+02  0.2697434E+02  0.3325816E+03
Ar 1310  0.3458972E+02  0.2357513E+02  0.2725222E+02  0.4905689E+02
Ar 1311  0.3483729E+02  0.2091170E+02  0.2973793E+02  0.4386545E+03
Ar 1312  0.3211521E+02  0.2359823E+02  0.2965943E+02  0.1659116E+03
Ar 1313  0.3239024E+02  0.2067818E+02  0.3239024E+02  0.8065152E+03
Ar 1314  0.3514513E+02  0.2347572E+02  0.3222889E+02  0.2803615E+03
Ar 1315  0.3487642E+02  0.2155997E+02  0.3487642E+02  0.6801928E+03
Ar 1316  0.3222889E+02  0.2347572E+02  0.3514513E+02  0.2803615E+03
Ar 1317  0.3236984E+02  0.2642912E+02  0.3764557E+02  0.2608356E+03
Ar 1318  0.3433452E+02  0.2925372E+02  0.3777282E+02  0.4317951E+03
Ar 1319  0.3479911E+02  0.2663878E+02  0.2676556E+01  0.3337230E+03
Ar 1320  0.3200728E+02  0.2933366E+02  0.3130827E+01  0.5953129E+02
Ar 1321  0.3208570E+02  0.2649065E+02  0.5194158E+01  0.2554684E+03
Ar 1322  0.3467148E+02  0.2901059E+02  0.5537097E+01  0.1893192E+03
Ar 1323  0.3449436E+02  0.2628163E+02  0.8023135E+01  0.3641732E+03
Ar 1324  0.3209780E+02  0.2908610E+02  0.8231616E+01  0.3701626E+03
Ar 1325  0.3179076E+02  0.2653289E+02  0.1078775E+02  0.3140115E+02
Ar 1326  0.3458373E+02  0.2932269E+02  0.1082434E+02  0.3211088E+03
Ar 1327  0.3502044E+02  0.2662298E+02  0.1277209E+02  0.3364412E+02
Ar 1328  0.3253325E+02  0.2873414E+02  0.1356099E+02  0.4566999E+03
Ar 1329  0.3255162E+02  0.2706844E+02  0.1625606E+02  0.2339680E+03
Ar 1330  0.3512757E+02  0.2964221E+02  0.1635973E+02  0.2850691E+03
Ar 1331  0.3542914E+02  0.2681257E+02  0.1869183E+02  0.1789307E+03
Ar 1332  0.3215848E+02  0.2930125E+02  0.1870243E+02  0.1435313E+03
Ar 1333  0.3201829E+02  0.2697434E+02  0.2141795E+02  0.3325816E+03
Ar 1334  0.3483729E+02  0.2973793E+02  0.2091170E+02  0.4386545E+03
Ar 1335  0.3458972E+02  0.2725222E+02  0.2357513E+02  0.4905689E+02
Ar 1336  0.3211521E+02  0.2965943E+02  0.2359823E+02  0.1659116E+03
Ar 1337  0.3216335E+02  0.2609693E+02  0.2609693E+02  0.9272045E+01
Ar 1338  0.3496887E+02  0.2933812E+02  0.2602743E+02  0.5106402E+03
Ar 1339  0.3496887E+02  0.2602743E+02  0.2933812E+02  0.5106402E+03
Ar 1340  0.3264180E+02  0.2851010E+02  0.2851010E+02  0.2553108E+03
Ar 1341  0.3267686E+02  0.2571609E+02  0.3267686E+02  0.5147188E+03
Ar 1342  0.3505668E+02  0.2903486E+02  0.3149735E+02  0.2754933E+03
Ar 1343  0.3505378E+02  0.2736063E+02  0.3505378E+02  0.7481407E+02
Ar 1344  0.3149735E+02  0.2903486E+02  0.3505668E+02  0.2754933E+03
Ar 1345  0.3169361E+02  0.3169361E+02  0.3743909E+00  0.3694050E+03
Ar 1346  0.3461978E+02  0.3461978E+02  0.3690073E+02  0.1730279E+03
Ar 1347  0.3510550E+02  0.3134933E+02  0.2703521E+01  0.3540231E+03
Ar 1348  0.3134933E+02  0.3510550E+02  0.2703521E+01  0.3540231E+03
Ar 1349  0.3213653E+02  0.3213653E+02  0.5867188E+01  0.9671571E+02
Ar 1350  0.3451686E+02  0.3451686E+02  0.5254754E+01  0.9890487E+03
Ar 1351  0.3466380E+02  0.3184982E+02  0.8127633E+01  0.2754916E+03
Ar 1352  0.3184982E+02  0.3466380E+02  0.8127633E+01  0.2754916E+03
Ar 1353  0.3164610E+02  0.3164610E+02  0.1186360E+02  0.4971329E+02
Ar 1354  0.3403047E+02  0.3403047E+02  0.1101102E+02  0.4928789E+03
Ar 1355  0.3502202E+02  0.3168059E+02  0.1353164E+02  0.6823753E+02
Ar 1356  0.3168059E+02  0.3502202E+02  0.1353164E+02  0.6823753E+02
Ar 1357  0.3170746E+02  0.3170746E+02  0.1586433E+02  0.3737516E+02
Ar 1358  0.3478682E+02  0.3478682E+02  0.1584163E+02  0.2421629E+03
Ar 1359  0.3492331E+02  0.3217666E+02  0.1828556E+02  0.2658004E+03
Ar 1360  0.3217666E+02  0.3492331E+02  0.1828556E+02  0.2658004E+03
Ar 1361  0.3239024E+02  0.3239024E+02  0.2067818E+02  0.8065152E+03
Ar 1362  0.3487642E+02  0.3487642E+02  0.2155997E+02  0.6801928E+03
Ar 1363  0.3514513E+02  0.3222889E+02  0.2347572E+02  0.2803615E+03
Ar 1364  0.3222889E+02  0.3514513E+02  0.2347572E+02  0.2803615E+03
Ar 1365  0.3267686E+02  0.3267686E+02  0.2571609E+02  0.5147188E+03
Ar 1366  0.3505378E+02  0.3505378E+02  0.2736063E+02  0.7481407E+02
Ar 1367  0.3505668E+02  0.3149735E+02  0.2903486E+02  0.2754933E+03
Ar 1368  0.3149735E+02  0.3505668E+02  0.2903486E+02  0.2754933E+03
Ar 1369  0.3092344E+02  0.3092344E+02  0.3092344E+02  0.1056675E+02
Ar 1370  0.3476997E+02  0.3476997E+02  0.3181349E+02  0.2022717E+03
Ar 1371  0.3476997E+02  0.3181349E+02  0.3476997E+02  0.2022717E+03
Ar 1372  0.3181349E+02  0.3476997E+02  0.3476997E+02  0.2022717E+03
