        1372
Lattice="  0.3778015E+02  0.0000000E+00  0.0000000E+00  0.0000000E+00  0.3778015E+02  0.0000000E+00  0.0000000E+00  0.0000000E+00  0.3778015E+02" Properties=species:S:1:id:I:1:pos:R:3:tempK:R:1
Ar    1  0.3692901E+02  0.3692901E+02  0.3692901E+02  0.1840859E+03
Ar    2  0.1708866E+01  0.1708866E+01  0.3683519E+02  0.1444238E+03
Ar    3  0.1708866E+01  0.3683519E+02  0.1708866E+01  0.1444238E+03
Ar    4  0.3683519E+02  0.1708866E+01  0.1708866E+01  0.1444238E+03
Ar    5  0.3715898E+02  0.3715898E+02  0.5141336E+01  0.2313777E+03
Ar    6  0.2003652E+01  0.2003652E+01  0.4909616E+01  0.1361377E+02
Ar    7  0.1803408E+01  0.3719414E+02  0.7945009E+01  0.1797531E+03
Ar    8  0.3719414E+02  0.1803408E+01  0.7945009E+01  0.1797531E+03
Ar    9  0.3724723E+02  0.3724723E+02  0.1110663E+02  0.1410806E+03
Ar   10  0.1754396E+01  0.1754396E+01  0.1071522E+02  0.3834958E+02
Ar   11  0.2412671E+01  0.3723288E+02  0.1359821E+02  0.1301885E+03
Ar   12  0.3723288E+02  0.2412671E+01  0.1359821E+02  0.1301885E+03
Ar   13  0.2507961E-01  0.2507961E-01  0.1754917E+02  0.2812973E+03
Ar   14  0.2296500E+01  0.2296500E+01  0.1745558E+02  0.1276549E+03
Ar   15  0.2827861E+01  0.3770826E+02  0.1984862E+02  0.4579850E+03
Ar   16  0.3770826E+02  0.2827861E+01  0.1984862E+02  0.4579850E+03
Ar   17  0.4736827E+00  0.4736827E+00  0.2217224E+02  0.3209591E+03
Ar   18  0.2959586E+01  0.2959586E+01  0.2270115E+02  0.1430380E+03
Ar   19  0.2457020E+01  0.3750494E+02  0.2497614E+02  0.6337969E+02
Ar   20  0.3750494E+02  0.2457020E+01  0.2497614E+02  0.6337969E+02
Ar   21  0.3733622E+02  0.3733622E+02  0.2778394E+02  0.4185451E+02
Ar   22  0.2538150E+01  0.2538150E+01  0.2759595E+02  0.8991682E+01
Ar   23  0.2410334E+01  0.3751056E+02  0.2959433E+02  0.2338425E+03
Ar   24  0.3751056E+02  0.2410334E+01  0.2959433E+02  0.2338425E+03
Ar   25  0.3720465E+02  0.3720465E+02  0.3217339E+02  0.4078466E+03
Ar   26  0.2351925E+01  0.2351925E+01  0.3248389E+02  0.1711750E+03
Ar   27  0.2366607E+01  0.3714802E+02  0.3453271E+02  0.3324290E+03
Ar   28  0.3714802E+02  0.2366607E+01  0.3453271E+02  0.3324290E+03
Ar   29  0.3715898E+02  0.5141336E+01  0.3715898E+02  0.2313777E+03
Ar   30  0.1803408E+01  0.7945009E+01  0.3719414E+02  0.1797531E+03
Ar   31  0.2003652E+01  0.4909616E+01  0.2003652E+01  0.1361377E+02
Ar   32  0.3719414E+02  0.7945009E+01  0.1803408E+01  0.1797531E+03
Ar   33  0.3772654E+02  0.4696057E+01  0.4696057E+01  0.2308096E+03
Ar   34  0.2125018E+01  0.7464093E+01  0.4936413E+01  0.1193226E+03
Ar   35  0.2125018E+01  0.4936413E+01  0.7464093E+01  0.1193226E+03
Ar   36  0.3744000E+02  0.7926284E+01  0.7926284E+01  0.3807144E+02
Ar   37  0.3750384E+02  0.4634892E+01  0.1084640E+02  0.1139605E+03
Ar   38  0.2363848E+01  0.7256410E+01  0.1023890E+02  0.9464459E+02
Ar   39  0.2222266E+01  0.4630499E+01  0.1340159E+02  0.3038968E+02
Ar   40  0.4041872E+00  0.7791621E+01  0.1309129E+02  0.1180518E+03
Ar   41  0.3756980E+02  0.5248791E+01  0.1645773E+02  0.3413978E+02
Ar   42  0.2548843E+01  0.7867293E+01  0.1630824E+02  0.2194186E+03
Ar   43  0.2390579E+01  0.5281744E+01  0.1985789E+02  0.6601000E+02
Ar   44  0.4769176E+00  0.7990784E+01  0.2024030E+02  0.2206217E+03
Ar   45  0.3754781E+02  0.5074543E+01  0.2277004E+02  0.1232083E+03
Ar   46  0.3077436E+01  0.7821164E+01  0.2306109E+02  0.2945625E+03
Ar   47  0.2872373E+01  0.5308773E+01  0.2530302E+02  0.2027418E+03
Ar   48  0.1236741E+00  0.7935616E+01  0.2491480E+02  0.1529572E+03
Ar   49  0.3734580E+02  0.5853969E+01  0.2749742E+02  0.8439494E+01
Ar   50  0.2736405E+01  0.8466821E+01  0.2752785E+02  0.2103968E+02
Ar   51  0.2368113E+01  0.5244316E+01  0.3011645E+02  0.8468327E+02
Ar   52  0.3768228E+02  0.8369450E+01  0.2974119E+02  0.8243814E+02
Ar   53  0.3712724E+02  0.5316005E+01  0.3206923E+02  0.1161614E+03
Ar   54  0.1999785E+01  0.7740834E+01  0.3259874E+02  0.8539394E+02
Ar   55  0.2475327E+01  0.5151749E+01  0.3488595E+02  0.3335546E+01
Ar   56  0.3706944E+02  0.8573602E+01  0.3453649E+02  0.1023226E+03
Ar   57  0.3724723E+02  0.1110663E+02  0.3724723E+02  0.1410806E+03
Ar   58  0.2412671E+01  0.1359821E+02  0.3723288E+02  0.1301885E+03
Ar   59  0.1754396E+01  0.1071522E+02  0.1754396E+01  0.3834958E+02
Ar   60  0.3723288E+02  0.1359821E+02  0.2412671E+01  0.1301885E+03
Ar   61  0.3750384E+02  0.1084640E+02  0.4634892E+01  0.1139605E+03
Ar   62  0.2222266E+01  0.1340159E+02  0.4630499E+01  0.3038968E+02
Ar   63  0.2363848E+01  0.1023890E+02  0.7256410E+01  0.9464459E+02
Ar   64  0.4041872E+00  0.1309129E+02  0.7791621E+01  0.1180518E+03
Ar   65  0.2535926E+00  0.1035586E+02  0.1035586E+02  0.8064968E+02
Ar   66  0.2611788E+01  0.1344073E+02  0.1056041E+02  0.1185312E+03
Ar   67  0.2611788E+01  0.1056041E+02  0.1344073E+02  0.1185312E+03
Ar   68  0.1567851E+00  0.1303187E+02  0.1303187E+02  0.3893887E+02
Ar   69  0.2853974E+00  0.1066047E+02  0.1638989E+02  0.1670150E+03
Ar   70  0.2877643E+01  0.1302663E+02  0.1583279E+02  0.2063802E+03
Ar   71  0.3072211E+01  0.1050150E+02  0.1893369E+02  0.3567663E+02
Ar   72  0.1054362E+01  0.1340200E+02  0.1874997E+02  0.1275405E+03
Ar   73  0.5990375E+00  0.1070758E+02  0.2264540E+02  0.8202345E+02
Ar   74  0.2888343E+01  0.1320005E+02  0.2231847E+02  0.1631970E+03
Ar   75  0.3036066E+01  0.1091439E+02  0.2507304E+02  0.1140280E+03
Ar   76  0.5009942E+00  0.1420216E+02  0.2523119E+02  0.1788654E+03
Ar   77  0.4398359E+00  0.1147258E+02  0.2735477E+02  0.4848318E+02
Ar   78  0.3399297E+01  0.1412406E+02  0.2741797E+02  0.7028807E+02
Ar   79  0.2707759E+01  0.1110955E+02  0.3069115E+02  0.3876045E+02
Ar   80  0.2826758E+00  0.1423497E+02  0.2994305E+02  0.9729590E+02
Ar   81  0.3768787E+02  0.1130774E+02  0.3235805E+02  0.1992866E+03
Ar   82  0.2780483E+01  0.1413326E+02  0.3244327E+02  0.1075137E+03
Ar   83  0.2091921E+01  0.1072727E+02  0.3491385E+02  0.1411425E+02
Ar   84  0.3751533E+02  0.1440273E+02  0.3492234E+02  0.1380380E+03
Ar   85  0.2507961E-01  0.1754917E+02  0.2507961E-01  0.2812973E+03
Ar   86  0.2827861E+01  0.1984862E+02  0.3770826E+02  0.4579850E+03
Ar   87  0.2296500E+01  0.1745558E+02  0.2296500E+01  0.1276549E+03
Ar   88  0.3770826E+02  0.1984862E+02  0.2827861E+01  0.4579850E+03
Ar   89  0.3756980E+02  0.1645773E+02  0.5248791E+01  0.3413978E+02
Ar   90  0.2390579E+01  0.1985789E+02  0.5281744E+01  0.6601000E+02
Ar   91  0.2548843E+01  0.1630824E+02  0.7867293E+01  0.2194186E+03
Ar   92  0.4769176E+00  0.2024030E+02  0.7990784E+01  0.2206217E+03
Ar   93  0.2853974E+00  0.1638989E+02  0.1066047E+02  0.1670150E+03
Ar   94  0.3072211E+01  0.1893369E+02  0.1050150E+02  0.3567663E+02
Ar   95  0.2877643E+01  0.1583279E+02  0.1302663E+02  0.2063802E+03
Ar   96  0.1054362E+01  0.1874997E+02  0.1340200E+02  0.1275405E+03
Ar   97  0.1362185E+01  0.1613264E+02  0.1613264E+02  0.1678580E+03
Ar   98  0.3376525E+01  0.1939254E+02  0.1601195E+02  0.1198099E+03
Ar   99  0.3376525E+01  0.1601195E+02  0.1939254E+02  0.1198099E+03
Ar  100  0.1581414E+01  0.1890556E+02  0.1890556E+02  0.5469790E+02
Ar  101  0.1377928E+01  0.1639485E+02  0.2208497E+02  0.4493286E+03
Ar  102  0.3921536E+01  0.1933711E+02  0.2190744E+02  0.6486994E+02
Ar  103  0.3797289E+01  0.1660948E+02  0.2480367E+02  0.9993743E+02
Ar  104  0.1079519E+01  0.1879905E+02  0.2403935E+02  0.6390005E+02
Ar  105  0.1209649E+01  0.1695529E+02  0.2710203E+02  0.1516198E+03
Ar  106  0.4361012E+01  0.1921096E+02  0.2729036E+02  0.2532107E+02
Ar  107  0.2930607E+01  0.1667140E+02  0.3005276E+02  0.3996248E+02
Ar  108  0.9544581E+00  0.1952265E+02  0.2946465E+02  0.6006651E+02
Ar  109  0.3774443E+02  0.1723593E+02  0.3209835E+02  0.2047604E+03
Ar  110  0.3383296E+01  0.2008480E+02  0.3215209E+02  0.8775288E+01
Ar  111  0.2460137E+01  0.1712956E+02  0.3478791E+02  0.1691781E+03
Ar  112  0.5049051E-01  0.1997385E+02  0.3544523E+02  0.4544862E+03
Ar  113  0.4736827E+00  0.2217224E+02  0.4736827E+00  0.3209591E+03
Ar  114  0.2457020E+01  0.2497614E+02  0.3750494E+02  0.6337969E+02
Ar  115  0.2959586E+01  0.2270115E+02  0.2959586E+01  0.1430380E+03
Ar  116  0.3750494E+02  0.2497614E+02  0.2457020E+01  0.6337969E+02
Ar  117  0.3754781E+02  0.2277004E+02  0.5074543E+01  0.1232083E+03
Ar  118  0.2872373E+01  0.2530302E+02  0.5308773E+01  0.2027418E+03
Ar  119  0.3077436E+01  0.2306109E+02  0.7821164E+01  0.2945625E+03
Ar  120  0.1236741E+00  0.2491480E+02  0.7935616E+01  0.1529572E+03
Ar  121  0.5990375E+00  0.2264540E+02  0.1070758E+02  0.8202345E+02
Ar  122  0.3036066E+01  0.2507304E+02  0.1091439E+02  0.1140280E+03
Ar  123  0.2888343E+01  0.2231847E+02  0.1320005E+02  0.1631970E+03
Ar  124  0.5009942E+00  0.2523119E+02  0.1420216E+02  0.1788654E+03
Ar  125  0.1377928E+01  0.2208497E+02  0.1639485E+02  0.4493286E+03
Ar  126  0.3797289E+01  0.2480367E+02  0.1660948E+02  0.9993743E+02
Ar  127  0.3921536E+01  0.2190744E+02  0.1933711E+02  0.6486994E+02
Ar  128  0.1079519E+01  0.2403935E+02  0.1879905E+02  0.6390005E+02
Ar  129  0.1699691E+01  0.2208225E+02  0.2208225E+02  0.2877679E+02
Ar  130  0.3999036E+01  0.2442185E+02  0.2160626E+02  0.2243047E+03
Ar  131  0.3999036E+01  0.2160626E+02  0.2442185E+02  0.2243047E+03
Ar  132  0.1208098E+00  0.2441245E+02  0.2441245E+02  0.1536703E+03
Ar  133  0.8847547E+00  0.2136572E+02  0.2653096E+02  0.7403939E+02
Ar  134  0.3615322E+01  0.2411313E+02  0.2692524E+02  0.4341628E+03
Ar  135  0.3383870E+01  0.2205668E+02  0.2949348E+02  0.1051403E+03
Ar  136  0.7444981E-01  0.2368258E+02  0.2886628E+02  0.6369690E+02
Ar  137  0.3751459E+02  0.2206106E+02  0.3216137E+02  0.2985449E+03
Ar  138  0.2829141E+01  0.2406783E+02  0.3205912E+02  0.3660649E+02
Ar  139  0.2944592E+01  0.2222261E+02  0.3506780E+02  0.1502909E+02
Ar  140  0.3756872E+02  0.2460847E+02  0.3510013E+02  0.2057536E+03
Ar  141  0.3733622E+02  0.2778394E+02  0.3733622E+02  0.4185451E+02
Ar  142  0.2410334E+01  0.2959433E+02  0.3751056E+02  0.2338425E+03
Ar  143  0.2538150E+01  0.2759595E+02  0.2538150E+01  0.8991682E+01
Ar  144  0.3751056E+02  0.2959433E+02  0.2410334E+01  0.2338425E+03
Ar  145  0.3734580E+02  0.2749742E+02  0.5853969E+01  0.8439494E+01
Ar  146  0.2368113E+01  0.3011645E+02  0.5244316E+01  0.8468327E+02
Ar  147  0.2736405E+01  0.2752785E+02  0.8466821E+01  0.2103968E+02
Ar  148  0.3768228E+02  0.2974119E+02  0.8369450E+01  0.8243814E+02
Ar  149  0.4398359E+00  0.2735477E+02  0.1147258E+02  0.4848318E+02
Ar  150  0.2707759E+01  0.3069115E+02  0.1110955E+02  0.3876045E+02
Ar  151  0.3399297E+01  0.2741797E+02  0.1412406E+02  0.7028807E+02
Ar  152  0.2826758E+00  0.2994305E+02  0.1423497E+02  0.9729590E+02
Ar  153  0.1209649E+01  0.2710203E+02  0.1695529E+02  0.1516198E+03
Ar  154  0.2930607E+01  0.3005276E+02  0.1667140E+02  0.3996248E+02
Ar  155  0.4361012E+01  0.2729036E+02  0.1921096E+02  0.2532107E+02
Ar  156  0.9544581E+00  0.2946465E+02  0.1952265E+02  0.6006651E+02
Ar  157  0.8847547E+00  0.2653096E+02  0.2136572E+02  0.7403939E+02
Ar  158  0.3383870E+01  0.2949348E+02  0.2205668E+02  0.1051403E+03
Ar  159  0.3615322E+01  0.2692524E+02  0.2411313E+02  0.4341628E+03
Ar  160  0.7444981E-01  0.2886628E+02  0.2368258E+02  0.6369690E+02
Ar  161  0.3301023E+00  0.2698308E+02  0.2698308E+02  0.3571833E+02
Ar  162  0.3167217E+01  0.2966277E+02  0.2679334E+02  0.8531650E+02
Ar  163  0.3167217E+01  0.2679334E+02  0.2966277E+02  0.8531650E+02
Ar  164  0.1212505E+00  0.2955945E+02  0.2955945E+02  0.4253134E+02
Ar  165  0.7422798E-01  0.2613305E+02  0.3144773E+02  0.4768494E+03
Ar  166  0.3502959E+01  0.2950842E+02  0.3213149E+02  0.4335060E+02
Ar  167  0.2087869E+01  0.2676392E+02  0.3421128E+02  0.1225616E+03
Ar  168  0.3739560E+02  0.2942836E+02  0.3403995E+02  0.1535130E+03
Ar  169  0.3720465E+02  0.3217339E+02  0.3720465E+02  0.4078466E+03
Ar  170  0.2366607E+01  0.3453271E+02  0.3714802E+02  0.3324290E+03
Ar  171  0.2351925E+01  0.3248389E+02  0.2351925E+01  0.1711750E+03
Ar  172  0.3714802E+02  0.3453271E+02  0.2366607E+01  0.3324290E+03
Ar  173  0.3712724E+02  0.3206923E+02  0.5316005E+01  0.1161614E+03
Ar  174  0.2475327E+01  0.3488595E+02  0.5151749E+01  0.3335546E+01
Ar  175  0.1999785E+01  0.3259874E+02  0.7740834E+01  0.8539394E+02
Ar  176  0.3706944E+02  0.3453649E+02  0.8573602E+01  0.1023226E+03
Ar  177  0.3768787E+02  0.3235805E+02  0.1130774E+02  0.1992866E+03
Ar  178  0.2091921E+01  0.3491385E+02  0.1072727E+02  0.1411425E+02
Ar  179  0.2780483E+01  0.3244327E+02  0.1413326E+02  0.1075137E+03
Ar  180  0.3751533E+02  0.3492234E+02  0.1440273E+02  0.1380380E+03
Ar  181  0.3774443E+02  0.3209835E+02  0.1723593E+02  0.2047604E+03
Ar  182  0.2460137E+01  0.3478791E+02  0.1712956E+02  0.1691781E+03
Ar  183  0.3383296E+01  0.3215209E+02  0.2008480E+02  0.8775288E+01
Ar  184  0.5049051E-01  0.3544523E+02  0.1997385E+02  0.4544862E+03
Ar  185  0.3751459E+02  0.3216137E+02  0.2206106E+02  0.2985449E+03
Ar  186  0.2944592E+01  0.3506780E+02  0.2222261E+02  0.1502909E+02
Ar  187  0.2829141E+01  0.3205912E+02  0.2406783E+02  0.3660649E+02
Ar  188  0.3756872E+02  0.3510013E+02  0.2460847E+02  0.2057536E+03
Ar  189  0.7422798E-01  0.3144773E+02  0.2613305E+02  0.4768494E+03
Ar  190  0.2087869E+01  0.3421128E+02  0.2676392E+02  0.1225616E+03
Ar  191  0.3502959E+01  0.3213149E+02  0.2950842E+02  0.4335060E+02
Ar  192  0.3739560E+02  0.3403995E+02  0.2942836E+02  0.1535130E+03
Ar  193  0.6874811E+00  0.3199172E+02  0.3199172E+02  0.5059137E+03
Ar  194  0.2789554E+01  0.3481970E+02  0.3173579E+02  0.1758993E+03
Ar  195  0.2789554E+01  0.3173579E+02  0.3481970E+02  0.1758993E+03
Ar  196  0.3753585E+02  0.3432183E+02  0.3432183E+02  0.6312491E+02
Ar  197  0.5141336E+01  0.3715898E+02  0.3715898E+02  0.2313777E+03
Ar  198  0.7945009E+01  0.1803408E+01  0.3719414E+02  0.1797531E+03
Ar  199  0.7945009E+01  0.3719414E+02  0.1803408E+01  0.1797531E+03
Ar  200  0.4909616E+01  0.2003652E+01  0.2003652E+01  0.1361377E+02
Ar  201  0.4696057E+01  0.3772654E+02  0.4696057E+01  0.2308096E+03
Ar  202  0.7464093E+01  0.2125018E+01  0.4936413E+01  0.1193226E+03
Ar  203  0.7926284E+01  0.3744000E+02  0.7926284E+01  0.3807144E+02
Ar  204  0.4936413E+01  0.2125018E+01  0.7464093E+01  0.1193226E+03
Ar  205  0.4634892E+01  0.3750384E+02  0.1084640E+02  0.1139605E+03
Ar  206  0.7256410E+01  0.2363848E+01  0.1023890E+02  0.9464459E+02
Ar  207  0.7791621E+01  0.4041872E+00  0.1309129E+02  0.1180518E+03
Ar  208  0.4630499E+01  0.2222266E+01  0.1340159E+02  0.3038968E+02
Ar  209  0.5248791E+01  0.3756980E+02  0.1645773E+02  0.3413978E+02
Ar  210  0.7867293E+01  0.2548843E+01  0.1630824E+02  0.2194186E+03
Ar  211  0.7990784E+01  0.4769176E+00  0.2024030E+02  0.2206217E+03
Ar  212  0.5281744E+01  0.2390579E+01  0.1985789E+02  0.6601000E+02
Ar  213  0.5074543E+01  0.3754781E+02  0.2277004E+02  0.1232083E+03
Ar  214  0.7821164E+01  0.3077436E+01  0.2306109E+02  0.2945625E+03
Ar  215  0.7935616E+01  0.1236741E+00  0.2491480E+02  0.1529572E+03
Ar  216  0.5308773E+01  0.2872373E+01  0.2530302E+02  0.2027418E+03
Ar  217  0.5853969E+01  0.3734580E+02  0.2749742E+02  0.8439494E+01
Ar  218  0.8466821E+01  0.2736405E+01  0.2752785E+02  0.2103968E+02
Ar  219  0.8369450E+01  0.3768228E+02  0.2974119E+02  0.8243814E+02
Ar  220  0.5244316E+01  0.2368113E+01  0.3011645E+02  0.8468327E+02
Ar  221  0.5316005E+01  0.3712724E+02  0.3206923E+02  0.1161614E+03
Ar  222  0.7740834E+01  0.1999785E+01  0.3259874E+02  0.8539394E+02
Ar  223  0.8573602E+01  0.3706944E+02  0.3453649E+02  0.1023226E+03
Ar  224  0.5151749E+01  0.2475327E+01  0.3488595E+02  0.3335546E+01
Ar  225  0.4696057E+01  0.4696057E+01  0.3772654E+02  0.2308096E+03
Ar  226  0.7926284E+01  0.7926284E+01  0.3744000E+02  0.3807144E+02
Ar  227  0.7464093E+01  0.4936413E+01  0.2125018E+01  0.1193226E+03
Ar  228  0.4936413E+01  0.7464093E+01  0.2125018E+01  0.1193226E+03
Ar  229  0.5273057E+01  0.5273057E+01  0.5273057E+01  0.5025080E+03
Ar  230  0.8093747E+01  0.8093747E+01  0.5010555E+01  0.4313197E+02
Ar  231  0.8093747E+01  0.5010555E+01  0.8093747E+01  0.4313197E+02
Ar  232  0.5010555E+01  0.8093747E+01  0.8093747E+01  0.4313197E+02
Ar  233  0.4409232E+01  0.4409232E+01  0.1038367E+02  0.9020006E+02
Ar  234  0.7272056E+01  0.7272056E+01  0.1074629E+02  0.8090644E+02
Ar  235  0.7462578E+01  0.4562566E+01  0.1292017E+02  0.2121399E+03
Ar  236  0.4562566E+01  0.7462578E+01  0.1292017E+02  0.2121399E+03
Ar  237  0.4704000E+01  0.4704000E+01  0.1667103E+02  0.2891587E+03
Ar  238  0.7238952E+01  0.7238952E+01  0.1533719E+02  0.7322603E+02
Ar  239  0.7412856E+01  0.5137107E+01  0.1929464E+02  0.2376195E+03
Ar  240  0.5137107E+01  0.7412856E+01  0.1929464E+02  0.2376195E+03
Ar  241  0.5085301E+01  0.5085301E+01  0.2178632E+02  0.5774158E+03
Ar  242  0.7484994E+01  0.7484994E+01  0.2280422E+02  0.2307803E+03
Ar  243  0.7812861E+01  0.5272369E+01  0.2534793E+02  0.3036506E+03
Ar  244  0.5272369E+01  0.7812861E+01  0.2534793E+02  0.3036506E+03
Ar  245  0.5275894E+01  0.5275894E+01  0.2789059E+02  0.1127938E+03
Ar  246  0.8033357E+01  0.8033357E+01  0.2780181E+02  0.6824100E+03
Ar  247  0.8147472E+01  0.5315125E+01  0.3030627E+02  0.7098302E+02
Ar  248  0.5315125E+01  0.8147472E+01  0.3030627E+02  0.7098302E+02
Ar  249  0.5569155E+01  0.5569155E+01  0.3285973E+02  0.2990169E+02
Ar  250  0.8073091E+01  0.8073091E+01  0.3320639E+02  0.1066372E+03
Ar  251  0.7834889E+01  0.4830953E+01  0.3546537E+02  0.2021708E+02
Ar  252  0.4830953E+01  0.7834889E+01  0.3546537E+02  0.2021708E+02
Ar  253  0.4634892E+01  0.1084640E+02  0.3750384E+02  0.1139605E+03
Ar  254  0.7791621E+01  0.1309129E+02  0.4041872E+00  0.1180518E+03
Ar  255  0.7256410E+01  0.1023890E+02  0.2363848E+01  0.9464459E+02
Ar  256  0.4630499E+01  0.1340159E+02  0.2222266E+01  0.3038968E+02
Ar  257  0.4409232E+01  0.1038367E+02  0.4409232E+01  0.9020006E+02
Ar  258  0.7462578E+01  0.1292017E+02  0.4562566E+01  0.2121399E+03
Ar  259  0.7272056E+01  0.1074629E+02  0.7272056E+01  0.8090644E+02
Ar  260  0.4562566E+01  0.1292017E+02  0.7462578E+01  0.2121399E+03
Ar  261  0.4625705E+01  0.1072315E+02  0.1072315E+02  0.1486989E+02
Ar  262  0.7488097E+01  0.1310991E+02  0.1027721E+02  0.1337968E+03
Ar  263  0.7488097E+01  0.1027721E+02  0.1310991E+02  0.1337968E+03
Ar  264  0.5250535E+01  0.1310012E+02  0.1310012E+02  0.1103972E+03
Ar  265  0.5217669E+01  0.1007601E+02  0.1562650E+02  0.6592754E+01
Ar  266  0.7617428E+01  0.1303211E+02  0.1590453E+02  0.1480859E+03
Ar  267  0.7529320E+01  0.1019200E+02  0.1938511E+02  0.2750416E+03
Ar  268  0.5534654E+01  0.1320499E+02  0.1906710E+02  0.6852555E+02
Ar  269  0.5391453E+01  0.1028052E+02  0.2257228E+02  0.5218772E+03
Ar  270  0.7716951E+01  0.1266935E+02  0.2168275E+02  0.1059355E+03
Ar  271  0.7592004E+01  0.1035132E+02  0.2521660E+02  0.2674157E+02
Ar  272  0.5487571E+01  0.1300667E+02  0.2458496E+02  0.8479074E+02
Ar  273  0.4872368E+01  0.1104554E+02  0.2798639E+02  0.2058331E+02
Ar  274  0.7778097E+01  0.1266091E+02  0.2754972E+02  0.7609739E+02
Ar  275  0.8124599E+01  0.1094308E+02  0.3047916E+02  0.1001392E+03
Ar  276  0.5840218E+01  0.1382156E+02  0.3049689E+02  0.4427563E+03
Ar  277  0.5553566E+01  0.1121978E+02  0.3276241E+02  0.4465957E+02
Ar  278  0.8309132E+01  0.1354430E+02  0.3303239E+02  0.1304169E+03
Ar  279  0.7768767E+01  0.1089816E+02  0.3539026E+02  0.1125252E+03
Ar  280  0.5396993E+01  0.1397712E+02  0.3505386E+02  0.2922482E+02
Ar  281  0.5248791E+01  0.1645773E+02  0.3756980E+02  0.3413978E+02
Ar  282  0.7990784E+01  0.2024030E+02  0.4769176E+00  0.2206217E+03
Ar  283  0.7867293E+01  0.1630824E+02  0.2548843E+01  0.2194186E+03
Ar  284  0.5281744E+01  0.1985789E+02  0.2390579E+01  0.6601000E+02
Ar  285  0.4704000E+01  0.1667103E+02  0.4704000E+01  0.2891587E+03
Ar  286  0.7412856E+01  0.1929464E+02  0.5137107E+01  0.2376195E+03
Ar  287  0.7238952E+01  0.1533719E+02  0.7238952E+01  0.7322603E+02
Ar  288  0.5137107E+01  0.1929464E+02  0.7412856E+01  0.2376195E+03
Ar  289  0.5217669E+01  0.1562650E+02  0.1007601E+02  0.6592754E+01
Ar  290  0.7529320E+01  0.1938511E+02  0.1019200E+02  0.2750416E+03
Ar  291  0.7617428E+01  0.1590453E+02  0.1303211E+02  0.1480859E+03
Ar  292  0.5534654E+01  0.1906710E+02  0.1320499E+02  0.6852555E+02
Ar  293  0.4972181E+01  0.1602227E+02  0.1602227E+02  0.1979420E+03
Ar  294  0.7857316E+01  0.1827330E+02  0.1570020E+02  0.5682467E+01
Ar  295  0.7857316E+01  0.1570020E+02  0.1827330E+02  0.5682467E+01
Ar  296  0.5788319E+01  0.1889652E+02  0.1889652E+02  0.1084453E+03
Ar  297  0.5623184E+01  0.1576227E+02  0.2190189E+02  0.5088039E+02
Ar  298  0.8365239E+01  0.1840251E+02  0.2166429E+02  0.8707725E+02
Ar  299  0.7411086E+01  0.1580496E+02  0.2508775E+02  0.5242964E+02
Ar  300  0.6391986E+01  0.1907962E+02  0.2441173E+02  0.1395985E+03
Ar  301  0.5953559E+01  0.1624543E+02  0.2813825E+02  0.1990706E+00
Ar  302  0.8066249E+01  0.1883285E+02  0.2758575E+02  0.1658396E+03
Ar  303  0.8316682E+01  0.1644361E+02  0.3066178E+02  0.5605849E+02
Ar  304  0.5916671E+01  0.1943676E+02  0.3038070E+02  0.1552299E+03
Ar  305  0.5718976E+01  0.1643834E+02  0.3288154E+02  0.6857353E+02
Ar  306  0.8380270E+01  0.1958339E+02  0.3354551E+02  0.6733019E+02
Ar  307  0.8341252E+01  0.1658727E+02  0.3529665E+02  0.9435111E+01
Ar  308  0.5144141E+01  0.1945456E+02  0.3507071E+02  0.6796445E+02
Ar  309  0.5074543E+01  0.2277004E+02  0.3754781E+02  0.1232083E+03
Ar  310  0.7935616E+01  0.2491480E+02  0.1236741E+00  0.1529572E+03
Ar  311  0.7821164E+01  0.2306109E+02  0.3077436E+01  0.2945625E+03
Ar  312  0.5308773E+01  0.2530302E+02  0.2872373E+01  0.2027418E+03
Ar  313  0.5085301E+01  0.2178632E+02  0.5085301E+01  0.5774158E+03
Ar  314  0.7812861E+01  0.2534793E+02  0.5272369E+01  0.3036506E+03
Ar  315  0.7484994E+01  0.2280422E+02  0.7484994E+01  0.2307803E+03
Ar  316  0.5272369E+01  0.2534793E+02  0.7812861E+01  0.3036506E+03
Ar  317  0.5391453E+01  0.2257228E+02  0.1028052E+02  0.5218772E+03
Ar  318  0.7592004E+01  0.2521660E+02  0.1035132E+02  0.2674157E+02
Ar  319  0.7716951E+01  0.2168275E+02  0.1266935E+02  0.1059355E+03
Ar  320  0.5487571E+01  0.2458496E+02  0.1300667E+02  0.8479074E+02
Ar  321  0.5623184E+01  0.2190189E+02  0.1576227E+02  0.5088039E+02
Ar  322  0.7411086E+01  0.2508775E+02  0.1580496E+02  0.5242964E+02
Ar  323  0.8365239E+01  0.2166429E+02  0.1840251E+02  0.8707725E+02
Ar  324  0.6391986E+01  0.2441173E+02  0.1907962E+02  0.1395985E+03
Ar  325  0.6524575E+01  0.2188448E+02  0.2188448E+02  0.1038309E+03
Ar  326  0.9196961E+01  0.2423181E+02  0.2129252E+02  0.1027463E+03
Ar  327  0.9196961E+01  0.2129252E+02  0.2423181E+02  0.1027463E+03
Ar  328  0.6637674E+01  0.2458273E+02  0.2458273E+02  0.2532750E+03
Ar  329  0.6735114E+01  0.2204638E+02  0.2679121E+02  0.6196567E+01
Ar  330  0.9372937E+01  0.2475641E+02  0.2730076E+02  0.1177380E+02
Ar  331  0.8572262E+01  0.2207569E+02  0.3031326E+02  0.8574583E+02
Ar  332  0.6552302E+01  0.2467303E+02  0.2943771E+02  0.1935701E+03
Ar  333  0.6329923E+01  0.2217281E+02  0.3265744E+02  0.1526075E+03
Ar  334  0.9058948E+01  0.2493857E+02  0.3277979E+02  0.1693010E+03
Ar  335  0.8247850E+01  0.2278773E+02  0.3523975E+02  0.1739259E+03
Ar  336  0.5327733E+01  0.2490659E+02  0.3487990E+02  0.4270734E+02
Ar  337  0.5853969E+01  0.2749742E+02  0.3734580E+02  0.8439494E+01
Ar  338  0.8369450E+01  0.2974119E+02  0.3768228E+02  0.8243814E+02
Ar  339  0.8466821E+01  0.2752785E+02  0.2736405E+01  0.2103968E+02
Ar  340  0.5244316E+01  0.3011645E+02  0.2368113E+01  0.8468327E+02
Ar  341  0.5275894E+01  0.2789059E+02  0.5275894E+01  0.1127938E+03
Ar  342  0.8147472E+01  0.3030627E+02  0.5315125E+01  0.7098302E+02
Ar  343  0.8033357E+01  0.2780181E+02  0.8033357E+01  0.6824100E+03
Ar  344  0.5315125E+01  0.3030627E+02  0.8147472E+01  0.7098302E+02
Ar  345  0.4872368E+01  0.2798639E+02  0.1104554E+02  0.2058331E+02
Ar  346  0.8124599E+01  0.3047916E+02  0.1094308E+02  0.1001392E+03
Ar  347  0.7778097E+01  0.2754972E+02  0.1266091E+02  0.7609739E+02
Ar  348  0.5840218E+01  0.3049689E+02  0.1382156E+02  0.4427563E+03
Ar  349  0.5953559E+01  0.2813825E+02  0.1624543E+02  0.1990706E+00
Ar  350  0.8316682E+01  0.3066178E+02  0.1644361E+02  0.5605849E+02
Ar  351  0.8066249E+01  0.2758575E+02  0.1883285E+02  0.1658396E+03
Ar  352  0.5916671E+01  0.3038070E+02  0.1943676E+02  0.1552299E+03
Ar  353  0.6735114E+01  0.2679121E+02  0.2204638E+02  0.6196567E+01
Ar  354  0.8572262E+01  0.3031326E+02  0.2207569E+02  0.8574583E+02
Ar  355  0.9372937E+01  0.2730076E+02  0.2475641E+02  0.1177380E+02
Ar  356  0.6552302E+01  0.2943771E+02  0.2467303E+02  0.1935701E+03
Ar  357  0.5431280E+01  0.2710700E+02  0.2710700E+02  0.1581351E+02
Ar  358  0.8846245E+01  0.2985024E+02  0.2757847E+02  0.2266383E+02
Ar  359  0.8846245E+01  0.2757847E+02  0.2985024E+02  0.2266383E+02
Ar  360  0.5782862E+01  0.2935901E+02  0.2935901E+02  0.1208505E+03
Ar  361  0.5735293E+01  0.2669200E+02  0.3195022E+02  0.8543449E+02
Ar  362  0.9242453E+01  0.2976773E+02  0.3239753E+02  0.8376631E+03
Ar  363  0.8947067E+01  0.2730905E+02  0.3521353E+02  0.1786344E+03
Ar  364  0.6281543E+01  0.2956733E+02  0.3452285E+02  0.4650568E+02
Ar  365  0.5316005E+01  0.3206923E+02  0.3712724E+02  0.1161614E+03
Ar  366  0.8573602E+01  0.3453649E+02  0.3706944E+02  0.1023226E+03
Ar  367  0.7740834E+01  0.3259874E+02  0.1999785E+01  0.8539394E+02
Ar  368  0.5151749E+01  0.3488595E+02  0.2475327E+01  0.3335546E+01
Ar  369  0.5569155E+01  0.3285973E+02  0.5569155E+01  0.2990169E+02
Ar  370  0.7834889E+01  0.3546537E+02  0.4830953E+01  0.2021708E+02
Ar  371  0.8073091E+01  0.3320639E+02  0.8073091E+01  0.1066372E+03
Ar  372  0.4830953E+01  0.3546537E+02  0.7834889E+01  0.2021708E+02
Ar  373  0.5553566E+01  0.3276241E+02  0.1121978E+02  0.4465957E+02
Ar  374  0.7768767E+01  0.3539026E+02  0.1089816E+02  0.1125252E+03
Ar  375  0.8309132E+01  0.3303239E+02  0.1354430E+02  0.1304169E+03
Ar  376  0.5396993E+01  0.3505386E+02  0.1397712E+02  0.2922482E+02
Ar  377  0.5718976E+01  0.3288154E+02  0.1643834E+02  0.6857353E+02
Ar  378  0.8341252E+01  0.3529665E+02  0.1658727E+02  0.9435111E+01
Ar  379  0.8380270E+01  0.3354551E+02  0.1958339E+02  0.6733019E+02
Ar  380  0.5144141E+01  0.3507071E+02  0.1945456E+02  0.6796445E+02
Ar  381  0.6329923E+01  0.3265744E+02  0.2217281E+02  0.1526075E+03
Ar  382  0.8247850E+01  0.3523975E+02  0.2278773E+02  0.1739259E+03
Ar  383  0.9058948E+01  0.3277979E+02  0.2493857E+02  0.1693010E+03
Ar  384  0.5327733E+01  0.3487990E+02  0.2490659E+02  0.4270734E+02
Ar  385  0.5735293E+01  0.3195022E+02  0.2669200E+02  0.8543449E+02
Ar  386  0.8947067E+01  0.3521353E+02  0.2730905E+02  0.1786344E+03
Ar  387  0.9242453E+01  0.3239753E+02  0.2976773E+02  0.8376631E+03
Ar  388  0.6281543E+01  0.3452285E+02  0.2956733E+02  0.4650568E+02
Ar  389  0.6045050E+01  0.3185270E+02  0.3185270E+02  0.4584192E+02
Ar  390  0.8807608E+01  0.3485732E+02  0.3208028E+02  0.1092618E+03
Ar  391  0.8807608E+01  0.3208028E+02  0.3485732E+02  0.1092618E+03
Ar  392  0.5598257E+01  0.3448987E+02  0.3448987E+02  0.7580977E+02
Ar  393  0.1110663E+02  0.3724723E+02  0.3724723E+02  0.1410806E+03
Ar  394  0.1359821E+02  0.2412671E+01  0.3723288E+02  0.1301885E+03
Ar  395  0.1359821E+02  0.3723288E+02  0.2412671E+01  0.1301885E+03
Ar  396  0.1071522E+02  0.1754396E+01  0.1754396E+01  0.3834958E+02
Ar  397  0.1084640E+02  0.3750384E+02  0.4634892E+01  0.1139605E+03
Ar  398  0.1340159E+02  0.2222266E+01  0.4630499E+01  0.3038968E+02
Ar  399  0.1309129E+02  0.4041872E+00  0.7791621E+01  0.1180518E+03
Ar  400  0.1023890E+02  0.2363848E+01  0.7256410E+01  0.9464459E+02
Ar  401  0.1035586E+02  0.2535926E+00  0.1035586E+02  0.8064968E+02
Ar  402  0.1344073E+02  0.2611788E+01  0.1056041E+02  0.1185312E+03
Ar  403  0.1303187E+02  0.1567851E+00  0.1303187E+02  0.3893887E+02
Ar  404  0.1056041E+02  0.2611788E+01  0.1344073E+02  0.1185312E+03
Ar  405  0.1066047E+02  0.2853974E+00  0.1638989E+02  0.1670150E+03
Ar  406  0.1302663E+02  0.2877643E+01  0.1583279E+02  0.2063802E+03
Ar  407  0.1340200E+02  0.1054362E+01  0.1874997E+02  0.1275405E+03
Ar  408  0.1050150E+02  0.3072211E+01  0.1893369E+02  0.3567663E+02
Ar  409  0.1070758E+02  0.5990375E+00  0.2264540E+02  0.8202345E+02
Ar  410  0.1320005E+02  0.2888343E+01  0.2231847E+02  0.1631970E+03
Ar  411  0.1420216E+02  0.5009942E+00  0.2523119E+02  0.1788654E+03
Ar  412  0.1091439E+02  0.3036066E+01  0.2507304E+02  0.1140280E+03
Ar  413  0.1147258E+02  0.4398359E+00  0.2735477E+02  0.4848318E+02
Ar  414  0.1412406E+02  0.3399297E+01  0.2741797E+02  0.7028807E+02
Ar  415  0.1423497E+02  0.2826758E+00  0.2994305E+02  0.9729590E+02
Ar  416  0.1110955E+02  0.2707759E+01  0.3069115E+02  0.3876045E+02
Ar  417  0.1130774E+02  0.3768787E+02  0.3235805E+02  0.1992866E+03
Ar  418  0.1413326E+02  0.2780483E+01  0.3244327E+02  0.1075137E+03
Ar  419  0.1440273E+02  0.3751533E+02  0.3492234E+02  0.1380380E+03
Ar  420  0.1072727E+02  0.2091921E+01  0.3491385E+02  0.1411425E+02
Ar  421  0.1084640E+02  0.4634892E+01  0.3750384E+02  0.1139605E+03
Ar  422  0.1309129E+02  0.7791621E+01  0.4041872E+00  0.1180518E+03
Ar  423  0.1340159E+02  0.4630499E+01  0.2222266E+01  0.3038968E+02
Ar  424  0.1023890E+02  0.7256410E+01  0.2363848E+01  0.9464459E+02
Ar  425  0.1038367E+02  0.4409232E+01  0.4409232E+01  0.9020006E+02
Ar  426  0.1292017E+02  0.7462578E+01  0.4562566E+01  0.2121399E+03
Ar  427  0.1292017E+02  0.4562566E+01  0.7462578E+01  0.2121399E+03
Ar  428  0.1074629E+02  0.7272056E+01  0.7272056E+01  0.8090644E+02
Ar  429  0.1072315E+02  0.4625705E+01  0.1072315E+02  0.1486989E+02
Ar  430  0.1310991E+02  0.7488097E+01  0.1027721E+02  0.1337968E+03
Ar  431  0.1310012E+02  0.5250535E+01  0.1310012E+02  0.1103972E+03
Ar  432  0.1027721E+02  0.7488097E+01  0.1310991E+02  0.1337968E+03
Ar  433  0.1007601E+02  0.5217669E+01  0.1562650E+02  0.6592754E+01
Ar  434  0.1303211E+02  0.7617428E+01  0.1590453E+02  0.1480859E+03
Ar  435  0.1320499E+02  0.5534654E+01  0.1906710E+02  0.6852555E+02
Ar  436  0.1019200E+02  0.7529320E+01  0.1938511E+02  0.2750416E+03
Ar  437  0.1028052E+02  0.5391453E+01  0.2257228E+02  0.5218772E+03
Ar  438  0.1266935E+02  0.7716951E+01  0.2168275E+02  0.1059355E+03
Ar  439  0.1300667E+02  0.5487571E+01  0.2458496E+02  0.8479074E+02
Ar  440  0.1035132E+02  0.7592004E+01  0.2521660E+02  0.2674157E+02
Ar  441  0.1104554E+02  0.4872368E+01  0.2798639E+02  0.2058331E+02
Ar  442  0.1266091E+02  0.7778097E+01  0.2754972E+02  0.7609739E+02
Ar  443  0.1382156E+02  0.5840218E+01  0.3049689E+02  0.4427563E+03
Ar  444  0.1094308E+02  0.8124599E+01  0.3047916E+02  0.1001392E+03
Ar  445  0.1121978E+02  0.5553566E+01  0.3276241E+02  0.4465957E+02
Ar  446  0.1354430E+02  0.8309132E+01  0.3303239E+02  0.1304169E+03
Ar  447  0.1397712E+02  0.5396993E+01  0.3505386E+02  0.2922482E+02
Ar  448  0.1089816E+02  0.7768767E+01  0.3539026E+02  0.1125252E+03
Ar  449  0.1035586E+02  0.1035586E+02  0.2535926E+00  0.8064968E+02
Ar  450  0.1303187E+02  0.1303187E+02  0.1567851E+00  0.3893887E+02
Ar  451  0.1344073E+02  0.1056041E+02  0.2611788E+01  0.1185312E+03
Ar  452  0.1056041E+02  0.1344073E+02  0.2611788E+01  0.1185312E+03
Ar  453  0.1072315E+02  0.1072315E+02  0.4625705E+01  0.1486989E+02
Ar  454  0.1310012E+02  0.1310012E+02  0.5250535E+01  0.1103972E+03
Ar  455  0.1310991E+02  0.1027721E+02  0.7488097E+01  0.1337968E+03
Ar  456  0.1027721E+02  0.1310991E+02  0.7488097E+01  0.1337968E+03
Ar  457  0.9798690E+01  0.9798690E+01  0.9798690E+01  0.1205145E+02
Ar  458  0.1257874E+02  0.1257874E+02  0.9980411E+01  0.4614657E+02
Ar  459  0.1257874E+02  0.9980411E+01  0.1257874E+02  0.4614657E+02
Ar  460  0.9980411E+01  0.1257874E+02  0.1257874E+02  0.4614657E+02
Ar  461  0.1002327E+02  0.1002327E+02  0.1618377E+02  0.2162890E+03
Ar  462  0.1264770E+02  0.1264770E+02  0.1545900E+02  0.1252521E+03
Ar  463  0.1260136E+02  0.9959702E+01  0.1840534E+02  0.7408575E+02
Ar  464  0.9959702E+01  0.1260136E+02  0.1840534E+02  0.7408575E+02
Ar  465  0.1004457E+02  0.1004457E+02  0.2215037E+02  0.3988163E+03
Ar  466  0.1251430E+02  0.1251430E+02  0.2196677E+02  0.2624144E+03
Ar  467  0.1275508E+02  0.9881523E+01  0.2477936E+02  0.1795329E+03
Ar  468  0.9881523E+01  0.1275508E+02  0.2477936E+02  0.1795329E+03
Ar  469  0.1078371E+02  0.1078371E+02  0.2808138E+02  0.4931063E+02
Ar  470  0.1311729E+02  0.1311729E+02  0.2784250E+02  0.5570645E+03
Ar  471  0.1314247E+02  0.1083571E+02  0.3075321E+02  0.2687359E+03
Ar  472  0.1083571E+02  0.1314247E+02  0.3075321E+02  0.2687359E+03
Ar  473  0.1081991E+02  0.1081991E+02  0.3353560E+02  0.7279244E+02
Ar  474  0.1335912E+02  0.1335912E+02  0.3379603E+02  0.1064444E+02
Ar  475  0.1388479E+02  0.1044378E+02  0.3579717E+02  0.1187642E+03
Ar  476  0.1044378E+02  0.1388479E+02  0.3579717E+02  0.1187642E+03
Ar  477  0.1066047E+02  0.1638989E+02  0.2853974E+00  0.1670150E+03
Ar  478  0.1340200E+02  0.1874997E+02  0.1054362E+01  0.1275405E+03
Ar  479  0.1302663E+02  0.1583279E+02  0.2877643E+01  0.2063802E+03
Ar  480  0.1050150E+02  0.1893369E+02  0.3072211E+01  0.3567663E+02
Ar  481  0.1007601E+02  0.1562650E+02  0.5217669E+01  0.6592754E+01
Ar  482  0.1320499E+02  0.1906710E+02  0.5534654E+01  0.6852555E+02
Ar  483  0.1303211E+02  0.1590453E+02  0.7617428E+01  0.1480859E+03
Ar  484  0.1019200E+02  0.1938511E+02  0.7529320E+01  0.2750416E+03
Ar  485  0.1002327E+02  0.1618377E+02  0.1002327E+02  0.2162890E+03
Ar  486  0.1260136E+02  0.1840534E+02  0.9959702E+01  0.7408575E+02
Ar  487  0.1264770E+02  0.1545900E+02  0.1264770E+02  0.1252521E+03
Ar  488  0.9959702E+01  0.1840534E+02  0.1260136E+02  0.7408575E+02
Ar  489  0.9974988E+01  0.1521541E+02  0.1521541E+02  0.8762299E+02
Ar  490  0.1219729E+02  0.1794343E+02  0.1538733E+02  0.1147471E+03
Ar  491  0.1219729E+02  0.1538733E+02  0.1794343E+02  0.1147471E+03
Ar  492  0.9919418E+01  0.1851227E+02  0.1851227E+02  0.2917568E+02
Ar  493  0.1044834E+02  0.1515034E+02  0.2125914E+02  0.5339970E+02
Ar  494  0.1245031E+02  0.1788244E+02  0.2071390E+02  0.4222731E+02
Ar  495  0.1285721E+02  0.1528230E+02  0.2429228E+02  0.1598184E+03
Ar  496  0.1020699E+02  0.1758664E+02  0.2433703E+02  0.2212738E+03
Ar  497  0.1028165E+02  0.1585744E+02  0.2752836E+02  0.1076978E+03
Ar  498  0.1282936E+02  0.1806335E+02  0.2665066E+02  0.3225293E+02
Ar  499  0.1331365E+02  0.1574485E+02  0.3032763E+02  0.8181540E+02
Ar  500  0.1074573E+02  0.1857366E+02  0.3000849E+02  0.1488227E+03
Ar  501  0.1099393E+02  0.1635546E+02  0.3318993E+02  0.1040308E+03
Ar  502  0.1347911E+02  0.1852770E+02  0.3352547E+02  0.1039495E+03
Ar  503  0.1346785E+02  0.1602370E+02  0.3599179E+02  0.1253167E+03
Ar  504  0.1087000E+02  0.1932717E+02  0.3626494E+02  0.2999390E+03
Ar  505  0.1070758E+02  0.2264540E+02  0.5990375E+00  0.8202345E+02
Ar  506  0.1420216E+02  0.2523119E+02  0.5009942E+00  0.1788654E+03
Ar  507  0.1320005E+02  0.2231847E+02  0.2888343E+01  0.1631970E+03
Ar  508  0.1091439E+02  0.2507304E+02  0.3036066E+01  0.1140280E+03
Ar  509  0.1028052E+02  0.2257228E+02  0.5391453E+01  0.5218772E+03
Ar  510  0.1300667E+02  0.2458496E+02  0.5487571E+01  0.8479074E+02
Ar  511  0.1266935E+02  0.2168275E+02  0.7716951E+01  0.1059355E+03
Ar  512  0.1035132E+02  0.2521660E+02  0.7592004E+01  0.2674157E+02
Ar  513  0.1004457E+02  0.2215037E+02  0.1004457E+02  0.3988163E+03
Ar  514  0.1275508E+02  0.2477936E+02  0.9881523E+01  0.1795329E+03
Ar  515  0.1251430E+02  0.2196677E+02  0.1251430E+02  0.2624144E+03
Ar  516  0.9881523E+01  0.2477936E+02  0.1275508E+02  0.1795329E+03
Ar  517  0.1044834E+02  0.2125914E+02  0.1515034E+02  0.5339970E+02
Ar  518  0.1285721E+02  0.2429228E+02  0.1528230E+02  0.1598184E+03
Ar  519  0.1245031E+02  0.2071390E+02  0.1788244E+02  0.4222731E+02
Ar  520  0.1020699E+02  0.2433703E+02  0.1758664E+02  0.2212738E+03
Ar  521  0.1109131E+02  0.2108133E+02  0.2108133E+02  0.2610494E+02
Ar  522  0.1285466E+02  0.2435727E+02  0.2109216E+02  0.1966529E+03
Ar  523  0.1285466E+02  0.2109216E+02  0.2435727E+02  0.1966529E+03
Ar  524  0.1142185E+02  0.2426266E+02  0.2426266E+02  0.1985722E+03
Ar  525  0.1124659E+02  0.2159757E+02  0.2730818E+02  0.3306442E+03
Ar  526  0.1452148E+02  0.2402482E+02  0.2662142E+02  0.2257944E+03
Ar  527  0.1377506E+02  0.2086929E+02  0.3001965E+02  0.1037115E+03
Ar  528  0.1241632E+02  0.2425858E+02  0.2979485E+02  0.1940708E+03
Ar  529  0.1150777E+02  0.2145498E+02  0.3329166E+02  0.2104809E+03
Ar  530  0.1456574E+02  0.2402146E+02  0.3322419E+02  0.3064335E+03
Ar  531  0.1390037E+02  0.2144556E+02  0.3652774E+02  0.1705125E+03
Ar  532  0.1123479E+02  0.2458211E+02  0.3567810E+02  0.7205223E+02
Ar  533  0.1147258E+02  0.2735477E+02  0.4398359E+00  0.4848318E+02
Ar  534  0.1423497E+02  0.2994305E+02  0.2826758E+00  0.9729590E+02
Ar  535  0.1412406E+02  0.2741797E+02  0.3399297E+01  0.7028807E+02
Ar  536  0.1110955E+02  0.3069115E+02  0.2707759E+01  0.3876045E+02
Ar  537  0.1104554E+02  0.2798639E+02  0.4872368E+01  0.2058331E+02
Ar  538  0.1382156E+02  0.3049689E+02  0.5840218E+01  0.4427563E+03
Ar  539  0.1266091E+02  0.2754972E+02  0.7778097E+01  0.7609739E+02
Ar  540  0.1094308E+02  0.3047916E+02  0.8124599E+01  0.1001392E+03
Ar  541  0.1078371E+02  0.2808138E+02  0.1078371E+02  0.4931063E+02
Ar  542  0.1314247E+02  0.3075321E+02  0.1083571E+02  0.2687359E+03
Ar  543  0.1311729E+02  0.2784250E+02  0.1311729E+02  0.5570645E+03
Ar  544  0.1083571E+02  0.3075321E+02  0.1314247E+02  0.2687359E+03
Ar  545  0.1028165E+02  0.2752836E+02  0.1585744E+02  0.1076978E+03
Ar  546  0.1331365E+02  0.3032763E+02  0.1574485E+02  0.8181540E+02
Ar  547  0.1282936E+02  0.2665066E+02  0.1806335E+02  0.3225293E+02
Ar  548  0.1074573E+02  0.3000849E+02  0.1857366E+02  0.1488227E+03
Ar  549  0.1124659E+02  0.2730818E+02  0.2159757E+02  0.3306442E+03
Ar  550  0.1377506E+02  0.3001965E+02  0.2086929E+02  0.1037115E+03
Ar  551  0.1452148E+02  0.2662142E+02  0.2402482E+02  0.2257944E+03
Ar  552  0.1241632E+02  0.2979485E+02  0.2425858E+02  0.1940708E+03
Ar  553  0.1220044E+02  0.2695206E+02  0.2695206E+02  0.1681872E+03
Ar  554  0.1502586E+02  0.2969802E+02  0.2686199E+02  0.1667037E+02
Ar  555  0.1502586E+02  0.2686199E+02  0.2969802E+02  0.1667037E+02
Ar  556  0.1240226E+02  0.2964560E+02  0.2964560E+02  0.9302668E-01
Ar  557  0.1157374E+02  0.2725545E+02  0.3286234E+02  0.1514799E+02
Ar  558  0.1469782E+02  0.2950151E+02  0.3217328E+02  0.1013732E+03
Ar  559  0.1420490E+02  0.2708996E+02  0.3514633E+02  0.2434327E+02
Ar  560  0.1176387E+02  0.2985592E+02  0.3551757E+02  0.2781616E+02
Ar  561  0.1130774E+02  0.3235805E+02  0.3768787E+02  0.1992866E+03
Ar  562  0.1440273E+02  0.3492234E+02  0.3751533E+02  0.1380380E+03
Ar  563  0.1413326E+02  0.3244327E+02  0.2780483E+01  0.1075137E+03
Ar  564  0.1072727E+02  0.3491385E+02  0.2091921E+01  0.1411425E+02
Ar  565  0.1121978E+02  0.3276241E+02  0.5553566E+01  0.4465957E+02
Ar  566  0.1397712E+02  0.3505386E+02  0.5396993E+01  0.2922482E+02
Ar  567  0.1354430E+02  0.3303239E+02  0.8309132E+01  0.1304169E+03
Ar  568  0.1089816E+02  0.3539026E+02  0.7768767E+01  0.1125252E+03
Ar  569  0.1081991E+02  0.3353560E+02  0.1081991E+02  0.7279244E+02
Ar  570  0.1388479E+02  0.3579717E+02  0.1044378E+02  0.1187642E+03
Ar  571  0.1335912E+02  0.3379603E+02  0.1335912E+02  0.1064444E+02
Ar  572  0.1044378E+02  0.3579717E+02  0.1388479E+02  0.1187642E+03
Ar  573  0.1099393E+02  0.3318993E+02  0.1635546E+02  0.1040308E+03
Ar  574  0.1346785E+02  0.3599179E+02  0.1602370E+02  0.1253167E+03
Ar  575  0.1347911E+02  0.3352547E+02  0.1852770E+02  0.1039495E+03
Ar  576  0.1087000E+02  0.3626494E+02  0.1932717E+02  0.2999390E+03
Ar  577  0.1150777E+02  0.3329166E+02  0.2145498E+02  0.2104809E+03
Ar  578  0.1390037E+02  0.3652774E+02  0.2144556E+02  0.1705125E+03
Ar  579  0.1456574E+02  0.3322419E+02  0.2402146E+02  0.3064335E+03
Ar  580  0.1123479E+02  0.3567810E+02  0.2458211E+02  0.7205223E+02
Ar  581  0.1157374E+02  0.3286234E+02  0.2725545E+02  0.1514799E+02
Ar  582  0.1420490E+02  0.3514633E+02  0.2708996E+02  0.2434327E+02
Ar  583  0.1469782E+02  0.3217328E+02  0.2950151E+02  0.1013732E+03
Ar  584  0.1176387E+02  0.3551757E+02  0.2985592E+02  0.2781616E+02
Ar  585  0.1265574E+02  0.3226784E+02  0.3226784E+02  0.5782013E+02
Ar  586  0.1490898E+02  0.3501090E+02  0.3242957E+02  0.1432471E+03
Ar  587  0.1490898E+02  0.3242957E+02  0.3501090E+02  0.1432471E+03
Ar  588  0.1149775E+02  0.3486159E+02  0.3486159E+02  0.7622884E+03
Ar  589  0.1754917E+02  0.2507961E-01  0.2507961E-01  0.2812973E+03
Ar  590  0.1984862E+02  0.2827861E+01  0.3770826E+02  0.4579850E+03
Ar  591  0.1984862E+02  0.3770826E+02  0.2827861E+01  0.4579850E+03
Ar  592  0.1745558E+02  0.2296500E+01  0.2296500E+01  0.1276549E+03
Ar  593  0.1645773E+02  0.3756980E+02  0.5248791E+01  0.3413978E+02
Ar  594  0.1985789E+02  0.2390579E+01  0.5281744E+01  0.6601000E+02
Ar  595  0.2024030E+02  0.4769176E+00  0.7990784E+01  0.2206217E+03
Ar  596  0.1630824E+02  0.2548843E+01  0.7867293E+01  0.2194186E+03
Ar  597  0.1638989E+02  0.2853974E+00  0.1066047E+02  0.1670150E+03
Ar  598  0.1893369E+02  0.3072211E+01  0.1050150E+02  0.3567663E+02
Ar  599  0.1874997E+02  0.1054362E+01  0.1340200E+02  0.1275405E+03
Ar  600  0.1583279E+02  0.2877643E+01  0.1302663E+02  0.2063802E+03
Ar  601  0.1613264E+02  0.1362185E+01  0.1613264E+02  0.1678580E+03
Ar  602  0.1939254E+02  0.3376525E+01  0.1601195E+02  0.1198099E+03
Ar  603  0.1890556E+02  0.1581414E+01  0.1890556E+02  0.5469790E+02
Ar  604  0.1601195E+02  0.3376525E+01  0.1939254E+02  0.1198099E+03
Ar  605  0.1639485E+02  0.1377928E+01  0.2208497E+02  0.4493286E+03
Ar  606  0.1933711E+02  0.3921536E+01  0.2190744E+02  0.6486994E+02
Ar  607  0.1879905E+02  0.1079519E+01  0.2403935E+02  0.6390005E+02
Ar  608  0.1660948E+02  0.3797289E+01  0.2480367E+02  0.9993743E+02
Ar  609  0.1695529E+02  0.1209649E+01  0.2710203E+02  0.1516198E+03
Ar  610  0.1921096E+02  0.4361012E+01  0.2729036E+02  0.2532107E+02
Ar  611  0.1952265E+02  0.9544581E+00  0.2946465E+02  0.6006651E+02
Ar  612  0.1667140E+02  0.2930607E+01  0.3005276E+02  0.3996248E+02
Ar  613  0.1723593E+02  0.3774443E+02  0.3209835E+02  0.2047604E+03
Ar  614  0.2008480E+02  0.3383296E+01  0.3215209E+02  0.8775288E+01
Ar  615  0.1997385E+02  0.5049051E-01  0.3544523E+02  0.4544862E+03
Ar  616  0.1712956E+02  0.2460137E+01  0.3478791E+02  0.1691781E+03
Ar  617  0.1645773E+02  0.5248791E+01  0.3756980E+02  0.3413978E+02
Ar  618  0.2024030E+02  0.7990784E+01  0.4769176E+00  0.2206217E+03
Ar  619  0.1985789E+02  0.5281744E+01  0.2390579E+01  0.6601000E+02
Ar  620  0.1630824E+02  0.7867293E+01  0.2548843E+01  0.2194186E+03
Ar  621  0.1667103E+02  0.4704000E+01  0.4704000E+01  0.2891587E+03
Ar  622  0.1929464E+02  0.7412856E+01  0.5137107E+01  0.2376195E+03
Ar  623  0.1929464E+02  0.5137107E+01  0.7412856E+01  0.2376195E+03
Ar  624  0.1533719E+02  0.7238952E+01  0.7238952E+01  0.7322603E+02
Ar  625  0.1562650E+02  0.5217669E+01  0.1007601E+02  0.6592754E+01
Ar  626  0.1938511E+02  0.7529320E+01  0.1019200E+02  0.2750416E+03
Ar  627  0.1906710E+02  0.5534654E+01  0.1320499E+02  0.6852555E+02
Ar  628  0.1590453E+02  0.7617428E+01  0.1303211E+02  0.1480859E+03
Ar  629  0.1602227E+02  0.4972181E+01  0.1602227E+02  0.1979420E+03
Ar  630  0.1827330E+02  0.7857316E+01  0.1570020E+02  0.5682467E+01
Ar  631  0.1889652E+02  0.5788319E+01  0.1889652E+02  0.1084453E+03
Ar  632  0.1570020E+02  0.7857316E+01  0.1827330E+02  0.5682467E+01
Ar  633  0.1576227E+02  0.5623184E+01  0.2190189E+02  0.5088039E+02
Ar  634  0.1840251E+02  0.8365239E+01  0.2166429E+02  0.8707725E+02
Ar  635  0.1907962E+02  0.6391986E+01  0.2441173E+02  0.1395985E+03
Ar  636  0.1580496E+02  0.7411086E+01  0.2508775E+02  0.5242964E+02
Ar  637  0.1624543E+02  0.5953559E+01  0.2813825E+02  0.1990706E+00
Ar  638  0.1883285E+02  0.8066249E+01  0.2758575E+02  0.1658396E+03
Ar  639  0.1943676E+02  0.5916671E+01  0.3038070E+02  0.1552299E+03
Ar  640  0.1644361E+02  0.8316682E+01  0.3066178E+02  0.5605849E+02
Ar  641  0.1643834E+02  0.5718976E+01  0.3288154E+02  0.6857353E+02
Ar  642  0.1958339E+02  0.8380270E+01  0.3354551E+02  0.6733019E+02
Ar  643  0.1945456E+02  0.5144141E+01  0.3507071E+02  0.6796445E+02
Ar  644  0.1658727E+02  0.8341252E+01  0.3529665E+02  0.9435111E+01
Ar  645  0.1638989E+02  0.1066047E+02  0.2853974E+00  0.1670150E+03
Ar  646  0.1874997E+02  0.1340200E+02  0.1054362E+01  0.1275405E+03
Ar  647  0.1893369E+02  0.1050150E+02  0.3072211E+01  0.3567663E+02
Ar  648  0.1583279E+02  0.1302663E+02  0.2877643E+01  0.2063802E+03
Ar  649  0.1562650E+02  0.1007601E+02  0.5217669E+01  0.6592754E+01
Ar  650  0.1906710E+02  0.1320499E+02  0.5534654E+01  0.6852555E+02
Ar  651  0.1938511E+02  0.1019200E+02  0.7529320E+01  0.2750416E+03
Ar  652  0.1590453E+02  0.1303211E+02  0.7617428E+01  0.1480859E+03
Ar  653  0.1618377E+02  0.1002327E+02  0.1002327E+02  0.2162890E+03
Ar  654  0.1840534E+02  0.1260136E+02  0.9959702E+01  0.7408575E+02
Ar  655  0.1840534E+02  0.9959702E+01  0.1260136E+02  0.7408575E+02
Ar  656  0.1545900E+02  0.1264770E+02  0.1264770E+02  0.1252521E+03
Ar  657  0.1521541E+02  0.9974988E+01  0.1521541E+02  0.8762299E+02
Ar  658  0.1794343E+02  0.1219729E+02  0.1538733E+02  0.1147471E+03
Ar  659  0.1851227E+02  0.9919418E+01  0.1851227E+02  0.2917568E+02
Ar  660  0.1538733E+02  0.1219729E+02  0.1794343E+02  0.1147471E+03
Ar  661  0.1515034E+02  0.1044834E+02  0.2125914E+02  0.5339970E+02
Ar  662  0.1788244E+02  0.1245031E+02  0.2071390E+02  0.4222731E+02
Ar  663  0.1758664E+02  0.1020699E+02  0.2433703E+02  0.2212738E+03
Ar  664  0.1528230E+02  0.1285721E+02  0.2429228E+02  0.1598184E+03
Ar  665  0.1585744E+02  0.1028165E+02  0.2752836E+02  0.1076978E+03
Ar  666  0.1806335E+02  0.1282936E+02  0.2665066E+02  0.3225293E+02
Ar  667  0.1857366E+02  0.1074573E+02  0.3000849E+02  0.1488227E+03
Ar  668  0.1574485E+02  0.1331365E+02  0.3032763E+02  0.8181540E+02
Ar  669  0.1635546E+02  0.1099393E+02  0.3318993E+02  0.1040308E+03
Ar  670  0.1852770E+02  0.1347911E+02  0.3352547E+02  0.1039495E+03
Ar  671  0.1932717E+02  0.1087000E+02  0.3626494E+02  0.2999390E+03
Ar  672  0.1602370E+02  0.1346785E+02  0.3599179E+02  0.1253167E+03
Ar  673  0.1613264E+02  0.1613264E+02  0.1362185E+01  0.1678580E+03
Ar  674  0.1890556E+02  0.1890556E+02  0.1581414E+01  0.5469790E+02
Ar  675  0.1939254E+02  0.1601195E+02  0.3376525E+01  0.1198099E+03
Ar  676  0.1601195E+02  0.1939254E+02  0.3376525E+01  0.1198099E+03
Ar  677  0.1602227E+02  0.1602227E+02  0.4972181E+01  0.1979420E+03
Ar  678  0.1889652E+02  0.1889652E+02  0.5788319E+01  0.1084453E+03
Ar  679  0.1827330E+02  0.1570020E+02  0.7857316E+01  0.5682467E+01
Ar  680  0.1570020E+02  0.1827330E+02  0.7857316E+01  0.5682467E+01
Ar  681  0.1521541E+02  0.1521541E+02  0.9974988E+01  0.8762299E+02
Ar  682  0.1851227E+02  0.1851227E+02  0.9919418E+01  0.2917568E+02
Ar  683  0.1794343E+02  0.1538733E+02  0.1219729E+02  0.1147471E+03
Ar  684  0.1538733E+02  0.1794343E+02  0.1219729E+02  0.1147471E+03
Ar  685  0.1544791E+02  0.1544791E+02  0.1544791E+02  0.1997845E+02
Ar  686  0.1807401E+02  0.1807401E+02  0.1517294E+02  0.1396994E+03
Ar  687  0.1807401E+02  0.1517294E+02  0.1807401E+02  0.1396994E+03
Ar  688  0.1517294E+02  0.1807401E+02  0.1807401E+02  0.1396994E+03
Ar  689  0.1499106E+02  0.1499106E+02  0.2096470E+02  0.4662043E+02
Ar  690  0.1774137E+02  0.1774137E+02  0.2086634E+02  0.2505094E+03
Ar  691  0.1836363E+02  0.1542714E+02  0.2398617E+02  0.6299511E+02
Ar  692  0.1542714E+02  0.1836363E+02  0.2398617E+02  0.6299511E+02
Ar  693  0.1545392E+02  0.1545392E+02  0.2710747E+02  0.1254225E+03
Ar  694  0.1785574E+02  0.1785574E+02  0.2644382E+02  0.1951644E+03
Ar  695  0.1799617E+02  0.1576221E+02  0.3008316E+02  0.1981148E+03
Ar  696  0.1576221E+02  0.1799617E+02  0.3008316E+02  0.1981148E+03
Ar  697  0.1610569E+02  0.1610569E+02  0.3339105E+02  0.2173264E+03
Ar  698  0.1860405E+02  0.1860405E+02  0.3271819E+02  0.2916320E+02
Ar  699  0.1892977E+02  0.1639483E+02  0.3679150E+02  0.9478785E+02
Ar  700  0.1639483E+02  0.1892977E+02  0.3679150E+02  0.9478785E+02
Ar  701  0.1639485E+02  0.2208497E+02  0.1377928E+01  0.4493286E+03
Ar  702  0.1879905E+02  0.2403935E+02  0.1079519E+01  0.6390005E+02
Ar  703  0.1933711E+02  0.2190744E+02  0.3921536E+01  0.6486994E+02
Ar  704  0.1660948E+02  0.2480367E+02  0.3797289E+01  0.9993743E+02
Ar  705  0.1576227E+02  0.2190189E+02  0.5623184E+01  0.5088039E+02
Ar  706  0.1907962E+02  0.2441173E+02  0.6391986E+01  0.1395985E+03
Ar  707  0.1840251E+02  0.2166429E+02  0.8365239E+01  0.8707725E+02
Ar  708  0.1580496E+02  0.2508775E+02  0.7411086E+01  0.5242964E+02
Ar  709  0.1515034E+02  0.2125914E+02  0.1044834E+02  0.5339970E+02
Ar  710  0.1758664E+02  0.2433703E+02  0.1020699E+02  0.2212738E+03
Ar  711  0.1788244E+02  0.2071390E+02  0.1245031E+02  0.4222731E+02
Ar  712  0.1528230E+02  0.2429228E+02  0.1285721E+02  0.1598184E+03
Ar  713  0.1499106E+02  0.2096470E+02  0.1499106E+02  0.4662043E+02
Ar  714  0.1836363E+02  0.2398617E+02  0.1542714E+02  0.6299511E+02
Ar  715  0.1774137E+02  0.2086634E+02  0.1774137E+02  0.2505094E+03
Ar  716  0.1542714E+02  0.2398617E+02  0.1836363E+02  0.6299511E+02
Ar  717  0.1514005E+02  0.2091019E+02  0.2091019E+02  0.6196817E+02
Ar  718  0.1835572E+02  0.2362056E+02  0.2083368E+02  0.7415552E+02
Ar  719  0.1835572E+02  0.2083368E+02  0.2362056E+02  0.7415552E+02
Ar  720  0.1613641E+02  0.2350783E+02  0.2350783E+02  0.8861505E+02
Ar  721  0.1563992E+02  0.2055312E+02  0.2664743E+02  0.8184036E+02
Ar  722  0.1813050E+02  0.2303498E+02  0.2673005E+02  0.4915612E+03
Ar  723  0.1858815E+02  0.2103174E+02  0.3029831E+02  0.4782631E+02
Ar  724  0.1663282E+02  0.2376662E+02  0.3002090E+02  0.2614327E+03
Ar  725  0.1588795E+02  0.2073846E+02  0.3307623E+02  0.6094783E+02
Ar  726  0.1880871E+02  0.2389503E+02  0.3296457E+02  0.4002851E+02
Ar  727  0.1883870E+02  0.2144350E+02  0.3628555E+02  0.1970438E+03
Ar  728  0.1642908E+02  0.2401203E+02  0.3583883E+02  0.2109484E+03
Ar  729  0.1695529E+02  0.2710203E+02  0.1209649E+01  0.1516198E+03
Ar  730  0.1952265E+02  0.2946465E+02  0.9544581E+00  0.6006651E+02
Ar  731  0.1921096E+02  0.2729036E+02  0.4361012E+01  0.2532107E+02
Ar  732  0.1667140E+02  0.3005276E+02  0.2930607E+01  0.3996248E+02
Ar  733  0.1624543E+02  0.2813825E+02  0.5953559E+01  0.1990706E+00
Ar  734  0.1943676E+02  0.3038070E+02  0.5916671E+01  0.1552299E+03
Ar  735  0.1883285E+02  0.2758575E+02  0.8066249E+01  0.1658396E+03
Ar  736  0.1644361E+02  0.3066178E+02  0.8316682E+01  0.5605849E+02
Ar  737  0.1585744E+02  0.2752836E+02  0.1028165E+02  0.1076978E+03
Ar  738  0.1857366E+02  0.3000849E+02  0.1074573E+02  0.1488227E+03
Ar  739  0.1806335E+02  0.2665066E+02  0.1282936E+02  0.3225293E+02
Ar  740  0.1574485E+02  0.3032763E+02  0.1331365E+02  0.8181540E+02
Ar  741  0.1545392E+02  0.2710747E+02  0.1545392E+02  0.1254225E+03
Ar  742  0.1799617E+02  0.3008316E+02  0.1576221E+02  0.1981148E+03
Ar  743  0.1785574E+02  0.2644382E+02  0.1785574E+02  0.1951644E+03
Ar  744  0.1576221E+02  0.3008316E+02  0.1799617E+02  0.1981148E+03
Ar  745  0.1563992E+02  0.2664743E+02  0.2055312E+02  0.8184036E+02
Ar  746  0.1858815E+02  0.3029831E+02  0.2103174E+02  0.4782631E+02
Ar  747  0.1813050E+02  0.2673005E+02  0.2303498E+02  0.4915612E+03
Ar  748  0.1663282E+02  0.3002090E+02  0.2376662E+02  0.2614327E+03
Ar  749  0.1696925E+02  0.2689522E+02  0.2689522E+02  0.1538291E+03
Ar  750  0.1894212E+02  0.2969711E+02  0.2620237E+02  0.7595765E+02
Ar  751  0.1894212E+02  0.2620237E+02  0.2969711E+02  0.7595765E+02
Ar  752  0.1732658E+02  0.2958102E+02  0.2958102E+02  0.6507318E+02
Ar  753  0.1717051E+02  0.2698163E+02  0.3257884E+02  0.2911122E+03
Ar  754  0.1965685E+02  0.2946920E+02  0.3249922E+02  0.5234004E+02
Ar  755  0.1927847E+02  0.2659190E+02  0.3563682E+02  0.5705402E+02
Ar  756  0.1736067E+02  0.2960979E+02  0.3520845E+02  0.1124844E+03
Ar  757  0.1723593E+02  0.3209835E+02  0.3774443E+02  0.2047604E+03
Ar  758  0.1997385E+02  0.3544523E+02  0.5049051E-01  0.4544862E+03
Ar  759  0.2008480E+02  0.3215209E+02  0.3383296E+01  0.8775288E+01
Ar  760  0.1712956E+02  0.3478791E+02  0.2460137E+01  0.1691781E+03
Ar  761  0.1643834E+02  0.3288154E+02  0.5718976E+01  0.6857353E+02
Ar  762  0.1945456E+02  0.3507071E+02  0.5144141E+01  0.6796445E+02
Ar  763  0.1958339E+02  0.3354551E+02  0.8380270E+01  0.6733019E+02
Ar  764  0.1658727E+02  0.3529665E+02  0.8341252E+01  0.9435111E+01
Ar  765  0.1635546E+02  0.3318993E+02  0.1099393E+02  0.1040308E+03
Ar  766  0.1932717E+02  0.3626494E+02  0.1087000E+02  0.2999390E+03
Ar  767  0.1852770E+02  0.3352547E+02  0.1347911E+02  0.1039495E+03
Ar  768  0.1602370E+02  0.3599179E+02  0.1346785E+02  0.1253167E+03
Ar  769  0.1610569E+02  0.3339105E+02  0.1610569E+02  0.2173264E+03
Ar  770  0.1892977E+02  0.3679150E+02  0.1639483E+02  0.9478785E+02
Ar  771  0.1860405E+02  0.3271819E+02  0.1860405E+02  0.2916320E+02
Ar  772  0.1639483E+02  0.3679150E+02  0.1892977E+02  0.9478785E+02
Ar  773  0.1588795E+02  0.3307623E+02  0.2073846E+02  0.6094783E+02
Ar  774  0.1883870E+02  0.3628555E+02  0.2144350E+02  0.1970438E+03
Ar  775  0.1880871E+02  0.3296457E+02  0.2389503E+02  0.4002851E+02
Ar  776  0.1642908E+02  0.3583883E+02  0.2401203E+02  0.2109484E+03
Ar  777  0.1717051E+02  0.3257884E+02  0.2698163E+02  0.2911122E+03
Ar  778  0.1927847E+02  0.3563682E+02  0.2659190E+02  0.5705402E+02
Ar  779  0.1965685E+02  0.3249922E+02  0.2946920E+02  0.5234004E+02
Ar  780  0.1736067E+02  0.3520845E+02  0.2960979E+02  0.1124844E+03
Ar  781  0.1730524E+02  0.3210628E+02  0.3210628E+02  0.2369689E+03
Ar  782  0.1920961E+02  0.3524399E+02  0.3270082E+02  0.4713478E+02
Ar  783  0.1920961E+02  0.3270082E+02  0.3524399E+02  0.4713478E+02
Ar  784  0.1742618E+02  0.3543400E+02  0.3543400E+02  0.6207732E+03
Ar  785  0.2217224E+02  0.4736827E+00  0.4736827E+00  0.3209591E+03
Ar  786  0.2497614E+02  0.2457020E+01  0.3750494E+02  0.6337969E+02
Ar  787  0.2497614E+02  0.3750494E+02  0.2457020E+01  0.6337969E+02
Ar  788  0.2270115E+02  0.2959586E+01  0.2959586E+01  0.1430380E+03
Ar  789  0.2277004E+02  0.3754781E+02  0.5074543E+01  0.1232083E+03
Ar  790  0.2530302E+02  0.2872373E+01  0.5308773E+01  0.2027418E+03
Ar  791  0.2491480E+02  0.1236741E+00  0.7935616E+01  0.1529572E+03
Ar  792  0.2306109E+02  0.3077436E+01  0.7821164E+01  0.2945625E+03
Ar  793  0.2264540E+02  0.5990375E+00  0.1070758E+02  0.8202345E+02
Ar  794  0.2507304E+02  0.3036066E+01  0.1091439E+02  0.1140280E+03
Ar  795  0.2523119E+02  0.5009942E+00  0.1420216E+02  0.1788654E+03
Ar  796  0.2231847E+02  0.2888343E+01  0.1320005E+02  0.1631970E+03
Ar  797  0.2208497E+02  0.1377928E+01  0.1639485E+02  0.4493286E+03
Ar  798  0.2480367E+02  0.3797289E+01  0.1660948E+02  0.9993743E+02
Ar  799  0.2403935E+02  0.1079519E+01  0.1879905E+02  0.6390005E+02
Ar  800  0.2190744E+02  0.3921536E+01  0.1933711E+02  0.6486994E+02
Ar  801  0.2208225E+02  0.1699691E+01  0.2208225E+02  0.2877679E+02
Ar  802  0.2442185E+02  0.3999036E+01  0.2160626E+02  0.2243047E+03
Ar  803  0.2441245E+02  0.1208098E+00  0.2441245E+02  0.1536703E+03
Ar  804  0.2160626E+02  0.3999036E+01  0.2442185E+02  0.2243047E+03
Ar  805  0.2136572E+02  0.8847547E+00  0.2653096E+02  0.7403939E+02
Ar  806  0.2411313E+02  0.3615322E+01  0.2692524E+02  0.4341628E+03
Ar  807  0.2368258E+02  0.7444981E-01  0.2886628E+02  0.6369690E+02
Ar  808  0.2205668E+02  0.3383870E+01  0.2949348E+02  0.1051403E+03
Ar  809  0.2206106E+02  0.3751459E+02  0.3216137E+02  0.2985449E+03
Ar  810  0.2406783E+02  0.2829141E+01  0.3205912E+02  0.3660649E+02
Ar  811  0.2460847E+02  0.3756872E+02  0.3510013E+02  0.2057536E+03
Ar  812  0.2222261E+02  0.2944592E+01  0.3506780E+02  0.1502909E+02
Ar  813  0.2277004E+02  0.5074543E+01  0.3754781E+02  0.1232083E+03
Ar  814  0.2491480E+02  0.7935616E+01  0.1236741E+00  0.1529572E+03
Ar  815  0.2530302E+02  0.5308773E+01  0.2872373E+01  0.2027418E+03
Ar  816  0.2306109E+02  0.7821164E+01  0.3077436E+01  0.2945625E+03
Ar  817  0.2178632E+02  0.5085301E+01  0.5085301E+01  0.5774158E+03
Ar  818  0.2534793E+02  0.7812861E+01  0.5272369E+01  0.3036506E+03
Ar  819  0.2534793E+02  0.5272369E+01  0.7812861E+01  0.3036506E+03
Ar  820  0.2280422E+02  0.7484994E+01  0.7484994E+01  0.2307803E+03
Ar  821  0.2257228E+02  0.5391453E+01  0.1028052E+02  0.5218772E+03
Ar  822  0.2521660E+02  0.7592004E+01  0.1035132E+02  0.2674157E+02
Ar  823  0.2458496E+02  0.5487571E+01  0.1300667E+02  0.8479074E+02
Ar  824  0.2168275E+02  0.7716951E+01  0.1266935E+02  0.1059355E+03
Ar  825  0.2190189E+02  0.5623184E+01  0.1576227E+02  0.5088039E+02
Ar  826  0.2508775E+02  0.7411086E+01  0.1580496E+02  0.5242964E+02
Ar  827  0.2441173E+02  0.6391986E+01  0.1907962E+02  0.1395985E+03
Ar  828  0.2166429E+02  0.8365239E+01  0.1840251E+02  0.8707725E+02
Ar  829  0.2188448E+02  0.6524575E+01  0.2188448E+02  0.1038309E+03
Ar  830  0.2423181E+02  0.9196961E+01  0.2129252E+02  0.1027463E+03
Ar  831  0.2458273E+02  0.6637674E+01  0.2458273E+02  0.2532750E+03
Ar  832  0.2129252E+02  0.9196961E+01  0.2423181E+02  0.1027463E+03
Ar  833  0.2204638E+02  0.6735114E+01  0.2679121E+02  0.6196567E+01
Ar  834  0.2475641E+02  0.9372937E+01  0.2730076E+02  0.1177380E+02
Ar  835  0.2467303E+02  0.6552302E+01  0.2943771E+02  0.1935701E+03
Ar  836  0.2207569E+02  0.8572262E+01  0.3031326E+02  0.8574583E+02
Ar  837  0.2217281E+02  0.6329923E+01  0.3265744E+02  0.1526075E+03
Ar  838  0.2493857E+02  0.9058948E+01  0.3277979E+02  0.1693010E+03
Ar  839  0.2490659E+02  0.5327733E+01  0.3487990E+02  0.4270734E+02
Ar  840  0.2278773E+02  0.8247850E+01  0.3523975E+02  0.1739259E+03
Ar  841  0.2264540E+02  0.1070758E+02  0.5990375E+00  0.8202345E+02
Ar  842  0.2523119E+02  0.1420216E+02  0.5009942E+00  0.1788654E+03
Ar  843  0.2507304E+02  0.1091439E+02  0.3036066E+01  0.1140280E+03
Ar  844  0.2231847E+02  0.1320005E+02  0.2888343E+01  0.1631970E+03
Ar  845  0.2257228E+02  0.1028052E+02  0.5391453E+01  0.5218772E+03
Ar  846  0.2458496E+02  0.1300667E+02  0.5487571E+01  0.8479074E+02
Ar  847  0.2521660E+02  0.1035132E+02  0.7592004E+01  0.2674157E+02
Ar  848  0.2168275E+02  0.1266935E+02  0.7716951E+01  0.1059355E+03
Ar  849  0.2215037E+02  0.1004457E+02  0.1004457E+02  0.3988163E+03
Ar  850  0.2477936E+02  0.1275508E+02  0.9881523E+01  0.1795329E+03
Ar  851  0.2477936E+02  0.9881523E+01  0.1275508E+02  0.1795329E+03
Ar  852  0.2196677E+02  0.1251430E+02  0.1251430E+02  0.2624144E+03
Ar  853  0.2125914E+02  0.1044834E+02  0.1515034E+02  0.5339970E+02
Ar  854  0.2429228E+02  0.1285721E+02  0.1528230E+02  0.1598184E+03
Ar  855  0.2433703E+02  0.1020699E+02  0.1758664E+02  0.2212738E+03
Ar  856  0.2071390E+02  0.1245031E+02  0.1788244E+02  0.4222731E+02
Ar  857  0.2108133E+02  0.1109131E+02  0.2108133E+02  0.2610494E+02
Ar  858  0.2435727E+02  0.1285466E+02  0.2109216E+02  0.1966529E+03
Ar  859  0.2426266E+02  0.1142185E+02  0.2426266E+02  0.1985722E+03
Ar  860  0.2109216E+02  0.1285466E+02  0.2435727E+02  0.1966529E+03
Ar  861  0.2159757E+02  0.1124659E+02  0.2730818E+02  0.3306442E+03
Ar  862  0.2402482E+02  0.1452148E+02  0.2662142E+02  0.2257944E+03
Ar  863  0.2425858E+02  0.1241632E+02  0.2979485E+02  0.1940708E+03
Ar  864  0.2086929E+02  0.1377506E+02  0.3001965E+02  0.1037115E+03
Ar  865  0.2145498E+02  0.1150777E+02  0.3329166E+02  0.2104809E+03
Ar  866  0.2402146E+02  0.1456574E+02  0.3322419E+02  0.3064335E+03
Ar  867  0.2458211E+02  0.1123479E+02  0.3567810E+02  0.7205223E+02
Ar  868  0.2144556E+02  0.1390037E+02  0.3652774E+02  0.1705125E+03
Ar  869  0.2208497E+02  0.1639485E+02  0.1377928E+01  0.4493286E+03
Ar  870  0.2403935E+02  0.1879905E+02  0.1079519E+01  0.6390005E+02
Ar  871  0.2480367E+02  0.1660948E+02  0.3797289E+01  0.9993743E+02
Ar  872  0.2190744E+02  0.1933711E+02  0.3921536E+01  0.6486994E+02
Ar  873  0.2190189E+02  0.1576227E+02  0.5623184E+01  0.5088039E+02
Ar  874  0.2441173E+02  0.1907962E+02  0.6391986E+01  0.1395985E+03
Ar  875  0.2508775E+02  0.1580496E+02  0.7411086E+01  0.5242964E+02
Ar  876  0.2166429E+02  0.1840251E+02  0.8365239E+01  0.8707725E+02
Ar  877  0.2125914E+02  0.1515034E+02  0.1044834E+02  0.5339970E+02
Ar  878  0.2433703E+02  0.1758664E+02  0.1020699E+02  0.2212738E+03
Ar  879  0.2429228E+02  0.1528230E+02  0.1285721E+02  0.1598184E+03
Ar  880  0.2071390E+02  0.1788244E+02  0.1245031E+02  0.4222731E+02
Ar  881  0.2096470E+02  0.1499106E+02  0.1499106E+02  0.4662043E+02
Ar  882  0.2398617E+02  0.1836363E+02  0.1542714E+02  0.6299511E+02
Ar  883  0.2398617E+02  0.1542714E+02  0.1836363E+02  0.6299511E+02
Ar  884  0.2086634E+02  0.1774137E+02  0.1774137E+02  0.2505094E+03
Ar  885  0.2091019E+02  0.1514005E+02  0.2091019E+02  0.6196817E+02
Ar  886  0.2362056E+02  0.1835572E+02  0.2083368E+02  0.7415552E+02
Ar  887  0.2350783E+02  0.1613641E+02  0.2350783E+02  0.8861505E+02
Ar  888  0.2083368E+02  0.1835572E+02  0.2362056E+02  0.7415552E+02
Ar  889  0.2055312E+02  0.1563992E+02  0.2664743E+02  0.8184036E+02
Ar  890  0.2303498E+02  0.1813050E+02  0.2673005E+02  0.4915612E+03
Ar  891  0.2376662E+02  0.1663282E+02  0.3002090E+02  0.2614327E+03
Ar  892  0.2103174E+02  0.1858815E+02  0.3029831E+02  0.4782631E+02
Ar  893  0.2073846E+02  0.1588795E+02  0.3307623E+02  0.6094783E+02
Ar  894  0.2389503E+02  0.1880871E+02  0.3296457E+02  0.4002851E+02
Ar  895  0.2401203E+02  0.1642908E+02  0.3583883E+02  0.2109484E+03
Ar  896  0.2144350E+02  0.1883870E+02  0.3628555E+02  0.1970438E+03
Ar  897  0.2208225E+02  0.2208225E+02  0.1699691E+01  0.2877679E+02
Ar  898  0.2441245E+02  0.2441245E+02  0.1208098E+00  0.1536703E+03
Ar  899  0.2442185E+02  0.2160626E+02  0.3999036E+01  0.2243047E+03
Ar  900  0.2160626E+02  0.2442185E+02  0.3999036E+01  0.2243047E+03
Ar  901  0.2188448E+02  0.2188448E+02  0.6524575E+01  0.1038309E+03
Ar  902  0.2458273E+02  0.2458273E+02  0.6637674E+01  0.2532750E+03
Ar  903  0.2423181E+02  0.2129252E+02  0.9196961E+01  0.1027463E+03
Ar  904  0.2129252E+02  0.2423181E+02  0.9196961E+01  0.1027463E+03
Ar  905  0.2108133E+02  0.2108133E+02  0.1109131E+02  0.2610494E+02
Ar  906  0.2426266E+02  0.2426266E+02  0.1142185E+02  0.1985722E+03
Ar  907  0.2435727E+02  0.2109216E+02  0.1285466E+02  0.1966529E+03
Ar  908  0.2109216E+02  0.2435727E+02  0.1285466E+02  0.1966529E+03
Ar  909  0.2091019E+02  0.2091019E+02  0.1514005E+02  0.6196817E+02
Ar  910  0.2350783E+02  0.2350783E+02  0.1613641E+02  0.8861505E+02
Ar  911  0.2362056E+02  0.2083368E+02  0.1835572E+02  0.7415552E+02
Ar  912  0.2083368E+02  0.2362056E+02  0.1835572E+02  0.7415552E+02
Ar  913  0.2023617E+02  0.2023617E+02  0.2023617E+02  0.1094290E+01
Ar  914  0.2353412E+02  0.2353412E+02  0.2076114E+02  0.6939993E+02
Ar  915  0.2353412E+02  0.2076114E+02  0.2353412E+02  0.6939993E+02
Ar  916  0.2076114E+02  0.2353412E+02  0.2353412E+02  0.6939993E+02
Ar  917  0.2065912E+02  0.2065912E+02  0.2636950E+02  0.1144433E+03
Ar  918  0.2321237E+02  0.2321237E+02  0.2593271E+02  0.3853522E+02
Ar  919  0.2348492E+02  0.2089826E+02  0.2890387E+02  0.1487039E+03
Ar  920  0.2089826E+02  0.2348492E+02  0.2890387E+02  0.1487039E+03
Ar  921  0.2096867E+02  0.2096867E+02  0.3321586E+02  0.2790581E+03
Ar  922  0.2323130E+02  0.2323130E+02  0.3202441E+02  0.1165398E+02
Ar  923  0.2366949E+02  0.2127257E+02  0.3578257E+02  0.6056286E+02
Ar  924  0.2127257E+02  0.2366949E+02  0.3578257E+02  0.6056286E+02
Ar  925  0.2136572E+02  0.2653096E+02  0.8847547E+00  0.7403939E+02
Ar  926  0.2368258E+02  0.2886628E+02  0.7444981E-01  0.6369690E+02
Ar  927  0.2411313E+02  0.2692524E+02  0.3615322E+01  0.4341628E+03
Ar  928  0.2205668E+02  0.2949348E+02  0.3383870E+01  0.1051403E+03
Ar  929  0.2204638E+02  0.2679121E+02  0.6735114E+01  0.6196567E+01
Ar  930  0.2467303E+02  0.2943771E+02  0.6552302E+01  0.1935701E+03
Ar  931  0.2475641E+02  0.2730076E+02  0.9372937E+01  0.1177380E+02
Ar  932  0.2207569E+02  0.3031326E+02  0.8572262E+01  0.8574583E+02
Ar  933  0.2159757E+02  0.2730818E+02  0.1124659E+02  0.3306442E+03
Ar  934  0.2425858E+02  0.2979485E+02  0.1241632E+02  0.1940708E+03
Ar  935  0.2402482E+02  0.2662142E+02  0.1452148E+02  0.2257944E+03
Ar  936  0.2086929E+02  0.3001965E+02  0.1377506E+02  0.1037115E+03
Ar  937  0.2055312E+02  0.2664743E+02  0.1563992E+02  0.8184036E+02
Ar  938  0.2376662E+02  0.3002090E+02  0.1663282E+02  0.2614327E+03
Ar  939  0.2303498E+02  0.2673005E+02  0.1813050E+02  0.4915612E+03
Ar  940  0.2103174E+02  0.3029831E+02  0.1858815E+02  0.4782631E+02
Ar  941  0.2065912E+02  0.2636950E+02  0.2065912E+02  0.1144433E+03
Ar  942  0.2348492E+02  0.2890387E+02  0.2089826E+02  0.1487039E+03
Ar  943  0.2321237E+02  0.2593271E+02  0.2321237E+02  0.3853522E+02
Ar  944  0.2089826E+02  0.2890387E+02  0.2348492E+02  0.1487039E+03
Ar  945  0.2055763E+02  0.2617070E+02  0.2617070E+02  0.2961900E+03
Ar  946  0.2303997E+02  0.2837646E+02  0.2601251E+02  0.1537737E+03
Ar  947  0.2303997E+02  0.2601251E+02  0.2837646E+02  0.1537737E+03
Ar  948  0.2087771E+02  0.2919741E+02  0.2919741E+02  0.8276776E+01
Ar  949  0.2135302E+02  0.2611609E+02  0.3211263E+02  0.1103364E+03
Ar  950  0.2340923E+02  0.2935814E+02  0.3165194E+02  0.2367160E+03
Ar  951  0.2320538E+02  0.2617021E+02  0.3474448E+02  0.1615338E+03
Ar  952  0.2123828E+02  0.2942236E+02  0.3543614E+02  0.1678128E+03
Ar  953  0.2206106E+02  0.3216137E+02  0.3751459E+02  0.2985449E+03
Ar  954  0.2460847E+02  0.3510013E+02  0.3756872E+02  0.2057536E+03
Ar  955  0.2406783E+02  0.3205912E+02  0.2829141E+01  0.3660649E+02
Ar  956  0.2222261E+02  0.3506780E+02  0.2944592E+01  0.1502909E+02
Ar  957  0.2217281E+02  0.3265744E+02  0.6329923E+01  0.1526075E+03
Ar  958  0.2490659E+02  0.3487990E+02  0.5327733E+01  0.4270734E+02
Ar  959  0.2493857E+02  0.3277979E+02  0.9058948E+01  0.1693010E+03
Ar  960  0.2278773E+02  0.3523975E+02  0.8247850E+01  0.1739259E+03
Ar  961  0.2145498E+02  0.3329166E+02  0.1150777E+02  0.2104809E+03
Ar  962  0.2458211E+02  0.3567810E+02  0.1123479E+02  0.7205223E+02
Ar  963  0.2402146E+02  0.3322419E+02  0.1456574E+02  0.3064335E+03
Ar  964  0.2144556E+02  0.3652774E+02  0.1390037E+02  0.1705125E+03
Ar  965  0.2073846E+02  0.3307623E+02  0.1588795E+02  0.6094783E+02
Ar  966  0.2401203E+02  0.3583883E+02  0.1642908E+02  0.2109484E+03
Ar  967  0.2389503E+02  0.3296457E+02  0.1880871E+02  0.4002851E+02
Ar  968  0.2144350E+02  0.3628555E+02  0.1883870E+02  0.1970438E+03
Ar  969  0.2096867E+02  0.3321586E+02  0.2096867E+02  0.2790581E+03
Ar  970  0.2366949E+02  0.3578257E+02  0.2127257E+02  0.6056286E+02
Ar  971  0.2323130E+02  0.3202441E+02  0.2323130E+02  0.1165398E+02
Ar  972  0.2127257E+02  0.3578257E+02  0.2366949E+02  0.6056286E+02
Ar  973  0.2135302E+02  0.3211263E+02  0.2611609E+02  0.1103364E+03
Ar  974  0.2320538E+02  0.3474448E+02  0.2617021E+02  0.1615338E+03
Ar  975  0.2340923E+02  0.3165194E+02  0.2935814E+02  0.2367160E+03
Ar  976  0.2123828E+02  0.3543614E+02  0.2942236E+02  0.1678128E+03
Ar  977  0.2129707E+02  0.3265127E+02  0.3265127E+02  0.2755527E+02
Ar  978  0.2442003E+02  0.3476633E+02  0.3196288E+02  0.1123933E+03
Ar  979  0.2442003E+02  0.3196288E+02  0.3476633E+02  0.1123933E+03
Ar  980  0.2204037E+02  0.3523949E+02  0.3523949E+02  0.2967478E+03
Ar  981  0.2778394E+02  0.3733622E+02  0.3733622E+02  0.4185451E+02
Ar  982  0.2959433E+02  0.2410334E+01  0.3751056E+02  0.2338425E+03
Ar  983  0.2959433E+02  0.3751056E+02  0.2410334E+01  0.2338425E+03
Ar  984  0.2759595E+02  0.2538150E+01  0.2538150E+01  0.8991682E+01
Ar  985  0.2749742E+02  0.3734580E+02  0.5853969E+01  0.8439494E+01
Ar  986  0.3011645E+02  0.2368113E+01  0.5244316E+01  0.8468327E+02
Ar  987  0.2974119E+02  0.3768228E+02  0.8369450E+01  0.8243814E+02
Ar  988  0.2752785E+02  0.2736405E+01  0.8466821E+01  0.2103968E+02
Ar  989  0.2735477E+02  0.4398359E+00  0.1147258E+02  0.4848318E+02
Ar  990  0.3069115E+02  0.2707759E+01  0.1110955E+02  0.3876045E+02
Ar  991  0.2994305E+02  0.2826758E+00  0.1423497E+02  0.9729590E+02
Ar  992  0.2741797E+02  0.3399297E+01  0.1412406E+02  0.7028807E+02
Ar  993  0.2710203E+02  0.1209649E+01  0.1695529E+02  0.1516198E+03
Ar  994  0.3005276E+02  0.2930607E+01  0.1667140E+02  0.3996248E+02
Ar  995  0.2946465E+02  0.9544581E+00  0.1952265E+02  0.6006651E+02
Ar  996  0.2729036E+02  0.4361012E+01  0.1921096E+02  0.2532107E+02
Ar  997  0.2653096E+02  0.8847547E+00  0.2136572E+02  0.7403939E+02
Ar  998  0.2949348E+02  0.3383870E+01  0.2205668E+02  0.1051403E+03
Ar  999  0.2886628E+02  0.7444981E-01  0.2368258E+02  0.6369690E+02
Ar 1000  0.2692524E+02  0.3615322E+01  0.2411313E+02  0.4341628E+03
Ar 1001  0.2698308E+02  0.3301023E+00  0.2698308E+02  0.3571833E+02
Ar 1002  0.2966277E+02  0.3167217E+01  0.2679334E+02  0.8531650E+02
Ar 1003  0.2955945E+02  0.1212505E+00  0.2955945E+02  0.4253134E+02
Ar 1004  0.2679334E+02  0.3167217E+01  0.2966277E+02  0.8531650E+02
Ar 1005  0.2613305E+02  0.7422798E-01  0.3144773E+02  0.4768494E+03
Ar 1006  0.2950842E+02  0.3502959E+01  0.3213149E+02  0.4335060E+02
Ar 1007  0.2942836E+02  0.3739560E+02  0.3403995E+02  0.1535130E+03
Ar 1008  0.2676392E+02  0.2087869E+01  0.3421128E+02  0.1225616E+03
Ar 1009  0.2749742E+02  0.5853969E+01  0.3734580E+02  0.8439494E+01
Ar 1010  0.2974119E+02  0.8369450E+01  0.3768228E+02  0.8243814E+02
Ar 1011  0.3011645E+02  0.5244316E+01  0.2368113E+01  0.8468327E+02
Ar 1012  0.2752785E+02  0.8466821E+01  0.2736405E+01  0.2103968E+02
Ar 1013  0.2789059E+02  0.5275894E+01  0.5275894E+01  0.1127938E+03
Ar 1014  0.3030627E+02  0.8147472E+01  0.5315125E+01  0.7098302E+02
Ar 1015  0.3030627E+02  0.5315125E+01  0.8147472E+01  0.7098302E+02
Ar 1016  0.2780181E+02  0.8033357E+01  0.8033357E+01  0.6824100E+03
Ar 1017  0.2798639E+02  0.4872368E+01  0.1104554E+02  0.2058331E+02
Ar 1018  0.3047916E+02  0.8124599E+01  0.1094308E+02  0.1001392E+03
Ar 1019  0.3049689E+02  0.5840218E+01  0.1382156E+02  0.4427563E+03
Ar 1020  0.2754972E+02  0.7778097E+01  0.1266091E+02  0.7609739E+02
Ar 1021  0.2813825E+02  0.5953559E+01  0.1624543E+02  0.1990706E+00
Ar 1022  0.3066178E+02  0.8316682E+01  0.1644361E+02  0.5605849E+02
Ar 1023  0.3038070E+02  0.5916671E+01  0.1943676E+02  0.1552299E+03
Ar 1024  0.2758575E+02  0.8066249E+01  0.1883285E+02  0.1658396E+03
Ar 1025  0.2679121E+02  0.6735114E+01  0.2204638E+02  0.6196567E+01
Ar 1026  0.3031326E+02  0.8572262E+01  0.2207569E+02  0.8574583E+02
Ar 1027  0.2943771E+02  0.6552302E+01  0.2467303E+02  0.1935701E+03
Ar 1028  0.2730076E+02  0.9372937E+01  0.2475641E+02  0.1177380E+02
Ar 1029  0.2710700E+02  0.5431280E+01  0.2710700E+02  0.1581351E+02
Ar 1030  0.2985024E+02  0.8846245E+01  0.2757847E+02  0.2266383E+02
Ar 1031  0.2935901E+02  0.5782862E+01  0.2935901E+02  0.1208505E+03
Ar 1032  0.2757847E+02  0.8846245E+01  0.2985024E+02  0.2266383E+02
Ar 1033  0.2669200E+02  0.5735293E+01  0.3195022E+02  0.8543449E+02
Ar 1034  0.2976773E+02  0.9242453E+01  0.3239753E+02  0.8376631E+03
Ar 1035  0.2956733E+02  0.6281543E+01  0.3452285E+02  0.4650568E+02
Ar 1036  0.2730905E+02  0.8947067E+01  0.3521353E+02  0.1786344E+03
Ar 1037  0.2735477E+02  0.1147258E+02  0.4398359E+00  0.4848318E+02
Ar 1038  0.2994305E+02  0.1423497E+02  0.2826758E+00  0.9729590E+02
Ar 1039  0.3069115E+02  0.1110955E+02  0.2707759E+01  0.3876045E+02
Ar 1040  0.2741797E+02  0.1412406E+02  0.3399297E+01  0.7028807E+02
Ar 1041  0.2798639E+02  0.1104554E+02  0.4872368E+01  0.2058331E+02
Ar 1042  0.3049689E+02  0.1382156E+02  0.5840218E+01  0.4427563E+03
Ar 1043  0.3047916E+02  0.1094308E+02  0.8124599E+01  0.1001392E+03
Ar 1044  0.2754972E+02  0.1266091E+02  0.7778097E+01  0.7609739E+02
Ar 1045  0.2808138E+02  0.1078371E+02  0.1078371E+02  0.4931063E+02
Ar 1046  0.3075321E+02  0.1314247E+02  0.1083571E+02  0.2687359E+03
Ar 1047  0.3075321E+02  0.1083571E+02  0.1314247E+02  0.2687359E+03
Ar 1048  0.2784250E+02  0.1311729E+02  0.1311729E+02  0.5570645E+03
Ar 1049  0.2752836E+02  0.1028165E+02  0.1585744E+02  0.1076978E+03
Ar 1050  0.3032763E+02  0.1331365E+02  0.1574485E+02  0.8181540E+02
Ar 1051  0.3000849E+02  0.1074573E+02  0.1857366E+02  0.1488227E+03
Ar 1052  0.2665066E+02  0.1282936E+02  0.1806335E+02  0.3225293E+02
Ar 1053  0.2730818E+02  0.1124659E+02  0.2159757E+02  0.3306442E+03
Ar 1054  0.3001965E+02  0.1377506E+02  0.2086929E+02  0.1037115E+03
Ar 1055  0.2979485E+02  0.1241632E+02  0.2425858E+02  0.1940708E+03
Ar 1056  0.2662142E+02  0.1452148E+02  0.2402482E+02  0.2257944E+03
Ar 1057  0.2695206E+02  0.1220044E+02  0.2695206E+02  0.1681872E+03
Ar 1058  0.2969802E+02  0.1502586E+02  0.2686199E+02  0.1667037E+02
Ar 1059  0.2964560E+02  0.1240226E+02  0.2964560E+02  0.9302668E-01
Ar 1060  0.2686199E+02  0.1502586E+02  0.2969802E+02  0.1667037E+02
Ar 1061  0.2725545E+02  0.1157374E+02  0.3286234E+02  0.1514799E+02
Ar 1062  0.2950151E+02  0.1469782E+02  0.3217328E+02  0.1013732E+03
Ar 1063  0.2985592E+02  0.1176387E+02  0.3551757E+02  0.2781616E+02
Ar 1064  0.2708996E+02  0.1420490E+02  0.3514633E+02  0.2434327E+02
Ar 1065  0.2710203E+02  0.1695529E+02  0.1209649E+01  0.1516198E+03
Ar 1066  0.2946465E+02  0.1952265E+02  0.9544581E+00  0.6006651E+02
Ar 1067  0.3005276E+02  0.1667140E+02  0.2930607E+01  0.3996248E+02
Ar 1068  0.2729036E+02  0.1921096E+02  0.4361012E+01  0.2532107E+02
Ar 1069  0.2813825E+02  0.1624543E+02  0.5953559E+01  0.1990706E+00
Ar 1070  0.3038070E+02  0.1943676E+02  0.5916671E+01  0.1552299E+03
Ar 1071  0.3066178E+02  0.1644361E+02  0.8316682E+01  0.5605849E+02
Ar 1072  0.2758575E+02  0.1883285E+02  0.8066249E+01  0.1658396E+03
Ar 1073  0.2752836E+02  0.1585744E+02  0.1028165E+02  0.1076978E+03
Ar 1074  0.3000849E+02  0.1857366E+02  0.1074573E+02  0.1488227E+03
Ar 1075  0.3032763E+02  0.1574485E+02  0.1331365E+02  0.8181540E+02
Ar 1076  0.2665066E+02  0.1806335E+02  0.1282936E+02  0.3225293E+02
Ar 1077  0.2710747E+02  0.1545392E+02  0.1545392E+02  0.1254225E+03
Ar 1078  0.3008316E+02  0.1799617E+02  0.1576221E+02  0.1981148E+03
Ar 1079  0.3008316E+02  0.1576221E+02  0.1799617E+02  0.1981148E+03
Ar 1080  0.2644382E+02  0.1785574E+02  0.1785574E+02  0.1951644E+03
Ar 1081  0.2664743E+02  0.1563992E+02  0.2055312E+02  0.8184036E+02
Ar 1082  0.3029831E+02  0.1858815E+02  0.2103174E+02  0.4782631E+02
Ar 1083  0.3002090E+02  0.1663282E+02  0.2376662E+02  0.2614327E+03
Ar 1084  0.2673005E+02  0.1813050E+02  0.2303498E+02  0.4915612E+03
Ar 1085  0.2689522E+02  0.1696925E+02  0.2689522E+02  0.1538291E+03
Ar 1086  0.2969711E+02  0.1894212E+02  0.2620237E+02  0.7595765E+02
Ar 1087  0.2958102E+02  0.1732658E+02  0.2958102E+02  0.6507318E+02
Ar 1088  0.2620237E+02  0.1894212E+02  0.2969711E+02  0.7595765E+02
Ar 1089  0.2698163E+02  0.1717051E+02  0.3257884E+02  0.2911122E+03
Ar 1090  0.2946920E+02  0.1965685E+02  0.3249922E+02  0.5234004E+02
Ar 1091  0.2960979E+02  0.1736067E+02  0.3520845E+02  0.1124844E+03
Ar 1092  0.2659190E+02  0.1927847E+02  0.3563682E+02  0.5705402E+02
Ar 1093  0.2653096E+02  0.2136572E+02  0.8847547E+00  0.7403939E+02
Ar 1094  0.2886628E+02  0.2368258E+02  0.7444981E-01  0.6369690E+02
Ar 1095  0.2949348E+02  0.2205668E+02  0.3383870E+01  0.1051403E+03
Ar 1096  0.2692524E+02  0.2411313E+02  0.3615322E+01  0.4341628E+03
Ar 1097  0.2679121E+02  0.2204638E+02  0.6735114E+01  0.6196567E+01
Ar 1098  0.2943771E+02  0.2467303E+02  0.6552302E+01  0.1935701E+03
Ar 1099  0.3031326E+02  0.2207569E+02  0.8572262E+01  0.8574583E+02
Ar 1100  0.2730076E+02  0.2475641E+02  0.9372937E+01  0.1177380E+02
Ar 1101  0.2730818E+02  0.2159757E+02  0.1124659E+02  0.3306442E+03
Ar 1102  0.2979485E+02  0.2425858E+02  0.1241632E+02  0.1940708E+03
Ar 1103  0.3001965E+02  0.2086929E+02  0.1377506E+02  0.1037115E+03
Ar 1104  0.2662142E+02  0.2402482E+02  0.1452148E+02  0.2257944E+03
Ar 1105  0.2664743E+02  0.2055312E+02  0.1563992E+02  0.8184036E+02
Ar 1106  0.3002090E+02  0.2376662E+02  0.1663282E+02  0.2614327E+03
Ar 1107  0.3029831E+02  0.2103174E+02  0.1858815E+02  0.4782631E+02
Ar 1108  0.2673005E+02  0.2303498E+02  0.1813050E+02  0.4915612E+03
Ar 1109  0.2636950E+02  0.2065912E+02  0.2065912E+02  0.1144433E+03
Ar 1110  0.2890387E+02  0.2348492E+02  0.2089826E+02  0.1487039E+03
Ar 1111  0.2890387E+02  0.2089826E+02  0.2348492E+02  0.1487039E+03
Ar 1112  0.2593271E+02  0.2321237E+02  0.2321237E+02  0.3853522E+02
Ar 1113  0.2617070E+02  0.2055763E+02  0.2617070E+02  0.2961900E+03
Ar 1114  0.2837646E+02  0.2303997E+02  0.2601251E+02  0.1537737E+03
Ar 1115  0.2919741E+02  0.2087771E+02  0.2919741E+02  0.8276776E+01
Ar 1116  0.2601251E+02  0.2303997E+02  0.2837646E+02  0.1537737E+03
Ar 1117  0.2611609E+02  0.2135302E+02  0.3211263E+02  0.1103364E+03
Ar 1118  0.2935814E+02  0.2340923E+02  0.3165194E+02  0.2367160E+03
Ar 1119  0.2942236E+02  0.2123828E+02  0.3543614E+02  0.1678128E+03
Ar 1120  0.2617021E+02  0.2320538E+02  0.3474448E+02  0.1615338E+03
Ar 1121  0.2698308E+02  0.2698308E+02  0.3301023E+00  0.3571833E+02
Ar 1122  0.2955945E+02  0.2955945E+02  0.1212505E+00  0.4253134E+02
Ar 1123  0.2966277E+02  0.2679334E+02  0.3167217E+01  0.8531650E+02
Ar 1124  0.2679334E+02  0.2966277E+02  0.3167217E+01  0.8531650E+02
Ar 1125  0.2710700E+02  0.2710700E+02  0.5431280E+01  0.1581351E+02
Ar 1126  0.2935901E+02  0.2935901E+02  0.5782862E+01  0.1208505E+03
Ar 1127  0.2985024E+02  0.2757847E+02  0.8846245E+01  0.2266383E+02
Ar 1128  0.2757847E+02  0.2985024E+02  0.8846245E+01  0.2266383E+02
Ar 1129  0.2695206E+02  0.2695206E+02  0.1220044E+02  0.1681872E+03
Ar 1130  0.2964560E+02  0.2964560E+02  0.1240226E+02  0.9302668E-01
Ar 1131  0.2969802E+02  0.2686199E+02  0.1502586E+02  0.1667037E+02
Ar 1132  0.2686199E+02  0.2969802E+02  0.1502586E+02  0.1667037E+02
Ar 1133  0.2689522E+02  0.2689522E+02  0.1696925E+02  0.1538291E+03
Ar 1134  0.2958102E+02  0.2958102E+02  0.1732658E+02  0.6507318E+02
Ar 1135  0.2969711E+02  0.2620237E+02  0.1894212E+02  0.7595765E+02
Ar 1136  0.2620237E+02  0.2969711E+02  0.1894212E+02  0.7595765E+02
Ar 1137  0.2617070E+02  0.2617070E+02  0.2055763E+02  0.2961900E+03
Ar 1138  0.2919741E+02  0.2919741E+02  0.2087771E+02  0.8276776E+01
Ar 1139  0.2837646E+02  0.2601251E+02  0.2303997E+02  0.1537737E+03
Ar 1140  0.2601251E+02  0.2837646E+02  0.2303997E+02  0.1537737E+03
Ar 1141  0.2573891E+02  0.2573891E+02  0.2573891E+02  0.5440038E+02
Ar 1142  0.2837773E+02  0.2837773E+02  0.2557673E+02  0.2251032E+02
Ar 1143  0.2837773E+02  0.2557673E+02  0.2837773E+02  0.2251032E+02
Ar 1144  0.2557673E+02  0.2837773E+02  0.2837773E+02  0.2251032E+02
Ar 1145  0.2567021E+02  0.2567021E+02  0.3120652E+02  0.2334326E+02
Ar 1146  0.2829712E+02  0.2829712E+02  0.3148123E+02  0.3680588E+02
Ar 1147  0.2863875E+02  0.2556946E+02  0.3440963E+02  0.6066321E+02
Ar 1148  0.2556946E+02  0.2863875E+02  0.3440963E+02  0.6066321E+02
Ar 1149  0.2613305E+02  0.3144773E+02  0.7422798E-01  0.4768494E+03
Ar 1150  0.2942836E+02  0.3403995E+02  0.3739560E+02  0.1535130E+03
Ar 1151  0.2950842E+02  0.3213149E+02  0.3502959E+01  0.4335060E+02
Ar 1152  0.2676392E+02  0.3421128E+02  0.2087869E+01  0.1225616E+03
Ar 1153  0.2669200E+02  0.3195022E+02  0.5735293E+01  0.8543449E+02
Ar 1154  0.2956733E+02  0.3452285E+02  0.6281543E+01  0.4650568E+02
Ar 1155  0.2976773E+02  0.3239753E+02  0.9242453E+01  0.8376631E+03
Ar 1156  0.2730905E+02  0.3521353E+02  0.8947067E+01  0.1786344E+03
Ar 1157  0.2725545E+02  0.3286234E+02  0.1157374E+02  0.1514799E+02
Ar 1158  0.2985592E+02  0.3551757E+02  0.1176387E+02  0.2781616E+02
Ar 1159  0.2950151E+02  0.3217328E+02  0.1469782E+02  0.1013732E+03
Ar 1160  0.2708996E+02  0.3514633E+02  0.1420490E+02  0.2434327E+02
Ar 1161  0.2698163E+02  0.3257884E+02  0.1717051E+02  0.2911122E+03
Ar 1162  0.2960979E+02  0.3520845E+02  0.1736067E+02  0.1124844E+03
Ar 1163  0.2946920E+02  0.3249922E+02  0.1965685E+02  0.5234004E+02
Ar 1164  0.2659190E+02  0.3563682E+02  0.1927847E+02  0.5705402E+02
Ar 1165  0.2611609E+02  0.3211263E+02  0.2135302E+02  0.1103364E+03
Ar 1166  0.2942236E+02  0.3543614E+02  0.2123828E+02  0.1678128E+03
Ar 1167  0.2935814E+02  0.3165194E+02  0.2340923E+02  0.2367160E+03
Ar 1168  0.2617021E+02  0.3474448E+02  0.2320538E+02  0.1615338E+03
Ar 1169  0.2567021E+02  0.3120652E+02  0.2567021E+02  0.2334326E+02
Ar 1170  0.2863875E+02  0.3440963E+02  0.2556946E+02  0.6066321E+02
Ar 1171  0.2829712E+02  0.3148123E+02  0.2829712E+02  0.3680588E+02
Ar 1172  0.2556946E+02  0.3440963E+02  0.2863875E+02  0.6066321E+02
Ar 1173  0.2597731E+02  0.3159254E+02  0.3159254E+02  0.4132841E+02
Ar 1174  0.2851513E+02  0.3438210E+02  0.3132395E+02  0.9473788E+02
Ar 1175  0.2851513E+02  0.3132395E+02  0.3438210E+02  0.9473788E+02
Ar 1176  0.2683924E+02  0.3474265E+02  0.3474265E+02  0.1209258E+03
Ar 1177  0.3217339E+02  0.3720465E+02  0.3720465E+02  0.4078466E+03
Ar 1178  0.3453271E+02  0.2366607E+01  0.3714802E+02  0.3324290E+03
Ar 1179  0.3453271E+02  0.3714802E+02  0.2366607E+01  0.3324290E+03
Ar 1180  0.3248389E+02  0.2351925E+01  0.2351925E+01  0.1711750E+03
Ar 1181  0.3206923E+02  0.3712724E+02  0.5316005E+01  0.1161614E+03
Ar 1182  0.3488595E+02  0.2475327E+01  0.5151749E+01  0.3335546E+01
Ar 1183  0.3453649E+02  0.3706944E+02  0.8573602E+01  0.1023226E+03
Ar 1184  0.3259874E+02  0.1999785E+01  0.7740834E+01  0.8539394E+02
Ar 1185  0.3235805E+02  0.3768787E+02  0.1130774E+02  0.1992866E+03
Ar 1186  0.3491385E+02  0.2091921E+01  0.1072727E+02  0.1411425E+02
Ar 1187  0.3492234E+02  0.3751533E+02  0.1440273E+02  0.1380380E+03
Ar 1188  0.3244327E+02  0.2780483E+01  0.1413326E+02  0.1075137E+03
Ar 1189  0.3209835E+02  0.3774443E+02  0.1723593E+02  0.2047604E+03
Ar 1190  0.3478791E+02  0.2460137E+01  0.1712956E+02  0.1691781E+03
Ar 1191  0.3544523E+02  0.5049051E-01  0.1997385E+02  0.4544862E+03
Ar 1192  0.3215209E+02  0.3383296E+01  0.2008480E+02  0.8775288E+01
Ar 1193  0.3216137E+02  0.3751459E+02  0.2206106E+02  0.2985449E+03
Ar 1194  0.3506780E+02  0.2944592E+01  0.2222261E+02  0.1502909E+02
Ar 1195  0.3510013E+02  0.3756872E+02  0.2460847E+02  0.2057536E+03
Ar 1196  0.3205912E+02  0.2829141E+01  0.2406783E+02  0.3660649E+02
Ar 1197  0.3144773E+02  0.7422798E-01  0.2613305E+02  0.4768494E+03
Ar 1198  0.3421128E+02  0.2087869E+01  0.2676392E+02  0.1225616E+03
Ar 1199  0.3403995E+02  0.3739560E+02  0.2942836E+02  0.1535130E+03
Ar 1200  0.3213149E+02  0.3502959E+01  0.2950842E+02  0.4335060E+02
Ar 1201  0.3199172E+02  0.6874811E+00  0.3199172E+02  0.5059137E+03
Ar 1202  0.3481970E+02  0.2789554E+01  0.3173579E+02  0.1758993E+03
Ar 1203  0.3432183E+02  0.3753585E+02  0.3432183E+02  0.6312491E+02
Ar 1204  0.3173579E+02  0.2789554E+01  0.3481970E+02  0.1758993E+03
Ar 1205  0.3206923E+02  0.5316005E+01  0.3712724E+02  0.1161614E+03
Ar 1206  0.3453649E+02  0.8573602E+01  0.3706944E+02  0.1023226E+03
Ar 1207  0.3488595E+02  0.5151749E+01  0.2475327E+01  0.3335546E+01
Ar 1208  0.3259874E+02  0.7740834E+01  0.1999785E+01  0.8539394E+02
Ar 1209  0.3285973E+02  0.5569155E+01  0.5569155E+01  0.2990169E+02
Ar 1210  0.3546537E+02  0.7834889E+01  0.4830953E+01  0.2021708E+02
Ar 1211  0.3546537E+02  0.4830953E+01  0.7834889E+01  0.2021708E+02
Ar 1212  0.3320639E+02  0.8073091E+01  0.8073091E+01  0.1066372E+03
Ar 1213  0.3276241E+02  0.5553566E+01  0.1121978E+02  0.4465957E+02
Ar 1214  0.3539026E+02  0.7768767E+01  0.1089816E+02  0.1125252E+03
Ar 1215  0.3505386E+02  0.5396993E+01  0.1397712E+02  0.2922482E+02
Ar 1216  0.3303239E+02  0.8309132E+01  0.1354430E+02  0.1304169E+03
Ar 1217  0.3288154E+02  0.5718976E+01  0.1643834E+02  0.6857353E+02
Ar 1218  0.3529665E+02  0.8341252E+01  0.1658727E+02  0.9435111E+01
Ar 1219  0.3507071E+02  0.5144141E+01  0.1945456E+02  0.6796445E+02
Ar 1220  0.3354551E+02  0.8380270E+01  0.1958339E+02  0.6733019E+02
Ar 1221  0.3265744E+02  0.6329923E+01  0.2217281E+02  0.1526075E+03
Ar 1222  0.3523975E+02  0.8247850E+01  0.2278773E+02  0.1739259E+03
Ar 1223  0.3487990E+02  0.5327733E+01  0.2490659E+02  0.4270734E+02
Ar 1224  0.3277979E+02  0.9058948E+01  0.2493857E+02  0.1693010E+03
Ar 1225  0.3195022E+02  0.5735293E+01  0.2669200E+02  0.8543449E+02
Ar 1226  0.3521353E+02  0.8947067E+01  0.2730905E+02  0.1786344E+03
Ar 1227  0.3452285E+02  0.6281543E+01  0.2956733E+02  0.4650568E+02
Ar 1228  0.3239753E+02  0.9242453E+01  0.2976773E+02  0.8376631E+03
Ar 1229  0.3185270E+02  0.6045050E+01  0.3185270E+02  0.4584192E+02
Ar 1230  0.3485732E+02  0.8807608E+01  0.3208028E+02  0.1092618E+03
Ar 1231  0.3448987E+02  0.5598257E+01  0.3448987E+02  0.7580977E+02
Ar 1232  0.3208028E+02  0.8807608E+01  0.3485732E+02  0.1092618E+03
Ar 1233  0.3235805E+02  0.1130774E+02  0.3768787E+02  0.1992866E+03
Ar 1234  0.3492234E+02  0.1440273E+02  0.3751533E+02  0.1380380E+03
Ar 1235  0.3491385E+02  0.1072727E+02  0.2091921E+01  0.1411425E+02
Ar 1236  0.3244327E+02  0.1413326E+02  0.2780483E+01  0.1075137E+03
Ar 1237  0.3276241E+02  0.1121978E+02  0.5553566E+01  0.4465957E+02
Ar 1238  0.3505386E+02  0.1397712E+02  0.5396993E+01  0.2922482E+02
Ar 1239  0.3539026E+02  0.1089816E+02  0.7768767E+01  0.1125252E+03
Ar 1240  0.3303239E+02  0.1354430E+02  0.8309132E+01  0.1304169E+03
Ar 1241  0.3353560E+02  0.1081991E+02  0.1081991E+02  0.7279244E+02
Ar 1242  0.3579717E+02  0.1388479E+02  0.1044378E+02  0.1187642E+03
Ar 1243  0.3579717E+02  0.1044378E+02  0.1388479E+02  0.1187642E+03
Ar 1244  0.3379603E+02  0.1335912E+02  0.1335912E+02  0.1064444E+02
Ar 1245  0.3318993E+02  0.1099393E+02  0.1635546E+02  0.1040308E+03
Ar 1246  0.3599179E+02  0.1346785E+02  0.1602370E+02  0.1253167E+03
Ar 1247  0.3626494E+02  0.1087000E+02  0.1932717E+02  0.2999390E+03
Ar 1248  0.3352547E+02  0.1347911E+02  0.1852770E+02  0.1039495E+03
Ar 1249  0.3329166E+02  0.1150777E+02  0.2145498E+02  0.2104809E+03
Ar 1250  0.3652774E+02  0.1390037E+02  0.2144556E+02  0.1705125E+03
Ar 1251  0.3567810E+02  0.1123479E+02  0.2458211E+02  0.7205223E+02
Ar 1252  0.3322419E+02  0.1456574E+02  0.2402146E+02  0.3064335E+03
Ar 1253  0.3286234E+02  0.1157374E+02  0.2725545E+02  0.1514799E+02
Ar 1254  0.3514633E+02  0.1420490E+02  0.2708996E+02  0.2434327E+02
Ar 1255  0.3551757E+02  0.1176387E+02  0.2985592E+02  0.2781616E+02
Ar 1256  0.3217328E+02  0.1469782E+02  0.2950151E+02  0.1013732E+03
Ar 1257  0.3226784E+02  0.1265574E+02  0.3226784E+02  0.5782013E+02
Ar 1258  0.3501090E+02  0.1490898E+02  0.3242957E+02  0.1432471E+03
Ar 1259  0.3486159E+02  0.1149775E+02  0.3486159E+02  0.7622884E+03
Ar 1260  0.3242957E+02  0.1490898E+02  0.3501090E+02  0.1432471E+03
Ar 1261  0.3209835E+02  0.1723593E+02  0.3774443E+02  0.2047604E+03
Ar 1262  0.3544523E+02  0.1997385E+02  0.5049051E-01  0.4544862E+03
Ar 1263  0.3478791E+02  0.1712956E+02  0.2460137E+01  0.1691781E+03
Ar 1264  0.3215209E+02  0.2008480E+02  0.3383296E+01  0.8775288E+01
Ar 1265  0.3288154E+02  0.1643834E+02  0.5718976E+01  0.6857353E+02
Ar 1266  0.3507071E+02  0.1945456E+02  0.5144141E+01  0.6796445E+02
Ar 1267  0.3529665E+02  0.1658727E+02  0.8341252E+01  0.9435111E+01
Ar 1268  0.3354551E+02  0.1958339E+02  0.8380270E+01  0.6733019E+02
Ar 1269  0.3318993E+02  0.1635546E+02  0.1099393E+02  0.1040308E+03
Ar 1270  0.3626494E+02  0.1932717E+02  0.1087000E+02  0.2999390E+03
Ar 1271  0.3599179E+02  0.1602370E+02  0.1346785E+02  0.1253167E+03
Ar 1272  0.3352547E+02  0.1852770E+02  0.1347911E+02  0.1039495E+03
Ar 1273  0.3339105E+02  0.1610569E+02  0.1610569E+02  0.2173264E+03
Ar 1274  0.3679150E+02  0.1892977E+02  0.1639483E+02  0.9478785E+02
Ar 1275  0.3679150E+02  0.1639483E+02  0.1892977E+02  0.9478785E+02
Ar 1276  0.3271819E+02  0.1860405E+02  0.1860405E+02  0.2916320E+02
Ar 1277  0.3307623E+02  0.1588795E+02  0.2073846E+02  0.6094783E+02
Ar 1278  0.3628555E+02  0.1883870E+02  0.2144350E+02  0.1970438E+03
Ar 1279  0.3583883E+02  0.1642908E+02  0.2401203E+02  0.2109484E+03
Ar 1280  0.3296457E+02  0.1880871E+02  0.2389503E+02  0.4002851E+02
Ar 1281  0.3257884E+02  0.1717051E+02  0.2698163E+02  0.2911122E+03
Ar 1282  0.3563682E+02  0.1927847E+02  0.2659190E+02  0.5705402E+02
Ar 1283  0.3520845E+02  0.1736067E+02  0.2960979E+02  0.1124844E+03
Ar 1284  0.3249922E+02  0.1965685E+02  0.2946920E+02  0.5234004E+02
Ar 1285  0.3210628E+02  0.1730524E+02  0.3210628E+02  0.2369689E+03
Ar 1286  0.3524399E+02  0.1920961E+02  0.3270082E+02  0.4713478E+02
Ar 1287  0.3543400E+02  0.1742618E+02  0.3543400E+02  0.6207732E+03
Ar 1288  0.3270082E+02  0.1920961E+02  0.3524399E+02  0.4713478E+02
Ar 1289  0.3216137E+02  0.2206106E+02  0.3751459E+02  0.2985449E+03
Ar 1290  0.3510013E+02  0.2460847E+02  0.3756872E+02  0.2057536E+03
Ar 1291  0.3506780E+02  0.2222261E+02  0.2944592E+01  0.1502909E+02
Ar 1292  0.3205912E+02  0.2406783E+02  0.2829141E+01  0.3660649E+02
Ar 1293  0.3265744E+02  0.2217281E+02  0.6329923E+01  0.1526075E+03
Ar 1294  0.3487990E+02  0.2490659E+02  0.5327733E+01  0.4270734E+02
Ar 1295  0.3523975E+02  0.2278773E+02  0.8247850E+01  0.1739259E+03
Ar 1296  0.3277979E+02  0.2493857E+02  0.9058948E+01  0.1693010E+03
Ar 1297  0.3329166E+02  0.2145498E+02  0.1150777E+02  0.2104809E+03
Ar 1298  0.3567810E+02  0.2458211E+02  0.1123479E+02  0.7205223E+02
Ar 1299  0.3652774E+02  0.2144556E+02  0.1390037E+02  0.1705125E+03
Ar 1300  0.3322419E+02  0.2402146E+02  0.1456574E+02  0.3064335E+03
Ar 1301  0.3307623E+02  0.2073846E+02  0.1588795E+02  0.6094783E+02
Ar 1302  0.3583883E+02  0.2401203E+02  0.1642908E+02  0.2109484E+03
Ar 1303  0.3628555E+02  0.2144350E+02  0.1883870E+02  0.1970438E+03
Ar 1304  0.3296457E+02  0.2389503E+02  0.1880871E+02  0.4002851E+02
Ar 1305  0.3321586E+02  0.2096867E+02  0.2096867E+02  0.2790581E+03
Ar 1306  0.3578257E+02  0.2366949E+02  0.2127257E+02  0.6056286E+02
Ar 1307  0.3578257E+02  0.2127257E+02  0.2366949E+02  0.6056286E+02
Ar 1308  0.3202441E+02  0.2323130E+02  0.2323130E+02  0.1165398E+02
Ar 1309  0.3211263E+02  0.2135302E+02  0.2611609E+02  0.1103364E+03
Ar 1310  0.3474448E+02  0.2320538E+02  0.2617021E+02  0.1615338E+03
Ar 1311  0.3543614E+02  0.2123828E+02  0.2942236E+02  0.1678128E+03
Ar 1312  0.3165194E+02  0.2340923E+02  0.2935814E+02  0.2367160E+03
Ar 1313  0.3265127E+02  0.2129707E+02  0.3265127E+02  0.2755527E+02
Ar 1314  0.3476633E+02  0.2442003E+02  0.3196288E+02  0.1123933E+03
Ar 1315  0.3523949E+02  0.2204037E+02  0.3523949E+02  0.2967478E+03
Ar 1316  0.3196288E+02  0.2442003E+02  0.3476633E+02  0.1123933E+03
Ar 1317  0.3144773E+02  0.2613305E+02  0.7422798E-01  0.4768494E+03
Ar 1318  0.3403995E+02  0.2942836E+02  0.3739560E+02  0.1535130E+03
Ar 1319  0.3421128E+02  0.2676392E+02  0.2087869E+01  0.1225616E+03
Ar 1320  0.3213149E+02  0.2950842E+02  0.3502959E+01  0.4335060E+02
Ar 1321  0.3195022E+02  0.2669200E+02  0.5735293E+01  0.8543449E+02
Ar 1322  0.3452285E+02  0.2956733E+02  0.6281543E+01  0.4650568E+02
Ar 1323  0.3521353E+02  0.2730905E+02  0.8947067E+01  0.1786344E+03
Ar 1324  0.3239753E+02  0.2976773E+02  0.9242453E+01  0.8376631E+03
Ar 1325  0.3286234E+02  0.2725545E+02  0.1157374E+02  0.1514799E+02
Ar 1326  0.3551757E+02  0.2985592E+02  0.1176387E+02  0.2781616E+02
Ar 1327  0.3514633E+02  0.2708996E+02  0.1420490E+02  0.2434327E+02
Ar 1328  0.3217328E+02  0.2950151E+02  0.1469782E+02  0.1013732E+03
Ar 1329  0.3257884E+02  0.2698163E+02  0.1717051E+02  0.2911122E+03
Ar 1330  0.3520845E+02  0.2960979E+02  0.1736067E+02  0.1124844E+03
Ar 1331  0.3563682E+02  0.2659190E+02  0.1927847E+02  0.5705402E+02
Ar 1332  0.3249922E+02  0.2946920E+02  0.1965685E+02  0.5234004E+02
Ar 1333  0.3211263E+02  0.2611609E+02  0.2135302E+02  0.1103364E+03
Ar 1334  0.3543614E+02  0.2942236E+02  0.2123828E+02  0.1678128E+03
Ar 1335  0.3474448E+02  0.2617021E+02  0.2320538E+02  0.1615338E+03
Ar 1336  0.3165194E+02  0.2935814E+02  0.2340923E+02  0.2367160E+03
Ar 1337  0.3120652E+02  0.2567021E+02  0.2567021E+02  0.2334326E+02
Ar 1338  0.3440963E+02  0.2863875E+02  0.2556946E+02  0.6066321E+02
Ar 1339  0.3440963E+02  0.2556946E+02  0.2863875E+02  0.6066321E+02
Ar 1340  0.3148123E+02  0.2829712E+02  0.2829712E+02  0.3680588E+02
Ar 1341  0.3159254E+02  0.2597731E+02  0.3159254E+02  0.4132841E+02
Ar 1342  0.3438210E+02  0.2851513E+02  0.3132395E+02  0.9473788E+02
Ar 1343  0.3474265E+02  0.2683924E+02  0.3474265E+02  0.1209258E+03
Ar 1344  0.3132395E+02  0.2851513E+02  0.3438210E+02  0.9473788E+02
Ar 1345  0.3199172E+02  0.3199172E+02  0.6874811E+00  0.5059137E+03
Ar 1346  0.3432183E+02  0.3432183E+02  0.3753585E+02  0.6312491E+02
Ar 1347  0.3481970E+02  0.3173579E+02  0.2789554E+01  0.1758993E+03
Ar 1348  0.3173579E+02  0.3481970E+02  0.2789554E+01  0.1758993E+03
Ar 1349  0.3185270E+02  0.3185270E+02  0.6045050E+01  0.4584192E+02
Ar 1350  0.3448987E+02  0.3448987E+02  0.5598257E+01  0.7580977E+02
Ar 1351  0.3485732E+02  0.3208028E+02  0.8807608E+01  0.1092618E+03
Ar 1352  0.3208028E+02  0.3485732E+02  0.8807608E+01  0.1092618E+03
Ar 1353  0.3226784E+02  0.3226784E+02  0.1265574E+02  0.5782013E+02
Ar 1354  0.3486159E+02  0.3486159E+02  0.1149775E+02  0.7622884E+03
Ar 1355  0.3501090E+02  0.3242957E+02  0.1490898E+02  0.1432471E+03
Ar 1356  0.3242957E+02  0.3501090E+02  0.1490898E+02  0.1432471E+03
Ar 1357  0.3210628E+02  0.3210628E+02  0.1730524E+02  0.2369689E+03
Ar 1358  0.3543400E+02  0.3543400E+02  0.1742618E+02  0.6207732E+03
Ar 1359  0.3524399E+02  0.3270082E+02  0.1920961E+02  0.4713478E+02
Ar 1360  0.3270082E+02  0.3524399E+02  0.1920961E+02  0.4713478E+02
Ar 1361  0.3265127E+02  0.3265127E+02  0.2129707E+02  0.2755527E+02
Ar 1362  0.3523949E+02  0.3523949E+02  0.2204037E+02  0.2967478E+03
Ar 1363  0.3476633E+02  0.3196288E+02  0.2442003E+02  0.1123933E+03
Ar 1364  0.3196288E+02  0.3476633E+02  0.2442003E+02  0.1123933E+03
Ar 1365  0.3159254E+02  0.3159254E+02  0.2597731E+02  0.4132841E+02
Ar 1366  0.3474265E+02  0.3474265E+02  0.2683924E+02  0.1209258E+03
Ar 1367  0.3438210E+02  0.3132395E+02  0.2851513E+02  0.9473788E+02
Ar 1368  0.3132395E+02  0.3438210E+02  0.2851513E+02  0.9473788E+02
Ar 1369  0.3130933E+02  0.3130933E+02  0.3130933E+02  0.3093489E+01
Ar 1370  0.3460334E+02  0.3460334E+02  0.3186216E+02  0.4740312E+02
Ar 1371  0.3460334E+02  0.3186216E+02  0.3460334E+02  0.4740312E+02
Ar 1372  0.3186216E+02  0.3460334E+02  0.3460334E+02  0.4740312E+02
