        4000
Lattice="  0.5371528E+02  0.4088766E-01  0.4088765E-01  0.4088766E-01  0.5371528E+02  0.4088764E-01  0.4088765E-01  0.4088764E-01  0.5371528E+02" Properties=species:S:1:id:I:1:pos:R:3:tempK:R:1
Ar    1  0.1215937E+00  0.1215935E+00  0.1215936E+00  0.0000000E+00
Ar    2  0.2710753E+01  0.2710753E+01  0.5332900E+02  0.0000000E+00
Ar    3  0.2710752E+01  0.5332900E+02  0.2710752E+01  0.0000000E+00
Ar    4  0.5332900E+02  0.2710749E+01  0.2710752E+01  0.0000000E+00
Ar    5  0.5340878E+02  0.5340878E+02  0.5157436E+01  0.0000000E+00
Ar    6  0.2308063E+01  0.2308064E+01  0.5115894E+01  0.0000000E+00
Ar    7  0.2665336E+01  0.1271555E+00  0.8064851E+01  0.0000000E+00
Ar    8  0.1271564E+00  0.2665337E+01  0.8064849E+01  0.0000000E+00
Ar    9  0.5359211E+02  0.5359211E+02  0.1039509E+02  0.0000000E+00
Ar   10  0.2598032E+01  0.2598033E+01  0.1063072E+02  0.0000000E+00
Ar   11  0.2804590E+01  0.2188231E+00  0.1354119E+02  0.0000000E+00
Ar   12  0.2188245E+00  0.2804589E+01  0.1354119E+02  0.0000000E+00
Ar   13  0.5363908E+02  0.5363908E+02  0.1636277E+02  0.0000000E+00
Ar   14  0.2827184E+01  0.2827193E+01  0.1602720E+02  0.0000000E+00
Ar   15  0.2909958E+01  0.2019415E+00  0.1893621E+02  0.0000000E+00
Ar   16  0.2019411E+00  0.2909957E+01  0.1893621E+02  0.0000000E+00
Ar   17  0.3016583E-01  0.3016685E-01  0.2173915E+02  0.0000000E+00
Ar   18  0.2890744E+01  0.2890747E+01  0.2131040E+02  0.0000000E+00
Ar   19  0.2725495E+01  0.2253025E-01  0.2427463E+02  0.0000000E+00
Ar   20  0.2253829E-01  0.2725493E+01  0.2427463E+02  0.0000000E+00
Ar   21  0.1525120E+00  0.1525073E+00  0.2664215E+02  0.0000000E+00
Ar   22  0.2759204E+01  0.2759204E+01  0.2666311E+02  0.0000000E+00
Ar   23  0.2540162E+01  0.1317798E+00  0.2924405E+02  0.0000000E+00
Ar   24  0.1317880E+00  0.2540166E+01  0.2924404E+02  0.0000000E+00
Ar   25  0.5376528E+02  0.5376527E+02  0.3250429E+02  0.0000000E+00
Ar   26  0.2929768E+01  0.2929764E+01  0.3194192E+02  0.0000000E+00
Ar   27  0.3181542E+01  0.1867753E+00  0.3452849E+02  0.0000000E+00
Ar   28  0.1867676E+00  0.3181544E+01  0.3452848E+02  0.0000000E+00
Ar   29  0.1706578E+00  0.1706448E+00  0.3787012E+02  0.0000000E+00
Ar   30  0.2905741E+01  0.2905748E+01  0.3752589E+02  0.0000000E+00
Ar   31  0.2812544E+01  0.1505161E+00  0.4039836E+02  0.0000000E+00
Ar   32  0.1505192E+00  0.2812537E+01  0.4039836E+02  0.0000000E+00
Ar   33  0.4655104E+00  0.4655156E+00  0.4320840E+02  0.0000000E+00
Ar   34  0.2733164E+01  0.2733165E+01  0.4326755E+02  0.0000000E+00
Ar   35  0.2765349E+01  0.5363860E+02  0.4576049E+02  0.0000000E+00
Ar   36  0.5363860E+02  0.2765353E+01  0.4576049E+02  0.0000000E+00
Ar   37  0.5374518E+02  0.5374519E+02  0.4830338E+02  0.0000000E+00
Ar   38  0.2803153E+01  0.2803153E+01  0.4851447E+02  0.0000000E+00
Ar   39  0.2681283E+01  0.7745744E-01  0.5105492E+02  0.0000000E+00
Ar   40  0.7745612E-01  0.2681285E+01  0.5105493E+02  0.0000000E+00
Ar   41  0.5340878E+02  0.5157430E+01  0.5340878E+02  0.0000000E+00
Ar   42  0.2665341E+01  0.8064850E+01  0.1271587E+00  0.0000000E+00
Ar   43  0.2308062E+01  0.5115890E+01  0.2308069E+01  0.0000000E+00
Ar   44  0.1271594E+00  0.8064846E+01  0.2665339E+01  0.0000000E+00
Ar   45  0.5355485E+02  0.5460317E+01  0.5460316E+01  0.0000000E+00
Ar   46  0.2691799E+01  0.7902038E+01  0.5309491E+01  0.0000000E+00
Ar   47  0.2691799E+01  0.5309485E+01  0.7902043E+01  0.0000000E+00
Ar   48  0.5348470E+02  0.7964203E+01  0.7964205E+01  0.0000000E+00
Ar   49  0.8360199E-01  0.5164155E+01  0.1072892E+02  0.0000000E+00
Ar   50  0.2514694E+01  0.7969683E+01  0.1045803E+02  0.0000000E+00
Ar   51  0.2655799E+01  0.5211305E+01  0.1333434E+02  0.0000000E+00
Ar   52  0.2287889E+00  0.7855386E+01  0.1332306E+02  0.0000000E+00
Ar   53  0.1664992E+00  0.5473622E+01  0.1627091E+02  0.0000000E+00
Ar   54  0.2512807E+01  0.8042908E+01  0.1612652E+02  0.0000000E+00
Ar   55  0.2878310E+01  0.5599666E+01  0.1876567E+02  0.0000000E+00
Ar   56  0.5342359E+02  0.8339538E+01  0.1871584E+02  0.0000000E+00
Ar   57  0.1650400E+00  0.5358113E+01  0.2145824E+02  0.0000000E+00
Ar   58  0.2450051E+01  0.7866310E+01  0.2127975E+02  0.0000000E+00
Ar   59  0.2990355E+01  0.5497872E+01  0.2412904E+02  0.0000000E+00
Ar   60  0.1768845E+00  0.8179854E+01  0.2405419E+02  0.0000000E+00
Ar   61  0.2409171E+00  0.5273989E+01  0.2674382E+02  0.0000000E+00
Ar   62  0.2973679E+01  0.8283071E+01  0.2680924E+02  0.0000000E+00
Ar   63  0.2822132E+01  0.5460859E+01  0.2912032E+02  0.0000000E+00
Ar   64  0.2686221E+00  0.8244322E+01  0.2942503E+02  0.0000000E+00
Ar   65  0.4414386E+00  0.5563322E+01  0.3193808E+02  0.0000000E+00
Ar   66  0.2696718E+01  0.8183743E+01  0.3223240E+02  0.0000000E+00
Ar   67  0.2771662E+01  0.5415063E+01  0.3465438E+02  0.0000000E+00
Ar   68  0.1738107E+00  0.8292995E+01  0.3479739E+02  0.0000000E+00
Ar   69  0.2444083E+00  0.5283791E+01  0.3744643E+02  0.0000000E+00
Ar   70  0.2847596E+01  0.8114434E+01  0.3767280E+02  0.0000000E+00
Ar   71  0.2773053E+01  0.5395893E+01  0.4043393E+02  0.0000000E+00
Ar   72  0.8739800E-01  0.8153614E+01  0.4048100E+02  0.0000000E+00
Ar   73  0.5362822E+02  0.5407094E+01  0.4308233E+02  0.0000000E+00
Ar   74  0.3036746E+01  0.7974387E+01  0.4301023E+02  0.0000000E+00
Ar   75  0.2822421E+01  0.5330107E+01  0.4597092E+02  0.0000000E+00
Ar   76  0.5374661E+02  0.7900787E+01  0.4573614E+02  0.0000000E+00
Ar   77  0.2230763E+00  0.5223440E+01  0.4848241E+02  0.0000000E+00
Ar   78  0.2652893E+01  0.8038468E+01  0.4840728E+02  0.0000000E+00
Ar   79  0.2971229E+01  0.5696874E+01  0.5096373E+02  0.0000000E+00
Ar   80  0.5364577E+02  0.7765212E+01  0.5090290E+02  0.0000000E+00
Ar   81  0.5359212E+02  0.1039509E+02  0.5359212E+02  0.0000000E+00
Ar   82  0.2804585E+01  0.1354118E+02  0.2188270E+00  0.0000000E+00
Ar   83  0.2598036E+01  0.1063071E+02  0.2598034E+01  0.0000000E+00
Ar   84  0.2188219E+00  0.1354119E+02  0.2804589E+01  0.0000000E+00
Ar   85  0.8359890E-01  0.1072892E+02  0.5164162E+01  0.0000000E+00
Ar   86  0.2655796E+01  0.1333434E+02  0.5211307E+01  0.0000000E+00
Ar   87  0.2514693E+01  0.1045803E+02  0.7969684E+01  0.0000000E+00
Ar   88  0.2287891E+00  0.1332306E+02  0.7855386E+01  0.0000000E+00
Ar   89  0.5362026E+02  0.1070823E+02  0.1070823E+02  0.0000000E+00
Ar   90  0.2550852E+01  0.1337588E+02  0.1065275E+02  0.0000000E+00
Ar   91  0.2550852E+01  0.1065275E+02  0.1337588E+02  0.0000000E+00
Ar   92  0.5336395E+02  0.1343826E+02  0.1343826E+02  0.0000000E+00
Ar   93  0.7299189E-01  0.1062018E+02  0.1599579E+02  0.0000000E+00
Ar   94  0.2413882E+01  0.1344630E+02  0.1589550E+02  0.0000000E+00
Ar   95  0.2768193E+01  0.1061754E+02  0.1886105E+02  0.0000000E+00
Ar   96  0.7530869E-01  0.1348546E+02  0.1872319E+02  0.0000000E+00
Ar   97  0.3389725E-01  0.1061937E+02  0.2118682E+02  0.0000000E+00
Ar   98  0.2548884E+01  0.1339076E+02  0.2151045E+02  0.0000000E+00
Ar   99  0.2477014E+01  0.1074314E+02  0.2410942E+02  0.0000000E+00
Ar  100  0.5365231E+02  0.1334891E+02  0.2386296E+02  0.0000000E+00
Ar  101  0.5367357E+02  0.1078325E+02  0.2705165E+02  0.0000000E+00
Ar  102  0.2457258E+01  0.1355282E+02  0.2655603E+02  0.0000000E+00
Ar  103  0.3117593E+01  0.1095696E+02  0.2950439E+02  0.0000000E+00
Ar  104  0.3219544E+00  0.1381142E+02  0.2976739E+02  0.0000000E+00
Ar  105  0.8423843E-01  0.1094002E+02  0.3225239E+02  0.0000000E+00
Ar  106  0.2959276E+01  0.1367929E+02  0.3237002E+02  0.0000000E+00
Ar  107  0.2921274E+01  0.1091389E+02  0.3493243E+02  0.0000000E+00
Ar  108  0.3784200E+00  0.1340704E+02  0.3514637E+02  0.0000000E+00
Ar  109  0.2178068E+00  0.1078970E+02  0.3790122E+02  0.0000000E+00
Ar  110  0.3124654E+01  0.1319541E+02  0.3765994E+02  0.0000000E+00
Ar  111  0.3011297E+01  0.1084747E+02  0.4039203E+02  0.0000000E+00
Ar  112  0.5700652E-01  0.1366404E+02  0.4030636E+02  0.0000000E+00
Ar  113  0.4786506E+00  0.1083659E+02  0.4323124E+02  0.0000000E+00
Ar  114  0.2837378E+01  0.1365186E+02  0.4299011E+02  0.0000000E+00
Ar  115  0.2860044E+01  0.1108667E+02  0.4588582E+02  0.0000000E+00
Ar  116  0.5372983E+02  0.1344999E+02  0.4584793E+02  0.0000000E+00
Ar  117  0.5370913E+02  0.1046093E+02  0.4856299E+02  0.0000000E+00
Ar  118  0.2478728E+01  0.1349336E+02  0.4856056E+02  0.0000000E+00
Ar  119  0.2518626E+01  0.1086479E+02  0.5126792E+02  0.0000000E+00
Ar  120  0.1360057E+00  0.1349748E+02  0.5139184E+02  0.0000000E+00
Ar  121  0.5363908E+02  0.1636277E+02  0.5363908E+02  0.0000000E+00
Ar  122  0.2909958E+01  0.1893621E+02  0.2019388E+00  0.0000000E+00
Ar  123  0.2827185E+01  0.1602719E+02  0.2827192E+01  0.0000000E+00
Ar  124  0.2019413E+00  0.1893620E+02  0.2909955E+01  0.0000000E+00
Ar  125  0.1665010E+00  0.1627091E+02  0.5473621E+01  0.0000000E+00
Ar  126  0.2878308E+01  0.1876567E+02  0.5599667E+01  0.0000000E+00
Ar  127  0.2512807E+01  0.1612652E+02  0.8042909E+01  0.0000000E+00
Ar  128  0.5342359E+02  0.1871584E+02  0.8339538E+01  0.0000000E+00
Ar  129  0.7299225E-01  0.1599579E+02  0.1062018E+02  0.0000000E+00
Ar  130  0.2768192E+01  0.1886105E+02  0.1061754E+02  0.0000000E+00
Ar  131  0.2413883E+01  0.1589550E+02  0.1344630E+02  0.0000000E+00
Ar  132  0.7530848E-01  0.1872319E+02  0.1348546E+02  0.0000000E+00
Ar  133  0.5362519E+02  0.1648416E+02  0.1648416E+02  0.0000000E+00
Ar  134  0.2625764E+01  0.1878196E+02  0.1611619E+02  0.0000000E+00
Ar  135  0.2625765E+01  0.1611619E+02  0.1878196E+02  0.0000000E+00
Ar  136  0.7451100E-01  0.1894399E+02  0.1894399E+02  0.0000000E+00
Ar  137  0.7193498E-01  0.1611792E+02  0.2118017E+02  0.0000000E+00
Ar  138  0.2738249E+01  0.1872733E+02  0.2166599E+02  0.0000000E+00
Ar  139  0.2603821E+01  0.1591326E+02  0.2390319E+02  0.0000000E+00
Ar  140  0.2072585E+00  0.1888070E+02  0.2405768E+02  0.0000000E+00
Ar  141  0.3026686E+00  0.1638756E+02  0.2684580E+02  0.0000000E+00
Ar  142  0.2840395E+01  0.1881161E+02  0.2710742E+02  0.0000000E+00
Ar  143  0.2881923E+01  0.1620644E+02  0.2983221E+02  0.0000000E+00
Ar  144  0.7119941E-01  0.1883716E+02  0.2972327E+02  0.0000000E+00
Ar  145  0.5370821E+02  0.1622560E+02  0.3260160E+02  0.0000000E+00
Ar  146  0.2706046E+01  0.1892813E+02  0.3244574E+02  0.0000000E+00
Ar  147  0.2725312E+01  0.1607777E+02  0.3511025E+02  0.0000000E+00
Ar  148  0.5351610E+02  0.1888615E+02  0.3483446E+02  0.0000000E+00
Ar  149  0.9647706E-01  0.1629972E+02  0.3762241E+02  0.0000000E+00
Ar  150  0.2753017E+01  0.1878709E+02  0.3739397E+02  0.0000000E+00
Ar  151  0.2782663E+01  0.1628332E+02  0.4018318E+02  0.0000000E+00
Ar  152  0.1323117E+00  0.1887596E+02  0.4017411E+02  0.0000000E+00
Ar  153  0.1344410E+00  0.1607643E+02  0.4282672E+02  0.0000000E+00
Ar  154  0.2786853E+01  0.1883528E+02  0.4295149E+02  0.0000000E+00
Ar  155  0.2248066E+01  0.1620725E+02  0.4589620E+02  0.0000000E+00
Ar  156  0.5374695E+02  0.1889176E+02  0.4568428E+02  0.0000000E+00
Ar  157  0.5344359E+02  0.1618014E+02  0.4864331E+02  0.0000000E+00
Ar  158  0.2880148E+01  0.1873068E+02  0.4841131E+02  0.0000000E+00
Ar  159  0.2813074E+01  0.1618948E+02  0.5123386E+02  0.0000000E+00
Ar  160  0.5375754E+02  0.1920956E+02  0.5119369E+02  0.0000000E+00
Ar  161  0.3016538E-01  0.2173915E+02  0.3016515E-01  0.0000000E+00
Ar  162  0.2725495E+01  0.2427463E+02  0.2253066E-01  0.0000000E+00
Ar  163  0.2890744E+01  0.2131040E+02  0.2890747E+01  0.0000000E+00
Ar  164  0.2253731E-01  0.2427463E+02  0.2725493E+01  0.0000000E+00
Ar  165  0.1650388E+00  0.2145824E+02  0.5358114E+01  0.0000000E+00
Ar  166  0.2990353E+01  0.2412904E+02  0.5497876E+01  0.0000000E+00
Ar  167  0.2450049E+01  0.2127975E+02  0.7866312E+01  0.0000000E+00
Ar  168  0.1768815E+00  0.2405420E+02  0.8179856E+01  0.0000000E+00
Ar  169  0.3389487E-01  0.2118682E+02  0.1061937E+02  0.0000000E+00
Ar  170  0.2477013E+01  0.2410942E+02  0.1074314E+02  0.0000000E+00
Ar  171  0.2548883E+01  0.2151045E+02  0.1339076E+02  0.0000000E+00
Ar  172  0.5365231E+02  0.2386296E+02  0.1334891E+02  0.0000000E+00
Ar  173  0.7193405E-01  0.2118017E+02  0.1611791E+02  0.0000000E+00
Ar  174  0.2603821E+01  0.2390319E+02  0.1591326E+02  0.0000000E+00
Ar  175  0.2738249E+01  0.2166599E+02  0.1872732E+02  0.0000000E+00
Ar  176  0.2072607E+00  0.2405769E+02  0.1888070E+02  0.0000000E+00
Ar  177  0.5345424E+02  0.2165281E+02  0.2165281E+02  0.0000000E+00
Ar  178  0.2950400E+01  0.2427302E+02  0.2158562E+02  0.0000000E+00
Ar  179  0.2950398E+01  0.2158562E+02  0.2427302E+02  0.0000000E+00
Ar  180  0.2080733E+00  0.2427989E+02  0.2427989E+02  0.0000000E+00
Ar  181  0.3049725E+00  0.2166694E+02  0.2699494E+02  0.0000000E+00
Ar  182  0.2820758E+01  0.2423014E+02  0.2704398E+02  0.0000000E+00
Ar  183  0.2914583E+01  0.2158816E+02  0.2945403E+02  0.0000000E+00
Ar  184  0.5358932E+02  0.2409581E+02  0.2948087E+02  0.0000000E+00
Ar  185  0.5365400E+02  0.2165064E+02  0.3225793E+02  0.0000000E+00
Ar  186  0.2635661E+01  0.2398148E+02  0.3210298E+02  0.0000000E+00
Ar  187  0.2520122E+01  0.2152744E+02  0.3493511E+02  0.0000000E+00
Ar  188  0.1623218E+00  0.2409418E+02  0.3509253E+02  0.0000000E+00
Ar  189  0.3931949E+00  0.2156429E+02  0.3774054E+02  0.0000000E+00
Ar  190  0.2883581E+01  0.2423375E+02  0.3740425E+02  0.0000000E+00
Ar  191  0.2822604E+01  0.2153755E+02  0.4016384E+02  0.0000000E+00
Ar  192  0.2739507E+00  0.2446184E+02  0.4011255E+02  0.0000000E+00
Ar  193  0.3030035E+00  0.2145433E+02  0.4295472E+02  0.0000000E+00
Ar  194  0.2592104E+01  0.2429050E+02  0.4314452E+02  0.0000000E+00
Ar  195  0.2680260E+01  0.2146157E+02  0.4583283E+02  0.0000000E+00
Ar  196  0.5375737E+02  0.2395803E+02  0.4547793E+02  0.0000000E+00
Ar  197  0.1228156E+00  0.2152962E+02  0.4856007E+02  0.0000000E+00
Ar  198  0.2935174E+01  0.2417294E+02  0.4855334E+02  0.0000000E+00
Ar  199  0.2915958E+01  0.2145872E+02  0.5120812E+02  0.0000000E+00
Ar  200  0.2968081E+00  0.2417344E+02  0.5107188E+02  0.0000000E+00
Ar  201  0.1525121E+00  0.2664215E+02  0.1525061E+00  0.0000000E+00
Ar  202  0.2540159E+01  0.2924405E+02  0.1317774E+00  0.0000000E+00
Ar  203  0.2759205E+01  0.2666312E+02  0.2759204E+01  0.0000000E+00
Ar  204  0.1317861E+00  0.2924404E+02  0.2540166E+01  0.0000000E+00
Ar  205  0.2409148E+00  0.2674382E+02  0.5273992E+01  0.0000000E+00
Ar  206  0.2822128E+01  0.2912032E+02  0.5460859E+01  0.0000000E+00
Ar  207  0.2973678E+01  0.2680924E+02  0.8283071E+01  0.0000000E+00
Ar  208  0.2686264E+00  0.2942503E+02  0.8244321E+01  0.0000000E+00
Ar  209  0.5367357E+02  0.2705165E+02  0.1078325E+02  0.0000000E+00
Ar  210  0.3117593E+01  0.2950439E+02  0.1095696E+02  0.0000000E+00
Ar  211  0.2457258E+01  0.2655603E+02  0.1355282E+02  0.0000000E+00
Ar  212  0.3219525E+00  0.2976739E+02  0.1381143E+02  0.0000000E+00
Ar  213  0.3026691E+00  0.2684580E+02  0.1638756E+02  0.0000000E+00
Ar  214  0.2881923E+01  0.2983221E+02  0.1620644E+02  0.0000000E+00
Ar  215  0.2840395E+01  0.2710742E+02  0.1881161E+02  0.0000000E+00
Ar  216  0.7119873E-01  0.2972327E+02  0.1883717E+02  0.0000000E+00
Ar  217  0.3049733E+00  0.2699494E+02  0.2166694E+02  0.0000000E+00
Ar  218  0.2914583E+01  0.2945403E+02  0.2158816E+02  0.0000000E+00
Ar  219  0.2820758E+01  0.2704397E+02  0.2423014E+02  0.0000000E+00
Ar  220  0.5358932E+02  0.2948087E+02  0.2409581E+02  0.0000000E+00
Ar  221  0.5333203E+02  0.2668459E+02  0.2668458E+02  0.0000000E+00
Ar  222  0.2562199E+01  0.2950287E+02  0.2691532E+02  0.0000000E+00
Ar  223  0.2562200E+01  0.2691532E+02  0.2950286E+02  0.0000000E+00
Ar  224  0.5370360E+02  0.2975474E+02  0.2975474E+02  0.0000000E+00
Ar  225  0.5365590E+02  0.2677212E+02  0.3214006E+02  0.0000000E+00
Ar  226  0.2703666E+01  0.2949700E+02  0.3215055E+02  0.0000000E+00
Ar  227  0.2612517E+01  0.2689842E+02  0.3481682E+02  0.0000000E+00
Ar  228  0.5329017E+02  0.2975048E+02  0.3472719E+02  0.0000000E+00
Ar  229  0.5357632E+02  0.2682197E+02  0.3730790E+02  0.0000000E+00
Ar  230  0.2497200E+01  0.2953399E+02  0.3750776E+02  0.0000000E+00
Ar  231  0.2789798E+01  0.2707075E+02  0.4041654E+02  0.0000000E+00
Ar  232  0.1291985E+00  0.2974855E+02  0.4068200E+02  0.0000000E+00
Ar  233  0.2098127E+00  0.2685649E+02  0.4303647E+02  0.0000000E+00
Ar  234  0.3072411E+01  0.2987519E+02  0.4332871E+02  0.0000000E+00
Ar  235  0.2816574E+01  0.2673776E+02  0.4625796E+02  0.0000000E+00
Ar  236  0.1617792E+00  0.2959519E+02  0.4549281E+02  0.0000000E+00
Ar  237  0.5374461E+02  0.2701878E+02  0.4858327E+02  0.0000000E+00
Ar  238  0.3025249E+01  0.2956637E+02  0.4850310E+02  0.0000000E+00
Ar  239  0.2885202E+01  0.2680655E+02  0.5106716E+02  0.0000000E+00
Ar  240  0.5365192E+02  0.2952037E+02  0.5117529E+02  0.0000000E+00
Ar  241  0.5376528E+02  0.3250429E+02  0.5376528E+02  0.0000000E+00
Ar  242  0.3181541E+01  0.3452849E+02  0.1867757E+00  0.0000000E+00
Ar  243  0.2929766E+01  0.3194192E+02  0.2929762E+01  0.0000000E+00
Ar  244  0.1867678E+00  0.3452848E+02  0.3181544E+01  0.0000000E+00
Ar  245  0.4414381E+00  0.3193808E+02  0.5563323E+01  0.0000000E+00
Ar  246  0.2771662E+01  0.3465438E+02  0.5415061E+01  0.0000000E+00
Ar  247  0.2696716E+01  0.3223241E+02  0.8183742E+01  0.0000000E+00
Ar  248  0.1738105E+00  0.3479740E+02  0.8292995E+01  0.0000000E+00
Ar  249  0.8423748E-01  0.3225239E+02  0.1094002E+02  0.0000000E+00
Ar  250  0.2921271E+01  0.3493243E+02  0.1091389E+02  0.0000000E+00
Ar  251  0.2959273E+01  0.3237003E+02  0.1367929E+02  0.0000000E+00
Ar  252  0.3784179E+00  0.3514637E+02  0.1340704E+02  0.0000000E+00
Ar  253  0.5370821E+02  0.3260160E+02  0.1622560E+02  0.0000000E+00
Ar  254  0.2725312E+01  0.3511024E+02  0.1607777E+02  0.0000000E+00
Ar  255  0.2706048E+01  0.3244574E+02  0.1892813E+02  0.0000000E+00
Ar  256  0.5351610E+02  0.3483446E+02  0.1888615E+02  0.0000000E+00
Ar  257  0.5365400E+02  0.3225792E+02  0.2165064E+02  0.0000000E+00
Ar  258  0.2520122E+01  0.3493511E+02  0.2152745E+02  0.0000000E+00
Ar  259  0.2635662E+01  0.3210298E+02  0.2398148E+02  0.0000000E+00
Ar  260  0.1623225E+00  0.3509253E+02  0.2409418E+02  0.0000000E+00
Ar  261  0.5365590E+02  0.3214006E+02  0.2677212E+02  0.0000000E+00
Ar  262  0.2612519E+01  0.3481682E+02  0.2689842E+02  0.0000000E+00
Ar  263  0.2703668E+01  0.3215055E+02  0.2949700E+02  0.0000000E+00
Ar  264  0.5329017E+02  0.3472719E+02  0.2975048E+02  0.0000000E+00
Ar  265  0.5374892E+02  0.3229934E+02  0.3229934E+02  0.0000000E+00
Ar  266  0.2889159E+01  0.3482334E+02  0.3228563E+02  0.0000000E+00
Ar  267  0.2889157E+01  0.3228563E+02  0.3482334E+02  0.0000000E+00
Ar  268  0.5346286E+02  0.3507581E+02  0.3507581E+02  0.0000000E+00
Ar  269  0.5369414E+02  0.3232620E+02  0.3786456E+02  0.0000000E+00
Ar  270  0.2550001E+01  0.3492531E+02  0.3758052E+02  0.0000000E+00
Ar  271  0.2723897E+01  0.3245921E+02  0.4046125E+02  0.0000000E+00
Ar  272  0.5362233E+02  0.3486748E+02  0.4033517E+02  0.0000000E+00
Ar  273  0.2400187E+00  0.3235665E+02  0.4313444E+02  0.0000000E+00
Ar  274  0.2812908E+01  0.3500432E+02  0.4329200E+02  0.0000000E+00
Ar  275  0.3045824E+01  0.3242203E+02  0.4600879E+02  0.0000000E+00
Ar  276  0.1491662E+00  0.3483498E+02  0.4587311E+02  0.0000000E+00
Ar  277  0.2146531E+00  0.3188230E+02  0.4842345E+02  0.0000000E+00
Ar  278  0.3140270E+01  0.3486831E+02  0.4868776E+02  0.0000000E+00
Ar  279  0.3095757E+01  0.3211634E+02  0.5120319E+02  0.0000000E+00
Ar  280  0.5372740E+02  0.3517590E+02  0.5119092E+02  0.0000000E+00
Ar  281  0.1706592E+00  0.3787013E+02  0.1706471E+00  0.0000000E+00
Ar  282  0.2812544E+01  0.4039836E+02  0.1505169E+00  0.0000000E+00
Ar  283  0.2905742E+01  0.3752589E+02  0.2905746E+01  0.0000000E+00
Ar  284  0.1505180E+00  0.4039836E+02  0.2812537E+01  0.0000000E+00
Ar  285  0.2444100E+00  0.3744643E+02  0.5283790E+01  0.0000000E+00
Ar  286  0.2773054E+01  0.4043393E+02  0.5395895E+01  0.0000000E+00
Ar  287  0.2847596E+01  0.3767280E+02  0.8114432E+01  0.0000000E+00
Ar  288  0.8740180E-01  0.4048100E+02  0.8153612E+01  0.0000000E+00
Ar  289  0.2178078E+00  0.3790122E+02  0.1078969E+02  0.0000000E+00
Ar  290  0.3011296E+01  0.4039202E+02  0.1084747E+02  0.0000000E+00
Ar  291  0.3124650E+01  0.3765993E+02  0.1319541E+02  0.0000000E+00
Ar  292  0.5700558E-01  0.4030636E+02  0.1366404E+02  0.0000000E+00
Ar  293  0.9647564E-01  0.3762241E+02  0.1629973E+02  0.0000000E+00
Ar  294  0.2782661E+01  0.4018318E+02  0.1628332E+02  0.0000000E+00
Ar  295  0.2753015E+01  0.3739396E+02  0.1878709E+02  0.0000000E+00
Ar  296  0.1323101E+00  0.4017411E+02  0.1887596E+02  0.0000000E+00
Ar  297  0.3931963E+00  0.3774054E+02  0.2156429E+02  0.0000000E+00
Ar  298  0.2822603E+01  0.4016384E+02  0.2153755E+02  0.0000000E+00
Ar  299  0.2883581E+01  0.3740425E+02  0.2423375E+02  0.0000000E+00
Ar  300  0.2739552E+00  0.4011254E+02  0.2446184E+02  0.0000000E+00
Ar  301  0.5357632E+02  0.3730790E+02  0.2682197E+02  0.0000000E+00
Ar  302  0.2789801E+01  0.4041654E+02  0.2707075E+02  0.0000000E+00
Ar  303  0.2497201E+01  0.3750776E+02  0.2953399E+02  0.0000000E+00
Ar  304  0.1291994E+00  0.4068200E+02  0.2974855E+02  0.0000000E+00
Ar  305  0.5369413E+02  0.3786456E+02  0.3232620E+02  0.0000000E+00
Ar  306  0.2723896E+01  0.4046125E+02  0.3245921E+02  0.0000000E+00
Ar  307  0.2550002E+01  0.3758052E+02  0.3492531E+02  0.0000000E+00
Ar  308  0.5362233E+02  0.4033517E+02  0.3486749E+02  0.0000000E+00
Ar  309  0.5353841E+02  0.3785376E+02  0.3785376E+02  0.0000000E+00
Ar  310  0.2840130E+01  0.4034361E+02  0.3759213E+02  0.0000000E+00
Ar  311  0.2840129E+01  0.3759213E+02  0.4034361E+02  0.0000000E+00
Ar  312  0.1136273E+00  0.4025484E+02  0.4025484E+02  0.0000000E+00
Ar  313  0.5369307E+02  0.3759468E+02  0.4275131E+02  0.0000000E+00
Ar  314  0.2569525E+01  0.4026725E+02  0.4294182E+02  0.0000000E+00
Ar  315  0.2672268E+01  0.3753602E+02  0.4583413E+02  0.0000000E+00
Ar  316  0.1397002E+00  0.4013234E+02  0.4555043E+02  0.0000000E+00
Ar  317  0.5372365E+02  0.3748208E+02  0.4850742E+02  0.0000000E+00
Ar  318  0.2757675E+01  0.4016089E+02  0.4842472E+02  0.0000000E+00
Ar  319  0.2792402E+01  0.3743626E+02  0.5112590E+02  0.0000000E+00
Ar  320  0.1009276E+00  0.4034249E+02  0.5086007E+02  0.0000000E+00
Ar  321  0.4655126E+00  0.4320840E+02  0.4655140E+00  0.0000000E+00
Ar  322  0.2765347E+01  0.4576049E+02  0.5363860E+02  0.0000000E+00
Ar  323  0.2733167E+01  0.4326755E+02  0.2733165E+01  0.0000000E+00
Ar  324  0.5363860E+02  0.4576048E+02  0.2765352E+01  0.0000000E+00
Ar  325  0.5362822E+02  0.4308233E+02  0.5407092E+01  0.0000000E+00
Ar  326  0.2822421E+01  0.4597092E+02  0.5330110E+01  0.0000000E+00
Ar  327  0.3036748E+01  0.4301023E+02  0.7974387E+01  0.0000000E+00
Ar  328  0.5374661E+02  0.4573614E+02  0.7900787E+01  0.0000000E+00
Ar  329  0.4786496E+00  0.4323124E+02  0.1083659E+02  0.0000000E+00
Ar  330  0.2860042E+01  0.4588582E+02  0.1108667E+02  0.0000000E+00
Ar  331  0.2837377E+01  0.4299011E+02  0.1365186E+02  0.0000000E+00
Ar  332  0.5372983E+02  0.4584793E+02  0.1344999E+02  0.0000000E+00
Ar  333  0.1344444E+00  0.4282672E+02  0.1607643E+02  0.0000000E+00
Ar  334  0.2248068E+01  0.4589620E+02  0.1620725E+02  0.0000000E+00
Ar  335  0.2786854E+01  0.4295150E+02  0.1883528E+02  0.0000000E+00
Ar  336  0.5374696E+02  0.4568429E+02  0.1889176E+02  0.0000000E+00
Ar  337  0.3030078E+00  0.4295473E+02  0.2145433E+02  0.0000000E+00
Ar  338  0.2680260E+01  0.4583283E+02  0.2146157E+02  0.0000000E+00
Ar  339  0.2592103E+01  0.4314451E+02  0.2429050E+02  0.0000000E+00
Ar  340  0.5375737E+02  0.4547793E+02  0.2395803E+02  0.0000000E+00
Ar  341  0.2098123E+00  0.4303647E+02  0.2685649E+02  0.0000000E+00
Ar  342  0.2816575E+01  0.4625796E+02  0.2673776E+02  0.0000000E+00
Ar  343  0.3072411E+01  0.4332871E+02  0.2987519E+02  0.0000000E+00
Ar  344  0.1617791E+00  0.4549281E+02  0.2959519E+02  0.0000000E+00
Ar  345  0.2400176E+00  0.4313444E+02  0.3235665E+02  0.0000000E+00
Ar  346  0.3045823E+01  0.4600879E+02  0.3242203E+02  0.0000000E+00
Ar  347  0.2812906E+01  0.4329200E+02  0.3500432E+02  0.0000000E+00
Ar  348  0.1491660E+00  0.4587311E+02  0.3483498E+02  0.0000000E+00
Ar  349  0.5369307E+02  0.4275131E+02  0.3759468E+02  0.0000000E+00
Ar  350  0.2672270E+01  0.4583413E+02  0.3753602E+02  0.0000000E+00
Ar  351  0.2569526E+01  0.4294182E+02  0.4026725E+02  0.0000000E+00
Ar  352  0.1397002E+00  0.4555043E+02  0.4013234E+02  0.0000000E+00
Ar  353  0.5366383E+02  0.4290851E+02  0.4290851E+02  0.0000000E+00
Ar  354  0.2579317E+01  0.4558531E+02  0.4292998E+02  0.0000000E+00
Ar  355  0.2579318E+01  0.4292998E+02  0.4558531E+02  0.0000000E+00
Ar  356  0.5368931E+02  0.4555724E+02  0.4555724E+02  0.0000000E+00
Ar  357  0.5369565E+02  0.4306792E+02  0.4839025E+02  0.0000000E+00
Ar  358  0.2904217E+01  0.4560432E+02  0.4840269E+02  0.0000000E+00
Ar  359  0.2680922E+01  0.4289609E+02  0.5116046E+02  0.0000000E+00
Ar  360  0.5374046E+02  0.4565349E+02  0.5134582E+02  0.0000000E+00
Ar  361  0.5374518E+02  0.4830338E+02  0.5374519E+02  0.0000000E+00
Ar  362  0.2681283E+01  0.5105492E+02  0.7745700E-01  0.0000000E+00
Ar  363  0.2803154E+01  0.4851447E+02  0.2803156E+01  0.0000000E+00
Ar  364  0.7745641E-01  0.5105492E+02  0.2681286E+01  0.0000000E+00
Ar  365  0.2230762E+00  0.4848241E+02  0.5223440E+01  0.0000000E+00
Ar  366  0.2971231E+01  0.5096373E+02  0.5696880E+01  0.0000000E+00
Ar  367  0.2652897E+01  0.4840728E+02  0.8038470E+01  0.0000000E+00
Ar  368  0.5364577E+02  0.5090290E+02  0.7765215E+01  0.0000000E+00
Ar  369  0.5370913E+02  0.4856299E+02  0.1046094E+02  0.0000000E+00
Ar  370  0.2518623E+01  0.5126792E+02  0.1086481E+02  0.0000000E+00
Ar  371  0.2478734E+01  0.4856057E+02  0.1349337E+02  0.0000000E+00
Ar  372  0.1360000E+00  0.5139184E+02  0.1349748E+02  0.0000000E+00
Ar  373  0.5344358E+02  0.4864331E+02  0.1618015E+02  0.0000000E+00
Ar  374  0.2813077E+01  0.5123386E+02  0.1618948E+02  0.0000000E+00
Ar  375  0.2880146E+01  0.4841130E+02  0.1873068E+02  0.0000000E+00
Ar  376  0.5375754E+02  0.5119369E+02  0.1920956E+02  0.0000000E+00
Ar  377  0.1228179E+00  0.4856007E+02  0.2152962E+02  0.0000000E+00
Ar  378  0.2915959E+01  0.5120812E+02  0.2145872E+02  0.0000000E+00
Ar  379  0.2935176E+01  0.4855334E+02  0.2417294E+02  0.0000000E+00
Ar  380  0.2968093E+00  0.5107188E+02  0.2417344E+02  0.0000000E+00
Ar  381  0.5374461E+02  0.4858326E+02  0.2701878E+02  0.0000000E+00
Ar  382  0.2885203E+01  0.5106716E+02  0.2680655E+02  0.0000000E+00
Ar  383  0.3025250E+01  0.4850310E+02  0.2956637E+02  0.0000000E+00
Ar  384  0.5365193E+02  0.5117529E+02  0.2952037E+02  0.0000000E+00
Ar  385  0.2146533E+00  0.4842345E+02  0.3188230E+02  0.0000000E+00
Ar  386  0.3095756E+01  0.5120319E+02  0.3211634E+02  0.0000000E+00
Ar  387  0.3140269E+01  0.4868776E+02  0.3486831E+02  0.0000000E+00
Ar  388  0.5372740E+02  0.5119092E+02  0.3517590E+02  0.0000000E+00
Ar  389  0.5372366E+02  0.4850742E+02  0.3748208E+02  0.0000000E+00
Ar  390  0.2792402E+01  0.5112590E+02  0.3743626E+02  0.0000000E+00
Ar  391  0.2757677E+01  0.4842472E+02  0.4016090E+02  0.0000000E+00
Ar  392  0.1009279E+00  0.5086007E+02  0.4034249E+02  0.0000000E+00
Ar  393  0.5369565E+02  0.4839025E+02  0.4306792E+02  0.0000000E+00
Ar  394  0.2680923E+01  0.5116046E+02  0.4289609E+02  0.0000000E+00
Ar  395  0.2904216E+01  0.4840269E+02  0.4560432E+02  0.0000000E+00
Ar  396  0.5374046E+02  0.5134582E+02  0.4565348E+02  0.0000000E+00
Ar  397  0.3361610E+00  0.4832834E+02  0.4832834E+02  0.0000000E+00
Ar  398  0.2664533E+01  0.5090122E+02  0.4819931E+02  0.0000000E+00
Ar  399  0.2664532E+01  0.4819931E+02  0.5090122E+02  0.0000000E+00
Ar  400  0.5365417E+02  0.5094255E+02  0.5094255E+02  0.0000000E+00
Ar  401  0.5157434E+01  0.5340878E+02  0.5340879E+02  0.0000000E+00
Ar  402  0.8064848E+01  0.2665338E+01  0.1271557E+00  0.0000000E+00
Ar  403  0.8064847E+01  0.1271578E+00  0.2665338E+01  0.0000000E+00
Ar  404  0.5115889E+01  0.2308065E+01  0.2308067E+01  0.0000000E+00
Ar  405  0.5460318E+01  0.5355485E+02  0.5460317E+01  0.0000000E+00
Ar  406  0.7902044E+01  0.2691801E+01  0.5309483E+01  0.0000000E+00
Ar  407  0.7964206E+01  0.5348470E+02  0.7964203E+01  0.0000000E+00
Ar  408  0.5309486E+01  0.2691799E+01  0.7902043E+01  0.0000000E+00
Ar  409  0.5164157E+01  0.8360295E-01  0.1072892E+02  0.0000000E+00
Ar  410  0.7969687E+01  0.2514691E+01  0.1045803E+02  0.0000000E+00
Ar  411  0.7855384E+01  0.2287829E+00  0.1332306E+02  0.0000000E+00
Ar  412  0.5211307E+01  0.2655798E+01  0.1333434E+02  0.0000000E+00
Ar  413  0.5473616E+01  0.1665028E+00  0.1627090E+02  0.0000000E+00
Ar  414  0.8042906E+01  0.2512806E+01  0.1612651E+02  0.0000000E+00
Ar  415  0.8339541E+01  0.5342360E+02  0.1871584E+02  0.0000000E+00
Ar  416  0.5599668E+01  0.2878312E+01  0.1876567E+02  0.0000000E+00
Ar  417  0.5358118E+01  0.1650394E+00  0.2145824E+02  0.0000000E+00
Ar  418  0.7866312E+01  0.2450057E+01  0.2127975E+02  0.0000000E+00
Ar  419  0.8179853E+01  0.1768905E+00  0.2405419E+02  0.0000000E+00
Ar  420  0.5497881E+01  0.2990350E+01  0.2412904E+02  0.0000000E+00
Ar  421  0.5273986E+01  0.2409100E+00  0.2674383E+02  0.0000000E+00
Ar  422  0.8283071E+01  0.2973683E+01  0.2680924E+02  0.0000000E+00
Ar  423  0.8244322E+01  0.2686359E+00  0.2942503E+02  0.0000000E+00
Ar  424  0.5460865E+01  0.2822138E+01  0.2912032E+02  0.0000000E+00
Ar  425  0.5563321E+01  0.4414418E+00  0.3193809E+02  0.0000000E+00
Ar  426  0.8183739E+01  0.2696720E+01  0.3223241E+02  0.0000000E+00
Ar  427  0.8293002E+01  0.1738000E+00  0.3479739E+02  0.0000000E+00
Ar  428  0.5415070E+01  0.2771669E+01  0.3465438E+02  0.0000000E+00
Ar  429  0.5283789E+01  0.2444082E+00  0.3744643E+02  0.0000000E+00
Ar  430  0.8114433E+01  0.2847597E+01  0.3767280E+02  0.0000000E+00
Ar  431  0.8153613E+01  0.8739615E-01  0.4048100E+02  0.0000000E+00
Ar  432  0.5395893E+01  0.2773057E+01  0.4043393E+02  0.0000000E+00
Ar  433  0.5407093E+01  0.5362823E+02  0.4308234E+02  0.0000000E+00
Ar  434  0.7974387E+01  0.3036749E+01  0.4301023E+02  0.0000000E+00
Ar  435  0.7900786E+01  0.5374661E+02  0.4573614E+02  0.0000000E+00
Ar  436  0.5330109E+01  0.2822422E+01  0.4597092E+02  0.0000000E+00
Ar  437  0.5223439E+01  0.2230804E+00  0.4848241E+02  0.0000000E+00
Ar  438  0.8038468E+01  0.2652899E+01  0.4840728E+02  0.0000000E+00
Ar  439  0.7765213E+01  0.5364578E+02  0.5090290E+02  0.0000000E+00
Ar  440  0.5696876E+01  0.2971229E+01  0.5096373E+02  0.0000000E+00
Ar  441  0.5460317E+01  0.5460322E+01  0.5355485E+02  0.0000000E+00
Ar  442  0.7964206E+01  0.7964202E+01  0.5348471E+02  0.0000000E+00
Ar  443  0.7902043E+01  0.5309489E+01  0.2691800E+01  0.0000000E+00
Ar  444  0.5309479E+01  0.7902051E+01  0.2691796E+01  0.0000000E+00
Ar  445  0.5125342E+01  0.5125339E+01  0.5125342E+01  0.0000000E+00
Ar  446  0.7875910E+01  0.7875908E+01  0.5158731E+01  0.0000000E+00
Ar  447  0.7875909E+01  0.5158727E+01  0.7875908E+01  0.0000000E+00
Ar  448  0.5158730E+01  0.7875905E+01  0.7875904E+01  0.0000000E+00
Ar  449  0.5199817E+01  0.5199816E+01  0.1068785E+02  0.0000000E+00
Ar  450  0.8070532E+01  0.8070533E+01  0.1058123E+02  0.0000000E+00
Ar  451  0.8062465E+01  0.5265436E+01  0.1317330E+02  0.0000000E+00
Ar  452  0.5265433E+01  0.8062466E+01  0.1317330E+02  0.0000000E+00
Ar  453  0.5575770E+01  0.5575777E+01  0.1613021E+02  0.0000000E+00
Ar  454  0.8335441E+01  0.8335436E+01  0.1593893E+02  0.0000000E+00
Ar  455  0.8251491E+01  0.5391582E+01  0.1875248E+02  0.0000000E+00
Ar  456  0.5391582E+01  0.8251491E+01  0.1875249E+02  0.0000000E+00
Ar  457  0.5436419E+01  0.5436422E+01  0.2140143E+02  0.0000000E+00
Ar  458  0.7961056E+01  0.7961062E+01  0.2140650E+02  0.0000000E+00
Ar  459  0.8045018E+01  0.5505821E+01  0.2415079E+02  0.0000000E+00
Ar  460  0.5505820E+01  0.8045011E+01  0.2415080E+02  0.0000000E+00
Ar  461  0.5600341E+01  0.5600343E+01  0.2698772E+02  0.0000000E+00
Ar  462  0.8021772E+01  0.8021768E+01  0.2661895E+02  0.0000000E+00
Ar  463  0.8251775E+01  0.5447570E+01  0.2952441E+02  0.0000000E+00
Ar  464  0.5447581E+01  0.8251771E+01  0.2952442E+02  0.0000000E+00
Ar  465  0.5517199E+01  0.5517195E+01  0.3215392E+02  0.0000000E+00
Ar  466  0.8238816E+01  0.8238816E+01  0.3223158E+02  0.0000000E+00
Ar  467  0.8154936E+01  0.5170112E+01  0.3476276E+02  0.0000000E+00
Ar  468  0.5170112E+01  0.8154935E+01  0.3476275E+02  0.0000000E+00
Ar  469  0.5479592E+01  0.5479592E+01  0.3739219E+02  0.0000000E+00
Ar  470  0.8072236E+01  0.8072239E+01  0.3739917E+02  0.0000000E+00
Ar  471  0.8006104E+01  0.5509268E+01  0.4044593E+02  0.0000000E+00
Ar  472  0.5509263E+01  0.8006100E+01  0.4044593E+02  0.0000000E+00
Ar  473  0.5266187E+01  0.5266190E+01  0.4293222E+02  0.0000000E+00
Ar  474  0.7837369E+01  0.7837364E+01  0.4318807E+02  0.0000000E+00
Ar  475  0.8211564E+01  0.5372084E+01  0.4578157E+02  0.0000000E+00
Ar  476  0.5372087E+01  0.8211562E+01  0.4578157E+02  0.0000000E+00
Ar  477  0.5527951E+01  0.5527947E+01  0.4837288E+02  0.0000000E+00
Ar  478  0.7989304E+01  0.7989286E+01  0.4826371E+02  0.0000000E+00
Ar  479  0.8192039E+01  0.5454325E+01  0.5103309E+02  0.0000000E+00
Ar  480  0.5454319E+01  0.8192041E+01  0.5103308E+02  0.0000000E+00
Ar  481  0.5164161E+01  0.1072892E+02  0.8360951E-01  0.0000000E+00
Ar  482  0.7855383E+01  0.1332307E+02  0.2287857E+00  0.0000000E+00
Ar  483  0.7969687E+01  0.1045803E+02  0.2514696E+01  0.0000000E+00
Ar  484  0.5211304E+01  0.1333434E+02  0.2655805E+01  0.0000000E+00
Ar  485  0.5199815E+01  0.1068785E+02  0.5199821E+01  0.0000000E+00
Ar  486  0.8062461E+01  0.1317330E+02  0.5265434E+01  0.0000000E+00
Ar  487  0.8070532E+01  0.1058124E+02  0.8070534E+01  0.0000000E+00
Ar  488  0.5265434E+01  0.1317330E+02  0.8062468E+01  0.0000000E+00
Ar  489  0.5000525E+01  0.1077462E+02  0.1077462E+02  0.0000000E+00
Ar  490  0.8083793E+01  0.1311910E+02  0.1072742E+02  0.0000000E+00
Ar  491  0.8083793E+01  0.1072742E+02  0.1311910E+02  0.0000000E+00
Ar  492  0.5332258E+01  0.1314328E+02  0.1314328E+02  0.0000000E+00
Ar  493  0.5274085E+01  0.1048155E+02  0.1595224E+02  0.0000000E+00
Ar  494  0.7914783E+01  0.1331793E+02  0.1599978E+02  0.0000000E+00
Ar  495  0.8001580E+01  0.1070378E+02  0.1849111E+02  0.0000000E+00
Ar  496  0.5225706E+01  0.1339835E+02  0.1870031E+02  0.0000000E+00
Ar  497  0.5210156E+01  0.1078330E+02  0.2159044E+02  0.0000000E+00
Ar  498  0.7810640E+01  0.1331437E+02  0.2142250E+02  0.0000000E+00
Ar  499  0.8016519E+01  0.1074950E+02  0.2398418E+02  0.0000000E+00
Ar  500  0.5190487E+01  0.1326680E+02  0.2412011E+02  0.0000000E+00
Ar  501  0.5654991E+01  0.1084502E+02  0.2682981E+02  0.0000000E+00
Ar  502  0.8096954E+01  0.1346007E+02  0.2670811E+02  0.0000000E+00
Ar  503  0.7969037E+01  0.1081383E+02  0.2967211E+02  0.0000000E+00
Ar  504  0.5687789E+01  0.1364697E+02  0.2959297E+02  0.0000000E+00
Ar  505  0.5469077E+01  0.1098094E+02  0.3242117E+02  0.0000000E+00
Ar  506  0.8145964E+01  0.1346456E+02  0.3231188E+02  0.0000000E+00
Ar  507  0.8284223E+01  0.1076016E+02  0.3518446E+02  0.0000000E+00
Ar  508  0.5500754E+01  0.1361108E+02  0.3513624E+02  0.0000000E+00
Ar  509  0.5545961E+01  0.1063929E+02  0.3788209E+02  0.0000000E+00
Ar  510  0.7835213E+01  0.1344497E+02  0.3757477E+02  0.0000000E+00
Ar  511  0.8212608E+01  0.1078543E+02  0.4041144E+02  0.0000000E+00
Ar  512  0.5461780E+01  0.1347876E+02  0.4040027E+02  0.0000000E+00
Ar  513  0.5451651E+01  0.1094158E+02  0.4284141E+02  0.0000000E+00
Ar  514  0.8190182E+01  0.1340170E+02  0.4315490E+02  0.0000000E+00
Ar  515  0.7882899E+01  0.1083178E+02  0.4554634E+02  0.0000000E+00
Ar  516  0.5302311E+01  0.1376098E+02  0.4556577E+02  0.0000000E+00
Ar  517  0.5135713E+01  0.1098186E+02  0.4875712E+02  0.0000000E+00
Ar  518  0.7985101E+01  0.1350163E+02  0.4848058E+02  0.0000000E+00
Ar  519  0.8007792E+01  0.1066483E+02  0.5114399E+02  0.0000000E+00
Ar  520  0.5477657E+01  0.1366335E+02  0.5123287E+02  0.0000000E+00
Ar  521  0.5473615E+01  0.1627091E+02  0.1665115E+00  0.0000000E+00
Ar  522  0.8339543E+01  0.1871584E+02  0.5342360E+02  0.0000000E+00
Ar  523  0.8042909E+01  0.1612652E+02  0.2512812E+01  0.0000000E+00
Ar  524  0.5599670E+01  0.1876567E+02  0.2878312E+01  0.0000000E+00
Ar  525  0.5575768E+01  0.1613020E+02  0.5575778E+01  0.0000000E+00
Ar  526  0.8251490E+01  0.1875248E+02  0.5391584E+01  0.0000000E+00
Ar  527  0.8335441E+01  0.1593894E+02  0.8335439E+01  0.0000000E+00
Ar  528  0.5391582E+01  0.1875249E+02  0.8251492E+01  0.0000000E+00
Ar  529  0.5274084E+01  0.1595224E+02  0.1048155E+02  0.0000000E+00
Ar  530  0.8001580E+01  0.1849111E+02  0.1070378E+02  0.0000000E+00
Ar  531  0.7914782E+01  0.1599978E+02  0.1331793E+02  0.0000000E+00
Ar  532  0.5225705E+01  0.1870031E+02  0.1339835E+02  0.0000000E+00
Ar  533  0.5509278E+01  0.1574204E+02  0.1574204E+02  0.0000000E+00
Ar  534  0.7956939E+01  0.1893895E+02  0.1609714E+02  0.0000000E+00
Ar  535  0.7956939E+01  0.1609714E+02  0.1893895E+02  0.0000000E+00
Ar  536  0.5391466E+01  0.1886791E+02  0.1886791E+02  0.0000000E+00
Ar  537  0.5378746E+01  0.1606076E+02  0.2176434E+02  0.0000000E+00
Ar  538  0.7928319E+01  0.1848223E+02  0.2159547E+02  0.0000000E+00
Ar  539  0.8009155E+01  0.1600054E+02  0.2417966E+02  0.0000000E+00
Ar  540  0.5297873E+01  0.1879324E+02  0.2423545E+02  0.0000000E+00
Ar  541  0.5098629E+01  0.1590734E+02  0.2690046E+02  0.0000000E+00
Ar  542  0.8029002E+01  0.1846515E+02  0.2688361E+02  0.0000000E+00
Ar  543  0.8269798E+01  0.1603089E+02  0.2946128E+02  0.0000000E+00
Ar  544  0.5438063E+01  0.1897091E+02  0.2947734E+02  0.0000000E+00
Ar  545  0.5519795E+01  0.1622417E+02  0.3222456E+02  0.0000000E+00
Ar  546  0.8110968E+01  0.1908561E+02  0.3211890E+02  0.0000000E+00
Ar  547  0.8027667E+01  0.1626218E+02  0.3506462E+02  0.0000000E+00
Ar  548  0.5347857E+01  0.1887313E+02  0.3482644E+02  0.0000000E+00
Ar  549  0.5468965E+01  0.1607967E+02  0.3782610E+02  0.0000000E+00
Ar  550  0.7869185E+01  0.1900680E+02  0.3803352E+02  0.0000000E+00
Ar  551  0.8159565E+01  0.1623789E+02  0.4057902E+02  0.0000000E+00
Ar  552  0.5402105E+01  0.1880797E+02  0.4054834E+02  0.0000000E+00
Ar  553  0.5360522E+01  0.1606261E+02  0.4282360E+02  0.0000000E+00
Ar  554  0.8014209E+01  0.1888705E+02  0.4295698E+02  0.0000000E+00
Ar  555  0.8079452E+01  0.1605761E+02  0.4518950E+02  0.0000000E+00
Ar  556  0.5470612E+01  0.1860414E+02  0.4560420E+02  0.0000000E+00
Ar  557  0.5497723E+01  0.1606075E+02  0.4837889E+02  0.0000000E+00
Ar  558  0.8108394E+01  0.1878442E+02  0.4839236E+02  0.0000000E+00
Ar  559  0.8146164E+01  0.1617525E+02  0.5104878E+02  0.0000000E+00
Ar  560  0.5451250E+01  0.1874765E+02  0.5125207E+02  0.0000000E+00
Ar  561  0.5358118E+01  0.2145824E+02  0.1650368E+00  0.0000000E+00
Ar  562  0.8179855E+01  0.2405419E+02  0.1768845E+00  0.0000000E+00
Ar  563  0.7866309E+01  0.2127975E+02  0.2450055E+01  0.0000000E+00
Ar  564  0.5497881E+01  0.2412904E+02  0.2990349E+01  0.0000000E+00
Ar  565  0.5436418E+01  0.2140143E+02  0.5436421E+01  0.0000000E+00
Ar  566  0.8045018E+01  0.2415079E+02  0.5505820E+01  0.0000000E+00
Ar  567  0.7961055E+01  0.2140651E+02  0.7961065E+01  0.0000000E+00
Ar  568  0.5505819E+01  0.2415080E+02  0.8045011E+01  0.0000000E+00
Ar  569  0.5210154E+01  0.2159044E+02  0.1078330E+02  0.0000000E+00
Ar  570  0.8016519E+01  0.2398418E+02  0.1074950E+02  0.0000000E+00
Ar  571  0.7810640E+01  0.2142250E+02  0.1331437E+02  0.0000000E+00
Ar  572  0.5190486E+01  0.2412011E+02  0.1326680E+02  0.0000000E+00
Ar  573  0.5378748E+01  0.2176434E+02  0.1606076E+02  0.0000000E+00
Ar  574  0.8009155E+01  0.2417966E+02  0.1600054E+02  0.0000000E+00
Ar  575  0.7928321E+01  0.2159547E+02  0.1848223E+02  0.0000000E+00
Ar  576  0.5297874E+01  0.2423545E+02  0.1879324E+02  0.0000000E+00
Ar  577  0.5340329E+01  0.2154445E+02  0.2154445E+02  0.0000000E+00
Ar  578  0.7905246E+01  0.2411412E+02  0.2157289E+02  0.0000000E+00
Ar  579  0.7905247E+01  0.2157289E+02  0.2411412E+02  0.0000000E+00
Ar  580  0.5437435E+01  0.2449199E+02  0.2449199E+02  0.0000000E+00
Ar  581  0.5412150E+01  0.2160318E+02  0.2682843E+02  0.0000000E+00
Ar  582  0.8103371E+01  0.2417743E+02  0.2696584E+02  0.0000000E+00
Ar  583  0.8160937E+01  0.2155630E+02  0.2953710E+02  0.0000000E+00
Ar  584  0.5596647E+01  0.2416898E+02  0.2965724E+02  0.0000000E+00
Ar  585  0.5574107E+01  0.2155458E+02  0.3218314E+02  0.0000000E+00
Ar  586  0.8106738E+01  0.2423744E+02  0.3223247E+02  0.0000000E+00
Ar  587  0.8062884E+01  0.2176486E+02  0.3509026E+02  0.0000000E+00
Ar  588  0.5544796E+01  0.2451698E+02  0.3490948E+02  0.0000000E+00
Ar  589  0.5444535E+01  0.2168129E+02  0.3753068E+02  0.0000000E+00
Ar  590  0.8075106E+01  0.2451259E+02  0.3762181E+02  0.0000000E+00
Ar  591  0.8253652E+01  0.2178116E+02  0.4050441E+02  0.0000000E+00
Ar  592  0.5239308E+01  0.2430534E+02  0.4036082E+02  0.0000000E+00
Ar  593  0.5424254E+01  0.2166046E+02  0.4318450E+02  0.0000000E+00
Ar  594  0.7963301E+01  0.2437479E+02  0.4310278E+02  0.0000000E+00
Ar  595  0.8228039E+01  0.2171498E+02  0.4568832E+02  0.0000000E+00
Ar  596  0.5335333E+01  0.2435638E+02  0.4563424E+02  0.0000000E+00
Ar  597  0.5485999E+01  0.2143389E+02  0.4806397E+02  0.0000000E+00
Ar  598  0.8072686E+01  0.2408745E+02  0.4843589E+02  0.0000000E+00
Ar  599  0.8076966E+01  0.2165855E+02  0.5107260E+02  0.0000000E+00
Ar  600  0.5331257E+01  0.2402643E+02  0.5114263E+02  0.0000000E+00
Ar  601  0.5273986E+01  0.2674383E+02  0.2409088E+00  0.0000000E+00
Ar  602  0.8244322E+01  0.2942503E+02  0.2686406E+00  0.0000000E+00
Ar  603  0.8283071E+01  0.2680924E+02  0.2973685E+01  0.0000000E+00
Ar  604  0.5460863E+01  0.2912032E+02  0.2822136E+01  0.0000000E+00
Ar  605  0.5600338E+01  0.2698772E+02  0.5600342E+01  0.0000000E+00
Ar  606  0.8251776E+01  0.2952441E+02  0.5447566E+01  0.0000000E+00
Ar  607  0.8021772E+01  0.2661895E+02  0.8021767E+01  0.0000000E+00
Ar  608  0.5447581E+01  0.2952442E+02  0.8251770E+01  0.0000000E+00
Ar  609  0.5654990E+01  0.2682981E+02  0.1084502E+02  0.0000000E+00
Ar  610  0.7969035E+01  0.2967211E+02  0.1081383E+02  0.0000000E+00
Ar  611  0.8096953E+01  0.2670811E+02  0.1346007E+02  0.0000000E+00
Ar  612  0.5687787E+01  0.2959297E+02  0.1364697E+02  0.0000000E+00
Ar  613  0.5098628E+01  0.2690046E+02  0.1590734E+02  0.0000000E+00
Ar  614  0.8269799E+01  0.2946128E+02  0.1603089E+02  0.0000000E+00
Ar  615  0.8029002E+01  0.2688361E+02  0.1846514E+02  0.0000000E+00
Ar  616  0.5438062E+01  0.2947734E+02  0.1897091E+02  0.0000000E+00
Ar  617  0.5412150E+01  0.2682843E+02  0.2160318E+02  0.0000000E+00
Ar  618  0.8160935E+01  0.2953710E+02  0.2155630E+02  0.0000000E+00
Ar  619  0.8103370E+01  0.2696584E+02  0.2417743E+02  0.0000000E+00
Ar  620  0.5596648E+01  0.2965724E+02  0.2416898E+02  0.0000000E+00
Ar  621  0.5324387E+01  0.2689683E+02  0.2689683E+02  0.0000000E+00
Ar  622  0.8067078E+01  0.2937114E+02  0.2676119E+02  0.0000000E+00
Ar  623  0.8067079E+01  0.2676119E+02  0.2937114E+02  0.0000000E+00
Ar  624  0.5323543E+01  0.2941517E+02  0.2941517E+02  0.0000000E+00
Ar  625  0.5286866E+01  0.2701165E+02  0.3220862E+02  0.0000000E+00
Ar  626  0.8014076E+01  0.2954430E+02  0.3231944E+02  0.0000000E+00
Ar  627  0.8082913E+01  0.2702600E+02  0.3508136E+02  0.0000000E+00
Ar  628  0.5402927E+01  0.2951468E+02  0.3470148E+02  0.0000000E+00
Ar  629  0.5373596E+01  0.2714632E+02  0.3764386E+02  0.0000000E+00
Ar  630  0.8159082E+01  0.2951118E+02  0.3783757E+02  0.0000000E+00
Ar  631  0.7936063E+01  0.2685159E+02  0.4029855E+02  0.0000000E+00
Ar  632  0.5279655E+01  0.2991204E+02  0.4033045E+02  0.0000000E+00
Ar  633  0.5399556E+01  0.2713959E+02  0.4329273E+02  0.0000000E+00
Ar  634  0.7853983E+01  0.2963008E+02  0.4298280E+02  0.0000000E+00
Ar  635  0.8139330E+01  0.2704858E+02  0.4578619E+02  0.0000000E+00
Ar  636  0.5715710E+01  0.2956382E+02  0.4580513E+02  0.0000000E+00
Ar  637  0.5799187E+01  0.2686974E+02  0.4829409E+02  0.0000000E+00
Ar  638  0.8479124E+01  0.2974994E+02  0.4830305E+02  0.0000000E+00
Ar  639  0.8124316E+01  0.2665946E+02  0.5107425E+02  0.0000000E+00
Ar  640  0.5575852E+01  0.2942627E+02  0.5138794E+02  0.0000000E+00
Ar  641  0.5563323E+01  0.3193809E+02  0.4414412E+00  0.0000000E+00
Ar  642  0.8293004E+01  0.3479739E+02  0.1738022E+00  0.0000000E+00
Ar  643  0.8183739E+01  0.3223241E+02  0.2696720E+01  0.0000000E+00
Ar  644  0.5415068E+01  0.3465438E+02  0.2771669E+01  0.0000000E+00
Ar  645  0.5517199E+01  0.3215392E+02  0.5517197E+01  0.0000000E+00
Ar  646  0.8154938E+01  0.3476276E+02  0.5170110E+01  0.0000000E+00
Ar  647  0.8238816E+01  0.3223157E+02  0.8238813E+01  0.0000000E+00
Ar  648  0.5170109E+01  0.3476275E+02  0.8154935E+01  0.0000000E+00
Ar  649  0.5469074E+01  0.3242117E+02  0.1098094E+02  0.0000000E+00
Ar  650  0.8284224E+01  0.3518446E+02  0.1076016E+02  0.0000000E+00
Ar  651  0.8145962E+01  0.3231188E+02  0.1346456E+02  0.0000000E+00
Ar  652  0.5500752E+01  0.3513624E+02  0.1361108E+02  0.0000000E+00
Ar  653  0.5519793E+01  0.3222456E+02  0.1622417E+02  0.0000000E+00
Ar  654  0.8027667E+01  0.3506462E+02  0.1626218E+02  0.0000000E+00
Ar  655  0.8110968E+01  0.3211890E+02  0.1908561E+02  0.0000000E+00
Ar  656  0.5347859E+01  0.3482644E+02  0.1887313E+02  0.0000000E+00
Ar  657  0.5574106E+01  0.3218314E+02  0.2155458E+02  0.0000000E+00
Ar  658  0.8062888E+01  0.3509026E+02  0.2176486E+02  0.0000000E+00
Ar  659  0.8106739E+01  0.3223247E+02  0.2423744E+02  0.0000000E+00
Ar  660  0.5544797E+01  0.3490948E+02  0.2451698E+02  0.0000000E+00
Ar  661  0.5286866E+01  0.3220862E+02  0.2701165E+02  0.0000000E+00
Ar  662  0.8082914E+01  0.3508136E+02  0.2702601E+02  0.0000000E+00
Ar  663  0.8014076E+01  0.3231944E+02  0.2954430E+02  0.0000000E+00
Ar  664  0.5402927E+01  0.3470148E+02  0.2951468E+02  0.0000000E+00
Ar  665  0.5518785E+01  0.3216881E+02  0.3216881E+02  0.0000000E+00
Ar  666  0.8140217E+01  0.3464750E+02  0.3227655E+02  0.0000000E+00
Ar  667  0.8140216E+01  0.3227655E+02  0.3464750E+02  0.0000000E+00
Ar  668  0.5487700E+01  0.3484593E+02  0.3484593E+02  0.0000000E+00
Ar  669  0.5111220E+01  0.3229454E+02  0.3784392E+02  0.0000000E+00
Ar  670  0.8110456E+01  0.3489744E+02  0.3763419E+02  0.0000000E+00
Ar  671  0.8344178E+01  0.3246907E+02  0.4014571E+02  0.0000000E+00
Ar  672  0.5431196E+01  0.3490874E+02  0.4048661E+02  0.0000000E+00
Ar  673  0.5530586E+01  0.3248605E+02  0.4324886E+02  0.0000000E+00
Ar  674  0.8461887E+01  0.3501126E+02  0.4291949E+02  0.0000000E+00
Ar  675  0.8151406E+01  0.3230304E+02  0.4551640E+02  0.0000000E+00
Ar  676  0.5596486E+01  0.3518951E+02  0.4586097E+02  0.0000000E+00
Ar  677  0.5937016E+01  0.3204391E+02  0.4851692E+02  0.0000000E+00
Ar  678  0.8410558E+01  0.3499522E+02  0.4832427E+02  0.0000000E+00
Ar  679  0.8305447E+01  0.3221329E+02  0.5110897E+02  0.0000000E+00
Ar  680  0.5517398E+01  0.3495338E+02  0.5131982E+02  0.0000000E+00
Ar  681  0.5283791E+01  0.3744643E+02  0.2444089E+00  0.0000000E+00
Ar  682  0.8153613E+01  0.4048100E+02  0.8739600E-01  0.0000000E+00
Ar  683  0.8114430E+01  0.3767280E+02  0.2847598E+01  0.0000000E+00
Ar  684  0.5395895E+01  0.4043394E+02  0.2773055E+01  0.0000000E+00
Ar  685  0.5479594E+01  0.3739219E+02  0.5479594E+01  0.0000000E+00
Ar  686  0.8006104E+01  0.4044593E+02  0.5509270E+01  0.0000000E+00
Ar  687  0.8072236E+01  0.3739917E+02  0.8072240E+01  0.0000000E+00
Ar  688  0.5509264E+01  0.4044593E+02  0.8006103E+01  0.0000000E+00
Ar  689  0.5545958E+01  0.3788209E+02  0.1063929E+02  0.0000000E+00
Ar  690  0.8212605E+01  0.4041143E+02  0.1078543E+02  0.0000000E+00
Ar  691  0.7835214E+01  0.3757477E+02  0.1344497E+02  0.0000000E+00
Ar  692  0.5461775E+01  0.4040027E+02  0.1347876E+02  0.0000000E+00
Ar  693  0.5468964E+01  0.3782610E+02  0.1607967E+02  0.0000000E+00
Ar  694  0.8159565E+01  0.4057902E+02  0.1623789E+02  0.0000000E+00
Ar  695  0.7869186E+01  0.3803352E+02  0.1900680E+02  0.0000000E+00
Ar  696  0.5402107E+01  0.4054834E+02  0.1880797E+02  0.0000000E+00
Ar  697  0.5444535E+01  0.3753068E+02  0.2168129E+02  0.0000000E+00
Ar  698  0.8253651E+01  0.4050441E+02  0.2178116E+02  0.0000000E+00
Ar  699  0.8075106E+01  0.3762181E+02  0.2451259E+02  0.0000000E+00
Ar  700  0.5239309E+01  0.4036082E+02  0.2430534E+02  0.0000000E+00
Ar  701  0.5373597E+01  0.3764386E+02  0.2714632E+02  0.0000000E+00
Ar  702  0.7936065E+01  0.4029855E+02  0.2685159E+02  0.0000000E+00
Ar  703  0.8159084E+01  0.3783757E+02  0.2951119E+02  0.0000000E+00
Ar  704  0.5279656E+01  0.4033045E+02  0.2991204E+02  0.0000000E+00
Ar  705  0.5111222E+01  0.3784392E+02  0.3229454E+02  0.0000000E+00
Ar  706  0.8344179E+01  0.4014572E+02  0.3246907E+02  0.0000000E+00
Ar  707  0.8110456E+01  0.3763419E+02  0.3489744E+02  0.0000000E+00
Ar  708  0.5431195E+01  0.4048661E+02  0.3490874E+02  0.0000000E+00
Ar  709  0.5196414E+01  0.3757971E+02  0.3757971E+02  0.0000000E+00
Ar  710  0.8207435E+01  0.4000220E+02  0.3760089E+02  0.0000000E+00
Ar  711  0.8207431E+01  0.3760089E+02  0.4000220E+02  0.0000000E+00
Ar  712  0.5627183E+01  0.4026572E+02  0.4026572E+02  0.0000000E+00
Ar  713  0.5504093E+01  0.3741199E+02  0.4291938E+02  0.0000000E+00
Ar  714  0.8175514E+01  0.4030946E+02  0.4281891E+02  0.0000000E+00
Ar  715  0.8169067E+01  0.3770734E+02  0.4543691E+02  0.0000000E+00
Ar  716  0.5104334E+01  0.3997902E+02  0.4556914E+02  0.0000000E+00
Ar  717  0.5647151E+01  0.3766764E+02  0.4861922E+02  0.0000000E+00
Ar  718  0.8025292E+01  0.4065429E+02  0.4855410E+02  0.0000000E+00
Ar  719  0.8231057E+01  0.3758820E+02  0.5122004E+02  0.0000000E+00
Ar  720  0.5620660E+01  0.4021332E+02  0.5104111E+02  0.0000000E+00
Ar  721  0.5407093E+01  0.4308234E+02  0.5362823E+02  0.0000000E+00
Ar  722  0.7900788E+01  0.4573614E+02  0.5374661E+02  0.0000000E+00
Ar  723  0.7974388E+01  0.4301023E+02  0.3036751E+01  0.0000000E+00
Ar  724  0.5330110E+01  0.4597092E+02  0.2822424E+01  0.0000000E+00
Ar  725  0.5266188E+01  0.4293222E+02  0.5266193E+01  0.0000000E+00
Ar  726  0.8211563E+01  0.4578158E+02  0.5372087E+01  0.0000000E+00
Ar  727  0.7837368E+01  0.4318808E+02  0.7837368E+01  0.0000000E+00
Ar  728  0.5372086E+01  0.4578157E+02  0.8211562E+01  0.0000000E+00
Ar  729  0.5451651E+01  0.4284141E+02  0.1094157E+02  0.0000000E+00
Ar  730  0.7882895E+01  0.4554635E+02  0.1083178E+02  0.0000000E+00
Ar  731  0.8190178E+01  0.4315490E+02  0.1340170E+02  0.0000000E+00
Ar  732  0.5302308E+01  0.4556577E+02  0.1376098E+02  0.0000000E+00
Ar  733  0.5360526E+01  0.4282360E+02  0.1606261E+02  0.0000000E+00
Ar  734  0.8079453E+01  0.4518951E+02  0.1605761E+02  0.0000000E+00
Ar  735  0.8014210E+01  0.4295698E+02  0.1888705E+02  0.0000000E+00
Ar  736  0.5470613E+01  0.4560420E+02  0.1860415E+02  0.0000000E+00
Ar  737  0.5424255E+01  0.4318450E+02  0.2166046E+02  0.0000000E+00
Ar  738  0.8228040E+01  0.4568832E+02  0.2171498E+02  0.0000000E+00
Ar  739  0.7963303E+01  0.4310278E+02  0.2437479E+02  0.0000000E+00
Ar  740  0.5335331E+01  0.4563424E+02  0.2435638E+02  0.0000000E+00
Ar  741  0.5399557E+01  0.4329273E+02  0.2713959E+02  0.0000000E+00
Ar  742  0.8139330E+01  0.4578619E+02  0.2704858E+02  0.0000000E+00
Ar  743  0.7853981E+01  0.4298281E+02  0.2963008E+02  0.0000000E+00
Ar  744  0.5715707E+01  0.4580513E+02  0.2956382E+02  0.0000000E+00
Ar  745  0.5530587E+01  0.4324886E+02  0.3248605E+02  0.0000000E+00
Ar  746  0.8151405E+01  0.4551640E+02  0.3230304E+02  0.0000000E+00
Ar  747  0.8461890E+01  0.4291949E+02  0.3501126E+02  0.0000000E+00
Ar  748  0.5596481E+01  0.4586097E+02  0.3518951E+02  0.0000000E+00
Ar  749  0.5504093E+01  0.4291938E+02  0.3741199E+02  0.0000000E+00
Ar  750  0.8169066E+01  0.4543692E+02  0.3770734E+02  0.0000000E+00
Ar  751  0.8175509E+01  0.4281891E+02  0.4030946E+02  0.0000000E+00
Ar  752  0.5104332E+01  0.4556914E+02  0.3997903E+02  0.0000000E+00
Ar  753  0.5600716E+01  0.4292881E+02  0.4292881E+02  0.0000000E+00
Ar  754  0.8106316E+01  0.4549010E+02  0.4285617E+02  0.0000000E+00
Ar  755  0.8106316E+01  0.4285617E+02  0.4549010E+02  0.0000000E+00
Ar  756  0.5300603E+01  0.4569126E+02  0.4569126E+02  0.0000000E+00
Ar  757  0.5246160E+01  0.4300708E+02  0.4821928E+02  0.0000000E+00
Ar  758  0.8014188E+01  0.4550921E+02  0.4817860E+02  0.0000000E+00
Ar  759  0.8294375E+01  0.4324612E+02  0.5108141E+02  0.0000000E+00
Ar  760  0.5494135E+01  0.4570304E+02  0.5111596E+02  0.0000000E+00
Ar  761  0.5223439E+01  0.4848241E+02  0.2230771E+00  0.0000000E+00
Ar  762  0.7765213E+01  0.5090290E+02  0.5364577E+02  0.0000000E+00
Ar  763  0.8038470E+01  0.4840729E+02  0.2652899E+01  0.0000000E+00
Ar  764  0.5696878E+01  0.5096373E+02  0.2971231E+01  0.0000000E+00
Ar  765  0.5527946E+01  0.4837288E+02  0.5527950E+01  0.0000000E+00
Ar  766  0.8192044E+01  0.5103308E+02  0.5454322E+01  0.0000000E+00
Ar  767  0.7989298E+01  0.4826371E+02  0.7989294E+01  0.0000000E+00
Ar  768  0.5454326E+01  0.5103308E+02  0.8192042E+01  0.0000000E+00
Ar  769  0.5135702E+01  0.4875712E+02  0.1098185E+02  0.0000000E+00
Ar  770  0.8007793E+01  0.5114399E+02  0.1066484E+02  0.0000000E+00
Ar  771  0.7985099E+01  0.4848058E+02  0.1350164E+02  0.0000000E+00
Ar  772  0.5477672E+01  0.5123286E+02  0.1366335E+02  0.0000000E+00
Ar  773  0.5497721E+01  0.4837889E+02  0.1606076E+02  0.0000000E+00
Ar  774  0.8146168E+01  0.5104878E+02  0.1617525E+02  0.0000000E+00
Ar  775  0.8108396E+01  0.4839235E+02  0.1878443E+02  0.0000000E+00
Ar  776  0.5451251E+01  0.5125207E+02  0.1874765E+02  0.0000000E+00
Ar  777  0.5486000E+01  0.4806397E+02  0.2143389E+02  0.0000000E+00
Ar  778  0.8076967E+01  0.5107261E+02  0.2165855E+02  0.0000000E+00
Ar  779  0.8072681E+01  0.4843589E+02  0.2408745E+02  0.0000000E+00
Ar  780  0.5331255E+01  0.5114263E+02  0.2402643E+02  0.0000000E+00
Ar  781  0.5799189E+01  0.4829409E+02  0.2686973E+02  0.0000000E+00
Ar  782  0.8124312E+01  0.5107425E+02  0.2665946E+02  0.0000000E+00
Ar  783  0.8479125E+01  0.4830305E+02  0.2974994E+02  0.0000000E+00
Ar  784  0.5575855E+01  0.5138794E+02  0.2942627E+02  0.0000000E+00
Ar  785  0.5937015E+01  0.4851692E+02  0.3204391E+02  0.0000000E+00
Ar  786  0.8305448E+01  0.5110897E+02  0.3221330E+02  0.0000000E+00
Ar  787  0.8410556E+01  0.4832427E+02  0.3499522E+02  0.0000000E+00
Ar  788  0.5517393E+01  0.5131982E+02  0.3495338E+02  0.0000000E+00
Ar  789  0.5647147E+01  0.4861922E+02  0.3766764E+02  0.0000000E+00
Ar  790  0.8231053E+01  0.5122004E+02  0.3758820E+02  0.0000000E+00
Ar  791  0.8025292E+01  0.4855410E+02  0.4065429E+02  0.0000000E+00
Ar  792  0.5620658E+01  0.5104111E+02  0.4021331E+02  0.0000000E+00
Ar  793  0.5246157E+01  0.4821928E+02  0.4300708E+02  0.0000000E+00
Ar  794  0.8294375E+01  0.5108140E+02  0.4324612E+02  0.0000000E+00
Ar  795  0.8014186E+01  0.4817860E+02  0.4550921E+02  0.0000000E+00
Ar  796  0.5494134E+01  0.5111596E+02  0.4570304E+02  0.0000000E+00
Ar  797  0.5624731E+01  0.4837942E+02  0.4837942E+02  0.0000000E+00
Ar  798  0.7895383E+01  0.5113574E+02  0.4833759E+02  0.0000000E+00
Ar  799  0.7895384E+01  0.4833759E+02  0.5113574E+02  0.0000000E+00
Ar  800  0.4915440E+01  0.5084408E+02  0.5084408E+02  0.0000000E+00
Ar  801  0.1039509E+02  0.5359212E+02  0.5359212E+02  0.0000000E+00
Ar  802  0.1354118E+02  0.2804593E+01  0.2188249E+00  0.0000000E+00
Ar  803  0.1354119E+02  0.2188260E+00  0.2804591E+01  0.0000000E+00
Ar  804  0.1063072E+02  0.2598037E+01  0.2598029E+01  0.0000000E+00
Ar  805  0.1072892E+02  0.8360271E-01  0.5164154E+01  0.0000000E+00
Ar  806  0.1333434E+02  0.2655799E+01  0.5211308E+01  0.0000000E+00
Ar  807  0.1332306E+02  0.2287831E+00  0.7855385E+01  0.0000000E+00
Ar  808  0.1045804E+02  0.2514692E+01  0.7969684E+01  0.0000000E+00
Ar  809  0.1070823E+02  0.5362025E+02  0.1070823E+02  0.0000000E+00
Ar  810  0.1337588E+02  0.2550845E+01  0.1065275E+02  0.0000000E+00
Ar  811  0.1343826E+02  0.5336396E+02  0.1343826E+02  0.0000000E+00
Ar  812  0.1065275E+02  0.2550848E+01  0.1337588E+02  0.0000000E+00
Ar  813  0.1062018E+02  0.7298608E-01  0.1599579E+02  0.0000000E+00
Ar  814  0.1344630E+02  0.2413886E+01  0.1589550E+02  0.0000000E+00
Ar  815  0.1348545E+02  0.7530992E-01  0.1872319E+02  0.0000000E+00
Ar  816  0.1061754E+02  0.2768194E+01  0.1886105E+02  0.0000000E+00
Ar  817  0.1061936E+02  0.3389608E-01  0.2118682E+02  0.0000000E+00
Ar  818  0.1339076E+02  0.2548886E+01  0.2151044E+02  0.0000000E+00
Ar  819  0.1334892E+02  0.5365232E+02  0.2386295E+02  0.0000000E+00
Ar  820  0.1074315E+02  0.2477013E+01  0.2410942E+02  0.0000000E+00
Ar  821  0.1078324E+02  0.5367357E+02  0.2705164E+02  0.0000000E+00
Ar  822  0.1355282E+02  0.2457258E+01  0.2655603E+02  0.0000000E+00
Ar  823  0.1381143E+02  0.3219561E+00  0.2976739E+02  0.0000000E+00
Ar  824  0.1095697E+02  0.3117591E+01  0.2950439E+02  0.0000000E+00
Ar  825  0.1094003E+02  0.8424246E-01  0.3225239E+02  0.0000000E+00
Ar  826  0.1367929E+02  0.2959278E+01  0.3237002E+02  0.0000000E+00
Ar  827  0.1340703E+02  0.3784209E+00  0.3514638E+02  0.0000000E+00
Ar  828  0.1091390E+02  0.2921278E+01  0.3493243E+02  0.0000000E+00
Ar  829  0.1078970E+02  0.2178100E+00  0.3790122E+02  0.0000000E+00
Ar  830  0.1319541E+02  0.3124655E+01  0.3765994E+02  0.0000000E+00
Ar  831  0.1366404E+02  0.5700588E-01  0.4030636E+02  0.0000000E+00
Ar  832  0.1084747E+02  0.3011297E+01  0.4039202E+02  0.0000000E+00
Ar  833  0.1083660E+02  0.4786436E+00  0.4323124E+02  0.0000000E+00
Ar  834  0.1365185E+02  0.2837376E+01  0.4299011E+02  0.0000000E+00
Ar  835  0.1344999E+02  0.5372983E+02  0.4584793E+02  0.0000000E+00
Ar  836  0.1108667E+02  0.2860040E+01  0.4588582E+02  0.0000000E+00
Ar  837  0.1046094E+02  0.5370913E+02  0.4856299E+02  0.0000000E+00
Ar  838  0.1349337E+02  0.2478728E+01  0.4856057E+02  0.0000000E+00
Ar  839  0.1349747E+02  0.1359958E+00  0.5139185E+02  0.0000000E+00
Ar  840  0.1086480E+02  0.2518624E+01  0.5126792E+02  0.0000000E+00
Ar  841  0.1072892E+02  0.5164160E+01  0.8359720E-01  0.0000000E+00
Ar  842  0.1332306E+02  0.7855389E+01  0.2287795E+00  0.0000000E+00
Ar  843  0.1333434E+02  0.5211310E+01  0.2655796E+01  0.0000000E+00
Ar  844  0.1045803E+02  0.7969689E+01  0.2514691E+01  0.0000000E+00
Ar  845  0.1068785E+02  0.5199815E+01  0.5199815E+01  0.0000000E+00
Ar  846  0.1317330E+02  0.8062464E+01  0.5265435E+01  0.0000000E+00
Ar  847  0.1317330E+02  0.5265434E+01  0.8062464E+01  0.0000000E+00
Ar  848  0.1058123E+02  0.8070532E+01  0.8070534E+01  0.0000000E+00
Ar  849  0.1077462E+02  0.5000525E+01  0.1077462E+02  0.0000000E+00
Ar  850  0.1311910E+02  0.8083793E+01  0.1072742E+02  0.0000000E+00
Ar  851  0.1314328E+02  0.5332251E+01  0.1314328E+02  0.0000000E+00
Ar  852  0.1072742E+02  0.8083793E+01  0.1311910E+02  0.0000000E+00
Ar  853  0.1048155E+02  0.5274086E+01  0.1595224E+02  0.0000000E+00
Ar  854  0.1331793E+02  0.7914785E+01  0.1599977E+02  0.0000000E+00
Ar  855  0.1339835E+02  0.5225706E+01  0.1870030E+02  0.0000000E+00
Ar  856  0.1070379E+02  0.8001574E+01  0.1849111E+02  0.0000000E+00
Ar  857  0.1078330E+02  0.5210161E+01  0.2159044E+02  0.0000000E+00
Ar  858  0.1331437E+02  0.7810638E+01  0.2142250E+02  0.0000000E+00
Ar  859  0.1326680E+02  0.5190485E+01  0.2412011E+02  0.0000000E+00
Ar  860  0.1074950E+02  0.8016524E+01  0.2398418E+02  0.0000000E+00
Ar  861  0.1084502E+02  0.5654994E+01  0.2682981E+02  0.0000000E+00
Ar  862  0.1346007E+02  0.8096953E+01  0.2670811E+02  0.0000000E+00
Ar  863  0.1364697E+02  0.5687796E+01  0.2959297E+02  0.0000000E+00
Ar  864  0.1081382E+02  0.7969028E+01  0.2967211E+02  0.0000000E+00
Ar  865  0.1098094E+02  0.5469083E+01  0.3242117E+02  0.0000000E+00
Ar  866  0.1346455E+02  0.8145960E+01  0.3231188E+02  0.0000000E+00
Ar  867  0.1361109E+02  0.5500758E+01  0.3513624E+02  0.0000000E+00
Ar  868  0.1076016E+02  0.8284227E+01  0.3518447E+02  0.0000000E+00
Ar  869  0.1063929E+02  0.5545962E+01  0.3788209E+02  0.0000000E+00
Ar  870  0.1344496E+02  0.7835216E+01  0.3757478E+02  0.0000000E+00
Ar  871  0.1347877E+02  0.5461778E+01  0.4040027E+02  0.0000000E+00
Ar  872  0.1078543E+02  0.8212606E+01  0.4041144E+02  0.0000000E+00
Ar  873  0.1094157E+02  0.5451652E+01  0.4284141E+02  0.0000000E+00
Ar  874  0.1340170E+02  0.8190174E+01  0.4315490E+02  0.0000000E+00
Ar  875  0.1376097E+02  0.5302302E+01  0.4556578E+02  0.0000000E+00
Ar  876  0.1083179E+02  0.7882898E+01  0.4554635E+02  0.0000000E+00
Ar  877  0.1098184E+02  0.5135699E+01  0.4875712E+02  0.0000000E+00
Ar  878  0.1350163E+02  0.7985099E+01  0.4848057E+02  0.0000000E+00
Ar  879  0.1366334E+02  0.5477674E+01  0.5123286E+02  0.0000000E+00
Ar  880  0.1066483E+02  0.8007796E+01  0.5114399E+02  0.0000000E+00
Ar  881  0.1070823E+02  0.1070824E+02  0.5362026E+02  0.0000000E+00
Ar  882  0.1343826E+02  0.1343826E+02  0.5336395E+02  0.0000000E+00
Ar  883  0.1337588E+02  0.1065275E+02  0.2550847E+01  0.0000000E+00
Ar  884  0.1065275E+02  0.1337588E+02  0.2550851E+01  0.0000000E+00
Ar  885  0.1077461E+02  0.1077462E+02  0.5000523E+01  0.0000000E+00
Ar  886  0.1314328E+02  0.1314328E+02  0.5332251E+01  0.0000000E+00
Ar  887  0.1311910E+02  0.1072742E+02  0.8083792E+01  0.0000000E+00
Ar  888  0.1072742E+02  0.1311910E+02  0.8083791E+01  0.0000000E+00
Ar  889  0.1106887E+02  0.1106887E+02  0.1106887E+02  0.0000000E+00
Ar  890  0.1348037E+02  0.1348037E+02  0.1072006E+02  0.0000000E+00
Ar  891  0.1348037E+02  0.1072006E+02  0.1348037E+02  0.0000000E+00
Ar  892  0.1072006E+02  0.1348038E+02  0.1348037E+02  0.0000000E+00
Ar  893  0.1080680E+02  0.1080680E+02  0.1586803E+02  0.0000000E+00
Ar  894  0.1343687E+02  0.1343687E+02  0.1603118E+02  0.0000000E+00
Ar  895  0.1340176E+02  0.1072315E+02  0.1844399E+02  0.0000000E+00
Ar  896  0.1072315E+02  0.1340176E+02  0.1844400E+02  0.0000000E+00
Ar  897  0.1052482E+02  0.1052482E+02  0.2099736E+02  0.0000000E+00
Ar  898  0.1322212E+02  0.1322212E+02  0.2123283E+02  0.0000000E+00
Ar  899  0.1347050E+02  0.1081693E+02  0.2418265E+02  0.0000000E+00
Ar  900  0.1081694E+02  0.1347050E+02  0.2418266E+02  0.0000000E+00
Ar  901  0.1065048E+02  0.1065048E+02  0.2694294E+02  0.0000000E+00
Ar  902  0.1334955E+02  0.1334955E+02  0.2674537E+02  0.0000000E+00
Ar  903  0.1338668E+02  0.1067372E+02  0.2941977E+02  0.0000000E+00
Ar  904  0.1067372E+02  0.1338668E+02  0.2941977E+02  0.0000000E+00
Ar  905  0.1087736E+02  0.1087736E+02  0.3228129E+02  0.0000000E+00
Ar  906  0.1350535E+02  0.1350536E+02  0.3236105E+02  0.0000000E+00
Ar  907  0.1350521E+02  0.1087401E+02  0.3492886E+02  0.0000000E+00
Ar  908  0.1087400E+02  0.1350521E+02  0.3492886E+02  0.0000000E+00
Ar  909  0.1085051E+02  0.1085051E+02  0.3778384E+02  0.0000000E+00
Ar  910  0.1356688E+02  0.1356688E+02  0.3783221E+02  0.0000000E+00
Ar  911  0.1348159E+02  0.1077975E+02  0.4036352E+02  0.0000000E+00
Ar  912  0.1077976E+02  0.1348158E+02  0.4036352E+02  0.0000000E+00
Ar  913  0.1085457E+02  0.1085456E+02  0.4296235E+02  0.0000000E+00
Ar  914  0.1348545E+02  0.1348545E+02  0.4272830E+02  0.0000000E+00
Ar  915  0.1347922E+02  0.1086161E+02  0.4573761E+02  0.0000000E+00
Ar  916  0.1086162E+02  0.1347921E+02  0.4573761E+02  0.0000000E+00
Ar  917  0.1048102E+02  0.1048104E+02  0.4853070E+02  0.0000000E+00
Ar  918  0.1384964E+02  0.1384964E+02  0.4803776E+02  0.0000000E+00
Ar  919  0.1324785E+02  0.1061855E+02  0.5097920E+02  0.0000000E+00
Ar  920  0.1061856E+02  0.1324785E+02  0.5097921E+02  0.0000000E+00
Ar  921  0.1062018E+02  0.1599579E+02  0.7298703E-01  0.0000000E+00
Ar  922  0.1348545E+02  0.1872319E+02  0.7531007E-01  0.0000000E+00
Ar  923  0.1344630E+02  0.1589550E+02  0.2413886E+01  0.0000000E+00
Ar  924  0.1061754E+02  0.1886105E+02  0.2768194E+01  0.0000000E+00
Ar  925  0.1048155E+02  0.1595224E+02  0.5274089E+01  0.0000000E+00
Ar  926  0.1339836E+02  0.1870031E+02  0.5225705E+01  0.0000000E+00
Ar  927  0.1331793E+02  0.1599977E+02  0.7914787E+01  0.0000000E+00
Ar  928  0.1070378E+02  0.1849111E+02  0.8001577E+01  0.0000000E+00
Ar  929  0.1080680E+02  0.1586803E+02  0.1080680E+02  0.0000000E+00
Ar  930  0.1340176E+02  0.1844399E+02  0.1072315E+02  0.0000000E+00
Ar  931  0.1343687E+02  0.1603118E+02  0.1343687E+02  0.0000000E+00
Ar  932  0.1072315E+02  0.1844400E+02  0.1340176E+02  0.0000000E+00
Ar  933  0.1091596E+02  0.1619385E+02  0.1619384E+02  0.0000000E+00
Ar  934  0.1337968E+02  0.1884280E+02  0.1626488E+02  0.0000000E+00
Ar  935  0.1337968E+02  0.1626488E+02  0.1884280E+02  0.0000000E+00
Ar  936  0.1053145E+02  0.1873941E+02  0.1873941E+02  0.0000000E+00
Ar  937  0.1067614E+02  0.1590699E+02  0.2155071E+02  0.0000000E+00
Ar  938  0.1326800E+02  0.1885906E+02  0.2134540E+02  0.0000000E+00
Ar  939  0.1340897E+02  0.1625055E+02  0.2397188E+02  0.0000000E+00
Ar  940  0.1057855E+02  0.1872774E+02  0.2417169E+02  0.0000000E+00
Ar  941  0.1089025E+02  0.1595956E+02  0.2681778E+02  0.0000000E+00
Ar  942  0.1349809E+02  0.1881028E+02  0.2673984E+02  0.0000000E+00
Ar  943  0.1326961E+02  0.1629197E+02  0.2947558E+02  0.0000000E+00
Ar  944  0.1063961E+02  0.1886363E+02  0.2969440E+02  0.0000000E+00
Ar  945  0.1082019E+02  0.1617088E+02  0.3228473E+02  0.0000000E+00
Ar  946  0.1334671E+02  0.1891961E+02  0.3216267E+02  0.0000000E+00
Ar  947  0.1355009E+02  0.1620452E+02  0.3514918E+02  0.0000000E+00
Ar  948  0.1075479E+02  0.1922005E+02  0.3493009E+02  0.0000000E+00
Ar  949  0.1054365E+02  0.1590270E+02  0.3775250E+02  0.0000000E+00
Ar  950  0.1348045E+02  0.1903733E+02  0.3786554E+02  0.0000000E+00
Ar  951  0.1336822E+02  0.1621900E+02  0.4024568E+02  0.0000000E+00
Ar  952  0.1083124E+02  0.1893507E+02  0.4025722E+02  0.0000000E+00
Ar  953  0.1099037E+02  0.1634806E+02  0.4282615E+02  0.0000000E+00
Ar  954  0.1359295E+02  0.1902316E+02  0.4286920E+02  0.0000000E+00
Ar  955  0.1343672E+02  0.1634150E+02  0.4536065E+02  0.0000000E+00
Ar  956  0.1076607E+02  0.1910065E+02  0.4537398E+02  0.0000000E+00
Ar  957  0.1072680E+02  0.1599493E+02  0.4858837E+02  0.0000000E+00
Ar  958  0.1349924E+02  0.1906089E+02  0.4800267E+02  0.0000000E+00
Ar  959  0.1365277E+02  0.1634854E+02  0.5105701E+02  0.0000000E+00
Ar  960  0.1091983E+02  0.1889083E+02  0.5085480E+02  0.0000000E+00
Ar  961  0.1061936E+02  0.2118682E+02  0.3389278E-01  0.0000000E+00
Ar  962  0.1334892E+02  0.2386296E+02  0.5365231E+02  0.0000000E+00
Ar  963  0.1339076E+02  0.2151045E+02  0.2548884E+01  0.0000000E+00
Ar  964  0.1074315E+02  0.2410942E+02  0.2477011E+01  0.0000000E+00
Ar  965  0.1078330E+02  0.2159044E+02  0.5210160E+01  0.0000000E+00
Ar  966  0.1326680E+02  0.2412011E+02  0.5190486E+01  0.0000000E+00
Ar  967  0.1331437E+02  0.2142249E+02  0.7810642E+01  0.0000000E+00
Ar  968  0.1074951E+02  0.2398418E+02  0.8016523E+01  0.0000000E+00
Ar  969  0.1052482E+02  0.2099736E+02  0.1052482E+02  0.0000000E+00
Ar  970  0.1347050E+02  0.2418266E+02  0.1081693E+02  0.0000000E+00
Ar  971  0.1322212E+02  0.2123283E+02  0.1322212E+02  0.0000000E+00
Ar  972  0.1081694E+02  0.2418266E+02  0.1347050E+02  0.0000000E+00
Ar  973  0.1067614E+02  0.2155071E+02  0.1590699E+02  0.0000000E+00
Ar  974  0.1340897E+02  0.2397188E+02  0.1625055E+02  0.0000000E+00
Ar  975  0.1326800E+02  0.2134540E+02  0.1885906E+02  0.0000000E+00
Ar  976  0.1057855E+02  0.2417169E+02  0.1872774E+02  0.0000000E+00
Ar  977  0.1042786E+02  0.2151127E+02  0.2151127E+02  0.0000000E+00
Ar  978  0.1328359E+02  0.2401336E+02  0.2124073E+02  0.0000000E+00
Ar  979  0.1328359E+02  0.2124074E+02  0.2401336E+02  0.0000000E+00
Ar  980  0.1071096E+02  0.2441873E+02  0.2441873E+02  0.0000000E+00
Ar  981  0.1071412E+02  0.2171733E+02  0.2692347E+02  0.0000000E+00
Ar  982  0.1342966E+02  0.2414884E+02  0.2705328E+02  0.0000000E+00
Ar  983  0.1335835E+02  0.2162474E+02  0.2959504E+02  0.0000000E+00
Ar  984  0.1068793E+02  0.2425637E+02  0.2960924E+02  0.0000000E+00
Ar  985  0.1067601E+02  0.2166927E+02  0.3219055E+02  0.0000000E+00
Ar  986  0.1338804E+02  0.2450707E+02  0.3229871E+02  0.0000000E+00
Ar  987  0.1355210E+02  0.2150376E+02  0.3499846E+02  0.0000000E+00
Ar  988  0.1085564E+02  0.2429247E+02  0.3501820E+02  0.0000000E+00
Ar  989  0.1102981E+02  0.2160913E+02  0.3767676E+02  0.0000000E+00
Ar  990  0.1367976E+02  0.2439529E+02  0.3765583E+02  0.0000000E+00
Ar  991  0.1353060E+02  0.2165023E+02  0.4041222E+02  0.0000000E+00
Ar  992  0.1069489E+02  0.2452782E+02  0.4054676E+02  0.0000000E+00
Ar  993  0.1087633E+02  0.2167511E+02  0.4291777E+02  0.0000000E+00
Ar  994  0.1341750E+02  0.2429079E+02  0.4300166E+02  0.0000000E+00
Ar  995  0.1355498E+02  0.2173172E+02  0.4575404E+02  0.0000000E+00
Ar  996  0.1074739E+02  0.2451143E+02  0.4581935E+02  0.0000000E+00
Ar  997  0.1089055E+02  0.2179790E+02  0.4838636E+02  0.0000000E+00
Ar  998  0.1374429E+02  0.2422228E+02  0.4854015E+02  0.0000000E+00
Ar  999  0.1355253E+02  0.2153860E+02  0.5103098E+02  0.0000000E+00
Ar 1000  0.1087027E+02  0.2414951E+02  0.5122264E+02  0.0000000E+00
Ar 1001  0.1078324E+02  0.2705164E+02  0.5367357E+02  0.0000000E+00
Ar 1002  0.1381143E+02  0.2976739E+02  0.3219499E+00  0.0000000E+00
Ar 1003  0.1355282E+02  0.2655603E+02  0.2457258E+01  0.0000000E+00
Ar 1004  0.1095697E+02  0.2950439E+02  0.3117589E+01  0.0000000E+00
Ar 1005  0.1084502E+02  0.2682981E+02  0.5654994E+01  0.0000000E+00
Ar 1006  0.1364697E+02  0.2959297E+02  0.5687793E+01  0.0000000E+00
Ar 1007  0.1346007E+02  0.2670811E+02  0.8096953E+01  0.0000000E+00
Ar 1008  0.1081382E+02  0.2967211E+02  0.7969026E+01  0.0000000E+00
Ar 1009  0.1065048E+02  0.2694294E+02  0.1065048E+02  0.0000000E+00
Ar 1010  0.1338668E+02  0.2941977E+02  0.1067372E+02  0.0000000E+00
Ar 1011  0.1334955E+02  0.2674537E+02  0.1334955E+02  0.0000000E+00
Ar 1012  0.1067372E+02  0.2941977E+02  0.1338668E+02  0.0000000E+00
Ar 1013  0.1089025E+02  0.2681778E+02  0.1595956E+02  0.0000000E+00
Ar 1014  0.1326961E+02  0.2947558E+02  0.1629196E+02  0.0000000E+00
Ar 1015  0.1349809E+02  0.2673984E+02  0.1881028E+02  0.0000000E+00
Ar 1016  0.1063961E+02  0.2969440E+02  0.1886363E+02  0.0000000E+00
Ar 1017  0.1071412E+02  0.2692348E+02  0.2171733E+02  0.0000000E+00
Ar 1018  0.1335835E+02  0.2959504E+02  0.2162474E+02  0.0000000E+00
Ar 1019  0.1342965E+02  0.2705328E+02  0.2414884E+02  0.0000000E+00
Ar 1020  0.1068793E+02  0.2960924E+02  0.2425637E+02  0.0000000E+00
Ar 1021  0.1080363E+02  0.2718191E+02  0.2718191E+02  0.0000000E+00
Ar 1022  0.1338514E+02  0.2983656E+02  0.2708669E+02  0.0000000E+00
Ar 1023  0.1338514E+02  0.2708669E+02  0.2983657E+02  0.0000000E+00
Ar 1024  0.1062848E+02  0.2972309E+02  0.2972309E+02  0.0000000E+00
Ar 1025  0.1071500E+02  0.2682626E+02  0.3214042E+02  0.0000000E+00
Ar 1026  0.1367593E+02  0.2953872E+02  0.3238088E+02  0.0000000E+00
Ar 1027  0.1371814E+02  0.2679720E+02  0.3496753E+02  0.0000000E+00
Ar 1028  0.1087635E+02  0.2960180E+02  0.3492408E+02  0.0000000E+00
Ar 1029  0.1079304E+02  0.2714111E+02  0.3744294E+02  0.0000000E+00
Ar 1030  0.1373582E+02  0.2948923E+02  0.3765140E+02  0.0000000E+00
Ar 1031  0.1377913E+02  0.2682584E+02  0.4031190E+02  0.0000000E+00
Ar 1032  0.1079694E+02  0.2955446E+02  0.4028941E+02  0.0000000E+00
Ar 1033  0.1091523E+02  0.2702421E+02  0.4293346E+02  0.0000000E+00
Ar 1034  0.1376430E+02  0.2966663E+02  0.4293292E+02  0.0000000E+00
Ar 1035  0.1345526E+02  0.2698994E+02  0.4580847E+02  0.0000000E+00
Ar 1036  0.1109120E+02  0.2969142E+02  0.4553372E+02  0.0000000E+00
Ar 1037  0.1072135E+02  0.2658382E+02  0.4858072E+02  0.0000000E+00
Ar 1038  0.1351806E+02  0.2985170E+02  0.4858071E+02  0.0000000E+00
Ar 1039  0.1370459E+02  0.2705209E+02  0.5129293E+02  0.0000000E+00
Ar 1040  0.1094358E+02  0.2973127E+02  0.5110083E+02  0.0000000E+00
Ar 1041  0.1094003E+02  0.3225239E+02  0.8423973E-01  0.0000000E+00
Ar 1042  0.1340703E+02  0.3514638E+02  0.3784179E+00  0.0000000E+00
Ar 1043  0.1367929E+02  0.3237002E+02  0.2959274E+01  0.0000000E+00
Ar 1044  0.1091390E+02  0.3493243E+02  0.2921279E+01  0.0000000E+00
Ar 1045  0.1098094E+02  0.3242117E+02  0.5469079E+01  0.0000000E+00
Ar 1046  0.1361109E+02  0.3513624E+02  0.5500757E+01  0.0000000E+00
Ar 1047  0.1346455E+02  0.3231188E+02  0.8145958E+01  0.0000000E+00
Ar 1048  0.1076016E+02  0.3518446E+02  0.8284227E+01  0.0000000E+00
Ar 1049  0.1087736E+02  0.3228128E+02  0.1087736E+02  0.0000000E+00
Ar 1050  0.1350521E+02  0.3492886E+02  0.1087401E+02  0.0000000E+00
Ar 1051  0.1350535E+02  0.3236104E+02  0.1350537E+02  0.0000000E+00
Ar 1052  0.1087400E+02  0.3492886E+02  0.1350521E+02  0.0000000E+00
Ar 1053  0.1082018E+02  0.3228473E+02  0.1617088E+02  0.0000000E+00
Ar 1054  0.1355009E+02  0.3514918E+02  0.1620452E+02  0.0000000E+00
Ar 1055  0.1334671E+02  0.3216267E+02  0.1891961E+02  0.0000000E+00
Ar 1056  0.1075479E+02  0.3493009E+02  0.1922005E+02  0.0000000E+00
Ar 1057  0.1067601E+02  0.3219055E+02  0.2166927E+02  0.0000000E+00
Ar 1058  0.1355210E+02  0.3499846E+02  0.2150376E+02  0.0000000E+00
Ar 1059  0.1338804E+02  0.3229871E+02  0.2450707E+02  0.0000000E+00
Ar 1060  0.1085564E+02  0.3501820E+02  0.2429247E+02  0.0000000E+00
Ar 1061  0.1071500E+02  0.3214042E+02  0.2682626E+02  0.0000000E+00
Ar 1062  0.1371814E+02  0.3496753E+02  0.2679720E+02  0.0000000E+00
Ar 1063  0.1367593E+02  0.3238088E+02  0.2953872E+02  0.0000000E+00
Ar 1064  0.1087635E+02  0.3492408E+02  0.2960180E+02  0.0000000E+00
Ar 1065  0.1121714E+02  0.3241885E+02  0.3241885E+02  0.0000000E+00
Ar 1066  0.1357100E+02  0.3505317E+02  0.3225465E+02  0.0000000E+00
Ar 1067  0.1357100E+02  0.3225464E+02  0.3505317E+02  0.0000000E+00
Ar 1068  0.1100088E+02  0.3505621E+02  0.3505621E+02  0.0000000E+00
Ar 1069  0.1084461E+02  0.3223004E+02  0.3758600E+02  0.0000000E+00
Ar 1070  0.1355700E+02  0.3521889E+02  0.3771616E+02  0.0000000E+00
Ar 1071  0.1367421E+02  0.3237669E+02  0.4015007E+02  0.0000000E+00
Ar 1072  0.1105712E+02  0.3490166E+02  0.4041519E+02  0.0000000E+00
Ar 1073  0.1094365E+02  0.3237245E+02  0.4306647E+02  0.0000000E+00
Ar 1074  0.1380863E+02  0.3509773E+02  0.4288824E+02  0.0000000E+00
Ar 1075  0.1369984E+02  0.3251092E+02  0.4567833E+02  0.0000000E+00
Ar 1076  0.1117093E+02  0.3522144E+02  0.4580827E+02  0.0000000E+00
Ar 1077  0.1108564E+02  0.3244249E+02  0.4829735E+02  0.0000000E+00
Ar 1078  0.1367123E+02  0.3509915E+02  0.4863765E+02  0.0000000E+00
Ar 1079  0.1360315E+02  0.3246182E+02  0.5127577E+02  0.0000000E+00
Ar 1080  0.1091721E+02  0.3512110E+02  0.5109674E+02  0.0000000E+00
Ar 1081  0.1078969E+02  0.3790122E+02  0.2178104E+00  0.0000000E+00
Ar 1082  0.1366404E+02  0.4030636E+02  0.5700463E-01  0.0000000E+00
Ar 1083  0.1319541E+02  0.3765994E+02  0.3124653E+01  0.0000000E+00
Ar 1084  0.1084747E+02  0.4039202E+02  0.3011299E+01  0.0000000E+00
Ar 1085  0.1063929E+02  0.3788209E+02  0.5545961E+01  0.0000000E+00
Ar 1086  0.1347877E+02  0.4040027E+02  0.5461777E+01  0.0000000E+00
Ar 1087  0.1344496E+02  0.3757478E+02  0.7835219E+01  0.0000000E+00
Ar 1088  0.1078543E+02  0.4041144E+02  0.8212602E+01  0.0000000E+00
Ar 1089  0.1085051E+02  0.3778384E+02  0.1085051E+02  0.0000000E+00
Ar 1090  0.1348158E+02  0.4036352E+02  0.1077975E+02  0.0000000E+00
Ar 1091  0.1356689E+02  0.3783221E+02  0.1356689E+02  0.0000000E+00
Ar 1092  0.1077975E+02  0.4036352E+02  0.1348158E+02  0.0000000E+00
Ar 1093  0.1054365E+02  0.3775250E+02  0.1590270E+02  0.0000000E+00
Ar 1094  0.1336822E+02  0.4024568E+02  0.1621900E+02  0.0000000E+00
Ar 1095  0.1348044E+02  0.3786554E+02  0.1903733E+02  0.0000000E+00
Ar 1096  0.1083124E+02  0.4025722E+02  0.1893507E+02  0.0000000E+00
Ar 1097  0.1102981E+02  0.3767677E+02  0.2160913E+02  0.0000000E+00
Ar 1098  0.1353061E+02  0.4041223E+02  0.2165023E+02  0.0000000E+00
Ar 1099  0.1367976E+02  0.3765584E+02  0.2439529E+02  0.0000000E+00
Ar 1100  0.1069489E+02  0.4054676E+02  0.2452782E+02  0.0000000E+00
Ar 1101  0.1079304E+02  0.3744295E+02  0.2714111E+02  0.0000000E+00
Ar 1102  0.1377913E+02  0.4031190E+02  0.2682584E+02  0.0000000E+00
Ar 1103  0.1373582E+02  0.3765140E+02  0.2948923E+02  0.0000000E+00
Ar 1104  0.1079694E+02  0.4028941E+02  0.2955447E+02  0.0000000E+00
Ar 1105  0.1084461E+02  0.3758600E+02  0.3223004E+02  0.0000000E+00
Ar 1106  0.1367421E+02  0.4015006E+02  0.3237669E+02  0.0000000E+00
Ar 1107  0.1355700E+02  0.3771617E+02  0.3521889E+02  0.0000000E+00
Ar 1108  0.1105712E+02  0.4041519E+02  0.3490166E+02  0.0000000E+00
Ar 1109  0.1097580E+02  0.3758221E+02  0.3758221E+02  0.0000000E+00
Ar 1110  0.1394896E+02  0.4033506E+02  0.3779604E+02  0.0000000E+00
Ar 1111  0.1394895E+02  0.3779604E+02  0.4033506E+02  0.0000000E+00
Ar 1112  0.1120954E+02  0.4007272E+02  0.4007272E+02  0.0000000E+00
Ar 1113  0.1073091E+02  0.3766320E+02  0.4296549E+02  0.0000000E+00
Ar 1114  0.1358575E+02  0.4055130E+02  0.4308727E+02  0.0000000E+00
Ar 1115  0.1370769E+02  0.3794991E+02  0.4569182E+02  0.0000000E+00
Ar 1116  0.1109311E+02  0.4063601E+02  0.4585962E+02  0.0000000E+00
Ar 1117  0.1096574E+02  0.3815196E+02  0.4854180E+02  0.0000000E+00
Ar 1118  0.1344485E+02  0.4046995E+02  0.4842929E+02  0.0000000E+00
Ar 1119  0.1357712E+02  0.3767938E+02  0.5114210E+02  0.0000000E+00
Ar 1120  0.1076545E+02  0.4044573E+02  0.5133386E+02  0.0000000E+00
Ar 1121  0.1083660E+02  0.4323124E+02  0.4786444E+00  0.0000000E+00
Ar 1122  0.1344998E+02  0.4584793E+02  0.5372984E+02  0.0000000E+00
Ar 1123  0.1365185E+02  0.4299011E+02  0.2837374E+01  0.0000000E+00
Ar 1124  0.1108667E+02  0.4588582E+02  0.2860038E+01  0.0000000E+00
Ar 1125  0.1094157E+02  0.4284141E+02  0.5451653E+01  0.0000000E+00
Ar 1126  0.1376097E+02  0.4556577E+02  0.5302304E+01  0.0000000E+00
Ar 1127  0.1340170E+02  0.4315490E+02  0.8190175E+01  0.0000000E+00
Ar 1128  0.1083178E+02  0.4554635E+02  0.7882898E+01  0.0000000E+00
Ar 1129  0.1085456E+02  0.4296235E+02  0.1085456E+02  0.0000000E+00
Ar 1130  0.1347922E+02  0.4573761E+02  0.1086161E+02  0.0000000E+00
Ar 1131  0.1348545E+02  0.4272831E+02  0.1348545E+02  0.0000000E+00
Ar 1132  0.1086161E+02  0.4573761E+02  0.1347922E+02  0.0000000E+00
Ar 1133  0.1099036E+02  0.4282615E+02  0.1634805E+02  0.0000000E+00
Ar 1134  0.1343671E+02  0.4536065E+02  0.1634150E+02  0.0000000E+00
Ar 1135  0.1359295E+02  0.4286920E+02  0.1902316E+02  0.0000000E+00
Ar 1136  0.1076607E+02  0.4537398E+02  0.1910065E+02  0.0000000E+00
Ar 1137  0.1087633E+02  0.4291777E+02  0.2167511E+02  0.0000000E+00
Ar 1138  0.1355497E+02  0.4575404E+02  0.2173172E+02  0.0000000E+00
Ar 1139  0.1341749E+02  0.4300166E+02  0.2429079E+02  0.0000000E+00
Ar 1140  0.1074739E+02  0.4581936E+02  0.2451143E+02  0.0000000E+00
Ar 1141  0.1091523E+02  0.4293346E+02  0.2702421E+02  0.0000000E+00
Ar 1142  0.1345526E+02  0.4580847E+02  0.2698994E+02  0.0000000E+00
Ar 1143  0.1376430E+02  0.4293292E+02  0.2966663E+02  0.0000000E+00
Ar 1144  0.1109120E+02  0.4553372E+02  0.2969142E+02  0.0000000E+00
Ar 1145  0.1094365E+02  0.4306647E+02  0.3237245E+02  0.0000000E+00
Ar 1146  0.1369984E+02  0.4567833E+02  0.3251092E+02  0.0000000E+00
Ar 1147  0.1380863E+02  0.4288825E+02  0.3509773E+02  0.0000000E+00
Ar 1148  0.1117093E+02  0.4580827E+02  0.3522144E+02  0.0000000E+00
Ar 1149  0.1073091E+02  0.4296549E+02  0.3766320E+02  0.0000000E+00
Ar 1150  0.1370769E+02  0.4569182E+02  0.3794991E+02  0.0000000E+00
Ar 1151  0.1358575E+02  0.4308727E+02  0.4055130E+02  0.0000000E+00
Ar 1152  0.1109310E+02  0.4585962E+02  0.4063601E+02  0.0000000E+00
Ar 1153  0.1084655E+02  0.4308149E+02  0.4308149E+02  0.0000000E+00
Ar 1154  0.1368936E+02  0.4573688E+02  0.4320539E+02  0.0000000E+00
Ar 1155  0.1368936E+02  0.4320539E+02  0.4573688E+02  0.0000000E+00
Ar 1156  0.1071441E+02  0.4549375E+02  0.4549375E+02  0.0000000E+00
Ar 1157  0.1078260E+02  0.4313785E+02  0.4839330E+02  0.0000000E+00
Ar 1158  0.1329113E+02  0.4563367E+02  0.4848119E+02  0.0000000E+00
Ar 1159  0.1324621E+02  0.4301284E+02  0.5102596E+02  0.0000000E+00
Ar 1160  0.1067725E+02  0.4582527E+02  0.5132641E+02  0.0000000E+00
Ar 1161  0.1046094E+02  0.4856299E+02  0.5370913E+02  0.0000000E+00
Ar 1162  0.1349748E+02  0.5139184E+02  0.1359974E+00  0.0000000E+00
Ar 1163  0.1349337E+02  0.4856057E+02  0.2478728E+01  0.0000000E+00
Ar 1164  0.1086480E+02  0.5126792E+02  0.2518624E+01  0.0000000E+00
Ar 1165  0.1098185E+02  0.4875711E+02  0.5135701E+01  0.0000000E+00
Ar 1166  0.1366335E+02  0.5123286E+02  0.5477672E+01  0.0000000E+00
Ar 1167  0.1350164E+02  0.4848058E+02  0.7985098E+01  0.0000000E+00
Ar 1168  0.1066483E+02  0.5114399E+02  0.8007793E+01  0.0000000E+00
Ar 1169  0.1048103E+02  0.4853069E+02  0.1048103E+02  0.0000000E+00
Ar 1170  0.1324785E+02  0.5097920E+02  0.1061855E+02  0.0000000E+00
Ar 1171  0.1384964E+02  0.4803776E+02  0.1384964E+02  0.0000000E+00
Ar 1172  0.1061855E+02  0.5097921E+02  0.1324786E+02  0.0000000E+00
Ar 1173  0.1072680E+02  0.4858838E+02  0.1599493E+02  0.0000000E+00
Ar 1174  0.1365276E+02  0.5105701E+02  0.1634854E+02  0.0000000E+00
Ar 1175  0.1349924E+02  0.4800267E+02  0.1906089E+02  0.0000000E+00
Ar 1176  0.1091983E+02  0.5085480E+02  0.1889083E+02  0.0000000E+00
Ar 1177  0.1089055E+02  0.4838637E+02  0.2179790E+02  0.0000000E+00
Ar 1178  0.1355253E+02  0.5103098E+02  0.2153859E+02  0.0000000E+00
Ar 1179  0.1374429E+02  0.4854016E+02  0.2422228E+02  0.0000000E+00
Ar 1180  0.1087027E+02  0.5122265E+02  0.2414951E+02  0.0000000E+00
Ar 1181  0.1072134E+02  0.4858073E+02  0.2658381E+02  0.0000000E+00
Ar 1182  0.1370459E+02  0.5129293E+02  0.2705208E+02  0.0000000E+00
Ar 1183  0.1351806E+02  0.4858071E+02  0.2985169E+02  0.0000000E+00
Ar 1184  0.1094357E+02  0.5110084E+02  0.2973128E+02  0.0000000E+00
Ar 1185  0.1108564E+02  0.4829735E+02  0.3244250E+02  0.0000000E+00
Ar 1186  0.1360315E+02  0.5127577E+02  0.3246182E+02  0.0000000E+00
Ar 1187  0.1367122E+02  0.4863765E+02  0.3509915E+02  0.0000000E+00
Ar 1188  0.1091721E+02  0.5109674E+02  0.3512110E+02  0.0000000E+00
Ar 1189  0.1096574E+02  0.4854180E+02  0.3815196E+02  0.0000000E+00
Ar 1190  0.1357712E+02  0.5114211E+02  0.3767938E+02  0.0000000E+00
Ar 1191  0.1344485E+02  0.4842930E+02  0.4046995E+02  0.0000000E+00
Ar 1192  0.1076545E+02  0.5133386E+02  0.4044573E+02  0.0000000E+00
Ar 1193  0.1078259E+02  0.4839330E+02  0.4313785E+02  0.0000000E+00
Ar 1194  0.1324621E+02  0.5102596E+02  0.4301284E+02  0.0000000E+00
Ar 1195  0.1329113E+02  0.4848119E+02  0.4563367E+02  0.0000000E+00
Ar 1196  0.1067725E+02  0.5132641E+02  0.4582526E+02  0.0000000E+00
Ar 1197  0.1074537E+02  0.4832695E+02  0.4832695E+02  0.0000000E+00
Ar 1198  0.1348710E+02  0.5116107E+02  0.4833026E+02  0.0000000E+00
Ar 1199  0.1348710E+02  0.4833025E+02  0.5116107E+02  0.0000000E+00
Ar 1200  0.1081772E+02  0.5098907E+02  0.5098907E+02  0.0000000E+00
Ar 1201  0.1636277E+02  0.5363908E+02  0.5363908E+02  0.0000000E+00
Ar 1202  0.1893621E+02  0.2909963E+01  0.2019405E+00  0.0000000E+00
Ar 1203  0.1893621E+02  0.2019396E+00  0.2909965E+01  0.0000000E+00
Ar 1204  0.1602719E+02  0.2827189E+01  0.2827191E+01  0.0000000E+00
Ar 1205  0.1627090E+02  0.1664999E+00  0.5473620E+01  0.0000000E+00
Ar 1206  0.1876567E+02  0.2878309E+01  0.5599668E+01  0.0000000E+00
Ar 1207  0.1871584E+02  0.5342359E+02  0.8339538E+01  0.0000000E+00
Ar 1208  0.1612652E+02  0.2512803E+01  0.8042907E+01  0.0000000E+00
Ar 1209  0.1599579E+02  0.7298581E-01  0.1062018E+02  0.0000000E+00
Ar 1210  0.1886105E+02  0.2768193E+01  0.1061754E+02  0.0000000E+00
Ar 1211  0.1872319E+02  0.7531260E-01  0.1348546E+02  0.0000000E+00
Ar 1212  0.1589550E+02  0.2413884E+01  0.1344630E+02  0.0000000E+00
Ar 1213  0.1648416E+02  0.5362519E+02  0.1648416E+02  0.0000000E+00
Ar 1214  0.1878197E+02  0.2625766E+01  0.1611620E+02  0.0000000E+00
Ar 1215  0.1894399E+02  0.7451450E-01  0.1894400E+02  0.0000000E+00
Ar 1216  0.1611620E+02  0.2625762E+01  0.1878197E+02  0.0000000E+00
Ar 1217  0.1611792E+02  0.7193480E-01  0.2118017E+02  0.0000000E+00
Ar 1218  0.1872732E+02  0.2738249E+01  0.2166600E+02  0.0000000E+00
Ar 1219  0.1888070E+02  0.2072595E+00  0.2405769E+02  0.0000000E+00
Ar 1220  0.1591325E+02  0.2603822E+01  0.2390319E+02  0.0000000E+00
Ar 1221  0.1638756E+02  0.3026720E+00  0.2684579E+02  0.0000000E+00
Ar 1222  0.1881161E+02  0.2840391E+01  0.2710742E+02  0.0000000E+00
Ar 1223  0.1883717E+02  0.7119837E-01  0.2972327E+02  0.0000000E+00
Ar 1224  0.1620644E+02  0.2881935E+01  0.2983221E+02  0.0000000E+00
Ar 1225  0.1622560E+02  0.5370821E+02  0.3260161E+02  0.0000000E+00
Ar 1226  0.1892813E+02  0.2706046E+01  0.3244573E+02  0.0000000E+00
Ar 1227  0.1888615E+02  0.5351611E+02  0.3483446E+02  0.0000000E+00
Ar 1228  0.1607778E+02  0.2725308E+01  0.3511024E+02  0.0000000E+00
Ar 1229  0.1629973E+02  0.9646907E-01  0.3762241E+02  0.0000000E+00
Ar 1230  0.1878709E+02  0.2753013E+01  0.3739397E+02  0.0000000E+00
Ar 1231  0.1887596E+02  0.1323131E+00  0.4017412E+02  0.0000000E+00
Ar 1232  0.1628331E+02  0.2782663E+01  0.4018317E+02  0.0000000E+00
Ar 1233  0.1607644E+02  0.1344341E+00  0.4282672E+02  0.0000000E+00
Ar 1234  0.1883528E+02  0.2786849E+01  0.4295149E+02  0.0000000E+00
Ar 1235  0.1889176E+02  0.5374695E+02  0.4568429E+02  0.0000000E+00
Ar 1236  0.1620726E+02  0.2248060E+01  0.4589620E+02  0.0000000E+00
Ar 1237  0.1618015E+02  0.5344358E+02  0.4864331E+02  0.0000000E+00
Ar 1238  0.1873069E+02  0.2880141E+01  0.4841130E+02  0.0000000E+00
Ar 1239  0.1920956E+02  0.5375754E+02  0.5119368E+02  0.0000000E+00
Ar 1240  0.1618947E+02  0.2813075E+01  0.5123386E+02  0.0000000E+00
Ar 1241  0.1627090E+02  0.5473617E+01  0.1664997E+00  0.0000000E+00
Ar 1242  0.1871584E+02  0.8339537E+01  0.5342359E+02  0.0000000E+00
Ar 1243  0.1876567E+02  0.5599665E+01  0.2878311E+01  0.0000000E+00
Ar 1244  0.1612652E+02  0.8042906E+01  0.2512801E+01  0.0000000E+00
Ar 1245  0.1613021E+02  0.5575771E+01  0.5575770E+01  0.0000000E+00
Ar 1246  0.1875249E+02  0.8251485E+01  0.5391578E+01  0.0000000E+00
Ar 1247  0.1875249E+02  0.5391580E+01  0.8251486E+01  0.0000000E+00
Ar 1248  0.1593893E+02  0.8335439E+01  0.8335440E+01  0.0000000E+00
Ar 1249  0.1595224E+02  0.5274084E+01  0.1048155E+02  0.0000000E+00
Ar 1250  0.1849111E+02  0.8001573E+01  0.1070378E+02  0.0000000E+00
Ar 1251  0.1870030E+02  0.5225702E+01  0.1339835E+02  0.0000000E+00
Ar 1252  0.1599977E+02  0.7914780E+01  0.1331793E+02  0.0000000E+00
Ar 1253  0.1574204E+02  0.5509270E+01  0.1574204E+02  0.0000000E+00
Ar 1254  0.1893895E+02  0.7956938E+01  0.1609715E+02  0.0000000E+00
Ar 1255  0.1886790E+02  0.5391466E+01  0.1886790E+02  0.0000000E+00
Ar 1256  0.1609714E+02  0.7956939E+01  0.1893895E+02  0.0000000E+00
Ar 1257  0.1606077E+02  0.5378745E+01  0.2176434E+02  0.0000000E+00
Ar 1258  0.1848223E+02  0.7928322E+01  0.2159546E+02  0.0000000E+00
Ar 1259  0.1879324E+02  0.5297872E+01  0.2423545E+02  0.0000000E+00
Ar 1260  0.1600054E+02  0.8009153E+01  0.2417966E+02  0.0000000E+00
Ar 1261  0.1590735E+02  0.5098628E+01  0.2690046E+02  0.0000000E+00
Ar 1262  0.1846514E+02  0.8029009E+01  0.2688361E+02  0.0000000E+00
Ar 1263  0.1897091E+02  0.5438067E+01  0.2947733E+02  0.0000000E+00
Ar 1264  0.1603090E+02  0.8269798E+01  0.2946129E+02  0.0000000E+00
Ar 1265  0.1622417E+02  0.5519799E+01  0.3222456E+02  0.0000000E+00
Ar 1266  0.1908561E+02  0.8110967E+01  0.3211890E+02  0.0000000E+00
Ar 1267  0.1887313E+02  0.5347857E+01  0.3482644E+02  0.0000000E+00
Ar 1268  0.1626217E+02  0.8027672E+01  0.3506461E+02  0.0000000E+00
Ar 1269  0.1607967E+02  0.5468967E+01  0.3782610E+02  0.0000000E+00
Ar 1270  0.1900679E+02  0.7869180E+01  0.3803352E+02  0.0000000E+00
Ar 1271  0.1880797E+02  0.5402106E+01  0.4054834E+02  0.0000000E+00
Ar 1272  0.1623789E+02  0.8159566E+01  0.4057902E+02  0.0000000E+00
Ar 1273  0.1606260E+02  0.5360526E+01  0.4282359E+02  0.0000000E+00
Ar 1274  0.1888705E+02  0.8014205E+01  0.4295699E+02  0.0000000E+00
Ar 1275  0.1860415E+02  0.5470612E+01  0.4560420E+02  0.0000000E+00
Ar 1276  0.1605760E+02  0.8079449E+01  0.4518951E+02  0.0000000E+00
Ar 1277  0.1606076E+02  0.5497725E+01  0.4837889E+02  0.0000000E+00
Ar 1278  0.1878443E+02  0.8108397E+01  0.4839236E+02  0.0000000E+00
Ar 1279  0.1874765E+02  0.5451254E+01  0.5125207E+02  0.0000000E+00
Ar 1280  0.1617525E+02  0.8146168E+01  0.5104878E+02  0.0000000E+00
Ar 1281  0.1599579E+02  0.1062017E+02  0.7298487E-01  0.0000000E+00
Ar 1282  0.1872319E+02  0.1348546E+02  0.7531181E-01  0.0000000E+00
Ar 1283  0.1886105E+02  0.1061754E+02  0.2768193E+01  0.0000000E+00
Ar 1284  0.1589550E+02  0.1344630E+02  0.2413884E+01  0.0000000E+00
Ar 1285  0.1595224E+02  0.1048155E+02  0.5274084E+01  0.0000000E+00
Ar 1286  0.1870030E+02  0.1339835E+02  0.5225702E+01  0.0000000E+00
Ar 1287  0.1849111E+02  0.1070378E+02  0.8001572E+01  0.0000000E+00
Ar 1288  0.1599977E+02  0.1331793E+02  0.7914781E+01  0.0000000E+00
Ar 1289  0.1586803E+02  0.1080680E+02  0.1080680E+02  0.0000000E+00
Ar 1290  0.1844399E+02  0.1340176E+02  0.1072315E+02  0.0000000E+00
Ar 1291  0.1844399E+02  0.1072315E+02  0.1340176E+02  0.0000000E+00
Ar 1292  0.1603118E+02  0.1343687E+02  0.1343687E+02  0.0000000E+00
Ar 1293  0.1619384E+02  0.1091596E+02  0.1619384E+02  0.0000000E+00
Ar 1294  0.1884280E+02  0.1337968E+02  0.1626488E+02  0.0000000E+00
Ar 1295  0.1873941E+02  0.1053146E+02  0.1873941E+02  0.0000000E+00
Ar 1296  0.1626488E+02  0.1337968E+02  0.1884280E+02  0.0000000E+00
Ar 1297  0.1590699E+02  0.1067615E+02  0.2155071E+02  0.0000000E+00
Ar 1298  0.1885906E+02  0.1326801E+02  0.2134540E+02  0.0000000E+00
Ar 1299  0.1872774E+02  0.1057855E+02  0.2417169E+02  0.0000000E+00
Ar 1300  0.1625055E+02  0.1340897E+02  0.2397188E+02  0.0000000E+00
Ar 1301  0.1595956E+02  0.1089026E+02  0.2681778E+02  0.0000000E+00
Ar 1302  0.1881028E+02  0.1349809E+02  0.2673984E+02  0.0000000E+00
Ar 1303  0.1886363E+02  0.1063961E+02  0.2969440E+02  0.0000000E+00
Ar 1304  0.1629197E+02  0.1326961E+02  0.2947558E+02  0.0000000E+00
Ar 1305  0.1617088E+02  0.1082018E+02  0.3228473E+02  0.0000000E+00
Ar 1306  0.1891961E+02  0.1334671E+02  0.3216267E+02  0.0000000E+00
Ar 1307  0.1922005E+02  0.1075479E+02  0.3493008E+02  0.0000000E+00
Ar 1308  0.1620453E+02  0.1355009E+02  0.3514918E+02  0.0000000E+00
Ar 1309  0.1590271E+02  0.1054364E+02  0.3775250E+02  0.0000000E+00
Ar 1310  0.1903734E+02  0.1348045E+02  0.3786554E+02  0.0000000E+00
Ar 1311  0.1893507E+02  0.1083124E+02  0.4025721E+02  0.0000000E+00
Ar 1312  0.1621900E+02  0.1336822E+02  0.4024568E+02  0.0000000E+00
Ar 1313  0.1634806E+02  0.1099037E+02  0.4282615E+02  0.0000000E+00
Ar 1314  0.1902316E+02  0.1359296E+02  0.4286920E+02  0.0000000E+00
Ar 1315  0.1910065E+02  0.1076606E+02  0.4537398E+02  0.0000000E+00
Ar 1316  0.1634150E+02  0.1343671E+02  0.4536064E+02  0.0000000E+00
Ar 1317  0.1599492E+02  0.1072680E+02  0.4858837E+02  0.0000000E+00
Ar 1318  0.1906089E+02  0.1349923E+02  0.4800267E+02  0.0000000E+00
Ar 1319  0.1889083E+02  0.1091983E+02  0.5085480E+02  0.0000000E+00
Ar 1320  0.1634854E+02  0.1365276E+02  0.5105701E+02  0.0000000E+00
Ar 1321  0.1648416E+02  0.1648416E+02  0.5362519E+02  0.0000000E+00
Ar 1322  0.1894399E+02  0.1894400E+02  0.7451475E-01  0.0000000E+00
Ar 1323  0.1878197E+02  0.1611620E+02  0.2625766E+01  0.0000000E+00
Ar 1324  0.1611620E+02  0.1878197E+02  0.2625763E+01  0.0000000E+00
Ar 1325  0.1574204E+02  0.1574204E+02  0.5509273E+01  0.0000000E+00
Ar 1326  0.1886790E+02  0.1886790E+02  0.5391467E+01  0.0000000E+00
Ar 1327  0.1893895E+02  0.1609714E+02  0.7956938E+01  0.0000000E+00
Ar 1328  0.1609715E+02  0.1893895E+02  0.7956939E+01  0.0000000E+00
Ar 1329  0.1619384E+02  0.1619384E+02  0.1091596E+02  0.0000000E+00
Ar 1330  0.1873941E+02  0.1873941E+02  0.1053146E+02  0.0000000E+00
Ar 1331  0.1884280E+02  0.1626488E+02  0.1337968E+02  0.0000000E+00
Ar 1332  0.1626488E+02  0.1884280E+02  0.1337968E+02  0.0000000E+00
Ar 1333  0.1612722E+02  0.1612722E+02  0.1612721E+02  0.0000000E+00
Ar 1334  0.1880759E+02  0.1880759E+02  0.1617942E+02  0.0000000E+00
Ar 1335  0.1880759E+02  0.1617942E+02  0.1880759E+02  0.0000000E+00
Ar 1336  0.1617942E+02  0.1880759E+02  0.1880759E+02  0.0000000E+00
Ar 1337  0.1600536E+02  0.1600536E+02  0.2137250E+02  0.0000000E+00
Ar 1338  0.1871969E+02  0.1871969E+02  0.2149424E+02  0.0000000E+00
Ar 1339  0.1867852E+02  0.1591062E+02  0.2420259E+02  0.0000000E+00
Ar 1340  0.1591062E+02  0.1867853E+02  0.2420259E+02  0.0000000E+00
Ar 1341  0.1583015E+02  0.1583015E+02  0.2684352E+02  0.0000000E+00
Ar 1342  0.1842576E+02  0.1842576E+02  0.2694157E+02  0.0000000E+00
Ar 1343  0.1873216E+02  0.1618095E+02  0.2966588E+02  0.0000000E+00
Ar 1344  0.1618096E+02  0.1873216E+02  0.2966589E+02  0.0000000E+00
Ar 1345  0.1608985E+02  0.1608985E+02  0.3229678E+02  0.0000000E+00
Ar 1346  0.1869724E+02  0.1869724E+02  0.3219425E+02  0.0000000E+00
Ar 1347  0.1885544E+02  0.1622266E+02  0.3502533E+02  0.0000000E+00
Ar 1348  0.1622265E+02  0.1885544E+02  0.3502533E+02  0.0000000E+00
Ar 1349  0.1619336E+02  0.1619336E+02  0.3759217E+02  0.0000000E+00
Ar 1350  0.1903454E+02  0.1903455E+02  0.3773776E+02  0.0000000E+00
Ar 1351  0.1907927E+02  0.1630800E+02  0.4054989E+02  0.0000000E+00
Ar 1352  0.1630801E+02  0.1907928E+02  0.4054990E+02  0.0000000E+00
Ar 1353  0.1630113E+02  0.1630113E+02  0.4302397E+02  0.0000000E+00
Ar 1354  0.1894473E+02  0.1894472E+02  0.4296496E+02  0.0000000E+00
Ar 1355  0.1893697E+02  0.1631840E+02  0.4548655E+02  0.0000000E+00
Ar 1356  0.1631840E+02  0.1893698E+02  0.4548656E+02  0.0000000E+00
Ar 1357  0.1654213E+02  0.1654213E+02  0.4850134E+02  0.0000000E+00
Ar 1358  0.1904421E+02  0.1904421E+02  0.4832486E+02  0.0000000E+00
Ar 1359  0.1904246E+02  0.1618864E+02  0.5102380E+02  0.0000000E+00
Ar 1360  0.1618864E+02  0.1904246E+02  0.5102380E+02  0.0000000E+00
Ar 1361  0.1611791E+02  0.2118017E+02  0.7193601E-01  0.0000000E+00
Ar 1362  0.1888070E+02  0.2405769E+02  0.2072622E+00  0.0000000E+00
Ar 1363  0.1872732E+02  0.2166600E+02  0.2738251E+01  0.0000000E+00
Ar 1364  0.1591325E+02  0.2390319E+02  0.2603823E+01  0.0000000E+00
Ar 1365  0.1606076E+02  0.2176434E+02  0.5378746E+01  0.0000000E+00
Ar 1366  0.1879324E+02  0.2423545E+02  0.5297872E+01  0.0000000E+00
Ar 1367  0.1848223E+02  0.2159546E+02  0.7928323E+01  0.0000000E+00
Ar 1368  0.1600054E+02  0.2417966E+02  0.8009154E+01  0.0000000E+00
Ar 1369  0.1590699E+02  0.2155071E+02  0.1067615E+02  0.0000000E+00
Ar 1370  0.1872774E+02  0.2417169E+02  0.1057855E+02  0.0000000E+00
Ar 1371  0.1885906E+02  0.2134540E+02  0.1326801E+02  0.0000000E+00
Ar 1372  0.1625055E+02  0.2397188E+02  0.1340896E+02  0.0000000E+00
Ar 1373  0.1600536E+02  0.2137250E+02  0.1600536E+02  0.0000000E+00
Ar 1374  0.1867853E+02  0.2420259E+02  0.1591062E+02  0.0000000E+00
Ar 1375  0.1871969E+02  0.2149424E+02  0.1871968E+02  0.0000000E+00
Ar 1376  0.1591062E+02  0.2420260E+02  0.1867853E+02  0.0000000E+00
Ar 1377  0.1609282E+02  0.2162220E+02  0.2162220E+02  0.0000000E+00
Ar 1378  0.1868428E+02  0.2423826E+02  0.2147544E+02  0.0000000E+00
Ar 1379  0.1868428E+02  0.2147545E+02  0.2423826E+02  0.0000000E+00
Ar 1380  0.1595201E+02  0.2434024E+02  0.2434024E+02  0.0000000E+00
Ar 1381  0.1598594E+02  0.2172266E+02  0.2690863E+02  0.0000000E+00
Ar 1382  0.1893553E+02  0.2424534E+02  0.2688347E+02  0.0000000E+00
Ar 1383  0.1852210E+02  0.2133456E+02  0.2954240E+02  0.0000000E+00
Ar 1384  0.1597455E+02  0.2417375E+02  0.2964718E+02  0.0000000E+00
Ar 1385  0.1609574E+02  0.2157471E+02  0.3232562E+02  0.0000000E+00
Ar 1386  0.1877240E+02  0.2427530E+02  0.3243766E+02  0.0000000E+00
Ar 1387  0.1881914E+02  0.2177617E+02  0.3514234E+02  0.0000000E+00
Ar 1388  0.1609574E+02  0.2402085E+02  0.3518056E+02  0.0000000E+00
Ar 1389  0.1610542E+02  0.2159868E+02  0.3777367E+02  0.0000000E+00
Ar 1390  0.1865234E+02  0.2430483E+02  0.3774243E+02  0.0000000E+00
Ar 1391  0.1881244E+02  0.2162761E+02  0.4037622E+02  0.0000000E+00
Ar 1392  0.1627499E+02  0.2425233E+02  0.4047943E+02  0.0000000E+00
Ar 1393  0.1606278E+02  0.2150365E+02  0.4324322E+02  0.0000000E+00
Ar 1394  0.1890692E+02  0.2427638E+02  0.4310537E+02  0.0000000E+00
Ar 1395  0.1874479E+02  0.2153031E+02  0.4555720E+02  0.0000000E+00
Ar 1396  0.1612946E+02  0.2436973E+02  0.4569524E+02  0.0000000E+00
Ar 1397  0.1619320E+02  0.2151753E+02  0.4833282E+02  0.0000000E+00
Ar 1398  0.1895038E+02  0.2397780E+02  0.4834316E+02  0.0000000E+00
Ar 1399  0.1895886E+02  0.2161931E+02  0.5101122E+02  0.0000000E+00
Ar 1400  0.1623764E+02  0.2419012E+02  0.5141967E+02  0.0000000E+00
Ar 1401  0.1638756E+02  0.2684579E+02  0.3026720E+00  0.0000000E+00
Ar 1402  0.1883717E+02  0.2972327E+02  0.7119663E-01  0.0000000E+00
Ar 1403  0.1881161E+02  0.2710742E+02  0.2840392E+01  0.0000000E+00
Ar 1404  0.1620644E+02  0.2983221E+02  0.2881931E+01  0.0000000E+00
Ar 1405  0.1590735E+02  0.2690046E+02  0.5098628E+01  0.0000000E+00
Ar 1406  0.1897091E+02  0.2947733E+02  0.5438067E+01  0.0000000E+00
Ar 1407  0.1846514E+02  0.2688361E+02  0.8029007E+01  0.0000000E+00
Ar 1408  0.1603090E+02  0.2946129E+02  0.8269796E+01  0.0000000E+00
Ar 1409  0.1595957E+02  0.2681778E+02  0.1089026E+02  0.0000000E+00
Ar 1410  0.1886363E+02  0.2969440E+02  0.1063961E+02  0.0000000E+00
Ar 1411  0.1881029E+02  0.2673984E+02  0.1349809E+02  0.0000000E+00
Ar 1412  0.1629197E+02  0.2947558E+02  0.1326961E+02  0.0000000E+00
Ar 1413  0.1583015E+02  0.2684352E+02  0.1583015E+02  0.0000000E+00
Ar 1414  0.1873217E+02  0.2966588E+02  0.1618096E+02  0.0000000E+00
Ar 1415  0.1842576E+02  0.2694157E+02  0.1842576E+02  0.0000000E+00
Ar 1416  0.1618096E+02  0.2966589E+02  0.1873216E+02  0.0000000E+00
Ar 1417  0.1598594E+02  0.2690863E+02  0.2172267E+02  0.0000000E+00
Ar 1418  0.1852209E+02  0.2954240E+02  0.2133456E+02  0.0000000E+00
Ar 1419  0.1893553E+02  0.2688347E+02  0.2424534E+02  0.0000000E+00
Ar 1420  0.1597454E+02  0.2964718E+02  0.2417375E+02  0.0000000E+00
Ar 1421  0.1586209E+02  0.2716268E+02  0.2716268E+02  0.0000000E+00
Ar 1422  0.1866760E+02  0.2962876E+02  0.2681409E+02  0.0000000E+00
Ar 1423  0.1866760E+02  0.2681409E+02  0.2962875E+02  0.0000000E+00
Ar 1424  0.1602813E+02  0.2984364E+02  0.2984364E+02  0.0000000E+00
Ar 1425  0.1603763E+02  0.2677730E+02  0.3215294E+02  0.0000000E+00
Ar 1426  0.1874327E+02  0.2952818E+02  0.3224800E+02  0.0000000E+00
Ar 1427  0.1911029E+02  0.2690719E+02  0.3508183E+02  0.0000000E+00
Ar 1428  0.1625221E+02  0.2943080E+02  0.3481112E+02  0.0000000E+00
Ar 1429  0.1638985E+02  0.2683946E+02  0.3759837E+02  0.0000000E+00
Ar 1430  0.1886132E+02  0.2939426E+02  0.3793012E+02  0.0000000E+00
Ar 1431  0.1902074E+02  0.2679151E+02  0.4045060E+02  0.0000000E+00
Ar 1432  0.1635119E+02  0.2981541E+02  0.4047490E+02  0.0000000E+00
Ar 1433  0.1627786E+02  0.2707824E+02  0.4301577E+02  0.0000000E+00
Ar 1434  0.1908737E+02  0.2966390E+02  0.4309340E+02  0.0000000E+00
Ar 1435  0.1873487E+02  0.2694701E+02  0.4574595E+02  0.0000000E+00
Ar 1436  0.1616760E+02  0.2962177E+02  0.4579345E+02  0.0000000E+00
Ar 1437  0.1610921E+02  0.2696598E+02  0.4839225E+02  0.0000000E+00
Ar 1438  0.1896672E+02  0.2955620E+02  0.4854167E+02  0.0000000E+00
Ar 1439  0.1877847E+02  0.2677919E+02  0.5131807E+02  0.0000000E+00
Ar 1440  0.1634492E+02  0.2942363E+02  0.5117612E+02  0.0000000E+00
Ar 1441  0.1622560E+02  0.3260161E+02  0.5370822E+02  0.0000000E+00
Ar 1442  0.1888615E+02  0.3483445E+02  0.5351611E+02  0.0000000E+00
Ar 1443  0.1892813E+02  0.3244573E+02  0.2706048E+01  0.0000000E+00
Ar 1444  0.1607778E+02  0.3511024E+02  0.2725307E+01  0.0000000E+00
Ar 1445  0.1622417E+02  0.3222456E+02  0.5519796E+01  0.0000000E+00
Ar 1446  0.1887313E+02  0.3482644E+02  0.5347857E+01  0.0000000E+00
Ar 1447  0.1908560E+02  0.3211889E+02  0.8110965E+01  0.0000000E+00
Ar 1448  0.1626218E+02  0.3506461E+02  0.8027673E+01  0.0000000E+00
Ar 1449  0.1617088E+02  0.3228473E+02  0.1082019E+02  0.0000000E+00
Ar 1450  0.1922005E+02  0.3493008E+02  0.1075479E+02  0.0000000E+00
Ar 1451  0.1891961E+02  0.3216267E+02  0.1334671E+02  0.0000000E+00
Ar 1452  0.1620453E+02  0.3514918E+02  0.1355009E+02  0.0000000E+00
Ar 1453  0.1608986E+02  0.3229678E+02  0.1608985E+02  0.0000000E+00
Ar 1454  0.1885545E+02  0.3502533E+02  0.1622265E+02  0.0000000E+00
Ar 1455  0.1869724E+02  0.3219425E+02  0.1869724E+02  0.0000000E+00
Ar 1456  0.1622265E+02  0.3502533E+02  0.1885544E+02  0.0000000E+00
Ar 1457  0.1609574E+02  0.3232562E+02  0.2157470E+02  0.0000000E+00
Ar 1458  0.1881913E+02  0.3514234E+02  0.2177618E+02  0.0000000E+00
Ar 1459  0.1877240E+02  0.3243766E+02  0.2427530E+02  0.0000000E+00
Ar 1460  0.1609574E+02  0.3518056E+02  0.2402086E+02  0.0000000E+00
Ar 1461  0.1603763E+02  0.3215295E+02  0.2677730E+02  0.0000000E+00
Ar 1462  0.1911029E+02  0.3508183E+02  0.2690719E+02  0.0000000E+00
Ar 1463  0.1874327E+02  0.3224801E+02  0.2952818E+02  0.0000000E+00
Ar 1464  0.1625221E+02  0.3481112E+02  0.2943081E+02  0.0000000E+00
Ar 1465  0.1597948E+02  0.3246596E+02  0.3246596E+02  0.0000000E+00
Ar 1466  0.1897853E+02  0.3516517E+02  0.3228408E+02  0.0000000E+00
Ar 1467  0.1897852E+02  0.3228407E+02  0.3516517E+02  0.0000000E+00
Ar 1468  0.1662119E+02  0.3484757E+02  0.3484757E+02  0.0000000E+00
Ar 1469  0.1646063E+02  0.3200673E+02  0.3760222E+02  0.0000000E+00
Ar 1470  0.1898310E+02  0.3487031E+02  0.3762527E+02  0.0000000E+00
Ar 1471  0.1898807E+02  0.3245994E+02  0.4066589E+02  0.0000000E+00
Ar 1472  0.1650221E+02  0.3497774E+02  0.4019834E+02  0.0000000E+00
Ar 1473  0.1617007E+02  0.3225462E+02  0.4303219E+02  0.0000000E+00
Ar 1474  0.1877671E+02  0.3498125E+02  0.4313344E+02  0.0000000E+00
Ar 1475  0.1896810E+02  0.3233477E+02  0.4579411E+02  0.0000000E+00
Ar 1476  0.1633787E+02  0.3516578E+02  0.4560555E+02  0.0000000E+00
Ar 1477  0.1628802E+02  0.3257218E+02  0.4841901E+02  0.0000000E+00
Ar 1478  0.1910035E+02  0.3514923E+02  0.4850865E+02  0.0000000E+00
Ar 1479  0.1906607E+02  0.3233508E+02  0.5108425E+02  0.0000000E+00
Ar 1480  0.1620920E+02  0.3502976E+02  0.5105628E+02  0.0000000E+00
Ar 1481  0.1629973E+02  0.3762241E+02  0.9646733E-01  0.0000000E+00
Ar 1482  0.1887596E+02  0.4017412E+02  0.1323106E+00  0.0000000E+00
Ar 1483  0.1878709E+02  0.3739397E+02  0.2753012E+01  0.0000000E+00
Ar 1484  0.1628332E+02  0.4018318E+02  0.2782663E+01  0.0000000E+00
Ar 1485  0.1607967E+02  0.3782610E+02  0.5468970E+01  0.0000000E+00
Ar 1486  0.1880797E+02  0.4054833E+02  0.5402105E+01  0.0000000E+00
Ar 1487  0.1900680E+02  0.3803352E+02  0.7869180E+01  0.0000000E+00
Ar 1488  0.1623789E+02  0.4057902E+02  0.8159565E+01  0.0000000E+00
Ar 1489  0.1590270E+02  0.3775250E+02  0.1054365E+02  0.0000000E+00
Ar 1490  0.1893507E+02  0.4025722E+02  0.1083124E+02  0.0000000E+00
Ar 1491  0.1903734E+02  0.3786554E+02  0.1348044E+02  0.0000000E+00
Ar 1492  0.1621899E+02  0.4024568E+02  0.1336822E+02  0.0000000E+00
Ar 1493  0.1619337E+02  0.3759217E+02  0.1619336E+02  0.0000000E+00
Ar 1494  0.1907928E+02  0.4054989E+02  0.1630801E+02  0.0000000E+00
Ar 1495  0.1903455E+02  0.3773776E+02  0.1903455E+02  0.0000000E+00
Ar 1496  0.1630800E+02  0.4054990E+02  0.1907927E+02  0.0000000E+00
Ar 1497  0.1610541E+02  0.3777367E+02  0.2159868E+02  0.0000000E+00
Ar 1498  0.1881244E+02  0.4037622E+02  0.2162761E+02  0.0000000E+00
Ar 1499  0.1865233E+02  0.3774244E+02  0.2430484E+02  0.0000000E+00
Ar 1500  0.1627499E+02  0.4047944E+02  0.2425233E+02  0.0000000E+00
Ar 1501  0.1638985E+02  0.3759837E+02  0.2683946E+02  0.0000000E+00
Ar 1502  0.1902073E+02  0.4045060E+02  0.2679151E+02  0.0000000E+00
Ar 1503  0.1886132E+02  0.3793012E+02  0.2939426E+02  0.0000000E+00
Ar 1504  0.1635119E+02  0.4047490E+02  0.2981542E+02  0.0000000E+00
Ar 1505  0.1646063E+02  0.3760222E+02  0.3200672E+02  0.0000000E+00
Ar 1506  0.1898807E+02  0.4066589E+02  0.3245994E+02  0.0000000E+00
Ar 1507  0.1898310E+02  0.3762528E+02  0.3487031E+02  0.0000000E+00
Ar 1508  0.1650221E+02  0.4019835E+02  0.3497774E+02  0.0000000E+00
Ar 1509  0.1660473E+02  0.3765778E+02  0.3765778E+02  0.0000000E+00
Ar 1510  0.1919009E+02  0.4008725E+02  0.3747321E+02  0.0000000E+00
Ar 1511  0.1919009E+02  0.3747321E+02  0.4008725E+02  0.0000000E+00
Ar 1512  0.1651059E+02  0.4023674E+02  0.4023674E+02  0.0000000E+00
Ar 1513  0.1643507E+02  0.3772276E+02  0.4318299E+02  0.0000000E+00
Ar 1514  0.1893629E+02  0.4014437E+02  0.4313772E+02  0.0000000E+00
Ar 1515  0.1889554E+02  0.3785941E+02  0.4583742E+02  0.0000000E+00
Ar 1516  0.1634220E+02  0.4069733E+02  0.4565380E+02  0.0000000E+00
Ar 1517  0.1621196E+02  0.3793266E+02  0.4842142E+02  0.0000000E+00
Ar 1518  0.1893315E+02  0.4037425E+02  0.4850123E+02  0.0000000E+00
Ar 1519  0.1894089E+02  0.3762505E+02  0.5120948E+02  0.0000000E+00
Ar 1520  0.1633701E+02  0.4041311E+02  0.5108809E+02  0.0000000E+00
Ar 1521  0.1607643E+02  0.4282672E+02  0.1344364E+00  0.0000000E+00
Ar 1522  0.1889176E+02  0.4568429E+02  0.5374695E+02  0.0000000E+00
Ar 1523  0.1883528E+02  0.4295149E+02  0.2786848E+01  0.0000000E+00
Ar 1524  0.1620725E+02  0.4589620E+02  0.2248064E+01  0.0000000E+00
Ar 1525  0.1606261E+02  0.4282359E+02  0.5360526E+01  0.0000000E+00
Ar 1526  0.1860415E+02  0.4560420E+02  0.5470612E+01  0.0000000E+00
Ar 1527  0.1888705E+02  0.4295699E+02  0.8014202E+01  0.0000000E+00
Ar 1528  0.1605761E+02  0.4518951E+02  0.8079450E+01  0.0000000E+00
Ar 1529  0.1634805E+02  0.4282615E+02  0.1099036E+02  0.0000000E+00
Ar 1530  0.1910065E+02  0.4537398E+02  0.1076606E+02  0.0000000E+00
Ar 1531  0.1902315E+02  0.4286920E+02  0.1359296E+02  0.0000000E+00
Ar 1532  0.1634150E+02  0.4536065E+02  0.1343671E+02  0.0000000E+00
Ar 1533  0.1630113E+02  0.4302398E+02  0.1630113E+02  0.0000000E+00
Ar 1534  0.1893697E+02  0.4548656E+02  0.1631840E+02  0.0000000E+00
Ar 1535  0.1894473E+02  0.4296496E+02  0.1894472E+02  0.0000000E+00
Ar 1536  0.1631839E+02  0.4548656E+02  0.1893697E+02  0.0000000E+00
Ar 1537  0.1606278E+02  0.4324322E+02  0.2150365E+02  0.0000000E+00
Ar 1538  0.1874479E+02  0.4555720E+02  0.2153030E+02  0.0000000E+00
Ar 1539  0.1890692E+02  0.4310537E+02  0.2427638E+02  0.0000000E+00
Ar 1540  0.1612946E+02  0.4569524E+02  0.2436973E+02  0.0000000E+00
Ar 1541  0.1627786E+02  0.4301578E+02  0.2707824E+02  0.0000000E+00
Ar 1542  0.1873487E+02  0.4574595E+02  0.2694701E+02  0.0000000E+00
Ar 1543  0.1908737E+02  0.4309340E+02  0.2966390E+02  0.0000000E+00
Ar 1544  0.1616760E+02  0.4579345E+02  0.2962177E+02  0.0000000E+00
Ar 1545  0.1617007E+02  0.4303218E+02  0.3225462E+02  0.0000000E+00
Ar 1546  0.1896809E+02  0.4579411E+02  0.3233477E+02  0.0000000E+00
Ar 1547  0.1877671E+02  0.4313344E+02  0.3498124E+02  0.0000000E+00
Ar 1548  0.1633787E+02  0.4560555E+02  0.3516578E+02  0.0000000E+00
Ar 1549  0.1643507E+02  0.4318299E+02  0.3772276E+02  0.0000000E+00
Ar 1550  0.1889554E+02  0.4583742E+02  0.3785941E+02  0.0000000E+00
Ar 1551  0.1893629E+02  0.4313772E+02  0.4014437E+02  0.0000000E+00
Ar 1552  0.1634220E+02  0.4565380E+02  0.4069733E+02  0.0000000E+00
Ar 1553  0.1646792E+02  0.4281105E+02  0.4281105E+02  0.0000000E+00
Ar 1554  0.1917891E+02  0.4559197E+02  0.4299593E+02  0.0000000E+00
Ar 1555  0.1917891E+02  0.4299593E+02  0.4559197E+02  0.0000000E+00
Ar 1556  0.1632341E+02  0.4585757E+02  0.4585757E+02  0.0000000E+00
Ar 1557  0.1608489E+02  0.4320808E+02  0.4816114E+02  0.0000000E+00
Ar 1558  0.1883220E+02  0.4561694E+02  0.4833198E+02  0.0000000E+00
Ar 1559  0.1872701E+02  0.4299650E+02  0.5110446E+02  0.0000000E+00
Ar 1560  0.1618744E+02  0.4585374E+02  0.5115711E+02  0.0000000E+00
Ar 1561  0.1618015E+02  0.4864331E+02  0.5344358E+02  0.0000000E+00
Ar 1562  0.1920956E+02  0.5119368E+02  0.5375754E+02  0.0000000E+00
Ar 1563  0.1873069E+02  0.4841130E+02  0.2880141E+01  0.0000000E+00
Ar 1564  0.1618948E+02  0.5123386E+02  0.2813075E+01  0.0000000E+00
Ar 1565  0.1606076E+02  0.4837889E+02  0.5497726E+01  0.0000000E+00
Ar 1566  0.1874765E+02  0.5125207E+02  0.5451254E+01  0.0000000E+00
Ar 1567  0.1878443E+02  0.4839235E+02  0.8108395E+01  0.0000000E+00
Ar 1568  0.1617525E+02  0.5104878E+02  0.8146170E+01  0.0000000E+00
Ar 1569  0.1599492E+02  0.4858837E+02  0.1072680E+02  0.0000000E+00
Ar 1570  0.1889083E+02  0.5085480E+02  0.1091983E+02  0.0000000E+00
Ar 1571  0.1906089E+02  0.4800267E+02  0.1349924E+02  0.0000000E+00
Ar 1572  0.1634854E+02  0.5105701E+02  0.1365276E+02  0.0000000E+00
Ar 1573  0.1654213E+02  0.4850134E+02  0.1654212E+02  0.0000000E+00
Ar 1574  0.1904246E+02  0.5102379E+02  0.1618864E+02  0.0000000E+00
Ar 1575  0.1904421E+02  0.4832486E+02  0.1904421E+02  0.0000000E+00
Ar 1576  0.1618863E+02  0.5102380E+02  0.1904246E+02  0.0000000E+00
Ar 1577  0.1619320E+02  0.4833282E+02  0.2151753E+02  0.0000000E+00
Ar 1578  0.1895887E+02  0.5101122E+02  0.2161931E+02  0.0000000E+00
Ar 1579  0.1895038E+02  0.4834316E+02  0.2397780E+02  0.0000000E+00
Ar 1580  0.1623764E+02  0.5141967E+02  0.2419012E+02  0.0000000E+00
Ar 1581  0.1610921E+02  0.4839225E+02  0.2696598E+02  0.0000000E+00
Ar 1582  0.1877847E+02  0.5131807E+02  0.2677919E+02  0.0000000E+00
Ar 1583  0.1896672E+02  0.4854167E+02  0.2955621E+02  0.0000000E+00
Ar 1584  0.1634492E+02  0.5117612E+02  0.2942363E+02  0.0000000E+00
Ar 1585  0.1628802E+02  0.4841901E+02  0.3257218E+02  0.0000000E+00
Ar 1586  0.1906607E+02  0.5108425E+02  0.3233508E+02  0.0000000E+00
Ar 1587  0.1910036E+02  0.4850865E+02  0.3514923E+02  0.0000000E+00
Ar 1588  0.1620920E+02  0.5105628E+02  0.3502976E+02  0.0000000E+00
Ar 1589  0.1621197E+02  0.4842141E+02  0.3793266E+02  0.0000000E+00
Ar 1590  0.1894089E+02  0.5120947E+02  0.3762505E+02  0.0000000E+00
Ar 1591  0.1893316E+02  0.4850124E+02  0.4037424E+02  0.0000000E+00
Ar 1592  0.1633701E+02  0.5108809E+02  0.4041311E+02  0.0000000E+00
Ar 1593  0.1608489E+02  0.4816114E+02  0.4320808E+02  0.0000000E+00
Ar 1594  0.1872701E+02  0.5110446E+02  0.4299650E+02  0.0000000E+00
Ar 1595  0.1883220E+02  0.4833198E+02  0.4561694E+02  0.0000000E+00
Ar 1596  0.1618744E+02  0.5115711E+02  0.4585374E+02  0.0000000E+00
Ar 1597  0.1622765E+02  0.4860738E+02  0.4860738E+02  0.0000000E+00
Ar 1598  0.1878170E+02  0.5105472E+02  0.4817897E+02  0.0000000E+00
Ar 1599  0.1878170E+02  0.4817897E+02  0.5105472E+02  0.0000000E+00
Ar 1600  0.1577860E+02  0.5117301E+02  0.5117301E+02  0.0000000E+00
Ar 1601  0.2173915E+02  0.3016808E-01  0.3016725E-01  0.0000000E+00
Ar 1602  0.2427463E+02  0.2725497E+01  0.2253275E-01  0.0000000E+00
Ar 1603  0.2427463E+02  0.2253292E-01  0.2725499E+01  0.0000000E+00
Ar 1604  0.2131040E+02  0.2890745E+01  0.2890746E+01  0.0000000E+00
Ar 1605  0.2145825E+02  0.1650388E+00  0.5358117E+01  0.0000000E+00
Ar 1606  0.2412904E+02  0.2990357E+01  0.5497873E+01  0.0000000E+00
Ar 1607  0.2405419E+02  0.1768887E+00  0.8179856E+01  0.0000000E+00
Ar 1608  0.2127975E+02  0.2450053E+01  0.7866312E+01  0.0000000E+00
Ar 1609  0.2118682E+02  0.3389315E-01  0.1061936E+02  0.0000000E+00
Ar 1610  0.2410942E+02  0.2477014E+01  0.1074315E+02  0.0000000E+00
Ar 1611  0.2386295E+02  0.5365231E+02  0.1334892E+02  0.0000000E+00
Ar 1612  0.2151045E+02  0.2548887E+01  0.1339076E+02  0.0000000E+00
Ar 1613  0.2118017E+02  0.7193757E-01  0.1611791E+02  0.0000000E+00
Ar 1614  0.2390320E+02  0.2603823E+01  0.1591325E+02  0.0000000E+00
Ar 1615  0.2405768E+02  0.2072632E+00  0.1888070E+02  0.0000000E+00
Ar 1616  0.2166600E+02  0.2738255E+01  0.1872732E+02  0.0000000E+00
Ar 1617  0.2165281E+02  0.5345425E+02  0.2165281E+02  0.0000000E+00
Ar 1618  0.2427302E+02  0.2950401E+01  0.2158562E+02  0.0000000E+00
Ar 1619  0.2427989E+02  0.2080769E+00  0.2427989E+02  0.0000000E+00
Ar 1620  0.2158562E+02  0.2950400E+01  0.2427302E+02  0.0000000E+00
Ar 1621  0.2166694E+02  0.3049789E+00  0.2699494E+02  0.0000000E+00
Ar 1622  0.2423014E+02  0.2820764E+01  0.2704398E+02  0.0000000E+00
Ar 1623  0.2409580E+02  0.5358932E+02  0.2948087E+02  0.0000000E+00
Ar 1624  0.2158817E+02  0.2914583E+01  0.2945402E+02  0.0000000E+00
Ar 1625  0.2165065E+02  0.5365400E+02  0.3225793E+02  0.0000000E+00
Ar 1626  0.2398148E+02  0.2635667E+01  0.3210297E+02  0.0000000E+00
Ar 1627  0.2409418E+02  0.1623219E+00  0.3509254E+02  0.0000000E+00
Ar 1628  0.2152744E+02  0.2520119E+01  0.3493510E+02  0.0000000E+00
Ar 1629  0.2156428E+02  0.3931986E+00  0.3774054E+02  0.0000000E+00
Ar 1630  0.2423375E+02  0.2883584E+01  0.3740425E+02  0.0000000E+00
Ar 1631  0.2446184E+02  0.2739549E+00  0.4011255E+02  0.0000000E+00
Ar 1632  0.2153755E+02  0.2822607E+01  0.4016384E+02  0.0000000E+00
Ar 1633  0.2145433E+02  0.3029997E+00  0.4295473E+02  0.0000000E+00
Ar 1634  0.2429050E+02  0.2592102E+01  0.4314452E+02  0.0000000E+00
Ar 1635  0.2395802E+02  0.5375737E+02  0.4547793E+02  0.0000000E+00
Ar 1636  0.2146157E+02  0.2680261E+01  0.4583283E+02  0.0000000E+00
Ar 1637  0.2152962E+02  0.1228196E+00  0.4856007E+02  0.0000000E+00
Ar 1638  0.2417293E+02  0.2935180E+01  0.4855334E+02  0.0000000E+00
Ar 1639  0.2417344E+02  0.2968117E+00  0.5107188E+02  0.0000000E+00
Ar 1640  0.2145872E+02  0.2915959E+01  0.5120811E+02  0.0000000E+00
Ar 1641  0.2145825E+02  0.5358115E+01  0.1650412E+00  0.0000000E+00
Ar 1642  0.2405419E+02  0.8179856E+01  0.1768886E+00  0.0000000E+00
Ar 1643  0.2412904E+02  0.5497874E+01  0.2990356E+01  0.0000000E+00
Ar 1644  0.2127975E+02  0.7866313E+01  0.2450052E+01  0.0000000E+00
Ar 1645  0.2140144E+02  0.5436417E+01  0.5436419E+01  0.0000000E+00
Ar 1646  0.2415079E+02  0.8045015E+01  0.5505823E+01  0.0000000E+00
Ar 1647  0.2415079E+02  0.5505823E+01  0.8045015E+01  0.0000000E+00
Ar 1648  0.2140650E+02  0.7961061E+01  0.7961061E+01  0.0000000E+00
Ar 1649  0.2159044E+02  0.5210158E+01  0.1078329E+02  0.0000000E+00
Ar 1650  0.2398418E+02  0.8016520E+01  0.1074950E+02  0.0000000E+00
Ar 1651  0.2412012E+02  0.5190486E+01  0.1326679E+02  0.0000000E+00
Ar 1652  0.2142249E+02  0.7810636E+01  0.1331437E+02  0.0000000E+00
Ar 1653  0.2176434E+02  0.5378746E+01  0.1606076E+02  0.0000000E+00
Ar 1654  0.2417965E+02  0.8009154E+01  0.1600054E+02  0.0000000E+00
Ar 1655  0.2423545E+02  0.5297876E+01  0.1879324E+02  0.0000000E+00
Ar 1656  0.2159546E+02  0.7928321E+01  0.1848223E+02  0.0000000E+00
Ar 1657  0.2154445E+02  0.5340330E+01  0.2154445E+02  0.0000000E+00
Ar 1658  0.2411412E+02  0.7905237E+01  0.2157289E+02  0.0000000E+00
Ar 1659  0.2449199E+02  0.5437436E+01  0.2449199E+02  0.0000000E+00
Ar 1660  0.2157289E+02  0.7905238E+01  0.2411411E+02  0.0000000E+00
Ar 1661  0.2160318E+02  0.5412155E+01  0.2682842E+02  0.0000000E+00
Ar 1662  0.2417743E+02  0.8103369E+01  0.2696584E+02  0.0000000E+00
Ar 1663  0.2416897E+02  0.5596644E+01  0.2965724E+02  0.0000000E+00
Ar 1664  0.2155630E+02  0.8160940E+01  0.2953710E+02  0.0000000E+00
Ar 1665  0.2155458E+02  0.5574099E+01  0.3218314E+02  0.0000000E+00
Ar 1666  0.2423744E+02  0.8106734E+01  0.3223247E+02  0.0000000E+00
Ar 1667  0.2451698E+02  0.5544788E+01  0.3490948E+02  0.0000000E+00
Ar 1668  0.2176486E+02  0.8062886E+01  0.3509026E+02  0.0000000E+00
Ar 1669  0.2168128E+02  0.5444529E+01  0.3753068E+02  0.0000000E+00
Ar 1670  0.2451259E+02  0.8075101E+01  0.3762181E+02  0.0000000E+00
Ar 1671  0.2430534E+02  0.5239304E+01  0.4036082E+02  0.0000000E+00
Ar 1672  0.2178116E+02  0.8253648E+01  0.4050441E+02  0.0000000E+00
Ar 1673  0.2166046E+02  0.5424254E+01  0.4318450E+02  0.0000000E+00
Ar 1674  0.2437479E+02  0.7963301E+01  0.4310278E+02  0.0000000E+00
Ar 1675  0.2435638E+02  0.5335331E+01  0.4563424E+02  0.0000000E+00
Ar 1676  0.2171498E+02  0.8228039E+01  0.4568832E+02  0.0000000E+00
Ar 1677  0.2143389E+02  0.5485999E+01  0.4806397E+02  0.0000000E+00
Ar 1678  0.2408745E+02  0.8072684E+01  0.4843588E+02  0.0000000E+00
Ar 1679  0.2402643E+02  0.5331255E+01  0.5114264E+02  0.0000000E+00
Ar 1680  0.2165856E+02  0.8076966E+01  0.5107260E+02  0.0000000E+00
Ar 1681  0.2118682E+02  0.1061936E+02  0.3389335E-01  0.0000000E+00
Ar 1682  0.2386295E+02  0.1334892E+02  0.5365231E+02  0.0000000E+00
Ar 1683  0.2410942E+02  0.1074315E+02  0.2477012E+01  0.0000000E+00
Ar 1684  0.2151045E+02  0.1339076E+02  0.2548885E+01  0.0000000E+00
Ar 1685  0.2159044E+02  0.1078329E+02  0.5210157E+01  0.0000000E+00
Ar 1686  0.2412011E+02  0.1326679E+02  0.5190486E+01  0.0000000E+00
Ar 1687  0.2398418E+02  0.1074950E+02  0.8016519E+01  0.0000000E+00
Ar 1688  0.2142249E+02  0.1331437E+02  0.7810636E+01  0.0000000E+00
Ar 1689  0.2099736E+02  0.1052482E+02  0.1052482E+02  0.0000000E+00
Ar 1690  0.2418266E+02  0.1347050E+02  0.1081694E+02  0.0000000E+00
Ar 1691  0.2418266E+02  0.1081694E+02  0.1347050E+02  0.0000000E+00
Ar 1692  0.2123283E+02  0.1322212E+02  0.1322212E+02  0.0000000E+00
Ar 1693  0.2155071E+02  0.1067614E+02  0.1590699E+02  0.0000000E+00
Ar 1694  0.2397187E+02  0.1340897E+02  0.1625055E+02  0.0000000E+00
Ar 1695  0.2417169E+02  0.1057855E+02  0.1872774E+02  0.0000000E+00
Ar 1696  0.2134540E+02  0.1326801E+02  0.1885906E+02  0.0000000E+00
Ar 1697  0.2151126E+02  0.1042785E+02  0.2151126E+02  0.0000000E+00
Ar 1698  0.2401337E+02  0.1328359E+02  0.2124073E+02  0.0000000E+00
Ar 1699  0.2441873E+02  0.1071095E+02  0.2441873E+02  0.0000000E+00
Ar 1700  0.2124074E+02  0.1328359E+02  0.2401336E+02  0.0000000E+00
Ar 1701  0.2171733E+02  0.1071411E+02  0.2692347E+02  0.0000000E+00
Ar 1702  0.2414884E+02  0.1342966E+02  0.2705327E+02  0.0000000E+00
Ar 1703  0.2425637E+02  0.1068793E+02  0.2960924E+02  0.0000000E+00
Ar 1704  0.2162474E+02  0.1335835E+02  0.2959504E+02  0.0000000E+00
Ar 1705  0.2166927E+02  0.1067601E+02  0.3219055E+02  0.0000000E+00
Ar 1706  0.2450708E+02  0.1338804E+02  0.3229872E+02  0.0000000E+00
Ar 1707  0.2429247E+02  0.1085563E+02  0.3501820E+02  0.0000000E+00
Ar 1708  0.2150376E+02  0.1355210E+02  0.3499846E+02  0.0000000E+00
Ar 1709  0.2160913E+02  0.1102981E+02  0.3767676E+02  0.0000000E+00
Ar 1710  0.2439529E+02  0.1367976E+02  0.3765583E+02  0.0000000E+00
Ar 1711  0.2452782E+02  0.1069488E+02  0.4054676E+02  0.0000000E+00
Ar 1712  0.2165023E+02  0.1353061E+02  0.4041222E+02  0.0000000E+00
Ar 1713  0.2167510E+02  0.1087634E+02  0.4291777E+02  0.0000000E+00
Ar 1714  0.2429079E+02  0.1341749E+02  0.4300166E+02  0.0000000E+00
Ar 1715  0.2451143E+02  0.1074738E+02  0.4581934E+02  0.0000000E+00
Ar 1716  0.2173172E+02  0.1355498E+02  0.4575404E+02  0.0000000E+00
Ar 1717  0.2179790E+02  0.1089055E+02  0.4838636E+02  0.0000000E+00
Ar 1718  0.2422228E+02  0.1374429E+02  0.4854015E+02  0.0000000E+00
Ar 1719  0.2414951E+02  0.1087027E+02  0.5122265E+02  0.0000000E+00
Ar 1720  0.2153859E+02  0.1355253E+02  0.5103098E+02  0.0000000E+00
Ar 1721  0.2118017E+02  0.1611791E+02  0.7193504E-01  0.0000000E+00
Ar 1722  0.2405769E+02  0.1888070E+02  0.2072641E+00  0.0000000E+00
Ar 1723  0.2390320E+02  0.1591325E+02  0.2603822E+01  0.0000000E+00
Ar 1724  0.2166600E+02  0.1872732E+02  0.2738255E+01  0.0000000E+00
Ar 1725  0.2176434E+02  0.1606076E+02  0.5378746E+01  0.0000000E+00
Ar 1726  0.2423545E+02  0.1879324E+02  0.5297873E+01  0.0000000E+00
Ar 1727  0.2417965E+02  0.1600054E+02  0.8009154E+01  0.0000000E+00
Ar 1728  0.2159546E+02  0.1848223E+02  0.7928321E+01  0.0000000E+00
Ar 1729  0.2155071E+02  0.1590699E+02  0.1067614E+02  0.0000000E+00
Ar 1730  0.2417169E+02  0.1872774E+02  0.1057855E+02  0.0000000E+00
Ar 1731  0.2397187E+02  0.1625055E+02  0.1340897E+02  0.0000000E+00
Ar 1732  0.2134540E+02  0.1885906E+02  0.1326801E+02  0.0000000E+00
Ar 1733  0.2137250E+02  0.1600536E+02  0.1600536E+02  0.0000000E+00
Ar 1734  0.2420260E+02  0.1867853E+02  0.1591062E+02  0.0000000E+00
Ar 1735  0.2420260E+02  0.1591062E+02  0.1867853E+02  0.0000000E+00
Ar 1736  0.2149424E+02  0.1871969E+02  0.1871968E+02  0.0000000E+00
Ar 1737  0.2162221E+02  0.1609281E+02  0.2162220E+02  0.0000000E+00
Ar 1738  0.2423826E+02  0.1868428E+02  0.2147545E+02  0.0000000E+00
Ar 1739  0.2434024E+02  0.1595201E+02  0.2434024E+02  0.0000000E+00
Ar 1740  0.2147544E+02  0.1868428E+02  0.2423825E+02  0.0000000E+00
Ar 1741  0.2172267E+02  0.1598594E+02  0.2690862E+02  0.0000000E+00
Ar 1742  0.2424534E+02  0.1893553E+02  0.2688347E+02  0.0000000E+00
Ar 1743  0.2417375E+02  0.1597455E+02  0.2964718E+02  0.0000000E+00
Ar 1744  0.2133456E+02  0.1852209E+02  0.2954240E+02  0.0000000E+00
Ar 1745  0.2157470E+02  0.1609574E+02  0.3232562E+02  0.0000000E+00
Ar 1746  0.2427530E+02  0.1877241E+02  0.3243766E+02  0.0000000E+00
Ar 1747  0.2402086E+02  0.1609574E+02  0.3518056E+02  0.0000000E+00
Ar 1748  0.2177618E+02  0.1881914E+02  0.3514234E+02  0.0000000E+00
Ar 1749  0.2159868E+02  0.1610542E+02  0.3777366E+02  0.0000000E+00
Ar 1750  0.2430484E+02  0.1865234E+02  0.3774244E+02  0.0000000E+00
Ar 1751  0.2425233E+02  0.1627499E+02  0.4047944E+02  0.0000000E+00
Ar 1752  0.2162761E+02  0.1881244E+02  0.4037622E+02  0.0000000E+00
Ar 1753  0.2150365E+02  0.1606278E+02  0.4324322E+02  0.0000000E+00
Ar 1754  0.2427639E+02  0.1890692E+02  0.4310537E+02  0.0000000E+00
Ar 1755  0.2436973E+02  0.1612946E+02  0.4569524E+02  0.0000000E+00
Ar 1756  0.2153031E+02  0.1874479E+02  0.4555720E+02  0.0000000E+00
Ar 1757  0.2151753E+02  0.1619320E+02  0.4833282E+02  0.0000000E+00
Ar 1758  0.2397780E+02  0.1895038E+02  0.4834316E+02  0.0000000E+00
Ar 1759  0.2419012E+02  0.1623764E+02  0.5141967E+02  0.0000000E+00
Ar 1760  0.2161931E+02  0.1895887E+02  0.5101122E+02  0.0000000E+00
Ar 1761  0.2165281E+02  0.2165281E+02  0.5345425E+02  0.0000000E+00
Ar 1762  0.2427989E+02  0.2427989E+02  0.2080763E+00  0.0000000E+00
Ar 1763  0.2427302E+02  0.2158562E+02  0.2950400E+01  0.0000000E+00
Ar 1764  0.2158562E+02  0.2427302E+02  0.2950399E+01  0.0000000E+00
Ar 1765  0.2154445E+02  0.2154445E+02  0.5340332E+01  0.0000000E+00
Ar 1766  0.2449199E+02  0.2449199E+02  0.5437435E+01  0.0000000E+00
Ar 1767  0.2411411E+02  0.2157289E+02  0.7905235E+01  0.0000000E+00
Ar 1768  0.2157289E+02  0.2411412E+02  0.7905239E+01  0.0000000E+00
Ar 1769  0.2151126E+02  0.2151126E+02  0.1042785E+02  0.0000000E+00
Ar 1770  0.2441873E+02  0.2441873E+02  0.1071095E+02  0.0000000E+00
Ar 1771  0.2401337E+02  0.2124074E+02  0.1328359E+02  0.0000000E+00
Ar 1772  0.2124074E+02  0.2401336E+02  0.1328359E+02  0.0000000E+00
Ar 1773  0.2162221E+02  0.2162221E+02  0.1609281E+02  0.0000000E+00
Ar 1774  0.2434024E+02  0.2434024E+02  0.1595201E+02  0.0000000E+00
Ar 1775  0.2423826E+02  0.2147545E+02  0.1868428E+02  0.0000000E+00
Ar 1776  0.2147544E+02  0.2423825E+02  0.1868428E+02  0.0000000E+00
Ar 1777  0.2140303E+02  0.2140303E+02  0.2140303E+02  0.0000000E+00
Ar 1778  0.2406325E+02  0.2406325E+02  0.2150541E+02  0.0000000E+00
Ar 1779  0.2406325E+02  0.2150541E+02  0.2406325E+02  0.0000000E+00
Ar 1780  0.2150541E+02  0.2406325E+02  0.2406325E+02  0.0000000E+00
Ar 1781  0.2119757E+02  0.2119758E+02  0.2675986E+02  0.0000000E+00
Ar 1782  0.2399108E+02  0.2399108E+02  0.2671285E+02  0.0000000E+00
Ar 1783  0.2392965E+02  0.2112983E+02  0.2974965E+02  0.0000000E+00
Ar 1784  0.2112983E+02  0.2392965E+02  0.2974965E+02  0.0000000E+00
Ar 1785  0.2124730E+02  0.2124730E+02  0.3249887E+02  0.0000000E+00
Ar 1786  0.2363794E+02  0.2363794E+02  0.3213683E+02  0.0000000E+00
Ar 1787  0.2420250E+02  0.2160677E+02  0.3494260E+02  0.0000000E+00
Ar 1788  0.2160677E+02  0.2420249E+02  0.3494260E+02  0.0000000E+00
Ar 1789  0.2156783E+02  0.2156783E+02  0.3766159E+02  0.0000000E+00
Ar 1790  0.2427505E+02  0.2427505E+02  0.3760101E+02  0.0000000E+00
Ar 1791  0.2418538E+02  0.2128055E+02  0.4031055E+02  0.0000000E+00
Ar 1792  0.2128055E+02  0.2418538E+02  0.4031055E+02  0.0000000E+00
Ar 1793  0.2157140E+02  0.2157140E+02  0.4313957E+02  0.0000000E+00
Ar 1794  0.2410894E+02  0.2410893E+02  0.4297124E+02  0.0000000E+00
Ar 1795  0.2414739E+02  0.2130310E+02  0.4577297E+02  0.0000000E+00
Ar 1796  0.2130310E+02  0.2414739E+02  0.4577297E+02  0.0000000E+00
Ar 1797  0.2132520E+02  0.2132520E+02  0.4842137E+02  0.0000000E+00
Ar 1798  0.2415278E+02  0.2415277E+02  0.4843257E+02  0.0000000E+00
Ar 1799  0.2438739E+02  0.2157348E+02  0.5104984E+02  0.0000000E+00
Ar 1800  0.2157348E+02  0.2438739E+02  0.5104984E+02  0.0000000E+00
Ar 1801  0.2166694E+02  0.2699494E+02  0.3049819E+00  0.0000000E+00
Ar 1802  0.2409580E+02  0.2948087E+02  0.5358932E+02  0.0000000E+00
Ar 1803  0.2423014E+02  0.2704398E+02  0.2820765E+01  0.0000000E+00
Ar 1804  0.2158817E+02  0.2945403E+02  0.2914587E+01  0.0000000E+00
Ar 1805  0.2160318E+02  0.2682842E+02  0.5412155E+01  0.0000000E+00
Ar 1806  0.2416897E+02  0.2965724E+02  0.5596647E+01  0.0000000E+00
Ar 1807  0.2417743E+02  0.2696584E+02  0.8103368E+01  0.0000000E+00
Ar 1808  0.2155630E+02  0.2953710E+02  0.8160936E+01  0.0000000E+00
Ar 1809  0.2171733E+02  0.2692347E+02  0.1071411E+02  0.0000000E+00
Ar 1810  0.2425637E+02  0.2960924E+02  0.1068793E+02  0.0000000E+00
Ar 1811  0.2414884E+02  0.2705327E+02  0.1342965E+02  0.0000000E+00
Ar 1812  0.2162474E+02  0.2959504E+02  0.1335835E+02  0.0000000E+00
Ar 1813  0.2172267E+02  0.2690863E+02  0.1598594E+02  0.0000000E+00
Ar 1814  0.2417375E+02  0.2964718E+02  0.1597454E+02  0.0000000E+00
Ar 1815  0.2424534E+02  0.2688348E+02  0.1893553E+02  0.0000000E+00
Ar 1816  0.2133456E+02  0.2954240E+02  0.1852209E+02  0.0000000E+00
Ar 1817  0.2119758E+02  0.2675986E+02  0.2119758E+02  0.0000000E+00
Ar 1818  0.2392965E+02  0.2974965E+02  0.2112983E+02  0.0000000E+00
Ar 1819  0.2399108E+02  0.2671285E+02  0.2399108E+02  0.0000000E+00
Ar 1820  0.2112983E+02  0.2974965E+02  0.2392965E+02  0.0000000E+00
Ar 1821  0.2146388E+02  0.2672877E+02  0.2672877E+02  0.0000000E+00
Ar 1822  0.2402571E+02  0.2944564E+02  0.2665536E+02  0.0000000E+00
Ar 1823  0.2402571E+02  0.2665536E+02  0.2944564E+02  0.0000000E+00
Ar 1824  0.2128379E+02  0.2932353E+02  0.2932353E+02  0.0000000E+00
Ar 1825  0.2146237E+02  0.2692467E+02  0.3221164E+02  0.0000000E+00
Ar 1826  0.2423242E+02  0.2931073E+02  0.3179681E+02  0.0000000E+00
Ar 1827  0.2419427E+02  0.2694371E+02  0.3468916E+02  0.0000000E+00
Ar 1828  0.2151627E+02  0.2962596E+02  0.3473396E+02  0.0000000E+00
Ar 1829  0.2163625E+02  0.2702146E+02  0.3765494E+02  0.0000000E+00
Ar 1830  0.2413372E+02  0.2939112E+02  0.3759539E+02  0.0000000E+00
Ar 1831  0.2409025E+02  0.2660260E+02  0.4030696E+02  0.0000000E+00
Ar 1832  0.2145358E+02  0.2976781E+02  0.4031913E+02  0.0000000E+00
Ar 1833  0.2150509E+02  0.2665846E+02  0.4329144E+02  0.0000000E+00
Ar 1834  0.2403364E+02  0.2936318E+02  0.4288441E+02  0.0000000E+00
Ar 1835  0.2412688E+02  0.2686545E+02  0.4541562E+02  0.0000000E+00
Ar 1836  0.2125718E+02  0.2971933E+02  0.4569311E+02  0.0000000E+00
Ar 1837  0.2122721E+02  0.2679402E+02  0.4855499E+02  0.0000000E+00
Ar 1838  0.2401442E+02  0.2938412E+02  0.4819429E+02  0.0000000E+00
Ar 1839  0.2418872E+02  0.2686674E+02  0.5084787E+02  0.0000000E+00
Ar 1840  0.2166847E+02  0.2961423E+02  0.5108152E+02  0.0000000E+00
Ar 1841  0.2165065E+02  0.3225793E+02  0.5365400E+02  0.0000000E+00
Ar 1842  0.2409418E+02  0.3509253E+02  0.1623237E+00  0.0000000E+00
Ar 1843  0.2398148E+02  0.3210297E+02  0.2635666E+01  0.0000000E+00
Ar 1844  0.2152744E+02  0.3493510E+02  0.2520116E+01  0.0000000E+00
Ar 1845  0.2155458E+02  0.3218314E+02  0.5574102E+01  0.0000000E+00
Ar 1846  0.2451697E+02  0.3490948E+02  0.5544789E+01  0.0000000E+00
Ar 1847  0.2423744E+02  0.3223247E+02  0.8106734E+01  0.0000000E+00
Ar 1848  0.2176485E+02  0.3509026E+02  0.8062884E+01  0.0000000E+00
Ar 1849  0.2166927E+02  0.3219055E+02  0.1067601E+02  0.0000000E+00
Ar 1850  0.2429247E+02  0.3501819E+02  0.1085564E+02  0.0000000E+00
Ar 1851  0.2450708E+02  0.3229872E+02  0.1338804E+02  0.0000000E+00
Ar 1852  0.2150376E+02  0.3499846E+02  0.1355210E+02  0.0000000E+00
Ar 1853  0.2157471E+02  0.3232562E+02  0.1609574E+02  0.0000000E+00
Ar 1854  0.2402086E+02  0.3518056E+02  0.1609574E+02  0.0000000E+00
Ar 1855  0.2427530E+02  0.3243766E+02  0.1877240E+02  0.0000000E+00
Ar 1856  0.2177618E+02  0.3514234E+02  0.1881913E+02  0.0000000E+00
Ar 1857  0.2124730E+02  0.3249888E+02  0.2124730E+02  0.0000000E+00
Ar 1858  0.2420250E+02  0.3494260E+02  0.2160677E+02  0.0000000E+00
Ar 1859  0.2363794E+02  0.3213683E+02  0.2363795E+02  0.0000000E+00
Ar 1860  0.2160677E+02  0.3494260E+02  0.2420250E+02  0.0000000E+00
Ar 1861  0.2146237E+02  0.3221164E+02  0.2692467E+02  0.0000000E+00
Ar 1862  0.2419428E+02  0.3468916E+02  0.2694371E+02  0.0000000E+00
Ar 1863  0.2423241E+02  0.3179681E+02  0.2931073E+02  0.0000000E+00
Ar 1864  0.2151627E+02  0.3473396E+02  0.2962595E+02  0.0000000E+00
Ar 1865  0.2136177E+02  0.3204521E+02  0.3204521E+02  0.0000000E+00
Ar 1866  0.2407345E+02  0.3465515E+02  0.3202795E+02  0.0000000E+00
Ar 1867  0.2407345E+02  0.3202795E+02  0.3465516E+02  0.0000000E+00
Ar 1868  0.2158661E+02  0.3474418E+02  0.3474418E+02  0.0000000E+00
Ar 1869  0.2159793E+02  0.3215661E+02  0.3758030E+02  0.0000000E+00
Ar 1870  0.2402413E+02  0.3471895E+02  0.3773935E+02  0.0000000E+00
Ar 1871  0.2423064E+02  0.3226833E+02  0.4007083E+02  0.0000000E+00
Ar 1872  0.2165261E+02  0.3481827E+02  0.4024906E+02  0.0000000E+00
Ar 1873  0.2197570E+02  0.3235555E+02  0.4299615E+02  0.0000000E+00
Ar 1874  0.2427099E+02  0.3500705E+02  0.4319882E+02  0.0000000E+00
Ar 1875  0.2423255E+02  0.3205381E+02  0.4557034E+02  0.0000000E+00
Ar 1876  0.2146947E+02  0.3487780E+02  0.4560049E+02  0.0000000E+00
Ar 1877  0.2166809E+02  0.3243366E+02  0.4838497E+02  0.0000000E+00
Ar 1878  0.2417431E+02  0.3487231E+02  0.4821787E+02  0.0000000E+00
Ar 1879  0.2428934E+02  0.3229975E+02  0.5077766E+02  0.0000000E+00
Ar 1880  0.2166873E+02  0.3489115E+02  0.5114901E+02  0.0000000E+00
Ar 1881  0.2156429E+02  0.3774054E+02  0.3932000E+00  0.0000000E+00
Ar 1882  0.2446184E+02  0.4011255E+02  0.2739578E+00  0.0000000E+00
Ar 1883  0.2423375E+02  0.3740426E+02  0.2883586E+01  0.0000000E+00
Ar 1884  0.2153755E+02  0.4016385E+02  0.2822605E+01  0.0000000E+00
Ar 1885  0.2168128E+02  0.3753068E+02  0.5444527E+01  0.0000000E+00
Ar 1886  0.2430534E+02  0.4036082E+02  0.5239306E+01  0.0000000E+00
Ar 1887  0.2451258E+02  0.3762180E+02  0.8075104E+01  0.0000000E+00
Ar 1888  0.2178116E+02  0.4050441E+02  0.8253647E+01  0.0000000E+00
Ar 1889  0.2160913E+02  0.3767676E+02  0.1102981E+02  0.0000000E+00
Ar 1890  0.2452782E+02  0.4054676E+02  0.1069489E+02  0.0000000E+00
Ar 1891  0.2439529E+02  0.3765584E+02  0.1367976E+02  0.0000000E+00
Ar 1892  0.2165023E+02  0.4041222E+02  0.1353061E+02  0.0000000E+00
Ar 1893  0.2159868E+02  0.3777367E+02  0.1610542E+02  0.0000000E+00
Ar 1894  0.2425233E+02  0.4047944E+02  0.1627499E+02  0.0000000E+00
Ar 1895  0.2430484E+02  0.3774244E+02  0.1865234E+02  0.0000000E+00
Ar 1896  0.2162761E+02  0.4037622E+02  0.1881244E+02  0.0000000E+00
Ar 1897  0.2156783E+02  0.3766159E+02  0.2156783E+02  0.0000000E+00
Ar 1898  0.2418538E+02  0.4031055E+02  0.2128055E+02  0.0000000E+00
Ar 1899  0.2427505E+02  0.3760101E+02  0.2427505E+02  0.0000000E+00
Ar 1900  0.2128055E+02  0.4031055E+02  0.2418538E+02  0.0000000E+00
Ar 1901  0.2163625E+02  0.3765494E+02  0.2702146E+02  0.0000000E+00
Ar 1902  0.2409025E+02  0.4030696E+02  0.2660260E+02  0.0000000E+00
Ar 1903  0.2413372E+02  0.3759539E+02  0.2939112E+02  0.0000000E+00
Ar 1904  0.2145358E+02  0.4031913E+02  0.2976781E+02  0.0000000E+00
Ar 1905  0.2159793E+02  0.3758030E+02  0.3215661E+02  0.0000000E+00
Ar 1906  0.2423063E+02  0.4007083E+02  0.3226833E+02  0.0000000E+00
Ar 1907  0.2402413E+02  0.3773935E+02  0.3471895E+02  0.0000000E+00
Ar 1908  0.2165261E+02  0.4024906E+02  0.3481826E+02  0.0000000E+00
Ar 1909  0.2174930E+02  0.3752533E+02  0.3752533E+02  0.0000000E+00
Ar 1910  0.2453917E+02  0.4043635E+02  0.3739540E+02  0.0000000E+00
Ar 1911  0.2453918E+02  0.3739540E+02  0.4043635E+02  0.0000000E+00
Ar 1912  0.2192794E+02  0.4017115E+02  0.4017115E+02  0.0000000E+00
Ar 1913  0.2154158E+02  0.3754231E+02  0.4289237E+02  0.0000000E+00
Ar 1914  0.2433636E+02  0.4017183E+02  0.4283617E+02  0.0000000E+00
Ar 1915  0.2449111E+02  0.3769037E+02  0.4560304E+02  0.0000000E+00
Ar 1916  0.2151084E+02  0.4039698E+02  0.4557865E+02  0.0000000E+00
Ar 1917  0.2169450E+02  0.3771509E+02  0.4789429E+02  0.0000000E+00
Ar 1918  0.2436359E+02  0.4019944E+02  0.4827867E+02  0.0000000E+00
Ar 1919  0.2412981E+02  0.3741503E+02  0.5100669E+02  0.0000000E+00
Ar 1920  0.2146622E+02  0.4007581E+02  0.5103359E+02  0.0000000E+00
Ar 1921  0.2145433E+02  0.4295472E+02  0.3030006E+00  0.0000000E+00
Ar 1922  0.2395802E+02  0.4547792E+02  0.5375737E+02  0.0000000E+00
Ar 1923  0.2429050E+02  0.4314452E+02  0.2592103E+01  0.0000000E+00
Ar 1924  0.2146156E+02  0.4583283E+02  0.2680261E+01  0.0000000E+00
Ar 1925  0.2166045E+02  0.4318450E+02  0.5424253E+01  0.0000000E+00
Ar 1926  0.2435638E+02  0.4563424E+02  0.5335329E+01  0.0000000E+00
Ar 1927  0.2437479E+02  0.4310278E+02  0.7963302E+01  0.0000000E+00
Ar 1928  0.2171497E+02  0.4568832E+02  0.8228037E+01  0.0000000E+00
Ar 1929  0.2167510E+02  0.4291777E+02  0.1087633E+02  0.0000000E+00
Ar 1930  0.2451143E+02  0.4581934E+02  0.1074739E+02  0.0000000E+00
Ar 1931  0.2429079E+02  0.4300166E+02  0.1341749E+02  0.0000000E+00
Ar 1932  0.2173172E+02  0.4575404E+02  0.1355498E+02  0.0000000E+00
Ar 1933  0.2150365E+02  0.4324322E+02  0.1606278E+02  0.0000000E+00
Ar 1934  0.2436973E+02  0.4569524E+02  0.1612946E+02  0.0000000E+00
Ar 1935  0.2427639E+02  0.4310537E+02  0.1890692E+02  0.0000000E+00
Ar 1936  0.2153031E+02  0.4555720E+02  0.1874479E+02  0.0000000E+00
Ar 1937  0.2157140E+02  0.4313957E+02  0.2157140E+02  0.0000000E+00
Ar 1938  0.2414739E+02  0.4577297E+02  0.2130310E+02  0.0000000E+00
Ar 1939  0.2410893E+02  0.4297124E+02  0.2410893E+02  0.0000000E+00
Ar 1940  0.2130310E+02  0.4577297E+02  0.2414739E+02  0.0000000E+00
Ar 1941  0.2150509E+02  0.4329144E+02  0.2665846E+02  0.0000000E+00
Ar 1942  0.2412688E+02  0.4541562E+02  0.2686545E+02  0.0000000E+00
Ar 1943  0.2403365E+02  0.4288441E+02  0.2936318E+02  0.0000000E+00
Ar 1944  0.2125717E+02  0.4569311E+02  0.2971933E+02  0.0000000E+00
Ar 1945  0.2197570E+02  0.4299615E+02  0.3235555E+02  0.0000000E+00
Ar 1946  0.2423255E+02  0.4557034E+02  0.3205381E+02  0.0000000E+00
Ar 1947  0.2427099E+02  0.4319881E+02  0.3500705E+02  0.0000000E+00
Ar 1948  0.2146947E+02  0.4560049E+02  0.3487780E+02  0.0000000E+00
Ar 1949  0.2154158E+02  0.4289237E+02  0.3754232E+02  0.0000000E+00
Ar 1950  0.2449111E+02  0.4560304E+02  0.3769037E+02  0.0000000E+00
Ar 1951  0.2433636E+02  0.4283617E+02  0.4017183E+02  0.0000000E+00
Ar 1952  0.2151084E+02  0.4557865E+02  0.4039698E+02  0.0000000E+00
Ar 1953  0.2145478E+02  0.4280020E+02  0.4280019E+02  0.0000000E+00
Ar 1954  0.2415140E+02  0.4570198E+02  0.4275112E+02  0.0000000E+00
Ar 1955  0.2415140E+02  0.4275113E+02  0.4570198E+02  0.0000000E+00
Ar 1956  0.2191192E+02  0.4567846E+02  0.4567847E+02  0.0000000E+00
Ar 1957  0.2155934E+02  0.4289920E+02  0.4846782E+02  0.0000000E+00
Ar 1958  0.2425967E+02  0.4551985E+02  0.4845985E+02  0.0000000E+00
Ar 1959  0.2408795E+02  0.4279991E+02  0.5131408E+02  0.0000000E+00
Ar 1960  0.2157913E+02  0.4568593E+02  0.5103360E+02  0.0000000E+00
Ar 1961  0.2152962E+02  0.4856007E+02  0.1228181E+00  0.0000000E+00
Ar 1962  0.2417344E+02  0.5107188E+02  0.2968109E+00  0.0000000E+00
Ar 1963  0.2417293E+02  0.4855334E+02  0.2935178E+01  0.0000000E+00
Ar 1964  0.2145872E+02  0.5120811E+02  0.2915960E+01  0.0000000E+00
Ar 1965  0.2143389E+02  0.4806397E+02  0.5485999E+01  0.0000000E+00
Ar 1966  0.2402643E+02  0.5114264E+02  0.5331254E+01  0.0000000E+00
Ar 1967  0.2408745E+02  0.4843588E+02  0.8072683E+01  0.0000000E+00
Ar 1968  0.2165856E+02  0.5107260E+02  0.8076967E+01  0.0000000E+00
Ar 1969  0.2179790E+02  0.4838636E+02  0.1089055E+02  0.0000000E+00
Ar 1970  0.2414951E+02  0.5122265E+02  0.1087027E+02  0.0000000E+00
Ar 1971  0.2422228E+02  0.4854015E+02  0.1374429E+02  0.0000000E+00
Ar 1972  0.2153859E+02  0.5103098E+02  0.1355253E+02  0.0000000E+00
Ar 1973  0.2151753E+02  0.4833282E+02  0.1619320E+02  0.0000000E+00
Ar 1974  0.2419012E+02  0.5141967E+02  0.1623764E+02  0.0000000E+00
Ar 1975  0.2397780E+02  0.4834316E+02  0.1895038E+02  0.0000000E+00
Ar 1976  0.2161931E+02  0.5101122E+02  0.1895887E+02  0.0000000E+00
Ar 1977  0.2132520E+02  0.4842137E+02  0.2132520E+02  0.0000000E+00
Ar 1978  0.2438739E+02  0.5104984E+02  0.2157348E+02  0.0000000E+00
Ar 1979  0.2415278E+02  0.4843257E+02  0.2415277E+02  0.0000000E+00
Ar 1980  0.2157348E+02  0.5104984E+02  0.2438739E+02  0.0000000E+00
Ar 1981  0.2122721E+02  0.4855499E+02  0.2679403E+02  0.0000000E+00
Ar 1982  0.2418872E+02  0.5084787E+02  0.2686675E+02  0.0000000E+00
Ar 1983  0.2401442E+02  0.4819429E+02  0.2938412E+02  0.0000000E+00
Ar 1984  0.2166847E+02  0.5108152E+02  0.2961423E+02  0.0000000E+00
Ar 1985  0.2166809E+02  0.4838497E+02  0.3243366E+02  0.0000000E+00
Ar 1986  0.2428934E+02  0.5077766E+02  0.3229976E+02  0.0000000E+00
Ar 1987  0.2417432E+02  0.4821787E+02  0.3487231E+02  0.0000000E+00
Ar 1988  0.2166873E+02  0.5114901E+02  0.3489115E+02  0.0000000E+00
Ar 1989  0.2169450E+02  0.4789429E+02  0.3771509E+02  0.0000000E+00
Ar 1990  0.2412981E+02  0.5100669E+02  0.3741503E+02  0.0000000E+00
Ar 1991  0.2436359E+02  0.4827868E+02  0.4019944E+02  0.0000000E+00
Ar 1992  0.2146622E+02  0.5103359E+02  0.4007581E+02  0.0000000E+00
Ar 1993  0.2155934E+02  0.4846782E+02  0.4289920E+02  0.0000000E+00
Ar 1994  0.2408796E+02  0.5131408E+02  0.4279991E+02  0.0000000E+00
Ar 1995  0.2425967E+02  0.4845985E+02  0.4551985E+02  0.0000000E+00
Ar 1996  0.2157913E+02  0.5103360E+02  0.4568593E+02  0.0000000E+00
Ar 1997  0.2168527E+02  0.4850752E+02  0.4850752E+02  0.0000000E+00
Ar 1998  0.2421242E+02  0.5121430E+02  0.4823192E+02  0.0000000E+00
Ar 1999  0.2421242E+02  0.4823192E+02  0.5121430E+02  0.0000000E+00
Ar 2000  0.2194823E+02  0.5110269E+02  0.5110269E+02  0.0000000E+00
Ar 2001  0.2664215E+02  0.1525109E+00  0.1525129E+00  0.0000000E+00
Ar 2002  0.2924405E+02  0.2540159E+01  0.1317805E+00  0.0000000E+00
Ar 2003  0.2924405E+02  0.1317817E+00  0.2540158E+01  0.0000000E+00
Ar 2004  0.2666312E+02  0.2759201E+01  0.2759201E+01  0.0000000E+00
Ar 2005  0.2674383E+02  0.2409141E+00  0.5273988E+01  0.0000000E+00
Ar 2006  0.2912032E+02  0.2822135E+01  0.5460863E+01  0.0000000E+00
Ar 2007  0.2942503E+02  0.2686259E+00  0.8244327E+01  0.0000000E+00
Ar 2008  0.2680924E+02  0.2973682E+01  0.8283072E+01  0.0000000E+00
Ar 2009  0.2705165E+02  0.5367356E+02  0.1078325E+02  0.0000000E+00
Ar 2010  0.2950439E+02  0.3117592E+01  0.1095697E+02  0.0000000E+00
Ar 2011  0.2976739E+02  0.3219506E+00  0.1381143E+02  0.0000000E+00
Ar 2012  0.2655603E+02  0.2457256E+01  0.1355281E+02  0.0000000E+00
Ar 2013  0.2684579E+02  0.3026737E+00  0.1638756E+02  0.0000000E+00
Ar 2014  0.2983220E+02  0.2881931E+01  0.1620644E+02  0.0000000E+00
Ar 2015  0.2972328E+02  0.7119853E-01  0.1883717E+02  0.0000000E+00
Ar 2016  0.2710742E+02  0.2840396E+01  0.1881161E+02  0.0000000E+00
Ar 2017  0.2699494E+02  0.3049800E+00  0.2166694E+02  0.0000000E+00
Ar 2018  0.2945403E+02  0.2914586E+01  0.2158817E+02  0.0000000E+00
Ar 2019  0.2948088E+02  0.5358932E+02  0.2409580E+02  0.0000000E+00
Ar 2020  0.2704397E+02  0.2820761E+01  0.2423014E+02  0.0000000E+00
Ar 2021  0.2668459E+02  0.5333202E+02  0.2668459E+02  0.0000000E+00
Ar 2022  0.2950287E+02  0.2562204E+01  0.2691533E+02  0.0000000E+00
Ar 2023  0.2975475E+02  0.5370359E+02  0.2975474E+02  0.0000000E+00
Ar 2024  0.2691533E+02  0.2562202E+01  0.2950287E+02  0.0000000E+00
Ar 2025  0.2677211E+02  0.5365590E+02  0.3214006E+02  0.0000000E+00
Ar 2026  0.2949700E+02  0.2703669E+01  0.3215055E+02  0.0000000E+00
Ar 2027  0.2975048E+02  0.5329018E+02  0.3472719E+02  0.0000000E+00
Ar 2028  0.2689843E+02  0.2612515E+01  0.3481681E+02  0.0000000E+00
Ar 2029  0.2682197E+02  0.5357632E+02  0.3730791E+02  0.0000000E+00
Ar 2030  0.2953399E+02  0.2497202E+01  0.3750776E+02  0.0000000E+00
Ar 2031  0.2974855E+02  0.1291930E+00  0.4068200E+02  0.0000000E+00
Ar 2032  0.2707075E+02  0.2789796E+01  0.4041654E+02  0.0000000E+00
Ar 2033  0.2685649E+02  0.2098137E+00  0.4303646E+02  0.0000000E+00
Ar 2034  0.2987519E+02  0.3072407E+01  0.4332871E+02  0.0000000E+00
Ar 2035  0.2959520E+02  0.1617750E+00  0.4549280E+02  0.0000000E+00
Ar 2036  0.2673776E+02  0.2816579E+01  0.4625796E+02  0.0000000E+00
Ar 2037  0.2701879E+02  0.5374461E+02  0.4858326E+02  0.0000000E+00
Ar 2038  0.2956637E+02  0.3025247E+01  0.4850310E+02  0.0000000E+00
Ar 2039  0.2952037E+02  0.5365192E+02  0.5117530E+02  0.0000000E+00
Ar 2040  0.2680656E+02  0.2885200E+01  0.5106716E+02  0.0000000E+00
Ar 2041  0.2674383E+02  0.5273986E+01  0.2409123E+00  0.0000000E+00
Ar 2042  0.2942503E+02  0.8244324E+01  0.2686289E+00  0.0000000E+00
Ar 2043  0.2912032E+02  0.5460860E+01  0.2822135E+01  0.0000000E+00
Ar 2044  0.2680924E+02  0.8283074E+01  0.2973678E+01  0.0000000E+00
Ar 2045  0.2698772E+02  0.5600342E+01  0.5600340E+01  0.0000000E+00
Ar 2046  0.2952441E+02  0.8251771E+01  0.5447574E+01  0.0000000E+00
Ar 2047  0.2952441E+02  0.5447574E+01  0.8251772E+01  0.0000000E+00
Ar 2048  0.2661895E+02  0.8021772E+01  0.8021772E+01  0.0000000E+00
Ar 2049  0.2682981E+02  0.5654992E+01  0.1084502E+02  0.0000000E+00
Ar 2050  0.2967211E+02  0.7969029E+01  0.1081383E+02  0.0000000E+00
Ar 2051  0.2959297E+02  0.5687796E+01  0.1364697E+02  0.0000000E+00
Ar 2052  0.2670810E+02  0.8096957E+01  0.1346007E+02  0.0000000E+00
Ar 2053  0.2690046E+02  0.5098626E+01  0.1590735E+02  0.0000000E+00
Ar 2054  0.2946128E+02  0.8269799E+01  0.1603089E+02  0.0000000E+00
Ar 2055  0.2947733E+02  0.5438068E+01  0.1897091E+02  0.0000000E+00
Ar 2056  0.2688361E+02  0.8029005E+01  0.1846514E+02  0.0000000E+00
Ar 2057  0.2682842E+02  0.5412153E+01  0.2160318E+02  0.0000000E+00
Ar 2058  0.2953710E+02  0.8160941E+01  0.2155630E+02  0.0000000E+00
Ar 2059  0.2965724E+02  0.5596645E+01  0.2416898E+02  0.0000000E+00
Ar 2060  0.2696584E+02  0.8103370E+01  0.2417743E+02  0.0000000E+00
Ar 2061  0.2689682E+02  0.5324385E+01  0.2689683E+02  0.0000000E+00
Ar 2062  0.2937114E+02  0.8067078E+01  0.2676119E+02  0.0000000E+00
Ar 2063  0.2941517E+02  0.5323543E+01  0.2941517E+02  0.0000000E+00
Ar 2064  0.2676119E+02  0.8067077E+01  0.2937114E+02  0.0000000E+00
Ar 2065  0.2701165E+02  0.5286868E+01  0.3220862E+02  0.0000000E+00
Ar 2066  0.2954430E+02  0.8014074E+01  0.3231944E+02  0.0000000E+00
Ar 2067  0.2951469E+02  0.5402925E+01  0.3470149E+02  0.0000000E+00
Ar 2068  0.2702601E+02  0.8082910E+01  0.3508136E+02  0.0000000E+00
Ar 2069  0.2714632E+02  0.5373596E+01  0.3764386E+02  0.0000000E+00
Ar 2070  0.2951118E+02  0.8159081E+01  0.3783757E+02  0.0000000E+00
Ar 2071  0.2991204E+02  0.5279655E+01  0.4033045E+02  0.0000000E+00
Ar 2072  0.2685159E+02  0.7936068E+01  0.4029855E+02  0.0000000E+00
Ar 2073  0.2713958E+02  0.5399553E+01  0.4329273E+02  0.0000000E+00
Ar 2074  0.2963008E+02  0.7853985E+01  0.4298281E+02  0.0000000E+00
Ar 2075  0.2956381E+02  0.5715709E+01  0.4580513E+02  0.0000000E+00
Ar 2076  0.2704857E+02  0.8139327E+01  0.4578619E+02  0.0000000E+00
Ar 2077  0.2686974E+02  0.5799192E+01  0.4829409E+02  0.0000000E+00
Ar 2078  0.2974994E+02  0.8479124E+01  0.4830305E+02  0.0000000E+00
Ar 2079  0.2942627E+02  0.5575859E+01  0.5138794E+02  0.0000000E+00
Ar 2080  0.2665946E+02  0.8124312E+01  0.5107424E+02  0.0000000E+00
Ar 2081  0.2705165E+02  0.1078325E+02  0.5367356E+02  0.0000000E+00
Ar 2082  0.2976739E+02  0.1381143E+02  0.3219496E+00  0.0000000E+00
Ar 2083  0.2950439E+02  0.1095697E+02  0.3117592E+01  0.0000000E+00
Ar 2084  0.2655603E+02  0.1355281E+02  0.2457256E+01  0.0000000E+00
Ar 2085  0.2682981E+02  0.1084502E+02  0.5654990E+01  0.0000000E+00
Ar 2086  0.2959297E+02  0.1364697E+02  0.5687799E+01  0.0000000E+00
Ar 2087  0.2967211E+02  0.1081383E+02  0.7969030E+01  0.0000000E+00
Ar 2088  0.2670810E+02  0.1346007E+02  0.8096957E+01  0.0000000E+00
Ar 2089  0.2694293E+02  0.1065048E+02  0.1065048E+02  0.0000000E+00
Ar 2090  0.2941977E+02  0.1338667E+02  0.1067372E+02  0.0000000E+00
Ar 2091  0.2941977E+02  0.1067372E+02  0.1338667E+02  0.0000000E+00
Ar 2092  0.2674536E+02  0.1334955E+02  0.1334955E+02  0.0000000E+00
Ar 2093  0.2681778E+02  0.1089026E+02  0.1595957E+02  0.0000000E+00
Ar 2094  0.2947558E+02  0.1326961E+02  0.1629197E+02  0.0000000E+00
Ar 2095  0.2969440E+02  0.1063961E+02  0.1886363E+02  0.0000000E+00
Ar 2096  0.2673984E+02  0.1349809E+02  0.1881029E+02  0.0000000E+00
Ar 2097  0.2692347E+02  0.1071411E+02  0.2171733E+02  0.0000000E+00
Ar 2098  0.2959504E+02  0.1335835E+02  0.2162474E+02  0.0000000E+00
Ar 2099  0.2960924E+02  0.1068793E+02  0.2425637E+02  0.0000000E+00
Ar 2100  0.2705327E+02  0.1342966E+02  0.2414884E+02  0.0000000E+00
Ar 2101  0.2718191E+02  0.1080363E+02  0.2718191E+02  0.0000000E+00
Ar 2102  0.2983656E+02  0.1338514E+02  0.2708669E+02  0.0000000E+00
Ar 2103  0.2972309E+02  0.1062848E+02  0.2972309E+02  0.0000000E+00
Ar 2104  0.2708669E+02  0.1338514E+02  0.2983656E+02  0.0000000E+00
Ar 2105  0.2682625E+02  0.1071499E+02  0.3214042E+02  0.0000000E+00
Ar 2106  0.2953872E+02  0.1367593E+02  0.3238088E+02  0.0000000E+00
Ar 2107  0.2960180E+02  0.1087635E+02  0.3492408E+02  0.0000000E+00
Ar 2108  0.2679720E+02  0.1371814E+02  0.3496753E+02  0.0000000E+00
Ar 2109  0.2714111E+02  0.1079304E+02  0.3744295E+02  0.0000000E+00
Ar 2110  0.2948923E+02  0.1373582E+02  0.3765141E+02  0.0000000E+00
Ar 2111  0.2955447E+02  0.1079694E+02  0.4028941E+02  0.0000000E+00
Ar 2112  0.2682584E+02  0.1377913E+02  0.4031190E+02  0.0000000E+00
Ar 2113  0.2702421E+02  0.1091523E+02  0.4293345E+02  0.0000000E+00
Ar 2114  0.2966662E+02  0.1376430E+02  0.4293292E+02  0.0000000E+00
Ar 2115  0.2969142E+02  0.1109120E+02  0.4553372E+02  0.0000000E+00
Ar 2116  0.2698994E+02  0.1345525E+02  0.4580847E+02  0.0000000E+00
Ar 2117  0.2658381E+02  0.1072134E+02  0.4858072E+02  0.0000000E+00
Ar 2118  0.2985169E+02  0.1351806E+02  0.4858071E+02  0.0000000E+00
Ar 2119  0.2973128E+02  0.1094357E+02  0.5110084E+02  0.0000000E+00
Ar 2120  0.2705208E+02  0.1370459E+02  0.5129293E+02  0.0000000E+00
Ar 2121  0.2684579E+02  0.1638756E+02  0.3026740E+00  0.0000000E+00
Ar 2122  0.2972328E+02  0.1883717E+02  0.7119837E-01  0.0000000E+00
Ar 2123  0.2983221E+02  0.1620644E+02  0.2881931E+01  0.0000000E+00
Ar 2124  0.2710742E+02  0.1881161E+02  0.2840395E+01  0.0000000E+00
Ar 2125  0.2690046E+02  0.1590734E+02  0.5098627E+01  0.0000000E+00
Ar 2126  0.2947733E+02  0.1897091E+02  0.5438068E+01  0.0000000E+00
Ar 2127  0.2946128E+02  0.1603089E+02  0.8269798E+01  0.0000000E+00
Ar 2128  0.2688360E+02  0.1846514E+02  0.8029005E+01  0.0000000E+00
Ar 2129  0.2681778E+02  0.1595957E+02  0.1089026E+02  0.0000000E+00
Ar 2130  0.2969440E+02  0.1886363E+02  0.1063961E+02  0.0000000E+00
Ar 2131  0.2947558E+02  0.1629197E+02  0.1326961E+02  0.0000000E+00
Ar 2132  0.2673984E+02  0.1881029E+02  0.1349809E+02  0.0000000E+00
Ar 2133  0.2684352E+02  0.1583015E+02  0.1583015E+02  0.0000000E+00
Ar 2134  0.2966589E+02  0.1873217E+02  0.1618096E+02  0.0000000E+00
Ar 2135  0.2966588E+02  0.1618096E+02  0.1873216E+02  0.0000000E+00
Ar 2136  0.2694157E+02  0.1842576E+02  0.1842576E+02  0.0000000E+00
Ar 2137  0.2690863E+02  0.1598594E+02  0.2172266E+02  0.0000000E+00
Ar 2138  0.2954240E+02  0.1852209E+02  0.2133456E+02  0.0000000E+00
Ar 2139  0.2964718E+02  0.1597454E+02  0.2417375E+02  0.0000000E+00
Ar 2140  0.2688348E+02  0.1893553E+02  0.2424534E+02  0.0000000E+00
Ar 2141  0.2716268E+02  0.1586208E+02  0.2716268E+02  0.0000000E+00
Ar 2142  0.2962875E+02  0.1866760E+02  0.2681409E+02  0.0000000E+00
Ar 2143  0.2984364E+02  0.1602813E+02  0.2984363E+02  0.0000000E+00
Ar 2144  0.2681409E+02  0.1866761E+02  0.2962875E+02  0.0000000E+00
Ar 2145  0.2677730E+02  0.1603763E+02  0.3215294E+02  0.0000000E+00
Ar 2146  0.2952818E+02  0.1874326E+02  0.3224800E+02  0.0000000E+00
Ar 2147  0.2943080E+02  0.1625221E+02  0.3481111E+02  0.0000000E+00
Ar 2148  0.2690719E+02  0.1911029E+02  0.3508183E+02  0.0000000E+00
Ar 2149  0.2683946E+02  0.1638985E+02  0.3759837E+02  0.0000000E+00
Ar 2150  0.2939425E+02  0.1886132E+02  0.3793012E+02  0.0000000E+00
Ar 2151  0.2981542E+02  0.1635119E+02  0.4047490E+02  0.0000000E+00
Ar 2152  0.2679151E+02  0.1902073E+02  0.4045060E+02  0.0000000E+00
Ar 2153  0.2707824E+02  0.1627786E+02  0.4301578E+02  0.0000000E+00
Ar 2154  0.2966390E+02  0.1908738E+02  0.4309340E+02  0.0000000E+00
Ar 2155  0.2962177E+02  0.1616760E+02  0.4579345E+02  0.0000000E+00
Ar 2156  0.2694701E+02  0.1873487E+02  0.4574595E+02  0.0000000E+00
Ar 2157  0.2696599E+02  0.1610921E+02  0.4839225E+02  0.0000000E+00
Ar 2158  0.2955620E+02  0.1896672E+02  0.4854167E+02  0.0000000E+00
Ar 2159  0.2942362E+02  0.1634491E+02  0.5117612E+02  0.0000000E+00
Ar 2160  0.2677919E+02  0.1877848E+02  0.5131807E+02  0.0000000E+00
Ar 2161  0.2699494E+02  0.2166694E+02  0.3049801E+00  0.0000000E+00
Ar 2162  0.2948087E+02  0.2409580E+02  0.5358932E+02  0.0000000E+00
Ar 2163  0.2945403E+02  0.2158817E+02  0.2914586E+01  0.0000000E+00
Ar 2164  0.2704397E+02  0.2423014E+02  0.2820761E+01  0.0000000E+00
Ar 2165  0.2682842E+02  0.2160318E+02  0.5412155E+01  0.0000000E+00
Ar 2166  0.2965724E+02  0.2416898E+02  0.5596645E+01  0.0000000E+00
Ar 2167  0.2953710E+02  0.2155630E+02  0.8160939E+01  0.0000000E+00
Ar 2168  0.2696583E+02  0.2417743E+02  0.8103370E+01  0.0000000E+00
Ar 2169  0.2692347E+02  0.2171733E+02  0.1071411E+02  0.0000000E+00
Ar 2170  0.2960923E+02  0.2425637E+02  0.1068793E+02  0.0000000E+00
Ar 2171  0.2959504E+02  0.2162474E+02  0.1335835E+02  0.0000000E+00
Ar 2172  0.2705327E+02  0.2414885E+02  0.1342965E+02  0.0000000E+00
Ar 2173  0.2690863E+02  0.2172266E+02  0.1598594E+02  0.0000000E+00
Ar 2174  0.2964718E+02  0.2417375E+02  0.1597454E+02  0.0000000E+00
Ar 2175  0.2954240E+02  0.2133456E+02  0.1852209E+02  0.0000000E+00
Ar 2176  0.2688348E+02  0.2424534E+02  0.1893553E+02  0.0000000E+00
Ar 2177  0.2675986E+02  0.2119758E+02  0.2119758E+02  0.0000000E+00
Ar 2178  0.2974966E+02  0.2392965E+02  0.2112983E+02  0.0000000E+00
Ar 2179  0.2974965E+02  0.2112983E+02  0.2392965E+02  0.0000000E+00
Ar 2180  0.2671285E+02  0.2399108E+02  0.2399108E+02  0.0000000E+00
Ar 2181  0.2672877E+02  0.2146388E+02  0.2672877E+02  0.0000000E+00
Ar 2182  0.2944564E+02  0.2402570E+02  0.2665536E+02  0.0000000E+00
Ar 2183  0.2932353E+02  0.2128379E+02  0.2932353E+02  0.0000000E+00
Ar 2184  0.2665536E+02  0.2402571E+02  0.2944564E+02  0.0000000E+00
Ar 2185  0.2692467E+02  0.2146237E+02  0.3221163E+02  0.0000000E+00
Ar 2186  0.2931073E+02  0.2423242E+02  0.3179680E+02  0.0000000E+00
Ar 2187  0.2962595E+02  0.2151627E+02  0.3473396E+02  0.0000000E+00
Ar 2188  0.2694371E+02  0.2419427E+02  0.3468917E+02  0.0000000E+00
Ar 2189  0.2702146E+02  0.2163625E+02  0.3765494E+02  0.0000000E+00
Ar 2190  0.2939112E+02  0.2413372E+02  0.3759539E+02  0.0000000E+00
Ar 2191  0.2976781E+02  0.2145358E+02  0.4031913E+02  0.0000000E+00
Ar 2192  0.2660261E+02  0.2409025E+02  0.4030696E+02  0.0000000E+00
Ar 2193  0.2665846E+02  0.2150509E+02  0.4329144E+02  0.0000000E+00
Ar 2194  0.2936318E+02  0.2403365E+02  0.4288441E+02  0.0000000E+00
Ar 2195  0.2971933E+02  0.2125717E+02  0.4569311E+02  0.0000000E+00
Ar 2196  0.2686546E+02  0.2412688E+02  0.4541562E+02  0.0000000E+00
Ar 2197  0.2679402E+02  0.2122721E+02  0.4855500E+02  0.0000000E+00
Ar 2198  0.2938412E+02  0.2401442E+02  0.4819429E+02  0.0000000E+00
Ar 2199  0.2961423E+02  0.2166847E+02  0.5108153E+02  0.0000000E+00
Ar 2200  0.2686675E+02  0.2418871E+02  0.5084787E+02  0.0000000E+00
Ar 2201  0.2668459E+02  0.2668459E+02  0.5333203E+02  0.0000000E+00
Ar 2202  0.2975475E+02  0.2975474E+02  0.5370360E+02  0.0000000E+00
Ar 2203  0.2950287E+02  0.2691533E+02  0.2562203E+01  0.0000000E+00
Ar 2204  0.2691533E+02  0.2950287E+02  0.2562204E+01  0.0000000E+00
Ar 2205  0.2689683E+02  0.2689683E+02  0.5324384E+01  0.0000000E+00
Ar 2206  0.2941517E+02  0.2941517E+02  0.5323541E+01  0.0000000E+00
Ar 2207  0.2937114E+02  0.2676119E+02  0.8067080E+01  0.0000000E+00
Ar 2208  0.2676119E+02  0.2937114E+02  0.8067077E+01  0.0000000E+00
Ar 2209  0.2718190E+02  0.2718191E+02  0.1080363E+02  0.0000000E+00
Ar 2210  0.2972309E+02  0.2972309E+02  0.1062848E+02  0.0000000E+00
Ar 2211  0.2983656E+02  0.2708669E+02  0.1338514E+02  0.0000000E+00
Ar 2212  0.2708669E+02  0.2983656E+02  0.1338514E+02  0.0000000E+00
Ar 2213  0.2716268E+02  0.2716269E+02  0.1586208E+02  0.0000000E+00
Ar 2214  0.2984364E+02  0.2984364E+02  0.1602813E+02  0.0000000E+00
Ar 2215  0.2962876E+02  0.2681409E+02  0.1866760E+02  0.0000000E+00
Ar 2216  0.2681409E+02  0.2962875E+02  0.1866761E+02  0.0000000E+00
Ar 2217  0.2672877E+02  0.2672877E+02  0.2146388E+02  0.0000000E+00
Ar 2218  0.2932353E+02  0.2932353E+02  0.2128379E+02  0.0000000E+00
Ar 2219  0.2944565E+02  0.2665536E+02  0.2402570E+02  0.0000000E+00
Ar 2220  0.2665536E+02  0.2944564E+02  0.2402571E+02  0.0000000E+00
Ar 2221  0.2654538E+02  0.2654538E+02  0.2654538E+02  0.0000000E+00
Ar 2222  0.2914690E+02  0.2914689E+02  0.2673384E+02  0.0000000E+00
Ar 2223  0.2914690E+02  0.2673384E+02  0.2914689E+02  0.0000000E+00
Ar 2224  0.2673385E+02  0.2914690E+02  0.2914690E+02  0.0000000E+00
Ar 2225  0.2690271E+02  0.2690271E+02  0.3203550E+02  0.0000000E+00
Ar 2226  0.2924156E+02  0.2924156E+02  0.3206880E+02  0.0000000E+00
Ar 2227  0.2953294E+02  0.2673753E+02  0.3511117E+02  0.0000000E+00
Ar 2228  0.2673753E+02  0.2953294E+02  0.3511117E+02  0.0000000E+00
Ar 2229  0.2665700E+02  0.2665700E+02  0.3782358E+02  0.0000000E+00
Ar 2230  0.2956852E+02  0.2956852E+02  0.3742184E+02  0.0000000E+00
Ar 2231  0.2976205E+02  0.2687574E+02  0.4030930E+02  0.0000000E+00
Ar 2232  0.2687574E+02  0.2976205E+02  0.4030930E+02  0.0000000E+00
Ar 2233  0.2692725E+02  0.2692725E+02  0.4292364E+02  0.0000000E+00
Ar 2234  0.2984561E+02  0.2984562E+02  0.4296189E+02  0.0000000E+00
Ar 2235  0.2957759E+02  0.2684529E+02  0.4561143E+02  0.0000000E+00
Ar 2236  0.2684529E+02  0.2957759E+02  0.4561142E+02  0.0000000E+00
Ar 2237  0.2688897E+02  0.2688897E+02  0.4811054E+02  0.0000000E+00
Ar 2238  0.2936024E+02  0.2936024E+02  0.4828387E+02  0.0000000E+00
Ar 2239  0.2943739E+02  0.2701262E+02  0.5101874E+02  0.0000000E+00
Ar 2240  0.2701262E+02  0.2943738E+02  0.5101874E+02  0.0000000E+00
Ar 2241  0.2677211E+02  0.3214006E+02  0.5365590E+02  0.0000000E+00
Ar 2242  0.2975049E+02  0.3472719E+02  0.5329018E+02  0.0000000E+00
Ar 2243  0.2949700E+02  0.3215055E+02  0.2703670E+01  0.0000000E+00
Ar 2244  0.2689843E+02  0.3481681E+02  0.2612520E+01  0.0000000E+00
Ar 2245  0.2701165E+02  0.3220862E+02  0.5286873E+01  0.0000000E+00
Ar 2246  0.2951469E+02  0.3470149E+02  0.5402926E+01  0.0000000E+00
Ar 2247  0.2954430E+02  0.3231944E+02  0.8014075E+01  0.0000000E+00
Ar 2248  0.2702601E+02  0.3508136E+02  0.8082909E+01  0.0000000E+00
Ar 2249  0.2682625E+02  0.3214042E+02  0.1071499E+02  0.0000000E+00
Ar 2250  0.2960180E+02  0.3492408E+02  0.1087634E+02  0.0000000E+00
Ar 2251  0.2953872E+02  0.3238088E+02  0.1367593E+02  0.0000000E+00
Ar 2252  0.2679720E+02  0.3496753E+02  0.1371814E+02  0.0000000E+00
Ar 2253  0.2677730E+02  0.3215294E+02  0.1603763E+02  0.0000000E+00
Ar 2254  0.2943080E+02  0.3481111E+02  0.1625221E+02  0.0000000E+00
Ar 2255  0.2952818E+02  0.3224800E+02  0.1874327E+02  0.0000000E+00
Ar 2256  0.2690719E+02  0.3508183E+02  0.1911029E+02  0.0000000E+00
Ar 2257  0.2692467E+02  0.3221163E+02  0.2146237E+02  0.0000000E+00
Ar 2258  0.2962595E+02  0.3473396E+02  0.2151627E+02  0.0000000E+00
Ar 2259  0.2931073E+02  0.3179680E+02  0.2423241E+02  0.0000000E+00
Ar 2260  0.2694371E+02  0.3468916E+02  0.2419427E+02  0.0000000E+00
Ar 2261  0.2690271E+02  0.3203550E+02  0.2690271E+02  0.0000000E+00
Ar 2262  0.2953294E+02  0.3511117E+02  0.2673753E+02  0.0000000E+00
Ar 2263  0.2924156E+02  0.3206880E+02  0.2924156E+02  0.0000000E+00
Ar 2264  0.2673753E+02  0.3511117E+02  0.2953294E+02  0.0000000E+00
Ar 2265  0.2677723E+02  0.3198432E+02  0.3198432E+02  0.0000000E+00
Ar 2266  0.2938866E+02  0.3470742E+02  0.3192387E+02  0.0000000E+00
Ar 2267  0.2938866E+02  0.3192387E+02  0.3470742E+02  0.0000000E+00
Ar 2268  0.2664200E+02  0.3460559E+02  0.3460558E+02  0.0000000E+00
Ar 2269  0.2665711E+02  0.3238150E+02  0.3744944E+02  0.0000000E+00
Ar 2270  0.2944644E+02  0.3467980E+02  0.3726595E+02  0.0000000E+00
Ar 2271  0.2942594E+02  0.3205916E+02  0.4013353E+02  0.0000000E+00
Ar 2272  0.2696642E+02  0.3484041E+02  0.4021695E+02  0.0000000E+00
Ar 2273  0.2675428E+02  0.3219777E+02  0.4292262E+02  0.0000000E+00
Ar 2274  0.2966730E+02  0.3489776E+02  0.4307976E+02  0.0000000E+00
Ar 2275  0.2972273E+02  0.3227566E+02  0.4555125E+02  0.0000000E+00
Ar 2276  0.2686650E+02  0.3466765E+02  0.4573989E+02  0.0000000E+00
Ar 2277  0.2705053E+02  0.3225479E+02  0.4840858E+02  0.0000000E+00
Ar 2278  0.2943443E+02  0.3495104E+02  0.4825768E+02  0.0000000E+00
Ar 2279  0.2961916E+02  0.3200415E+02  0.5089034E+02  0.0000000E+00
Ar 2280  0.2684163E+02  0.3480517E+02  0.5098977E+02  0.0000000E+00
Ar 2281  0.2682197E+02  0.3730791E+02  0.5357632E+02  0.0000000E+00
Ar 2282  0.2974855E+02  0.4068200E+02  0.1291936E+00  0.0000000E+00
Ar 2283  0.2953399E+02  0.3750776E+02  0.2497200E+01  0.0000000E+00
Ar 2284  0.2707075E+02  0.4041654E+02  0.2789796E+01  0.0000000E+00
Ar 2285  0.2714632E+02  0.3764386E+02  0.5373596E+01  0.0000000E+00
Ar 2286  0.2991204E+02  0.4033045E+02  0.5279653E+01  0.0000000E+00
Ar 2287  0.2951118E+02  0.3783757E+02  0.8159081E+01  0.0000000E+00
Ar 2288  0.2685158E+02  0.4029855E+02  0.7936069E+01  0.0000000E+00
Ar 2289  0.2714111E+02  0.3744295E+02  0.1079304E+02  0.0000000E+00
Ar 2290  0.2955447E+02  0.4028941E+02  0.1079695E+02  0.0000000E+00
Ar 2291  0.2948923E+02  0.3765141E+02  0.1373582E+02  0.0000000E+00
Ar 2292  0.2682584E+02  0.4031190E+02  0.1377913E+02  0.0000000E+00
Ar 2293  0.2683946E+02  0.3759837E+02  0.1638985E+02  0.0000000E+00
Ar 2294  0.2981542E+02  0.4047490E+02  0.1635119E+02  0.0000000E+00
Ar 2295  0.2939426E+02  0.3793012E+02  0.1886132E+02  0.0000000E+00
Ar 2296  0.2679151E+02  0.4045060E+02  0.1902073E+02  0.0000000E+00
Ar 2297  0.2702146E+02  0.3765494E+02  0.2163624E+02  0.0000000E+00
Ar 2298  0.2976781E+02  0.4031913E+02  0.2145358E+02  0.0000000E+00
Ar 2299  0.2939112E+02  0.3759538E+02  0.2413372E+02  0.0000000E+00
Ar 2300  0.2660261E+02  0.4030696E+02  0.2409024E+02  0.0000000E+00
Ar 2301  0.2665700E+02  0.3782358E+02  0.2665700E+02  0.0000000E+00
Ar 2302  0.2976205E+02  0.4030930E+02  0.2687574E+02  0.0000000E+00
Ar 2303  0.2956852E+02  0.3742184E+02  0.2956852E+02  0.0000000E+00
Ar 2304  0.2687574E+02  0.4030930E+02  0.2976205E+02  0.0000000E+00
Ar 2305  0.2665711E+02  0.3744944E+02  0.3238149E+02  0.0000000E+00
Ar 2306  0.2942594E+02  0.4013353E+02  0.3205916E+02  0.0000000E+00
Ar 2307  0.2944644E+02  0.3726595E+02  0.3467980E+02  0.0000000E+00
Ar 2308  0.2696642E+02  0.4021695E+02  0.3484042E+02  0.0000000E+00
Ar 2309  0.2673279E+02  0.3717621E+02  0.3717621E+02  0.0000000E+00
Ar 2310  0.2942134E+02  0.3999307E+02  0.3746719E+02  0.0000000E+00
Ar 2311  0.2942134E+02  0.3746719E+02  0.3999308E+02  0.0000000E+00
Ar 2312  0.2689006E+02  0.4018618E+02  0.4018618E+02  0.0000000E+00
Ar 2313  0.2710160E+02  0.3752826E+02  0.4298839E+02  0.0000000E+00
Ar 2314  0.2966199E+02  0.4000756E+02  0.4278369E+02  0.0000000E+00
Ar 2315  0.2959058E+02  0.3741052E+02  0.4564831E+02  0.0000000E+00
Ar 2316  0.2709685E+02  0.3994293E+02  0.4566476E+02  0.0000000E+00
Ar 2317  0.2671474E+02  0.3755931E+02  0.4851992E+02  0.0000000E+00
Ar 2318  0.2925570E+02  0.4039899E+02  0.4839141E+02  0.0000000E+00
Ar 2319  0.2960997E+02  0.3768639E+02  0.5093583E+02  0.0000000E+00
Ar 2320  0.2681437E+02  0.4022012E+02  0.5118921E+02  0.0000000E+00
Ar 2321  0.2685649E+02  0.4303646E+02  0.2098148E+00  0.0000000E+00
Ar 2322  0.2959520E+02  0.4549281E+02  0.1617728E+00  0.0000000E+00
Ar 2323  0.2987519E+02  0.4332872E+02  0.3072405E+01  0.0000000E+00
Ar 2324  0.2673776E+02  0.4625795E+02  0.2816578E+01  0.0000000E+00
Ar 2325  0.2713958E+02  0.4329273E+02  0.5399552E+01  0.0000000E+00
Ar 2326  0.2956382E+02  0.4580513E+02  0.5715709E+01  0.0000000E+00
Ar 2327  0.2963008E+02  0.4298280E+02  0.7853984E+01  0.0000000E+00
Ar 2328  0.2704858E+02  0.4578619E+02  0.8139330E+01  0.0000000E+00
Ar 2329  0.2702421E+02  0.4293345E+02  0.1091523E+02  0.0000000E+00
Ar 2330  0.2969142E+02  0.4553372E+02  0.1109120E+02  0.0000000E+00
Ar 2331  0.2966662E+02  0.4293292E+02  0.1376430E+02  0.0000000E+00
Ar 2332  0.2698994E+02  0.4580847E+02  0.1345525E+02  0.0000000E+00
Ar 2333  0.2707824E+02  0.4301578E+02  0.1627786E+02  0.0000000E+00
Ar 2334  0.2962177E+02  0.4579345E+02  0.1616760E+02  0.0000000E+00
Ar 2335  0.2966390E+02  0.4309340E+02  0.1908737E+02  0.0000000E+00
Ar 2336  0.2694701E+02  0.4574595E+02  0.1873487E+02  0.0000000E+00
Ar 2337  0.2665846E+02  0.4329144E+02  0.2150509E+02  0.0000000E+00
Ar 2338  0.2971933E+02  0.4569311E+02  0.2125717E+02  0.0000000E+00
Ar 2339  0.2936318E+02  0.4288441E+02  0.2403365E+02  0.0000000E+00
Ar 2340  0.2686546E+02  0.4541562E+02  0.2412688E+02  0.0000000E+00
Ar 2341  0.2692725E+02  0.4292364E+02  0.2692725E+02  0.0000000E+00
Ar 2342  0.2957760E+02  0.4561142E+02  0.2684529E+02  0.0000000E+00
Ar 2343  0.2984562E+02  0.4296189E+02  0.2984561E+02  0.0000000E+00
Ar 2344  0.2684529E+02  0.4561142E+02  0.2957759E+02  0.0000000E+00
Ar 2345  0.2675428E+02  0.4292262E+02  0.3219777E+02  0.0000000E+00
Ar 2346  0.2972273E+02  0.4555125E+02  0.3227566E+02  0.0000000E+00
Ar 2347  0.2966731E+02  0.4307976E+02  0.3489776E+02  0.0000000E+00
Ar 2348  0.2686650E+02  0.4573988E+02  0.3466765E+02  0.0000000E+00
Ar 2349  0.2710160E+02  0.4298840E+02  0.3752826E+02  0.0000000E+00
Ar 2350  0.2959058E+02  0.4564831E+02  0.3741052E+02  0.0000000E+00
Ar 2351  0.2966199E+02  0.4278369E+02  0.4000756E+02  0.0000000E+00
Ar 2352  0.2709685E+02  0.4566476E+02  0.3994293E+02  0.0000000E+00
Ar 2353  0.2712199E+02  0.4311513E+02  0.4311514E+02  0.0000000E+00
Ar 2354  0.2964039E+02  0.4554054E+02  0.4301321E+02  0.0000000E+00
Ar 2355  0.2964040E+02  0.4301321E+02  0.4554054E+02  0.0000000E+00
Ar 2356  0.2677035E+02  0.4572972E+02  0.4572972E+02  0.0000000E+00
Ar 2357  0.2680598E+02  0.4277396E+02  0.4805902E+02  0.0000000E+00
Ar 2358  0.2934431E+02  0.4586853E+02  0.4831337E+02  0.0000000E+00
Ar 2359  0.2932088E+02  0.4317561E+02  0.5108575E+02  0.0000000E+00
Ar 2360  0.2673188E+02  0.4569282E+02  0.5129244E+02  0.0000000E+00
Ar 2361  0.2701879E+02  0.4858326E+02  0.5374461E+02  0.0000000E+00
Ar 2362  0.2952037E+02  0.5117529E+02  0.5365192E+02  0.0000000E+00
Ar 2363  0.2956637E+02  0.4850310E+02  0.3025247E+01  0.0000000E+00
Ar 2364  0.2680656E+02  0.5106716E+02  0.2885201E+01  0.0000000E+00
Ar 2365  0.2686974E+02  0.4829409E+02  0.5799195E+01  0.0000000E+00
Ar 2366  0.2942626E+02  0.5138794E+02  0.5575858E+01  0.0000000E+00
Ar 2367  0.2974994E+02  0.4830305E+02  0.8479124E+01  0.0000000E+00
Ar 2368  0.2665946E+02  0.5107424E+02  0.8124311E+01  0.0000000E+00
Ar 2369  0.2658381E+02  0.4858072E+02  0.1072134E+02  0.0000000E+00
Ar 2370  0.2973128E+02  0.5110084E+02  0.1094357E+02  0.0000000E+00
Ar 2371  0.2985168E+02  0.4858071E+02  0.1351806E+02  0.0000000E+00
Ar 2372  0.2705209E+02  0.5129293E+02  0.1370459E+02  0.0000000E+00
Ar 2373  0.2696598E+02  0.4839225E+02  0.1610921E+02  0.0000000E+00
Ar 2374  0.2942363E+02  0.5117612E+02  0.1634491E+02  0.0000000E+00
Ar 2375  0.2955620E+02  0.4854167E+02  0.1896672E+02  0.0000000E+00
Ar 2376  0.2677919E+02  0.5131807E+02  0.1877847E+02  0.0000000E+00
Ar 2377  0.2679403E+02  0.4855500E+02  0.2122721E+02  0.0000000E+00
Ar 2378  0.2961423E+02  0.5108153E+02  0.2166847E+02  0.0000000E+00
Ar 2379  0.2938412E+02  0.4819429E+02  0.2401442E+02  0.0000000E+00
Ar 2380  0.2686675E+02  0.5084787E+02  0.2418871E+02  0.0000000E+00
Ar 2381  0.2688897E+02  0.4811053E+02  0.2688897E+02  0.0000000E+00
Ar 2382  0.2943739E+02  0.5101874E+02  0.2701262E+02  0.0000000E+00
Ar 2383  0.2936024E+02  0.4828386E+02  0.2936025E+02  0.0000000E+00
Ar 2384  0.2701262E+02  0.5101874E+02  0.2943738E+02  0.0000000E+00
Ar 2385  0.2705054E+02  0.4840857E+02  0.3225479E+02  0.0000000E+00
Ar 2386  0.2961916E+02  0.5089035E+02  0.3200415E+02  0.0000000E+00
Ar 2387  0.2943443E+02  0.4825768E+02  0.3495104E+02  0.0000000E+00
Ar 2388  0.2684163E+02  0.5098977E+02  0.3480517E+02  0.0000000E+00
Ar 2389  0.2671474E+02  0.4851992E+02  0.3755931E+02  0.0000000E+00
Ar 2390  0.2960997E+02  0.5093583E+02  0.3768639E+02  0.0000000E+00
Ar 2391  0.2925570E+02  0.4839141E+02  0.4039899E+02  0.0000000E+00
Ar 2392  0.2681437E+02  0.5118921E+02  0.4022012E+02  0.0000000E+00
Ar 2393  0.2680598E+02  0.4805901E+02  0.4277396E+02  0.0000000E+00
Ar 2394  0.2932088E+02  0.5108575E+02  0.4317561E+02  0.0000000E+00
Ar 2395  0.2934431E+02  0.4831337E+02  0.4586853E+02  0.0000000E+00
Ar 2396  0.2673189E+02  0.5129244E+02  0.4569283E+02  0.0000000E+00
Ar 2397  0.2656872E+02  0.4840435E+02  0.4840435E+02  0.0000000E+00
Ar 2398  0.2942696E+02  0.5111940E+02  0.4836761E+02  0.0000000E+00
Ar 2399  0.2942696E+02  0.4836761E+02  0.5111940E+02  0.0000000E+00
Ar 2400  0.2658722E+02  0.5118605E+02  0.5118605E+02  0.0000000E+00
Ar 2401  0.3250430E+02  0.5376527E+02  0.5376528E+02  0.0000000E+00
Ar 2402  0.3452849E+02  0.3181536E+01  0.1867777E+00  0.0000000E+00
Ar 2403  0.3452848E+02  0.1867755E+00  0.3181540E+01  0.0000000E+00
Ar 2404  0.3194192E+02  0.2929763E+01  0.2929764E+01  0.0000000E+00
Ar 2405  0.3193809E+02  0.4414397E+00  0.5563325E+01  0.0000000E+00
Ar 2406  0.3465438E+02  0.2771663E+01  0.5415062E+01  0.0000000E+00
Ar 2407  0.3479739E+02  0.1738075E+00  0.8293003E+01  0.0000000E+00
Ar 2408  0.3223240E+02  0.2696719E+01  0.8183742E+01  0.0000000E+00
Ar 2409  0.3225239E+02  0.8423418E-01  0.1094003E+02  0.0000000E+00
Ar 2410  0.3493243E+02  0.2921280E+01  0.1091389E+02  0.0000000E+00
Ar 2411  0.3514638E+02  0.3784222E+00  0.1340703E+02  0.0000000E+00
Ar 2412  0.3237002E+02  0.2959280E+01  0.1367928E+02  0.0000000E+00
Ar 2413  0.3260161E+02  0.5370822E+02  0.1622560E+02  0.0000000E+00
Ar 2414  0.3511024E+02  0.2725314E+01  0.1607778E+02  0.0000000E+00
Ar 2415  0.3483446E+02  0.5351610E+02  0.1888615E+02  0.0000000E+00
Ar 2416  0.3244573E+02  0.2706052E+01  0.1892813E+02  0.0000000E+00
Ar 2417  0.3225793E+02  0.5365400E+02  0.2165065E+02  0.0000000E+00
Ar 2418  0.3493511E+02  0.2520116E+01  0.2152744E+02  0.0000000E+00
Ar 2419  0.3509254E+02  0.1623204E+00  0.2409418E+02  0.0000000E+00
Ar 2420  0.3210297E+02  0.2635666E+01  0.2398148E+02  0.0000000E+00
Ar 2421  0.3214007E+02  0.5365590E+02  0.2677211E+02  0.0000000E+00
Ar 2422  0.3481681E+02  0.2612518E+01  0.2689842E+02  0.0000000E+00
Ar 2423  0.3472719E+02  0.5329017E+02  0.2975048E+02  0.0000000E+00
Ar 2424  0.3215055E+02  0.2703671E+01  0.2949701E+02  0.0000000E+00
Ar 2425  0.3229934E+02  0.5374892E+02  0.3229934E+02  0.0000000E+00
Ar 2426  0.3482334E+02  0.2889158E+01  0.3228563E+02  0.0000000E+00
Ar 2427  0.3507581E+02  0.5346286E+02  0.3507580E+02  0.0000000E+00
Ar 2428  0.3228563E+02  0.2889153E+01  0.3482333E+02  0.0000000E+00
Ar 2429  0.3232620E+02  0.5369413E+02  0.3786456E+02  0.0000000E+00
Ar 2430  0.3492531E+02  0.2549999E+01  0.3758052E+02  0.0000000E+00
Ar 2431  0.3486748E+02  0.5362233E+02  0.4033517E+02  0.0000000E+00
Ar 2432  0.3245921E+02  0.2723898E+01  0.4046125E+02  0.0000000E+00
Ar 2433  0.3235665E+02  0.2400189E+00  0.4313444E+02  0.0000000E+00
Ar 2434  0.3500432E+02  0.2812910E+01  0.4329201E+02  0.0000000E+00
Ar 2435  0.3483499E+02  0.1491617E+00  0.4587312E+02  0.0000000E+00
Ar 2436  0.3242202E+02  0.3045822E+01  0.4600879E+02  0.0000000E+00
Ar 2437  0.3188230E+02  0.2146521E+00  0.4842345E+02  0.0000000E+00
Ar 2438  0.3486831E+02  0.3140266E+01  0.4868776E+02  0.0000000E+00
Ar 2439  0.3517590E+02  0.5372740E+02  0.5119092E+02  0.0000000E+00
Ar 2440  0.3211634E+02  0.3095756E+01  0.5120318E+02  0.0000000E+00
Ar 2441  0.3193809E+02  0.5563324E+01  0.4414402E+00  0.0000000E+00
Ar 2442  0.3479739E+02  0.8293003E+01  0.1738078E+00  0.0000000E+00
Ar 2443  0.3465438E+02  0.5415065E+01  0.2771662E+01  0.0000000E+00
Ar 2444  0.3223241E+02  0.8183745E+01  0.2696719E+01  0.0000000E+00
Ar 2445  0.3215392E+02  0.5517193E+01  0.5517191E+01  0.0000000E+00
Ar 2446  0.3476275E+02  0.8154937E+01  0.5170111E+01  0.0000000E+00
Ar 2447  0.3476275E+02  0.5170112E+01  0.8154937E+01  0.0000000E+00
Ar 2448  0.3223156E+02  0.8238813E+01  0.8238815E+01  0.0000000E+00
Ar 2449  0.3242117E+02  0.5469081E+01  0.1098094E+02  0.0000000E+00
Ar 2450  0.3518446E+02  0.8284225E+01  0.1076016E+02  0.0000000E+00
Ar 2451  0.3513624E+02  0.5500751E+01  0.1361109E+02  0.0000000E+00
Ar 2452  0.3231188E+02  0.8145958E+01  0.1346455E+02  0.0000000E+00
Ar 2453  0.3222456E+02  0.5519798E+01  0.1622417E+02  0.0000000E+00
Ar 2454  0.3506461E+02  0.8027676E+01  0.1626217E+02  0.0000000E+00
Ar 2455  0.3482644E+02  0.5347859E+01  0.1887313E+02  0.0000000E+00
Ar 2456  0.3211890E+02  0.8110960E+01  0.1908560E+02  0.0000000E+00
Ar 2457  0.3218313E+02  0.5574106E+01  0.2155459E+02  0.0000000E+00
Ar 2458  0.3509026E+02  0.8062887E+01  0.2176486E+02  0.0000000E+00
Ar 2459  0.3490948E+02  0.5544795E+01  0.2451697E+02  0.0000000E+00
Ar 2460  0.3223247E+02  0.8106735E+01  0.2423744E+02  0.0000000E+00
Ar 2461  0.3220862E+02  0.5286868E+01  0.2701165E+02  0.0000000E+00
Ar 2462  0.3508136E+02  0.8082916E+01  0.2702601E+02  0.0000000E+00
Ar 2463  0.3470149E+02  0.5402929E+01  0.2951469E+02  0.0000000E+00
Ar 2464  0.3231943E+02  0.8014075E+01  0.2954430E+02  0.0000000E+00
Ar 2465  0.3216881E+02  0.5518786E+01  0.3216881E+02  0.0000000E+00
Ar 2466  0.3464750E+02  0.8140216E+01  0.3227655E+02  0.0000000E+00
Ar 2467  0.3484593E+02  0.5487695E+01  0.3484592E+02  0.0000000E+00
Ar 2468  0.3227655E+02  0.8140217E+01  0.3464750E+02  0.0000000E+00
Ar 2469  0.3229454E+02  0.5111219E+01  0.3784392E+02  0.0000000E+00
Ar 2470  0.3489744E+02  0.8110452E+01  0.3763419E+02  0.0000000E+00
Ar 2471  0.3490874E+02  0.5431204E+01  0.4048662E+02  0.0000000E+00
Ar 2472  0.3246906E+02  0.8344178E+01  0.4014572E+02  0.0000000E+00
Ar 2473  0.3248605E+02  0.5530583E+01  0.4324887E+02  0.0000000E+00
Ar 2474  0.3501127E+02  0.8461887E+01  0.4291949E+02  0.0000000E+00
Ar 2475  0.3518952E+02  0.5596475E+01  0.4586097E+02  0.0000000E+00
Ar 2476  0.3230304E+02  0.8151406E+01  0.4551640E+02  0.0000000E+00
Ar 2477  0.3204391E+02  0.5937012E+01  0.4851692E+02  0.0000000E+00
Ar 2478  0.3499521E+02  0.8410558E+01  0.4832427E+02  0.0000000E+00
Ar 2479  0.3495338E+02  0.5517395E+01  0.5131982E+02  0.0000000E+00
Ar 2480  0.3221330E+02  0.8305443E+01  0.5110896E+02  0.0000000E+00
Ar 2481  0.3225239E+02  0.1094003E+02  0.8423360E-01  0.0000000E+00
Ar 2482  0.3514638E+02  0.1340703E+02  0.3784213E+00  0.0000000E+00
Ar 2483  0.3493243E+02  0.1091389E+02  0.2921279E+01  0.0000000E+00
Ar 2484  0.3237002E+02  0.1367928E+02  0.2959280E+01  0.0000000E+00
Ar 2485  0.3242117E+02  0.1098094E+02  0.5469082E+01  0.0000000E+00
Ar 2486  0.3513624E+02  0.1361109E+02  0.5500752E+01  0.0000000E+00
Ar 2487  0.3518446E+02  0.1076016E+02  0.8284227E+01  0.0000000E+00
Ar 2488  0.3231188E+02  0.1346455E+02  0.8145960E+01  0.0000000E+00
Ar 2489  0.3228128E+02  0.1087736E+02  0.1087736E+02  0.0000000E+00
Ar 2490  0.3492886E+02  0.1350521E+02  0.1087401E+02  0.0000000E+00
Ar 2491  0.3492886E+02  0.1087400E+02  0.1350521E+02  0.0000000E+00
Ar 2492  0.3236104E+02  0.1350536E+02  0.1350536E+02  0.0000000E+00
Ar 2493  0.3228472E+02  0.1082019E+02  0.1617088E+02  0.0000000E+00
Ar 2494  0.3514918E+02  0.1355009E+02  0.1620452E+02  0.0000000E+00
Ar 2495  0.3493008E+02  0.1075479E+02  0.1922004E+02  0.0000000E+00
Ar 2496  0.3216267E+02  0.1334671E+02  0.1891962E+02  0.0000000E+00
Ar 2497  0.3219056E+02  0.1067601E+02  0.2166927E+02  0.0000000E+00
Ar 2498  0.3499846E+02  0.1355210E+02  0.2150376E+02  0.0000000E+00
Ar 2499  0.3501820E+02  0.1085564E+02  0.2429247E+02  0.0000000E+00
Ar 2500  0.3229871E+02  0.1338804E+02  0.2450708E+02  0.0000000E+00
Ar 2501  0.3214042E+02  0.1071500E+02  0.2682625E+02  0.0000000E+00
Ar 2502  0.3496754E+02  0.1371814E+02  0.2679720E+02  0.0000000E+00
Ar 2503  0.3492408E+02  0.1087635E+02  0.2960180E+02  0.0000000E+00
Ar 2504  0.3238088E+02  0.1367593E+02  0.2953872E+02  0.0000000E+00
Ar 2505  0.3241884E+02  0.1121714E+02  0.3241884E+02  0.0000000E+00
Ar 2506  0.3505317E+02  0.1357100E+02  0.3225465E+02  0.0000000E+00
Ar 2507  0.3505621E+02  0.1100088E+02  0.3505621E+02  0.0000000E+00
Ar 2508  0.3225465E+02  0.1357099E+02  0.3505317E+02  0.0000000E+00
Ar 2509  0.3223004E+02  0.1084461E+02  0.3758600E+02  0.0000000E+00
Ar 2510  0.3521889E+02  0.1355700E+02  0.3771616E+02  0.0000000E+00
Ar 2511  0.3490166E+02  0.1105712E+02  0.4041519E+02  0.0000000E+00
Ar 2512  0.3237669E+02  0.1367421E+02  0.4015006E+02  0.0000000E+00
Ar 2513  0.3237245E+02  0.1094365E+02  0.4306647E+02  0.0000000E+00
Ar 2514  0.3509773E+02  0.1380864E+02  0.4288824E+02  0.0000000E+00
Ar 2515  0.3522144E+02  0.1117092E+02  0.4580827E+02  0.0000000E+00
Ar 2516  0.3251092E+02  0.1369984E+02  0.4567833E+02  0.0000000E+00
Ar 2517  0.3244250E+02  0.1108565E+02  0.4829735E+02  0.0000000E+00
Ar 2518  0.3509915E+02  0.1367123E+02  0.4863765E+02  0.0000000E+00
Ar 2519  0.3512110E+02  0.1091720E+02  0.5109674E+02  0.0000000E+00
Ar 2520  0.3246182E+02  0.1360315E+02  0.5127577E+02  0.0000000E+00
Ar 2521  0.3260161E+02  0.1622560E+02  0.5370822E+02  0.0000000E+00
Ar 2522  0.3483446E+02  0.1888615E+02  0.5351610E+02  0.0000000E+00
Ar 2523  0.3511024E+02  0.1607778E+02  0.2725313E+01  0.0000000E+00
Ar 2524  0.3244573E+02  0.1892813E+02  0.2706052E+01  0.0000000E+00
Ar 2525  0.3222456E+02  0.1622416E+02  0.5519799E+01  0.0000000E+00
Ar 2526  0.3482644E+02  0.1887313E+02  0.5347858E+01  0.0000000E+00
Ar 2527  0.3506461E+02  0.1626217E+02  0.8027677E+01  0.0000000E+00
Ar 2528  0.3211890E+02  0.1908560E+02  0.8110961E+01  0.0000000E+00
Ar 2529  0.3228472E+02  0.1617088E+02  0.1082019E+02  0.0000000E+00
Ar 2530  0.3493008E+02  0.1922004E+02  0.1075479E+02  0.0000000E+00
Ar 2531  0.3514918E+02  0.1620452E+02  0.1355009E+02  0.0000000E+00
Ar 2532  0.3216267E+02  0.1891962E+02  0.1334671E+02  0.0000000E+00
Ar 2533  0.3229678E+02  0.1608985E+02  0.1608985E+02  0.0000000E+00
Ar 2534  0.3502533E+02  0.1885545E+02  0.1622265E+02  0.0000000E+00
Ar 2535  0.3502533E+02  0.1622265E+02  0.1885545E+02  0.0000000E+00
Ar 2536  0.3219425E+02  0.1869724E+02  0.1869724E+02  0.0000000E+00
Ar 2537  0.3232562E+02  0.1609574E+02  0.2157470E+02  0.0000000E+00
Ar 2538  0.3514234E+02  0.1881914E+02  0.2177618E+02  0.0000000E+00
Ar 2539  0.3518056E+02  0.1609574E+02  0.2402086E+02  0.0000000E+00
Ar 2540  0.3243766E+02  0.1877240E+02  0.2427530E+02  0.0000000E+00
Ar 2541  0.3215295E+02  0.1603763E+02  0.2677730E+02  0.0000000E+00
Ar 2542  0.3508183E+02  0.1911030E+02  0.2690719E+02  0.0000000E+00
Ar 2543  0.3481111E+02  0.1625221E+02  0.2943080E+02  0.0000000E+00
Ar 2544  0.3224801E+02  0.1874327E+02  0.2952818E+02  0.0000000E+00
Ar 2545  0.3246595E+02  0.1597948E+02  0.3246596E+02  0.0000000E+00
Ar 2546  0.3516518E+02  0.1897852E+02  0.3228408E+02  0.0000000E+00
Ar 2547  0.3484758E+02  0.1662120E+02  0.3484757E+02  0.0000000E+00
Ar 2548  0.3228407E+02  0.1897853E+02  0.3516517E+02  0.0000000E+00
Ar 2549  0.3200672E+02  0.1646063E+02  0.3760222E+02  0.0000000E+00
Ar 2550  0.3487030E+02  0.1898310E+02  0.3762527E+02  0.0000000E+00
Ar 2551  0.3497774E+02  0.1650222E+02  0.4019834E+02  0.0000000E+00
Ar 2552  0.3245994E+02  0.1898807E+02  0.4066589E+02  0.0000000E+00
Ar 2553  0.3225462E+02  0.1617007E+02  0.4303218E+02  0.0000000E+00
Ar 2554  0.3498124E+02  0.1877671E+02  0.4313344E+02  0.0000000E+00
Ar 2555  0.3516578E+02  0.1633787E+02  0.4560555E+02  0.0000000E+00
Ar 2556  0.3233476E+02  0.1896809E+02  0.4579411E+02  0.0000000E+00
Ar 2557  0.3257218E+02  0.1628802E+02  0.4841901E+02  0.0000000E+00
Ar 2558  0.3514922E+02  0.1910036E+02  0.4850865E+02  0.0000000E+00
Ar 2559  0.3502976E+02  0.1620920E+02  0.5105628E+02  0.0000000E+00
Ar 2560  0.3233507E+02  0.1906607E+02  0.5108425E+02  0.0000000E+00
Ar 2561  0.3225793E+02  0.2165065E+02  0.5365400E+02  0.0000000E+00
Ar 2562  0.3509254E+02  0.2409418E+02  0.1623189E+00  0.0000000E+00
Ar 2563  0.3493511E+02  0.2152744E+02  0.2520117E+01  0.0000000E+00
Ar 2564  0.3210297E+02  0.2398148E+02  0.2635665E+01  0.0000000E+00
Ar 2565  0.3218314E+02  0.2155459E+02  0.5574107E+01  0.0000000E+00
Ar 2566  0.3490948E+02  0.2451698E+02  0.5544795E+01  0.0000000E+00
Ar 2567  0.3509026E+02  0.2176486E+02  0.8062887E+01  0.0000000E+00
Ar 2568  0.3223247E+02  0.2423744E+02  0.8106734E+01  0.0000000E+00
Ar 2569  0.3219056E+02  0.2166928E+02  0.1067601E+02  0.0000000E+00
Ar 2570  0.3501820E+02  0.2429247E+02  0.1085564E+02  0.0000000E+00
Ar 2571  0.3499846E+02  0.2150376E+02  0.1355210E+02  0.0000000E+00
Ar 2572  0.3229871E+02  0.2450708E+02  0.1338804E+02  0.0000000E+00
Ar 2573  0.3232562E+02  0.2157471E+02  0.1609575E+02  0.0000000E+00
Ar 2574  0.3518056E+02  0.2402085E+02  0.1609574E+02  0.0000000E+00
Ar 2575  0.3514234E+02  0.2177618E+02  0.1881914E+02  0.0000000E+00
Ar 2576  0.3243766E+02  0.2427530E+02  0.1877240E+02  0.0000000E+00
Ar 2577  0.3249887E+02  0.2124730E+02  0.2124730E+02  0.0000000E+00
Ar 2578  0.3494260E+02  0.2420249E+02  0.2160677E+02  0.0000000E+00
Ar 2579  0.3494260E+02  0.2160677E+02  0.2420249E+02  0.0000000E+00
Ar 2580  0.3213683E+02  0.2363794E+02  0.2363795E+02  0.0000000E+00
Ar 2581  0.3221163E+02  0.2146237E+02  0.2692467E+02  0.0000000E+00
Ar 2582  0.3468916E+02  0.2419427E+02  0.2694371E+02  0.0000000E+00
Ar 2583  0.3473397E+02  0.2151627E+02  0.2962596E+02  0.0000000E+00
Ar 2584  0.3179681E+02  0.2423241E+02  0.2931073E+02  0.0000000E+00
Ar 2585  0.3204521E+02  0.2136178E+02  0.3204522E+02  0.0000000E+00
Ar 2586  0.3465516E+02  0.2407345E+02  0.3202795E+02  0.0000000E+00
Ar 2587  0.3474417E+02  0.2158661E+02  0.3474417E+02  0.0000000E+00
Ar 2588  0.3202795E+02  0.2407344E+02  0.3465515E+02  0.0000000E+00
Ar 2589  0.3215661E+02  0.2159793E+02  0.3758030E+02  0.0000000E+00
Ar 2590  0.3471895E+02  0.2402413E+02  0.3773935E+02  0.0000000E+00
Ar 2591  0.3481826E+02  0.2165261E+02  0.4024906E+02  0.0000000E+00
Ar 2592  0.3226834E+02  0.2423064E+02  0.4007084E+02  0.0000000E+00
Ar 2593  0.3235555E+02  0.2197570E+02  0.4299615E+02  0.0000000E+00
Ar 2594  0.3500705E+02  0.2427099E+02  0.4319882E+02  0.0000000E+00
Ar 2595  0.3487779E+02  0.2146946E+02  0.4560049E+02  0.0000000E+00
Ar 2596  0.3205381E+02  0.2423254E+02  0.4557033E+02  0.0000000E+00
Ar 2597  0.3243366E+02  0.2166809E+02  0.4838497E+02  0.0000000E+00
Ar 2598  0.3487231E+02  0.2417432E+02  0.4821787E+02  0.0000000E+00
Ar 2599  0.3489115E+02  0.2166873E+02  0.5114901E+02  0.0000000E+00
Ar 2600  0.3229975E+02  0.2428934E+02  0.5077766E+02  0.0000000E+00
Ar 2601  0.3214007E+02  0.2677212E+02  0.5365590E+02  0.0000000E+00
Ar 2602  0.3472719E+02  0.2975048E+02  0.5329017E+02  0.0000000E+00
Ar 2603  0.3481681E+02  0.2689842E+02  0.2612517E+01  0.0000000E+00
Ar 2604  0.3215055E+02  0.2949701E+02  0.2703670E+01  0.0000000E+00
Ar 2605  0.3220862E+02  0.2701165E+02  0.5286869E+01  0.0000000E+00
Ar 2606  0.3470149E+02  0.2951469E+02  0.5402928E+01  0.0000000E+00
Ar 2607  0.3508136E+02  0.2702601E+02  0.8082916E+01  0.0000000E+00
Ar 2608  0.3231943E+02  0.2954430E+02  0.8014074E+01  0.0000000E+00
Ar 2609  0.3214042E+02  0.2682625E+02  0.1071499E+02  0.0000000E+00
Ar 2610  0.3492408E+02  0.2960180E+02  0.1087635E+02  0.0000000E+00
Ar 2611  0.3496753E+02  0.2679720E+02  0.1371814E+02  0.0000000E+00
Ar 2612  0.3238088E+02  0.2953872E+02  0.1367593E+02  0.0000000E+00
Ar 2613  0.3215295E+02  0.2677730E+02  0.1603762E+02  0.0000000E+00
Ar 2614  0.3481111E+02  0.2943080E+02  0.1625221E+02  0.0000000E+00
Ar 2615  0.3508183E+02  0.2690719E+02  0.1911029E+02  0.0000000E+00
Ar 2616  0.3224800E+02  0.2952818E+02  0.1874327E+02  0.0000000E+00
Ar 2617  0.3221163E+02  0.2692467E+02  0.2146237E+02  0.0000000E+00
Ar 2618  0.3473396E+02  0.2962596E+02  0.2151627E+02  0.0000000E+00
Ar 2619  0.3468916E+02  0.2694371E+02  0.2419427E+02  0.0000000E+00
Ar 2620  0.3179681E+02  0.2931073E+02  0.2423241E+02  0.0000000E+00
Ar 2621  0.3203550E+02  0.2690271E+02  0.2690271E+02  0.0000000E+00
Ar 2622  0.3511117E+02  0.2953294E+02  0.2673753E+02  0.0000000E+00
Ar 2623  0.3511117E+02  0.2673753E+02  0.2953294E+02  0.0000000E+00
Ar 2624  0.3206880E+02  0.2924156E+02  0.2924156E+02  0.0000000E+00
Ar 2625  0.3198431E+02  0.2677723E+02  0.3198432E+02  0.0000000E+00
Ar 2626  0.3470742E+02  0.2938866E+02  0.3192387E+02  0.0000000E+00
Ar 2627  0.3460559E+02  0.2664201E+02  0.3460558E+02  0.0000000E+00
Ar 2628  0.3192386E+02  0.2938866E+02  0.3470742E+02  0.0000000E+00
Ar 2629  0.3238149E+02  0.2665710E+02  0.3744944E+02  0.0000000E+00
Ar 2630  0.3467979E+02  0.2944645E+02  0.3726595E+02  0.0000000E+00
Ar 2631  0.3484042E+02  0.2696642E+02  0.4021695E+02  0.0000000E+00
Ar 2632  0.3205916E+02  0.2942595E+02  0.4013353E+02  0.0000000E+00
Ar 2633  0.3219777E+02  0.2675428E+02  0.4292262E+02  0.0000000E+00
Ar 2634  0.3489776E+02  0.2966731E+02  0.4307976E+02  0.0000000E+00
Ar 2635  0.3466764E+02  0.2686650E+02  0.4573989E+02  0.0000000E+00
Ar 2636  0.3227566E+02  0.2972273E+02  0.4555125E+02  0.0000000E+00
Ar 2637  0.3225479E+02  0.2705054E+02  0.4840858E+02  0.0000000E+00
Ar 2638  0.3495103E+02  0.2943442E+02  0.4825768E+02  0.0000000E+00
Ar 2639  0.3480517E+02  0.2684162E+02  0.5098977E+02  0.0000000E+00
Ar 2640  0.3200416E+02  0.2961915E+02  0.5089035E+02  0.0000000E+00
Ar 2641  0.3229934E+02  0.3229934E+02  0.5374892E+02  0.0000000E+00
Ar 2642  0.3507581E+02  0.3507581E+02  0.5346286E+02  0.0000000E+00
Ar 2643  0.3482334E+02  0.3228563E+02  0.2889157E+01  0.0000000E+00
Ar 2644  0.3228563E+02  0.3482334E+02  0.2889155E+01  0.0000000E+00
Ar 2645  0.3216881E+02  0.3216881E+02  0.5518785E+01  0.0000000E+00
Ar 2646  0.3484593E+02  0.3484592E+02  0.5487697E+01  0.0000000E+00
Ar 2647  0.3464750E+02  0.3227655E+02  0.8140215E+01  0.0000000E+00
Ar 2648  0.3227655E+02  0.3464750E+02  0.8140217E+01  0.0000000E+00
Ar 2649  0.3241884E+02  0.3241884E+02  0.1121714E+02  0.0000000E+00
Ar 2650  0.3505621E+02  0.3505621E+02  0.1100087E+02  0.0000000E+00
Ar 2651  0.3505316E+02  0.3225465E+02  0.1357099E+02  0.0000000E+00
Ar 2652  0.3225465E+02  0.3505316E+02  0.1357099E+02  0.0000000E+00
Ar 2653  0.3246595E+02  0.3246596E+02  0.1597948E+02  0.0000000E+00
Ar 2654  0.3484758E+02  0.3484757E+02  0.1662119E+02  0.0000000E+00
Ar 2655  0.3516518E+02  0.3228408E+02  0.1897852E+02  0.0000000E+00
Ar 2656  0.3228408E+02  0.3516517E+02  0.1897853E+02  0.0000000E+00
Ar 2657  0.3204521E+02  0.3204522E+02  0.2136178E+02  0.0000000E+00
Ar 2658  0.3474417E+02  0.3474418E+02  0.2158661E+02  0.0000000E+00
Ar 2659  0.3465516E+02  0.3202795E+02  0.2407344E+02  0.0000000E+00
Ar 2660  0.3202795E+02  0.3465516E+02  0.2407344E+02  0.0000000E+00
Ar 2661  0.3198432E+02  0.3198432E+02  0.2677723E+02  0.0000000E+00
Ar 2662  0.3460559E+02  0.3460559E+02  0.2664200E+02  0.0000000E+00
Ar 2663  0.3470742E+02  0.3192386E+02  0.2938866E+02  0.0000000E+00
Ar 2664  0.3192386E+02  0.3470742E+02  0.2938866E+02  0.0000000E+00
Ar 2665  0.3223837E+02  0.3223837E+02  0.3223837E+02  0.0000000E+00
Ar 2666  0.3463679E+02  0.3463679E+02  0.3204597E+02  0.0000000E+00
Ar 2667  0.3463679E+02  0.3204597E+02  0.3463679E+02  0.0000000E+00
Ar 2668  0.3204597E+02  0.3463679E+02  0.3463679E+02  0.0000000E+00
Ar 2669  0.3197164E+02  0.3197164E+02  0.3760423E+02  0.0000000E+00
Ar 2670  0.3475779E+02  0.3475779E+02  0.3745462E+02  0.0000000E+00
Ar 2671  0.3489195E+02  0.3207291E+02  0.4015180E+02  0.0000000E+00
Ar 2672  0.3207290E+02  0.3489195E+02  0.4015180E+02  0.0000000E+00
Ar 2673  0.3215704E+02  0.3215704E+02  0.4241281E+02  0.0000000E+00
Ar 2674  0.3505568E+02  0.3505568E+02  0.4280114E+02  0.0000000E+00
Ar 2675  0.3505682E+02  0.3239920E+02  0.4551840E+02  0.0000000E+00
Ar 2676  0.3239920E+02  0.3505682E+02  0.4551840E+02  0.0000000E+00
Ar 2677  0.3210179E+02  0.3210178E+02  0.4811966E+02  0.0000000E+00
Ar 2678  0.3483805E+02  0.3483805E+02  0.4831927E+02  0.0000000E+00
Ar 2679  0.3477046E+02  0.3230544E+02  0.5083240E+02  0.0000000E+00
Ar 2680  0.3230544E+02  0.3477046E+02  0.5083240E+02  0.0000000E+00
Ar 2681  0.3232620E+02  0.3786456E+02  0.5369413E+02  0.0000000E+00
Ar 2682  0.3486748E+02  0.4033517E+02  0.5362233E+02  0.0000000E+00
Ar 2683  0.3492531E+02  0.3758052E+02  0.2550000E+01  0.0000000E+00
Ar 2684  0.3245921E+02  0.4046125E+02  0.2723899E+01  0.0000000E+00
Ar 2685  0.3229454E+02  0.3784392E+02  0.5111218E+01  0.0000000E+00
Ar 2686  0.3490874E+02  0.4048661E+02  0.5431202E+01  0.0000000E+00
Ar 2687  0.3489744E+02  0.3763419E+02  0.8110451E+01  0.0000000E+00
Ar 2688  0.3246907E+02  0.4014572E+02  0.8344178E+01  0.0000000E+00
Ar 2689  0.3223004E+02  0.3758601E+02  0.1084461E+02  0.0000000E+00
Ar 2690  0.3490166E+02  0.4041519E+02  0.1105712E+02  0.0000000E+00
Ar 2691  0.3521889E+02  0.3771617E+02  0.1355700E+02  0.0000000E+00
Ar 2692  0.3237668E+02  0.4015007E+02  0.1367421E+02  0.0000000E+00
Ar 2693  0.3200672E+02  0.3760221E+02  0.1646063E+02  0.0000000E+00
Ar 2694  0.3497774E+02  0.4019834E+02  0.1650222E+02  0.0000000E+00
Ar 2695  0.3487030E+02  0.3762527E+02  0.1898310E+02  0.0000000E+00
Ar 2696  0.3245994E+02  0.4066589E+02  0.1898807E+02  0.0000000E+00
Ar 2697  0.3215661E+02  0.3758030E+02  0.2159793E+02  0.0000000E+00
Ar 2698  0.3481826E+02  0.4024906E+02  0.2165261E+02  0.0000000E+00
Ar 2699  0.3471895E+02  0.3773935E+02  0.2402413E+02  0.0000000E+00
Ar 2700  0.3226834E+02  0.4007083E+02  0.2423064E+02  0.0000000E+00
Ar 2701  0.3238149E+02  0.3744944E+02  0.2665711E+02  0.0000000E+00
Ar 2702  0.3484042E+02  0.4021695E+02  0.2696642E+02  0.0000000E+00
Ar 2703  0.3467979E+02  0.3726596E+02  0.2944645E+02  0.0000000E+00
Ar 2704  0.3205916E+02  0.4013353E+02  0.2942595E+02  0.0000000E+00
Ar 2705  0.3197164E+02  0.3760423E+02  0.3197164E+02  0.0000000E+00
Ar 2706  0.3489195E+02  0.4015180E+02  0.3207291E+02  0.0000000E+00
Ar 2707  0.3475779E+02  0.3745461E+02  0.3475779E+02  0.0000000E+00
Ar 2708  0.3207291E+02  0.4015180E+02  0.3489195E+02  0.0000000E+00
Ar 2709  0.3188032E+02  0.3727150E+02  0.3727150E+02  0.0000000E+00
Ar 2710  0.3502689E+02  0.4032706E+02  0.3770884E+02  0.0000000E+00
Ar 2711  0.3502689E+02  0.3770885E+02  0.4032706E+02  0.0000000E+00
Ar 2712  0.3221880E+02  0.3991787E+02  0.3991788E+02  0.0000000E+00
Ar 2713  0.3238234E+02  0.3758970E+02  0.4319927E+02  0.0000000E+00
Ar 2714  0.3476934E+02  0.4019217E+02  0.4320338E+02  0.0000000E+00
Ar 2715  0.3517867E+02  0.3764274E+02  0.4599326E+02  0.0000000E+00
Ar 2716  0.3201773E+02  0.4050060E+02  0.4565903E+02  0.0000000E+00
Ar 2717  0.3243224E+02  0.3775169E+02  0.4836590E+02  0.0000000E+00
Ar 2718  0.3494103E+02  0.4030639E+02  0.4808710E+02  0.0000000E+00
Ar 2719  0.3470403E+02  0.3756483E+02  0.5109598E+02  0.0000000E+00
Ar 2720  0.3239054E+02  0.4057594E+02  0.5118849E+02  0.0000000E+00
Ar 2721  0.3235665E+02  0.4313445E+02  0.2400176E+00  0.0000000E+00
Ar 2722  0.3483499E+02  0.4587311E+02  0.1491631E+00  0.0000000E+00
Ar 2723  0.3500432E+02  0.4329201E+02  0.2812910E+01  0.0000000E+00
Ar 2724  0.3242203E+02  0.4600878E+02  0.3045820E+01  0.0000000E+00
Ar 2725  0.3248605E+02  0.4324887E+02  0.5530582E+01  0.0000000E+00
Ar 2726  0.3518951E+02  0.4586097E+02  0.5596476E+01  0.0000000E+00
Ar 2727  0.3501126E+02  0.4291949E+02  0.8461886E+01  0.0000000E+00
Ar 2728  0.3230304E+02  0.4551640E+02  0.8151407E+01  0.0000000E+00
Ar 2729  0.3237245E+02  0.4306647E+02  0.1094365E+02  0.0000000E+00
Ar 2730  0.3522144E+02  0.4580827E+02  0.1117093E+02  0.0000000E+00
Ar 2731  0.3509773E+02  0.4288824E+02  0.1380864E+02  0.0000000E+00
Ar 2732  0.3251092E+02  0.4567833E+02  0.1369984E+02  0.0000000E+00
Ar 2733  0.3225462E+02  0.4303219E+02  0.1617006E+02  0.0000000E+00
Ar 2734  0.3516578E+02  0.4560555E+02  0.1633787E+02  0.0000000E+00
Ar 2735  0.3498125E+02  0.4313344E+02  0.1877671E+02  0.0000000E+00
Ar 2736  0.3233476E+02  0.4579411E+02  0.1896809E+02  0.0000000E+00
Ar 2737  0.3235555E+02  0.4299615E+02  0.2197570E+02  0.0000000E+00
Ar 2738  0.3487779E+02  0.4560049E+02  0.2146947E+02  0.0000000E+00
Ar 2739  0.3500705E+02  0.4319881E+02  0.2427099E+02  0.0000000E+00
Ar 2740  0.3205381E+02  0.4557033E+02  0.2423255E+02  0.0000000E+00
Ar 2741  0.3219777E+02  0.4292262E+02  0.2675428E+02  0.0000000E+00
Ar 2742  0.3466764E+02  0.4573989E+02  0.2686650E+02  0.0000000E+00
Ar 2743  0.3489776E+02  0.4307976E+02  0.2966730E+02  0.0000000E+00
Ar 2744  0.3227566E+02  0.4555125E+02  0.2972273E+02  0.0000000E+00
Ar 2745  0.3215704E+02  0.4241280E+02  0.3215704E+02  0.0000000E+00
Ar 2746  0.3505682E+02  0.4551840E+02  0.3239920E+02  0.0000000E+00
Ar 2747  0.3505568E+02  0.4280115E+02  0.3505568E+02  0.0000000E+00
Ar 2748  0.3239921E+02  0.4551840E+02  0.3505682E+02  0.0000000E+00
Ar 2749  0.3238233E+02  0.4319927E+02  0.3758971E+02  0.0000000E+00
Ar 2750  0.3517867E+02  0.4599326E+02  0.3764274E+02  0.0000000E+00
Ar 2751  0.3476934E+02  0.4320338E+02  0.4019217E+02  0.0000000E+00
Ar 2752  0.3201774E+02  0.4565903E+02  0.4050061E+02  0.0000000E+00
Ar 2753  0.3191806E+02  0.4286406E+02  0.4286405E+02  0.0000000E+00
Ar 2754  0.3458764E+02  0.4572795E+02  0.4318657E+02  0.0000000E+00
Ar 2755  0.3458764E+02  0.4318657E+02  0.4572795E+02  0.0000000E+00
Ar 2756  0.3224762E+02  0.4590391E+02  0.4590391E+02  0.0000000E+00
Ar 2757  0.3212726E+02  0.4283458E+02  0.4815837E+02  0.0000000E+00
Ar 2758  0.3484389E+02  0.4570717E+02  0.4824865E+02  0.0000000E+00
Ar 2759  0.3473627E+02  0.4342392E+02  0.5118894E+02  0.0000000E+00
Ar 2760  0.3204774E+02  0.4565232E+02  0.5109501E+02  0.0000000E+00
Ar 2761  0.3188230E+02  0.4842345E+02  0.2146523E+00  0.0000000E+00
Ar 2762  0.3517590E+02  0.5119092E+02  0.5372739E+02  0.0000000E+00
Ar 2763  0.3486831E+02  0.4868776E+02  0.3140266E+01  0.0000000E+00
Ar 2764  0.3211633E+02  0.5120318E+02  0.3095756E+01  0.0000000E+00
Ar 2765  0.3204391E+02  0.4851692E+02  0.5937011E+01  0.0000000E+00
Ar 2766  0.3495338E+02  0.5131982E+02  0.5517395E+01  0.0000000E+00
Ar 2767  0.3499522E+02  0.4832427E+02  0.8410562E+01  0.0000000E+00
Ar 2768  0.3221330E+02  0.5110896E+02  0.8305444E+01  0.0000000E+00
Ar 2769  0.3244250E+02  0.4829734E+02  0.1108565E+02  0.0000000E+00
Ar 2770  0.3512110E+02  0.5109674E+02  0.1091720E+02  0.0000000E+00
Ar 2771  0.3509915E+02  0.4863765E+02  0.1367123E+02  0.0000000E+00
Ar 2772  0.3246182E+02  0.5127577E+02  0.1360315E+02  0.0000000E+00
Ar 2773  0.3257218E+02  0.4841901E+02  0.1628802E+02  0.0000000E+00
Ar 2774  0.3502976E+02  0.5105628E+02  0.1620920E+02  0.0000000E+00
Ar 2775  0.3514922E+02  0.4850865E+02  0.1910036E+02  0.0000000E+00
Ar 2776  0.3233508E+02  0.5108425E+02  0.1906607E+02  0.0000000E+00
Ar 2777  0.3243366E+02  0.4838497E+02  0.2166809E+02  0.0000000E+00
Ar 2778  0.3489115E+02  0.5114901E+02  0.2166873E+02  0.0000000E+00
Ar 2779  0.3487231E+02  0.4821787E+02  0.2417432E+02  0.0000000E+00
Ar 2780  0.3229975E+02  0.5077766E+02  0.2428934E+02  0.0000000E+00
Ar 2781  0.3225479E+02  0.4840858E+02  0.2705054E+02  0.0000000E+00
Ar 2782  0.3480517E+02  0.5098977E+02  0.2684162E+02  0.0000000E+00
Ar 2783  0.3495104E+02  0.4825768E+02  0.2943442E+02  0.0000000E+00
Ar 2784  0.3200416E+02  0.5089035E+02  0.2961915E+02  0.0000000E+00
Ar 2785  0.3210178E+02  0.4811966E+02  0.3210178E+02  0.0000000E+00
Ar 2786  0.3477046E+02  0.5083240E+02  0.3230544E+02  0.0000000E+00
Ar 2787  0.3483805E+02  0.4831927E+02  0.3483805E+02  0.0000000E+00
Ar 2788  0.3230544E+02  0.5083240E+02  0.3477047E+02  0.0000000E+00
Ar 2789  0.3243224E+02  0.4836590E+02  0.3775169E+02  0.0000000E+00
Ar 2790  0.3470403E+02  0.5109598E+02  0.3756483E+02  0.0000000E+00
Ar 2791  0.3494102E+02  0.4808710E+02  0.4030639E+02  0.0000000E+00
Ar 2792  0.3239054E+02  0.5118848E+02  0.4057594E+02  0.0000000E+00
Ar 2793  0.3212726E+02  0.4815837E+02  0.4283458E+02  0.0000000E+00
Ar 2794  0.3473627E+02  0.5118894E+02  0.4342391E+02  0.0000000E+00
Ar 2795  0.3484390E+02  0.4824865E+02  0.4570718E+02  0.0000000E+00
Ar 2796  0.3204774E+02  0.5109501E+02  0.4565232E+02  0.0000000E+00
Ar 2797  0.3208635E+02  0.4848058E+02  0.4848059E+02  0.0000000E+00
Ar 2798  0.3467633E+02  0.5121109E+02  0.4837056E+02  0.0000000E+00
Ar 2799  0.3467633E+02  0.4837056E+02  0.5121109E+02  0.0000000E+00
Ar 2800  0.3247755E+02  0.5105157E+02  0.5105157E+02  0.0000000E+00
Ar 2801  0.3787013E+02  0.1706559E+00  0.1706591E+00  0.0000000E+00
Ar 2802  0.4039836E+02  0.2812540E+01  0.1505175E+00  0.0000000E+00
Ar 2803  0.4039836E+02  0.1505168E+00  0.2812539E+01  0.0000000E+00
Ar 2804  0.3752588E+02  0.2905741E+01  0.2905739E+01  0.0000000E+00
Ar 2805  0.3744643E+02  0.2444058E+00  0.5283791E+01  0.0000000E+00
Ar 2806  0.4043394E+02  0.2773050E+01  0.5395891E+01  0.0000000E+00
Ar 2807  0.4048100E+02  0.8739421E-01  0.8153615E+01  0.0000000E+00
Ar 2808  0.3767280E+02  0.2847596E+01  0.8114434E+01  0.0000000E+00
Ar 2809  0.3790122E+02  0.2178090E+00  0.1078970E+02  0.0000000E+00
Ar 2810  0.4039203E+02  0.3011296E+01  0.1084747E+02  0.0000000E+00
Ar 2811  0.4030636E+02  0.5700386E-01  0.1366404E+02  0.0000000E+00
Ar 2812  0.3765994E+02  0.3124655E+01  0.1319541E+02  0.0000000E+00
Ar 2813  0.3762241E+02  0.9647365E-01  0.1629972E+02  0.0000000E+00
Ar 2814  0.4018318E+02  0.2782667E+01  0.1628332E+02  0.0000000E+00
Ar 2815  0.4017411E+02  0.1323108E+00  0.1887596E+02  0.0000000E+00
Ar 2816  0.3739397E+02  0.2753018E+01  0.1878709E+02  0.0000000E+00
Ar 2817  0.3774054E+02  0.3931964E+00  0.2156428E+02  0.0000000E+00
Ar 2818  0.4016385E+02  0.2822606E+01  0.2153755E+02  0.0000000E+00
Ar 2819  0.4011255E+02  0.2739553E+00  0.2446184E+02  0.0000000E+00
Ar 2820  0.3740425E+02  0.2883582E+01  0.2423375E+02  0.0000000E+00
Ar 2821  0.3730791E+02  0.5357632E+02  0.2682198E+02  0.0000000E+00
Ar 2822  0.4041654E+02  0.2789798E+01  0.2707074E+02  0.0000000E+00
Ar 2823  0.4068200E+02  0.1291985E+00  0.2974855E+02  0.0000000E+00
Ar 2824  0.3750776E+02  0.2497197E+01  0.2953399E+02  0.0000000E+00
Ar 2825  0.3786456E+02  0.5369413E+02  0.3232620E+02  0.0000000E+00
Ar 2826  0.4046125E+02  0.2723896E+01  0.3245922E+02  0.0000000E+00
Ar 2827  0.4033517E+02  0.5362233E+02  0.3486749E+02  0.0000000E+00
Ar 2828  0.3758052E+02  0.2550002E+01  0.3492532E+02  0.0000000E+00
Ar 2829  0.3785376E+02  0.5353840E+02  0.3785376E+02  0.0000000E+00
Ar 2830  0.4034361E+02  0.2840129E+01  0.3759212E+02  0.0000000E+00
Ar 2831  0.4025484E+02  0.1136245E+00  0.4025484E+02  0.0000000E+00
Ar 2832  0.3759212E+02  0.2840126E+01  0.4034361E+02  0.0000000E+00
Ar 2833  0.3759468E+02  0.5369307E+02  0.4275131E+02  0.0000000E+00
Ar 2834  0.4026724E+02  0.2569522E+01  0.4294182E+02  0.0000000E+00
Ar 2835  0.4013234E+02  0.1396987E+00  0.4555042E+02  0.0000000E+00
Ar 2836  0.3753602E+02  0.2672267E+01  0.4583412E+02  0.0000000E+00
Ar 2837  0.3748208E+02  0.5372365E+02  0.4850742E+02  0.0000000E+00
Ar 2838  0.4016089E+02  0.2757672E+01  0.4842472E+02  0.0000000E+00
Ar 2839  0.4034249E+02  0.1009296E+00  0.5086007E+02  0.0000000E+00
Ar 2840  0.3743626E+02  0.2792398E+01  0.5112590E+02  0.0000000E+00
Ar 2841  0.3744643E+02  0.5283795E+01  0.2444065E+00  0.0000000E+00
Ar 2842  0.4048100E+02  0.8153614E+01  0.8739433E-01  0.0000000E+00
Ar 2843  0.4043394E+02  0.5395891E+01  0.2773049E+01  0.0000000E+00
Ar 2844  0.3767280E+02  0.8114435E+01  0.2847596E+01  0.0000000E+00
Ar 2845  0.3739219E+02  0.5479592E+01  0.5479593E+01  0.0000000E+00
Ar 2846  0.4044593E+02  0.8006104E+01  0.5509269E+01  0.0000000E+00
Ar 2847  0.4044593E+02  0.5509270E+01  0.8006106E+01  0.0000000E+00
Ar 2848  0.3739917E+02  0.8072240E+01  0.8072240E+01  0.0000000E+00
Ar 2849  0.3788208E+02  0.5545956E+01  0.1063930E+02  0.0000000E+00
Ar 2850  0.4041143E+02  0.8212609E+01  0.1078543E+02  0.0000000E+00
Ar 2851  0.4040027E+02  0.5461775E+01  0.1347876E+02  0.0000000E+00
Ar 2852  0.3757478E+02  0.7835212E+01  0.1344496E+02  0.0000000E+00
Ar 2853  0.3782610E+02  0.5468969E+01  0.1607967E+02  0.0000000E+00
Ar 2854  0.4057903E+02  0.8159569E+01  0.1623790E+02  0.0000000E+00
Ar 2855  0.4054834E+02  0.5402105E+01  0.1880797E+02  0.0000000E+00
Ar 2856  0.3803352E+02  0.7869180E+01  0.1900680E+02  0.0000000E+00
Ar 2857  0.3753068E+02  0.5444528E+01  0.2168129E+02  0.0000000E+00
Ar 2858  0.4050441E+02  0.8253651E+01  0.2178116E+02  0.0000000E+00
Ar 2859  0.4036082E+02  0.5239307E+01  0.2430534E+02  0.0000000E+00
Ar 2860  0.3762181E+02  0.8075111E+01  0.2451259E+02  0.0000000E+00
Ar 2861  0.3764386E+02  0.5373593E+01  0.2714631E+02  0.0000000E+00
Ar 2862  0.4029855E+02  0.7936070E+01  0.2685159E+02  0.0000000E+00
Ar 2863  0.4033045E+02  0.5279654E+01  0.2991203E+02  0.0000000E+00
Ar 2864  0.3783757E+02  0.8159084E+01  0.2951118E+02  0.0000000E+00
Ar 2865  0.3784392E+02  0.5111216E+01  0.3229453E+02  0.0000000E+00
Ar 2866  0.4014572E+02  0.8344176E+01  0.3246907E+02  0.0000000E+00
Ar 2867  0.4048661E+02  0.5431196E+01  0.3490874E+02  0.0000000E+00
Ar 2868  0.3763419E+02  0.8110462E+01  0.3489744E+02  0.0000000E+00
Ar 2869  0.3757971E+02  0.5196417E+01  0.3757971E+02  0.0000000E+00
Ar 2870  0.4000220E+02  0.8207434E+01  0.3760089E+02  0.0000000E+00
Ar 2871  0.4026572E+02  0.5627186E+01  0.4026572E+02  0.0000000E+00
Ar 2872  0.3760088E+02  0.8207427E+01  0.4000220E+02  0.0000000E+00
Ar 2873  0.3741200E+02  0.5504090E+01  0.4291938E+02  0.0000000E+00
Ar 2874  0.4030946E+02  0.8175513E+01  0.4281891E+02  0.0000000E+00
Ar 2875  0.3997903E+02  0.5104330E+01  0.4556914E+02  0.0000000E+00
Ar 2876  0.3770734E+02  0.8169062E+01  0.4543691E+02  0.0000000E+00
Ar 2877  0.3766764E+02  0.5647148E+01  0.4861922E+02  0.0000000E+00
Ar 2878  0.4065430E+02  0.8025287E+01  0.4855410E+02  0.0000000E+00
Ar 2879  0.4021331E+02  0.5620658E+01  0.5104110E+02  0.0000000E+00
Ar 2880  0.3758821E+02  0.8231052E+01  0.5122004E+02  0.0000000E+00
Ar 2881  0.3790122E+02  0.1078970E+02  0.2178071E+00  0.0000000E+00
Ar 2882  0.4030636E+02  0.1366404E+02  0.5700384E-01  0.0000000E+00
Ar 2883  0.4039203E+02  0.1084747E+02  0.3011295E+01  0.0000000E+00
Ar 2884  0.3765994E+02  0.1319541E+02  0.3124655E+01  0.0000000E+00
Ar 2885  0.3788209E+02  0.1063929E+02  0.5545956E+01  0.0000000E+00
Ar 2886  0.4040028E+02  0.1347876E+02  0.5461774E+01  0.0000000E+00
Ar 2887  0.4041143E+02  0.1078543E+02  0.8212608E+01  0.0000000E+00
Ar 2888  0.3757478E+02  0.1344496E+02  0.7835211E+01  0.0000000E+00
Ar 2889  0.3778385E+02  0.1085051E+02  0.1085051E+02  0.0000000E+00
Ar 2890  0.4036352E+02  0.1348158E+02  0.1077976E+02  0.0000000E+00
Ar 2891  0.4036352E+02  0.1077976E+02  0.1348158E+02  0.0000000E+00
Ar 2892  0.3783221E+02  0.1356689E+02  0.1356689E+02  0.0000000E+00
Ar 2893  0.3775250E+02  0.1054365E+02  0.1590270E+02  0.0000000E+00
Ar 2894  0.4024568E+02  0.1336821E+02  0.1621899E+02  0.0000000E+00
Ar 2895  0.4025723E+02  0.1083124E+02  0.1893507E+02  0.0000000E+00
Ar 2896  0.3786555E+02  0.1348045E+02  0.1903733E+02  0.0000000E+00
Ar 2897  0.3767677E+02  0.1102981E+02  0.2160912E+02  0.0000000E+00
Ar 2898  0.4041222E+02  0.1353061E+02  0.2165023E+02  0.0000000E+00
Ar 2899  0.4054676E+02  0.1069488E+02  0.2452782E+02  0.0000000E+00
Ar 2900  0.3765584E+02  0.1367977E+02  0.2439529E+02  0.0000000E+00
Ar 2901  0.3744296E+02  0.1079305E+02  0.2714111E+02  0.0000000E+00
Ar 2902  0.4031191E+02  0.1377913E+02  0.2682584E+02  0.0000000E+00
Ar 2903  0.4028940E+02  0.1079694E+02  0.2955448E+02  0.0000000E+00
Ar 2904  0.3765140E+02  0.1373582E+02  0.2948923E+02  0.0000000E+00
Ar 2905  0.3758600E+02  0.1084462E+02  0.3223004E+02  0.0000000E+00
Ar 2906  0.4015006E+02  0.1367421E+02  0.3237669E+02  0.0000000E+00
Ar 2907  0.4041519E+02  0.1105712E+02  0.3490166E+02  0.0000000E+00
Ar 2908  0.3771616E+02  0.1355700E+02  0.3521889E+02  0.0000000E+00
Ar 2909  0.3758221E+02  0.1097580E+02  0.3758222E+02  0.0000000E+00
Ar 2910  0.4033506E+02  0.1394896E+02  0.3779604E+02  0.0000000E+00
Ar 2911  0.4007273E+02  0.1120953E+02  0.4007272E+02  0.0000000E+00
Ar 2912  0.3779604E+02  0.1394895E+02  0.4033506E+02  0.0000000E+00
Ar 2913  0.3766320E+02  0.1073092E+02  0.4296548E+02  0.0000000E+00
Ar 2914  0.4055130E+02  0.1358575E+02  0.4308728E+02  0.0000000E+00
Ar 2915  0.4063600E+02  0.1109310E+02  0.4585962E+02  0.0000000E+00
Ar 2916  0.3794992E+02  0.1370769E+02  0.4569182E+02  0.0000000E+00
Ar 2917  0.3815195E+02  0.1096574E+02  0.4854181E+02  0.0000000E+00
Ar 2918  0.4046995E+02  0.1344485E+02  0.4842930E+02  0.0000000E+00
Ar 2919  0.4044574E+02  0.1076545E+02  0.5133386E+02  0.0000000E+00
Ar 2920  0.3767937E+02  0.1357712E+02  0.5114211E+02  0.0000000E+00
Ar 2921  0.3762241E+02  0.1629973E+02  0.9647536E-01  0.0000000E+00
Ar 2922  0.4017411E+02  0.1887596E+02  0.1323133E+00  0.0000000E+00
Ar 2923  0.4018318E+02  0.1628332E+02  0.2782666E+01  0.0000000E+00
Ar 2924  0.3739397E+02  0.1878709E+02  0.2753017E+01  0.0000000E+00
Ar 2925  0.3782610E+02  0.1607967E+02  0.5468971E+01  0.0000000E+00
Ar 2926  0.4054834E+02  0.1880797E+02  0.5402105E+01  0.0000000E+00
Ar 2927  0.4057903E+02  0.1623790E+02  0.8159569E+01  0.0000000E+00
Ar 2928  0.3803352E+02  0.1900679E+02  0.7869180E+01  0.0000000E+00
Ar 2929  0.3775250E+02  0.1590270E+02  0.1054365E+02  0.0000000E+00
Ar 2930  0.4025722E+02  0.1893507E+02  0.1083124E+02  0.0000000E+00
Ar 2931  0.4024568E+02  0.1621900E+02  0.1336821E+02  0.0000000E+00
Ar 2932  0.3786554E+02  0.1903733E+02  0.1348045E+02  0.0000000E+00
Ar 2933  0.3759216E+02  0.1619336E+02  0.1619336E+02  0.0000000E+00
Ar 2934  0.4054990E+02  0.1907927E+02  0.1630800E+02  0.0000000E+00
Ar 2935  0.4054990E+02  0.1630800E+02  0.1907927E+02  0.0000000E+00
Ar 2936  0.3773776E+02  0.1903454E+02  0.1903454E+02  0.0000000E+00
Ar 2937  0.3777367E+02  0.1610542E+02  0.2159868E+02  0.0000000E+00
Ar 2938  0.4037622E+02  0.1881244E+02  0.2162761E+02  0.0000000E+00
Ar 2939  0.4047944E+02  0.1627500E+02  0.2425233E+02  0.0000000E+00
Ar 2940  0.3774244E+02  0.1865234E+02  0.2430483E+02  0.0000000E+00
Ar 2941  0.3759836E+02  0.1638985E+02  0.2683946E+02  0.0000000E+00
Ar 2942  0.4045060E+02  0.1902074E+02  0.2679151E+02  0.0000000E+00
Ar 2943  0.4047490E+02  0.1635119E+02  0.2981542E+02  0.0000000E+00
Ar 2944  0.3793012E+02  0.1886132E+02  0.2939426E+02  0.0000000E+00
Ar 2945  0.3760222E+02  0.1646063E+02  0.3200673E+02  0.0000000E+00
Ar 2946  0.4066589E+02  0.1898808E+02  0.3245994E+02  0.0000000E+00
Ar 2947  0.4019834E+02  0.1650221E+02  0.3497773E+02  0.0000000E+00
Ar 2948  0.3762527E+02  0.1898309E+02  0.3487030E+02  0.0000000E+00
Ar 2949  0.3765778E+02  0.1660473E+02  0.3765778E+02  0.0000000E+00
Ar 2950  0.4008725E+02  0.1919009E+02  0.3747321E+02  0.0000000E+00
Ar 2951  0.4023674E+02  0.1651059E+02  0.4023673E+02  0.0000000E+00
Ar 2952  0.3747321E+02  0.1919009E+02  0.4008725E+02  0.0000000E+00
Ar 2953  0.3772276E+02  0.1643508E+02  0.4318298E+02  0.0000000E+00
Ar 2954  0.4014438E+02  0.1893629E+02  0.4313772E+02  0.0000000E+00
Ar 2955  0.4069734E+02  0.1634220E+02  0.4565381E+02  0.0000000E+00
Ar 2956  0.3785941E+02  0.1889554E+02  0.4583742E+02  0.0000000E+00
Ar 2957  0.3793265E+02  0.1621196E+02  0.4842141E+02  0.0000000E+00
Ar 2958  0.4037424E+02  0.1893315E+02  0.4850124E+02  0.0000000E+00
Ar 2959  0.4041311E+02  0.1633701E+02  0.5108809E+02  0.0000000E+00
Ar 2960  0.3762505E+02  0.1894089E+02  0.5120947E+02  0.0000000E+00
Ar 2961  0.3774054E+02  0.2156428E+02  0.3931964E+00  0.0000000E+00
Ar 2962  0.4011255E+02  0.2446184E+02  0.2739555E+00  0.0000000E+00
Ar 2963  0.4016385E+02  0.2153755E+02  0.2822606E+01  0.0000000E+00
Ar 2964  0.3740425E+02  0.2423375E+02  0.2883582E+01  0.0000000E+00
Ar 2965  0.3753068E+02  0.2168129E+02  0.5444531E+01  0.0000000E+00
Ar 2966  0.4036082E+02  0.2430534E+02  0.5239308E+01  0.0000000E+00
Ar 2967  0.4050441E+02  0.2178116E+02  0.8253651E+01  0.0000000E+00
Ar 2968  0.3762181E+02  0.2451259E+02  0.8075112E+01  0.0000000E+00
Ar 2969  0.3767677E+02  0.2160912E+02  0.1102981E+02  0.0000000E+00
Ar 2970  0.4054676E+02  0.2452782E+02  0.1069489E+02  0.0000000E+00
Ar 2971  0.4041222E+02  0.2165023E+02  0.1353060E+02  0.0000000E+00
Ar 2972  0.3765584E+02  0.2439529E+02  0.1367976E+02  0.0000000E+00
Ar 2973  0.3777367E+02  0.2159868E+02  0.1610542E+02  0.0000000E+00
Ar 2974  0.4047944E+02  0.2425233E+02  0.1627500E+02  0.0000000E+00
Ar 2975  0.4037622E+02  0.2162761E+02  0.1881244E+02  0.0000000E+00
Ar 2976  0.3774244E+02  0.2430483E+02  0.1865234E+02  0.0000000E+00
Ar 2977  0.3766159E+02  0.2156783E+02  0.2156783E+02  0.0000000E+00
Ar 2978  0.4031055E+02  0.2418537E+02  0.2128055E+02  0.0000000E+00
Ar 2979  0.4031055E+02  0.2128055E+02  0.2418537E+02  0.0000000E+00
Ar 2980  0.3760101E+02  0.2427505E+02  0.2427505E+02  0.0000000E+00
Ar 2981  0.3765494E+02  0.2163624E+02  0.2702146E+02  0.0000000E+00
Ar 2982  0.4030695E+02  0.2409024E+02  0.2660260E+02  0.0000000E+00
Ar 2983  0.4031913E+02  0.2145358E+02  0.2976781E+02  0.0000000E+00
Ar 2984  0.3759538E+02  0.2413372E+02  0.2939111E+02  0.0000000E+00
Ar 2985  0.3758030E+02  0.2159793E+02  0.3215661E+02  0.0000000E+00
Ar 2986  0.4007083E+02  0.2423063E+02  0.3226833E+02  0.0000000E+00
Ar 2987  0.4024906E+02  0.2165261E+02  0.3481826E+02  0.0000000E+00
Ar 2988  0.3773935E+02  0.2402414E+02  0.3471895E+02  0.0000000E+00
Ar 2989  0.3752533E+02  0.2174930E+02  0.3752533E+02  0.0000000E+00
Ar 2990  0.4043635E+02  0.2453917E+02  0.3739540E+02  0.0000000E+00
Ar 2991  0.4017115E+02  0.2192794E+02  0.4017115E+02  0.0000000E+00
Ar 2992  0.3739540E+02  0.2453917E+02  0.4043635E+02  0.0000000E+00
Ar 2993  0.3754232E+02  0.2154158E+02  0.4289237E+02  0.0000000E+00
Ar 2994  0.4017183E+02  0.2433636E+02  0.4283617E+02  0.0000000E+00
Ar 2995  0.4039698E+02  0.2151084E+02  0.4557865E+02  0.0000000E+00
Ar 2996  0.3769037E+02  0.2449111E+02  0.4560304E+02  0.0000000E+00
Ar 2997  0.3771509E+02  0.2169450E+02  0.4789429E+02  0.0000000E+00
Ar 2998  0.4019944E+02  0.2436359E+02  0.4827868E+02  0.0000000E+00
Ar 2999  0.4007581E+02  0.2146622E+02  0.5103359E+02  0.0000000E+00
Ar 3000  0.3741503E+02  0.2412981E+02  0.5100669E+02  0.0000000E+00
Ar 3001  0.3730791E+02  0.2682198E+02  0.5357632E+02  0.0000000E+00
Ar 3002  0.4068200E+02  0.2974855E+02  0.1291965E+00  0.0000000E+00
Ar 3003  0.4041654E+02  0.2707074E+02  0.2789798E+01  0.0000000E+00
Ar 3004  0.3750776E+02  0.2953399E+02  0.2497198E+01  0.0000000E+00
Ar 3005  0.3764386E+02  0.2714631E+02  0.5373593E+01  0.0000000E+00
Ar 3006  0.4033045E+02  0.2991203E+02  0.5279654E+01  0.0000000E+00
Ar 3007  0.4029855E+02  0.2685159E+02  0.7936071E+01  0.0000000E+00
Ar 3008  0.3783757E+02  0.2951118E+02  0.8159086E+01  0.0000000E+00
Ar 3009  0.3744296E+02  0.2714111E+02  0.1079305E+02  0.0000000E+00
Ar 3010  0.4028941E+02  0.2955448E+02  0.1079694E+02  0.0000000E+00
Ar 3011  0.4031191E+02  0.2682584E+02  0.1377913E+02  0.0000000E+00
Ar 3012  0.3765140E+02  0.2948923E+02  0.1373582E+02  0.0000000E+00
Ar 3013  0.3759836E+02  0.2683946E+02  0.1638985E+02  0.0000000E+00
Ar 3014  0.4047490E+02  0.2981542E+02  0.1635119E+02  0.0000000E+00
Ar 3015  0.4045060E+02  0.2679151E+02  0.1902074E+02  0.0000000E+00
Ar 3016  0.3793012E+02  0.2939426E+02  0.1886132E+02  0.0000000E+00
Ar 3017  0.3765493E+02  0.2702145E+02  0.2163625E+02  0.0000000E+00
Ar 3018  0.4031913E+02  0.2976781E+02  0.2145358E+02  0.0000000E+00
Ar 3019  0.4030695E+02  0.2660260E+02  0.2409024E+02  0.0000000E+00
Ar 3020  0.3759539E+02  0.2939112E+02  0.2413372E+02  0.0000000E+00
Ar 3021  0.3782358E+02  0.2665700E+02  0.2665700E+02  0.0000000E+00
Ar 3022  0.4030930E+02  0.2976205E+02  0.2687574E+02  0.0000000E+00
Ar 3023  0.4030930E+02  0.2687574E+02  0.2976205E+02  0.0000000E+00
Ar 3024  0.3742184E+02  0.2956852E+02  0.2956852E+02  0.0000000E+00
Ar 3025  0.3744944E+02  0.2665710E+02  0.3238149E+02  0.0000000E+00
Ar 3026  0.4013353E+02  0.2942595E+02  0.3205916E+02  0.0000000E+00
Ar 3027  0.4021696E+02  0.2696642E+02  0.3484041E+02  0.0000000E+00
Ar 3028  0.3726595E+02  0.2944644E+02  0.3467979E+02  0.0000000E+00
Ar 3029  0.3717621E+02  0.2673279E+02  0.3717621E+02  0.0000000E+00
Ar 3030  0.3999307E+02  0.2942134E+02  0.3746719E+02  0.0000000E+00
Ar 3031  0.4018618E+02  0.2689006E+02  0.4018618E+02  0.0000000E+00
Ar 3032  0.3746719E+02  0.2942134E+02  0.3999308E+02  0.0000000E+00
Ar 3033  0.3752826E+02  0.2710160E+02  0.4298839E+02  0.0000000E+00
Ar 3034  0.4000756E+02  0.2966199E+02  0.4278370E+02  0.0000000E+00
Ar 3035  0.3994293E+02  0.2709685E+02  0.4566476E+02  0.0000000E+00
Ar 3036  0.3741052E+02  0.2959058E+02  0.4564831E+02  0.0000000E+00
Ar 3037  0.3755931E+02  0.2671475E+02  0.4851992E+02  0.0000000E+00
Ar 3038  0.4039899E+02  0.2925570E+02  0.4839142E+02  0.0000000E+00
Ar 3039  0.4022012E+02  0.2681437E+02  0.5118922E+02  0.0000000E+00
Ar 3040  0.3768639E+02  0.2960998E+02  0.5093584E+02  0.0000000E+00
Ar 3041  0.3786456E+02  0.3232621E+02  0.5369413E+02  0.0000000E+00
Ar 3042  0.4033517E+02  0.3486749E+02  0.5362233E+02  0.0000000E+00
Ar 3043  0.4046125E+02  0.3245922E+02  0.2723897E+01  0.0000000E+00
Ar 3044  0.3758052E+02  0.3492532E+02  0.2550003E+01  0.0000000E+00
Ar 3045  0.3784392E+02  0.3229453E+02  0.5111216E+01  0.0000000E+00
Ar 3046  0.4048661E+02  0.3490874E+02  0.5431196E+01  0.0000000E+00
Ar 3047  0.4014571E+02  0.3246907E+02  0.8344174E+01  0.0000000E+00
Ar 3048  0.3763419E+02  0.3489744E+02  0.8110458E+01  0.0000000E+00
Ar 3049  0.3758600E+02  0.3223004E+02  0.1084461E+02  0.0000000E+00
Ar 3050  0.4041519E+02  0.3490166E+02  0.1105712E+02  0.0000000E+00
Ar 3051  0.4015006E+02  0.3237669E+02  0.1367421E+02  0.0000000E+00
Ar 3052  0.3771616E+02  0.3521889E+02  0.1355700E+02  0.0000000E+00
Ar 3053  0.3760222E+02  0.3200673E+02  0.1646063E+02  0.0000000E+00
Ar 3054  0.4019835E+02  0.3497774E+02  0.1650221E+02  0.0000000E+00
Ar 3055  0.4066589E+02  0.3245994E+02  0.1898808E+02  0.0000000E+00
Ar 3056  0.3762527E+02  0.3487030E+02  0.1898309E+02  0.0000000E+00
Ar 3057  0.3758030E+02  0.3215662E+02  0.2159793E+02  0.0000000E+00
Ar 3058  0.4024906E+02  0.3481826E+02  0.2165261E+02  0.0000000E+00
Ar 3059  0.4007083E+02  0.3226833E+02  0.2423064E+02  0.0000000E+00
Ar 3060  0.3773935E+02  0.3471895E+02  0.2402414E+02  0.0000000E+00
Ar 3061  0.3744944E+02  0.3238149E+02  0.2665711E+02  0.0000000E+00
Ar 3062  0.4021696E+02  0.3484041E+02  0.2696642E+02  0.0000000E+00
Ar 3063  0.4013353E+02  0.3205916E+02  0.2942594E+02  0.0000000E+00
Ar 3064  0.3726595E+02  0.3467979E+02  0.2944644E+02  0.0000000E+00
Ar 3065  0.3760423E+02  0.3197164E+02  0.3197164E+02  0.0000000E+00
Ar 3066  0.4015180E+02  0.3489195E+02  0.3207291E+02  0.0000000E+00
Ar 3067  0.4015180E+02  0.3207291E+02  0.3489195E+02  0.0000000E+00
Ar 3068  0.3745461E+02  0.3475779E+02  0.3475779E+02  0.0000000E+00
Ar 3069  0.3727150E+02  0.3188032E+02  0.3727150E+02  0.0000000E+00
Ar 3070  0.4032706E+02  0.3502689E+02  0.3770885E+02  0.0000000E+00
Ar 3071  0.3991787E+02  0.3221879E+02  0.3991788E+02  0.0000000E+00
Ar 3072  0.3770884E+02  0.3502689E+02  0.4032706E+02  0.0000000E+00
Ar 3073  0.3758971E+02  0.3238233E+02  0.4319927E+02  0.0000000E+00
Ar 3074  0.4019217E+02  0.3476934E+02  0.4320338E+02  0.0000000E+00
Ar 3075  0.4050060E+02  0.3201774E+02  0.4565902E+02  0.0000000E+00
Ar 3076  0.3764274E+02  0.3517867E+02  0.4599326E+02  0.0000000E+00
Ar 3077  0.3775169E+02  0.3243224E+02  0.4836590E+02  0.0000000E+00
Ar 3078  0.4030639E+02  0.3494102E+02  0.4808711E+02  0.0000000E+00
Ar 3079  0.4057594E+02  0.3239053E+02  0.5118849E+02  0.0000000E+00
Ar 3080  0.3756484E+02  0.3470402E+02  0.5109598E+02  0.0000000E+00
Ar 3081  0.3785376E+02  0.3785376E+02  0.5353840E+02  0.0000000E+00
Ar 3082  0.4025484E+02  0.4025483E+02  0.1136245E+00  0.0000000E+00
Ar 3083  0.4034361E+02  0.3759212E+02  0.2840128E+01  0.0000000E+00
Ar 3084  0.3759212E+02  0.4034361E+02  0.2840127E+01  0.0000000E+00
Ar 3085  0.3757971E+02  0.3757971E+02  0.5196415E+01  0.0000000E+00
Ar 3086  0.4026572E+02  0.4026572E+02  0.5627186E+01  0.0000000E+00
Ar 3087  0.4000220E+02  0.3760089E+02  0.8207436E+01  0.0000000E+00
Ar 3088  0.3760088E+02  0.4000220E+02  0.8207428E+01  0.0000000E+00
Ar 3089  0.3758222E+02  0.3758222E+02  0.1097580E+02  0.0000000E+00
Ar 3090  0.4007273E+02  0.4007272E+02  0.1120953E+02  0.0000000E+00
Ar 3091  0.4033506E+02  0.3779604E+02  0.1394896E+02  0.0000000E+00
Ar 3092  0.3779604E+02  0.4033506E+02  0.1394895E+02  0.0000000E+00
Ar 3093  0.3765778E+02  0.3765778E+02  0.1660474E+02  0.0000000E+00
Ar 3094  0.4023674E+02  0.4023673E+02  0.1651059E+02  0.0000000E+00
Ar 3095  0.4008725E+02  0.3747321E+02  0.1919009E+02  0.0000000E+00
Ar 3096  0.3747321E+02  0.4008725E+02  0.1919009E+02  0.0000000E+00
Ar 3097  0.3752533E+02  0.3752533E+02  0.2174930E+02  0.0000000E+00
Ar 3098  0.4017115E+02  0.4017115E+02  0.2192794E+02  0.0000000E+00
Ar 3099  0.4043635E+02  0.3739540E+02  0.2453917E+02  0.0000000E+00
Ar 3100  0.3739540E+02  0.4043635E+02  0.2453917E+02  0.0000000E+00
Ar 3101  0.3717621E+02  0.3717621E+02  0.2673279E+02  0.0000000E+00
Ar 3102  0.4018618E+02  0.4018618E+02  0.2689006E+02  0.0000000E+00
Ar 3103  0.3999308E+02  0.3746719E+02  0.2942134E+02  0.0000000E+00
Ar 3104  0.3746719E+02  0.3999307E+02  0.2942134E+02  0.0000000E+00
Ar 3105  0.3727150E+02  0.3727150E+02  0.3188032E+02  0.0000000E+00
Ar 3106  0.3991787E+02  0.3991787E+02  0.3221879E+02  0.0000000E+00
Ar 3107  0.4032706E+02  0.3770885E+02  0.3502689E+02  0.0000000E+00
Ar 3108  0.3770885E+02  0.4032707E+02  0.3502689E+02  0.0000000E+00
Ar 3109  0.3734359E+02  0.3734359E+02  0.3734359E+02  0.0000000E+00
Ar 3110  0.4024609E+02  0.4024609E+02  0.3759796E+02  0.0000000E+00
Ar 3111  0.4024609E+02  0.3759796E+02  0.4024609E+02  0.0000000E+00
Ar 3112  0.3759797E+02  0.4024608E+02  0.4024609E+02  0.0000000E+00
Ar 3113  0.3747693E+02  0.3747693E+02  0.4312204E+02  0.0000000E+00
Ar 3114  0.4018574E+02  0.4018574E+02  0.4309936E+02  0.0000000E+00
Ar 3115  0.4025500E+02  0.3762251E+02  0.4562933E+02  0.0000000E+00
Ar 3116  0.3762250E+02  0.4025500E+02  0.4562932E+02  0.0000000E+00
Ar 3117  0.3758914E+02  0.3758914E+02  0.4871955E+02  0.0000000E+00
Ar 3118  0.4022823E+02  0.4022823E+02  0.4857982E+02  0.0000000E+00
Ar 3119  0.4020757E+02  0.3737072E+02  0.5095545E+02  0.0000000E+00
Ar 3120  0.3737071E+02  0.4020757E+02  0.5095545E+02  0.0000000E+00
Ar 3121  0.3759468E+02  0.4275131E+02  0.5369307E+02  0.0000000E+00
Ar 3122  0.4013234E+02  0.4555042E+02  0.1397006E+00  0.0000000E+00
Ar 3123  0.4026724E+02  0.4294181E+02  0.2569524E+01  0.0000000E+00
Ar 3124  0.3753602E+02  0.4583412E+02  0.2672272E+01  0.0000000E+00
Ar 3125  0.3741200E+02  0.4291938E+02  0.5504089E+01  0.0000000E+00
Ar 3126  0.3997903E+02  0.4556914E+02  0.5104332E+01  0.0000000E+00
Ar 3127  0.4030945E+02  0.4281891E+02  0.8175510E+01  0.0000000E+00
Ar 3128  0.3770734E+02  0.4543691E+02  0.8169063E+01  0.0000000E+00
Ar 3129  0.3766320E+02  0.4296548E+02  0.1073092E+02  0.0000000E+00
Ar 3130  0.4063601E+02  0.4585962E+02  0.1109310E+02  0.0000000E+00
Ar 3131  0.4055130E+02  0.4308728E+02  0.1358575E+02  0.0000000E+00
Ar 3132  0.3794991E+02  0.4569182E+02  0.1370769E+02  0.0000000E+00
Ar 3133  0.3772276E+02  0.4318298E+02  0.1643508E+02  0.0000000E+00
Ar 3134  0.4069733E+02  0.4565381E+02  0.1634220E+02  0.0000000E+00
Ar 3135  0.4014438E+02  0.4313772E+02  0.1893629E+02  0.0000000E+00
Ar 3136  0.3785941E+02  0.4583741E+02  0.1889554E+02  0.0000000E+00
Ar 3137  0.3754232E+02  0.4289238E+02  0.2154158E+02  0.0000000E+00
Ar 3138  0.4039698E+02  0.4557865E+02  0.2151084E+02  0.0000000E+00
Ar 3139  0.4017183E+02  0.4283617E+02  0.2433636E+02  0.0000000E+00
Ar 3140  0.3769037E+02  0.4560304E+02  0.2449112E+02  0.0000000E+00
Ar 3141  0.3752826E+02  0.4298839E+02  0.2710160E+02  0.0000000E+00
Ar 3142  0.3994293E+02  0.4566476E+02  0.2709685E+02  0.0000000E+00
Ar 3143  0.4000755E+02  0.4278370E+02  0.2966200E+02  0.0000000E+00
Ar 3144  0.3741051E+02  0.4564832E+02  0.2959058E+02  0.0000000E+00
Ar 3145  0.3758971E+02  0.4319927E+02  0.3238233E+02  0.0000000E+00
Ar 3146  0.4050060E+02  0.4565902E+02  0.3201774E+02  0.0000000E+00
Ar 3147  0.4019217E+02  0.4320338E+02  0.3476934E+02  0.0000000E+00
Ar 3148  0.3764274E+02  0.4599326E+02  0.3517866E+02  0.0000000E+00
Ar 3149  0.3747693E+02  0.4312204E+02  0.3747693E+02  0.0000000E+00
Ar 3150  0.4025500E+02  0.4562933E+02  0.3762250E+02  0.0000000E+00
Ar 3151  0.4018574E+02  0.4309936E+02  0.4018574E+02  0.0000000E+00
Ar 3152  0.3762250E+02  0.4562933E+02  0.4025501E+02  0.0000000E+00
Ar 3153  0.3731383E+02  0.4301577E+02  0.4301578E+02  0.0000000E+00
Ar 3154  0.4021384E+02  0.4554462E+02  0.4284758E+02  0.0000000E+00
Ar 3155  0.4021384E+02  0.4284758E+02  0.4554462E+02  0.0000000E+00
Ar 3156  0.3759382E+02  0.4579970E+02  0.4579970E+02  0.0000000E+00
Ar 3157  0.3757153E+02  0.4304885E+02  0.4865853E+02  0.0000000E+00
Ar 3158  0.4041531E+02  0.4545392E+02  0.4842165E+02  0.0000000E+00
Ar 3159  0.4023464E+02  0.4285683E+02  0.5118413E+02  0.0000000E+00
Ar 3160  0.3769229E+02  0.4576864E+02  0.5084885E+02  0.0000000E+00
Ar 3161  0.3748208E+02  0.4850742E+02  0.5372365E+02  0.0000000E+00
Ar 3162  0.4034248E+02  0.5086007E+02  0.1009286E+00  0.0000000E+00
Ar 3163  0.4016089E+02  0.4842472E+02  0.2757671E+01  0.0000000E+00
Ar 3164  0.3743626E+02  0.5112590E+02  0.2792399E+01  0.0000000E+00
Ar 3165  0.3766764E+02  0.4861922E+02  0.5647149E+01  0.0000000E+00
Ar 3166  0.4021331E+02  0.5104111E+02  0.5620658E+01  0.0000000E+00
Ar 3167  0.4065430E+02  0.4855410E+02  0.8025288E+01  0.0000000E+00
Ar 3168  0.3758821E+02  0.5122004E+02  0.8231051E+01  0.0000000E+00
Ar 3169  0.3815195E+02  0.4854181E+02  0.1096574E+02  0.0000000E+00
Ar 3170  0.4044574E+02  0.5133386E+02  0.1076545E+02  0.0000000E+00
Ar 3171  0.4046995E+02  0.4842930E+02  0.1344485E+02  0.0000000E+00
Ar 3172  0.3767937E+02  0.5114211E+02  0.1357712E+02  0.0000000E+00
Ar 3173  0.3793265E+02  0.4842141E+02  0.1621196E+02  0.0000000E+00
Ar 3174  0.4041311E+02  0.5108809E+02  0.1633701E+02  0.0000000E+00
Ar 3175  0.4037424E+02  0.4850124E+02  0.1893315E+02  0.0000000E+00
Ar 3176  0.3762505E+02  0.5120947E+02  0.1894089E+02  0.0000000E+00
Ar 3177  0.3771509E+02  0.4789429E+02  0.2169449E+02  0.0000000E+00
Ar 3178  0.4007581E+02  0.5103359E+02  0.2146622E+02  0.0000000E+00
Ar 3179  0.4019944E+02  0.4827868E+02  0.2436359E+02  0.0000000E+00
Ar 3180  0.3741503E+02  0.5100669E+02  0.2412981E+02  0.0000000E+00
Ar 3181  0.3755931E+02  0.4851992E+02  0.2671475E+02  0.0000000E+00
Ar 3182  0.4022012E+02  0.5118922E+02  0.2681437E+02  0.0000000E+00
Ar 3183  0.4039899E+02  0.4839142E+02  0.2925570E+02  0.0000000E+00
Ar 3184  0.3768639E+02  0.5093584E+02  0.2960998E+02  0.0000000E+00
Ar 3185  0.3775169E+02  0.4836590E+02  0.3243224E+02  0.0000000E+00
Ar 3186  0.4057594E+02  0.5118849E+02  0.3239053E+02  0.0000000E+00
Ar 3187  0.4030639E+02  0.4808711E+02  0.3494102E+02  0.0000000E+00
Ar 3188  0.3756484E+02  0.5109598E+02  0.3470402E+02  0.0000000E+00
Ar 3189  0.3758914E+02  0.4871955E+02  0.3758914E+02  0.0000000E+00
Ar 3190  0.4020757E+02  0.5095545E+02  0.3737072E+02  0.0000000E+00
Ar 3191  0.4022823E+02  0.4857982E+02  0.4022823E+02  0.0000000E+00
Ar 3192  0.3737072E+02  0.5095545E+02  0.4020757E+02  0.0000000E+00
Ar 3193  0.3757152E+02  0.4865853E+02  0.4304885E+02  0.0000000E+00
Ar 3194  0.4023464E+02  0.5118413E+02  0.4285683E+02  0.0000000E+00
Ar 3195  0.4041531E+02  0.4842165E+02  0.4545392E+02  0.0000000E+00
Ar 3196  0.3769229E+02  0.5084884E+02  0.4576864E+02  0.0000000E+00
Ar 3197  0.3732697E+02  0.4836374E+02  0.4836374E+02  0.0000000E+00
Ar 3198  0.4057420E+02  0.5103249E+02  0.4819900E+02  0.0000000E+00
Ar 3199  0.4057420E+02  0.4819900E+02  0.5103249E+02  0.0000000E+00
Ar 3200  0.3765745E+02  0.5119900E+02  0.5119900E+02  0.0000000E+00
Ar 3201  0.4320839E+02  0.4655138E+00  0.4655125E+00  0.0000000E+00
Ar 3202  0.4576049E+02  0.2765346E+01  0.5363859E+02  0.0000000E+00
Ar 3203  0.4576049E+02  0.5363859E+02  0.2765346E+01  0.0000000E+00
Ar 3204  0.4326755E+02  0.2733164E+01  0.2733164E+01  0.0000000E+00
Ar 3205  0.4308233E+02  0.5362822E+02  0.5407093E+01  0.0000000E+00
Ar 3206  0.4597092E+02  0.2822422E+01  0.5330107E+01  0.0000000E+00
Ar 3207  0.4573614E+02  0.5374662E+02  0.7900787E+01  0.0000000E+00
Ar 3208  0.4301022E+02  0.3036751E+01  0.7974394E+01  0.0000000E+00
Ar 3209  0.4323124E+02  0.4786516E+00  0.1083659E+02  0.0000000E+00
Ar 3210  0.4588582E+02  0.2860041E+01  0.1108667E+02  0.0000000E+00
Ar 3211  0.4584793E+02  0.5372984E+02  0.1344999E+02  0.0000000E+00
Ar 3212  0.4299011E+02  0.2837375E+01  0.1365186E+02  0.0000000E+00
Ar 3213  0.4282672E+02  0.1344362E+00  0.1607643E+02  0.0000000E+00
Ar 3214  0.4589620E+02  0.2248063E+01  0.1620726E+02  0.0000000E+00
Ar 3215  0.4568429E+02  0.5374695E+02  0.1889176E+02  0.0000000E+00
Ar 3216  0.4295149E+02  0.2786848E+01  0.1883528E+02  0.0000000E+00
Ar 3217  0.4295473E+02  0.3029972E+00  0.2145432E+02  0.0000000E+00
Ar 3218  0.4583283E+02  0.2680261E+01  0.2146157E+02  0.0000000E+00
Ar 3219  0.4547793E+02  0.5375737E+02  0.2395803E+02  0.0000000E+00
Ar 3220  0.4314452E+02  0.2592097E+01  0.2429050E+02  0.0000000E+00
Ar 3221  0.4303646E+02  0.2098139E+00  0.2685649E+02  0.0000000E+00
Ar 3222  0.4625796E+02  0.2816572E+01  0.2673775E+02  0.0000000E+00
Ar 3223  0.4549281E+02  0.1617748E+00  0.2959520E+02  0.0000000E+00
Ar 3224  0.4332872E+02  0.3072404E+01  0.2987519E+02  0.0000000E+00
Ar 3225  0.4313444E+02  0.2400193E+00  0.3235665E+02  0.0000000E+00
Ar 3226  0.4600878E+02  0.3045813E+01  0.3242203E+02  0.0000000E+00
Ar 3227  0.4587311E+02  0.1491641E+00  0.3483499E+02  0.0000000E+00
Ar 3228  0.4329201E+02  0.2812910E+01  0.3500432E+02  0.0000000E+00
Ar 3229  0.4275131E+02  0.5369308E+02  0.3759467E+02  0.0000000E+00
Ar 3230  0.4583413E+02  0.2672271E+01  0.3753602E+02  0.0000000E+00
Ar 3231  0.4555043E+02  0.1396965E+00  0.4013233E+02  0.0000000E+00
Ar 3232  0.4294182E+02  0.2569522E+01  0.4026724E+02  0.0000000E+00
Ar 3233  0.4290851E+02  0.5366383E+02  0.4290850E+02  0.0000000E+00
Ar 3234  0.4558531E+02  0.2579316E+01  0.4292998E+02  0.0000000E+00
Ar 3235  0.4555724E+02  0.5368931E+02  0.4555724E+02  0.0000000E+00
Ar 3236  0.4292998E+02  0.2579318E+01  0.4558530E+02  0.0000000E+00
Ar 3237  0.4306792E+02  0.5369565E+02  0.4839025E+02  0.0000000E+00
Ar 3238  0.4560432E+02  0.2904219E+01  0.4840269E+02  0.0000000E+00
Ar 3239  0.4565348E+02  0.5374046E+02  0.5134582E+02  0.0000000E+00
Ar 3240  0.4289609E+02  0.2680918E+01  0.5116045E+02  0.0000000E+00
Ar 3241  0.4308233E+02  0.5407091E+01  0.5362822E+02  0.0000000E+00
Ar 3242  0.4573614E+02  0.7900788E+01  0.5374661E+02  0.0000000E+00
Ar 3243  0.4597092E+02  0.5330108E+01  0.2822420E+01  0.0000000E+00
Ar 3244  0.4301022E+02  0.7974394E+01  0.3036752E+01  0.0000000E+00
Ar 3245  0.4293221E+02  0.5266192E+01  0.5266191E+01  0.0000000E+00
Ar 3246  0.4578158E+02  0.8211560E+01  0.5372083E+01  0.0000000E+00
Ar 3247  0.4578157E+02  0.5372084E+01  0.8211562E+01  0.0000000E+00
Ar 3248  0.4318808E+02  0.7837368E+01  0.7837367E+01  0.0000000E+00
Ar 3249  0.4284141E+02  0.5451654E+01  0.1094157E+02  0.0000000E+00
Ar 3250  0.4554635E+02  0.7882897E+01  0.1083178E+02  0.0000000E+00
Ar 3251  0.4556577E+02  0.5302305E+01  0.1376097E+02  0.0000000E+00
Ar 3252  0.4315490E+02  0.8190180E+01  0.1340170E+02  0.0000000E+00
Ar 3253  0.4282359E+02  0.5360532E+01  0.1606261E+02  0.0000000E+00
Ar 3254  0.4518951E+02  0.8079452E+01  0.1605761E+02  0.0000000E+00
Ar 3255  0.4560420E+02  0.5470609E+01  0.1860414E+02  0.0000000E+00
Ar 3256  0.4295699E+02  0.8014204E+01  0.1888705E+02  0.0000000E+00
Ar 3257  0.4318450E+02  0.5424253E+01  0.2166046E+02  0.0000000E+00
Ar 3258  0.4568831E+02  0.8228038E+01  0.2171497E+02  0.0000000E+00
Ar 3259  0.4563424E+02  0.5335338E+01  0.2435639E+02  0.0000000E+00
Ar 3260  0.4310279E+02  0.7963303E+01  0.2437480E+02  0.0000000E+00
Ar 3261  0.4329273E+02  0.5399549E+01  0.2713959E+02  0.0000000E+00
Ar 3262  0.4578618E+02  0.8139324E+01  0.2704859E+02  0.0000000E+00
Ar 3263  0.4580514E+02  0.5715705E+01  0.2956382E+02  0.0000000E+00
Ar 3264  0.4298281E+02  0.7853978E+01  0.2963008E+02  0.0000000E+00
Ar 3265  0.4324886E+02  0.5530580E+01  0.3248605E+02  0.0000000E+00
Ar 3266  0.4551640E+02  0.8151402E+01  0.3230304E+02  0.0000000E+00
Ar 3267  0.4586097E+02  0.5596472E+01  0.3518952E+02  0.0000000E+00
Ar 3268  0.4291949E+02  0.8461889E+01  0.3501126E+02  0.0000000E+00
Ar 3269  0.4291938E+02  0.5504095E+01  0.3741200E+02  0.0000000E+00
Ar 3270  0.4543692E+02  0.8169059E+01  0.3770734E+02  0.0000000E+00
Ar 3271  0.4556913E+02  0.5104330E+01  0.3997904E+02  0.0000000E+00
Ar 3272  0.4281891E+02  0.8175511E+01  0.4030945E+02  0.0000000E+00
Ar 3273  0.4292880E+02  0.5600719E+01  0.4292880E+02  0.0000000E+00
Ar 3274  0.4549010E+02  0.8106313E+01  0.4285616E+02  0.0000000E+00
Ar 3275  0.4569126E+02  0.5300606E+01  0.4569126E+02  0.0000000E+00
Ar 3276  0.4285616E+02  0.8106317E+01  0.4549010E+02  0.0000000E+00
Ar 3277  0.4300708E+02  0.5246156E+01  0.4821927E+02  0.0000000E+00
Ar 3278  0.4550921E+02  0.8014188E+01  0.4817859E+02  0.0000000E+00
Ar 3279  0.4570304E+02  0.5494137E+01  0.5111596E+02  0.0000000E+00
Ar 3280  0.4324613E+02  0.8294378E+01  0.5108140E+02  0.0000000E+00
Ar 3281  0.4323124E+02  0.1083659E+02  0.4786496E+00  0.0000000E+00
Ar 3282  0.4584793E+02  0.1344998E+02  0.5372984E+02  0.0000000E+00
Ar 3283  0.4588582E+02  0.1108668E+02  0.2860042E+01  0.0000000E+00
Ar 3284  0.4299011E+02  0.1365186E+02  0.2837374E+01  0.0000000E+00
Ar 3285  0.4284141E+02  0.1094157E+02  0.5451653E+01  0.0000000E+00
Ar 3286  0.4556577E+02  0.1376097E+02  0.5302306E+01  0.0000000E+00
Ar 3287  0.4554635E+02  0.1083177E+02  0.7882898E+01  0.0000000E+00
Ar 3288  0.4315490E+02  0.1340170E+02  0.8190176E+01  0.0000000E+00
Ar 3289  0.4296236E+02  0.1085456E+02  0.1085456E+02  0.0000000E+00
Ar 3290  0.4573762E+02  0.1347921E+02  0.1086161E+02  0.0000000E+00
Ar 3291  0.4573762E+02  0.1086161E+02  0.1347921E+02  0.0000000E+00
Ar 3292  0.4272831E+02  0.1348545E+02  0.1348545E+02  0.0000000E+00
Ar 3293  0.4282615E+02  0.1099037E+02  0.1634805E+02  0.0000000E+00
Ar 3294  0.4536065E+02  0.1343672E+02  0.1634149E+02  0.0000000E+00
Ar 3295  0.4537398E+02  0.1076606E+02  0.1910065E+02  0.0000000E+00
Ar 3296  0.4286921E+02  0.1359295E+02  0.1902315E+02  0.0000000E+00
Ar 3297  0.4291778E+02  0.1087634E+02  0.2167510E+02  0.0000000E+00
Ar 3298  0.4575404E+02  0.1355498E+02  0.2173172E+02  0.0000000E+00
Ar 3299  0.4581934E+02  0.1074737E+02  0.2451143E+02  0.0000000E+00
Ar 3300  0.4300166E+02  0.1341749E+02  0.2429079E+02  0.0000000E+00
Ar 3301  0.4293345E+02  0.1091523E+02  0.2702422E+02  0.0000000E+00
Ar 3302  0.4580847E+02  0.1345525E+02  0.2698995E+02  0.0000000E+00
Ar 3303  0.4553373E+02  0.1109120E+02  0.2969142E+02  0.0000000E+00
Ar 3304  0.4293292E+02  0.1376430E+02  0.2966662E+02  0.0000000E+00
Ar 3305  0.4306647E+02  0.1094364E+02  0.3237244E+02  0.0000000E+00
Ar 3306  0.4567833E+02  0.1369984E+02  0.3251092E+02  0.0000000E+00
Ar 3307  0.4580827E+02  0.1117093E+02  0.3522145E+02  0.0000000E+00
Ar 3308  0.4288824E+02  0.1380864E+02  0.3509772E+02  0.0000000E+00
Ar 3309  0.4296549E+02  0.1073092E+02  0.3766320E+02  0.0000000E+00
Ar 3310  0.4569182E+02  0.1370769E+02  0.3794992E+02  0.0000000E+00
Ar 3311  0.4585962E+02  0.1109310E+02  0.4063601E+02  0.0000000E+00
Ar 3312  0.4308727E+02  0.1358575E+02  0.4055130E+02  0.0000000E+00
Ar 3313  0.4308149E+02  0.1084655E+02  0.4308149E+02  0.0000000E+00
Ar 3314  0.4573688E+02  0.1368936E+02  0.4320539E+02  0.0000000E+00
Ar 3315  0.4549375E+02  0.1071440E+02  0.4549375E+02  0.0000000E+00
Ar 3316  0.4320538E+02  0.1368936E+02  0.4573688E+02  0.0000000E+00
Ar 3317  0.4313784E+02  0.1078259E+02  0.4839330E+02  0.0000000E+00
Ar 3318  0.4563367E+02  0.1329113E+02  0.4848119E+02  0.0000000E+00
Ar 3319  0.4582527E+02  0.1067725E+02  0.5132641E+02  0.0000000E+00
Ar 3320  0.4301285E+02  0.1324621E+02  0.5102596E+02  0.0000000E+00
Ar 3321  0.4282672E+02  0.1607644E+02  0.1344355E+00  0.0000000E+00
Ar 3322  0.4568428E+02  0.1889176E+02  0.5374695E+02  0.0000000E+00
Ar 3323  0.4589620E+02  0.1620726E+02  0.2248062E+01  0.0000000E+00
Ar 3324  0.4295149E+02  0.1883528E+02  0.2786850E+01  0.0000000E+00
Ar 3325  0.4282359E+02  0.1606261E+02  0.5360532E+01  0.0000000E+00
Ar 3326  0.4560420E+02  0.1860414E+02  0.5470611E+01  0.0000000E+00
Ar 3327  0.4518951E+02  0.1605760E+02  0.8079452E+01  0.0000000E+00
Ar 3328  0.4295699E+02  0.1888705E+02  0.8014206E+01  0.0000000E+00
Ar 3329  0.4282615E+02  0.1634805E+02  0.1099037E+02  0.0000000E+00
Ar 3330  0.4537398E+02  0.1910065E+02  0.1076606E+02  0.0000000E+00
Ar 3331  0.4536065E+02  0.1634149E+02  0.1343671E+02  0.0000000E+00
Ar 3332  0.4286921E+02  0.1902315E+02  0.1359295E+02  0.0000000E+00
Ar 3333  0.4302397E+02  0.1630113E+02  0.1630112E+02  0.0000000E+00
Ar 3334  0.4548655E+02  0.1893697E+02  0.1631839E+02  0.0000000E+00
Ar 3335  0.4548655E+02  0.1631840E+02  0.1893697E+02  0.0000000E+00
Ar 3336  0.4296496E+02  0.1894472E+02  0.1894472E+02  0.0000000E+00
Ar 3337  0.4324323E+02  0.1606278E+02  0.2150365E+02  0.0000000E+00
Ar 3338  0.4555720E+02  0.1874479E+02  0.2153030E+02  0.0000000E+00
Ar 3339  0.4569524E+02  0.1612946E+02  0.2436973E+02  0.0000000E+00
Ar 3340  0.4310537E+02  0.1890692E+02  0.2427639E+02  0.0000000E+00
Ar 3341  0.4301577E+02  0.1627786E+02  0.2707825E+02  0.0000000E+00
Ar 3342  0.4574594E+02  0.1873487E+02  0.2694701E+02  0.0000000E+00
Ar 3343  0.4579346E+02  0.1616759E+02  0.2962176E+02  0.0000000E+00
Ar 3344  0.4309340E+02  0.1908738E+02  0.2966390E+02  0.0000000E+00
Ar 3345  0.4303219E+02  0.1617007E+02  0.3225462E+02  0.0000000E+00
Ar 3346  0.4579412E+02  0.1896809E+02  0.3233476E+02  0.0000000E+00
Ar 3347  0.4560555E+02  0.1633787E+02  0.3516578E+02  0.0000000E+00
Ar 3348  0.4313344E+02  0.1877670E+02  0.3498124E+02  0.0000000E+00
Ar 3349  0.4318298E+02  0.1643508E+02  0.3772276E+02  0.0000000E+00
Ar 3350  0.4583742E+02  0.1889554E+02  0.3785941E+02  0.0000000E+00
Ar 3351  0.4565380E+02  0.1634220E+02  0.4069733E+02  0.0000000E+00
Ar 3352  0.4313773E+02  0.1893629E+02  0.4014437E+02  0.0000000E+00
Ar 3353  0.4281105E+02  0.1646791E+02  0.4281105E+02  0.0000000E+00
Ar 3354  0.4559197E+02  0.1917891E+02  0.4299593E+02  0.0000000E+00
Ar 3355  0.4585757E+02  0.1632341E+02  0.4585757E+02  0.0000000E+00
Ar 3356  0.4299593E+02  0.1917892E+02  0.4559197E+02  0.0000000E+00
Ar 3357  0.4320808E+02  0.1608489E+02  0.4816114E+02  0.0000000E+00
Ar 3358  0.4561694E+02  0.1883219E+02  0.4833199E+02  0.0000000E+00
Ar 3359  0.4585374E+02  0.1618743E+02  0.5115712E+02  0.0000000E+00
Ar 3360  0.4299650E+02  0.1872701E+02  0.5110446E+02  0.0000000E+00
Ar 3361  0.4295473E+02  0.2145433E+02  0.3029977E+00  0.0000000E+00
Ar 3362  0.4547793E+02  0.2395803E+02  0.5375737E+02  0.0000000E+00
Ar 3363  0.4583283E+02  0.2146157E+02  0.2680260E+01  0.0000000E+00
Ar 3364  0.4314451E+02  0.2429050E+02  0.2592097E+01  0.0000000E+00
Ar 3365  0.4318450E+02  0.2166046E+02  0.5424253E+01  0.0000000E+00
Ar 3366  0.4563424E+02  0.2435639E+02  0.5335338E+01  0.0000000E+00
Ar 3367  0.4568831E+02  0.2171497E+02  0.8228037E+01  0.0000000E+00
Ar 3368  0.4310279E+02  0.2437480E+02  0.7963304E+01  0.0000000E+00
Ar 3369  0.4291778E+02  0.2167511E+02  0.1087634E+02  0.0000000E+00
Ar 3370  0.4581934E+02  0.2451143E+02  0.1074738E+02  0.0000000E+00
Ar 3371  0.4575404E+02  0.2173172E+02  0.1355498E+02  0.0000000E+00
Ar 3372  0.4300166E+02  0.2429079E+02  0.1341749E+02  0.0000000E+00
Ar 3373  0.4324323E+02  0.2150365E+02  0.1606278E+02  0.0000000E+00
Ar 3374  0.4569524E+02  0.2436973E+02  0.1612946E+02  0.0000000E+00
Ar 3375  0.4555720E+02  0.2153030E+02  0.1874479E+02  0.0000000E+00
Ar 3376  0.4310537E+02  0.2427639E+02  0.1890692E+02  0.0000000E+00
Ar 3377  0.4313957E+02  0.2157140E+02  0.2157140E+02  0.0000000E+00
Ar 3378  0.4577298E+02  0.2414739E+02  0.2130310E+02  0.0000000E+00
Ar 3379  0.4577298E+02  0.2130310E+02  0.2414739E+02  0.0000000E+00
Ar 3380  0.4297124E+02  0.2410893E+02  0.2410893E+02  0.0000000E+00
Ar 3381  0.4329144E+02  0.2150509E+02  0.2665846E+02  0.0000000E+00
Ar 3382  0.4541562E+02  0.2412688E+02  0.2686546E+02  0.0000000E+00
Ar 3383  0.4569311E+02  0.2125718E+02  0.2971933E+02  0.0000000E+00
Ar 3384  0.4288441E+02  0.2403364E+02  0.2936319E+02  0.0000000E+00
Ar 3385  0.4299615E+02  0.2197569E+02  0.3235555E+02  0.0000000E+00
Ar 3386  0.4557033E+02  0.2423254E+02  0.3205381E+02  0.0000000E+00
Ar 3387  0.4560049E+02  0.2146946E+02  0.3487779E+02  0.0000000E+00
Ar 3388  0.4319882E+02  0.2427098E+02  0.3500705E+02  0.0000000E+00
Ar 3389  0.4289238E+02  0.2154158E+02  0.3754231E+02  0.0000000E+00
Ar 3390  0.4560304E+02  0.2449111E+02  0.3769037E+02  0.0000000E+00
Ar 3391  0.4557865E+02  0.2151085E+02  0.4039698E+02  0.0000000E+00
Ar 3392  0.4283617E+02  0.2433636E+02  0.4017183E+02  0.0000000E+00
Ar 3393  0.4280020E+02  0.2145478E+02  0.4280019E+02  0.0000000E+00
Ar 3394  0.4570198E+02  0.2415140E+02  0.4275112E+02  0.0000000E+00
Ar 3395  0.4567847E+02  0.2191193E+02  0.4567846E+02  0.0000000E+00
Ar 3396  0.4275112E+02  0.2415140E+02  0.4570198E+02  0.0000000E+00
Ar 3397  0.4289920E+02  0.2155934E+02  0.4846781E+02  0.0000000E+00
Ar 3398  0.4551985E+02  0.2425968E+02  0.4845985E+02  0.0000000E+00
Ar 3399  0.4568593E+02  0.2157914E+02  0.5103360E+02  0.0000000E+00
Ar 3400  0.4279991E+02  0.2408795E+02  0.5131409E+02  0.0000000E+00
Ar 3401  0.4303646E+02  0.2685649E+02  0.2098136E+00  0.0000000E+00
Ar 3402  0.4549281E+02  0.2959520E+02  0.1617758E+00  0.0000000E+00
Ar 3403  0.4625796E+02  0.2673776E+02  0.2816572E+01  0.0000000E+00
Ar 3404  0.4332872E+02  0.2987519E+02  0.3072406E+01  0.0000000E+00
Ar 3405  0.4329273E+02  0.2713959E+02  0.5399551E+01  0.0000000E+00
Ar 3406  0.4580514E+02  0.2956382E+02  0.5715705E+01  0.0000000E+00
Ar 3407  0.4578618E+02  0.2704858E+02  0.8139325E+01  0.0000000E+00
Ar 3408  0.4298281E+02  0.2963008E+02  0.7853979E+01  0.0000000E+00
Ar 3409  0.4293345E+02  0.2702422E+02  0.1091523E+02  0.0000000E+00
Ar 3410  0.4553373E+02  0.2969142E+02  0.1109120E+02  0.0000000E+00
Ar 3411  0.4580847E+02  0.2698994E+02  0.1345525E+02  0.0000000E+00
Ar 3412  0.4293292E+02  0.2966662E+02  0.1376430E+02  0.0000000E+00
Ar 3413  0.4301577E+02  0.2707825E+02  0.1627786E+02  0.0000000E+00
Ar 3414  0.4579345E+02  0.2962176E+02  0.1616759E+02  0.0000000E+00
Ar 3415  0.4574594E+02  0.2694701E+02  0.1873487E+02  0.0000000E+00
Ar 3416  0.4309340E+02  0.2966391E+02  0.1908738E+02  0.0000000E+00
Ar 3417  0.4329144E+02  0.2665846E+02  0.2150509E+02  0.0000000E+00
Ar 3418  0.4569311E+02  0.2971933E+02  0.2125718E+02  0.0000000E+00
Ar 3419  0.4541562E+02  0.2686545E+02  0.2412688E+02  0.0000000E+00
Ar 3420  0.4288441E+02  0.2936318E+02  0.2403364E+02  0.0000000E+00
Ar 3421  0.4292363E+02  0.2692725E+02  0.2692725E+02  0.0000000E+00
Ar 3422  0.4561142E+02  0.2957759E+02  0.2684529E+02  0.0000000E+00
Ar 3423  0.4561142E+02  0.2684529E+02  0.2957759E+02  0.0000000E+00
Ar 3424  0.4296189E+02  0.2984562E+02  0.2984561E+02  0.0000000E+00
Ar 3425  0.4292262E+02  0.2675428E+02  0.3219776E+02  0.0000000E+00
Ar 3426  0.4555125E+02  0.2972273E+02  0.3227565E+02  0.0000000E+00
Ar 3427  0.4573988E+02  0.2686650E+02  0.3466764E+02  0.0000000E+00
Ar 3428  0.4307977E+02  0.2966731E+02  0.3489776E+02  0.0000000E+00
Ar 3429  0.4298840E+02  0.2710160E+02  0.3752826E+02  0.0000000E+00
Ar 3430  0.4564832E+02  0.2959058E+02  0.3741051E+02  0.0000000E+00
Ar 3431  0.4566476E+02  0.2709685E+02  0.3994293E+02  0.0000000E+00
Ar 3432  0.4278369E+02  0.2966199E+02  0.4000756E+02  0.0000000E+00
Ar 3433  0.4311514E+02  0.2712199E+02  0.4311514E+02  0.0000000E+00
Ar 3434  0.4554054E+02  0.2964040E+02  0.4301321E+02  0.0000000E+00
Ar 3435  0.4572972E+02  0.2677035E+02  0.4572972E+02  0.0000000E+00
Ar 3436  0.4301321E+02  0.2964040E+02  0.4554053E+02  0.0000000E+00
Ar 3437  0.4277396E+02  0.2680598E+02  0.4805901E+02  0.0000000E+00
Ar 3438  0.4586853E+02  0.2934431E+02  0.4831337E+02  0.0000000E+00
Ar 3439  0.4569282E+02  0.2673189E+02  0.5129244E+02  0.0000000E+00
Ar 3440  0.4317561E+02  0.2932089E+02  0.5108575E+02  0.0000000E+00
Ar 3441  0.4313444E+02  0.3235665E+02  0.2400206E+00  0.0000000E+00
Ar 3442  0.4587311E+02  0.3483499E+02  0.1491639E+00  0.0000000E+00
Ar 3443  0.4600878E+02  0.3242203E+02  0.3045813E+01  0.0000000E+00
Ar 3444  0.4329201E+02  0.3500432E+02  0.2812911E+01  0.0000000E+00
Ar 3445  0.4324886E+02  0.3248605E+02  0.5530581E+01  0.0000000E+00
Ar 3446  0.4586097E+02  0.3518952E+02  0.5596476E+01  0.0000000E+00
Ar 3447  0.4551640E+02  0.3230304E+02  0.8151402E+01  0.0000000E+00
Ar 3448  0.4291949E+02  0.3501126E+02  0.8461890E+01  0.0000000E+00
Ar 3449  0.4306646E+02  0.3237245E+02  0.1094365E+02  0.0000000E+00
Ar 3450  0.4580827E+02  0.3522144E+02  0.1117093E+02  0.0000000E+00
Ar 3451  0.4567833E+02  0.3251092E+02  0.1369984E+02  0.0000000E+00
Ar 3452  0.4288824E+02  0.3509773E+02  0.1380864E+02  0.0000000E+00
Ar 3453  0.4303219E+02  0.3225462E+02  0.1617007E+02  0.0000000E+00
Ar 3454  0.4560555E+02  0.3516578E+02  0.1633787E+02  0.0000000E+00
Ar 3455  0.4579412E+02  0.3233476E+02  0.1896809E+02  0.0000000E+00
Ar 3456  0.4313344E+02  0.3498124E+02  0.1877670E+02  0.0000000E+00
Ar 3457  0.4299615E+02  0.3235555E+02  0.2197569E+02  0.0000000E+00
Ar 3458  0.4560049E+02  0.3487779E+02  0.2146946E+02  0.0000000E+00
Ar 3459  0.4557033E+02  0.3205381E+02  0.2423254E+02  0.0000000E+00
Ar 3460  0.4319882E+02  0.3500705E+02  0.2427098E+02  0.0000000E+00
Ar 3461  0.4292262E+02  0.3219776E+02  0.2675428E+02  0.0000000E+00
Ar 3462  0.4573989E+02  0.3466764E+02  0.2686650E+02  0.0000000E+00
Ar 3463  0.4555125E+02  0.3227566E+02  0.2972273E+02  0.0000000E+00
Ar 3464  0.4307977E+02  0.3489776E+02  0.2966731E+02  0.0000000E+00
Ar 3465  0.4241281E+02  0.3215705E+02  0.3215704E+02  0.0000000E+00
Ar 3466  0.4551840E+02  0.3505682E+02  0.3239921E+02  0.0000000E+00
Ar 3467  0.4551840E+02  0.3239921E+02  0.3505682E+02  0.0000000E+00
Ar 3468  0.4280115E+02  0.3505568E+02  0.3505568E+02  0.0000000E+00
Ar 3469  0.4319927E+02  0.3238234E+02  0.3758971E+02  0.0000000E+00
Ar 3470  0.4599327E+02  0.3517867E+02  0.3764274E+02  0.0000000E+00
Ar 3471  0.4565903E+02  0.3201774E+02  0.4050060E+02  0.0000000E+00
Ar 3472  0.4320338E+02  0.3476934E+02  0.4019218E+02  0.0000000E+00
Ar 3473  0.4286406E+02  0.3191806E+02  0.4286405E+02  0.0000000E+00
Ar 3474  0.4572796E+02  0.3458764E+02  0.4318658E+02  0.0000000E+00
Ar 3475  0.4590391E+02  0.3224762E+02  0.4590391E+02  0.0000000E+00
Ar 3476  0.4318658E+02  0.3458764E+02  0.4572795E+02  0.0000000E+00
Ar 3477  0.4283458E+02  0.3212726E+02  0.4815836E+02  0.0000000E+00
Ar 3478  0.4570718E+02  0.3484390E+02  0.4824866E+02  0.0000000E+00
Ar 3479  0.4565231E+02  0.3204774E+02  0.5109501E+02  0.0000000E+00
Ar 3480  0.4342391E+02  0.3473626E+02  0.5118894E+02  0.0000000E+00
Ar 3481  0.4275131E+02  0.3759468E+02  0.5369307E+02  0.0000000E+00
Ar 3482  0.4555043E+02  0.4013234E+02  0.1397001E+00  0.0000000E+00
Ar 3483  0.4583413E+02  0.3753602E+02  0.2672273E+01  0.0000000E+00
Ar 3484  0.4294182E+02  0.4026724E+02  0.2569523E+01  0.0000000E+00
Ar 3485  0.4291938E+02  0.3741200E+02  0.5504092E+01  0.0000000E+00
Ar 3486  0.4556913E+02  0.3997903E+02  0.5104332E+01  0.0000000E+00
Ar 3487  0.4543691E+02  0.3770734E+02  0.8169061E+01  0.0000000E+00
Ar 3488  0.4281891E+02  0.4030945E+02  0.8175510E+01  0.0000000E+00
Ar 3489  0.4296549E+02  0.3766320E+02  0.1073091E+02  0.0000000E+00
Ar 3490  0.4585962E+02  0.4063601E+02  0.1109310E+02  0.0000000E+00
Ar 3491  0.4569183E+02  0.3794991E+02  0.1370768E+02  0.0000000E+00
Ar 3492  0.4308727E+02  0.4055130E+02  0.1358575E+02  0.0000000E+00
Ar 3493  0.4318299E+02  0.3772276E+02  0.1643508E+02  0.0000000E+00
Ar 3494  0.4565380E+02  0.4069733E+02  0.1634220E+02  0.0000000E+00
Ar 3495  0.4583742E+02  0.3785941E+02  0.1889554E+02  0.0000000E+00
Ar 3496  0.4313773E+02  0.4014437E+02  0.1893629E+02  0.0000000E+00
Ar 3497  0.4289238E+02  0.3754231E+02  0.2154158E+02  0.0000000E+00
Ar 3498  0.4557865E+02  0.4039698E+02  0.2151085E+02  0.0000000E+00
Ar 3499  0.4560304E+02  0.3769037E+02  0.2449111E+02  0.0000000E+00
Ar 3500  0.4283617E+02  0.4017183E+02  0.2433636E+02  0.0000000E+00
Ar 3501  0.4298840E+02  0.3752826E+02  0.2710160E+02  0.0000000E+00
Ar 3502  0.4566476E+02  0.3994293E+02  0.2709684E+02  0.0000000E+00
Ar 3503  0.4564832E+02  0.3741052E+02  0.2959058E+02  0.0000000E+00
Ar 3504  0.4278369E+02  0.4000756E+02  0.2966199E+02  0.0000000E+00
Ar 3505  0.4319927E+02  0.3758971E+02  0.3238234E+02  0.0000000E+00
Ar 3506  0.4565903E+02  0.4050061E+02  0.3201774E+02  0.0000000E+00
Ar 3507  0.4599327E+02  0.3764274E+02  0.3517867E+02  0.0000000E+00
Ar 3508  0.4320338E+02  0.4019218E+02  0.3476934E+02  0.0000000E+00
Ar 3509  0.4312204E+02  0.3747693E+02  0.3747693E+02  0.0000000E+00
Ar 3510  0.4562933E+02  0.4025500E+02  0.3762250E+02  0.0000000E+00
Ar 3511  0.4562933E+02  0.3762250E+02  0.4025500E+02  0.0000000E+00
Ar 3512  0.4309936E+02  0.4018574E+02  0.4018574E+02  0.0000000E+00
Ar 3513  0.4301578E+02  0.3731383E+02  0.4301578E+02  0.0000000E+00
Ar 3514  0.4554462E+02  0.4021384E+02  0.4284758E+02  0.0000000E+00
Ar 3515  0.4579970E+02  0.3759383E+02  0.4579970E+02  0.0000000E+00
Ar 3516  0.4284758E+02  0.4021385E+02  0.4554461E+02  0.0000000E+00
Ar 3517  0.4304884E+02  0.3757152E+02  0.4865852E+02  0.0000000E+00
Ar 3518  0.4545393E+02  0.4041531E+02  0.4842164E+02  0.0000000E+00
Ar 3519  0.4576864E+02  0.3769229E+02  0.5084885E+02  0.0000000E+00
Ar 3520  0.4285683E+02  0.4023464E+02  0.5118413E+02  0.0000000E+00
Ar 3521  0.4290851E+02  0.4290850E+02  0.5366383E+02  0.0000000E+00
Ar 3522  0.4555724E+02  0.4555724E+02  0.5368931E+02  0.0000000E+00
Ar 3523  0.4558531E+02  0.4292998E+02  0.2579319E+01  0.0000000E+00
Ar 3524  0.4292998E+02  0.4558531E+02  0.2579320E+01  0.0000000E+00
Ar 3525  0.4292880E+02  0.4292880E+02  0.5600720E+01  0.0000000E+00
Ar 3526  0.4569126E+02  0.4569126E+02  0.5300608E+01  0.0000000E+00
Ar 3527  0.4549010E+02  0.4285616E+02  0.8106312E+01  0.0000000E+00
Ar 3528  0.4285616E+02  0.4549010E+02  0.8106317E+01  0.0000000E+00
Ar 3529  0.4308149E+02  0.4308149E+02  0.1084655E+02  0.0000000E+00
Ar 3530  0.4549375E+02  0.4549375E+02  0.1071440E+02  0.0000000E+00
Ar 3531  0.4573688E+02  0.4320539E+02  0.1368936E+02  0.0000000E+00
Ar 3532  0.4320538E+02  0.4573688E+02  0.1368936E+02  0.0000000E+00
Ar 3533  0.4281105E+02  0.4281105E+02  0.1646791E+02  0.0000000E+00
Ar 3534  0.4585756E+02  0.4585756E+02  0.1632342E+02  0.0000000E+00
Ar 3535  0.4559197E+02  0.4299593E+02  0.1917891E+02  0.0000000E+00
Ar 3536  0.4299593E+02  0.4559197E+02  0.1917892E+02  0.0000000E+00
Ar 3537  0.4280020E+02  0.4280020E+02  0.2145478E+02  0.0000000E+00
Ar 3538  0.4567847E+02  0.4567846E+02  0.2191193E+02  0.0000000E+00
Ar 3539  0.4570198E+02  0.4275112E+02  0.2415140E+02  0.0000000E+00
Ar 3540  0.4275112E+02  0.4570198E+02  0.2415140E+02  0.0000000E+00
Ar 3541  0.4311514E+02  0.4311514E+02  0.2712199E+02  0.0000000E+00
Ar 3542  0.4572972E+02  0.4572972E+02  0.2677035E+02  0.0000000E+00
Ar 3543  0.4554054E+02  0.4301321E+02  0.2964040E+02  0.0000000E+00
Ar 3544  0.4301321E+02  0.4554053E+02  0.2964040E+02  0.0000000E+00
Ar 3545  0.4286405E+02  0.4286405E+02  0.3191807E+02  0.0000000E+00
Ar 3546  0.4590391E+02  0.4590391E+02  0.3224763E+02  0.0000000E+00
Ar 3547  0.4572796E+02  0.4318658E+02  0.3458765E+02  0.0000000E+00
Ar 3548  0.4318658E+02  0.4572795E+02  0.3458764E+02  0.0000000E+00
Ar 3549  0.4301578E+02  0.4301578E+02  0.3731383E+02  0.0000000E+00
Ar 3550  0.4579970E+02  0.4579970E+02  0.3759383E+02  0.0000000E+00
Ar 3551  0.4554461E+02  0.4284758E+02  0.4021384E+02  0.0000000E+00
Ar 3552  0.4284758E+02  0.4554462E+02  0.4021385E+02  0.0000000E+00
Ar 3553  0.4281388E+02  0.4281388E+02  0.4281388E+02  0.0000000E+00
Ar 3554  0.4550430E+02  0.4550430E+02  0.4306522E+02  0.0000000E+00
Ar 3555  0.4550430E+02  0.4306522E+02  0.4550430E+02  0.0000000E+00
Ar 3556  0.4306521E+02  0.4550430E+02  0.4550430E+02  0.0000000E+00
Ar 3557  0.4307719E+02  0.4307719E+02  0.4820935E+02  0.0000000E+00
Ar 3558  0.4567817E+02  0.4567816E+02  0.4872196E+02  0.0000000E+00
Ar 3559  0.4543817E+02  0.4288770E+02  0.5106378E+02  0.0000000E+00
Ar 3560  0.4288770E+02  0.4543817E+02  0.5106379E+02  0.0000000E+00
Ar 3561  0.4306792E+02  0.4839025E+02  0.5369565E+02  0.0000000E+00
Ar 3562  0.4565348E+02  0.5134583E+02  0.5374046E+02  0.0000000E+00
Ar 3563  0.4560432E+02  0.4840269E+02  0.2904218E+01  0.0000000E+00
Ar 3564  0.4289609E+02  0.5116045E+02  0.2680916E+01  0.0000000E+00
Ar 3565  0.4300708E+02  0.4821927E+02  0.5246156E+01  0.0000000E+00
Ar 3566  0.4570304E+02  0.5111596E+02  0.5494136E+01  0.0000000E+00
Ar 3567  0.4550921E+02  0.4817859E+02  0.8014188E+01  0.0000000E+00
Ar 3568  0.4324613E+02  0.5108141E+02  0.8294375E+01  0.0000000E+00
Ar 3569  0.4313784E+02  0.4839330E+02  0.1078259E+02  0.0000000E+00
Ar 3570  0.4582527E+02  0.5132641E+02  0.1067726E+02  0.0000000E+00
Ar 3571  0.4563367E+02  0.4848119E+02  0.1329114E+02  0.0000000E+00
Ar 3572  0.4301285E+02  0.5102596E+02  0.1324621E+02  0.0000000E+00
Ar 3573  0.4320808E+02  0.4816114E+02  0.1608489E+02  0.0000000E+00
Ar 3574  0.4585374E+02  0.5115712E+02  0.1618743E+02  0.0000000E+00
Ar 3575  0.4561694E+02  0.4833199E+02  0.1883219E+02  0.0000000E+00
Ar 3576  0.4299650E+02  0.5110446E+02  0.1872701E+02  0.0000000E+00
Ar 3577  0.4289920E+02  0.4846781E+02  0.2155934E+02  0.0000000E+00
Ar 3578  0.4568593E+02  0.5103360E+02  0.2157914E+02  0.0000000E+00
Ar 3579  0.4551985E+02  0.4845984E+02  0.2425968E+02  0.0000000E+00
Ar 3580  0.4279991E+02  0.5131409E+02  0.2408795E+02  0.0000000E+00
Ar 3581  0.4277396E+02  0.4805901E+02  0.2680598E+02  0.0000000E+00
Ar 3582  0.4569282E+02  0.5129244E+02  0.2673189E+02  0.0000000E+00
Ar 3583  0.4586853E+02  0.4831337E+02  0.2934431E+02  0.0000000E+00
Ar 3584  0.4317561E+02  0.5108575E+02  0.2932089E+02  0.0000000E+00
Ar 3585  0.4283458E+02  0.4815837E+02  0.3212726E+02  0.0000000E+00
Ar 3586  0.4565231E+02  0.5109501E+02  0.3204774E+02  0.0000000E+00
Ar 3587  0.4570718E+02  0.4824866E+02  0.3484390E+02  0.0000000E+00
Ar 3588  0.4342391E+02  0.5118894E+02  0.3473626E+02  0.0000000E+00
Ar 3589  0.4304884E+02  0.4865852E+02  0.3757152E+02  0.0000000E+00
Ar 3590  0.4576864E+02  0.5084885E+02  0.3769229E+02  0.0000000E+00
Ar 3591  0.4545393E+02  0.4842165E+02  0.4041531E+02  0.0000000E+00
Ar 3592  0.4285683E+02  0.5118413E+02  0.4023464E+02  0.0000000E+00
Ar 3593  0.4307719E+02  0.4820935E+02  0.4307718E+02  0.0000000E+00
Ar 3594  0.4543817E+02  0.5106378E+02  0.4288770E+02  0.0000000E+00
Ar 3595  0.4567816E+02  0.4872196E+02  0.4567816E+02  0.0000000E+00
Ar 3596  0.4288770E+02  0.5106379E+02  0.4543817E+02  0.0000000E+00
Ar 3597  0.4304919E+02  0.4831469E+02  0.4831469E+02  0.0000000E+00
Ar 3598  0.4562226E+02  0.5126613E+02  0.4827374E+02  0.0000000E+00
Ar 3599  0.4562226E+02  0.4827374E+02  0.5126613E+02  0.0000000E+00
Ar 3600  0.4306668E+02  0.5105596E+02  0.5105596E+02  0.0000000E+00
Ar 3601  0.4830338E+02  0.5374518E+02  0.5374518E+02  0.0000000E+00
Ar 3602  0.5105492E+02  0.2681281E+01  0.7745911E-01  0.0000000E+00
Ar 3603  0.5105492E+02  0.7745829E-01  0.2681282E+01  0.0000000E+00
Ar 3604  0.4851447E+02  0.2803153E+01  0.2803152E+01  0.0000000E+00
Ar 3605  0.4848241E+02  0.2230754E+00  0.5223436E+01  0.0000000E+00
Ar 3606  0.5096374E+02  0.2971230E+01  0.5696877E+01  0.0000000E+00
Ar 3607  0.5090290E+02  0.5364577E+02  0.7765213E+01  0.0000000E+00
Ar 3608  0.4840729E+02  0.2652900E+01  0.8038467E+01  0.0000000E+00
Ar 3609  0.4856299E+02  0.5370913E+02  0.1046093E+02  0.0000000E+00
Ar 3610  0.5126792E+02  0.2518623E+01  0.1086480E+02  0.0000000E+00
Ar 3611  0.5139185E+02  0.1359931E+00  0.1349748E+02  0.0000000E+00
Ar 3612  0.4856057E+02  0.2478720E+01  0.1349337E+02  0.0000000E+00
Ar 3613  0.4864331E+02  0.5344358E+02  0.1618015E+02  0.0000000E+00
Ar 3614  0.5123386E+02  0.2813076E+01  0.1618947E+02  0.0000000E+00
Ar 3615  0.5119368E+02  0.5375754E+02  0.1920956E+02  0.0000000E+00
Ar 3616  0.4841130E+02  0.2880140E+01  0.1873069E+02  0.0000000E+00
Ar 3617  0.4856007E+02  0.1228169E+00  0.2152962E+02  0.0000000E+00
Ar 3618  0.5120811E+02  0.2915953E+01  0.2145872E+02  0.0000000E+00
Ar 3619  0.5107188E+02  0.2968098E+00  0.2417344E+02  0.0000000E+00
Ar 3620  0.4855334E+02  0.2935183E+01  0.2417293E+02  0.0000000E+00
Ar 3621  0.4858327E+02  0.5374461E+02  0.2701879E+02  0.0000000E+00
Ar 3622  0.5106716E+02  0.2885200E+01  0.2680655E+02  0.0000000E+00
Ar 3623  0.5117530E+02  0.5365193E+02  0.2952037E+02  0.0000000E+00
Ar 3624  0.4850310E+02  0.3025250E+01  0.2956636E+02  0.0000000E+00
Ar 3625  0.4842345E+02  0.2146511E+00  0.3188230E+02  0.0000000E+00
Ar 3626  0.5120318E+02  0.3095744E+01  0.3211633E+02  0.0000000E+00
Ar 3627  0.5119092E+02  0.5372739E+02  0.3517591E+02  0.0000000E+00
Ar 3628  0.4868776E+02  0.3140264E+01  0.3486831E+02  0.0000000E+00
Ar 3629  0.4850742E+02  0.5372365E+02  0.3748208E+02  0.0000000E+00
Ar 3630  0.5112590E+02  0.2792398E+01  0.3743626E+02  0.0000000E+00
Ar 3631  0.5086007E+02  0.1009294E+00  0.4034249E+02  0.0000000E+00
Ar 3632  0.4842472E+02  0.2757672E+01  0.4016090E+02  0.0000000E+00
Ar 3633  0.4839025E+02  0.5369565E+02  0.4306792E+02  0.0000000E+00
Ar 3634  0.5116045E+02  0.2680924E+01  0.4289609E+02  0.0000000E+00
Ar 3635  0.5134583E+02  0.5374046E+02  0.4565349E+02  0.0000000E+00
Ar 3636  0.4840269E+02  0.2904214E+01  0.4560432E+02  0.0000000E+00
Ar 3637  0.4832834E+02  0.3361653E+00  0.4832834E+02  0.0000000E+00
Ar 3638  0.5090122E+02  0.2664538E+01  0.4819931E+02  0.0000000E+00
Ar 3639  0.5094255E+02  0.5365417E+02  0.5094255E+02  0.0000000E+00
Ar 3640  0.4819931E+02  0.2664533E+01  0.5090122E+02  0.0000000E+00
Ar 3641  0.4848241E+02  0.5223437E+01  0.2230752E+00  0.0000000E+00
Ar 3642  0.5090290E+02  0.7765215E+01  0.5364578E+02  0.0000000E+00
Ar 3643  0.5096374E+02  0.5696877E+01  0.2971229E+01  0.0000000E+00
Ar 3644  0.4840728E+02  0.8038467E+01  0.2652901E+01  0.0000000E+00
Ar 3645  0.4837288E+02  0.5527947E+01  0.5527946E+01  0.0000000E+00
Ar 3646  0.5103308E+02  0.8192037E+01  0.5454322E+01  0.0000000E+00
Ar 3647  0.5103308E+02  0.5454323E+01  0.8192039E+01  0.0000000E+00
Ar 3648  0.4826372E+02  0.7989293E+01  0.7989292E+01  0.0000000E+00
Ar 3649  0.4875711E+02  0.5135704E+01  0.1098186E+02  0.0000000E+00
Ar 3650  0.5114399E+02  0.8007790E+01  0.1066484E+02  0.0000000E+00
Ar 3651  0.5123286E+02  0.5477671E+01  0.1366335E+02  0.0000000E+00
Ar 3652  0.4848058E+02  0.7985105E+01  0.1350164E+02  0.0000000E+00
Ar 3653  0.4837888E+02  0.5497724E+01  0.1606076E+02  0.0000000E+00
Ar 3654  0.5104878E+02  0.8146165E+01  0.1617525E+02  0.0000000E+00
Ar 3655  0.5125207E+02  0.5451252E+01  0.1874765E+02  0.0000000E+00
Ar 3656  0.4839236E+02  0.8108397E+01  0.1878443E+02  0.0000000E+00
Ar 3657  0.4806396E+02  0.5485999E+01  0.2143389E+02  0.0000000E+00
Ar 3658  0.5107260E+02  0.8076968E+01  0.2165855E+02  0.0000000E+00
Ar 3659  0.5114265E+02  0.5331253E+01  0.2402643E+02  0.0000000E+00
Ar 3660  0.4843588E+02  0.8072681E+01  0.2408744E+02  0.0000000E+00
Ar 3661  0.4829408E+02  0.5799188E+01  0.2686974E+02  0.0000000E+00
Ar 3662  0.5107424E+02  0.8124300E+01  0.2665945E+02  0.0000000E+00
Ar 3663  0.5138794E+02  0.5575858E+01  0.2942627E+02  0.0000000E+00
Ar 3664  0.4830305E+02  0.8479122E+01  0.2974994E+02  0.0000000E+00
Ar 3665  0.4851693E+02  0.5937012E+01  0.3204391E+02  0.0000000E+00
Ar 3666  0.5110896E+02  0.8305444E+01  0.3221331E+02  0.0000000E+00
Ar 3667  0.5131981E+02  0.5517387E+01  0.3495338E+02  0.0000000E+00
Ar 3668  0.4832427E+02  0.8410556E+01  0.3499522E+02  0.0000000E+00
Ar 3669  0.4861922E+02  0.5647139E+01  0.3766764E+02  0.0000000E+00
Ar 3670  0.5122004E+02  0.8231047E+01  0.3758820E+02  0.0000000E+00
Ar 3671  0.5104111E+02  0.5620655E+01  0.4021331E+02  0.0000000E+00
Ar 3672  0.4855410E+02  0.8025287E+01  0.4065429E+02  0.0000000E+00
Ar 3673  0.4821928E+02  0.5246158E+01  0.4300708E+02  0.0000000E+00
Ar 3674  0.5108141E+02  0.8294377E+01  0.4324612E+02  0.0000000E+00
Ar 3675  0.5111596E+02  0.5494136E+01  0.4570304E+02  0.0000000E+00
Ar 3676  0.4817859E+02  0.8014194E+01  0.4550920E+02  0.0000000E+00
Ar 3677  0.4837942E+02  0.5624733E+01  0.4837942E+02  0.0000000E+00
Ar 3678  0.5113574E+02  0.7895385E+01  0.4833759E+02  0.0000000E+00
Ar 3679  0.5084408E+02  0.4915441E+01  0.5084409E+02  0.0000000E+00
Ar 3680  0.4833759E+02  0.7895384E+01  0.5113574E+02  0.0000000E+00
Ar 3681  0.4856299E+02  0.1046093E+02  0.5370913E+02  0.0000000E+00
Ar 3682  0.5139184E+02  0.1349747E+02  0.1359930E+00  0.0000000E+00
Ar 3683  0.5126792E+02  0.1086481E+02  0.2518622E+01  0.0000000E+00
Ar 3684  0.4856057E+02  0.1349337E+02  0.2478719E+01  0.0000000E+00
Ar 3685  0.4875712E+02  0.1098186E+02  0.5135705E+01  0.0000000E+00
Ar 3686  0.5123287E+02  0.1366335E+02  0.5477671E+01  0.0000000E+00
Ar 3687  0.5114399E+02  0.1066484E+02  0.8007791E+01  0.0000000E+00
Ar 3688  0.4848058E+02  0.1350163E+02  0.7985103E+01  0.0000000E+00
Ar 3689  0.4853070E+02  0.1048103E+02  0.1048103E+02  0.0000000E+00
Ar 3690  0.5097921E+02  0.1324786E+02  0.1061856E+02  0.0000000E+00
Ar 3691  0.5097921E+02  0.1061856E+02  0.1324786E+02  0.0000000E+00
Ar 3692  0.4803776E+02  0.1384964E+02  0.1384964E+02  0.0000000E+00
Ar 3693  0.4858837E+02  0.1072680E+02  0.1599492E+02  0.0000000E+00
Ar 3694  0.5105701E+02  0.1365276E+02  0.1634854E+02  0.0000000E+00
Ar 3695  0.5085480E+02  0.1091983E+02  0.1889083E+02  0.0000000E+00
Ar 3696  0.4800267E+02  0.1349923E+02  0.1906089E+02  0.0000000E+00
Ar 3697  0.4838636E+02  0.1089056E+02  0.2179790E+02  0.0000000E+00
Ar 3698  0.5103097E+02  0.1355253E+02  0.2153860E+02  0.0000000E+00
Ar 3699  0.5122265E+02  0.1087027E+02  0.2414951E+02  0.0000000E+00
Ar 3700  0.4854014E+02  0.1374428E+02  0.2422228E+02  0.0000000E+00
Ar 3701  0.4858072E+02  0.1072134E+02  0.2658381E+02  0.0000000E+00
Ar 3702  0.5129293E+02  0.1370460E+02  0.2705209E+02  0.0000000E+00
Ar 3703  0.5110084E+02  0.1094357E+02  0.2973129E+02  0.0000000E+00
Ar 3704  0.4858070E+02  0.1351806E+02  0.2985168E+02  0.0000000E+00
Ar 3705  0.4829735E+02  0.1108564E+02  0.3244250E+02  0.0000000E+00
Ar 3706  0.5127577E+02  0.1360315E+02  0.3246181E+02  0.0000000E+00
Ar 3707  0.5109674E+02  0.1091722E+02  0.3512111E+02  0.0000000E+00
Ar 3708  0.4863765E+02  0.1367122E+02  0.3509915E+02  0.0000000E+00
Ar 3709  0.4854181E+02  0.1096574E+02  0.3815195E+02  0.0000000E+00
Ar 3710  0.5114211E+02  0.1357712E+02  0.3767937E+02  0.0000000E+00
Ar 3711  0.5133385E+02  0.1076546E+02  0.4044574E+02  0.0000000E+00
Ar 3712  0.4842930E+02  0.1344485E+02  0.4046995E+02  0.0000000E+00
Ar 3713  0.4839331E+02  0.1078259E+02  0.4313784E+02  0.0000000E+00
Ar 3714  0.5102596E+02  0.1324621E+02  0.4301285E+02  0.0000000E+00
Ar 3715  0.5132641E+02  0.1067726E+02  0.4582527E+02  0.0000000E+00
Ar 3716  0.4848120E+02  0.1329114E+02  0.4563367E+02  0.0000000E+00
Ar 3717  0.4832695E+02  0.1074537E+02  0.4832695E+02  0.0000000E+00
Ar 3718  0.5116107E+02  0.1348710E+02  0.4833026E+02  0.0000000E+00
Ar 3719  0.5098907E+02  0.1081771E+02  0.5098907E+02  0.0000000E+00
Ar 3720  0.4833025E+02  0.1348710E+02  0.5116107E+02  0.0000000E+00
Ar 3721  0.4864332E+02  0.1618015E+02  0.5344358E+02  0.0000000E+00
Ar 3722  0.5119368E+02  0.1920956E+02  0.5375754E+02  0.0000000E+00
Ar 3723  0.5123386E+02  0.1618947E+02  0.2813075E+01  0.0000000E+00
Ar 3724  0.4841130E+02  0.1873068E+02  0.2880139E+01  0.0000000E+00
Ar 3725  0.4837888E+02  0.1606075E+02  0.5497723E+01  0.0000000E+00
Ar 3726  0.5125206E+02  0.1874765E+02  0.5451249E+01  0.0000000E+00
Ar 3727  0.5104878E+02  0.1617525E+02  0.8146165E+01  0.0000000E+00
Ar 3728  0.4839236E+02  0.1878443E+02  0.8108395E+01  0.0000000E+00
Ar 3729  0.4858837E+02  0.1599492E+02  0.1072680E+02  0.0000000E+00
Ar 3730  0.5085480E+02  0.1889083E+02  0.1091983E+02  0.0000000E+00
Ar 3731  0.5105701E+02  0.1634854E+02  0.1365276E+02  0.0000000E+00
Ar 3732  0.4800267E+02  0.1906089E+02  0.1349923E+02  0.0000000E+00
Ar 3733  0.4850135E+02  0.1654212E+02  0.1654212E+02  0.0000000E+00
Ar 3734  0.5102380E+02  0.1904246E+02  0.1618863E+02  0.0000000E+00
Ar 3735  0.5102380E+02  0.1618863E+02  0.1904246E+02  0.0000000E+00
Ar 3736  0.4832485E+02  0.1904420E+02  0.1904420E+02  0.0000000E+00
Ar 3737  0.4833281E+02  0.1619320E+02  0.2151752E+02  0.0000000E+00
Ar 3738  0.5101122E+02  0.1895886E+02  0.2161931E+02  0.0000000E+00
Ar 3739  0.5141967E+02  0.1623764E+02  0.2419012E+02  0.0000000E+00
Ar 3740  0.4834316E+02  0.1895037E+02  0.2397781E+02  0.0000000E+00
Ar 3741  0.4839225E+02  0.1610921E+02  0.2696598E+02  0.0000000E+00
Ar 3742  0.5131806E+02  0.1877847E+02  0.2677919E+02  0.0000000E+00
Ar 3743  0.5117612E+02  0.1634491E+02  0.2942364E+02  0.0000000E+00
Ar 3744  0.4854168E+02  0.1896673E+02  0.2955621E+02  0.0000000E+00
Ar 3745  0.4841901E+02  0.1628802E+02  0.3257217E+02  0.0000000E+00
Ar 3746  0.5108426E+02  0.1906607E+02  0.3233508E+02  0.0000000E+00
Ar 3747  0.5105628E+02  0.1620920E+02  0.3502976E+02  0.0000000E+00
Ar 3748  0.4850866E+02  0.1910035E+02  0.3514922E+02  0.0000000E+00
Ar 3749  0.4842141E+02  0.1621196E+02  0.3793266E+02  0.0000000E+00
Ar 3750  0.5120947E+02  0.1894089E+02  0.3762506E+02  0.0000000E+00
Ar 3751  0.5108809E+02  0.1633701E+02  0.4041311E+02  0.0000000E+00
Ar 3752  0.4850124E+02  0.1893316E+02  0.4037424E+02  0.0000000E+00
Ar 3753  0.4816114E+02  0.1608489E+02  0.4320808E+02  0.0000000E+00
Ar 3754  0.5110446E+02  0.1872702E+02  0.4299650E+02  0.0000000E+00
Ar 3755  0.5115711E+02  0.1618744E+02  0.4585374E+02  0.0000000E+00
Ar 3756  0.4833198E+02  0.1883219E+02  0.4561694E+02  0.0000000E+00
Ar 3757  0.4860738E+02  0.1622765E+02  0.4860738E+02  0.0000000E+00
Ar 3758  0.5105472E+02  0.1878169E+02  0.4817896E+02  0.0000000E+00
Ar 3759  0.5117302E+02  0.1577861E+02  0.5117301E+02  0.0000000E+00
Ar 3760  0.4817896E+02  0.1878170E+02  0.5105472E+02  0.0000000E+00
Ar 3761  0.4856007E+02  0.2152962E+02  0.1228172E+00  0.0000000E+00
Ar 3762  0.5107188E+02  0.2417344E+02  0.2968092E+00  0.0000000E+00
Ar 3763  0.5120811E+02  0.2145872E+02  0.2915953E+01  0.0000000E+00
Ar 3764  0.4855334E+02  0.2417294E+02  0.2935183E+01  0.0000000E+00
Ar 3765  0.4806396E+02  0.2143389E+02  0.5485997E+01  0.0000000E+00
Ar 3766  0.5114265E+02  0.2402643E+02  0.5331254E+01  0.0000000E+00
Ar 3767  0.5107260E+02  0.2165855E+02  0.8076968E+01  0.0000000E+00
Ar 3768  0.4843588E+02  0.2408744E+02  0.8072682E+01  0.0000000E+00
Ar 3769  0.4838636E+02  0.2179790E+02  0.1089056E+02  0.0000000E+00
Ar 3770  0.5122265E+02  0.2414951E+02  0.1087027E+02  0.0000000E+00
Ar 3771  0.5103097E+02  0.2153860E+02  0.1355253E+02  0.0000000E+00
Ar 3772  0.4854014E+02  0.2422228E+02  0.1374429E+02  0.0000000E+00
Ar 3773  0.4833281E+02  0.2151753E+02  0.1619320E+02  0.0000000E+00
Ar 3774  0.5141967E+02  0.2419012E+02  0.1623764E+02  0.0000000E+00
Ar 3775  0.5101122E+02  0.2161931E+02  0.1895886E+02  0.0000000E+00
Ar 3776  0.4834316E+02  0.2397781E+02  0.1895037E+02  0.0000000E+00
Ar 3777  0.4842138E+02  0.2132520E+02  0.2132520E+02  0.0000000E+00
Ar 3778  0.5104984E+02  0.2438740E+02  0.2157348E+02  0.0000000E+00
Ar 3779  0.5104984E+02  0.2157348E+02  0.2438740E+02  0.0000000E+00
Ar 3780  0.4843257E+02  0.2415278E+02  0.2415278E+02  0.0000000E+00
Ar 3781  0.4855500E+02  0.2122721E+02  0.2679403E+02  0.0000000E+00
Ar 3782  0.5084787E+02  0.2418871E+02  0.2686674E+02  0.0000000E+00
Ar 3783  0.5108152E+02  0.2166847E+02  0.2961423E+02  0.0000000E+00
Ar 3784  0.4819429E+02  0.2401443E+02  0.2938413E+02  0.0000000E+00
Ar 3785  0.4838498E+02  0.2166808E+02  0.3243366E+02  0.0000000E+00
Ar 3786  0.5077766E+02  0.2428934E+02  0.3229975E+02  0.0000000E+00
Ar 3787  0.5114902E+02  0.2166873E+02  0.3489114E+02  0.0000000E+00
Ar 3788  0.4821787E+02  0.2417431E+02  0.3487231E+02  0.0000000E+00
Ar 3789  0.4789429E+02  0.2169450E+02  0.3771509E+02  0.0000000E+00
Ar 3790  0.5100669E+02  0.2412981E+02  0.3741503E+02  0.0000000E+00
Ar 3791  0.5103359E+02  0.2146622E+02  0.4007581E+02  0.0000000E+00
Ar 3792  0.4827868E+02  0.2436359E+02  0.4019943E+02  0.0000000E+00
Ar 3793  0.4846782E+02  0.2155934E+02  0.4289920E+02  0.0000000E+00
Ar 3794  0.5131409E+02  0.2408795E+02  0.4279991E+02  0.0000000E+00
Ar 3795  0.5103360E+02  0.2157913E+02  0.4568593E+02  0.0000000E+00
Ar 3796  0.4845986E+02  0.2425968E+02  0.4551985E+02  0.0000000E+00
Ar 3797  0.4850752E+02  0.2168527E+02  0.4850752E+02  0.0000000E+00
Ar 3798  0.5121430E+02  0.2421242E+02  0.4823192E+02  0.0000000E+00
Ar 3799  0.5110269E+02  0.2194823E+02  0.5110269E+02  0.0000000E+00
Ar 3800  0.4823192E+02  0.2421242E+02  0.5121430E+02  0.0000000E+00
Ar 3801  0.4858327E+02  0.2701879E+02  0.5374461E+02  0.0000000E+00
Ar 3802  0.5117530E+02  0.2952037E+02  0.5365193E+02  0.0000000E+00
Ar 3803  0.5106716E+02  0.2680655E+02  0.2885202E+01  0.0000000E+00
Ar 3804  0.4850310E+02  0.2956637E+02  0.3025249E+01  0.0000000E+00
Ar 3805  0.4829408E+02  0.2686974E+02  0.5799188E+01  0.0000000E+00
Ar 3806  0.5138794E+02  0.2942627E+02  0.5575856E+01  0.0000000E+00
Ar 3807  0.5107424E+02  0.2665945E+02  0.8124302E+01  0.0000000E+00
Ar 3808  0.4830305E+02  0.2974994E+02  0.8479120E+01  0.0000000E+00
Ar 3809  0.4858072E+02  0.2658381E+02  0.1072134E+02  0.0000000E+00
Ar 3810  0.5110084E+02  0.2973129E+02  0.1094356E+02  0.0000000E+00
Ar 3811  0.5129293E+02  0.2705209E+02  0.1370460E+02  0.0000000E+00
Ar 3812  0.4858070E+02  0.2985168E+02  0.1351806E+02  0.0000000E+00
Ar 3813  0.4839224E+02  0.2696598E+02  0.1610921E+02  0.0000000E+00
Ar 3814  0.5117612E+02  0.2942363E+02  0.1634491E+02  0.0000000E+00
Ar 3815  0.5131807E+02  0.2677919E+02  0.1877847E+02  0.0000000E+00
Ar 3816  0.4854167E+02  0.2955620E+02  0.1896672E+02  0.0000000E+00
Ar 3817  0.4855499E+02  0.2679403E+02  0.2122721E+02  0.0000000E+00
Ar 3818  0.5108152E+02  0.2961423E+02  0.2166847E+02  0.0000000E+00
Ar 3819  0.5084787E+02  0.2686674E+02  0.2418871E+02  0.0000000E+00
Ar 3820  0.4819429E+02  0.2938412E+02  0.2401443E+02  0.0000000E+00
Ar 3821  0.4811054E+02  0.2688897E+02  0.2688897E+02  0.0000000E+00
Ar 3822  0.5101874E+02  0.2943738E+02  0.2701262E+02  0.0000000E+00
Ar 3823  0.5101874E+02  0.2701263E+02  0.2943738E+02  0.0000000E+00
Ar 3824  0.4828387E+02  0.2936024E+02  0.2936024E+02  0.0000000E+00
Ar 3825  0.4840857E+02  0.2705054E+02  0.3225479E+02  0.0000000E+00
Ar 3826  0.5089034E+02  0.2961916E+02  0.3200415E+02  0.0000000E+00
Ar 3827  0.5098977E+02  0.2684163E+02  0.3480517E+02  0.0000000E+00
Ar 3828  0.4825767E+02  0.2943442E+02  0.3495103E+02  0.0000000E+00
Ar 3829  0.4851992E+02  0.2671475E+02  0.3755931E+02  0.0000000E+00
Ar 3830  0.5093584E+02  0.2960998E+02  0.3768639E+02  0.0000000E+00
Ar 3831  0.5118921E+02  0.2681437E+02  0.4022011E+02  0.0000000E+00
Ar 3832  0.4839141E+02  0.2925570E+02  0.4039899E+02  0.0000000E+00
Ar 3833  0.4805901E+02  0.2680598E+02  0.4277396E+02  0.0000000E+00
Ar 3834  0.5108575E+02  0.2932088E+02  0.4317561E+02  0.0000000E+00
Ar 3835  0.5129244E+02  0.2673189E+02  0.4569282E+02  0.0000000E+00
Ar 3836  0.4831337E+02  0.2934430E+02  0.4586853E+02  0.0000000E+00
Ar 3837  0.4840435E+02  0.2656872E+02  0.4840436E+02  0.0000000E+00
Ar 3838  0.5111940E+02  0.2942696E+02  0.4836761E+02  0.0000000E+00
Ar 3839  0.5118606E+02  0.2658723E+02  0.5118605E+02  0.0000000E+00
Ar 3840  0.4836761E+02  0.2942696E+02  0.5111940E+02  0.0000000E+00
Ar 3841  0.4842345E+02  0.3188230E+02  0.2146498E+00  0.0000000E+00
Ar 3842  0.5119092E+02  0.3517591E+02  0.5372740E+02  0.0000000E+00
Ar 3843  0.5120318E+02  0.3211633E+02  0.3095743E+01  0.0000000E+00
Ar 3844  0.4868776E+02  0.3486831E+02  0.3140265E+01  0.0000000E+00
Ar 3845  0.4851693E+02  0.3204391E+02  0.5937011E+01  0.0000000E+00
Ar 3846  0.5131981E+02  0.3495339E+02  0.5517388E+01  0.0000000E+00
Ar 3847  0.5110897E+02  0.3221331E+02  0.8305442E+01  0.0000000E+00
Ar 3848  0.4832427E+02  0.3499522E+02  0.8410554E+01  0.0000000E+00
Ar 3849  0.4829735E+02  0.3244249E+02  0.1108564E+02  0.0000000E+00
Ar 3850  0.5109674E+02  0.3512110E+02  0.1091722E+02  0.0000000E+00
Ar 3851  0.5127577E+02  0.3246181E+02  0.1360315E+02  0.0000000E+00
Ar 3852  0.4863765E+02  0.3509915E+02  0.1367123E+02  0.0000000E+00
Ar 3853  0.4841901E+02  0.3257218E+02  0.1628802E+02  0.0000000E+00
Ar 3854  0.5105628E+02  0.3502976E+02  0.1620920E+02  0.0000000E+00
Ar 3855  0.5108426E+02  0.3233508E+02  0.1906607E+02  0.0000000E+00
Ar 3856  0.4850865E+02  0.3514922E+02  0.1910036E+02  0.0000000E+00
Ar 3857  0.4838498E+02  0.3243366E+02  0.2166808E+02  0.0000000E+00
Ar 3858  0.5114902E+02  0.3489114E+02  0.2166873E+02  0.0000000E+00
Ar 3859  0.5077766E+02  0.3229975E+02  0.2428934E+02  0.0000000E+00
Ar 3860  0.4821787E+02  0.3487231E+02  0.2417431E+02  0.0000000E+00
Ar 3861  0.4840857E+02  0.3225479E+02  0.2705054E+02  0.0000000E+00
Ar 3862  0.5098977E+02  0.3480517E+02  0.2684162E+02  0.0000000E+00
Ar 3863  0.5089034E+02  0.3200415E+02  0.2961916E+02  0.0000000E+00
Ar 3864  0.4825767E+02  0.3495103E+02  0.2943442E+02  0.0000000E+00
Ar 3865  0.4811966E+02  0.3210178E+02  0.3210178E+02  0.0000000E+00
Ar 3866  0.5083240E+02  0.3477046E+02  0.3230544E+02  0.0000000E+00
Ar 3867  0.5083240E+02  0.3230544E+02  0.3477046E+02  0.0000000E+00
Ar 3868  0.4831927E+02  0.3483805E+02  0.3483805E+02  0.0000000E+00
Ar 3869  0.4836590E+02  0.3243224E+02  0.3775169E+02  0.0000000E+00
Ar 3870  0.5109598E+02  0.3470402E+02  0.3756483E+02  0.0000000E+00
Ar 3871  0.5118849E+02  0.3239053E+02  0.4057594E+02  0.0000000E+00
Ar 3872  0.4808711E+02  0.3494102E+02  0.4030639E+02  0.0000000E+00
Ar 3873  0.4815837E+02  0.3212726E+02  0.4283458E+02  0.0000000E+00
Ar 3874  0.5118894E+02  0.3473626E+02  0.4342391E+02  0.0000000E+00
Ar 3875  0.5109500E+02  0.3204774E+02  0.4565230E+02  0.0000000E+00
Ar 3876  0.4824866E+02  0.3484390E+02  0.4570718E+02  0.0000000E+00
Ar 3877  0.4848059E+02  0.3208635E+02  0.4848059E+02  0.0000000E+00
Ar 3878  0.5121109E+02  0.3467634E+02  0.4837056E+02  0.0000000E+00
Ar 3879  0.5105157E+02  0.3247755E+02  0.5105157E+02  0.0000000E+00
Ar 3880  0.4837056E+02  0.3467634E+02  0.5121109E+02  0.0000000E+00
Ar 3881  0.4850742E+02  0.3748208E+02  0.5372365E+02  0.0000000E+00
Ar 3882  0.5086007E+02  0.4034249E+02  0.1009296E+00  0.0000000E+00
Ar 3883  0.5112590E+02  0.3743626E+02  0.2792400E+01  0.0000000E+00
Ar 3884  0.4842473E+02  0.4016089E+02  0.2757677E+01  0.0000000E+00
Ar 3885  0.4861922E+02  0.3766764E+02  0.5647146E+01  0.0000000E+00
Ar 3886  0.5104110E+02  0.4021331E+02  0.5620656E+01  0.0000000E+00
Ar 3887  0.5122004E+02  0.3758820E+02  0.8231049E+01  0.0000000E+00
Ar 3888  0.4855410E+02  0.4065429E+02  0.8025289E+01  0.0000000E+00
Ar 3889  0.4854181E+02  0.3815195E+02  0.1096575E+02  0.0000000E+00
Ar 3890  0.5133385E+02  0.4044574E+02  0.1076546E+02  0.0000000E+00
Ar 3891  0.5114211E+02  0.3767937E+02  0.1357713E+02  0.0000000E+00
Ar 3892  0.4842929E+02  0.4046995E+02  0.1344485E+02  0.0000000E+00
Ar 3893  0.4842141E+02  0.3793266E+02  0.1621196E+02  0.0000000E+00
Ar 3894  0.5108809E+02  0.4041311E+02  0.1633702E+02  0.0000000E+00
Ar 3895  0.5120947E+02  0.3762506E+02  0.1894089E+02  0.0000000E+00
Ar 3896  0.4850124E+02  0.4037424E+02  0.1893315E+02  0.0000000E+00
Ar 3897  0.4789429E+02  0.3771509E+02  0.2169450E+02  0.0000000E+00
Ar 3898  0.5103359E+02  0.4007582E+02  0.2146622E+02  0.0000000E+00
Ar 3899  0.5100668E+02  0.3741503E+02  0.2412981E+02  0.0000000E+00
Ar 3900  0.4827868E+02  0.4019944E+02  0.2436358E+02  0.0000000E+00
Ar 3901  0.4851992E+02  0.3755932E+02  0.2671475E+02  0.0000000E+00
Ar 3902  0.5118921E+02  0.4022011E+02  0.2681437E+02  0.0000000E+00
Ar 3903  0.5093584E+02  0.3768639E+02  0.2960998E+02  0.0000000E+00
Ar 3904  0.4839141E+02  0.4039900E+02  0.2925570E+02  0.0000000E+00
Ar 3905  0.4836590E+02  0.3775169E+02  0.3243224E+02  0.0000000E+00
Ar 3906  0.5118849E+02  0.4057594E+02  0.3239053E+02  0.0000000E+00
Ar 3907  0.5109598E+02  0.3756483E+02  0.3470402E+02  0.0000000E+00
Ar 3908  0.4808711E+02  0.4030639E+02  0.3494102E+02  0.0000000E+00
Ar 3909  0.4871955E+02  0.3758914E+02  0.3758914E+02  0.0000000E+00
Ar 3910  0.5095545E+02  0.4020757E+02  0.3737072E+02  0.0000000E+00
Ar 3911  0.5095545E+02  0.3737072E+02  0.4020757E+02  0.0000000E+00
Ar 3912  0.4857981E+02  0.4022823E+02  0.4022823E+02  0.0000000E+00
Ar 3913  0.4865852E+02  0.3757152E+02  0.4304885E+02  0.0000000E+00
Ar 3914  0.5118413E+02  0.4023464E+02  0.4285683E+02  0.0000000E+00
Ar 3915  0.5084884E+02  0.3769229E+02  0.4576864E+02  0.0000000E+00
Ar 3916  0.4842165E+02  0.4041531E+02  0.4545393E+02  0.0000000E+00
Ar 3917  0.4836374E+02  0.3732698E+02  0.4836374E+02  0.0000000E+00
Ar 3918  0.5103249E+02  0.4057420E+02  0.4819900E+02  0.0000000E+00
Ar 3919  0.5119900E+02  0.3765745E+02  0.5119900E+02  0.0000000E+00
Ar 3920  0.4819901E+02  0.4057420E+02  0.5103250E+02  0.0000000E+00
Ar 3921  0.4839025E+02  0.4306792E+02  0.5369565E+02  0.0000000E+00
Ar 3922  0.5134583E+02  0.4565349E+02  0.5374046E+02  0.0000000E+00
Ar 3923  0.5116045E+02  0.4289609E+02  0.2680921E+01  0.0000000E+00
Ar 3924  0.4840269E+02  0.4560432E+02  0.2904214E+01  0.0000000E+00
Ar 3925  0.4821928E+02  0.4300708E+02  0.5246161E+01  0.0000000E+00
Ar 3926  0.5111596E+02  0.4570304E+02  0.5494135E+01  0.0000000E+00
Ar 3927  0.5108141E+02  0.4324612E+02  0.8294375E+01  0.0000000E+00
Ar 3928  0.4817860E+02  0.4550920E+02  0.8014195E+01  0.0000000E+00
Ar 3929  0.4839331E+02  0.4313784E+02  0.1078260E+02  0.0000000E+00
Ar 3930  0.5132641E+02  0.4582527E+02  0.1067726E+02  0.0000000E+00
Ar 3931  0.5102596E+02  0.4301285E+02  0.1324621E+02  0.0000000E+00
Ar 3932  0.4848120E+02  0.4563367E+02  0.1329114E+02  0.0000000E+00
Ar 3933  0.4816114E+02  0.4320808E+02  0.1608489E+02  0.0000000E+00
Ar 3934  0.5115711E+02  0.4585374E+02  0.1618744E+02  0.0000000E+00
Ar 3935  0.5110446E+02  0.4299650E+02  0.1872701E+02  0.0000000E+00
Ar 3936  0.4833199E+02  0.4561694E+02  0.1883219E+02  0.0000000E+00
Ar 3937  0.4846782E+02  0.4289920E+02  0.2155934E+02  0.0000000E+00
Ar 3938  0.5103360E+02  0.4568593E+02  0.2157913E+02  0.0000000E+00
Ar 3939  0.5131409E+02  0.4279991E+02  0.2408795E+02  0.0000000E+00
Ar 3940  0.4845986E+02  0.4551985E+02  0.2425968E+02  0.0000000E+00
Ar 3941  0.4805901E+02  0.4277396E+02  0.2680597E+02  0.0000000E+00
Ar 3942  0.5129243E+02  0.4569283E+02  0.2673189E+02  0.0000000E+00
Ar 3943  0.5108575E+02  0.4317561E+02  0.2932088E+02  0.0000000E+00
Ar 3944  0.4831337E+02  0.4586853E+02  0.2934430E+02  0.0000000E+00
Ar 3945  0.4815837E+02  0.4283458E+02  0.3212726E+02  0.0000000E+00
Ar 3946  0.5109500E+02  0.4565230E+02  0.3204774E+02  0.0000000E+00
Ar 3947  0.5118894E+02  0.4342391E+02  0.3473626E+02  0.0000000E+00
Ar 3948  0.4824866E+02  0.4570718E+02  0.3484390E+02  0.0000000E+00
Ar 3949  0.4865852E+02  0.4304885E+02  0.3757152E+02  0.0000000E+00
Ar 3950  0.5084884E+02  0.4576864E+02  0.3769228E+02  0.0000000E+00
Ar 3951  0.5118413E+02  0.4285683E+02  0.4023464E+02  0.0000000E+00
Ar 3952  0.4842165E+02  0.4545393E+02  0.4041531E+02  0.0000000E+00
Ar 3953  0.4820934E+02  0.4307718E+02  0.4307718E+02  0.0000000E+00
Ar 3954  0.5106378E+02  0.4543817E+02  0.4288770E+02  0.0000000E+00
Ar 3955  0.5106378E+02  0.4288770E+02  0.4543817E+02  0.0000000E+00
Ar 3956  0.4872196E+02  0.4567816E+02  0.4567816E+02  0.0000000E+00
Ar 3957  0.4831469E+02  0.4304919E+02  0.4831469E+02  0.0000000E+00
Ar 3958  0.5126613E+02  0.4562225E+02  0.4827374E+02  0.0000000E+00
Ar 3959  0.5105597E+02  0.4306667E+02  0.5105597E+02  0.0000000E+00
Ar 3960  0.4827374E+02  0.4562225E+02  0.5126613E+02  0.0000000E+00
Ar 3961  0.4832834E+02  0.4832833E+02  0.3361648E+00  0.0000000E+00
Ar 3962  0.5094255E+02  0.5094255E+02  0.5365417E+02  0.0000000E+00
Ar 3963  0.5090122E+02  0.4819931E+02  0.2664534E+01  0.0000000E+00
Ar 3964  0.4819931E+02  0.5090122E+02  0.2664531E+01  0.0000000E+00
Ar 3965  0.4837942E+02  0.4837941E+02  0.5624730E+01  0.0000000E+00
Ar 3966  0.5084408E+02  0.5084408E+02  0.4915438E+01  0.0000000E+00
Ar 3967  0.5113574E+02  0.4833759E+02  0.7895388E+01  0.0000000E+00
Ar 3968  0.4833759E+02  0.5113574E+02  0.7895383E+01  0.0000000E+00
Ar 3969  0.4832695E+02  0.4832695E+02  0.1074537E+02  0.0000000E+00
Ar 3970  0.5098906E+02  0.5098906E+02  0.1081771E+02  0.0000000E+00
Ar 3971  0.5116107E+02  0.4833025E+02  0.1348710E+02  0.0000000E+00
Ar 3972  0.4833025E+02  0.5116107E+02  0.1348710E+02  0.0000000E+00
Ar 3973  0.4860738E+02  0.4860738E+02  0.1622765E+02  0.0000000E+00
Ar 3974  0.5117302E+02  0.5117301E+02  0.1577861E+02  0.0000000E+00
Ar 3975  0.5105472E+02  0.4817896E+02  0.1878170E+02  0.0000000E+00
Ar 3976  0.4817897E+02  0.5105472E+02  0.1878170E+02  0.0000000E+00
Ar 3977  0.4850752E+02  0.4850752E+02  0.2168527E+02  0.0000000E+00
Ar 3978  0.5110269E+02  0.5110269E+02  0.2194823E+02  0.0000000E+00
Ar 3979  0.5121430E+02  0.4823192E+02  0.2421242E+02  0.0000000E+00
Ar 3980  0.4823192E+02  0.5121430E+02  0.2421242E+02  0.0000000E+00
Ar 3981  0.4840435E+02  0.4840435E+02  0.2656872E+02  0.0000000E+00
Ar 3982  0.5118606E+02  0.5118605E+02  0.2658723E+02  0.0000000E+00
Ar 3983  0.5111940E+02  0.4836761E+02  0.2942696E+02  0.0000000E+00
Ar 3984  0.4836761E+02  0.5111940E+02  0.2942696E+02  0.0000000E+00
Ar 3985  0.4848059E+02  0.4848059E+02  0.3208635E+02  0.0000000E+00
Ar 3986  0.5105157E+02  0.5105157E+02  0.3247755E+02  0.0000000E+00
Ar 3987  0.5121109E+02  0.4837056E+02  0.3467634E+02  0.0000000E+00
Ar 3988  0.4837056E+02  0.5121109E+02  0.3467634E+02  0.0000000E+00
Ar 3989  0.4836374E+02  0.4836374E+02  0.3732698E+02  0.0000000E+00
Ar 3990  0.5119900E+02  0.5119900E+02  0.3765745E+02  0.0000000E+00
Ar 3991  0.5103249E+02  0.4819900E+02  0.4057420E+02  0.0000000E+00
Ar 3992  0.4819901E+02  0.5103250E+02  0.4057420E+02  0.0000000E+00
Ar 3993  0.4831469E+02  0.4831469E+02  0.4304919E+02  0.0000000E+00
Ar 3994  0.5105597E+02  0.5105597E+02  0.4306667E+02  0.0000000E+00
Ar 3995  0.5126613E+02  0.4827373E+02  0.4562226E+02  0.0000000E+00
Ar 3996  0.4827374E+02  0.5126613E+02  0.4562225E+02  0.0000000E+00
Ar 3997  0.4833997E+02  0.4833997E+02  0.4833998E+02  0.0000000E+00
Ar 3998  0.5085294E+02  0.5085294E+02  0.4788857E+02  0.0000000E+00
Ar 3999  0.5085294E+02  0.4788857E+02  0.5085294E+02  0.0000000E+00
Ar 4000  0.4788858E+02  0.5085294E+02  0.5085294E+02  0.0000000E+00
