        4000
Lattice="  0.5359596E+02  0.3471266E-01  0.3471266E-01  0.3471266E-01  0.5359596E+02  0.3471266E-01  0.3471266E-01  0.3471266E-01  0.5359596E+02" Properties=species:S:1:id:I:1:pos:R:3:tempK:R:1
Ar    1  0.1794932E+00  0.1794924E+00  0.1794939E+00  0.0000000E+00
Ar    2  0.2788756E+01  0.2788757E+01  0.5333421E+02  0.0000000E+00
Ar    3  0.2788756E+01  0.5333421E+02  0.2788757E+01  0.0000000E+00
Ar    4  0.5333421E+02  0.2788755E+01  0.2788754E+01  0.0000000E+00
Ar    5  0.5345735E+02  0.5345735E+02  0.5186475E+01  0.0000000E+00
Ar    6  0.2306211E+01  0.2306211E+01  0.5308674E+01  0.0000000E+00
Ar    7  0.2576391E+01  0.1256000E+00  0.7952230E+01  0.0000000E+00
Ar    8  0.1256000E+00  0.2576390E+01  0.7952230E+01  0.0000000E+00
Ar    9  0.5356704E+02  0.5356704E+02  0.1039050E+02  0.0000000E+00
Ar   10  0.2639062E+01  0.2639060E+01  0.1062556E+02  0.0000000E+00
Ar   11  0.2627678E+01  0.7534378E-01  0.1342664E+02  0.0000000E+00
Ar   12  0.7534696E-01  0.2627677E+01  0.1342664E+02  0.0000000E+00
Ar   13  0.5356776E+02  0.5356776E+02  0.1637656E+02  0.0000000E+00
Ar   14  0.2845650E+01  0.2845657E+01  0.1630672E+02  0.0000000E+00
Ar   15  0.2686371E+01  0.1493675E+00  0.1890154E+02  0.0000000E+00
Ar   16  0.1493636E+00  0.2686371E+01  0.1890153E+02  0.0000000E+00
Ar   17  0.5351259E+02  0.5351260E+02  0.2187917E+02  0.0000000E+00
Ar   18  0.2889050E+01  0.2889049E+01  0.2142959E+02  0.0000000E+00
Ar   19  0.2849777E+01  0.1371684E+00  0.2419561E+02  0.0000000E+00
Ar   20  0.1371786E+00  0.2849775E+01  0.2419561E+02  0.0000000E+00
Ar   21  0.1599181E+00  0.1599144E+00  0.2672582E+02  0.0000000E+00
Ar   22  0.2787211E+01  0.2787207E+01  0.2642120E+02  0.0000000E+00
Ar   23  0.2546250E+01  0.5844034E-01  0.2936805E+02  0.0000000E+00
Ar   24  0.5844646E-01  0.2546251E+01  0.2936804E+02  0.0000000E+00
Ar   25  0.5356498E+02  0.5356497E+02  0.3207877E+02  0.0000000E+00
Ar   26  0.2961133E+01  0.2961129E+01  0.3198137E+02  0.0000000E+00
Ar   27  0.2962445E+01  0.2188192E+00  0.3433757E+02  0.0000000E+00
Ar   28  0.2188154E+00  0.2962445E+01  0.3433755E+02  0.0000000E+00
Ar   29  0.4469118E-01  0.4467708E-01  0.3756137E+02  0.0000000E+00
Ar   30  0.2827807E+01  0.2827810E+01  0.3721139E+02  0.0000000E+00
Ar   31  0.2896606E+01  0.2010001E+00  0.4015171E+02  0.0000000E+00
Ar   32  0.2010013E+00  0.2896595E+01  0.4015171E+02  0.0000000E+00
Ar   33  0.2326930E+00  0.2326998E+00  0.4296302E+02  0.0000000E+00
Ar   34  0.2824135E+01  0.2824136E+01  0.4309838E+02  0.0000000E+00
Ar   35  0.2806519E+01  0.5353556E+02  0.4575826E+02  0.0000000E+00
Ar   36  0.5353556E+02  0.2806523E+01  0.4575826E+02  0.0000000E+00
Ar   37  0.5341892E+02  0.5341892E+02  0.4833755E+02  0.0000000E+00
Ar   38  0.2707466E+01  0.2707469E+01  0.4837451E+02  0.0000000E+00
Ar   39  0.2446666E+01  0.5359499E+02  0.5081067E+02  0.0000000E+00
Ar   40  0.5359499E+02  0.2446666E+01  0.5081068E+02  0.0000000E+00
Ar   41  0.5345735E+02  0.5186470E+01  0.5345735E+02  0.0000000E+00
Ar   42  0.2576388E+01  0.7952224E+01  0.1255996E+00  0.0000000E+00
Ar   43  0.2306213E+01  0.5308667E+01  0.2306215E+01  0.0000000E+00
Ar   44  0.1256010E+00  0.7952231E+01  0.2576393E+01  0.0000000E+00
Ar   45  0.5344232E+02  0.5517222E+01  0.5517222E+01  0.0000000E+00
Ar   46  0.2669120E+01  0.7931189E+01  0.5193120E+01  0.0000000E+00
Ar   47  0.2669122E+01  0.5193117E+01  0.7931195E+01  0.0000000E+00
Ar   48  0.5351988E+02  0.8186676E+01  0.8186677E+01  0.0000000E+00
Ar   49  0.2476166E+00  0.5333822E+01  0.1066264E+02  0.0000000E+00
Ar   50  0.2643766E+01  0.7845808E+01  0.1045699E+02  0.0000000E+00
Ar   51  0.2652013E+01  0.5257867E+01  0.1323277E+02  0.0000000E+00
Ar   52  0.2001936E+00  0.7910351E+01  0.1331467E+02  0.0000000E+00
Ar   53  0.1060423E+00  0.5307404E+01  0.1634661E+02  0.0000000E+00
Ar   54  0.2502046E+01  0.8185422E+01  0.1601929E+02  0.0000000E+00
Ar   55  0.2884537E+01  0.5526258E+01  0.1872026E+02  0.0000000E+00
Ar   56  0.5345654E+02  0.8221876E+01  0.1874281E+02  0.0000000E+00
Ar   57  0.1271507E+00  0.5455121E+01  0.2137960E+02  0.0000000E+00
Ar   58  0.2623563E+01  0.8020143E+01  0.2130087E+02  0.0000000E+00
Ar   59  0.2807063E+01  0.5425755E+01  0.2406422E+02  0.0000000E+00
Ar   60  0.5360776E+02  0.8193014E+01  0.2388862E+02  0.0000000E+00
Ar   61  0.2159933E+00  0.5397694E+01  0.2676704E+02  0.0000000E+00
Ar   62  0.2900351E+01  0.8106107E+01  0.2662745E+02  0.0000000E+00
Ar   63  0.2661748E+01  0.5334351E+01  0.2918426E+02  0.0000000E+00
Ar   64  0.3173382E+00  0.8247470E+01  0.2936970E+02  0.0000000E+00
Ar   65  0.3258932E+00  0.5515540E+01  0.3173840E+02  0.0000000E+00
Ar   66  0.2827890E+01  0.8253375E+01  0.3195783E+02  0.0000000E+00
Ar   67  0.2826552E+01  0.5502942E+01  0.3469646E+02  0.0000000E+00
Ar   68  0.4638992E+00  0.8432434E+01  0.3459641E+02  0.0000000E+00
Ar   69  0.2081676E+00  0.5335396E+01  0.3735876E+02  0.0000000E+00
Ar   70  0.2879563E+01  0.8127842E+01  0.3767586E+02  0.0000000E+00
Ar   71  0.2675574E+01  0.5452054E+01  0.4032174E+02  0.0000000E+00
Ar   72  0.2671356E+00  0.8098755E+01  0.4034958E+02  0.0000000E+00
Ar   73  0.5354946E+02  0.5202265E+01  0.4307270E+02  0.0000000E+00
Ar   74  0.2980479E+01  0.8134724E+01  0.4282728E+02  0.0000000E+00
Ar   75  0.2798348E+01  0.5361943E+01  0.4574340E+02  0.0000000E+00
Ar   76  0.1644824E+00  0.8028047E+01  0.4550224E+02  0.0000000E+00
Ar   77  0.1296595E+00  0.5136234E+01  0.4824524E+02  0.0000000E+00
Ar   78  0.2631288E+01  0.8029306E+01  0.4826159E+02  0.0000000E+00
Ar   79  0.2910681E+01  0.5584468E+01  0.5087421E+02  0.0000000E+00
Ar   80  0.5351334E+02  0.7764065E+01  0.5088221E+02  0.0000000E+00
Ar   81  0.5356704E+02  0.1039050E+02  0.5356704E+02  0.0000000E+00
Ar   82  0.2627678E+01  0.1342663E+02  0.7534839E-01  0.0000000E+00
Ar   83  0.2639059E+01  0.1062556E+02  0.2639070E+01  0.0000000E+00
Ar   84  0.7534447E-01  0.1342664E+02  0.2627675E+01  0.0000000E+00
Ar   85  0.2476141E+00  0.1066264E+02  0.5333827E+01  0.0000000E+00
Ar   86  0.2652013E+01  0.1323277E+02  0.5257868E+01  0.0000000E+00
Ar   87  0.2643765E+01  0.1045699E+02  0.7845807E+01  0.0000000E+00
Ar   88  0.2001933E+00  0.1331467E+02  0.7910352E+01  0.0000000E+00
Ar   89  0.5942339E-01  0.1067798E+02  0.1067798E+02  0.0000000E+00
Ar   90  0.2456927E+01  0.1343541E+02  0.1069792E+02  0.0000000E+00
Ar   91  0.2456927E+01  0.1069792E+02  0.1343541E+02  0.0000000E+00
Ar   92  0.5341705E+02  0.1347654E+02  0.1347654E+02  0.0000000E+00
Ar   93  0.5357161E+02  0.1074231E+02  0.1590204E+02  0.0000000E+00
Ar   94  0.2526233E+01  0.1342249E+02  0.1594242E+02  0.0000000E+00
Ar   95  0.2647641E+01  0.1065645E+02  0.1891756E+02  0.0000000E+00
Ar   96  0.1118001E+00  0.1351243E+02  0.1866217E+02  0.0000000E+00
Ar   97  0.5339491E+02  0.1076323E+02  0.2130342E+02  0.0000000E+00
Ar   98  0.2578778E+01  0.1330144E+02  0.2137083E+02  0.0000000E+00
Ar   99  0.2604778E+01  0.1075579E+02  0.2404972E+02  0.0000000E+00
Ar  100  0.5356568E+02  0.1344426E+02  0.2388365E+02  0.0000000E+00
Ar  101  0.5355527E+02  0.1071478E+02  0.2692525E+02  0.0000000E+00
Ar  102  0.2494210E+01  0.1355574E+02  0.2654856E+02  0.0000000E+00
Ar  103  0.3059031E+01  0.1097817E+02  0.2926662E+02  0.0000000E+00
Ar  104  0.3053988E+00  0.1394226E+02  0.2965129E+02  0.0000000E+00
Ar  105  0.2021566E+00  0.1101396E+02  0.3196321E+02  0.0000000E+00
Ar  106  0.2943156E+01  0.1347687E+02  0.3223079E+02  0.0000000E+00
Ar  107  0.2891644E+01  0.1091232E+02  0.3475302E+02  0.0000000E+00
Ar  108  0.2798024E+00  0.1322339E+02  0.3494670E+02  0.0000000E+00
Ar  109  0.1540609E+00  0.1069422E+02  0.3780245E+02  0.0000000E+00
Ar  110  0.2971678E+01  0.1328638E+02  0.3771249E+02  0.0000000E+00
Ar  111  0.2970930E+01  0.1095148E+02  0.4029373E+02  0.0000000E+00
Ar  112  0.8002212E-01  0.1363000E+02  0.4017234E+02  0.0000000E+00
Ar  113  0.1586128E+00  0.1074514E+02  0.4298925E+02  0.0000000E+00
Ar  114  0.2770168E+01  0.1338725E+02  0.4285578E+02  0.0000000E+00
Ar  115  0.2827536E+01  0.1116342E+02  0.4575503E+02  0.0000000E+00
Ar  116  0.5360508E+02  0.1340851E+02  0.4553890E+02  0.0000000E+00
Ar  117  0.7541167E-01  0.1044385E+02  0.4824322E+02  0.0000000E+00
Ar  118  0.2265550E+01  0.1349905E+02  0.4855582E+02  0.0000000E+00
Ar  119  0.2491499E+01  0.1079061E+02  0.5119843E+02  0.0000000E+00
Ar  120  0.8320578E-01  0.1331528E+02  0.5119840E+02  0.0000000E+00
Ar  121  0.5356776E+02  0.1637656E+02  0.5356776E+02  0.0000000E+00
Ar  122  0.2686372E+01  0.1890154E+02  0.1493651E+00  0.0000000E+00
Ar  123  0.2845652E+01  0.1630673E+02  0.2845656E+01  0.0000000E+00
Ar  124  0.1493627E+00  0.1890153E+02  0.2686369E+01  0.0000000E+00
Ar  125  0.1060428E+00  0.1634662E+02  0.5307405E+01  0.0000000E+00
Ar  126  0.2884535E+01  0.1872026E+02  0.5526260E+01  0.0000000E+00
Ar  127  0.2502045E+01  0.1601929E+02  0.8185423E+01  0.0000000E+00
Ar  128  0.5345654E+02  0.1874281E+02  0.8221876E+01  0.0000000E+00
Ar  129  0.5357162E+02  0.1590204E+02  0.1074231E+02  0.0000000E+00
Ar  130  0.2647640E+01  0.1891756E+02  0.1065645E+02  0.0000000E+00
Ar  131  0.2526233E+01  0.1594242E+02  0.1342249E+02  0.0000000E+00
Ar  132  0.1118000E+00  0.1866217E+02  0.1351243E+02  0.0000000E+00
Ar  133  0.5356487E+02  0.1636470E+02  0.1636470E+02  0.0000000E+00
Ar  134  0.2746030E+01  0.1872824E+02  0.1608093E+02  0.0000000E+00
Ar  135  0.2746030E+01  0.1608093E+02  0.1872824E+02  0.0000000E+00
Ar  136  0.5351235E+02  0.1900487E+02  0.1900487E+02  0.0000000E+00
Ar  137  0.5339443E+02  0.1607479E+02  0.2136488E+02  0.0000000E+00
Ar  138  0.2746609E+01  0.1878366E+02  0.2159214E+02  0.0000000E+00
Ar  139  0.2623126E+01  0.1603967E+02  0.2403429E+02  0.0000000E+00
Ar  140  0.1506665E+00  0.1889142E+02  0.2399944E+02  0.0000000E+00
Ar  141  0.2198486E+00  0.1622227E+02  0.2671638E+02  0.0000000E+00
Ar  142  0.2763994E+01  0.1886802E+02  0.2708603E+02  0.0000000E+00
Ar  143  0.2809975E+01  0.1626466E+02  0.2985118E+02  0.0000000E+00
Ar  144  0.5347380E+02  0.1888978E+02  0.2958743E+02  0.0000000E+00
Ar  145  0.3580679E-01  0.1624301E+02  0.3255941E+02  0.0000000E+00
Ar  146  0.2577326E+01  0.1882367E+02  0.3227471E+02  0.0000000E+00
Ar  147  0.2885623E+01  0.1612827E+02  0.3481869E+02  0.0000000E+00
Ar  148  0.5349686E+02  0.1895771E+02  0.3484347E+02  0.0000000E+00
Ar  149  0.1881863E+00  0.1614225E+02  0.3749421E+02  0.0000000E+00
Ar  150  0.2789601E+01  0.1881692E+02  0.3704543E+02  0.0000000E+00
Ar  151  0.2847318E+01  0.1620394E+02  0.4001643E+02  0.0000000E+00
Ar  152  0.2621273E+00  0.1879361E+02  0.3997538E+02  0.0000000E+00
Ar  153  0.5349089E+02  0.1608056E+02  0.4280306E+02  0.0000000E+00
Ar  154  0.2745795E+01  0.1866578E+02  0.4272676E+02  0.0000000E+00
Ar  155  0.2316872E+01  0.1616911E+02  0.4557481E+02  0.0000000E+00
Ar  156  0.5353464E+02  0.1881649E+02  0.4566780E+02  0.0000000E+00
Ar  157  0.5349354E+02  0.1607114E+02  0.4863287E+02  0.0000000E+00
Ar  158  0.2908504E+01  0.1854110E+02  0.4822695E+02  0.0000000E+00
Ar  159  0.2845746E+01  0.1609894E+02  0.5097881E+02  0.0000000E+00
Ar  160  0.5360356E+02  0.1893601E+02  0.5099714E+02  0.0000000E+00
Ar  161  0.5351259E+02  0.2187918E+02  0.5351259E+02  0.0000000E+00
Ar  162  0.2849778E+01  0.2419561E+02  0.1371666E+00  0.0000000E+00
Ar  163  0.2889050E+01  0.2142959E+02  0.2889048E+01  0.0000000E+00
Ar  164  0.1371790E+00  0.2419561E+02  0.2849773E+01  0.0000000E+00
Ar  165  0.1271505E+00  0.2137960E+02  0.5455121E+01  0.0000000E+00
Ar  166  0.2807063E+01  0.2406421E+02  0.5425757E+01  0.0000000E+00
Ar  167  0.2623562E+01  0.2130087E+02  0.8020143E+01  0.0000000E+00
Ar  168  0.5360776E+02  0.2388862E+02  0.8193017E+01  0.0000000E+00
Ar  169  0.5339491E+02  0.2130342E+02  0.1076323E+02  0.0000000E+00
Ar  170  0.2604777E+01  0.2404972E+02  0.1075579E+02  0.0000000E+00
Ar  171  0.2578777E+01  0.2137083E+02  0.1330144E+02  0.0000000E+00
Ar  172  0.5356568E+02  0.2388365E+02  0.1344426E+02  0.0000000E+00
Ar  173  0.5339443E+02  0.2136488E+02  0.1607479E+02  0.0000000E+00
Ar  174  0.2623127E+01  0.2403429E+02  0.1603967E+02  0.0000000E+00
Ar  175  0.2746609E+01  0.2159214E+02  0.1878366E+02  0.0000000E+00
Ar  176  0.1506695E+00  0.2399944E+02  0.1889142E+02  0.0000000E+00
Ar  177  0.5339060E+02  0.2152397E+02  0.2152397E+02  0.0000000E+00
Ar  178  0.2916696E+01  0.2418132E+02  0.2156023E+02  0.0000000E+00
Ar  179  0.2916695E+01  0.2156023E+02  0.2418132E+02  0.0000000E+00
Ar  180  0.2274767E+00  0.2421204E+02  0.2421204E+02  0.0000000E+00
Ar  181  0.2601442E+00  0.2152299E+02  0.2669350E+02  0.0000000E+00
Ar  182  0.2620890E+01  0.2414295E+02  0.2702059E+02  0.0000000E+00
Ar  183  0.2942948E+01  0.2147642E+02  0.2947703E+02  0.0000000E+00
Ar  184  0.5348992E+02  0.2432855E+02  0.2932443E+02  0.0000000E+00
Ar  185  0.5350356E+02  0.2164200E+02  0.3214396E+02  0.0000000E+00
Ar  186  0.2683649E+01  0.2414454E+02  0.3217577E+02  0.0000000E+00
Ar  187  0.2584726E+01  0.2147835E+02  0.3477518E+02  0.0000000E+00
Ar  188  0.2627216E+00  0.2410500E+02  0.3501173E+02  0.0000000E+00
Ar  189  0.2866929E+00  0.2151831E+02  0.3758967E+02  0.0000000E+00
Ar  190  0.2910913E+01  0.2424182E+02  0.3737056E+02  0.0000000E+00
Ar  191  0.2858480E+01  0.2147252E+02  0.4016319E+02  0.0000000E+00
Ar  192  0.2114081E+00  0.2419686E+02  0.3996430E+02  0.0000000E+00
Ar  193  0.2786055E+00  0.2123224E+02  0.4267093E+02  0.0000000E+00
Ar  194  0.2587593E+01  0.2425979E+02  0.4310327E+02  0.0000000E+00
Ar  195  0.2669919E+01  0.2129949E+02  0.4556917E+02  0.0000000E+00
Ar  196  0.5361073E+02  0.2373333E+02  0.4544462E+02  0.0000000E+00
Ar  197  0.2048021E+00  0.2137984E+02  0.4832851E+02  0.0000000E+00
Ar  198  0.3060552E+01  0.2397888E+02  0.4837944E+02  0.0000000E+00
Ar  199  0.2761679E+01  0.2147041E+02  0.5104379E+02  0.0000000E+00
Ar  200  0.2170264E+00  0.2417056E+02  0.5092210E+02  0.0000000E+00
Ar  201  0.1599178E+00  0.2672582E+02  0.1599138E+00  0.0000000E+00
Ar  202  0.2546247E+01  0.2936805E+02  0.5843864E-01  0.0000000E+00
Ar  203  0.2787210E+01  0.2642120E+02  0.2787209E+01  0.0000000E+00
Ar  204  0.5844430E-01  0.2936804E+02  0.2546251E+01  0.0000000E+00
Ar  205  0.2159900E+00  0.2676704E+02  0.5397698E+01  0.0000000E+00
Ar  206  0.2661743E+01  0.2918426E+02  0.5334353E+01  0.0000000E+00
Ar  207  0.2900350E+01  0.2662744E+02  0.8106107E+01  0.0000000E+00
Ar  208  0.3173431E+00  0.2936970E+02  0.8247469E+01  0.0000000E+00
Ar  209  0.5355527E+02  0.2692525E+02  0.1071478E+02  0.0000000E+00
Ar  210  0.3059034E+01  0.2926662E+02  0.1097817E+02  0.0000000E+00
Ar  211  0.2494210E+01  0.2654856E+02  0.1355574E+02  0.0000000E+00
Ar  212  0.3053967E+00  0.2965129E+02  0.1394226E+02  0.0000000E+00
Ar  213  0.2198504E+00  0.2671638E+02  0.1622227E+02  0.0000000E+00
Ar  214  0.2809974E+01  0.2985118E+02  0.1626467E+02  0.0000000E+00
Ar  215  0.2763995E+01  0.2708603E+02  0.1886802E+02  0.0000000E+00
Ar  216  0.5347380E+02  0.2958743E+02  0.1888979E+02  0.0000000E+00
Ar  217  0.2601451E+00  0.2669350E+02  0.2152299E+02  0.0000000E+00
Ar  218  0.2942948E+01  0.2947703E+02  0.2147643E+02  0.0000000E+00
Ar  219  0.2620891E+01  0.2702059E+02  0.2414295E+02  0.0000000E+00
Ar  220  0.5348992E+02  0.2932443E+02  0.2432855E+02  0.0000000E+00
Ar  221  0.5336539E+02  0.2655804E+02  0.2655804E+02  0.0000000E+00
Ar  222  0.2355932E+01  0.2936578E+02  0.2690125E+02  0.0000000E+00
Ar  223  0.2355932E+01  0.2690125E+02  0.2936578E+02  0.0000000E+00
Ar  224  0.1634035E+00  0.2955378E+02  0.2955378E+02  0.0000000E+00
Ar  225  0.5349154E+02  0.2665889E+02  0.3227884E+02  0.0000000E+00
Ar  226  0.2666532E+01  0.2946603E+02  0.3202916E+02  0.0000000E+00
Ar  227  0.2492038E+01  0.2671010E+02  0.3474961E+02  0.0000000E+00
Ar  228  0.5294340E+02  0.2959714E+02  0.3471478E+02  0.0000000E+00
Ar  229  0.5342464E+02  0.2674783E+02  0.3712941E+02  0.0000000E+00
Ar  230  0.2560595E+01  0.2945545E+02  0.3729547E+02  0.0000000E+00
Ar  231  0.2705210E+01  0.2688609E+02  0.4016336E+02  0.0000000E+00
Ar  232  0.1392406E+00  0.2973580E+02  0.4048446E+02  0.0000000E+00
Ar  233  0.1994027E+00  0.2677660E+02  0.4289755E+02  0.0000000E+00
Ar  234  0.3015108E+01  0.2978544E+02  0.4295483E+02  0.0000000E+00
Ar  235  0.2861896E+01  0.2685519E+02  0.4606537E+02  0.0000000E+00
Ar  236  0.1314744E+00  0.2940677E+02  0.4536041E+02  0.0000000E+00
Ar  237  0.5363309E+02  0.2701399E+02  0.4836352E+02  0.0000000E+00
Ar  238  0.3113653E+01  0.2948057E+02  0.4855135E+02  0.0000000E+00
Ar  239  0.2805458E+01  0.2677896E+02  0.5102894E+02  0.0000000E+00
Ar  240  0.5357282E+02  0.2930171E+02  0.5092246E+02  0.0000000E+00
Ar  241  0.5356497E+02  0.3207877E+02  0.5356497E+02  0.0000000E+00
Ar  242  0.2962444E+01  0.3433757E+02  0.2188194E+00  0.0000000E+00
Ar  243  0.2961133E+01  0.3198137E+02  0.2961131E+01  0.0000000E+00
Ar  244  0.2188145E+00  0.3433755E+02  0.2962446E+01  0.0000000E+00
Ar  245  0.3258919E+00  0.3173840E+02  0.5515540E+01  0.0000000E+00
Ar  246  0.2826552E+01  0.3469646E+02  0.5502939E+01  0.0000000E+00
Ar  247  0.2827890E+01  0.3195784E+02  0.8253375E+01  0.0000000E+00
Ar  248  0.4638997E+00  0.3459641E+02  0.8432434E+01  0.0000000E+00
Ar  249  0.2021552E+00  0.3196320E+02  0.1101396E+02  0.0000000E+00
Ar  250  0.2891642E+01  0.3475302E+02  0.1091233E+02  0.0000000E+00
Ar  251  0.2943153E+01  0.3223079E+02  0.1347688E+02  0.0000000E+00
Ar  252  0.2798012E+00  0.3494670E+02  0.1322340E+02  0.0000000E+00
Ar  253  0.3580564E-01  0.3255941E+02  0.1624301E+02  0.0000000E+00
Ar  254  0.2885623E+01  0.3481869E+02  0.1612827E+02  0.0000000E+00
Ar  255  0.2577327E+01  0.3227471E+02  0.1882367E+02  0.0000000E+00
Ar  256  0.5349686E+02  0.3484346E+02  0.1895771E+02  0.0000000E+00
Ar  257  0.5350356E+02  0.3214396E+02  0.2164201E+02  0.0000000E+00
Ar  258  0.2584727E+01  0.3477517E+02  0.2147835E+02  0.0000000E+00
Ar  259  0.2683651E+01  0.3217577E+02  0.2414454E+02  0.0000000E+00
Ar  260  0.2627225E+00  0.3501173E+02  0.2410500E+02  0.0000000E+00
Ar  261  0.5349154E+02  0.3227884E+02  0.2665889E+02  0.0000000E+00
Ar  262  0.2492039E+01  0.3474961E+02  0.2671010E+02  0.0000000E+00
Ar  263  0.2666532E+01  0.3202916E+02  0.2946603E+02  0.0000000E+00
Ar  264  0.5294340E+02  0.3471478E+02  0.2959714E+02  0.0000000E+00
Ar  265  0.5351560E+02  0.3223468E+02  0.3223468E+02  0.0000000E+00
Ar  266  0.2786920E+01  0.3472690E+02  0.3216320E+02  0.0000000E+00
Ar  267  0.2786918E+01  0.3216320E+02  0.3472690E+02  0.0000000E+00
Ar  268  0.5342066E+02  0.3495676E+02  0.3495676E+02  0.0000000E+00
Ar  269  0.5361401E+02  0.3228293E+02  0.3769407E+02  0.0000000E+00
Ar  270  0.2532786E+01  0.3483648E+02  0.3745464E+02  0.0000000E+00
Ar  271  0.2684045E+01  0.3253831E+02  0.4042509E+02  0.0000000E+00
Ar  272  0.5353026E+02  0.3479091E+02  0.4031899E+02  0.0000000E+00
Ar  273  0.1963792E+00  0.3219257E+02  0.4308588E+02  0.0000000E+00
Ar  274  0.2678122E+01  0.3492729E+02  0.4298685E+02  0.0000000E+00
Ar  275  0.3108019E+01  0.3223817E+02  0.4598053E+02  0.0000000E+00
Ar  276  0.5361875E+02  0.3476106E+02  0.4591044E+02  0.0000000E+00
Ar  277  0.3167863E+00  0.3184190E+02  0.4829098E+02  0.0000000E+00
Ar  278  0.3062665E+01  0.3486829E+02  0.4847813E+02  0.0000000E+00
Ar  279  0.3127542E+01  0.3214179E+02  0.5098586E+02  0.0000000E+00
Ar  280  0.5364887E+02  0.3483948E+02  0.5106927E+02  0.0000000E+00
Ar  281  0.4469198E-01  0.3756137E+02  0.4467818E-01  0.0000000E+00
Ar  282  0.2896605E+01  0.4015171E+02  0.2010005E+00  0.0000000E+00
Ar  283  0.2827806E+01  0.3721139E+02  0.2827807E+01  0.0000000E+00
Ar  284  0.2010008E+00  0.4015171E+02  0.2896595E+01  0.0000000E+00
Ar  285  0.2081688E+00  0.3735876E+02  0.5335396E+01  0.0000000E+00
Ar  286  0.2675574E+01  0.4032174E+02  0.5452054E+01  0.0000000E+00
Ar  287  0.2879564E+01  0.3767586E+02  0.8127841E+01  0.0000000E+00
Ar  288  0.2671382E+00  0.4034958E+02  0.8098755E+01  0.0000000E+00
Ar  289  0.1540619E+00  0.3780245E+02  0.1069422E+02  0.0000000E+00
Ar  290  0.2970930E+01  0.4029373E+02  0.1095148E+02  0.0000000E+00
Ar  291  0.2971670E+01  0.3771249E+02  0.1328638E+02  0.0000000E+00
Ar  292  0.8002159E-01  0.4017233E+02  0.1363000E+02  0.0000000E+00
Ar  293  0.1881842E+00  0.3749421E+02  0.1614225E+02  0.0000000E+00
Ar  294  0.2847319E+01  0.4001643E+02  0.1620394E+02  0.0000000E+00
Ar  295  0.2789600E+01  0.3704542E+02  0.1881693E+02  0.0000000E+00
Ar  296  0.2621267E+00  0.3997538E+02  0.1879361E+02  0.0000000E+00
Ar  297  0.2866941E+00  0.3758967E+02  0.2151831E+02  0.0000000E+00
Ar  298  0.2858480E+01  0.4016319E+02  0.2147252E+02  0.0000000E+00
Ar  299  0.2910913E+01  0.3737057E+02  0.2424182E+02  0.0000000E+00
Ar  300  0.2114118E+00  0.3996430E+02  0.2419686E+02  0.0000000E+00
Ar  301  0.5342464E+02  0.3712941E+02  0.2674784E+02  0.0000000E+00
Ar  302  0.2705211E+01  0.4016337E+02  0.2688609E+02  0.0000000E+00
Ar  303  0.2560595E+01  0.3729547E+02  0.2945545E+02  0.0000000E+00
Ar  304  0.1392416E+00  0.4048446E+02  0.2973580E+02  0.0000000E+00
Ar  305  0.5361401E+02  0.3769407E+02  0.3228293E+02  0.0000000E+00
Ar  306  0.2684044E+01  0.4042509E+02  0.3253831E+02  0.0000000E+00
Ar  307  0.2532786E+01  0.3745464E+02  0.3483648E+02  0.0000000E+00
Ar  308  0.5353026E+02  0.4031899E+02  0.3479091E+02  0.0000000E+00
Ar  309  0.5353630E+02  0.3768605E+02  0.3768605E+02  0.0000000E+00
Ar  310  0.2891503E+01  0.4023521E+02  0.3758247E+02  0.0000000E+00
Ar  311  0.2891501E+01  0.3758247E+02  0.4023521E+02  0.0000000E+00
Ar  312  0.5361545E+02  0.4011610E+02  0.4011610E+02  0.0000000E+00
Ar  313  0.1102394E+00  0.3744595E+02  0.4276790E+02  0.0000000E+00
Ar  314  0.2595954E+01  0.4014176E+02  0.4289981E+02  0.0000000E+00
Ar  315  0.2692465E+01  0.3744653E+02  0.4563497E+02  0.0000000E+00
Ar  316  0.5357369E+02  0.3999184E+02  0.4555285E+02  0.0000000E+00
Ar  317  0.5364667E+02  0.3746748E+02  0.4839778E+02  0.0000000E+00
Ar  318  0.2683032E+01  0.4011888E+02  0.4828786E+02  0.0000000E+00
Ar  319  0.2867991E+01  0.3745866E+02  0.5098558E+02  0.0000000E+00
Ar  320  0.5354622E+02  0.3997515E+02  0.5067590E+02  0.0000000E+00
Ar  321  0.2326955E+00  0.4296302E+02  0.2326979E+00  0.0000000E+00
Ar  322  0.2806518E+01  0.4575826E+02  0.5353556E+02  0.0000000E+00
Ar  323  0.2824136E+01  0.4309838E+02  0.2824136E+01  0.0000000E+00
Ar  324  0.5353556E+02  0.4575826E+02  0.2806522E+01  0.0000000E+00
Ar  325  0.5354946E+02  0.4307270E+02  0.5202264E+01  0.0000000E+00
Ar  326  0.2798347E+01  0.4574340E+02  0.5361946E+01  0.0000000E+00
Ar  327  0.2980479E+01  0.4282729E+02  0.8134724E+01  0.0000000E+00
Ar  328  0.1644801E+00  0.4550224E+02  0.8028047E+01  0.0000000E+00
Ar  329  0.1586102E+00  0.4298925E+02  0.1074514E+02  0.0000000E+00
Ar  330  0.2827538E+01  0.4575503E+02  0.1116342E+02  0.0000000E+00
Ar  331  0.2770167E+01  0.4285578E+02  0.1338725E+02  0.0000000E+00
Ar  332  0.5360508E+02  0.4553890E+02  0.1340851E+02  0.0000000E+00
Ar  333  0.5349089E+02  0.4280307E+02  0.1608055E+02  0.0000000E+00
Ar  334  0.2316873E+01  0.4557481E+02  0.1616911E+02  0.0000000E+00
Ar  335  0.2745797E+01  0.4272676E+02  0.1866578E+02  0.0000000E+00
Ar  336  0.5353464E+02  0.4566780E+02  0.1881649E+02  0.0000000E+00
Ar  337  0.2786085E+00  0.4267094E+02  0.2123224E+02  0.0000000E+00
Ar  338  0.2669920E+01  0.4556917E+02  0.2129949E+02  0.0000000E+00
Ar  339  0.2587593E+01  0.4310327E+02  0.2425979E+02  0.0000000E+00
Ar  340  0.5361073E+02  0.4544462E+02  0.2373333E+02  0.0000000E+00
Ar  341  0.1994035E+00  0.4289755E+02  0.2677660E+02  0.0000000E+00
Ar  342  0.2861898E+01  0.4606538E+02  0.2685519E+02  0.0000000E+00
Ar  343  0.3015107E+01  0.4295483E+02  0.2978544E+02  0.0000000E+00
Ar  344  0.1314749E+00  0.4536041E+02  0.2940677E+02  0.0000000E+00
Ar  345  0.1963788E+00  0.4308588E+02  0.3219257E+02  0.0000000E+00
Ar  346  0.3108017E+01  0.4598053E+02  0.3223817E+02  0.0000000E+00
Ar  347  0.2678120E+01  0.4298685E+02  0.3492728E+02  0.0000000E+00
Ar  348  0.5361875E+02  0.4591044E+02  0.3476105E+02  0.0000000E+00
Ar  349  0.1102409E+00  0.4276790E+02  0.3744595E+02  0.0000000E+00
Ar  350  0.2692466E+01  0.4563497E+02  0.3744653E+02  0.0000000E+00
Ar  351  0.2595954E+01  0.4289980E+02  0.4014176E+02  0.0000000E+00
Ar  352  0.5357369E+02  0.4555286E+02  0.3999183E+02  0.0000000E+00
Ar  353  0.5353851E+02  0.4269016E+02  0.4269016E+02  0.0000000E+00
Ar  354  0.2613903E+01  0.4551804E+02  0.4282429E+02  0.0000000E+00
Ar  355  0.2613903E+01  0.4282429E+02  0.4551804E+02  0.0000000E+00
Ar  356  0.1106512E+00  0.4541226E+02  0.4541226E+02  0.0000000E+00
Ar  357  0.5362851E+02  0.4294594E+02  0.4822529E+02  0.0000000E+00
Ar  358  0.2901936E+01  0.4564861E+02  0.4831034E+02  0.0000000E+00
Ar  359  0.2668102E+01  0.4275960E+02  0.5094132E+02  0.0000000E+00
Ar  360  0.1775352E+00  0.4556292E+02  0.5105628E+02  0.0000000E+00
Ar  361  0.5341892E+02  0.4833755E+02  0.5341892E+02  0.0000000E+00
Ar  362  0.2446666E+01  0.5081067E+02  0.5359499E+02  0.0000000E+00
Ar  363  0.2707468E+01  0.4837451E+02  0.2707469E+01  0.0000000E+00
Ar  364  0.5359499E+02  0.5081068E+02  0.2446665E+01  0.0000000E+00
Ar  365  0.1296592E+00  0.4824523E+02  0.5136233E+01  0.0000000E+00
Ar  366  0.2910678E+01  0.5087421E+02  0.5584473E+01  0.0000000E+00
Ar  367  0.2631285E+01  0.4826159E+02  0.8029311E+01  0.0000000E+00
Ar  368  0.5351335E+02  0.5088222E+02  0.7764066E+01  0.0000000E+00
Ar  369  0.7541053E-01  0.4824322E+02  0.1044386E+02  0.0000000E+00
Ar  370  0.2491501E+01  0.5119843E+02  0.1079062E+02  0.0000000E+00
Ar  371  0.2265554E+01  0.4855582E+02  0.1349906E+02  0.0000000E+00
Ar  372  0.8320357E-01  0.5119840E+02  0.1331528E+02  0.0000000E+00
Ar  373  0.5349354E+02  0.4863287E+02  0.1607114E+02  0.0000000E+00
Ar  374  0.2845747E+01  0.5097881E+02  0.1609895E+02  0.0000000E+00
Ar  375  0.2908503E+01  0.4822695E+02  0.1854110E+02  0.0000000E+00
Ar  376  0.5360355E+02  0.5099714E+02  0.1893601E+02  0.0000000E+00
Ar  377  0.2048030E+00  0.4832851E+02  0.2137984E+02  0.0000000E+00
Ar  378  0.2761681E+01  0.5104379E+02  0.2147041E+02  0.0000000E+00
Ar  379  0.3060553E+01  0.4837944E+02  0.2397888E+02  0.0000000E+00
Ar  380  0.2170269E+00  0.5092210E+02  0.2417056E+02  0.0000000E+00
Ar  381  0.5363309E+02  0.4836352E+02  0.2701399E+02  0.0000000E+00
Ar  382  0.2805459E+01  0.5102894E+02  0.2677896E+02  0.0000000E+00
Ar  383  0.3113654E+01  0.4855135E+02  0.2948058E+02  0.0000000E+00
Ar  384  0.5357283E+02  0.5092246E+02  0.2930171E+02  0.0000000E+00
Ar  385  0.3167875E+00  0.4829098E+02  0.3184189E+02  0.0000000E+00
Ar  386  0.3127541E+01  0.5098586E+02  0.3214178E+02  0.0000000E+00
Ar  387  0.3062666E+01  0.4847813E+02  0.3486829E+02  0.0000000E+00
Ar  388  0.5364887E+02  0.5106927E+02  0.3483948E+02  0.0000000E+00
Ar  389  0.5364667E+02  0.4839778E+02  0.3746748E+02  0.0000000E+00
Ar  390  0.2867991E+01  0.5098558E+02  0.3745866E+02  0.0000000E+00
Ar  391  0.2683031E+01  0.4828786E+02  0.4011888E+02  0.0000000E+00
Ar  392  0.5354622E+02  0.5067590E+02  0.3997515E+02  0.0000000E+00
Ar  393  0.5362851E+02  0.4822529E+02  0.4294594E+02  0.0000000E+00
Ar  394  0.2668103E+01  0.5094132E+02  0.4275960E+02  0.0000000E+00
Ar  395  0.2901936E+01  0.4831034E+02  0.4564861E+02  0.0000000E+00
Ar  396  0.1775357E+00  0.5105628E+02  0.4556292E+02  0.0000000E+00
Ar  397  0.1035400E+00  0.4805528E+02  0.4805528E+02  0.0000000E+00
Ar  398  0.2544184E+01  0.5070715E+02  0.4819611E+02  0.0000000E+00
Ar  399  0.2544185E+01  0.4819611E+02  0.5070715E+02  0.0000000E+00
Ar  400  0.5345833E+02  0.5077133E+02  0.5077133E+02  0.0000000E+00
Ar  401  0.5186474E+01  0.5345735E+02  0.5345735E+02  0.0000000E+00
Ar  402  0.7952226E+01  0.2576394E+01  0.1256012E+00  0.0000000E+00
Ar  403  0.7952229E+01  0.1256002E+00  0.2576393E+01  0.0000000E+00
Ar  404  0.5308674E+01  0.2306213E+01  0.2306212E+01  0.0000000E+00
Ar  405  0.5517222E+01  0.5344233E+02  0.5517222E+01  0.0000000E+00
Ar  406  0.7931192E+01  0.2669126E+01  0.5193116E+01  0.0000000E+00
Ar  407  0.8186679E+01  0.5351988E+02  0.8186678E+01  0.0000000E+00
Ar  408  0.5193117E+01  0.2669123E+01  0.7931193E+01  0.0000000E+00
Ar  409  0.5333820E+01  0.2476174E+00  0.1066264E+02  0.0000000E+00
Ar  410  0.7845812E+01  0.2643764E+01  0.1045699E+02  0.0000000E+00
Ar  411  0.7910354E+01  0.2001872E+00  0.1331467E+02  0.0000000E+00
Ar  412  0.5257868E+01  0.2652011E+01  0.1323277E+02  0.0000000E+00
Ar  413  0.5307397E+01  0.1060427E+00  0.1634661E+02  0.0000000E+00
Ar  414  0.8185420E+01  0.2502048E+01  0.1601928E+02  0.0000000E+00
Ar  415  0.8221874E+01  0.5345654E+02  0.1874281E+02  0.0000000E+00
Ar  416  0.5526259E+01  0.2884542E+01  0.1872026E+02  0.0000000E+00
Ar  417  0.5455127E+01  0.1271527E+00  0.2137960E+02  0.0000000E+00
Ar  418  0.8020138E+01  0.2623570E+01  0.2130087E+02  0.0000000E+00
Ar  419  0.8193015E+01  0.5360776E+02  0.2388862E+02  0.0000000E+00
Ar  420  0.5425758E+01  0.2807060E+01  0.2406421E+02  0.0000000E+00
Ar  421  0.5397694E+01  0.2159881E+00  0.2676705E+02  0.0000000E+00
Ar  422  0.8106106E+01  0.2900359E+01  0.2662745E+02  0.0000000E+00
Ar  423  0.8247474E+01  0.3173511E+00  0.2936970E+02  0.0000000E+00
Ar  424  0.5334359E+01  0.2661752E+01  0.2918425E+02  0.0000000E+00
Ar  425  0.5515543E+01  0.3259008E+00  0.3173840E+02  0.0000000E+00
Ar  426  0.8253373E+01  0.2827888E+01  0.3195784E+02  0.0000000E+00
Ar  427  0.8432442E+01  0.4638917E+00  0.3459640E+02  0.0000000E+00
Ar  428  0.5502947E+01  0.2826554E+01  0.3469646E+02  0.0000000E+00
Ar  429  0.5335393E+01  0.2081694E+00  0.3735875E+02  0.0000000E+00
Ar  430  0.8127840E+01  0.2879565E+01  0.3767586E+02  0.0000000E+00
Ar  431  0.8098752E+01  0.2671349E+00  0.4034959E+02  0.0000000E+00
Ar  432  0.5452055E+01  0.2675578E+01  0.4032174E+02  0.0000000E+00
Ar  433  0.5202264E+01  0.5354946E+02  0.4307271E+02  0.0000000E+00
Ar  434  0.8134723E+01  0.2980484E+01  0.4282728E+02  0.0000000E+00
Ar  435  0.8028046E+01  0.1644796E+00  0.4550225E+02  0.0000000E+00
Ar  436  0.5361942E+01  0.2798351E+01  0.4574340E+02  0.0000000E+00
Ar  437  0.5136231E+01  0.1296606E+00  0.4824524E+02  0.0000000E+00
Ar  438  0.8029308E+01  0.2631289E+01  0.4826159E+02  0.0000000E+00
Ar  439  0.7764063E+01  0.5351335E+02  0.5088222E+02  0.0000000E+00
Ar  440  0.5584469E+01  0.2910679E+01  0.5087421E+02  0.0000000E+00
Ar  441  0.5517221E+01  0.5517227E+01  0.5344232E+02  0.0000000E+00
Ar  442  0.8186676E+01  0.8186680E+01  0.5351989E+02  0.0000000E+00
Ar  443  0.7931193E+01  0.5193119E+01  0.2669122E+01  0.0000000E+00
Ar  444  0.5193116E+01  0.7931193E+01  0.2669126E+01  0.0000000E+00
Ar  445  0.5146162E+01  0.5146158E+01  0.5146162E+01  0.0000000E+00
Ar  446  0.7806424E+01  0.7806420E+01  0.5175678E+01  0.0000000E+00
Ar  447  0.7806420E+01  0.5175675E+01  0.7806417E+01  0.0000000E+00
Ar  448  0.5175678E+01  0.7806416E+01  0.7806415E+01  0.0000000E+00
Ar  449  0.5199404E+01  0.5199401E+01  0.1058748E+02  0.0000000E+00
Ar  450  0.7929442E+01  0.7929443E+01  0.1058071E+02  0.0000000E+00
Ar  451  0.7958577E+01  0.5260108E+01  0.1315026E+02  0.0000000E+00
Ar  452  0.5260106E+01  0.7958579E+01  0.1315026E+02  0.0000000E+00
Ar  453  0.5379555E+01  0.5379562E+01  0.1617691E+02  0.0000000E+00
Ar  454  0.8183316E+01  0.8183316E+01  0.1582445E+02  0.0000000E+00
Ar  455  0.8369004E+01  0.5431984E+01  0.1878589E+02  0.0000000E+00
Ar  456  0.5431985E+01  0.8369007E+01  0.1878589E+02  0.0000000E+00
Ar  457  0.5348893E+01  0.5348896E+01  0.2146874E+02  0.0000000E+00
Ar  458  0.8075464E+01  0.8075465E+01  0.2114022E+02  0.0000000E+00
Ar  459  0.8048579E+01  0.5505254E+01  0.2409831E+02  0.0000000E+00
Ar  460  0.5505255E+01  0.8048574E+01  0.2409832E+02  0.0000000E+00
Ar  461  0.5680588E+01  0.5680591E+01  0.2697612E+02  0.0000000E+00
Ar  462  0.8100523E+01  0.8100522E+01  0.2646690E+02  0.0000000E+00
Ar  463  0.8264905E+01  0.5546854E+01  0.2947549E+02  0.0000000E+00
Ar  464  0.5546870E+01  0.8264910E+01  0.2947550E+02  0.0000000E+00
Ar  465  0.5350359E+01  0.5350360E+01  0.3224244E+02  0.0000000E+00
Ar  466  0.8251924E+01  0.8251922E+01  0.3223535E+02  0.0000000E+00
Ar  467  0.8111159E+01  0.5187014E+01  0.3471191E+02  0.0000000E+00
Ar  468  0.5187016E+01  0.8111154E+01  0.3471191E+02  0.0000000E+00
Ar  469  0.5438914E+01  0.5438912E+01  0.3723561E+02  0.0000000E+00
Ar  470  0.8000124E+01  0.8000121E+01  0.3726123E+02  0.0000000E+00
Ar  471  0.8030309E+01  0.5492759E+01  0.4032330E+02  0.0000000E+00
Ar  472  0.5492753E+01  0.8030310E+01  0.4032330E+02  0.0000000E+00
Ar  473  0.5267415E+01  0.5267411E+01  0.4281855E+02  0.0000000E+00
Ar  474  0.7735348E+01  0.7735344E+01  0.4315822E+02  0.0000000E+00
Ar  475  0.8258962E+01  0.5175765E+01  0.4549662E+02  0.0000000E+00
Ar  476  0.5175767E+01  0.8258961E+01  0.4549662E+02  0.0000000E+00
Ar  477  0.5466578E+01  0.5466575E+01  0.4813383E+02  0.0000000E+00
Ar  478  0.8128670E+01  0.8128657E+01  0.4798334E+02  0.0000000E+00
Ar  479  0.8019079E+01  0.5440840E+01  0.5084004E+02  0.0000000E+00
Ar  480  0.5440839E+01  0.8019081E+01  0.5084003E+02  0.0000000E+00
Ar  481  0.5333822E+01  0.1066264E+02  0.2476229E+00  0.0000000E+00
Ar  482  0.7910349E+01  0.1331468E+02  0.2001954E+00  0.0000000E+00
Ar  483  0.7845805E+01  0.1045699E+02  0.2643765E+01  0.0000000E+00
Ar  484  0.5257868E+01  0.1323277E+02  0.2652010E+01  0.0000000E+00
Ar  485  0.5199402E+01  0.1058748E+02  0.5199405E+01  0.0000000E+00
Ar  486  0.7958573E+01  0.1315026E+02  0.5260105E+01  0.0000000E+00
Ar  487  0.7929442E+01  0.1058071E+02  0.7929444E+01  0.0000000E+00
Ar  488  0.5260106E+01  0.1315026E+02  0.7958580E+01  0.0000000E+00
Ar  489  0.5052651E+01  0.1077334E+02  0.1077334E+02  0.0000000E+00
Ar  490  0.8023869E+01  0.1319104E+02  0.1065237E+02  0.0000000E+00
Ar  491  0.8023870E+01  0.1065237E+02  0.1319104E+02  0.0000000E+00
Ar  492  0.5519165E+01  0.1329180E+02  0.1329180E+02  0.0000000E+00
Ar  493  0.5168873E+01  0.1052281E+02  0.1586141E+02  0.0000000E+00
Ar  494  0.8122661E+01  0.1315504E+02  0.1585297E+02  0.0000000E+00
Ar  495  0.8031725E+01  0.1074619E+02  0.1850165E+02  0.0000000E+00
Ar  496  0.5220011E+01  0.1347962E+02  0.1880212E+02  0.0000000E+00
Ar  497  0.5189911E+01  0.1076997E+02  0.2154725E+02  0.0000000E+00
Ar  498  0.7967741E+01  0.1326959E+02  0.2145883E+02  0.0000000E+00
Ar  499  0.8031033E+01  0.1067682E+02  0.2402500E+02  0.0000000E+00
Ar  500  0.5264608E+01  0.1345570E+02  0.2418247E+02  0.0000000E+00
Ar  501  0.5505881E+01  0.1067420E+02  0.2678825E+02  0.0000000E+00
Ar  502  0.8206614E+01  0.1345497E+02  0.2653484E+02  0.0000000E+00
Ar  503  0.8062254E+01  0.1082979E+02  0.2946621E+02  0.0000000E+00
Ar  504  0.5544754E+01  0.1351302E+02  0.2928759E+02  0.0000000E+00
Ar  505  0.5322704E+01  0.1087375E+02  0.3227572E+02  0.0000000E+00
Ar  506  0.8021265E+01  0.1357511E+02  0.3236378E+02  0.0000000E+00
Ar  507  0.8270564E+01  0.1090901E+02  0.3509499E+02  0.0000000E+00
Ar  508  0.5616115E+01  0.1350853E+02  0.3503466E+02  0.0000000E+00
Ar  509  0.5537561E+01  0.1059183E+02  0.3775915E+02  0.0000000E+00
Ar  510  0.7952326E+01  0.1339304E+02  0.3773091E+02  0.0000000E+00
Ar  511  0.8296502E+01  0.1068013E+02  0.4034765E+02  0.0000000E+00
Ar  512  0.5444487E+01  0.1351294E+02  0.4032206E+02  0.0000000E+00
Ar  513  0.5557007E+01  0.1094128E+02  0.4289300E+02  0.0000000E+00
Ar  514  0.8257525E+01  0.1327940E+02  0.4300318E+02  0.0000000E+00
Ar  515  0.7949719E+01  0.1085165E+02  0.4547586E+02  0.0000000E+00
Ar  516  0.5239929E+01  0.1387628E+02  0.4541651E+02  0.0000000E+00
Ar  517  0.5185136E+01  0.1104761E+02  0.4861727E+02  0.0000000E+00
Ar  518  0.7973388E+01  0.1336221E+02  0.4840974E+02  0.0000000E+00
Ar  519  0.7967649E+01  0.1073426E+02  0.5117245E+02  0.0000000E+00
Ar  520  0.5403756E+01  0.1350286E+02  0.5114953E+02  0.0000000E+00
Ar  521  0.5307397E+01  0.1634661E+02  0.1060474E+00  0.0000000E+00
Ar  522  0.8221873E+01  0.1874281E+02  0.5345654E+02  0.0000000E+00
Ar  523  0.8185422E+01  0.1601928E+02  0.2502054E+01  0.0000000E+00
Ar  524  0.5526260E+01  0.1872026E+02  0.2884542E+01  0.0000000E+00
Ar  525  0.5379552E+01  0.1617690E+02  0.5379565E+01  0.0000000E+00
Ar  526  0.8369003E+01  0.1878589E+02  0.5431988E+01  0.0000000E+00
Ar  527  0.8183318E+01  0.1582445E+02  0.8183319E+01  0.0000000E+00
Ar  528  0.5431986E+01  0.1878589E+02  0.8369009E+01  0.0000000E+00
Ar  529  0.5168873E+01  0.1586141E+02  0.1052281E+02  0.0000000E+00
Ar  530  0.8031725E+01  0.1850165E+02  0.1074619E+02  0.0000000E+00
Ar  531  0.8122662E+01  0.1585297E+02  0.1315504E+02  0.0000000E+00
Ar  532  0.5220010E+01  0.1880212E+02  0.1347962E+02  0.0000000E+00
Ar  533  0.5247939E+01  0.1592141E+02  0.1592141E+02  0.0000000E+00
Ar  534  0.7918555E+01  0.1885604E+02  0.1592131E+02  0.0000000E+00
Ar  535  0.7918555E+01  0.1592131E+02  0.1885604E+02  0.0000000E+00
Ar  536  0.5379548E+01  0.1873809E+02  0.1873809E+02  0.0000000E+00
Ar  537  0.5263924E+01  0.1611844E+02  0.2175094E+02  0.0000000E+00
Ar  538  0.7917683E+01  0.1855510E+02  0.2138804E+02  0.0000000E+00
Ar  539  0.8026822E+01  0.1598627E+02  0.2415068E+02  0.0000000E+00
Ar  540  0.5318513E+01  0.1868607E+02  0.2433839E+02  0.0000000E+00
Ar  541  0.5191447E+01  0.1588082E+02  0.2674118E+02  0.0000000E+00
Ar  542  0.7987063E+01  0.1840576E+02  0.2683300E+02  0.0000000E+00
Ar  543  0.8223270E+01  0.1600331E+02  0.2936356E+02  0.0000000E+00
Ar  544  0.5484520E+01  0.1876432E+02  0.2947056E+02  0.0000000E+00
Ar  545  0.5397358E+01  0.1609315E+02  0.3226113E+02  0.0000000E+00
Ar  546  0.8201648E+01  0.1885183E+02  0.3219839E+02  0.0000000E+00
Ar  547  0.8144177E+01  0.1619710E+02  0.3506128E+02  0.0000000E+00
Ar  548  0.5429385E+01  0.1901582E+02  0.3473354E+02  0.0000000E+00
Ar  549  0.5608489E+01  0.1619770E+02  0.3781598E+02  0.0000000E+00
Ar  550  0.8010632E+01  0.1895942E+02  0.3783555E+02  0.0000000E+00
Ar  551  0.8139404E+01  0.1620435E+02  0.4046525E+02  0.0000000E+00
Ar  552  0.5450020E+01  0.1879414E+02  0.4045300E+02  0.0000000E+00
Ar  553  0.5228303E+01  0.1610529E+02  0.4284932E+02  0.0000000E+00
Ar  554  0.7977389E+01  0.1900189E+02  0.4283278E+02  0.0000000E+00
Ar  555  0.8123130E+01  0.1599962E+02  0.4519583E+02  0.0000000E+00
Ar  556  0.5389123E+01  0.1859099E+02  0.4561937E+02  0.0000000E+00
Ar  557  0.5554642E+01  0.1608365E+02  0.4824857E+02  0.0000000E+00
Ar  558  0.8205031E+01  0.1867728E+02  0.4839196E+02  0.0000000E+00
Ar  559  0.8199777E+01  0.1604034E+02  0.5099068E+02  0.0000000E+00
Ar  560  0.5467690E+01  0.1871000E+02  0.5097279E+02  0.0000000E+00
Ar  561  0.5455127E+01  0.2137960E+02  0.1271517E+00  0.0000000E+00
Ar  562  0.8193016E+01  0.2388862E+02  0.5360776E+02  0.0000000E+00
Ar  563  0.8020135E+01  0.2130087E+02  0.2623571E+01  0.0000000E+00
Ar  564  0.5425759E+01  0.2406421E+02  0.2807060E+01  0.0000000E+00
Ar  565  0.5348895E+01  0.2146874E+02  0.5348895E+01  0.0000000E+00
Ar  566  0.8048580E+01  0.2409831E+02  0.5505252E+01  0.0000000E+00
Ar  567  0.8075464E+01  0.2114022E+02  0.8075467E+01  0.0000000E+00
Ar  568  0.5505256E+01  0.2409832E+02  0.8048574E+01  0.0000000E+00
Ar  569  0.5189911E+01  0.2154725E+02  0.1076997E+02  0.0000000E+00
Ar  570  0.8031033E+01  0.2402499E+02  0.1067682E+02  0.0000000E+00
Ar  571  0.7967741E+01  0.2145883E+02  0.1326959E+02  0.0000000E+00
Ar  572  0.5264608E+01  0.2418247E+02  0.1345570E+02  0.0000000E+00
Ar  573  0.5263925E+01  0.2175094E+02  0.1611844E+02  0.0000000E+00
Ar  574  0.8026823E+01  0.2415068E+02  0.1598627E+02  0.0000000E+00
Ar  575  0.7917684E+01  0.2138804E+02  0.1855510E+02  0.0000000E+00
Ar  576  0.5318514E+01  0.2433839E+02  0.1868607E+02  0.0000000E+00
Ar  577  0.5136944E+01  0.2134342E+02  0.2134342E+02  0.0000000E+00
Ar  578  0.7937028E+01  0.2397589E+02  0.2163008E+02  0.0000000E+00
Ar  579  0.7937027E+01  0.2163009E+02  0.2397589E+02  0.0000000E+00
Ar  580  0.5331587E+01  0.2433653E+02  0.2433653E+02  0.0000000E+00
Ar  581  0.5436847E+01  0.2145160E+02  0.2677530E+02  0.0000000E+00
Ar  582  0.8128000E+01  0.2425029E+02  0.2687141E+02  0.0000000E+00
Ar  583  0.8074015E+01  0.2141173E+02  0.2957029E+02  0.0000000E+00
Ar  584  0.5428728E+01  0.2422945E+02  0.2950148E+02  0.0000000E+00
Ar  585  0.5374565E+01  0.2159247E+02  0.3209837E+02  0.0000000E+00
Ar  586  0.8085839E+01  0.2422384E+02  0.3217633E+02  0.0000000E+00
Ar  587  0.7984422E+01  0.2164731E+02  0.3502963E+02  0.0000000E+00
Ar  588  0.5406744E+01  0.2438844E+02  0.3480508E+02  0.0000000E+00
Ar  589  0.5371844E+01  0.2145252E+02  0.3759633E+02  0.0000000E+00
Ar  590  0.8017328E+01  0.2452265E+02  0.3763526E+02  0.0000000E+00
Ar  591  0.8149359E+01  0.2163888E+02  0.4032996E+02  0.0000000E+00
Ar  592  0.5125935E+01  0.2411405E+02  0.4036236E+02  0.0000000E+00
Ar  593  0.5347623E+01  0.2154863E+02  0.4302147E+02  0.0000000E+00
Ar  594  0.7916635E+01  0.2444742E+02  0.4287723E+02  0.0000000E+00
Ar  595  0.8240952E+01  0.2163107E+02  0.4567306E+02  0.0000000E+00
Ar  596  0.5428558E+01  0.2435625E+02  0.4562891E+02  0.0000000E+00
Ar  597  0.5442203E+01  0.2132341E+02  0.4785853E+02  0.0000000E+00
Ar  598  0.8199216E+01  0.2403026E+02  0.4823176E+02  0.0000000E+00
Ar  599  0.8066172E+01  0.2134846E+02  0.5085498E+02  0.0000000E+00
Ar  600  0.5368251E+01  0.2404605E+02  0.5112156E+02  0.0000000E+00
Ar  601  0.5397695E+01  0.2676705E+02  0.2159854E+00  0.0000000E+00
Ar  602  0.8247474E+01  0.2936970E+02  0.3173560E+00  0.0000000E+00
Ar  603  0.8106106E+01  0.2662744E+02  0.2900360E+01  0.0000000E+00
Ar  604  0.5334358E+01  0.2918425E+02  0.2661750E+01  0.0000000E+00
Ar  605  0.5680585E+01  0.2697611E+02  0.5680591E+01  0.0000000E+00
Ar  606  0.8264907E+01  0.2947549E+02  0.5546852E+01  0.0000000E+00
Ar  607  0.8100521E+01  0.2646690E+02  0.8100522E+01  0.0000000E+00
Ar  608  0.5546869E+01  0.2947550E+02  0.8264911E+01  0.0000000E+00
Ar  609  0.5505881E+01  0.2678825E+02  0.1067421E+02  0.0000000E+00
Ar  610  0.8062252E+01  0.2946621E+02  0.1082979E+02  0.0000000E+00
Ar  611  0.8206612E+01  0.2653484E+02  0.1345497E+02  0.0000000E+00
Ar  612  0.5544752E+01  0.2928759E+02  0.1351302E+02  0.0000000E+00
Ar  613  0.5191446E+01  0.2674118E+02  0.1588082E+02  0.0000000E+00
Ar  614  0.8223270E+01  0.2936356E+02  0.1600331E+02  0.0000000E+00
Ar  615  0.7987062E+01  0.2683300E+02  0.1840576E+02  0.0000000E+00
Ar  616  0.5484519E+01  0.2947056E+02  0.1876432E+02  0.0000000E+00
Ar  617  0.5436848E+01  0.2677530E+02  0.2145160E+02  0.0000000E+00
Ar  618  0.8074014E+01  0.2957029E+02  0.2141173E+02  0.0000000E+00
Ar  619  0.8127999E+01  0.2687140E+02  0.2425029E+02  0.0000000E+00
Ar  620  0.5428728E+01  0.2950148E+02  0.2422945E+02  0.0000000E+00
Ar  621  0.5471793E+01  0.2698734E+02  0.2698734E+02  0.0000000E+00
Ar  622  0.8138336E+01  0.2932431E+02  0.2683533E+02  0.0000000E+00
Ar  623  0.8138336E+01  0.2683534E+02  0.2932431E+02  0.0000000E+00
Ar  624  0.5384965E+01  0.2938409E+02  0.2938409E+02  0.0000000E+00
Ar  625  0.5247694E+01  0.2675440E+02  0.3213175E+02  0.0000000E+00
Ar  626  0.8092949E+01  0.2940472E+02  0.3232025E+02  0.0000000E+00
Ar  627  0.8072048E+01  0.2699702E+02  0.3487989E+02  0.0000000E+00
Ar  628  0.5316129E+01  0.2947418E+02  0.3461444E+02  0.0000000E+00
Ar  629  0.5245547E+01  0.2700789E+02  0.3754292E+02  0.0000000E+00
Ar  630  0.8121941E+01  0.2969429E+02  0.3773979E+02  0.0000000E+00
Ar  631  0.7836183E+01  0.2685836E+02  0.4033241E+02  0.0000000E+00
Ar  632  0.5187529E+01  0.2968390E+02  0.4021168E+02  0.0000000E+00
Ar  633  0.5415624E+01  0.2703861E+02  0.4318036E+02  0.0000000E+00
Ar  634  0.7762587E+01  0.2957731E+02  0.4274528E+02  0.0000000E+00
Ar  635  0.8214076E+01  0.2683179E+02  0.4555806E+02  0.0000000E+00
Ar  636  0.5732847E+01  0.2952296E+02  0.4579651E+02  0.0000000E+00
Ar  637  0.5736784E+01  0.2693376E+02  0.4822884E+02  0.0000000E+00
Ar  638  0.8595848E+01  0.2956469E+02  0.4813837E+02  0.0000000E+00
Ar  639  0.8063040E+01  0.2669154E+02  0.5095079E+02  0.0000000E+00
Ar  640  0.5442591E+01  0.2935697E+02  0.5128200E+02  0.0000000E+00
Ar  641  0.5515544E+01  0.3173840E+02  0.3259014E+00  0.0000000E+00
Ar  642  0.8432444E+01  0.3459640E+02  0.4638956E+00  0.0000000E+00
Ar  643  0.8253372E+01  0.3195784E+02  0.2827888E+01  0.0000000E+00
Ar  644  0.5502945E+01  0.3469646E+02  0.2826554E+01  0.0000000E+00
Ar  645  0.5350358E+01  0.3224244E+02  0.5350362E+01  0.0000000E+00
Ar  646  0.8111160E+01  0.3471191E+02  0.5187013E+01  0.0000000E+00
Ar  647  0.8251922E+01  0.3223535E+02  0.8251919E+01  0.0000000E+00
Ar  648  0.5187014E+01  0.3471191E+02  0.8111153E+01  0.0000000E+00
Ar  649  0.5322701E+01  0.3227572E+02  0.1087375E+02  0.0000000E+00
Ar  650  0.8270564E+01  0.3509499E+02  0.1090901E+02  0.0000000E+00
Ar  651  0.8021262E+01  0.3236378E+02  0.1357511E+02  0.0000000E+00
Ar  652  0.5616113E+01  0.3503467E+02  0.1350853E+02  0.0000000E+00
Ar  653  0.5397357E+01  0.3226113E+02  0.1609315E+02  0.0000000E+00
Ar  654  0.8144178E+01  0.3506128E+02  0.1619710E+02  0.0000000E+00
Ar  655  0.8201648E+01  0.3219839E+02  0.1885183E+02  0.0000000E+00
Ar  656  0.5429386E+01  0.3473354E+02  0.1901582E+02  0.0000000E+00
Ar  657  0.5374562E+01  0.3209837E+02  0.2159247E+02  0.0000000E+00
Ar  658  0.7984425E+01  0.3502963E+02  0.2164731E+02  0.0000000E+00
Ar  659  0.8085841E+01  0.3217633E+02  0.2422384E+02  0.0000000E+00
Ar  660  0.5406746E+01  0.3480508E+02  0.2438844E+02  0.0000000E+00
Ar  661  0.5247695E+01  0.3213175E+02  0.2675440E+02  0.0000000E+00
Ar  662  0.8072047E+01  0.3487989E+02  0.2699702E+02  0.0000000E+00
Ar  663  0.8092950E+01  0.3232025E+02  0.2940472E+02  0.0000000E+00
Ar  664  0.5316130E+01  0.3461444E+02  0.2947418E+02  0.0000000E+00
Ar  665  0.5549250E+01  0.3210660E+02  0.3210660E+02  0.0000000E+00
Ar  666  0.8115573E+01  0.3472421E+02  0.3211740E+02  0.0000000E+00
Ar  667  0.8115572E+01  0.3211740E+02  0.3472421E+02  0.0000000E+00
Ar  668  0.5421820E+01  0.3472432E+02  0.3472432E+02  0.0000000E+00
Ar  669  0.5076687E+01  0.3236749E+02  0.3785336E+02  0.0000000E+00
Ar  670  0.7974914E+01  0.3471278E+02  0.3746737E+02  0.0000000E+00
Ar  671  0.8240104E+01  0.3211624E+02  0.4022998E+02  0.0000000E+00
Ar  672  0.5306101E+01  0.3484191E+02  0.4029329E+02  0.0000000E+00
Ar  673  0.5545763E+01  0.3233882E+02  0.4280636E+02  0.0000000E+00
Ar  674  0.8421126E+01  0.3498026E+02  0.4289074E+02  0.0000000E+00
Ar  675  0.8200774E+01  0.3220149E+02  0.4545988E+02  0.0000000E+00
Ar  676  0.5697834E+01  0.3488657E+02  0.4565296E+02  0.0000000E+00
Ar  677  0.5867296E+01  0.3191025E+02  0.4837983E+02  0.0000000E+00
Ar  678  0.8383474E+01  0.3488301E+02  0.4821231E+02  0.0000000E+00
Ar  679  0.8364251E+01  0.3215858E+02  0.5107734E+02  0.0000000E+00
Ar  680  0.5761923E+01  0.3485237E+02  0.5114216E+02  0.0000000E+00
Ar  681  0.5335395E+01  0.3735875E+02  0.2081699E+00  0.0000000E+00
Ar  682  0.8098754E+01  0.4034959E+02  0.2671352E+00  0.0000000E+00
Ar  683  0.8127840E+01  0.3767586E+02  0.2879566E+01  0.0000000E+00
Ar  684  0.5452056E+01  0.4032175E+02  0.2675576E+01  0.0000000E+00
Ar  685  0.5438915E+01  0.3723561E+02  0.5438913E+01  0.0000000E+00
Ar  686  0.8030309E+01  0.4032330E+02  0.5492761E+01  0.0000000E+00
Ar  687  0.8000127E+01  0.3726123E+02  0.8000123E+01  0.0000000E+00
Ar  688  0.5492755E+01  0.4032330E+02  0.8030312E+01  0.0000000E+00
Ar  689  0.5537557E+01  0.3775915E+02  0.1059183E+02  0.0000000E+00
Ar  690  0.8296500E+01  0.4034765E+02  0.1068013E+02  0.0000000E+00
Ar  691  0.7952327E+01  0.3773091E+02  0.1339304E+02  0.0000000E+00
Ar  692  0.5444485E+01  0.4032206E+02  0.1351294E+02  0.0000000E+00
Ar  693  0.5608488E+01  0.3781598E+02  0.1619770E+02  0.0000000E+00
Ar  694  0.8139404E+01  0.4046525E+02  0.1620435E+02  0.0000000E+00
Ar  695  0.8010633E+01  0.3783555E+02  0.1895942E+02  0.0000000E+00
Ar  696  0.5450020E+01  0.4045301E+02  0.1879414E+02  0.0000000E+00
Ar  697  0.5371843E+01  0.3759633E+02  0.2145252E+02  0.0000000E+00
Ar  698  0.8149358E+01  0.4032996E+02  0.2163888E+02  0.0000000E+00
Ar  699  0.8017330E+01  0.3763526E+02  0.2452265E+02  0.0000000E+00
Ar  700  0.5125935E+01  0.4036235E+02  0.2411405E+02  0.0000000E+00
Ar  701  0.5245547E+01  0.3754292E+02  0.2700789E+02  0.0000000E+00
Ar  702  0.7836184E+01  0.4033241E+02  0.2685836E+02  0.0000000E+00
Ar  703  0.8121943E+01  0.3773980E+02  0.2969429E+02  0.0000000E+00
Ar  704  0.5187527E+01  0.4021168E+02  0.2968390E+02  0.0000000E+00
Ar  705  0.5076688E+01  0.3785336E+02  0.3236749E+02  0.0000000E+00
Ar  706  0.8240106E+01  0.4022998E+02  0.3211624E+02  0.0000000E+00
Ar  707  0.7974914E+01  0.3746737E+02  0.3471278E+02  0.0000000E+00
Ar  708  0.5306100E+01  0.4029329E+02  0.3484191E+02  0.0000000E+00
Ar  709  0.5285175E+01  0.3750013E+02  0.3750013E+02  0.0000000E+00
Ar  710  0.8234509E+01  0.4000302E+02  0.3752930E+02  0.0000000E+00
Ar  711  0.8234506E+01  0.3752930E+02  0.4000302E+02  0.0000000E+00
Ar  712  0.5770258E+01  0.4016842E+02  0.4016842E+02  0.0000000E+00
Ar  713  0.5459948E+01  0.3747383E+02  0.4268349E+02  0.0000000E+00
Ar  714  0.8088672E+01  0.4024144E+02  0.4271938E+02  0.0000000E+00
Ar  715  0.8055452E+01  0.3763257E+02  0.4525435E+02  0.0000000E+00
Ar  716  0.5174995E+01  0.3996527E+02  0.4550443E+02  0.0000000E+00
Ar  717  0.5628917E+01  0.3762826E+02  0.4851700E+02  0.0000000E+00
Ar  718  0.8011077E+01  0.4054607E+02  0.4836928E+02  0.0000000E+00
Ar  719  0.8195295E+01  0.3734567E+02  0.5118119E+02  0.0000000E+00
Ar  720  0.5628670E+01  0.4012595E+02  0.5104226E+02  0.0000000E+00
Ar  721  0.5202263E+01  0.4307270E+02  0.5354946E+02  0.0000000E+00
Ar  722  0.8028049E+01  0.4550225E+02  0.1644793E+00  0.0000000E+00
Ar  723  0.8134724E+01  0.4282728E+02  0.2980485E+01  0.0000000E+00
Ar  724  0.5361943E+01  0.4574340E+02  0.2798351E+01  0.0000000E+00
Ar  725  0.5267417E+01  0.4281856E+02  0.5267414E+01  0.0000000E+00
Ar  726  0.8258965E+01  0.4549662E+02  0.5175766E+01  0.0000000E+00
Ar  727  0.7735348E+01  0.4315823E+02  0.7735348E+01  0.0000000E+00
Ar  728  0.5175767E+01  0.4549662E+02  0.8258962E+01  0.0000000E+00
Ar  729  0.5557004E+01  0.4289300E+02  0.1094128E+02  0.0000000E+00
Ar  730  0.7949717E+01  0.4547587E+02  0.1085166E+02  0.0000000E+00
Ar  731  0.8257522E+01  0.4300318E+02  0.1327940E+02  0.0000000E+00
Ar  732  0.5239926E+01  0.4541651E+02  0.1387628E+02  0.0000000E+00
Ar  733  0.5228306E+01  0.4284932E+02  0.1610529E+02  0.0000000E+00
Ar  734  0.8123129E+01  0.4519583E+02  0.1599962E+02  0.0000000E+00
Ar  735  0.7977390E+01  0.4283278E+02  0.1900189E+02  0.0000000E+00
Ar  736  0.5389125E+01  0.4561937E+02  0.1859100E+02  0.0000000E+00
Ar  737  0.5347621E+01  0.4302147E+02  0.2154863E+02  0.0000000E+00
Ar  738  0.8240952E+01  0.4567306E+02  0.2163107E+02  0.0000000E+00
Ar  739  0.7916635E+01  0.4287723E+02  0.2444742E+02  0.0000000E+00
Ar  740  0.5428557E+01  0.4562891E+02  0.2435625E+02  0.0000000E+00
Ar  741  0.5415624E+01  0.4318035E+02  0.2703861E+02  0.0000000E+00
Ar  742  0.8214077E+01  0.4555806E+02  0.2683179E+02  0.0000000E+00
Ar  743  0.7762588E+01  0.4274528E+02  0.2957731E+02  0.0000000E+00
Ar  744  0.5732845E+01  0.4579651E+02  0.2952296E+02  0.0000000E+00
Ar  745  0.5545763E+01  0.4280636E+02  0.3233882E+02  0.0000000E+00
Ar  746  0.8200770E+01  0.4545988E+02  0.3220149E+02  0.0000000E+00
Ar  747  0.8421129E+01  0.4289074E+02  0.3498026E+02  0.0000000E+00
Ar  748  0.5697830E+01  0.4565296E+02  0.3488657E+02  0.0000000E+00
Ar  749  0.5459947E+01  0.4268349E+02  0.3747383E+02  0.0000000E+00
Ar  750  0.8055450E+01  0.4525435E+02  0.3763257E+02  0.0000000E+00
Ar  751  0.8088668E+01  0.4271938E+02  0.4024143E+02  0.0000000E+00
Ar  752  0.5174995E+01  0.4550443E+02  0.3996528E+02  0.0000000E+00
Ar  753  0.5413818E+01  0.4281089E+02  0.4281089E+02  0.0000000E+00
Ar  754  0.8061086E+01  0.4541434E+02  0.4264851E+02  0.0000000E+00
Ar  755  0.8061088E+01  0.4264851E+02  0.4541434E+02  0.0000000E+00
Ar  756  0.5223593E+01  0.4556532E+02  0.4556532E+02  0.0000000E+00
Ar  757  0.5192032E+01  0.4273022E+02  0.4808573E+02  0.0000000E+00
Ar  758  0.8169074E+01  0.4548652E+02  0.4795656E+02  0.0000000E+00
Ar  759  0.8239281E+01  0.4301310E+02  0.5096302E+02  0.0000000E+00
Ar  760  0.5465261E+01  0.4549086E+02  0.5102244E+02  0.0000000E+00
Ar  761  0.5136231E+01  0.4824523E+02  0.1296594E+00  0.0000000E+00
Ar  762  0.7764065E+01  0.5088222E+02  0.5351335E+02  0.0000000E+00
Ar  763  0.8029310E+01  0.4826160E+02  0.2631286E+01  0.0000000E+00
Ar  764  0.5584471E+01  0.5087421E+02  0.2910679E+01  0.0000000E+00
Ar  765  0.5466575E+01  0.4813383E+02  0.5466578E+01  0.0000000E+00
Ar  766  0.8019082E+01  0.5084003E+02  0.5440842E+01  0.0000000E+00
Ar  767  0.8128663E+01  0.4798335E+02  0.8128660E+01  0.0000000E+00
Ar  768  0.5440846E+01  0.5084003E+02  0.8019081E+01  0.0000000E+00
Ar  769  0.5185125E+01  0.4861727E+02  0.1104760E+02  0.0000000E+00
Ar  770  0.7967650E+01  0.5117244E+02  0.1073427E+02  0.0000000E+00
Ar  771  0.7973383E+01  0.4840973E+02  0.1336222E+02  0.0000000E+00
Ar  772  0.5403768E+01  0.5114953E+02  0.1350285E+02  0.0000000E+00
Ar  773  0.5554640E+01  0.4824857E+02  0.1608366E+02  0.0000000E+00
Ar  774  0.8199778E+01  0.5099068E+02  0.1604035E+02  0.0000000E+00
Ar  775  0.8205033E+01  0.4839195E+02  0.1867729E+02  0.0000000E+00
Ar  776  0.5467692E+01  0.5097280E+02  0.1871001E+02  0.0000000E+00
Ar  777  0.5442202E+01  0.4785853E+02  0.2132341E+02  0.0000000E+00
Ar  778  0.8066174E+01  0.5085498E+02  0.2134846E+02  0.0000000E+00
Ar  779  0.8199212E+01  0.4823176E+02  0.2403025E+02  0.0000000E+00
Ar  780  0.5368248E+01  0.5112156E+02  0.2404605E+02  0.0000000E+00
Ar  781  0.5736784E+01  0.4822884E+02  0.2693376E+02  0.0000000E+00
Ar  782  0.8063038E+01  0.5095079E+02  0.2669153E+02  0.0000000E+00
Ar  783  0.8595848E+01  0.4813837E+02  0.2956469E+02  0.0000000E+00
Ar  784  0.5442592E+01  0.5128200E+02  0.2935697E+02  0.0000000E+00
Ar  785  0.5867296E+01  0.4837983E+02  0.3191025E+02  0.0000000E+00
Ar  786  0.8364252E+01  0.5107734E+02  0.3215859E+02  0.0000000E+00
Ar  787  0.8383472E+01  0.4821231E+02  0.3488301E+02  0.0000000E+00
Ar  788  0.5761919E+01  0.5114216E+02  0.3485237E+02  0.0000000E+00
Ar  789  0.5628914E+01  0.4851700E+02  0.3762826E+02  0.0000000E+00
Ar  790  0.8195290E+01  0.5118120E+02  0.3734566E+02  0.0000000E+00
Ar  791  0.8011074E+01  0.4836927E+02  0.4054607E+02  0.0000000E+00
Ar  792  0.5628668E+01  0.5104227E+02  0.4012595E+02  0.0000000E+00
Ar  793  0.5192031E+01  0.4808573E+02  0.4273022E+02  0.0000000E+00
Ar  794  0.8239279E+01  0.5096302E+02  0.4301310E+02  0.0000000E+00
Ar  795  0.8169071E+01  0.4795656E+02  0.4548652E+02  0.0000000E+00
Ar  796  0.5465261E+01  0.5102244E+02  0.4549086E+02  0.0000000E+00
Ar  797  0.5395023E+01  0.4815261E+02  0.4815261E+02  0.0000000E+00
Ar  798  0.7839899E+01  0.5084709E+02  0.4825744E+02  0.0000000E+00
Ar  799  0.7839899E+01  0.4825744E+02  0.5084709E+02  0.0000000E+00
Ar  800  0.4919651E+01  0.5073204E+02  0.5073204E+02  0.0000000E+00
Ar  801  0.1039050E+02  0.5356704E+02  0.5356704E+02  0.0000000E+00
Ar  802  0.1342664E+02  0.2627681E+01  0.7534741E-01  0.0000000E+00
Ar  803  0.1342664E+02  0.7534738E-01  0.2627680E+01  0.0000000E+00
Ar  804  0.1062556E+02  0.2639064E+01  0.2639060E+01  0.0000000E+00
Ar  805  0.1066264E+02  0.2476180E+00  0.5333819E+01  0.0000000E+00
Ar  806  0.1323277E+02  0.2652013E+01  0.5257868E+01  0.0000000E+00
Ar  807  0.1331467E+02  0.2001862E+00  0.7910355E+01  0.0000000E+00
Ar  808  0.1045699E+02  0.2643764E+01  0.7845807E+01  0.0000000E+00
Ar  809  0.1067798E+02  0.5942043E-01  0.1067798E+02  0.0000000E+00
Ar  810  0.1343541E+02  0.2456924E+01  0.1069792E+02  0.0000000E+00
Ar  811  0.1347654E+02  0.5341706E+02  0.1347654E+02  0.0000000E+00
Ar  812  0.1069792E+02  0.2456925E+01  0.1343541E+02  0.0000000E+00
Ar  813  0.1074231E+02  0.5357161E+02  0.1590204E+02  0.0000000E+00
Ar  814  0.1342249E+02  0.2526234E+01  0.1594242E+02  0.0000000E+00
Ar  815  0.1351242E+02  0.1117996E+00  0.1866217E+02  0.0000000E+00
Ar  816  0.1065645E+02  0.2647645E+01  0.1891756E+02  0.0000000E+00
Ar  817  0.1076323E+02  0.5339491E+02  0.2130342E+02  0.0000000E+00
Ar  818  0.1330145E+02  0.2578778E+01  0.2137082E+02  0.0000000E+00
Ar  819  0.1344427E+02  0.5356568E+02  0.2388364E+02  0.0000000E+00
Ar  820  0.1075579E+02  0.2604781E+01  0.2404972E+02  0.0000000E+00
Ar  821  0.1071477E+02  0.5355528E+02  0.2692525E+02  0.0000000E+00
Ar  822  0.1355574E+02  0.2494210E+01  0.2654855E+02  0.0000000E+00
Ar  823  0.1394227E+02  0.3053982E+00  0.2965129E+02  0.0000000E+00
Ar  824  0.1097818E+02  0.3059034E+01  0.2926662E+02  0.0000000E+00
Ar  825  0.1101396E+02  0.2021588E+00  0.3196320E+02  0.0000000E+00
Ar  826  0.1347687E+02  0.2943161E+01  0.3223079E+02  0.0000000E+00
Ar  827  0.1322339E+02  0.2798054E+00  0.3494670E+02  0.0000000E+00
Ar  828  0.1091233E+02  0.2891649E+01  0.3475302E+02  0.0000000E+00
Ar  829  0.1069422E+02  0.1540631E+00  0.3780245E+02  0.0000000E+00
Ar  830  0.1328638E+02  0.2971680E+01  0.3771249E+02  0.0000000E+00
Ar  831  0.1363000E+02  0.8002124E-01  0.4017233E+02  0.0000000E+00
Ar  832  0.1095149E+02  0.2970932E+01  0.4029373E+02  0.0000000E+00
Ar  833  0.1074514E+02  0.1586111E+00  0.4298925E+02  0.0000000E+00
Ar  834  0.1338724E+02  0.2770166E+01  0.4285578E+02  0.0000000E+00
Ar  835  0.1340851E+02  0.5360509E+02  0.4553890E+02  0.0000000E+00
Ar  836  0.1116342E+02  0.2827533E+01  0.4575503E+02  0.0000000E+00
Ar  837  0.1044385E+02  0.7541087E-01  0.4824322E+02  0.0000000E+00
Ar  838  0.1349906E+02  0.2265549E+01  0.4855582E+02  0.0000000E+00
Ar  839  0.1331527E+02  0.8320560E-01  0.5119840E+02  0.0000000E+00
Ar  840  0.1079062E+02  0.2491502E+01  0.5119843E+02  0.0000000E+00
Ar  841  0.1066264E+02  0.5333828E+01  0.2476125E+00  0.0000000E+00
Ar  842  0.1331467E+02  0.7910354E+01  0.2001813E+00  0.0000000E+00
Ar  843  0.1323277E+02  0.5257868E+01  0.2652012E+01  0.0000000E+00
Ar  844  0.1045699E+02  0.7845808E+01  0.2643763E+01  0.0000000E+00
Ar  845  0.1058748E+02  0.5199401E+01  0.5199401E+01  0.0000000E+00
Ar  846  0.1315026E+02  0.7958576E+01  0.5260107E+01  0.0000000E+00
Ar  847  0.1315026E+02  0.5260106E+01  0.7958577E+01  0.0000000E+00
Ar  848  0.1058071E+02  0.7929441E+01  0.7929444E+01  0.0000000E+00
Ar  849  0.1077335E+02  0.5052652E+01  0.1077334E+02  0.0000000E+00
Ar  850  0.1319104E+02  0.8023871E+01  0.1065238E+02  0.0000000E+00
Ar  851  0.1329181E+02  0.5519159E+01  0.1329180E+02  0.0000000E+00
Ar  852  0.1065238E+02  0.8023870E+01  0.1319104E+02  0.0000000E+00
Ar  853  0.1052281E+02  0.5168874E+01  0.1586141E+02  0.0000000E+00
Ar  854  0.1315505E+02  0.8122661E+01  0.1585296E+02  0.0000000E+00
Ar  855  0.1347963E+02  0.5220009E+01  0.1880211E+02  0.0000000E+00
Ar  856  0.1074620E+02  0.8031723E+01  0.1850165E+02  0.0000000E+00
Ar  857  0.1076997E+02  0.5189912E+01  0.2154725E+02  0.0000000E+00
Ar  858  0.1326959E+02  0.7967740E+01  0.2145883E+02  0.0000000E+00
Ar  859  0.1345571E+02  0.5264605E+01  0.2418247E+02  0.0000000E+00
Ar  860  0.1067682E+02  0.8031033E+01  0.2402500E+02  0.0000000E+00
Ar  861  0.1067421E+02  0.5505886E+01  0.2678825E+02  0.0000000E+00
Ar  862  0.1345497E+02  0.8206611E+01  0.2653483E+02  0.0000000E+00
Ar  863  0.1351302E+02  0.5544757E+01  0.2928759E+02  0.0000000E+00
Ar  864  0.1082979E+02  0.8062252E+01  0.2946621E+02  0.0000000E+00
Ar  865  0.1087375E+02  0.5322710E+01  0.3227572E+02  0.0000000E+00
Ar  866  0.1357511E+02  0.8021260E+01  0.3236378E+02  0.0000000E+00
Ar  867  0.1350853E+02  0.5616119E+01  0.3503467E+02  0.0000000E+00
Ar  868  0.1090901E+02  0.8270566E+01  0.3509500E+02  0.0000000E+00
Ar  869  0.1059183E+02  0.5537558E+01  0.3775915E+02  0.0000000E+00
Ar  870  0.1339304E+02  0.7952326E+01  0.3773091E+02  0.0000000E+00
Ar  871  0.1351294E+02  0.5444485E+01  0.4032206E+02  0.0000000E+00
Ar  872  0.1068013E+02  0.8296501E+01  0.4034765E+02  0.0000000E+00
Ar  873  0.1094128E+02  0.5557002E+01  0.4289299E+02  0.0000000E+00
Ar  874  0.1327940E+02  0.8257522E+01  0.4300318E+02  0.0000000E+00
Ar  875  0.1387628E+02  0.5239919E+01  0.4541651E+02  0.0000000E+00
Ar  876  0.1085166E+02  0.7949714E+01  0.4547587E+02  0.0000000E+00
Ar  877  0.1104760E+02  0.5185122E+01  0.4861727E+02  0.0000000E+00
Ar  878  0.1336222E+02  0.7973377E+01  0.4840973E+02  0.0000000E+00
Ar  879  0.1350285E+02  0.5403772E+01  0.5114953E+02  0.0000000E+00
Ar  880  0.1073426E+02  0.7967653E+01  0.5117243E+02  0.0000000E+00
Ar  881  0.1067799E+02  0.1067799E+02  0.5942309E-01  0.0000000E+00
Ar  882  0.1347655E+02  0.1347654E+02  0.5341705E+02  0.0000000E+00
Ar  883  0.1343541E+02  0.1069792E+02  0.2456925E+01  0.0000000E+00
Ar  884  0.1069792E+02  0.1343541E+02  0.2456925E+01  0.0000000E+00
Ar  885  0.1077334E+02  0.1077334E+02  0.5052650E+01  0.0000000E+00
Ar  886  0.1329181E+02  0.1329181E+02  0.5519159E+01  0.0000000E+00
Ar  887  0.1319104E+02  0.1065238E+02  0.8023872E+01  0.0000000E+00
Ar  888  0.1065238E+02  0.1319104E+02  0.8023869E+01  0.0000000E+00
Ar  889  0.1078170E+02  0.1078170E+02  0.1078170E+02  0.0000000E+00
Ar  890  0.1343894E+02  0.1343894E+02  0.1063647E+02  0.0000000E+00
Ar  891  0.1343894E+02  0.1063647E+02  0.1343894E+02  0.0000000E+00
Ar  892  0.1063647E+02  0.1343894E+02  0.1343894E+02  0.0000000E+00
Ar  893  0.1088846E+02  0.1088846E+02  0.1576823E+02  0.0000000E+00
Ar  894  0.1356079E+02  0.1356079E+02  0.1612572E+02  0.0000000E+00
Ar  895  0.1344294E+02  0.1080325E+02  0.1842484E+02  0.0000000E+00
Ar  896  0.1080325E+02  0.1344294E+02  0.1842484E+02  0.0000000E+00
Ar  897  0.1050805E+02  0.1050805E+02  0.2123081E+02  0.0000000E+00
Ar  898  0.1326869E+02  0.1326869E+02  0.2128446E+02  0.0000000E+00
Ar  899  0.1353039E+02  0.1091673E+02  0.2401282E+02  0.0000000E+00
Ar  900  0.1091674E+02  0.1353038E+02  0.2401282E+02  0.0000000E+00
Ar  901  0.1068977E+02  0.1068977E+02  0.2686215E+02  0.0000000E+00
Ar  902  0.1332213E+02  0.1332213E+02  0.2673854E+02  0.0000000E+00
Ar  903  0.1347897E+02  0.1069033E+02  0.2935893E+02  0.0000000E+00
Ar  904  0.1069032E+02  0.1347896E+02  0.2935893E+02  0.0000000E+00
Ar  905  0.1094296E+02  0.1094295E+02  0.3227428E+02  0.0000000E+00
Ar  906  0.1342929E+02  0.1342930E+02  0.3212314E+02  0.0000000E+00
Ar  907  0.1350370E+02  0.1089411E+02  0.3488512E+02  0.0000000E+00
Ar  908  0.1089411E+02  0.1350369E+02  0.3488512E+02  0.0000000E+00
Ar  909  0.1090770E+02  0.1090771E+02  0.3767895E+02  0.0000000E+00
Ar  910  0.1355817E+02  0.1355817E+02  0.3755925E+02  0.0000000E+00
Ar  911  0.1337452E+02  0.1069863E+02  0.4035086E+02  0.0000000E+00
Ar  912  0.1069863E+02  0.1337452E+02  0.4035086E+02  0.0000000E+00
Ar  913  0.1071575E+02  0.1071575E+02  0.4298871E+02  0.0000000E+00
Ar  914  0.1339293E+02  0.1339293E+02  0.4265894E+02  0.0000000E+00
Ar  915  0.1343252E+02  0.1090452E+02  0.4554638E+02  0.0000000E+00
Ar  916  0.1090453E+02  0.1343251E+02  0.4554639E+02  0.0000000E+00
Ar  917  0.1050017E+02  0.1050017E+02  0.4827814E+02  0.0000000E+00
Ar  918  0.1385926E+02  0.1385926E+02  0.4799120E+02  0.0000000E+00
Ar  919  0.1315467E+02  0.1053377E+02  0.5084896E+02  0.0000000E+00
Ar  920  0.1053378E+02  0.1315466E+02  0.5084897E+02  0.0000000E+00
Ar  921  0.1074231E+02  0.1590204E+02  0.5357161E+02  0.0000000E+00
Ar  922  0.1351243E+02  0.1866217E+02  0.1118017E+00  0.0000000E+00
Ar  923  0.1342249E+02  0.1594242E+02  0.2526235E+01  0.0000000E+00
Ar  924  0.1065645E+02  0.1891757E+02  0.2647645E+01  0.0000000E+00
Ar  925  0.1052282E+02  0.1586142E+02  0.5168879E+01  0.0000000E+00
Ar  926  0.1347963E+02  0.1880211E+02  0.5220009E+01  0.0000000E+00
Ar  927  0.1315505E+02  0.1585296E+02  0.8122662E+01  0.0000000E+00
Ar  928  0.1074620E+02  0.1850165E+02  0.8031725E+01  0.0000000E+00
Ar  929  0.1088846E+02  0.1576823E+02  0.1088846E+02  0.0000000E+00
Ar  930  0.1344294E+02  0.1842484E+02  0.1080325E+02  0.0000000E+00
Ar  931  0.1356079E+02  0.1612572E+02  0.1356079E+02  0.0000000E+00
Ar  932  0.1080325E+02  0.1842484E+02  0.1344294E+02  0.0000000E+00
Ar  933  0.1086284E+02  0.1605836E+02  0.1605836E+02  0.0000000E+00
Ar  934  0.1342801E+02  0.1872911E+02  0.1610363E+02  0.0000000E+00
Ar  935  0.1342801E+02  0.1610363E+02  0.1872911E+02  0.0000000E+00
Ar  936  0.1061875E+02  0.1868731E+02  0.1868732E+02  0.0000000E+00
Ar  937  0.1067469E+02  0.1594775E+02  0.2146226E+02  0.0000000E+00
Ar  938  0.1320062E+02  0.1869201E+02  0.2122824E+02  0.0000000E+00
Ar  939  0.1333753E+02  0.1618699E+02  0.2399817E+02  0.0000000E+00
Ar  940  0.1050501E+02  0.1860104E+02  0.2413964E+02  0.0000000E+00
Ar  941  0.1097829E+02  0.1591212E+02  0.2678737E+02  0.0000000E+00
Ar  942  0.1349019E+02  0.1868102E+02  0.2692663E+02  0.0000000E+00
Ar  943  0.1333558E+02  0.1626155E+02  0.2953614E+02  0.0000000E+00
Ar  944  0.1076887E+02  0.1874688E+02  0.2936264E+02  0.0000000E+00
Ar  945  0.1064929E+02  0.1627040E+02  0.3237135E+02  0.0000000E+00
Ar  946  0.1328695E+02  0.1880548E+02  0.3221486E+02  0.0000000E+00
Ar  947  0.1346843E+02  0.1613228E+02  0.3503493E+02  0.0000000E+00
Ar  948  0.1069990E+02  0.1907203E+02  0.3479683E+02  0.0000000E+00
Ar  949  0.1057913E+02  0.1598166E+02  0.3768950E+02  0.0000000E+00
Ar  950  0.1354678E+02  0.1897057E+02  0.3763985E+02  0.0000000E+00
Ar  951  0.1341943E+02  0.1620641E+02  0.4008628E+02  0.0000000E+00
Ar  952  0.1073422E+02  0.1883462E+02  0.4024795E+02  0.0000000E+00
Ar  953  0.1086427E+02  0.1630073E+02  0.4269409E+02  0.0000000E+00
Ar  954  0.1349797E+02  0.1877534E+02  0.4267501E+02  0.0000000E+00
Ar  955  0.1341009E+02  0.1620863E+02  0.4524292E+02  0.0000000E+00
Ar  956  0.1074882E+02  0.1895908E+02  0.4526904E+02  0.0000000E+00
Ar  957  0.1074528E+02  0.1604335E+02  0.4837616E+02  0.0000000E+00
Ar  958  0.1350577E+02  0.1892161E+02  0.4809066E+02  0.0000000E+00
Ar  959  0.1363323E+02  0.1616119E+02  0.5102020E+02  0.0000000E+00
Ar  960  0.1092367E+02  0.1879846E+02  0.5080077E+02  0.0000000E+00
Ar  961  0.1076323E+02  0.2130342E+02  0.5339491E+02  0.0000000E+00
Ar  962  0.1344427E+02  0.2388364E+02  0.5356568E+02  0.0000000E+00
Ar  963  0.1330145E+02  0.2137082E+02  0.2578778E+01  0.0000000E+00
Ar  964  0.1075579E+02  0.2404972E+02  0.2604779E+01  0.0000000E+00
Ar  965  0.1076997E+02  0.2154725E+02  0.5189911E+01  0.0000000E+00
Ar  966  0.1345571E+02  0.2418247E+02  0.5264606E+01  0.0000000E+00
Ar  967  0.1326959E+02  0.2145883E+02  0.7967742E+01  0.0000000E+00
Ar  968  0.1067682E+02  0.2402500E+02  0.8031032E+01  0.0000000E+00
Ar  969  0.1050805E+02  0.2123081E+02  0.1050805E+02  0.0000000E+00
Ar  970  0.1353039E+02  0.2401282E+02  0.1091673E+02  0.0000000E+00
Ar  971  0.1326869E+02  0.2128446E+02  0.1326869E+02  0.0000000E+00
Ar  972  0.1091674E+02  0.2401282E+02  0.1353038E+02  0.0000000E+00
Ar  973  0.1067469E+02  0.2146226E+02  0.1594775E+02  0.0000000E+00
Ar  974  0.1333753E+02  0.2399818E+02  0.1618699E+02  0.0000000E+00
Ar  975  0.1320062E+02  0.2122824E+02  0.1869201E+02  0.0000000E+00
Ar  976  0.1050501E+02  0.2413964E+02  0.1860104E+02  0.0000000E+00
Ar  977  0.1057256E+02  0.2179127E+02  0.2179127E+02  0.0000000E+00
Ar  978  0.1333501E+02  0.2403541E+02  0.2116957E+02  0.0000000E+00
Ar  979  0.1333501E+02  0.2116958E+02  0.2403541E+02  0.0000000E+00
Ar  980  0.1088975E+02  0.2424966E+02  0.2424966E+02  0.0000000E+00
Ar  981  0.1058501E+02  0.2151929E+02  0.2690461E+02  0.0000000E+00
Ar  982  0.1333782E+02  0.2410208E+02  0.2679965E+02  0.0000000E+00
Ar  983  0.1344455E+02  0.2146324E+02  0.2955442E+02  0.0000000E+00
Ar  984  0.1074152E+02  0.2424184E+02  0.2945834E+02  0.0000000E+00
Ar  985  0.1076648E+02  0.2166524E+02  0.3207156E+02  0.0000000E+00
Ar  986  0.1344786E+02  0.2423982E+02  0.3226513E+02  0.0000000E+00
Ar  987  0.1361000E+02  0.2157941E+02  0.3495366E+02  0.0000000E+00
Ar  988  0.1089362E+02  0.2432090E+02  0.3479434E+02  0.0000000E+00
Ar  989  0.1090081E+02  0.2155872E+02  0.3767408E+02  0.0000000E+00
Ar  990  0.1364475E+02  0.2427685E+02  0.3772378E+02  0.0000000E+00
Ar  991  0.1359940E+02  0.2163995E+02  0.4030029E+02  0.0000000E+00
Ar  992  0.1089294E+02  0.2433248E+02  0.4023005E+02  0.0000000E+00
Ar  993  0.1077005E+02  0.2172425E+02  0.4290229E+02  0.0000000E+00
Ar  994  0.1342911E+02  0.2420138E+02  0.4275107E+02  0.0000000E+00
Ar  995  0.1343421E+02  0.2165527E+02  0.4556177E+02  0.0000000E+00
Ar  996  0.1070172E+02  0.2435242E+02  0.4567480E+02  0.0000000E+00
Ar  997  0.1070446E+02  0.2180721E+02  0.4844889E+02  0.0000000E+00
Ar  998  0.1364812E+02  0.2423237E+02  0.4850080E+02  0.0000000E+00
Ar  999  0.1354074E+02  0.2140620E+02  0.5092030E+02  0.0000000E+00
Ar 1000  0.1080728E+02  0.2395074E+02  0.5115854E+02  0.0000000E+00
Ar 1001  0.1071477E+02  0.2692525E+02  0.5355528E+02  0.0000000E+00
Ar 1002  0.1394227E+02  0.2965129E+02  0.3053917E+00  0.0000000E+00
Ar 1003  0.1355574E+02  0.2654856E+02  0.2494210E+01  0.0000000E+00
Ar 1004  0.1097818E+02  0.2926662E+02  0.3059032E+01  0.0000000E+00
Ar 1005  0.1067421E+02  0.2678825E+02  0.5505887E+01  0.0000000E+00
Ar 1006  0.1351302E+02  0.2928760E+02  0.5544755E+01  0.0000000E+00
Ar 1007  0.1345498E+02  0.2653483E+02  0.8206611E+01  0.0000000E+00
Ar 1008  0.1082979E+02  0.2946621E+02  0.8062251E+01  0.0000000E+00
Ar 1009  0.1068977E+02  0.2686215E+02  0.1068977E+02  0.0000000E+00
Ar 1010  0.1347897E+02  0.2935893E+02  0.1069033E+02  0.0000000E+00
Ar 1011  0.1332213E+02  0.2673854E+02  0.1332213E+02  0.0000000E+00
Ar 1012  0.1069032E+02  0.2935893E+02  0.1347896E+02  0.0000000E+00
Ar 1013  0.1097829E+02  0.2678737E+02  0.1591212E+02  0.0000000E+00
Ar 1014  0.1333558E+02  0.2953614E+02  0.1626155E+02  0.0000000E+00
Ar 1015  0.1349019E+02  0.2692663E+02  0.1868102E+02  0.0000000E+00
Ar 1016  0.1076887E+02  0.2936264E+02  0.1874688E+02  0.0000000E+00
Ar 1017  0.1058501E+02  0.2690461E+02  0.2151929E+02  0.0000000E+00
Ar 1018  0.1344455E+02  0.2955442E+02  0.2146324E+02  0.0000000E+00
Ar 1019  0.1333781E+02  0.2679966E+02  0.2410208E+02  0.0000000E+00
Ar 1020  0.1074152E+02  0.2945834E+02  0.2424184E+02  0.0000000E+00
Ar 1021  0.1081014E+02  0.2692866E+02  0.2692866E+02  0.0000000E+00
Ar 1022  0.1332814E+02  0.2964489E+02  0.2694414E+02  0.0000000E+00
Ar 1023  0.1332814E+02  0.2694414E+02  0.2964489E+02  0.0000000E+00
Ar 1024  0.1073471E+02  0.2970315E+02  0.2970315E+02  0.0000000E+00
Ar 1025  0.1073553E+02  0.2698227E+02  0.3206696E+02  0.0000000E+00
Ar 1026  0.1359507E+02  0.2945521E+02  0.3213788E+02  0.0000000E+00
Ar 1027  0.1362074E+02  0.2689965E+02  0.3491511E+02  0.0000000E+00
Ar 1028  0.1084163E+02  0.2966348E+02  0.3480730E+02  0.0000000E+00
Ar 1029  0.1079430E+02  0.2700101E+02  0.3742028E+02  0.0000000E+00
Ar 1030  0.1361873E+02  0.2952715E+02  0.3731582E+02  0.0000000E+00
Ar 1031  0.1369280E+02  0.2683845E+02  0.4037978E+02  0.0000000E+00
Ar 1032  0.1085836E+02  0.2931771E+02  0.4013595E+02  0.0000000E+00
Ar 1033  0.1094534E+02  0.2699774E+02  0.4285621E+02  0.0000000E+00
Ar 1034  0.1359538E+02  0.2951100E+02  0.4272987E+02  0.0000000E+00
Ar 1035  0.1335217E+02  0.2677961E+02  0.4568370E+02  0.0000000E+00
Ar 1036  0.1109622E+02  0.2963973E+02  0.4544996E+02  0.0000000E+00
Ar 1037  0.1064889E+02  0.2659409E+02  0.4841158E+02  0.0000000E+00
Ar 1038  0.1345024E+02  0.2982821E+02  0.4836609E+02  0.0000000E+00
Ar 1039  0.1366304E+02  0.2685313E+02  0.5113701E+02  0.0000000E+00
Ar 1040  0.1101790E+02  0.2969485E+02  0.5086713E+02  0.0000000E+00
Ar 1041  0.1101396E+02  0.3196320E+02  0.2021561E+00  0.0000000E+00
Ar 1042  0.1322340E+02  0.3494670E+02  0.2798039E+00  0.0000000E+00
Ar 1043  0.1347688E+02  0.3223079E+02  0.2943157E+01  0.0000000E+00
Ar 1044  0.1091233E+02  0.3475302E+02  0.2891649E+01  0.0000000E+00
Ar 1045  0.1087375E+02  0.3227572E+02  0.5322707E+01  0.0000000E+00
Ar 1046  0.1350853E+02  0.3503468E+02  0.5616121E+01  0.0000000E+00
Ar 1047  0.1357511E+02  0.3236378E+02  0.8021257E+01  0.0000000E+00
Ar 1048  0.1090901E+02  0.3509500E+02  0.8270565E+01  0.0000000E+00
Ar 1049  0.1094296E+02  0.3227427E+02  0.1094296E+02  0.0000000E+00
Ar 1050  0.1350369E+02  0.3488511E+02  0.1089411E+02  0.0000000E+00
Ar 1051  0.1342929E+02  0.3212313E+02  0.1342930E+02  0.0000000E+00
Ar 1052  0.1089411E+02  0.3488512E+02  0.1350369E+02  0.0000000E+00
Ar 1053  0.1064929E+02  0.3237135E+02  0.1627040E+02  0.0000000E+00
Ar 1054  0.1346843E+02  0.3503493E+02  0.1613227E+02  0.0000000E+00
Ar 1055  0.1328695E+02  0.3221486E+02  0.1880548E+02  0.0000000E+00
Ar 1056  0.1069990E+02  0.3479683E+02  0.1907203E+02  0.0000000E+00
Ar 1057  0.1076648E+02  0.3207156E+02  0.2166524E+02  0.0000000E+00
Ar 1058  0.1361000E+02  0.3495366E+02  0.2157941E+02  0.0000000E+00
Ar 1059  0.1344786E+02  0.3226513E+02  0.2423982E+02  0.0000000E+00
Ar 1060  0.1089362E+02  0.3479434E+02  0.2432089E+02  0.0000000E+00
Ar 1061  0.1073553E+02  0.3206696E+02  0.2698227E+02  0.0000000E+00
Ar 1062  0.1362074E+02  0.3491511E+02  0.2689965E+02  0.0000000E+00
Ar 1063  0.1359507E+02  0.3213788E+02  0.2945521E+02  0.0000000E+00
Ar 1064  0.1084163E+02  0.3480730E+02  0.2966348E+02  0.0000000E+00
Ar 1065  0.1128196E+02  0.3248350E+02  0.3248350E+02  0.0000000E+00
Ar 1066  0.1355508E+02  0.3501989E+02  0.3223149E+02  0.0000000E+00
Ar 1067  0.1355508E+02  0.3223148E+02  0.3501988E+02  0.0000000E+00
Ar 1068  0.1089680E+02  0.3500607E+02  0.3500607E+02  0.0000000E+00
Ar 1069  0.1084934E+02  0.3219778E+02  0.3750259E+02  0.0000000E+00
Ar 1070  0.1352622E+02  0.3517627E+02  0.3779411E+02  0.0000000E+00
Ar 1071  0.1361687E+02  0.3233302E+02  0.4008257E+02  0.0000000E+00
Ar 1072  0.1094291E+02  0.3482656E+02  0.4016797E+02  0.0000000E+00
Ar 1073  0.1101187E+02  0.3226071E+02  0.4281590E+02  0.0000000E+00
Ar 1074  0.1372073E+02  0.3507629E+02  0.4274787E+02  0.0000000E+00
Ar 1075  0.1372487E+02  0.3235906E+02  0.4566515E+02  0.0000000E+00
Ar 1076  0.1093040E+02  0.3521054E+02  0.4584407E+02  0.0000000E+00
Ar 1077  0.1109355E+02  0.3223788E+02  0.4836093E+02  0.0000000E+00
Ar 1078  0.1368966E+02  0.3515009E+02  0.4861401E+02  0.0000000E+00
Ar 1079  0.1354484E+02  0.3239061E+02  0.5122823E+02  0.0000000E+00
Ar 1080  0.1081231E+02  0.3504395E+02  0.5114905E+02  0.0000000E+00
Ar 1081  0.1069422E+02  0.3780245E+02  0.1540650E+00  0.0000000E+00
Ar 1082  0.1363000E+02  0.4017233E+02  0.8001941E-01  0.0000000E+00
Ar 1083  0.1328638E+02  0.3771249E+02  0.2971675E+01  0.0000000E+00
Ar 1084  0.1095149E+02  0.4029372E+02  0.2970935E+01  0.0000000E+00
Ar 1085  0.1059183E+02  0.3775915E+02  0.5537557E+01  0.0000000E+00
Ar 1086  0.1351294E+02  0.4032206E+02  0.5444484E+01  0.0000000E+00
Ar 1087  0.1339304E+02  0.3773091E+02  0.7952329E+01  0.0000000E+00
Ar 1088  0.1068013E+02  0.4034765E+02  0.8296499E+01  0.0000000E+00
Ar 1089  0.1090770E+02  0.3767895E+02  0.1090770E+02  0.0000000E+00
Ar 1090  0.1337452E+02  0.4035086E+02  0.1069863E+02  0.0000000E+00
Ar 1091  0.1355817E+02  0.3755924E+02  0.1355817E+02  0.0000000E+00
Ar 1092  0.1069863E+02  0.4035086E+02  0.1337452E+02  0.0000000E+00
Ar 1093  0.1057913E+02  0.3768950E+02  0.1598166E+02  0.0000000E+00
Ar 1094  0.1341943E+02  0.4008628E+02  0.1620641E+02  0.0000000E+00
Ar 1095  0.1354678E+02  0.3763985E+02  0.1897057E+02  0.0000000E+00
Ar 1096  0.1073421E+02  0.4024795E+02  0.1883462E+02  0.0000000E+00
Ar 1097  0.1090081E+02  0.3767408E+02  0.2155872E+02  0.0000000E+00
Ar 1098  0.1359940E+02  0.4030029E+02  0.2163995E+02  0.0000000E+00
Ar 1099  0.1364475E+02  0.3772378E+02  0.2427685E+02  0.0000000E+00
Ar 1100  0.1089294E+02  0.4023005E+02  0.2433248E+02  0.0000000E+00
Ar 1101  0.1079430E+02  0.3742028E+02  0.2700102E+02  0.0000000E+00
Ar 1102  0.1369280E+02  0.4037978E+02  0.2683845E+02  0.0000000E+00
Ar 1103  0.1361873E+02  0.3731582E+02  0.2952715E+02  0.0000000E+00
Ar 1104  0.1085836E+02  0.4013595E+02  0.2931771E+02  0.0000000E+00
Ar 1105  0.1084934E+02  0.3750259E+02  0.3219777E+02  0.0000000E+00
Ar 1106  0.1361687E+02  0.4008257E+02  0.3233301E+02  0.0000000E+00
Ar 1107  0.1352622E+02  0.3779411E+02  0.3517627E+02  0.0000000E+00
Ar 1108  0.1094290E+02  0.4016796E+02  0.3482656E+02  0.0000000E+00
Ar 1109  0.1094354E+02  0.3765263E+02  0.3765263E+02  0.0000000E+00
Ar 1110  0.1390988E+02  0.4033545E+02  0.3770168E+02  0.0000000E+00
Ar 1111  0.1390987E+02  0.3770168E+02  0.4033545E+02  0.0000000E+00
Ar 1112  0.1121581E+02  0.4004004E+02  0.4004004E+02  0.0000000E+00
Ar 1113  0.1080637E+02  0.3771373E+02  0.4279510E+02  0.0000000E+00
Ar 1114  0.1348169E+02  0.4024957E+02  0.4286148E+02  0.0000000E+00
Ar 1115  0.1372703E+02  0.3777167E+02  0.4549149E+02  0.0000000E+00
Ar 1116  0.1099341E+02  0.4038955E+02  0.4596228E+02  0.0000000E+00
Ar 1117  0.1090874E+02  0.3777443E+02  0.4856111E+02  0.0000000E+00
Ar 1118  0.1349780E+02  0.4034543E+02  0.4841098E+02  0.0000000E+00
Ar 1119  0.1363700E+02  0.3770626E+02  0.5100277E+02  0.0000000E+00
Ar 1120  0.1079436E+02  0.4043354E+02  0.5100176E+02  0.0000000E+00
Ar 1121  0.1074514E+02  0.4298925E+02  0.1586110E+00  0.0000000E+00
Ar 1122  0.1340851E+02  0.4553890E+02  0.5360509E+02  0.0000000E+00
Ar 1123  0.1338724E+02  0.4285578E+02  0.2770164E+01  0.0000000E+00
Ar 1124  0.1116342E+02  0.4575503E+02  0.2827534E+01  0.0000000E+00
Ar 1125  0.1094128E+02  0.4289300E+02  0.5557005E+01  0.0000000E+00
Ar 1126  0.1387628E+02  0.4541651E+02  0.5239922E+01  0.0000000E+00
Ar 1127  0.1327940E+02  0.4300318E+02  0.8257521E+01  0.0000000E+00
Ar 1128  0.1085166E+02  0.4547587E+02  0.7949718E+01  0.0000000E+00
Ar 1129  0.1071575E+02  0.4298871E+02  0.1071575E+02  0.0000000E+00
Ar 1130  0.1343252E+02  0.4554638E+02  0.1090452E+02  0.0000000E+00
Ar 1131  0.1339293E+02  0.4265894E+02  0.1339292E+02  0.0000000E+00
Ar 1132  0.1090452E+02  0.4554639E+02  0.1343252E+02  0.0000000E+00
Ar 1133  0.1086427E+02  0.4269409E+02  0.1630073E+02  0.0000000E+00
Ar 1134  0.1341008E+02  0.4524292E+02  0.1620863E+02  0.0000000E+00
Ar 1135  0.1349798E+02  0.4267501E+02  0.1877534E+02  0.0000000E+00
Ar 1136  0.1074882E+02  0.4526904E+02  0.1895908E+02  0.0000000E+00
Ar 1137  0.1077005E+02  0.4290229E+02  0.2172424E+02  0.0000000E+00
Ar 1138  0.1343421E+02  0.4556177E+02  0.2165527E+02  0.0000000E+00
Ar 1139  0.1342911E+02  0.4275108E+02  0.2420139E+02  0.0000000E+00
Ar 1140  0.1070173E+02  0.4567480E+02  0.2435242E+02  0.0000000E+00
Ar 1141  0.1094534E+02  0.4285621E+02  0.2699774E+02  0.0000000E+00
Ar 1142  0.1335217E+02  0.4568370E+02  0.2677961E+02  0.0000000E+00
Ar 1143  0.1359538E+02  0.4272987E+02  0.2951100E+02  0.0000000E+00
Ar 1144  0.1109622E+02  0.4544996E+02  0.2963973E+02  0.0000000E+00
Ar 1145  0.1101187E+02  0.4281591E+02  0.3226071E+02  0.0000000E+00
Ar 1146  0.1372486E+02  0.4566516E+02  0.3235906E+02  0.0000000E+00
Ar 1147  0.1372073E+02  0.4274787E+02  0.3507629E+02  0.0000000E+00
Ar 1148  0.1093040E+02  0.4584407E+02  0.3521054E+02  0.0000000E+00
Ar 1149  0.1080637E+02  0.4279510E+02  0.3771373E+02  0.0000000E+00
Ar 1150  0.1372703E+02  0.4549149E+02  0.3777167E+02  0.0000000E+00
Ar 1151  0.1348169E+02  0.4286147E+02  0.4024957E+02  0.0000000E+00
Ar 1152  0.1099341E+02  0.4596229E+02  0.4038955E+02  0.0000000E+00
Ar 1153  0.1068705E+02  0.4283253E+02  0.4283253E+02  0.0000000E+00
Ar 1154  0.1365242E+02  0.4539555E+02  0.4291082E+02  0.0000000E+00
Ar 1155  0.1365242E+02  0.4291083E+02  0.4539555E+02  0.0000000E+00
Ar 1156  0.1086468E+02  0.4534129E+02  0.4534129E+02  0.0000000E+00
Ar 1157  0.1060262E+02  0.4297663E+02  0.4835866E+02  0.0000000E+00
Ar 1158  0.1331264E+02  0.4552321E+02  0.4840535E+02  0.0000000E+00
Ar 1159  0.1317164E+02  0.4320218E+02  0.5091978E+02  0.0000000E+00
Ar 1160  0.1089274E+02  0.4576510E+02  0.5129125E+02  0.0000000E+00
Ar 1161  0.1044386E+02  0.4824322E+02  0.7540977E-01  0.0000000E+00
Ar 1162  0.1331527E+02  0.5119840E+02  0.8320597E-01  0.0000000E+00
Ar 1163  0.1349906E+02  0.4855581E+02  0.2265551E+01  0.0000000E+00
Ar 1164  0.1079062E+02  0.5119843E+02  0.2491501E+01  0.0000000E+00
Ar 1165  0.1104760E+02  0.4861727E+02  0.5185123E+01  0.0000000E+00
Ar 1166  0.1350285E+02  0.5114952E+02  0.5403769E+01  0.0000000E+00
Ar 1167  0.1336222E+02  0.4840973E+02  0.7973380E+01  0.0000000E+00
Ar 1168  0.1073426E+02  0.5117243E+02  0.7967649E+01  0.0000000E+00
Ar 1169  0.1050017E+02  0.4827814E+02  0.1050017E+02  0.0000000E+00
Ar 1170  0.1315467E+02  0.5084897E+02  0.1053377E+02  0.0000000E+00
Ar 1171  0.1385926E+02  0.4799120E+02  0.1385926E+02  0.0000000E+00
Ar 1172  0.1053377E+02  0.5084897E+02  0.1315467E+02  0.0000000E+00
Ar 1173  0.1074528E+02  0.4837617E+02  0.1604335E+02  0.0000000E+00
Ar 1174  0.1363323E+02  0.5102020E+02  0.1616118E+02  0.0000000E+00
Ar 1175  0.1350576E+02  0.4809067E+02  0.1892161E+02  0.0000000E+00
Ar 1176  0.1092367E+02  0.5080077E+02  0.1879846E+02  0.0000000E+00
Ar 1177  0.1070447E+02  0.4844889E+02  0.2180721E+02  0.0000000E+00
Ar 1178  0.1354074E+02  0.5092029E+02  0.2140619E+02  0.0000000E+00
Ar 1179  0.1364812E+02  0.4850080E+02  0.2423237E+02  0.0000000E+00
Ar 1180  0.1080727E+02  0.5115855E+02  0.2395074E+02  0.0000000E+00
Ar 1181  0.1064888E+02  0.4841158E+02  0.2659409E+02  0.0000000E+00
Ar 1182  0.1366304E+02  0.5113701E+02  0.2685312E+02  0.0000000E+00
Ar 1183  0.1345024E+02  0.4836609E+02  0.2982821E+02  0.0000000E+00
Ar 1184  0.1101790E+02  0.5086712E+02  0.2969485E+02  0.0000000E+00
Ar 1185  0.1109355E+02  0.4836094E+02  0.3223789E+02  0.0000000E+00
Ar 1186  0.1354484E+02  0.5122823E+02  0.3239061E+02  0.0000000E+00
Ar 1187  0.1368966E+02  0.4861401E+02  0.3515009E+02  0.0000000E+00
Ar 1188  0.1081231E+02  0.5114905E+02  0.3504395E+02  0.0000000E+00
Ar 1189  0.1090873E+02  0.4856111E+02  0.3777443E+02  0.0000000E+00
Ar 1190  0.1363700E+02  0.5100277E+02  0.3770625E+02  0.0000000E+00
Ar 1191  0.1349780E+02  0.4841098E+02  0.4034542E+02  0.0000000E+00
Ar 1192  0.1079436E+02  0.5100176E+02  0.4043354E+02  0.0000000E+00
Ar 1193  0.1060262E+02  0.4835866E+02  0.4297663E+02  0.0000000E+00
Ar 1194  0.1317164E+02  0.5091978E+02  0.4320217E+02  0.0000000E+00
Ar 1195  0.1331264E+02  0.4840535E+02  0.4552320E+02  0.0000000E+00
Ar 1196  0.1089275E+02  0.5129125E+02  0.4576510E+02  0.0000000E+00
Ar 1197  0.1058640E+02  0.4827720E+02  0.4827720E+02  0.0000000E+00
Ar 1198  0.1339271E+02  0.5115429E+02  0.4822937E+02  0.0000000E+00
Ar 1199  0.1339271E+02  0.4822937E+02  0.5115429E+02  0.0000000E+00
Ar 1200  0.1089267E+02  0.5084624E+02  0.5084624E+02  0.0000000E+00
Ar 1201  0.1637656E+02  0.5356775E+02  0.5356776E+02  0.0000000E+00
Ar 1202  0.1890153E+02  0.2686373E+01  0.1493679E+00  0.0000000E+00
Ar 1203  0.1890153E+02  0.1493673E+00  0.2686375E+01  0.0000000E+00
Ar 1204  0.1630672E+02  0.2845652E+01  0.2845654E+01  0.0000000E+00
Ar 1205  0.1634661E+02  0.1060428E+00  0.5307401E+01  0.0000000E+00
Ar 1206  0.1872026E+02  0.2884539E+01  0.5526256E+01  0.0000000E+00
Ar 1207  0.1874281E+02  0.5345654E+02  0.8221874E+01  0.0000000E+00
Ar 1208  0.1601929E+02  0.2502045E+01  0.8185423E+01  0.0000000E+00
Ar 1209  0.1590204E+02  0.5357161E+02  0.1074231E+02  0.0000000E+00
Ar 1210  0.1891756E+02  0.2647644E+01  0.1065645E+02  0.0000000E+00
Ar 1211  0.1866217E+02  0.1118002E+00  0.1351243E+02  0.0000000E+00
Ar 1212  0.1594241E+02  0.2526233E+01  0.1342249E+02  0.0000000E+00
Ar 1213  0.1636470E+02  0.5356487E+02  0.1636470E+02  0.0000000E+00
Ar 1214  0.1872824E+02  0.2746031E+01  0.1608093E+02  0.0000000E+00
Ar 1215  0.1900488E+02  0.5351235E+02  0.1900488E+02  0.0000000E+00
Ar 1216  0.1608093E+02  0.2746029E+01  0.1872824E+02  0.0000000E+00
Ar 1217  0.1607479E+02  0.5339443E+02  0.2136488E+02  0.0000000E+00
Ar 1218  0.1878365E+02  0.2746610E+01  0.2159214E+02  0.0000000E+00
Ar 1219  0.1889143E+02  0.1506679E+00  0.2399944E+02  0.0000000E+00
Ar 1220  0.1603967E+02  0.2623129E+01  0.2403429E+02  0.0000000E+00
Ar 1221  0.1622227E+02  0.2198495E+00  0.2671637E+02  0.0000000E+00
Ar 1222  0.1886801E+02  0.2763991E+01  0.2708604E+02  0.0000000E+00
Ar 1223  0.1888979E+02  0.5347380E+02  0.2958744E+02  0.0000000E+00
Ar 1224  0.1626466E+02  0.2809984E+01  0.2985118E+02  0.0000000E+00
Ar 1225  0.1624300E+02  0.3580960E-01  0.3255941E+02  0.0000000E+00
Ar 1226  0.1882367E+02  0.2577328E+01  0.3227470E+02  0.0000000E+00
Ar 1227  0.1895771E+02  0.5349685E+02  0.3484346E+02  0.0000000E+00
Ar 1228  0.1612827E+02  0.2885619E+01  0.3481869E+02  0.0000000E+00
Ar 1229  0.1614225E+02  0.1881793E+00  0.3749421E+02  0.0000000E+00
Ar 1230  0.1881692E+02  0.2789598E+01  0.3704542E+02  0.0000000E+00
Ar 1231  0.1879361E+02  0.2621301E+00  0.3997538E+02  0.0000000E+00
Ar 1232  0.1620394E+02  0.2847316E+01  0.4001643E+02  0.0000000E+00
Ar 1233  0.1608055E+02  0.5349089E+02  0.4280306E+02  0.0000000E+00
Ar 1234  0.1866578E+02  0.2745794E+01  0.4272676E+02  0.0000000E+00
Ar 1235  0.1881649E+02  0.5353463E+02  0.4566781E+02  0.0000000E+00
Ar 1236  0.1616912E+02  0.2316866E+01  0.4557480E+02  0.0000000E+00
Ar 1237  0.1607114E+02  0.5349353E+02  0.4863287E+02  0.0000000E+00
Ar 1238  0.1854110E+02  0.2908504E+01  0.4822695E+02  0.0000000E+00
Ar 1239  0.1893601E+02  0.5360355E+02  0.5099713E+02  0.0000000E+00
Ar 1240  0.1609895E+02  0.2845746E+01  0.5097881E+02  0.0000000E+00
Ar 1241  0.1634661E+02  0.5307399E+01  0.1060425E+00  0.0000000E+00
Ar 1242  0.1874281E+02  0.8221873E+01  0.5345654E+02  0.0000000E+00
Ar 1243  0.1872026E+02  0.5526254E+01  0.2884541E+01  0.0000000E+00
Ar 1244  0.1601928E+02  0.8185423E+01  0.2502044E+01  0.0000000E+00
Ar 1245  0.1617691E+02  0.5379560E+01  0.5379558E+01  0.0000000E+00
Ar 1246  0.1878589E+02  0.8369001E+01  0.5431982E+01  0.0000000E+00
Ar 1247  0.1878589E+02  0.5431982E+01  0.8369002E+01  0.0000000E+00
Ar 1248  0.1582444E+02  0.8183317E+01  0.8183319E+01  0.0000000E+00
Ar 1249  0.1586141E+02  0.5168871E+01  0.1052281E+02  0.0000000E+00
Ar 1250  0.1850165E+02  0.8031721E+01  0.1074619E+02  0.0000000E+00
Ar 1251  0.1880211E+02  0.5220007E+01  0.1347963E+02  0.0000000E+00
Ar 1252  0.1585296E+02  0.8122658E+01  0.1315505E+02  0.0000000E+00
Ar 1253  0.1592141E+02  0.5247932E+01  0.1592141E+02  0.0000000E+00
Ar 1254  0.1885604E+02  0.7918552E+01  0.1592131E+02  0.0000000E+00
Ar 1255  0.1873809E+02  0.5379550E+01  0.1873809E+02  0.0000000E+00
Ar 1256  0.1592131E+02  0.7918553E+01  0.1885604E+02  0.0000000E+00
Ar 1257  0.1611844E+02  0.5263924E+01  0.2175094E+02  0.0000000E+00
Ar 1258  0.1855509E+02  0.7917688E+01  0.2138804E+02  0.0000000E+00
Ar 1259  0.1868607E+02  0.5318512E+01  0.2433839E+02  0.0000000E+00
Ar 1260  0.1598627E+02  0.8026822E+01  0.2415068E+02  0.0000000E+00
Ar 1261  0.1588083E+02  0.5191446E+01  0.2674118E+02  0.0000000E+00
Ar 1262  0.1840576E+02  0.7987068E+01  0.2683300E+02  0.0000000E+00
Ar 1263  0.1876431E+02  0.5484525E+01  0.2947055E+02  0.0000000E+00
Ar 1264  0.1600331E+02  0.8223269E+01  0.2936356E+02  0.0000000E+00
Ar 1265  0.1609315E+02  0.5397361E+01  0.3226114E+02  0.0000000E+00
Ar 1266  0.1885183E+02  0.8201648E+01  0.3219839E+02  0.0000000E+00
Ar 1267  0.1901582E+02  0.5429386E+01  0.3473354E+02  0.0000000E+00
Ar 1268  0.1619709E+02  0.8144181E+01  0.3506128E+02  0.0000000E+00
Ar 1269  0.1619769E+02  0.5608490E+01  0.3781598E+02  0.0000000E+00
Ar 1270  0.1895942E+02  0.8010627E+01  0.3783555E+02  0.0000000E+00
Ar 1271  0.1879414E+02  0.5450019E+01  0.4045300E+02  0.0000000E+00
Ar 1272  0.1620435E+02  0.8139403E+01  0.4046525E+02  0.0000000E+00
Ar 1273  0.1610528E+02  0.5228305E+01  0.4284932E+02  0.0000000E+00
Ar 1274  0.1900188E+02  0.7977382E+01  0.4283278E+02  0.0000000E+00
Ar 1275  0.1859100E+02  0.5389124E+01  0.4561937E+02  0.0000000E+00
Ar 1276  0.1599962E+02  0.8123125E+01  0.4519583E+02  0.0000000E+00
Ar 1277  0.1608367E+02  0.5554641E+01  0.4824857E+02  0.0000000E+00
Ar 1278  0.1867729E+02  0.8205038E+01  0.4839196E+02  0.0000000E+00
Ar 1279  0.1871001E+02  0.5467692E+01  0.5097279E+02  0.0000000E+00
Ar 1280  0.1604035E+02  0.8199779E+01  0.5099067E+02  0.0000000E+00
Ar 1281  0.1590204E+02  0.1074231E+02  0.5357161E+02  0.0000000E+00
Ar 1282  0.1866217E+02  0.1351243E+02  0.1117991E+00  0.0000000E+00
Ar 1283  0.1891756E+02  0.1065645E+02  0.2647642E+01  0.0000000E+00
Ar 1284  0.1594241E+02  0.1342249E+02  0.2526234E+01  0.0000000E+00
Ar 1285  0.1586141E+02  0.1052281E+02  0.5168871E+01  0.0000000E+00
Ar 1286  0.1880211E+02  0.1347962E+02  0.5220008E+01  0.0000000E+00
Ar 1287  0.1850165E+02  0.1074619E+02  0.8031719E+01  0.0000000E+00
Ar 1288  0.1585296E+02  0.1315505E+02  0.8122659E+01  0.0000000E+00
Ar 1289  0.1576823E+02  0.1088846E+02  0.1088846E+02  0.0000000E+00
Ar 1290  0.1842484E+02  0.1344294E+02  0.1080325E+02  0.0000000E+00
Ar 1291  0.1842484E+02  0.1080325E+02  0.1344294E+02  0.0000000E+00
Ar 1292  0.1612572E+02  0.1356079E+02  0.1356079E+02  0.0000000E+00
Ar 1293  0.1605836E+02  0.1086284E+02  0.1605835E+02  0.0000000E+00
Ar 1294  0.1872911E+02  0.1342801E+02  0.1610363E+02  0.0000000E+00
Ar 1295  0.1868731E+02  0.1061876E+02  0.1868731E+02  0.0000000E+00
Ar 1296  0.1610363E+02  0.1342802E+02  0.1872911E+02  0.0000000E+00
Ar 1297  0.1594776E+02  0.1067469E+02  0.2146226E+02  0.0000000E+00
Ar 1298  0.1869200E+02  0.1320063E+02  0.2122825E+02  0.0000000E+00
Ar 1299  0.1860104E+02  0.1050501E+02  0.2413964E+02  0.0000000E+00
Ar 1300  0.1618699E+02  0.1333753E+02  0.2399818E+02  0.0000000E+00
Ar 1301  0.1591212E+02  0.1097829E+02  0.2678737E+02  0.0000000E+00
Ar 1302  0.1868102E+02  0.1349019E+02  0.2692662E+02  0.0000000E+00
Ar 1303  0.1874688E+02  0.1076888E+02  0.2936264E+02  0.0000000E+00
Ar 1304  0.1626155E+02  0.1333558E+02  0.2953614E+02  0.0000000E+00
Ar 1305  0.1627040E+02  0.1064929E+02  0.3237134E+02  0.0000000E+00
Ar 1306  0.1880548E+02  0.1328695E+02  0.3221486E+02  0.0000000E+00
Ar 1307  0.1907203E+02  0.1069990E+02  0.3479683E+02  0.0000000E+00
Ar 1308  0.1613228E+02  0.1346843E+02  0.3503493E+02  0.0000000E+00
Ar 1309  0.1598166E+02  0.1057912E+02  0.3768950E+02  0.0000000E+00
Ar 1310  0.1897058E+02  0.1354678E+02  0.3763986E+02  0.0000000E+00
Ar 1311  0.1883462E+02  0.1073422E+02  0.4024795E+02  0.0000000E+00
Ar 1312  0.1620641E+02  0.1341943E+02  0.4008628E+02  0.0000000E+00
Ar 1313  0.1630073E+02  0.1086426E+02  0.4269409E+02  0.0000000E+00
Ar 1314  0.1877534E+02  0.1349798E+02  0.4267501E+02  0.0000000E+00
Ar 1315  0.1895907E+02  0.1074882E+02  0.4526904E+02  0.0000000E+00
Ar 1316  0.1620863E+02  0.1341008E+02  0.4524292E+02  0.0000000E+00
Ar 1317  0.1604335E+02  0.1074528E+02  0.4837616E+02  0.0000000E+00
Ar 1318  0.1892161E+02  0.1350576E+02  0.4809066E+02  0.0000000E+00
Ar 1319  0.1879845E+02  0.1092367E+02  0.5080077E+02  0.0000000E+00
Ar 1320  0.1616118E+02  0.1363323E+02  0.5102020E+02  0.0000000E+00
Ar 1321  0.1636470E+02  0.1636470E+02  0.5356487E+02  0.0000000E+00
Ar 1322  0.1900487E+02  0.1900488E+02  0.5351235E+02  0.0000000E+00
Ar 1323  0.1872824E+02  0.1608093E+02  0.2746031E+01  0.0000000E+00
Ar 1324  0.1608093E+02  0.1872824E+02  0.2746029E+01  0.0000000E+00
Ar 1325  0.1592141E+02  0.1592141E+02  0.5247934E+01  0.0000000E+00
Ar 1326  0.1873809E+02  0.1873809E+02  0.5379551E+01  0.0000000E+00
Ar 1327  0.1885604E+02  0.1592131E+02  0.7918552E+01  0.0000000E+00
Ar 1328  0.1592131E+02  0.1885604E+02  0.7918553E+01  0.0000000E+00
Ar 1329  0.1605835E+02  0.1605835E+02  0.1086284E+02  0.0000000E+00
Ar 1330  0.1868731E+02  0.1868731E+02  0.1061876E+02  0.0000000E+00
Ar 1331  0.1872911E+02  0.1610363E+02  0.1342801E+02  0.0000000E+00
Ar 1332  0.1610363E+02  0.1872911E+02  0.1342802E+02  0.0000000E+00
Ar 1333  0.1603042E+02  0.1603042E+02  0.1603042E+02  0.0000000E+00
Ar 1334  0.1867789E+02  0.1867789E+02  0.1590896E+02  0.0000000E+00
Ar 1335  0.1867789E+02  0.1590896E+02  0.1867789E+02  0.0000000E+00
Ar 1336  0.1590896E+02  0.1867789E+02  0.1867789E+02  0.0000000E+00
Ar 1337  0.1604772E+02  0.1604773E+02  0.2156587E+02  0.0000000E+00
Ar 1338  0.1878037E+02  0.1878037E+02  0.2130012E+02  0.0000000E+00
Ar 1339  0.1879895E+02  0.1598670E+02  0.2403310E+02  0.0000000E+00
Ar 1340  0.1598670E+02  0.1879895E+02  0.2403311E+02  0.0000000E+00
Ar 1341  0.1579587E+02  0.1579587E+02  0.2661238E+02  0.0000000E+00
Ar 1342  0.1851390E+02  0.1851389E+02  0.2683746E+02  0.0000000E+00
Ar 1343  0.1892194E+02  0.1596112E+02  0.2947131E+02  0.0000000E+00
Ar 1344  0.1596112E+02  0.1892194E+02  0.2947131E+02  0.0000000E+00
Ar 1345  0.1628552E+02  0.1628552E+02  0.3216551E+02  0.0000000E+00
Ar 1346  0.1872861E+02  0.1872861E+02  0.3214912E+02  0.0000000E+00
Ar 1347  0.1876166E+02  0.1617404E+02  0.3484012E+02  0.0000000E+00
Ar 1348  0.1617404E+02  0.1876166E+02  0.3484012E+02  0.0000000E+00
Ar 1349  0.1633324E+02  0.1633323E+02  0.3739500E+02  0.0000000E+00
Ar 1350  0.1900273E+02  0.1900273E+02  0.3755947E+02  0.0000000E+00
Ar 1351  0.1902263E+02  0.1627616E+02  0.4030292E+02  0.0000000E+00
Ar 1352  0.1627616E+02  0.1902263E+02  0.4030293E+02  0.0000000E+00
Ar 1353  0.1634851E+02  0.1634851E+02  0.4292568E+02  0.0000000E+00
Ar 1354  0.1889071E+02  0.1889070E+02  0.4288322E+02  0.0000000E+00
Ar 1355  0.1896527E+02  0.1631133E+02  0.4552525E+02  0.0000000E+00
Ar 1356  0.1631133E+02  0.1896527E+02  0.4552525E+02  0.0000000E+00
Ar 1357  0.1633670E+02  0.1633670E+02  0.4824911E+02  0.0000000E+00
Ar 1358  0.1888200E+02  0.1888200E+02  0.4826882E+02  0.0000000E+00
Ar 1359  0.1900877E+02  0.1621697E+02  0.5104818E+02  0.0000000E+00
Ar 1360  0.1621697E+02  0.1900877E+02  0.5104818E+02  0.0000000E+00
Ar 1361  0.1607479E+02  0.2136488E+02  0.5339443E+02  0.0000000E+00
Ar 1362  0.1889143E+02  0.2399944E+02  0.1506704E+00  0.0000000E+00
Ar 1363  0.1878365E+02  0.2159214E+02  0.2746612E+01  0.0000000E+00
Ar 1364  0.1603967E+02  0.2403429E+02  0.2623130E+01  0.0000000E+00
Ar 1365  0.1611844E+02  0.2175094E+02  0.5263924E+01  0.0000000E+00
Ar 1366  0.1868607E+02  0.2433839E+02  0.5318513E+01  0.0000000E+00
Ar 1367  0.1855509E+02  0.2138804E+02  0.7917689E+01  0.0000000E+00
Ar 1368  0.1598627E+02  0.2415068E+02  0.8026822E+01  0.0000000E+00
Ar 1369  0.1594776E+02  0.2146226E+02  0.1067469E+02  0.0000000E+00
Ar 1370  0.1860104E+02  0.2413964E+02  0.1050501E+02  0.0000000E+00
Ar 1371  0.1869200E+02  0.2122824E+02  0.1320063E+02  0.0000000E+00
Ar 1372  0.1618699E+02  0.2399818E+02  0.1333753E+02  0.0000000E+00
Ar 1373  0.1604772E+02  0.2156587E+02  0.1604773E+02  0.0000000E+00
Ar 1374  0.1879895E+02  0.2403310E+02  0.1598670E+02  0.0000000E+00
Ar 1375  0.1878037E+02  0.2130012E+02  0.1878037E+02  0.0000000E+00
Ar 1376  0.1598670E+02  0.2403311E+02  0.1879895E+02  0.0000000E+00
Ar 1377  0.1633868E+02  0.2142857E+02  0.2142857E+02  0.0000000E+00
Ar 1378  0.1855950E+02  0.2425795E+02  0.2158366E+02  0.0000000E+00
Ar 1379  0.1855949E+02  0.2158366E+02  0.2425794E+02  0.0000000E+00
Ar 1380  0.1589895E+02  0.2426930E+02  0.2426930E+02  0.0000000E+00
Ar 1381  0.1607313E+02  0.2167710E+02  0.2692447E+02  0.0000000E+00
Ar 1382  0.1891303E+02  0.2405022E+02  0.2679544E+02  0.0000000E+00
Ar 1383  0.1850942E+02  0.2133103E+02  0.2950200E+02  0.0000000E+00
Ar 1384  0.1577819E+02  0.2416458E+02  0.2961821E+02  0.0000000E+00
Ar 1385  0.1618827E+02  0.2150031E+02  0.3238053E+02  0.0000000E+00
Ar 1386  0.1863795E+02  0.2431800E+02  0.3232499E+02  0.0000000E+00
Ar 1387  0.1883766E+02  0.2166037E+02  0.3494305E+02  0.0000000E+00
Ar 1388  0.1626322E+02  0.2405957E+02  0.3502083E+02  0.0000000E+00
Ar 1389  0.1607846E+02  0.2164546E+02  0.3764414E+02  0.0000000E+00
Ar 1390  0.1869029E+02  0.2416532E+02  0.3765290E+02  0.0000000E+00
Ar 1391  0.1877850E+02  0.2155392E+02  0.4018219E+02  0.0000000E+00
Ar 1392  0.1631769E+02  0.2420836E+02  0.4048285E+02  0.0000000E+00
Ar 1393  0.1612068E+02  0.2152218E+02  0.4293704E+02  0.0000000E+00
Ar 1394  0.1885547E+02  0.2418836E+02  0.4305676E+02  0.0000000E+00
Ar 1395  0.1880732E+02  0.2145079E+02  0.4541941E+02  0.0000000E+00
Ar 1396  0.1619730E+02  0.2427342E+02  0.4557531E+02  0.0000000E+00
Ar 1397  0.1617837E+02  0.2150426E+02  0.4827020E+02  0.0000000E+00
Ar 1398  0.1874629E+02  0.2395421E+02  0.4813239E+02  0.0000000E+00
Ar 1399  0.1897354E+02  0.2167694E+02  0.5100743E+02  0.0000000E+00
Ar 1400  0.1624414E+02  0.2426294E+02  0.5110975E+02  0.0000000E+00
Ar 1401  0.1622227E+02  0.2671637E+02  0.2198507E+00  0.0000000E+00
Ar 1402  0.1888979E+02  0.2958744E+02  0.5347380E+02  0.0000000E+00
Ar 1403  0.1886801E+02  0.2708604E+02  0.2763994E+01  0.0000000E+00
Ar 1404  0.1626465E+02  0.2985118E+02  0.2809981E+01  0.0000000E+00
Ar 1405  0.1588083E+02  0.2674118E+02  0.5191446E+01  0.0000000E+00
Ar 1406  0.1876431E+02  0.2947055E+02  0.5484523E+01  0.0000000E+00
Ar 1407  0.1840576E+02  0.2683300E+02  0.7987066E+01  0.0000000E+00
Ar 1408  0.1600331E+02  0.2936356E+02  0.8223268E+01  0.0000000E+00
Ar 1409  0.1591212E+02  0.2678737E+02  0.1097829E+02  0.0000000E+00
Ar 1410  0.1874688E+02  0.2936264E+02  0.1076887E+02  0.0000000E+00
Ar 1411  0.1868102E+02  0.2692663E+02  0.1349019E+02  0.0000000E+00
Ar 1412  0.1626156E+02  0.2953614E+02  0.1333558E+02  0.0000000E+00
Ar 1413  0.1579587E+02  0.2661238E+02  0.1579588E+02  0.0000000E+00
Ar 1414  0.1892194E+02  0.2947131E+02  0.1596112E+02  0.0000000E+00
Ar 1415  0.1851390E+02  0.2683746E+02  0.1851389E+02  0.0000000E+00
Ar 1416  0.1596113E+02  0.2947131E+02  0.1892194E+02  0.0000000E+00
Ar 1417  0.1607314E+02  0.2692447E+02  0.2167710E+02  0.0000000E+00
Ar 1418  0.1850942E+02  0.2950201E+02  0.2133103E+02  0.0000000E+00
Ar 1419  0.1891303E+02  0.2679544E+02  0.2405022E+02  0.0000000E+00
Ar 1420  0.1577819E+02  0.2961821E+02  0.2416458E+02  0.0000000E+00
Ar 1421  0.1574380E+02  0.2725852E+02  0.2725852E+02  0.0000000E+00
Ar 1422  0.1869184E+02  0.2933733E+02  0.2688148E+02  0.0000000E+00
Ar 1423  0.1869184E+02  0.2688148E+02  0.2933733E+02  0.0000000E+00
Ar 1424  0.1599392E+02  0.2967706E+02  0.2967706E+02  0.0000000E+00
Ar 1425  0.1601398E+02  0.2674459E+02  0.3227974E+02  0.0000000E+00
Ar 1426  0.1872643E+02  0.2944239E+02  0.3196523E+02  0.0000000E+00
Ar 1427  0.1899482E+02  0.2683141E+02  0.3505136E+02  0.0000000E+00
Ar 1428  0.1631538E+02  0.2932318E+02  0.3477340E+02  0.0000000E+00
Ar 1429  0.1628850E+02  0.2677877E+02  0.3740446E+02  0.0000000E+00
Ar 1430  0.1877566E+02  0.2947164E+02  0.3781989E+02  0.0000000E+00
Ar 1431  0.1896003E+02  0.2688703E+02  0.4041795E+02  0.0000000E+00
Ar 1432  0.1624577E+02  0.2985456E+02  0.4031892E+02  0.0000000E+00
Ar 1433  0.1627330E+02  0.2702056E+02  0.4308955E+02  0.0000000E+00
Ar 1434  0.1905693E+02  0.2964708E+02  0.4295617E+02  0.0000000E+00
Ar 1435  0.1878356E+02  0.2674556E+02  0.4556516E+02  0.0000000E+00
Ar 1436  0.1609303E+02  0.2954561E+02  0.4571772E+02  0.0000000E+00
Ar 1437  0.1612962E+02  0.2685192E+02  0.4828202E+02  0.0000000E+00
Ar 1438  0.1882617E+02  0.2947625E+02  0.4827771E+02  0.0000000E+00
Ar 1439  0.1868154E+02  0.2665589E+02  0.5104423E+02  0.0000000E+00
Ar 1440  0.1630658E+02  0.2949883E+02  0.5093820E+02  0.0000000E+00
Ar 1441  0.1624300E+02  0.3255942E+02  0.3580842E-01  0.0000000E+00
Ar 1442  0.1895771E+02  0.3484346E+02  0.5349686E+02  0.0000000E+00
Ar 1443  0.1882368E+02  0.3227470E+02  0.2577328E+01  0.0000000E+00
Ar 1444  0.1612827E+02  0.3481869E+02  0.2885619E+01  0.0000000E+00
Ar 1445  0.1609315E+02  0.3226113E+02  0.5397358E+01  0.0000000E+00
Ar 1446  0.1901582E+02  0.3473354E+02  0.5429384E+01  0.0000000E+00
Ar 1447  0.1885183E+02  0.3219839E+02  0.8201647E+01  0.0000000E+00
Ar 1448  0.1619709E+02  0.3506128E+02  0.8144182E+01  0.0000000E+00
Ar 1449  0.1627040E+02  0.3237134E+02  0.1064929E+02  0.0000000E+00
Ar 1450  0.1907203E+02  0.3479683E+02  0.1069989E+02  0.0000000E+00
Ar 1451  0.1880547E+02  0.3221486E+02  0.1328695E+02  0.0000000E+00
Ar 1452  0.1613228E+02  0.3503493E+02  0.1346843E+02  0.0000000E+00
Ar 1453  0.1628552E+02  0.3216551E+02  0.1628552E+02  0.0000000E+00
Ar 1454  0.1876167E+02  0.3484012E+02  0.1617404E+02  0.0000000E+00
Ar 1455  0.1872861E+02  0.3214912E+02  0.1872861E+02  0.0000000E+00
Ar 1456  0.1617404E+02  0.3484012E+02  0.1876166E+02  0.0000000E+00
Ar 1457  0.1618827E+02  0.3238053E+02  0.2150030E+02  0.0000000E+00
Ar 1458  0.1883766E+02  0.3494305E+02  0.2166037E+02  0.0000000E+00
Ar 1459  0.1863795E+02  0.3232499E+02  0.2431800E+02  0.0000000E+00
Ar 1460  0.1626322E+02  0.3502083E+02  0.2405957E+02  0.0000000E+00
Ar 1461  0.1601398E+02  0.3227974E+02  0.2674459E+02  0.0000000E+00
Ar 1462  0.1899482E+02  0.3505136E+02  0.2683141E+02  0.0000000E+00
Ar 1463  0.1872643E+02  0.3196524E+02  0.2944239E+02  0.0000000E+00
Ar 1464  0.1631538E+02  0.3477340E+02  0.2932318E+02  0.0000000E+00
Ar 1465  0.1598624E+02  0.3232442E+02  0.3232442E+02  0.0000000E+00
Ar 1466  0.1888025E+02  0.3490362E+02  0.3225076E+02  0.0000000E+00
Ar 1467  0.1888025E+02  0.3225076E+02  0.3490362E+02  0.0000000E+00
Ar 1468  0.1635699E+02  0.3487748E+02  0.3487748E+02  0.0000000E+00
Ar 1469  0.1629915E+02  0.3197446E+02  0.3745328E+02  0.0000000E+00
Ar 1470  0.1899393E+02  0.3483167E+02  0.3739510E+02  0.0000000E+00
Ar 1471  0.1875358E+02  0.3229158E+02  0.4052238E+02  0.0000000E+00
Ar 1472  0.1638030E+02  0.3497178E+02  0.4004348E+02  0.0000000E+00
Ar 1473  0.1631406E+02  0.3222411E+02  0.4305175E+02  0.0000000E+00
Ar 1474  0.1880629E+02  0.3495086E+02  0.4317718E+02  0.0000000E+00
Ar 1475  0.1886219E+02  0.3219915E+02  0.4566322E+02  0.0000000E+00
Ar 1476  0.1633995E+02  0.3500779E+02  0.4562073E+02  0.0000000E+00
Ar 1477  0.1634129E+02  0.3244609E+02  0.4844359E+02  0.0000000E+00
Ar 1478  0.1907413E+02  0.3523574E+02  0.4845959E+02  0.0000000E+00
Ar 1479  0.1918077E+02  0.3221189E+02  0.5084101E+02  0.0000000E+00
Ar 1480  0.1634558E+02  0.3495619E+02  0.5107143E+02  0.0000000E+00
Ar 1481  0.1614225E+02  0.3749421E+02  0.1881759E+00  0.0000000E+00
Ar 1482  0.1879361E+02  0.3997538E+02  0.2621272E+00  0.0000000E+00
Ar 1483  0.1881692E+02  0.3704542E+02  0.2789598E+01  0.0000000E+00
Ar 1484  0.1620394E+02  0.4001643E+02  0.2847318E+01  0.0000000E+00
Ar 1485  0.1619769E+02  0.3781598E+02  0.5608490E+01  0.0000000E+00
Ar 1486  0.1879414E+02  0.4045300E+02  0.5450016E+01  0.0000000E+00
Ar 1487  0.1895942E+02  0.3783555E+02  0.8010627E+01  0.0000000E+00
Ar 1488  0.1620435E+02  0.4046525E+02  0.8139406E+01  0.0000000E+00
Ar 1489  0.1598166E+02  0.3768950E+02  0.1057913E+02  0.0000000E+00
Ar 1490  0.1883462E+02  0.4024795E+02  0.1073422E+02  0.0000000E+00
Ar 1491  0.1897057E+02  0.3763986E+02  0.1354678E+02  0.0000000E+00
Ar 1492  0.1620641E+02  0.4008628E+02  0.1341943E+02  0.0000000E+00
Ar 1493  0.1633324E+02  0.3739500E+02  0.1633323E+02  0.0000000E+00
Ar 1494  0.1902263E+02  0.4030293E+02  0.1627616E+02  0.0000000E+00
Ar 1495  0.1900273E+02  0.3755947E+02  0.1900273E+02  0.0000000E+00
Ar 1496  0.1627616E+02  0.4030293E+02  0.1902263E+02  0.0000000E+00
Ar 1497  0.1607846E+02  0.3764414E+02  0.2164546E+02  0.0000000E+00
Ar 1498  0.1877849E+02  0.4018219E+02  0.2155392E+02  0.0000000E+00
Ar 1499  0.1869028E+02  0.3765290E+02  0.2416532E+02  0.0000000E+00
Ar 1500  0.1631769E+02  0.4048285E+02  0.2420836E+02  0.0000000E+00
Ar 1501  0.1628850E+02  0.3740446E+02  0.2677878E+02  0.0000000E+00
Ar 1502  0.1896003E+02  0.4041795E+02  0.2688703E+02  0.0000000E+00
Ar 1503  0.1877566E+02  0.3781989E+02  0.2947164E+02  0.0000000E+00
Ar 1504  0.1624577E+02  0.4031892E+02  0.2985456E+02  0.0000000E+00
Ar 1505  0.1629914E+02  0.3745328E+02  0.3197445E+02  0.0000000E+00
Ar 1506  0.1875358E+02  0.4052238E+02  0.3229158E+02  0.0000000E+00
Ar 1507  0.1899393E+02  0.3739510E+02  0.3483167E+02  0.0000000E+00
Ar 1508  0.1638030E+02  0.4004349E+02  0.3497178E+02  0.0000000E+00
Ar 1509  0.1631902E+02  0.3744960E+02  0.3744960E+02  0.0000000E+00
Ar 1510  0.1918539E+02  0.3996377E+02  0.3732607E+02  0.0000000E+00
Ar 1511  0.1918538E+02  0.3732607E+02  0.3996377E+02  0.0000000E+00
Ar 1512  0.1660964E+02  0.4021721E+02  0.4021721E+02  0.0000000E+00
Ar 1513  0.1636111E+02  0.3776235E+02  0.4300895E+02  0.0000000E+00
Ar 1514  0.1885932E+02  0.4009970E+02  0.4298526E+02  0.0000000E+00
Ar 1515  0.1884487E+02  0.3783958E+02  0.4563482E+02  0.0000000E+00
Ar 1516  0.1639767E+02  0.4064223E+02  0.4547275E+02  0.0000000E+00
Ar 1517  0.1626005E+02  0.3765522E+02  0.4829265E+02  0.0000000E+00
Ar 1518  0.1885491E+02  0.4032357E+02  0.4822185E+02  0.0000000E+00
Ar 1519  0.1892054E+02  0.3747201E+02  0.5105595E+02  0.0000000E+00
Ar 1520  0.1645597E+02  0.4025722E+02  0.5096964E+02  0.0000000E+00
Ar 1521  0.1608055E+02  0.4280306E+02  0.5349089E+02  0.0000000E+00
Ar 1522  0.1881649E+02  0.4566780E+02  0.5353463E+02  0.0000000E+00
Ar 1523  0.1866578E+02  0.4272676E+02  0.2745791E+01  0.0000000E+00
Ar 1524  0.1616911E+02  0.4557481E+02  0.2316871E+01  0.0000000E+00
Ar 1525  0.1610529E+02  0.4284932E+02  0.5228306E+01  0.0000000E+00
Ar 1526  0.1859100E+02  0.4561937E+02  0.5389123E+01  0.0000000E+00
Ar 1527  0.1900188E+02  0.4283279E+02  0.7977380E+01  0.0000000E+00
Ar 1528  0.1599962E+02  0.4519584E+02  0.8123127E+01  0.0000000E+00
Ar 1529  0.1630073E+02  0.4269409E+02  0.1086427E+02  0.0000000E+00
Ar 1530  0.1895908E+02  0.4526903E+02  0.1074882E+02  0.0000000E+00
Ar 1531  0.1877534E+02  0.4267501E+02  0.1349798E+02  0.0000000E+00
Ar 1532  0.1620863E+02  0.4524292E+02  0.1341008E+02  0.0000000E+00
Ar 1533  0.1634851E+02  0.4292568E+02  0.1634851E+02  0.0000000E+00
Ar 1534  0.1896527E+02  0.4552525E+02  0.1631133E+02  0.0000000E+00
Ar 1535  0.1889071E+02  0.4288322E+02  0.1889070E+02  0.0000000E+00
Ar 1536  0.1631133E+02  0.4552525E+02  0.1896527E+02  0.0000000E+00
Ar 1537  0.1612068E+02  0.4293704E+02  0.2152218E+02  0.0000000E+00
Ar 1538  0.1880732E+02  0.4541941E+02  0.2145078E+02  0.0000000E+00
Ar 1539  0.1885547E+02  0.4305676E+02  0.2418836E+02  0.0000000E+00
Ar 1540  0.1619730E+02  0.4557531E+02  0.2427342E+02  0.0000000E+00
Ar 1541  0.1627330E+02  0.4308956E+02  0.2702056E+02  0.0000000E+00
Ar 1542  0.1878356E+02  0.4556516E+02  0.2674556E+02  0.0000000E+00
Ar 1543  0.1905692E+02  0.4295617E+02  0.2964708E+02  0.0000000E+00
Ar 1544  0.1609303E+02  0.4571772E+02  0.2954561E+02  0.0000000E+00
Ar 1545  0.1631406E+02  0.4305175E+02  0.3222411E+02  0.0000000E+00
Ar 1546  0.1886219E+02  0.4566322E+02  0.3219915E+02  0.0000000E+00
Ar 1547  0.1880629E+02  0.4317718E+02  0.3495086E+02  0.0000000E+00
Ar 1548  0.1633995E+02  0.4562073E+02  0.3500779E+02  0.0000000E+00
Ar 1549  0.1636111E+02  0.4300895E+02  0.3776235E+02  0.0000000E+00
Ar 1550  0.1884487E+02  0.4563482E+02  0.3783959E+02  0.0000000E+00
Ar 1551  0.1885932E+02  0.4298526E+02  0.4009970E+02  0.0000000E+00
Ar 1552  0.1639767E+02  0.4547275E+02  0.4064223E+02  0.0000000E+00
Ar 1553  0.1639577E+02  0.4263079E+02  0.4263079E+02  0.0000000E+00
Ar 1554  0.1912203E+02  0.4544069E+02  0.4314572E+02  0.0000000E+00
Ar 1555  0.1912202E+02  0.4314572E+02  0.4544069E+02  0.0000000E+00
Ar 1556  0.1627738E+02  0.4577032E+02  0.4577032E+02  0.0000000E+00
Ar 1557  0.1606834E+02  0.4313155E+02  0.4810803E+02  0.0000000E+00
Ar 1558  0.1876242E+02  0.4559479E+02  0.4825253E+02  0.0000000E+00
Ar 1559  0.1875144E+02  0.4282470E+02  0.5082916E+02  0.0000000E+00
Ar 1560  0.1614751E+02  0.4567718E+02  0.5105868E+02  0.0000000E+00
Ar 1561  0.1607115E+02  0.4863287E+02  0.5349353E+02  0.0000000E+00
Ar 1562  0.1893601E+02  0.5099713E+02  0.5360356E+02  0.0000000E+00
Ar 1563  0.1854110E+02  0.4822695E+02  0.2908503E+01  0.0000000E+00
Ar 1564  0.1609895E+02  0.5097881E+02  0.2845748E+01  0.0000000E+00
Ar 1565  0.1608366E+02  0.4824856E+02  0.5554643E+01  0.0000000E+00
Ar 1566  0.1871000E+02  0.5097279E+02  0.5467693E+01  0.0000000E+00
Ar 1567  0.1867729E+02  0.4839195E+02  0.8205036E+01  0.0000000E+00
Ar 1568  0.1604035E+02  0.5099068E+02  0.8199780E+01  0.0000000E+00
Ar 1569  0.1604335E+02  0.4837616E+02  0.1074528E+02  0.0000000E+00
Ar 1570  0.1879845E+02  0.5080077E+02  0.1092367E+02  0.0000000E+00
Ar 1571  0.1892161E+02  0.4809066E+02  0.1350577E+02  0.0000000E+00
Ar 1572  0.1616118E+02  0.5102020E+02  0.1363323E+02  0.0000000E+00
Ar 1573  0.1633670E+02  0.4824911E+02  0.1633670E+02  0.0000000E+00
Ar 1574  0.1900877E+02  0.5104818E+02  0.1621697E+02  0.0000000E+00
Ar 1575  0.1888200E+02  0.4826883E+02  0.1888200E+02  0.0000000E+00
Ar 1576  0.1621696E+02  0.5104818E+02  0.1900877E+02  0.0000000E+00
Ar 1577  0.1617837E+02  0.4827021E+02  0.2150426E+02  0.0000000E+00
Ar 1578  0.1897354E+02  0.5100743E+02  0.2167694E+02  0.0000000E+00
Ar 1579  0.1874629E+02  0.4813239E+02  0.2395420E+02  0.0000000E+00
Ar 1580  0.1624414E+02  0.5110975E+02  0.2426294E+02  0.0000000E+00
Ar 1581  0.1612962E+02  0.4828202E+02  0.2685192E+02  0.0000000E+00
Ar 1582  0.1868154E+02  0.5104423E+02  0.2665589E+02  0.0000000E+00
Ar 1583  0.1882617E+02  0.4827772E+02  0.2947625E+02  0.0000000E+00
Ar 1584  0.1630658E+02  0.5093820E+02  0.2949883E+02  0.0000000E+00
Ar 1585  0.1634129E+02  0.4844359E+02  0.3244609E+02  0.0000000E+00
Ar 1586  0.1918077E+02  0.5084101E+02  0.3221190E+02  0.0000000E+00
Ar 1587  0.1907413E+02  0.4845959E+02  0.3523573E+02  0.0000000E+00
Ar 1588  0.1634558E+02  0.5107142E+02  0.3495619E+02  0.0000000E+00
Ar 1589  0.1626005E+02  0.4829265E+02  0.3765522E+02  0.0000000E+00
Ar 1590  0.1892054E+02  0.5105594E+02  0.3747201E+02  0.0000000E+00
Ar 1591  0.1885491E+02  0.4822185E+02  0.4032357E+02  0.0000000E+00
Ar 1592  0.1645597E+02  0.5096963E+02  0.4025722E+02  0.0000000E+00
Ar 1593  0.1606834E+02  0.4810803E+02  0.4313155E+02  0.0000000E+00
Ar 1594  0.1875144E+02  0.5082916E+02  0.4282470E+02  0.0000000E+00
Ar 1595  0.1876242E+02  0.4825253E+02  0.4559479E+02  0.0000000E+00
Ar 1596  0.1614750E+02  0.5105868E+02  0.4567718E+02  0.0000000E+00
Ar 1597  0.1627259E+02  0.4846993E+02  0.4846993E+02  0.0000000E+00
Ar 1598  0.1881832E+02  0.5082017E+02  0.4813269E+02  0.0000000E+00
Ar 1599  0.1881832E+02  0.4813270E+02  0.5082017E+02  0.0000000E+00
Ar 1600  0.1594569E+02  0.5106703E+02  0.5106703E+02  0.0000000E+00
Ar 1601  0.2187918E+02  0.5351259E+02  0.5351259E+02  0.0000000E+00
Ar 1602  0.2419561E+02  0.2849777E+01  0.1371741E+00  0.0000000E+00
Ar 1603  0.2419561E+02  0.1371740E+00  0.2849777E+01  0.0000000E+00
Ar 1604  0.2142959E+02  0.2889052E+01  0.2889052E+01  0.0000000E+00
Ar 1605  0.2137960E+02  0.1271515E+00  0.5455128E+01  0.0000000E+00
Ar 1606  0.2406422E+02  0.2807063E+01  0.5425754E+01  0.0000000E+00
Ar 1607  0.2388862E+02  0.5360776E+02  0.8193018E+01  0.0000000E+00
Ar 1608  0.2130087E+02  0.2623562E+01  0.8020140E+01  0.0000000E+00
Ar 1609  0.2130342E+02  0.5339491E+02  0.1076323E+02  0.0000000E+00
Ar 1610  0.2404972E+02  0.2604782E+01  0.1075579E+02  0.0000000E+00
Ar 1611  0.2388364E+02  0.5356568E+02  0.1344427E+02  0.0000000E+00
Ar 1612  0.2137082E+02  0.2578779E+01  0.1330144E+02  0.0000000E+00
Ar 1613  0.2136488E+02  0.5339443E+02  0.1607479E+02  0.0000000E+00
Ar 1614  0.2403429E+02  0.2623129E+01  0.1603967E+02  0.0000000E+00
Ar 1615  0.2399944E+02  0.1506707E+00  0.1889143E+02  0.0000000E+00
Ar 1616  0.2159214E+02  0.2746612E+01  0.1878366E+02  0.0000000E+00
Ar 1617  0.2152397E+02  0.5339062E+02  0.2152397E+02  0.0000000E+00
Ar 1618  0.2418132E+02  0.2916696E+01  0.2156024E+02  0.0000000E+00
Ar 1619  0.2421204E+02  0.2274773E+00  0.2421204E+02  0.0000000E+00
Ar 1620  0.2156023E+02  0.2916695E+01  0.2418132E+02  0.0000000E+00
Ar 1621  0.2152299E+02  0.2601491E+00  0.2669350E+02  0.0000000E+00
Ar 1622  0.2414295E+02  0.2620896E+01  0.2702060E+02  0.0000000E+00
Ar 1623  0.2432855E+02  0.5348992E+02  0.2932443E+02  0.0000000E+00
Ar 1624  0.2147643E+02  0.2942947E+01  0.2947702E+02  0.0000000E+00
Ar 1625  0.2164201E+02  0.5350355E+02  0.3214397E+02  0.0000000E+00
Ar 1626  0.2414454E+02  0.2683655E+01  0.3217577E+02  0.0000000E+00
Ar 1627  0.2410500E+02  0.2627258E+00  0.3501173E+02  0.0000000E+00
Ar 1628  0.2147834E+02  0.2584721E+01  0.3477517E+02  0.0000000E+00
Ar 1629  0.2151831E+02  0.2867031E+00  0.3758967E+02  0.0000000E+00
Ar 1630  0.2424182E+02  0.2910915E+01  0.3737057E+02  0.0000000E+00
Ar 1631  0.2419686E+02  0.2114118E+00  0.3996430E+02  0.0000000E+00
Ar 1632  0.2147252E+02  0.2858482E+01  0.4016319E+02  0.0000000E+00
Ar 1633  0.2123224E+02  0.2786048E+00  0.4267093E+02  0.0000000E+00
Ar 1634  0.2425980E+02  0.2587594E+01  0.4310327E+02  0.0000000E+00
Ar 1635  0.2373332E+02  0.5361072E+02  0.4544463E+02  0.0000000E+00
Ar 1636  0.2129949E+02  0.2669922E+01  0.4556917E+02  0.0000000E+00
Ar 1637  0.2137984E+02  0.2048043E+00  0.4832850E+02  0.0000000E+00
Ar 1638  0.2397888E+02  0.3060553E+01  0.4837944E+02  0.0000000E+00
Ar 1639  0.2417056E+02  0.2170296E+00  0.5092210E+02  0.0000000E+00
Ar 1640  0.2147041E+02  0.2761685E+01  0.5104378E+02  0.0000000E+00
Ar 1641  0.2137961E+02  0.5455126E+01  0.1271530E+00  0.0000000E+00
Ar 1642  0.2388862E+02  0.8193018E+01  0.5360776E+02  0.0000000E+00
Ar 1643  0.2406422E+02  0.5425756E+01  0.2807064E+01  0.0000000E+00
Ar 1644  0.2130087E+02  0.8020140E+01  0.2623562E+01  0.0000000E+00
Ar 1645  0.2146874E+02  0.5348892E+01  0.5348893E+01  0.0000000E+00
Ar 1646  0.2409832E+02  0.8048578E+01  0.5505256E+01  0.0000000E+00
Ar 1647  0.2409831E+02  0.5505256E+01  0.8048578E+01  0.0000000E+00
Ar 1648  0.2114022E+02  0.8075466E+01  0.8075466E+01  0.0000000E+00
Ar 1649  0.2154725E+02  0.5189911E+01  0.1076997E+02  0.0000000E+00
Ar 1650  0.2402500E+02  0.8031030E+01  0.1067682E+02  0.0000000E+00
Ar 1651  0.2418247E+02  0.5264607E+01  0.1345570E+02  0.0000000E+00
Ar 1652  0.2145883E+02  0.7967738E+01  0.1326959E+02  0.0000000E+00
Ar 1653  0.2175094E+02  0.5263923E+01  0.1611844E+02  0.0000000E+00
Ar 1654  0.2415067E+02  0.8026821E+01  0.1598627E+02  0.0000000E+00
Ar 1655  0.2433839E+02  0.5318516E+01  0.1868607E+02  0.0000000E+00
Ar 1656  0.2138804E+02  0.7917686E+01  0.1855510E+02  0.0000000E+00
Ar 1657  0.2134341E+02  0.5136949E+01  0.2134342E+02  0.0000000E+00
Ar 1658  0.2397588E+02  0.7937020E+01  0.2163008E+02  0.0000000E+00
Ar 1659  0.2433654E+02  0.5331590E+01  0.2433654E+02  0.0000000E+00
Ar 1660  0.2163008E+02  0.7937018E+01  0.2397589E+02  0.0000000E+00
Ar 1661  0.2145160E+02  0.5436854E+01  0.2677530E+02  0.0000000E+00
Ar 1662  0.2425029E+02  0.8127998E+01  0.2687141E+02  0.0000000E+00
Ar 1663  0.2422945E+02  0.5428722E+01  0.2950148E+02  0.0000000E+00
Ar 1664  0.2141173E+02  0.8074017E+01  0.2957029E+02  0.0000000E+00
Ar 1665  0.2159247E+02  0.5374557E+01  0.3209837E+02  0.0000000E+00
Ar 1666  0.2422384E+02  0.8085836E+01  0.3217633E+02  0.0000000E+00
Ar 1667  0.2438844E+02  0.5406739E+01  0.3480507E+02  0.0000000E+00
Ar 1668  0.2164730E+02  0.7984423E+01  0.3502963E+02  0.0000000E+00
Ar 1669  0.2145251E+02  0.5371837E+01  0.3759633E+02  0.0000000E+00
Ar 1670  0.2452265E+02  0.8017326E+01  0.3763526E+02  0.0000000E+00
Ar 1671  0.2411405E+02  0.5125931E+01  0.4036236E+02  0.0000000E+00
Ar 1672  0.2163888E+02  0.8149357E+01  0.4032996E+02  0.0000000E+00
Ar 1673  0.2154863E+02  0.5347617E+01  0.4302147E+02  0.0000000E+00
Ar 1674  0.2444742E+02  0.7916634E+01  0.4287723E+02  0.0000000E+00
Ar 1675  0.2435625E+02  0.5428557E+01  0.4562890E+02  0.0000000E+00
Ar 1676  0.2163107E+02  0.8240952E+01  0.4567306E+02  0.0000000E+00
Ar 1677  0.2132341E+02  0.5442203E+01  0.4785852E+02  0.0000000E+00
Ar 1678  0.2403025E+02  0.8199213E+01  0.4823175E+02  0.0000000E+00
Ar 1679  0.2404605E+02  0.5368250E+01  0.5112157E+02  0.0000000E+00
Ar 1680  0.2134846E+02  0.8066174E+01  0.5085498E+02  0.0000000E+00
Ar 1681  0.2130341E+02  0.1076323E+02  0.5339491E+02  0.0000000E+00
Ar 1682  0.2388364E+02  0.1344427E+02  0.5356568E+02  0.0000000E+00
Ar 1683  0.2404972E+02  0.1075579E+02  0.2604781E+01  0.0000000E+00
Ar 1684  0.2137082E+02  0.1330144E+02  0.2578778E+01  0.0000000E+00
Ar 1685  0.2154725E+02  0.1076997E+02  0.5189910E+01  0.0000000E+00
Ar 1686  0.2418247E+02  0.1345570E+02  0.5264607E+01  0.0000000E+00
Ar 1687  0.2402500E+02  0.1067682E+02  0.8031031E+01  0.0000000E+00
Ar 1688  0.2145883E+02  0.1326959E+02  0.7967738E+01  0.0000000E+00
Ar 1689  0.2123081E+02  0.1050805E+02  0.1050805E+02  0.0000000E+00
Ar 1690  0.2401282E+02  0.1353038E+02  0.1091674E+02  0.0000000E+00
Ar 1691  0.2401282E+02  0.1091674E+02  0.1353038E+02  0.0000000E+00
Ar 1692  0.2128446E+02  0.1326869E+02  0.1326869E+02  0.0000000E+00
Ar 1693  0.2146226E+02  0.1067469E+02  0.1594775E+02  0.0000000E+00
Ar 1694  0.2399817E+02  0.1333753E+02  0.1618699E+02  0.0000000E+00
Ar 1695  0.2413964E+02  0.1050501E+02  0.1860104E+02  0.0000000E+00
Ar 1696  0.2122824E+02  0.1320063E+02  0.1869200E+02  0.0000000E+00
Ar 1697  0.2179127E+02  0.1057255E+02  0.2179127E+02  0.0000000E+00
Ar 1698  0.2403541E+02  0.1333501E+02  0.2116958E+02  0.0000000E+00
Ar 1699  0.2424965E+02  0.1088975E+02  0.2424965E+02  0.0000000E+00
Ar 1700  0.2116958E+02  0.1333502E+02  0.2403541E+02  0.0000000E+00
Ar 1701  0.2151929E+02  0.1058500E+02  0.2690460E+02  0.0000000E+00
Ar 1702  0.2410208E+02  0.1333781E+02  0.2679966E+02  0.0000000E+00
Ar 1703  0.2424184E+02  0.1074152E+02  0.2945834E+02  0.0000000E+00
Ar 1704  0.2146324E+02  0.1344455E+02  0.2955442E+02  0.0000000E+00
Ar 1705  0.2166524E+02  0.1076648E+02  0.3207156E+02  0.0000000E+00
Ar 1706  0.2423982E+02  0.1344786E+02  0.3226513E+02  0.0000000E+00
Ar 1707  0.2432089E+02  0.1089362E+02  0.3479434E+02  0.0000000E+00
Ar 1708  0.2157941E+02  0.1361000E+02  0.3495366E+02  0.0000000E+00
Ar 1709  0.2155872E+02  0.1090081E+02  0.3767408E+02  0.0000000E+00
Ar 1710  0.2427685E+02  0.1364475E+02  0.3772378E+02  0.0000000E+00
Ar 1711  0.2433248E+02  0.1089294E+02  0.4023005E+02  0.0000000E+00
Ar 1712  0.2163995E+02  0.1359940E+02  0.4030029E+02  0.0000000E+00
Ar 1713  0.2172423E+02  0.1077005E+02  0.4290229E+02  0.0000000E+00
Ar 1714  0.2420138E+02  0.1342911E+02  0.4275107E+02  0.0000000E+00
Ar 1715  0.2435241E+02  0.1070172E+02  0.4567479E+02  0.0000000E+00
Ar 1716  0.2165526E+02  0.1343421E+02  0.4556176E+02  0.0000000E+00
Ar 1717  0.2180721E+02  0.1070446E+02  0.4844889E+02  0.0000000E+00
Ar 1718  0.2423237E+02  0.1364812E+02  0.4850080E+02  0.0000000E+00
Ar 1719  0.2395074E+02  0.1080728E+02  0.5115855E+02  0.0000000E+00
Ar 1720  0.2140619E+02  0.1354074E+02  0.5092029E+02  0.0000000E+00
Ar 1721  0.2136488E+02  0.1607479E+02  0.5339443E+02  0.0000000E+00
Ar 1722  0.2399944E+02  0.1889143E+02  0.1506717E+00  0.0000000E+00
Ar 1723  0.2403429E+02  0.1603966E+02  0.2623128E+01  0.0000000E+00
Ar 1724  0.2159214E+02  0.1878366E+02  0.2746614E+01  0.0000000E+00
Ar 1725  0.2175094E+02  0.1611844E+02  0.5263923E+01  0.0000000E+00
Ar 1726  0.2433839E+02  0.1868607E+02  0.5318513E+01  0.0000000E+00
Ar 1727  0.2415067E+02  0.1598627E+02  0.8026821E+01  0.0000000E+00
Ar 1728  0.2138804E+02  0.1855510E+02  0.7917686E+01  0.0000000E+00
Ar 1729  0.2146226E+02  0.1594775E+02  0.1067469E+02  0.0000000E+00
Ar 1730  0.2413964E+02  0.1860104E+02  0.1050501E+02  0.0000000E+00
Ar 1731  0.2399817E+02  0.1618699E+02  0.1333753E+02  0.0000000E+00
Ar 1732  0.2122824E+02  0.1869200E+02  0.1320063E+02  0.0000000E+00
Ar 1733  0.2156587E+02  0.1604773E+02  0.1604773E+02  0.0000000E+00
Ar 1734  0.2403311E+02  0.1879895E+02  0.1598669E+02  0.0000000E+00
Ar 1735  0.2403311E+02  0.1598670E+02  0.1879895E+02  0.0000000E+00
Ar 1736  0.2130013E+02  0.1878037E+02  0.1878037E+02  0.0000000E+00
Ar 1737  0.2142857E+02  0.1633868E+02  0.2142857E+02  0.0000000E+00
Ar 1738  0.2425795E+02  0.1855950E+02  0.2158366E+02  0.0000000E+00
Ar 1739  0.2426930E+02  0.1589895E+02  0.2426930E+02  0.0000000E+00
Ar 1740  0.2158366E+02  0.1855949E+02  0.2425794E+02  0.0000000E+00
Ar 1741  0.2167710E+02  0.1607313E+02  0.2692447E+02  0.0000000E+00
Ar 1742  0.2405022E+02  0.1891303E+02  0.2679544E+02  0.0000000E+00
Ar 1743  0.2416457E+02  0.1577819E+02  0.2961821E+02  0.0000000E+00
Ar 1744  0.2133103E+02  0.1850942E+02  0.2950200E+02  0.0000000E+00
Ar 1745  0.2150031E+02  0.1618827E+02  0.3238054E+02  0.0000000E+00
Ar 1746  0.2431800E+02  0.1863795E+02  0.3232499E+02  0.0000000E+00
Ar 1747  0.2405957E+02  0.1626322E+02  0.3502083E+02  0.0000000E+00
Ar 1748  0.2166037E+02  0.1883766E+02  0.3494305E+02  0.0000000E+00
Ar 1749  0.2164546E+02  0.1607846E+02  0.3764414E+02  0.0000000E+00
Ar 1750  0.2416532E+02  0.1869029E+02  0.3765290E+02  0.0000000E+00
Ar 1751  0.2420836E+02  0.1631769E+02  0.4048285E+02  0.0000000E+00
Ar 1752  0.2155391E+02  0.1877849E+02  0.4018219E+02  0.0000000E+00
Ar 1753  0.2152218E+02  0.1612068E+02  0.4293704E+02  0.0000000E+00
Ar 1754  0.2418837E+02  0.1885547E+02  0.4305677E+02  0.0000000E+00
Ar 1755  0.2427342E+02  0.1619730E+02  0.4557531E+02  0.0000000E+00
Ar 1756  0.2145079E+02  0.1880732E+02  0.4541941E+02  0.0000000E+00
Ar 1757  0.2150426E+02  0.1617837E+02  0.4827021E+02  0.0000000E+00
Ar 1758  0.2395420E+02  0.1874629E+02  0.4813239E+02  0.0000000E+00
Ar 1759  0.2426294E+02  0.1624414E+02  0.5110975E+02  0.0000000E+00
Ar 1760  0.2167694E+02  0.1897354E+02  0.5100743E+02  0.0000000E+00
Ar 1761  0.2152397E+02  0.2152397E+02  0.5339062E+02  0.0000000E+00
Ar 1762  0.2421204E+02  0.2421204E+02  0.2274767E+00  0.0000000E+00
Ar 1763  0.2418132E+02  0.2156023E+02  0.2916696E+01  0.0000000E+00
Ar 1764  0.2156023E+02  0.2418132E+02  0.2916695E+01  0.0000000E+00
Ar 1765  0.2134341E+02  0.2134342E+02  0.5136950E+01  0.0000000E+00
Ar 1766  0.2433654E+02  0.2433654E+02  0.5331590E+01  0.0000000E+00
Ar 1767  0.2397588E+02  0.2163008E+02  0.7937019E+01  0.0000000E+00
Ar 1768  0.2163008E+02  0.2397589E+02  0.7937019E+01  0.0000000E+00
Ar 1769  0.2179127E+02  0.2179127E+02  0.1057255E+02  0.0000000E+00
Ar 1770  0.2424965E+02  0.2424966E+02  0.1088975E+02  0.0000000E+00
Ar 1771  0.2403541E+02  0.2116958E+02  0.1333502E+02  0.0000000E+00
Ar 1772  0.2116958E+02  0.2403541E+02  0.1333502E+02  0.0000000E+00
Ar 1773  0.2142857E+02  0.2142857E+02  0.1633868E+02  0.0000000E+00
Ar 1774  0.2426930E+02  0.2426930E+02  0.1589895E+02  0.0000000E+00
Ar 1775  0.2425795E+02  0.2158366E+02  0.1855949E+02  0.0000000E+00
Ar 1776  0.2158366E+02  0.2425794E+02  0.1855949E+02  0.0000000E+00
Ar 1777  0.2133967E+02  0.2133967E+02  0.2133967E+02  0.0000000E+00
Ar 1778  0.2398944E+02  0.2398944E+02  0.2143665E+02  0.0000000E+00
Ar 1779  0.2398944E+02  0.2143665E+02  0.2398944E+02  0.0000000E+00
Ar 1780  0.2143665E+02  0.2398944E+02  0.2398944E+02  0.0000000E+00
Ar 1781  0.2115091E+02  0.2115091E+02  0.2671759E+02  0.0000000E+00
Ar 1782  0.2380498E+02  0.2380498E+02  0.2673229E+02  0.0000000E+00
Ar 1783  0.2377705E+02  0.2108826E+02  0.2966812E+02  0.0000000E+00
Ar 1784  0.2108826E+02  0.2377705E+02  0.2966812E+02  0.0000000E+00
Ar 1785  0.2120709E+02  0.2120710E+02  0.3224947E+02  0.0000000E+00
Ar 1786  0.2372064E+02  0.2372064E+02  0.3209160E+02  0.0000000E+00
Ar 1787  0.2440492E+02  0.2168362E+02  0.3481524E+02  0.0000000E+00
Ar 1788  0.2168362E+02  0.2440492E+02  0.3481524E+02  0.0000000E+00
Ar 1789  0.2154041E+02  0.2154040E+02  0.3752179E+02  0.0000000E+00
Ar 1790  0.2424601E+02  0.2424601E+02  0.3726405E+02  0.0000000E+00
Ar 1791  0.2413490E+02  0.2143336E+02  0.4021403E+02  0.0000000E+00
Ar 1792  0.2143336E+02  0.2413490E+02  0.4021403E+02  0.0000000E+00
Ar 1793  0.2155417E+02  0.2155417E+02  0.4300856E+02  0.0000000E+00
Ar 1794  0.2411334E+02  0.2411334E+02  0.4281415E+02  0.0000000E+00
Ar 1795  0.2387874E+02  0.2145186E+02  0.4565097E+02  0.0000000E+00
Ar 1796  0.2145186E+02  0.2387874E+02  0.4565097E+02  0.0000000E+00
Ar 1797  0.2147637E+02  0.2147637E+02  0.4828254E+02  0.0000000E+00
Ar 1798  0.2408182E+02  0.2408182E+02  0.4814207E+02  0.0000000E+00
Ar 1799  0.2422125E+02  0.2163699E+02  0.5092700E+02  0.0000000E+00
Ar 1800  0.2163700E+02  0.2422125E+02  0.5092700E+02  0.0000000E+00
Ar 1801  0.2152299E+02  0.2669350E+02  0.2601512E+00  0.0000000E+00
Ar 1802  0.2432855E+02  0.2932443E+02  0.5348992E+02  0.0000000E+00
Ar 1803  0.2414295E+02  0.2702059E+02  0.2620897E+01  0.0000000E+00
Ar 1804  0.2147643E+02  0.2947703E+02  0.2942950E+01  0.0000000E+00
Ar 1805  0.2145160E+02  0.2677530E+02  0.5436852E+01  0.0000000E+00
Ar 1806  0.2422945E+02  0.2950148E+02  0.5428725E+01  0.0000000E+00
Ar 1807  0.2425029E+02  0.2687141E+02  0.8127997E+01  0.0000000E+00
Ar 1808  0.2141173E+02  0.2957029E+02  0.8074013E+01  0.0000000E+00
Ar 1809  0.2151929E+02  0.2690460E+02  0.1058500E+02  0.0000000E+00
Ar 1810  0.2424184E+02  0.2945834E+02  0.1074152E+02  0.0000000E+00
Ar 1811  0.2410208E+02  0.2679966E+02  0.1333781E+02  0.0000000E+00
Ar 1812  0.2146324E+02  0.2955442E+02  0.1344455E+02  0.0000000E+00
Ar 1813  0.2167710E+02  0.2692447E+02  0.1607313E+02  0.0000000E+00
Ar 1814  0.2416457E+02  0.2961821E+02  0.1577819E+02  0.0000000E+00
Ar 1815  0.2405022E+02  0.2679544E+02  0.1891303E+02  0.0000000E+00
Ar 1816  0.2133103E+02  0.2950201E+02  0.1850942E+02  0.0000000E+00
Ar 1817  0.2115091E+02  0.2671760E+02  0.2115091E+02  0.0000000E+00
Ar 1818  0.2377705E+02  0.2966813E+02  0.2108826E+02  0.0000000E+00
Ar 1819  0.2380499E+02  0.2673229E+02  0.2380498E+02  0.0000000E+00
Ar 1820  0.2108826E+02  0.2966812E+02  0.2377705E+02  0.0000000E+00
Ar 1821  0.2125428E+02  0.2669047E+02  0.2669047E+02  0.0000000E+00
Ar 1822  0.2405880E+02  0.2940825E+02  0.2651533E+02  0.0000000E+00
Ar 1823  0.2405879E+02  0.2651533E+02  0.2940825E+02  0.0000000E+00
Ar 1824  0.2135151E+02  0.2938637E+02  0.2938637E+02  0.0000000E+00
Ar 1825  0.2128440E+02  0.2685145E+02  0.3213423E+02  0.0000000E+00
Ar 1826  0.2398887E+02  0.2933072E+02  0.3187176E+02  0.0000000E+00
Ar 1827  0.2428885E+02  0.2679441E+02  0.3460935E+02  0.0000000E+00
Ar 1828  0.2155072E+02  0.2953608E+02  0.3471038E+02  0.0000000E+00
Ar 1829  0.2172740E+02  0.2689460E+02  0.3756715E+02  0.0000000E+00
Ar 1830  0.2422755E+02  0.2943697E+02  0.3741107E+02  0.0000000E+00
Ar 1831  0.2399443E+02  0.2665639E+02  0.4020813E+02  0.0000000E+00
Ar 1832  0.2141457E+02  0.2971018E+02  0.4011331E+02  0.0000000E+00
Ar 1833  0.2141024E+02  0.2672383E+02  0.4302721E+02  0.0000000E+00
Ar 1834  0.2405663E+02  0.2929871E+02  0.4275499E+02  0.0000000E+00
Ar 1835  0.2413728E+02  0.2673869E+02  0.4537936E+02  0.0000000E+00
Ar 1836  0.2132720E+02  0.2947394E+02  0.4572035E+02  0.0000000E+00
Ar 1837  0.2112054E+02  0.2675686E+02  0.4836069E+02  0.0000000E+00
Ar 1838  0.2402102E+02  0.2936905E+02  0.4814061E+02  0.0000000E+00
Ar 1839  0.2407654E+02  0.2693745E+02  0.5064057E+02  0.0000000E+00
Ar 1840  0.2151760E+02  0.2951984E+02  0.5084349E+02  0.0000000E+00
Ar 1841  0.2164201E+02  0.3214397E+02  0.5350355E+02  0.0000000E+00
Ar 1842  0.2410501E+02  0.3501173E+02  0.2627276E+00  0.0000000E+00
Ar 1843  0.2414454E+02  0.3217577E+02  0.2683654E+01  0.0000000E+00
Ar 1844  0.2147834E+02  0.3477517E+02  0.2584719E+01  0.0000000E+00
Ar 1845  0.2159247E+02  0.3209837E+02  0.5374560E+01  0.0000000E+00
Ar 1846  0.2438844E+02  0.3480507E+02  0.5406738E+01  0.0000000E+00
Ar 1847  0.2422384E+02  0.3217633E+02  0.8085837E+01  0.0000000E+00
Ar 1848  0.2164730E+02  0.3502963E+02  0.7984421E+01  0.0000000E+00
Ar 1849  0.2166524E+02  0.3207156E+02  0.1076648E+02  0.0000000E+00
Ar 1850  0.2432089E+02  0.3479434E+02  0.1089362E+02  0.0000000E+00
Ar 1851  0.2423982E+02  0.3226513E+02  0.1344786E+02  0.0000000E+00
Ar 1852  0.2157941E+02  0.3495366E+02  0.1361000E+02  0.0000000E+00
Ar 1853  0.2150031E+02  0.3238053E+02  0.1618827E+02  0.0000000E+00
Ar 1854  0.2405957E+02  0.3502084E+02  0.1626322E+02  0.0000000E+00
Ar 1855  0.2431800E+02  0.3232499E+02  0.1863795E+02  0.0000000E+00
Ar 1856  0.2166037E+02  0.3494305E+02  0.1883766E+02  0.0000000E+00
Ar 1857  0.2120709E+02  0.3224947E+02  0.2120710E+02  0.0000000E+00
Ar 1858  0.2440492E+02  0.3481523E+02  0.2168362E+02  0.0000000E+00
Ar 1859  0.2372064E+02  0.3209160E+02  0.2372064E+02  0.0000000E+00
Ar 1860  0.2168362E+02  0.3481524E+02  0.2440492E+02  0.0000000E+00
Ar 1861  0.2128439E+02  0.3213423E+02  0.2685145E+02  0.0000000E+00
Ar 1862  0.2428885E+02  0.3460935E+02  0.2679441E+02  0.0000000E+00
Ar 1863  0.2398887E+02  0.3187177E+02  0.2933072E+02  0.0000000E+00
Ar 1864  0.2155072E+02  0.3471037E+02  0.2953608E+02  0.0000000E+00
Ar 1865  0.2117774E+02  0.3220808E+02  0.3220808E+02  0.0000000E+00
Ar 1866  0.2409684E+02  0.3476412E+02  0.3193729E+02  0.0000000E+00
Ar 1867  0.2409684E+02  0.3193729E+02  0.3476412E+02  0.0000000E+00
Ar 1868  0.2157965E+02  0.3450572E+02  0.3450572E+02  0.0000000E+00
Ar 1869  0.2146282E+02  0.3208195E+02  0.3747713E+02  0.0000000E+00
Ar 1870  0.2401937E+02  0.3463433E+02  0.3738808E+02  0.0000000E+00
Ar 1871  0.2416266E+02  0.3222898E+02  0.4003711E+02  0.0000000E+00
Ar 1872  0.2155336E+02  0.3473443E+02  0.4019815E+02  0.0000000E+00
Ar 1873  0.2181366E+02  0.3207338E+02  0.4295804E+02  0.0000000E+00
Ar 1874  0.2417845E+02  0.3493306E+02  0.4304581E+02  0.0000000E+00
Ar 1875  0.2419307E+02  0.3203976E+02  0.4562630E+02  0.0000000E+00
Ar 1876  0.2154124E+02  0.3477510E+02  0.4554856E+02  0.0000000E+00
Ar 1877  0.2165400E+02  0.3229305E+02  0.4822865E+02  0.0000000E+00
Ar 1878  0.2404941E+02  0.3484748E+02  0.4802276E+02  0.0000000E+00
Ar 1879  0.2419842E+02  0.3213484E+02  0.5067219E+02  0.0000000E+00
Ar 1880  0.2163892E+02  0.3471816E+02  0.5098149E+02  0.0000000E+00
Ar 1881  0.2151831E+02  0.3758967E+02  0.2867024E+00  0.0000000E+00
Ar 1882  0.2419686E+02  0.3996430E+02  0.2114155E+00  0.0000000E+00
Ar 1883  0.2424182E+02  0.3737057E+02  0.2910915E+01  0.0000000E+00
Ar 1884  0.2147252E+02  0.4016319E+02  0.2858481E+01  0.0000000E+00
Ar 1885  0.2145251E+02  0.3759633E+02  0.5371834E+01  0.0000000E+00
Ar 1886  0.2411405E+02  0.4036236E+02  0.5125932E+01  0.0000000E+00
Ar 1887  0.2452265E+02  0.3763526E+02  0.8017327E+01  0.0000000E+00
Ar 1888  0.2163888E+02  0.4032996E+02  0.8149356E+01  0.0000000E+00
Ar 1889  0.2155872E+02  0.3767407E+02  0.1090081E+02  0.0000000E+00
Ar 1890  0.2433247E+02  0.4023005E+02  0.1089294E+02  0.0000000E+00
Ar 1891  0.2427685E+02  0.3772379E+02  0.1364475E+02  0.0000000E+00
Ar 1892  0.2163995E+02  0.4030029E+02  0.1359940E+02  0.0000000E+00
Ar 1893  0.2164546E+02  0.3764414E+02  0.1607846E+02  0.0000000E+00
Ar 1894  0.2420836E+02  0.4048285E+02  0.1631769E+02  0.0000000E+00
Ar 1895  0.2416532E+02  0.3765290E+02  0.1869029E+02  0.0000000E+00
Ar 1896  0.2155392E+02  0.4018219E+02  0.1877849E+02  0.0000000E+00
Ar 1897  0.2154040E+02  0.3752180E+02  0.2154041E+02  0.0000000E+00
Ar 1898  0.2413490E+02  0.4021403E+02  0.2143336E+02  0.0000000E+00
Ar 1899  0.2424601E+02  0.3726405E+02  0.2424601E+02  0.0000000E+00
Ar 1900  0.2143336E+02  0.4021403E+02  0.2413490E+02  0.0000000E+00
Ar 1901  0.2172740E+02  0.3756715E+02  0.2689460E+02  0.0000000E+00
Ar 1902  0.2399443E+02  0.4020813E+02  0.2665639E+02  0.0000000E+00
Ar 1903  0.2422755E+02  0.3741107E+02  0.2943697E+02  0.0000000E+00
Ar 1904  0.2141457E+02  0.4011331E+02  0.2971017E+02  0.0000000E+00
Ar 1905  0.2146282E+02  0.3747713E+02  0.3208195E+02  0.0000000E+00
Ar 1906  0.2416266E+02  0.4003711E+02  0.3222898E+02  0.0000000E+00
Ar 1907  0.2401938E+02  0.3738808E+02  0.3463433E+02  0.0000000E+00
Ar 1908  0.2155335E+02  0.4019816E+02  0.3473443E+02  0.0000000E+00
Ar 1909  0.2183767E+02  0.3744192E+02  0.3744192E+02  0.0000000E+00
Ar 1910  0.2442390E+02  0.4032461E+02  0.3727745E+02  0.0000000E+00
Ar 1911  0.2442390E+02  0.3727745E+02  0.4032460E+02  0.0000000E+00
Ar 1912  0.2203848E+02  0.3994228E+02  0.3994229E+02  0.0000000E+00
Ar 1913  0.2146741E+02  0.3762699E+02  0.4291830E+02  0.0000000E+00
Ar 1914  0.2428784E+02  0.4016034E+02  0.4296074E+02  0.0000000E+00
Ar 1915  0.2436745E+02  0.3752849E+02  0.4549206E+02  0.0000000E+00
Ar 1916  0.2148793E+02  0.4017295E+02  0.4549229E+02  0.0000000E+00
Ar 1917  0.2173176E+02  0.3758743E+02  0.4778039E+02  0.0000000E+00
Ar 1918  0.2428159E+02  0.4014683E+02  0.4806160E+02  0.0000000E+00
Ar 1919  0.2399069E+02  0.3734991E+02  0.5087072E+02  0.0000000E+00
Ar 1920  0.2158007E+02  0.3994436E+02  0.5101197E+02  0.0000000E+00
Ar 1921  0.2123224E+02  0.4267093E+02  0.2786050E+00  0.0000000E+00
Ar 1922  0.2373332E+02  0.4544462E+02  0.5361072E+02  0.0000000E+00
Ar 1923  0.2425980E+02  0.4310328E+02  0.2587593E+01  0.0000000E+00
Ar 1924  0.2129949E+02  0.4556917E+02  0.2669920E+01  0.0000000E+00
Ar 1925  0.2154863E+02  0.4302147E+02  0.5347616E+01  0.0000000E+00
Ar 1926  0.2435625E+02  0.4562890E+02  0.5428556E+01  0.0000000E+00
Ar 1927  0.2444742E+02  0.4287723E+02  0.7916635E+01  0.0000000E+00
Ar 1928  0.2163107E+02  0.4567306E+02  0.8240950E+01  0.0000000E+00
Ar 1929  0.2172423E+02  0.4290229E+02  0.1077005E+02  0.0000000E+00
Ar 1930  0.2435241E+02  0.4567479E+02  0.1070172E+02  0.0000000E+00
Ar 1931  0.2420138E+02  0.4275107E+02  0.1342911E+02  0.0000000E+00
Ar 1932  0.2165526E+02  0.4556176E+02  0.1343421E+02  0.0000000E+00
Ar 1933  0.2152218E+02  0.4293704E+02  0.1612068E+02  0.0000000E+00
Ar 1934  0.2427342E+02  0.4557531E+02  0.1619730E+02  0.0000000E+00
Ar 1935  0.2418837E+02  0.4305676E+02  0.1885547E+02  0.0000000E+00
Ar 1936  0.2145079E+02  0.4541941E+02  0.1880732E+02  0.0000000E+00
Ar 1937  0.2155416E+02  0.4300856E+02  0.2155417E+02  0.0000000E+00
Ar 1938  0.2387874E+02  0.4565097E+02  0.2145186E+02  0.0000000E+00
Ar 1939  0.2411334E+02  0.4281415E+02  0.2411334E+02  0.0000000E+00
Ar 1940  0.2145186E+02  0.4565097E+02  0.2387874E+02  0.0000000E+00
Ar 1941  0.2141024E+02  0.4302721E+02  0.2672383E+02  0.0000000E+00
Ar 1942  0.2413727E+02  0.4537936E+02  0.2673869E+02  0.0000000E+00
Ar 1943  0.2405663E+02  0.4275499E+02  0.2929871E+02  0.0000000E+00
Ar 1944  0.2132720E+02  0.4572035E+02  0.2947394E+02  0.0000000E+00
Ar 1945  0.2181366E+02  0.4295804E+02  0.3207338E+02  0.0000000E+00
Ar 1946  0.2419307E+02  0.4562630E+02  0.3203976E+02  0.0000000E+00
Ar 1947  0.2417845E+02  0.4304581E+02  0.3493306E+02  0.0000000E+00
Ar 1948  0.2154125E+02  0.4554856E+02  0.3477510E+02  0.0000000E+00
Ar 1949  0.2146741E+02  0.4291830E+02  0.3762700E+02  0.0000000E+00
Ar 1950  0.2436745E+02  0.4549206E+02  0.3752849E+02  0.0000000E+00
Ar 1951  0.2428784E+02  0.4296073E+02  0.4016034E+02  0.0000000E+00
Ar 1952  0.2148793E+02  0.4549229E+02  0.4017295E+02  0.0000000E+00
Ar 1953  0.2141679E+02  0.4277171E+02  0.4277170E+02  0.0000000E+00
Ar 1954  0.2405615E+02  0.4549533E+02  0.4272108E+02  0.0000000E+00
Ar 1955  0.2405615E+02  0.4272108E+02  0.4549533E+02  0.0000000E+00
Ar 1956  0.2181893E+02  0.4568187E+02  0.4568188E+02  0.0000000E+00
Ar 1957  0.2157913E+02  0.4271993E+02  0.4831499E+02  0.0000000E+00
Ar 1958  0.2423429E+02  0.4542894E+02  0.4844139E+02  0.0000000E+00
Ar 1959  0.2406452E+02  0.4279329E+02  0.5115271E+02  0.0000000E+00
Ar 1960  0.2151179E+02  0.4554311E+02  0.5089864E+02  0.0000000E+00
Ar 1961  0.2137984E+02  0.4832850E+02  0.2048028E+00  0.0000000E+00
Ar 1962  0.2417056E+02  0.5092210E+02  0.2170276E+00  0.0000000E+00
Ar 1963  0.2397888E+02  0.4837943E+02  0.3060551E+01  0.0000000E+00
Ar 1964  0.2147041E+02  0.5104378E+02  0.2761686E+01  0.0000000E+00
Ar 1965  0.2132341E+02  0.4785853E+02  0.5442202E+01  0.0000000E+00
Ar 1966  0.2404605E+02  0.5112157E+02  0.5368252E+01  0.0000000E+00
Ar 1967  0.2403025E+02  0.4823175E+02  0.8199213E+01  0.0000000E+00
Ar 1968  0.2134847E+02  0.5085498E+02  0.8066174E+01  0.0000000E+00
Ar 1969  0.2180721E+02  0.4844889E+02  0.1070446E+02  0.0000000E+00
Ar 1970  0.2395074E+02  0.5115854E+02  0.1080728E+02  0.0000000E+00
Ar 1971  0.2423237E+02  0.4850080E+02  0.1364812E+02  0.0000000E+00
Ar 1972  0.2140620E+02  0.5092029E+02  0.1354074E+02  0.0000000E+00
Ar 1973  0.2150426E+02  0.4827020E+02  0.1617837E+02  0.0000000E+00
Ar 1974  0.2426294E+02  0.5110975E+02  0.1624414E+02  0.0000000E+00
Ar 1975  0.2395420E+02  0.4813239E+02  0.1874629E+02  0.0000000E+00
Ar 1976  0.2167694E+02  0.5100743E+02  0.1897354E+02  0.0000000E+00
Ar 1977  0.2147637E+02  0.4828254E+02  0.2147637E+02  0.0000000E+00
Ar 1978  0.2422125E+02  0.5092700E+02  0.2163699E+02  0.0000000E+00
Ar 1979  0.2408182E+02  0.4814207E+02  0.2408182E+02  0.0000000E+00
Ar 1980  0.2163700E+02  0.5092700E+02  0.2422125E+02  0.0000000E+00
Ar 1981  0.2112054E+02  0.4836069E+02  0.2675686E+02  0.0000000E+00
Ar 1982  0.2407654E+02  0.5064057E+02  0.2693745E+02  0.0000000E+00
Ar 1983  0.2402102E+02  0.4814061E+02  0.2936905E+02  0.0000000E+00
Ar 1984  0.2151760E+02  0.5084349E+02  0.2951984E+02  0.0000000E+00
Ar 1985  0.2165401E+02  0.4822865E+02  0.3229305E+02  0.0000000E+00
Ar 1986  0.2419842E+02  0.5067219E+02  0.3213484E+02  0.0000000E+00
Ar 1987  0.2404942E+02  0.4802276E+02  0.3484748E+02  0.0000000E+00
Ar 1988  0.2163891E+02  0.5098148E+02  0.3471816E+02  0.0000000E+00
Ar 1989  0.2173177E+02  0.4778039E+02  0.3758743E+02  0.0000000E+00
Ar 1990  0.2399068E+02  0.5087072E+02  0.3734991E+02  0.0000000E+00
Ar 1991  0.2428160E+02  0.4806160E+02  0.4014683E+02  0.0000000E+00
Ar 1992  0.2158007E+02  0.5101197E+02  0.3994436E+02  0.0000000E+00
Ar 1993  0.2157913E+02  0.4831499E+02  0.4271993E+02  0.0000000E+00
Ar 1994  0.2406452E+02  0.5115271E+02  0.4279330E+02  0.0000000E+00
Ar 1995  0.2423429E+02  0.4844139E+02  0.4542894E+02  0.0000000E+00
Ar 1996  0.2151179E+02  0.5089865E+02  0.4554311E+02  0.0000000E+00
Ar 1997  0.2148931E+02  0.4841469E+02  0.4841469E+02  0.0000000E+00
Ar 1998  0.2412513E+02  0.5129115E+02  0.4815291E+02  0.0000000E+00
Ar 1999  0.2412513E+02  0.4815291E+02  0.5129115E+02  0.0000000E+00
Ar 2000  0.2181210E+02  0.5096110E+02  0.5096110E+02  0.0000000E+00
Ar 2001  0.2672581E+02  0.1599165E+00  0.1599189E+00  0.0000000E+00
Ar 2002  0.2936805E+02  0.2546247E+01  0.5843926E-01  0.0000000E+00
Ar 2003  0.2936805E+02  0.5844110E-01  0.2546246E+01  0.0000000E+00
Ar 2004  0.2642121E+02  0.2787204E+01  0.2787203E+01  0.0000000E+00
Ar 2005  0.2676705E+02  0.2159954E+00  0.5397696E+01  0.0000000E+00
Ar 2006  0.2918426E+02  0.2661748E+01  0.5334354E+01  0.0000000E+00
Ar 2007  0.2936970E+02  0.3173434E+00  0.8247475E+01  0.0000000E+00
Ar 2008  0.2662744E+02  0.2900357E+01  0.8106111E+01  0.0000000E+00
Ar 2009  0.2692525E+02  0.5355527E+02  0.1071477E+02  0.0000000E+00
Ar 2010  0.2926662E+02  0.3059032E+01  0.1097818E+02  0.0000000E+00
Ar 2011  0.2965129E+02  0.3053915E+00  0.1394227E+02  0.0000000E+00
Ar 2012  0.2654856E+02  0.2494205E+01  0.1355573E+02  0.0000000E+00
Ar 2013  0.2671637E+02  0.2198496E+00  0.1622227E+02  0.0000000E+00
Ar 2014  0.2985118E+02  0.2809983E+01  0.1626466E+02  0.0000000E+00
Ar 2015  0.2958744E+02  0.5347380E+02  0.1888979E+02  0.0000000E+00
Ar 2016  0.2708604E+02  0.2763995E+01  0.1886801E+02  0.0000000E+00
Ar 2017  0.2669349E+02  0.2601492E+00  0.2152299E+02  0.0000000E+00
Ar 2018  0.2947702E+02  0.2942948E+01  0.2147643E+02  0.0000000E+00
Ar 2019  0.2932443E+02  0.5348992E+02  0.2432855E+02  0.0000000E+00
Ar 2020  0.2702059E+02  0.2620894E+01  0.2414295E+02  0.0000000E+00
Ar 2021  0.2655804E+02  0.5336539E+02  0.2655804E+02  0.0000000E+00
Ar 2022  0.2936578E+02  0.2355937E+01  0.2690125E+02  0.0000000E+00
Ar 2023  0.2955379E+02  0.1634010E+00  0.2955378E+02  0.0000000E+00
Ar 2024  0.2690125E+02  0.2355933E+01  0.2936578E+02  0.0000000E+00
Ar 2025  0.2665889E+02  0.5349154E+02  0.3227884E+02  0.0000000E+00
Ar 2026  0.2946602E+02  0.2666532E+01  0.3202916E+02  0.0000000E+00
Ar 2027  0.2959715E+02  0.5294340E+02  0.3471478E+02  0.0000000E+00
Ar 2028  0.2671010E+02  0.2492036E+01  0.3474961E+02  0.0000000E+00
Ar 2029  0.2674783E+02  0.5342465E+02  0.3712942E+02  0.0000000E+00
Ar 2030  0.2945546E+02  0.2560595E+01  0.3729547E+02  0.0000000E+00
Ar 2031  0.2973580E+02  0.1392363E+00  0.4048446E+02  0.0000000E+00
Ar 2032  0.2688609E+02  0.2705206E+01  0.4016337E+02  0.0000000E+00
Ar 2033  0.2677660E+02  0.1994054E+00  0.4289755E+02  0.0000000E+00
Ar 2034  0.2978544E+02  0.3015106E+01  0.4295483E+02  0.0000000E+00
Ar 2035  0.2940677E+02  0.1314708E+00  0.4536041E+02  0.0000000E+00
Ar 2036  0.2685519E+02  0.2861898E+01  0.4606538E+02  0.0000000E+00
Ar 2037  0.2701400E+02  0.5363309E+02  0.4836352E+02  0.0000000E+00
Ar 2038  0.2948057E+02  0.3113653E+01  0.4855136E+02  0.0000000E+00
Ar 2039  0.2930171E+02  0.5357282E+02  0.5092246E+02  0.0000000E+00
Ar 2040  0.2677896E+02  0.2805459E+01  0.5102895E+02  0.0000000E+00
Ar 2041  0.2676705E+02  0.5397693E+01  0.2159933E+00  0.0000000E+00
Ar 2042  0.2936970E+02  0.8247473E+01  0.3173467E+00  0.0000000E+00
Ar 2043  0.2918425E+02  0.5334353E+01  0.2661748E+01  0.0000000E+00
Ar 2044  0.2662744E+02  0.8106113E+01  0.2900354E+01  0.0000000E+00
Ar 2045  0.2697611E+02  0.5680590E+01  0.5680586E+01  0.0000000E+00
Ar 2046  0.2947549E+02  0.8264907E+01  0.5546860E+01  0.0000000E+00
Ar 2047  0.2947549E+02  0.5546859E+01  0.8264906E+01  0.0000000E+00
Ar 2048  0.2646690E+02  0.8100520E+01  0.8100519E+01  0.0000000E+00
Ar 2049  0.2678824E+02  0.5505884E+01  0.1067421E+02  0.0000000E+00
Ar 2050  0.2946621E+02  0.8062251E+01  0.1082979E+02  0.0000000E+00
Ar 2051  0.2928759E+02  0.5544759E+01  0.1351302E+02  0.0000000E+00
Ar 2052  0.2653483E+02  0.8206618E+01  0.1345497E+02  0.0000000E+00
Ar 2053  0.2674118E+02  0.5191447E+01  0.1588082E+02  0.0000000E+00
Ar 2054  0.2936355E+02  0.8223269E+01  0.1600330E+02  0.0000000E+00
Ar 2055  0.2947055E+02  0.5484528E+01  0.1876432E+02  0.0000000E+00
Ar 2056  0.2683300E+02  0.7987066E+01  0.1840576E+02  0.0000000E+00
Ar 2057  0.2677530E+02  0.5436852E+01  0.2145160E+02  0.0000000E+00
Ar 2058  0.2957030E+02  0.8074018E+01  0.2141173E+02  0.0000000E+00
Ar 2059  0.2950148E+02  0.5428725E+01  0.2422946E+02  0.0000000E+00
Ar 2060  0.2687140E+02  0.8128000E+01  0.2425029E+02  0.0000000E+00
Ar 2061  0.2698734E+02  0.5471795E+01  0.2698734E+02  0.0000000E+00
Ar 2062  0.2932431E+02  0.8138335E+01  0.2683533E+02  0.0000000E+00
Ar 2063  0.2938409E+02  0.5384965E+01  0.2938409E+02  0.0000000E+00
Ar 2064  0.2683533E+02  0.8138335E+01  0.2932431E+02  0.0000000E+00
Ar 2065  0.2675441E+02  0.5247697E+01  0.3213175E+02  0.0000000E+00
Ar 2066  0.2940472E+02  0.8092949E+01  0.3232025E+02  0.0000000E+00
Ar 2067  0.2947418E+02  0.5316128E+01  0.3461445E+02  0.0000000E+00
Ar 2068  0.2699702E+02  0.8072042E+01  0.3487989E+02  0.0000000E+00
Ar 2069  0.2700789E+02  0.5245547E+01  0.3754292E+02  0.0000000E+00
Ar 2070  0.2969429E+02  0.8121938E+01  0.3773980E+02  0.0000000E+00
Ar 2071  0.2968390E+02  0.5187530E+01  0.4021168E+02  0.0000000E+00
Ar 2072  0.2685836E+02  0.7836187E+01  0.4033240E+02  0.0000000E+00
Ar 2073  0.2703861E+02  0.5415622E+01  0.4318035E+02  0.0000000E+00
Ar 2074  0.2957731E+02  0.7762581E+01  0.4274528E+02  0.0000000E+00
Ar 2075  0.2952296E+02  0.5732847E+01  0.4579651E+02  0.0000000E+00
Ar 2076  0.2683178E+02  0.8214075E+01  0.4555806E+02  0.0000000E+00
Ar 2077  0.2693376E+02  0.5736789E+01  0.4822884E+02  0.0000000E+00
Ar 2078  0.2956469E+02  0.8595848E+01  0.4813837E+02  0.0000000E+00
Ar 2079  0.2935698E+02  0.5442595E+01  0.5128200E+02  0.0000000E+00
Ar 2080  0.2669153E+02  0.8063037E+01  0.5095078E+02  0.0000000E+00
Ar 2081  0.2692525E+02  0.1071477E+02  0.5355527E+02  0.0000000E+00
Ar 2082  0.2965129E+02  0.1394227E+02  0.3053910E+00  0.0000000E+00
Ar 2083  0.2926662E+02  0.1097818E+02  0.3059033E+01  0.0000000E+00
Ar 2084  0.2654856E+02  0.1355573E+02  0.2494206E+01  0.0000000E+00
Ar 2085  0.2678824E+02  0.1067421E+02  0.5505883E+01  0.0000000E+00
Ar 2086  0.2928759E+02  0.1351302E+02  0.5544760E+01  0.0000000E+00
Ar 2087  0.2946621E+02  0.1082979E+02  0.8062253E+01  0.0000000E+00
Ar 2088  0.2653483E+02  0.1345497E+02  0.8206617E+01  0.0000000E+00
Ar 2089  0.2686214E+02  0.1068977E+02  0.1068977E+02  0.0000000E+00
Ar 2090  0.2935893E+02  0.1347896E+02  0.1069032E+02  0.0000000E+00
Ar 2091  0.2935893E+02  0.1069033E+02  0.1347896E+02  0.0000000E+00
Ar 2092  0.2673853E+02  0.1332212E+02  0.1332213E+02  0.0000000E+00
Ar 2093  0.2678736E+02  0.1097830E+02  0.1591212E+02  0.0000000E+00
Ar 2094  0.2953614E+02  0.1333558E+02  0.1626155E+02  0.0000000E+00
Ar 2095  0.2936264E+02  0.1076887E+02  0.1874688E+02  0.0000000E+00
Ar 2096  0.2692663E+02  0.1349020E+02  0.1868102E+02  0.0000000E+00
Ar 2097  0.2690461E+02  0.1058500E+02  0.2151929E+02  0.0000000E+00
Ar 2098  0.2955442E+02  0.1344455E+02  0.2146324E+02  0.0000000E+00
Ar 2099  0.2945834E+02  0.1074152E+02  0.2424184E+02  0.0000000E+00
Ar 2100  0.2679965E+02  0.1333781E+02  0.2410208E+02  0.0000000E+00
Ar 2101  0.2692866E+02  0.1081014E+02  0.2692866E+02  0.0000000E+00
Ar 2102  0.2964489E+02  0.1332814E+02  0.2694414E+02  0.0000000E+00
Ar 2103  0.2970315E+02  0.1073470E+02  0.2970315E+02  0.0000000E+00
Ar 2104  0.2694414E+02  0.1332814E+02  0.2964489E+02  0.0000000E+00
Ar 2105  0.2698226E+02  0.1073552E+02  0.3206696E+02  0.0000000E+00
Ar 2106  0.2945521E+02  0.1359507E+02  0.3213788E+02  0.0000000E+00
Ar 2107  0.2966348E+02  0.1084163E+02  0.3480730E+02  0.0000000E+00
Ar 2108  0.2689965E+02  0.1362074E+02  0.3491511E+02  0.0000000E+00
Ar 2109  0.2700101E+02  0.1079430E+02  0.3742028E+02  0.0000000E+00
Ar 2110  0.2952715E+02  0.1361873E+02  0.3731582E+02  0.0000000E+00
Ar 2111  0.2931772E+02  0.1085836E+02  0.4013595E+02  0.0000000E+00
Ar 2112  0.2683845E+02  0.1369280E+02  0.4037978E+02  0.0000000E+00
Ar 2113  0.2699774E+02  0.1094534E+02  0.4285620E+02  0.0000000E+00
Ar 2114  0.2951100E+02  0.1359538E+02  0.4272987E+02  0.0000000E+00
Ar 2115  0.2963973E+02  0.1109622E+02  0.4544996E+02  0.0000000E+00
Ar 2116  0.2677961E+02  0.1335217E+02  0.4568370E+02  0.0000000E+00
Ar 2117  0.2659409E+02  0.1064888E+02  0.4841158E+02  0.0000000E+00
Ar 2118  0.2982821E+02  0.1345024E+02  0.4836609E+02  0.0000000E+00
Ar 2119  0.2969485E+02  0.1101790E+02  0.5086712E+02  0.0000000E+00
Ar 2120  0.2685313E+02  0.1366304E+02  0.5113701E+02  0.0000000E+00
Ar 2121  0.2671637E+02  0.1622227E+02  0.2198506E+00  0.0000000E+00
Ar 2122  0.2958744E+02  0.1888979E+02  0.5347380E+02  0.0000000E+00
Ar 2123  0.2985118E+02  0.1626466E+02  0.2809982E+01  0.0000000E+00
Ar 2124  0.2708604E+02  0.1886801E+02  0.2763996E+01  0.0000000E+00
Ar 2125  0.2674118E+02  0.1588082E+02  0.5191447E+01  0.0000000E+00
Ar 2126  0.2947055E+02  0.1876432E+02  0.5484527E+01  0.0000000E+00
Ar 2127  0.2936355E+02  0.1600330E+02  0.8223268E+01  0.0000000E+00
Ar 2128  0.2683300E+02  0.1840576E+02  0.7987065E+01  0.0000000E+00
Ar 2129  0.2678736E+02  0.1591212E+02  0.1097830E+02  0.0000000E+00
Ar 2130  0.2936264E+02  0.1874688E+02  0.1076887E+02  0.0000000E+00
Ar 2131  0.2953614E+02  0.1626155E+02  0.1333558E+02  0.0000000E+00
Ar 2132  0.2692663E+02  0.1868103E+02  0.1349019E+02  0.0000000E+00
Ar 2133  0.2661238E+02  0.1579587E+02  0.1579587E+02  0.0000000E+00
Ar 2134  0.2947131E+02  0.1892194E+02  0.1596112E+02  0.0000000E+00
Ar 2135  0.2947131E+02  0.1596112E+02  0.1892194E+02  0.0000000E+00
Ar 2136  0.2683746E+02  0.1851389E+02  0.1851389E+02  0.0000000E+00
Ar 2137  0.2692447E+02  0.1607314E+02  0.2167710E+02  0.0000000E+00
Ar 2138  0.2950200E+02  0.1850942E+02  0.2133103E+02  0.0000000E+00
Ar 2139  0.2961821E+02  0.1577819E+02  0.2416457E+02  0.0000000E+00
Ar 2140  0.2679545E+02  0.1891303E+02  0.2405022E+02  0.0000000E+00
Ar 2141  0.2725852E+02  0.1574380E+02  0.2725852E+02  0.0000000E+00
Ar 2142  0.2933732E+02  0.1869184E+02  0.2688147E+02  0.0000000E+00
Ar 2143  0.2967706E+02  0.1599391E+02  0.2967705E+02  0.0000000E+00
Ar 2144  0.2688147E+02  0.1869184E+02  0.2933732E+02  0.0000000E+00
Ar 2145  0.2674459E+02  0.1601398E+02  0.3227974E+02  0.0000000E+00
Ar 2146  0.2944239E+02  0.1872643E+02  0.3196523E+02  0.0000000E+00
Ar 2147  0.2932318E+02  0.1631538E+02  0.3477340E+02  0.0000000E+00
Ar 2148  0.2683141E+02  0.1899482E+02  0.3505136E+02  0.0000000E+00
Ar 2149  0.2677877E+02  0.1628850E+02  0.3740446E+02  0.0000000E+00
Ar 2150  0.2947164E+02  0.1877566E+02  0.3781989E+02  0.0000000E+00
Ar 2151  0.2985456E+02  0.1624577E+02  0.4031892E+02  0.0000000E+00
Ar 2152  0.2688704E+02  0.1896003E+02  0.4041795E+02  0.0000000E+00
Ar 2153  0.2702056E+02  0.1627330E+02  0.4308955E+02  0.0000000E+00
Ar 2154  0.2964708E+02  0.1905693E+02  0.4295617E+02  0.0000000E+00
Ar 2155  0.2954561E+02  0.1609303E+02  0.4571772E+02  0.0000000E+00
Ar 2156  0.2674557E+02  0.1878356E+02  0.4556516E+02  0.0000000E+00
Ar 2157  0.2685192E+02  0.1612962E+02  0.4828202E+02  0.0000000E+00
Ar 2158  0.2947625E+02  0.1882617E+02  0.4827772E+02  0.0000000E+00
Ar 2159  0.2949882E+02  0.1630658E+02  0.5093820E+02  0.0000000E+00
Ar 2160  0.2665589E+02  0.1868154E+02  0.5104423E+02  0.0000000E+00
Ar 2161  0.2669349E+02  0.2152299E+02  0.2601496E+00  0.0000000E+00
Ar 2162  0.2932443E+02  0.2432855E+02  0.5348992E+02  0.0000000E+00
Ar 2163  0.2947702E+02  0.2147643E+02  0.2942949E+01  0.0000000E+00
Ar 2164  0.2702059E+02  0.2414295E+02  0.2620894E+01  0.0000000E+00
Ar 2165  0.2677530E+02  0.2145160E+02  0.5436853E+01  0.0000000E+00
Ar 2166  0.2950148E+02  0.2422946E+02  0.5428725E+01  0.0000000E+00
Ar 2167  0.2957030E+02  0.2141173E+02  0.8074017E+01  0.0000000E+00
Ar 2168  0.2687140E+02  0.2425029E+02  0.8127999E+01  0.0000000E+00
Ar 2169  0.2690461E+02  0.2151928E+02  0.1058500E+02  0.0000000E+00
Ar 2170  0.2945834E+02  0.2424184E+02  0.1074152E+02  0.0000000E+00
Ar 2171  0.2955442E+02  0.2146324E+02  0.1344455E+02  0.0000000E+00
Ar 2172  0.2679965E+02  0.2410208E+02  0.1333781E+02  0.0000000E+00
Ar 2173  0.2692447E+02  0.2167710E+02  0.1607313E+02  0.0000000E+00
Ar 2174  0.2961820E+02  0.2416458E+02  0.1577819E+02  0.0000000E+00
Ar 2175  0.2950200E+02  0.2133103E+02  0.1850943E+02  0.0000000E+00
Ar 2176  0.2679545E+02  0.2405022E+02  0.1891303E+02  0.0000000E+00
Ar 2177  0.2671759E+02  0.2115091E+02  0.2115091E+02  0.0000000E+00
Ar 2178  0.2966813E+02  0.2377705E+02  0.2108826E+02  0.0000000E+00
Ar 2179  0.2966812E+02  0.2108826E+02  0.2377705E+02  0.0000000E+00
Ar 2180  0.2673230E+02  0.2380499E+02  0.2380499E+02  0.0000000E+00
Ar 2181  0.2669048E+02  0.2125428E+02  0.2669047E+02  0.0000000E+00
Ar 2182  0.2940826E+02  0.2405879E+02  0.2651532E+02  0.0000000E+00
Ar 2183  0.2938637E+02  0.2135150E+02  0.2938637E+02  0.0000000E+00
Ar 2184  0.2651532E+02  0.2405880E+02  0.2940825E+02  0.0000000E+00
Ar 2185  0.2685145E+02  0.2128439E+02  0.3213423E+02  0.0000000E+00
Ar 2186  0.2933072E+02  0.2398887E+02  0.3187176E+02  0.0000000E+00
Ar 2187  0.2953608E+02  0.2155072E+02  0.3471037E+02  0.0000000E+00
Ar 2188  0.2679441E+02  0.2428885E+02  0.3460935E+02  0.0000000E+00
Ar 2189  0.2689460E+02  0.2172740E+02  0.3756715E+02  0.0000000E+00
Ar 2190  0.2943697E+02  0.2422754E+02  0.3741107E+02  0.0000000E+00
Ar 2191  0.2971018E+02  0.2141457E+02  0.4011330E+02  0.0000000E+00
Ar 2192  0.2665640E+02  0.2399443E+02  0.4020813E+02  0.0000000E+00
Ar 2193  0.2672383E+02  0.2141024E+02  0.4302721E+02  0.0000000E+00
Ar 2194  0.2929871E+02  0.2405664E+02  0.4275498E+02  0.0000000E+00
Ar 2195  0.2947394E+02  0.2132720E+02  0.4572036E+02  0.0000000E+00
Ar 2196  0.2673869E+02  0.2413727E+02  0.4537936E+02  0.0000000E+00
Ar 2197  0.2675686E+02  0.2112054E+02  0.4836069E+02  0.0000000E+00
Ar 2198  0.2936905E+02  0.2402102E+02  0.4814061E+02  0.0000000E+00
Ar 2199  0.2951984E+02  0.2151760E+02  0.5084349E+02  0.0000000E+00
Ar 2200  0.2693745E+02  0.2407653E+02  0.5064057E+02  0.0000000E+00
Ar 2201  0.2655804E+02  0.2655804E+02  0.5336539E+02  0.0000000E+00
Ar 2202  0.2955379E+02  0.2955378E+02  0.1634021E+00  0.0000000E+00
Ar 2203  0.2936578E+02  0.2690125E+02  0.2355936E+01  0.0000000E+00
Ar 2204  0.2690125E+02  0.2936578E+02  0.2355934E+01  0.0000000E+00
Ar 2205  0.2698733E+02  0.2698734E+02  0.5471794E+01  0.0000000E+00
Ar 2206  0.2938409E+02  0.2938409E+02  0.5384964E+01  0.0000000E+00
Ar 2207  0.2932431E+02  0.2683533E+02  0.8138337E+01  0.0000000E+00
Ar 2208  0.2683533E+02  0.2932431E+02  0.8138334E+01  0.0000000E+00
Ar 2209  0.2692865E+02  0.2692866E+02  0.1081014E+02  0.0000000E+00
Ar 2210  0.2970315E+02  0.2970315E+02  0.1073471E+02  0.0000000E+00
Ar 2211  0.2964489E+02  0.2694414E+02  0.1332814E+02  0.0000000E+00
Ar 2212  0.2694414E+02  0.2964489E+02  0.1332814E+02  0.0000000E+00
Ar 2213  0.2725852E+02  0.2725852E+02  0.1574380E+02  0.0000000E+00
Ar 2214  0.2967706E+02  0.2967705E+02  0.1599391E+02  0.0000000E+00
Ar 2215  0.2933732E+02  0.2688148E+02  0.1869184E+02  0.0000000E+00
Ar 2216  0.2688148E+02  0.2933732E+02  0.1869184E+02  0.0000000E+00
Ar 2217  0.2669047E+02  0.2669047E+02  0.2125428E+02  0.0000000E+00
Ar 2218  0.2938637E+02  0.2938637E+02  0.2135151E+02  0.0000000E+00
Ar 2219  0.2940826E+02  0.2651532E+02  0.2405879E+02  0.0000000E+00
Ar 2220  0.2651532E+02  0.2940825E+02  0.2405879E+02  0.0000000E+00
Ar 2221  0.2657758E+02  0.2657758E+02  0.2657758E+02  0.0000000E+00
Ar 2222  0.2912223E+02  0.2912223E+02  0.2662960E+02  0.0000000E+00
Ar 2223  0.2912223E+02  0.2662960E+02  0.2912223E+02  0.0000000E+00
Ar 2224  0.2662961E+02  0.2912223E+02  0.2912223E+02  0.0000000E+00
Ar 2225  0.2666075E+02  0.2666075E+02  0.3208944E+02  0.0000000E+00
Ar 2226  0.2927791E+02  0.2927792E+02  0.3207557E+02  0.0000000E+00
Ar 2227  0.2939737E+02  0.2667797E+02  0.3501287E+02  0.0000000E+00
Ar 2228  0.2667797E+02  0.2939737E+02  0.3501287E+02  0.0000000E+00
Ar 2229  0.2676655E+02  0.2676655E+02  0.3778240E+02  0.0000000E+00
Ar 2230  0.2939256E+02  0.2939256E+02  0.3749741E+02  0.0000000E+00
Ar 2231  0.2955678E+02  0.2660498E+02  0.4013561E+02  0.0000000E+00
Ar 2232  0.2660498E+02  0.2955678E+02  0.4013561E+02  0.0000000E+00
Ar 2233  0.2685903E+02  0.2685902E+02  0.4268700E+02  0.0000000E+00
Ar 2234  0.2956352E+02  0.2956352E+02  0.4285779E+02  0.0000000E+00
Ar 2235  0.2954751E+02  0.2690030E+02  0.4542779E+02  0.0000000E+00
Ar 2236  0.2690030E+02  0.2954751E+02  0.4542779E+02  0.0000000E+00
Ar 2237  0.2678353E+02  0.2678353E+02  0.4787511E+02  0.0000000E+00
Ar 2238  0.2933199E+02  0.2933199E+02  0.4821666E+02  0.0000000E+00
Ar 2239  0.2948926E+02  0.2690063E+02  0.5086084E+02  0.0000000E+00
Ar 2240  0.2690063E+02  0.2948925E+02  0.5086084E+02  0.0000000E+00
Ar 2241  0.2665889E+02  0.3227884E+02  0.5349155E+02  0.0000000E+00
Ar 2242  0.2959715E+02  0.3471478E+02  0.5294340E+02  0.0000000E+00
Ar 2243  0.2946602E+02  0.3202916E+02  0.2666532E+01  0.0000000E+00
Ar 2244  0.2671010E+02  0.3474961E+02  0.2492040E+01  0.0000000E+00
Ar 2245  0.2675440E+02  0.3213175E+02  0.5247700E+01  0.0000000E+00
Ar 2246  0.2947418E+02  0.3461445E+02  0.5316130E+01  0.0000000E+00
Ar 2247  0.2940472E+02  0.3232025E+02  0.8092950E+01  0.0000000E+00
Ar 2248  0.2699702E+02  0.3487989E+02  0.8072042E+01  0.0000000E+00
Ar 2249  0.2698226E+02  0.3206696E+02  0.1073552E+02  0.0000000E+00
Ar 2250  0.2966348E+02  0.3480730E+02  0.1084162E+02  0.0000000E+00
Ar 2251  0.2945521E+02  0.3213789E+02  0.1359506E+02  0.0000000E+00
Ar 2252  0.2689965E+02  0.3491510E+02  0.1362074E+02  0.0000000E+00
Ar 2253  0.2674459E+02  0.3227974E+02  0.1601398E+02  0.0000000E+00
Ar 2254  0.2932318E+02  0.3477339E+02  0.1631537E+02  0.0000000E+00
Ar 2255  0.2944239E+02  0.3196523E+02  0.1872643E+02  0.0000000E+00
Ar 2256  0.2683141E+02  0.3505136E+02  0.1899482E+02  0.0000000E+00
Ar 2257  0.2685145E+02  0.3213423E+02  0.2128439E+02  0.0000000E+00
Ar 2258  0.2953608E+02  0.3471037E+02  0.2155072E+02  0.0000000E+00
Ar 2259  0.2933072E+02  0.3187176E+02  0.2398887E+02  0.0000000E+00
Ar 2260  0.2679441E+02  0.3460935E+02  0.2428885E+02  0.0000000E+00
Ar 2261  0.2666075E+02  0.3208944E+02  0.2666075E+02  0.0000000E+00
Ar 2262  0.2939737E+02  0.3501287E+02  0.2667797E+02  0.0000000E+00
Ar 2263  0.2927791E+02  0.3207556E+02  0.2927791E+02  0.0000000E+00
Ar 2264  0.2667797E+02  0.3501286E+02  0.2939737E+02  0.0000000E+00
Ar 2265  0.2678346E+02  0.3195368E+02  0.3195368E+02  0.0000000E+00
Ar 2266  0.2929396E+02  0.3451652E+02  0.3186647E+02  0.0000000E+00
Ar 2267  0.2929396E+02  0.3186647E+02  0.3451652E+02  0.0000000E+00
Ar 2268  0.2645758E+02  0.3455579E+02  0.3455579E+02  0.0000000E+00
Ar 2269  0.2678129E+02  0.3218665E+02  0.3739587E+02  0.0000000E+00
Ar 2270  0.2940187E+02  0.3463559E+02  0.3716622E+02  0.0000000E+00
Ar 2271  0.2935365E+02  0.3208159E+02  0.4016142E+02  0.0000000E+00
Ar 2272  0.2695895E+02  0.3469815E+02  0.4018330E+02  0.0000000E+00
Ar 2273  0.2675226E+02  0.3203912E+02  0.4271353E+02  0.0000000E+00
Ar 2274  0.2965849E+02  0.3472856E+02  0.4296608E+02  0.0000000E+00
Ar 2275  0.2964377E+02  0.3203359E+02  0.4548318E+02  0.0000000E+00
Ar 2276  0.2700178E+02  0.3452661E+02  0.4551007E+02  0.0000000E+00
Ar 2277  0.2694883E+02  0.3227703E+02  0.4820255E+02  0.0000000E+00
Ar 2278  0.2946962E+02  0.3474779E+02  0.4837694E+02  0.0000000E+00
Ar 2279  0.2943518E+02  0.3190504E+02  0.5087475E+02  0.0000000E+00
Ar 2280  0.2669598E+02  0.3469616E+02  0.5087964E+02  0.0000000E+00
Ar 2281  0.2674783E+02  0.3712941E+02  0.5342465E+02  0.0000000E+00
Ar 2282  0.2973580E+02  0.4048446E+02  0.1392378E+00  0.0000000E+00
Ar 2283  0.2945546E+02  0.3729547E+02  0.2560594E+01  0.0000000E+00
Ar 2284  0.2688610E+02  0.4016337E+02  0.2705207E+01  0.0000000E+00
Ar 2285  0.2700789E+02  0.3754292E+02  0.5245549E+01  0.0000000E+00
Ar 2286  0.2968390E+02  0.4021168E+02  0.5187527E+01  0.0000000E+00
Ar 2287  0.2969429E+02  0.3773980E+02  0.8121939E+01  0.0000000E+00
Ar 2288  0.2685836E+02  0.4033241E+02  0.7836188E+01  0.0000000E+00
Ar 2289  0.2700102E+02  0.3742028E+02  0.1079430E+02  0.0000000E+00
Ar 2290  0.2931772E+02  0.4013595E+02  0.1085836E+02  0.0000000E+00
Ar 2291  0.2952715E+02  0.3731582E+02  0.1361873E+02  0.0000000E+00
Ar 2292  0.2683845E+02  0.4037978E+02  0.1369280E+02  0.0000000E+00
Ar 2293  0.2677877E+02  0.3740446E+02  0.1628850E+02  0.0000000E+00
Ar 2294  0.2985456E+02  0.4031892E+02  0.1624577E+02  0.0000000E+00
Ar 2295  0.2947164E+02  0.3781989E+02  0.1877567E+02  0.0000000E+00
Ar 2296  0.2688704E+02  0.4041795E+02  0.1896003E+02  0.0000000E+00
Ar 2297  0.2689460E+02  0.3756715E+02  0.2172740E+02  0.0000000E+00
Ar 2298  0.2971018E+02  0.4011330E+02  0.2141457E+02  0.0000000E+00
Ar 2299  0.2943697E+02  0.3741107E+02  0.2422754E+02  0.0000000E+00
Ar 2300  0.2665640E+02  0.4020813E+02  0.2399443E+02  0.0000000E+00
Ar 2301  0.2676655E+02  0.3778239E+02  0.2676655E+02  0.0000000E+00
Ar 2302  0.2955678E+02  0.4013561E+02  0.2660498E+02  0.0000000E+00
Ar 2303  0.2939256E+02  0.3749741E+02  0.2939256E+02  0.0000000E+00
Ar 2304  0.2660498E+02  0.4013561E+02  0.2955678E+02  0.0000000E+00
Ar 2305  0.2678130E+02  0.3739588E+02  0.3218664E+02  0.0000000E+00
Ar 2306  0.2935366E+02  0.4016141E+02  0.3208160E+02  0.0000000E+00
Ar 2307  0.2940187E+02  0.3716622E+02  0.3463559E+02  0.0000000E+00
Ar 2308  0.2695895E+02  0.4018330E+02  0.3469815E+02  0.0000000E+00
Ar 2309  0.2679162E+02  0.3709898E+02  0.3709898E+02  0.0000000E+00
Ar 2310  0.2926841E+02  0.3983590E+02  0.3722888E+02  0.0000000E+00
Ar 2311  0.2926841E+02  0.3722888E+02  0.3983590E+02  0.0000000E+00
Ar 2312  0.2706905E+02  0.4014573E+02  0.4014573E+02  0.0000000E+00
Ar 2313  0.2718863E+02  0.3726423E+02  0.4289381E+02  0.0000000E+00
Ar 2314  0.2946111E+02  0.3983588E+02  0.4267834E+02  0.0000000E+00
Ar 2315  0.2950737E+02  0.3733188E+02  0.4574501E+02  0.0000000E+00
Ar 2316  0.2692216E+02  0.3981697E+02  0.4573465E+02  0.0000000E+00
Ar 2317  0.2677534E+02  0.3736930E+02  0.4838808E+02  0.0000000E+00
Ar 2318  0.2924073E+02  0.4019021E+02  0.4822337E+02  0.0000000E+00
Ar 2319  0.2957163E+02  0.3757258E+02  0.5075851E+02  0.0000000E+00
Ar 2320  0.2681992E+02  0.4007751E+02  0.5122148E+02  0.0000000E+00
Ar 2321  0.2677660E+02  0.4289755E+02  0.1994058E+00  0.0000000E+00
Ar 2322  0.2940677E+02  0.4536041E+02  0.1314699E+00  0.0000000E+00
Ar 2323  0.2978544E+02  0.4295483E+02  0.3015103E+01  0.0000000E+00
Ar 2324  0.2685519E+02  0.4606538E+02  0.2861898E+01  0.0000000E+00
Ar 2325  0.2703861E+02  0.4318035E+02  0.5415622E+01  0.0000000E+00
Ar 2326  0.2952296E+02  0.4579651E+02  0.5732845E+01  0.0000000E+00
Ar 2327  0.2957731E+02  0.4274528E+02  0.7762582E+01  0.0000000E+00
Ar 2328  0.2683178E+02  0.4555806E+02  0.8214074E+01  0.0000000E+00
Ar 2329  0.2699774E+02  0.4285620E+02  0.1094534E+02  0.0000000E+00
Ar 2330  0.2963973E+02  0.4544996E+02  0.1109622E+02  0.0000000E+00
Ar 2331  0.2951100E+02  0.4272987E+02  0.1359538E+02  0.0000000E+00
Ar 2332  0.2677961E+02  0.4568370E+02  0.1335217E+02  0.0000000E+00
Ar 2333  0.2702056E+02  0.4308955E+02  0.1627330E+02  0.0000000E+00
Ar 2334  0.2954561E+02  0.4571772E+02  0.1609303E+02  0.0000000E+00
Ar 2335  0.2964708E+02  0.4295617E+02  0.1905692E+02  0.0000000E+00
Ar 2336  0.2674557E+02  0.4556516E+02  0.1878356E+02  0.0000000E+00
Ar 2337  0.2672384E+02  0.4302721E+02  0.2141024E+02  0.0000000E+00
Ar 2338  0.2947394E+02  0.4572036E+02  0.2132720E+02  0.0000000E+00
Ar 2339  0.2929871E+02  0.4275498E+02  0.2405663E+02  0.0000000E+00
Ar 2340  0.2673869E+02  0.4537936E+02  0.2413727E+02  0.0000000E+00
Ar 2341  0.2685903E+02  0.4268700E+02  0.2685902E+02  0.0000000E+00
Ar 2342  0.2954751E+02  0.4542779E+02  0.2690029E+02  0.0000000E+00
Ar 2343  0.2956352E+02  0.4285779E+02  0.2956352E+02  0.0000000E+00
Ar 2344  0.2690030E+02  0.4542779E+02  0.2954751E+02  0.0000000E+00
Ar 2345  0.2675227E+02  0.4271353E+02  0.3203912E+02  0.0000000E+00
Ar 2346  0.2964377E+02  0.4548318E+02  0.3203359E+02  0.0000000E+00
Ar 2347  0.2965849E+02  0.4296607E+02  0.3472856E+02  0.0000000E+00
Ar 2348  0.2700178E+02  0.4551007E+02  0.3452661E+02  0.0000000E+00
Ar 2349  0.2718864E+02  0.4289381E+02  0.3726423E+02  0.0000000E+00
Ar 2350  0.2950737E+02  0.4574501E+02  0.3733187E+02  0.0000000E+00
Ar 2351  0.2946111E+02  0.4267834E+02  0.3983588E+02  0.0000000E+00
Ar 2352  0.2692216E+02  0.4573465E+02  0.3981697E+02  0.0000000E+00
Ar 2353  0.2677345E+02  0.4295882E+02  0.4295883E+02  0.0000000E+00
Ar 2354  0.2951352E+02  0.4547831E+02  0.4291106E+02  0.0000000E+00
Ar 2355  0.2951353E+02  0.4291106E+02  0.4547831E+02  0.0000000E+00
Ar 2356  0.2693244E+02  0.4543539E+02  0.4543539E+02  0.0000000E+00
Ar 2357  0.2679135E+02  0.4272036E+02  0.4797526E+02  0.0000000E+00
Ar 2358  0.2918779E+02  0.4570930E+02  0.4826458E+02  0.0000000E+00
Ar 2359  0.2917144E+02  0.4289850E+02  0.5102369E+02  0.0000000E+00
Ar 2360  0.2681396E+02  0.4545918E+02  0.5125898E+02  0.0000000E+00
Ar 2361  0.2701400E+02  0.4836352E+02  0.5363309E+02  0.0000000E+00
Ar 2362  0.2930171E+02  0.5092246E+02  0.5357282E+02  0.0000000E+00
Ar 2363  0.2948057E+02  0.4855136E+02  0.3113652E+01  0.0000000E+00
Ar 2364  0.2677896E+02  0.5102894E+02  0.2805459E+01  0.0000000E+00
Ar 2365  0.2693376E+02  0.4822883E+02  0.5736793E+01  0.0000000E+00
Ar 2366  0.2935697E+02  0.5128200E+02  0.5442595E+01  0.0000000E+00
Ar 2367  0.2956469E+02  0.4813837E+02  0.8595849E+01  0.0000000E+00
Ar 2368  0.2669153E+02  0.5095078E+02  0.8063037E+01  0.0000000E+00
Ar 2369  0.2659409E+02  0.4841158E+02  0.1064888E+02  0.0000000E+00
Ar 2370  0.2969485E+02  0.5086712E+02  0.1101790E+02  0.0000000E+00
Ar 2371  0.2982821E+02  0.4836609E+02  0.1345024E+02  0.0000000E+00
Ar 2372  0.2685313E+02  0.5113701E+02  0.1366304E+02  0.0000000E+00
Ar 2373  0.2685192E+02  0.4828202E+02  0.1612962E+02  0.0000000E+00
Ar 2374  0.2949882E+02  0.5093820E+02  0.1630658E+02  0.0000000E+00
Ar 2375  0.2947625E+02  0.4827772E+02  0.1882617E+02  0.0000000E+00
Ar 2376  0.2665589E+02  0.5104424E+02  0.1868154E+02  0.0000000E+00
Ar 2377  0.2675686E+02  0.4836069E+02  0.2112053E+02  0.0000000E+00
Ar 2378  0.2951984E+02  0.5084349E+02  0.2151760E+02  0.0000000E+00
Ar 2379  0.2936905E+02  0.4814061E+02  0.2402102E+02  0.0000000E+00
Ar 2380  0.2693745E+02  0.5064057E+02  0.2407653E+02  0.0000000E+00
Ar 2381  0.2678353E+02  0.4787511E+02  0.2678353E+02  0.0000000E+00
Ar 2382  0.2948925E+02  0.5086084E+02  0.2690062E+02  0.0000000E+00
Ar 2383  0.2933199E+02  0.4821666E+02  0.2933199E+02  0.0000000E+00
Ar 2384  0.2690063E+02  0.5086083E+02  0.2948925E+02  0.0000000E+00
Ar 2385  0.2694883E+02  0.4820255E+02  0.3227703E+02  0.0000000E+00
Ar 2386  0.2943518E+02  0.5087475E+02  0.3190504E+02  0.0000000E+00
Ar 2387  0.2946962E+02  0.4837695E+02  0.3474779E+02  0.0000000E+00
Ar 2388  0.2669598E+02  0.5087964E+02  0.3469617E+02  0.0000000E+00
Ar 2389  0.2677534E+02  0.4838808E+02  0.3736930E+02  0.0000000E+00
Ar 2390  0.2957163E+02  0.5075851E+02  0.3757257E+02  0.0000000E+00
Ar 2391  0.2924073E+02  0.4822337E+02  0.4019021E+02  0.0000000E+00
Ar 2392  0.2681991E+02  0.5122148E+02  0.4007751E+02  0.0000000E+00
Ar 2393  0.2679135E+02  0.4797526E+02  0.4272036E+02  0.0000000E+00
Ar 2394  0.2917144E+02  0.5102368E+02  0.4289850E+02  0.0000000E+00
Ar 2395  0.2918779E+02  0.4826458E+02  0.4570930E+02  0.0000000E+00
Ar 2396  0.2681396E+02  0.5125898E+02  0.4545918E+02  0.0000000E+00
Ar 2397  0.2681557E+02  0.4850032E+02  0.4850032E+02  0.0000000E+00
Ar 2398  0.2958298E+02  0.5101637E+02  0.4829738E+02  0.0000000E+00
Ar 2399  0.2958298E+02  0.4829738E+02  0.5101637E+02  0.0000000E+00
Ar 2400  0.2653705E+02  0.5102591E+02  0.5102591E+02  0.0000000E+00
Ar 2401  0.3207877E+02  0.5356497E+02  0.5356497E+02  0.0000000E+00
Ar 2402  0.3433756E+02  0.2962437E+01  0.2188185E+00  0.0000000E+00
Ar 2403  0.3433755E+02  0.2188178E+00  0.2962440E+01  0.0000000E+00
Ar 2404  0.3198136E+02  0.2961128E+01  0.2961128E+01  0.0000000E+00
Ar 2405  0.3173840E+02  0.3258946E+00  0.5515543E+01  0.0000000E+00
Ar 2406  0.3469646E+02  0.2826553E+01  0.5502940E+01  0.0000000E+00
Ar 2407  0.3459640E+02  0.4638966E+00  0.8432443E+01  0.0000000E+00
Ar 2408  0.3195783E+02  0.2827886E+01  0.8253376E+01  0.0000000E+00
Ar 2409  0.3196321E+02  0.2021510E+00  0.1101396E+02  0.0000000E+00
Ar 2410  0.3475302E+02  0.2891652E+01  0.1091233E+02  0.0000000E+00
Ar 2411  0.3494670E+02  0.2798079E+00  0.1322340E+02  0.0000000E+00
Ar 2412  0.3223078E+02  0.2943157E+01  0.1347687E+02  0.0000000E+00
Ar 2413  0.3255942E+02  0.3581052E-01  0.1624301E+02  0.0000000E+00
Ar 2414  0.3481869E+02  0.2885625E+01  0.1612827E+02  0.0000000E+00
Ar 2415  0.3484347E+02  0.5349686E+02  0.1895771E+02  0.0000000E+00
Ar 2416  0.3227470E+02  0.2577334E+01  0.1882368E+02  0.0000000E+00
Ar 2417  0.3214397E+02  0.5350356E+02  0.2164201E+02  0.0000000E+00
Ar 2418  0.3477517E+02  0.2584722E+01  0.2147835E+02  0.0000000E+00
Ar 2419  0.3501173E+02  0.2627226E+00  0.2410501E+02  0.0000000E+00
Ar 2420  0.3217577E+02  0.2683655E+01  0.2414454E+02  0.0000000E+00
Ar 2421  0.3227885E+02  0.5349155E+02  0.2665889E+02  0.0000000E+00
Ar 2422  0.3474961E+02  0.2492040E+01  0.2671010E+02  0.0000000E+00
Ar 2423  0.3471478E+02  0.5294340E+02  0.2959714E+02  0.0000000E+00
Ar 2424  0.3202916E+02  0.2666535E+01  0.2946603E+02  0.0000000E+00
Ar 2425  0.3223468E+02  0.5351560E+02  0.3223468E+02  0.0000000E+00
Ar 2426  0.3472690E+02  0.2786920E+01  0.3216320E+02  0.0000000E+00
Ar 2427  0.3495676E+02  0.5342066E+02  0.3495675E+02  0.0000000E+00
Ar 2428  0.3216320E+02  0.2786914E+01  0.3472689E+02  0.0000000E+00
Ar 2429  0.3228293E+02  0.5361401E+02  0.3769407E+02  0.0000000E+00
Ar 2430  0.3483648E+02  0.2532784E+01  0.3745463E+02  0.0000000E+00
Ar 2431  0.3479091E+02  0.5353026E+02  0.4031899E+02  0.0000000E+00
Ar 2432  0.3253831E+02  0.2684050E+01  0.4042509E+02  0.0000000E+00
Ar 2433  0.3219257E+02  0.1963785E+00  0.4308588E+02  0.0000000E+00
Ar 2434  0.3492728E+02  0.2678125E+01  0.4298685E+02  0.0000000E+00
Ar 2435  0.3476106E+02  0.5361874E+02  0.4591044E+02  0.0000000E+00
Ar 2436  0.3223817E+02  0.3108017E+01  0.4598053E+02  0.0000000E+00
Ar 2437  0.3184189E+02  0.3167857E+00  0.4829098E+02  0.0000000E+00
Ar 2438  0.3486829E+02  0.3062665E+01  0.4847813E+02  0.0000000E+00
Ar 2439  0.3483948E+02  0.5364887E+02  0.5106927E+02  0.0000000E+00
Ar 2440  0.3214179E+02  0.3127540E+01  0.5098586E+02  0.0000000E+00
Ar 2441  0.3173840E+02  0.5515543E+01  0.3258962E+00  0.0000000E+00
Ar 2442  0.3459641E+02  0.8432443E+01  0.4638969E+00  0.0000000E+00
Ar 2443  0.3469646E+02  0.5502941E+01  0.2826550E+01  0.0000000E+00
Ar 2444  0.3195783E+02  0.8253379E+01  0.2827887E+01  0.0000000E+00
Ar 2445  0.3224244E+02  0.5350360E+01  0.5350359E+01  0.0000000E+00
Ar 2446  0.3471191E+02  0.8111153E+01  0.5187016E+01  0.0000000E+00
Ar 2447  0.3471191E+02  0.5187016E+01  0.8111154E+01  0.0000000E+00
Ar 2448  0.3223533E+02  0.8251919E+01  0.8251920E+01  0.0000000E+00
Ar 2449  0.3227572E+02  0.5322707E+01  0.1087374E+02  0.0000000E+00
Ar 2450  0.3509499E+02  0.8270563E+01  0.1090901E+02  0.0000000E+00
Ar 2451  0.3503467E+02  0.5616116E+01  0.1350854E+02  0.0000000E+00
Ar 2452  0.3236378E+02  0.8021259E+01  0.1357510E+02  0.0000000E+00
Ar 2453  0.3226113E+02  0.5397359E+01  0.1609315E+02  0.0000000E+00
Ar 2454  0.3506127E+02  0.8144185E+01  0.1619709E+02  0.0000000E+00
Ar 2455  0.3473354E+02  0.5429385E+01  0.1901582E+02  0.0000000E+00
Ar 2456  0.3219839E+02  0.8201642E+01  0.1885183E+02  0.0000000E+00
Ar 2457  0.3209837E+02  0.5374564E+01  0.2159248E+02  0.0000000E+00
Ar 2458  0.3502962E+02  0.7984423E+01  0.2164730E+02  0.0000000E+00
Ar 2459  0.3480508E+02  0.5406744E+01  0.2438844E+02  0.0000000E+00
Ar 2460  0.3217633E+02  0.8085835E+01  0.2422384E+02  0.0000000E+00
Ar 2461  0.3213176E+02  0.5247697E+01  0.2675440E+02  0.0000000E+00
Ar 2462  0.3487989E+02  0.8072050E+01  0.2699702E+02  0.0000000E+00
Ar 2463  0.3461445E+02  0.5316133E+01  0.2947419E+02  0.0000000E+00
Ar 2464  0.3232026E+02  0.8092948E+01  0.2940472E+02  0.0000000E+00
Ar 2465  0.3210660E+02  0.5549254E+01  0.3210660E+02  0.0000000E+00
Ar 2466  0.3472421E+02  0.8115568E+01  0.3211740E+02  0.0000000E+00
Ar 2467  0.3472432E+02  0.5421817E+01  0.3472431E+02  0.0000000E+00
Ar 2468  0.3211740E+02  0.8115572E+01  0.3472421E+02  0.0000000E+00
Ar 2469  0.3236749E+02  0.5076685E+01  0.3785336E+02  0.0000000E+00
Ar 2470  0.3471278E+02  0.7974909E+01  0.3746737E+02  0.0000000E+00
Ar 2471  0.3484191E+02  0.5306100E+01  0.4029330E+02  0.0000000E+00
Ar 2472  0.3211624E+02  0.8240104E+01  0.4022998E+02  0.0000000E+00
Ar 2473  0.3233882E+02  0.5545763E+01  0.4280636E+02  0.0000000E+00
Ar 2474  0.3498026E+02  0.8421126E+01  0.4289074E+02  0.0000000E+00
Ar 2475  0.3488658E+02  0.5697826E+01  0.4565296E+02  0.0000000E+00
Ar 2476  0.3220149E+02  0.8200773E+01  0.4545989E+02  0.0000000E+00
Ar 2477  0.3191026E+02  0.5867291E+01  0.4837983E+02  0.0000000E+00
Ar 2478  0.3488301E+02  0.8383474E+01  0.4821231E+02  0.0000000E+00
Ar 2479  0.3485237E+02  0.5761919E+01  0.5114217E+02  0.0000000E+00
Ar 2480  0.3215858E+02  0.8364246E+01  0.5107733E+02  0.0000000E+00
Ar 2481  0.3196320E+02  0.1101396E+02  0.2021515E+00  0.0000000E+00
Ar 2482  0.3494670E+02  0.1322339E+02  0.2798065E+00  0.0000000E+00
Ar 2483  0.3475302E+02  0.1091233E+02  0.2891652E+01  0.0000000E+00
Ar 2484  0.3223079E+02  0.1347687E+02  0.2943157E+01  0.0000000E+00
Ar 2485  0.3227572E+02  0.1087374E+02  0.5322708E+01  0.0000000E+00
Ar 2486  0.3503467E+02  0.1350853E+02  0.5616115E+01  0.0000000E+00
Ar 2487  0.3509499E+02  0.1090901E+02  0.8270565E+01  0.0000000E+00
Ar 2488  0.3236378E+02  0.1357511E+02  0.8021261E+01  0.0000000E+00
Ar 2489  0.3227427E+02  0.1094295E+02  0.1094296E+02  0.0000000E+00
Ar 2490  0.3488511E+02  0.1350369E+02  0.1089411E+02  0.0000000E+00
Ar 2491  0.3488511E+02  0.1089411E+02  0.1350369E+02  0.0000000E+00
Ar 2492  0.3212313E+02  0.1342930E+02  0.1342930E+02  0.0000000E+00
Ar 2493  0.3237134E+02  0.1064929E+02  0.1627040E+02  0.0000000E+00
Ar 2494  0.3503493E+02  0.1346843E+02  0.1613228E+02  0.0000000E+00
Ar 2495  0.3479683E+02  0.1069990E+02  0.1907203E+02  0.0000000E+00
Ar 2496  0.3221486E+02  0.1328695E+02  0.1880548E+02  0.0000000E+00
Ar 2497  0.3207156E+02  0.1076648E+02  0.2166524E+02  0.0000000E+00
Ar 2498  0.3495366E+02  0.1361000E+02  0.2157941E+02  0.0000000E+00
Ar 2499  0.3479434E+02  0.1089362E+02  0.2432090E+02  0.0000000E+00
Ar 2500  0.3226513E+02  0.1344786E+02  0.2423983E+02  0.0000000E+00
Ar 2501  0.3206696E+02  0.1073552E+02  0.2698226E+02  0.0000000E+00
Ar 2502  0.3491511E+02  0.1362074E+02  0.2689965E+02  0.0000000E+00
Ar 2503  0.3480730E+02  0.1084163E+02  0.2966348E+02  0.0000000E+00
Ar 2504  0.3213789E+02  0.1359506E+02  0.2945521E+02  0.0000000E+00
Ar 2505  0.3248350E+02  0.1128195E+02  0.3248350E+02  0.0000000E+00
Ar 2506  0.3501988E+02  0.1355507E+02  0.3223149E+02  0.0000000E+00
Ar 2507  0.3500606E+02  0.1089680E+02  0.3500606E+02  0.0000000E+00
Ar 2508  0.3223148E+02  0.1355507E+02  0.3501989E+02  0.0000000E+00
Ar 2509  0.3219777E+02  0.1084934E+02  0.3750259E+02  0.0000000E+00
Ar 2510  0.3517627E+02  0.1352622E+02  0.3779411E+02  0.0000000E+00
Ar 2511  0.3482656E+02  0.1094290E+02  0.4016797E+02  0.0000000E+00
Ar 2512  0.3233301E+02  0.1361687E+02  0.4008257E+02  0.0000000E+00
Ar 2513  0.3226071E+02  0.1101187E+02  0.4281591E+02  0.0000000E+00
Ar 2514  0.3507629E+02  0.1372074E+02  0.4274787E+02  0.0000000E+00
Ar 2515  0.3521054E+02  0.1093040E+02  0.4584407E+02  0.0000000E+00
Ar 2516  0.3235906E+02  0.1372486E+02  0.4566516E+02  0.0000000E+00
Ar 2517  0.3223789E+02  0.1109356E+02  0.4836093E+02  0.0000000E+00
Ar 2518  0.3515009E+02  0.1368966E+02  0.4861401E+02  0.0000000E+00
Ar 2519  0.3504395E+02  0.1081230E+02  0.5114906E+02  0.0000000E+00
Ar 2520  0.3239060E+02  0.1354485E+02  0.5122823E+02  0.0000000E+00
Ar 2521  0.3255942E+02  0.1624301E+02  0.3580858E-01  0.0000000E+00
Ar 2522  0.3484346E+02  0.1895771E+02  0.5349685E+02  0.0000000E+00
Ar 2523  0.3481869E+02  0.1612827E+02  0.2885624E+01  0.0000000E+00
Ar 2524  0.3227470E+02  0.1882368E+02  0.2577334E+01  0.0000000E+00
Ar 2525  0.3226113E+02  0.1609315E+02  0.5397360E+01  0.0000000E+00
Ar 2526  0.3473354E+02  0.1901582E+02  0.5429383E+01  0.0000000E+00
Ar 2527  0.3506127E+02  0.1619709E+02  0.8144185E+01  0.0000000E+00
Ar 2528  0.3219839E+02  0.1885182E+02  0.8201643E+01  0.0000000E+00
Ar 2529  0.3237134E+02  0.1627040E+02  0.1064929E+02  0.0000000E+00
Ar 2530  0.3479683E+02  0.1907203E+02  0.1069989E+02  0.0000000E+00
Ar 2531  0.3503493E+02  0.1613228E+02  0.1346843E+02  0.0000000E+00
Ar 2532  0.3221486E+02  0.1880548E+02  0.1328695E+02  0.0000000E+00
Ar 2533  0.3216551E+02  0.1628552E+02  0.1628552E+02  0.0000000E+00
Ar 2534  0.3484012E+02  0.1876167E+02  0.1617404E+02  0.0000000E+00
Ar 2535  0.3484012E+02  0.1617404E+02  0.1876167E+02  0.0000000E+00
Ar 2536  0.3214911E+02  0.1872861E+02  0.1872861E+02  0.0000000E+00
Ar 2537  0.3238054E+02  0.1618827E+02  0.2150030E+02  0.0000000E+00
Ar 2538  0.3494305E+02  0.1883766E+02  0.2166037E+02  0.0000000E+00
Ar 2539  0.3502083E+02  0.1626322E+02  0.2405957E+02  0.0000000E+00
Ar 2540  0.3232499E+02  0.1863794E+02  0.2431800E+02  0.0000000E+00
Ar 2541  0.3227974E+02  0.1601398E+02  0.2674459E+02  0.0000000E+00
Ar 2542  0.3505136E+02  0.1899482E+02  0.2683141E+02  0.0000000E+00
Ar 2543  0.3477340E+02  0.1631538E+02  0.2932318E+02  0.0000000E+00
Ar 2544  0.3196524E+02  0.1872643E+02  0.2944239E+02  0.0000000E+00
Ar 2545  0.3232442E+02  0.1598623E+02  0.3232442E+02  0.0000000E+00
Ar 2546  0.3490362E+02  0.1888025E+02  0.3225076E+02  0.0000000E+00
Ar 2547  0.3487748E+02  0.1635699E+02  0.3487748E+02  0.0000000E+00
Ar 2548  0.3225076E+02  0.1888025E+02  0.3490362E+02  0.0000000E+00
Ar 2549  0.3197445E+02  0.1629914E+02  0.3745328E+02  0.0000000E+00
Ar 2550  0.3483167E+02  0.1899394E+02  0.3739510E+02  0.0000000E+00
Ar 2551  0.3497178E+02  0.1638030E+02  0.4004348E+02  0.0000000E+00
Ar 2552  0.3229158E+02  0.1875358E+02  0.4052238E+02  0.0000000E+00
Ar 2553  0.3222411E+02  0.1631406E+02  0.4305175E+02  0.0000000E+00
Ar 2554  0.3495086E+02  0.1880629E+02  0.4317718E+02  0.0000000E+00
Ar 2555  0.3500779E+02  0.1633995E+02  0.4562073E+02  0.0000000E+00
Ar 2556  0.3219915E+02  0.1886219E+02  0.4566322E+02  0.0000000E+00
Ar 2557  0.3244610E+02  0.1634129E+02  0.4844359E+02  0.0000000E+00
Ar 2558  0.3523573E+02  0.1907413E+02  0.4845959E+02  0.0000000E+00
Ar 2559  0.3495619E+02  0.1634558E+02  0.5107142E+02  0.0000000E+00
Ar 2560  0.3221189E+02  0.1918077E+02  0.5084101E+02  0.0000000E+00
Ar 2561  0.3214397E+02  0.2164201E+02  0.5350356E+02  0.0000000E+00
Ar 2562  0.3501173E+02  0.2410501E+02  0.2627225E+00  0.0000000E+00
Ar 2563  0.3477517E+02  0.2147835E+02  0.2584722E+01  0.0000000E+00
Ar 2564  0.3217577E+02  0.2414454E+02  0.2683654E+01  0.0000000E+00
Ar 2565  0.3209837E+02  0.2159248E+02  0.5374565E+01  0.0000000E+00
Ar 2566  0.3480508E+02  0.2438844E+02  0.5406744E+01  0.0000000E+00
Ar 2567  0.3502962E+02  0.2164730E+02  0.7984424E+01  0.0000000E+00
Ar 2568  0.3217633E+02  0.2422384E+02  0.8085833E+01  0.0000000E+00
Ar 2569  0.3207156E+02  0.2166524E+02  0.1076648E+02  0.0000000E+00
Ar 2570  0.3479434E+02  0.2432090E+02  0.1089362E+02  0.0000000E+00
Ar 2571  0.3495366E+02  0.2157941E+02  0.1361000E+02  0.0000000E+00
Ar 2572  0.3226513E+02  0.2423983E+02  0.1344786E+02  0.0000000E+00
Ar 2573  0.3238053E+02  0.2150031E+02  0.1618827E+02  0.0000000E+00
Ar 2574  0.3502083E+02  0.2405957E+02  0.1626322E+02  0.0000000E+00
Ar 2575  0.3494305E+02  0.2166037E+02  0.1883766E+02  0.0000000E+00
Ar 2576  0.3232499E+02  0.2431800E+02  0.1863794E+02  0.0000000E+00
Ar 2577  0.3224947E+02  0.2120709E+02  0.2120709E+02  0.0000000E+00
Ar 2578  0.3481523E+02  0.2440492E+02  0.2168362E+02  0.0000000E+00
Ar 2579  0.3481523E+02  0.2168362E+02  0.2440492E+02  0.0000000E+00
Ar 2580  0.3209160E+02  0.2372064E+02  0.2372064E+02  0.0000000E+00
Ar 2581  0.3213423E+02  0.2128439E+02  0.2685145E+02  0.0000000E+00
Ar 2582  0.3460935E+02  0.2428885E+02  0.2679441E+02  0.0000000E+00
Ar 2583  0.3471038E+02  0.2155072E+02  0.2953608E+02  0.0000000E+00
Ar 2584  0.3187177E+02  0.2398887E+02  0.2933072E+02  0.0000000E+00
Ar 2585  0.3220808E+02  0.2117775E+02  0.3220808E+02  0.0000000E+00
Ar 2586  0.3476412E+02  0.2409684E+02  0.3193729E+02  0.0000000E+00
Ar 2587  0.3450572E+02  0.2157965E+02  0.3450572E+02  0.0000000E+00
Ar 2588  0.3193729E+02  0.2409684E+02  0.3476412E+02  0.0000000E+00
Ar 2589  0.3208195E+02  0.2146282E+02  0.3747713E+02  0.0000000E+00
Ar 2590  0.3463433E+02  0.2401937E+02  0.3738808E+02  0.0000000E+00
Ar 2591  0.3473443E+02  0.2155336E+02  0.4019816E+02  0.0000000E+00
Ar 2592  0.3222898E+02  0.2416266E+02  0.4003711E+02  0.0000000E+00
Ar 2593  0.3207338E+02  0.2181366E+02  0.4295804E+02  0.0000000E+00
Ar 2594  0.3493307E+02  0.2417845E+02  0.4304581E+02  0.0000000E+00
Ar 2595  0.3477510E+02  0.2154124E+02  0.4554855E+02  0.0000000E+00
Ar 2596  0.3203976E+02  0.2419307E+02  0.4562629E+02  0.0000000E+00
Ar 2597  0.3229305E+02  0.2165401E+02  0.4822866E+02  0.0000000E+00
Ar 2598  0.3484747E+02  0.2404942E+02  0.4802275E+02  0.0000000E+00
Ar 2599  0.3471816E+02  0.2163892E+02  0.5098149E+02  0.0000000E+00
Ar 2600  0.3213483E+02  0.2419842E+02  0.5067219E+02  0.0000000E+00
Ar 2601  0.3227885E+02  0.2665889E+02  0.5349155E+02  0.0000000E+00
Ar 2602  0.3471478E+02  0.2959714E+02  0.5294340E+02  0.0000000E+00
Ar 2603  0.3474961E+02  0.2671010E+02  0.2492040E+01  0.0000000E+00
Ar 2604  0.3202916E+02  0.2946603E+02  0.2666535E+01  0.0000000E+00
Ar 2605  0.3213175E+02  0.2675440E+02  0.5247697E+01  0.0000000E+00
Ar 2606  0.3461445E+02  0.2947419E+02  0.5316132E+01  0.0000000E+00
Ar 2607  0.3487989E+02  0.2699702E+02  0.8072051E+01  0.0000000E+00
Ar 2608  0.3232025E+02  0.2940472E+02  0.8092948E+01  0.0000000E+00
Ar 2609  0.3206696E+02  0.2698227E+02  0.1073552E+02  0.0000000E+00
Ar 2610  0.3480730E+02  0.2966348E+02  0.1084162E+02  0.0000000E+00
Ar 2611  0.3491511E+02  0.2689965E+02  0.1362073E+02  0.0000000E+00
Ar 2612  0.3213789E+02  0.2945521E+02  0.1359506E+02  0.0000000E+00
Ar 2613  0.3227975E+02  0.2674459E+02  0.1601398E+02  0.0000000E+00
Ar 2614  0.3477339E+02  0.2932318E+02  0.1631538E+02  0.0000000E+00
Ar 2615  0.3505136E+02  0.2683141E+02  0.1899482E+02  0.0000000E+00
Ar 2616  0.3196524E+02  0.2944239E+02  0.1872644E+02  0.0000000E+00
Ar 2617  0.3213423E+02  0.2685145E+02  0.2128439E+02  0.0000000E+00
Ar 2618  0.3471038E+02  0.2953608E+02  0.2155072E+02  0.0000000E+00
Ar 2619  0.3460935E+02  0.2679441E+02  0.2428885E+02  0.0000000E+00
Ar 2620  0.3187176E+02  0.2933072E+02  0.2398887E+02  0.0000000E+00
Ar 2621  0.3208944E+02  0.2666075E+02  0.2666074E+02  0.0000000E+00
Ar 2622  0.3501286E+02  0.2939737E+02  0.2667797E+02  0.0000000E+00
Ar 2623  0.3501287E+02  0.2667797E+02  0.2939737E+02  0.0000000E+00
Ar 2624  0.3207556E+02  0.2927791E+02  0.2927791E+02  0.0000000E+00
Ar 2625  0.3195368E+02  0.2678346E+02  0.3195369E+02  0.0000000E+00
Ar 2626  0.3451652E+02  0.2929396E+02  0.3186647E+02  0.0000000E+00
Ar 2627  0.3455579E+02  0.2645758E+02  0.3455579E+02  0.0000000E+00
Ar 2628  0.3186647E+02  0.2929396E+02  0.3451652E+02  0.0000000E+00
Ar 2629  0.3218664E+02  0.2678130E+02  0.3739587E+02  0.0000000E+00
Ar 2630  0.3463559E+02  0.2940187E+02  0.3716622E+02  0.0000000E+00
Ar 2631  0.3469815E+02  0.2695895E+02  0.4018330E+02  0.0000000E+00
Ar 2632  0.3208159E+02  0.2935366E+02  0.4016141E+02  0.0000000E+00
Ar 2633  0.3203912E+02  0.2675227E+02  0.4271353E+02  0.0000000E+00
Ar 2634  0.3472856E+02  0.2965849E+02  0.4296608E+02  0.0000000E+00
Ar 2635  0.3452661E+02  0.2700178E+02  0.4551007E+02  0.0000000E+00
Ar 2636  0.3203359E+02  0.2964377E+02  0.4548318E+02  0.0000000E+00
Ar 2637  0.3227703E+02  0.2694883E+02  0.4820256E+02  0.0000000E+00
Ar 2638  0.3474779E+02  0.2946962E+02  0.4837694E+02  0.0000000E+00
Ar 2639  0.3469616E+02  0.2669598E+02  0.5087964E+02  0.0000000E+00
Ar 2640  0.3190504E+02  0.2943518E+02  0.5087475E+02  0.0000000E+00
Ar 2641  0.3223468E+02  0.3223468E+02  0.5351560E+02  0.0000000E+00
Ar 2642  0.3495676E+02  0.3495676E+02  0.5342066E+02  0.0000000E+00
Ar 2643  0.3472690E+02  0.3216320E+02  0.2786919E+01  0.0000000E+00
Ar 2644  0.3216320E+02  0.3472689E+02  0.2786915E+01  0.0000000E+00
Ar 2645  0.3210660E+02  0.3210660E+02  0.5549251E+01  0.0000000E+00
Ar 2646  0.3472432E+02  0.3472431E+02  0.5421818E+01  0.0000000E+00
Ar 2647  0.3472421E+02  0.3211740E+02  0.8115567E+01  0.0000000E+00
Ar 2648  0.3211740E+02  0.3472421E+02  0.8115573E+01  0.0000000E+00
Ar 2649  0.3248350E+02  0.3248350E+02  0.1128195E+02  0.0000000E+00
Ar 2650  0.3500606E+02  0.3500606E+02  0.1089680E+02  0.0000000E+00
Ar 2651  0.3501988E+02  0.3223149E+02  0.1355507E+02  0.0000000E+00
Ar 2652  0.3223148E+02  0.3501989E+02  0.1355507E+02  0.0000000E+00
Ar 2653  0.3232442E+02  0.3232442E+02  0.1598624E+02  0.0000000E+00
Ar 2654  0.3487748E+02  0.3487748E+02  0.1635699E+02  0.0000000E+00
Ar 2655  0.3490362E+02  0.3225076E+02  0.1888025E+02  0.0000000E+00
Ar 2656  0.3225076E+02  0.3490362E+02  0.1888025E+02  0.0000000E+00
Ar 2657  0.3220808E+02  0.3220808E+02  0.2117774E+02  0.0000000E+00
Ar 2658  0.3450572E+02  0.3450572E+02  0.2157965E+02  0.0000000E+00
Ar 2659  0.3476412E+02  0.3193729E+02  0.2409684E+02  0.0000000E+00
Ar 2660  0.3193729E+02  0.3476412E+02  0.2409684E+02  0.0000000E+00
Ar 2661  0.3195368E+02  0.3195369E+02  0.2678346E+02  0.0000000E+00
Ar 2662  0.3455579E+02  0.3455579E+02  0.2645758E+02  0.0000000E+00
Ar 2663  0.3451652E+02  0.3186647E+02  0.2929396E+02  0.0000000E+00
Ar 2664  0.3186647E+02  0.3451652E+02  0.2929396E+02  0.0000000E+00
Ar 2665  0.3205797E+02  0.3205797E+02  0.3205797E+02  0.0000000E+00
Ar 2666  0.3453584E+02  0.3453584E+02  0.3178811E+02  0.0000000E+00
Ar 2667  0.3453584E+02  0.3178811E+02  0.3453584E+02  0.0000000E+00
Ar 2668  0.3178811E+02  0.3453584E+02  0.3453584E+02  0.0000000E+00
Ar 2669  0.3185401E+02  0.3185401E+02  0.3731529E+02  0.0000000E+00
Ar 2670  0.3469031E+02  0.3469030E+02  0.3747082E+02  0.0000000E+00
Ar 2671  0.3482099E+02  0.3203180E+02  0.3996181E+02  0.0000000E+00
Ar 2672  0.3203179E+02  0.3482099E+02  0.3996181E+02  0.0000000E+00
Ar 2673  0.3221144E+02  0.3221144E+02  0.4223597E+02  0.0000000E+00
Ar 2674  0.3477799E+02  0.3477799E+02  0.4273393E+02  0.0000000E+00
Ar 2675  0.3491958E+02  0.3234030E+02  0.4543443E+02  0.0000000E+00
Ar 2676  0.3234030E+02  0.3491958E+02  0.4543443E+02  0.0000000E+00
Ar 2677  0.3199549E+02  0.3199549E+02  0.4814171E+02  0.0000000E+00
Ar 2678  0.3470823E+02  0.3470823E+02  0.4822612E+02  0.0000000E+00
Ar 2679  0.3469835E+02  0.3220001E+02  0.5064948E+02  0.0000000E+00
Ar 2680  0.3220001E+02  0.3469835E+02  0.5064948E+02  0.0000000E+00
Ar 2681  0.3228293E+02  0.3769408E+02  0.5361401E+02  0.0000000E+00
Ar 2682  0.3479090E+02  0.4031899E+02  0.5353026E+02  0.0000000E+00
Ar 2683  0.3483648E+02  0.3745463E+02  0.2532785E+01  0.0000000E+00
Ar 2684  0.3253831E+02  0.4042509E+02  0.2684050E+01  0.0000000E+00
Ar 2685  0.3236748E+02  0.3785336E+02  0.5076683E+01  0.0000000E+00
Ar 2686  0.3484191E+02  0.4029330E+02  0.5306101E+01  0.0000000E+00
Ar 2687  0.3471278E+02  0.3746737E+02  0.7974908E+01  0.0000000E+00
Ar 2688  0.3211624E+02  0.4022998E+02  0.8240105E+01  0.0000000E+00
Ar 2689  0.3219777E+02  0.3750259E+02  0.1084934E+02  0.0000000E+00
Ar 2690  0.3482656E+02  0.4016797E+02  0.1094290E+02  0.0000000E+00
Ar 2691  0.3517627E+02  0.3779411E+02  0.1352622E+02  0.0000000E+00
Ar 2692  0.3233301E+02  0.4008257E+02  0.1361687E+02  0.0000000E+00
Ar 2693  0.3197445E+02  0.3745328E+02  0.1629914E+02  0.0000000E+00
Ar 2694  0.3497178E+02  0.4004348E+02  0.1638030E+02  0.0000000E+00
Ar 2695  0.3483167E+02  0.3739510E+02  0.1899394E+02  0.0000000E+00
Ar 2696  0.3229158E+02  0.4052238E+02  0.1875358E+02  0.0000000E+00
Ar 2697  0.3208195E+02  0.3747713E+02  0.2146282E+02  0.0000000E+00
Ar 2698  0.3473443E+02  0.4019816E+02  0.2155336E+02  0.0000000E+00
Ar 2699  0.3463433E+02  0.3738808E+02  0.2401937E+02  0.0000000E+00
Ar 2700  0.3222898E+02  0.4003711E+02  0.2416266E+02  0.0000000E+00
Ar 2701  0.3218664E+02  0.3739587E+02  0.2678130E+02  0.0000000E+00
Ar 2702  0.3469815E+02  0.4018330E+02  0.2695895E+02  0.0000000E+00
Ar 2703  0.3463559E+02  0.3716622E+02  0.2940187E+02  0.0000000E+00
Ar 2704  0.3208159E+02  0.4016141E+02  0.2935366E+02  0.0000000E+00
Ar 2705  0.3185401E+02  0.3731529E+02  0.3185401E+02  0.0000000E+00
Ar 2706  0.3482099E+02  0.3996181E+02  0.3203179E+02  0.0000000E+00
Ar 2707  0.3469031E+02  0.3747081E+02  0.3469030E+02  0.0000000E+00
Ar 2708  0.3203179E+02  0.3996181E+02  0.3482099E+02  0.0000000E+00
Ar 2709  0.3174917E+02  0.3733435E+02  0.3733436E+02  0.0000000E+00
Ar 2710  0.3486693E+02  0.4014353E+02  0.3768943E+02  0.0000000E+00
Ar 2711  0.3486693E+02  0.3768943E+02  0.4014353E+02  0.0000000E+00
Ar 2712  0.3229369E+02  0.3982055E+02  0.3982055E+02  0.0000000E+00
Ar 2713  0.3216602E+02  0.3742781E+02  0.4282078E+02  0.0000000E+00
Ar 2714  0.3463501E+02  0.4021034E+02  0.4308779E+02  0.0000000E+00
Ar 2715  0.3483195E+02  0.3749640E+02  0.4569150E+02  0.0000000E+00
Ar 2716  0.3203010E+02  0.4030197E+02  0.4546704E+02  0.0000000E+00
Ar 2717  0.3232769E+02  0.3765737E+02  0.4832468E+02  0.0000000E+00
Ar 2718  0.3477998E+02  0.4019223E+02  0.4795030E+02  0.0000000E+00
Ar 2719  0.3462048E+02  0.3748074E+02  0.5103527E+02  0.0000000E+00
Ar 2720  0.3226686E+02  0.4042695E+02  0.5093455E+02  0.0000000E+00
Ar 2721  0.3219257E+02  0.4308588E+02  0.1963755E+00  0.0000000E+00
Ar 2722  0.3476106E+02  0.4591044E+02  0.5361875E+02  0.0000000E+00
Ar 2723  0.3492728E+02  0.4298686E+02  0.2678124E+01  0.0000000E+00
Ar 2724  0.3223817E+02  0.4598053E+02  0.3108015E+01  0.0000000E+00
Ar 2725  0.3233882E+02  0.4280636E+02  0.5545764E+01  0.0000000E+00
Ar 2726  0.3488657E+02  0.4565297E+02  0.5697826E+01  0.0000000E+00
Ar 2727  0.3498026E+02  0.4289074E+02  0.8421125E+01  0.0000000E+00
Ar 2728  0.3220149E+02  0.4545989E+02  0.8200774E+01  0.0000000E+00
Ar 2729  0.3226071E+02  0.4281591E+02  0.1101187E+02  0.0000000E+00
Ar 2730  0.3521054E+02  0.4584407E+02  0.1093040E+02  0.0000000E+00
Ar 2731  0.3507629E+02  0.4274787E+02  0.1372074E+02  0.0000000E+00
Ar 2732  0.3235906E+02  0.4566516E+02  0.1372486E+02  0.0000000E+00
Ar 2733  0.3222411E+02  0.4305175E+02  0.1631406E+02  0.0000000E+00
Ar 2734  0.3500779E+02  0.4562073E+02  0.1633995E+02  0.0000000E+00
Ar 2735  0.3495086E+02  0.4317718E+02  0.1880629E+02  0.0000000E+00
Ar 2736  0.3219915E+02  0.4566322E+02  0.1886219E+02  0.0000000E+00
Ar 2737  0.3207338E+02  0.4295804E+02  0.2181366E+02  0.0000000E+00
Ar 2738  0.3477510E+02  0.4554855E+02  0.2154125E+02  0.0000000E+00
Ar 2739  0.3493307E+02  0.4304581E+02  0.2417845E+02  0.0000000E+00
Ar 2740  0.3203976E+02  0.4562629E+02  0.2419307E+02  0.0000000E+00
Ar 2741  0.3203912E+02  0.4271353E+02  0.2675227E+02  0.0000000E+00
Ar 2742  0.3452661E+02  0.4551007E+02  0.2700178E+02  0.0000000E+00
Ar 2743  0.3472856E+02  0.4296608E+02  0.2965849E+02  0.0000000E+00
Ar 2744  0.3203359E+02  0.4548318E+02  0.2964377E+02  0.0000000E+00
Ar 2745  0.3221144E+02  0.4223596E+02  0.3221144E+02  0.0000000E+00
Ar 2746  0.3491958E+02  0.4543443E+02  0.3234029E+02  0.0000000E+00
Ar 2747  0.3477799E+02  0.4273393E+02  0.3477799E+02  0.0000000E+00
Ar 2748  0.3234030E+02  0.4543443E+02  0.3491958E+02  0.0000000E+00
Ar 2749  0.3216602E+02  0.4282078E+02  0.3742781E+02  0.0000000E+00
Ar 2750  0.3483195E+02  0.4569150E+02  0.3749640E+02  0.0000000E+00
Ar 2751  0.3463501E+02  0.4308779E+02  0.4021034E+02  0.0000000E+00
Ar 2752  0.3203010E+02  0.4546704E+02  0.4030198E+02  0.0000000E+00
Ar 2753  0.3207914E+02  0.4252032E+02  0.4252032E+02  0.0000000E+00
Ar 2754  0.3461425E+02  0.4560439E+02  0.4314085E+02  0.0000000E+00
Ar 2755  0.3461425E+02  0.4314085E+02  0.4560439E+02  0.0000000E+00
Ar 2756  0.3204947E+02  0.4570693E+02  0.4570694E+02  0.0000000E+00
Ar 2757  0.3199058E+02  0.4279905E+02  0.4813215E+02  0.0000000E+00
Ar 2758  0.3462131E+02  0.4559161E+02  0.4828709E+02  0.0000000E+00
Ar 2759  0.3462864E+02  0.4303212E+02  0.5103077E+02  0.0000000E+00
Ar 2760  0.3190611E+02  0.4550950E+02  0.5096533E+02  0.0000000E+00
Ar 2761  0.3184189E+02  0.4829098E+02  0.3167861E+00  0.0000000E+00
Ar 2762  0.3483948E+02  0.5106927E+02  0.5364886E+02  0.0000000E+00
Ar 2763  0.3486829E+02  0.4847813E+02  0.3062664E+01  0.0000000E+00
Ar 2764  0.3214178E+02  0.5098586E+02  0.3127541E+01  0.0000000E+00
Ar 2765  0.3191026E+02  0.4837983E+02  0.5867291E+01  0.0000000E+00
Ar 2766  0.3485237E+02  0.5114216E+02  0.5761919E+01  0.0000000E+00
Ar 2767  0.3488301E+02  0.4821231E+02  0.8383477E+01  0.0000000E+00
Ar 2768  0.3215858E+02  0.5107733E+02  0.8364246E+01  0.0000000E+00
Ar 2769  0.3223788E+02  0.4836093E+02  0.1109356E+02  0.0000000E+00
Ar 2770  0.3504395E+02  0.5114906E+02  0.1081230E+02  0.0000000E+00
Ar 2771  0.3515009E+02  0.4861401E+02  0.1368966E+02  0.0000000E+00
Ar 2772  0.3239061E+02  0.5122823E+02  0.1354485E+02  0.0000000E+00
Ar 2773  0.3244610E+02  0.4844359E+02  0.1634129E+02  0.0000000E+00
Ar 2774  0.3495619E+02  0.5107142E+02  0.1634558E+02  0.0000000E+00
Ar 2775  0.3523573E+02  0.4845959E+02  0.1907413E+02  0.0000000E+00
Ar 2776  0.3221189E+02  0.5084101E+02  0.1918077E+02  0.0000000E+00
Ar 2777  0.3229305E+02  0.4822866E+02  0.2165401E+02  0.0000000E+00
Ar 2778  0.3471816E+02  0.5098149E+02  0.2163892E+02  0.0000000E+00
Ar 2779  0.3484747E+02  0.4802275E+02  0.2404942E+02  0.0000000E+00
Ar 2780  0.3213483E+02  0.5067219E+02  0.2419842E+02  0.0000000E+00
Ar 2781  0.3227703E+02  0.4820256E+02  0.2694883E+02  0.0000000E+00
Ar 2782  0.3469617E+02  0.5087964E+02  0.2669598E+02  0.0000000E+00
Ar 2783  0.3474779E+02  0.4837695E+02  0.2946962E+02  0.0000000E+00
Ar 2784  0.3190504E+02  0.5087475E+02  0.2943518E+02  0.0000000E+00
Ar 2785  0.3199549E+02  0.4814171E+02  0.3199549E+02  0.0000000E+00
Ar 2786  0.3469835E+02  0.5064948E+02  0.3220001E+02  0.0000000E+00
Ar 2787  0.3470823E+02  0.4822612E+02  0.3470823E+02  0.0000000E+00
Ar 2788  0.3220001E+02  0.5064948E+02  0.3469835E+02  0.0000000E+00
Ar 2789  0.3232769E+02  0.4832468E+02  0.3765737E+02  0.0000000E+00
Ar 2790  0.3462048E+02  0.5103527E+02  0.3748074E+02  0.0000000E+00
Ar 2791  0.3477998E+02  0.4795030E+02  0.4019223E+02  0.0000000E+00
Ar 2792  0.3226686E+02  0.5093455E+02  0.4042695E+02  0.0000000E+00
Ar 2793  0.3199058E+02  0.4813215E+02  0.4279905E+02  0.0000000E+00
Ar 2794  0.3462864E+02  0.5103077E+02  0.4303212E+02  0.0000000E+00
Ar 2795  0.3462131E+02  0.4828709E+02  0.4559162E+02  0.0000000E+00
Ar 2796  0.3190611E+02  0.5096533E+02  0.4550950E+02  0.0000000E+00
Ar 2797  0.3209009E+02  0.4833040E+02  0.4833040E+02  0.0000000E+00
Ar 2798  0.3470948E+02  0.5098561E+02  0.4827833E+02  0.0000000E+00
Ar 2799  0.3470948E+02  0.4827833E+02  0.5098562E+02  0.0000000E+00
Ar 2800  0.3231744E+02  0.5114395E+02  0.5114395E+02  0.0000000E+00
Ar 2801  0.3756137E+02  0.4468421E-01  0.4468756E-01  0.0000000E+00
Ar 2802  0.4015172E+02  0.2896598E+01  0.2009992E+00  0.0000000E+00
Ar 2803  0.4015172E+02  0.2009986E+00  0.2896598E+01  0.0000000E+00
Ar 2804  0.3721139E+02  0.2827806E+01  0.2827803E+01  0.0000000E+00
Ar 2805  0.3735876E+02  0.2081676E+00  0.5335394E+01  0.0000000E+00
Ar 2806  0.4032174E+02  0.2675572E+01  0.5452052E+01  0.0000000E+00
Ar 2807  0.4034959E+02  0.2671312E+00  0.8098756E+01  0.0000000E+00
Ar 2808  0.3767586E+02  0.2879565E+01  0.8127841E+01  0.0000000E+00
Ar 2809  0.3780246E+02  0.1540613E+00  0.1069422E+02  0.0000000E+00
Ar 2810  0.4029373E+02  0.2970930E+01  0.1095148E+02  0.0000000E+00
Ar 2811  0.4017233E+02  0.8002226E-01  0.1363000E+02  0.0000000E+00
Ar 2812  0.3771249E+02  0.2971678E+01  0.1328638E+02  0.0000000E+00
Ar 2813  0.3749421E+02  0.1881811E+00  0.1614224E+02  0.0000000E+00
Ar 2814  0.4001643E+02  0.2847319E+01  0.1620394E+02  0.0000000E+00
Ar 2815  0.3997538E+02  0.2621300E+00  0.1879361E+02  0.0000000E+00
Ar 2816  0.3704542E+02  0.2789606E+01  0.1881692E+02  0.0000000E+00
Ar 2817  0.3758967E+02  0.2866980E+00  0.2151831E+02  0.0000000E+00
Ar 2818  0.4016320E+02  0.2858481E+01  0.2147252E+02  0.0000000E+00
Ar 2819  0.3996430E+02  0.2114124E+00  0.2419686E+02  0.0000000E+00
Ar 2820  0.3737056E+02  0.2910912E+01  0.2424182E+02  0.0000000E+00
Ar 2821  0.3712941E+02  0.5342464E+02  0.2674784E+02  0.0000000E+00
Ar 2822  0.4016337E+02  0.2705207E+01  0.2688609E+02  0.0000000E+00
Ar 2823  0.4048446E+02  0.1392396E+00  0.2973580E+02  0.0000000E+00
Ar 2824  0.3729547E+02  0.2560593E+01  0.2945546E+02  0.0000000E+00
Ar 2825  0.3769408E+02  0.5361401E+02  0.3228293E+02  0.0000000E+00
Ar 2826  0.4042509E+02  0.2684044E+01  0.3253831E+02  0.0000000E+00
Ar 2827  0.4031899E+02  0.5353026E+02  0.3479091E+02  0.0000000E+00
Ar 2828  0.3745463E+02  0.2532785E+01  0.3483649E+02  0.0000000E+00
Ar 2829  0.3768605E+02  0.5353630E+02  0.3768605E+02  0.0000000E+00
Ar 2830  0.4023521E+02  0.2891502E+01  0.3758247E+02  0.0000000E+00
Ar 2831  0.4011609E+02  0.5361545E+02  0.4011610E+02  0.0000000E+00
Ar 2832  0.3758247E+02  0.2891500E+01  0.4023521E+02  0.0000000E+00
Ar 2833  0.3744594E+02  0.1102403E+00  0.4276790E+02  0.0000000E+00
Ar 2834  0.4014176E+02  0.2595953E+01  0.4289980E+02  0.0000000E+00
Ar 2835  0.3999183E+02  0.5357369E+02  0.4555285E+02  0.0000000E+00
Ar 2836  0.3744653E+02  0.2692461E+01  0.4563497E+02  0.0000000E+00
Ar 2837  0.3746748E+02  0.5364667E+02  0.4839779E+02  0.0000000E+00
Ar 2838  0.4011888E+02  0.2683028E+01  0.4828786E+02  0.0000000E+00
Ar 2839  0.3997515E+02  0.5354622E+02  0.5067590E+02  0.0000000E+00
Ar 2840  0.3745865E+02  0.2867994E+01  0.5098558E+02  0.0000000E+00
Ar 2841  0.3735876E+02  0.5335396E+01  0.2081666E+00  0.0000000E+00
Ar 2842  0.4034959E+02  0.8098754E+01  0.2671311E+00  0.0000000E+00
Ar 2843  0.4032174E+02  0.5452052E+01  0.2675572E+01  0.0000000E+00
Ar 2844  0.3767586E+02  0.8127842E+01  0.2879565E+01  0.0000000E+00
Ar 2845  0.3723561E+02  0.5438913E+01  0.5438914E+01  0.0000000E+00
Ar 2846  0.4032330E+02  0.8030313E+01  0.5492760E+01  0.0000000E+00
Ar 2847  0.4032330E+02  0.5492760E+01  0.8030315E+01  0.0000000E+00
Ar 2848  0.3726123E+02  0.8000128E+01  0.8000130E+01  0.0000000E+00
Ar 2849  0.3775915E+02  0.5537553E+01  0.1059183E+02  0.0000000E+00
Ar 2850  0.4034765E+02  0.8296502E+01  0.1068013E+02  0.0000000E+00
Ar 2851  0.4032206E+02  0.5444484E+01  0.1351293E+02  0.0000000E+00
Ar 2852  0.3773091E+02  0.7952326E+01  0.1339304E+02  0.0000000E+00
Ar 2853  0.3781598E+02  0.5608491E+01  0.1619769E+02  0.0000000E+00
Ar 2854  0.4046525E+02  0.8139405E+01  0.1620435E+02  0.0000000E+00
Ar 2855  0.4045300E+02  0.5450018E+01  0.1879414E+02  0.0000000E+00
Ar 2856  0.3783555E+02  0.8010624E+01  0.1895942E+02  0.0000000E+00
Ar 2857  0.3759633E+02  0.5371838E+01  0.2145252E+02  0.0000000E+00
Ar 2858  0.4032996E+02  0.8149356E+01  0.2163888E+02  0.0000000E+00
Ar 2859  0.4036235E+02  0.5125934E+01  0.2411405E+02  0.0000000E+00
Ar 2860  0.3763526E+02  0.8017336E+01  0.2452265E+02  0.0000000E+00
Ar 2861  0.3754292E+02  0.5245546E+01  0.2700789E+02  0.0000000E+00
Ar 2862  0.4033241E+02  0.7836191E+01  0.2685836E+02  0.0000000E+00
Ar 2863  0.4021168E+02  0.5187529E+01  0.2968389E+02  0.0000000E+00
Ar 2864  0.3773980E+02  0.8121942E+01  0.2969429E+02  0.0000000E+00
Ar 2865  0.3785336E+02  0.5076683E+01  0.3236749E+02  0.0000000E+00
Ar 2866  0.4022999E+02  0.8240104E+01  0.3211624E+02  0.0000000E+00
Ar 2867  0.4029329E+02  0.5306104E+01  0.3484191E+02  0.0000000E+00
Ar 2868  0.3746737E+02  0.7974918E+01  0.3471278E+02  0.0000000E+00
Ar 2869  0.3750013E+02  0.5285174E+01  0.3750013E+02  0.0000000E+00
Ar 2870  0.4000302E+02  0.8234510E+01  0.3752930E+02  0.0000000E+00
Ar 2871  0.4016842E+02  0.5770260E+01  0.4016843E+02  0.0000000E+00
Ar 2872  0.3752929E+02  0.8234504E+01  0.4000302E+02  0.0000000E+00
Ar 2873  0.3747383E+02  0.5459943E+01  0.4268349E+02  0.0000000E+00
Ar 2874  0.4024143E+02  0.8088673E+01  0.4271938E+02  0.0000000E+00
Ar 2875  0.3996528E+02  0.5174995E+01  0.4550443E+02  0.0000000E+00
Ar 2876  0.3763257E+02  0.8055448E+01  0.4525435E+02  0.0000000E+00
Ar 2877  0.3762826E+02  0.5628910E+01  0.4851699E+02  0.0000000E+00
Ar 2878  0.4054607E+02  0.8011073E+01  0.4836927E+02  0.0000000E+00
Ar 2879  0.4012594E+02  0.5628667E+01  0.5104226E+02  0.0000000E+00
Ar 2880  0.3734567E+02  0.8195290E+01  0.5118119E+02  0.0000000E+00
Ar 2881  0.3780246E+02  0.1069422E+02  0.1540605E+00  0.0000000E+00
Ar 2882  0.4017233E+02  0.1363000E+02  0.8002224E-01  0.0000000E+00
Ar 2883  0.4029373E+02  0.1095148E+02  0.2970929E+01  0.0000000E+00
Ar 2884  0.3771249E+02  0.1328638E+02  0.2971678E+01  0.0000000E+00
Ar 2885  0.3775915E+02  0.1059183E+02  0.5537553E+01  0.0000000E+00
Ar 2886  0.4032206E+02  0.1351293E+02  0.5444483E+01  0.0000000E+00
Ar 2887  0.4034765E+02  0.1068013E+02  0.8296501E+01  0.0000000E+00
Ar 2888  0.3773091E+02  0.1339304E+02  0.7952325E+01  0.0000000E+00
Ar 2889  0.3767895E+02  0.1090771E+02  0.1090771E+02  0.0000000E+00
Ar 2890  0.4035086E+02  0.1337452E+02  0.1069864E+02  0.0000000E+00
Ar 2891  0.4035086E+02  0.1069864E+02  0.1337452E+02  0.0000000E+00
Ar 2892  0.3755924E+02  0.1355817E+02  0.1355817E+02  0.0000000E+00
Ar 2893  0.3768951E+02  0.1057913E+02  0.1598165E+02  0.0000000E+00
Ar 2894  0.4008628E+02  0.1341942E+02  0.1620640E+02  0.0000000E+00
Ar 2895  0.4024796E+02  0.1073421E+02  0.1883462E+02  0.0000000E+00
Ar 2896  0.3763985E+02  0.1354678E+02  0.1897057E+02  0.0000000E+00
Ar 2897  0.3767408E+02  0.1090081E+02  0.2155872E+02  0.0000000E+00
Ar 2898  0.4030029E+02  0.1359940E+02  0.2163995E+02  0.0000000E+00
Ar 2899  0.4023005E+02  0.1089294E+02  0.2433247E+02  0.0000000E+00
Ar 2900  0.3772379E+02  0.1364475E+02  0.2427685E+02  0.0000000E+00
Ar 2901  0.3742029E+02  0.1079431E+02  0.2700101E+02  0.0000000E+00
Ar 2902  0.4037978E+02  0.1369279E+02  0.2683845E+02  0.0000000E+00
Ar 2903  0.4013595E+02  0.1085836E+02  0.2931772E+02  0.0000000E+00
Ar 2904  0.3731582E+02  0.1361873E+02  0.2952715E+02  0.0000000E+00
Ar 2905  0.3750259E+02  0.1084934E+02  0.3219777E+02  0.0000000E+00
Ar 2906  0.4008256E+02  0.1361687E+02  0.3233301E+02  0.0000000E+00
Ar 2907  0.4016796E+02  0.1094290E+02  0.3482656E+02  0.0000000E+00
Ar 2908  0.3779411E+02  0.1352622E+02  0.3517627E+02  0.0000000E+00
Ar 2909  0.3765263E+02  0.1094354E+02  0.3765263E+02  0.0000000E+00
Ar 2910  0.4033545E+02  0.1390987E+02  0.3770168E+02  0.0000000E+00
Ar 2911  0.4004005E+02  0.1121581E+02  0.4004004E+02  0.0000000E+00
Ar 2912  0.3770168E+02  0.1390987E+02  0.4033545E+02  0.0000000E+00
Ar 2913  0.3771373E+02  0.1080637E+02  0.4279510E+02  0.0000000E+00
Ar 2914  0.4024957E+02  0.1348169E+02  0.4286148E+02  0.0000000E+00
Ar 2915  0.4038954E+02  0.1099341E+02  0.4596229E+02  0.0000000E+00
Ar 2916  0.3777167E+02  0.1372704E+02  0.4549148E+02  0.0000000E+00
Ar 2917  0.3777442E+02  0.1090874E+02  0.4856112E+02  0.0000000E+00
Ar 2918  0.4034542E+02  0.1349780E+02  0.4841098E+02  0.0000000E+00
Ar 2919  0.4043354E+02  0.1079436E+02  0.5100177E+02  0.0000000E+00
Ar 2920  0.3770625E+02  0.1363700E+02  0.5100277E+02  0.0000000E+00
Ar 2921  0.3749421E+02  0.1614225E+02  0.1881824E+00  0.0000000E+00
Ar 2922  0.3997538E+02  0.1879361E+02  0.2621310E+00  0.0000000E+00
Ar 2923  0.4001643E+02  0.1620394E+02  0.2847320E+01  0.0000000E+00
Ar 2924  0.3704542E+02  0.1881692E+02  0.2789605E+01  0.0000000E+00
Ar 2925  0.3781598E+02  0.1619769E+02  0.5608492E+01  0.0000000E+00
Ar 2926  0.4045300E+02  0.1879414E+02  0.5450018E+01  0.0000000E+00
Ar 2927  0.4046526E+02  0.1620435E+02  0.8139405E+01  0.0000000E+00
Ar 2928  0.3783555E+02  0.1895942E+02  0.8010624E+01  0.0000000E+00
Ar 2929  0.3768950E+02  0.1598165E+02  0.1057913E+02  0.0000000E+00
Ar 2930  0.4024796E+02  0.1883462E+02  0.1073421E+02  0.0000000E+00
Ar 2931  0.4008628E+02  0.1620641E+02  0.1341942E+02  0.0000000E+00
Ar 2932  0.3763985E+02  0.1897057E+02  0.1354678E+02  0.0000000E+00
Ar 2933  0.3739500E+02  0.1633323E+02  0.1633323E+02  0.0000000E+00
Ar 2934  0.4030293E+02  0.1902263E+02  0.1627616E+02  0.0000000E+00
Ar 2935  0.4030293E+02  0.1627616E+02  0.1902263E+02  0.0000000E+00
Ar 2936  0.3755947E+02  0.1900272E+02  0.1900272E+02  0.0000000E+00
Ar 2937  0.3764414E+02  0.1607846E+02  0.2164546E+02  0.0000000E+00
Ar 2938  0.4018219E+02  0.1877849E+02  0.2155391E+02  0.0000000E+00
Ar 2939  0.4048285E+02  0.1631769E+02  0.2420836E+02  0.0000000E+00
Ar 2940  0.3765290E+02  0.1869029E+02  0.2416532E+02  0.0000000E+00
Ar 2941  0.3740445E+02  0.1628850E+02  0.2677877E+02  0.0000000E+00
Ar 2942  0.4041795E+02  0.1896003E+02  0.2688704E+02  0.0000000E+00
Ar 2943  0.4031892E+02  0.1624577E+02  0.2985457E+02  0.0000000E+00
Ar 2944  0.3781989E+02  0.1877566E+02  0.2947164E+02  0.0000000E+00
Ar 2945  0.3745328E+02  0.1629914E+02  0.3197445E+02  0.0000000E+00
Ar 2946  0.4052238E+02  0.1875359E+02  0.3229158E+02  0.0000000E+00
Ar 2947  0.4004348E+02  0.1638030E+02  0.3497178E+02  0.0000000E+00
Ar 2948  0.3739510E+02  0.1899393E+02  0.3483167E+02  0.0000000E+00
Ar 2949  0.3744960E+02  0.1631902E+02  0.3744960E+02  0.0000000E+00
Ar 2950  0.3996377E+02  0.1918539E+02  0.3732607E+02  0.0000000E+00
Ar 2951  0.4021721E+02  0.1660964E+02  0.4021720E+02  0.0000000E+00
Ar 2952  0.3732607E+02  0.1918539E+02  0.3996376E+02  0.0000000E+00
Ar 2953  0.3776236E+02  0.1636112E+02  0.4300894E+02  0.0000000E+00
Ar 2954  0.4009970E+02  0.1885932E+02  0.4298527E+02  0.0000000E+00
Ar 2955  0.4064223E+02  0.1639768E+02  0.4547275E+02  0.0000000E+00
Ar 2956  0.3783958E+02  0.1884487E+02  0.4563482E+02  0.0000000E+00
Ar 2957  0.3765521E+02  0.1626004E+02  0.4829265E+02  0.0000000E+00
Ar 2958  0.4032356E+02  0.1885491E+02  0.4822185E+02  0.0000000E+00
Ar 2959  0.4025722E+02  0.1645597E+02  0.5096964E+02  0.0000000E+00
Ar 2960  0.3747201E+02  0.1892054E+02  0.5105594E+02  0.0000000E+00
Ar 2961  0.3758967E+02  0.2151831E+02  0.2866982E+00  0.0000000E+00
Ar 2962  0.3996430E+02  0.2419686E+02  0.2114123E+00  0.0000000E+00
Ar 2963  0.4016320E+02  0.2147252E+02  0.2858481E+01  0.0000000E+00
Ar 2964  0.3737056E+02  0.2424182E+02  0.2910911E+01  0.0000000E+00
Ar 2965  0.3759633E+02  0.2145252E+02  0.5371840E+01  0.0000000E+00
Ar 2966  0.4036235E+02  0.2411405E+02  0.5125935E+01  0.0000000E+00
Ar 2967  0.4032996E+02  0.2163888E+02  0.8149356E+01  0.0000000E+00
Ar 2968  0.3763526E+02  0.2452265E+02  0.8017337E+01  0.0000000E+00
Ar 2969  0.3767408E+02  0.2155872E+02  0.1090081E+02  0.0000000E+00
Ar 2970  0.4023005E+02  0.2433247E+02  0.1089294E+02  0.0000000E+00
Ar 2971  0.4030029E+02  0.2163995E+02  0.1359940E+02  0.0000000E+00
Ar 2972  0.3772379E+02  0.2427684E+02  0.1364475E+02  0.0000000E+00
Ar 2973  0.3764414E+02  0.2164546E+02  0.1607846E+02  0.0000000E+00
Ar 2974  0.4048285E+02  0.2420836E+02  0.1631769E+02  0.0000000E+00
Ar 2975  0.4018219E+02  0.2155391E+02  0.1877849E+02  0.0000000E+00
Ar 2976  0.3765290E+02  0.2416531E+02  0.1869029E+02  0.0000000E+00
Ar 2977  0.3752180E+02  0.2154040E+02  0.2154040E+02  0.0000000E+00
Ar 2978  0.4021403E+02  0.2413490E+02  0.2143336E+02  0.0000000E+00
Ar 2979  0.4021403E+02  0.2143336E+02  0.2413490E+02  0.0000000E+00
Ar 2980  0.3726405E+02  0.2424600E+02  0.2424600E+02  0.0000000E+00
Ar 2981  0.3756715E+02  0.2172740E+02  0.2689460E+02  0.0000000E+00
Ar 2982  0.4020813E+02  0.2399442E+02  0.2665640E+02  0.0000000E+00
Ar 2983  0.4011330E+02  0.2141457E+02  0.2971018E+02  0.0000000E+00
Ar 2984  0.3741107E+02  0.2422754E+02  0.2943697E+02  0.0000000E+00
Ar 2985  0.3747713E+02  0.2146282E+02  0.3208195E+02  0.0000000E+00
Ar 2986  0.4003711E+02  0.2416267E+02  0.3222897E+02  0.0000000E+00
Ar 2987  0.4019816E+02  0.2155336E+02  0.3473443E+02  0.0000000E+00
Ar 2988  0.3738808E+02  0.2401937E+02  0.3463433E+02  0.0000000E+00
Ar 2989  0.3744191E+02  0.2183767E+02  0.3744191E+02  0.0000000E+00
Ar 2990  0.4032461E+02  0.2442389E+02  0.3727746E+02  0.0000000E+00
Ar 2991  0.3994228E+02  0.2203848E+02  0.3994228E+02  0.0000000E+00
Ar 2992  0.3727746E+02  0.2442390E+02  0.4032461E+02  0.0000000E+00
Ar 2993  0.3762700E+02  0.2146741E+02  0.4291830E+02  0.0000000E+00
Ar 2994  0.4016034E+02  0.2428784E+02  0.4296074E+02  0.0000000E+00
Ar 2995  0.4017295E+02  0.2148792E+02  0.4549229E+02  0.0000000E+00
Ar 2996  0.3752849E+02  0.2436745E+02  0.4549206E+02  0.0000000E+00
Ar 2997  0.3758743E+02  0.2173176E+02  0.4778038E+02  0.0000000E+00
Ar 2998  0.4014683E+02  0.2428159E+02  0.4806161E+02  0.0000000E+00
Ar 2999  0.3994436E+02  0.2158007E+02  0.5101196E+02  0.0000000E+00
Ar 3000  0.3734991E+02  0.2399068E+02  0.5087072E+02  0.0000000E+00
Ar 3001  0.3712941E+02  0.2674784E+02  0.5342464E+02  0.0000000E+00
Ar 3002  0.4048446E+02  0.2973580E+02  0.1392380E+00  0.0000000E+00
Ar 3003  0.4016337E+02  0.2688609E+02  0.2705207E+01  0.0000000E+00
Ar 3004  0.3729547E+02  0.2945545E+02  0.2560594E+01  0.0000000E+00
Ar 3005  0.3754292E+02  0.2700789E+02  0.5245546E+01  0.0000000E+00
Ar 3006  0.4021168E+02  0.2968389E+02  0.5187530E+01  0.0000000E+00
Ar 3007  0.4033240E+02  0.2685836E+02  0.7836192E+01  0.0000000E+00
Ar 3008  0.3773980E+02  0.2969429E+02  0.8121943E+01  0.0000000E+00
Ar 3009  0.3742029E+02  0.2700101E+02  0.1079431E+02  0.0000000E+00
Ar 3010  0.4013595E+02  0.2931772E+02  0.1085836E+02  0.0000000E+00
Ar 3011  0.4037978E+02  0.2683845E+02  0.1369279E+02  0.0000000E+00
Ar 3012  0.3731582E+02  0.2952715E+02  0.1361873E+02  0.0000000E+00
Ar 3013  0.3740445E+02  0.2677877E+02  0.1628850E+02  0.0000000E+00
Ar 3014  0.4031892E+02  0.2985456E+02  0.1624577E+02  0.0000000E+00
Ar 3015  0.4041794E+02  0.2688704E+02  0.1896004E+02  0.0000000E+00
Ar 3016  0.3781989E+02  0.2947165E+02  0.1877566E+02  0.0000000E+00
Ar 3017  0.3756714E+02  0.2689460E+02  0.2172740E+02  0.0000000E+00
Ar 3018  0.4011330E+02  0.2971018E+02  0.2141457E+02  0.0000000E+00
Ar 3019  0.4020813E+02  0.2665640E+02  0.2399443E+02  0.0000000E+00
Ar 3020  0.3741107E+02  0.2943697E+02  0.2422754E+02  0.0000000E+00
Ar 3021  0.3778240E+02  0.2676655E+02  0.2676655E+02  0.0000000E+00
Ar 3022  0.4013561E+02  0.2955678E+02  0.2660498E+02  0.0000000E+00
Ar 3023  0.4013561E+02  0.2660498E+02  0.2955678E+02  0.0000000E+00
Ar 3024  0.3749741E+02  0.2939256E+02  0.2939256E+02  0.0000000E+00
Ar 3025  0.3739588E+02  0.2678129E+02  0.3218664E+02  0.0000000E+00
Ar 3026  0.4016142E+02  0.2935366E+02  0.3208159E+02  0.0000000E+00
Ar 3027  0.4018331E+02  0.2695895E+02  0.3469815E+02  0.0000000E+00
Ar 3028  0.3716622E+02  0.2940187E+02  0.3463559E+02  0.0000000E+00
Ar 3029  0.3709897E+02  0.2679162E+02  0.3709898E+02  0.0000000E+00
Ar 3030  0.3983590E+02  0.2926840E+02  0.3722888E+02  0.0000000E+00
Ar 3031  0.4014573E+02  0.2706905E+02  0.4014572E+02  0.0000000E+00
Ar 3032  0.3722888E+02  0.2926841E+02  0.3983590E+02  0.0000000E+00
Ar 3033  0.3726423E+02  0.2718863E+02  0.4289381E+02  0.0000000E+00
Ar 3034  0.3983588E+02  0.2946111E+02  0.4267834E+02  0.0000000E+00
Ar 3035  0.3981697E+02  0.2692216E+02  0.4573465E+02  0.0000000E+00
Ar 3036  0.3733187E+02  0.2950737E+02  0.4574501E+02  0.0000000E+00
Ar 3037  0.3736929E+02  0.2677535E+02  0.4838808E+02  0.0000000E+00
Ar 3038  0.4019021E+02  0.2924073E+02  0.4822337E+02  0.0000000E+00
Ar 3039  0.4007751E+02  0.2681991E+02  0.5122149E+02  0.0000000E+00
Ar 3040  0.3757258E+02  0.2957164E+02  0.5075852E+02  0.0000000E+00
Ar 3041  0.3769407E+02  0.3228293E+02  0.5361401E+02  0.0000000E+00
Ar 3042  0.4031899E+02  0.3479091E+02  0.5353026E+02  0.0000000E+00
Ar 3043  0.4042509E+02  0.3253831E+02  0.2684045E+01  0.0000000E+00
Ar 3044  0.3745463E+02  0.3483649E+02  0.2532787E+01  0.0000000E+00
Ar 3045  0.3785337E+02  0.3236749E+02  0.5076683E+01  0.0000000E+00
Ar 3046  0.4029329E+02  0.3484191E+02  0.5306103E+01  0.0000000E+00
Ar 3047  0.4022998E+02  0.3211624E+02  0.8240103E+01  0.0000000E+00
Ar 3048  0.3746737E+02  0.3471278E+02  0.7974915E+01  0.0000000E+00
Ar 3049  0.3750259E+02  0.3219777E+02  0.1084934E+02  0.0000000E+00
Ar 3050  0.4016797E+02  0.3482656E+02  0.1094290E+02  0.0000000E+00
Ar 3051  0.4008256E+02  0.3233302E+02  0.1361687E+02  0.0000000E+00
Ar 3052  0.3779410E+02  0.3517627E+02  0.1352622E+02  0.0000000E+00
Ar 3053  0.3745328E+02  0.3197446E+02  0.1629914E+02  0.0000000E+00
Ar 3054  0.4004348E+02  0.3497178E+02  0.1638030E+02  0.0000000E+00
Ar 3055  0.4052238E+02  0.3229158E+02  0.1875358E+02  0.0000000E+00
Ar 3056  0.3739510E+02  0.3483168E+02  0.1899393E+02  0.0000000E+00
Ar 3057  0.3747713E+02  0.3208195E+02  0.2146282E+02  0.0000000E+00
Ar 3058  0.4019816E+02  0.3473443E+02  0.2155336E+02  0.0000000E+00
Ar 3059  0.4003711E+02  0.3222897E+02  0.2416267E+02  0.0000000E+00
Ar 3060  0.3738808E+02  0.3463433E+02  0.2401937E+02  0.0000000E+00
Ar 3061  0.3739588E+02  0.3218665E+02  0.2678129E+02  0.0000000E+00
Ar 3062  0.4018331E+02  0.3469815E+02  0.2695894E+02  0.0000000E+00
Ar 3063  0.4016142E+02  0.3208159E+02  0.2935366E+02  0.0000000E+00
Ar 3064  0.3716622E+02  0.3463559E+02  0.2940187E+02  0.0000000E+00
Ar 3065  0.3731529E+02  0.3185401E+02  0.3185401E+02  0.0000000E+00
Ar 3066  0.3996181E+02  0.3482099E+02  0.3203180E+02  0.0000000E+00
Ar 3067  0.3996181E+02  0.3203180E+02  0.3482099E+02  0.0000000E+00
Ar 3068  0.3747081E+02  0.3469031E+02  0.3469031E+02  0.0000000E+00
Ar 3069  0.3733435E+02  0.3174917E+02  0.3733435E+02  0.0000000E+00
Ar 3070  0.4014353E+02  0.3486693E+02  0.3768944E+02  0.0000000E+00
Ar 3071  0.3982055E+02  0.3229370E+02  0.3982056E+02  0.0000000E+00
Ar 3072  0.3768943E+02  0.3486693E+02  0.4014353E+02  0.0000000E+00
Ar 3073  0.3742780E+02  0.3216601E+02  0.4282078E+02  0.0000000E+00
Ar 3074  0.4021034E+02  0.3463502E+02  0.4308780E+02  0.0000000E+00
Ar 3075  0.4030197E+02  0.3203010E+02  0.4546704E+02  0.0000000E+00
Ar 3076  0.3749640E+02  0.3483194E+02  0.4569150E+02  0.0000000E+00
Ar 3077  0.3765737E+02  0.3232768E+02  0.4832467E+02  0.0000000E+00
Ar 3078  0.4019223E+02  0.3477998E+02  0.4795030E+02  0.0000000E+00
Ar 3079  0.4042695E+02  0.3226686E+02  0.5093456E+02  0.0000000E+00
Ar 3080  0.3748074E+02  0.3462048E+02  0.5103527E+02  0.0000000E+00
Ar 3081  0.3768605E+02  0.3768605E+02  0.5353630E+02  0.0000000E+00
Ar 3082  0.4011610E+02  0.4011610E+02  0.5361545E+02  0.0000000E+00
Ar 3083  0.4023521E+02  0.3758247E+02  0.2891501E+01  0.0000000E+00
Ar 3084  0.3758247E+02  0.4023521E+02  0.2891500E+01  0.0000000E+00
Ar 3085  0.3750013E+02  0.3750013E+02  0.5285171E+01  0.0000000E+00
Ar 3086  0.4016842E+02  0.4016842E+02  0.5770259E+01  0.0000000E+00
Ar 3087  0.4000302E+02  0.3752930E+02  0.8234511E+01  0.0000000E+00
Ar 3088  0.3752929E+02  0.4000302E+02  0.8234504E+01  0.0000000E+00
Ar 3089  0.3765263E+02  0.3765263E+02  0.1094354E+02  0.0000000E+00
Ar 3090  0.4004005E+02  0.4004004E+02  0.1121581E+02  0.0000000E+00
Ar 3091  0.4033545E+02  0.3770168E+02  0.1390987E+02  0.0000000E+00
Ar 3092  0.3770168E+02  0.4033545E+02  0.1390987E+02  0.0000000E+00
Ar 3093  0.3744960E+02  0.3744960E+02  0.1631902E+02  0.0000000E+00
Ar 3094  0.4021721E+02  0.4021720E+02  0.1660964E+02  0.0000000E+00
Ar 3095  0.3996377E+02  0.3732607E+02  0.1918539E+02  0.0000000E+00
Ar 3096  0.3732607E+02  0.3996376E+02  0.1918539E+02  0.0000000E+00
Ar 3097  0.3744191E+02  0.3744191E+02  0.2183767E+02  0.0000000E+00
Ar 3098  0.3994228E+02  0.3994228E+02  0.2203848E+02  0.0000000E+00
Ar 3099  0.4032460E+02  0.3727746E+02  0.2442389E+02  0.0000000E+00
Ar 3100  0.3727746E+02  0.4032461E+02  0.2442390E+02  0.0000000E+00
Ar 3101  0.3709897E+02  0.3709898E+02  0.2679162E+02  0.0000000E+00
Ar 3102  0.4014573E+02  0.4014572E+02  0.2706906E+02  0.0000000E+00
Ar 3103  0.3983590E+02  0.3722888E+02  0.2926840E+02  0.0000000E+00
Ar 3104  0.3722888E+02  0.3983590E+02  0.2926840E+02  0.0000000E+00
Ar 3105  0.3733435E+02  0.3733435E+02  0.3174917E+02  0.0000000E+00
Ar 3106  0.3982055E+02  0.3982055E+02  0.3229369E+02  0.0000000E+00
Ar 3107  0.4014353E+02  0.3768944E+02  0.3486693E+02  0.0000000E+00
Ar 3108  0.3768943E+02  0.4014353E+02  0.3486693E+02  0.0000000E+00
Ar 3109  0.3723277E+02  0.3723277E+02  0.3723277E+02  0.0000000E+00
Ar 3110  0.4012858E+02  0.4012858E+02  0.3743081E+02  0.0000000E+00
Ar 3111  0.4012858E+02  0.3743081E+02  0.4012859E+02  0.0000000E+00
Ar 3112  0.3743081E+02  0.4012858E+02  0.4012858E+02  0.0000000E+00
Ar 3113  0.3737679E+02  0.3737679E+02  0.4292227E+02  0.0000000E+00
Ar 3114  0.4008926E+02  0.4008927E+02  0.4311420E+02  0.0000000E+00
Ar 3115  0.4016170E+02  0.3749925E+02  0.4545831E+02  0.0000000E+00
Ar 3116  0.3749925E+02  0.4016170E+02  0.4545831E+02  0.0000000E+00
Ar 3117  0.3755756E+02  0.3755756E+02  0.4855054E+02  0.0000000E+00
Ar 3118  0.4009172E+02  0.4009173E+02  0.4855956E+02  0.0000000E+00
Ar 3119  0.4017608E+02  0.3711322E+02  0.5095598E+02  0.0000000E+00
Ar 3120  0.3711321E+02  0.4017609E+02  0.5095598E+02  0.0000000E+00
Ar 3121  0.3744594E+02  0.4276790E+02  0.1102397E+00  0.0000000E+00
Ar 3122  0.3999183E+02  0.4555285E+02  0.5357369E+02  0.0000000E+00
Ar 3123  0.4014176E+02  0.4289980E+02  0.2595956E+01  0.0000000E+00
Ar 3124  0.3744653E+02  0.4563496E+02  0.2692466E+01  0.0000000E+00
Ar 3125  0.3747383E+02  0.4268349E+02  0.5459944E+01  0.0000000E+00
Ar 3126  0.3996528E+02  0.4550443E+02  0.5174996E+01  0.0000000E+00
Ar 3127  0.4024143E+02  0.4271938E+02  0.8088672E+01  0.0000000E+00
Ar 3128  0.3763257E+02  0.4525435E+02  0.8055448E+01  0.0000000E+00
Ar 3129  0.3771373E+02  0.4279510E+02  0.1080637E+02  0.0000000E+00
Ar 3130  0.4038955E+02  0.4596229E+02  0.1099341E+02  0.0000000E+00
Ar 3131  0.4024957E+02  0.4286148E+02  0.1348169E+02  0.0000000E+00
Ar 3132  0.3777167E+02  0.4549148E+02  0.1372704E+02  0.0000000E+00
Ar 3133  0.3776236E+02  0.4300894E+02  0.1636112E+02  0.0000000E+00
Ar 3134  0.4064223E+02  0.4547275E+02  0.1639768E+02  0.0000000E+00
Ar 3135  0.4009970E+02  0.4298526E+02  0.1885932E+02  0.0000000E+00
Ar 3136  0.3783958E+02  0.4563482E+02  0.1884487E+02  0.0000000E+00
Ar 3137  0.3762700E+02  0.4291830E+02  0.2146741E+02  0.0000000E+00
Ar 3138  0.4017295E+02  0.4549229E+02  0.2148792E+02  0.0000000E+00
Ar 3139  0.4016035E+02  0.4296074E+02  0.2428784E+02  0.0000000E+00
Ar 3140  0.3752849E+02  0.4549206E+02  0.2436745E+02  0.0000000E+00
Ar 3141  0.3726423E+02  0.4289381E+02  0.2718864E+02  0.0000000E+00
Ar 3142  0.3981697E+02  0.4573465E+02  0.2692216E+02  0.0000000E+00
Ar 3143  0.3983587E+02  0.4267834E+02  0.2946111E+02  0.0000000E+00
Ar 3144  0.3733187E+02  0.4574501E+02  0.2950737E+02  0.0000000E+00
Ar 3145  0.3742780E+02  0.4282078E+02  0.3216602E+02  0.0000000E+00
Ar 3146  0.4030197E+02  0.4546704E+02  0.3203010E+02  0.0000000E+00
Ar 3147  0.4021034E+02  0.4308780E+02  0.3463501E+02  0.0000000E+00
Ar 3148  0.3749640E+02  0.4569150E+02  0.3483194E+02  0.0000000E+00
Ar 3149  0.3737679E+02  0.4292227E+02  0.3737679E+02  0.0000000E+00
Ar 3150  0.4016170E+02  0.4545831E+02  0.3749925E+02  0.0000000E+00
Ar 3151  0.4008927E+02  0.4311420E+02  0.4008927E+02  0.0000000E+00
Ar 3152  0.3749925E+02  0.4545831E+02  0.4016170E+02  0.0000000E+00
Ar 3153  0.3724059E+02  0.4292705E+02  0.4292705E+02  0.0000000E+00
Ar 3154  0.4010528E+02  0.4539110E+02  0.4285295E+02  0.0000000E+00
Ar 3155  0.4010528E+02  0.4285295E+02  0.4539111E+02  0.0000000E+00
Ar 3156  0.3751958E+02  0.4567245E+02  0.4567245E+02  0.0000000E+00
Ar 3157  0.3741029E+02  0.4287180E+02  0.4835338E+02  0.0000000E+00
Ar 3158  0.4049043E+02  0.4552591E+02  0.4826608E+02  0.0000000E+00
Ar 3159  0.4016656E+02  0.4277179E+02  0.5110512E+02  0.0000000E+00
Ar 3160  0.3747901E+02  0.4573397E+02  0.5087804E+02  0.0000000E+00
Ar 3161  0.3746748E+02  0.4839778E+02  0.5364667E+02  0.0000000E+00
Ar 3162  0.3997515E+02  0.5067590E+02  0.5354622E+02  0.0000000E+00
Ar 3163  0.4011888E+02  0.4828786E+02  0.2683027E+01  0.0000000E+00
Ar 3164  0.3745865E+02  0.5098558E+02  0.2867995E+01  0.0000000E+00
Ar 3165  0.3762826E+02  0.4851700E+02  0.5628912E+01  0.0000000E+00
Ar 3166  0.4012595E+02  0.5104227E+02  0.5628666E+01  0.0000000E+00
Ar 3167  0.4054607E+02  0.4836927E+02  0.8011073E+01  0.0000000E+00
Ar 3168  0.3734567E+02  0.5118120E+02  0.8195288E+01  0.0000000E+00
Ar 3169  0.3777442E+02  0.4856112E+02  0.1090874E+02  0.0000000E+00
Ar 3170  0.4043354E+02  0.5100177E+02  0.1079436E+02  0.0000000E+00
Ar 3171  0.4034542E+02  0.4841098E+02  0.1349780E+02  0.0000000E+00
Ar 3172  0.3770625E+02  0.5100277E+02  0.1363700E+02  0.0000000E+00
Ar 3173  0.3765521E+02  0.4829265E+02  0.1626004E+02  0.0000000E+00
Ar 3174  0.4025722E+02  0.5096964E+02  0.1645597E+02  0.0000000E+00
Ar 3175  0.4032356E+02  0.4822185E+02  0.1885491E+02  0.0000000E+00
Ar 3176  0.3747201E+02  0.5105594E+02  0.1892054E+02  0.0000000E+00
Ar 3177  0.3758743E+02  0.4778038E+02  0.2173176E+02  0.0000000E+00
Ar 3178  0.3994436E+02  0.5101196E+02  0.2158007E+02  0.0000000E+00
Ar 3179  0.4014683E+02  0.4806160E+02  0.2428159E+02  0.0000000E+00
Ar 3180  0.3734991E+02  0.5087072E+02  0.2399068E+02  0.0000000E+00
Ar 3181  0.3736929E+02  0.4838808E+02  0.2677535E+02  0.0000000E+00
Ar 3182  0.4007751E+02  0.5122149E+02  0.2681992E+02  0.0000000E+00
Ar 3183  0.4019021E+02  0.4822337E+02  0.2924073E+02  0.0000000E+00
Ar 3184  0.3757258E+02  0.5075852E+02  0.2957164E+02  0.0000000E+00
Ar 3185  0.3765738E+02  0.4832467E+02  0.3232769E+02  0.0000000E+00
Ar 3186  0.4042695E+02  0.5093456E+02  0.3226685E+02  0.0000000E+00
Ar 3187  0.4019223E+02  0.4795030E+02  0.3477998E+02  0.0000000E+00
Ar 3188  0.3748074E+02  0.5103528E+02  0.3462048E+02  0.0000000E+00
Ar 3189  0.3755756E+02  0.4855054E+02  0.3755756E+02  0.0000000E+00
Ar 3190  0.4017608E+02  0.5095598E+02  0.3711322E+02  0.0000000E+00
Ar 3191  0.4009172E+02  0.4855956E+02  0.4009173E+02  0.0000000E+00
Ar 3192  0.3711321E+02  0.5095599E+02  0.4017609E+02  0.0000000E+00
Ar 3193  0.3741029E+02  0.4835338E+02  0.4287180E+02  0.0000000E+00
Ar 3194  0.4016657E+02  0.5110512E+02  0.4277179E+02  0.0000000E+00
Ar 3195  0.4049043E+02  0.4826608E+02  0.4552591E+02  0.0000000E+00
Ar 3196  0.3747901E+02  0.5087804E+02  0.4573397E+02  0.0000000E+00
Ar 3197  0.3716242E+02  0.4805766E+02  0.4805767E+02  0.0000000E+00
Ar 3198  0.4034391E+02  0.5084981E+02  0.4820520E+02  0.0000000E+00
Ar 3199  0.4034390E+02  0.4820520E+02  0.5084981E+02  0.0000000E+00
Ar 3200  0.3748736E+02  0.5119479E+02  0.5119479E+02  0.0000000E+00
Ar 3201  0.4296302E+02  0.2326990E+00  0.2326966E+00  0.0000000E+00
Ar 3202  0.4575826E+02  0.2806516E+01  0.5353556E+02  0.0000000E+00
Ar 3203  0.4575826E+02  0.5353556E+02  0.2806515E+01  0.0000000E+00
Ar 3204  0.4309838E+02  0.2824135E+01  0.2824135E+01  0.0000000E+00
Ar 3205  0.4307270E+02  0.5354946E+02  0.5202261E+01  0.0000000E+00
Ar 3206  0.4574339E+02  0.2798350E+01  0.5361944E+01  0.0000000E+00
Ar 3207  0.4550224E+02  0.1644840E+00  0.8028046E+01  0.0000000E+00
Ar 3208  0.4282728E+02  0.2980484E+01  0.8134729E+01  0.0000000E+00
Ar 3209  0.4298925E+02  0.1586140E+00  0.1074514E+02  0.0000000E+00
Ar 3210  0.4575503E+02  0.2827535E+01  0.1116343E+02  0.0000000E+00
Ar 3211  0.4553890E+02  0.5360509E+02  0.1340851E+02  0.0000000E+00
Ar 3212  0.4285578E+02  0.2770166E+01  0.1338725E+02  0.0000000E+00
Ar 3213  0.4280307E+02  0.5349089E+02  0.1608056E+02  0.0000000E+00
Ar 3214  0.4557480E+02  0.2316866E+01  0.1616912E+02  0.0000000E+00
Ar 3215  0.4566780E+02  0.5353463E+02  0.1881649E+02  0.0000000E+00
Ar 3216  0.4272676E+02  0.2745792E+01  0.1866578E+02  0.0000000E+00
Ar 3217  0.4267094E+02  0.2786022E+00  0.2123224E+02  0.0000000E+00
Ar 3218  0.4556917E+02  0.2669920E+01  0.2129950E+02  0.0000000E+00
Ar 3219  0.4544463E+02  0.5361072E+02  0.2373333E+02  0.0000000E+00
Ar 3220  0.4310327E+02  0.2587588E+01  0.2425980E+02  0.0000000E+00
Ar 3221  0.4289756E+02  0.1994053E+00  0.2677660E+02  0.0000000E+00
Ar 3222  0.4606538E+02  0.2861893E+01  0.2685519E+02  0.0000000E+00
Ar 3223  0.4536041E+02  0.1314701E+00  0.2940678E+02  0.0000000E+00
Ar 3224  0.4295483E+02  0.3015103E+01  0.2978545E+02  0.0000000E+00
Ar 3225  0.4308588E+02  0.1963814E+00  0.3219257E+02  0.0000000E+00
Ar 3226  0.4598053E+02  0.3108010E+01  0.3223817E+02  0.0000000E+00
Ar 3227  0.4591044E+02  0.5361875E+02  0.3476106E+02  0.0000000E+00
Ar 3228  0.4298686E+02  0.2678122E+01  0.3492728E+02  0.0000000E+00
Ar 3229  0.4276789E+02  0.1102420E+00  0.3744594E+02  0.0000000E+00
Ar 3230  0.4563497E+02  0.2692467E+01  0.3744654E+02  0.0000000E+00
Ar 3231  0.4555286E+02  0.5357369E+02  0.3999183E+02  0.0000000E+00
Ar 3232  0.4289981E+02  0.2595951E+01  0.4014176E+02  0.0000000E+00
Ar 3233  0.4269016E+02  0.5353852E+02  0.4269015E+02  0.0000000E+00
Ar 3234  0.4551804E+02  0.2613901E+01  0.4282430E+02  0.0000000E+00
Ar 3235  0.4541226E+02  0.1106533E+00  0.4541227E+02  0.0000000E+00
Ar 3236  0.4282429E+02  0.2613904E+01  0.4551804E+02  0.0000000E+00
Ar 3237  0.4294594E+02  0.5362851E+02  0.4822529E+02  0.0000000E+00
Ar 3238  0.4564861E+02  0.2901939E+01  0.4831034E+02  0.0000000E+00
Ar 3239  0.4556292E+02  0.1775326E+00  0.5105628E+02  0.0000000E+00
Ar 3240  0.4275961E+02  0.2668100E+01  0.5094132E+02  0.0000000E+00
Ar 3241  0.4307270E+02  0.5202260E+01  0.5354946E+02  0.0000000E+00
Ar 3242  0.4550224E+02  0.8028047E+01  0.1644827E+00  0.0000000E+00
Ar 3243  0.4574339E+02  0.5361945E+01  0.2798348E+01  0.0000000E+00
Ar 3244  0.4282728E+02  0.8134730E+01  0.2980484E+01  0.0000000E+00
Ar 3245  0.4281855E+02  0.5267417E+01  0.5267417E+01  0.0000000E+00
Ar 3246  0.4549662E+02  0.8258960E+01  0.5175765E+01  0.0000000E+00
Ar 3247  0.4549662E+02  0.5175765E+01  0.8258962E+01  0.0000000E+00
Ar 3248  0.4315823E+02  0.7735344E+01  0.7735343E+01  0.0000000E+00
Ar 3249  0.4289300E+02  0.5557007E+01  0.1094128E+02  0.0000000E+00
Ar 3250  0.4547587E+02  0.7949717E+01  0.1085166E+02  0.0000000E+00
Ar 3251  0.4541650E+02  0.5239926E+01  0.1387628E+02  0.0000000E+00
Ar 3252  0.4300318E+02  0.8257528E+01  0.1327940E+02  0.0000000E+00
Ar 3253  0.4284932E+02  0.5228311E+01  0.1610529E+02  0.0000000E+00
Ar 3254  0.4519583E+02  0.8123125E+01  0.1599961E+02  0.0000000E+00
Ar 3255  0.4561937E+02  0.5389124E+01  0.1859099E+02  0.0000000E+00
Ar 3256  0.4283279E+02  0.7977384E+01  0.1900188E+02  0.0000000E+00
Ar 3257  0.4302148E+02  0.5347619E+01  0.2154863E+02  0.0000000E+00
Ar 3258  0.4567306E+02  0.8240952E+01  0.2163108E+02  0.0000000E+00
Ar 3259  0.4562891E+02  0.5428562E+01  0.2435626E+02  0.0000000E+00
Ar 3260  0.4287724E+02  0.7916634E+01  0.2444743E+02  0.0000000E+00
Ar 3261  0.4318035E+02  0.5415623E+01  0.2703861E+02  0.0000000E+00
Ar 3262  0.4555806E+02  0.8214073E+01  0.2683179E+02  0.0000000E+00
Ar 3263  0.4579650E+02  0.5732840E+01  0.2952296E+02  0.0000000E+00
Ar 3264  0.4274529E+02  0.7762577E+01  0.2957731E+02  0.0000000E+00
Ar 3265  0.4280636E+02  0.5545758E+01  0.3233883E+02  0.0000000E+00
Ar 3266  0.4545988E+02  0.8200769E+01  0.3220149E+02  0.0000000E+00
Ar 3267  0.4565296E+02  0.5697823E+01  0.3488657E+02  0.0000000E+00
Ar 3268  0.4289074E+02  0.8421129E+01  0.3498026E+02  0.0000000E+00
Ar 3269  0.4268348E+02  0.5459950E+01  0.3747383E+02  0.0000000E+00
Ar 3270  0.4525435E+02  0.8055443E+01  0.3763257E+02  0.0000000E+00
Ar 3271  0.4550442E+02  0.5174993E+01  0.3996528E+02  0.0000000E+00
Ar 3272  0.4271938E+02  0.8088673E+01  0.4024143E+02  0.0000000E+00
Ar 3273  0.4281088E+02  0.5413819E+01  0.4281088E+02  0.0000000E+00
Ar 3274  0.4541434E+02  0.8061084E+01  0.4264850E+02  0.0000000E+00
Ar 3275  0.4556532E+02  0.5223593E+01  0.4556531E+02  0.0000000E+00
Ar 3276  0.4264851E+02  0.8061088E+01  0.4541434E+02  0.0000000E+00
Ar 3277  0.4273022E+02  0.5192026E+01  0.4808573E+02  0.0000000E+00
Ar 3278  0.4548652E+02  0.8169074E+01  0.4795655E+02  0.0000000E+00
Ar 3279  0.4549086E+02  0.5465262E+01  0.5102244E+02  0.0000000E+00
Ar 3280  0.4301310E+02  0.8239283E+01  0.5096302E+02  0.0000000E+00
Ar 3281  0.4298925E+02  0.1074514E+02  0.1586127E+00  0.0000000E+00
Ar 3282  0.4553890E+02  0.1340851E+02  0.5360508E+02  0.0000000E+00
Ar 3283  0.4575503E+02  0.1116343E+02  0.2827536E+01  0.0000000E+00
Ar 3284  0.4285578E+02  0.1338725E+02  0.2770165E+01  0.0000000E+00
Ar 3285  0.4289300E+02  0.1094128E+02  0.5557007E+01  0.0000000E+00
Ar 3286  0.4541650E+02  0.1387628E+02  0.5239926E+01  0.0000000E+00
Ar 3287  0.4547587E+02  0.1085165E+02  0.7949717E+01  0.0000000E+00
Ar 3288  0.4300318E+02  0.1327940E+02  0.8257526E+01  0.0000000E+00
Ar 3289  0.4298872E+02  0.1071575E+02  0.1071575E+02  0.0000000E+00
Ar 3290  0.4554639E+02  0.1343251E+02  0.1090452E+02  0.0000000E+00
Ar 3291  0.4554639E+02  0.1090452E+02  0.1343251E+02  0.0000000E+00
Ar 3292  0.4265894E+02  0.1339292E+02  0.1339292E+02  0.0000000E+00
Ar 3293  0.4269409E+02  0.1086427E+02  0.1630072E+02  0.0000000E+00
Ar 3294  0.4524292E+02  0.1341008E+02  0.1620862E+02  0.0000000E+00
Ar 3295  0.4526904E+02  0.1074882E+02  0.1895907E+02  0.0000000E+00
Ar 3296  0.4267501E+02  0.1349798E+02  0.1877534E+02  0.0000000E+00
Ar 3297  0.4290229E+02  0.1077006E+02  0.2172424E+02  0.0000000E+00
Ar 3298  0.4556177E+02  0.1343421E+02  0.2165527E+02  0.0000000E+00
Ar 3299  0.4567479E+02  0.1070171E+02  0.2435242E+02  0.0000000E+00
Ar 3300  0.4275107E+02  0.1342911E+02  0.2420138E+02  0.0000000E+00
Ar 3301  0.4285620E+02  0.1094534E+02  0.2699775E+02  0.0000000E+00
Ar 3302  0.4568370E+02  0.1335217E+02  0.2677961E+02  0.0000000E+00
Ar 3303  0.4544997E+02  0.1109622E+02  0.2963973E+02  0.0000000E+00
Ar 3304  0.4272987E+02  0.1359538E+02  0.2951100E+02  0.0000000E+00
Ar 3305  0.4281590E+02  0.1101187E+02  0.3226071E+02  0.0000000E+00
Ar 3306  0.4566515E+02  0.1372486E+02  0.3235906E+02  0.0000000E+00
Ar 3307  0.4584407E+02  0.1093040E+02  0.3521055E+02  0.0000000E+00
Ar 3308  0.4274786E+02  0.1372073E+02  0.3507628E+02  0.0000000E+00
Ar 3309  0.4279510E+02  0.1080637E+02  0.3771373E+02  0.0000000E+00
Ar 3310  0.4549148E+02  0.1372703E+02  0.3777168E+02  0.0000000E+00
Ar 3311  0.4596229E+02  0.1099341E+02  0.4038954E+02  0.0000000E+00
Ar 3312  0.4286147E+02  0.1348169E+02  0.4024957E+02  0.0000000E+00
Ar 3313  0.4283253E+02  0.1068705E+02  0.4283253E+02  0.0000000E+00
Ar 3314  0.4539555E+02  0.1365242E+02  0.4291083E+02  0.0000000E+00
Ar 3315  0.4534129E+02  0.1086467E+02  0.4534129E+02  0.0000000E+00
Ar 3316  0.4291083E+02  0.1365242E+02  0.4539556E+02  0.0000000E+00
Ar 3317  0.4297663E+02  0.1060262E+02  0.4835866E+02  0.0000000E+00
Ar 3318  0.4552320E+02  0.1331264E+02  0.4840535E+02  0.0000000E+00
Ar 3319  0.4576510E+02  0.1089274E+02  0.5129125E+02  0.0000000E+00
Ar 3320  0.4320218E+02  0.1317164E+02  0.5091978E+02  0.0000000E+00
Ar 3321  0.4280307E+02  0.1608056E+02  0.5349089E+02  0.0000000E+00
Ar 3322  0.4566780E+02  0.1881649E+02  0.5353463E+02  0.0000000E+00
Ar 3323  0.4557480E+02  0.1616911E+02  0.2316865E+01  0.0000000E+00
Ar 3324  0.4272676E+02  0.1866578E+02  0.2745793E+01  0.0000000E+00
Ar 3325  0.4284932E+02  0.1610529E+02  0.5228311E+01  0.0000000E+00
Ar 3326  0.4561937E+02  0.1859099E+02  0.5389126E+01  0.0000000E+00
Ar 3327  0.4519583E+02  0.1599961E+02  0.8123126E+01  0.0000000E+00
Ar 3328  0.4283279E+02  0.1900188E+02  0.7977384E+01  0.0000000E+00
Ar 3329  0.4269409E+02  0.1630073E+02  0.1086427E+02  0.0000000E+00
Ar 3330  0.4526904E+02  0.1895907E+02  0.1074882E+02  0.0000000E+00
Ar 3331  0.4524292E+02  0.1620862E+02  0.1341008E+02  0.0000000E+00
Ar 3332  0.4267501E+02  0.1877535E+02  0.1349798E+02  0.0000000E+00
Ar 3333  0.4292568E+02  0.1634851E+02  0.1634851E+02  0.0000000E+00
Ar 3334  0.4552525E+02  0.1896526E+02  0.1631132E+02  0.0000000E+00
Ar 3335  0.4552525E+02  0.1631133E+02  0.1896526E+02  0.0000000E+00
Ar 3336  0.4288323E+02  0.1889070E+02  0.1889070E+02  0.0000000E+00
Ar 3337  0.4293703E+02  0.1612068E+02  0.2152218E+02  0.0000000E+00
Ar 3338  0.4541941E+02  0.1880732E+02  0.2145078E+02  0.0000000E+00
Ar 3339  0.4557531E+02  0.1619730E+02  0.2427342E+02  0.0000000E+00
Ar 3340  0.4305677E+02  0.1885547E+02  0.2418837E+02  0.0000000E+00
Ar 3341  0.4308955E+02  0.1627330E+02  0.2702056E+02  0.0000000E+00
Ar 3342  0.4556516E+02  0.1878356E+02  0.2674557E+02  0.0000000E+00
Ar 3343  0.4571772E+02  0.1609302E+02  0.2954561E+02  0.0000000E+00
Ar 3344  0.4295618E+02  0.1905693E+02  0.2964708E+02  0.0000000E+00
Ar 3345  0.4305175E+02  0.1631406E+02  0.3222411E+02  0.0000000E+00
Ar 3346  0.4566322E+02  0.1886219E+02  0.3219915E+02  0.0000000E+00
Ar 3347  0.4562074E+02  0.1633994E+02  0.3500779E+02  0.0000000E+00
Ar 3348  0.4317718E+02  0.1880629E+02  0.3495086E+02  0.0000000E+00
Ar 3349  0.4300895E+02  0.1636112E+02  0.3776235E+02  0.0000000E+00
Ar 3350  0.4563482E+02  0.1884487E+02  0.3783958E+02  0.0000000E+00
Ar 3351  0.4547275E+02  0.1639767E+02  0.4064224E+02  0.0000000E+00
Ar 3352  0.4298527E+02  0.1885932E+02  0.4009970E+02  0.0000000E+00
Ar 3353  0.4263079E+02  0.1639576E+02  0.4263078E+02  0.0000000E+00
Ar 3354  0.4544070E+02  0.1912203E+02  0.4314572E+02  0.0000000E+00
Ar 3355  0.4577031E+02  0.1627739E+02  0.4577032E+02  0.0000000E+00
Ar 3356  0.4314572E+02  0.1912203E+02  0.4544069E+02  0.0000000E+00
Ar 3357  0.4313155E+02  0.1606833E+02  0.4810803E+02  0.0000000E+00
Ar 3358  0.4559478E+02  0.1876242E+02  0.4825253E+02  0.0000000E+00
Ar 3359  0.4567718E+02  0.1614750E+02  0.5105868E+02  0.0000000E+00
Ar 3360  0.4282470E+02  0.1875144E+02  0.5082916E+02  0.0000000E+00
Ar 3361  0.4267094E+02  0.2123224E+02  0.2786020E+00  0.0000000E+00
Ar 3362  0.4544463E+02  0.2373333E+02  0.5361072E+02  0.0000000E+00
Ar 3363  0.4556917E+02  0.2129950E+02  0.2669919E+01  0.0000000E+00
Ar 3364  0.4310327E+02  0.2425980E+02  0.2587588E+01  0.0000000E+00
Ar 3365  0.4302148E+02  0.2154863E+02  0.5347619E+01  0.0000000E+00
Ar 3366  0.4562891E+02  0.2435626E+02  0.5428563E+01  0.0000000E+00
Ar 3367  0.4567306E+02  0.2163108E+02  0.8240950E+01  0.0000000E+00
Ar 3368  0.4287723E+02  0.2444743E+02  0.7916635E+01  0.0000000E+00
Ar 3369  0.4290229E+02  0.2172424E+02  0.1077005E+02  0.0000000E+00
Ar 3370  0.4567479E+02  0.2435242E+02  0.1070172E+02  0.0000000E+00
Ar 3371  0.4556177E+02  0.2165527E+02  0.1343421E+02  0.0000000E+00
Ar 3372  0.4275107E+02  0.2420138E+02  0.1342911E+02  0.0000000E+00
Ar 3373  0.4293704E+02  0.2152218E+02  0.1612068E+02  0.0000000E+00
Ar 3374  0.4557531E+02  0.2427342E+02  0.1619730E+02  0.0000000E+00
Ar 3375  0.4541941E+02  0.2145078E+02  0.1880732E+02  0.0000000E+00
Ar 3376  0.4305677E+02  0.2418837E+02  0.1885547E+02  0.0000000E+00
Ar 3377  0.4300856E+02  0.2155417E+02  0.2155417E+02  0.0000000E+00
Ar 3378  0.4565098E+02  0.2387874E+02  0.2145186E+02  0.0000000E+00
Ar 3379  0.4565097E+02  0.2145186E+02  0.2387873E+02  0.0000000E+00
Ar 3380  0.4281415E+02  0.2411334E+02  0.2411334E+02  0.0000000E+00
Ar 3381  0.4302721E+02  0.2141024E+02  0.2672383E+02  0.0000000E+00
Ar 3382  0.4537936E+02  0.2413727E+02  0.2673869E+02  0.0000000E+00
Ar 3383  0.4572036E+02  0.2132721E+02  0.2947395E+02  0.0000000E+00
Ar 3384  0.4275498E+02  0.2405663E+02  0.2929871E+02  0.0000000E+00
Ar 3385  0.4295804E+02  0.2181365E+02  0.3207338E+02  0.0000000E+00
Ar 3386  0.4562629E+02  0.2419306E+02  0.3203976E+02  0.0000000E+00
Ar 3387  0.4554856E+02  0.2154124E+02  0.3477510E+02  0.0000000E+00
Ar 3388  0.4304581E+02  0.2417844E+02  0.3493306E+02  0.0000000E+00
Ar 3389  0.4291830E+02  0.2146741E+02  0.3762700E+02  0.0000000E+00
Ar 3390  0.4549206E+02  0.2436745E+02  0.3752849E+02  0.0000000E+00
Ar 3391  0.4549229E+02  0.2148793E+02  0.4017295E+02  0.0000000E+00
Ar 3392  0.4296074E+02  0.2428784E+02  0.4016034E+02  0.0000000E+00
Ar 3393  0.4277171E+02  0.2141679E+02  0.4277171E+02  0.0000000E+00
Ar 3394  0.4549533E+02  0.2405615E+02  0.4272109E+02  0.0000000E+00
Ar 3395  0.4568188E+02  0.2181894E+02  0.4568187E+02  0.0000000E+00
Ar 3396  0.4272108E+02  0.2405615E+02  0.4549533E+02  0.0000000E+00
Ar 3397  0.4271993E+02  0.2157913E+02  0.4831499E+02  0.0000000E+00
Ar 3398  0.4542893E+02  0.2423430E+02  0.4844139E+02  0.0000000E+00
Ar 3399  0.4554311E+02  0.2151179E+02  0.5089864E+02  0.0000000E+00
Ar 3400  0.4279329E+02  0.2406452E+02  0.5115272E+02  0.0000000E+00
Ar 3401  0.4289756E+02  0.2677660E+02  0.1994051E+00  0.0000000E+00
Ar 3402  0.4536041E+02  0.2940678E+02  0.1314704E+00  0.0000000E+00
Ar 3403  0.4606537E+02  0.2685519E+02  0.2861893E+01  0.0000000E+00
Ar 3404  0.4295483E+02  0.2978545E+02  0.3015105E+01  0.0000000E+00
Ar 3405  0.4318035E+02  0.2703861E+02  0.5415625E+01  0.0000000E+00
Ar 3406  0.4579650E+02  0.2952296E+02  0.5732839E+01  0.0000000E+00
Ar 3407  0.4555806E+02  0.2683179E+02  0.8214074E+01  0.0000000E+00
Ar 3408  0.4274529E+02  0.2957731E+02  0.7762578E+01  0.0000000E+00
Ar 3409  0.4285620E+02  0.2699775E+02  0.1094533E+02  0.0000000E+00
Ar 3410  0.4544997E+02  0.2963973E+02  0.1109622E+02  0.0000000E+00
Ar 3411  0.4568370E+02  0.2677961E+02  0.1335217E+02  0.0000000E+00
Ar 3412  0.4272987E+02  0.2951100E+02  0.1359538E+02  0.0000000E+00
Ar 3413  0.4308955E+02  0.2702056E+02  0.1627331E+02  0.0000000E+00
Ar 3414  0.4571772E+02  0.2954561E+02  0.1609302E+02  0.0000000E+00
Ar 3415  0.4556516E+02  0.2674557E+02  0.1878356E+02  0.0000000E+00
Ar 3416  0.4295618E+02  0.2964708E+02  0.1905693E+02  0.0000000E+00
Ar 3417  0.4302721E+02  0.2672383E+02  0.2141024E+02  0.0000000E+00
Ar 3418  0.4572036E+02  0.2947395E+02  0.2132721E+02  0.0000000E+00
Ar 3419  0.4537936E+02  0.2673869E+02  0.2413727E+02  0.0000000E+00
Ar 3420  0.4275498E+02  0.2929871E+02  0.2405663E+02  0.0000000E+00
Ar 3421  0.4268699E+02  0.2685903E+02  0.2685903E+02  0.0000000E+00
Ar 3422  0.4542779E+02  0.2954751E+02  0.2690030E+02  0.0000000E+00
Ar 3423  0.4542779E+02  0.2690030E+02  0.2954750E+02  0.0000000E+00
Ar 3424  0.4285779E+02  0.2956352E+02  0.2956352E+02  0.0000000E+00
Ar 3425  0.4271354E+02  0.2675227E+02  0.3203912E+02  0.0000000E+00
Ar 3426  0.4548317E+02  0.2964377E+02  0.3203359E+02  0.0000000E+00
Ar 3427  0.4551007E+02  0.2700179E+02  0.3452661E+02  0.0000000E+00
Ar 3428  0.4296608E+02  0.2965849E+02  0.3472856E+02  0.0000000E+00
Ar 3429  0.4289381E+02  0.2718864E+02  0.3726423E+02  0.0000000E+00
Ar 3430  0.4574501E+02  0.2950737E+02  0.3733187E+02  0.0000000E+00
Ar 3431  0.4573465E+02  0.2692215E+02  0.3981697E+02  0.0000000E+00
Ar 3432  0.4267834E+02  0.2946111E+02  0.3983588E+02  0.0000000E+00
Ar 3433  0.4295883E+02  0.2677345E+02  0.4295883E+02  0.0000000E+00
Ar 3434  0.4547831E+02  0.2951353E+02  0.4291106E+02  0.0000000E+00
Ar 3435  0.4543539E+02  0.2693244E+02  0.4543539E+02  0.0000000E+00
Ar 3436  0.4291106E+02  0.2951353E+02  0.4547831E+02  0.0000000E+00
Ar 3437  0.4272037E+02  0.2679135E+02  0.4797526E+02  0.0000000E+00
Ar 3438  0.4570930E+02  0.2918779E+02  0.4826458E+02  0.0000000E+00
Ar 3439  0.4545918E+02  0.2681397E+02  0.5125897E+02  0.0000000E+00
Ar 3440  0.4289850E+02  0.2917144E+02  0.5102369E+02  0.0000000E+00
Ar 3441  0.4308588E+02  0.3219257E+02  0.1963826E+00  0.0000000E+00
Ar 3442  0.4591044E+02  0.3476106E+02  0.5361875E+02  0.0000000E+00
Ar 3443  0.4598052E+02  0.3223817E+02  0.3108009E+01  0.0000000E+00
Ar 3444  0.4298686E+02  0.3492728E+02  0.2678124E+01  0.0000000E+00
Ar 3445  0.4280636E+02  0.3233883E+02  0.5545759E+01  0.0000000E+00
Ar 3446  0.4565296E+02  0.3488658E+02  0.5697826E+01  0.0000000E+00
Ar 3447  0.4545989E+02  0.3220149E+02  0.8200767E+01  0.0000000E+00
Ar 3448  0.4289074E+02  0.3498026E+02  0.8421129E+01  0.0000000E+00
Ar 3449  0.4281590E+02  0.3226071E+02  0.1101187E+02  0.0000000E+00
Ar 3450  0.4584407E+02  0.3521054E+02  0.1093040E+02  0.0000000E+00
Ar 3451  0.4566515E+02  0.3235906E+02  0.1372486E+02  0.0000000E+00
Ar 3452  0.4274786E+02  0.3507628E+02  0.1372073E+02  0.0000000E+00
Ar 3453  0.4305175E+02  0.3222411E+02  0.1631406E+02  0.0000000E+00
Ar 3454  0.4562074E+02  0.3500778E+02  0.1633994E+02  0.0000000E+00
Ar 3455  0.4566322E+02  0.3219915E+02  0.1886219E+02  0.0000000E+00
Ar 3456  0.4317718E+02  0.3495085E+02  0.1880629E+02  0.0000000E+00
Ar 3457  0.4295803E+02  0.3207338E+02  0.2181365E+02  0.0000000E+00
Ar 3458  0.4554856E+02  0.3477510E+02  0.2154124E+02  0.0000000E+00
Ar 3459  0.4562629E+02  0.3203975E+02  0.2419307E+02  0.0000000E+00
Ar 3460  0.4304581E+02  0.3493307E+02  0.2417844E+02  0.0000000E+00
Ar 3461  0.4271354E+02  0.3203912E+02  0.2675226E+02  0.0000000E+00
Ar 3462  0.4551007E+02  0.3452661E+02  0.2700178E+02  0.0000000E+00
Ar 3463  0.4548317E+02  0.3203359E+02  0.2964377E+02  0.0000000E+00
Ar 3464  0.4296608E+02  0.3472856E+02  0.2965849E+02  0.0000000E+00
Ar 3465  0.4223597E+02  0.3221144E+02  0.3221144E+02  0.0000000E+00
Ar 3466  0.4543443E+02  0.3491959E+02  0.3234030E+02  0.0000000E+00
Ar 3467  0.4543443E+02  0.3234030E+02  0.3491959E+02  0.0000000E+00
Ar 3468  0.4273393E+02  0.3477799E+02  0.3477799E+02  0.0000000E+00
Ar 3469  0.4282078E+02  0.3216602E+02  0.3742781E+02  0.0000000E+00
Ar 3470  0.4569151E+02  0.3483195E+02  0.3749641E+02  0.0000000E+00
Ar 3471  0.4546705E+02  0.3203010E+02  0.4030197E+02  0.0000000E+00
Ar 3472  0.4308780E+02  0.3463501E+02  0.4021035E+02  0.0000000E+00
Ar 3473  0.4252032E+02  0.3207914E+02  0.4252032E+02  0.0000000E+00
Ar 3474  0.4560439E+02  0.3461425E+02  0.4314085E+02  0.0000000E+00
Ar 3475  0.4570694E+02  0.3204947E+02  0.4570694E+02  0.0000000E+00
Ar 3476  0.4314086E+02  0.3461425E+02  0.4560439E+02  0.0000000E+00
Ar 3477  0.4279905E+02  0.3199058E+02  0.4813215E+02  0.0000000E+00
Ar 3478  0.4559161E+02  0.3462130E+02  0.4828709E+02  0.0000000E+00
Ar 3479  0.4550949E+02  0.3190610E+02  0.5096533E+02  0.0000000E+00
Ar 3480  0.4303211E+02  0.3462864E+02  0.5103077E+02  0.0000000E+00
Ar 3481  0.4276790E+02  0.3744594E+02  0.1102419E+00  0.0000000E+00
Ar 3482  0.4555286E+02  0.3999183E+02  0.5357369E+02  0.0000000E+00
Ar 3483  0.4563497E+02  0.3744654E+02  0.2692469E+01  0.0000000E+00
Ar 3484  0.4289981E+02  0.4014176E+02  0.2595953E+01  0.0000000E+00
Ar 3485  0.4268348E+02  0.3747383E+02  0.5459947E+01  0.0000000E+00
Ar 3486  0.4550443E+02  0.3996528E+02  0.5174993E+01  0.0000000E+00
Ar 3487  0.4525435E+02  0.3763257E+02  0.8055444E+01  0.0000000E+00
Ar 3488  0.4271938E+02  0.4024143E+02  0.8088672E+01  0.0000000E+00
Ar 3489  0.4279510E+02  0.3771373E+02  0.1080637E+02  0.0000000E+00
Ar 3490  0.4596229E+02  0.4038955E+02  0.1099341E+02  0.0000000E+00
Ar 3491  0.4549149E+02  0.3777167E+02  0.1372702E+02  0.0000000E+00
Ar 3492  0.4286148E+02  0.4024957E+02  0.1348169E+02  0.0000000E+00
Ar 3493  0.4300895E+02  0.3776235E+02  0.1636111E+02  0.0000000E+00
Ar 3494  0.4547275E+02  0.4064224E+02  0.1639767E+02  0.0000000E+00
Ar 3495  0.4563482E+02  0.3783958E+02  0.1884487E+02  0.0000000E+00
Ar 3496  0.4298527E+02  0.4009970E+02  0.1885932E+02  0.0000000E+00
Ar 3497  0.4291830E+02  0.3762699E+02  0.2146741E+02  0.0000000E+00
Ar 3498  0.4549229E+02  0.4017295E+02  0.2148793E+02  0.0000000E+00
Ar 3499  0.4549206E+02  0.3752849E+02  0.2436744E+02  0.0000000E+00
Ar 3500  0.4296074E+02  0.4016034E+02  0.2428784E+02  0.0000000E+00
Ar 3501  0.4289381E+02  0.3726423E+02  0.2718864E+02  0.0000000E+00
Ar 3502  0.4573465E+02  0.3981697E+02  0.2692215E+02  0.0000000E+00
Ar 3503  0.4574501E+02  0.3733187E+02  0.2950737E+02  0.0000000E+00
Ar 3504  0.4267834E+02  0.3983588E+02  0.2946112E+02  0.0000000E+00
Ar 3505  0.4282078E+02  0.3742781E+02  0.3216602E+02  0.0000000E+00
Ar 3506  0.4546704E+02  0.4030197E+02  0.3203010E+02  0.0000000E+00
Ar 3507  0.4569151E+02  0.3749641E+02  0.3483195E+02  0.0000000E+00
Ar 3508  0.4308780E+02  0.4021035E+02  0.3463501E+02  0.0000000E+00
Ar 3509  0.4292227E+02  0.3737679E+02  0.3737680E+02  0.0000000E+00
Ar 3510  0.4545831E+02  0.4016170E+02  0.3749925E+02  0.0000000E+00
Ar 3511  0.4545831E+02  0.3749925E+02  0.4016170E+02  0.0000000E+00
Ar 3512  0.4311419E+02  0.4008927E+02  0.4008927E+02  0.0000000E+00
Ar 3513  0.4292705E+02  0.3724059E+02  0.4292706E+02  0.0000000E+00
Ar 3514  0.4539110E+02  0.4010528E+02  0.4285295E+02  0.0000000E+00
Ar 3515  0.4567245E+02  0.3751959E+02  0.4567245E+02  0.0000000E+00
Ar 3516  0.4285295E+02  0.4010528E+02  0.4539110E+02  0.0000000E+00
Ar 3517  0.4287179E+02  0.3741029E+02  0.4835338E+02  0.0000000E+00
Ar 3518  0.4552591E+02  0.4049043E+02  0.4826607E+02  0.0000000E+00
Ar 3519  0.4573397E+02  0.3747901E+02  0.5087805E+02  0.0000000E+00
Ar 3520  0.4277179E+02  0.4016656E+02  0.5110512E+02  0.0000000E+00
Ar 3521  0.4269016E+02  0.4269015E+02  0.5353852E+02  0.0000000E+00
Ar 3522  0.4541226E+02  0.4541226E+02  0.1106535E+00  0.0000000E+00
Ar 3523  0.4551804E+02  0.4282429E+02  0.2613904E+01  0.0000000E+00
Ar 3524  0.4282429E+02  0.4551804E+02  0.2613906E+01  0.0000000E+00
Ar 3525  0.4281088E+02  0.4281088E+02  0.5413817E+01  0.0000000E+00
Ar 3526  0.4556532E+02  0.4556531E+02  0.5223593E+01  0.0000000E+00
Ar 3527  0.4541435E+02  0.4264851E+02  0.8061085E+01  0.0000000E+00
Ar 3528  0.4264851E+02  0.4541434E+02  0.8061089E+01  0.0000000E+00
Ar 3529  0.4283253E+02  0.4283253E+02  0.1068705E+02  0.0000000E+00
Ar 3530  0.4534129E+02  0.4534129E+02  0.1086467E+02  0.0000000E+00
Ar 3531  0.4539555E+02  0.4291083E+02  0.1365242E+02  0.0000000E+00
Ar 3532  0.4291083E+02  0.4539556E+02  0.1365242E+02  0.0000000E+00
Ar 3533  0.4263079E+02  0.4263079E+02  0.1639576E+02  0.0000000E+00
Ar 3534  0.4577031E+02  0.4577031E+02  0.1627739E+02  0.0000000E+00
Ar 3535  0.4544070E+02  0.4314572E+02  0.1912202E+02  0.0000000E+00
Ar 3536  0.4314572E+02  0.4544070E+02  0.1912203E+02  0.0000000E+00
Ar 3537  0.4277171E+02  0.4277171E+02  0.2141679E+02  0.0000000E+00
Ar 3538  0.4568188E+02  0.4568187E+02  0.2181894E+02  0.0000000E+00
Ar 3539  0.4549533E+02  0.4272109E+02  0.2405615E+02  0.0000000E+00
Ar 3540  0.4272108E+02  0.4549533E+02  0.2405615E+02  0.0000000E+00
Ar 3541  0.4295883E+02  0.4295883E+02  0.2677345E+02  0.0000000E+00
Ar 3542  0.4543538E+02  0.4543539E+02  0.2693244E+02  0.0000000E+00
Ar 3543  0.4547831E+02  0.4291106E+02  0.2951353E+02  0.0000000E+00
Ar 3544  0.4291106E+02  0.4547831E+02  0.2951353E+02  0.0000000E+00
Ar 3545  0.4252032E+02  0.4252032E+02  0.3207914E+02  0.0000000E+00
Ar 3546  0.4570694E+02  0.4570694E+02  0.3204947E+02  0.0000000E+00
Ar 3547  0.4560439E+02  0.4314085E+02  0.3461425E+02  0.0000000E+00
Ar 3548  0.4314086E+02  0.4560439E+02  0.3461425E+02  0.0000000E+00
Ar 3549  0.4292705E+02  0.4292706E+02  0.3724059E+02  0.0000000E+00
Ar 3550  0.4567244E+02  0.4567245E+02  0.3751959E+02  0.0000000E+00
Ar 3551  0.4539110E+02  0.4285295E+02  0.4010528E+02  0.0000000E+00
Ar 3552  0.4285295E+02  0.4539110E+02  0.4010528E+02  0.0000000E+00
Ar 3553  0.4244431E+02  0.4244431E+02  0.4244431E+02  0.0000000E+00
Ar 3554  0.4538245E+02  0.4538246E+02  0.4293876E+02  0.0000000E+00
Ar 3555  0.4538246E+02  0.4293876E+02  0.4538245E+02  0.0000000E+00
Ar 3556  0.4293876E+02  0.4538245E+02  0.4538245E+02  0.0000000E+00
Ar 3557  0.4297504E+02  0.4297504E+02  0.4814731E+02  0.0000000E+00
Ar 3558  0.4551462E+02  0.4551461E+02  0.4850746E+02  0.0000000E+00
Ar 3559  0.4530238E+02  0.4268894E+02  0.5094642E+02  0.0000000E+00
Ar 3560  0.4268894E+02  0.4530237E+02  0.5094642E+02  0.0000000E+00
Ar 3561  0.4294594E+02  0.4822529E+02  0.5362851E+02  0.0000000E+00
Ar 3562  0.4556292E+02  0.5105628E+02  0.1775304E+00  0.0000000E+00
Ar 3563  0.4564861E+02  0.4831034E+02  0.2901940E+01  0.0000000E+00
Ar 3564  0.4275960E+02  0.5094132E+02  0.2668099E+01  0.0000000E+00
Ar 3565  0.4273022E+02  0.4808573E+02  0.5192027E+01  0.0000000E+00
Ar 3566  0.4549086E+02  0.5102244E+02  0.5465261E+01  0.0000000E+00
Ar 3567  0.4548652E+02  0.4795655E+02  0.8169073E+01  0.0000000E+00
Ar 3568  0.4301310E+02  0.5096302E+02  0.8239283E+01  0.0000000E+00
Ar 3569  0.4297663E+02  0.4835866E+02  0.1060262E+02  0.0000000E+00
Ar 3570  0.4576510E+02  0.5129125E+02  0.1089274E+02  0.0000000E+00
Ar 3571  0.4552320E+02  0.4840535E+02  0.1331264E+02  0.0000000E+00
Ar 3572  0.4320218E+02  0.5091978E+02  0.1317164E+02  0.0000000E+00
Ar 3573  0.4313155E+02  0.4810803E+02  0.1606833E+02  0.0000000E+00
Ar 3574  0.4567718E+02  0.5105868E+02  0.1614750E+02  0.0000000E+00
Ar 3575  0.4559479E+02  0.4825253E+02  0.1876242E+02  0.0000000E+00
Ar 3576  0.4282470E+02  0.5082916E+02  0.1875144E+02  0.0000000E+00
Ar 3577  0.4271993E+02  0.4831499E+02  0.2157913E+02  0.0000000E+00
Ar 3578  0.4554311E+02  0.5089864E+02  0.2151180E+02  0.0000000E+00
Ar 3579  0.4542893E+02  0.4844139E+02  0.2423430E+02  0.0000000E+00
Ar 3580  0.4279329E+02  0.5115272E+02  0.2406452E+02  0.0000000E+00
Ar 3581  0.4272037E+02  0.4797526E+02  0.2679135E+02  0.0000000E+00
Ar 3582  0.4545918E+02  0.5125897E+02  0.2681397E+02  0.0000000E+00
Ar 3583  0.4570930E+02  0.4826458E+02  0.2918779E+02  0.0000000E+00
Ar 3584  0.4289850E+02  0.5102369E+02  0.2917145E+02  0.0000000E+00
Ar 3585  0.4279905E+02  0.4813215E+02  0.3199058E+02  0.0000000E+00
Ar 3586  0.4550949E+02  0.5096533E+02  0.3190611E+02  0.0000000E+00
Ar 3587  0.4559161E+02  0.4828709E+02  0.3462131E+02  0.0000000E+00
Ar 3588  0.4303210E+02  0.5103077E+02  0.3462864E+02  0.0000000E+00
Ar 3589  0.4287179E+02  0.4835338E+02  0.3741028E+02  0.0000000E+00
Ar 3590  0.4573397E+02  0.5087804E+02  0.3747901E+02  0.0000000E+00
Ar 3591  0.4552591E+02  0.4826608E+02  0.4049043E+02  0.0000000E+00
Ar 3592  0.4277179E+02  0.5110511E+02  0.4016655E+02  0.0000000E+00
Ar 3593  0.4297504E+02  0.4814731E+02  0.4297504E+02  0.0000000E+00
Ar 3594  0.4530237E+02  0.5094642E+02  0.4268894E+02  0.0000000E+00
Ar 3595  0.4551462E+02  0.4850746E+02  0.4551461E+02  0.0000000E+00
Ar 3596  0.4268894E+02  0.5094642E+02  0.4530237E+02  0.0000000E+00
Ar 3597  0.4297261E+02  0.4814682E+02  0.4814682E+02  0.0000000E+00
Ar 3598  0.4544884E+02  0.5111683E+02  0.4815763E+02  0.0000000E+00
Ar 3599  0.4544883E+02  0.4815762E+02  0.5111683E+02  0.0000000E+00
Ar 3600  0.4293306E+02  0.5077684E+02  0.5077684E+02  0.0000000E+00
Ar 3601  0.4833755E+02  0.5341891E+02  0.5341891E+02  0.0000000E+00
Ar 3602  0.5081067E+02  0.2446662E+01  0.5359499E+02  0.0000000E+00
Ar 3603  0.5081067E+02  0.5359499E+02  0.2446663E+01  0.0000000E+00
Ar 3604  0.4837450E+02  0.2707465E+01  0.2707467E+01  0.0000000E+00
Ar 3605  0.4824523E+02  0.1296556E+00  0.5136231E+01  0.0000000E+00
Ar 3606  0.5087421E+02  0.2910678E+01  0.5584471E+01  0.0000000E+00
Ar 3607  0.5088222E+02  0.5351335E+02  0.7764066E+01  0.0000000E+00
Ar 3608  0.4826160E+02  0.2631287E+01  0.8029307E+01  0.0000000E+00
Ar 3609  0.4824322E+02  0.7540960E-01  0.1044385E+02  0.0000000E+00
Ar 3610  0.5119843E+02  0.2491500E+01  0.1079062E+02  0.0000000E+00
Ar 3611  0.5119840E+02  0.8319921E-01  0.1331527E+02  0.0000000E+00
Ar 3612  0.4855581E+02  0.2265544E+01  0.1349906E+02  0.0000000E+00
Ar 3613  0.4863287E+02  0.5349353E+02  0.1607115E+02  0.0000000E+00
Ar 3614  0.5097881E+02  0.2845748E+01  0.1609895E+02  0.0000000E+00
Ar 3615  0.5099714E+02  0.5360355E+02  0.1893601E+02  0.0000000E+00
Ar 3616  0.4822694E+02  0.2908500E+01  0.1854110E+02  0.0000000E+00
Ar 3617  0.4832850E+02  0.2047997E+00  0.2137984E+02  0.0000000E+00
Ar 3618  0.5104378E+02  0.2761682E+01  0.2147041E+02  0.0000000E+00
Ar 3619  0.5092210E+02  0.2170289E+00  0.2417056E+02  0.0000000E+00
Ar 3620  0.4837944E+02  0.3060554E+01  0.2397888E+02  0.0000000E+00
Ar 3621  0.4836352E+02  0.5363309E+02  0.2701399E+02  0.0000000E+00
Ar 3622  0.5102895E+02  0.2805460E+01  0.2677896E+02  0.0000000E+00
Ar 3623  0.5092246E+02  0.5357282E+02  0.2930172E+02  0.0000000E+00
Ar 3624  0.4855135E+02  0.3113655E+01  0.2948057E+02  0.0000000E+00
Ar 3625  0.4829098E+02  0.3167857E+00  0.3184189E+02  0.0000000E+00
Ar 3626  0.5098586E+02  0.3127528E+01  0.3214178E+02  0.0000000E+00
Ar 3627  0.5106927E+02  0.5364887E+02  0.3483948E+02  0.0000000E+00
Ar 3628  0.4847813E+02  0.3062663E+01  0.3486829E+02  0.0000000E+00
Ar 3629  0.4839779E+02  0.5364667E+02  0.3746748E+02  0.0000000E+00
Ar 3630  0.5098558E+02  0.2867991E+01  0.3745865E+02  0.0000000E+00
Ar 3631  0.5067590E+02  0.5354622E+02  0.3997515E+02  0.0000000E+00
Ar 3632  0.4828786E+02  0.2683032E+01  0.4011888E+02  0.0000000E+00
Ar 3633  0.4822529E+02  0.5362851E+02  0.4294594E+02  0.0000000E+00
Ar 3634  0.5094132E+02  0.2668104E+01  0.4275960E+02  0.0000000E+00
Ar 3635  0.5105628E+02  0.1775392E+00  0.4556292E+02  0.0000000E+00
Ar 3636  0.4831034E+02  0.2901936E+01  0.4564861E+02  0.0000000E+00
Ar 3637  0.4805528E+02  0.1035438E+00  0.4805528E+02  0.0000000E+00
Ar 3638  0.5070715E+02  0.2544187E+01  0.4819611E+02  0.0000000E+00
Ar 3639  0.5077133E+02  0.5345834E+02  0.5077133E+02  0.0000000E+00
Ar 3640  0.4819611E+02  0.2544183E+01  0.5070715E+02  0.0000000E+00
Ar 3641  0.4824523E+02  0.5136231E+01  0.1296558E+00  0.0000000E+00
Ar 3642  0.5088222E+02  0.7764067E+01  0.5351335E+02  0.0000000E+00
Ar 3643  0.5087421E+02  0.5584470E+01  0.2910675E+01  0.0000000E+00
Ar 3644  0.4826159E+02  0.8029306E+01  0.2631288E+01  0.0000000E+00
Ar 3645  0.4813383E+02  0.5466576E+01  0.5466575E+01  0.0000000E+00
Ar 3646  0.5084003E+02  0.8019079E+01  0.5440845E+01  0.0000000E+00
Ar 3647  0.5084003E+02  0.5440845E+01  0.8019082E+01  0.0000000E+00
Ar 3648  0.4798335E+02  0.8128659E+01  0.8128659E+01  0.0000000E+00
Ar 3649  0.4861727E+02  0.5185125E+01  0.1104761E+02  0.0000000E+00
Ar 3650  0.5117244E+02  0.7967649E+01  0.1073426E+02  0.0000000E+00
Ar 3651  0.5114953E+02  0.5403769E+01  0.1350286E+02  0.0000000E+00
Ar 3652  0.4840973E+02  0.7973389E+01  0.1336222E+02  0.0000000E+00
Ar 3653  0.4824856E+02  0.5554642E+01  0.1608366E+02  0.0000000E+00
Ar 3654  0.5099067E+02  0.8199777E+01  0.1604035E+02  0.0000000E+00
Ar 3655  0.5097279E+02  0.5467690E+01  0.1871000E+02  0.0000000E+00
Ar 3656  0.4839195E+02  0.8205034E+01  0.1867729E+02  0.0000000E+00
Ar 3657  0.4785852E+02  0.5442200E+01  0.2132342E+02  0.0000000E+00
Ar 3658  0.5085498E+02  0.8066174E+01  0.2134847E+02  0.0000000E+00
Ar 3659  0.5112157E+02  0.5368245E+01  0.2404604E+02  0.0000000E+00
Ar 3660  0.4823175E+02  0.8199206E+01  0.2403024E+02  0.0000000E+00
Ar 3661  0.4822883E+02  0.5736787E+01  0.2693376E+02  0.0000000E+00
Ar 3662  0.5095078E+02  0.8063027E+01  0.2669153E+02  0.0000000E+00
Ar 3663  0.5128200E+02  0.5442593E+01  0.2935697E+02  0.0000000E+00
Ar 3664  0.4813838E+02  0.8595850E+01  0.2956469E+02  0.0000000E+00
Ar 3665  0.4837983E+02  0.5867289E+01  0.3191026E+02  0.0000000E+00
Ar 3666  0.5107733E+02  0.8364248E+01  0.3215860E+02  0.0000000E+00
Ar 3667  0.5114215E+02  0.5761910E+01  0.3485237E+02  0.0000000E+00
Ar 3668  0.4821231E+02  0.8383474E+01  0.3488301E+02  0.0000000E+00
Ar 3669  0.4851699E+02  0.5628904E+01  0.3762826E+02  0.0000000E+00
Ar 3670  0.5118120E+02  0.8195287E+01  0.3734566E+02  0.0000000E+00
Ar 3671  0.5104227E+02  0.5628664E+01  0.4012594E+02  0.0000000E+00
Ar 3672  0.4836927E+02  0.8011073E+01  0.4054607E+02  0.0000000E+00
Ar 3673  0.4808573E+02  0.5192031E+01  0.4273022E+02  0.0000000E+00
Ar 3674  0.5096302E+02  0.8239282E+01  0.4301310E+02  0.0000000E+00
Ar 3675  0.5102243E+02  0.5465258E+01  0.4549086E+02  0.0000000E+00
Ar 3676  0.4795656E+02  0.8169079E+01  0.4548651E+02  0.0000000E+00
Ar 3677  0.4815261E+02  0.5395025E+01  0.4815261E+02  0.0000000E+00
Ar 3678  0.5084709E+02  0.7839903E+01  0.4825744E+02  0.0000000E+00
Ar 3679  0.5073204E+02  0.4919651E+01  0.5073204E+02  0.0000000E+00
Ar 3680  0.4825744E+02  0.7839902E+01  0.5084708E+02  0.0000000E+00
Ar 3681  0.4824322E+02  0.1044385E+02  0.7541068E-01  0.0000000E+00
Ar 3682  0.5119840E+02  0.1331527E+02  0.8319808E-01  0.0000000E+00
Ar 3683  0.5119843E+02  0.1079062E+02  0.2491500E+01  0.0000000E+00
Ar 3684  0.4855581E+02  0.1349906E+02  0.2265544E+01  0.0000000E+00
Ar 3685  0.4861727E+02  0.1104761E+02  0.5185126E+01  0.0000000E+00
Ar 3686  0.5114953E+02  0.1350286E+02  0.5403768E+01  0.0000000E+00
Ar 3687  0.5117244E+02  0.1073427E+02  0.7967648E+01  0.0000000E+00
Ar 3688  0.4840973E+02  0.1336222E+02  0.7973389E+01  0.0000000E+00
Ar 3689  0.4827815E+02  0.1050017E+02  0.1050017E+02  0.0000000E+00
Ar 3690  0.5084897E+02  0.1315466E+02  0.1053378E+02  0.0000000E+00
Ar 3691  0.5084897E+02  0.1053377E+02  0.1315467E+02  0.0000000E+00
Ar 3692  0.4799121E+02  0.1385926E+02  0.1385926E+02  0.0000000E+00
Ar 3693  0.4837616E+02  0.1074527E+02  0.1604335E+02  0.0000000E+00
Ar 3694  0.5102020E+02  0.1363323E+02  0.1616118E+02  0.0000000E+00
Ar 3695  0.5080077E+02  0.1092366E+02  0.1879845E+02  0.0000000E+00
Ar 3696  0.4809066E+02  0.1350576E+02  0.1892161E+02  0.0000000E+00
Ar 3697  0.4844889E+02  0.1070447E+02  0.2180721E+02  0.0000000E+00
Ar 3698  0.5092029E+02  0.1354074E+02  0.2140619E+02  0.0000000E+00
Ar 3699  0.5115854E+02  0.1080727E+02  0.2395074E+02  0.0000000E+00
Ar 3700  0.4850079E+02  0.1364811E+02  0.2423237E+02  0.0000000E+00
Ar 3701  0.4841158E+02  0.1064888E+02  0.2659409E+02  0.0000000E+00
Ar 3702  0.5113701E+02  0.1366305E+02  0.2685313E+02  0.0000000E+00
Ar 3703  0.5086713E+02  0.1101790E+02  0.2969485E+02  0.0000000E+00
Ar 3704  0.4836609E+02  0.1345023E+02  0.2982821E+02  0.0000000E+00
Ar 3705  0.4836093E+02  0.1109355E+02  0.3223789E+02  0.0000000E+00
Ar 3706  0.5122822E+02  0.1354484E+02  0.3239060E+02  0.0000000E+00
Ar 3707  0.5114906E+02  0.1081231E+02  0.3504396E+02  0.0000000E+00
Ar 3708  0.4861402E+02  0.1368966E+02  0.3515009E+02  0.0000000E+00
Ar 3709  0.4856112E+02  0.1090874E+02  0.3777442E+02  0.0000000E+00
Ar 3710  0.5100277E+02  0.1363700E+02  0.3770625E+02  0.0000000E+00
Ar 3711  0.5100176E+02  0.1079436E+02  0.4043354E+02  0.0000000E+00
Ar 3712  0.4841098E+02  0.1349780E+02  0.4034542E+02  0.0000000E+00
Ar 3713  0.4835866E+02  0.1060262E+02  0.4297662E+02  0.0000000E+00
Ar 3714  0.5091978E+02  0.1317164E+02  0.4320217E+02  0.0000000E+00
Ar 3715  0.5129125E+02  0.1089275E+02  0.4576510E+02  0.0000000E+00
Ar 3716  0.4840536E+02  0.1331265E+02  0.4552320E+02  0.0000000E+00
Ar 3717  0.4827720E+02  0.1058640E+02  0.4827720E+02  0.0000000E+00
Ar 3718  0.5115429E+02  0.1339271E+02  0.4822938E+02  0.0000000E+00
Ar 3719  0.5084624E+02  0.1089267E+02  0.5084623E+02  0.0000000E+00
Ar 3720  0.4822937E+02  0.1339271E+02  0.5115429E+02  0.0000000E+00
Ar 3721  0.4863287E+02  0.1607115E+02  0.5349353E+02  0.0000000E+00
Ar 3722  0.5099714E+02  0.1893601E+02  0.5360355E+02  0.0000000E+00
Ar 3723  0.5097881E+02  0.1609895E+02  0.2845746E+01  0.0000000E+00
Ar 3724  0.4822695E+02  0.1854110E+02  0.2908500E+01  0.0000000E+00
Ar 3725  0.4824856E+02  0.1608366E+02  0.5554641E+01  0.0000000E+00
Ar 3726  0.5097279E+02  0.1871000E+02  0.5467686E+01  0.0000000E+00
Ar 3727  0.5099067E+02  0.1604035E+02  0.8199777E+01  0.0000000E+00
Ar 3728  0.4839195E+02  0.1867729E+02  0.8205032E+01  0.0000000E+00
Ar 3729  0.4837616E+02  0.1604335E+02  0.1074527E+02  0.0000000E+00
Ar 3730  0.5080077E+02  0.1879845E+02  0.1092366E+02  0.0000000E+00
Ar 3731  0.5102020E+02  0.1616118E+02  0.1363323E+02  0.0000000E+00
Ar 3732  0.4809066E+02  0.1892161E+02  0.1350576E+02  0.0000000E+00
Ar 3733  0.4824912E+02  0.1633669E+02  0.1633669E+02  0.0000000E+00
Ar 3734  0.5104817E+02  0.1900877E+02  0.1621697E+02  0.0000000E+00
Ar 3735  0.5104817E+02  0.1621697E+02  0.1900877E+02  0.0000000E+00
Ar 3736  0.4826882E+02  0.1888200E+02  0.1888200E+02  0.0000000E+00
Ar 3737  0.4827020E+02  0.1617837E+02  0.2150426E+02  0.0000000E+00
Ar 3738  0.5100743E+02  0.1897354E+02  0.2167694E+02  0.0000000E+00
Ar 3739  0.5110975E+02  0.1624414E+02  0.2426294E+02  0.0000000E+00
Ar 3740  0.4813239E+02  0.1874628E+02  0.2395421E+02  0.0000000E+00
Ar 3741  0.4828202E+02  0.1612963E+02  0.2685192E+02  0.0000000E+00
Ar 3742  0.5104423E+02  0.1868154E+02  0.2665589E+02  0.0000000E+00
Ar 3743  0.5093820E+02  0.1630658E+02  0.2949883E+02  0.0000000E+00
Ar 3744  0.4827772E+02  0.1882617E+02  0.2947625E+02  0.0000000E+00
Ar 3745  0.4844359E+02  0.1634129E+02  0.3244610E+02  0.0000000E+00
Ar 3746  0.5084101E+02  0.1918076E+02  0.3221189E+02  0.0000000E+00
Ar 3747  0.5107142E+02  0.1634558E+02  0.3495620E+02  0.0000000E+00
Ar 3748  0.4845960E+02  0.1907413E+02  0.3523573E+02  0.0000000E+00
Ar 3749  0.4829265E+02  0.1626004E+02  0.3765522E+02  0.0000000E+00
Ar 3750  0.5105594E+02  0.1892054E+02  0.3747201E+02  0.0000000E+00
Ar 3751  0.5096964E+02  0.1645597E+02  0.4025722E+02  0.0000000E+00
Ar 3752  0.4822185E+02  0.1885491E+02  0.4032356E+02  0.0000000E+00
Ar 3753  0.4810804E+02  0.1606834E+02  0.4313155E+02  0.0000000E+00
Ar 3754  0.5082916E+02  0.1875144E+02  0.4282470E+02  0.0000000E+00
Ar 3755  0.5105868E+02  0.1614751E+02  0.4567718E+02  0.0000000E+00
Ar 3756  0.4825253E+02  0.1876241E+02  0.4559479E+02  0.0000000E+00
Ar 3757  0.4846993E+02  0.1627259E+02  0.4846993E+02  0.0000000E+00
Ar 3758  0.5082017E+02  0.1881832E+02  0.4813269E+02  0.0000000E+00
Ar 3759  0.5106703E+02  0.1594570E+02  0.5106703E+02  0.0000000E+00
Ar 3760  0.4813269E+02  0.1881832E+02  0.5082017E+02  0.0000000E+00
Ar 3761  0.4832850E+02  0.2137984E+02  0.2048007E+00  0.0000000E+00
Ar 3762  0.5092210E+02  0.2417056E+02  0.2170278E+00  0.0000000E+00
Ar 3763  0.5104378E+02  0.2147042E+02  0.2761681E+01  0.0000000E+00
Ar 3764  0.4837944E+02  0.2397889E+02  0.3060554E+01  0.0000000E+00
Ar 3765  0.4785852E+02  0.2132342E+02  0.5442199E+01  0.0000000E+00
Ar 3766  0.5112158E+02  0.2404604E+02  0.5368246E+01  0.0000000E+00
Ar 3767  0.5085498E+02  0.2134846E+02  0.8066174E+01  0.0000000E+00
Ar 3768  0.4823175E+02  0.2403025E+02  0.8199208E+01  0.0000000E+00
Ar 3769  0.4844889E+02  0.2180721E+02  0.1070447E+02  0.0000000E+00
Ar 3770  0.5115854E+02  0.2395074E+02  0.1080728E+02  0.0000000E+00
Ar 3771  0.5092029E+02  0.2140620E+02  0.1354074E+02  0.0000000E+00
Ar 3772  0.4850079E+02  0.2423237E+02  0.1364811E+02  0.0000000E+00
Ar 3773  0.4827020E+02  0.2150426E+02  0.1617837E+02  0.0000000E+00
Ar 3774  0.5110975E+02  0.2426295E+02  0.1624414E+02  0.0000000E+00
Ar 3775  0.5100743E+02  0.2167694E+02  0.1897354E+02  0.0000000E+00
Ar 3776  0.4813239E+02  0.2395421E+02  0.1874628E+02  0.0000000E+00
Ar 3777  0.4828255E+02  0.2147637E+02  0.2147637E+02  0.0000000E+00
Ar 3778  0.5092700E+02  0.2422125E+02  0.2163700E+02  0.0000000E+00
Ar 3779  0.5092700E+02  0.2163700E+02  0.2422125E+02  0.0000000E+00
Ar 3780  0.4814206E+02  0.2408182E+02  0.2408182E+02  0.0000000E+00
Ar 3781  0.4836069E+02  0.2112054E+02  0.2675686E+02  0.0000000E+00
Ar 3782  0.5064057E+02  0.2407653E+02  0.2693745E+02  0.0000000E+00
Ar 3783  0.5084349E+02  0.2151760E+02  0.2951984E+02  0.0000000E+00
Ar 3784  0.4814062E+02  0.2402102E+02  0.2936906E+02  0.0000000E+00
Ar 3785  0.4822866E+02  0.2165400E+02  0.3229305E+02  0.0000000E+00
Ar 3786  0.5067219E+02  0.2419842E+02  0.3213483E+02  0.0000000E+00
Ar 3787  0.5098149E+02  0.2163892E+02  0.3471815E+02  0.0000000E+00
Ar 3788  0.4802276E+02  0.2404941E+02  0.3484747E+02  0.0000000E+00
Ar 3789  0.4778039E+02  0.2173177E+02  0.3758743E+02  0.0000000E+00
Ar 3790  0.5087071E+02  0.2399068E+02  0.3734991E+02  0.0000000E+00
Ar 3791  0.5101196E+02  0.2158007E+02  0.3994436E+02  0.0000000E+00
Ar 3792  0.4806160E+02  0.2428159E+02  0.4014683E+02  0.0000000E+00
Ar 3793  0.4831500E+02  0.2157913E+02  0.4271993E+02  0.0000000E+00
Ar 3794  0.5115272E+02  0.2406452E+02  0.4279330E+02  0.0000000E+00
Ar 3795  0.5089865E+02  0.2151180E+02  0.4554311E+02  0.0000000E+00
Ar 3796  0.4844140E+02  0.2423429E+02  0.4542894E+02  0.0000000E+00
Ar 3797  0.4841469E+02  0.2148930E+02  0.4841468E+02  0.0000000E+00
Ar 3798  0.5129114E+02  0.2412513E+02  0.4815291E+02  0.0000000E+00
Ar 3799  0.5096110E+02  0.2181210E+02  0.5096110E+02  0.0000000E+00
Ar 3800  0.4815291E+02  0.2412513E+02  0.5129114E+02  0.0000000E+00
Ar 3801  0.4836352E+02  0.2701399E+02  0.5363309E+02  0.0000000E+00
Ar 3802  0.5092246E+02  0.2930172E+02  0.5357282E+02  0.0000000E+00
Ar 3803  0.5102895E+02  0.2677896E+02  0.2805461E+01  0.0000000E+00
Ar 3804  0.4855135E+02  0.2948057E+02  0.3113654E+01  0.0000000E+00
Ar 3805  0.4822883E+02  0.2693376E+02  0.5736788E+01  0.0000000E+00
Ar 3806  0.5128200E+02  0.2935697E+02  0.5442593E+01  0.0000000E+00
Ar 3807  0.5095078E+02  0.2669153E+02  0.8063030E+01  0.0000000E+00
Ar 3808  0.4813837E+02  0.2956469E+02  0.8595848E+01  0.0000000E+00
Ar 3809  0.4841157E+02  0.2659409E+02  0.1064888E+02  0.0000000E+00
Ar 3810  0.5086713E+02  0.2969485E+02  0.1101790E+02  0.0000000E+00
Ar 3811  0.5113700E+02  0.2685313E+02  0.1366305E+02  0.0000000E+00
Ar 3812  0.4836609E+02  0.2982821E+02  0.1345023E+02  0.0000000E+00
Ar 3813  0.4828202E+02  0.2685192E+02  0.1612963E+02  0.0000000E+00
Ar 3814  0.5093820E+02  0.2949883E+02  0.1630658E+02  0.0000000E+00
Ar 3815  0.5104423E+02  0.2665589E+02  0.1868154E+02  0.0000000E+00
Ar 3816  0.4827771E+02  0.2947625E+02  0.1882617E+02  0.0000000E+00
Ar 3817  0.4836069E+02  0.2675686E+02  0.2112054E+02  0.0000000E+00
Ar 3818  0.5084349E+02  0.2951984E+02  0.2151760E+02  0.0000000E+00
Ar 3819  0.5064057E+02  0.2693745E+02  0.2407653E+02  0.0000000E+00
Ar 3820  0.4814062E+02  0.2936905E+02  0.2402102E+02  0.0000000E+00
Ar 3821  0.4787511E+02  0.2678353E+02  0.2678353E+02  0.0000000E+00
Ar 3822  0.5086084E+02  0.2948925E+02  0.2690063E+02  0.0000000E+00
Ar 3823  0.5086084E+02  0.2690063E+02  0.2948925E+02  0.0000000E+00
Ar 3824  0.4821666E+02  0.2933199E+02  0.2933199E+02  0.0000000E+00
Ar 3825  0.4820255E+02  0.2694884E+02  0.3227703E+02  0.0000000E+00
Ar 3826  0.5087474E+02  0.2943518E+02  0.3190504E+02  0.0000000E+00
Ar 3827  0.5087964E+02  0.2669598E+02  0.3469616E+02  0.0000000E+00
Ar 3828  0.4837694E+02  0.2946962E+02  0.3474779E+02  0.0000000E+00
Ar 3829  0.4838808E+02  0.2677535E+02  0.3736930E+02  0.0000000E+00
Ar 3830  0.5075852E+02  0.2957164E+02  0.3757257E+02  0.0000000E+00
Ar 3831  0.5122149E+02  0.2681991E+02  0.4007751E+02  0.0000000E+00
Ar 3832  0.4822337E+02  0.2924073E+02  0.4019021E+02  0.0000000E+00
Ar 3833  0.4797526E+02  0.2679135E+02  0.4272037E+02  0.0000000E+00
Ar 3834  0.5102369E+02  0.2917144E+02  0.4289850E+02  0.0000000E+00
Ar 3835  0.5125897E+02  0.2681397E+02  0.4545918E+02  0.0000000E+00
Ar 3836  0.4826458E+02  0.2918779E+02  0.4570931E+02  0.0000000E+00
Ar 3837  0.4850032E+02  0.2681557E+02  0.4850033E+02  0.0000000E+00
Ar 3838  0.5101637E+02  0.2958298E+02  0.4829738E+02  0.0000000E+00
Ar 3839  0.5102592E+02  0.2653705E+02  0.5102591E+02  0.0000000E+00
Ar 3840  0.4829738E+02  0.2958298E+02  0.5101637E+02  0.0000000E+00
Ar 3841  0.4829097E+02  0.3184189E+02  0.3167861E+00  0.0000000E+00
Ar 3842  0.5106927E+02  0.3483948E+02  0.5364887E+02  0.0000000E+00
Ar 3843  0.5098586E+02  0.3214178E+02  0.3127528E+01  0.0000000E+00
Ar 3844  0.4847813E+02  0.3486829E+02  0.3062663E+01  0.0000000E+00
Ar 3845  0.4837983E+02  0.3191026E+02  0.5867288E+01  0.0000000E+00
Ar 3846  0.5114215E+02  0.3485237E+02  0.5761910E+01  0.0000000E+00
Ar 3847  0.5107734E+02  0.3215860E+02  0.8364244E+01  0.0000000E+00
Ar 3848  0.4821231E+02  0.3488301E+02  0.8383472E+01  0.0000000E+00
Ar 3849  0.4836093E+02  0.3223789E+02  0.1109355E+02  0.0000000E+00
Ar 3850  0.5114906E+02  0.3504396E+02  0.1081231E+02  0.0000000E+00
Ar 3851  0.5122822E+02  0.3239060E+02  0.1354485E+02  0.0000000E+00
Ar 3852  0.4861402E+02  0.3515009E+02  0.1368966E+02  0.0000000E+00
Ar 3853  0.4844359E+02  0.3244609E+02  0.1634129E+02  0.0000000E+00
Ar 3854  0.5107142E+02  0.3495619E+02  0.1634558E+02  0.0000000E+00
Ar 3855  0.5084101E+02  0.3221189E+02  0.1918076E+02  0.0000000E+00
Ar 3856  0.4845960E+02  0.3523573E+02  0.1907413E+02  0.0000000E+00
Ar 3857  0.4822866E+02  0.3229305E+02  0.2165400E+02  0.0000000E+00
Ar 3858  0.5098149E+02  0.3471815E+02  0.2163892E+02  0.0000000E+00
Ar 3859  0.5067219E+02  0.3213483E+02  0.2419842E+02  0.0000000E+00
Ar 3860  0.4802276E+02  0.3484747E+02  0.2404941E+02  0.0000000E+00
Ar 3861  0.4820255E+02  0.3227703E+02  0.2694884E+02  0.0000000E+00
Ar 3862  0.5087964E+02  0.3469616E+02  0.2669598E+02  0.0000000E+00
Ar 3863  0.5087474E+02  0.3190504E+02  0.2943518E+02  0.0000000E+00
Ar 3864  0.4837694E+02  0.3474779E+02  0.2946962E+02  0.0000000E+00
Ar 3865  0.4814171E+02  0.3199549E+02  0.3199549E+02  0.0000000E+00
Ar 3866  0.5064948E+02  0.3469835E+02  0.3220000E+02  0.0000000E+00
Ar 3867  0.5064948E+02  0.3220001E+02  0.3469835E+02  0.0000000E+00
Ar 3868  0.4822612E+02  0.3470823E+02  0.3470823E+02  0.0000000E+00
Ar 3869  0.4832468E+02  0.3232769E+02  0.3765737E+02  0.0000000E+00
Ar 3870  0.5103528E+02  0.3462048E+02  0.3748074E+02  0.0000000E+00
Ar 3871  0.5093456E+02  0.3226686E+02  0.4042695E+02  0.0000000E+00
Ar 3872  0.4795031E+02  0.3477998E+02  0.4019223E+02  0.0000000E+00
Ar 3873  0.4813216E+02  0.3199059E+02  0.4279905E+02  0.0000000E+00
Ar 3874  0.5103077E+02  0.3462864E+02  0.4303211E+02  0.0000000E+00
Ar 3875  0.5096533E+02  0.3190610E+02  0.4550949E+02  0.0000000E+00
Ar 3876  0.4828710E+02  0.3462130E+02  0.4559161E+02  0.0000000E+00
Ar 3877  0.4833040E+02  0.3209009E+02  0.4833040E+02  0.0000000E+00
Ar 3878  0.5098562E+02  0.3470949E+02  0.4827833E+02  0.0000000E+00
Ar 3879  0.5114395E+02  0.3231744E+02  0.5114395E+02  0.0000000E+00
Ar 3880  0.4827833E+02  0.3470949E+02  0.5098562E+02  0.0000000E+00
Ar 3881  0.4839778E+02  0.3746748E+02  0.5364667E+02  0.0000000E+00
Ar 3882  0.5067590E+02  0.3997515E+02  0.5354622E+02  0.0000000E+00
Ar 3883  0.5098558E+02  0.3745865E+02  0.2867994E+01  0.0000000E+00
Ar 3884  0.4828786E+02  0.4011888E+02  0.2683035E+01  0.0000000E+00
Ar 3885  0.4851699E+02  0.3762826E+02  0.5628911E+01  0.0000000E+00
Ar 3886  0.5104227E+02  0.4012594E+02  0.5628665E+01  0.0000000E+00
Ar 3887  0.5118120E+02  0.3734566E+02  0.8195289E+01  0.0000000E+00
Ar 3888  0.4836927E+02  0.4054607E+02  0.8011075E+01  0.0000000E+00
Ar 3889  0.4856112E+02  0.3777442E+02  0.1090874E+02  0.0000000E+00
Ar 3890  0.5100177E+02  0.4043355E+02  0.1079436E+02  0.0000000E+00
Ar 3891  0.5100277E+02  0.3770625E+02  0.1363700E+02  0.0000000E+00
Ar 3892  0.4841098E+02  0.4034542E+02  0.1349780E+02  0.0000000E+00
Ar 3893  0.4829265E+02  0.3765523E+02  0.1626004E+02  0.0000000E+00
Ar 3894  0.5096964E+02  0.4025722E+02  0.1645597E+02  0.0000000E+00
Ar 3895  0.5105595E+02  0.3747201E+02  0.1892054E+02  0.0000000E+00
Ar 3896  0.4822185E+02  0.4032356E+02  0.1885491E+02  0.0000000E+00
Ar 3897  0.4778038E+02  0.3758743E+02  0.2173177E+02  0.0000000E+00
Ar 3898  0.5101196E+02  0.3994436E+02  0.2158007E+02  0.0000000E+00
Ar 3899  0.5087071E+02  0.3734991E+02  0.2399068E+02  0.0000000E+00
Ar 3900  0.4806160E+02  0.4014683E+02  0.2428159E+02  0.0000000E+00
Ar 3901  0.4838808E+02  0.3736930E+02  0.2677534E+02  0.0000000E+00
Ar 3902  0.5122149E+02  0.4007751E+02  0.2681991E+02  0.0000000E+00
Ar 3903  0.5075852E+02  0.3757257E+02  0.2957164E+02  0.0000000E+00
Ar 3904  0.4822337E+02  0.4019021E+02  0.2924073E+02  0.0000000E+00
Ar 3905  0.4832468E+02  0.3765737E+02  0.3232769E+02  0.0000000E+00
Ar 3906  0.5093456E+02  0.4042695E+02  0.3226686E+02  0.0000000E+00
Ar 3907  0.5103527E+02  0.3748074E+02  0.3462048E+02  0.0000000E+00
Ar 3908  0.4795031E+02  0.4019223E+02  0.3477998E+02  0.0000000E+00
Ar 3909  0.4855054E+02  0.3755756E+02  0.3755756E+02  0.0000000E+00
Ar 3910  0.5095598E+02  0.4017608E+02  0.3711322E+02  0.0000000E+00
Ar 3911  0.5095598E+02  0.3711322E+02  0.4017608E+02  0.0000000E+00
Ar 3912  0.4855955E+02  0.4009172E+02  0.4009172E+02  0.0000000E+00
Ar 3913  0.4835338E+02  0.3741028E+02  0.4287180E+02  0.0000000E+00
Ar 3914  0.5110512E+02  0.4016656E+02  0.4277179E+02  0.0000000E+00
Ar 3915  0.5087804E+02  0.3747901E+02  0.4573397E+02  0.0000000E+00
Ar 3916  0.4826607E+02  0.4049043E+02  0.4552592E+02  0.0000000E+00
Ar 3917  0.4805766E+02  0.3716242E+02  0.4805766E+02  0.0000000E+00
Ar 3918  0.5084980E+02  0.4034391E+02  0.4820520E+02  0.0000000E+00
Ar 3919  0.5119479E+02  0.3748736E+02  0.5119479E+02  0.0000000E+00
Ar 3920  0.4820520E+02  0.4034391E+02  0.5084981E+02  0.0000000E+00
Ar 3921  0.4822529E+02  0.4294594E+02  0.5362851E+02  0.0000000E+00
Ar 3922  0.5105628E+02  0.4556292E+02  0.1775385E+00  0.0000000E+00
Ar 3923  0.5094132E+02  0.4275960E+02  0.2668101E+01  0.0000000E+00
Ar 3924  0.4831034E+02  0.4564861E+02  0.2901934E+01  0.0000000E+00
Ar 3925  0.4808573E+02  0.4273022E+02  0.5192033E+01  0.0000000E+00
Ar 3926  0.5102244E+02  0.4549086E+02  0.5465258E+01  0.0000000E+00
Ar 3927  0.5096302E+02  0.4301310E+02  0.8239281E+01  0.0000000E+00
Ar 3928  0.4795656E+02  0.4548651E+02  0.8169079E+01  0.0000000E+00
Ar 3929  0.4835866E+02  0.4297662E+02  0.1060262E+02  0.0000000E+00
Ar 3930  0.5129125E+02  0.4576510E+02  0.1089275E+02  0.0000000E+00
Ar 3931  0.5091978E+02  0.4320217E+02  0.1317164E+02  0.0000000E+00
Ar 3932  0.4840536E+02  0.4552320E+02  0.1331265E+02  0.0000000E+00
Ar 3933  0.4810803E+02  0.4313155E+02  0.1606834E+02  0.0000000E+00
Ar 3934  0.5105868E+02  0.4567718E+02  0.1614751E+02  0.0000000E+00
Ar 3935  0.5082916E+02  0.4282470E+02  0.1875144E+02  0.0000000E+00
Ar 3936  0.4825253E+02  0.4559479E+02  0.1876241E+02  0.0000000E+00
Ar 3937  0.4831500E+02  0.4271993E+02  0.2157913E+02  0.0000000E+00
Ar 3938  0.5089865E+02  0.4554311E+02  0.2151179E+02  0.0000000E+00
Ar 3939  0.5115272E+02  0.4279330E+02  0.2406452E+02  0.0000000E+00
Ar 3940  0.4844140E+02  0.4542894E+02  0.2423430E+02  0.0000000E+00
Ar 3941  0.4797526E+02  0.4272036E+02  0.2679134E+02  0.0000000E+00
Ar 3942  0.5125897E+02  0.4545918E+02  0.2681396E+02  0.0000000E+00
Ar 3943  0.5102369E+02  0.4289850E+02  0.2917144E+02  0.0000000E+00
Ar 3944  0.4826458E+02  0.4570930E+02  0.2918778E+02  0.0000000E+00
Ar 3945  0.4813216E+02  0.4279906E+02  0.3199059E+02  0.0000000E+00
Ar 3946  0.5096533E+02  0.4550949E+02  0.3190610E+02  0.0000000E+00
Ar 3947  0.5103077E+02  0.4303211E+02  0.3462864E+02  0.0000000E+00
Ar 3948  0.4828710E+02  0.4559161E+02  0.3462130E+02  0.0000000E+00
Ar 3949  0.4835338E+02  0.4287180E+02  0.3741028E+02  0.0000000E+00
Ar 3950  0.5087804E+02  0.4573397E+02  0.3747900E+02  0.0000000E+00
Ar 3951  0.5110512E+02  0.4277179E+02  0.4016656E+02  0.0000000E+00
Ar 3952  0.4826607E+02  0.4552592E+02  0.4049043E+02  0.0000000E+00
Ar 3953  0.4814731E+02  0.4297504E+02  0.4297503E+02  0.0000000E+00
Ar 3954  0.5094642E+02  0.4530237E+02  0.4268894E+02  0.0000000E+00
Ar 3955  0.5094642E+02  0.4268894E+02  0.4530237E+02  0.0000000E+00
Ar 3956  0.4850746E+02  0.4551461E+02  0.4551461E+02  0.0000000E+00
Ar 3957  0.4814683E+02  0.4297261E+02  0.4814682E+02  0.0000000E+00
Ar 3958  0.5111683E+02  0.4544884E+02  0.4815763E+02  0.0000000E+00
Ar 3959  0.5077685E+02  0.4293306E+02  0.5077685E+02  0.0000000E+00
Ar 3960  0.4815763E+02  0.4544883E+02  0.5111683E+02  0.0000000E+00
Ar 3961  0.4805528E+02  0.4805528E+02  0.1035447E+00  0.0000000E+00
Ar 3962  0.5077133E+02  0.5077133E+02  0.5345833E+02  0.0000000E+00
Ar 3963  0.5070715E+02  0.4819611E+02  0.2544184E+01  0.0000000E+00
Ar 3964  0.4819611E+02  0.5070715E+02  0.2544182E+01  0.0000000E+00
Ar 3965  0.4815261E+02  0.4815261E+02  0.5395023E+01  0.0000000E+00
Ar 3966  0.5073204E+02  0.5073204E+02  0.4919649E+01  0.0000000E+00
Ar 3967  0.5084709E+02  0.4825744E+02  0.7839905E+01  0.0000000E+00
Ar 3968  0.4825744E+02  0.5084708E+02  0.7839901E+01  0.0000000E+00
Ar 3969  0.4827719E+02  0.4827720E+02  0.1058640E+02  0.0000000E+00
Ar 3970  0.5084623E+02  0.5084623E+02  0.1089267E+02  0.0000000E+00
Ar 3971  0.5115429E+02  0.4822937E+02  0.1339271E+02  0.0000000E+00
Ar 3972  0.4822937E+02  0.5115429E+02  0.1339271E+02  0.0000000E+00
Ar 3973  0.4846993E+02  0.4846993E+02  0.1627259E+02  0.0000000E+00
Ar 3974  0.5106703E+02  0.5106703E+02  0.1594570E+02  0.0000000E+00
Ar 3975  0.5082017E+02  0.4813269E+02  0.1881832E+02  0.0000000E+00
Ar 3976  0.4813269E+02  0.5082017E+02  0.1881832E+02  0.0000000E+00
Ar 3977  0.4841469E+02  0.4841468E+02  0.2148930E+02  0.0000000E+00
Ar 3978  0.5096111E+02  0.5096110E+02  0.2181210E+02  0.0000000E+00
Ar 3979  0.5129114E+02  0.4815291E+02  0.2412513E+02  0.0000000E+00
Ar 3980  0.4815291E+02  0.5129114E+02  0.2412513E+02  0.0000000E+00
Ar 3981  0.4850032E+02  0.4850033E+02  0.2681557E+02  0.0000000E+00
Ar 3982  0.5102591E+02  0.5102592E+02  0.2653705E+02  0.0000000E+00
Ar 3983  0.5101637E+02  0.4829738E+02  0.2958298E+02  0.0000000E+00
Ar 3984  0.4829738E+02  0.5101637E+02  0.2958298E+02  0.0000000E+00
Ar 3985  0.4833040E+02  0.4833040E+02  0.3209009E+02  0.0000000E+00
Ar 3986  0.5114394E+02  0.5114395E+02  0.3231744E+02  0.0000000E+00
Ar 3987  0.5098562E+02  0.4827833E+02  0.3470948E+02  0.0000000E+00
Ar 3988  0.4827833E+02  0.5098562E+02  0.3470949E+02  0.0000000E+00
Ar 3989  0.4805766E+02  0.4805767E+02  0.3716243E+02  0.0000000E+00
Ar 3990  0.5119479E+02  0.5119479E+02  0.3748736E+02  0.0000000E+00
Ar 3991  0.5084981E+02  0.4820520E+02  0.4034391E+02  0.0000000E+00
Ar 3992  0.4820520E+02  0.5084981E+02  0.4034391E+02  0.0000000E+00
Ar 3993  0.4814682E+02  0.4814682E+02  0.4297261E+02  0.0000000E+00
Ar 3994  0.5077685E+02  0.5077685E+02  0.4293306E+02  0.0000000E+00
Ar 3995  0.5111683E+02  0.4815763E+02  0.4544883E+02  0.0000000E+00
Ar 3996  0.4815763E+02  0.5111683E+02  0.4544883E+02  0.0000000E+00
Ar 3997  0.4807385E+02  0.4807385E+02  0.4807385E+02  0.0000000E+00
Ar 3998  0.5070089E+02  0.5070088E+02  0.4780169E+02  0.0000000E+00
Ar 3999  0.5070088E+02  0.4780169E+02  0.5070088E+02  0.0000000E+00
Ar 4000  0.4780170E+02  0.5070088E+02  0.5070088E+02  0.0000000E+00
