        1372
Lattice="  0.3778015E+02  0.0000000E+00  0.0000000E+00  0.0000000E+00  0.3778015E+02  0.0000000E+00  0.0000000E+00  0.0000000E+00  0.3778015E+02" Properties=species:S:1:id:I:1:pos:R:3:tempK:R:1
Ar    1  0.3733040E+02  0.3733040E+02  0.3733040E+02  0.2702016E+01
Ar    2  0.2354147E+01  0.2354147E+01  0.3652076E+02  0.2637535E+03
Ar    3  0.2354147E+01  0.3652076E+02  0.2354147E+01  0.2637535E+03
Ar    4  0.3652076E+02  0.2354147E+01  0.2354147E+01  0.2637535E+03
Ar    5  0.3740560E+02  0.3740560E+02  0.5660167E+01  0.2227293E+03
Ar    6  0.1866481E+01  0.1866481E+01  0.6819910E+01  0.4789430E+03
Ar    7  0.2268915E+01  0.3636857E+02  0.7315546E+01  0.5424185E+03
Ar    8  0.3636857E+02  0.2268915E+01  0.7315546E+01  0.5424185E+03
Ar    9  0.3691095E+02  0.3691095E+02  0.9780175E+01  0.7748390E+03
Ar   10  0.2195400E+01  0.2195400E+01  0.1028244E+02  0.1042848E+04
Ar   11  0.2803638E+01  0.3662197E+02  0.1323774E+02  0.3393324E+02
Ar   12  0.3662197E+02  0.2803638E+01  0.1323774E+02  0.3393324E+02
Ar   13  0.3602697E+00  0.3602697E+00  0.1626397E+02  0.1686559E+03
Ar   14  0.2664621E+01  0.2664621E+01  0.1556931E+02  0.1032537E+04
Ar   15  0.2792908E+01  0.3808545E+00  0.1894503E+02  0.1887498E+03
Ar   16  0.3808545E+00  0.2792908E+01  0.1894503E+02  0.1887498E+03
Ar   17  0.3760355E+02  0.3760355E+02  0.2142031E+02  0.1708215E+03
Ar   18  0.2569059E+01  0.2569059E+01  0.2136571E+02  0.4835124E+02
Ar   19  0.2324941E+01  0.3748312E+02  0.2432363E+02  0.1418091E+03
Ar   20  0.3748312E+02  0.2324941E+01  0.2432363E+02  0.1418091E+03
Ar   21  0.3733806E+02  0.3733806E+02  0.2690963E+02  0.1042109E+04
Ar   22  0.2547314E+01  0.2547314E+01  0.2729222E+02  0.3749794E+03
Ar   23  0.2498536E+01  0.3713788E+02  0.2905503E+02  0.5833576E+03
Ar   24  0.3713788E+02  0.2498536E+01  0.2905503E+02  0.5833576E+03
Ar   25  0.3760126E+02  0.3760126E+02  0.3235175E+02  0.3239856E+03
Ar   26  0.2022005E+01  0.2022005E+01  0.3124468E+02  0.4330083E+03
Ar   27  0.2385080E+01  0.3718299E+02  0.3459501E+02  0.4652976E+03
Ar   28  0.3718299E+02  0.2385080E+01  0.3459501E+02  0.4652976E+03
Ar   29  0.3740560E+02  0.5660167E+01  0.3740560E+02  0.2227293E+03
Ar   30  0.2268915E+01  0.7315546E+01  0.3636857E+02  0.5424185E+03
Ar   31  0.1866481E+01  0.6819910E+01  0.1866481E+01  0.4789430E+03
Ar   32  0.3636857E+02  0.7315546E+01  0.2268915E+01  0.5424185E+03
Ar   33  0.3764521E+02  0.5343761E+01  0.5343761E+01  0.1601747E+03
Ar   34  0.1825725E+01  0.8205267E+01  0.4787789E+01  0.5941268E+03
Ar   35  0.1825725E+01  0.4787789E+01  0.8205267E+01  0.5941268E+03
Ar   36  0.3674590E+02  0.7862751E+01  0.7862751E+01  0.8204707E+02
Ar   37  0.3682631E+02  0.5060077E+01  0.1000411E+02  0.2847816E+03
Ar   38  0.1705286E+01  0.7357596E+01  0.1057814E+02  0.1198175E+04
Ar   39  0.2492761E+01  0.5114138E+01  0.1295812E+02  0.6583753E+02
Ar   40  0.3706686E+02  0.7989862E+01  0.1300018E+02  0.1808162E+03
Ar   41  0.3767988E+02  0.5264734E+01  0.1540613E+02  0.2459007E+03
Ar   42  0.2838917E+01  0.8290222E+01  0.1616324E+02  0.6138310E+02
Ar   43  0.2502316E+01  0.5446703E+01  0.1878691E+02  0.2195254E+03
Ar   44  0.3733748E+02  0.8192648E+01  0.1892041E+02  0.2474459E+03
Ar   45  0.3715448E+02  0.5012740E+01  0.2197753E+02  0.3219001E+03
Ar   46  0.2429489E+01  0.8188295E+01  0.2107456E+02  0.8604949E+02
Ar   47  0.2172836E+01  0.5006922E+01  0.2406519E+02  0.6241081E+03
Ar   48  0.3729095E+02  0.7984153E+01  0.2364494E+02  0.1096913E+03
Ar   49  0.3725866E+02  0.5204069E+01  0.2630669E+02  0.1777669E+03
Ar   50  0.1906754E+01  0.8201654E+01  0.2662957E+02  0.6970731E+02
Ar   51  0.2078669E+01  0.5373876E+01  0.2924930E+02  0.2644353E+03
Ar   52  0.3719829E+02  0.7546717E+01  0.2930645E+02  0.4737159E+03
Ar   53  0.3683340E+02  0.4615246E+01  0.3205629E+02  0.1752339E+03
Ar   54  0.2890025E+01  0.7942173E+01  0.3168669E+02  0.7657701E+03
Ar   55  0.1881872E+01  0.4897897E+01  0.3415021E+02  0.1102858E+03
Ar   56  0.3721621E+02  0.7634859E+01  0.3393198E+02  0.2382758E+03
Ar   57  0.3691095E+02  0.9780175E+01  0.3691095E+02  0.7748390E+03
Ar   58  0.2803638E+01  0.1323774E+02  0.3662197E+02  0.3393324E+02
Ar   59  0.2195400E+01  0.1028244E+02  0.2195400E+01  0.1042848E+04
Ar   60  0.3662197E+02  0.1323774E+02  0.2803638E+01  0.3393324E+02
Ar   61  0.3682631E+02  0.1000411E+02  0.5060077E+01  0.2847816E+03
Ar   62  0.2492761E+01  0.1295812E+02  0.5114138E+01  0.6583753E+02
Ar   63  0.1705286E+01  0.1057814E+02  0.7357596E+01  0.1198175E+04
Ar   64  0.3706686E+02  0.1300018E+02  0.7989862E+01  0.1808162E+03
Ar   65  0.5764775E-01  0.1043872E+02  0.1043872E+02  0.3090244E+03
Ar   66  0.2311545E+01  0.1330764E+02  0.1018859E+02  0.6564754E+03
Ar   67  0.2311545E+01  0.1018859E+02  0.1330764E+02  0.6564754E+03
Ar   68  0.3684505E+02  0.1314401E+02  0.1314401E+02  0.2630886E+03
Ar   69  0.3674798E+02  0.1039637E+02  0.1545287E+02  0.1732578E+03
Ar   70  0.1701449E+01  0.1292564E+02  0.1574053E+02  0.2236584E+03
Ar   71  0.1850092E+01  0.1070003E+02  0.1852008E+02  0.4739559E+02
Ar   72  0.3692982E+02  0.1320775E+02  0.1807239E+02  0.9071722E+03
Ar   73  0.3704265E+02  0.1059030E+02  0.2117322E+02  0.2091584E+03
Ar   74  0.1759149E+01  0.1347996E+02  0.2098557E+02  0.3456215E+03
Ar   75  0.2258087E+01  0.1063773E+02  0.2373982E+02  0.3588789E+03
Ar   76  0.3735638E+02  0.1299744E+02  0.2377916E+02  0.5640546E+02
Ar   77  0.3747588E+02  0.1077763E+02  0.2678338E+02  0.1777202E+03
Ar   78  0.1867544E+01  0.1324462E+02  0.2669076E+02  0.1868178E+03
Ar   79  0.2005083E+01  0.1071493E+02  0.2931983E+02  0.2111001E+03
Ar   80  0.3725235E+02  0.1368436E+02  0.2930343E+02  0.6241163E+03
Ar   81  0.3667918E+02  0.1031340E+02  0.3188385E+02  0.5853579E+02
Ar   82  0.2724846E+01  0.1317040E+02  0.3197744E+02  0.5087264E+03
Ar   83  0.2343947E+01  0.1038917E+02  0.3358611E+02  0.5808909E+03
Ar   84  0.3744215E+02  0.1292637E+02  0.3445738E+02  0.2642900E+03
Ar   85  0.3602697E+00  0.1626397E+02  0.3602697E+00  0.1686559E+03
Ar   86  0.2792908E+01  0.1894503E+02  0.3808545E+00  0.1887498E+03
Ar   87  0.2664621E+01  0.1556931E+02  0.2664621E+01  0.1032537E+04
Ar   88  0.3808545E+00  0.1894503E+02  0.2792908E+01  0.1887498E+03
Ar   89  0.3767988E+02  0.1540613E+02  0.5264734E+01  0.2459007E+03
Ar   90  0.2502316E+01  0.1878691E+02  0.5446703E+01  0.2195254E+03
Ar   91  0.2838917E+01  0.1616324E+02  0.8290222E+01  0.6138310E+02
Ar   92  0.3733748E+02  0.1892041E+02  0.8192648E+01  0.2474459E+03
Ar   93  0.3674798E+02  0.1545287E+02  0.1039637E+02  0.1732578E+03
Ar   94  0.1850092E+01  0.1852008E+02  0.1070003E+02  0.4739559E+02
Ar   95  0.1701449E+01  0.1574053E+02  0.1292564E+02  0.2236584E+03
Ar   96  0.3692982E+02  0.1807239E+02  0.1320775E+02  0.9071722E+03
Ar   97  0.3715967E+02  0.1542498E+02  0.1542498E+02  0.1935137E+03
Ar   98  0.2091759E+01  0.1809909E+02  0.1590998E+02  0.3540085E+03
Ar   99  0.2091759E+01  0.1590998E+02  0.1809909E+02  0.3540085E+03
Ar  100  0.3743822E+02  0.1816286E+02  0.1816286E+02  0.9605844E+03
Ar  101  0.3728573E+02  0.1597786E+02  0.2175075E+02  0.1109660E+03
Ar  102  0.2743480E+01  0.1816741E+02  0.2078917E+02  0.1967406E+03
Ar  103  0.2101944E+01  0.1557237E+02  0.2390608E+02  0.7136461E+02
Ar  104  0.3757156E+02  0.1887164E+02  0.2389607E+02  0.2984816E+03
Ar  105  0.3692679E+02  0.1654104E+02  0.2650362E+02  0.2789422E+03
Ar  106  0.2809071E+01  0.1831461E+02  0.2601640E+02  0.1113042E+03
Ar  107  0.1826544E+01  0.1608540E+02  0.2896385E+02  0.1906984E+03
Ar  108  0.3682358E+02  0.1884916E+02  0.2921542E+02  0.2456530E+03
Ar  109  0.3765553E+02  0.1675985E+02  0.3189362E+02  0.1323349E+03
Ar  110  0.3503787E+01  0.1873901E+02  0.3216510E+02  0.4140787E+03
Ar  111  0.2464639E+01  0.1587166E+02  0.3417961E+02  0.3873503E+03
Ar  112  0.8569948E-01  0.1825811E+02  0.3503043E+02  0.2912526E+03
Ar  113  0.3760355E+02  0.2142031E+02  0.3760355E+02  0.1708215E+03
Ar  114  0.2324941E+01  0.2432363E+02  0.3748312E+02  0.1418091E+03
Ar  115  0.2569059E+01  0.2136571E+02  0.2569059E+01  0.4835124E+02
Ar  116  0.3748312E+02  0.2432363E+02  0.2324941E+01  0.1418091E+03
Ar  117  0.3715448E+02  0.2197753E+02  0.5012740E+01  0.3219001E+03
Ar  118  0.2172836E+01  0.2406519E+02  0.5006922E+01  0.6241081E+03
Ar  119  0.2429489E+01  0.2107456E+02  0.8188295E+01  0.8604949E+02
Ar  120  0.3729095E+02  0.2364494E+02  0.7984153E+01  0.1096913E+03
Ar  121  0.3704265E+02  0.2117322E+02  0.1059030E+02  0.2091584E+03
Ar  122  0.2258087E+01  0.2373982E+02  0.1063773E+02  0.3588789E+03
Ar  123  0.1759149E+01  0.2098557E+02  0.1347996E+02  0.3456215E+03
Ar  124  0.3735638E+02  0.2377916E+02  0.1299744E+02  0.5640546E+02
Ar  125  0.3728573E+02  0.2175075E+02  0.1597786E+02  0.1109660E+03
Ar  126  0.2101944E+01  0.2390608E+02  0.1557237E+02  0.7136462E+02
Ar  127  0.2743480E+01  0.2078917E+02  0.1816741E+02  0.1967406E+03
Ar  128  0.3757156E+02  0.2389607E+02  0.1887164E+02  0.2984816E+03
Ar  129  0.7258000E+00  0.2108232E+02  0.2108232E+02  0.4323066E+01
Ar  130  0.2857249E+01  0.2374122E+02  0.2077967E+02  0.3816805E+03
Ar  131  0.2857249E+01  0.2077967E+02  0.2374122E+02  0.3816805E+03
Ar  132  0.8094330E+00  0.2367304E+02  0.2367304E+02  0.2995098E+03
Ar  133  0.3775771E+02  0.2136220E+02  0.2649653E+02  0.3964845E+03
Ar  134  0.2596654E+01  0.2382498E+02  0.2696931E+02  0.3089842E+03
Ar  135  0.2082660E+01  0.2093492E+02  0.2975038E+02  0.2207259E+03
Ar  136  0.3732702E+02  0.2354592E+02  0.2943053E+02  0.4608177E+02
Ar  137  0.3755613E+02  0.2136164E+02  0.3224940E+02  0.1507418E+03
Ar  138  0.2475805E+01  0.2386347E+02  0.3223607E+02  0.2211704E+03
Ar  139  0.2500764E+01  0.2089891E+02  0.3517211E+02  0.5100079E+02
Ar  140  0.3742768E+02  0.2399410E+02  0.3478852E+02  0.3753836E+03
Ar  141  0.3733806E+02  0.2690963E+02  0.3733806E+02  0.1042109E+04
Ar  142  0.2498536E+01  0.2905503E+02  0.3713788E+02  0.5833576E+03
Ar  143  0.2547314E+01  0.2729222E+02  0.2547314E+01  0.3749794E+03
Ar  144  0.3713788E+02  0.2905503E+02  0.2498536E+01  0.5833576E+03
Ar  145  0.3725866E+02  0.2630669E+02  0.5204069E+01  0.1777669E+03
Ar  146  0.2078669E+01  0.2924930E+02  0.5373876E+01  0.2644353E+03
Ar  147  0.1906754E+01  0.2662957E+02  0.8201654E+01  0.6970731E+02
Ar  148  0.3719829E+02  0.2930645E+02  0.7546717E+01  0.4737159E+03
Ar  149  0.3747588E+02  0.2678338E+02  0.1077763E+02  0.1777202E+03
Ar  150  0.2005083E+01  0.2931983E+02  0.1071493E+02  0.2111001E+03
Ar  151  0.1867544E+01  0.2669076E+02  0.1324462E+02  0.1868178E+03
Ar  152  0.3725235E+02  0.2930343E+02  0.1368436E+02  0.6241163E+03
Ar  153  0.3692679E+02  0.2650362E+02  0.1654104E+02  0.2789422E+03
Ar  154  0.1826544E+01  0.2896385E+02  0.1608540E+02  0.1906984E+03
Ar  155  0.2809071E+01  0.2601640E+02  0.1831461E+02  0.1113042E+03
Ar  156  0.3682358E+02  0.2921542E+02  0.1884916E+02  0.2456530E+03
Ar  157  0.3775771E+02  0.2649653E+02  0.2136220E+02  0.3964845E+03
Ar  158  0.2082660E+01  0.2975038E+02  0.2093492E+02  0.2207259E+03
Ar  159  0.2596654E+01  0.2696931E+02  0.2382498E+02  0.3089842E+03
Ar  160  0.3732702E+02  0.2943053E+02  0.2354592E+02  0.4608177E+02
Ar  161  0.5631425E+00  0.2635438E+02  0.2635438E+02  0.5354008E+03
Ar  162  0.2461551E+01  0.2955684E+02  0.2583145E+02  0.2879112E+03
Ar  163  0.2461551E+01  0.2583145E+02  0.2955684E+02  0.2879112E+03
Ar  164  0.3694687E+02  0.2902465E+02  0.2902465E+02  0.1221771E+03
Ar  165  0.3732056E+02  0.2649799E+02  0.3248430E+02  0.6174481E+03
Ar  166  0.2214656E+01  0.2899677E+02  0.3177087E+02  0.1241330E+03
Ar  167  0.2652726E+01  0.2665979E+02  0.3462236E+02  0.5928734E+02
Ar  168  0.3693812E+02  0.2947748E+02  0.3445992E+02  0.1657851E+03
Ar  169  0.3760126E+02  0.3235175E+02  0.3760126E+02  0.3239856E+03
Ar  170  0.2385080E+01  0.3459501E+02  0.3718299E+02  0.4652976E+03
Ar  171  0.2022005E+01  0.3124468E+02  0.2022005E+01  0.4330083E+03
Ar  172  0.3718299E+02  0.3459501E+02  0.2385080E+01  0.4652976E+03
Ar  173  0.3683340E+02  0.3205629E+02  0.4615246E+01  0.1752339E+03
Ar  174  0.1881872E+01  0.3415021E+02  0.4897897E+01  0.1102858E+03
Ar  175  0.2890025E+01  0.3168669E+02  0.7942173E+01  0.7657701E+03
Ar  176  0.3721621E+02  0.3393198E+02  0.7634859E+01  0.2382758E+03
Ar  177  0.3667918E+02  0.3188385E+02  0.1031340E+02  0.5853579E+02
Ar  178  0.2343947E+01  0.3358611E+02  0.1038917E+02  0.5808910E+03
Ar  179  0.2724846E+01  0.3197744E+02  0.1317040E+02  0.5087264E+03
Ar  180  0.3744215E+02  0.3445738E+02  0.1292637E+02  0.2642900E+03
Ar  181  0.3765553E+02  0.3189362E+02  0.1675985E+02  0.1323349E+03
Ar  182  0.2464639E+01  0.3417961E+02  0.1587166E+02  0.3873503E+03
Ar  183  0.3503787E+01  0.3216510E+02  0.1873901E+02  0.4140787E+03
Ar  184  0.8569948E-01  0.3503043E+02  0.1825811E+02  0.2912526E+03
Ar  185  0.3755613E+02  0.3224940E+02  0.2136164E+02  0.1507418E+03
Ar  186  0.2500764E+01  0.3517211E+02  0.2089891E+02  0.5100078E+02
Ar  187  0.2475805E+01  0.3223607E+02  0.2386347E+02  0.2211704E+03
Ar  188  0.3742768E+02  0.3478852E+02  0.2399410E+02  0.3753836E+03
Ar  189  0.3732056E+02  0.3248430E+02  0.2649799E+02  0.6174481E+03
Ar  190  0.2652726E+01  0.3462236E+02  0.2665979E+02  0.5928734E+02
Ar  191  0.2214656E+01  0.3177087E+02  0.2899677E+02  0.1241330E+03
Ar  192  0.3693812E+02  0.3445992E+02  0.2947748E+02  0.1657851E+03
Ar  193  0.3725181E+02  0.3173652E+02  0.3173652E+02  0.5347698E+03
Ar  194  0.2042486E+01  0.3457587E+02  0.3163757E+02  0.3465607E+03
Ar  195  0.2042486E+01  0.3163757E+02  0.3457587E+02  0.3465607E+03
Ar  196  0.9710494E-01  0.3448320E+02  0.3448320E+02  0.1653665E+03
Ar  197  0.5660167E+01  0.3740560E+02  0.3740560E+02  0.2227293E+03
Ar  198  0.7315546E+01  0.2268915E+01  0.3636857E+02  0.5424185E+03
Ar  199  0.7315546E+01  0.3636857E+02  0.2268915E+01  0.5424185E+03
Ar  200  0.6819910E+01  0.1866481E+01  0.1866481E+01  0.4789430E+03
Ar  201  0.5343761E+01  0.3764521E+02  0.5343761E+01  0.1601747E+03
Ar  202  0.8205267E+01  0.1825725E+01  0.4787789E+01  0.5941268E+03
Ar  203  0.7862751E+01  0.3674590E+02  0.7862751E+01  0.8204706E+02
Ar  204  0.4787789E+01  0.1825725E+01  0.8205267E+01  0.5941268E+03
Ar  205  0.5060077E+01  0.3682631E+02  0.1000411E+02  0.2847816E+03
Ar  206  0.7357596E+01  0.1705286E+01  0.1057814E+02  0.1198175E+04
Ar  207  0.7989862E+01  0.3706686E+02  0.1300018E+02  0.1808162E+03
Ar  208  0.5114138E+01  0.2492761E+01  0.1295812E+02  0.6583753E+02
Ar  209  0.5264734E+01  0.3767988E+02  0.1540613E+02  0.2459007E+03
Ar  210  0.8290222E+01  0.2838917E+01  0.1616324E+02  0.6138310E+02
Ar  211  0.8192648E+01  0.3733748E+02  0.1892041E+02  0.2474459E+03
Ar  212  0.5446703E+01  0.2502316E+01  0.1878691E+02  0.2195254E+03
Ar  213  0.5012740E+01  0.3715448E+02  0.2197753E+02  0.3219001E+03
Ar  214  0.8188295E+01  0.2429489E+01  0.2107456E+02  0.8604949E+02
Ar  215  0.7984153E+01  0.3729095E+02  0.2364494E+02  0.1096913E+03
Ar  216  0.5006922E+01  0.2172836E+01  0.2406519E+02  0.6241081E+03
Ar  217  0.5204069E+01  0.3725866E+02  0.2630669E+02  0.1777669E+03
Ar  218  0.8201654E+01  0.1906754E+01  0.2662957E+02  0.6970731E+02
Ar  219  0.7546717E+01  0.3719829E+02  0.2930645E+02  0.4737159E+03
Ar  220  0.5373876E+01  0.2078669E+01  0.2924930E+02  0.2644353E+03
Ar  221  0.4615246E+01  0.3683340E+02  0.3205629E+02  0.1752339E+03
Ar  222  0.7942173E+01  0.2890025E+01  0.3168669E+02  0.7657701E+03
Ar  223  0.7634859E+01  0.3721621E+02  0.3393198E+02  0.2382758E+03
Ar  224  0.4897897E+01  0.1881872E+01  0.3415021E+02  0.1102858E+03
Ar  225  0.5343761E+01  0.5343761E+01  0.3764521E+02  0.1601747E+03
Ar  226  0.7862751E+01  0.7862751E+01  0.3674590E+02  0.8204707E+02
Ar  227  0.8205267E+01  0.4787789E+01  0.1825725E+01  0.5941268E+03
Ar  228  0.4787789E+01  0.8205267E+01  0.1825725E+01  0.5941268E+03
Ar  229  0.3313890E+01  0.3313890E+01  0.3313890E+01  0.2544885E+03
Ar  230  0.7566128E+01  0.7566128E+01  0.4822369E+01  0.2695531E+03
Ar  231  0.7566128E+01  0.4822369E+01  0.7566128E+01  0.2695531E+03
Ar  232  0.4822369E+01  0.7566128E+01  0.7566128E+01  0.2695531E+03
Ar  233  0.5334190E+01  0.5334190E+01  0.1033690E+02  0.4068895E+03
Ar  234  0.7658528E+01  0.7658528E+01  0.1064815E+02  0.2481924E+02
Ar  235  0.7538900E+01  0.4870790E+01  0.1314321E+02  0.1994674E+03
Ar  236  0.4870790E+01  0.7538900E+01  0.1314321E+02  0.1994674E+03
Ar  237  0.5248934E+01  0.5248934E+01  0.1586442E+02  0.5741492E+03
Ar  238  0.7537472E+01  0.7537472E+01  0.1570798E+02  0.2129142E+03
Ar  239  0.7819441E+01  0.5533142E+01  0.1845263E+02  0.1108330E+03
Ar  240  0.5533142E+01  0.7819441E+01  0.1845263E+02  0.1108330E+03
Ar  241  0.4984122E+01  0.4984122E+01  0.2073039E+02  0.5126372E+03
Ar  242  0.7720573E+01  0.7720573E+01  0.2153950E+02  0.1147351E+03
Ar  243  0.8328295E+01  0.4869903E+01  0.2373360E+02  0.3932529E+03
Ar  244  0.4869903E+01  0.8328295E+01  0.2373360E+02  0.3932529E+03
Ar  245  0.5534823E+01  0.5534823E+01  0.2529760E+02  0.2692372E+03
Ar  246  0.8069367E+01  0.8069367E+01  0.2629121E+02  0.2618056E+03
Ar  247  0.7241072E+01  0.4853815E+01  0.2867225E+02  0.8715260E+02
Ar  248  0.4853815E+01  0.7241072E+01  0.2867225E+02  0.8715260E+02
Ar  249  0.4964656E+01  0.4964656E+01  0.3122354E+02  0.8770773E+03
Ar  250  0.7413162E+01  0.7413162E+01  0.3111578E+02  0.1697612E+03
Ar  251  0.7784485E+01  0.5413071E+01  0.3403704E+02  0.1469162E+03
Ar  252  0.5413071E+01  0.7784485E+01  0.3403704E+02  0.1469162E+03
Ar  253  0.5060077E+01  0.1000411E+02  0.3682631E+02  0.2847816E+03
Ar  254  0.7989862E+01  0.1300018E+02  0.3706686E+02  0.1808162E+03
Ar  255  0.7357596E+01  0.1057814E+02  0.1705286E+01  0.1198175E+04
Ar  256  0.5114138E+01  0.1295812E+02  0.2492761E+01  0.6583752E+02
Ar  257  0.5334190E+01  0.1033690E+02  0.5334190E+01  0.4068895E+03
Ar  258  0.7538900E+01  0.1314321E+02  0.4870790E+01  0.1994674E+03
Ar  259  0.7658528E+01  0.1064815E+02  0.7658528E+01  0.2481924E+02
Ar  260  0.4870790E+01  0.1314321E+02  0.7538900E+01  0.1994674E+03
Ar  261  0.4724857E+01  0.1032887E+02  0.1032887E+02  0.1731231E+03
Ar  262  0.7822999E+01  0.1316814E+02  0.1060621E+02  0.3241641E+02
Ar  263  0.7822999E+01  0.1060621E+02  0.1316814E+02  0.3241641E+02
Ar  264  0.5522108E+01  0.1304369E+02  0.1304369E+02  0.6748144E+03
Ar  265  0.4894305E+01  0.1087596E+02  0.1585280E+02  0.4153867E+03
Ar  266  0.8189304E+01  0.1314053E+02  0.1562585E+02  0.7630449E+03
Ar  267  0.7402828E+01  0.1088906E+02  0.1843798E+02  0.5599504E+03
Ar  268  0.4433009E+01  0.1311133E+02  0.1844214E+02  0.1922297E+03
Ar  269  0.4834529E+01  0.1042906E+02  0.2066758E+02  0.5947619E+02
Ar  270  0.7537402E+01  0.1315501E+02  0.2068608E+02  0.2599115E+03
Ar  271  0.7471009E+01  0.1117811E+02  0.2354330E+02  0.2780391E+03
Ar  272  0.4687802E+01  0.1295792E+02  0.2344669E+02  0.3760020E+03
Ar  273  0.5033610E+01  0.1027008E+02  0.2633887E+02  0.3894708E+03
Ar  274  0.7882309E+01  0.1363714E+02  0.2662243E+02  0.5964627E+03
Ar  275  0.7259598E+01  0.1115008E+02  0.2895738E+02  0.4338502E+03
Ar  276  0.4730592E+01  0.1358811E+02  0.2923833E+02  0.3097940E+03
Ar  277  0.4945920E+01  0.1040366E+02  0.3122880E+02  0.3302938E+03
Ar  278  0.7637395E+01  0.1337160E+02  0.3174706E+02  0.4971088E+03
Ar  279  0.7217620E+01  0.1052935E+02  0.3418886E+02  0.5783958E+03
Ar  280  0.5473133E+01  0.1356355E+02  0.3437490E+02  0.1135123E+03
Ar  281  0.5264734E+01  0.1540613E+02  0.3767988E+02  0.2459007E+03
Ar  282  0.8192648E+01  0.1892041E+02  0.3733748E+02  0.2474459E+03
Ar  283  0.8290222E+01  0.1616324E+02  0.2838917E+01  0.6138310E+02
Ar  284  0.5446703E+01  0.1878691E+02  0.2502316E+01  0.2195254E+03
Ar  285  0.5248934E+01  0.1586442E+02  0.5248934E+01  0.5741492E+03
Ar  286  0.7819441E+01  0.1845263E+02  0.5533142E+01  0.1108330E+03
Ar  287  0.7537472E+01  0.1570798E+02  0.7537472E+01  0.2129143E+03
Ar  288  0.5533142E+01  0.1845263E+02  0.7819441E+01  0.1108330E+03
Ar  289  0.4894305E+01  0.1585280E+02  0.1087596E+02  0.4153867E+03
Ar  290  0.7402828E+01  0.1843798E+02  0.1088906E+02  0.5599504E+03
Ar  291  0.8189304E+01  0.1562585E+02  0.1314053E+02  0.7630449E+03
Ar  292  0.4433009E+01  0.1844214E+02  0.1311133E+02  0.1922297E+03
Ar  293  0.5519799E+01  0.1573413E+02  0.1573413E+02  0.1099761E+04
Ar  294  0.7943639E+01  0.1834654E+02  0.1569114E+02  0.3134920E+03
Ar  295  0.7943639E+01  0.1569114E+02  0.1834654E+02  0.3134920E+03
Ar  296  0.4743070E+01  0.1802321E+02  0.1802321E+02  0.1171337E+04
Ar  297  0.5219851E+01  0.1585868E+02  0.2084919E+02  0.3692523E+02
Ar  298  0.8123113E+01  0.1819091E+02  0.2094926E+02  0.3762927E+03
Ar  299  0.7413929E+01  0.1573803E+02  0.2379037E+02  0.7416814E+01
Ar  300  0.5013481E+01  0.1839092E+02  0.2353280E+02  0.1096441E+04
Ar  301  0.4925882E+01  0.1518220E+02  0.2633497E+02  0.8478986E+02
Ar  302  0.7740843E+01  0.1798271E+02  0.2680661E+02  0.3397889E+03
Ar  303  0.7968915E+01  0.1560568E+02  0.2937129E+02  0.3446691E+03
Ar  304  0.5144619E+01  0.1828167E+02  0.2915935E+02  0.4647670E+03
Ar  305  0.5264183E+01  0.1593351E+02  0.3173756E+02  0.5431760E+03
Ar  306  0.7942552E+01  0.1866162E+02  0.3156884E+02  0.1226220E+03
Ar  307  0.7847224E+01  0.1616474E+02  0.3434771E+02  0.8726221E+03
Ar  308  0.5423890E+01  0.1890328E+02  0.3533150E+02  0.2704172E+03
Ar  309  0.5012740E+01  0.2197753E+02  0.3715448E+02  0.3219001E+03
Ar  310  0.7984153E+01  0.2364494E+02  0.3729095E+02  0.1096913E+03
Ar  311  0.8188295E+01  0.2107456E+02  0.2429489E+01  0.8604949E+02
Ar  312  0.5006922E+01  0.2406519E+02  0.2172836E+01  0.6241081E+03
Ar  313  0.4984122E+01  0.2073039E+02  0.4984122E+01  0.5126372E+03
Ar  314  0.8328295E+01  0.2373360E+02  0.4869903E+01  0.3932529E+03
Ar  315  0.7720573E+01  0.2153950E+02  0.7720573E+01  0.1147351E+03
Ar  316  0.4869903E+01  0.2373360E+02  0.8328295E+01  0.3932529E+03
Ar  317  0.4834529E+01  0.2066758E+02  0.1042906E+02  0.5947619E+02
Ar  318  0.7471009E+01  0.2354330E+02  0.1117811E+02  0.2780391E+03
Ar  319  0.7537402E+01  0.2068608E+02  0.1315501E+02  0.2599115E+03
Ar  320  0.4687802E+01  0.2344669E+02  0.1295792E+02  0.3760020E+03
Ar  321  0.5219851E+01  0.2084919E+02  0.1585868E+02  0.3692523E+02
Ar  322  0.7413929E+01  0.2379037E+02  0.1573803E+02  0.7416814E+01
Ar  323  0.8123113E+01  0.2094926E+02  0.1819091E+02  0.3762927E+03
Ar  324  0.5013481E+01  0.2353280E+02  0.1839092E+02  0.1096441E+04
Ar  325  0.5609575E+01  0.2073491E+02  0.2073491E+02  0.1407870E+03
Ar  326  0.7538502E+01  0.2395703E+02  0.2057574E+02  0.2479364E+03
Ar  327  0.7538502E+01  0.2057574E+02  0.2395703E+02  0.2479364E+03
Ar  328  0.5257211E+01  0.2408782E+02  0.2408782E+02  0.5259732E+03
Ar  329  0.4957652E+01  0.2121237E+02  0.2694044E+02  0.1148969E+03
Ar  330  0.7816910E+01  0.2400639E+02  0.2680608E+02  0.2944531E+03
Ar  331  0.7993963E+01  0.2153082E+02  0.2936992E+02  0.8848096E+02
Ar  332  0.5602568E+01  0.2382055E+02  0.2952002E+02  0.2347038E+03
Ar  333  0.5585223E+01  0.2170291E+02  0.3231995E+02  0.2536841E+03
Ar  334  0.8498192E+01  0.2380689E+02  0.3178712E+02  0.5634388E+02
Ar  335  0.8715135E+01  0.2078212E+02  0.3445650E+02  0.4461156E+03
Ar  336  0.5233548E+01  0.2434388E+02  0.3457552E+02  0.1121385E+03
Ar  337  0.5204069E+01  0.2630669E+02  0.3725866E+02  0.1777669E+03
Ar  338  0.7546717E+01  0.2930645E+02  0.3719829E+02  0.4737159E+03
Ar  339  0.8201654E+01  0.2662957E+02  0.1906754E+01  0.6970731E+02
Ar  340  0.5373876E+01  0.2924930E+02  0.2078669E+01  0.2644353E+03
Ar  341  0.5534823E+01  0.2529760E+02  0.5534823E+01  0.2692372E+03
Ar  342  0.7241072E+01  0.2867225E+02  0.4853815E+01  0.8715260E+02
Ar  343  0.8069367E+01  0.2629121E+02  0.8069367E+01  0.2618056E+03
Ar  344  0.4853815E+01  0.2867225E+02  0.7241072E+01  0.8715260E+02
Ar  345  0.5033610E+01  0.2633887E+02  0.1027008E+02  0.3894708E+03
Ar  346  0.7259598E+01  0.2895738E+02  0.1115008E+02  0.4338502E+03
Ar  347  0.7882309E+01  0.2662243E+02  0.1363714E+02  0.5964627E+03
Ar  348  0.4730592E+01  0.2923833E+02  0.1358811E+02  0.3097940E+03
Ar  349  0.4925882E+01  0.2633497E+02  0.1518220E+02  0.8478986E+02
Ar  350  0.7968915E+01  0.2937129E+02  0.1560568E+02  0.3446691E+03
Ar  351  0.7740843E+01  0.2680661E+02  0.1798271E+02  0.3397889E+03
Ar  352  0.5144619E+01  0.2915935E+02  0.1828167E+02  0.4647670E+03
Ar  353  0.4957652E+01  0.2694044E+02  0.2121237E+02  0.1148969E+03
Ar  354  0.7993963E+01  0.2936992E+02  0.2153082E+02  0.8848096E+02
Ar  355  0.7816910E+01  0.2680608E+02  0.2400639E+02  0.2944531E+03
Ar  356  0.5602568E+01  0.2952002E+02  0.2382055E+02  0.2347038E+03
Ar  357  0.5599985E+01  0.2673147E+02  0.2673147E+02  0.1012657E+03
Ar  358  0.8155859E+01  0.2923621E+02  0.2651909E+02  0.2644896E+03
Ar  359  0.8155859E+01  0.2651909E+02  0.2923621E+02  0.2644896E+03
Ar  360  0.5507716E+01  0.3002759E+02  0.3002759E+02  0.2132065E+03
Ar  361  0.5532468E+01  0.2614992E+02  0.3185052E+02  0.1116519E+03
Ar  362  0.8105315E+01  0.2864193E+02  0.3219004E+02  0.1169870E+03
Ar  363  0.8445170E+01  0.2626970E+02  0.3489192E+02  0.3383824E+03
Ar  364  0.5154186E+01  0.2938463E+02  0.3423302E+02  0.9105030E+02
Ar  365  0.4615246E+01  0.3205629E+02  0.3683340E+02  0.1752339E+03
Ar  366  0.7634859E+01  0.3393198E+02  0.3721621E+02  0.2382758E+03
Ar  367  0.7942173E+01  0.3168669E+02  0.2890025E+01  0.7657701E+03
Ar  368  0.4897897E+01  0.3415021E+02  0.1881872E+01  0.1102858E+03
Ar  369  0.4964656E+01  0.3122354E+02  0.4964656E+01  0.8770773E+03
Ar  370  0.7784485E+01  0.3403704E+02  0.5413071E+01  0.1469162E+03
Ar  371  0.7413162E+01  0.3111578E+02  0.7413162E+01  0.1697611E+03
Ar  372  0.5413071E+01  0.3403704E+02  0.7784485E+01  0.1469162E+03
Ar  373  0.4945920E+01  0.3122880E+02  0.1040366E+02  0.3302938E+03
Ar  374  0.7217620E+01  0.3418886E+02  0.1052935E+02  0.5783958E+03
Ar  375  0.7637395E+01  0.3174706E+02  0.1337160E+02  0.4971088E+03
Ar  376  0.5473133E+01  0.3437490E+02  0.1356355E+02  0.1135123E+03
Ar  377  0.5264183E+01  0.3173756E+02  0.1593351E+02  0.5431760E+03
Ar  378  0.7847224E+01  0.3434771E+02  0.1616474E+02  0.8726221E+03
Ar  379  0.7942552E+01  0.3156884E+02  0.1866162E+02  0.1226220E+03
Ar  380  0.5423890E+01  0.3533150E+02  0.1890328E+02  0.2704172E+03
Ar  381  0.5585223E+01  0.3231995E+02  0.2170291E+02  0.2536841E+03
Ar  382  0.8715135E+01  0.3445650E+02  0.2078212E+02  0.4461156E+03
Ar  383  0.8498192E+01  0.3178712E+02  0.2380689E+02  0.5634388E+02
Ar  384  0.5233548E+01  0.3457552E+02  0.2434388E+02  0.1121385E+03
Ar  385  0.5532468E+01  0.3185052E+02  0.2614992E+02  0.1116519E+03
Ar  386  0.8445170E+01  0.3489192E+02  0.2626970E+02  0.3383824E+03
Ar  387  0.8105315E+01  0.3219004E+02  0.2864193E+02  0.1169870E+03
Ar  388  0.5154186E+01  0.3423302E+02  0.2938463E+02  0.9105030E+02
Ar  389  0.4481116E+01  0.3251137E+02  0.3251137E+02  0.1013610E+03
Ar  390  0.7380221E+01  0.3409539E+02  0.3168836E+02  0.7205523E+01
Ar  391  0.7380221E+01  0.3168836E+02  0.3409539E+02  0.7205522E+01
Ar  392  0.5709647E+01  0.3480460E+02  0.3480460E+02  0.2259127E+03
Ar  393  0.9780175E+01  0.3691095E+02  0.3691095E+02  0.7748390E+03
Ar  394  0.1323774E+02  0.2803638E+01  0.3662197E+02  0.3393324E+02
Ar  395  0.1323774E+02  0.3662197E+02  0.2803638E+01  0.3393324E+02
Ar  396  0.1028244E+02  0.2195400E+01  0.2195400E+01  0.1042848E+04
Ar  397  0.1000411E+02  0.3682631E+02  0.5060077E+01  0.2847816E+03
Ar  398  0.1295812E+02  0.2492761E+01  0.5114138E+01  0.6583753E+02
Ar  399  0.1300018E+02  0.3706686E+02  0.7989862E+01  0.1808162E+03
Ar  400  0.1057814E+02  0.1705286E+01  0.7357596E+01  0.1198175E+04
Ar  401  0.1043872E+02  0.5764774E-01  0.1043872E+02  0.3090244E+03
Ar  402  0.1330764E+02  0.2311545E+01  0.1018859E+02  0.6564754E+03
Ar  403  0.1314401E+02  0.3684505E+02  0.1314401E+02  0.2630886E+03
Ar  404  0.1018859E+02  0.2311545E+01  0.1330764E+02  0.6564754E+03
Ar  405  0.1039637E+02  0.3674798E+02  0.1545287E+02  0.1732578E+03
Ar  406  0.1292564E+02  0.1701449E+01  0.1574053E+02  0.2236584E+03
Ar  407  0.1320775E+02  0.3692982E+02  0.1807239E+02  0.9071722E+03
Ar  408  0.1070003E+02  0.1850092E+01  0.1852008E+02  0.4739559E+02
Ar  409  0.1059030E+02  0.3704265E+02  0.2117322E+02  0.2091584E+03
Ar  410  0.1347996E+02  0.1759149E+01  0.2098557E+02  0.3456215E+03
Ar  411  0.1299744E+02  0.3735638E+02  0.2377916E+02  0.5640546E+02
Ar  412  0.1063773E+02  0.2258087E+01  0.2373982E+02  0.3588789E+03
Ar  413  0.1077763E+02  0.3747588E+02  0.2678338E+02  0.1777202E+03
Ar  414  0.1324462E+02  0.1867544E+01  0.2669076E+02  0.1868178E+03
Ar  415  0.1368436E+02  0.3725235E+02  0.2930343E+02  0.6241163E+03
Ar  416  0.1071493E+02  0.2005083E+01  0.2931983E+02  0.2111001E+03
Ar  417  0.1031340E+02  0.3667918E+02  0.3188385E+02  0.5853579E+02
Ar  418  0.1317040E+02  0.2724846E+01  0.3197744E+02  0.5087264E+03
Ar  419  0.1292637E+02  0.3744215E+02  0.3445738E+02  0.2642900E+03
Ar  420  0.1038917E+02  0.2343947E+01  0.3358611E+02  0.5808910E+03
Ar  421  0.1000411E+02  0.5060077E+01  0.3682631E+02  0.2847816E+03
Ar  422  0.1300018E+02  0.7989862E+01  0.3706686E+02  0.1808162E+03
Ar  423  0.1295812E+02  0.5114138E+01  0.2492761E+01  0.6583753E+02
Ar  424  0.1057814E+02  0.7357596E+01  0.1705286E+01  0.1198175E+04
Ar  425  0.1033690E+02  0.5334190E+01  0.5334190E+01  0.4068895E+03
Ar  426  0.1314321E+02  0.7538900E+01  0.4870790E+01  0.1994674E+03
Ar  427  0.1314321E+02  0.4870790E+01  0.7538900E+01  0.1994674E+03
Ar  428  0.1064815E+02  0.7658528E+01  0.7658528E+01  0.2481924E+02
Ar  429  0.1032887E+02  0.4724857E+01  0.1032887E+02  0.1731231E+03
Ar  430  0.1316814E+02  0.7822999E+01  0.1060621E+02  0.3241641E+02
Ar  431  0.1304369E+02  0.5522108E+01  0.1304369E+02  0.6748144E+03
Ar  432  0.1060621E+02  0.7822999E+01  0.1316814E+02  0.3241641E+02
Ar  433  0.1087596E+02  0.4894305E+01  0.1585280E+02  0.4153867E+03
Ar  434  0.1314053E+02  0.8189304E+01  0.1562585E+02  0.7630449E+03
Ar  435  0.1311133E+02  0.4433009E+01  0.1844214E+02  0.1922297E+03
Ar  436  0.1088906E+02  0.7402828E+01  0.1843798E+02  0.5599504E+03
Ar  437  0.1042906E+02  0.4834529E+01  0.2066758E+02  0.5947619E+02
Ar  438  0.1315501E+02  0.7537402E+01  0.2068608E+02  0.2599115E+03
Ar  439  0.1295792E+02  0.4687802E+01  0.2344669E+02  0.3760020E+03
Ar  440  0.1117811E+02  0.7471009E+01  0.2354330E+02  0.2780391E+03
Ar  441  0.1027008E+02  0.5033610E+01  0.2633887E+02  0.3894708E+03
Ar  442  0.1363714E+02  0.7882309E+01  0.2662243E+02  0.5964627E+03
Ar  443  0.1358811E+02  0.4730592E+01  0.2923833E+02  0.3097940E+03
Ar  444  0.1115008E+02  0.7259598E+01  0.2895738E+02  0.4338502E+03
Ar  445  0.1040366E+02  0.4945920E+01  0.3122880E+02  0.3302938E+03
Ar  446  0.1337160E+02  0.7637395E+01  0.3174706E+02  0.4971088E+03
Ar  447  0.1356355E+02  0.5473133E+01  0.3437490E+02  0.1135123E+03
Ar  448  0.1052935E+02  0.7217620E+01  0.3418886E+02  0.5783958E+03
Ar  449  0.1043872E+02  0.1043872E+02  0.5764774E-01  0.3090244E+03
Ar  450  0.1314401E+02  0.1314401E+02  0.3684505E+02  0.2630886E+03
Ar  451  0.1330764E+02  0.1018859E+02  0.2311545E+01  0.6564754E+03
Ar  452  0.1018859E+02  0.1330764E+02  0.2311545E+01  0.6564754E+03
Ar  453  0.1032887E+02  0.1032887E+02  0.4724857E+01  0.1731231E+03
Ar  454  0.1304369E+02  0.1304369E+02  0.5522108E+01  0.6748144E+03
Ar  455  0.1316814E+02  0.1060621E+02  0.7822999E+01  0.3241641E+02
Ar  456  0.1060621E+02  0.1316814E+02  0.7822999E+01  0.3241641E+02
Ar  457  0.1039884E+02  0.1039884E+02  0.1039884E+02  0.1397939E+02
Ar  458  0.1341630E+02  0.1341630E+02  0.1062937E+02  0.1437261E+03
Ar  459  0.1341630E+02  0.1062937E+02  0.1341630E+02  0.1437261E+03
Ar  460  0.1062937E+02  0.1341630E+02  0.1341630E+02  0.1437261E+03
Ar  461  0.1035934E+02  0.1035934E+02  0.1571047E+02  0.1732392E+03
Ar  462  0.1345313E+02  0.1345313E+02  0.1601242E+02  0.1918736E+03
Ar  463  0.1288806E+02  0.1047043E+02  0.1831432E+02  0.1243670E+03
Ar  464  0.1047043E+02  0.1288806E+02  0.1831432E+02  0.1243670E+03
Ar  465  0.1000281E+02  0.1000281E+02  0.2133901E+02  0.1970769E+03
Ar  466  0.1314445E+02  0.1314445E+02  0.2087612E+02  0.9694596E+02
Ar  467  0.1325875E+02  0.1015306E+02  0.2308590E+02  0.4846068E+03
Ar  468  0.1015306E+02  0.1325875E+02  0.2308590E+02  0.4846068E+03
Ar  469  0.1065154E+02  0.1065154E+02  0.2551544E+02  0.1134824E+03
Ar  470  0.1309112E+02  0.1309112E+02  0.2682163E+02  0.5678436E+03
Ar  471  0.1372423E+02  0.1085487E+02  0.2989138E+02  0.2600848E+03
Ar  472  0.1085487E+02  0.1372423E+02  0.2989138E+02  0.2600848E+03
Ar  473  0.9778584E+01  0.9778584E+01  0.3121092E+02  0.4529525E+02
Ar  474  0.1388996E+02  0.1388996E+02  0.3166783E+02  0.1379467E+03
Ar  475  0.1280653E+02  0.1061536E+02  0.3358757E+02  0.3867948E+03
Ar  476  0.1061536E+02  0.1280653E+02  0.3358757E+02  0.3867948E+03
Ar  477  0.1039637E+02  0.1545287E+02  0.3674798E+02  0.1732578E+03
Ar  478  0.1320775E+02  0.1807239E+02  0.3692982E+02  0.9071722E+03
Ar  479  0.1292564E+02  0.1574053E+02  0.1701449E+01  0.2236584E+03
Ar  480  0.1070003E+02  0.1852008E+02  0.1850092E+01  0.4739559E+02
Ar  481  0.1087596E+02  0.1585280E+02  0.4894305E+01  0.4153867E+03
Ar  482  0.1311133E+02  0.1844214E+02  0.4433009E+01  0.1922297E+03
Ar  483  0.1314053E+02  0.1562585E+02  0.8189304E+01  0.7630449E+03
Ar  484  0.1088906E+02  0.1843798E+02  0.7402828E+01  0.5599504E+03
Ar  485  0.1035934E+02  0.1571047E+02  0.1035934E+02  0.1732392E+03
Ar  486  0.1288806E+02  0.1831432E+02  0.1047043E+02  0.1243670E+03
Ar  487  0.1345313E+02  0.1601242E+02  0.1345313E+02  0.1918736E+03
Ar  488  0.1047043E+02  0.1831432E+02  0.1288806E+02  0.1243670E+03
Ar  489  0.1113234E+02  0.1604101E+02  0.1604101E+02  0.3166159E+03
Ar  490  0.1340070E+02  0.1872275E+02  0.1615401E+02  0.1523701E+03
Ar  491  0.1340070E+02  0.1615401E+02  0.1872275E+02  0.1523701E+03
Ar  492  0.1074551E+02  0.1846295E+02  0.1846295E+02  0.1432948E+03
Ar  493  0.1044176E+02  0.1554767E+02  0.2088601E+02  0.1957039E+03
Ar  494  0.1280396E+02  0.1852152E+02  0.2139866E+02  0.1316203E+03
Ar  495  0.1303116E+02  0.1553095E+02  0.2331643E+02  0.4845741E+03
Ar  496  0.1019393E+02  0.1803509E+02  0.2374625E+02  0.1995570E+03
Ar  497  0.1036916E+02  0.1560060E+02  0.2639616E+02  0.4808156E+03
Ar  498  0.1286487E+02  0.1815187E+02  0.2618149E+02  0.4460797E+02
Ar  499  0.1335912E+02  0.1640448E+02  0.2920632E+02  0.2287237E+03
Ar  500  0.1039280E+02  0.1879243E+02  0.2885902E+02  0.3000293E+03
Ar  501  0.1083389E+02  0.1657827E+02  0.3175765E+02  0.2588247E+02
Ar  502  0.1364177E+02  0.1829061E+02  0.3214862E+02  0.8907137E+03
Ar  503  0.1306074E+02  0.1546106E+02  0.3437730E+02  0.8060293E+03
Ar  504  0.1063990E+02  0.1833555E+02  0.3475394E+02  0.1023694E+03
Ar  505  0.1059030E+02  0.2117322E+02  0.3704265E+02  0.2091584E+03
Ar  506  0.1299744E+02  0.2377916E+02  0.3735638E+02  0.5640546E+02
Ar  507  0.1347996E+02  0.2098557E+02  0.1759149E+01  0.3456215E+03
Ar  508  0.1063773E+02  0.2373982E+02  0.2258087E+01  0.3588789E+03
Ar  509  0.1042906E+02  0.2066758E+02  0.4834529E+01  0.5947619E+02
Ar  510  0.1295792E+02  0.2344669E+02  0.4687802E+01  0.3760020E+03
Ar  511  0.1315501E+02  0.2068608E+02  0.7537402E+01  0.2599115E+03
Ar  512  0.1117811E+02  0.2354330E+02  0.7471009E+01  0.2780391E+03
Ar  513  0.1000281E+02  0.2133901E+02  0.1000281E+02  0.1970769E+03
Ar  514  0.1325875E+02  0.2308590E+02  0.1015306E+02  0.4846068E+03
Ar  515  0.1314445E+02  0.2087612E+02  0.1314445E+02  0.9694596E+02
Ar  516  0.1015306E+02  0.2308590E+02  0.1325875E+02  0.4846068E+03
Ar  517  0.1044176E+02  0.2088601E+02  0.1554767E+02  0.1957039E+03
Ar  518  0.1303116E+02  0.2331643E+02  0.1553095E+02  0.4845741E+03
Ar  519  0.1280396E+02  0.2139866E+02  0.1852152E+02  0.1316203E+03
Ar  520  0.1019393E+02  0.2374625E+02  0.1803509E+02  0.1995570E+03
Ar  521  0.1066499E+02  0.2145949E+02  0.2145949E+02  0.2533520E+03
Ar  522  0.1262113E+02  0.2400945E+02  0.2136227E+02  0.3109717E+03
Ar  523  0.1262113E+02  0.2136227E+02  0.2400945E+02  0.3109717E+03
Ar  524  0.9818702E+01  0.2389117E+02  0.2389117E+02  0.1447737E+03
Ar  525  0.1003181E+02  0.2072967E+02  0.2634628E+02  0.1490718E+03
Ar  526  0.1345279E+02  0.2337953E+02  0.2662678E+02  0.2112431E+02
Ar  527  0.1308224E+02  0.2070613E+02  0.2887748E+02  0.4039873E+03
Ar  528  0.1049382E+02  0.2324236E+02  0.2859801E+02  0.1424476E+03
Ar  529  0.1111218E+02  0.2072692E+02  0.3158481E+02  0.2927020E+03
Ar  530  0.1304688E+02  0.2364535E+02  0.3157850E+02  0.1753772E+03
Ar  531  0.1323538E+02  0.2111710E+02  0.3526564E+02  0.3697690E+03
Ar  532  0.1077903E+02  0.2353214E+02  0.3442518E+02  0.2345571E+03
Ar  533  0.1077763E+02  0.2678338E+02  0.3747588E+02  0.1777202E+03
Ar  534  0.1368436E+02  0.2930343E+02  0.3725235E+02  0.6241163E+03
Ar  535  0.1324462E+02  0.2669076E+02  0.1867544E+01  0.1868178E+03
Ar  536  0.1071493E+02  0.2931983E+02  0.2005083E+01  0.2111001E+03
Ar  537  0.1027008E+02  0.2633887E+02  0.5033610E+01  0.3894708E+03
Ar  538  0.1358811E+02  0.2923833E+02  0.4730592E+01  0.3097940E+03
Ar  539  0.1363714E+02  0.2662243E+02  0.7882309E+01  0.5964627E+03
Ar  540  0.1115008E+02  0.2895738E+02  0.7259598E+01  0.4338502E+03
Ar  541  0.1065154E+02  0.2551544E+02  0.1065154E+02  0.1134824E+03
Ar  542  0.1372423E+02  0.2989138E+02  0.1085487E+02  0.2600848E+03
Ar  543  0.1309112E+02  0.2682163E+02  0.1309112E+02  0.5678436E+03
Ar  544  0.1085487E+02  0.2989138E+02  0.1372423E+02  0.2600848E+03
Ar  545  0.1036916E+02  0.2639616E+02  0.1560060E+02  0.4808156E+03
Ar  546  0.1335912E+02  0.2920632E+02  0.1640448E+02  0.2287237E+03
Ar  547  0.1286487E+02  0.2618149E+02  0.1815187E+02  0.4460797E+02
Ar  548  0.1039280E+02  0.2885902E+02  0.1879243E+02  0.3000293E+03
Ar  549  0.1003181E+02  0.2634628E+02  0.2072967E+02  0.1490718E+03
Ar  550  0.1308224E+02  0.2887748E+02  0.2070613E+02  0.4039873E+03
Ar  551  0.1345279E+02  0.2662678E+02  0.2337953E+02  0.2112431E+02
Ar  552  0.1049382E+02  0.2859801E+02  0.2324236E+02  0.1424476E+03
Ar  553  0.1017414E+02  0.2682335E+02  0.2682335E+02  0.7859684E+02
Ar  554  0.1231254E+02  0.2944230E+02  0.2622842E+02  0.2334086E+02
Ar  555  0.1231254E+02  0.2622842E+02  0.2944230E+02  0.2334086E+02
Ar  556  0.1029130E+02  0.2941348E+02  0.2941348E+02  0.2732994E+03
Ar  557  0.1075612E+02  0.2647645E+02  0.3225416E+02  0.3559205E+03
Ar  558  0.1334053E+02  0.2941398E+02  0.3199148E+02  0.1742265E+03
Ar  559  0.1318296E+02  0.2671318E+02  0.3462215E+02  0.2513435E+03
Ar  560  0.1029483E+02  0.2924490E+02  0.3450076E+02  0.5870097E+02
Ar  561  0.1031340E+02  0.3188385E+02  0.3667918E+02  0.5853579E+02
Ar  562  0.1292637E+02  0.3445738E+02  0.3744215E+02  0.2642900E+03
Ar  563  0.1317040E+02  0.3197744E+02  0.2724846E+01  0.5087264E+03
Ar  564  0.1038917E+02  0.3358611E+02  0.2343947E+01  0.5808910E+03
Ar  565  0.1040366E+02  0.3122880E+02  0.4945920E+01  0.3302938E+03
Ar  566  0.1356355E+02  0.3437490E+02  0.5473133E+01  0.1135123E+03
Ar  567  0.1337160E+02  0.3174706E+02  0.7637395E+01  0.4971088E+03
Ar  568  0.1052935E+02  0.3418886E+02  0.7217620E+01  0.5783958E+03
Ar  569  0.9778584E+01  0.3121092E+02  0.9778584E+01  0.4529525E+02
Ar  570  0.1280653E+02  0.3358757E+02  0.1061536E+02  0.3867948E+03
Ar  571  0.1388996E+02  0.3166783E+02  0.1388996E+02  0.1379467E+03
Ar  572  0.1061536E+02  0.3358757E+02  0.1280653E+02  0.3867948E+03
Ar  573  0.1083389E+02  0.3175765E+02  0.1657827E+02  0.2588247E+02
Ar  574  0.1306074E+02  0.3437730E+02  0.1546106E+02  0.8060293E+03
Ar  575  0.1364177E+02  0.3214862E+02  0.1829061E+02  0.8907137E+03
Ar  576  0.1063990E+02  0.3475394E+02  0.1833555E+02  0.1023694E+03
Ar  577  0.1111218E+02  0.3158481E+02  0.2072692E+02  0.2927020E+03
Ar  578  0.1323538E+02  0.3526564E+02  0.2111710E+02  0.3697690E+03
Ar  579  0.1304688E+02  0.3157850E+02  0.2364535E+02  0.1753772E+03
Ar  580  0.1077903E+02  0.3442518E+02  0.2353214E+02  0.2345571E+03
Ar  581  0.1075612E+02  0.3225416E+02  0.2647645E+02  0.3559205E+03
Ar  582  0.1318296E+02  0.3462215E+02  0.2671318E+02  0.2513435E+03
Ar  583  0.1334053E+02  0.3199148E+02  0.2941398E+02  0.1742265E+03
Ar  584  0.1029483E+02  0.3450076E+02  0.2924490E+02  0.5870097E+02
Ar  585  0.1013112E+02  0.3189819E+02  0.3189819E+02  0.1275953E+04
Ar  586  0.1283100E+02  0.3425914E+02  0.3171267E+02  0.1979031E+03
Ar  587  0.1283100E+02  0.3171267E+02  0.3425914E+02  0.1979031E+03
Ar  588  0.1006532E+02  0.3425964E+02  0.3425964E+02  0.8193456E+02
Ar  589  0.1626397E+02  0.3602697E+00  0.3602697E+00  0.1686559E+03
Ar  590  0.1894503E+02  0.2792908E+01  0.3808545E+00  0.1887498E+03
Ar  591  0.1894503E+02  0.3808545E+00  0.2792908E+01  0.1887498E+03
Ar  592  0.1556931E+02  0.2664621E+01  0.2664621E+01  0.1032537E+04
Ar  593  0.1540613E+02  0.3767988E+02  0.5264734E+01  0.2459007E+03
Ar  594  0.1878691E+02  0.2502316E+01  0.5446703E+01  0.2195254E+03
Ar  595  0.1892041E+02  0.3733748E+02  0.8192648E+01  0.2474459E+03
Ar  596  0.1616324E+02  0.2838917E+01  0.8290222E+01  0.6138310E+02
Ar  597  0.1545287E+02  0.3674798E+02  0.1039637E+02  0.1732578E+03
Ar  598  0.1852008E+02  0.1850092E+01  0.1070003E+02  0.4739559E+02
Ar  599  0.1807239E+02  0.3692982E+02  0.1320775E+02  0.9071722E+03
Ar  600  0.1574053E+02  0.1701449E+01  0.1292564E+02  0.2236584E+03
Ar  601  0.1542498E+02  0.3715967E+02  0.1542498E+02  0.1935137E+03
Ar  602  0.1809909E+02  0.2091759E+01  0.1590998E+02  0.3540085E+03
Ar  603  0.1816286E+02  0.3743822E+02  0.1816286E+02  0.9605844E+03
Ar  604  0.1590998E+02  0.2091759E+01  0.1809909E+02  0.3540085E+03
Ar  605  0.1597786E+02  0.3728573E+02  0.2175075E+02  0.1109660E+03
Ar  606  0.1816741E+02  0.2743480E+01  0.2078917E+02  0.1967406E+03
Ar  607  0.1887164E+02  0.3757156E+02  0.2389607E+02  0.2984816E+03
Ar  608  0.1557237E+02  0.2101944E+01  0.2390608E+02  0.7136461E+02
Ar  609  0.1654104E+02  0.3692679E+02  0.2650362E+02  0.2789422E+03
Ar  610  0.1831461E+02  0.2809071E+01  0.2601640E+02  0.1113042E+03
Ar  611  0.1884916E+02  0.3682358E+02  0.2921542E+02  0.2456530E+03
Ar  612  0.1608540E+02  0.1826544E+01  0.2896385E+02  0.1906984E+03
Ar  613  0.1675985E+02  0.3765553E+02  0.3189362E+02  0.1323349E+03
Ar  614  0.1873901E+02  0.3503787E+01  0.3216510E+02  0.4140787E+03
Ar  615  0.1825811E+02  0.8569948E-01  0.3503043E+02  0.2912526E+03
Ar  616  0.1587166E+02  0.2464639E+01  0.3417961E+02  0.3873503E+03
Ar  617  0.1540613E+02  0.5264734E+01  0.3767988E+02  0.2459007E+03
Ar  618  0.1892041E+02  0.8192648E+01  0.3733748E+02  0.2474459E+03
Ar  619  0.1878691E+02  0.5446703E+01  0.2502316E+01  0.2195254E+03
Ar  620  0.1616324E+02  0.8290222E+01  0.2838917E+01  0.6138310E+02
Ar  621  0.1586442E+02  0.5248934E+01  0.5248934E+01  0.5741492E+03
Ar  622  0.1845263E+02  0.7819441E+01  0.5533142E+01  0.1108330E+03
Ar  623  0.1845263E+02  0.5533142E+01  0.7819441E+01  0.1108330E+03
Ar  624  0.1570798E+02  0.7537472E+01  0.7537472E+01  0.2129143E+03
Ar  625  0.1585280E+02  0.4894305E+01  0.1087596E+02  0.4153867E+03
Ar  626  0.1843798E+02  0.7402828E+01  0.1088906E+02  0.5599504E+03
Ar  627  0.1844214E+02  0.4433009E+01  0.1311133E+02  0.1922297E+03
Ar  628  0.1562585E+02  0.8189304E+01  0.1314053E+02  0.7630449E+03
Ar  629  0.1573413E+02  0.5519799E+01  0.1573413E+02  0.1099761E+04
Ar  630  0.1834654E+02  0.7943639E+01  0.1569114E+02  0.3134920E+03
Ar  631  0.1802321E+02  0.4743070E+01  0.1802321E+02  0.1171337E+04
Ar  632  0.1569114E+02  0.7943639E+01  0.1834654E+02  0.3134920E+03
Ar  633  0.1585868E+02  0.5219851E+01  0.2084919E+02  0.3692523E+02
Ar  634  0.1819091E+02  0.8123113E+01  0.2094926E+02  0.3762927E+03
Ar  635  0.1839092E+02  0.5013481E+01  0.2353280E+02  0.1096441E+04
Ar  636  0.1573803E+02  0.7413929E+01  0.2379037E+02  0.7416814E+01
Ar  637  0.1518220E+02  0.4925882E+01  0.2633497E+02  0.8478986E+02
Ar  638  0.1798271E+02  0.7740843E+01  0.2680661E+02  0.3397889E+03
Ar  639  0.1828167E+02  0.5144619E+01  0.2915935E+02  0.4647670E+03
Ar  640  0.1560568E+02  0.7968915E+01  0.2937129E+02  0.3446691E+03
Ar  641  0.1593351E+02  0.5264183E+01  0.3173756E+02  0.5431760E+03
Ar  642  0.1866162E+02  0.7942552E+01  0.3156884E+02  0.1226220E+03
Ar  643  0.1890328E+02  0.5423890E+01  0.3533150E+02  0.2704172E+03
Ar  644  0.1616474E+02  0.7847224E+01  0.3434771E+02  0.8726221E+03
Ar  645  0.1545287E+02  0.1039637E+02  0.3674798E+02  0.1732578E+03
Ar  646  0.1807239E+02  0.1320775E+02  0.3692982E+02  0.9071722E+03
Ar  647  0.1852008E+02  0.1070003E+02  0.1850092E+01  0.4739559E+02
Ar  648  0.1574053E+02  0.1292564E+02  0.1701449E+01  0.2236584E+03
Ar  649  0.1585280E+02  0.1087596E+02  0.4894305E+01  0.4153867E+03
Ar  650  0.1844214E+02  0.1311133E+02  0.4433009E+01  0.1922297E+03
Ar  651  0.1843798E+02  0.1088906E+02  0.7402828E+01  0.5599504E+03
Ar  652  0.1562585E+02  0.1314053E+02  0.8189304E+01  0.7630449E+03
Ar  653  0.1571047E+02  0.1035934E+02  0.1035934E+02  0.1732392E+03
Ar  654  0.1831432E+02  0.1288806E+02  0.1047043E+02  0.1243670E+03
Ar  655  0.1831432E+02  0.1047043E+02  0.1288806E+02  0.1243670E+03
Ar  656  0.1601242E+02  0.1345313E+02  0.1345313E+02  0.1918736E+03
Ar  657  0.1604101E+02  0.1113234E+02  0.1604101E+02  0.3166159E+03
Ar  658  0.1872275E+02  0.1340070E+02  0.1615401E+02  0.1523701E+03
Ar  659  0.1846295E+02  0.1074551E+02  0.1846295E+02  0.1432948E+03
Ar  660  0.1615401E+02  0.1340070E+02  0.1872275E+02  0.1523701E+03
Ar  661  0.1554767E+02  0.1044176E+02  0.2088601E+02  0.1957039E+03
Ar  662  0.1852152E+02  0.1280396E+02  0.2139866E+02  0.1316203E+03
Ar  663  0.1803509E+02  0.1019393E+02  0.2374625E+02  0.1995570E+03
Ar  664  0.1553095E+02  0.1303116E+02  0.2331643E+02  0.4845741E+03
Ar  665  0.1560060E+02  0.1036916E+02  0.2639616E+02  0.4808156E+03
Ar  666  0.1815187E+02  0.1286487E+02  0.2618149E+02  0.4460797E+02
Ar  667  0.1879243E+02  0.1039280E+02  0.2885902E+02  0.3000293E+03
Ar  668  0.1640448E+02  0.1335912E+02  0.2920632E+02  0.2287237E+03
Ar  669  0.1657827E+02  0.1083389E+02  0.3175765E+02  0.2588247E+02
Ar  670  0.1829061E+02  0.1364177E+02  0.3214862E+02  0.8907137E+03
Ar  671  0.1833555E+02  0.1063990E+02  0.3475394E+02  0.1023694E+03
Ar  672  0.1546106E+02  0.1306074E+02  0.3437730E+02  0.8060293E+03
Ar  673  0.1542498E+02  0.1542498E+02  0.3715967E+02  0.1935137E+03
Ar  674  0.1816286E+02  0.1816286E+02  0.3743822E+02  0.9605844E+03
Ar  675  0.1809909E+02  0.1590998E+02  0.2091759E+01  0.3540085E+03
Ar  676  0.1590998E+02  0.1809909E+02  0.2091759E+01  0.3540085E+03
Ar  677  0.1573413E+02  0.1573413E+02  0.5519799E+01  0.1099761E+04
Ar  678  0.1802321E+02  0.1802321E+02  0.4743070E+01  0.1171337E+04
Ar  679  0.1834654E+02  0.1569114E+02  0.7943639E+01  0.3134920E+03
Ar  680  0.1569114E+02  0.1834654E+02  0.7943639E+01  0.3134920E+03
Ar  681  0.1604101E+02  0.1604101E+02  0.1113234E+02  0.3166159E+03
Ar  682  0.1846295E+02  0.1846295E+02  0.1074551E+02  0.1432948E+03
Ar  683  0.1872275E+02  0.1615401E+02  0.1340070E+02  0.1523701E+03
Ar  684  0.1615401E+02  0.1872275E+02  0.1340070E+02  0.1523701E+03
Ar  685  0.1633384E+02  0.1633384E+02  0.1633384E+02  0.7556510E+03
Ar  686  0.1946240E+02  0.1946240E+02  0.1683089E+02  0.1916668E+02
Ar  687  0.1946240E+02  0.1683089E+02  0.1946240E+02  0.1916668E+02
Ar  688  0.1683089E+02  0.1946240E+02  0.1946240E+02  0.1916668E+02
Ar  689  0.1609240E+02  0.1609240E+02  0.2139041E+02  0.7752160E+02
Ar  690  0.1834615E+02  0.1834615E+02  0.2326975E+02  0.1354056E+03
Ar  691  0.1929667E+02  0.1546399E+02  0.2385811E+02  0.5574016E+02
Ar  692  0.1546399E+02  0.1929667E+02  0.2385811E+02  0.5574016E+02
Ar  693  0.1580977E+02  0.1580977E+02  0.2584900E+02  0.2257455E+03
Ar  694  0.1851057E+02  0.1851057E+02  0.2645462E+02  0.2442414E+03
Ar  695  0.1837786E+02  0.1579879E+02  0.2834338E+02  0.2553962E+03
Ar  696  0.1579879E+02  0.1837786E+02  0.2834338E+02  0.2553962E+03
Ar  697  0.1656074E+02  0.1656074E+02  0.3092907E+02  0.1995065E+03
Ar  698  0.1879388E+02  0.1879388E+02  0.3204788E+02  0.1273266E+04
Ar  699  0.1853566E+02  0.1600986E+02  0.3487118E+02  0.1390541E+03
Ar  700  0.1600986E+02  0.1853566E+02  0.3487118E+02  0.1390541E+03
Ar  701  0.1597786E+02  0.2175075E+02  0.3728573E+02  0.1109660E+03
Ar  702  0.1887164E+02  0.2389607E+02  0.3757156E+02  0.2984816E+03
Ar  703  0.1816741E+02  0.2078917E+02  0.2743480E+01  0.1967406E+03
Ar  704  0.1557237E+02  0.2390608E+02  0.2101944E+01  0.7136461E+02
Ar  705  0.1585868E+02  0.2084919E+02  0.5219851E+01  0.3692523E+02
Ar  706  0.1839092E+02  0.2353280E+02  0.5013481E+01  0.1096441E+04
Ar  707  0.1819091E+02  0.2094926E+02  0.8123113E+01  0.3762927E+03
Ar  708  0.1573803E+02  0.2379037E+02  0.7413929E+01  0.7416814E+01
Ar  709  0.1554767E+02  0.2088601E+02  0.1044176E+02  0.1957039E+03
Ar  710  0.1803509E+02  0.2374625E+02  0.1019393E+02  0.1995570E+03
Ar  711  0.1852152E+02  0.2139866E+02  0.1280396E+02  0.1316203E+03
Ar  712  0.1553095E+02  0.2331643E+02  0.1303116E+02  0.4845741E+03
Ar  713  0.1609240E+02  0.2139041E+02  0.1609240E+02  0.7752160E+02
Ar  714  0.1929667E+02  0.2385811E+02  0.1546399E+02  0.5574016E+02
Ar  715  0.1834615E+02  0.2326975E+02  0.1834615E+02  0.1354056E+03
Ar  716  0.1546399E+02  0.2385811E+02  0.1929667E+02  0.5574016E+02
Ar  717  0.1511574E+02  0.2151457E+02  0.2151457E+02  0.2021645E+03
Ar  718  0.1903567E+02  0.2432350E+02  0.2179835E+02  0.2898016E+02
Ar  719  0.1903567E+02  0.2179835E+02  0.2432350E+02  0.2898016E+02
Ar  720  0.1572272E+02  0.2389375E+02  0.2389375E+02  0.2275767E+03
Ar  721  0.1635747E+02  0.2143494E+02  0.2626197E+02  0.1003431E+03
Ar  722  0.1898880E+02  0.2410444E+02  0.2685590E+02  0.1221286E+03
Ar  723  0.1792485E+02  0.2073512E+02  0.2918911E+02  0.2946120E+03
Ar  724  0.1641603E+02  0.2385892E+02  0.2952172E+02  0.5929415E+03
Ar  725  0.1544638E+02  0.2120227E+02  0.3190387E+02  0.4729428E+03
Ar  726  0.1861938E+02  0.2332333E+02  0.3169094E+02  0.2077792E+03
Ar  727  0.1898769E+02  0.2147612E+02  0.3506754E+02  0.1199306E+03
Ar  728  0.1587621E+02  0.2356386E+02  0.3426390E+02  0.8799650E+02
Ar  729  0.1654104E+02  0.2650362E+02  0.3692679E+02  0.2789422E+03
Ar  730  0.1884916E+02  0.2921542E+02  0.3682358E+02  0.2456530E+03
Ar  731  0.1831461E+02  0.2601640E+02  0.2809071E+01  0.1113042E+03
Ar  732  0.1608540E+02  0.2896385E+02  0.1826544E+01  0.1906984E+03
Ar  733  0.1518220E+02  0.2633497E+02  0.4925882E+01  0.8478986E+02
Ar  734  0.1828167E+02  0.2915935E+02  0.5144619E+01  0.4647670E+03
Ar  735  0.1798271E+02  0.2680661E+02  0.7740843E+01  0.3397889E+03
Ar  736  0.1560568E+02  0.2937129E+02  0.7968915E+01  0.3446691E+03
Ar  737  0.1560060E+02  0.2639616E+02  0.1036916E+02  0.4808156E+03
Ar  738  0.1879243E+02  0.2885902E+02  0.1039280E+02  0.3000293E+03
Ar  739  0.1815187E+02  0.2618149E+02  0.1286487E+02  0.4460797E+02
Ar  740  0.1640448E+02  0.2920632E+02  0.1335912E+02  0.2287237E+03
Ar  741  0.1580977E+02  0.2584900E+02  0.1580977E+02  0.2257455E+03
Ar  742  0.1837786E+02  0.2834338E+02  0.1579879E+02  0.2553962E+03
Ar  743  0.1851057E+02  0.2645462E+02  0.1851057E+02  0.2442414E+03
Ar  744  0.1579879E+02  0.2834338E+02  0.1837786E+02  0.2553962E+03
Ar  745  0.1635747E+02  0.2626197E+02  0.2143494E+02  0.1003431E+03
Ar  746  0.1792485E+02  0.2918911E+02  0.2073512E+02  0.2946120E+03
Ar  747  0.1898880E+02  0.2685590E+02  0.2410444E+02  0.1221286E+03
Ar  748  0.1641603E+02  0.2952172E+02  0.2385892E+02  0.5929415E+03
Ar  749  0.1526262E+02  0.2653989E+02  0.2653989E+02  0.8910388E+03
Ar  750  0.1883229E+02  0.2938190E+02  0.2687451E+02  0.1375868E+03
Ar  751  0.1883229E+02  0.2687451E+02  0.2938190E+02  0.1375868E+03
Ar  752  0.1598329E+02  0.2942995E+02  0.2942995E+02  0.4205690E+02
Ar  753  0.1578314E+02  0.2641360E+02  0.3152486E+02  0.3037458E+03
Ar  754  0.1877740E+02  0.2906912E+02  0.3206811E+02  0.1467096E+03
Ar  755  0.1886957E+02  0.2577261E+02  0.3466888E+02  0.9813517E+02
Ar  756  0.1614499E+02  0.3000782E+02  0.3449028E+02  0.2364521E+03
Ar  757  0.1675985E+02  0.3189362E+02  0.3765553E+02  0.1323349E+03
Ar  758  0.1825811E+02  0.3503043E+02  0.8569948E-01  0.2912526E+03
Ar  759  0.1873901E+02  0.3216510E+02  0.3503787E+01  0.4140787E+03
Ar  760  0.1587166E+02  0.3417961E+02  0.2464639E+01  0.3873503E+03
Ar  761  0.1593351E+02  0.3173756E+02  0.5264183E+01  0.5431760E+03
Ar  762  0.1890328E+02  0.3533150E+02  0.5423890E+01  0.2704172E+03
Ar  763  0.1866162E+02  0.3156884E+02  0.7942552E+01  0.1226220E+03
Ar  764  0.1616474E+02  0.3434771E+02  0.7847224E+01  0.8726221E+03
Ar  765  0.1657827E+02  0.3175765E+02  0.1083389E+02  0.2588247E+02
Ar  766  0.1833555E+02  0.3475394E+02  0.1063990E+02  0.1023694E+03
Ar  767  0.1829061E+02  0.3214862E+02  0.1364177E+02  0.8907137E+03
Ar  768  0.1546106E+02  0.3437730E+02  0.1306074E+02  0.8060293E+03
Ar  769  0.1656074E+02  0.3092907E+02  0.1656074E+02  0.1995065E+03
Ar  770  0.1853566E+02  0.3487118E+02  0.1600986E+02  0.1390541E+03
Ar  771  0.1879388E+02  0.3204788E+02  0.1879388E+02  0.1273266E+04
Ar  772  0.1600986E+02  0.3487118E+02  0.1853566E+02  0.1390541E+03
Ar  773  0.1544638E+02  0.3190387E+02  0.2120227E+02  0.4729428E+03
Ar  774  0.1898769E+02  0.3506754E+02  0.2147612E+02  0.1199306E+03
Ar  775  0.1861938E+02  0.3169094E+02  0.2332333E+02  0.2077792E+03
Ar  776  0.1587621E+02  0.3426390E+02  0.2356386E+02  0.8799650E+02
Ar  777  0.1578314E+02  0.3152486E+02  0.2641360E+02  0.3037458E+03
Ar  778  0.1886957E+02  0.3466888E+02  0.2577261E+02  0.9813517E+02
Ar  779  0.1877740E+02  0.3206811E+02  0.2906912E+02  0.1467096E+03
Ar  780  0.1614499E+02  0.3449028E+02  0.3000782E+02  0.2364521E+03
Ar  781  0.1656346E+02  0.3191416E+02  0.3191416E+02  0.1521532E+03
Ar  782  0.1956593E+02  0.3458496E+02  0.3217679E+02  0.2746184E+03
Ar  783  0.1956593E+02  0.3217679E+02  0.3458496E+02  0.2746184E+03
Ar  784  0.1531681E+02  0.3538690E+02  0.3538690E+02  0.1923657E+01
Ar  785  0.2142031E+02  0.3760355E+02  0.3760355E+02  0.1708215E+03
Ar  786  0.2432363E+02  0.2324941E+01  0.3748312E+02  0.1418091E+03
Ar  787  0.2432363E+02  0.3748312E+02  0.2324941E+01  0.1418091E+03
Ar  788  0.2136571E+02  0.2569059E+01  0.2569059E+01  0.4835124E+02
Ar  789  0.2197753E+02  0.3715448E+02  0.5012740E+01  0.3219001E+03
Ar  790  0.2406519E+02  0.2172836E+01  0.5006922E+01  0.6241081E+03
Ar  791  0.2364494E+02  0.3729095E+02  0.7984153E+01  0.1096913E+03
Ar  792  0.2107456E+02  0.2429489E+01  0.8188295E+01  0.8604949E+02
Ar  793  0.2117322E+02  0.3704265E+02  0.1059030E+02  0.2091584E+03
Ar  794  0.2373982E+02  0.2258087E+01  0.1063773E+02  0.3588789E+03
Ar  795  0.2377916E+02  0.3735638E+02  0.1299744E+02  0.5640546E+02
Ar  796  0.2098557E+02  0.1759149E+01  0.1347996E+02  0.3456215E+03
Ar  797  0.2175075E+02  0.3728573E+02  0.1597786E+02  0.1109660E+03
Ar  798  0.2390608E+02  0.2101944E+01  0.1557237E+02  0.7136461E+02
Ar  799  0.2389607E+02  0.3757156E+02  0.1887164E+02  0.2984816E+03
Ar  800  0.2078917E+02  0.2743480E+01  0.1816741E+02  0.1967406E+03
Ar  801  0.2108232E+02  0.7258000E+00  0.2108232E+02  0.4323066E+01
Ar  802  0.2374122E+02  0.2857249E+01  0.2077967E+02  0.3816805E+03
Ar  803  0.2367304E+02  0.8094330E+00  0.2367304E+02  0.2995098E+03
Ar  804  0.2077967E+02  0.2857249E+01  0.2374122E+02  0.3816805E+03
Ar  805  0.2136220E+02  0.3775771E+02  0.2649653E+02  0.3964845E+03
Ar  806  0.2382498E+02  0.2596654E+01  0.2696931E+02  0.3089842E+03
Ar  807  0.2354592E+02  0.3732702E+02  0.2943053E+02  0.4608177E+02
Ar  808  0.2093492E+02  0.2082660E+01  0.2975038E+02  0.2207259E+03
Ar  809  0.2136164E+02  0.3755613E+02  0.3224940E+02  0.1507418E+03
Ar  810  0.2386347E+02  0.2475805E+01  0.3223607E+02  0.2211704E+03
Ar  811  0.2399410E+02  0.3742768E+02  0.3478852E+02  0.3753836E+03
Ar  812  0.2089891E+02  0.2500764E+01  0.3517211E+02  0.5100079E+02
Ar  813  0.2197753E+02  0.5012740E+01  0.3715448E+02  0.3219001E+03
Ar  814  0.2364494E+02  0.7984153E+01  0.3729095E+02  0.1096913E+03
Ar  815  0.2406519E+02  0.5006922E+01  0.2172836E+01  0.6241081E+03
Ar  816  0.2107456E+02  0.8188295E+01  0.2429489E+01  0.8604949E+02
Ar  817  0.2073039E+02  0.4984122E+01  0.4984122E+01  0.5126372E+03
Ar  818  0.2373360E+02  0.8328295E+01  0.4869903E+01  0.3932529E+03
Ar  819  0.2373360E+02  0.4869903E+01  0.8328295E+01  0.3932529E+03
Ar  820  0.2153950E+02  0.7720573E+01  0.7720573E+01  0.1147351E+03
Ar  821  0.2066758E+02  0.4834529E+01  0.1042906E+02  0.5947619E+02
Ar  822  0.2354330E+02  0.7471009E+01  0.1117811E+02  0.2780391E+03
Ar  823  0.2344669E+02  0.4687802E+01  0.1295792E+02  0.3760020E+03
Ar  824  0.2068608E+02  0.7537402E+01  0.1315501E+02  0.2599115E+03
Ar  825  0.2084919E+02  0.5219851E+01  0.1585868E+02  0.3692523E+02
Ar  826  0.2379037E+02  0.7413929E+01  0.1573803E+02  0.7416814E+01
Ar  827  0.2353280E+02  0.5013481E+01  0.1839092E+02  0.1096441E+04
Ar  828  0.2094926E+02  0.8123113E+01  0.1819091E+02  0.3762927E+03
Ar  829  0.2073491E+02  0.5609575E+01  0.2073491E+02  0.1407870E+03
Ar  830  0.2395703E+02  0.7538502E+01  0.2057574E+02  0.2479364E+03
Ar  831  0.2408782E+02  0.5257211E+01  0.2408782E+02  0.5259732E+03
Ar  832  0.2057574E+02  0.7538502E+01  0.2395703E+02  0.2479364E+03
Ar  833  0.2121237E+02  0.4957652E+01  0.2694044E+02  0.1148969E+03
Ar  834  0.2400639E+02  0.7816910E+01  0.2680608E+02  0.2944531E+03
Ar  835  0.2382055E+02  0.5602568E+01  0.2952002E+02  0.2347038E+03
Ar  836  0.2153082E+02  0.7993963E+01  0.2936992E+02  0.8848096E+02
Ar  837  0.2170291E+02  0.5585223E+01  0.3231995E+02  0.2536841E+03
Ar  838  0.2380689E+02  0.8498192E+01  0.3178712E+02  0.5634388E+02
Ar  839  0.2434388E+02  0.5233548E+01  0.3457552E+02  0.1121385E+03
Ar  840  0.2078212E+02  0.8715135E+01  0.3445650E+02  0.4461156E+03
Ar  841  0.2117322E+02  0.1059030E+02  0.3704265E+02  0.2091584E+03
Ar  842  0.2377916E+02  0.1299744E+02  0.3735638E+02  0.5640546E+02
Ar  843  0.2373982E+02  0.1063773E+02  0.2258087E+01  0.3588789E+03
Ar  844  0.2098557E+02  0.1347996E+02  0.1759149E+01  0.3456215E+03
Ar  845  0.2066758E+02  0.1042906E+02  0.4834529E+01  0.5947619E+02
Ar  846  0.2344669E+02  0.1295792E+02  0.4687802E+01  0.3760020E+03
Ar  847  0.2354330E+02  0.1117811E+02  0.7471009E+01  0.2780391E+03
Ar  848  0.2068608E+02  0.1315501E+02  0.7537402E+01  0.2599115E+03
Ar  849  0.2133901E+02  0.1000281E+02  0.1000281E+02  0.1970769E+03
Ar  850  0.2308590E+02  0.1325875E+02  0.1015306E+02  0.4846068E+03
Ar  851  0.2308590E+02  0.1015306E+02  0.1325875E+02  0.4846068E+03
Ar  852  0.2087612E+02  0.1314445E+02  0.1314445E+02  0.9694596E+02
Ar  853  0.2088601E+02  0.1044176E+02  0.1554767E+02  0.1957039E+03
Ar  854  0.2331643E+02  0.1303116E+02  0.1553095E+02  0.4845741E+03
Ar  855  0.2374625E+02  0.1019393E+02  0.1803509E+02  0.1995570E+03
Ar  856  0.2139866E+02  0.1280396E+02  0.1852152E+02  0.1316203E+03
Ar  857  0.2145949E+02  0.1066499E+02  0.2145949E+02  0.2533520E+03
Ar  858  0.2400945E+02  0.1262113E+02  0.2136227E+02  0.3109717E+03
Ar  859  0.2389117E+02  0.9818702E+01  0.2389117E+02  0.1447737E+03
Ar  860  0.2136227E+02  0.1262113E+02  0.2400945E+02  0.3109717E+03
Ar  861  0.2072967E+02  0.1003181E+02  0.2634628E+02  0.1490718E+03
Ar  862  0.2337953E+02  0.1345279E+02  0.2662678E+02  0.2112431E+02
Ar  863  0.2324236E+02  0.1049382E+02  0.2859801E+02  0.1424476E+03
Ar  864  0.2070613E+02  0.1308224E+02  0.2887748E+02  0.4039873E+03
Ar  865  0.2072692E+02  0.1111218E+02  0.3158481E+02  0.2927020E+03
Ar  866  0.2364535E+02  0.1304688E+02  0.3157850E+02  0.1753772E+03
Ar  867  0.2353214E+02  0.1077903E+02  0.3442518E+02  0.2345571E+03
Ar  868  0.2111710E+02  0.1323538E+02  0.3526564E+02  0.3697690E+03
Ar  869  0.2175075E+02  0.1597786E+02  0.3728573E+02  0.1109660E+03
Ar  870  0.2389607E+02  0.1887164E+02  0.3757156E+02  0.2984816E+03
Ar  871  0.2390608E+02  0.1557237E+02  0.2101944E+01  0.7136461E+02
Ar  872  0.2078917E+02  0.1816741E+02  0.2743480E+01  0.1967406E+03
Ar  873  0.2084919E+02  0.1585868E+02  0.5219851E+01  0.3692523E+02
Ar  874  0.2353280E+02  0.1839092E+02  0.5013481E+01  0.1096441E+04
Ar  875  0.2379037E+02  0.1573803E+02  0.7413929E+01  0.7416814E+01
Ar  876  0.2094926E+02  0.1819091E+02  0.8123113E+01  0.3762927E+03
Ar  877  0.2088601E+02  0.1554767E+02  0.1044176E+02  0.1957039E+03
Ar  878  0.2374625E+02  0.1803509E+02  0.1019393E+02  0.1995570E+03
Ar  879  0.2331643E+02  0.1553095E+02  0.1303116E+02  0.4845741E+03
Ar  880  0.2139866E+02  0.1852152E+02  0.1280396E+02  0.1316203E+03
Ar  881  0.2139041E+02  0.1609240E+02  0.1609240E+02  0.7752160E+02
Ar  882  0.2385811E+02  0.1929667E+02  0.1546399E+02  0.5574016E+02
Ar  883  0.2385811E+02  0.1546399E+02  0.1929667E+02  0.5574016E+02
Ar  884  0.2326975E+02  0.1834615E+02  0.1834615E+02  0.1354056E+03
Ar  885  0.2151457E+02  0.1511574E+02  0.2151457E+02  0.2021645E+03
Ar  886  0.2432350E+02  0.1903567E+02  0.2179835E+02  0.2898016E+02
Ar  887  0.2389375E+02  0.1572272E+02  0.2389375E+02  0.2275767E+03
Ar  888  0.2179835E+02  0.1903567E+02  0.2432350E+02  0.2898016E+02
Ar  889  0.2143494E+02  0.1635747E+02  0.2626197E+02  0.1003431E+03
Ar  890  0.2410444E+02  0.1898880E+02  0.2685590E+02  0.1221286E+03
Ar  891  0.2385892E+02  0.1641603E+02  0.2952172E+02  0.5929415E+03
Ar  892  0.2073512E+02  0.1792485E+02  0.2918911E+02  0.2946120E+03
Ar  893  0.2120227E+02  0.1544638E+02  0.3190387E+02  0.4729428E+03
Ar  894  0.2332333E+02  0.1861938E+02  0.3169094E+02  0.2077792E+03
Ar  895  0.2356386E+02  0.1587621E+02  0.3426390E+02  0.8799650E+02
Ar  896  0.2147612E+02  0.1898769E+02  0.3506754E+02  0.1199306E+03
Ar  897  0.2108232E+02  0.2108232E+02  0.7258000E+00  0.4323066E+01
Ar  898  0.2367304E+02  0.2367304E+02  0.8094330E+00  0.2995098E+03
Ar  899  0.2374122E+02  0.2077967E+02  0.2857249E+01  0.3816805E+03
Ar  900  0.2077967E+02  0.2374122E+02  0.2857249E+01  0.3816805E+03
Ar  901  0.2073491E+02  0.2073491E+02  0.5609575E+01  0.1407870E+03
Ar  902  0.2408782E+02  0.2408782E+02  0.5257211E+01  0.5259732E+03
Ar  903  0.2395703E+02  0.2057574E+02  0.7538502E+01  0.2479364E+03
Ar  904  0.2057574E+02  0.2395703E+02  0.7538502E+01  0.2479364E+03
Ar  905  0.2145949E+02  0.2145949E+02  0.1066499E+02  0.2533520E+03
Ar  906  0.2389117E+02  0.2389117E+02  0.9818702E+01  0.1447737E+03
Ar  907  0.2400945E+02  0.2136227E+02  0.1262113E+02  0.3109717E+03
Ar  908  0.2136227E+02  0.2400945E+02  0.1262113E+02  0.3109717E+03
Ar  909  0.2151457E+02  0.2151457E+02  0.1511574E+02  0.2021645E+03
Ar  910  0.2389375E+02  0.2389375E+02  0.1572272E+02  0.2275767E+03
Ar  911  0.2432350E+02  0.2179835E+02  0.1903567E+02  0.2898016E+02
Ar  912  0.2179835E+02  0.2432350E+02  0.1903567E+02  0.2898016E+02
Ar  913  0.2222838E+02  0.2222838E+02  0.2222838E+02  0.4510708E+03
Ar  914  0.2443440E+02  0.2443440E+02  0.2105599E+02  0.1676123E+03
Ar  915  0.2443440E+02  0.2105599E+02  0.2443440E+02  0.1676123E+03
Ar  916  0.2105599E+02  0.2443440E+02  0.2443440E+02  0.1676123E+03
Ar  917  0.2074294E+02  0.2074294E+02  0.2743939E+02  0.1976685E+03
Ar  918  0.2401284E+02  0.2401284E+02  0.2727232E+02  0.2348326E+04
Ar  919  0.2348474E+02  0.2120852E+02  0.2934607E+02  0.5024010E+03
Ar  920  0.2120852E+02  0.2348474E+02  0.2934607E+02  0.5024010E+03
Ar  921  0.2144467E+02  0.2144467E+02  0.3268557E+02  0.5550836E+02
Ar  922  0.2394826E+02  0.2394826E+02  0.3189912E+02  0.1282389E+03
Ar  923  0.2422309E+02  0.2186096E+02  0.3535600E+02  0.7929233E+02
Ar  924  0.2186096E+02  0.2422309E+02  0.3535600E+02  0.7929233E+02
Ar  925  0.2136220E+02  0.2649653E+02  0.3775771E+02  0.3964845E+03
Ar  926  0.2354592E+02  0.2943053E+02  0.3732702E+02  0.4608177E+02
Ar  927  0.2382498E+02  0.2696931E+02  0.2596654E+01  0.3089842E+03
Ar  928  0.2093492E+02  0.2975038E+02  0.2082660E+01  0.2207259E+03
Ar  929  0.2121237E+02  0.2694044E+02  0.4957652E+01  0.1148969E+03
Ar  930  0.2382055E+02  0.2952002E+02  0.5602568E+01  0.2347038E+03
Ar  931  0.2400639E+02  0.2680608E+02  0.7816910E+01  0.2944531E+03
Ar  932  0.2153082E+02  0.2936992E+02  0.7993963E+01  0.8848096E+02
Ar  933  0.2072967E+02  0.2634628E+02  0.1003181E+02  0.1490718E+03
Ar  934  0.2324236E+02  0.2859801E+02  0.1049382E+02  0.1424476E+03
Ar  935  0.2337953E+02  0.2662678E+02  0.1345279E+02  0.2112431E+02
Ar  936  0.2070613E+02  0.2887748E+02  0.1308224E+02  0.4039873E+03
Ar  937  0.2143494E+02  0.2626197E+02  0.1635747E+02  0.1003431E+03
Ar  938  0.2385892E+02  0.2952172E+02  0.1641603E+02  0.5929415E+03
Ar  939  0.2410444E+02  0.2685590E+02  0.1898880E+02  0.1221286E+03
Ar  940  0.2073512E+02  0.2918911E+02  0.1792485E+02  0.2946120E+03
Ar  941  0.2074294E+02  0.2743939E+02  0.2074294E+02  0.1976685E+03
Ar  942  0.2348474E+02  0.2934607E+02  0.2120852E+02  0.5024010E+03
Ar  943  0.2401284E+02  0.2727232E+02  0.2401284E+02  0.2348326E+04
Ar  944  0.2120852E+02  0.2934607E+02  0.2348474E+02  0.5024010E+03
Ar  945  0.2170221E+02  0.2717327E+02  0.2717327E+02  0.8130110E+03
Ar  946  0.2361988E+02  0.3036371E+02  0.2686379E+02  0.5417093E+03
Ar  947  0.2361988E+02  0.2686379E+02  0.3036371E+02  0.5417093E+03
Ar  948  0.2130673E+02  0.2973005E+02  0.2973005E+02  0.3253311E+03
Ar  949  0.2112688E+02  0.2595556E+02  0.3222386E+02  0.5103577E+03
Ar  950  0.2504898E+02  0.2921844E+02  0.3206838E+02  0.2081515E+03
Ar  951  0.2416013E+02  0.2653708E+02  0.3550186E+02  0.3470277E+03
Ar  952  0.2154064E+02  0.2869855E+02  0.3451552E+02  0.6714582E+03
Ar  953  0.2136164E+02  0.3224940E+02  0.3755613E+02  0.1507418E+03
Ar  954  0.2399410E+02  0.3478852E+02  0.3742768E+02  0.3753836E+03
Ar  955  0.2386347E+02  0.3223607E+02  0.2475805E+01  0.2211704E+03
Ar  956  0.2089891E+02  0.3517211E+02  0.2500764E+01  0.5100078E+02
Ar  957  0.2170291E+02  0.3231995E+02  0.5585223E+01  0.2536841E+03
Ar  958  0.2434388E+02  0.3457552E+02  0.5233548E+01  0.1121385E+03
Ar  959  0.2380689E+02  0.3178712E+02  0.8498192E+01  0.5634388E+02
Ar  960  0.2078212E+02  0.3445650E+02  0.8715135E+01  0.4461156E+03
Ar  961  0.2072692E+02  0.3158481E+02  0.1111218E+02  0.2927020E+03
Ar  962  0.2353214E+02  0.3442518E+02  0.1077903E+02  0.2345571E+03
Ar  963  0.2364535E+02  0.3157850E+02  0.1304688E+02  0.1753772E+03
Ar  964  0.2111710E+02  0.3526564E+02  0.1323538E+02  0.3697690E+03
Ar  965  0.2120227E+02  0.3190387E+02  0.1544638E+02  0.4729428E+03
Ar  966  0.2356386E+02  0.3426390E+02  0.1587621E+02  0.8799650E+02
Ar  967  0.2332333E+02  0.3169094E+02  0.1861938E+02  0.2077792E+03
Ar  968  0.2147612E+02  0.3506754E+02  0.1898769E+02  0.1199306E+03
Ar  969  0.2144467E+02  0.3268557E+02  0.2144467E+02  0.5550837E+02
Ar  970  0.2422309E+02  0.3535600E+02  0.2186096E+02  0.7929233E+02
Ar  971  0.2394826E+02  0.3189912E+02  0.2394826E+02  0.1282389E+03
Ar  972  0.2186096E+02  0.3535600E+02  0.2422309E+02  0.7929233E+02
Ar  973  0.2112688E+02  0.3222386E+02  0.2595556E+02  0.5103577E+03
Ar  974  0.2416013E+02  0.3550186E+02  0.2653708E+02  0.3470277E+03
Ar  975  0.2504898E+02  0.3206838E+02  0.2921844E+02  0.2081515E+03
Ar  976  0.2154064E+02  0.3451552E+02  0.2869855E+02  0.6714582E+03
Ar  977  0.2217909E+02  0.3194827E+02  0.3194827E+02  0.6360673E+02
Ar  978  0.2365037E+02  0.3483024E+02  0.3178079E+02  0.4096685E+03
Ar  979  0.2365037E+02  0.3178079E+02  0.3483024E+02  0.4096685E+03
Ar  980  0.2064455E+02  0.3522328E+02  0.3522328E+02  0.1870867E+03
Ar  981  0.2690963E+02  0.3733806E+02  0.3733806E+02  0.1042109E+04
Ar  982  0.2905503E+02  0.2498536E+01  0.3713788E+02  0.5833576E+03
Ar  983  0.2905503E+02  0.3713788E+02  0.2498536E+01  0.5833576E+03
Ar  984  0.2729222E+02  0.2547314E+01  0.2547314E+01  0.3749794E+03
Ar  985  0.2630669E+02  0.3725866E+02  0.5204069E+01  0.1777669E+03
Ar  986  0.2924930E+02  0.2078669E+01  0.5373876E+01  0.2644353E+03
Ar  987  0.2930645E+02  0.3719829E+02  0.7546717E+01  0.4737159E+03
Ar  988  0.2662957E+02  0.1906754E+01  0.8201654E+01  0.6970731E+02
Ar  989  0.2678338E+02  0.3747588E+02  0.1077763E+02  0.1777202E+03
Ar  990  0.2931983E+02  0.2005083E+01  0.1071493E+02  0.2111001E+03
Ar  991  0.2930343E+02  0.3725235E+02  0.1368436E+02  0.6241163E+03
Ar  992  0.2669076E+02  0.1867544E+01  0.1324462E+02  0.1868178E+03
Ar  993  0.2650362E+02  0.3692679E+02  0.1654104E+02  0.2789422E+03
Ar  994  0.2896385E+02  0.1826544E+01  0.1608540E+02  0.1906984E+03
Ar  995  0.2921542E+02  0.3682358E+02  0.1884916E+02  0.2456530E+03
Ar  996  0.2601640E+02  0.2809071E+01  0.1831461E+02  0.1113042E+03
Ar  997  0.2649653E+02  0.3775771E+02  0.2136220E+02  0.3964845E+03
Ar  998  0.2975038E+02  0.2082660E+01  0.2093492E+02  0.2207259E+03
Ar  999  0.2943053E+02  0.3732702E+02  0.2354592E+02  0.4608177E+02
Ar 1000  0.2696931E+02  0.2596654E+01  0.2382498E+02  0.3089842E+03
Ar 1001  0.2635438E+02  0.5631425E+00  0.2635438E+02  0.5354008E+03
Ar 1002  0.2955684E+02  0.2461551E+01  0.2583145E+02  0.2879112E+03
Ar 1003  0.2902465E+02  0.3694687E+02  0.2902465E+02  0.1221771E+03
Ar 1004  0.2583145E+02  0.2461551E+01  0.2955684E+02  0.2879112E+03
Ar 1005  0.2649799E+02  0.3732056E+02  0.3248430E+02  0.6174481E+03
Ar 1006  0.2899677E+02  0.2214656E+01  0.3177087E+02  0.1241330E+03
Ar 1007  0.2947748E+02  0.3693812E+02  0.3445992E+02  0.1657851E+03
Ar 1008  0.2665979E+02  0.2652726E+01  0.3462236E+02  0.5928734E+02
Ar 1009  0.2630669E+02  0.5204069E+01  0.3725866E+02  0.1777669E+03
Ar 1010  0.2930645E+02  0.7546717E+01  0.3719829E+02  0.4737159E+03
Ar 1011  0.2924930E+02  0.5373876E+01  0.2078669E+01  0.2644353E+03
Ar 1012  0.2662957E+02  0.8201654E+01  0.1906754E+01  0.6970731E+02
Ar 1013  0.2529760E+02  0.5534823E+01  0.5534823E+01  0.2692372E+03
Ar 1014  0.2867225E+02  0.7241072E+01  0.4853815E+01  0.8715260E+02
Ar 1015  0.2867225E+02  0.4853815E+01  0.7241072E+01  0.8715260E+02
Ar 1016  0.2629121E+02  0.8069367E+01  0.8069367E+01  0.2618056E+03
Ar 1017  0.2633887E+02  0.5033610E+01  0.1027008E+02  0.3894708E+03
Ar 1018  0.2895738E+02  0.7259598E+01  0.1115008E+02  0.4338502E+03
Ar 1019  0.2923833E+02  0.4730592E+01  0.1358811E+02  0.3097940E+03
Ar 1020  0.2662243E+02  0.7882309E+01  0.1363714E+02  0.5964627E+03
Ar 1021  0.2633497E+02  0.4925882E+01  0.1518220E+02  0.8478987E+02
Ar 1022  0.2937129E+02  0.7968915E+01  0.1560568E+02  0.3446691E+03
Ar 1023  0.2915935E+02  0.5144619E+01  0.1828167E+02  0.4647670E+03
Ar 1024  0.2680661E+02  0.7740843E+01  0.1798271E+02  0.3397889E+03
Ar 1025  0.2694044E+02  0.4957652E+01  0.2121237E+02  0.1148969E+03
Ar 1026  0.2936992E+02  0.7993963E+01  0.2153082E+02  0.8848096E+02
Ar 1027  0.2952002E+02  0.5602568E+01  0.2382055E+02  0.2347038E+03
Ar 1028  0.2680608E+02  0.7816910E+01  0.2400639E+02  0.2944531E+03
Ar 1029  0.2673147E+02  0.5599985E+01  0.2673147E+02  0.1012657E+03
Ar 1030  0.2923621E+02  0.8155859E+01  0.2651909E+02  0.2644896E+03
Ar 1031  0.3002759E+02  0.5507716E+01  0.3002759E+02  0.2132065E+03
Ar 1032  0.2651909E+02  0.8155859E+01  0.2923621E+02  0.2644896E+03
Ar 1033  0.2614992E+02  0.5532468E+01  0.3185052E+02  0.1116519E+03
Ar 1034  0.2864193E+02  0.8105315E+01  0.3219004E+02  0.1169870E+03
Ar 1035  0.2938463E+02  0.5154186E+01  0.3423302E+02  0.9105030E+02
Ar 1036  0.2626970E+02  0.8445170E+01  0.3489192E+02  0.3383824E+03
Ar 1037  0.2678338E+02  0.1077763E+02  0.3747588E+02  0.1777202E+03
Ar 1038  0.2930343E+02  0.1368436E+02  0.3725235E+02  0.6241163E+03
Ar 1039  0.2931983E+02  0.1071493E+02  0.2005083E+01  0.2111001E+03
Ar 1040  0.2669076E+02  0.1324462E+02  0.1867544E+01  0.1868178E+03
Ar 1041  0.2633887E+02  0.1027008E+02  0.5033610E+01  0.3894708E+03
Ar 1042  0.2923833E+02  0.1358811E+02  0.4730592E+01  0.3097940E+03
Ar 1043  0.2895738E+02  0.1115008E+02  0.7259598E+01  0.4338502E+03
Ar 1044  0.2662243E+02  0.1363714E+02  0.7882309E+01  0.5964627E+03
Ar 1045  0.2551544E+02  0.1065154E+02  0.1065154E+02  0.1134824E+03
Ar 1046  0.2989138E+02  0.1372423E+02  0.1085487E+02  0.2600848E+03
Ar 1047  0.2989138E+02  0.1085487E+02  0.1372423E+02  0.2600848E+03
Ar 1048  0.2682163E+02  0.1309112E+02  0.1309112E+02  0.5678436E+03
Ar 1049  0.2639616E+02  0.1036916E+02  0.1560060E+02  0.4808156E+03
Ar 1050  0.2920632E+02  0.1335912E+02  0.1640448E+02  0.2287237E+03
Ar 1051  0.2885902E+02  0.1039280E+02  0.1879243E+02  0.3000293E+03
Ar 1052  0.2618149E+02  0.1286487E+02  0.1815187E+02  0.4460797E+02
Ar 1053  0.2634628E+02  0.1003181E+02  0.2072967E+02  0.1490718E+03
Ar 1054  0.2887748E+02  0.1308224E+02  0.2070613E+02  0.4039873E+03
Ar 1055  0.2859801E+02  0.1049382E+02  0.2324236E+02  0.1424476E+03
Ar 1056  0.2662678E+02  0.1345279E+02  0.2337953E+02  0.2112431E+02
Ar 1057  0.2682335E+02  0.1017414E+02  0.2682335E+02  0.7859684E+02
Ar 1058  0.2944230E+02  0.1231254E+02  0.2622842E+02  0.2334086E+02
Ar 1059  0.2941348E+02  0.1029130E+02  0.2941348E+02  0.2732994E+03
Ar 1060  0.2622842E+02  0.1231254E+02  0.2944230E+02  0.2334086E+02
Ar 1061  0.2647645E+02  0.1075612E+02  0.3225416E+02  0.3559205E+03
Ar 1062  0.2941398E+02  0.1334053E+02  0.3199148E+02  0.1742265E+03
Ar 1063  0.2924490E+02  0.1029483E+02  0.3450076E+02  0.5870097E+02
Ar 1064  0.2671318E+02  0.1318296E+02  0.3462215E+02  0.2513435E+03
Ar 1065  0.2650362E+02  0.1654104E+02  0.3692679E+02  0.2789422E+03
Ar 1066  0.2921542E+02  0.1884916E+02  0.3682358E+02  0.2456530E+03
Ar 1067  0.2896385E+02  0.1608540E+02  0.1826544E+01  0.1906984E+03
Ar 1068  0.2601640E+02  0.1831461E+02  0.2809071E+01  0.1113042E+03
Ar 1069  0.2633497E+02  0.1518220E+02  0.4925882E+01  0.8478986E+02
Ar 1070  0.2915935E+02  0.1828167E+02  0.5144619E+01  0.4647670E+03
Ar 1071  0.2937129E+02  0.1560568E+02  0.7968915E+01  0.3446691E+03
Ar 1072  0.2680661E+02  0.1798271E+02  0.7740843E+01  0.3397889E+03
Ar 1073  0.2639616E+02  0.1560060E+02  0.1036916E+02  0.4808156E+03
Ar 1074  0.2885902E+02  0.1879243E+02  0.1039280E+02  0.3000293E+03
Ar 1075  0.2920632E+02  0.1640448E+02  0.1335912E+02  0.2287237E+03
Ar 1076  0.2618149E+02  0.1815187E+02  0.1286487E+02  0.4460797E+02
Ar 1077  0.2584900E+02  0.1580977E+02  0.1580977E+02  0.2257455E+03
Ar 1078  0.2834338E+02  0.1837786E+02  0.1579879E+02  0.2553962E+03
Ar 1079  0.2834338E+02  0.1579879E+02  0.1837786E+02  0.2553962E+03
Ar 1080  0.2645462E+02  0.1851057E+02  0.1851057E+02  0.2442414E+03
Ar 1081  0.2626197E+02  0.1635747E+02  0.2143494E+02  0.1003431E+03
Ar 1082  0.2918911E+02  0.1792485E+02  0.2073512E+02  0.2946120E+03
Ar 1083  0.2952172E+02  0.1641603E+02  0.2385892E+02  0.5929415E+03
Ar 1084  0.2685590E+02  0.1898880E+02  0.2410444E+02  0.1221286E+03
Ar 1085  0.2653989E+02  0.1526262E+02  0.2653989E+02  0.8910388E+03
Ar 1086  0.2938190E+02  0.1883229E+02  0.2687451E+02  0.1375868E+03
Ar 1087  0.2942995E+02  0.1598329E+02  0.2942995E+02  0.4205690E+02
Ar 1088  0.2687451E+02  0.1883229E+02  0.2938190E+02  0.1375868E+03
Ar 1089  0.2641360E+02  0.1578314E+02  0.3152486E+02  0.3037458E+03
Ar 1090  0.2906912E+02  0.1877740E+02  0.3206811E+02  0.1467096E+03
Ar 1091  0.3000782E+02  0.1614499E+02  0.3449028E+02  0.2364521E+03
Ar 1092  0.2577261E+02  0.1886957E+02  0.3466888E+02  0.9813517E+02
Ar 1093  0.2649653E+02  0.2136220E+02  0.3775771E+02  0.3964845E+03
Ar 1094  0.2943053E+02  0.2354592E+02  0.3732702E+02  0.4608177E+02
Ar 1095  0.2975038E+02  0.2093492E+02  0.2082660E+01  0.2207259E+03
Ar 1096  0.2696931E+02  0.2382498E+02  0.2596654E+01  0.3089842E+03
Ar 1097  0.2694044E+02  0.2121237E+02  0.4957652E+01  0.1148969E+03
Ar 1098  0.2952002E+02  0.2382055E+02  0.5602568E+01  0.2347038E+03
Ar 1099  0.2936992E+02  0.2153082E+02  0.7993963E+01  0.8848096E+02
Ar 1100  0.2680608E+02  0.2400639E+02  0.7816910E+01  0.2944531E+03
Ar 1101  0.2634628E+02  0.2072967E+02  0.1003181E+02  0.1490718E+03
Ar 1102  0.2859801E+02  0.2324236E+02  0.1049382E+02  0.1424476E+03
Ar 1103  0.2887748E+02  0.2070613E+02  0.1308224E+02  0.4039873E+03
Ar 1104  0.2662678E+02  0.2337953E+02  0.1345279E+02  0.2112431E+02
Ar 1105  0.2626197E+02  0.2143494E+02  0.1635747E+02  0.1003431E+03
Ar 1106  0.2952172E+02  0.2385892E+02  0.1641603E+02  0.5929415E+03
Ar 1107  0.2918911E+02  0.2073512E+02  0.1792485E+02  0.2946120E+03
Ar 1108  0.2685590E+02  0.2410444E+02  0.1898880E+02  0.1221286E+03
Ar 1109  0.2743939E+02  0.2074294E+02  0.2074294E+02  0.1976685E+03
Ar 1110  0.2934607E+02  0.2348474E+02  0.2120852E+02  0.5024010E+03
Ar 1111  0.2934607E+02  0.2120852E+02  0.2348474E+02  0.5024010E+03
Ar 1112  0.2727232E+02  0.2401284E+02  0.2401284E+02  0.2348326E+04
Ar 1113  0.2717327E+02  0.2170221E+02  0.2717327E+02  0.8130110E+03
Ar 1114  0.3036371E+02  0.2361988E+02  0.2686379E+02  0.5417093E+03
Ar 1115  0.2973005E+02  0.2130673E+02  0.2973005E+02  0.3253311E+03
Ar 1116  0.2686379E+02  0.2361988E+02  0.3036371E+02  0.5417093E+03
Ar 1117  0.2595556E+02  0.2112688E+02  0.3222386E+02  0.5103577E+03
Ar 1118  0.2921844E+02  0.2504898E+02  0.3206838E+02  0.2081515E+03
Ar 1119  0.2869855E+02  0.2154064E+02  0.3451552E+02  0.6714582E+03
Ar 1120  0.2653708E+02  0.2416013E+02  0.3550186E+02  0.3470277E+03
Ar 1121  0.2635438E+02  0.2635438E+02  0.5631425E+00  0.5354008E+03
Ar 1122  0.2902465E+02  0.2902465E+02  0.3694687E+02  0.1221771E+03
Ar 1123  0.2955684E+02  0.2583145E+02  0.2461551E+01  0.2879112E+03
Ar 1124  0.2583145E+02  0.2955684E+02  0.2461551E+01  0.2879112E+03
Ar 1125  0.2673147E+02  0.2673147E+02  0.5599985E+01  0.1012657E+03
Ar 1126  0.3002759E+02  0.3002759E+02  0.5507716E+01  0.2132065E+03
Ar 1127  0.2923621E+02  0.2651909E+02  0.8155859E+01  0.2644896E+03
Ar 1128  0.2651909E+02  0.2923621E+02  0.8155859E+01  0.2644896E+03
Ar 1129  0.2682335E+02  0.2682335E+02  0.1017414E+02  0.7859684E+02
Ar 1130  0.2941348E+02  0.2941348E+02  0.1029130E+02  0.2732994E+03
Ar 1131  0.2944230E+02  0.2622842E+02  0.1231254E+02  0.2334086E+02
Ar 1132  0.2622842E+02  0.2944230E+02  0.1231254E+02  0.2334086E+02
Ar 1133  0.2653989E+02  0.2653989E+02  0.1526262E+02  0.8910388E+03
Ar 1134  0.2942995E+02  0.2942995E+02  0.1598329E+02  0.4205690E+02
Ar 1135  0.2938190E+02  0.2687451E+02  0.1883229E+02  0.1375868E+03
Ar 1136  0.2687451E+02  0.2938190E+02  0.1883229E+02  0.1375868E+03
Ar 1137  0.2717327E+02  0.2717327E+02  0.2170221E+02  0.8130110E+03
Ar 1138  0.2973005E+02  0.2973005E+02  0.2130673E+02  0.3253311E+03
Ar 1139  0.3036371E+02  0.2686379E+02  0.2361988E+02  0.5417093E+03
Ar 1140  0.2686379E+02  0.3036371E+02  0.2361988E+02  0.5417093E+03
Ar 1141  0.2629646E+02  0.2629646E+02  0.2629646E+02  0.5362367E+03
Ar 1142  0.2889411E+02  0.2889411E+02  0.2628722E+02  0.7745689E+02
Ar 1143  0.2889411E+02  0.2628722E+02  0.2889411E+02  0.7745689E+02
Ar 1144  0.2628722E+02  0.2889411E+02  0.2889411E+02  0.7745689E+02
Ar 1145  0.2660827E+02  0.2660827E+02  0.3190993E+02  0.4061400E+03
Ar 1146  0.2906633E+02  0.2906633E+02  0.3246162E+02  0.5274521E+02
Ar 1147  0.2978900E+02  0.2620067E+02  0.3524116E+02  0.2360778E+03
Ar 1148  0.2620067E+02  0.2978900E+02  0.3524116E+02  0.2360778E+03
Ar 1149  0.2649799E+02  0.3248430E+02  0.3732056E+02  0.6174481E+03
Ar 1150  0.2947748E+02  0.3445992E+02  0.3693812E+02  0.1657851E+03
Ar 1151  0.2899677E+02  0.3177087E+02  0.2214656E+01  0.1241330E+03
Ar 1152  0.2665979E+02  0.3462236E+02  0.2652726E+01  0.5928734E+02
Ar 1153  0.2614992E+02  0.3185052E+02  0.5532468E+01  0.1116519E+03
Ar 1154  0.2938463E+02  0.3423302E+02  0.5154186E+01  0.9105030E+02
Ar 1155  0.2864193E+02  0.3219004E+02  0.8105315E+01  0.1169870E+03
Ar 1156  0.2626970E+02  0.3489192E+02  0.8445170E+01  0.3383824E+03
Ar 1157  0.2647645E+02  0.3225416E+02  0.1075612E+02  0.3559205E+03
Ar 1158  0.2924490E+02  0.3450076E+02  0.1029483E+02  0.5870097E+02
Ar 1159  0.2941398E+02  0.3199148E+02  0.1334053E+02  0.1742265E+03
Ar 1160  0.2671318E+02  0.3462215E+02  0.1318296E+02  0.2513435E+03
Ar 1161  0.2641360E+02  0.3152486E+02  0.1578314E+02  0.3037458E+03
Ar 1162  0.3000782E+02  0.3449028E+02  0.1614499E+02  0.2364521E+03
Ar 1163  0.2906912E+02  0.3206811E+02  0.1877740E+02  0.1467096E+03
Ar 1164  0.2577261E+02  0.3466888E+02  0.1886957E+02  0.9813517E+02
Ar 1165  0.2595556E+02  0.3222386E+02  0.2112688E+02  0.5103577E+03
Ar 1166  0.2869855E+02  0.3451552E+02  0.2154064E+02  0.6714582E+03
Ar 1167  0.2921844E+02  0.3206838E+02  0.2504898E+02  0.2081515E+03
Ar 1168  0.2653708E+02  0.3550186E+02  0.2416013E+02  0.3470278E+03
Ar 1169  0.2660827E+02  0.3190993E+02  0.2660827E+02  0.4061400E+03
Ar 1170  0.2978900E+02  0.3524116E+02  0.2620067E+02  0.2360778E+03
Ar 1171  0.2906633E+02  0.3246162E+02  0.2906633E+02  0.5274521E+02
Ar 1172  0.2620067E+02  0.3524116E+02  0.2978900E+02  0.2360778E+03
Ar 1173  0.2667228E+02  0.3233151E+02  0.3233151E+02  0.3204780E+03
Ar 1174  0.2910347E+02  0.3475660E+02  0.3173133E+02  0.4494255E+03
Ar 1175  0.2910347E+02  0.3173133E+02  0.3475660E+02  0.4494255E+03
Ar 1176  0.2685479E+02  0.3461292E+02  0.3461292E+02  0.1294692E+04
Ar 1177  0.3235175E+02  0.3760126E+02  0.3760126E+02  0.3239856E+03
Ar 1178  0.3459501E+02  0.2385080E+01  0.3718299E+02  0.4652976E+03
Ar 1179  0.3459501E+02  0.3718299E+02  0.2385080E+01  0.4652976E+03
Ar 1180  0.3124468E+02  0.2022005E+01  0.2022005E+01  0.4330083E+03
Ar 1181  0.3205629E+02  0.3683340E+02  0.4615246E+01  0.1752339E+03
Ar 1182  0.3415021E+02  0.1881872E+01  0.4897897E+01  0.1102858E+03
Ar 1183  0.3393198E+02  0.3721621E+02  0.7634859E+01  0.2382758E+03
Ar 1184  0.3168669E+02  0.2890025E+01  0.7942173E+01  0.7657701E+03
Ar 1185  0.3188385E+02  0.3667918E+02  0.1031340E+02  0.5853579E+02
Ar 1186  0.3358611E+02  0.2343947E+01  0.1038917E+02  0.5808910E+03
Ar 1187  0.3445738E+02  0.3744215E+02  0.1292637E+02  0.2642900E+03
Ar 1188  0.3197744E+02  0.2724846E+01  0.1317040E+02  0.5087264E+03
Ar 1189  0.3189362E+02  0.3765553E+02  0.1675985E+02  0.1323349E+03
Ar 1190  0.3417961E+02  0.2464639E+01  0.1587166E+02  0.3873503E+03
Ar 1191  0.3503043E+02  0.8569948E-01  0.1825811E+02  0.2912526E+03
Ar 1192  0.3216510E+02  0.3503787E+01  0.1873901E+02  0.4140787E+03
Ar 1193  0.3224940E+02  0.3755613E+02  0.2136164E+02  0.1507418E+03
Ar 1194  0.3517211E+02  0.2500764E+01  0.2089891E+02  0.5100078E+02
Ar 1195  0.3478852E+02  0.3742768E+02  0.2399410E+02  0.3753836E+03
Ar 1196  0.3223607E+02  0.2475805E+01  0.2386347E+02  0.2211704E+03
Ar 1197  0.3248430E+02  0.3732056E+02  0.2649799E+02  0.6174481E+03
Ar 1198  0.3462236E+02  0.2652726E+01  0.2665979E+02  0.5928734E+02
Ar 1199  0.3445992E+02  0.3693812E+02  0.2947748E+02  0.1657851E+03
Ar 1200  0.3177087E+02  0.2214656E+01  0.2899677E+02  0.1241330E+03
Ar 1201  0.3173652E+02  0.3725181E+02  0.3173652E+02  0.5347698E+03
Ar 1202  0.3457587E+02  0.2042486E+01  0.3163757E+02  0.3465607E+03
Ar 1203  0.3448320E+02  0.9710494E-01  0.3448320E+02  0.1653665E+03
Ar 1204  0.3163757E+02  0.2042486E+01  0.3457587E+02  0.3465607E+03
Ar 1205  0.3205629E+02  0.4615246E+01  0.3683340E+02  0.1752339E+03
Ar 1206  0.3393198E+02  0.7634859E+01  0.3721621E+02  0.2382758E+03
Ar 1207  0.3415021E+02  0.4897897E+01  0.1881872E+01  0.1102858E+03
Ar 1208  0.3168669E+02  0.7942173E+01  0.2890025E+01  0.7657701E+03
Ar 1209  0.3122354E+02  0.4964656E+01  0.4964656E+01  0.8770773E+03
Ar 1210  0.3403704E+02  0.7784485E+01  0.5413071E+01  0.1469162E+03
Ar 1211  0.3403704E+02  0.5413071E+01  0.7784485E+01  0.1469162E+03
Ar 1212  0.3111578E+02  0.7413162E+01  0.7413162E+01  0.1697612E+03
Ar 1213  0.3122880E+02  0.4945920E+01  0.1040366E+02  0.3302938E+03
Ar 1214  0.3418886E+02  0.7217620E+01  0.1052935E+02  0.5783958E+03
Ar 1215  0.3437490E+02  0.5473133E+01  0.1356355E+02  0.1135123E+03
Ar 1216  0.3174706E+02  0.7637395E+01  0.1337160E+02  0.4971088E+03
Ar 1217  0.3173756E+02  0.5264183E+01  0.1593351E+02  0.5431760E+03
Ar 1218  0.3434771E+02  0.7847224E+01  0.1616474E+02  0.8726221E+03
Ar 1219  0.3533150E+02  0.5423890E+01  0.1890328E+02  0.2704172E+03
Ar 1220  0.3156884E+02  0.7942552E+01  0.1866162E+02  0.1226220E+03
Ar 1221  0.3231995E+02  0.5585223E+01  0.2170291E+02  0.2536841E+03
Ar 1222  0.3445650E+02  0.8715135E+01  0.2078212E+02  0.4461156E+03
Ar 1223  0.3457552E+02  0.5233548E+01  0.2434388E+02  0.1121385E+03
Ar 1224  0.3178712E+02  0.8498192E+01  0.2380689E+02  0.5634388E+02
Ar 1225  0.3185052E+02  0.5532468E+01  0.2614992E+02  0.1116519E+03
Ar 1226  0.3489192E+02  0.8445170E+01  0.2626970E+02  0.3383824E+03
Ar 1227  0.3423302E+02  0.5154186E+01  0.2938463E+02  0.9105030E+02
Ar 1228  0.3219004E+02  0.8105315E+01  0.2864193E+02  0.1169870E+03
Ar 1229  0.3251137E+02  0.4481116E+01  0.3251137E+02  0.1013610E+03
Ar 1230  0.3409539E+02  0.7380221E+01  0.3168836E+02  0.7205523E+01
Ar 1231  0.3480460E+02  0.5709647E+01  0.3480460E+02  0.2259127E+03
Ar 1232  0.3168836E+02  0.7380221E+01  0.3409539E+02  0.7205523E+01
Ar 1233  0.3188385E+02  0.1031340E+02  0.3667918E+02  0.5853579E+02
Ar 1234  0.3445738E+02  0.1292637E+02  0.3744215E+02  0.2642900E+03
Ar 1235  0.3358611E+02  0.1038917E+02  0.2343947E+01  0.5808910E+03
Ar 1236  0.3197744E+02  0.1317040E+02  0.2724846E+01  0.5087264E+03
Ar 1237  0.3122880E+02  0.1040366E+02  0.4945920E+01  0.3302938E+03
Ar 1238  0.3437490E+02  0.1356355E+02  0.5473133E+01  0.1135123E+03
Ar 1239  0.3418886E+02  0.1052935E+02  0.7217620E+01  0.5783958E+03
Ar 1240  0.3174706E+02  0.1337160E+02  0.7637395E+01  0.4971088E+03
Ar 1241  0.3121092E+02  0.9778584E+01  0.9778584E+01  0.4529525E+02
Ar 1242  0.3358757E+02  0.1280653E+02  0.1061536E+02  0.3867948E+03
Ar 1243  0.3358757E+02  0.1061536E+02  0.1280653E+02  0.3867948E+03
Ar 1244  0.3166783E+02  0.1388996E+02  0.1388996E+02  0.1379467E+03
Ar 1245  0.3175765E+02  0.1083389E+02  0.1657827E+02  0.2588247E+02
Ar 1246  0.3437730E+02  0.1306074E+02  0.1546106E+02  0.8060293E+03
Ar 1247  0.3475394E+02  0.1063990E+02  0.1833555E+02  0.1023694E+03
Ar 1248  0.3214862E+02  0.1364177E+02  0.1829061E+02  0.8907137E+03
Ar 1249  0.3158481E+02  0.1111218E+02  0.2072692E+02  0.2927020E+03
Ar 1250  0.3526564E+02  0.1323538E+02  0.2111710E+02  0.3697690E+03
Ar 1251  0.3442518E+02  0.1077903E+02  0.2353214E+02  0.2345571E+03
Ar 1252  0.3157850E+02  0.1304688E+02  0.2364535E+02  0.1753772E+03
Ar 1253  0.3225416E+02  0.1075612E+02  0.2647645E+02  0.3559205E+03
Ar 1254  0.3462215E+02  0.1318296E+02  0.2671318E+02  0.2513435E+03
Ar 1255  0.3450076E+02  0.1029483E+02  0.2924490E+02  0.5870097E+02
Ar 1256  0.3199148E+02  0.1334053E+02  0.2941398E+02  0.1742265E+03
Ar 1257  0.3189819E+02  0.1013112E+02  0.3189819E+02  0.1275953E+04
Ar 1258  0.3425914E+02  0.1283100E+02  0.3171267E+02  0.1979031E+03
Ar 1259  0.3425964E+02  0.1006532E+02  0.3425964E+02  0.8193456E+02
Ar 1260  0.3171267E+02  0.1283100E+02  0.3425914E+02  0.1979031E+03
Ar 1261  0.3189362E+02  0.1675985E+02  0.3765553E+02  0.1323349E+03
Ar 1262  0.3503043E+02  0.1825811E+02  0.8569948E-01  0.2912526E+03
Ar 1263  0.3417961E+02  0.1587166E+02  0.2464639E+01  0.3873503E+03
Ar 1264  0.3216510E+02  0.1873901E+02  0.3503787E+01  0.4140787E+03
Ar 1265  0.3173756E+02  0.1593351E+02  0.5264183E+01  0.5431760E+03
Ar 1266  0.3533150E+02  0.1890328E+02  0.5423890E+01  0.2704172E+03
Ar 1267  0.3434771E+02  0.1616474E+02  0.7847224E+01  0.8726221E+03
Ar 1268  0.3156884E+02  0.1866162E+02  0.7942552E+01  0.1226220E+03
Ar 1269  0.3175765E+02  0.1657827E+02  0.1083389E+02  0.2588247E+02
Ar 1270  0.3475394E+02  0.1833555E+02  0.1063990E+02  0.1023694E+03
Ar 1271  0.3437730E+02  0.1546106E+02  0.1306074E+02  0.8060293E+03
Ar 1272  0.3214862E+02  0.1829061E+02  0.1364177E+02  0.8907137E+03
Ar 1273  0.3092907E+02  0.1656074E+02  0.1656074E+02  0.1995065E+03
Ar 1274  0.3487118E+02  0.1853566E+02  0.1600986E+02  0.1390541E+03
Ar 1275  0.3487118E+02  0.1600986E+02  0.1853566E+02  0.1390541E+03
Ar 1276  0.3204788E+02  0.1879388E+02  0.1879388E+02  0.1273266E+04
Ar 1277  0.3190387E+02  0.1544638E+02  0.2120227E+02  0.4729428E+03
Ar 1278  0.3506754E+02  0.1898769E+02  0.2147612E+02  0.1199306E+03
Ar 1279  0.3426390E+02  0.1587621E+02  0.2356386E+02  0.8799650E+02
Ar 1280  0.3169094E+02  0.1861938E+02  0.2332333E+02  0.2077792E+03
Ar 1281  0.3152486E+02  0.1578314E+02  0.2641360E+02  0.3037458E+03
Ar 1282  0.3466888E+02  0.1886957E+02  0.2577261E+02  0.9813517E+02
Ar 1283  0.3449028E+02  0.1614499E+02  0.3000782E+02  0.2364521E+03
Ar 1284  0.3206811E+02  0.1877740E+02  0.2906912E+02  0.1467096E+03
Ar 1285  0.3191416E+02  0.1656346E+02  0.3191416E+02  0.1521532E+03
Ar 1286  0.3458496E+02  0.1956593E+02  0.3217679E+02  0.2746184E+03
Ar 1287  0.3538690E+02  0.1531681E+02  0.3538690E+02  0.1923657E+01
Ar 1288  0.3217679E+02  0.1956593E+02  0.3458496E+02  0.2746184E+03
Ar 1289  0.3224940E+02  0.2136164E+02  0.3755613E+02  0.1507418E+03
Ar 1290  0.3478852E+02  0.2399410E+02  0.3742768E+02  0.3753836E+03
Ar 1291  0.3517211E+02  0.2089891E+02  0.2500764E+01  0.5100079E+02
Ar 1292  0.3223607E+02  0.2386347E+02  0.2475805E+01  0.2211704E+03
Ar 1293  0.3231995E+02  0.2170291E+02  0.5585223E+01  0.2536841E+03
Ar 1294  0.3457552E+02  0.2434388E+02  0.5233548E+01  0.1121385E+03
Ar 1295  0.3445650E+02  0.2078212E+02  0.8715135E+01  0.4461156E+03
Ar 1296  0.3178712E+02  0.2380689E+02  0.8498192E+01  0.5634388E+02
Ar 1297  0.3158481E+02  0.2072692E+02  0.1111218E+02  0.2927020E+03
Ar 1298  0.3442518E+02  0.2353214E+02  0.1077903E+02  0.2345571E+03
Ar 1299  0.3526564E+02  0.2111710E+02  0.1323538E+02  0.3697690E+03
Ar 1300  0.3157850E+02  0.2364535E+02  0.1304688E+02  0.1753772E+03
Ar 1301  0.3190387E+02  0.2120227E+02  0.1544638E+02  0.4729428E+03
Ar 1302  0.3426390E+02  0.2356386E+02  0.1587621E+02  0.8799650E+02
Ar 1303  0.3506754E+02  0.2147612E+02  0.1898769E+02  0.1199306E+03
Ar 1304  0.3169094E+02  0.2332333E+02  0.1861938E+02  0.2077792E+03
Ar 1305  0.3268557E+02  0.2144467E+02  0.2144467E+02  0.5550837E+02
Ar 1306  0.3535600E+02  0.2422309E+02  0.2186096E+02  0.7929233E+02
Ar 1307  0.3535600E+02  0.2186096E+02  0.2422309E+02  0.7929233E+02
Ar 1308  0.3189912E+02  0.2394826E+02  0.2394826E+02  0.1282389E+03
Ar 1309  0.3222386E+02  0.2112688E+02  0.2595556E+02  0.5103577E+03
Ar 1310  0.3550186E+02  0.2416013E+02  0.2653708E+02  0.3470278E+03
Ar 1311  0.3451552E+02  0.2154064E+02  0.2869855E+02  0.6714582E+03
Ar 1312  0.3206838E+02  0.2504898E+02  0.2921844E+02  0.2081515E+03
Ar 1313  0.3194827E+02  0.2217909E+02  0.3194827E+02  0.6360673E+02
Ar 1314  0.3483024E+02  0.2365037E+02  0.3178079E+02  0.4096685E+03
Ar 1315  0.3522328E+02  0.2064455E+02  0.3522328E+02  0.1870867E+03
Ar 1316  0.3178079E+02  0.2365037E+02  0.3483024E+02  0.4096685E+03
Ar 1317  0.3248430E+02  0.2649799E+02  0.3732056E+02  0.6174481E+03
Ar 1318  0.3445992E+02  0.2947748E+02  0.3693812E+02  0.1657851E+03
Ar 1319  0.3462236E+02  0.2665979E+02  0.2652726E+01  0.5928734E+02
Ar 1320  0.3177087E+02  0.2899677E+02  0.2214656E+01  0.1241330E+03
Ar 1321  0.3185052E+02  0.2614992E+02  0.5532468E+01  0.1116519E+03
Ar 1322  0.3423302E+02  0.2938463E+02  0.5154186E+01  0.9105030E+02
Ar 1323  0.3489192E+02  0.2626970E+02  0.8445170E+01  0.3383824E+03
Ar 1324  0.3219004E+02  0.2864193E+02  0.8105315E+01  0.1169870E+03
Ar 1325  0.3225416E+02  0.2647645E+02  0.1075612E+02  0.3559205E+03
Ar 1326  0.3450076E+02  0.2924490E+02  0.1029483E+02  0.5870097E+02
Ar 1327  0.3462215E+02  0.2671318E+02  0.1318296E+02  0.2513435E+03
Ar 1328  0.3199148E+02  0.2941398E+02  0.1334053E+02  0.1742265E+03
Ar 1329  0.3152486E+02  0.2641360E+02  0.1578314E+02  0.3037458E+03
Ar 1330  0.3449028E+02  0.3000782E+02  0.1614499E+02  0.2364521E+03
Ar 1331  0.3466888E+02  0.2577261E+02  0.1886957E+02  0.9813517E+02
Ar 1332  0.3206811E+02  0.2906912E+02  0.1877740E+02  0.1467096E+03
Ar 1333  0.3222386E+02  0.2595556E+02  0.2112688E+02  0.5103577E+03
Ar 1334  0.3451552E+02  0.2869855E+02  0.2154064E+02  0.6714582E+03
Ar 1335  0.3550186E+02  0.2653708E+02  0.2416013E+02  0.3470277E+03
Ar 1336  0.3206838E+02  0.2921844E+02  0.2504898E+02  0.2081515E+03
Ar 1337  0.3190993E+02  0.2660827E+02  0.2660827E+02  0.4061400E+03
Ar 1338  0.3524116E+02  0.2978900E+02  0.2620067E+02  0.2360778E+03
Ar 1339  0.3524116E+02  0.2620067E+02  0.2978900E+02  0.2360778E+03
Ar 1340  0.3246162E+02  0.2906633E+02  0.2906633E+02  0.5274521E+02
Ar 1341  0.3233151E+02  0.2667228E+02  0.3233151E+02  0.3204780E+03
Ar 1342  0.3475660E+02  0.2910347E+02  0.3173133E+02  0.4494255E+03
Ar 1343  0.3461292E+02  0.2685479E+02  0.3461292E+02  0.1294692E+04
Ar 1344  0.3173133E+02  0.2910347E+02  0.3475660E+02  0.4494255E+03
Ar 1345  0.3173652E+02  0.3173652E+02  0.3725181E+02  0.5347698E+03
Ar 1346  0.3448320E+02  0.3448320E+02  0.9710494E-01  0.1653665E+03
Ar 1347  0.3457587E+02  0.3163757E+02  0.2042486E+01  0.3465607E+03
Ar 1348  0.3163757E+02  0.3457587E+02  0.2042486E+01  0.3465607E+03
Ar 1349  0.3251137E+02  0.3251137E+02  0.4481116E+01  0.1013610E+03
Ar 1350  0.3480460E+02  0.3480460E+02  0.5709647E+01  0.2259127E+03
Ar 1351  0.3409539E+02  0.3168836E+02  0.7380221E+01  0.7205522E+01
Ar 1352  0.3168836E+02  0.3409539E+02  0.7380221E+01  0.7205522E+01
Ar 1353  0.3189819E+02  0.3189819E+02  0.1013112E+02  0.1275953E+04
Ar 1354  0.3425964E+02  0.3425964E+02  0.1006532E+02  0.8193456E+02
Ar 1355  0.3425914E+02  0.3171267E+02  0.1283100E+02  0.1979031E+03
Ar 1356  0.3171267E+02  0.3425914E+02  0.1283100E+02  0.1979031E+03
Ar 1357  0.3191416E+02  0.3191416E+02  0.1656346E+02  0.1521532E+03
Ar 1358  0.3538690E+02  0.3538690E+02  0.1531681E+02  0.1923657E+01
Ar 1359  0.3458496E+02  0.3217679E+02  0.1956593E+02  0.2746184E+03
Ar 1360  0.3217679E+02  0.3458496E+02  0.1956593E+02  0.2746184E+03
Ar 1361  0.3194827E+02  0.3194827E+02  0.2217909E+02  0.6360673E+02
Ar 1362  0.3522328E+02  0.3522328E+02  0.2064455E+02  0.1870867E+03
Ar 1363  0.3483024E+02  0.3178079E+02  0.2365037E+02  0.4096685E+03
Ar 1364  0.3178079E+02  0.3483024E+02  0.2365037E+02  0.4096685E+03
Ar 1365  0.3233151E+02  0.3233151E+02  0.2667228E+02  0.3204780E+03
Ar 1366  0.3461292E+02  0.3461292E+02  0.2685479E+02  0.1294692E+04
Ar 1367  0.3475660E+02  0.3173133E+02  0.2910347E+02  0.4494255E+03
Ar 1368  0.3173133E+02  0.3475660E+02  0.2910347E+02  0.4494255E+03
Ar 1369  0.3230676E+02  0.3230676E+02  0.3230676E+02  0.2664360E+03
Ar 1370  0.3469918E+02  0.3469918E+02  0.3208961E+02  0.3384158E+03
Ar 1371  0.3469918E+02  0.3208961E+02  0.3469918E+02  0.3384159E+03
Ar 1372  0.3208961E+02  0.3469918E+02  0.3469918E+02  0.3384159E+03
