        4000
Lattice="  0.5500582E+02  0.1757762E+00  0.1757758E+00  0.1757762E+00  0.5500582E+02  0.1757751E+00  0.1757758E+00  0.1757751E+00  0.5500581E+02" Properties=species:S:1:id:I:1:pos:R:3:tempK:R:1
Ar    1  0.4947055E+00  0.4946991E+00  0.4946966E+00  0.0000000E+00
Ar    2  0.2995154E+01  0.2995148E+01  0.2733086E+00  0.0000000E+00
Ar    3  0.2995155E+01  0.2733194E+00  0.2995148E+01  0.0000000E+00
Ar    4  0.2733165E+00  0.2995152E+01  0.2995150E+01  0.0000000E+00
Ar    5  0.2621714E+00  0.2621778E+00  0.5646322E+01  0.0000000E+00
Ar    6  0.3042155E+01  0.3042156E+01  0.6096735E+01  0.0000000E+00
Ar    7  0.2993519E+01  0.2849290E+00  0.8316772E+01  0.0000000E+00
Ar    8  0.2849353E+00  0.2993521E+01  0.8316775E+01  0.0000000E+00
Ar    9  0.5488924E+02  0.5488923E+02  0.1115659E+02  0.0000000E+00
Ar   10  0.2636708E+01  0.2636708E+01  0.1119092E+02  0.0000000E+00
Ar   11  0.2743375E+01  0.2186671E+00  0.1394721E+02  0.0000000E+00
Ar   12  0.2186678E+00  0.2743364E+01  0.1394721E+02  0.0000000E+00
Ar   13  0.5520340E+02  0.5520340E+02  0.1659523E+02  0.0000000E+00
Ar   14  0.2815668E+01  0.2815665E+01  0.1689095E+02  0.0000000E+00
Ar   15  0.2951102E+01  0.5500910E+02  0.1969974E+02  0.0000000E+00
Ar   16  0.5500910E+02  0.2951113E+01  0.1969974E+02  0.0000000E+00
Ar   17  0.1068594E+00  0.1068827E+00  0.2180547E+02  0.0000000E+00
Ar   18  0.2729488E+01  0.2729483E+01  0.2216610E+02  0.0000000E+00
Ar   19  0.2705042E+01  0.1109592E+00  0.2490371E+02  0.0000000E+00
Ar   20  0.1109689E+00  0.2705029E+01  0.2490370E+02  0.0000000E+00
Ar   21  0.5492970E+02  0.5492970E+02  0.2790003E+02  0.0000000E+00
Ar   22  0.2610944E+01  0.2610936E+01  0.2778367E+02  0.0000000E+00
Ar   23  0.2477932E+01  0.5503384E+02  0.3074312E+02  0.0000000E+00
Ar   24  0.5503384E+02  0.2477934E+01  0.3074311E+02  0.0000000E+00
Ar   25  0.5484914E+02  0.5484913E+02  0.3366841E+02  0.0000000E+00
Ar   26  0.2771710E+01  0.2771721E+01  0.3352977E+02  0.0000000E+00
Ar   27  0.2782773E+01  0.1651118E+00  0.3630035E+02  0.0000000E+00
Ar   28  0.1651130E+00  0.2782768E+01  0.3630034E+02  0.0000000E+00
Ar   29  0.5481250E+02  0.5481250E+02  0.3916881E+02  0.0000000E+00
Ar   30  0.2924571E+01  0.2924568E+01  0.3863075E+02  0.0000000E+00
Ar   31  0.2836088E+01  0.2819374E+00  0.4171170E+02  0.0000000E+00
Ar   32  0.2819497E+00  0.2836089E+01  0.4171169E+02  0.0000000E+00
Ar   33  0.5474289E+02  0.5474290E+02  0.4428610E+02  0.0000000E+00
Ar   34  0.3122453E+01  0.3122446E+01  0.4418958E+02  0.0000000E+00
Ar   35  0.3102607E+01  0.2998364E+00  0.4729269E+02  0.0000000E+00
Ar   36  0.2998238E+00  0.3102615E+01  0.4729270E+02  0.0000000E+00
Ar   37  0.5514365E+02  0.5514365E+02  0.4960947E+02  0.0000000E+00
Ar   38  0.3078123E+01  0.3078118E+01  0.4976989E+02  0.0000000E+00
Ar   39  0.2802857E+01  0.2013823E+00  0.5244930E+02  0.0000000E+00
Ar   40  0.2013925E+00  0.2802850E+01  0.5244930E+02  0.0000000E+00
Ar   41  0.2621718E+00  0.5646321E+01  0.2621805E+00  0.0000000E+00
Ar   42  0.2993529E+01  0.8316779E+01  0.2849348E+00  0.0000000E+00
Ar   43  0.3042166E+01  0.6096739E+01  0.3042157E+01  0.0000000E+00
Ar   44  0.2849386E+00  0.8316769E+01  0.2993523E+01  0.0000000E+00
Ar   45  0.2255629E+00  0.6048719E+01  0.6048715E+01  0.0000000E+00
Ar   46  0.3325721E+01  0.8412923E+01  0.5663751E+01  0.0000000E+00
Ar   47  0.3325711E+01  0.5663750E+01  0.8412922E+01  0.0000000E+00
Ar   48  0.5482728E+02  0.8790397E+01  0.8790398E+01  0.0000000E+00
Ar   49  0.2107856E+00  0.5366797E+01  0.1086881E+02  0.0000000E+00
Ar   50  0.2851387E+01  0.8082808E+01  0.1095617E+02  0.0000000E+00
Ar   51  0.2728621E+01  0.5480231E+01  0.1423634E+02  0.0000000E+00
Ar   52  0.2043288E+00  0.8473950E+01  0.1397684E+02  0.0000000E+00
Ar   53  0.5482347E+02  0.5801216E+01  0.1675354E+02  0.0000000E+00
Ar   54  0.2904006E+01  0.8484495E+01  0.1697932E+02  0.0000000E+00
Ar   55  0.2583584E+01  0.5410931E+01  0.1952204E+02  0.0000000E+00
Ar   56  0.1354877E+00  0.8205609E+01  0.1932505E+02  0.0000000E+00
Ar   57  0.1321114E+00  0.5909757E+01  0.2223111E+02  0.0000000E+00
Ar   58  0.2905599E+01  0.8348615E+01  0.2208456E+02  0.0000000E+00
Ar   59  0.3019540E+01  0.5638731E+01  0.2504395E+02  0.0000000E+00
Ar   60  0.2598418E+00  0.8239696E+01  0.2524974E+02  0.0000000E+00
Ar   61  0.4366359E+00  0.5333165E+01  0.2771951E+02  0.0000000E+00
Ar   62  0.2808792E+01  0.8064199E+01  0.2780966E+02  0.0000000E+00
Ar   63  0.2784465E+01  0.5632693E+01  0.3054447E+02  0.0000000E+00
Ar   64  0.1884985E+00  0.7956083E+01  0.3031250E+02  0.0000000E+00
Ar   65  0.2514875E+00  0.5351782E+01  0.3339967E+02  0.0000000E+00
Ar   66  0.2711711E+01  0.8294473E+01  0.3327913E+02  0.0000000E+00
Ar   67  0.2918140E+01  0.5740147E+01  0.3610683E+02  0.0000000E+00
Ar   68  0.5507396E+02  0.8197832E+01  0.3604440E+02  0.0000000E+00
Ar   69  0.1732833E+00  0.5619903E+01  0.3901061E+02  0.0000000E+00
Ar   70  0.2907481E+01  0.8248888E+01  0.3882172E+02  0.0000000E+00
Ar   71  0.3044414E+01  0.5536519E+01  0.4145171E+02  0.0000000E+00
Ar   72  0.5504165E+02  0.8796425E+01  0.4186995E+02  0.0000000E+00
Ar   73  0.2867428E+00  0.5635325E+01  0.4405256E+02  0.0000000E+00
Ar   74  0.2925390E+01  0.8276088E+01  0.4410556E+02  0.0000000E+00
Ar   75  0.2854720E+01  0.5532831E+01  0.4696598E+02  0.0000000E+00
Ar   76  0.5510322E+02  0.8670899E+01  0.4722157E+02  0.0000000E+00
Ar   77  0.4303418E+00  0.5806687E+01  0.4980160E+02  0.0000000E+00
Ar   78  0.3100503E+01  0.8525453E+01  0.4966163E+02  0.0000000E+00
Ar   79  0.3129781E+01  0.5670386E+01  0.5257449E+02  0.0000000E+00
Ar   80  0.5513619E+02  0.8457850E+01  0.5265375E+02  0.0000000E+00
Ar   81  0.5488924E+02  0.1115658E+02  0.5488925E+02  0.0000000E+00
Ar   82  0.2743500E+01  0.1394736E+02  0.2186698E+00  0.0000000E+00
Ar   83  0.2636707E+01  0.1119094E+02  0.2636694E+01  0.0000000E+00
Ar   84  0.2186637E+00  0.1394721E+02  0.2743363E+01  0.0000000E+00
Ar   85  0.2107758E+00  0.1086881E+02  0.5366799E+01  0.0000000E+00
Ar   86  0.2728621E+01  0.1423634E+02  0.5480237E+01  0.0000000E+00
Ar   87  0.2851381E+01  0.1095617E+02  0.8082808E+01  0.0000000E+00
Ar   88  0.2043268E+00  0.1397684E+02  0.8473950E+01  0.0000000E+00
Ar   89  0.1882953E+00  0.1131589E+02  0.1131588E+02  0.0000000E+00
Ar   90  0.3186581E+01  0.1363847E+02  0.1103570E+02  0.0000000E+00
Ar   91  0.3186581E+01  0.1103570E+02  0.1363847E+02  0.0000000E+00
Ar   92  0.3328636E+00  0.1404882E+02  0.1404882E+02  0.0000000E+00
Ar   93  0.9284818E-01  0.1119594E+02  0.1673726E+02  0.0000000E+00
Ar   94  0.3071159E+01  0.1383110E+02  0.1660806E+02  0.0000000E+00
Ar   95  0.3071662E+01  0.1113269E+02  0.1942197E+02  0.0000000E+00
Ar   96  0.3849475E+00  0.1377138E+02  0.1947690E+02  0.0000000E+00
Ar   97  0.1957499E+00  0.1116992E+02  0.2251566E+02  0.0000000E+00
Ar   98  0.2942844E+01  0.1401632E+02  0.2241595E+02  0.0000000E+00
Ar   99  0.2828242E+01  0.1093783E+02  0.2495539E+02  0.0000000E+00
Ar  100  0.5485942E+02  0.1363119E+02  0.2503085E+02  0.0000000E+00
Ar  101  0.3189212E+00  0.1107556E+02  0.2788849E+02  0.0000000E+00
Ar  102  0.2858923E+01  0.1378130E+02  0.2743996E+02  0.0000000E+00
Ar  103  0.3022397E+01  0.1094970E+02  0.3054946E+02  0.0000000E+00
Ar  104  0.2304921E+00  0.1363311E+02  0.3018727E+02  0.0000000E+00
Ar  105  0.2803508E+00  0.1130943E+02  0.3324132E+02  0.0000000E+00
Ar  106  0.3008074E+01  0.1350890E+02  0.3326813E+02  0.0000000E+00
Ar  107  0.3043661E+01  0.1117269E+02  0.3585237E+02  0.0000000E+00
Ar  108  0.2257115E+00  0.1387631E+02  0.3597630E+02  0.0000000E+00
Ar  109  0.5514725E+02  0.1128874E+02  0.3876695E+02  0.0000000E+00
Ar  110  0.2966222E+01  0.1369382E+02  0.3886240E+02  0.0000000E+00
Ar  111  0.2854575E+01  0.1114735E+02  0.4179216E+02  0.0000000E+00
Ar  112  0.5513583E+02  0.1388562E+02  0.4121569E+02  0.0000000E+00
Ar  113  0.5511081E+02  0.1147266E+02  0.4429534E+02  0.0000000E+00
Ar  114  0.2669304E+01  0.1448196E+02  0.4417780E+02  0.0000000E+00
Ar  115  0.2834310E+01  0.1136433E+02  0.4662806E+02  0.0000000E+00
Ar  116  0.5497275E+02  0.1420922E+02  0.4684190E+02  0.0000000E+00
Ar  117  0.3001578E+00  0.1161642E+02  0.4928019E+02  0.0000000E+00
Ar  118  0.2948117E+01  0.1377937E+02  0.4969888E+02  0.0000000E+00
Ar  119  0.2711122E+01  0.1086005E+02  0.5251395E+02  0.0000000E+00
Ar  120  0.2614308E+00  0.1413727E+02  0.5242795E+02  0.0000000E+00
Ar  121  0.5520337E+02  0.1659524E+02  0.5520341E+02  0.0000000E+00
Ar  122  0.2951275E+01  0.1969970E+02  0.5500917E+02  0.0000000E+00
Ar  123  0.2815763E+01  0.1689094E+02  0.2815578E+01  0.0000000E+00
Ar  124  0.5500909E+02  0.1969974E+02  0.2951111E+01  0.0000000E+00
Ar  125  0.5482347E+02  0.1675354E+02  0.5801218E+01  0.0000000E+00
Ar  126  0.2583592E+01  0.1952204E+02  0.5410921E+01  0.0000000E+00
Ar  127  0.2904007E+01  0.1697932E+02  0.8484490E+01  0.0000000E+00
Ar  128  0.1354872E+00  0.1932505E+02  0.8205603E+01  0.0000000E+00
Ar  129  0.9284874E-01  0.1673725E+02  0.1119594E+02  0.0000000E+00
Ar  130  0.3071659E+01  0.1942196E+02  0.1113268E+02  0.0000000E+00
Ar  131  0.3071161E+01  0.1660806E+02  0.1383110E+02  0.0000000E+00
Ar  132  0.3849466E+00  0.1947690E+02  0.1377138E+02  0.0000000E+00
Ar  133  0.5489343E+02  0.1680824E+02  0.1680823E+02  0.0000000E+00
Ar  134  0.2897720E+01  0.1928083E+02  0.1655596E+02  0.0000000E+00
Ar  135  0.2897723E+01  0.1655595E+02  0.1928082E+02  0.0000000E+00
Ar  136  0.5489966E+02  0.1924484E+02  0.1924484E+02  0.0000000E+00
Ar  137  0.1390289E+00  0.1630440E+02  0.2176878E+02  0.0000000E+00
Ar  138  0.2659403E+01  0.1937319E+02  0.2189055E+02  0.0000000E+00
Ar  139  0.2731265E+01  0.1664397E+02  0.2489073E+02  0.0000000E+00
Ar  140  0.5509179E+02  0.1943629E+02  0.2513544E+02  0.0000000E+00
Ar  141  0.2262310E+00  0.1635721E+02  0.2751387E+02  0.0000000E+00
Ar  142  0.2823197E+01  0.1916391E+02  0.2770094E+02  0.0000000E+00
Ar  143  0.3150817E+01  0.1670129E+02  0.3046441E+02  0.0000000E+00
Ar  144  0.1877084E+00  0.1966965E+02  0.3097620E+02  0.0000000E+00
Ar  145  0.5514845E+02  0.1602766E+02  0.3279834E+02  0.0000000E+00
Ar  146  0.3154330E+01  0.1946126E+02  0.3321382E+02  0.0000000E+00
Ar  147  0.2851299E+01  0.1652510E+02  0.3562039E+02  0.0000000E+00
Ar  148  0.1928456E+00  0.1972157E+02  0.3594493E+02  0.0000000E+00
Ar  149  0.1845590E+00  0.1650137E+02  0.3842450E+02  0.0000000E+00
Ar  150  0.3133895E+01  0.1955889E+02  0.3878051E+02  0.0000000E+00
Ar  151  0.3076657E+01  0.1667658E+02  0.4128303E+02  0.0000000E+00
Ar  152  0.4880507E+00  0.1920793E+02  0.4144541E+02  0.0000000E+00
Ar  153  0.5034560E+00  0.1715212E+02  0.4420430E+02  0.0000000E+00
Ar  154  0.3038074E+01  0.1942059E+02  0.4432141E+02  0.0000000E+00
Ar  155  0.2903368E+01  0.1653252E+02  0.4708825E+02  0.0000000E+00
Ar  156  0.4032276E+00  0.1962389E+02  0.4702705E+02  0.0000000E+00
Ar  157  0.2927540E+00  0.1682750E+02  0.4967275E+02  0.0000000E+00
Ar  158  0.2941842E+01  0.1933538E+02  0.4943722E+02  0.0000000E+00
Ar  159  0.2886456E+01  0.1695855E+02  0.5234595E+02  0.0000000E+00
Ar  160  0.5508978E+02  0.1996246E+02  0.5253814E+02  0.0000000E+00
Ar  161  0.1068873E+00  0.2180559E+02  0.1068916E+00  0.0000000E+00
Ar  162  0.2705117E+01  0.2490362E+02  0.1109634E+00  0.0000000E+00
Ar  163  0.2729480E+01  0.2216608E+02  0.2729472E+01  0.0000000E+00
Ar  164  0.1109796E+00  0.2490370E+02  0.2705017E+01  0.0000000E+00
Ar  165  0.1321094E+00  0.2223111E+02  0.5909748E+01  0.0000000E+00
Ar  166  0.3019490E+01  0.2504395E+02  0.5638760E+01  0.0000000E+00
Ar  167  0.2905590E+01  0.2208456E+02  0.8348608E+01  0.0000000E+00
Ar  168  0.2598355E+00  0.2524973E+02  0.8239694E+01  0.0000000E+00
Ar  169  0.1957459E+00  0.2251566E+02  0.1116992E+02  0.0000000E+00
Ar  170  0.2828241E+01  0.2495539E+02  0.1093783E+02  0.0000000E+00
Ar  171  0.2942844E+01  0.2241595E+02  0.1401632E+02  0.0000000E+00
Ar  172  0.5485942E+02  0.2503086E+02  0.1363120E+02  0.0000000E+00
Ar  173  0.1390311E+00  0.2176878E+02  0.1630440E+02  0.0000000E+00
Ar  174  0.2731267E+01  0.2489073E+02  0.1664397E+02  0.0000000E+00
Ar  175  0.2659397E+01  0.2189055E+02  0.1937319E+02  0.0000000E+00
Ar  176  0.5509179E+02  0.2513544E+02  0.1943629E+02  0.0000000E+00
Ar  177  0.5508799E+02  0.2218420E+02  0.2218420E+02  0.0000000E+00
Ar  178  0.2716948E+01  0.2495019E+02  0.2171350E+02  0.0000000E+00
Ar  179  0.2716952E+01  0.2171350E+02  0.2495019E+02  0.0000000E+00
Ar  180  0.8059022E+00  0.2482610E+02  0.2482610E+02  0.0000000E+00
Ar  181  0.2792773E+00  0.2186863E+02  0.2785454E+02  0.0000000E+00
Ar  182  0.2867485E+01  0.2484465E+02  0.2773296E+02  0.0000000E+00
Ar  183  0.2904582E+01  0.2208045E+02  0.3064925E+02  0.0000000E+00
Ar  184  0.1822193E+00  0.2482946E+02  0.3036485E+02  0.0000000E+00
Ar  185  0.5494650E+02  0.2223415E+02  0.3321453E+02  0.0000000E+00
Ar  186  0.3033043E+01  0.2482714E+02  0.3339423E+02  0.0000000E+00
Ar  187  0.3042888E+01  0.2198722E+02  0.3611382E+02  0.0000000E+00
Ar  188  0.4373138E+00  0.2479170E+02  0.3591347E+02  0.0000000E+00
Ar  189  0.4972105E+00  0.2189738E+02  0.3880747E+02  0.0000000E+00
Ar  190  0.2953169E+01  0.2480984E+02  0.3887212E+02  0.0000000E+00
Ar  191  0.3144044E+01  0.2204553E+02  0.4166433E+02  0.0000000E+00
Ar  192  0.5518558E+02  0.2485064E+02  0.4153856E+02  0.0000000E+00
Ar  193  0.5487846E+02  0.2238740E+02  0.4421381E+02  0.0000000E+00
Ar  194  0.2711857E+01  0.2468726E+02  0.4407931E+02  0.0000000E+00
Ar  195  0.2807853E+01  0.2229909E+02  0.4683087E+02  0.0000000E+00
Ar  196  0.5503993E+02  0.2521900E+02  0.4707172E+02  0.0000000E+00
Ar  197  0.4022276E+00  0.2239998E+02  0.4960411E+02  0.0000000E+00
Ar  198  0.3291065E+01  0.2499430E+02  0.4990072E+02  0.0000000E+00
Ar  199  0.3202317E+01  0.2216808E+02  0.5239633E+02  0.0000000E+00
Ar  200  0.4591237E+00  0.2529893E+02  0.5244948E+02  0.0000000E+00
Ar  201  0.5492949E+02  0.2790016E+02  0.5492980E+02  0.0000000E+00
Ar  202  0.2477930E+01  0.3074320E+02  0.5503381E+02  0.0000000E+00
Ar  203  0.2610973E+01  0.2778366E+02  0.2610942E+01  0.0000000E+00
Ar  204  0.5503416E+02  0.3074294E+02  0.2478245E+01  0.0000000E+00
Ar  205  0.4366525E+00  0.2771950E+02  0.5333158E+01  0.0000000E+00
Ar  206  0.2784468E+01  0.3054447E+02  0.5632693E+01  0.0000000E+00
Ar  207  0.2808787E+01  0.2780966E+02  0.8064206E+01  0.0000000E+00
Ar  208  0.1884987E+00  0.3031250E+02  0.7956081E+01  0.0000000E+00
Ar  209  0.3189233E+00  0.2788849E+02  0.1107556E+02  0.0000000E+00
Ar  210  0.3022394E+01  0.3054946E+02  0.1094970E+02  0.0000000E+00
Ar  211  0.2858921E+01  0.2743996E+02  0.1378130E+02  0.0000000E+00
Ar  212  0.2304909E+00  0.3018727E+02  0.1363310E+02  0.0000000E+00
Ar  213  0.2262317E+00  0.2751387E+02  0.1635721E+02  0.0000000E+00
Ar  214  0.3150815E+01  0.3046440E+02  0.1670128E+02  0.0000000E+00
Ar  215  0.2823196E+01  0.2770094E+02  0.1916391E+02  0.0000000E+00
Ar  216  0.1877041E+00  0.3097620E+02  0.1966965E+02  0.0000000E+00
Ar  217  0.2792805E+00  0.2785454E+02  0.2186863E+02  0.0000000E+00
Ar  218  0.2904581E+01  0.3064926E+02  0.2208045E+02  0.0000000E+00
Ar  219  0.2867485E+01  0.2773296E+02  0.2484465E+02  0.0000000E+00
Ar  220  0.1822202E+00  0.3036485E+02  0.2482946E+02  0.0000000E+00
Ar  221  0.2279137E+00  0.2734404E+02  0.2734404E+02  0.0000000E+00
Ar  222  0.3079931E+01  0.3032295E+02  0.2732186E+02  0.0000000E+00
Ar  223  0.3079929E+01  0.2732186E+02  0.3032295E+02  0.0000000E+00
Ar  224  0.5495792E+02  0.3067759E+02  0.3067759E+02  0.0000000E+00
Ar  225  0.6842420E+00  0.2775893E+02  0.3307058E+02  0.0000000E+00
Ar  226  0.3308836E+01  0.3036432E+02  0.3339179E+02  0.0000000E+00
Ar  227  0.2867950E+01  0.2745921E+02  0.3615058E+02  0.0000000E+00
Ar  228  0.4751967E+00  0.3043372E+02  0.3566164E+02  0.0000000E+00
Ar  229  0.5492312E+02  0.2772373E+02  0.3891864E+02  0.0000000E+00
Ar  230  0.2564115E+01  0.3057398E+02  0.3862054E+02  0.0000000E+00
Ar  231  0.2814876E+01  0.2804483E+02  0.4125989E+02  0.0000000E+00
Ar  232  0.5501912E+02  0.3023782E+02  0.4161581E+02  0.0000000E+00
Ar  233  0.2764223E+00  0.2783068E+02  0.4431445E+02  0.0000000E+00
Ar  234  0.3114608E+01  0.3051077E+02  0.4434111E+02  0.0000000E+00
Ar  235  0.3029848E+01  0.2766675E+02  0.4689205E+02  0.0000000E+00
Ar  236  0.5504614E+02  0.3075093E+02  0.4688002E+02  0.0000000E+00
Ar  237  0.5502843E+02  0.2807725E+02  0.4968325E+02  0.0000000E+00
Ar  238  0.2996750E+01  0.3062427E+02  0.4931754E+02  0.0000000E+00
Ar  239  0.2798563E+01  0.2798047E+02  0.5243993E+02  0.0000000E+00
Ar  240  0.5513902E+02  0.3098792E+02  0.5248356E+02  0.0000000E+00
Ar  241  0.5484951E+02  0.3366872E+02  0.5484897E+02  0.0000000E+00
Ar  242  0.2782776E+01  0.3630035E+02  0.1651092E+00  0.0000000E+00
Ar  243  0.2771697E+01  0.3352976E+02  0.2771723E+01  0.0000000E+00
Ar  244  0.1651203E+00  0.3630034E+02  0.2782776E+01  0.0000000E+00
Ar  245  0.2514806E+00  0.3339965E+02  0.5351763E+01  0.0000000E+00
Ar  246  0.2918136E+01  0.3610684E+02  0.5740153E+01  0.0000000E+00
Ar  247  0.2711712E+01  0.3327912E+02  0.8294466E+01  0.0000000E+00
Ar  248  0.5507396E+02  0.3604441E+02  0.8197853E+01  0.0000000E+00
Ar  249  0.2803517E+00  0.3324132E+02  0.1130943E+02  0.0000000E+00
Ar  250  0.3043655E+01  0.3585239E+02  0.1117269E+02  0.0000000E+00
Ar  251  0.3008074E+01  0.3326813E+02  0.1350889E+02  0.0000000E+00
Ar  252  0.2256678E+00  0.3597633E+02  0.1387633E+02  0.0000000E+00
Ar  253  0.5514845E+02  0.3279834E+02  0.1602766E+02  0.0000000E+00
Ar  254  0.2851300E+01  0.3562040E+02  0.1652509E+02  0.0000000E+00
Ar  255  0.3154332E+01  0.3321382E+02  0.1946126E+02  0.0000000E+00
Ar  256  0.1928433E+00  0.3594493E+02  0.1972156E+02  0.0000000E+00
Ar  257  0.5494651E+02  0.3321454E+02  0.2223415E+02  0.0000000E+00
Ar  258  0.3042887E+01  0.3611382E+02  0.2198721E+02  0.0000000E+00
Ar  259  0.3033042E+01  0.3339424E+02  0.2482714E+02  0.0000000E+00
Ar  260  0.4373129E+00  0.3591347E+02  0.2479170E+02  0.0000000E+00
Ar  261  0.6842445E+00  0.3307059E+02  0.2775893E+02  0.0000000E+00
Ar  262  0.2867956E+01  0.3615059E+02  0.2745921E+02  0.0000000E+00
Ar  263  0.3308837E+01  0.3339179E+02  0.3036433E+02  0.0000000E+00
Ar  264  0.4751957E+00  0.3566165E+02  0.3043372E+02  0.0000000E+00
Ar  265  0.4370623E+00  0.3345713E+02  0.3345713E+02  0.0000000E+00
Ar  266  0.3031575E+01  0.3615031E+02  0.3323678E+02  0.0000000E+00
Ar  267  0.3031576E+01  0.3323678E+02  0.3615031E+02  0.0000000E+00
Ar  268  0.2380839E+00  0.3618822E+02  0.3618823E+02  0.0000000E+00
Ar  269  0.5520570E+02  0.3343043E+02  0.3877769E+02  0.0000000E+00
Ar  270  0.2959007E+01  0.3612461E+02  0.3890426E+02  0.0000000E+00
Ar  271  0.2847791E+01  0.3331998E+02  0.4131096E+02  0.0000000E+00
Ar  272  0.5510896E+02  0.3616413E+02  0.4161161E+02  0.0000000E+00
Ar  273  0.4650844E+00  0.3372027E+02  0.4434302E+02  0.0000000E+00
Ar  274  0.3327844E+01  0.3619776E+02  0.4375675E+02  0.0000000E+00
Ar  275  0.3077085E+01  0.3360205E+02  0.4671102E+02  0.0000000E+00
Ar  276  0.3935165E+00  0.3603272E+02  0.4667294E+02  0.0000000E+00
Ar  277  0.5515213E+02  0.3368753E+02  0.4968385E+02  0.0000000E+00
Ar  278  0.2997943E+01  0.3603538E+02  0.4975120E+02  0.0000000E+00
Ar  279  0.2553427E+01  0.3340082E+02  0.5228391E+02  0.0000000E+00
Ar  280  0.2962492E+00  0.3669324E+02  0.5230455E+02  0.0000000E+00
Ar  281  0.5481250E+02  0.3916882E+02  0.5481250E+02  0.0000000E+00
Ar  282  0.2836090E+01  0.4171170E+02  0.2819429E+00  0.0000000E+00
Ar  283  0.2924568E+01  0.3863076E+02  0.2924568E+01  0.0000000E+00
Ar  284  0.2819490E+00  0.4171170E+02  0.2836086E+01  0.0000000E+00
Ar  285  0.1732846E+00  0.3901061E+02  0.5619895E+01  0.0000000E+00
Ar  286  0.3044411E+01  0.4145171E+02  0.5536517E+01  0.0000000E+00
Ar  287  0.2907455E+01  0.3882174E+02  0.8248910E+01  0.0000000E+00
Ar  288  0.5504164E+02  0.4186995E+02  0.8796419E+01  0.0000000E+00
Ar  289  0.5514720E+02  0.3876761E+02  0.1128942E+02  0.0000000E+00
Ar  290  0.2854564E+01  0.4179221E+02  0.1114742E+02  0.0000000E+00
Ar  291  0.2966066E+01  0.3886250E+02  0.1369386E+02  0.0000000E+00
Ar  292  0.5513558E+02  0.4121557E+02  0.1388543E+02  0.0000000E+00
Ar  293  0.1846950E+00  0.3842458E+02  0.1650147E+02  0.0000000E+00
Ar  294  0.3077546E+01  0.4128257E+02  0.1667683E+02  0.0000000E+00
Ar  295  0.3133899E+01  0.3878051E+02  0.1955892E+02  0.0000000E+00
Ar  296  0.4881585E+00  0.4144568E+02  0.1920788E+02  0.0000000E+00
Ar  297  0.4972014E+00  0.3880745E+02  0.2189740E+02  0.0000000E+00
Ar  298  0.3144082E+01  0.4166433E+02  0.2204555E+02  0.0000000E+00
Ar  299  0.2953169E+01  0.3887212E+02  0.2480984E+02  0.0000000E+00
Ar  300  0.5518560E+02  0.4153855E+02  0.2485065E+02  0.0000000E+00
Ar  301  0.5492311E+02  0.3891865E+02  0.2772374E+02  0.0000000E+00
Ar  302  0.2814879E+01  0.4125989E+02  0.2804482E+02  0.0000000E+00
Ar  303  0.2564118E+01  0.3862054E+02  0.3057399E+02  0.0000000E+00
Ar  304  0.5501912E+02  0.4161581E+02  0.3023782E+02  0.0000000E+00
Ar  305  0.5520570E+02  0.3877769E+02  0.3343043E+02  0.0000000E+00
Ar  306  0.2847790E+01  0.4131096E+02  0.3331998E+02  0.0000000E+00
Ar  307  0.2959009E+01  0.3890426E+02  0.3612461E+02  0.0000000E+00
Ar  308  0.5510896E+02  0.4161161E+02  0.3616413E+02  0.0000000E+00
Ar  309  0.5252535E+00  0.3876783E+02  0.3876782E+02  0.0000000E+00
Ar  310  0.3015560E+01  0.4183584E+02  0.3910227E+02  0.0000000E+00
Ar  311  0.3015560E+01  0.3910227E+02  0.4183584E+02  0.0000000E+00
Ar  312  0.3969094E+00  0.4143232E+02  0.4143232E+02  0.0000000E+00
Ar  313  0.5497684E+02  0.3883542E+02  0.4423096E+02  0.0000000E+00
Ar  314  0.2878342E+01  0.4163172E+02  0.4427137E+02  0.0000000E+00
Ar  315  0.2967123E+01  0.3886573E+02  0.4681308E+02  0.0000000E+00
Ar  316  0.3107710E+00  0.4168472E+02  0.4684483E+02  0.0000000E+00
Ar  317  0.3890939E+00  0.3882438E+02  0.4939356E+02  0.0000000E+00
Ar  318  0.3161913E+01  0.4139088E+02  0.4975697E+02  0.0000000E+00
Ar  319  0.3280460E+01  0.3913051E+02  0.5243571E+02  0.0000000E+00
Ar  320  0.5526563E+02  0.4103895E+02  0.5185031E+02  0.0000000E+00
Ar  321  0.5474290E+02  0.4428611E+02  0.5474291E+02  0.0000000E+00
Ar  322  0.3102603E+01  0.4729270E+02  0.2998353E+00  0.0000000E+00
Ar  323  0.3122457E+01  0.4418958E+02  0.3122456E+01  0.0000000E+00
Ar  324  0.2998254E+00  0.4729270E+02  0.3102610E+01  0.0000000E+00
Ar  325  0.2867445E+00  0.4405257E+02  0.5635321E+01  0.0000000E+00
Ar  326  0.2854726E+01  0.4696598E+02  0.5532834E+01  0.0000000E+00
Ar  327  0.2925389E+01  0.4410555E+02  0.8276096E+01  0.0000000E+00
Ar  328  0.5510322E+02  0.4722157E+02  0.8670891E+01  0.0000000E+00
Ar  329  0.5511077E+02  0.4429523E+02  0.1147277E+02  0.0000000E+00
Ar  330  0.2834286E+01  0.4662804E+02  0.1136432E+02  0.0000000E+00
Ar  331  0.2669436E+01  0.4417772E+02  0.1448187E+02  0.0000000E+00
Ar  332  0.5497277E+02  0.4684189E+02  0.1420925E+02  0.0000000E+00
Ar  333  0.5028081E+00  0.4420428E+02  0.1715175E+02  0.0000000E+00
Ar  334  0.2903287E+01  0.4708806E+02  0.1653247E+02  0.0000000E+00
Ar  335  0.3037631E+01  0.4432124E+02  0.1942013E+02  0.0000000E+00
Ar  336  0.4031711E+00  0.4702620E+02  0.1962302E+02  0.0000000E+00
Ar  337  0.5487845E+02  0.4421388E+02  0.2238742E+02  0.0000000E+00
Ar  338  0.2807627E+01  0.4683104E+02  0.2229888E+02  0.0000000E+00
Ar  339  0.2711834E+01  0.4407935E+02  0.2468725E+02  0.0000000E+00
Ar  340  0.5503989E+02  0.4707165E+02  0.2521896E+02  0.0000000E+00
Ar  341  0.2764324E+00  0.4431447E+02  0.2783070E+02  0.0000000E+00
Ar  342  0.3029843E+01  0.4689209E+02  0.2766672E+02  0.0000000E+00
Ar  343  0.3114611E+01  0.4434112E+02  0.3051075E+02  0.0000000E+00
Ar  344  0.5504614E+02  0.4688002E+02  0.3075093E+02  0.0000000E+00
Ar  345  0.4650889E+00  0.4434303E+02  0.3372027E+02  0.0000000E+00
Ar  346  0.3077087E+01  0.4671102E+02  0.3360205E+02  0.0000000E+00
Ar  347  0.3327840E+01  0.4375675E+02  0.3619776E+02  0.0000000E+00
Ar  348  0.3935158E+00  0.4667294E+02  0.3603272E+02  0.0000000E+00
Ar  349  0.5497684E+02  0.4423096E+02  0.3883542E+02  0.0000000E+00
Ar  350  0.2967124E+01  0.4681309E+02  0.3886573E+02  0.0000000E+00
Ar  351  0.2878344E+01  0.4427137E+02  0.4163172E+02  0.0000000E+00
Ar  352  0.3107702E+00  0.4684483E+02  0.4168472E+02  0.0000000E+00
Ar  353  0.3160784E+00  0.4399327E+02  0.4399327E+02  0.0000000E+00
Ar  354  0.2980152E+01  0.4708771E+02  0.4427922E+02  0.0000000E+00
Ar  355  0.2980155E+01  0.4427922E+02  0.4708771E+02  0.0000000E+00
Ar  356  0.3282645E+00  0.4702218E+02  0.4702218E+02  0.0000000E+00
Ar  357  0.4419282E+00  0.4421291E+02  0.4993556E+02  0.0000000E+00
Ar  358  0.3097688E+01  0.4712284E+02  0.4978895E+02  0.0000000E+00
Ar  359  0.3021666E+01  0.4416360E+02  0.5246374E+02  0.0000000E+00
Ar  360  0.3455467E+00  0.4691431E+02  0.5218905E+02  0.0000000E+00
Ar  361  0.5514365E+02  0.4960947E+02  0.5514365E+02  0.0000000E+00
Ar  362  0.2802860E+01  0.5244931E+02  0.2013845E+00  0.0000000E+00
Ar  363  0.3078123E+01  0.4976989E+02  0.3078127E+01  0.0000000E+00
Ar  364  0.2013898E+00  0.5244930E+02  0.2802845E+01  0.0000000E+00
Ar  365  0.4303499E+00  0.4980162E+02  0.5806692E+01  0.0000000E+00
Ar  366  0.3129778E+01  0.5257449E+02  0.5670386E+01  0.0000000E+00
Ar  367  0.3100505E+01  0.4966163E+02  0.8525435E+01  0.0000000E+00
Ar  368  0.5513620E+02  0.5265376E+02  0.8457849E+01  0.0000000E+00
Ar  369  0.3001821E+00  0.4928018E+02  0.1161643E+02  0.0000000E+00
Ar  370  0.2711120E+01  0.5251393E+02  0.1086007E+02  0.0000000E+00
Ar  371  0.2948148E+01  0.4969886E+02  0.1377937E+02  0.0000000E+00
Ar  372  0.2614226E+00  0.5242794E+02  0.1413728E+02  0.0000000E+00
Ar  373  0.2927933E+00  0.4967274E+02  0.1682743E+02  0.0000000E+00
Ar  374  0.2886421E+01  0.5234590E+02  0.1695856E+02  0.0000000E+00
Ar  375  0.2941701E+01  0.4943713E+02  0.1933548E+02  0.0000000E+00
Ar  376  0.5508984E+02  0.5253792E+02  0.1996254E+02  0.0000000E+00
Ar  377  0.4020852E+00  0.4960408E+02  0.2240000E+02  0.0000000E+00
Ar  378  0.3202491E+01  0.5239642E+02  0.2216802E+02  0.0000000E+00
Ar  379  0.3291069E+01  0.4990068E+02  0.2499433E+02  0.0000000E+00
Ar  380  0.4590719E+00  0.5244963E+02  0.2529899E+02  0.0000000E+00
Ar  381  0.5502836E+02  0.4968090E+02  0.2807503E+02  0.0000000E+00
Ar  382  0.2798682E+01  0.5243983E+02  0.2798025E+02  0.0000000E+00
Ar  383  0.2996760E+01  0.4931743E+02  0.3062425E+02  0.0000000E+00
Ar  384  0.5513888E+02  0.5248599E+02  0.3099047E+02  0.0000000E+00
Ar  385  0.5515213E+02  0.4968384E+02  0.3368753E+02  0.0000000E+00
Ar  386  0.2553561E+01  0.5228388E+02  0.3340090E+02  0.0000000E+00
Ar  387  0.2997945E+01  0.4975120E+02  0.3603537E+02  0.0000000E+00
Ar  388  0.2962537E+00  0.5230455E+02  0.3669324E+02  0.0000000E+00
Ar  389  0.3890939E+00  0.4939355E+02  0.3882438E+02  0.0000000E+00
Ar  390  0.3280466E+01  0.5243571E+02  0.3913051E+02  0.0000000E+00
Ar  391  0.3161914E+01  0.4975697E+02  0.4139088E+02  0.0000000E+00
Ar  392  0.5526563E+02  0.5185031E+02  0.4103895E+02  0.0000000E+00
Ar  393  0.4419306E+00  0.4993556E+02  0.4421290E+02  0.0000000E+00
Ar  394  0.3021667E+01  0.5246373E+02  0.4416360E+02  0.0000000E+00
Ar  395  0.3097692E+01  0.4978895E+02  0.4712284E+02  0.0000000E+00
Ar  396  0.3455478E+00  0.5218905E+02  0.4691431E+02  0.0000000E+00
Ar  397  0.5508769E+02  0.4981902E+02  0.4981903E+02  0.0000000E+00
Ar  398  0.2913531E+01  0.5250851E+02  0.4976940E+02  0.0000000E+00
Ar  399  0.2913533E+01  0.4976941E+02  0.5250851E+02  0.0000000E+00
Ar  400  0.5529135E+02  0.5263259E+02  0.5263259E+02  0.0000000E+00
Ar  401  0.5646328E+01  0.2621750E+00  0.2621758E+00  0.0000000E+00
Ar  402  0.8316774E+01  0.2993527E+01  0.2849430E+00  0.0000000E+00
Ar  403  0.8316766E+01  0.2849359E+00  0.2993528E+01  0.0000000E+00
Ar  404  0.6096728E+01  0.3042153E+01  0.3042160E+01  0.0000000E+00
Ar  405  0.6048726E+01  0.2255634E+00  0.6048731E+01  0.0000000E+00
Ar  406  0.8412927E+01  0.3325714E+01  0.5663745E+01  0.0000000E+00
Ar  407  0.8790386E+01  0.5482728E+02  0.8790400E+01  0.0000000E+00
Ar  408  0.5663744E+01  0.3325710E+01  0.8412928E+01  0.0000000E+00
Ar  409  0.5366790E+01  0.2107848E+00  0.1086881E+02  0.0000000E+00
Ar  410  0.8082795E+01  0.2851390E+01  0.1095618E+02  0.0000000E+00
Ar  411  0.8473943E+01  0.2043364E+00  0.1397684E+02  0.0000000E+00
Ar  412  0.5480229E+01  0.2728621E+01  0.1423633E+02  0.0000000E+00
Ar  413  0.5801219E+01  0.5482347E+02  0.1675354E+02  0.0000000E+00
Ar  414  0.8484500E+01  0.2903999E+01  0.1697932E+02  0.0000000E+00
Ar  415  0.8205610E+01  0.1354909E+00  0.1932506E+02  0.0000000E+00
Ar  416  0.5410920E+01  0.2583579E+01  0.1952205E+02  0.0000000E+00
Ar  417  0.5909756E+01  0.1321086E+00  0.2223113E+02  0.0000000E+00
Ar  418  0.8348617E+01  0.2905591E+01  0.2208456E+02  0.0000000E+00
Ar  419  0.8239702E+01  0.2598373E+00  0.2524974E+02  0.0000000E+00
Ar  420  0.5638736E+01  0.3019544E+01  0.2504396E+02  0.0000000E+00
Ar  421  0.5333162E+01  0.4366401E+00  0.2771951E+02  0.0000000E+00
Ar  422  0.8064204E+01  0.2808784E+01  0.2780967E+02  0.0000000E+00
Ar  423  0.7956080E+01  0.1885028E+00  0.3031250E+02  0.0000000E+00
Ar  424  0.5632687E+01  0.2784468E+01  0.3054447E+02  0.0000000E+00
Ar  425  0.5351773E+01  0.2514964E+00  0.3339967E+02  0.0000000E+00
Ar  426  0.8294476E+01  0.2711721E+01  0.3327912E+02  0.0000000E+00
Ar  427  0.8197839E+01  0.5507395E+02  0.3604439E+02  0.0000000E+00
Ar  428  0.5740148E+01  0.2918137E+01  0.3610684E+02  0.0000000E+00
Ar  429  0.5619911E+01  0.1732744E+00  0.3901061E+02  0.0000000E+00
Ar  430  0.8248891E+01  0.2907458E+01  0.3882172E+02  0.0000000E+00
Ar  431  0.8796410E+01  0.5504164E+02  0.4186994E+02  0.0000000E+00
Ar  432  0.5536514E+01  0.3044410E+01  0.4145171E+02  0.0000000E+00
Ar  433  0.5635327E+01  0.2867431E+00  0.4405256E+02  0.0000000E+00
Ar  434  0.8276093E+01  0.2925394E+01  0.4410555E+02  0.0000000E+00
Ar  435  0.8670889E+01  0.5510322E+02  0.4722155E+02  0.0000000E+00
Ar  436  0.5532833E+01  0.2854721E+01  0.4696599E+02  0.0000000E+00
Ar  437  0.5806713E+01  0.4303336E+00  0.4980161E+02  0.0000000E+00
Ar  438  0.8525430E+01  0.3100506E+01  0.4966162E+02  0.0000000E+00
Ar  439  0.8457862E+01  0.5513618E+02  0.5265375E+02  0.0000000E+00
Ar  440  0.5670393E+01  0.3129776E+01  0.5257449E+02  0.0000000E+00
Ar  441  0.6048722E+01  0.6048722E+01  0.2255573E+00  0.0000000E+00
Ar  442  0.8790385E+01  0.8790395E+01  0.5482730E+02  0.0000000E+00
Ar  443  0.8412934E+01  0.5663740E+01  0.3325715E+01  0.0000000E+00
Ar  444  0.5663752E+01  0.8412911E+01  0.3325707E+01  0.0000000E+00
Ar  445  0.5584530E+01  0.5584527E+01  0.5584534E+01  0.0000000E+00
Ar  446  0.8278276E+01  0.8278276E+01  0.5695347E+01  0.0000000E+00
Ar  447  0.8278275E+01  0.5695343E+01  0.8278277E+01  0.0000000E+00
Ar  448  0.5695343E+01  0.8278277E+01  0.8278291E+01  0.0000000E+00
Ar  449  0.5421846E+01  0.5421853E+01  0.1161527E+02  0.0000000E+00
Ar  450  0.8104960E+01  0.8104962E+01  0.1172669E+02  0.0000000E+00
Ar  451  0.8173302E+01  0.5384945E+01  0.1421119E+02  0.0000000E+00
Ar  452  0.5384939E+01  0.8173308E+01  0.1421119E+02  0.0000000E+00
Ar  453  0.5373747E+01  0.5373741E+01  0.1716580E+02  0.0000000E+00
Ar  454  0.8010719E+01  0.8010716E+01  0.1697072E+02  0.0000000E+00
Ar  455  0.8143680E+01  0.5522844E+01  0.1966105E+02  0.0000000E+00
Ar  456  0.5522850E+01  0.8143677E+01  0.1966105E+02  0.0000000E+00
Ar  457  0.5445588E+01  0.5445584E+01  0.2184165E+02  0.0000000E+00
Ar  458  0.8207421E+01  0.8207417E+01  0.2218352E+02  0.0000000E+00
Ar  459  0.8319899E+01  0.5748976E+01  0.2476627E+02  0.0000000E+00
Ar  460  0.5748973E+01  0.8319905E+01  0.2476627E+02  0.0000000E+00
Ar  461  0.5534975E+01  0.5534971E+01  0.2770979E+02  0.0000000E+00
Ar  462  0.8050909E+01  0.8050904E+01  0.2792095E+02  0.0000000E+00
Ar  463  0.8111891E+01  0.5575914E+01  0.3081315E+02  0.0000000E+00
Ar  464  0.5575908E+01  0.8111900E+01  0.3081316E+02  0.0000000E+00
Ar  465  0.5526682E+01  0.5526679E+01  0.3339017E+02  0.0000000E+00
Ar  466  0.8363394E+01  0.8363398E+01  0.3336984E+02  0.0000000E+00
Ar  467  0.8282886E+01  0.5743285E+01  0.3604631E+02  0.0000000E+00
Ar  468  0.5743281E+01  0.8282887E+01  0.3604630E+02  0.0000000E+00
Ar  469  0.5564593E+01  0.5564592E+01  0.3879855E+02  0.0000000E+00
Ar  470  0.8203324E+01  0.8203337E+01  0.3896132E+02  0.0000000E+00
Ar  471  0.8166320E+01  0.5524474E+01  0.4151927E+02  0.0000000E+00
Ar  472  0.5524478E+01  0.8166316E+01  0.4151928E+02  0.0000000E+00
Ar  473  0.5695440E+01  0.5695430E+01  0.4426730E+02  0.0000000E+00
Ar  474  0.8275886E+01  0.8275890E+01  0.4391402E+02  0.0000000E+00
Ar  475  0.8331373E+01  0.5522262E+01  0.4667033E+02  0.0000000E+00
Ar  476  0.5522266E+01  0.8331360E+01  0.4667033E+02  0.0000000E+00
Ar  477  0.5753966E+01  0.5753970E+01  0.4932654E+02  0.0000000E+00
Ar  478  0.8422087E+01  0.8422095E+01  0.4934492E+02  0.0000000E+00
Ar  479  0.8391573E+01  0.5714018E+01  0.5223049E+02  0.0000000E+00
Ar  480  0.5714020E+01  0.8391572E+01  0.5223050E+02  0.0000000E+00
Ar  481  0.5366798E+01  0.1086881E+02  0.2107874E+00  0.0000000E+00
Ar  482  0.8473962E+01  0.1397684E+02  0.2043365E+00  0.0000000E+00
Ar  483  0.8082795E+01  0.1095619E+02  0.2851390E+01  0.0000000E+00
Ar  484  0.5480262E+01  0.1423646E+02  0.2728522E+01  0.0000000E+00
Ar  485  0.5421848E+01  0.1161528E+02  0.5421835E+01  0.0000000E+00
Ar  486  0.8173300E+01  0.1421118E+02  0.5384948E+01  0.0000000E+00
Ar  487  0.8104955E+01  0.1172669E+02  0.8104956E+01  0.0000000E+00
Ar  488  0.5384938E+01  0.1421118E+02  0.8173310E+01  0.0000000E+00
Ar  489  0.5385621E+01  0.1085698E+02  0.1085697E+02  0.0000000E+00
Ar  490  0.7921884E+01  0.1392041E+02  0.1112282E+02  0.0000000E+00
Ar  491  0.7921885E+01  0.1112282E+02  0.1392042E+02  0.0000000E+00
Ar  492  0.5688638E+01  0.1385465E+02  0.1385465E+02  0.0000000E+00
Ar  493  0.5691266E+01  0.1111340E+02  0.1693236E+02  0.0000000E+00
Ar  494  0.8064477E+01  0.1396709E+02  0.1691075E+02  0.0000000E+00
Ar  495  0.8077686E+01  0.1094873E+02  0.1962339E+02  0.0000000E+00
Ar  496  0.5733729E+01  0.1397095E+02  0.1951720E+02  0.0000000E+00
Ar  497  0.5441771E+01  0.1124426E+02  0.2220056E+02  0.0000000E+00
Ar  498  0.8472781E+01  0.1389028E+02  0.2214367E+02  0.0000000E+00
Ar  499  0.8529004E+01  0.1105998E+02  0.2463707E+02  0.0000000E+00
Ar  500  0.5669149E+01  0.1382017E+02  0.2484956E+02  0.0000000E+00
Ar  501  0.5682380E+01  0.1104138E+02  0.2743330E+02  0.0000000E+00
Ar  502  0.8482904E+01  0.1362600E+02  0.2779794E+02  0.0000000E+00
Ar  503  0.8054780E+01  0.1097240E+02  0.3056211E+02  0.0000000E+00
Ar  504  0.5502657E+01  0.1373848E+02  0.3007089E+02  0.0000000E+00
Ar  505  0.5473541E+01  0.1076721E+02  0.3323459E+02  0.0000000E+00
Ar  506  0.8205515E+01  0.1355856E+02  0.3309542E+02  0.0000000E+00
Ar  507  0.8250813E+01  0.1100623E+02  0.3584630E+02  0.0000000E+00
Ar  508  0.5465035E+01  0.1372660E+02  0.3582357E+02  0.0000000E+00
Ar  509  0.5614434E+01  0.1098306E+02  0.3857128E+02  0.0000000E+00
Ar  510  0.8308889E+01  0.1353041E+02  0.3832203E+02  0.0000000E+00
Ar  511  0.8343153E+01  0.1098266E+02  0.4143309E+02  0.0000000E+00
Ar  512  0.5854065E+01  0.1373772E+02  0.4132401E+02  0.0000000E+00
Ar  513  0.5734791E+01  0.1136420E+02  0.4394947E+02  0.0000000E+00
Ar  514  0.8424872E+01  0.1397075E+02  0.4460762E+02  0.0000000E+00
Ar  515  0.8361074E+01  0.1097470E+02  0.4676818E+02  0.0000000E+00
Ar  516  0.5637490E+01  0.1376788E+02  0.4686274E+02  0.0000000E+00
Ar  517  0.5705612E+01  0.1112417E+02  0.4932397E+02  0.0000000E+00
Ar  518  0.8283072E+01  0.1380372E+02  0.4948171E+02  0.0000000E+00
Ar  519  0.8460376E+01  0.1113529E+02  0.5198863E+02  0.0000000E+00
Ar  520  0.5574987E+01  0.1371567E+02  0.5244374E+02  0.0000000E+00
Ar  521  0.5800457E+01  0.1675231E+02  0.5482274E+02  0.0000000E+00
Ar  522  0.8205598E+01  0.1932512E+02  0.1354957E+00  0.0000000E+00
Ar  523  0.8484688E+01  0.1697935E+02  0.2904158E+01  0.0000000E+00
Ar  524  0.5410828E+01  0.1952250E+02  0.2584273E+01  0.0000000E+00
Ar  525  0.5373753E+01  0.1716577E+02  0.5373769E+01  0.0000000E+00
Ar  526  0.8143672E+01  0.1966104E+02  0.5522880E+01  0.0000000E+00
Ar  527  0.8010716E+01  0.1697071E+02  0.8010716E+01  0.0000000E+00
Ar  528  0.5522854E+01  0.1966106E+02  0.8143668E+01  0.0000000E+00
Ar  529  0.5691266E+01  0.1693236E+02  0.1111340E+02  0.0000000E+00
Ar  530  0.8077686E+01  0.1962339E+02  0.1094872E+02  0.0000000E+00
Ar  531  0.8064476E+01  0.1691075E+02  0.1396709E+02  0.0000000E+00
Ar  532  0.5733727E+01  0.1951720E+02  0.1397095E+02  0.0000000E+00
Ar  533  0.5688550E+01  0.1676251E+02  0.1676250E+02  0.0000000E+00
Ar  534  0.8281197E+01  0.1923300E+02  0.1676690E+02  0.0000000E+00
Ar  535  0.8281196E+01  0.1676691E+02  0.1923300E+02  0.0000000E+00
Ar  536  0.5789433E+01  0.1970918E+02  0.1970918E+02  0.0000000E+00
Ar  537  0.5814547E+01  0.1681662E+02  0.2205873E+02  0.0000000E+00
Ar  538  0.8446815E+01  0.1931451E+02  0.2221873E+02  0.0000000E+00
Ar  539  0.8428431E+01  0.1642542E+02  0.2508722E+02  0.0000000E+00
Ar  540  0.5583086E+01  0.1918517E+02  0.2477553E+02  0.0000000E+00
Ar  541  0.5555258E+01  0.1648535E+02  0.2753774E+02  0.0000000E+00
Ar  542  0.8159947E+01  0.1893081E+02  0.2774528E+02  0.0000000E+00
Ar  543  0.8386785E+01  0.1620440E+02  0.3034024E+02  0.0000000E+00
Ar  544  0.5853211E+01  0.1921510E+02  0.3048200E+02  0.0000000E+00
Ar  545  0.5657373E+01  0.1634756E+02  0.3305165E+02  0.0000000E+00
Ar  546  0.8291310E+01  0.1952501E+02  0.3307876E+02  0.0000000E+00
Ar  547  0.8198433E+01  0.1635834E+02  0.3578125E+02  0.0000000E+00
Ar  548  0.5776869E+01  0.1914619E+02  0.3612918E+02  0.0000000E+00
Ar  549  0.5738153E+01  0.1650306E+02  0.3867739E+02  0.0000000E+00
Ar  550  0.8364104E+01  0.1963284E+02  0.3880364E+02  0.0000000E+00
Ar  551  0.8235521E+01  0.1668449E+02  0.4141686E+02  0.0000000E+00
Ar  552  0.5631728E+01  0.1930261E+02  0.4166074E+02  0.0000000E+00
Ar  553  0.5740380E+01  0.1672464E+02  0.4444376E+02  0.0000000E+00
Ar  554  0.8426096E+01  0.1934231E+02  0.4410567E+02  0.0000000E+00
Ar  555  0.8418557E+01  0.1661054E+02  0.4692481E+02  0.0000000E+00
Ar  556  0.5703585E+01  0.1926908E+02  0.4711375E+02  0.0000000E+00
Ar  557  0.5742497E+01  0.1657489E+02  0.4962292E+02  0.0000000E+00
Ar  558  0.8380578E+01  0.1935318E+02  0.4990522E+02  0.0000000E+00
Ar  559  0.8617422E+01  0.1648902E+02  0.5245807E+02  0.0000000E+00
Ar  560  0.5698878E+01  0.1936003E+02  0.5229890E+02  0.0000000E+00
Ar  561  0.5909708E+01  0.2223113E+02  0.1321154E+00  0.0000000E+00
Ar  562  0.8239791E+01  0.2524981E+02  0.2598302E+00  0.0000000E+00
Ar  563  0.8348770E+01  0.2208457E+02  0.2905717E+01  0.0000000E+00
Ar  564  0.5638821E+01  0.2504405E+02  0.3019641E+01  0.0000000E+00
Ar  565  0.5445574E+01  0.2184173E+02  0.5445627E+01  0.0000000E+00
Ar  566  0.8319912E+01  0.2476627E+02  0.5748981E+01  0.0000000E+00
Ar  567  0.8207422E+01  0.2218352E+02  0.8207415E+01  0.0000000E+00
Ar  568  0.5748970E+01  0.2476627E+02  0.8319897E+01  0.0000000E+00
Ar  569  0.5441769E+01  0.2220056E+02  0.1124425E+02  0.0000000E+00
Ar  570  0.8529003E+01  0.2463707E+02  0.1105998E+02  0.0000000E+00
Ar  571  0.8472776E+01  0.2214367E+02  0.1389028E+02  0.0000000E+00
Ar  572  0.5669150E+01  0.2484956E+02  0.1382017E+02  0.0000000E+00
Ar  573  0.5814548E+01  0.2205873E+02  0.1681662E+02  0.0000000E+00
Ar  574  0.8428431E+01  0.2508722E+02  0.1642542E+02  0.0000000E+00
Ar  575  0.8446814E+01  0.2221873E+02  0.1931451E+02  0.0000000E+00
Ar  576  0.5583090E+01  0.2477554E+02  0.1918517E+02  0.0000000E+00
Ar  577  0.5298046E+01  0.2218365E+02  0.2218365E+02  0.0000000E+00
Ar  578  0.8370417E+01  0.2486782E+02  0.2207066E+02  0.0000000E+00
Ar  579  0.8370416E+01  0.2207066E+02  0.2486781E+02  0.0000000E+00
Ar  580  0.5690118E+01  0.2464852E+02  0.2464852E+02  0.0000000E+00
Ar  581  0.5793067E+01  0.2186941E+02  0.2771434E+02  0.0000000E+00
Ar  582  0.8475608E+01  0.2488898E+02  0.2760365E+02  0.0000000E+00
Ar  583  0.8516110E+01  0.2215440E+02  0.3021133E+02  0.0000000E+00
Ar  584  0.5838582E+01  0.2473618E+02  0.3054329E+02  0.0000000E+00
Ar  585  0.5773047E+01  0.2228163E+02  0.3337366E+02  0.0000000E+00
Ar  586  0.8307991E+01  0.2479321E+02  0.3327655E+02  0.0000000E+00
Ar  587  0.8364135E+01  0.2191476E+02  0.3592699E+02  0.0000000E+00
Ar  588  0.5734281E+01  0.2502152E+02  0.3582622E+02  0.0000000E+00
Ar  589  0.5762378E+01  0.2215271E+02  0.3873448E+02  0.0000000E+00
Ar  590  0.8471719E+01  0.2470861E+02  0.3867130E+02  0.0000000E+00
Ar  591  0.8422888E+01  0.2217493E+02  0.4155904E+02  0.0000000E+00
Ar  592  0.5830921E+01  0.2478674E+02  0.4155781E+02  0.0000000E+00
Ar  593  0.5695318E+01  0.2226778E+02  0.4438636E+02  0.0000000E+00
Ar  594  0.8546644E+01  0.2484497E+02  0.4430579E+02  0.0000000E+00
Ar  595  0.8252766E+01  0.2180702E+02  0.4700074E+02  0.0000000E+00
Ar  596  0.5763259E+01  0.2505069E+02  0.4714131E+02  0.0000000E+00
Ar  597  0.5860087E+01  0.2204745E+02  0.4975511E+02  0.0000000E+00
Ar  598  0.8465171E+01  0.2533562E+02  0.4966123E+02  0.0000000E+00
Ar  599  0.8342032E+01  0.2209465E+02  0.5258006E+02  0.0000000E+00
Ar  600  0.5609583E+01  0.2509335E+02  0.5251565E+02  0.0000000E+00
Ar  601  0.5333237E+01  0.2771951E+02  0.4367114E+00  0.0000000E+00
Ar  602  0.7956098E+01  0.3031249E+02  0.1885228E+00  0.0000000E+00
Ar  603  0.8064254E+01  0.2780973E+02  0.2808818E+01  0.0000000E+00
Ar  604  0.5632685E+01  0.3054447E+02  0.2784472E+01  0.0000000E+00
Ar  605  0.5534955E+01  0.2770987E+02  0.5535042E+01  0.0000000E+00
Ar  606  0.8111893E+01  0.3081314E+02  0.5575911E+01  0.0000000E+00
Ar  607  0.8050915E+01  0.2792095E+02  0.8050908E+01  0.0000000E+00
Ar  608  0.5575909E+01  0.3081315E+02  0.8111899E+01  0.0000000E+00
Ar  609  0.5682374E+01  0.2743330E+02  0.1104138E+02  0.0000000E+00
Ar  610  0.8054777E+01  0.3056211E+02  0.1097240E+02  0.0000000E+00
Ar  611  0.8482903E+01  0.2779794E+02  0.1362600E+02  0.0000000E+00
Ar  612  0.5502654E+01  0.3007089E+02  0.1373848E+02  0.0000000E+00
Ar  613  0.5555256E+01  0.2753774E+02  0.1648535E+02  0.0000000E+00
Ar  614  0.8386784E+01  0.3034024E+02  0.1620440E+02  0.0000000E+00
Ar  615  0.8159943E+01  0.2774528E+02  0.1893081E+02  0.0000000E+00
Ar  616  0.5853212E+01  0.3048200E+02  0.1921509E+02  0.0000000E+00
Ar  617  0.5793067E+01  0.2771434E+02  0.2186942E+02  0.0000000E+00
Ar  618  0.8516112E+01  0.3021133E+02  0.2215440E+02  0.0000000E+00
Ar  619  0.8475612E+01  0.2760365E+02  0.2488897E+02  0.0000000E+00
Ar  620  0.5838585E+01  0.3054329E+02  0.2473618E+02  0.0000000E+00
Ar  621  0.5876579E+01  0.2758056E+02  0.2758056E+02  0.0000000E+00
Ar  622  0.8540997E+01  0.3032667E+02  0.2746167E+02  0.0000000E+00
Ar  623  0.8540993E+01  0.2746167E+02  0.3032667E+02  0.0000000E+00
Ar  624  0.5392623E+01  0.3018799E+02  0.3018799E+02  0.0000000E+00
Ar  625  0.5654400E+01  0.2784318E+02  0.3342147E+02  0.0000000E+00
Ar  626  0.8536400E+01  0.3025995E+02  0.3294674E+02  0.0000000E+00
Ar  627  0.8465684E+01  0.2765034E+02  0.3587295E+02  0.0000000E+00
Ar  628  0.5811810E+01  0.3034055E+02  0.3622052E+02  0.0000000E+00
Ar  629  0.5670494E+01  0.2751038E+02  0.3864720E+02  0.0000000E+00
Ar  630  0.8576350E+01  0.3033842E+02  0.3879356E+02  0.0000000E+00
Ar  631  0.8425422E+01  0.2761882E+02  0.4121082E+02  0.0000000E+00
Ar  632  0.5644225E+01  0.3075443E+02  0.4108941E+02  0.0000000E+00
Ar  633  0.5493798E+01  0.2747733E+02  0.4395983E+02  0.0000000E+00
Ar  634  0.8096097E+01  0.3020615E+02  0.4393851E+02  0.0000000E+00
Ar  635  0.8319186E+01  0.2801288E+02  0.4681421E+02  0.0000000E+00
Ar  636  0.5814620E+01  0.3052595E+02  0.4705155E+02  0.0000000E+00
Ar  637  0.5804797E+01  0.2786085E+02  0.4969222E+02  0.0000000E+00
Ar  638  0.8368556E+01  0.3068424E+02  0.4972308E+02  0.0000000E+00
Ar  639  0.8429086E+01  0.2762972E+02  0.5252954E+02  0.0000000E+00
Ar  640  0.5732945E+01  0.3076902E+02  0.5204119E+02  0.0000000E+00
Ar  641  0.5351784E+01  0.3339970E+02  0.2515175E+00  0.0000000E+00
Ar  642  0.8197843E+01  0.3604438E+02  0.5507395E+02  0.0000000E+00
Ar  643  0.8294477E+01  0.3327912E+02  0.2711723E+01  0.0000000E+00
Ar  644  0.5740146E+01  0.3610684E+02  0.2918139E+01  0.0000000E+00
Ar  645  0.5526679E+01  0.3339017E+02  0.5526679E+01  0.0000000E+00
Ar  646  0.8282885E+01  0.3604631E+02  0.5743283E+01  0.0000000E+00
Ar  647  0.8363395E+01  0.3336984E+02  0.8363395E+01  0.0000000E+00
Ar  648  0.5743281E+01  0.3604631E+02  0.8282887E+01  0.0000000E+00
Ar  649  0.5473539E+01  0.3323459E+02  0.1076721E+02  0.0000000E+00
Ar  650  0.8250816E+01  0.3584631E+02  0.1100624E+02  0.0000000E+00
Ar  651  0.8205512E+01  0.3309542E+02  0.1355856E+02  0.0000000E+00
Ar  652  0.5465032E+01  0.3582357E+02  0.1372660E+02  0.0000000E+00
Ar  653  0.5657367E+01  0.3305165E+02  0.1634755E+02  0.0000000E+00
Ar  654  0.8198428E+01  0.3578125E+02  0.1635834E+02  0.0000000E+00
Ar  655  0.8291311E+01  0.3307876E+02  0.1952501E+02  0.0000000E+00
Ar  656  0.5776865E+01  0.3612918E+02  0.1914618E+02  0.0000000E+00
Ar  657  0.5773047E+01  0.3337366E+02  0.2228163E+02  0.0000000E+00
Ar  658  0.8364141E+01  0.3592699E+02  0.2191475E+02  0.0000000E+00
Ar  659  0.8307985E+01  0.3327655E+02  0.2479321E+02  0.0000000E+00
Ar  660  0.5734280E+01  0.3582622E+02  0.2502152E+02  0.0000000E+00
Ar  661  0.5654398E+01  0.3342147E+02  0.2784318E+02  0.0000000E+00
Ar  662  0.8465680E+01  0.3587295E+02  0.2765034E+02  0.0000000E+00
Ar  663  0.8536403E+01  0.3294674E+02  0.3025995E+02  0.0000000E+00
Ar  664  0.5811802E+01  0.3622052E+02  0.3034055E+02  0.0000000E+00
Ar  665  0.5879703E+01  0.3332636E+02  0.3332637E+02  0.0000000E+00
Ar  666  0.8529712E+01  0.3581854E+02  0.3321542E+02  0.0000000E+00
Ar  667  0.8529710E+01  0.3321542E+02  0.3581855E+02  0.0000000E+00
Ar  668  0.5760510E+01  0.3597742E+02  0.3597742E+02  0.0000000E+00
Ar  669  0.5689279E+01  0.3318204E+02  0.3841079E+02  0.0000000E+00
Ar  670  0.8601277E+01  0.3608252E+02  0.3891748E+02  0.0000000E+00
Ar  671  0.8396018E+01  0.3322617E+02  0.4129503E+02  0.0000000E+00
Ar  672  0.5801035E+01  0.3595187E+02  0.4142807E+02  0.0000000E+00
Ar  673  0.5798107E+01  0.3321819E+02  0.4403852E+02  0.0000000E+00
Ar  674  0.8344417E+01  0.3591606E+02  0.4417378E+02  0.0000000E+00
Ar  675  0.8247843E+01  0.3302281E+02  0.4677769E+02  0.0000000E+00
Ar  676  0.5644755E+01  0.3618692E+02  0.4678851E+02  0.0000000E+00
Ar  677  0.5680086E+01  0.3346096E+02  0.4948520E+02  0.0000000E+00
Ar  678  0.8309255E+01  0.3588698E+02  0.4962281E+02  0.0000000E+00
Ar  679  0.8137759E+01  0.3339762E+02  0.5247718E+02  0.0000000E+00
Ar  680  0.5318667E+01  0.3611873E+02  0.5246399E+02  0.0000000E+00
Ar  681  0.5619909E+01  0.3901061E+02  0.1732818E+00  0.0000000E+00
Ar  682  0.8796413E+01  0.4186993E+02  0.5504164E+02  0.0000000E+00
Ar  683  0.8248887E+01  0.3882172E+02  0.2907461E+01  0.0000000E+00
Ar  684  0.5536515E+01  0.4145171E+02  0.3044410E+01  0.0000000E+00
Ar  685  0.5564587E+01  0.3879855E+02  0.5564595E+01  0.0000000E+00
Ar  686  0.8166326E+01  0.4151927E+02  0.5524473E+01  0.0000000E+00
Ar  687  0.8203330E+01  0.3896132E+02  0.8203335E+01  0.0000000E+00
Ar  688  0.5524487E+01  0.4151927E+02  0.8166318E+01  0.0000000E+00
Ar  689  0.5614426E+01  0.3857129E+02  0.1098309E+02  0.0000000E+00
Ar  690  0.8343156E+01  0.4143308E+02  0.1098266E+02  0.0000000E+00
Ar  691  0.8308875E+01  0.3832204E+02  0.1353042E+02  0.0000000E+00
Ar  692  0.5854049E+01  0.4132407E+02  0.1373775E+02  0.0000000E+00
Ar  693  0.5738227E+01  0.3867730E+02  0.1650308E+02  0.0000000E+00
Ar  694  0.8235532E+01  0.4141685E+02  0.1668449E+02  0.0000000E+00
Ar  695  0.8364101E+01  0.3880365E+02  0.1963284E+02  0.0000000E+00
Ar  696  0.5631747E+01  0.4166075E+02  0.1930262E+02  0.0000000E+00
Ar  697  0.5762382E+01  0.3873447E+02  0.2215271E+02  0.0000000E+00
Ar  698  0.8422878E+01  0.4155903E+02  0.2217495E+02  0.0000000E+00
Ar  699  0.8471710E+01  0.3867129E+02  0.2470861E+02  0.0000000E+00
Ar  700  0.5830919E+01  0.4155780E+02  0.2478674E+02  0.0000000E+00
Ar  701  0.5670494E+01  0.3864721E+02  0.2751037E+02  0.0000000E+00
Ar  702  0.8425418E+01  0.4121082E+02  0.2761881E+02  0.0000000E+00
Ar  703  0.8576351E+01  0.3879355E+02  0.3033841E+02  0.0000000E+00
Ar  704  0.5644223E+01  0.4108942E+02  0.3075442E+02  0.0000000E+00
Ar  705  0.5689282E+01  0.3841078E+02  0.3318204E+02  0.0000000E+00
Ar  706  0.8396017E+01  0.4129502E+02  0.3322617E+02  0.0000000E+00
Ar  707  0.8601282E+01  0.3891748E+02  0.3608252E+02  0.0000000E+00
Ar  708  0.5801033E+01  0.4142807E+02  0.3595187E+02  0.0000000E+00
Ar  709  0.5417135E+01  0.3915426E+02  0.3915426E+02  0.0000000E+00
Ar  710  0.8251194E+01  0.4182329E+02  0.3866046E+02  0.0000000E+00
Ar  711  0.8251191E+01  0.3866046E+02  0.4182329E+02  0.0000000E+00
Ar  712  0.5601707E+01  0.4188194E+02  0.4188194E+02  0.0000000E+00
Ar  713  0.5891188E+01  0.3884479E+02  0.4444664E+02  0.0000000E+00
Ar  714  0.8531608E+01  0.4156140E+02  0.4414158E+02  0.0000000E+00
Ar  715  0.8145933E+01  0.3888810E+02  0.4737044E+02  0.0000000E+00
Ar  716  0.5588995E+01  0.4167705E+02  0.4701714E+02  0.0000000E+00
Ar  717  0.5387172E+01  0.3880720E+02  0.4970453E+02  0.0000000E+00
Ar  718  0.8698201E+01  0.4163573E+02  0.4959784E+02  0.0000000E+00
Ar  719  0.8508555E+01  0.3885727E+02  0.5229389E+02  0.0000000E+00
Ar  720  0.6043042E+01  0.4160162E+02  0.5226825E+02  0.0000000E+00
Ar  721  0.5635324E+01  0.4405256E+02  0.2867423E+00  0.0000000E+00
Ar  722  0.8670886E+01  0.4722155E+02  0.5510321E+02  0.0000000E+00
Ar  723  0.8276091E+01  0.4410555E+02  0.2925391E+01  0.0000000E+00
Ar  724  0.5532834E+01  0.4696599E+02  0.2854723E+01  0.0000000E+00
Ar  725  0.5695437E+01  0.4426730E+02  0.5695434E+01  0.0000000E+00
Ar  726  0.8331375E+01  0.4667033E+02  0.5522257E+01  0.0000000E+00
Ar  727  0.8275894E+01  0.4391403E+02  0.8275886E+01  0.0000000E+00
Ar  728  0.5522266E+01  0.4667033E+02  0.8331369E+01  0.0000000E+00
Ar  729  0.5734812E+01  0.4394945E+02  0.1136419E+02  0.0000000E+00
Ar  730  0.8361075E+01  0.4676819E+02  0.1097469E+02  0.0000000E+00
Ar  731  0.8424872E+01  0.4460762E+02  0.1397073E+02  0.0000000E+00
Ar  732  0.5637538E+01  0.4686276E+02  0.1376787E+02  0.0000000E+00
Ar  733  0.5740452E+01  0.4444370E+02  0.1672461E+02  0.0000000E+00
Ar  734  0.8418568E+01  0.4692479E+02  0.1661054E+02  0.0000000E+00
Ar  735  0.8426109E+01  0.4410564E+02  0.1934233E+02  0.0000000E+00
Ar  736  0.5703590E+01  0.4711375E+02  0.1926905E+02  0.0000000E+00
Ar  737  0.5695311E+01  0.4438638E+02  0.2226778E+02  0.0000000E+00
Ar  738  0.8252788E+01  0.4700074E+02  0.2180704E+02  0.0000000E+00
Ar  739  0.8546649E+01  0.4430580E+02  0.2484496E+02  0.0000000E+00
Ar  740  0.5763295E+01  0.4714132E+02  0.2505067E+02  0.0000000E+00
Ar  741  0.5493796E+01  0.4395984E+02  0.2747731E+02  0.0000000E+00
Ar  742  0.8319179E+01  0.4681423E+02  0.2801288E+02  0.0000000E+00
Ar  743  0.8096103E+01  0.4393851E+02  0.3020615E+02  0.0000000E+00
Ar  744  0.5814630E+01  0.4705155E+02  0.3052594E+02  0.0000000E+00
Ar  745  0.5798101E+01  0.4403852E+02  0.3321819E+02  0.0000000E+00
Ar  746  0.8247837E+01  0.4677769E+02  0.3302281E+02  0.0000000E+00
Ar  747  0.8344414E+01  0.4417378E+02  0.3591606E+02  0.0000000E+00
Ar  748  0.5644751E+01  0.4678852E+02  0.3618692E+02  0.0000000E+00
Ar  749  0.5891195E+01  0.4444664E+02  0.3884479E+02  0.0000000E+00
Ar  750  0.8145934E+01  0.4737043E+02  0.3888809E+02  0.0000000E+00
Ar  751  0.8531609E+01  0.4414158E+02  0.4156140E+02  0.0000000E+00
Ar  752  0.5588998E+01  0.4701714E+02  0.4167706E+02  0.0000000E+00
Ar  753  0.5861943E+01  0.4441009E+02  0.4441009E+02  0.0000000E+00
Ar  754  0.8684690E+01  0.4698616E+02  0.4416087E+02  0.0000000E+00
Ar  755  0.8684687E+01  0.4416087E+02  0.4698617E+02  0.0000000E+00
Ar  756  0.5709321E+01  0.4724325E+02  0.4724325E+02  0.0000000E+00
Ar  757  0.5614621E+01  0.4446170E+02  0.4960976E+02  0.0000000E+00
Ar  758  0.8792829E+01  0.4691389E+02  0.4991676E+02  0.0000000E+00
Ar  759  0.8919948E+01  0.4435907E+02  0.5262126E+02  0.0000000E+00
Ar  760  0.5864669E+01  0.4712847E+02  0.5226908E+02  0.0000000E+00
Ar  761  0.5806707E+01  0.4980161E+02  0.4303410E+00  0.0000000E+00
Ar  762  0.8457854E+01  0.5265375E+02  0.5513619E+02  0.0000000E+00
Ar  763  0.8525429E+01  0.4966162E+02  0.3100503E+01  0.0000000E+00
Ar  764  0.5670392E+01  0.5257448E+02  0.3129778E+01  0.0000000E+00
Ar  765  0.5753969E+01  0.4932654E+02  0.5753963E+01  0.0000000E+00
Ar  766  0.8391573E+01  0.5223049E+02  0.5714015E+01  0.0000000E+00
Ar  767  0.8422085E+01  0.4934492E+02  0.8422087E+01  0.0000000E+00
Ar  768  0.5714015E+01  0.5223050E+02  0.8391570E+01  0.0000000E+00
Ar  769  0.5705603E+01  0.4932398E+02  0.1112416E+02  0.0000000E+00
Ar  770  0.8460365E+01  0.5198863E+02  0.1113529E+02  0.0000000E+00
Ar  771  0.8283113E+01  0.4948171E+02  0.1380367E+02  0.0000000E+00
Ar  772  0.5574981E+01  0.5244376E+02  0.1371565E+02  0.0000000E+00
Ar  773  0.5742578E+01  0.4962300E+02  0.1657486E+02  0.0000000E+00
Ar  774  0.8617377E+01  0.5245812E+02  0.1648901E+02  0.0000000E+00
Ar  775  0.8380507E+01  0.4990528E+02  0.1935320E+02  0.0000000E+00
Ar  776  0.5698932E+01  0.5229914E+02  0.1935993E+02  0.0000000E+00
Ar  777  0.5860085E+01  0.4975513E+02  0.2204739E+02  0.0000000E+00
Ar  778  0.8342058E+01  0.5258010E+02  0.2209464E+02  0.0000000E+00
Ar  779  0.8465187E+01  0.4966123E+02  0.2533562E+02  0.0000000E+00
Ar  780  0.5609550E+01  0.5251559E+02  0.2509342E+02  0.0000000E+00
Ar  781  0.5804756E+01  0.4969224E+02  0.2786076E+02  0.0000000E+00
Ar  782  0.8429076E+01  0.5252954E+02  0.2762971E+02  0.0000000E+00
Ar  783  0.8368482E+01  0.4972312E+02  0.3068419E+02  0.0000000E+00
Ar  784  0.5732857E+01  0.5204123E+02  0.3076891E+02  0.0000000E+00
Ar  785  0.5680083E+01  0.4948524E+02  0.3346092E+02  0.0000000E+00
Ar  786  0.8137694E+01  0.5247717E+02  0.3339756E+02  0.0000000E+00
Ar  787  0.8309249E+01  0.4962281E+02  0.3588698E+02  0.0000000E+00
Ar  788  0.5318667E+01  0.5246400E+02  0.3611874E+02  0.0000000E+00
Ar  789  0.5387172E+01  0.4970453E+02  0.3880721E+02  0.0000000E+00
Ar  790  0.8508552E+01  0.5229389E+02  0.3885727E+02  0.0000000E+00
Ar  791  0.8698204E+01  0.4959784E+02  0.4163573E+02  0.0000000E+00
Ar  792  0.6043047E+01  0.5226825E+02  0.4160163E+02  0.0000000E+00
Ar  793  0.5614618E+01  0.4960976E+02  0.4446170E+02  0.0000000E+00
Ar  794  0.8919957E+01  0.5262127E+02  0.4435907E+02  0.0000000E+00
Ar  795  0.8792830E+01  0.4991676E+02  0.4691389E+02  0.0000000E+00
Ar  796  0.5864670E+01  0.5226908E+02  0.4712846E+02  0.0000000E+00
Ar  797  0.5901986E+01  0.4970998E+02  0.4970998E+02  0.0000000E+00
Ar  798  0.8601530E+01  0.5253158E+02  0.4982960E+02  0.0000000E+00
Ar  799  0.8601521E+01  0.4982960E+02  0.5253157E+02  0.0000000E+00
Ar  800  0.5694537E+01  0.5239052E+02  0.5239052E+02  0.0000000E+00
Ar  801  0.1115656E+02  0.5488927E+02  0.5488927E+02  0.0000000E+00
Ar  802  0.1394736E+02  0.2743491E+01  0.2186773E+00  0.0000000E+00
Ar  803  0.1394736E+02  0.2186742E+00  0.2743494E+01  0.0000000E+00
Ar  804  0.1119095E+02  0.2636702E+01  0.2636701E+01  0.0000000E+00
Ar  805  0.1086881E+02  0.2107882E+00  0.5366798E+01  0.0000000E+00
Ar  806  0.1423646E+02  0.2728522E+01  0.5480266E+01  0.0000000E+00
Ar  807  0.1397685E+02  0.2043418E+00  0.8473960E+01  0.0000000E+00
Ar  808  0.1095618E+02  0.2851399E+01  0.8082805E+01  0.0000000E+00
Ar  809  0.1131588E+02  0.1882949E+00  0.1131588E+02  0.0000000E+00
Ar  810  0.1363847E+02  0.3186594E+01  0.1103571E+02  0.0000000E+00
Ar  811  0.1404882E+02  0.3328579E+00  0.1404882E+02  0.0000000E+00
Ar  812  0.1103570E+02  0.3186584E+01  0.1363847E+02  0.0000000E+00
Ar  813  0.1119593E+02  0.9284997E-01  0.1673725E+02  0.0000000E+00
Ar  814  0.1383110E+02  0.3071150E+01  0.1660806E+02  0.0000000E+00
Ar  815  0.1377138E+02  0.3849409E+00  0.1947690E+02  0.0000000E+00
Ar  816  0.1113269E+02  0.3071658E+01  0.1942197E+02  0.0000000E+00
Ar  817  0.1116993E+02  0.1957496E+00  0.2251566E+02  0.0000000E+00
Ar  818  0.1401633E+02  0.2942855E+01  0.2241595E+02  0.0000000E+00
Ar  819  0.1363120E+02  0.5485941E+02  0.2503085E+02  0.0000000E+00
Ar  820  0.1093783E+02  0.2828245E+01  0.2495539E+02  0.0000000E+00
Ar  821  0.1107557E+02  0.3189135E+00  0.2788848E+02  0.0000000E+00
Ar  822  0.1378131E+02  0.2858914E+01  0.2743997E+02  0.0000000E+00
Ar  823  0.1363310E+02  0.2304966E+00  0.3018727E+02  0.0000000E+00
Ar  824  0.1094971E+02  0.3022401E+01  0.3054945E+02  0.0000000E+00
Ar  825  0.1130943E+02  0.2803576E+00  0.3324132E+02  0.0000000E+00
Ar  826  0.1350890E+02  0.3008075E+01  0.3326812E+02  0.0000000E+00
Ar  827  0.1387630E+02  0.2257041E+00  0.3597630E+02  0.0000000E+00
Ar  828  0.1117268E+02  0.3043651E+01  0.3585237E+02  0.0000000E+00
Ar  829  0.1128874E+02  0.5514726E+02  0.3876695E+02  0.0000000E+00
Ar  830  0.1369382E+02  0.2966224E+01  0.3886241E+02  0.0000000E+00
Ar  831  0.1388562E+02  0.5513584E+02  0.4121568E+02  0.0000000E+00
Ar  832  0.1114736E+02  0.2854564E+01  0.4179216E+02  0.0000000E+00
Ar  833  0.1147266E+02  0.5511082E+02  0.4429531E+02  0.0000000E+00
Ar  834  0.1448196E+02  0.2669310E+01  0.4417779E+02  0.0000000E+00
Ar  835  0.1420921E+02  0.5497275E+02  0.4684189E+02  0.0000000E+00
Ar  836  0.1136433E+02  0.2834306E+01  0.4662805E+02  0.0000000E+00
Ar  837  0.1161641E+02  0.3001714E+00  0.4928019E+02  0.0000000E+00
Ar  838  0.1377937E+02  0.2948112E+01  0.4969889E+02  0.0000000E+00
Ar  839  0.1413726E+02  0.2614223E+00  0.5242796E+02  0.0000000E+00
Ar  840  0.1086005E+02  0.2711134E+01  0.5251394E+02  0.0000000E+00
Ar  841  0.1086881E+02  0.5366803E+01  0.2107829E+00  0.0000000E+00
Ar  842  0.1397685E+02  0.8473962E+01  0.2043367E+00  0.0000000E+00
Ar  843  0.1423645E+02  0.5480267E+01  0.2728524E+01  0.0000000E+00
Ar  844  0.1095618E+02  0.8082806E+01  0.2851404E+01  0.0000000E+00
Ar  845  0.1161530E+02  0.5421852E+01  0.5421856E+01  0.0000000E+00
Ar  846  0.1421120E+02  0.8173310E+01  0.5384940E+01  0.0000000E+00
Ar  847  0.1421119E+02  0.5384944E+01  0.8173306E+01  0.0000000E+00
Ar  848  0.1172671E+02  0.8104943E+01  0.8104947E+01  0.0000000E+00
Ar  849  0.1085697E+02  0.5385629E+01  0.1085697E+02  0.0000000E+00
Ar  850  0.1392042E+02  0.7921895E+01  0.1112282E+02  0.0000000E+00
Ar  851  0.1385466E+02  0.5688641E+01  0.1385466E+02  0.0000000E+00
Ar  852  0.1112281E+02  0.7921888E+01  0.1392042E+02  0.0000000E+00
Ar  853  0.1111341E+02  0.5691261E+01  0.1693236E+02  0.0000000E+00
Ar  854  0.1396710E+02  0.8064484E+01  0.1691075E+02  0.0000000E+00
Ar  855  0.1397096E+02  0.5733722E+01  0.1951719E+02  0.0000000E+00
Ar  856  0.1094873E+02  0.8077681E+01  0.1962339E+02  0.0000000E+00
Ar  857  0.1124428E+02  0.5441772E+01  0.2220056E+02  0.0000000E+00
Ar  858  0.1389029E+02  0.8472778E+01  0.2214367E+02  0.0000000E+00
Ar  859  0.1382018E+02  0.5669140E+01  0.2484957E+02  0.0000000E+00
Ar  860  0.1105997E+02  0.8529012E+01  0.2463706E+02  0.0000000E+00
Ar  861  0.1104137E+02  0.5682388E+01  0.2743330E+02  0.0000000E+00
Ar  862  0.1362600E+02  0.8482900E+01  0.2779794E+02  0.0000000E+00
Ar  863  0.1373848E+02  0.5502661E+01  0.3007089E+02  0.0000000E+00
Ar  864  0.1097239E+02  0.8054781E+01  0.3056211E+02  0.0000000E+00
Ar  865  0.1076721E+02  0.5473536E+01  0.3323459E+02  0.0000000E+00
Ar  866  0.1355856E+02  0.8205507E+01  0.3309541E+02  0.0000000E+00
Ar  867  0.1372659E+02  0.5465034E+01  0.3582358E+02  0.0000000E+00
Ar  868  0.1100623E+02  0.8250808E+01  0.3584629E+02  0.0000000E+00
Ar  869  0.1098307E+02  0.5614432E+01  0.3857129E+02  0.0000000E+00
Ar  870  0.1353041E+02  0.8308887E+01  0.3832203E+02  0.0000000E+00
Ar  871  0.1373770E+02  0.5854072E+01  0.4132400E+02  0.0000000E+00
Ar  872  0.1098266E+02  0.8343144E+01  0.4143309E+02  0.0000000E+00
Ar  873  0.1136420E+02  0.5734771E+01  0.4394947E+02  0.0000000E+00
Ar  874  0.1397073E+02  0.8424865E+01  0.4460764E+02  0.0000000E+00
Ar  875  0.1376788E+02  0.5637467E+01  0.4686274E+02  0.0000000E+00
Ar  876  0.1097469E+02  0.8361077E+01  0.4676819E+02  0.0000000E+00
Ar  877  0.1112416E+02  0.5705600E+01  0.4932397E+02  0.0000000E+00
Ar  878  0.1380372E+02  0.8283061E+01  0.4948171E+02  0.0000000E+00
Ar  879  0.1371568E+02  0.5574978E+01  0.5244374E+02  0.0000000E+00
Ar  880  0.1113529E+02  0.8460368E+01  0.5198864E+02  0.0000000E+00
Ar  881  0.1131588E+02  0.1131586E+02  0.1882953E+00  0.0000000E+00
Ar  882  0.1404881E+02  0.1404881E+02  0.3328583E+00  0.0000000E+00
Ar  883  0.1363847E+02  0.1103571E+02  0.3186587E+01  0.0000000E+00
Ar  884  0.1103570E+02  0.1363846E+02  0.3186586E+01  0.0000000E+00
Ar  885  0.1085697E+02  0.1085696E+02  0.5385620E+01  0.0000000E+00
Ar  886  0.1385466E+02  0.1385466E+02  0.5688635E+01  0.0000000E+00
Ar  887  0.1392041E+02  0.1112282E+02  0.7921884E+01  0.0000000E+00
Ar  888  0.1112282E+02  0.1392040E+02  0.7921880E+01  0.0000000E+00
Ar  889  0.1080391E+02  0.1080391E+02  0.1080391E+02  0.0000000E+00
Ar  890  0.1359383E+02  0.1359382E+02  0.1090032E+02  0.0000000E+00
Ar  891  0.1359383E+02  0.1090032E+02  0.1359382E+02  0.0000000E+00
Ar  892  0.1090033E+02  0.1359382E+02  0.1359382E+02  0.0000000E+00
Ar  893  0.1063366E+02  0.1063366E+02  0.1674517E+02  0.0000000E+00
Ar  894  0.1334197E+02  0.1334197E+02  0.1655885E+02  0.0000000E+00
Ar  895  0.1389561E+02  0.1079501E+02  0.1919367E+02  0.0000000E+00
Ar  896  0.1079500E+02  0.1389561E+02  0.1919366E+02  0.0000000E+00
Ar  897  0.1123978E+02  0.1123977E+02  0.2161471E+02  0.0000000E+00
Ar  898  0.1371639E+02  0.1371639E+02  0.2193643E+02  0.0000000E+00
Ar  899  0.1379985E+02  0.1114072E+02  0.2506896E+02  0.0000000E+00
Ar  900  0.1114073E+02  0.1379985E+02  0.2506895E+02  0.0000000E+00
Ar  901  0.1100001E+02  0.1100001E+02  0.2769837E+02  0.0000000E+00
Ar  902  0.1378155E+02  0.1378155E+02  0.2756943E+02  0.0000000E+00
Ar  903  0.1361633E+02  0.1098382E+02  0.3033715E+02  0.0000000E+00
Ar  904  0.1098383E+02  0.1361633E+02  0.3033715E+02  0.0000000E+00
Ar  905  0.1100552E+02  0.1100551E+02  0.3304434E+02  0.0000000E+00
Ar  906  0.1378958E+02  0.1378957E+02  0.3328582E+02  0.0000000E+00
Ar  907  0.1379831E+02  0.1123359E+02  0.3618084E+02  0.0000000E+00
Ar  908  0.1123360E+02  0.1379831E+02  0.3618084E+02  0.0000000E+00
Ar  909  0.1083864E+02  0.1083863E+02  0.3859127E+02  0.0000000E+00
Ar  910  0.1372000E+02  0.1372001E+02  0.3878478E+02  0.0000000E+00
Ar  911  0.1388719E+02  0.1117730E+02  0.4166085E+02  0.0000000E+00
Ar  912  0.1117729E+02  0.1388719E+02  0.4166084E+02  0.0000000E+00
Ar  913  0.1098170E+02  0.1098169E+02  0.4458446E+02  0.0000000E+00
Ar  914  0.1386705E+02  0.1386706E+02  0.4454253E+02  0.0000000E+00
Ar  915  0.1386508E+02  0.1102703E+02  0.4710683E+02  0.0000000E+00
Ar  916  0.1102701E+02  0.1386508E+02  0.4710682E+02  0.0000000E+00
Ar  917  0.1125065E+02  0.1125065E+02  0.4960559E+02  0.0000000E+00
Ar  918  0.1377684E+02  0.1377684E+02  0.4999527E+02  0.0000000E+00
Ar  919  0.1378455E+02  0.1112893E+02  0.5217838E+02  0.0000000E+00
Ar  920  0.1112893E+02  0.1378455E+02  0.5217838E+02  0.0000000E+00
Ar  921  0.1119593E+02  0.1673726E+02  0.9285177E-01  0.0000000E+00
Ar  922  0.1377138E+02  0.1947690E+02  0.3849434E+00  0.0000000E+00
Ar  923  0.1383110E+02  0.1660805E+02  0.3071151E+01  0.0000000E+00
Ar  924  0.1113272E+02  0.1942196E+02  0.3071662E+01  0.0000000E+00
Ar  925  0.1111340E+02  0.1693235E+02  0.5691270E+01  0.0000000E+00
Ar  926  0.1397096E+02  0.1951719E+02  0.5733723E+01  0.0000000E+00
Ar  927  0.1396710E+02  0.1691075E+02  0.8064482E+01  0.0000000E+00
Ar  928  0.1094873E+02  0.1962339E+02  0.8077681E+01  0.0000000E+00
Ar  929  0.1063365E+02  0.1674517E+02  0.1063366E+02  0.0000000E+00
Ar  930  0.1389561E+02  0.1919367E+02  0.1079501E+02  0.0000000E+00
Ar  931  0.1334197E+02  0.1655885E+02  0.1334197E+02  0.0000000E+00
Ar  932  0.1079500E+02  0.1919367E+02  0.1389560E+02  0.0000000E+00
Ar  933  0.1092255E+02  0.1627616E+02  0.1627616E+02  0.0000000E+00
Ar  934  0.1357312E+02  0.1909031E+02  0.1639838E+02  0.0000000E+00
Ar  935  0.1357312E+02  0.1639838E+02  0.1909031E+02  0.0000000E+00
Ar  936  0.1153411E+02  0.1938872E+02  0.1938872E+02  0.0000000E+00
Ar  937  0.1093587E+02  0.1672261E+02  0.2222700E+02  0.0000000E+00
Ar  938  0.1393237E+02  0.1892890E+02  0.2202489E+02  0.0000000E+00
Ar  939  0.1389630E+02  0.1652335E+02  0.2504712E+02  0.0000000E+00
Ar  940  0.1117335E+02  0.1937410E+02  0.2480670E+02  0.0000000E+00
Ar  941  0.1116669E+02  0.1659552E+02  0.2763064E+02  0.0000000E+00
Ar  942  0.1360152E+02  0.1937587E+02  0.2775891E+02  0.0000000E+00
Ar  943  0.1364517E+02  0.1618397E+02  0.3037493E+02  0.0000000E+00
Ar  944  0.1077081E+02  0.1923272E+02  0.3063131E+02  0.0000000E+00
Ar  945  0.1092941E+02  0.1629710E+02  0.3302393E+02  0.0000000E+00
Ar  946  0.1361164E+02  0.1914267E+02  0.3315543E+02  0.0000000E+00
Ar  947  0.1383948E+02  0.1674096E+02  0.3583077E+02  0.0000000E+00
Ar  948  0.1072639E+02  0.1909498E+02  0.3579731E+02  0.0000000E+00
Ar  949  0.1081395E+02  0.1655247E+02  0.3854414E+02  0.0000000E+00
Ar  950  0.1370534E+02  0.1909858E+02  0.3865495E+02  0.0000000E+00
Ar  951  0.1383868E+02  0.1652094E+02  0.4155688E+02  0.0000000E+00
Ar  952  0.1127028E+02  0.1916167E+02  0.4153670E+02  0.0000000E+00
Ar  953  0.1148183E+02  0.1656649E+02  0.4431668E+02  0.0000000E+00
Ar  954  0.1410206E+02  0.1938237E+02  0.4415689E+02  0.0000000E+00
Ar  955  0.1395390E+02  0.1648708E+02  0.4716706E+02  0.0000000E+00
Ar  956  0.1120243E+02  0.1940530E+02  0.4706496E+02  0.0000000E+00
Ar  957  0.1102024E+02  0.1646170E+02  0.4962013E+02  0.0000000E+00
Ar  958  0.1386072E+02  0.1939218E+02  0.4978088E+02  0.0000000E+00
Ar  959  0.1366630E+02  0.1656182E+02  0.5235971E+02  0.0000000E+00
Ar  960  0.1095419E+02  0.1929581E+02  0.5237386E+02  0.0000000E+00
Ar  961  0.1116992E+02  0.2251566E+02  0.1957367E+00  0.0000000E+00
Ar  962  0.1363120E+02  0.2503085E+02  0.5485941E+02  0.0000000E+00
Ar  963  0.1401633E+02  0.2241596E+02  0.2942856E+01  0.0000000E+00
Ar  964  0.1093786E+02  0.2495541E+02  0.2828262E+01  0.0000000E+00
Ar  965  0.1124431E+02  0.2220056E+02  0.5441809E+01  0.0000000E+00
Ar  966  0.1382018E+02  0.2484957E+02  0.5669142E+01  0.0000000E+00
Ar  967  0.1389028E+02  0.2214367E+02  0.8472774E+01  0.0000000E+00
Ar  968  0.1105997E+02  0.2463706E+02  0.8529012E+01  0.0000000E+00
Ar  969  0.1123977E+02  0.2161472E+02  0.1123977E+02  0.0000000E+00
Ar  970  0.1379985E+02  0.2506896E+02  0.1114072E+02  0.0000000E+00
Ar  971  0.1371639E+02  0.2193643E+02  0.1371639E+02  0.0000000E+00
Ar  972  0.1114073E+02  0.2506895E+02  0.1379985E+02  0.0000000E+00
Ar  973  0.1093587E+02  0.2222699E+02  0.1672261E+02  0.0000000E+00
Ar  974  0.1389630E+02  0.2504712E+02  0.1652335E+02  0.0000000E+00
Ar  975  0.1393236E+02  0.2202489E+02  0.1892890E+02  0.0000000E+00
Ar  976  0.1117335E+02  0.2480669E+02  0.1937410E+02  0.0000000E+00
Ar  977  0.1081917E+02  0.2201973E+02  0.2201973E+02  0.0000000E+00
Ar  978  0.1395770E+02  0.2463101E+02  0.2194310E+02  0.0000000E+00
Ar  979  0.1395771E+02  0.2194310E+02  0.2463102E+02  0.0000000E+00
Ar  980  0.1093204E+02  0.2476870E+02  0.2476869E+02  0.0000000E+00
Ar  981  0.1116624E+02  0.2198807E+02  0.2749425E+02  0.0000000E+00
Ar  982  0.1393149E+02  0.2472353E+02  0.2750440E+02  0.0000000E+00
Ar  983  0.1373517E+02  0.2206155E+02  0.3046482E+02  0.0000000E+00
Ar  984  0.1111539E+02  0.2462889E+02  0.3032085E+02  0.0000000E+00
Ar  985  0.1088882E+02  0.2199595E+02  0.3326720E+02  0.0000000E+00
Ar  986  0.1378619E+02  0.2477829E+02  0.3307264E+02  0.0000000E+00
Ar  987  0.1373573E+02  0.2177102E+02  0.3582374E+02  0.0000000E+00
Ar  988  0.1119480E+02  0.2477341E+02  0.3604157E+02  0.0000000E+00
Ar  989  0.1120930E+02  0.2177745E+02  0.3879363E+02  0.0000000E+00
Ar  990  0.1411935E+02  0.2482938E+02  0.3853195E+02  0.0000000E+00
Ar  991  0.1389091E+02  0.2209050E+02  0.4124340E+02  0.0000000E+00
Ar  992  0.1117450E+02  0.2478478E+02  0.4168553E+02  0.0000000E+00
Ar  993  0.1119977E+02  0.2209941E+02  0.4431518E+02  0.0000000E+00
Ar  994  0.1376053E+02  0.2487740E+02  0.4438421E+02  0.0000000E+00
Ar  995  0.1383565E+02  0.2184335E+02  0.4701780E+02  0.0000000E+00
Ar  996  0.1109304E+02  0.2508063E+02  0.4709793E+02  0.0000000E+00
Ar  997  0.1088078E+02  0.2243795E+02  0.4987218E+02  0.0000000E+00
Ar  998  0.1365945E+02  0.2507698E+02  0.4973760E+02  0.0000000E+00
Ar  999  0.1357198E+02  0.2207794E+02  0.5255568E+02  0.0000000E+00
Ar 1000  0.1087050E+02  0.2503586E+02  0.5245918E+02  0.0000000E+00
Ar 1001  0.1107560E+02  0.2788850E+02  0.3189139E+00  0.0000000E+00
Ar 1002  0.1363310E+02  0.3018727E+02  0.2304971E+00  0.0000000E+00
Ar 1003  0.1378131E+02  0.2743998E+02  0.2858913E+01  0.0000000E+00
Ar 1004  0.1094971E+02  0.3054945E+02  0.3022399E+01  0.0000000E+00
Ar 1005  0.1104137E+02  0.2743330E+02  0.5682379E+01  0.0000000E+00
Ar 1006  0.1373848E+02  0.3007089E+02  0.5502665E+01  0.0000000E+00
Ar 1007  0.1362601E+02  0.2779794E+02  0.8482901E+01  0.0000000E+00
Ar 1008  0.1097239E+02  0.3056211E+02  0.8054785E+01  0.0000000E+00
Ar 1009  0.1100001E+02  0.2769837E+02  0.1100000E+02  0.0000000E+00
Ar 1010  0.1361633E+02  0.3033714E+02  0.1098382E+02  0.0000000E+00
Ar 1011  0.1378155E+02  0.2756944E+02  0.1378155E+02  0.0000000E+00
Ar 1012  0.1098383E+02  0.3033715E+02  0.1361633E+02  0.0000000E+00
Ar 1013  0.1116669E+02  0.2763064E+02  0.1659552E+02  0.0000000E+00
Ar 1014  0.1364517E+02  0.3037493E+02  0.1618397E+02  0.0000000E+00
Ar 1015  0.1360152E+02  0.2775891E+02  0.1937587E+02  0.0000000E+00
Ar 1016  0.1077080E+02  0.3063131E+02  0.1923272E+02  0.0000000E+00
Ar 1017  0.1116624E+02  0.2749425E+02  0.2198807E+02  0.0000000E+00
Ar 1018  0.1373517E+02  0.3046482E+02  0.2206155E+02  0.0000000E+00
Ar 1019  0.1393149E+02  0.2750440E+02  0.2472353E+02  0.0000000E+00
Ar 1020  0.1111540E+02  0.3032085E+02  0.2462888E+02  0.0000000E+00
Ar 1021  0.1108095E+02  0.2746401E+02  0.2746401E+02  0.0000000E+00
Ar 1022  0.1391322E+02  0.3053274E+02  0.2728399E+02  0.0000000E+00
Ar 1023  0.1391323E+02  0.2728399E+02  0.3053274E+02  0.0000000E+00
Ar 1024  0.1134344E+02  0.3044200E+02  0.3044200E+02  0.0000000E+00
Ar 1025  0.1106260E+02  0.2747489E+02  0.3308370E+02  0.0000000E+00
Ar 1026  0.1384216E+02  0.3001243E+02  0.3292032E+02  0.0000000E+00
Ar 1027  0.1411309E+02  0.2745994E+02  0.3579695E+02  0.0000000E+00
Ar 1028  0.1120429E+02  0.3013044E+02  0.3582341E+02  0.0000000E+00
Ar 1029  0.1123056E+02  0.2767062E+02  0.3863347E+02  0.0000000E+00
Ar 1030  0.1390898E+02  0.3012643E+02  0.3849328E+02  0.0000000E+00
Ar 1031  0.1390103E+02  0.2790705E+02  0.4149931E+02  0.0000000E+00
Ar 1032  0.1101544E+02  0.3064794E+02  0.4161896E+02  0.0000000E+00
Ar 1033  0.1118147E+02  0.2779439E+02  0.4383584E+02  0.0000000E+00
Ar 1034  0.1378456E+02  0.3050762E+02  0.4431590E+02  0.0000000E+00
Ar 1035  0.1374090E+02  0.2778700E+02  0.4697459E+02  0.0000000E+00
Ar 1036  0.1096521E+02  0.3041812E+02  0.4706439E+02  0.0000000E+00
Ar 1037  0.1123032E+02  0.2780173E+02  0.4969244E+02  0.0000000E+00
Ar 1038  0.1397331E+02  0.3054861E+02  0.4970475E+02  0.0000000E+00
Ar 1039  0.1395565E+02  0.2779713E+02  0.5230707E+02  0.0000000E+00
Ar 1040  0.1087897E+02  0.3065038E+02  0.5249385E+02  0.0000000E+00
Ar 1041  0.1130943E+02  0.3324132E+02  0.2803559E+00  0.0000000E+00
Ar 1042  0.1387631E+02  0.3597630E+02  0.2256976E+00  0.0000000E+00
Ar 1043  0.1350890E+02  0.3326812E+02  0.3008069E+01  0.0000000E+00
Ar 1044  0.1117268E+02  0.3585237E+02  0.3043651E+01  0.0000000E+00
Ar 1045  0.1076721E+02  0.3323459E+02  0.5473535E+01  0.0000000E+00
Ar 1046  0.1372659E+02  0.3582357E+02  0.5465035E+01  0.0000000E+00
Ar 1047  0.1355855E+02  0.3309541E+02  0.8205501E+01  0.0000000E+00
Ar 1048  0.1100623E+02  0.3584630E+02  0.8250804E+01  0.0000000E+00
Ar 1049  0.1100551E+02  0.3304434E+02  0.1100551E+02  0.0000000E+00
Ar 1050  0.1379831E+02  0.3618084E+02  0.1123359E+02  0.0000000E+00
Ar 1051  0.1378957E+02  0.3328582E+02  0.1378957E+02  0.0000000E+00
Ar 1052  0.1123359E+02  0.3618084E+02  0.1379831E+02  0.0000000E+00
Ar 1053  0.1092941E+02  0.3302393E+02  0.1629710E+02  0.0000000E+00
Ar 1054  0.1383949E+02  0.3583078E+02  0.1674096E+02  0.0000000E+00
Ar 1055  0.1361165E+02  0.3315543E+02  0.1914266E+02  0.0000000E+00
Ar 1056  0.1072639E+02  0.3579731E+02  0.1909498E+02  0.0000000E+00
Ar 1057  0.1088882E+02  0.3326720E+02  0.2199594E+02  0.0000000E+00
Ar 1058  0.1373573E+02  0.3582375E+02  0.2177102E+02  0.0000000E+00
Ar 1059  0.1378619E+02  0.3307265E+02  0.2477829E+02  0.0000000E+00
Ar 1060  0.1119480E+02  0.3604157E+02  0.2477341E+02  0.0000000E+00
Ar 1061  0.1106259E+02  0.3308370E+02  0.2747489E+02  0.0000000E+00
Ar 1062  0.1411309E+02  0.3579695E+02  0.2745994E+02  0.0000000E+00
Ar 1063  0.1384216E+02  0.3292033E+02  0.3001243E+02  0.0000000E+00
Ar 1064  0.1120429E+02  0.3582342E+02  0.3013044E+02  0.0000000E+00
Ar 1065  0.1125303E+02  0.3320872E+02  0.3320871E+02  0.0000000E+00
Ar 1066  0.1371665E+02  0.3613169E+02  0.3319755E+02  0.0000000E+00
Ar 1067  0.1371665E+02  0.3319755E+02  0.3613169E+02  0.0000000E+00
Ar 1068  0.1093481E+02  0.3589008E+02  0.3589008E+02  0.0000000E+00
Ar 1069  0.1094566E+02  0.3315374E+02  0.3883153E+02  0.0000000E+00
Ar 1070  0.1398288E+02  0.3602201E+02  0.3877637E+02  0.0000000E+00
Ar 1071  0.1382331E+02  0.3312077E+02  0.4143723E+02  0.0000000E+00
Ar 1072  0.1102772E+02  0.3593966E+02  0.4151649E+02  0.0000000E+00
Ar 1073  0.1119424E+02  0.3325146E+02  0.4429157E+02  0.0000000E+00
Ar 1074  0.1414272E+02  0.3579239E+02  0.4430628E+02  0.0000000E+00
Ar 1075  0.1401225E+02  0.3326598E+02  0.4723626E+02  0.0000000E+00
Ar 1076  0.1110108E+02  0.3579439E+02  0.4716736E+02  0.0000000E+00
Ar 1077  0.1093457E+02  0.3325928E+02  0.4978626E+02  0.0000000E+00
Ar 1078  0.1382684E+02  0.3605259E+02  0.4995717E+02  0.0000000E+00
Ar 1079  0.1349439E+02  0.3309898E+02  0.5217005E+02  0.0000000E+00
Ar 1080  0.1107606E+02  0.3582213E+02  0.5255980E+02  0.0000000E+00
Ar 1081  0.1128874E+02  0.3876695E+02  0.5514726E+02  0.0000000E+00
Ar 1082  0.1388562E+02  0.4121568E+02  0.5513584E+02  0.0000000E+00
Ar 1083  0.1369383E+02  0.3886241E+02  0.2966228E+01  0.0000000E+00
Ar 1084  0.1114736E+02  0.4179217E+02  0.2854571E+01  0.0000000E+00
Ar 1085  0.1098306E+02  0.3857129E+02  0.5614428E+01  0.0000000E+00
Ar 1086  0.1373770E+02  0.4132400E+02  0.5854069E+01  0.0000000E+00
Ar 1087  0.1353041E+02  0.3832203E+02  0.8308881E+01  0.0000000E+00
Ar 1088  0.1098266E+02  0.4143309E+02  0.8343150E+01  0.0000000E+00
Ar 1089  0.1083864E+02  0.3859127E+02  0.1083863E+02  0.0000000E+00
Ar 1090  0.1388719E+02  0.4166085E+02  0.1117730E+02  0.0000000E+00
Ar 1091  0.1372001E+02  0.3878478E+02  0.1372001E+02  0.0000000E+00
Ar 1092  0.1117730E+02  0.4166085E+02  0.1388719E+02  0.0000000E+00
Ar 1093  0.1081396E+02  0.3854414E+02  0.1655248E+02  0.0000000E+00
Ar 1094  0.1383868E+02  0.4155689E+02  0.1652095E+02  0.0000000E+00
Ar 1095  0.1370534E+02  0.3865494E+02  0.1909858E+02  0.0000000E+00
Ar 1096  0.1127030E+02  0.4153670E+02  0.1916167E+02  0.0000000E+00
Ar 1097  0.1120929E+02  0.3879364E+02  0.2177745E+02  0.0000000E+00
Ar 1098  0.1389091E+02  0.4124341E+02  0.2209050E+02  0.0000000E+00
Ar 1099  0.1411935E+02  0.3853195E+02  0.2482938E+02  0.0000000E+00
Ar 1100  0.1117449E+02  0.4168553E+02  0.2478478E+02  0.0000000E+00
Ar 1101  0.1123056E+02  0.3863347E+02  0.2767061E+02  0.0000000E+00
Ar 1102  0.1390103E+02  0.4149931E+02  0.2790705E+02  0.0000000E+00
Ar 1103  0.1390898E+02  0.3849329E+02  0.3012642E+02  0.0000000E+00
Ar 1104  0.1101543E+02  0.4161896E+02  0.3064794E+02  0.0000000E+00
Ar 1105  0.1094565E+02  0.3883152E+02  0.3315374E+02  0.0000000E+00
Ar 1106  0.1382331E+02  0.4143723E+02  0.3312076E+02  0.0000000E+00
Ar 1107  0.1398289E+02  0.3877637E+02  0.3602202E+02  0.0000000E+00
Ar 1108  0.1102772E+02  0.4151650E+02  0.3593966E+02  0.0000000E+00
Ar 1109  0.1140554E+02  0.3867807E+02  0.3867807E+02  0.0000000E+00
Ar 1110  0.1374329E+02  0.4143590E+02  0.3843414E+02  0.0000000E+00
Ar 1111  0.1374329E+02  0.3843414E+02  0.4143590E+02  0.0000000E+00
Ar 1112  0.1112813E+02  0.4132496E+02  0.4132497E+02  0.0000000E+00
Ar 1113  0.1129483E+02  0.3872428E+02  0.4441780E+02  0.0000000E+00
Ar 1114  0.1385153E+02  0.4108431E+02  0.4431900E+02  0.0000000E+00
Ar 1115  0.1385617E+02  0.3860366E+02  0.4714624E+02  0.0000000E+00
Ar 1116  0.1120913E+02  0.4136455E+02  0.4713283E+02  0.0000000E+00
Ar 1117  0.1104366E+02  0.3856121E+02  0.4963492E+02  0.0000000E+00
Ar 1118  0.1385154E+02  0.4120194E+02  0.4967001E+02  0.0000000E+00
Ar 1119  0.1379722E+02  0.3844310E+02  0.5254571E+02  0.0000000E+00
Ar 1120  0.1125551E+02  0.4142728E+02  0.5243493E+02  0.0000000E+00
Ar 1121  0.1147265E+02  0.4429532E+02  0.5511081E+02  0.0000000E+00
Ar 1122  0.1420921E+02  0.4684190E+02  0.5497275E+02  0.0000000E+00
Ar 1123  0.1448196E+02  0.4417779E+02  0.2669308E+01  0.0000000E+00
Ar 1124  0.1136433E+02  0.4662805E+02  0.2834308E+01  0.0000000E+00
Ar 1125  0.1136420E+02  0.4394947E+02  0.5734773E+01  0.0000000E+00
Ar 1126  0.1376788E+02  0.4686275E+02  0.5637473E+01  0.0000000E+00
Ar 1127  0.1397074E+02  0.4460764E+02  0.8424859E+01  0.0000000E+00
Ar 1128  0.1097469E+02  0.4676819E+02  0.8361078E+01  0.0000000E+00
Ar 1129  0.1098169E+02  0.4458446E+02  0.1098169E+02  0.0000000E+00
Ar 1130  0.1386508E+02  0.4710683E+02  0.1102703E+02  0.0000000E+00
Ar 1131  0.1386705E+02  0.4454254E+02  0.1386707E+02  0.0000000E+00
Ar 1132  0.1102702E+02  0.4710682E+02  0.1386507E+02  0.0000000E+00
Ar 1133  0.1148183E+02  0.4431668E+02  0.1656649E+02  0.0000000E+00
Ar 1134  0.1395391E+02  0.4716706E+02  0.1648708E+02  0.0000000E+00
Ar 1135  0.1410206E+02  0.4415689E+02  0.1938237E+02  0.0000000E+00
Ar 1136  0.1120243E+02  0.4706499E+02  0.1940531E+02  0.0000000E+00
Ar 1137  0.1119978E+02  0.4431518E+02  0.2209942E+02  0.0000000E+00
Ar 1138  0.1383565E+02  0.4701780E+02  0.2184335E+02  0.0000000E+00
Ar 1139  0.1376053E+02  0.4438421E+02  0.2487741E+02  0.0000000E+00
Ar 1140  0.1109304E+02  0.4709792E+02  0.2508063E+02  0.0000000E+00
Ar 1141  0.1118148E+02  0.4383584E+02  0.2779439E+02  0.0000000E+00
Ar 1142  0.1374090E+02  0.4697459E+02  0.2778701E+02  0.0000000E+00
Ar 1143  0.1378457E+02  0.4431589E+02  0.3050763E+02  0.0000000E+00
Ar 1144  0.1096521E+02  0.4706439E+02  0.3041812E+02  0.0000000E+00
Ar 1145  0.1119425E+02  0.4429157E+02  0.3325145E+02  0.0000000E+00
Ar 1146  0.1401225E+02  0.4723626E+02  0.3326598E+02  0.0000000E+00
Ar 1147  0.1414272E+02  0.4430629E+02  0.3579240E+02  0.0000000E+00
Ar 1148  0.1110108E+02  0.4716736E+02  0.3579439E+02  0.0000000E+00
Ar 1149  0.1129483E+02  0.4441779E+02  0.3872428E+02  0.0000000E+00
Ar 1150  0.1385617E+02  0.4714624E+02  0.3860365E+02  0.0000000E+00
Ar 1151  0.1385153E+02  0.4431900E+02  0.4108431E+02  0.0000000E+00
Ar 1152  0.1120913E+02  0.4713283E+02  0.4136454E+02  0.0000000E+00
Ar 1153  0.1135965E+02  0.4410167E+02  0.4410167E+02  0.0000000E+00
Ar 1154  0.1395795E+02  0.4691761E+02  0.4424731E+02  0.0000000E+00
Ar 1155  0.1395795E+02  0.4424731E+02  0.4691761E+02  0.0000000E+00
Ar 1156  0.1082677E+02  0.4705629E+02  0.4705630E+02  0.0000000E+00
Ar 1157  0.1126943E+02  0.4404072E+02  0.4956590E+02  0.0000000E+00
Ar 1158  0.1420540E+02  0.4684881E+02  0.4987335E+02  0.0000000E+00
Ar 1159  0.1366582E+02  0.4391869E+02  0.5240947E+02  0.0000000E+00
Ar 1160  0.1137767E+02  0.4706214E+02  0.5238801E+02  0.0000000E+00
Ar 1161  0.1161640E+02  0.4928019E+02  0.3001747E+00  0.0000000E+00
Ar 1162  0.1413726E+02  0.5242796E+02  0.2614277E+00  0.0000000E+00
Ar 1163  0.1377936E+02  0.4969889E+02  0.2948111E+01  0.0000000E+00
Ar 1164  0.1086005E+02  0.5251394E+02  0.2711131E+01  0.0000000E+00
Ar 1165  0.1112416E+02  0.4932397E+02  0.5705603E+01  0.0000000E+00
Ar 1166  0.1371567E+02  0.5244375E+02  0.5574984E+01  0.0000000E+00
Ar 1167  0.1380372E+02  0.4948171E+02  0.8283065E+01  0.0000000E+00
Ar 1168  0.1113529E+02  0.5198863E+02  0.8460373E+01  0.0000000E+00
Ar 1169  0.1125066E+02  0.4960559E+02  0.1125065E+02  0.0000000E+00
Ar 1170  0.1378456E+02  0.5217838E+02  0.1112893E+02  0.0000000E+00
Ar 1171  0.1377685E+02  0.4999527E+02  0.1377684E+02  0.0000000E+00
Ar 1172  0.1112893E+02  0.5217838E+02  0.1378456E+02  0.0000000E+00
Ar 1173  0.1102021E+02  0.4962013E+02  0.1646171E+02  0.0000000E+00
Ar 1174  0.1366630E+02  0.5235971E+02  0.1656182E+02  0.0000000E+00
Ar 1175  0.1386072E+02  0.4978088E+02  0.1939217E+02  0.0000000E+00
Ar 1176  0.1095417E+02  0.5237385E+02  0.1929581E+02  0.0000000E+00
Ar 1177  0.1088079E+02  0.4987218E+02  0.2243795E+02  0.0000000E+00
Ar 1178  0.1357197E+02  0.5255567E+02  0.2207794E+02  0.0000000E+00
Ar 1179  0.1365946E+02  0.4973760E+02  0.2507698E+02  0.0000000E+00
Ar 1180  0.1087049E+02  0.5245918E+02  0.2503586E+02  0.0000000E+00
Ar 1181  0.1123033E+02  0.4969245E+02  0.2780174E+02  0.0000000E+00
Ar 1182  0.1395564E+02  0.5230708E+02  0.2779713E+02  0.0000000E+00
Ar 1183  0.1397332E+02  0.4970475E+02  0.3054862E+02  0.0000000E+00
Ar 1184  0.1087896E+02  0.5249385E+02  0.3065037E+02  0.0000000E+00
Ar 1185  0.1093457E+02  0.4978626E+02  0.3325928E+02  0.0000000E+00
Ar 1186  0.1349439E+02  0.5217006E+02  0.3309898E+02  0.0000000E+00
Ar 1187  0.1382684E+02  0.4995717E+02  0.3605259E+02  0.0000000E+00
Ar 1188  0.1107606E+02  0.5255980E+02  0.3582214E+02  0.0000000E+00
Ar 1189  0.1104366E+02  0.4963492E+02  0.3856121E+02  0.0000000E+00
Ar 1190  0.1379721E+02  0.5254571E+02  0.3844311E+02  0.0000000E+00
Ar 1191  0.1385154E+02  0.4967000E+02  0.4120195E+02  0.0000000E+00
Ar 1192  0.1125552E+02  0.5243493E+02  0.4142727E+02  0.0000000E+00
Ar 1193  0.1126944E+02  0.4956589E+02  0.4404072E+02  0.0000000E+00
Ar 1194  0.1366582E+02  0.5240948E+02  0.4391868E+02  0.0000000E+00
Ar 1195  0.1420540E+02  0.4987336E+02  0.4684880E+02  0.0000000E+00
Ar 1196  0.1137767E+02  0.5238801E+02  0.4706215E+02  0.0000000E+00
Ar 1197  0.1155138E+02  0.4976450E+02  0.4976450E+02  0.0000000E+00
Ar 1198  0.1442770E+02  0.5269637E+02  0.4945536E+02  0.0000000E+00
Ar 1199  0.1442770E+02  0.4945536E+02  0.5269636E+02  0.0000000E+00
Ar 1200  0.1181069E+02  0.5235969E+02  0.5235971E+02  0.0000000E+00
Ar 1201  0.1659527E+02  0.5520338E+02  0.5520338E+02  0.0000000E+00
Ar 1202  0.1969971E+02  0.2951264E+01  0.5500917E+02  0.0000000E+00
Ar 1203  0.1969971E+02  0.5500917E+02  0.2951271E+01  0.0000000E+00
Ar 1204  0.1689092E+02  0.2815686E+01  0.2815682E+01  0.0000000E+00
Ar 1205  0.1675231E+02  0.5482274E+02  0.5800465E+01  0.0000000E+00
Ar 1206  0.1952250E+02  0.2584274E+01  0.5410822E+01  0.0000000E+00
Ar 1207  0.1932512E+02  0.1354948E+00  0.8205594E+01  0.0000000E+00
Ar 1208  0.1697936E+02  0.2904175E+01  0.8484677E+01  0.0000000E+00
Ar 1209  0.1673726E+02  0.9285313E-01  0.1119593E+02  0.0000000E+00
Ar 1210  0.1942196E+02  0.3071669E+01  0.1113272E+02  0.0000000E+00
Ar 1211  0.1947689E+02  0.3849461E+00  0.1377138E+02  0.0000000E+00
Ar 1212  0.1660804E+02  0.3071154E+01  0.1383110E+02  0.0000000E+00
Ar 1213  0.1680822E+02  0.5489344E+02  0.1680823E+02  0.0000000E+00
Ar 1214  0.1928083E+02  0.2897722E+01  0.1655595E+02  0.0000000E+00
Ar 1215  0.1924483E+02  0.5489966E+02  0.1924483E+02  0.0000000E+00
Ar 1216  0.1655595E+02  0.2897724E+01  0.1928082E+02  0.0000000E+00
Ar 1217  0.1630441E+02  0.1390330E+00  0.2176878E+02  0.0000000E+00
Ar 1218  0.1937319E+02  0.2659394E+01  0.2189055E+02  0.0000000E+00
Ar 1219  0.1943630E+02  0.5509178E+02  0.2513543E+02  0.0000000E+00
Ar 1220  0.1664396E+02  0.2731252E+01  0.2489073E+02  0.0000000E+00
Ar 1221  0.1635721E+02  0.2262169E+00  0.2751387E+02  0.0000000E+00
Ar 1222  0.1916390E+02  0.2823184E+01  0.2770094E+02  0.0000000E+00
Ar 1223  0.1966965E+02  0.1877232E+00  0.3097619E+02  0.0000000E+00
Ar 1224  0.1670129E+02  0.3150816E+01  0.3046441E+02  0.0000000E+00
Ar 1225  0.1602766E+02  0.5514844E+02  0.3279834E+02  0.0000000E+00
Ar 1226  0.1946126E+02  0.3154341E+01  0.3321382E+02  0.0000000E+00
Ar 1227  0.1972158E+02  0.1928483E+00  0.3594493E+02  0.0000000E+00
Ar 1228  0.1652509E+02  0.2851292E+01  0.3562040E+02  0.0000000E+00
Ar 1229  0.1650137E+02  0.1845643E+00  0.3842450E+02  0.0000000E+00
Ar 1230  0.1955889E+02  0.3133899E+01  0.3878051E+02  0.0000000E+00
Ar 1231  0.1920793E+02  0.4880447E+00  0.4144541E+02  0.0000000E+00
Ar 1232  0.1667659E+02  0.3076665E+01  0.4128303E+02  0.0000000E+00
Ar 1233  0.1715211E+02  0.5034695E+00  0.4420429E+02  0.0000000E+00
Ar 1234  0.1942060E+02  0.3038074E+01  0.4432140E+02  0.0000000E+00
Ar 1235  0.1962388E+02  0.4032264E+00  0.4702704E+02  0.0000000E+00
Ar 1236  0.1653252E+02  0.2903359E+01  0.4708824E+02  0.0000000E+00
Ar 1237  0.1682745E+02  0.2928106E+00  0.4967274E+02  0.0000000E+00
Ar 1238  0.1933539E+02  0.2941842E+01  0.4943721E+02  0.0000000E+00
Ar 1239  0.1996246E+02  0.5508976E+02  0.5253809E+02  0.0000000E+00
Ar 1240  0.1695854E+02  0.2886444E+01  0.5234595E+02  0.0000000E+00
Ar 1241  0.1675231E+02  0.5800462E+01  0.5482274E+02  0.0000000E+00
Ar 1242  0.1932512E+02  0.8205592E+01  0.1354973E+00  0.0000000E+00
Ar 1243  0.1952250E+02  0.5410823E+01  0.2584268E+01  0.0000000E+00
Ar 1244  0.1697936E+02  0.8484679E+01  0.2904173E+01  0.0000000E+00
Ar 1245  0.1716577E+02  0.5373780E+01  0.5373779E+01  0.0000000E+00
Ar 1246  0.1966105E+02  0.8143672E+01  0.5522884E+01  0.0000000E+00
Ar 1247  0.1966104E+02  0.5522884E+01  0.8143668E+01  0.0000000E+00
Ar 1248  0.1697072E+02  0.8010718E+01  0.8010713E+01  0.0000000E+00
Ar 1249  0.1693236E+02  0.5691273E+01  0.1111341E+02  0.0000000E+00
Ar 1250  0.1962339E+02  0.8077693E+01  0.1094873E+02  0.0000000E+00
Ar 1251  0.1951718E+02  0.5733726E+01  0.1397095E+02  0.0000000E+00
Ar 1252  0.1691075E+02  0.8064486E+01  0.1396710E+02  0.0000000E+00
Ar 1253  0.1676250E+02  0.5688560E+01  0.1676250E+02  0.0000000E+00
Ar 1254  0.1923301E+02  0.8281200E+01  0.1676691E+02  0.0000000E+00
Ar 1255  0.1970918E+02  0.5789433E+01  0.1970918E+02  0.0000000E+00
Ar 1256  0.1676691E+02  0.8281203E+01  0.1923300E+02  0.0000000E+00
Ar 1257  0.1681662E+02  0.5814551E+01  0.2205873E+02  0.0000000E+00
Ar 1258  0.1931452E+02  0.8446816E+01  0.2221873E+02  0.0000000E+00
Ar 1259  0.1918517E+02  0.5583097E+01  0.2477554E+02  0.0000000E+00
Ar 1260  0.1642543E+02  0.8428445E+01  0.2508723E+02  0.0000000E+00
Ar 1261  0.1648535E+02  0.5555253E+01  0.2753775E+02  0.0000000E+00
Ar 1262  0.1893081E+02  0.8159955E+01  0.2774529E+02  0.0000000E+00
Ar 1263  0.1921509E+02  0.5853211E+01  0.3048200E+02  0.0000000E+00
Ar 1264  0.1620440E+02  0.8386786E+01  0.3034024E+02  0.0000000E+00
Ar 1265  0.1634754E+02  0.5657367E+01  0.3305164E+02  0.0000000E+00
Ar 1266  0.1952501E+02  0.8291302E+01  0.3307878E+02  0.0000000E+00
Ar 1267  0.1914619E+02  0.5776866E+01  0.3612919E+02  0.0000000E+00
Ar 1268  0.1635834E+02  0.8198426E+01  0.3578124E+02  0.0000000E+00
Ar 1269  0.1650306E+02  0.5738171E+01  0.3867739E+02  0.0000000E+00
Ar 1270  0.1963283E+02  0.8364115E+01  0.3880364E+02  0.0000000E+00
Ar 1271  0.1930262E+02  0.5631734E+01  0.4166074E+02  0.0000000E+00
Ar 1272  0.1668450E+02  0.8235533E+01  0.4141687E+02  0.0000000E+00
Ar 1273  0.1672464E+02  0.5740369E+01  0.4444376E+02  0.0000000E+00
Ar 1274  0.1934231E+02  0.8426107E+01  0.4410567E+02  0.0000000E+00
Ar 1275  0.1926908E+02  0.5703589E+01  0.4711376E+02  0.0000000E+00
Ar 1276  0.1661054E+02  0.8418553E+01  0.4692482E+02  0.0000000E+00
Ar 1277  0.1657488E+02  0.5742487E+01  0.4962292E+02  0.0000000E+00
Ar 1278  0.1935319E+02  0.8380570E+01  0.4990523E+02  0.0000000E+00
Ar 1279  0.1936004E+02  0.5698880E+01  0.5229891E+02  0.0000000E+00
Ar 1280  0.1648902E+02  0.8617416E+01  0.5245807E+02  0.0000000E+00
Ar 1281  0.1673726E+02  0.1119594E+02  0.9285140E-01  0.0000000E+00
Ar 1282  0.1947690E+02  0.1377138E+02  0.3849468E+00  0.0000000E+00
Ar 1283  0.1942196E+02  0.1113272E+02  0.3071664E+01  0.0000000E+00
Ar 1284  0.1660805E+02  0.1383111E+02  0.3071155E+01  0.0000000E+00
Ar 1285  0.1693236E+02  0.1111341E+02  0.5691272E+01  0.0000000E+00
Ar 1286  0.1951718E+02  0.1397095E+02  0.5733725E+01  0.0000000E+00
Ar 1287  0.1962339E+02  0.1094873E+02  0.8077696E+01  0.0000000E+00
Ar 1288  0.1691075E+02  0.1396710E+02  0.8064485E+01  0.0000000E+00
Ar 1289  0.1674516E+02  0.1063364E+02  0.1063365E+02  0.0000000E+00
Ar 1290  0.1919367E+02  0.1389561E+02  0.1079500E+02  0.0000000E+00
Ar 1291  0.1919367E+02  0.1079500E+02  0.1389560E+02  0.0000000E+00
Ar 1292  0.1655885E+02  0.1334197E+02  0.1334197E+02  0.0000000E+00
Ar 1293  0.1627615E+02  0.1092256E+02  0.1627615E+02  0.0000000E+00
Ar 1294  0.1909033E+02  0.1357312E+02  0.1639838E+02  0.0000000E+00
Ar 1295  0.1938872E+02  0.1153411E+02  0.1938871E+02  0.0000000E+00
Ar 1296  0.1639838E+02  0.1357313E+02  0.1909031E+02  0.0000000E+00
Ar 1297  0.1672261E+02  0.1093587E+02  0.2222700E+02  0.0000000E+00
Ar 1298  0.1892890E+02  0.1393236E+02  0.2202490E+02  0.0000000E+00
Ar 1299  0.1937410E+02  0.1117336E+02  0.2480670E+02  0.0000000E+00
Ar 1300  0.1652335E+02  0.1389631E+02  0.2504712E+02  0.0000000E+00
Ar 1301  0.1659552E+02  0.1116668E+02  0.2763064E+02  0.0000000E+00
Ar 1302  0.1937586E+02  0.1360153E+02  0.2775891E+02  0.0000000E+00
Ar 1303  0.1923272E+02  0.1077081E+02  0.3063133E+02  0.0000000E+00
Ar 1304  0.1618397E+02  0.1364517E+02  0.3037492E+02  0.0000000E+00
Ar 1305  0.1629709E+02  0.1092940E+02  0.3302393E+02  0.0000000E+00
Ar 1306  0.1914267E+02  0.1361165E+02  0.3315543E+02  0.0000000E+00
Ar 1307  0.1909497E+02  0.1072639E+02  0.3579730E+02  0.0000000E+00
Ar 1308  0.1674096E+02  0.1383948E+02  0.3583077E+02  0.0000000E+00
Ar 1309  0.1655247E+02  0.1081395E+02  0.3854414E+02  0.0000000E+00
Ar 1310  0.1909858E+02  0.1370534E+02  0.3865494E+02  0.0000000E+00
Ar 1311  0.1916168E+02  0.1127030E+02  0.4153670E+02  0.0000000E+00
Ar 1312  0.1652095E+02  0.1383868E+02  0.4155689E+02  0.0000000E+00
Ar 1313  0.1656649E+02  0.1148182E+02  0.4431669E+02  0.0000000E+00
Ar 1314  0.1938238E+02  0.1410207E+02  0.4415689E+02  0.0000000E+00
Ar 1315  0.1940531E+02  0.1120244E+02  0.4706498E+02  0.0000000E+00
Ar 1316  0.1648708E+02  0.1395391E+02  0.4716707E+02  0.0000000E+00
Ar 1317  0.1646171E+02  0.1102023E+02  0.4962014E+02  0.0000000E+00
Ar 1318  0.1939217E+02  0.1386072E+02  0.4978088E+02  0.0000000E+00
Ar 1319  0.1929580E+02  0.1095418E+02  0.5237386E+02  0.0000000E+00
Ar 1320  0.1656182E+02  0.1366631E+02  0.5235971E+02  0.0000000E+00
Ar 1321  0.1680822E+02  0.1680823E+02  0.5489344E+02  0.0000000E+00
Ar 1322  0.1924483E+02  0.1924482E+02  0.5489965E+02  0.0000000E+00
Ar 1323  0.1928083E+02  0.1655596E+02  0.2897724E+01  0.0000000E+00
Ar 1324  0.1655595E+02  0.1928082E+02  0.2897726E+01  0.0000000E+00
Ar 1325  0.1676250E+02  0.1676250E+02  0.5688556E+01  0.0000000E+00
Ar 1326  0.1970918E+02  0.1970918E+02  0.5789437E+01  0.0000000E+00
Ar 1327  0.1923301E+02  0.1676691E+02  0.8281199E+01  0.0000000E+00
Ar 1328  0.1676691E+02  0.1923300E+02  0.8281198E+01  0.0000000E+00
Ar 1329  0.1627615E+02  0.1627615E+02  0.1092257E+02  0.0000000E+00
Ar 1330  0.1938873E+02  0.1938872E+02  0.1153411E+02  0.0000000E+00
Ar 1331  0.1909032E+02  0.1639838E+02  0.1357312E+02  0.0000000E+00
Ar 1332  0.1639838E+02  0.1909031E+02  0.1357313E+02  0.0000000E+00
Ar 1333  0.1614049E+02  0.1614049E+02  0.1614048E+02  0.0000000E+00
Ar 1334  0.1896325E+02  0.1896325E+02  0.1600435E+02  0.0000000E+00
Ar 1335  0.1896325E+02  0.1600435E+02  0.1896325E+02  0.0000000E+00
Ar 1336  0.1600435E+02  0.1896323E+02  0.1896323E+02  0.0000000E+00
Ar 1337  0.1631345E+02  0.1631344E+02  0.2154074E+02  0.0000000E+00
Ar 1338  0.1926656E+02  0.1926656E+02  0.2184704E+02  0.0000000E+00
Ar 1339  0.1911358E+02  0.1643949E+02  0.2467930E+02  0.0000000E+00
Ar 1340  0.1643950E+02  0.1911358E+02  0.2467929E+02  0.0000000E+00
Ar 1341  0.1653836E+02  0.1653836E+02  0.2766917E+02  0.0000000E+00
Ar 1342  0.1918526E+02  0.1918527E+02  0.2747887E+02  0.0000000E+00
Ar 1343  0.1941089E+02  0.1645499E+02  0.3019449E+02  0.0000000E+00
Ar 1344  0.1645500E+02  0.1941089E+02  0.3019448E+02  0.0000000E+00
Ar 1345  0.1661542E+02  0.1661542E+02  0.3349368E+02  0.0000000E+00
Ar 1346  0.1926522E+02  0.1926523E+02  0.3332200E+02  0.0000000E+00
Ar 1347  0.1954624E+02  0.1653285E+02  0.3590472E+02  0.0000000E+00
Ar 1348  0.1653285E+02  0.1954624E+02  0.3590472E+02  0.0000000E+00
Ar 1349  0.1655129E+02  0.1655129E+02  0.3846977E+02  0.0000000E+00
Ar 1350  0.1930223E+02  0.1930223E+02  0.3862096E+02  0.0000000E+00
Ar 1351  0.1960784E+02  0.1664035E+02  0.4147629E+02  0.0000000E+00
Ar 1352  0.1664034E+02  0.1960783E+02  0.4147629E+02  0.0000000E+00
Ar 1353  0.1656687E+02  0.1656686E+02  0.4411247E+02  0.0000000E+00
Ar 1354  0.1928443E+02  0.1928442E+02  0.4430092E+02  0.0000000E+00
Ar 1355  0.1912600E+02  0.1664864E+02  0.4708657E+02  0.0000000E+00
Ar 1356  0.1664865E+02  0.1912599E+02  0.4708656E+02  0.0000000E+00
Ar 1357  0.1636568E+02  0.1636569E+02  0.5003265E+02  0.0000000E+00
Ar 1358  0.1937893E+02  0.1937894E+02  0.5012208E+02  0.0000000E+00
Ar 1359  0.1940537E+02  0.1639300E+02  0.5236466E+02  0.0000000E+00
Ar 1360  0.1639301E+02  0.1940538E+02  0.5236466E+02  0.0000000E+00
Ar 1361  0.1630441E+02  0.2176879E+02  0.1390362E+00  0.0000000E+00
Ar 1362  0.1943629E+02  0.2513543E+02  0.5509179E+02  0.0000000E+00
Ar 1363  0.1937319E+02  0.2189055E+02  0.2659395E+01  0.0000000E+00
Ar 1364  0.1664396E+02  0.2489074E+02  0.2731254E+01  0.0000000E+00
Ar 1365  0.1681662E+02  0.2205873E+02  0.5814552E+01  0.0000000E+00
Ar 1366  0.1918517E+02  0.2477554E+02  0.5583104E+01  0.0000000E+00
Ar 1367  0.1931452E+02  0.2221873E+02  0.8446816E+01  0.0000000E+00
Ar 1368  0.1642543E+02  0.2508724E+02  0.8428445E+01  0.0000000E+00
Ar 1369  0.1672261E+02  0.2222700E+02  0.1093587E+02  0.0000000E+00
Ar 1370  0.1937410E+02  0.2480670E+02  0.1117336E+02  0.0000000E+00
Ar 1371  0.1892890E+02  0.2202490E+02  0.1393236E+02  0.0000000E+00
Ar 1372  0.1652334E+02  0.2504712E+02  0.1389630E+02  0.0000000E+00
Ar 1373  0.1631344E+02  0.2154075E+02  0.1631345E+02  0.0000000E+00
Ar 1374  0.1911357E+02  0.2467930E+02  0.1643949E+02  0.0000000E+00
Ar 1375  0.1926656E+02  0.2184705E+02  0.1926656E+02  0.0000000E+00
Ar 1376  0.1643950E+02  0.2467930E+02  0.1911358E+02  0.0000000E+00
Ar 1377  0.1632837E+02  0.2181484E+02  0.2181484E+02  0.0000000E+00
Ar 1378  0.1942456E+02  0.2479310E+02  0.2197751E+02  0.0000000E+00
Ar 1379  0.1942455E+02  0.2197751E+02  0.2479309E+02  0.0000000E+00
Ar 1380  0.1657039E+02  0.2436368E+02  0.2436369E+02  0.0000000E+00
Ar 1381  0.1657679E+02  0.2189136E+02  0.2723724E+02  0.0000000E+00
Ar 1382  0.1926700E+02  0.2485059E+02  0.2754131E+02  0.0000000E+00
Ar 1383  0.1912888E+02  0.2197421E+02  0.3023571E+02  0.0000000E+00
Ar 1384  0.1652234E+02  0.2469746E+02  0.3014256E+02  0.0000000E+00
Ar 1385  0.1656496E+02  0.2209910E+02  0.3289796E+02  0.0000000E+00
Ar 1386  0.1954176E+02  0.2436462E+02  0.3335697E+02  0.0000000E+00
Ar 1387  0.1915663E+02  0.2195388E+02  0.3609396E+02  0.0000000E+00
Ar 1388  0.1673163E+02  0.2488787E+02  0.3609725E+02  0.0000000E+00
Ar 1389  0.1656605E+02  0.2193505E+02  0.3868562E+02  0.0000000E+00
Ar 1390  0.1917757E+02  0.2490120E+02  0.3881361E+02  0.0000000E+00
Ar 1391  0.1930641E+02  0.2179086E+02  0.4150958E+02  0.0000000E+00
Ar 1392  0.1664617E+02  0.2437747E+02  0.4143397E+02  0.0000000E+00
Ar 1393  0.1669935E+02  0.2186697E+02  0.4434944E+02  0.0000000E+00
Ar 1394  0.1934138E+02  0.2459290E+02  0.4445841E+02  0.0000000E+00
Ar 1395  0.1938288E+02  0.2195734E+02  0.4715536E+02  0.0000000E+00
Ar 1396  0.1621373E+02  0.2471324E+02  0.4695151E+02  0.0000000E+00
Ar 1397  0.1636258E+02  0.2204194E+02  0.4948870E+02  0.0000000E+00
Ar 1398  0.1879001E+02  0.2483663E+02  0.4961761E+02  0.0000000E+00
Ar 1399  0.1953643E+02  0.2238523E+02  0.5251568E+02  0.0000000E+00
Ar 1400  0.1646935E+02  0.2472141E+02  0.5229540E+02  0.0000000E+00
Ar 1401  0.1635721E+02  0.2751388E+02  0.2262152E+00  0.0000000E+00
Ar 1402  0.1966964E+02  0.3097619E+02  0.1877223E+00  0.0000000E+00
Ar 1403  0.1916390E+02  0.2770095E+02  0.2823186E+01  0.0000000E+00
Ar 1404  0.1670129E+02  0.3046441E+02  0.3150819E+01  0.0000000E+00
Ar 1405  0.1648536E+02  0.2753775E+02  0.5555254E+01  0.0000000E+00
Ar 1406  0.1921509E+02  0.3048201E+02  0.5853210E+01  0.0000000E+00
Ar 1407  0.1893081E+02  0.2774530E+02  0.8159958E+01  0.0000000E+00
Ar 1408  0.1620441E+02  0.3034024E+02  0.8386786E+01  0.0000000E+00
Ar 1409  0.1659552E+02  0.2763065E+02  0.1116669E+02  0.0000000E+00
Ar 1410  0.1923272E+02  0.3063133E+02  0.1077081E+02  0.0000000E+00
Ar 1411  0.1937587E+02  0.2775891E+02  0.1360153E+02  0.0000000E+00
Ar 1412  0.1618397E+02  0.3037493E+02  0.1364517E+02  0.0000000E+00
Ar 1413  0.1653836E+02  0.2766917E+02  0.1653836E+02  0.0000000E+00
Ar 1414  0.1941089E+02  0.3019449E+02  0.1645500E+02  0.0000000E+00
Ar 1415  0.1918526E+02  0.2747887E+02  0.1918527E+02  0.0000000E+00
Ar 1416  0.1645500E+02  0.3019447E+02  0.1941089E+02  0.0000000E+00
Ar 1417  0.1657679E+02  0.2723724E+02  0.2189137E+02  0.0000000E+00
Ar 1418  0.1912888E+02  0.3023571E+02  0.2197421E+02  0.0000000E+00
Ar 1419  0.1926700E+02  0.2754131E+02  0.2485059E+02  0.0000000E+00
Ar 1420  0.1652234E+02  0.3014256E+02  0.2469746E+02  0.0000000E+00
Ar 1421  0.1648299E+02  0.2744372E+02  0.2744372E+02  0.0000000E+00
Ar 1422  0.1920653E+02  0.3026219E+02  0.2762464E+02  0.0000000E+00
Ar 1423  0.1920654E+02  0.2762464E+02  0.3026218E+02  0.0000000E+00
Ar 1424  0.1631233E+02  0.3007959E+02  0.3007959E+02  0.0000000E+00
Ar 1425  0.1662070E+02  0.2737677E+02  0.3288495E+02  0.0000000E+00
Ar 1426  0.1907150E+02  0.3034591E+02  0.3309403E+02  0.0000000E+00
Ar 1427  0.1920905E+02  0.2757530E+02  0.3571672E+02  0.0000000E+00
Ar 1428  0.1650008E+02  0.2999283E+02  0.3588027E+02  0.0000000E+00
Ar 1429  0.1664027E+02  0.2762530E+02  0.3889821E+02  0.0000000E+00
Ar 1430  0.1928506E+02  0.3044068E+02  0.3871014E+02  0.0000000E+00
Ar 1431  0.1927913E+02  0.2725444E+02  0.4186008E+02  0.0000000E+00
Ar 1432  0.1649359E+02  0.3053483E+02  0.4189508E+02  0.0000000E+00
Ar 1433  0.1628676E+02  0.2763952E+02  0.4431462E+02  0.0000000E+00
Ar 1434  0.1938117E+02  0.3035717E+02  0.4440324E+02  0.0000000E+00
Ar 1435  0.1936684E+02  0.2764088E+02  0.4691948E+02  0.0000000E+00
Ar 1436  0.1665328E+02  0.3050389E+02  0.4711294E+02  0.0000000E+00
Ar 1437  0.1657598E+02  0.2750919E+02  0.4952918E+02  0.0000000E+00
Ar 1438  0.1958383E+02  0.3019616E+02  0.4980532E+02  0.0000000E+00
Ar 1439  0.1929466E+02  0.2757612E+02  0.5246279E+02  0.0000000E+00
Ar 1440  0.1655929E+02  0.3033850E+02  0.5235049E+02  0.0000000E+00
Ar 1441  0.1602765E+02  0.3279834E+02  0.5514845E+02  0.0000000E+00
Ar 1442  0.1972157E+02  0.3594493E+02  0.1928467E+00  0.0000000E+00
Ar 1443  0.1946125E+02  0.3321382E+02  0.3154341E+01  0.0000000E+00
Ar 1444  0.1652509E+02  0.3562040E+02  0.2851290E+01  0.0000000E+00
Ar 1445  0.1634754E+02  0.3305164E+02  0.5657365E+01  0.0000000E+00
Ar 1446  0.1914618E+02  0.3612919E+02  0.5776867E+01  0.0000000E+00
Ar 1447  0.1952502E+02  0.3307878E+02  0.8291298E+01  0.0000000E+00
Ar 1448  0.1635834E+02  0.3578124E+02  0.8198428E+01  0.0000000E+00
Ar 1449  0.1629709E+02  0.3302393E+02  0.1092940E+02  0.0000000E+00
Ar 1450  0.1909498E+02  0.3579730E+02  0.1072639E+02  0.0000000E+00
Ar 1451  0.1914267E+02  0.3315543E+02  0.1361166E+02  0.0000000E+00
Ar 1452  0.1674096E+02  0.3583077E+02  0.1383948E+02  0.0000000E+00
Ar 1453  0.1661543E+02  0.3349368E+02  0.1661542E+02  0.0000000E+00
Ar 1454  0.1954623E+02  0.3590472E+02  0.1653285E+02  0.0000000E+00
Ar 1455  0.1926522E+02  0.3332200E+02  0.1926522E+02  0.0000000E+00
Ar 1456  0.1653285E+02  0.3590472E+02  0.1954624E+02  0.0000000E+00
Ar 1457  0.1656496E+02  0.3289796E+02  0.2209909E+02  0.0000000E+00
Ar 1458  0.1915663E+02  0.3609396E+02  0.2195388E+02  0.0000000E+00
Ar 1459  0.1954176E+02  0.3335696E+02  0.2436461E+02  0.0000000E+00
Ar 1460  0.1673163E+02  0.3609725E+02  0.2488787E+02  0.0000000E+00
Ar 1461  0.1662070E+02  0.3288495E+02  0.2737677E+02  0.0000000E+00
Ar 1462  0.1920905E+02  0.3571672E+02  0.2757530E+02  0.0000000E+00
Ar 1463  0.1907150E+02  0.3309404E+02  0.3034591E+02  0.0000000E+00
Ar 1464  0.1650008E+02  0.3588028E+02  0.2999283E+02  0.0000000E+00
Ar 1465  0.1645551E+02  0.3306896E+02  0.3306896E+02  0.0000000E+00
Ar 1466  0.1905988E+02  0.3590680E+02  0.3328173E+02  0.0000000E+00
Ar 1467  0.1905988E+02  0.3328173E+02  0.3590679E+02  0.0000000E+00
Ar 1468  0.1626825E+02  0.3591571E+02  0.3591571E+02  0.0000000E+00
Ar 1469  0.1658137E+02  0.3312789E+02  0.3879618E+02  0.0000000E+00
Ar 1470  0.1933908E+02  0.3582002E+02  0.3850762E+02  0.0000000E+00
Ar 1471  0.1932075E+02  0.3309316E+02  0.4131508E+02  0.0000000E+00
Ar 1472  0.1666971E+02  0.3590486E+02  0.4147759E+02  0.0000000E+00
Ar 1473  0.1672794E+02  0.3319302E+02  0.4434655E+02  0.0000000E+00
Ar 1474  0.1937968E+02  0.3576375E+02  0.4421746E+02  0.0000000E+00
Ar 1475  0.1960993E+02  0.3300249E+02  0.4691538E+02  0.0000000E+00
Ar 1476  0.1676322E+02  0.3623098E+02  0.4723490E+02  0.0000000E+00
Ar 1477  0.1688282E+02  0.3319492E+02  0.4984357E+02  0.0000000E+00
Ar 1478  0.1965869E+02  0.3583232E+02  0.4993867E+02  0.0000000E+00
Ar 1479  0.1951865E+02  0.3338919E+02  0.5246269E+02  0.0000000E+00
Ar 1480  0.1686463E+02  0.3580168E+02  0.5267465E+02  0.0000000E+00
Ar 1481  0.1650137E+02  0.3842451E+02  0.1845621E+00  0.0000000E+00
Ar 1482  0.1920795E+02  0.4144542E+02  0.4880478E+00  0.0000000E+00
Ar 1483  0.1955889E+02  0.3878051E+02  0.3133902E+01  0.0000000E+00
Ar 1484  0.1667659E+02  0.4128303E+02  0.3076662E+01  0.0000000E+00
Ar 1485  0.1650306E+02  0.3867739E+02  0.5738165E+01  0.0000000E+00
Ar 1486  0.1930262E+02  0.4166075E+02  0.5631729E+01  0.0000000E+00
Ar 1487  0.1963283E+02  0.3880364E+02  0.8364113E+01  0.0000000E+00
Ar 1488  0.1668450E+02  0.4141686E+02  0.8235525E+01  0.0000000E+00
Ar 1489  0.1655248E+02  0.3854414E+02  0.1081394E+02  0.0000000E+00
Ar 1490  0.1916168E+02  0.4153670E+02  0.1127029E+02  0.0000000E+00
Ar 1491  0.1909858E+02  0.3865494E+02  0.1370533E+02  0.0000000E+00
Ar 1492  0.1652095E+02  0.4155689E+02  0.1383868E+02  0.0000000E+00
Ar 1493  0.1655130E+02  0.3846976E+02  0.1655130E+02  0.0000000E+00
Ar 1494  0.1960784E+02  0.4147629E+02  0.1664035E+02  0.0000000E+00
Ar 1495  0.1930224E+02  0.3862096E+02  0.1930223E+02  0.0000000E+00
Ar 1496  0.1664035E+02  0.4147629E+02  0.1960783E+02  0.0000000E+00
Ar 1497  0.1656605E+02  0.3868562E+02  0.2193505E+02  0.0000000E+00
Ar 1498  0.1930641E+02  0.4150958E+02  0.2179086E+02  0.0000000E+00
Ar 1499  0.1917757E+02  0.3881361E+02  0.2490120E+02  0.0000000E+00
Ar 1500  0.1664617E+02  0.4143397E+02  0.2437747E+02  0.0000000E+00
Ar 1501  0.1664027E+02  0.3889820E+02  0.2762530E+02  0.0000000E+00
Ar 1502  0.1927913E+02  0.4186008E+02  0.2725444E+02  0.0000000E+00
Ar 1503  0.1928506E+02  0.3871014E+02  0.3044069E+02  0.0000000E+00
Ar 1504  0.1649359E+02  0.4189508E+02  0.3053484E+02  0.0000000E+00
Ar 1505  0.1658137E+02  0.3879618E+02  0.3312789E+02  0.0000000E+00
Ar 1506  0.1932075E+02  0.4131508E+02  0.3309316E+02  0.0000000E+00
Ar 1507  0.1933908E+02  0.3850762E+02  0.3582002E+02  0.0000000E+00
Ar 1508  0.1666971E+02  0.4147760E+02  0.3590486E+02  0.0000000E+00
Ar 1509  0.1677938E+02  0.3879824E+02  0.3879824E+02  0.0000000E+00
Ar 1510  0.1939292E+02  0.4118775E+02  0.3849569E+02  0.0000000E+00
Ar 1511  0.1939293E+02  0.3849568E+02  0.4118775E+02  0.0000000E+00
Ar 1512  0.1624688E+02  0.4140227E+02  0.4140228E+02  0.0000000E+00
Ar 1513  0.1672124E+02  0.3844634E+02  0.4408215E+02  0.0000000E+00
Ar 1514  0.1947955E+02  0.4147660E+02  0.4413870E+02  0.0000000E+00
Ar 1515  0.1949813E+02  0.3891859E+02  0.4709985E+02  0.0000000E+00
Ar 1516  0.1655062E+02  0.4117814E+02  0.4665865E+02  0.0000000E+00
Ar 1517  0.1673848E+02  0.3854848E+02  0.4998914E+02  0.0000000E+00
Ar 1518  0.1967606E+02  0.4175121E+02  0.4946300E+02  0.0000000E+00
Ar 1519  0.1948899E+02  0.3886237E+02  0.5243571E+02  0.0000000E+00
Ar 1520  0.1651217E+02  0.4125971E+02  0.5226276E+02  0.0000000E+00
Ar 1521  0.1715212E+02  0.4420429E+02  0.5034693E+00  0.0000000E+00
Ar 1522  0.1962388E+02  0.4702704E+02  0.4032287E+00  0.0000000E+00
Ar 1523  0.1942060E+02  0.4432140E+02  0.3038076E+01  0.0000000E+00
Ar 1524  0.1653252E+02  0.4708824E+02  0.2903356E+01  0.0000000E+00
Ar 1525  0.1672463E+02  0.4444376E+02  0.5740372E+01  0.0000000E+00
Ar 1526  0.1926908E+02  0.4711375E+02  0.5703591E+01  0.0000000E+00
Ar 1527  0.1934232E+02  0.4410567E+02  0.8426108E+01  0.0000000E+00
Ar 1528  0.1661054E+02  0.4692481E+02  0.8418548E+01  0.0000000E+00
Ar 1529  0.1656649E+02  0.4431669E+02  0.1148184E+02  0.0000000E+00
Ar 1530  0.1940531E+02  0.4706499E+02  0.1120244E+02  0.0000000E+00
Ar 1531  0.1938238E+02  0.4415689E+02  0.1410207E+02  0.0000000E+00
Ar 1532  0.1648709E+02  0.4716707E+02  0.1395391E+02  0.0000000E+00
Ar 1533  0.1656686E+02  0.4411247E+02  0.1656686E+02  0.0000000E+00
Ar 1534  0.1912600E+02  0.4708657E+02  0.1664864E+02  0.0000000E+00
Ar 1535  0.1928442E+02  0.4430092E+02  0.1928441E+02  0.0000000E+00
Ar 1536  0.1664865E+02  0.4708657E+02  0.1912599E+02  0.0000000E+00
Ar 1537  0.1669936E+02  0.4434945E+02  0.2186697E+02  0.0000000E+00
Ar 1538  0.1938289E+02  0.4715536E+02  0.2195734E+02  0.0000000E+00
Ar 1539  0.1934139E+02  0.4445842E+02  0.2459290E+02  0.0000000E+00
Ar 1540  0.1621373E+02  0.4695150E+02  0.2471324E+02  0.0000000E+00
Ar 1541  0.1628676E+02  0.4431462E+02  0.2763952E+02  0.0000000E+00
Ar 1542  0.1936684E+02  0.4691948E+02  0.2764087E+02  0.0000000E+00
Ar 1543  0.1938116E+02  0.4440324E+02  0.3035717E+02  0.0000000E+00
Ar 1544  0.1665327E+02  0.4711294E+02  0.3050390E+02  0.0000000E+00
Ar 1545  0.1672794E+02  0.4434655E+02  0.3319303E+02  0.0000000E+00
Ar 1546  0.1960993E+02  0.4691537E+02  0.3300248E+02  0.0000000E+00
Ar 1547  0.1937968E+02  0.4421746E+02  0.3576375E+02  0.0000000E+00
Ar 1548  0.1676323E+02  0.4723489E+02  0.3623098E+02  0.0000000E+00
Ar 1549  0.1672124E+02  0.4408215E+02  0.3844633E+02  0.0000000E+00
Ar 1550  0.1949814E+02  0.4709985E+02  0.3891860E+02  0.0000000E+00
Ar 1551  0.1947956E+02  0.4413869E+02  0.4147659E+02  0.0000000E+00
Ar 1552  0.1655063E+02  0.4665864E+02  0.4117814E+02  0.0000000E+00
Ar 1553  0.1641726E+02  0.4405350E+02  0.4405350E+02  0.0000000E+00
Ar 1554  0.1933318E+02  0.4683441E+02  0.4400115E+02  0.0000000E+00
Ar 1555  0.1933320E+02  0.4400116E+02  0.4683441E+02  0.0000000E+00
Ar 1556  0.1681246E+02  0.4662961E+02  0.4662961E+02  0.0000000E+00
Ar 1557  0.1658362E+02  0.4392637E+02  0.4978769E+02  0.0000000E+00
Ar 1558  0.1946154E+02  0.4707398E+02  0.4959921E+02  0.0000000E+00
Ar 1559  0.1952447E+02  0.4403229E+02  0.5227341E+02  0.0000000E+00
Ar 1560  0.1669786E+02  0.4624904E+02  0.5260215E+02  0.0000000E+00
Ar 1561  0.1682745E+02  0.4967274E+02  0.2928093E+00  0.0000000E+00
Ar 1562  0.1996246E+02  0.5253808E+02  0.5508976E+02  0.0000000E+00
Ar 1563  0.1933538E+02  0.4943721E+02  0.2941845E+01  0.0000000E+00
Ar 1564  0.1695855E+02  0.5234595E+02  0.2886438E+01  0.0000000E+00
Ar 1565  0.1657488E+02  0.4962293E+02  0.5742489E+01  0.0000000E+00
Ar 1566  0.1936004E+02  0.5229891E+02  0.5698880E+01  0.0000000E+00
Ar 1567  0.1935319E+02  0.4990523E+02  0.8380569E+01  0.0000000E+00
Ar 1568  0.1648902E+02  0.5245807E+02  0.8617414E+01  0.0000000E+00
Ar 1569  0.1646171E+02  0.4962013E+02  0.1102023E+02  0.0000000E+00
Ar 1570  0.1929580E+02  0.5237386E+02  0.1095418E+02  0.0000000E+00
Ar 1571  0.1939217E+02  0.4978089E+02  0.1386072E+02  0.0000000E+00
Ar 1572  0.1656182E+02  0.5235972E+02  0.1366630E+02  0.0000000E+00
Ar 1573  0.1636568E+02  0.5003265E+02  0.1636568E+02  0.0000000E+00
Ar 1574  0.1940537E+02  0.5236466E+02  0.1639301E+02  0.0000000E+00
Ar 1575  0.1937893E+02  0.5012207E+02  0.1937894E+02  0.0000000E+00
Ar 1576  0.1639301E+02  0.5236465E+02  0.1940537E+02  0.0000000E+00
Ar 1577  0.1636258E+02  0.4948870E+02  0.2204195E+02  0.0000000E+00
Ar 1578  0.1953643E+02  0.5251568E+02  0.2238523E+02  0.0000000E+00
Ar 1579  0.1879001E+02  0.4961761E+02  0.2483663E+02  0.0000000E+00
Ar 1580  0.1646935E+02  0.5229540E+02  0.2472141E+02  0.0000000E+00
Ar 1581  0.1657598E+02  0.4952918E+02  0.2750919E+02  0.0000000E+00
Ar 1582  0.1929466E+02  0.5246279E+02  0.2757612E+02  0.0000000E+00
Ar 1583  0.1958383E+02  0.4980532E+02  0.3019616E+02  0.0000000E+00
Ar 1584  0.1655929E+02  0.5235048E+02  0.3033850E+02  0.0000000E+00
Ar 1585  0.1688283E+02  0.4984356E+02  0.3319492E+02  0.0000000E+00
Ar 1586  0.1951865E+02  0.5246269E+02  0.3338919E+02  0.0000000E+00
Ar 1587  0.1965869E+02  0.4993867E+02  0.3583232E+02  0.0000000E+00
Ar 1588  0.1686463E+02  0.5267465E+02  0.3580169E+02  0.0000000E+00
Ar 1589  0.1673848E+02  0.4998914E+02  0.3854848E+02  0.0000000E+00
Ar 1590  0.1948899E+02  0.5243570E+02  0.3886238E+02  0.0000000E+00
Ar 1591  0.1967607E+02  0.4946301E+02  0.4175121E+02  0.0000000E+00
Ar 1592  0.1651217E+02  0.5226276E+02  0.4125971E+02  0.0000000E+00
Ar 1593  0.1658361E+02  0.4978769E+02  0.4392637E+02  0.0000000E+00
Ar 1594  0.1952446E+02  0.5227341E+02  0.4403229E+02  0.0000000E+00
Ar 1595  0.1946154E+02  0.4959921E+02  0.4707398E+02  0.0000000E+00
Ar 1596  0.1669786E+02  0.5260215E+02  0.4624905E+02  0.0000000E+00
Ar 1597  0.1696278E+02  0.4959921E+02  0.4959921E+02  0.0000000E+00
Ar 1598  0.1911191E+02  0.5272163E+02  0.4950601E+02  0.0000000E+00
Ar 1599  0.1911191E+02  0.4950602E+02  0.5272162E+02  0.0000000E+00
Ar 1600  0.1680587E+02  0.5236914E+02  0.5236914E+02  0.0000000E+00
Ar 1601  0.2180572E+02  0.1068955E+00  0.1069000E+00  0.0000000E+00
Ar 1602  0.2490366E+02  0.2705089E+01  0.1110351E+00  0.0000000E+00
Ar 1603  0.2490367E+02  0.1109998E+00  0.2705103E+01  0.0000000E+00
Ar 1604  0.2216608E+02  0.2729470E+01  0.2729465E+01  0.0000000E+00
Ar 1605  0.2223114E+02  0.1321193E+00  0.5909696E+01  0.0000000E+00
Ar 1606  0.2504407E+02  0.3019598E+01  0.5638857E+01  0.0000000E+00
Ar 1607  0.2524983E+02  0.2598313E+00  0.8239779E+01  0.0000000E+00
Ar 1608  0.2208457E+02  0.2905710E+01  0.8348769E+01  0.0000000E+00
Ar 1609  0.2251566E+02  0.1957392E+00  0.1116992E+02  0.0000000E+00
Ar 1610  0.2495540E+02  0.2828257E+01  0.1093786E+02  0.0000000E+00
Ar 1611  0.2503085E+02  0.5485941E+02  0.1363119E+02  0.0000000E+00
Ar 1612  0.2241597E+02  0.2942845E+01  0.1401632E+02  0.0000000E+00
Ar 1613  0.2176878E+02  0.1390400E+00  0.1630440E+02  0.0000000E+00
Ar 1614  0.2489073E+02  0.2731256E+01  0.1664397E+02  0.0000000E+00
Ar 1615  0.2513543E+02  0.5509179E+02  0.1943629E+02  0.0000000E+00
Ar 1616  0.2189055E+02  0.2659388E+01  0.1937319E+02  0.0000000E+00
Ar 1617  0.2218419E+02  0.5508799E+02  0.2218419E+02  0.0000000E+00
Ar 1618  0.2495019E+02  0.2716951E+01  0.2171348E+02  0.0000000E+00
Ar 1619  0.2482609E+02  0.8059092E+00  0.2482609E+02  0.0000000E+00
Ar 1620  0.2171349E+02  0.2716949E+01  0.2495019E+02  0.0000000E+00
Ar 1621  0.2186863E+02  0.2792789E+00  0.2785454E+02  0.0000000E+00
Ar 1622  0.2484465E+02  0.2867493E+01  0.2773296E+02  0.0000000E+00
Ar 1623  0.2482946E+02  0.1822235E+00  0.3036483E+02  0.0000000E+00
Ar 1624  0.2208045E+02  0.2904585E+01  0.3064925E+02  0.0000000E+00
Ar 1625  0.2223416E+02  0.5494651E+02  0.3321452E+02  0.0000000E+00
Ar 1626  0.2482714E+02  0.3033050E+01  0.3339423E+02  0.0000000E+00
Ar 1627  0.2479169E+02  0.4373145E+00  0.3591348E+02  0.0000000E+00
Ar 1628  0.2198722E+02  0.3042912E+01  0.3611383E+02  0.0000000E+00
Ar 1629  0.2189738E+02  0.4972092E+00  0.3880747E+02  0.0000000E+00
Ar 1630  0.2480984E+02  0.2953164E+01  0.3887212E+02  0.0000000E+00
Ar 1631  0.2485065E+02  0.5518558E+02  0.4153855E+02  0.0000000E+00
Ar 1632  0.2204554E+02  0.3144043E+01  0.4166433E+02  0.0000000E+00
Ar 1633  0.2238742E+02  0.5487843E+02  0.4421384E+02  0.0000000E+00
Ar 1634  0.2468726E+02  0.2711849E+01  0.4407932E+02  0.0000000E+00
Ar 1635  0.2521884E+02  0.5503993E+02  0.4707158E+02  0.0000000E+00
Ar 1636  0.2229909E+02  0.2807860E+01  0.4683086E+02  0.0000000E+00
Ar 1637  0.2239997E+02  0.4022180E+00  0.4960408E+02  0.0000000E+00
Ar 1638  0.2499431E+02  0.3291043E+01  0.4990070E+02  0.0000000E+00
Ar 1639  0.2529917E+02  0.4589963E+00  0.5244963E+02  0.0000000E+00
Ar 1640  0.2216809E+02  0.3202311E+01  0.5239632E+02  0.0000000E+00
Ar 1641  0.2223115E+02  0.5909688E+01  0.1321192E+00  0.0000000E+00
Ar 1642  0.2524982E+02  0.8239789E+01  0.2598280E+00  0.0000000E+00
Ar 1643  0.2504405E+02  0.5638857E+01  0.3019601E+01  0.0000000E+00
Ar 1644  0.2208456E+02  0.8348767E+01  0.2905709E+01  0.0000000E+00
Ar 1645  0.2184180E+02  0.5445632E+01  0.5445627E+01  0.0000000E+00
Ar 1646  0.2476628E+02  0.8319912E+01  0.5748992E+01  0.0000000E+00
Ar 1647  0.2476628E+02  0.5748986E+01  0.8319915E+01  0.0000000E+00
Ar 1648  0.2218352E+02  0.8207421E+01  0.8207420E+01  0.0000000E+00
Ar 1649  0.2220056E+02  0.5441810E+01  0.1124431E+02  0.0000000E+00
Ar 1650  0.2463706E+02  0.8529009E+01  0.1105998E+02  0.0000000E+00
Ar 1651  0.2484957E+02  0.5669145E+01  0.1382017E+02  0.0000000E+00
Ar 1652  0.2214367E+02  0.8472769E+01  0.1389029E+02  0.0000000E+00
Ar 1653  0.2205873E+02  0.5814546E+01  0.1681661E+02  0.0000000E+00
Ar 1654  0.2508723E+02  0.8428445E+01  0.1642543E+02  0.0000000E+00
Ar 1655  0.2477554E+02  0.5583098E+01  0.1918516E+02  0.0000000E+00
Ar 1656  0.2221872E+02  0.8446813E+01  0.1931452E+02  0.0000000E+00
Ar 1657  0.2218365E+02  0.5298041E+01  0.2218365E+02  0.0000000E+00
Ar 1658  0.2486782E+02  0.8370423E+01  0.2207065E+02  0.0000000E+00
Ar 1659  0.2464853E+02  0.5690123E+01  0.2464853E+02  0.0000000E+00
Ar 1660  0.2207067E+02  0.8370428E+01  0.2486781E+02  0.0000000E+00
Ar 1661  0.2186941E+02  0.5793074E+01  0.2771434E+02  0.0000000E+00
Ar 1662  0.2488897E+02  0.8475617E+01  0.2760364E+02  0.0000000E+00
Ar 1663  0.2473618E+02  0.5838594E+01  0.3054329E+02  0.0000000E+00
Ar 1664  0.2215439E+02  0.8516117E+01  0.3021133E+02  0.0000000E+00
Ar 1665  0.2228163E+02  0.5773054E+01  0.3337366E+02  0.0000000E+00
Ar 1666  0.2479321E+02  0.8307986E+01  0.3327655E+02  0.0000000E+00
Ar 1667  0.2502153E+02  0.5734289E+01  0.3582623E+02  0.0000000E+00
Ar 1668  0.2191476E+02  0.8364140E+01  0.3592700E+02  0.0000000E+00
Ar 1669  0.2215271E+02  0.5762384E+01  0.3873448E+02  0.0000000E+00
Ar 1670  0.2470861E+02  0.8471708E+01  0.3867130E+02  0.0000000E+00
Ar 1671  0.2478674E+02  0.5830923E+01  0.4155781E+02  0.0000000E+00
Ar 1672  0.2217493E+02  0.8422890E+01  0.4155905E+02  0.0000000E+00
Ar 1673  0.2226778E+02  0.5695322E+01  0.4438637E+02  0.0000000E+00
Ar 1674  0.2484497E+02  0.8546656E+01  0.4430580E+02  0.0000000E+00
Ar 1675  0.2505069E+02  0.5763256E+01  0.4714131E+02  0.0000000E+00
Ar 1676  0.2180701E+02  0.8252780E+01  0.4700073E+02  0.0000000E+00
Ar 1677  0.2204745E+02  0.5860086E+01  0.4975510E+02  0.0000000E+00
Ar 1678  0.2533563E+02  0.8465163E+01  0.4966122E+02  0.0000000E+00
Ar 1679  0.2509336E+02  0.5609579E+01  0.5251567E+02  0.0000000E+00
Ar 1680  0.2209465E+02  0.8342029E+01  0.5258008E+02  0.0000000E+00
Ar 1681  0.2251566E+02  0.1116992E+02  0.1957422E+00  0.0000000E+00
Ar 1682  0.2503085E+02  0.1363119E+02  0.5485941E+02  0.0000000E+00
Ar 1683  0.2495540E+02  0.1093786E+02  0.2828260E+01  0.0000000E+00
Ar 1684  0.2241597E+02  0.1401632E+02  0.2942844E+01  0.0000000E+00
Ar 1685  0.2220056E+02  0.1124431E+02  0.5441813E+01  0.0000000E+00
Ar 1686  0.2484957E+02  0.1382018E+02  0.5669147E+01  0.0000000E+00
Ar 1687  0.2463706E+02  0.1105998E+02  0.8529012E+01  0.0000000E+00
Ar 1688  0.2214367E+02  0.1389030E+02  0.8472773E+01  0.0000000E+00
Ar 1689  0.2161474E+02  0.1123977E+02  0.1123977E+02  0.0000000E+00
Ar 1690  0.2506895E+02  0.1379985E+02  0.1114072E+02  0.0000000E+00
Ar 1691  0.2506895E+02  0.1114072E+02  0.1379985E+02  0.0000000E+00
Ar 1692  0.2193643E+02  0.1371639E+02  0.1371639E+02  0.0000000E+00
Ar 1693  0.2222700E+02  0.1093587E+02  0.1672261E+02  0.0000000E+00
Ar 1694  0.2504712E+02  0.1389631E+02  0.1652335E+02  0.0000000E+00
Ar 1695  0.2480670E+02  0.1117335E+02  0.1937410E+02  0.0000000E+00
Ar 1696  0.2202490E+02  0.1393236E+02  0.1892890E+02  0.0000000E+00
Ar 1697  0.2201972E+02  0.1081917E+02  0.2201972E+02  0.0000000E+00
Ar 1698  0.2463101E+02  0.1395770E+02  0.2194311E+02  0.0000000E+00
Ar 1699  0.2476870E+02  0.1093204E+02  0.2476869E+02  0.0000000E+00
Ar 1700  0.2194310E+02  0.1395771E+02  0.2463101E+02  0.0000000E+00
Ar 1701  0.2198807E+02  0.1116624E+02  0.2749426E+02  0.0000000E+00
Ar 1702  0.2472352E+02  0.1393150E+02  0.2750441E+02  0.0000000E+00
Ar 1703  0.2462888E+02  0.1111539E+02  0.3032085E+02  0.0000000E+00
Ar 1704  0.2206155E+02  0.1373517E+02  0.3046483E+02  0.0000000E+00
Ar 1705  0.2199595E+02  0.1088882E+02  0.3326721E+02  0.0000000E+00
Ar 1706  0.2477828E+02  0.1378619E+02  0.3307264E+02  0.0000000E+00
Ar 1707  0.2477342E+02  0.1119481E+02  0.3604157E+02  0.0000000E+00
Ar 1708  0.2177101E+02  0.1373573E+02  0.3582375E+02  0.0000000E+00
Ar 1709  0.2177745E+02  0.1120929E+02  0.3879363E+02  0.0000000E+00
Ar 1710  0.2482939E+02  0.1411936E+02  0.3853195E+02  0.0000000E+00
Ar 1711  0.2478478E+02  0.1117450E+02  0.4168552E+02  0.0000000E+00
Ar 1712  0.2209050E+02  0.1389092E+02  0.4124341E+02  0.0000000E+00
Ar 1713  0.2209941E+02  0.1119978E+02  0.4431518E+02  0.0000000E+00
Ar 1714  0.2487740E+02  0.1376053E+02  0.4438421E+02  0.0000000E+00
Ar 1715  0.2508063E+02  0.1109304E+02  0.4709793E+02  0.0000000E+00
Ar 1716  0.2184335E+02  0.1383566E+02  0.4701781E+02  0.0000000E+00
Ar 1717  0.2243794E+02  0.1088078E+02  0.4987219E+02  0.0000000E+00
Ar 1718  0.2507699E+02  0.1365945E+02  0.4973760E+02  0.0000000E+00
Ar 1719  0.2503586E+02  0.1087049E+02  0.5245918E+02  0.0000000E+00
Ar 1720  0.2207794E+02  0.1357197E+02  0.5255568E+02  0.0000000E+00
Ar 1721  0.2176879E+02  0.1630440E+02  0.1390425E+00  0.0000000E+00
Ar 1722  0.2513543E+02  0.1943629E+02  0.5509179E+02  0.0000000E+00
Ar 1723  0.2489073E+02  0.1664397E+02  0.2731261E+01  0.0000000E+00
Ar 1724  0.2189055E+02  0.1937319E+02  0.2659388E+01  0.0000000E+00
Ar 1725  0.2205873E+02  0.1681662E+02  0.5814547E+01  0.0000000E+00
Ar 1726  0.2477553E+02  0.1918517E+02  0.5583097E+01  0.0000000E+00
Ar 1727  0.2508723E+02  0.1642544E+02  0.8428443E+01  0.0000000E+00
Ar 1728  0.2221872E+02  0.1931452E+02  0.8446815E+01  0.0000000E+00
Ar 1729  0.2222700E+02  0.1672261E+02  0.1093587E+02  0.0000000E+00
Ar 1730  0.2480669E+02  0.1937410E+02  0.1117336E+02  0.0000000E+00
Ar 1731  0.2504712E+02  0.1652335E+02  0.1389631E+02  0.0000000E+00
Ar 1732  0.2202490E+02  0.1892890E+02  0.1393236E+02  0.0000000E+00
Ar 1733  0.2154075E+02  0.1631344E+02  0.1631344E+02  0.0000000E+00
Ar 1734  0.2467930E+02  0.1911358E+02  0.1643949E+02  0.0000000E+00
Ar 1735  0.2467931E+02  0.1643950E+02  0.1911358E+02  0.0000000E+00
Ar 1736  0.2184704E+02  0.1926656E+02  0.1926656E+02  0.0000000E+00
Ar 1737  0.2181483E+02  0.1632839E+02  0.2181484E+02  0.0000000E+00
Ar 1738  0.2479310E+02  0.1942455E+02  0.2197751E+02  0.0000000E+00
Ar 1739  0.2436369E+02  0.1657039E+02  0.2436369E+02  0.0000000E+00
Ar 1740  0.2197750E+02  0.1942454E+02  0.2479309E+02  0.0000000E+00
Ar 1741  0.2189136E+02  0.1657679E+02  0.2723724E+02  0.0000000E+00
Ar 1742  0.2485058E+02  0.1926699E+02  0.2754131E+02  0.0000000E+00
Ar 1743  0.2469746E+02  0.1652234E+02  0.3014257E+02  0.0000000E+00
Ar 1744  0.2197423E+02  0.1912888E+02  0.3023571E+02  0.0000000E+00
Ar 1745  0.2209910E+02  0.1656497E+02  0.3289796E+02  0.0000000E+00
Ar 1746  0.2436461E+02  0.1954177E+02  0.3335697E+02  0.0000000E+00
Ar 1747  0.2488786E+02  0.1673164E+02  0.3609725E+02  0.0000000E+00
Ar 1748  0.2195388E+02  0.1915663E+02  0.3609396E+02  0.0000000E+00
Ar 1749  0.2193506E+02  0.1656604E+02  0.3868562E+02  0.0000000E+00
Ar 1750  0.2490120E+02  0.1917758E+02  0.3881362E+02  0.0000000E+00
Ar 1751  0.2437747E+02  0.1664617E+02  0.4143398E+02  0.0000000E+00
Ar 1752  0.2179087E+02  0.1930640E+02  0.4150958E+02  0.0000000E+00
Ar 1753  0.2186698E+02  0.1669935E+02  0.4434945E+02  0.0000000E+00
Ar 1754  0.2459291E+02  0.1934138E+02  0.4445841E+02  0.0000000E+00
Ar 1755  0.2471325E+02  0.1621373E+02  0.4695151E+02  0.0000000E+00
Ar 1756  0.2195735E+02  0.1938288E+02  0.4715536E+02  0.0000000E+00
Ar 1757  0.2204195E+02  0.1636258E+02  0.4948871E+02  0.0000000E+00
Ar 1758  0.2483664E+02  0.1879000E+02  0.4961761E+02  0.0000000E+00
Ar 1759  0.2472142E+02  0.1646935E+02  0.5229540E+02  0.0000000E+00
Ar 1760  0.2238523E+02  0.1953643E+02  0.5251567E+02  0.0000000E+00
Ar 1761  0.2218419E+02  0.2218419E+02  0.5508799E+02  0.0000000E+00
Ar 1762  0.2482609E+02  0.2482610E+02  0.8059008E+00  0.0000000E+00
Ar 1763  0.2495019E+02  0.2171349E+02  0.2716950E+01  0.0000000E+00
Ar 1764  0.2171349E+02  0.2495019E+02  0.2716945E+01  0.0000000E+00
Ar 1765  0.2218364E+02  0.2218365E+02  0.5298041E+01  0.0000000E+00
Ar 1766  0.2464853E+02  0.2464853E+02  0.5690129E+01  0.0000000E+00
Ar 1767  0.2486781E+02  0.2207065E+02  0.8370422E+01  0.0000000E+00
Ar 1768  0.2207066E+02  0.2486782E+02  0.8370429E+01  0.0000000E+00
Ar 1769  0.2201972E+02  0.2201973E+02  0.1081916E+02  0.0000000E+00
Ar 1770  0.2476871E+02  0.2476869E+02  0.1093204E+02  0.0000000E+00
Ar 1771  0.2463101E+02  0.2194310E+02  0.1395771E+02  0.0000000E+00
Ar 1772  0.2194310E+02  0.2463101E+02  0.1395770E+02  0.0000000E+00
Ar 1773  0.2181484E+02  0.2181484E+02  0.1632839E+02  0.0000000E+00
Ar 1774  0.2436369E+02  0.2436369E+02  0.1657039E+02  0.0000000E+00
Ar 1775  0.2479310E+02  0.2197750E+02  0.1942455E+02  0.0000000E+00
Ar 1776  0.2197749E+02  0.2479309E+02  0.1942454E+02  0.0000000E+00
Ar 1777  0.2180514E+02  0.2180514E+02  0.2180514E+02  0.0000000E+00
Ar 1778  0.2476861E+02  0.2476861E+02  0.2201919E+02  0.0000000E+00
Ar 1779  0.2476862E+02  0.2201919E+02  0.2476862E+02  0.0000000E+00
Ar 1780  0.2201920E+02  0.2476862E+02  0.2476862E+02  0.0000000E+00
Ar 1781  0.2172555E+02  0.2172555E+02  0.2768733E+02  0.0000000E+00
Ar 1782  0.2468413E+02  0.2468413E+02  0.2789798E+02  0.0000000E+00
Ar 1783  0.2464386E+02  0.2172061E+02  0.3043327E+02  0.0000000E+00
Ar 1784  0.2172061E+02  0.2464384E+02  0.3043328E+02  0.0000000E+00
Ar 1785  0.2208618E+02  0.2208619E+02  0.3320271E+02  0.0000000E+00
Ar 1786  0.2473612E+02  0.2473611E+02  0.3280966E+02  0.0000000E+00
Ar 1787  0.2485213E+02  0.2218462E+02  0.3584844E+02  0.0000000E+00
Ar 1788  0.2218461E+02  0.2485213E+02  0.3584844E+02  0.0000000E+00
Ar 1789  0.2186367E+02  0.2186367E+02  0.3895441E+02  0.0000000E+00
Ar 1790  0.2477355E+02  0.2477355E+02  0.3835340E+02  0.0000000E+00
Ar 1791  0.2473721E+02  0.2190346E+02  0.4150854E+02  0.0000000E+00
Ar 1792  0.2190345E+02  0.2473720E+02  0.4150854E+02  0.0000000E+00
Ar 1793  0.2204208E+02  0.2204207E+02  0.4449851E+02  0.0000000E+00
Ar 1794  0.2487582E+02  0.2487581E+02  0.4407130E+02  0.0000000E+00
Ar 1795  0.2510822E+02  0.2210727E+02  0.4711593E+02  0.0000000E+00
Ar 1796  0.2210727E+02  0.2510822E+02  0.4711594E+02  0.0000000E+00
Ar 1797  0.2231843E+02  0.2231842E+02  0.4986370E+02  0.0000000E+00
Ar 1798  0.2485175E+02  0.2485175E+02  0.4991850E+02  0.0000000E+00
Ar 1799  0.2502534E+02  0.2203304E+02  0.5258911E+02  0.0000000E+00
Ar 1800  0.2203305E+02  0.2502533E+02  0.5258911E+02  0.0000000E+00
Ar 1801  0.2186863E+02  0.2785454E+02  0.2792783E+00  0.0000000E+00
Ar 1802  0.2482945E+02  0.3036484E+02  0.1822236E+00  0.0000000E+00
Ar 1803  0.2484465E+02  0.2773296E+02  0.2867487E+01  0.0000000E+00
Ar 1804  0.2208044E+02  0.3064925E+02  0.2904581E+01  0.0000000E+00
Ar 1805  0.2186942E+02  0.2771434E+02  0.5793074E+01  0.0000000E+00
Ar 1806  0.2473618E+02  0.3054329E+02  0.5838587E+01  0.0000000E+00
Ar 1807  0.2488898E+02  0.2760365E+02  0.8475616E+01  0.0000000E+00
Ar 1808  0.2215440E+02  0.3021133E+02  0.8516119E+01  0.0000000E+00
Ar 1809  0.2198808E+02  0.2749426E+02  0.1116624E+02  0.0000000E+00
Ar 1810  0.2462888E+02  0.3032085E+02  0.1111540E+02  0.0000000E+00
Ar 1811  0.2472352E+02  0.2750441E+02  0.1393150E+02  0.0000000E+00
Ar 1812  0.2206155E+02  0.3046482E+02  0.1373516E+02  0.0000000E+00
Ar 1813  0.2189135E+02  0.2723723E+02  0.1657680E+02  0.0000000E+00
Ar 1814  0.2469747E+02  0.3014256E+02  0.1652234E+02  0.0000000E+00
Ar 1815  0.2485059E+02  0.2754131E+02  0.1926700E+02  0.0000000E+00
Ar 1816  0.2197423E+02  0.3023571E+02  0.1912888E+02  0.0000000E+00
Ar 1817  0.2172555E+02  0.2768733E+02  0.2172555E+02  0.0000000E+00
Ar 1818  0.2464385E+02  0.3043328E+02  0.2172061E+02  0.0000000E+00
Ar 1819  0.2468412E+02  0.2789798E+02  0.2468412E+02  0.0000000E+00
Ar 1820  0.2172061E+02  0.3043328E+02  0.2464384E+02  0.0000000E+00
Ar 1821  0.2239023E+02  0.2762698E+02  0.2762698E+02  0.0000000E+00
Ar 1822  0.2462574E+02  0.3056853E+02  0.2780571E+02  0.0000000E+00
Ar 1823  0.2462574E+02  0.2780572E+02  0.3056853E+02  0.0000000E+00
Ar 1824  0.2186739E+02  0.3030759E+02  0.3030758E+02  0.0000000E+00
Ar 1825  0.2183741E+02  0.2758963E+02  0.3303084E+02  0.0000000E+00
Ar 1826  0.2488927E+02  0.3059913E+02  0.3328937E+02  0.0000000E+00
Ar 1827  0.2478268E+02  0.2757180E+02  0.3588122E+02  0.0000000E+00
Ar 1828  0.2204360E+02  0.3031462E+02  0.3583674E+02  0.0000000E+00
Ar 1829  0.2208104E+02  0.2752938E+02  0.3851526E+02  0.0000000E+00
Ar 1830  0.2465993E+02  0.3040017E+02  0.3868748E+02  0.0000000E+00
Ar 1831  0.2491955E+02  0.2768279E+02  0.4150011E+02  0.0000000E+00
Ar 1832  0.2198919E+02  0.3030032E+02  0.4157535E+02  0.0000000E+00
Ar 1833  0.2202309E+02  0.2747440E+02  0.4446354E+02  0.0000000E+00
Ar 1834  0.2503306E+02  0.3030519E+02  0.4432034E+02  0.0000000E+00
Ar 1835  0.2513978E+02  0.2776073E+02  0.4745282E+02  0.0000000E+00
Ar 1836  0.2225110E+02  0.3032422E+02  0.4702848E+02  0.0000000E+00
Ar 1837  0.2233472E+02  0.2765964E+02  0.4969707E+02  0.0000000E+00
Ar 1838  0.2504856E+02  0.3058062E+02  0.5018384E+02  0.0000000E+00
Ar 1839  0.2488833E+02  0.2752709E+02  0.5242692E+02  0.0000000E+00
Ar 1840  0.2226591E+02  0.3031786E+02  0.5254305E+02  0.0000000E+00
Ar 1841  0.2223416E+02  0.3321453E+02  0.5494651E+02  0.0000000E+00
Ar 1842  0.2479170E+02  0.3591348E+02  0.4373207E+00  0.0000000E+00
Ar 1843  0.2482714E+02  0.3339423E+02  0.3033037E+01  0.0000000E+00
Ar 1844  0.2198722E+02  0.3611383E+02  0.3042912E+01  0.0000000E+00
Ar 1845  0.2228163E+02  0.3337367E+02  0.5773050E+01  0.0000000E+00
Ar 1846  0.2502152E+02  0.3582623E+02  0.5734281E+01  0.0000000E+00
Ar 1847  0.2479321E+02  0.3327654E+02  0.8307986E+01  0.0000000E+00
Ar 1848  0.2191476E+02  0.3592700E+02  0.8364132E+01  0.0000000E+00
Ar 1849  0.2199595E+02  0.3326721E+02  0.1088882E+02  0.0000000E+00
Ar 1850  0.2477342E+02  0.3604158E+02  0.1119481E+02  0.0000000E+00
Ar 1851  0.2477828E+02  0.3307264E+02  0.1378619E+02  0.0000000E+00
Ar 1852  0.2177101E+02  0.3582375E+02  0.1373573E+02  0.0000000E+00
Ar 1853  0.2209909E+02  0.3289797E+02  0.1656496E+02  0.0000000E+00
Ar 1854  0.2488787E+02  0.3609725E+02  0.1673164E+02  0.0000000E+00
Ar 1855  0.2436461E+02  0.3335696E+02  0.1954176E+02  0.0000000E+00
Ar 1856  0.2195388E+02  0.3609396E+02  0.1915663E+02  0.0000000E+00
Ar 1857  0.2208618E+02  0.3320272E+02  0.2208619E+02  0.0000000E+00
Ar 1858  0.2485213E+02  0.3584844E+02  0.2218461E+02  0.0000000E+00
Ar 1859  0.2473611E+02  0.3280967E+02  0.2473612E+02  0.0000000E+00
Ar 1860  0.2218460E+02  0.3584844E+02  0.2485212E+02  0.0000000E+00
Ar 1861  0.2183741E+02  0.3303085E+02  0.2758963E+02  0.0000000E+00
Ar 1862  0.2478268E+02  0.3588122E+02  0.2757180E+02  0.0000000E+00
Ar 1863  0.2488927E+02  0.3328937E+02  0.3059913E+02  0.0000000E+00
Ar 1864  0.2204360E+02  0.3583674E+02  0.3031462E+02  0.0000000E+00
Ar 1865  0.2190519E+02  0.3296524E+02  0.3296524E+02  0.0000000E+00
Ar 1866  0.2484225E+02  0.3617326E+02  0.3321690E+02  0.0000000E+00
Ar 1867  0.2484225E+02  0.3321690E+02  0.3617325E+02  0.0000000E+00
Ar 1868  0.2204321E+02  0.3577553E+02  0.3577553E+02  0.0000000E+00
Ar 1869  0.2195004E+02  0.3306263E+02  0.3873031E+02  0.0000000E+00
Ar 1870  0.2485998E+02  0.3581978E+02  0.3891187E+02  0.0000000E+00
Ar 1871  0.2476264E+02  0.3305652E+02  0.4157340E+02  0.0000000E+00
Ar 1872  0.2219359E+02  0.3601862E+02  0.4136951E+02  0.0000000E+00
Ar 1873  0.2224126E+02  0.3334147E+02  0.4421746E+02  0.0000000E+00
Ar 1874  0.2495033E+02  0.3599473E+02  0.4433048E+02  0.0000000E+00
Ar 1875  0.2461633E+02  0.3303690E+02  0.4725670E+02  0.0000000E+00
Ar 1876  0.2195582E+02  0.3587082E+02  0.4710194E+02  0.0000000E+00
Ar 1877  0.2240039E+02  0.3348774E+02  0.5024672E+02  0.0000000E+00
Ar 1878  0.2494310E+02  0.3600802E+02  0.4949457E+02  0.0000000E+00
Ar 1879  0.2514607E+02  0.3365945E+02  0.5253777E+02  0.0000000E+00
Ar 1880  0.2220905E+02  0.3637235E+02  0.5263742E+02  0.0000000E+00
Ar 1881  0.2189738E+02  0.3880747E+02  0.4972087E+00  0.0000000E+00
Ar 1882  0.2485065E+02  0.4153856E+02  0.5518559E+02  0.0000000E+00
Ar 1883  0.2480984E+02  0.3887212E+02  0.2953163E+01  0.0000000E+00
Ar 1884  0.2204555E+02  0.4166433E+02  0.3144039E+01  0.0000000E+00
Ar 1885  0.2215272E+02  0.3873448E+02  0.5762381E+01  0.0000000E+00
Ar 1886  0.2478675E+02  0.4155781E+02  0.5830926E+01  0.0000000E+00
Ar 1887  0.2470861E+02  0.3867130E+02  0.8471710E+01  0.0000000E+00
Ar 1888  0.2217493E+02  0.4155905E+02  0.8422884E+01  0.0000000E+00
Ar 1889  0.2177745E+02  0.3879363E+02  0.1120929E+02  0.0000000E+00
Ar 1890  0.2478478E+02  0.4168553E+02  0.1117449E+02  0.0000000E+00
Ar 1891  0.2482939E+02  0.3853194E+02  0.1411936E+02  0.0000000E+00
Ar 1892  0.2209050E+02  0.4124341E+02  0.1389091E+02  0.0000000E+00
Ar 1893  0.2193506E+02  0.3868561E+02  0.1656604E+02  0.0000000E+00
Ar 1894  0.2437747E+02  0.4143397E+02  0.1664617E+02  0.0000000E+00
Ar 1895  0.2490120E+02  0.3881362E+02  0.1917758E+02  0.0000000E+00
Ar 1896  0.2179087E+02  0.4150958E+02  0.1930641E+02  0.0000000E+00
Ar 1897  0.2186367E+02  0.3895442E+02  0.2186367E+02  0.0000000E+00
Ar 1898  0.2473720E+02  0.4150855E+02  0.2190345E+02  0.0000000E+00
Ar 1899  0.2477354E+02  0.3835340E+02  0.2477354E+02  0.0000000E+00
Ar 1900  0.2190345E+02  0.4150854E+02  0.2473720E+02  0.0000000E+00
Ar 1901  0.2208104E+02  0.3851527E+02  0.2752938E+02  0.0000000E+00
Ar 1902  0.2491955E+02  0.4150011E+02  0.2768279E+02  0.0000000E+00
Ar 1903  0.2465993E+02  0.3868748E+02  0.3040017E+02  0.0000000E+00
Ar 1904  0.2198919E+02  0.4157535E+02  0.3030032E+02  0.0000000E+00
Ar 1905  0.2195004E+02  0.3873032E+02  0.3306264E+02  0.0000000E+00
Ar 1906  0.2476263E+02  0.4157340E+02  0.3305652E+02  0.0000000E+00
Ar 1907  0.2485998E+02  0.3891188E+02  0.3581978E+02  0.0000000E+00
Ar 1908  0.2219359E+02  0.4136951E+02  0.3601862E+02  0.0000000E+00
Ar 1909  0.2232844E+02  0.3885136E+02  0.3885135E+02  0.0000000E+00
Ar 1910  0.2483237E+02  0.4172798E+02  0.3877083E+02  0.0000000E+00
Ar 1911  0.2483237E+02  0.3877083E+02  0.4172798E+02  0.0000000E+00
Ar 1912  0.2221367E+02  0.4141380E+02  0.4141380E+02  0.0000000E+00
Ar 1913  0.2205676E+02  0.3865035E+02  0.4445271E+02  0.0000000E+00
Ar 1914  0.2454553E+02  0.4156237E+02  0.4421446E+02  0.0000000E+00
Ar 1915  0.2484068E+02  0.3901716E+02  0.4688711E+02  0.0000000E+00
Ar 1916  0.2218347E+02  0.4145973E+02  0.4700438E+02  0.0000000E+00
Ar 1917  0.2200452E+02  0.3873622E+02  0.4957997E+02  0.0000000E+00
Ar 1918  0.2522729E+02  0.4171677E+02  0.4949116E+02  0.0000000E+00
Ar 1919  0.2493391E+02  0.3870620E+02  0.5235868E+02  0.0000000E+00
Ar 1920  0.2223850E+02  0.4156278E+02  0.5222553E+02  0.0000000E+00
Ar 1921  0.2238742E+02  0.4421384E+02  0.5487843E+02  0.0000000E+00
Ar 1922  0.2521897E+02  0.4707170E+02  0.5503992E+02  0.0000000E+00
Ar 1923  0.2468726E+02  0.4407932E+02  0.2711852E+01  0.0000000E+00
Ar 1924  0.2229909E+02  0.4683086E+02  0.2807863E+01  0.0000000E+00
Ar 1925  0.2226778E+02  0.4438637E+02  0.5695323E+01  0.0000000E+00
Ar 1926  0.2505069E+02  0.4714131E+02  0.5763251E+01  0.0000000E+00
Ar 1927  0.2484497E+02  0.4430581E+02  0.8546653E+01  0.0000000E+00
Ar 1928  0.2180701E+02  0.4700072E+02  0.8252776E+01  0.0000000E+00
Ar 1929  0.2209941E+02  0.4431518E+02  0.1119978E+02  0.0000000E+00
Ar 1930  0.2508063E+02  0.4709793E+02  0.1109304E+02  0.0000000E+00
Ar 1931  0.2487740E+02  0.4438421E+02  0.1376053E+02  0.0000000E+00
Ar 1932  0.2184335E+02  0.4701781E+02  0.1383565E+02  0.0000000E+00
Ar 1933  0.2186698E+02  0.4434945E+02  0.1669936E+02  0.0000000E+00
Ar 1934  0.2471325E+02  0.4695151E+02  0.1621372E+02  0.0000000E+00
Ar 1935  0.2459290E+02  0.4445842E+02  0.1934138E+02  0.0000000E+00
Ar 1936  0.2195734E+02  0.4715536E+02  0.1938287E+02  0.0000000E+00
Ar 1937  0.2204207E+02  0.4449851E+02  0.2204207E+02  0.0000000E+00
Ar 1938  0.2510822E+02  0.4711594E+02  0.2210727E+02  0.0000000E+00
Ar 1939  0.2487581E+02  0.4407130E+02  0.2487581E+02  0.0000000E+00
Ar 1940  0.2210727E+02  0.4711594E+02  0.2510822E+02  0.0000000E+00
Ar 1941  0.2202309E+02  0.4446354E+02  0.2747440E+02  0.0000000E+00
Ar 1942  0.2513978E+02  0.4745282E+02  0.2776073E+02  0.0000000E+00
Ar 1943  0.2503305E+02  0.4432034E+02  0.3030519E+02  0.0000000E+00
Ar 1944  0.2225110E+02  0.4702847E+02  0.3032422E+02  0.0000000E+00
Ar 1945  0.2224126E+02  0.4421746E+02  0.3334147E+02  0.0000000E+00
Ar 1946  0.2461633E+02  0.4725670E+02  0.3303689E+02  0.0000000E+00
Ar 1947  0.2495033E+02  0.4433048E+02  0.3599472E+02  0.0000000E+00
Ar 1948  0.2195582E+02  0.4710194E+02  0.3587081E+02  0.0000000E+00
Ar 1949  0.2205677E+02  0.4445271E+02  0.3865035E+02  0.0000000E+00
Ar 1950  0.2484067E+02  0.4688711E+02  0.3901716E+02  0.0000000E+00
Ar 1951  0.2454554E+02  0.4421445E+02  0.4156237E+02  0.0000000E+00
Ar 1952  0.2218348E+02  0.4700438E+02  0.4145973E+02  0.0000000E+00
Ar 1953  0.2217003E+02  0.4416270E+02  0.4416270E+02  0.0000000E+00
Ar 1954  0.2503834E+02  0.4715204E+02  0.4433779E+02  0.0000000E+00
Ar 1955  0.2503833E+02  0.4433780E+02  0.4715204E+02  0.0000000E+00
Ar 1956  0.2252790E+02  0.4695673E+02  0.4695673E+02  0.0000000E+00
Ar 1957  0.2225418E+02  0.4425663E+02  0.4953320E+02  0.0000000E+00
Ar 1958  0.2502283E+02  0.4729618E+02  0.5007370E+02  0.0000000E+00
Ar 1959  0.2528172E+02  0.4416829E+02  0.5273430E+02  0.0000000E+00
Ar 1960  0.2224764E+02  0.4719735E+02  0.5271898E+02  0.0000000E+00
Ar 1961  0.2239995E+02  0.4960407E+02  0.4022150E+00  0.0000000E+00
Ar 1962  0.2529892E+02  0.5244940E+02  0.4592066E+00  0.0000000E+00
Ar 1963  0.2499431E+02  0.4990072E+02  0.3291065E+01  0.0000000E+00
Ar 1964  0.2216810E+02  0.5239632E+02  0.3202314E+01  0.0000000E+00
Ar 1965  0.2204745E+02  0.4975509E+02  0.5860085E+01  0.0000000E+00
Ar 1966  0.2509338E+02  0.5251567E+02  0.5609574E+01  0.0000000E+00
Ar 1967  0.2533561E+02  0.4966123E+02  0.8465176E+01  0.0000000E+00
Ar 1968  0.2209465E+02  0.5258007E+02  0.8342027E+01  0.0000000E+00
Ar 1969  0.2243795E+02  0.4987218E+02  0.1088078E+02  0.0000000E+00
Ar 1970  0.2503585E+02  0.5245918E+02  0.1087049E+02  0.0000000E+00
Ar 1971  0.2507699E+02  0.4973760E+02  0.1365945E+02  0.0000000E+00
Ar 1972  0.2207794E+02  0.5255568E+02  0.1357197E+02  0.0000000E+00
Ar 1973  0.2204195E+02  0.4948871E+02  0.1636257E+02  0.0000000E+00
Ar 1974  0.2472142E+02  0.5229540E+02  0.1646935E+02  0.0000000E+00
Ar 1975  0.2483663E+02  0.4961761E+02  0.1879000E+02  0.0000000E+00
Ar 1976  0.2238523E+02  0.5251568E+02  0.1953643E+02  0.0000000E+00
Ar 1977  0.2231843E+02  0.4986370E+02  0.2231842E+02  0.0000000E+00
Ar 1978  0.2502534E+02  0.5258911E+02  0.2203304E+02  0.0000000E+00
Ar 1979  0.2485175E+02  0.4991850E+02  0.2485175E+02  0.0000000E+00
Ar 1980  0.2203305E+02  0.5258911E+02  0.2502533E+02  0.0000000E+00
Ar 1981  0.2233472E+02  0.4969707E+02  0.2765964E+02  0.0000000E+00
Ar 1982  0.2488833E+02  0.5242692E+02  0.2752709E+02  0.0000000E+00
Ar 1983  0.2504856E+02  0.5018383E+02  0.3058061E+02  0.0000000E+00
Ar 1984  0.2226591E+02  0.5254306E+02  0.3031785E+02  0.0000000E+00
Ar 1985  0.2240039E+02  0.5024672E+02  0.3348774E+02  0.0000000E+00
Ar 1986  0.2514606E+02  0.5253777E+02  0.3365944E+02  0.0000000E+00
Ar 1987  0.2494309E+02  0.4949457E+02  0.3600802E+02  0.0000000E+00
Ar 1988  0.2220905E+02  0.5263742E+02  0.3637235E+02  0.0000000E+00
Ar 1989  0.2200453E+02  0.4957997E+02  0.3873623E+02  0.0000000E+00
Ar 1990  0.2493391E+02  0.5235869E+02  0.3870620E+02  0.0000000E+00
Ar 1991  0.2522730E+02  0.4949116E+02  0.4171676E+02  0.0000000E+00
Ar 1992  0.2223850E+02  0.5222553E+02  0.4156279E+02  0.0000000E+00
Ar 1993  0.2225419E+02  0.4953320E+02  0.4425663E+02  0.0000000E+00
Ar 1994  0.2528172E+02  0.5273431E+02  0.4416829E+02  0.0000000E+00
Ar 1995  0.2502283E+02  0.5007371E+02  0.4729618E+02  0.0000000E+00
Ar 1996  0.2224764E+02  0.5271898E+02  0.4719735E+02  0.0000000E+00
Ar 1997  0.2245296E+02  0.4988944E+02  0.4988944E+02  0.0000000E+00
Ar 1998  0.2518947E+02  0.5275328E+02  0.4986150E+02  0.0000000E+00
Ar 1999  0.2518963E+02  0.4986149E+02  0.5275340E+02  0.0000000E+00
Ar 2000  0.2265019E+02  0.5254843E+02  0.5254843E+02  0.0000000E+00
Ar 2001  0.2790018E+02  0.5492961E+02  0.5492966E+02  0.0000000E+00
Ar 2002  0.3074285E+02  0.2478285E+01  0.5503420E+02  0.0000000E+00
Ar 2003  0.3074338E+02  0.5503372E+02  0.2478755E+01  0.0000000E+00
Ar 2004  0.2778359E+02  0.2611114E+01  0.2611089E+01  0.0000000E+00
Ar 2005  0.2771956E+02  0.4366723E+00  0.5333208E+01  0.0000000E+00
Ar 2006  0.3054439E+02  0.2784179E+01  0.5632472E+01  0.0000000E+00
Ar 2007  0.3031245E+02  0.1885324E+00  0.7956178E+01  0.0000000E+00
Ar 2008  0.2780973E+02  0.2808829E+01  0.8064240E+01  0.0000000E+00
Ar 2009  0.2788850E+02  0.3189215E+00  0.1107559E+02  0.0000000E+00
Ar 2010  0.3054946E+02  0.3022401E+01  0.1094971E+02  0.0000000E+00
Ar 2011  0.3018727E+02  0.2304976E+00  0.1363310E+02  0.0000000E+00
Ar 2012  0.2743997E+02  0.2858911E+01  0.1378130E+02  0.0000000E+00
Ar 2013  0.2751387E+02  0.2262190E+00  0.1635721E+02  0.0000000E+00
Ar 2014  0.3046441E+02  0.3150820E+01  0.1670130E+02  0.0000000E+00
Ar 2015  0.3097620E+02  0.1877275E+00  0.1966964E+02  0.0000000E+00
Ar 2016  0.2770095E+02  0.2823185E+01  0.1916390E+02  0.0000000E+00
Ar 2017  0.2785453E+02  0.2792700E+00  0.2186863E+02  0.0000000E+00
Ar 2018  0.3064925E+02  0.2904580E+01  0.2208044E+02  0.0000000E+00
Ar 2019  0.3036484E+02  0.1822236E+00  0.2482945E+02  0.0000000E+00
Ar 2020  0.2773296E+02  0.2867490E+01  0.2484465E+02  0.0000000E+00
Ar 2021  0.2734405E+02  0.2279014E+00  0.2734404E+02  0.0000000E+00
Ar 2022  0.3032296E+02  0.3079920E+01  0.2732186E+02  0.0000000E+00
Ar 2023  0.3067759E+02  0.5495792E+02  0.3067758E+02  0.0000000E+00
Ar 2024  0.2732186E+02  0.3079926E+01  0.3032295E+02  0.0000000E+00
Ar 2025  0.2775892E+02  0.6842378E+00  0.3307059E+02  0.0000000E+00
Ar 2026  0.3036432E+02  0.3308828E+01  0.3339179E+02  0.0000000E+00
Ar 2027  0.3043372E+02  0.4751929E+00  0.3566165E+02  0.0000000E+00
Ar 2028  0.2745920E+02  0.2867950E+01  0.3615059E+02  0.0000000E+00
Ar 2029  0.2772375E+02  0.5492313E+02  0.3891864E+02  0.0000000E+00
Ar 2030  0.3057399E+02  0.2564133E+01  0.3862053E+02  0.0000000E+00
Ar 2031  0.3023784E+02  0.5501912E+02  0.4161581E+02  0.0000000E+00
Ar 2032  0.2804482E+02  0.2814884E+01  0.4125990E+02  0.0000000E+00
Ar 2033  0.2783069E+02  0.2764171E+00  0.4431448E+02  0.0000000E+00
Ar 2034  0.3051076E+02  0.3114602E+01  0.4434113E+02  0.0000000E+00
Ar 2035  0.3075091E+02  0.5504615E+02  0.4688002E+02  0.0000000E+00
Ar 2036  0.2766673E+02  0.3029865E+01  0.4689200E+02  0.0000000E+00
Ar 2037  0.2806795E+02  0.5502831E+02  0.4967348E+02  0.0000000E+00
Ar 2038  0.3062413E+02  0.2996854E+01  0.4931728E+02  0.0000000E+00
Ar 2039  0.3099828E+02  0.5513819E+02  0.5249364E+02  0.0000000E+00
Ar 2040  0.2797989E+02  0.2799250E+01  0.5243984E+02  0.0000000E+00
Ar 2041  0.2771954E+02  0.5333256E+01  0.4367089E+00  0.0000000E+00
Ar 2042  0.3031249E+02  0.7956080E+01  0.1885180E+00  0.0000000E+00
Ar 2043  0.3054450E+02  0.5632697E+01  0.2784491E+01  0.0000000E+00
Ar 2044  0.2780973E+02  0.8064257E+01  0.2808827E+01  0.0000000E+00
Ar 2045  0.2770992E+02  0.5535096E+01  0.5535087E+01  0.0000000E+00
Ar 2046  0.3081315E+02  0.8111896E+01  0.5575920E+01  0.0000000E+00
Ar 2047  0.3081314E+02  0.5575898E+01  0.8111862E+01  0.0000000E+00
Ar 2048  0.2792096E+02  0.8050916E+01  0.8050917E+01  0.0000000E+00
Ar 2049  0.2743329E+02  0.5682394E+01  0.1104138E+02  0.0000000E+00
Ar 2050  0.3056211E+02  0.8054792E+01  0.1097240E+02  0.0000000E+00
Ar 2051  0.3007089E+02  0.5502656E+01  0.1373848E+02  0.0000000E+00
Ar 2052  0.2779794E+02  0.8482903E+01  0.1362600E+02  0.0000000E+00
Ar 2053  0.2753774E+02  0.5555255E+01  0.1648535E+02  0.0000000E+00
Ar 2054  0.3034024E+02  0.8386782E+01  0.1620441E+02  0.0000000E+00
Ar 2055  0.3048201E+02  0.5853214E+01  0.1921509E+02  0.0000000E+00
Ar 2056  0.2774529E+02  0.8159959E+01  0.1893080E+02  0.0000000E+00
Ar 2057  0.2771434E+02  0.5793068E+01  0.2186941E+02  0.0000000E+00
Ar 2058  0.3021134E+02  0.8516112E+01  0.2215439E+02  0.0000000E+00
Ar 2059  0.3054329E+02  0.5838581E+01  0.2473617E+02  0.0000000E+00
Ar 2060  0.2760364E+02  0.8475616E+01  0.2488897E+02  0.0000000E+00
Ar 2061  0.2758056E+02  0.5876581E+01  0.2758056E+02  0.0000000E+00
Ar 2062  0.3032667E+02  0.8540992E+01  0.2746166E+02  0.0000000E+00
Ar 2063  0.3018799E+02  0.5392623E+01  0.3018799E+02  0.0000000E+00
Ar 2064  0.2746167E+02  0.8541000E+01  0.3032666E+02  0.0000000E+00
Ar 2065  0.2784318E+02  0.5654396E+01  0.3342147E+02  0.0000000E+00
Ar 2066  0.3025995E+02  0.8536402E+01  0.3294675E+02  0.0000000E+00
Ar 2067  0.3034056E+02  0.5811800E+01  0.3622051E+02  0.0000000E+00
Ar 2068  0.2765034E+02  0.8465695E+01  0.3587295E+02  0.0000000E+00
Ar 2069  0.2751038E+02  0.5670496E+01  0.3864719E+02  0.0000000E+00
Ar 2070  0.3033842E+02  0.8576351E+01  0.3879356E+02  0.0000000E+00
Ar 2071  0.3075443E+02  0.5644231E+01  0.4108942E+02  0.0000000E+00
Ar 2072  0.2761881E+02  0.8425419E+01  0.4121082E+02  0.0000000E+00
Ar 2073  0.2747733E+02  0.5493792E+01  0.4395983E+02  0.0000000E+00
Ar 2074  0.3020614E+02  0.8096097E+01  0.4393851E+02  0.0000000E+00
Ar 2075  0.3052594E+02  0.5814661E+01  0.4705153E+02  0.0000000E+00
Ar 2076  0.2801288E+02  0.8319186E+01  0.4681420E+02  0.0000000E+00
Ar 2077  0.2786085E+02  0.5804783E+01  0.4969223E+02  0.0000000E+00
Ar 2078  0.3068424E+02  0.8368554E+01  0.4972309E+02  0.0000000E+00
Ar 2079  0.3076902E+02  0.5732971E+01  0.5204116E+02  0.0000000E+00
Ar 2080  0.2762973E+02  0.8429093E+01  0.5252954E+02  0.0000000E+00
Ar 2081  0.2788851E+02  0.1107558E+02  0.3189137E+00  0.0000000E+00
Ar 2082  0.3018727E+02  0.1363310E+02  0.2304991E+00  0.0000000E+00
Ar 2083  0.3054945E+02  0.1094971E+02  0.3022400E+01  0.0000000E+00
Ar 2084  0.2743996E+02  0.1378130E+02  0.2858912E+01  0.0000000E+00
Ar 2085  0.2743329E+02  0.1104138E+02  0.5682395E+01  0.0000000E+00
Ar 2086  0.3007089E+02  0.1373848E+02  0.5502655E+01  0.0000000E+00
Ar 2087  0.3056210E+02  0.1097239E+02  0.8054784E+01  0.0000000E+00
Ar 2088  0.2779794E+02  0.1362600E+02  0.8482902E+01  0.0000000E+00
Ar 2089  0.2769837E+02  0.1100001E+02  0.1100001E+02  0.0000000E+00
Ar 2090  0.3033715E+02  0.1361633E+02  0.1098383E+02  0.0000000E+00
Ar 2091  0.3033715E+02  0.1098383E+02  0.1361633E+02  0.0000000E+00
Ar 2092  0.2756945E+02  0.1378155E+02  0.1378155E+02  0.0000000E+00
Ar 2093  0.2763065E+02  0.1116669E+02  0.1659552E+02  0.0000000E+00
Ar 2094  0.3037493E+02  0.1364517E+02  0.1618397E+02  0.0000000E+00
Ar 2095  0.3063132E+02  0.1077081E+02  0.1923272E+02  0.0000000E+00
Ar 2096  0.2775891E+02  0.1360153E+02  0.1937587E+02  0.0000000E+00
Ar 2097  0.2749426E+02  0.1116624E+02  0.2198807E+02  0.0000000E+00
Ar 2098  0.3046483E+02  0.1373515E+02  0.2206155E+02  0.0000000E+00
Ar 2099  0.3032085E+02  0.1111539E+02  0.2462888E+02  0.0000000E+00
Ar 2100  0.2750441E+02  0.1393149E+02  0.2472352E+02  0.0000000E+00
Ar 2101  0.2746401E+02  0.1108095E+02  0.2746399E+02  0.0000000E+00
Ar 2102  0.3053275E+02  0.1391322E+02  0.2728398E+02  0.0000000E+00
Ar 2103  0.3044200E+02  0.1134344E+02  0.3044200E+02  0.0000000E+00
Ar 2104  0.2728399E+02  0.1391321E+02  0.3053274E+02  0.0000000E+00
Ar 2105  0.2747489E+02  0.1106260E+02  0.3308370E+02  0.0000000E+00
Ar 2106  0.3001243E+02  0.1384216E+02  0.3292032E+02  0.0000000E+00
Ar 2107  0.3013045E+02  0.1120429E+02  0.3582342E+02  0.0000000E+00
Ar 2108  0.2745994E+02  0.1411309E+02  0.3579695E+02  0.0000000E+00
Ar 2109  0.2767062E+02  0.1123056E+02  0.3863347E+02  0.0000000E+00
Ar 2110  0.3012643E+02  0.1390898E+02  0.3849329E+02  0.0000000E+00
Ar 2111  0.3064794E+02  0.1101544E+02  0.4161896E+02  0.0000000E+00
Ar 2112  0.2790706E+02  0.1390104E+02  0.4149931E+02  0.0000000E+00
Ar 2113  0.2779440E+02  0.1118147E+02  0.4383584E+02  0.0000000E+00
Ar 2114  0.3050763E+02  0.1378456E+02  0.4431590E+02  0.0000000E+00
Ar 2115  0.3041811E+02  0.1096521E+02  0.4706439E+02  0.0000000E+00
Ar 2116  0.2778701E+02  0.1374090E+02  0.4697459E+02  0.0000000E+00
Ar 2117  0.2780174E+02  0.1123032E+02  0.4969244E+02  0.0000000E+00
Ar 2118  0.3054861E+02  0.1397331E+02  0.4970475E+02  0.0000000E+00
Ar 2119  0.3065037E+02  0.1087897E+02  0.5249386E+02  0.0000000E+00
Ar 2120  0.2779713E+02  0.1395564E+02  0.5230708E+02  0.0000000E+00
Ar 2121  0.2751388E+02  0.1635721E+02  0.2262203E+00  0.0000000E+00
Ar 2122  0.3097620E+02  0.1966964E+02  0.1877251E+00  0.0000000E+00
Ar 2123  0.3046441E+02  0.1670129E+02  0.3150816E+01  0.0000000E+00
Ar 2124  0.2770095E+02  0.1916391E+02  0.2823186E+01  0.0000000E+00
Ar 2125  0.2753774E+02  0.1648535E+02  0.5555254E+01  0.0000000E+00
Ar 2126  0.3048201E+02  0.1921509E+02  0.5853214E+01  0.0000000E+00
Ar 2127  0.3034024E+02  0.1620441E+02  0.8386783E+01  0.0000000E+00
Ar 2128  0.2774529E+02  0.1893081E+02  0.8159962E+01  0.0000000E+00
Ar 2129  0.2763065E+02  0.1659552E+02  0.1116669E+02  0.0000000E+00
Ar 2130  0.3063132E+02  0.1923272E+02  0.1077081E+02  0.0000000E+00
Ar 2131  0.3037493E+02  0.1618397E+02  0.1364517E+02  0.0000000E+00
Ar 2132  0.2775891E+02  0.1937587E+02  0.1360153E+02  0.0000000E+00
Ar 2133  0.2766917E+02  0.1653836E+02  0.1653836E+02  0.0000000E+00
Ar 2134  0.3019449E+02  0.1941089E+02  0.1645500E+02  0.0000000E+00
Ar 2135  0.3019449E+02  0.1645500E+02  0.1941090E+02  0.0000000E+00
Ar 2136  0.2747888E+02  0.1918526E+02  0.1918526E+02  0.0000000E+00
Ar 2137  0.2723724E+02  0.1657678E+02  0.2189136E+02  0.0000000E+00
Ar 2138  0.3023571E+02  0.1912888E+02  0.2197422E+02  0.0000000E+00
Ar 2139  0.3014256E+02  0.1652234E+02  0.2469746E+02  0.0000000E+00
Ar 2140  0.2754131E+02  0.1926700E+02  0.2485059E+02  0.0000000E+00
Ar 2141  0.2744373E+02  0.1648299E+02  0.2744373E+02  0.0000000E+00
Ar 2142  0.3026219E+02  0.1920653E+02  0.2762463E+02  0.0000000E+00
Ar 2143  0.3007960E+02  0.1631232E+02  0.3007959E+02  0.0000000E+00
Ar 2144  0.2762464E+02  0.1920653E+02  0.3026218E+02  0.0000000E+00
Ar 2145  0.2737678E+02  0.1662070E+02  0.3288495E+02  0.0000000E+00
Ar 2146  0.3034591E+02  0.1907150E+02  0.3309403E+02  0.0000000E+00
Ar 2147  0.2999283E+02  0.1650008E+02  0.3588027E+02  0.0000000E+00
Ar 2148  0.2757530E+02  0.1920906E+02  0.3571672E+02  0.0000000E+00
Ar 2149  0.2762530E+02  0.1664028E+02  0.3889820E+02  0.0000000E+00
Ar 2150  0.3044069E+02  0.1928507E+02  0.3871013E+02  0.0000000E+00
Ar 2151  0.3053484E+02  0.1649360E+02  0.4189508E+02  0.0000000E+00
Ar 2152  0.2725444E+02  0.1927914E+02  0.4186008E+02  0.0000000E+00
Ar 2153  0.2763951E+02  0.1628676E+02  0.4431463E+02  0.0000000E+00
Ar 2154  0.3035717E+02  0.1938117E+02  0.4440324E+02  0.0000000E+00
Ar 2155  0.3050389E+02  0.1665327E+02  0.4711293E+02  0.0000000E+00
Ar 2156  0.2764088E+02  0.1936684E+02  0.4691948E+02  0.0000000E+00
Ar 2157  0.2750919E+02  0.1657598E+02  0.4952917E+02  0.0000000E+00
Ar 2158  0.3019617E+02  0.1958383E+02  0.4980532E+02  0.0000000E+00
Ar 2159  0.3033850E+02  0.1655930E+02  0.5235047E+02  0.0000000E+00
Ar 2160  0.2757612E+02  0.1929466E+02  0.5246278E+02  0.0000000E+00
Ar 2161  0.2785453E+02  0.2186864E+02  0.2792695E+00  0.0000000E+00
Ar 2162  0.3036484E+02  0.2482945E+02  0.1822240E+00  0.0000000E+00
Ar 2163  0.3064925E+02  0.2208044E+02  0.2904580E+01  0.0000000E+00
Ar 2164  0.2773296E+02  0.2484465E+02  0.2867485E+01  0.0000000E+00
Ar 2165  0.2771434E+02  0.2186941E+02  0.5793071E+01  0.0000000E+00
Ar 2166  0.3054329E+02  0.2473618E+02  0.5838582E+01  0.0000000E+00
Ar 2167  0.3021134E+02  0.2215439E+02  0.8516114E+01  0.0000000E+00
Ar 2168  0.2760365E+02  0.2488897E+02  0.8475615E+01  0.0000000E+00
Ar 2169  0.2749425E+02  0.2198807E+02  0.1116624E+02  0.0000000E+00
Ar 2170  0.3032086E+02  0.2462888E+02  0.1111539E+02  0.0000000E+00
Ar 2171  0.3046483E+02  0.2206155E+02  0.1373515E+02  0.0000000E+00
Ar 2172  0.2750441E+02  0.2472353E+02  0.1393149E+02  0.0000000E+00
Ar 2173  0.2723724E+02  0.2189136E+02  0.1657678E+02  0.0000000E+00
Ar 2174  0.3014256E+02  0.2469746E+02  0.1652234E+02  0.0000000E+00
Ar 2175  0.3023570E+02  0.2197422E+02  0.1912888E+02  0.0000000E+00
Ar 2176  0.2754131E+02  0.2485058E+02  0.1926700E+02  0.0000000E+00
Ar 2177  0.2768732E+02  0.2172555E+02  0.2172555E+02  0.0000000E+00
Ar 2178  0.3043328E+02  0.2464385E+02  0.2172062E+02  0.0000000E+00
Ar 2179  0.3043328E+02  0.2172062E+02  0.2464384E+02  0.0000000E+00
Ar 2180  0.2789798E+02  0.2468412E+02  0.2468412E+02  0.0000000E+00
Ar 2181  0.2762698E+02  0.2239023E+02  0.2762698E+02  0.0000000E+00
Ar 2182  0.3056853E+02  0.2462573E+02  0.2780572E+02  0.0000000E+00
Ar 2183  0.3030759E+02  0.2186739E+02  0.3030758E+02  0.0000000E+00
Ar 2184  0.2780573E+02  0.2462574E+02  0.3056852E+02  0.0000000E+00
Ar 2185  0.2758965E+02  0.2183742E+02  0.3303084E+02  0.0000000E+00
Ar 2186  0.3059913E+02  0.2488927E+02  0.3328937E+02  0.0000000E+00
Ar 2187  0.3031461E+02  0.2204360E+02  0.3583674E+02  0.0000000E+00
Ar 2188  0.2757180E+02  0.2478269E+02  0.3588122E+02  0.0000000E+00
Ar 2189  0.2752937E+02  0.2208104E+02  0.3851526E+02  0.0000000E+00
Ar 2190  0.3040016E+02  0.2465993E+02  0.3868747E+02  0.0000000E+00
Ar 2191  0.3030033E+02  0.2198919E+02  0.4157535E+02  0.0000000E+00
Ar 2192  0.2768279E+02  0.2491955E+02  0.4150010E+02  0.0000000E+00
Ar 2193  0.2747440E+02  0.2202309E+02  0.4446354E+02  0.0000000E+00
Ar 2194  0.3030518E+02  0.2503306E+02  0.4432035E+02  0.0000000E+00
Ar 2195  0.3032422E+02  0.2225110E+02  0.4702847E+02  0.0000000E+00
Ar 2196  0.2776073E+02  0.2513978E+02  0.4745282E+02  0.0000000E+00
Ar 2197  0.2765964E+02  0.2233472E+02  0.4969706E+02  0.0000000E+00
Ar 2198  0.3058062E+02  0.2504856E+02  0.5018384E+02  0.0000000E+00
Ar 2199  0.3031786E+02  0.2226590E+02  0.5254305E+02  0.0000000E+00
Ar 2200  0.2752709E+02  0.2488833E+02  0.5242692E+02  0.0000000E+00
Ar 2201  0.2734405E+02  0.2734404E+02  0.2278992E+00  0.0000000E+00
Ar 2202  0.3067760E+02  0.3067759E+02  0.5495792E+02  0.0000000E+00
Ar 2203  0.3032296E+02  0.2732186E+02  0.3079917E+01  0.0000000E+00
Ar 2204  0.2732186E+02  0.3032296E+02  0.3079930E+01  0.0000000E+00
Ar 2205  0.2758056E+02  0.2758056E+02  0.5876581E+01  0.0000000E+00
Ar 2206  0.3018800E+02  0.3018799E+02  0.5392615E+01  0.0000000E+00
Ar 2207  0.3032667E+02  0.2746167E+02  0.8540990E+01  0.0000000E+00
Ar 2208  0.2746167E+02  0.3032666E+02  0.8540998E+01  0.0000000E+00
Ar 2209  0.2746401E+02  0.2746400E+02  0.1108095E+02  0.0000000E+00
Ar 2210  0.3044200E+02  0.3044200E+02  0.1134344E+02  0.0000000E+00
Ar 2211  0.3053275E+02  0.2728398E+02  0.1391322E+02  0.0000000E+00
Ar 2212  0.2728399E+02  0.3053274E+02  0.1391322E+02  0.0000000E+00
Ar 2213  0.2744373E+02  0.2744373E+02  0.1648299E+02  0.0000000E+00
Ar 2214  0.3007961E+02  0.3007959E+02  0.1631232E+02  0.0000000E+00
Ar 2215  0.3026219E+02  0.2762463E+02  0.1920653E+02  0.0000000E+00
Ar 2216  0.2762464E+02  0.3026218E+02  0.1920653E+02  0.0000000E+00
Ar 2217  0.2762697E+02  0.2762698E+02  0.2239023E+02  0.0000000E+00
Ar 2218  0.3030758E+02  0.3030758E+02  0.2186739E+02  0.0000000E+00
Ar 2219  0.3056853E+02  0.2780572E+02  0.2462574E+02  0.0000000E+00
Ar 2220  0.2780572E+02  0.3056853E+02  0.2462573E+02  0.0000000E+00
Ar 2221  0.2753553E+02  0.2753552E+02  0.2753552E+02  0.0000000E+00
Ar 2222  0.3014707E+02  0.3014707E+02  0.2752265E+02  0.0000000E+00
Ar 2223  0.3014707E+02  0.2752265E+02  0.3014707E+02  0.0000000E+00
Ar 2224  0.2752265E+02  0.3014706E+02  0.3014706E+02  0.0000000E+00
Ar 2225  0.2764379E+02  0.2764379E+02  0.3311691E+02  0.0000000E+00
Ar 2226  0.3035497E+02  0.3035497E+02  0.3348131E+02  0.0000000E+00
Ar 2227  0.3033052E+02  0.2760836E+02  0.3600000E+02  0.0000000E+00
Ar 2228  0.2760836E+02  0.3033052E+02  0.3600000E+02  0.0000000E+00
Ar 2229  0.2747765E+02  0.2747765E+02  0.3851142E+02  0.0000000E+00
Ar 2230  0.3006212E+02  0.3006212E+02  0.3881243E+02  0.0000000E+00
Ar 2231  0.3048939E+02  0.2769243E+02  0.4167765E+02  0.0000000E+00
Ar 2232  0.2769243E+02  0.3048940E+02  0.4167764E+02  0.0000000E+00
Ar 2233  0.2780233E+02  0.2780233E+02  0.4496493E+02  0.0000000E+00
Ar 2234  0.3077018E+02  0.3077019E+02  0.4459704E+02  0.0000000E+00
Ar 2235  0.3059759E+02  0.2783524E+02  0.4709057E+02  0.0000000E+00
Ar 2236  0.2783524E+02  0.3059760E+02  0.4709056E+02  0.0000000E+00
Ar 2237  0.2783874E+02  0.2783874E+02  0.5006342E+02  0.0000000E+00
Ar 2238  0.3047718E+02  0.3047719E+02  0.4994301E+02  0.0000000E+00
Ar 2239  0.3066456E+02  0.2777021E+02  0.5283690E+02  0.0000000E+00
Ar 2240  0.2777021E+02  0.3066456E+02  0.5283691E+02  0.0000000E+00
Ar 2241  0.2775892E+02  0.3307059E+02  0.6842440E+00  0.0000000E+00
Ar 2242  0.3043372E+02  0.3566164E+02  0.4751980E+00  0.0000000E+00
Ar 2243  0.3036432E+02  0.3339180E+02  0.3308842E+01  0.0000000E+00
Ar 2244  0.2745920E+02  0.3615059E+02  0.2867948E+01  0.0000000E+00
Ar 2245  0.2784318E+02  0.3342147E+02  0.5654395E+01  0.0000000E+00
Ar 2246  0.3034055E+02  0.3622051E+02  0.5811802E+01  0.0000000E+00
Ar 2247  0.3025995E+02  0.3294675E+02  0.8536407E+01  0.0000000E+00
Ar 2248  0.2765033E+02  0.3587295E+02  0.8465702E+01  0.0000000E+00
Ar 2249  0.2747489E+02  0.3308370E+02  0.1106261E+02  0.0000000E+00
Ar 2250  0.3013044E+02  0.3582342E+02  0.1120430E+02  0.0000000E+00
Ar 2251  0.3001243E+02  0.3292032E+02  0.1384216E+02  0.0000000E+00
Ar 2252  0.2745995E+02  0.3579695E+02  0.1411309E+02  0.0000000E+00
Ar 2253  0.2737678E+02  0.3288496E+02  0.1662070E+02  0.0000000E+00
Ar 2254  0.2999283E+02  0.3588027E+02  0.1650009E+02  0.0000000E+00
Ar 2255  0.3034592E+02  0.3309403E+02  0.1907151E+02  0.0000000E+00
Ar 2256  0.2757530E+02  0.3571672E+02  0.1920906E+02  0.0000000E+00
Ar 2257  0.2758965E+02  0.3303085E+02  0.2183743E+02  0.0000000E+00
Ar 2258  0.3031461E+02  0.3583674E+02  0.2204360E+02  0.0000000E+00
Ar 2259  0.3059913E+02  0.3328937E+02  0.2488927E+02  0.0000000E+00
Ar 2260  0.2757180E+02  0.3588123E+02  0.2478269E+02  0.0000000E+00
Ar 2261  0.2764379E+02  0.3311691E+02  0.2764379E+02  0.0000000E+00
Ar 2262  0.3033052E+02  0.3600000E+02  0.2760836E+02  0.0000000E+00
Ar 2263  0.3035497E+02  0.3348131E+02  0.3035497E+02  0.0000000E+00
Ar 2264  0.2760836E+02  0.3600001E+02  0.3033052E+02  0.0000000E+00
Ar 2265  0.2773937E+02  0.3307011E+02  0.3307012E+02  0.0000000E+00
Ar 2266  0.3040547E+02  0.3612350E+02  0.3321449E+02  0.0000000E+00
Ar 2267  0.3040547E+02  0.3321449E+02  0.3612350E+02  0.0000000E+00
Ar 2268  0.2750552E+02  0.3591329E+02  0.3591329E+02  0.0000000E+00
Ar 2269  0.2768725E+02  0.3344774E+02  0.3862700E+02  0.0000000E+00
Ar 2270  0.3037506E+02  0.3603937E+02  0.3876517E+02  0.0000000E+00
Ar 2271  0.3039026E+02  0.3313895E+02  0.4163161E+02  0.0000000E+00
Ar 2272  0.2746093E+02  0.3615653E+02  0.4195000E+02  0.0000000E+00
Ar 2273  0.2740001E+02  0.3327352E+02  0.4441222E+02  0.0000000E+00
Ar 2274  0.3052283E+02  0.3603291E+02  0.4456450E+02  0.0000000E+00
Ar 2275  0.3051796E+02  0.3340146E+02  0.4714564E+02  0.0000000E+00
Ar 2276  0.2774691E+02  0.3580005E+02  0.4741420E+02  0.0000000E+00
Ar 2277  0.2787993E+02  0.3319805E+02  0.4990811E+02  0.0000000E+00
Ar 2278  0.3062258E+02  0.3599670E+02  0.4969733E+02  0.0000000E+00
Ar 2279  0.3074560E+02  0.3335672E+02  0.5247938E+02  0.0000000E+00
Ar 2280  0.2803425E+02  0.3616103E+02  0.5263550E+02  0.0000000E+00
Ar 2281  0.2772374E+02  0.3891864E+02  0.5492313E+02  0.0000000E+00
Ar 2282  0.3023783E+02  0.4161581E+02  0.5501911E+02  0.0000000E+00
Ar 2283  0.3057399E+02  0.3862053E+02  0.2564132E+01  0.0000000E+00
Ar 2284  0.2804483E+02  0.4125990E+02  0.2814883E+01  0.0000000E+00
Ar 2285  0.2751038E+02  0.3864719E+02  0.5670497E+01  0.0000000E+00
Ar 2286  0.3075443E+02  0.4108942E+02  0.5644226E+01  0.0000000E+00
Ar 2287  0.3033842E+02  0.3879356E+02  0.8576347E+01  0.0000000E+00
Ar 2288  0.2761881E+02  0.4121082E+02  0.8425413E+01  0.0000000E+00
Ar 2289  0.2767062E+02  0.3863348E+02  0.1123056E+02  0.0000000E+00
Ar 2290  0.3064794E+02  0.4161896E+02  0.1101544E+02  0.0000000E+00
Ar 2291  0.3012643E+02  0.3849329E+02  0.1390898E+02  0.0000000E+00
Ar 2292  0.2790706E+02  0.4149931E+02  0.1390104E+02  0.0000000E+00
Ar 2293  0.2762530E+02  0.3889821E+02  0.1664028E+02  0.0000000E+00
Ar 2294  0.3053484E+02  0.4189508E+02  0.1649359E+02  0.0000000E+00
Ar 2295  0.3044069E+02  0.3871014E+02  0.1928507E+02  0.0000000E+00
Ar 2296  0.2725444E+02  0.4186008E+02  0.1927914E+02  0.0000000E+00
Ar 2297  0.2752937E+02  0.3851527E+02  0.2208105E+02  0.0000000E+00
Ar 2298  0.3030032E+02  0.4157535E+02  0.2198919E+02  0.0000000E+00
Ar 2299  0.3040016E+02  0.3868748E+02  0.2465993E+02  0.0000000E+00
Ar 2300  0.2768279E+02  0.4150011E+02  0.2491955E+02  0.0000000E+00
Ar 2301  0.2747765E+02  0.3851142E+02  0.2747765E+02  0.0000000E+00
Ar 2302  0.3048939E+02  0.4167765E+02  0.2769243E+02  0.0000000E+00
Ar 2303  0.3006212E+02  0.3881244E+02  0.3006212E+02  0.0000000E+00
Ar 2304  0.2769244E+02  0.4167765E+02  0.3048940E+02  0.0000000E+00
Ar 2305  0.2768725E+02  0.3862700E+02  0.3344774E+02  0.0000000E+00
Ar 2306  0.3039025E+02  0.4163160E+02  0.3313895E+02  0.0000000E+00
Ar 2307  0.3037506E+02  0.3876516E+02  0.3603937E+02  0.0000000E+00
Ar 2308  0.2746092E+02  0.4195000E+02  0.3615653E+02  0.0000000E+00
Ar 2309  0.2732456E+02  0.3884783E+02  0.3884783E+02  0.0000000E+00
Ar 2310  0.3008782E+02  0.4133013E+02  0.3871406E+02  0.0000000E+00
Ar 2311  0.3008782E+02  0.3871407E+02  0.4133013E+02  0.0000000E+00
Ar 2312  0.2715323E+02  0.4169408E+02  0.4169408E+02  0.0000000E+00
Ar 2313  0.2771883E+02  0.3861509E+02  0.4470962E+02  0.0000000E+00
Ar 2314  0.3053069E+02  0.4131559E+02  0.4408237E+02  0.0000000E+00
Ar 2315  0.3044469E+02  0.3855513E+02  0.4707930E+02  0.0000000E+00
Ar 2316  0.2768159E+02  0.4166353E+02  0.4704431E+02  0.0000000E+00
Ar 2317  0.2767882E+02  0.3878157E+02  0.4956701E+02  0.0000000E+00
Ar 2318  0.3033464E+02  0.4138743E+02  0.4996557E+02  0.0000000E+00
Ar 2319  0.3085023E+02  0.3897248E+02  0.5267942E+02  0.0000000E+00
Ar 2320  0.2773464E+02  0.4154277E+02  0.5240485E+02  0.0000000E+00
Ar 2321  0.2783069E+02  0.4431445E+02  0.2764172E+00  0.0000000E+00
Ar 2322  0.3075094E+02  0.4688003E+02  0.5504615E+02  0.0000000E+00
Ar 2323  0.3051077E+02  0.4434112E+02  0.3114607E+01  0.0000000E+00
Ar 2324  0.2766674E+02  0.4689204E+02  0.3029844E+01  0.0000000E+00
Ar 2325  0.2747732E+02  0.4395983E+02  0.5493796E+01  0.0000000E+00
Ar 2326  0.3052594E+02  0.4705153E+02  0.5814645E+01  0.0000000E+00
Ar 2327  0.3020614E+02  0.4393851E+02  0.8096100E+01  0.0000000E+00
Ar 2328  0.2801287E+02  0.4681420E+02  0.8319189E+01  0.0000000E+00
Ar 2329  0.2779440E+02  0.4383584E+02  0.1118147E+02  0.0000000E+00
Ar 2330  0.3041811E+02  0.4706439E+02  0.1096521E+02  0.0000000E+00
Ar 2331  0.3050763E+02  0.4431590E+02  0.1378456E+02  0.0000000E+00
Ar 2332  0.2778701E+02  0.4697460E+02  0.1374090E+02  0.0000000E+00
Ar 2333  0.2763951E+02  0.4431462E+02  0.1628676E+02  0.0000000E+00
Ar 2334  0.3050389E+02  0.4711293E+02  0.1665327E+02  0.0000000E+00
Ar 2335  0.3035717E+02  0.4440324E+02  0.1938116E+02  0.0000000E+00
Ar 2336  0.2764088E+02  0.4691948E+02  0.1936684E+02  0.0000000E+00
Ar 2337  0.2747440E+02  0.4446355E+02  0.2202309E+02  0.0000000E+00
Ar 2338  0.3032422E+02  0.4702847E+02  0.2225110E+02  0.0000000E+00
Ar 2339  0.3030519E+02  0.4432034E+02  0.2503306E+02  0.0000000E+00
Ar 2340  0.2776073E+02  0.4745282E+02  0.2513978E+02  0.0000000E+00
Ar 2341  0.2780232E+02  0.4496493E+02  0.2780232E+02  0.0000000E+00
Ar 2342  0.3059759E+02  0.4709056E+02  0.2783524E+02  0.0000000E+00
Ar 2343  0.3077018E+02  0.4459704E+02  0.3077018E+02  0.0000000E+00
Ar 2344  0.2783524E+02  0.4709056E+02  0.3059760E+02  0.0000000E+00
Ar 2345  0.2740002E+02  0.4441222E+02  0.3327352E+02  0.0000000E+00
Ar 2346  0.3051796E+02  0.4714564E+02  0.3340146E+02  0.0000000E+00
Ar 2347  0.3052283E+02  0.4456450E+02  0.3603291E+02  0.0000000E+00
Ar 2348  0.2774691E+02  0.4741420E+02  0.3580004E+02  0.0000000E+00
Ar 2349  0.2771883E+02  0.4470962E+02  0.3861508E+02  0.0000000E+00
Ar 2350  0.3044469E+02  0.4707929E+02  0.3855513E+02  0.0000000E+00
Ar 2351  0.3053069E+02  0.4408237E+02  0.4131560E+02  0.0000000E+00
Ar 2352  0.2768158E+02  0.4704431E+02  0.4166353E+02  0.0000000E+00
Ar 2353  0.2772788E+02  0.4460414E+02  0.4460414E+02  0.0000000E+00
Ar 2354  0.3073090E+02  0.4727573E+02  0.4401582E+02  0.0000000E+00
Ar 2355  0.3073090E+02  0.4401583E+02  0.4727573E+02  0.0000000E+00
Ar 2356  0.2795028E+02  0.4732675E+02  0.4732675E+02  0.0000000E+00
Ar 2357  0.2784569E+02  0.4428800E+02  0.4967278E+02  0.0000000E+00
Ar 2358  0.3081407E+02  0.4705349E+02  0.4974558E+02  0.0000000E+00
Ar 2359  0.3062260E+02  0.4411183E+02  0.5253328E+02  0.0000000E+00
Ar 2360  0.2806030E+02  0.4671958E+02  0.5247972E+02  0.0000000E+00
Ar 2361  0.2807496E+02  0.4968083E+02  0.5502845E+02  0.0000000E+00
Ar 2362  0.3099074E+02  0.5248575E+02  0.5513902E+02  0.0000000E+00
Ar 2363  0.3062426E+02  0.4931747E+02  0.2996834E+01  0.0000000E+00
Ar 2364  0.2798038E+02  0.5243982E+02  0.2798775E+01  0.0000000E+00
Ar 2365  0.2786093E+02  0.4969225E+02  0.5804805E+01  0.0000000E+00
Ar 2366  0.3076896E+02  0.5204147E+02  0.5732795E+01  0.0000000E+00
Ar 2367  0.3068424E+02  0.4972319E+02  0.8368436E+01  0.0000000E+00
Ar 2368  0.2762974E+02  0.5252954E+02  0.8429090E+01  0.0000000E+00
Ar 2369  0.2780174E+02  0.4969244E+02  0.1123031E+02  0.0000000E+00
Ar 2370  0.3065038E+02  0.5249386E+02  0.1087897E+02  0.0000000E+00
Ar 2371  0.3054861E+02  0.4970475E+02  0.1397331E+02  0.0000000E+00
Ar 2372  0.2779713E+02  0.5230708E+02  0.1395564E+02  0.0000000E+00
Ar 2373  0.2750919E+02  0.4952918E+02  0.1657597E+02  0.0000000E+00
Ar 2374  0.3033850E+02  0.5235048E+02  0.1655930E+02  0.0000000E+00
Ar 2375  0.3019617E+02  0.4980532E+02  0.1958383E+02  0.0000000E+00
Ar 2376  0.2757612E+02  0.5246278E+02  0.1929466E+02  0.0000000E+00
Ar 2377  0.2765964E+02  0.4969707E+02  0.2233471E+02  0.0000000E+00
Ar 2378  0.3031786E+02  0.5254305E+02  0.2226590E+02  0.0000000E+00
Ar 2379  0.3058062E+02  0.5018384E+02  0.2504856E+02  0.0000000E+00
Ar 2380  0.2752709E+02  0.5242692E+02  0.2488832E+02  0.0000000E+00
Ar 2381  0.2783874E+02  0.5006342E+02  0.2783874E+02  0.0000000E+00
Ar 2382  0.3066456E+02  0.5283690E+02  0.2777020E+02  0.0000000E+00
Ar 2383  0.3047719E+02  0.4994302E+02  0.3047718E+02  0.0000000E+00
Ar 2384  0.2777020E+02  0.5283691E+02  0.3066456E+02  0.0000000E+00
Ar 2385  0.2787992E+02  0.4990810E+02  0.3319805E+02  0.0000000E+00
Ar 2386  0.3074560E+02  0.5247938E+02  0.3335672E+02  0.0000000E+00
Ar 2387  0.3062258E+02  0.4969733E+02  0.3599670E+02  0.0000000E+00
Ar 2388  0.2803425E+02  0.5263550E+02  0.3616104E+02  0.0000000E+00
Ar 2389  0.2767882E+02  0.4956701E+02  0.3878157E+02  0.0000000E+00
Ar 2390  0.3085023E+02  0.5267942E+02  0.3897248E+02  0.0000000E+00
Ar 2391  0.3033464E+02  0.4996558E+02  0.4138742E+02  0.0000000E+00
Ar 2392  0.2773464E+02  0.5240486E+02  0.4154277E+02  0.0000000E+00
Ar 2393  0.2784570E+02  0.4967278E+02  0.4428799E+02  0.0000000E+00
Ar 2394  0.3062260E+02  0.5253328E+02  0.4411182E+02  0.0000000E+00
Ar 2395  0.3081407E+02  0.4974556E+02  0.4705344E+02  0.0000000E+00
Ar 2396  0.2806029E+02  0.5247971E+02  0.4671954E+02  0.0000000E+00
Ar 2397  0.2817037E+02  0.4989161E+02  0.4989161E+02  0.0000000E+00
Ar 2398  0.3071791E+02  0.5235651E+02  0.4959468E+02  0.0000000E+00
Ar 2399  0.3071805E+02  0.4959475E+02  0.5235643E+02  0.0000000E+00
Ar 2400  0.2803650E+02  0.5255421E+02  0.5255418E+02  0.0000000E+00
Ar 2401  0.3366878E+02  0.5484906E+02  0.5484947E+02  0.0000000E+00
Ar 2402  0.3630034E+02  0.2782745E+01  0.1650722E+00  0.0000000E+00
Ar 2403  0.3630038E+02  0.1651289E+00  0.2782733E+01  0.0000000E+00
Ar 2404  0.3352971E+02  0.2771730E+01  0.2771501E+01  0.0000000E+00
Ar 2405  0.3339927E+02  0.2510224E+00  0.5351181E+01  0.0000000E+00
Ar 2406  0.3610675E+02  0.2918121E+01  0.5740202E+01  0.0000000E+00
Ar 2407  0.3604434E+02  0.5507397E+02  0.8197797E+01  0.0000000E+00
Ar 2408  0.3327905E+02  0.2711696E+01  0.8294315E+01  0.0000000E+00
Ar 2409  0.3324134E+02  0.2803526E+00  0.1130945E+02  0.0000000E+00
Ar 2410  0.3585239E+02  0.3043645E+01  0.1117269E+02  0.0000000E+00
Ar 2411  0.3597632E+02  0.2256609E+00  0.1387632E+02  0.0000000E+00
Ar 2412  0.3326812E+02  0.3008072E+01  0.1350891E+02  0.0000000E+00
Ar 2413  0.3279834E+02  0.5514845E+02  0.1602765E+02  0.0000000E+00
Ar 2414  0.3562040E+02  0.2851300E+01  0.1652508E+02  0.0000000E+00
Ar 2415  0.3594494E+02  0.1928390E+00  0.1972158E+02  0.0000000E+00
Ar 2416  0.3321383E+02  0.3154332E+01  0.1946126E+02  0.0000000E+00
Ar 2417  0.3321453E+02  0.5494650E+02  0.2223416E+02  0.0000000E+00
Ar 2418  0.3611383E+02  0.3042891E+01  0.2198721E+02  0.0000000E+00
Ar 2419  0.3591348E+02  0.4373102E+00  0.2479170E+02  0.0000000E+00
Ar 2420  0.3339424E+02  0.3033045E+01  0.2482714E+02  0.0000000E+00
Ar 2421  0.3307058E+02  0.6842457E+00  0.2775892E+02  0.0000000E+00
Ar 2422  0.3615060E+02  0.2867950E+01  0.2745921E+02  0.0000000E+00
Ar 2423  0.3566165E+02  0.4752018E+00  0.3043371E+02  0.0000000E+00
Ar 2424  0.3339181E+02  0.3308833E+01  0.3036433E+02  0.0000000E+00
Ar 2425  0.3345713E+02  0.4370539E+00  0.3345713E+02  0.0000000E+00
Ar 2426  0.3615032E+02  0.3031565E+01  0.3323678E+02  0.0000000E+00
Ar 2427  0.3618823E+02  0.2380728E+00  0.3618823E+02  0.0000000E+00
Ar 2428  0.3323679E+02  0.3031568E+01  0.3615030E+02  0.0000000E+00
Ar 2429  0.3343042E+02  0.5520569E+02  0.3877770E+02  0.0000000E+00
Ar 2430  0.3612460E+02  0.2959002E+01  0.3890426E+02  0.0000000E+00
Ar 2431  0.3616413E+02  0.5510897E+02  0.4161162E+02  0.0000000E+00
Ar 2432  0.3331997E+02  0.2847795E+01  0.4131098E+02  0.0000000E+00
Ar 2433  0.3372029E+02  0.4650832E+00  0.4434303E+02  0.0000000E+00
Ar 2434  0.3619776E+02  0.3327840E+01  0.4375676E+02  0.0000000E+00
Ar 2435  0.3603273E+02  0.3935282E+00  0.4667293E+02  0.0000000E+00
Ar 2436  0.3360204E+02  0.3077094E+01  0.4671102E+02  0.0000000E+00
Ar 2437  0.3368754E+02  0.5515208E+02  0.4968378E+02  0.0000000E+00
Ar 2438  0.3603537E+02  0.2997937E+01  0.4975119E+02  0.0000000E+00
Ar 2439  0.3669321E+02  0.2963034E+00  0.5230447E+02  0.0000000E+00
Ar 2440  0.3340143E+02  0.2554037E+01  0.5228357E+02  0.0000000E+00
Ar 2441  0.3339991E+02  0.5352029E+01  0.2516182E+00  0.0000000E+00
Ar 2442  0.3604442E+02  0.8197877E+01  0.5507395E+02  0.0000000E+00
Ar 2443  0.3610679E+02  0.5740209E+01  0.2918152E+01  0.0000000E+00
Ar 2444  0.3327914E+02  0.8294498E+01  0.2711733E+01  0.0000000E+00
Ar 2445  0.3339014E+02  0.5526630E+01  0.5526644E+01  0.0000000E+00
Ar 2446  0.3604631E+02  0.8282888E+01  0.5743282E+01  0.0000000E+00
Ar 2447  0.3604631E+02  0.5743292E+01  0.8282886E+01  0.0000000E+00
Ar 2448  0.3336983E+02  0.8363393E+01  0.8363393E+01  0.0000000E+00
Ar 2449  0.3323460E+02  0.5473536E+01  0.1076721E+02  0.0000000E+00
Ar 2450  0.3584630E+02  0.8250806E+01  0.1100624E+02  0.0000000E+00
Ar 2451  0.3582358E+02  0.5465042E+01  0.1372659E+02  0.0000000E+00
Ar 2452  0.3309541E+02  0.8205511E+01  0.1355855E+02  0.0000000E+00
Ar 2453  0.3305165E+02  0.5657374E+01  0.1634755E+02  0.0000000E+00
Ar 2454  0.3578124E+02  0.8198436E+01  0.1635833E+02  0.0000000E+00
Ar 2455  0.3612918E+02  0.5776866E+01  0.1914618E+02  0.0000000E+00
Ar 2456  0.3307877E+02  0.8291310E+01  0.1952500E+02  0.0000000E+00
Ar 2457  0.3337366E+02  0.5773048E+01  0.2228164E+02  0.0000000E+00
Ar 2458  0.3592698E+02  0.8364120E+01  0.2191475E+02  0.0000000E+00
Ar 2459  0.3582623E+02  0.5734282E+01  0.2502153E+02  0.0000000E+00
Ar 2460  0.3327656E+02  0.8307987E+01  0.2479321E+02  0.0000000E+00
Ar 2461  0.3342147E+02  0.5654401E+01  0.2784318E+02  0.0000000E+00
Ar 2462  0.3587296E+02  0.8465685E+01  0.2765035E+02  0.0000000E+00
Ar 2463  0.3622051E+02  0.5811797E+01  0.3034056E+02  0.0000000E+00
Ar 2464  0.3294674E+02  0.8536390E+01  0.3025994E+02  0.0000000E+00
Ar 2465  0.3332636E+02  0.5879702E+01  0.3332636E+02  0.0000000E+00
Ar 2466  0.3581854E+02  0.8529701E+01  0.3321543E+02  0.0000000E+00
Ar 2467  0.3597742E+02  0.5760501E+01  0.3597742E+02  0.0000000E+00
Ar 2468  0.3321543E+02  0.8529703E+01  0.3581855E+02  0.0000000E+00
Ar 2469  0.3318204E+02  0.5689276E+01  0.3841079E+02  0.0000000E+00
Ar 2470  0.3608252E+02  0.8601272E+01  0.3891749E+02  0.0000000E+00
Ar 2471  0.3595188E+02  0.5801025E+01  0.4142807E+02  0.0000000E+00
Ar 2472  0.3322618E+02  0.8396013E+01  0.4129502E+02  0.0000000E+00
Ar 2473  0.3321818E+02  0.5798110E+01  0.4403853E+02  0.0000000E+00
Ar 2474  0.3591606E+02  0.8344411E+01  0.4417379E+02  0.0000000E+00
Ar 2475  0.3618691E+02  0.5644764E+01  0.4678851E+02  0.0000000E+00
Ar 2476  0.3302281E+02  0.8247849E+01  0.4677769E+02  0.0000000E+00
Ar 2477  0.3346094E+02  0.5680093E+01  0.4948520E+02  0.0000000E+00
Ar 2478  0.3588698E+02  0.8309254E+01  0.4962281E+02  0.0000000E+00
Ar 2479  0.3611877E+02  0.5318648E+01  0.5246394E+02  0.0000000E+00
Ar 2480  0.3339762E+02  0.8137753E+01  0.5247718E+02  0.0000000E+00
Ar 2481  0.3324131E+02  0.1130942E+02  0.2803516E+00  0.0000000E+00
Ar 2482  0.3597632E+02  0.1387632E+02  0.2256573E+00  0.0000000E+00
Ar 2483  0.3585239E+02  0.1117269E+02  0.3043639E+01  0.0000000E+00
Ar 2484  0.3326812E+02  0.1350890E+02  0.3008064E+01  0.0000000E+00
Ar 2485  0.3323460E+02  0.1076722E+02  0.5473537E+01  0.0000000E+00
Ar 2486  0.3582358E+02  0.1372659E+02  0.5465042E+01  0.0000000E+00
Ar 2487  0.3584630E+02  0.1100624E+02  0.8250807E+01  0.0000000E+00
Ar 2488  0.3309541E+02  0.1355855E+02  0.8205508E+01  0.0000000E+00
Ar 2489  0.3304436E+02  0.1100551E+02  0.1100551E+02  0.0000000E+00
Ar 2490  0.3618086E+02  0.1379831E+02  0.1123359E+02  0.0000000E+00
Ar 2491  0.3618086E+02  0.1123360E+02  0.1379831E+02  0.0000000E+00
Ar 2492  0.3328583E+02  0.1378957E+02  0.1378956E+02  0.0000000E+00
Ar 2493  0.3302393E+02  0.1092940E+02  0.1629709E+02  0.0000000E+00
Ar 2494  0.3583077E+02  0.1383948E+02  0.1674096E+02  0.0000000E+00
Ar 2495  0.3579731E+02  0.1072639E+02  0.1909498E+02  0.0000000E+00
Ar 2496  0.3315542E+02  0.1361165E+02  0.1914266E+02  0.0000000E+00
Ar 2497  0.3326720E+02  0.1088881E+02  0.2199595E+02  0.0000000E+00
Ar 2498  0.3582374E+02  0.1373573E+02  0.2177103E+02  0.0000000E+00
Ar 2499  0.3604158E+02  0.1119480E+02  0.2477342E+02  0.0000000E+00
Ar 2500  0.3307264E+02  0.1378619E+02  0.2477829E+02  0.0000000E+00
Ar 2501  0.3308370E+02  0.1106259E+02  0.2747489E+02  0.0000000E+00
Ar 2502  0.3579694E+02  0.1411309E+02  0.2745994E+02  0.0000000E+00
Ar 2503  0.3582341E+02  0.1120429E+02  0.3013044E+02  0.0000000E+00
Ar 2504  0.3292032E+02  0.1384216E+02  0.3001243E+02  0.0000000E+00
Ar 2505  0.3320872E+02  0.1125304E+02  0.3320872E+02  0.0000000E+00
Ar 2506  0.3613169E+02  0.1371665E+02  0.3319755E+02  0.0000000E+00
Ar 2507  0.3589010E+02  0.1093480E+02  0.3589009E+02  0.0000000E+00
Ar 2508  0.3319757E+02  0.1371665E+02  0.3613169E+02  0.0000000E+00
Ar 2509  0.3315374E+02  0.1094566E+02  0.3883153E+02  0.0000000E+00
Ar 2510  0.3602202E+02  0.1398289E+02  0.3877639E+02  0.0000000E+00
Ar 2511  0.3593966E+02  0.1102772E+02  0.4151650E+02  0.0000000E+00
Ar 2512  0.3312076E+02  0.1382331E+02  0.4143723E+02  0.0000000E+00
Ar 2513  0.3325145E+02  0.1119424E+02  0.4429157E+02  0.0000000E+00
Ar 2514  0.3579239E+02  0.1414273E+02  0.4430627E+02  0.0000000E+00
Ar 2515  0.3579439E+02  0.1110109E+02  0.4716736E+02  0.0000000E+00
Ar 2516  0.3326599E+02  0.1401225E+02  0.4723626E+02  0.0000000E+00
Ar 2517  0.3325929E+02  0.1093457E+02  0.4978626E+02  0.0000000E+00
Ar 2518  0.3605301E+02  0.1382685E+02  0.4995759E+02  0.0000000E+00
Ar 2519  0.3582215E+02  0.1107605E+02  0.5255980E+02  0.0000000E+00
Ar 2520  0.3309898E+02  0.1349438E+02  0.5217004E+02  0.0000000E+00
Ar 2521  0.3279834E+02  0.1602765E+02  0.5514844E+02  0.0000000E+00
Ar 2522  0.3594493E+02  0.1972158E+02  0.1928399E+00  0.0000000E+00
Ar 2523  0.3562040E+02  0.1652508E+02  0.2851298E+01  0.0000000E+00
Ar 2524  0.3321382E+02  0.1946125E+02  0.3154335E+01  0.0000000E+00
Ar 2525  0.3305165E+02  0.1634755E+02  0.5657371E+01  0.0000000E+00
Ar 2526  0.3612918E+02  0.1914618E+02  0.5776865E+01  0.0000000E+00
Ar 2527  0.3578124E+02  0.1635833E+02  0.8198433E+01  0.0000000E+00
Ar 2528  0.3307877E+02  0.1952501E+02  0.8291307E+01  0.0000000E+00
Ar 2529  0.3302393E+02  0.1629709E+02  0.1092940E+02  0.0000000E+00
Ar 2530  0.3579731E+02  0.1909498E+02  0.1072638E+02  0.0000000E+00
Ar 2531  0.3583077E+02  0.1674096E+02  0.1383947E+02  0.0000000E+00
Ar 2532  0.3315543E+02  0.1914267E+02  0.1361164E+02  0.0000000E+00
Ar 2533  0.3349369E+02  0.1661542E+02  0.1661542E+02  0.0000000E+00
Ar 2534  0.3590472E+02  0.1954625E+02  0.1653284E+02  0.0000000E+00
Ar 2535  0.3590472E+02  0.1653284E+02  0.1954625E+02  0.0000000E+00
Ar 2536  0.3332201E+02  0.1926522E+02  0.1926523E+02  0.0000000E+00
Ar 2537  0.3289796E+02  0.1656495E+02  0.2209909E+02  0.0000000E+00
Ar 2538  0.3609396E+02  0.1915662E+02  0.2195389E+02  0.0000000E+00
Ar 2539  0.3609726E+02  0.1673163E+02  0.2488787E+02  0.0000000E+00
Ar 2540  0.3335696E+02  0.1954176E+02  0.2436461E+02  0.0000000E+00
Ar 2541  0.3288496E+02  0.1662070E+02  0.2737677E+02  0.0000000E+00
Ar 2542  0.3571673E+02  0.1920905E+02  0.2757531E+02  0.0000000E+00
Ar 2543  0.3588027E+02  0.1650008E+02  0.2999283E+02  0.0000000E+00
Ar 2544  0.3309404E+02  0.1907151E+02  0.3034591E+02  0.0000000E+00
Ar 2545  0.3306898E+02  0.1645551E+02  0.3306897E+02  0.0000000E+00
Ar 2546  0.3590681E+02  0.1905988E+02  0.3328173E+02  0.0000000E+00
Ar 2547  0.3591572E+02  0.1626826E+02  0.3591572E+02  0.0000000E+00
Ar 2548  0.3328173E+02  0.1905988E+02  0.3590680E+02  0.0000000E+00
Ar 2549  0.3312789E+02  0.1658137E+02  0.3879618E+02  0.0000000E+00
Ar 2550  0.3582002E+02  0.1933909E+02  0.3850763E+02  0.0000000E+00
Ar 2551  0.3590486E+02  0.1666970E+02  0.4147759E+02  0.0000000E+00
Ar 2552  0.3309317E+02  0.1932075E+02  0.4131508E+02  0.0000000E+00
Ar 2553  0.3319302E+02  0.1672795E+02  0.4434655E+02  0.0000000E+00
Ar 2554  0.3576374E+02  0.1937968E+02  0.4421745E+02  0.0000000E+00
Ar 2555  0.3623100E+02  0.1676323E+02  0.4723491E+02  0.0000000E+00
Ar 2556  0.3300248E+02  0.1960993E+02  0.4691538E+02  0.0000000E+00
Ar 2557  0.3319493E+02  0.1688282E+02  0.4984355E+02  0.0000000E+00
Ar 2558  0.3583235E+02  0.1965869E+02  0.4993870E+02  0.0000000E+00
Ar 2559  0.3580180E+02  0.1686453E+02  0.5267467E+02  0.0000000E+00
Ar 2560  0.3338921E+02  0.1951863E+02  0.5246269E+02  0.0000000E+00
Ar 2561  0.3321453E+02  0.2223416E+02  0.5494650E+02  0.0000000E+00
Ar 2562  0.3591348E+02  0.2479170E+02  0.4373100E+00  0.0000000E+00
Ar 2563  0.3611383E+02  0.2198722E+02  0.3042893E+01  0.0000000E+00
Ar 2564  0.3339424E+02  0.2482714E+02  0.3033045E+01  0.0000000E+00
Ar 2565  0.3337366E+02  0.2228163E+02  0.5773045E+01  0.0000000E+00
Ar 2566  0.3582623E+02  0.2502153E+02  0.5734281E+01  0.0000000E+00
Ar 2567  0.3592699E+02  0.2191476E+02  0.8364119E+01  0.0000000E+00
Ar 2568  0.3327656E+02  0.2479322E+02  0.8307986E+01  0.0000000E+00
Ar 2569  0.3326720E+02  0.2199595E+02  0.1088881E+02  0.0000000E+00
Ar 2570  0.3604158E+02  0.2477342E+02  0.1119480E+02  0.0000000E+00
Ar 2571  0.3582374E+02  0.2177102E+02  0.1373573E+02  0.0000000E+00
Ar 2572  0.3307265E+02  0.2477829E+02  0.1378619E+02  0.0000000E+00
Ar 2573  0.3289796E+02  0.2209910E+02  0.1656495E+02  0.0000000E+00
Ar 2574  0.3609726E+02  0.2488787E+02  0.1673162E+02  0.0000000E+00
Ar 2575  0.3609395E+02  0.2195388E+02  0.1915662E+02  0.0000000E+00
Ar 2576  0.3335696E+02  0.2436461E+02  0.1954176E+02  0.0000000E+00
Ar 2577  0.3320271E+02  0.2208618E+02  0.2208618E+02  0.0000000E+00
Ar 2578  0.3584844E+02  0.2485212E+02  0.2218461E+02  0.0000000E+00
Ar 2579  0.3584844E+02  0.2218461E+02  0.2485212E+02  0.0000000E+00
Ar 2580  0.3280966E+02  0.2473611E+02  0.2473612E+02  0.0000000E+00
Ar 2581  0.3303085E+02  0.2183742E+02  0.2758964E+02  0.0000000E+00
Ar 2582  0.3588122E+02  0.2478269E+02  0.2757180E+02  0.0000000E+00
Ar 2583  0.3583674E+02  0.2204360E+02  0.3031462E+02  0.0000000E+00
Ar 2584  0.3328937E+02  0.2488927E+02  0.3059913E+02  0.0000000E+00
Ar 2585  0.3296524E+02  0.2190518E+02  0.3296525E+02  0.0000000E+00
Ar 2586  0.3617325E+02  0.2484225E+02  0.3321690E+02  0.0000000E+00
Ar 2587  0.3577553E+02  0.2204321E+02  0.3577553E+02  0.0000000E+00
Ar 2588  0.3321690E+02  0.2484225E+02  0.3617325E+02  0.0000000E+00
Ar 2589  0.3306264E+02  0.2195004E+02  0.3873032E+02  0.0000000E+00
Ar 2590  0.3581978E+02  0.2485998E+02  0.3891189E+02  0.0000000E+00
Ar 2591  0.3601863E+02  0.2219359E+02  0.4136952E+02  0.0000000E+00
Ar 2592  0.3305651E+02  0.2476263E+02  0.4157341E+02  0.0000000E+00
Ar 2593  0.3334147E+02  0.2224126E+02  0.4421746E+02  0.0000000E+00
Ar 2594  0.3599473E+02  0.2495032E+02  0.4433048E+02  0.0000000E+00
Ar 2595  0.3587081E+02  0.2195582E+02  0.4710193E+02  0.0000000E+00
Ar 2596  0.3303689E+02  0.2461633E+02  0.4725670E+02  0.0000000E+00
Ar 2597  0.3348774E+02  0.2240039E+02  0.5024672E+02  0.0000000E+00
Ar 2598  0.3600802E+02  0.2494309E+02  0.4949456E+02  0.0000000E+00
Ar 2599  0.3637237E+02  0.2220903E+02  0.5263741E+02  0.0000000E+00
Ar 2600  0.3365945E+02  0.2514607E+02  0.5253777E+02  0.0000000E+00
Ar 2601  0.3307059E+02  0.2775892E+02  0.6842413E+00  0.0000000E+00
Ar 2602  0.3566165E+02  0.3043371E+02  0.4752006E+00  0.0000000E+00
Ar 2603  0.3615060E+02  0.2745921E+02  0.2867948E+01  0.0000000E+00
Ar 2604  0.3339180E+02  0.3036433E+02  0.3308826E+01  0.0000000E+00
Ar 2605  0.3342147E+02  0.2784318E+02  0.5654395E+01  0.0000000E+00
Ar 2606  0.3622051E+02  0.3034057E+02  0.5811793E+01  0.0000000E+00
Ar 2607  0.3587296E+02  0.2765035E+02  0.8465686E+01  0.0000000E+00
Ar 2608  0.3294674E+02  0.3025994E+02  0.8536391E+01  0.0000000E+00
Ar 2609  0.3308370E+02  0.2747489E+02  0.1106258E+02  0.0000000E+00
Ar 2610  0.3582341E+02  0.3013045E+02  0.1120429E+02  0.0000000E+00
Ar 2611  0.3579694E+02  0.2745994E+02  0.1411309E+02  0.0000000E+00
Ar 2612  0.3292032E+02  0.3001243E+02  0.1384216E+02  0.0000000E+00
Ar 2613  0.3288496E+02  0.2737677E+02  0.1662070E+02  0.0000000E+00
Ar 2614  0.3588027E+02  0.2999283E+02  0.1650008E+02  0.0000000E+00
Ar 2615  0.3571673E+02  0.2757530E+02  0.1920905E+02  0.0000000E+00
Ar 2616  0.3309403E+02  0.3034592E+02  0.1907150E+02  0.0000000E+00
Ar 2617  0.3303085E+02  0.2758964E+02  0.2183742E+02  0.0000000E+00
Ar 2618  0.3583674E+02  0.3031462E+02  0.2204360E+02  0.0000000E+00
Ar 2619  0.3588122E+02  0.2757180E+02  0.2478269E+02  0.0000000E+00
Ar 2620  0.3328936E+02  0.3059913E+02  0.2488928E+02  0.0000000E+00
Ar 2621  0.3311691E+02  0.2764379E+02  0.2764379E+02  0.0000000E+00
Ar 2622  0.3600000E+02  0.3033052E+02  0.2760836E+02  0.0000000E+00
Ar 2623  0.3600000E+02  0.2760836E+02  0.3033051E+02  0.0000000E+00
Ar 2624  0.3348131E+02  0.3035497E+02  0.3035497E+02  0.0000000E+00
Ar 2625  0.3307012E+02  0.2773937E+02  0.3307011E+02  0.0000000E+00
Ar 2626  0.3612350E+02  0.3040547E+02  0.3321448E+02  0.0000000E+00
Ar 2627  0.3591329E+02  0.2750552E+02  0.3591329E+02  0.0000000E+00
Ar 2628  0.3321449E+02  0.3040546E+02  0.3612350E+02  0.0000000E+00
Ar 2629  0.3344774E+02  0.2768725E+02  0.3862700E+02  0.0000000E+00
Ar 2630  0.3603938E+02  0.3037506E+02  0.3876517E+02  0.0000000E+00
Ar 2631  0.3615652E+02  0.2746092E+02  0.4195000E+02  0.0000000E+00
Ar 2632  0.3313895E+02  0.3039025E+02  0.4163161E+02  0.0000000E+00
Ar 2633  0.3327352E+02  0.2740001E+02  0.4441223E+02  0.0000000E+00
Ar 2634  0.3603291E+02  0.3052283E+02  0.4456450E+02  0.0000000E+00
Ar 2635  0.3580005E+02  0.2774691E+02  0.4741420E+02  0.0000000E+00
Ar 2636  0.3340147E+02  0.3051796E+02  0.4714563E+02  0.0000000E+00
Ar 2637  0.3319805E+02  0.2787993E+02  0.4990811E+02  0.0000000E+00
Ar 2638  0.3599670E+02  0.3062258E+02  0.4969732E+02  0.0000000E+00
Ar 2639  0.3616103E+02  0.2803427E+02  0.5263549E+02  0.0000000E+00
Ar 2640  0.3335671E+02  0.3074560E+02  0.5247939E+02  0.0000000E+00
Ar 2641  0.3345713E+02  0.3345713E+02  0.4370576E+00  0.0000000E+00
Ar 2642  0.3618822E+02  0.3618823E+02  0.2380790E+00  0.0000000E+00
Ar 2643  0.3615031E+02  0.3323678E+02  0.3031564E+01  0.0000000E+00
Ar 2644  0.3323679E+02  0.3615030E+02  0.3031573E+01  0.0000000E+00
Ar 2645  0.3332635E+02  0.3332637E+02  0.5879704E+01  0.0000000E+00
Ar 2646  0.3597743E+02  0.3597742E+02  0.5760505E+01  0.0000000E+00
Ar 2647  0.3581854E+02  0.3321543E+02  0.8529701E+01  0.0000000E+00
Ar 2648  0.3321542E+02  0.3581855E+02  0.8529702E+01  0.0000000E+00
Ar 2649  0.3320872E+02  0.3320872E+02  0.1125303E+02  0.0000000E+00
Ar 2650  0.3589010E+02  0.3589009E+02  0.1093479E+02  0.0000000E+00
Ar 2651  0.3613170E+02  0.3319756E+02  0.1371665E+02  0.0000000E+00
Ar 2652  0.3319756E+02  0.3613169E+02  0.1371665E+02  0.0000000E+00
Ar 2653  0.3306898E+02  0.3306898E+02  0.1645552E+02  0.0000000E+00
Ar 2654  0.3591573E+02  0.3591572E+02  0.1626826E+02  0.0000000E+00
Ar 2655  0.3590681E+02  0.3328173E+02  0.1905988E+02  0.0000000E+00
Ar 2656  0.3328173E+02  0.3590681E+02  0.1905989E+02  0.0000000E+00
Ar 2657  0.3296523E+02  0.3296525E+02  0.2190519E+02  0.0000000E+00
Ar 2658  0.3577554E+02  0.3577554E+02  0.2204322E+02  0.0000000E+00
Ar 2659  0.3617325E+02  0.3321690E+02  0.2484224E+02  0.0000000E+00
Ar 2660  0.3321690E+02  0.3617325E+02  0.2484224E+02  0.0000000E+00
Ar 2661  0.3307013E+02  0.3307012E+02  0.2773937E+02  0.0000000E+00
Ar 2662  0.3591329E+02  0.3591329E+02  0.2750553E+02  0.0000000E+00
Ar 2663  0.3612350E+02  0.3321449E+02  0.3040547E+02  0.0000000E+00
Ar 2664  0.3321449E+02  0.3612350E+02  0.3040546E+02  0.0000000E+00
Ar 2665  0.3325194E+02  0.3325195E+02  0.3325194E+02  0.0000000E+00
Ar 2666  0.3576050E+02  0.3576052E+02  0.3282370E+02  0.0000000E+00
Ar 2667  0.3576051E+02  0.3282371E+02  0.3576051E+02  0.0000000E+00
Ar 2668  0.3282371E+02  0.3576051E+02  0.3576051E+02  0.0000000E+00
Ar 2669  0.3301845E+02  0.3301844E+02  0.3886250E+02  0.0000000E+00
Ar 2670  0.3569720E+02  0.3569720E+02  0.3920262E+02  0.0000000E+00
Ar 2671  0.3642420E+02  0.3310621E+02  0.4155971E+02  0.0000000E+00
Ar 2672  0.3310621E+02  0.3642419E+02  0.4155970E+02  0.0000000E+00
Ar 2673  0.3333045E+02  0.3333045E+02  0.4414245E+02  0.0000000E+00
Ar 2674  0.3594570E+02  0.3594570E+02  0.4412957E+02  0.0000000E+00
Ar 2675  0.3602078E+02  0.3330859E+02  0.4691287E+02  0.0000000E+00
Ar 2676  0.3330859E+02  0.3602077E+02  0.4691287E+02  0.0000000E+00
Ar 2677  0.3313555E+02  0.3313555E+02  0.5003975E+02  0.0000000E+00
Ar 2678  0.3595108E+02  0.3595108E+02  0.4988899E+02  0.0000000E+00
Ar 2679  0.3614915E+02  0.3339562E+02  0.5252084E+02  0.0000000E+00
Ar 2680  0.3339561E+02  0.3614915E+02  0.5252084E+02  0.0000000E+00
Ar 2681  0.3343042E+02  0.3877769E+02  0.5520570E+02  0.0000000E+00
Ar 2682  0.3616412E+02  0.4161162E+02  0.5510896E+02  0.0000000E+00
Ar 2683  0.3612460E+02  0.3890426E+02  0.2958999E+01  0.0000000E+00
Ar 2684  0.3331997E+02  0.4131098E+02  0.2847795E+01  0.0000000E+00
Ar 2685  0.3318204E+02  0.3841080E+02  0.5689280E+01  0.0000000E+00
Ar 2686  0.3595188E+02  0.4142807E+02  0.5801028E+01  0.0000000E+00
Ar 2687  0.3608252E+02  0.3891750E+02  0.8601275E+01  0.0000000E+00
Ar 2688  0.3322618E+02  0.4129503E+02  0.8396011E+01  0.0000000E+00
Ar 2689  0.3315374E+02  0.3883152E+02  0.1094565E+02  0.0000000E+00
Ar 2690  0.3593966E+02  0.4151651E+02  0.1102772E+02  0.0000000E+00
Ar 2691  0.3602202E+02  0.3877639E+02  0.1398289E+02  0.0000000E+00
Ar 2692  0.3312076E+02  0.4143724E+02  0.1382331E+02  0.0000000E+00
Ar 2693  0.3312789E+02  0.3879618E+02  0.1658137E+02  0.0000000E+00
Ar 2694  0.3590486E+02  0.4147759E+02  0.1666971E+02  0.0000000E+00
Ar 2695  0.3582003E+02  0.3850763E+02  0.1933908E+02  0.0000000E+00
Ar 2696  0.3309317E+02  0.4131508E+02  0.1932075E+02  0.0000000E+00
Ar 2697  0.3306264E+02  0.3873032E+02  0.2195004E+02  0.0000000E+00
Ar 2698  0.3601863E+02  0.4136952E+02  0.2219359E+02  0.0000000E+00
Ar 2699  0.3581978E+02  0.3891189E+02  0.2485998E+02  0.0000000E+00
Ar 2700  0.3305651E+02  0.4157341E+02  0.2476265E+02  0.0000000E+00
Ar 2701  0.3344775E+02  0.3862699E+02  0.2768725E+02  0.0000000E+00
Ar 2702  0.3615652E+02  0.4195000E+02  0.2746092E+02  0.0000000E+00
Ar 2703  0.3603938E+02  0.3876517E+02  0.3037505E+02  0.0000000E+00
Ar 2704  0.3313896E+02  0.4163161E+02  0.3039025E+02  0.0000000E+00
Ar 2705  0.3301845E+02  0.3886250E+02  0.3301844E+02  0.0000000E+00
Ar 2706  0.3642420E+02  0.4155971E+02  0.3310621E+02  0.0000000E+00
Ar 2707  0.3569720E+02  0.3920262E+02  0.3569720E+02  0.0000000E+00
Ar 2708  0.3310621E+02  0.4155971E+02  0.3642419E+02  0.0000000E+00
Ar 2709  0.3326708E+02  0.3854334E+02  0.3854334E+02  0.0000000E+00
Ar 2710  0.3601375E+02  0.4168365E+02  0.3887528E+02  0.0000000E+00
Ar 2711  0.3601375E+02  0.3887529E+02  0.4168365E+02  0.0000000E+00
Ar 2712  0.3294215E+02  0.4115128E+02  0.4115127E+02  0.0000000E+00
Ar 2713  0.3331101E+02  0.3862528E+02  0.4434510E+02  0.0000000E+00
Ar 2714  0.3623806E+02  0.4169190E+02  0.4435469E+02  0.0000000E+00
Ar 2715  0.3615236E+02  0.3890824E+02  0.4700234E+02  0.0000000E+00
Ar 2716  0.3324480E+02  0.4126649E+02  0.4711378E+02  0.0000000E+00
Ar 2717  0.3366584E+02  0.3876627E+02  0.4973952E+02  0.0000000E+00
Ar 2718  0.3619761E+02  0.4138139E+02  0.4997895E+02  0.0000000E+00
Ar 2719  0.3612863E+02  0.3885180E+02  0.5251384E+02  0.0000000E+00
Ar 2720  0.3357251E+02  0.4147442E+02  0.5251829E+02  0.0000000E+00
Ar 2721  0.3372028E+02  0.4434303E+02  0.4650859E+00  0.0000000E+00
Ar 2722  0.3603273E+02  0.4667293E+02  0.3935271E+00  0.0000000E+00
Ar 2723  0.3619777E+02  0.4375676E+02  0.3327841E+01  0.0000000E+00
Ar 2724  0.3360204E+02  0.4671101E+02  0.3077093E+01  0.0000000E+00
Ar 2725  0.3321818E+02  0.4403853E+02  0.5798107E+01  0.0000000E+00
Ar 2726  0.3618691E+02  0.4678851E+02  0.5644757E+01  0.0000000E+00
Ar 2727  0.3591606E+02  0.4417379E+02  0.8344411E+01  0.0000000E+00
Ar 2728  0.3302282E+02  0.4677770E+02  0.8247849E+01  0.0000000E+00
Ar 2729  0.3325145E+02  0.4429157E+02  0.1119424E+02  0.0000000E+00
Ar 2730  0.3579439E+02  0.4716736E+02  0.1110108E+02  0.0000000E+00
Ar 2731  0.3579239E+02  0.4430627E+02  0.1414272E+02  0.0000000E+00
Ar 2732  0.3326598E+02  0.4723626E+02  0.1401224E+02  0.0000000E+00
Ar 2733  0.3319302E+02  0.4434655E+02  0.1672794E+02  0.0000000E+00
Ar 2734  0.3623100E+02  0.4723491E+02  0.1676322E+02  0.0000000E+00
Ar 2735  0.3576374E+02  0.4421745E+02  0.1937968E+02  0.0000000E+00
Ar 2736  0.3300248E+02  0.4691538E+02  0.1960992E+02  0.0000000E+00
Ar 2737  0.3334147E+02  0.4421746E+02  0.2224126E+02  0.0000000E+00
Ar 2738  0.3587081E+02  0.4710192E+02  0.2195582E+02  0.0000000E+00
Ar 2739  0.3599473E+02  0.4433048E+02  0.2495032E+02  0.0000000E+00
Ar 2740  0.3303689E+02  0.4725671E+02  0.2461633E+02  0.0000000E+00
Ar 2741  0.3327352E+02  0.4441223E+02  0.2740001E+02  0.0000000E+00
Ar 2742  0.3580005E+02  0.4741420E+02  0.2774691E+02  0.0000000E+00
Ar 2743  0.3603291E+02  0.4456451E+02  0.3052283E+02  0.0000000E+00
Ar 2744  0.3340147E+02  0.4714564E+02  0.3051796E+02  0.0000000E+00
Ar 2745  0.3333045E+02  0.4414245E+02  0.3333045E+02  0.0000000E+00
Ar 2746  0.3602077E+02  0.4691288E+02  0.3330858E+02  0.0000000E+00
Ar 2747  0.3594570E+02  0.4412958E+02  0.3594570E+02  0.0000000E+00
Ar 2748  0.3330858E+02  0.4691288E+02  0.3602077E+02  0.0000000E+00
Ar 2749  0.3331100E+02  0.4434511E+02  0.3862528E+02  0.0000000E+00
Ar 2750  0.3615236E+02  0.4700234E+02  0.3890824E+02  0.0000000E+00
Ar 2751  0.3623807E+02  0.4435470E+02  0.4169190E+02  0.0000000E+00
Ar 2752  0.3324480E+02  0.4711378E+02  0.4126649E+02  0.0000000E+00
Ar 2753  0.3337063E+02  0.4453613E+02  0.4453612E+02  0.0000000E+00
Ar 2754  0.3620047E+02  0.4735859E+02  0.4429648E+02  0.0000000E+00
Ar 2755  0.3620047E+02  0.4429647E+02  0.4735860E+02  0.0000000E+00
Ar 2756  0.3363725E+02  0.4703543E+02  0.4703543E+02  0.0000000E+00
Ar 2757  0.3351326E+02  0.4391242E+02  0.4970650E+02  0.0000000E+00
Ar 2758  0.3638456E+02  0.4714446E+02  0.4963104E+02  0.0000000E+00
Ar 2759  0.3630100E+02  0.4430810E+02  0.5243635E+02  0.0000000E+00
Ar 2760  0.3327972E+02  0.4644452E+02  0.5231346E+02  0.0000000E+00
Ar 2761  0.3368755E+02  0.4968383E+02  0.5515216E+02  0.0000000E+00
Ar 2762  0.3669322E+02  0.5230449E+02  0.2963097E+00  0.0000000E+00
Ar 2763  0.3603535E+02  0.4975123E+02  0.2997957E+01  0.0000000E+00
Ar 2764  0.3340107E+02  0.5228384E+02  0.2553459E+01  0.0000000E+00
Ar 2765  0.3346090E+02  0.4948525E+02  0.5680084E+01  0.0000000E+00
Ar 2766  0.3611841E+02  0.5246428E+02  0.5318680E+01  0.0000000E+00
Ar 2767  0.3588698E+02  0.4962281E+02  0.8309253E+01  0.0000000E+00
Ar 2768  0.3339758E+02  0.5247723E+02  0.8137697E+01  0.0000000E+00
Ar 2769  0.3325928E+02  0.4978625E+02  0.1093457E+02  0.0000000E+00
Ar 2770  0.3582216E+02  0.5255980E+02  0.1107605E+02  0.0000000E+00
Ar 2771  0.3605301E+02  0.4995759E+02  0.1382686E+02  0.0000000E+00
Ar 2772  0.3309898E+02  0.5217004E+02  0.1349438E+02  0.0000000E+00
Ar 2773  0.3319492E+02  0.4984355E+02  0.1688282E+02  0.0000000E+00
Ar 2774  0.3580180E+02  0.5267468E+02  0.1686452E+02  0.0000000E+00
Ar 2775  0.3583235E+02  0.4993870E+02  0.1965869E+02  0.0000000E+00
Ar 2776  0.3338921E+02  0.5246269E+02  0.1951863E+02  0.0000000E+00
Ar 2777  0.3348774E+02  0.5024672E+02  0.2240038E+02  0.0000000E+00
Ar 2778  0.3637237E+02  0.5263741E+02  0.2220903E+02  0.0000000E+00
Ar 2779  0.3600802E+02  0.4949456E+02  0.2494309E+02  0.0000000E+00
Ar 2780  0.3365944E+02  0.5253777E+02  0.2514607E+02  0.0000000E+00
Ar 2781  0.3319806E+02  0.4990811E+02  0.2787992E+02  0.0000000E+00
Ar 2782  0.3616103E+02  0.5263549E+02  0.2803426E+02  0.0000000E+00
Ar 2783  0.3599670E+02  0.4969733E+02  0.3062257E+02  0.0000000E+00
Ar 2784  0.3335672E+02  0.5247939E+02  0.3074560E+02  0.0000000E+00
Ar 2785  0.3313555E+02  0.5003976E+02  0.3313555E+02  0.0000000E+00
Ar 2786  0.3614915E+02  0.5252084E+02  0.3339562E+02  0.0000000E+00
Ar 2787  0.3595108E+02  0.4988900E+02  0.3595109E+02  0.0000000E+00
Ar 2788  0.3339561E+02  0.5252084E+02  0.3614915E+02  0.0000000E+00
Ar 2789  0.3366584E+02  0.4973952E+02  0.3876626E+02  0.0000000E+00
Ar 2790  0.3612863E+02  0.5251384E+02  0.3885180E+02  0.0000000E+00
Ar 2791  0.3619761E+02  0.4997894E+02  0.4138138E+02  0.0000000E+00
Ar 2792  0.3357251E+02  0.5251829E+02  0.4147442E+02  0.0000000E+00
Ar 2793  0.3351327E+02  0.4970650E+02  0.4391242E+02  0.0000000E+00
Ar 2794  0.3630101E+02  0.5243635E+02  0.4430810E+02  0.0000000E+00
Ar 2795  0.3638456E+02  0.4963104E+02  0.4714445E+02  0.0000000E+00
Ar 2796  0.3327972E+02  0.5231345E+02  0.4644451E+02  0.0000000E+00
Ar 2797  0.3352218E+02  0.4969021E+02  0.4969021E+02  0.0000000E+00
Ar 2798  0.3614843E+02  0.5243925E+02  0.4900442E+02  0.0000000E+00
Ar 2799  0.3614843E+02  0.4900442E+02  0.5243926E+02  0.0000000E+00
Ar 2800  0.3445755E+02  0.5222633E+02  0.5222635E+02  0.0000000E+00
Ar 2801  0.3916754E+02  0.5481195E+02  0.5481195E+02  0.0000000E+00
Ar 2802  0.4171228E+02  0.2836500E+01  0.2812701E+00  0.0000000E+00
Ar 2803  0.4171229E+02  0.2812714E+00  0.2836506E+01  0.0000000E+00
Ar 2804  0.3862968E+02  0.2925346E+01  0.2925340E+01  0.0000000E+00
Ar 2805  0.3901063E+02  0.1732861E+00  0.5619921E+01  0.0000000E+00
Ar 2806  0.4145186E+02  0.3044228E+01  0.5536484E+01  0.0000000E+00
Ar 2807  0.4186981E+02  0.5504163E+02  0.8796511E+01  0.0000000E+00
Ar 2808  0.3882171E+02  0.2907469E+01  0.8248924E+01  0.0000000E+00
Ar 2809  0.3876760E+02  0.5514722E+02  0.1128941E+02  0.0000000E+00
Ar 2810  0.4179221E+02  0.2854557E+01  0.1114743E+02  0.0000000E+00
Ar 2811  0.4121556E+02  0.5513558E+02  0.1388542E+02  0.0000000E+00
Ar 2812  0.3886249E+02  0.2966073E+01  0.1369386E+02  0.0000000E+00
Ar 2813  0.3842457E+02  0.1846877E+00  0.1650148E+02  0.0000000E+00
Ar 2814  0.4128258E+02  0.3077566E+01  0.1667685E+02  0.0000000E+00
Ar 2815  0.4144568E+02  0.4881551E+00  0.1920788E+02  0.0000000E+00
Ar 2816  0.3878050E+02  0.3133894E+01  0.1955890E+02  0.0000000E+00
Ar 2817  0.3880746E+02  0.4971993E+00  0.2189739E+02  0.0000000E+00
Ar 2818  0.4166434E+02  0.3144073E+01  0.2204556E+02  0.0000000E+00
Ar 2819  0.4153855E+02  0.5518559E+02  0.2485066E+02  0.0000000E+00
Ar 2820  0.3887212E+02  0.2953161E+01  0.2480984E+02  0.0000000E+00
Ar 2821  0.3891866E+02  0.5492311E+02  0.2772374E+02  0.0000000E+00
Ar 2822  0.4125989E+02  0.2814880E+01  0.2804482E+02  0.0000000E+00
Ar 2823  0.4161580E+02  0.5501911E+02  0.3023783E+02  0.0000000E+00
Ar 2824  0.3862055E+02  0.2564118E+01  0.3057399E+02  0.0000000E+00
Ar 2825  0.3877770E+02  0.5520570E+02  0.3343043E+02  0.0000000E+00
Ar 2826  0.4131098E+02  0.2847787E+01  0.3331998E+02  0.0000000E+00
Ar 2827  0.4161161E+02  0.5510896E+02  0.3616412E+02  0.0000000E+00
Ar 2828  0.3890426E+02  0.2959004E+01  0.3612460E+02  0.0000000E+00
Ar 2829  0.3876782E+02  0.5252537E+00  0.3876782E+02  0.0000000E+00
Ar 2830  0.4183584E+02  0.3015553E+01  0.3910227E+02  0.0000000E+00
Ar 2831  0.4143232E+02  0.3969013E+00  0.4143232E+02  0.0000000E+00
Ar 2832  0.3910226E+02  0.3015565E+01  0.4183584E+02  0.0000000E+00
Ar 2833  0.3883542E+02  0.5497684E+02  0.4423096E+02  0.0000000E+00
Ar 2834  0.4163171E+02  0.2878342E+01  0.4427137E+02  0.0000000E+00
Ar 2835  0.4168473E+02  0.3107687E+00  0.4684483E+02  0.0000000E+00
Ar 2836  0.3886573E+02  0.2967114E+01  0.4681308E+02  0.0000000E+00
Ar 2837  0.3882441E+02  0.3890832E+00  0.4939357E+02  0.0000000E+00
Ar 2838  0.4139088E+02  0.3161906E+01  0.4975700E+02  0.0000000E+00
Ar 2839  0.4103897E+02  0.5526564E+02  0.5185038E+02  0.0000000E+00
Ar 2840  0.3913023E+02  0.3280512E+01  0.5243541E+02  0.0000000E+00
Ar 2841  0.3901062E+02  0.5619919E+01  0.1732832E+00  0.0000000E+00
Ar 2842  0.4186981E+02  0.8796517E+01  0.5504164E+02  0.0000000E+00
Ar 2843  0.4145186E+02  0.5536480E+01  0.3044226E+01  0.0000000E+00
Ar 2844  0.3882171E+02  0.8248919E+01  0.2907465E+01  0.0000000E+00
Ar 2845  0.3879858E+02  0.5564624E+01  0.5564621E+01  0.0000000E+00
Ar 2846  0.4151927E+02  0.8166322E+01  0.5524486E+01  0.0000000E+00
Ar 2847  0.4151927E+02  0.5524485E+01  0.8166325E+01  0.0000000E+00
Ar 2848  0.3896132E+02  0.8203329E+01  0.8203334E+01  0.0000000E+00
Ar 2849  0.3857130E+02  0.5614419E+01  0.1098308E+02  0.0000000E+00
Ar 2850  0.4143309E+02  0.8343153E+01  0.1098266E+02  0.0000000E+00
Ar 2851  0.4132407E+02  0.5854064E+01  0.1373774E+02  0.0000000E+00
Ar 2852  0.3832205E+02  0.8308874E+01  0.1353041E+02  0.0000000E+00
Ar 2853  0.3867731E+02  0.5738240E+01  0.1650307E+02  0.0000000E+00
Ar 2854  0.4141686E+02  0.8235534E+01  0.1668450E+02  0.0000000E+00
Ar 2855  0.4166076E+02  0.5631751E+01  0.1930263E+02  0.0000000E+00
Ar 2856  0.3880365E+02  0.8364097E+01  0.1963284E+02  0.0000000E+00
Ar 2857  0.3873446E+02  0.5762367E+01  0.2215270E+02  0.0000000E+00
Ar 2858  0.4155903E+02  0.8422877E+01  0.2217496E+02  0.0000000E+00
Ar 2859  0.4155781E+02  0.5830924E+01  0.2478675E+02  0.0000000E+00
Ar 2860  0.3867129E+02  0.8471696E+01  0.2470860E+02  0.0000000E+00
Ar 2861  0.3864721E+02  0.5670481E+01  0.2751037E+02  0.0000000E+00
Ar 2862  0.4121083E+02  0.8425420E+01  0.2761880E+02  0.0000000E+00
Ar 2863  0.4108941E+02  0.5644223E+01  0.3075442E+02  0.0000000E+00
Ar 2864  0.3879356E+02  0.8576339E+01  0.3033842E+02  0.0000000E+00
Ar 2865  0.3841080E+02  0.5689286E+01  0.3318204E+02  0.0000000E+00
Ar 2866  0.4129503E+02  0.8396026E+01  0.3322617E+02  0.0000000E+00
Ar 2867  0.4142808E+02  0.5801024E+01  0.3595188E+02  0.0000000E+00
Ar 2868  0.3891750E+02  0.8601276E+01  0.3608252E+02  0.0000000E+00
Ar 2869  0.3915426E+02  0.5417132E+01  0.3915426E+02  0.0000000E+00
Ar 2870  0.4182330E+02  0.8251197E+01  0.3866046E+02  0.0000000E+00
Ar 2871  0.4188195E+02  0.5601718E+01  0.4188194E+02  0.0000000E+00
Ar 2872  0.3866047E+02  0.8251197E+01  0.4182330E+02  0.0000000E+00
Ar 2873  0.3884479E+02  0.5891198E+01  0.4444665E+02  0.0000000E+00
Ar 2874  0.4156140E+02  0.8531609E+01  0.4414160E+02  0.0000000E+00
Ar 2875  0.4167705E+02  0.5588988E+01  0.4701714E+02  0.0000000E+00
Ar 2876  0.3888809E+02  0.8145935E+01  0.4737044E+02  0.0000000E+00
Ar 2877  0.3880720E+02  0.5387193E+01  0.4970450E+02  0.0000000E+00
Ar 2878  0.4163572E+02  0.8698315E+01  0.4959780E+02  0.0000000E+00
Ar 2879  0.4160180E+02  0.6043050E+01  0.5226828E+02  0.0000000E+00
Ar 2880  0.3885729E+02  0.8508602E+01  0.5229390E+02  0.0000000E+00
Ar 2881  0.3876760E+02  0.1128941E+02  0.5514721E+02  0.0000000E+00
Ar 2882  0.4121556E+02  0.1388542E+02  0.5513558E+02  0.0000000E+00
Ar 2883  0.4179221E+02  0.1114742E+02  0.2854563E+01  0.0000000E+00
Ar 2884  0.3886249E+02  0.1369385E+02  0.2966074E+01  0.0000000E+00
Ar 2885  0.3857130E+02  0.1098308E+02  0.5614419E+01  0.0000000E+00
Ar 2886  0.4132407E+02  0.1373774E+02  0.5854061E+01  0.0000000E+00
Ar 2887  0.4143309E+02  0.1098267E+02  0.8343152E+01  0.0000000E+00
Ar 2888  0.3832205E+02  0.1353041E+02  0.8308870E+01  0.0000000E+00
Ar 2889  0.3859127E+02  0.1083863E+02  0.1083863E+02  0.0000000E+00
Ar 2890  0.4166084E+02  0.1388720E+02  0.1117730E+02  0.0000000E+00
Ar 2891  0.4166084E+02  0.1117730E+02  0.1388720E+02  0.0000000E+00
Ar 2892  0.3878478E+02  0.1372002E+02  0.1372002E+02  0.0000000E+00
Ar 2893  0.3854414E+02  0.1081395E+02  0.1655248E+02  0.0000000E+00
Ar 2894  0.4155690E+02  0.1383867E+02  0.1652095E+02  0.0000000E+00
Ar 2895  0.4153671E+02  0.1127029E+02  0.1916168E+02  0.0000000E+00
Ar 2896  0.3865495E+02  0.1370533E+02  0.1909858E+02  0.0000000E+00
Ar 2897  0.3879362E+02  0.1120929E+02  0.2177745E+02  0.0000000E+00
Ar 2898  0.4124339E+02  0.1389092E+02  0.2209049E+02  0.0000000E+00
Ar 2899  0.4168553E+02  0.1117450E+02  0.2478477E+02  0.0000000E+00
Ar 2900  0.3853194E+02  0.1411935E+02  0.2482939E+02  0.0000000E+00
Ar 2901  0.3863347E+02  0.1123055E+02  0.2767063E+02  0.0000000E+00
Ar 2902  0.4149931E+02  0.1390105E+02  0.2790705E+02  0.0000000E+00
Ar 2903  0.4161896E+02  0.1101545E+02  0.3064794E+02  0.0000000E+00
Ar 2904  0.3849329E+02  0.1390898E+02  0.3012642E+02  0.0000000E+00
Ar 2905  0.3883153E+02  0.1094565E+02  0.3315374E+02  0.0000000E+00
Ar 2906  0.4143724E+02  0.1382331E+02  0.3312076E+02  0.0000000E+00
Ar 2907  0.4151650E+02  0.1102772E+02  0.3593965E+02  0.0000000E+00
Ar 2908  0.3877638E+02  0.1398288E+02  0.3602203E+02  0.0000000E+00
Ar 2909  0.3867807E+02  0.1140554E+02  0.3867808E+02  0.0000000E+00
Ar 2910  0.4143591E+02  0.1374328E+02  0.3843414E+02  0.0000000E+00
Ar 2911  0.4132497E+02  0.1112813E+02  0.4132498E+02  0.0000000E+00
Ar 2912  0.3843414E+02  0.1374329E+02  0.4143590E+02  0.0000000E+00
Ar 2913  0.3872429E+02  0.1129483E+02  0.4441780E+02  0.0000000E+00
Ar 2914  0.4108432E+02  0.1385154E+02  0.4431900E+02  0.0000000E+00
Ar 2915  0.4136455E+02  0.1120917E+02  0.4713284E+02  0.0000000E+00
Ar 2916  0.3860371E+02  0.1385617E+02  0.4714628E+02  0.0000000E+00
Ar 2917  0.3856125E+02  0.1104366E+02  0.4963493E+02  0.0000000E+00
Ar 2918  0.4120200E+02  0.1385169E+02  0.4967012E+02  0.0000000E+00
Ar 2919  0.4142739E+02  0.1125577E+02  0.5243505E+02  0.0000000E+00
Ar 2920  0.3844339E+02  0.1379735E+02  0.5254574E+02  0.0000000E+00
Ar 2921  0.3842458E+02  0.1650147E+02  0.1846898E+00  0.0000000E+00
Ar 2922  0.4144568E+02  0.1920789E+02  0.4881561E+00  0.0000000E+00
Ar 2923  0.4128258E+02  0.1667685E+02  0.3077562E+01  0.0000000E+00
Ar 2924  0.3878050E+02  0.1955891E+02  0.3133893E+01  0.0000000E+00
Ar 2925  0.3867731E+02  0.1650308E+02  0.5738237E+01  0.0000000E+00
Ar 2926  0.4166076E+02  0.1930263E+02  0.5631749E+01  0.0000000E+00
Ar 2927  0.4141686E+02  0.1668450E+02  0.8235526E+01  0.0000000E+00
Ar 2928  0.3880365E+02  0.1963284E+02  0.8364096E+01  0.0000000E+00
Ar 2929  0.3854414E+02  0.1655248E+02  0.1081394E+02  0.0000000E+00
Ar 2930  0.4153671E+02  0.1916168E+02  0.1127029E+02  0.0000000E+00
Ar 2931  0.4155689E+02  0.1652095E+02  0.1383867E+02  0.0000000E+00
Ar 2932  0.3865494E+02  0.1909858E+02  0.1370533E+02  0.0000000E+00
Ar 2933  0.3846974E+02  0.1655130E+02  0.1655130E+02  0.0000000E+00
Ar 2934  0.4147629E+02  0.1960783E+02  0.1664035E+02  0.0000000E+00
Ar 2935  0.4147629E+02  0.1664034E+02  0.1960783E+02  0.0000000E+00
Ar 2936  0.3862096E+02  0.1930224E+02  0.1930224E+02  0.0000000E+00
Ar 2937  0.3868562E+02  0.1656605E+02  0.2193506E+02  0.0000000E+00
Ar 2938  0.4150959E+02  0.1930640E+02  0.2179086E+02  0.0000000E+00
Ar 2939  0.4143397E+02  0.1664617E+02  0.2437747E+02  0.0000000E+00
Ar 2940  0.3881362E+02  0.1917758E+02  0.2490120E+02  0.0000000E+00
Ar 2941  0.3889821E+02  0.1664028E+02  0.2762530E+02  0.0000000E+00
Ar 2942  0.4186009E+02  0.1927913E+02  0.2725444E+02  0.0000000E+00
Ar 2943  0.4189508E+02  0.1649359E+02  0.3053482E+02  0.0000000E+00
Ar 2944  0.3871014E+02  0.1928506E+02  0.3044069E+02  0.0000000E+00
Ar 2945  0.3879619E+02  0.1658136E+02  0.3312790E+02  0.0000000E+00
Ar 2946  0.4131508E+02  0.1932075E+02  0.3309317E+02  0.0000000E+00
Ar 2947  0.4147759E+02  0.1666970E+02  0.3590485E+02  0.0000000E+00
Ar 2948  0.3850763E+02  0.1933909E+02  0.3582002E+02  0.0000000E+00
Ar 2949  0.3879824E+02  0.1677938E+02  0.3879824E+02  0.0000000E+00
Ar 2950  0.4118775E+02  0.1939292E+02  0.3849567E+02  0.0000000E+00
Ar 2951  0.4140227E+02  0.1624688E+02  0.4140227E+02  0.0000000E+00
Ar 2952  0.3849568E+02  0.1939293E+02  0.4118774E+02  0.0000000E+00
Ar 2953  0.3844634E+02  0.1672124E+02  0.4408216E+02  0.0000000E+00
Ar 2954  0.4147661E+02  0.1947956E+02  0.4413867E+02  0.0000000E+00
Ar 2955  0.4117817E+02  0.1655063E+02  0.4665864E+02  0.0000000E+00
Ar 2956  0.3891862E+02  0.1949812E+02  0.4709986E+02  0.0000000E+00
Ar 2957  0.3854851E+02  0.1673844E+02  0.4998923E+02  0.0000000E+00
Ar 2958  0.4175115E+02  0.1967600E+02  0.4946302E+02  0.0000000E+00
Ar 2959  0.4125975E+02  0.1651258E+02  0.5226243E+02  0.0000000E+00
Ar 2960  0.3886239E+02  0.1948898E+02  0.5243571E+02  0.0000000E+00
Ar 2961  0.3880745E+02  0.2189740E+02  0.4971990E+00  0.0000000E+00
Ar 2962  0.4153855E+02  0.2485065E+02  0.5518559E+02  0.0000000E+00
Ar 2963  0.4166434E+02  0.2204556E+02  0.3144070E+01  0.0000000E+00
Ar 2964  0.3887212E+02  0.2480984E+02  0.2953161E+01  0.0000000E+00
Ar 2965  0.3873446E+02  0.2215271E+02  0.5762369E+01  0.0000000E+00
Ar 2966  0.4155780E+02  0.2478675E+02  0.5830921E+01  0.0000000E+00
Ar 2967  0.4155903E+02  0.2217496E+02  0.8422872E+01  0.0000000E+00
Ar 2968  0.3867129E+02  0.2470860E+02  0.8471701E+01  0.0000000E+00
Ar 2969  0.3879363E+02  0.2177744E+02  0.1120929E+02  0.0000000E+00
Ar 2970  0.4168553E+02  0.2478477E+02  0.1117450E+02  0.0000000E+00
Ar 2971  0.4124340E+02  0.2209049E+02  0.1389092E+02  0.0000000E+00
Ar 2972  0.3853194E+02  0.2482939E+02  0.1411935E+02  0.0000000E+00
Ar 2973  0.3868563E+02  0.2193505E+02  0.1656605E+02  0.0000000E+00
Ar 2974  0.4143397E+02  0.2437747E+02  0.1664617E+02  0.0000000E+00
Ar 2975  0.4150959E+02  0.2179086E+02  0.1930640E+02  0.0000000E+00
Ar 2976  0.3881362E+02  0.2490120E+02  0.1917758E+02  0.0000000E+00
Ar 2977  0.3895442E+02  0.2186367E+02  0.2186367E+02  0.0000000E+00
Ar 2978  0.4150855E+02  0.2473721E+02  0.2190345E+02  0.0000000E+00
Ar 2979  0.4150855E+02  0.2190346E+02  0.2473721E+02  0.0000000E+00
Ar 2980  0.3835340E+02  0.2477355E+02  0.2477355E+02  0.0000000E+00
Ar 2981  0.3851527E+02  0.2208105E+02  0.2752937E+02  0.0000000E+00
Ar 2982  0.4150010E+02  0.2491955E+02  0.2768279E+02  0.0000000E+00
Ar 2983  0.4157534E+02  0.2198918E+02  0.3030033E+02  0.0000000E+00
Ar 2984  0.3868748E+02  0.2465993E+02  0.3040016E+02  0.0000000E+00
Ar 2985  0.3873032E+02  0.2195004E+02  0.3306263E+02  0.0000000E+00
Ar 2986  0.4157341E+02  0.2476263E+02  0.3305652E+02  0.0000000E+00
Ar 2987  0.4136952E+02  0.2219359E+02  0.3601863E+02  0.0000000E+00
Ar 2988  0.3891188E+02  0.2485999E+02  0.3581978E+02  0.0000000E+00
Ar 2989  0.3885136E+02  0.2232844E+02  0.3885135E+02  0.0000000E+00
Ar 2990  0.4172799E+02  0.2483238E+02  0.3877084E+02  0.0000000E+00
Ar 2991  0.4141380E+02  0.2221367E+02  0.4141379E+02  0.0000000E+00
Ar 2992  0.3877084E+02  0.2483238E+02  0.4172799E+02  0.0000000E+00
Ar 2993  0.3865036E+02  0.2205676E+02  0.4445271E+02  0.0000000E+00
Ar 2994  0.4156239E+02  0.2454553E+02  0.4421446E+02  0.0000000E+00
Ar 2995  0.4145975E+02  0.2218344E+02  0.4700443E+02  0.0000000E+00
Ar 2996  0.3901718E+02  0.2484068E+02  0.4688712E+02  0.0000000E+00
Ar 2997  0.3873622E+02  0.2200450E+02  0.4957995E+02  0.0000000E+00
Ar 2998  0.4171680E+02  0.2522730E+02  0.4949119E+02  0.0000000E+00
Ar 2999  0.4156274E+02  0.2223861E+02  0.5222549E+02  0.0000000E+00
Ar 3000  0.3870619E+02  0.2493393E+02  0.5235868E+02  0.0000000E+00
Ar 3001  0.3891865E+02  0.2772374E+02  0.5492311E+02  0.0000000E+00
Ar 3002  0.4161580E+02  0.3023783E+02  0.5501911E+02  0.0000000E+00
Ar 3003  0.4125989E+02  0.2804482E+02  0.2814880E+01  0.0000000E+00
Ar 3004  0.3862054E+02  0.3057399E+02  0.2564117E+01  0.0000000E+00
Ar 3005  0.3864721E+02  0.2751037E+02  0.5670481E+01  0.0000000E+00
Ar 3006  0.4108941E+02  0.3075443E+02  0.5644218E+01  0.0000000E+00
Ar 3007  0.4121083E+02  0.2761880E+02  0.8425420E+01  0.0000000E+00
Ar 3008  0.3879357E+02  0.3033842E+02  0.8576336E+01  0.0000000E+00
Ar 3009  0.3863348E+02  0.2767063E+02  0.1123055E+02  0.0000000E+00
Ar 3010  0.4161896E+02  0.3064794E+02  0.1101544E+02  0.0000000E+00
Ar 3011  0.4149931E+02  0.2790705E+02  0.1390105E+02  0.0000000E+00
Ar 3012  0.3849329E+02  0.3012642E+02  0.1390898E+02  0.0000000E+00
Ar 3013  0.3889821E+02  0.2762530E+02  0.1664027E+02  0.0000000E+00
Ar 3014  0.4189508E+02  0.3053482E+02  0.1649359E+02  0.0000000E+00
Ar 3015  0.4186009E+02  0.2725444E+02  0.1927913E+02  0.0000000E+00
Ar 3016  0.3871014E+02  0.3044069E+02  0.1928506E+02  0.0000000E+00
Ar 3017  0.3851527E+02  0.2752937E+02  0.2208105E+02  0.0000000E+00
Ar 3018  0.4157535E+02  0.3030032E+02  0.2198918E+02  0.0000000E+00
Ar 3019  0.4150010E+02  0.2768279E+02  0.2491954E+02  0.0000000E+00
Ar 3020  0.3868748E+02  0.3040017E+02  0.2465992E+02  0.0000000E+00
Ar 3021  0.3851142E+02  0.2747765E+02  0.2747764E+02  0.0000000E+00
Ar 3022  0.4167764E+02  0.3048940E+02  0.2769243E+02  0.0000000E+00
Ar 3023  0.4167764E+02  0.2769243E+02  0.3048940E+02  0.0000000E+00
Ar 3024  0.3881243E+02  0.3006212E+02  0.3006212E+02  0.0000000E+00
Ar 3025  0.3862699E+02  0.2768725E+02  0.3344774E+02  0.0000000E+00
Ar 3026  0.4163161E+02  0.3039026E+02  0.3313895E+02  0.0000000E+00
Ar 3027  0.4195001E+02  0.2746092E+02  0.3615652E+02  0.0000000E+00
Ar 3028  0.3876517E+02  0.3037506E+02  0.3603937E+02  0.0000000E+00
Ar 3029  0.3884783E+02  0.2732455E+02  0.3884784E+02  0.0000000E+00
Ar 3030  0.4133012E+02  0.3008781E+02  0.3871405E+02  0.0000000E+00
Ar 3031  0.4169409E+02  0.2715323E+02  0.4169409E+02  0.0000000E+00
Ar 3032  0.3871406E+02  0.3008782E+02  0.4133012E+02  0.0000000E+00
Ar 3033  0.3861509E+02  0.2771883E+02  0.4470962E+02  0.0000000E+00
Ar 3034  0.4131560E+02  0.3053068E+02  0.4408236E+02  0.0000000E+00
Ar 3035  0.4166354E+02  0.2768157E+02  0.4704433E+02  0.0000000E+00
Ar 3036  0.3855513E+02  0.3044469E+02  0.4707930E+02  0.0000000E+00
Ar 3037  0.3878158E+02  0.2767881E+02  0.4956700E+02  0.0000000E+00
Ar 3038  0.4138744E+02  0.3033462E+02  0.4996558E+02  0.0000000E+00
Ar 3039  0.4154278E+02  0.2773463E+02  0.5240485E+02  0.0000000E+00
Ar 3040  0.3897248E+02  0.3085023E+02  0.5267942E+02  0.0000000E+00
Ar 3041  0.3877769E+02  0.3343043E+02  0.5520570E+02  0.0000000E+00
Ar 3042  0.4161161E+02  0.3616412E+02  0.5510896E+02  0.0000000E+00
Ar 3043  0.4131098E+02  0.3331998E+02  0.2847787E+01  0.0000000E+00
Ar 3044  0.3890426E+02  0.3612460E+02  0.2959003E+01  0.0000000E+00
Ar 3045  0.3841080E+02  0.3318204E+02  0.5689284E+01  0.0000000E+00
Ar 3046  0.4142808E+02  0.3595189E+02  0.5801019E+01  0.0000000E+00
Ar 3047  0.4129503E+02  0.3322618E+02  0.8396022E+01  0.0000000E+00
Ar 3048  0.3891749E+02  0.3608253E+02  0.8601272E+01  0.0000000E+00
Ar 3049  0.3883153E+02  0.3315374E+02  0.1094565E+02  0.0000000E+00
Ar 3050  0.4151650E+02  0.3593965E+02  0.1102771E+02  0.0000000E+00
Ar 3051  0.4143724E+02  0.3312077E+02  0.1382331E+02  0.0000000E+00
Ar 3052  0.3877638E+02  0.3602202E+02  0.1398287E+02  0.0000000E+00
Ar 3053  0.3879619E+02  0.3312790E+02  0.1658136E+02  0.0000000E+00
Ar 3054  0.4147759E+02  0.3590485E+02  0.1666970E+02  0.0000000E+00
Ar 3055  0.4131508E+02  0.3309317E+02  0.1932074E+02  0.0000000E+00
Ar 3056  0.3850763E+02  0.3582002E+02  0.1933909E+02  0.0000000E+00
Ar 3057  0.3873032E+02  0.3306263E+02  0.2195004E+02  0.0000000E+00
Ar 3058  0.4136951E+02  0.3601862E+02  0.2219359E+02  0.0000000E+00
Ar 3059  0.4157341E+02  0.3305651E+02  0.2476264E+02  0.0000000E+00
Ar 3060  0.3891188E+02  0.3581979E+02  0.2485999E+02  0.0000000E+00
Ar 3061  0.3862699E+02  0.3344774E+02  0.2768725E+02  0.0000000E+00
Ar 3062  0.4195000E+02  0.3615652E+02  0.2746092E+02  0.0000000E+00
Ar 3063  0.4163161E+02  0.3313896E+02  0.3039026E+02  0.0000000E+00
Ar 3064  0.3876517E+02  0.3603938E+02  0.3037505E+02  0.0000000E+00
Ar 3065  0.3886250E+02  0.3301845E+02  0.3301845E+02  0.0000000E+00
Ar 3066  0.4155970E+02  0.3642419E+02  0.3310621E+02  0.0000000E+00
Ar 3067  0.4155970E+02  0.3310621E+02  0.3642419E+02  0.0000000E+00
Ar 3068  0.3920261E+02  0.3569721E+02  0.3569720E+02  0.0000000E+00
Ar 3069  0.3854334E+02  0.3326707E+02  0.3854334E+02  0.0000000E+00
Ar 3070  0.4168365E+02  0.3601375E+02  0.3887527E+02  0.0000000E+00
Ar 3071  0.4115128E+02  0.3294214E+02  0.4115126E+02  0.0000000E+00
Ar 3072  0.3887529E+02  0.3601375E+02  0.4168364E+02  0.0000000E+00
Ar 3073  0.3862529E+02  0.3331101E+02  0.4434511E+02  0.0000000E+00
Ar 3074  0.4169190E+02  0.3623806E+02  0.4435469E+02  0.0000000E+00
Ar 3075  0.4126649E+02  0.3324479E+02  0.4711379E+02  0.0000000E+00
Ar 3076  0.3890824E+02  0.3615237E+02  0.4700236E+02  0.0000000E+00
Ar 3077  0.3876626E+02  0.3366583E+02  0.4973951E+02  0.0000000E+00
Ar 3078  0.4138138E+02  0.3619762E+02  0.4997894E+02  0.0000000E+00
Ar 3079  0.4147442E+02  0.3357250E+02  0.5251829E+02  0.0000000E+00
Ar 3080  0.3885180E+02  0.3612863E+02  0.5251383E+02  0.0000000E+00
Ar 3081  0.3876781E+02  0.3876782E+02  0.5252501E+00  0.0000000E+00
Ar 3082  0.4143232E+02  0.4143232E+02  0.3968968E+00  0.0000000E+00
Ar 3083  0.4183584E+02  0.3910227E+02  0.3015550E+01  0.0000000E+00
Ar 3084  0.3910227E+02  0.4183584E+02  0.3015564E+01  0.0000000E+00
Ar 3085  0.3915426E+02  0.3915426E+02  0.5417130E+01  0.0000000E+00
Ar 3086  0.4188194E+02  0.4188194E+02  0.5601715E+01  0.0000000E+00
Ar 3087  0.4182330E+02  0.3866046E+02  0.8251200E+01  0.0000000E+00
Ar 3088  0.3866047E+02  0.4182329E+02  0.8251201E+01  0.0000000E+00
Ar 3089  0.3867807E+02  0.3867808E+02  0.1140554E+02  0.0000000E+00
Ar 3090  0.4132497E+02  0.4132498E+02  0.1112814E+02  0.0000000E+00
Ar 3091  0.4143590E+02  0.3843414E+02  0.1374328E+02  0.0000000E+00
Ar 3092  0.3843414E+02  0.4143590E+02  0.1374329E+02  0.0000000E+00
Ar 3093  0.3879825E+02  0.3879823E+02  0.1677938E+02  0.0000000E+00
Ar 3094  0.4140227E+02  0.4140227E+02  0.1624687E+02  0.0000000E+00
Ar 3095  0.4118774E+02  0.3849568E+02  0.1939293E+02  0.0000000E+00
Ar 3096  0.3849568E+02  0.4118774E+02  0.1939293E+02  0.0000000E+00
Ar 3097  0.3885135E+02  0.3885134E+02  0.2232844E+02  0.0000000E+00
Ar 3098  0.4141380E+02  0.4141379E+02  0.2221367E+02  0.0000000E+00
Ar 3099  0.4172799E+02  0.3877083E+02  0.2483238E+02  0.0000000E+00
Ar 3100  0.3877084E+02  0.4172799E+02  0.2483238E+02  0.0000000E+00
Ar 3101  0.3884783E+02  0.3884783E+02  0.2732456E+02  0.0000000E+00
Ar 3102  0.4169409E+02  0.4169409E+02  0.2715323E+02  0.0000000E+00
Ar 3103  0.4133013E+02  0.3871406E+02  0.3008781E+02  0.0000000E+00
Ar 3104  0.3871406E+02  0.4133012E+02  0.3008782E+02  0.0000000E+00
Ar 3105  0.3854334E+02  0.3854334E+02  0.3326707E+02  0.0000000E+00
Ar 3106  0.4115127E+02  0.4115127E+02  0.3294213E+02  0.0000000E+00
Ar 3107  0.4168365E+02  0.3887528E+02  0.3601375E+02  0.0000000E+00
Ar 3108  0.3887529E+02  0.4168365E+02  0.3601375E+02  0.0000000E+00
Ar 3109  0.3861814E+02  0.3861813E+02  0.3861812E+02  0.0000000E+00
Ar 3110  0.4170650E+02  0.4170649E+02  0.3873379E+02  0.0000000E+00
Ar 3111  0.4170649E+02  0.3873379E+02  0.4170649E+02  0.0000000E+00
Ar 3112  0.3873379E+02  0.4170649E+02  0.4170649E+02  0.0000000E+00
Ar 3113  0.3903267E+02  0.3903267E+02  0.4463544E+02  0.0000000E+00
Ar 3114  0.4156609E+02  0.4156609E+02  0.4443934E+02  0.0000000E+00
Ar 3115  0.4172760E+02  0.3902491E+02  0.4736921E+02  0.0000000E+00
Ar 3116  0.3902490E+02  0.4172759E+02  0.4736922E+02  0.0000000E+00
Ar 3117  0.3872683E+02  0.3872684E+02  0.4986216E+02  0.0000000E+00
Ar 3118  0.4159439E+02  0.4159440E+02  0.5005944E+02  0.0000000E+00
Ar 3119  0.4148291E+02  0.3897364E+02  0.5257634E+02  0.0000000E+00
Ar 3120  0.3897365E+02  0.4148291E+02  0.5257633E+02  0.0000000E+00
Ar 3121  0.3883543E+02  0.4423096E+02  0.5497684E+02  0.0000000E+00
Ar 3122  0.4168473E+02  0.4684483E+02  0.3107726E+00  0.0000000E+00
Ar 3123  0.4163172E+02  0.4427137E+02  0.2878346E+01  0.0000000E+00
Ar 3124  0.3886572E+02  0.4681307E+02  0.2967117E+01  0.0000000E+00
Ar 3125  0.3884479E+02  0.4444664E+02  0.5891197E+01  0.0000000E+00
Ar 3126  0.4167705E+02  0.4701714E+02  0.5588989E+01  0.0000000E+00
Ar 3127  0.4156140E+02  0.4414159E+02  0.8531608E+01  0.0000000E+00
Ar 3128  0.3888808E+02  0.4737044E+02  0.8145929E+01  0.0000000E+00
Ar 3129  0.3872429E+02  0.4441781E+02  0.1129483E+02  0.0000000E+00
Ar 3130  0.4136455E+02  0.4713284E+02  0.1120918E+02  0.0000000E+00
Ar 3131  0.4108432E+02  0.4431901E+02  0.1385154E+02  0.0000000E+00
Ar 3132  0.3860371E+02  0.4714628E+02  0.1385617E+02  0.0000000E+00
Ar 3133  0.3844634E+02  0.4408216E+02  0.1672125E+02  0.0000000E+00
Ar 3134  0.4117817E+02  0.4665864E+02  0.1655063E+02  0.0000000E+00
Ar 3135  0.4147660E+02  0.4413867E+02  0.1947956E+02  0.0000000E+00
Ar 3136  0.3891862E+02  0.4709986E+02  0.1949812E+02  0.0000000E+00
Ar 3137  0.3865036E+02  0.4445271E+02  0.2205676E+02  0.0000000E+00
Ar 3138  0.4145975E+02  0.4700443E+02  0.2218344E+02  0.0000000E+00
Ar 3139  0.4156239E+02  0.4421446E+02  0.2454553E+02  0.0000000E+00
Ar 3140  0.3901717E+02  0.4688711E+02  0.2484067E+02  0.0000000E+00
Ar 3141  0.3861509E+02  0.4470962E+02  0.2771883E+02  0.0000000E+00
Ar 3142  0.4166354E+02  0.4704433E+02  0.2768157E+02  0.0000000E+00
Ar 3143  0.4131559E+02  0.4408237E+02  0.3053068E+02  0.0000000E+00
Ar 3144  0.3855513E+02  0.4707930E+02  0.3044469E+02  0.0000000E+00
Ar 3145  0.3862528E+02  0.4434512E+02  0.3331100E+02  0.0000000E+00
Ar 3146  0.4126649E+02  0.4711379E+02  0.3324479E+02  0.0000000E+00
Ar 3147  0.4169191E+02  0.4435470E+02  0.3623806E+02  0.0000000E+00
Ar 3148  0.3890824E+02  0.4700235E+02  0.3615236E+02  0.0000000E+00
Ar 3149  0.3903267E+02  0.4463543E+02  0.3903267E+02  0.0000000E+00
Ar 3150  0.4172760E+02  0.4736922E+02  0.3902490E+02  0.0000000E+00
Ar 3151  0.4156609E+02  0.4443934E+02  0.4156609E+02  0.0000000E+00
Ar 3152  0.3902490E+02  0.4736922E+02  0.4172758E+02  0.0000000E+00
Ar 3153  0.3905187E+02  0.4451941E+02  0.4451941E+02  0.0000000E+00
Ar 3154  0.4170473E+02  0.4684729E+02  0.4427226E+02  0.0000000E+00
Ar 3155  0.4170473E+02  0.4427225E+02  0.4684729E+02  0.0000000E+00
Ar 3156  0.3907754E+02  0.4714368E+02  0.4714368E+02  0.0000000E+00
Ar 3157  0.3898138E+02  0.4460558E+02  0.4994358E+02  0.0000000E+00
Ar 3158  0.4174415E+02  0.4698886E+02  0.4999397E+02  0.0000000E+00
Ar 3159  0.4158839E+02  0.4444934E+02  0.5248510E+02  0.0000000E+00
Ar 3160  0.3922306E+02  0.4705687E+02  0.5263741E+02  0.0000000E+00
Ar 3161  0.3882440E+02  0.4939357E+02  0.3890950E+00  0.0000000E+00
Ar 3162  0.4103897E+02  0.5185038E+02  0.5526565E+02  0.0000000E+00
Ar 3163  0.4139088E+02  0.4975700E+02  0.3161906E+01  0.0000000E+00
Ar 3164  0.3913021E+02  0.5243541E+02  0.3280538E+01  0.0000000E+00
Ar 3165  0.3880719E+02  0.4970451E+02  0.5387186E+01  0.0000000E+00
Ar 3166  0.4160180E+02  0.5226829E+02  0.6043046E+01  0.0000000E+00
Ar 3167  0.4163571E+02  0.4959780E+02  0.8698311E+01  0.0000000E+00
Ar 3168  0.3885729E+02  0.5229390E+02  0.8508600E+01  0.0000000E+00
Ar 3169  0.3856125E+02  0.4963493E+02  0.1104366E+02  0.0000000E+00
Ar 3170  0.4142738E+02  0.5243505E+02  0.1125577E+02  0.0000000E+00
Ar 3171  0.4120200E+02  0.4967012E+02  0.1385170E+02  0.0000000E+00
Ar 3172  0.3844338E+02  0.5254574E+02  0.1379734E+02  0.0000000E+00
Ar 3173  0.3854851E+02  0.4998923E+02  0.1673844E+02  0.0000000E+00
Ar 3174  0.4125975E+02  0.5226243E+02  0.1651258E+02  0.0000000E+00
Ar 3175  0.4175115E+02  0.4946303E+02  0.1967600E+02  0.0000000E+00
Ar 3176  0.3886238E+02  0.5243571E+02  0.1948898E+02  0.0000000E+00
Ar 3177  0.3873622E+02  0.4957995E+02  0.2200449E+02  0.0000000E+00
Ar 3178  0.4156274E+02  0.5222549E+02  0.2223860E+02  0.0000000E+00
Ar 3179  0.4171679E+02  0.4949118E+02  0.2522730E+02  0.0000000E+00
Ar 3180  0.3870620E+02  0.5235867E+02  0.2493393E+02  0.0000000E+00
Ar 3181  0.3878159E+02  0.4956699E+02  0.2767880E+02  0.0000000E+00
Ar 3182  0.4154279E+02  0.5240485E+02  0.2773463E+02  0.0000000E+00
Ar 3183  0.4138744E+02  0.4996558E+02  0.3033462E+02  0.0000000E+00
Ar 3184  0.3897248E+02  0.5267942E+02  0.3085023E+02  0.0000000E+00
Ar 3185  0.3876625E+02  0.4973952E+02  0.3366583E+02  0.0000000E+00
Ar 3186  0.4147442E+02  0.5251828E+02  0.3357250E+02  0.0000000E+00
Ar 3187  0.4138138E+02  0.4997894E+02  0.3619762E+02  0.0000000E+00
Ar 3188  0.3885180E+02  0.5251383E+02  0.3612863E+02  0.0000000E+00
Ar 3189  0.3872683E+02  0.4986217E+02  0.3872684E+02  0.0000000E+00
Ar 3190  0.4148291E+02  0.5257634E+02  0.3897364E+02  0.0000000E+00
Ar 3191  0.4159439E+02  0.5005944E+02  0.4159440E+02  0.0000000E+00
Ar 3192  0.3897364E+02  0.5257633E+02  0.4148291E+02  0.0000000E+00
Ar 3193  0.3898139E+02  0.4994358E+02  0.4460557E+02  0.0000000E+00
Ar 3194  0.4158839E+02  0.5248510E+02  0.4444933E+02  0.0000000E+00
Ar 3195  0.4174415E+02  0.4999397E+02  0.4698886E+02  0.0000000E+00
Ar 3196  0.3922306E+02  0.5263741E+02  0.4705687E+02  0.0000000E+00
Ar 3197  0.3897447E+02  0.4992681E+02  0.4992681E+02  0.0000000E+00
Ar 3198  0.4196630E+02  0.5246916E+02  0.4980828E+02  0.0000000E+00
Ar 3199  0.4196629E+02  0.4980829E+02  0.5246916E+02  0.0000000E+00
Ar 3200  0.3898445E+02  0.5242812E+02  0.5242812E+02  0.0000000E+00
Ar 3201  0.4428815E+02  0.5474367E+02  0.5474368E+02  0.0000000E+00
Ar 3202  0.4729181E+02  0.3101900E+01  0.2997089E+00  0.0000000E+00
Ar 3203  0.4729181E+02  0.2997078E+00  0.3101906E+01  0.0000000E+00
Ar 3204  0.4418952E+02  0.3122353E+01  0.3122354E+01  0.0000000E+00
Ar 3205  0.4405282E+02  0.2867143E+00  0.5635456E+01  0.0000000E+00
Ar 3206  0.4696603E+02  0.2854720E+01  0.5532821E+01  0.0000000E+00
Ar 3207  0.4722159E+02  0.5510321E+02  0.8670901E+01  0.0000000E+00
Ar 3208  0.4410556E+02  0.2925409E+01  0.8276146E+01  0.0000000E+00
Ar 3209  0.4429521E+02  0.5511078E+02  0.1147277E+02  0.0000000E+00
Ar 3210  0.4662803E+02  0.2834282E+01  0.1136434E+02  0.0000000E+00
Ar 3211  0.4684189E+02  0.5497277E+02  0.1420922E+02  0.0000000E+00
Ar 3212  0.4417772E+02  0.2669440E+01  0.1448187E+02  0.0000000E+00
Ar 3213  0.4420427E+02  0.5028226E+00  0.1715175E+02  0.0000000E+00
Ar 3214  0.4708805E+02  0.2903277E+01  0.1653248E+02  0.0000000E+00
Ar 3215  0.4702619E+02  0.4031611E+00  0.1962302E+02  0.0000000E+00
Ar 3216  0.4432124E+02  0.3037629E+01  0.1942015E+02  0.0000000E+00
Ar 3217  0.4421388E+02  0.5487844E+02  0.2238744E+02  0.0000000E+00
Ar 3218  0.4683103E+02  0.2807613E+01  0.2229889E+02  0.0000000E+00
Ar 3219  0.4707166E+02  0.5503987E+02  0.2521896E+02  0.0000000E+00
Ar 3220  0.4407935E+02  0.2711822E+01  0.2468726E+02  0.0000000E+00
Ar 3221  0.4431446E+02  0.2764307E+00  0.2783070E+02  0.0000000E+00
Ar 3222  0.4689208E+02  0.3029835E+01  0.2766672E+02  0.0000000E+00
Ar 3223  0.4688002E+02  0.5504613E+02  0.3075093E+02  0.0000000E+00
Ar 3224  0.4434112E+02  0.3114617E+01  0.3051075E+02  0.0000000E+00
Ar 3225  0.4434304E+02  0.4650945E+00  0.3372027E+02  0.0000000E+00
Ar 3226  0.4671102E+02  0.3077086E+01  0.3360205E+02  0.0000000E+00
Ar 3227  0.4667295E+02  0.3935177E+00  0.3603273E+02  0.0000000E+00
Ar 3228  0.4375675E+02  0.3327828E+01  0.3619776E+02  0.0000000E+00
Ar 3229  0.4423095E+02  0.5497683E+02  0.3883542E+02  0.0000000E+00
Ar 3230  0.4681308E+02  0.2967116E+01  0.3886574E+02  0.0000000E+00
Ar 3231  0.4684483E+02  0.3107640E+00  0.4168472E+02  0.0000000E+00
Ar 3232  0.4427136E+02  0.2878344E+01  0.4163172E+02  0.0000000E+00
Ar 3233  0.4399328E+02  0.3160860E+00  0.4399327E+02  0.0000000E+00
Ar 3234  0.4708772E+02  0.2980145E+01  0.4427923E+02  0.0000000E+00
Ar 3235  0.4702218E+02  0.3282617E+00  0.4702219E+02  0.0000000E+00
Ar 3236  0.4427922E+02  0.2980149E+01  0.4708773E+02  0.0000000E+00
Ar 3237  0.4421291E+02  0.4418987E+00  0.4993552E+02  0.0000000E+00
Ar 3238  0.4712286E+02  0.3097690E+01  0.4978895E+02  0.0000000E+00
Ar 3239  0.4691428E+02  0.3455306E+00  0.5218905E+02  0.0000000E+00
Ar 3240  0.4416375E+02  0.3021803E+01  0.5246371E+02  0.0000000E+00
Ar 3241  0.4405282E+02  0.5635452E+01  0.2867095E+00  0.0000000E+00
Ar 3242  0.4722158E+02  0.8670902E+01  0.5510322E+02  0.0000000E+00
Ar 3243  0.4696603E+02  0.5532817E+01  0.2854723E+01  0.0000000E+00
Ar 3244  0.4410556E+02  0.8276146E+01  0.2925410E+01  0.0000000E+00
Ar 3245  0.4426733E+02  0.5695408E+01  0.5695410E+01  0.0000000E+00
Ar 3246  0.4667034E+02  0.8331378E+01  0.5522269E+01  0.0000000E+00
Ar 3247  0.4667034E+02  0.5522266E+01  0.8331383E+01  0.0000000E+00
Ar 3248  0.4391402E+02  0.8275883E+01  0.8275883E+01  0.0000000E+00
Ar 3249  0.4394946E+02  0.5734801E+01  0.1136419E+02  0.0000000E+00
Ar 3250  0.4676819E+02  0.8361069E+01  0.1097469E+02  0.0000000E+00
Ar 3251  0.4686276E+02  0.5637526E+01  0.1376788E+02  0.0000000E+00
Ar 3252  0.4460762E+02  0.8424863E+01  0.1397075E+02  0.0000000E+00
Ar 3253  0.4444370E+02  0.5740444E+01  0.1672462E+02  0.0000000E+00
Ar 3254  0.4692479E+02  0.8418561E+01  0.1661054E+02  0.0000000E+00
Ar 3255  0.4711375E+02  0.5703594E+01  0.1926905E+02  0.0000000E+00
Ar 3256  0.4410564E+02  0.8426108E+01  0.1934235E+02  0.0000000E+00
Ar 3257  0.4438640E+02  0.5695313E+01  0.2226778E+02  0.0000000E+00
Ar 3258  0.4700073E+02  0.8252800E+01  0.2180703E+02  0.0000000E+00
Ar 3259  0.4714132E+02  0.5763290E+01  0.2505067E+02  0.0000000E+00
Ar 3260  0.4430580E+02  0.8546654E+01  0.2484498E+02  0.0000000E+00
Ar 3261  0.4395984E+02  0.5493780E+01  0.2747731E+02  0.0000000E+00
Ar 3262  0.4681422E+02  0.8319184E+01  0.2801287E+02  0.0000000E+00
Ar 3263  0.4705155E+02  0.5814644E+01  0.3052594E+02  0.0000000E+00
Ar 3264  0.4393850E+02  0.8096101E+01  0.3020613E+02  0.0000000E+00
Ar 3265  0.4403852E+02  0.5798107E+01  0.3321819E+02  0.0000000E+00
Ar 3266  0.4677769E+02  0.8247846E+01  0.3302281E+02  0.0000000E+00
Ar 3267  0.4678850E+02  0.5644764E+01  0.3618691E+02  0.0000000E+00
Ar 3268  0.4417379E+02  0.8344425E+01  0.3591607E+02  0.0000000E+00
Ar 3269  0.4444666E+02  0.5891193E+01  0.3884480E+02  0.0000000E+00
Ar 3270  0.4737044E+02  0.8145931E+01  0.3888809E+02  0.0000000E+00
Ar 3271  0.4701714E+02  0.5588991E+01  0.4167707E+02  0.0000000E+00
Ar 3272  0.4414160E+02  0.8531604E+01  0.4156141E+02  0.0000000E+00
Ar 3273  0.4441009E+02  0.5861961E+01  0.4441011E+02  0.0000000E+00
Ar 3274  0.4698618E+02  0.8684690E+01  0.4416088E+02  0.0000000E+00
Ar 3275  0.4724326E+02  0.5709311E+01  0.4724325E+02  0.0000000E+00
Ar 3276  0.4416090E+02  0.8684694E+01  0.4698617E+02  0.0000000E+00
Ar 3277  0.4446171E+02  0.5614632E+01  0.4960975E+02  0.0000000E+00
Ar 3278  0.4691389E+02  0.8792851E+01  0.4991679E+02  0.0000000E+00
Ar 3279  0.4712850E+02  0.5864707E+01  0.5226908E+02  0.0000000E+00
Ar 3280  0.4435906E+02  0.8919975E+01  0.5262129E+02  0.0000000E+00
Ar 3281  0.4429521E+02  0.1147276E+02  0.5511078E+02  0.0000000E+00
Ar 3282  0.4684188E+02  0.1420923E+02  0.5497277E+02  0.0000000E+00
Ar 3283  0.4662804E+02  0.1136433E+02  0.2834285E+01  0.0000000E+00
Ar 3284  0.4417772E+02  0.1448187E+02  0.2669450E+01  0.0000000E+00
Ar 3285  0.4394946E+02  0.1136419E+02  0.5734804E+01  0.0000000E+00
Ar 3286  0.4686276E+02  0.1376788E+02  0.5637524E+01  0.0000000E+00
Ar 3287  0.4676819E+02  0.1097469E+02  0.8361066E+01  0.0000000E+00
Ar 3288  0.4460762E+02  0.1397075E+02  0.8424863E+01  0.0000000E+00
Ar 3289  0.4458446E+02  0.1098169E+02  0.1098168E+02  0.0000000E+00
Ar 3290  0.4710682E+02  0.1386507E+02  0.1102701E+02  0.0000000E+00
Ar 3291  0.4710681E+02  0.1102701E+02  0.1386507E+02  0.0000000E+00
Ar 3292  0.4454254E+02  0.1386706E+02  0.1386705E+02  0.0000000E+00
Ar 3293  0.4431669E+02  0.1148183E+02  0.1656649E+02  0.0000000E+00
Ar 3294  0.4716706E+02  0.1395390E+02  0.1648708E+02  0.0000000E+00
Ar 3295  0.4706499E+02  0.1120243E+02  0.1940530E+02  0.0000000E+00
Ar 3296  0.4415688E+02  0.1410206E+02  0.1938238E+02  0.0000000E+00
Ar 3297  0.4431517E+02  0.1119978E+02  0.2209942E+02  0.0000000E+00
Ar 3298  0.4701780E+02  0.1383565E+02  0.2184334E+02  0.0000000E+00
Ar 3299  0.4709793E+02  0.1109304E+02  0.2508062E+02  0.0000000E+00
Ar 3300  0.4438420E+02  0.1376053E+02  0.2487741E+02  0.0000000E+00
Ar 3301  0.4383582E+02  0.1118148E+02  0.2779439E+02  0.0000000E+00
Ar 3302  0.4697459E+02  0.1374090E+02  0.2778700E+02  0.0000000E+00
Ar 3303  0.4706438E+02  0.1096522E+02  0.3041811E+02  0.0000000E+00
Ar 3304  0.4431589E+02  0.1378456E+02  0.3050763E+02  0.0000000E+00
Ar 3305  0.4429156E+02  0.1119424E+02  0.3325144E+02  0.0000000E+00
Ar 3306  0.4723625E+02  0.1401226E+02  0.3326597E+02  0.0000000E+00
Ar 3307  0.4716735E+02  0.1110109E+02  0.3579439E+02  0.0000000E+00
Ar 3308  0.4430628E+02  0.1414273E+02  0.3579238E+02  0.0000000E+00
Ar 3309  0.4441780E+02  0.1129483E+02  0.3872429E+02  0.0000000E+00
Ar 3310  0.4714624E+02  0.1385616E+02  0.3860365E+02  0.0000000E+00
Ar 3311  0.4713285E+02  0.1120913E+02  0.4136454E+02  0.0000000E+00
Ar 3312  0.4431900E+02  0.1385153E+02  0.4108433E+02  0.0000000E+00
Ar 3313  0.4410168E+02  0.1135964E+02  0.4410168E+02  0.0000000E+00
Ar 3314  0.4691760E+02  0.1395795E+02  0.4424729E+02  0.0000000E+00
Ar 3315  0.4705629E+02  0.1082679E+02  0.4705631E+02  0.0000000E+00
Ar 3316  0.4424730E+02  0.1395795E+02  0.4691762E+02  0.0000000E+00
Ar 3317  0.4404072E+02  0.1126948E+02  0.4956594E+02  0.0000000E+00
Ar 3318  0.4684884E+02  0.1420546E+02  0.4987333E+02  0.0000000E+00
Ar 3319  0.4706215E+02  0.1137769E+02  0.5238804E+02  0.0000000E+00
Ar 3320  0.4391885E+02  0.1366595E+02  0.5240940E+02  0.0000000E+00
Ar 3321  0.4420427E+02  0.1715175E+02  0.5028279E+00  0.0000000E+00
Ar 3322  0.4702618E+02  0.1962302E+02  0.4031720E+00  0.0000000E+00
Ar 3323  0.4708805E+02  0.1653248E+02  0.2903283E+01  0.0000000E+00
Ar 3324  0.4432124E+02  0.1942015E+02  0.3037634E+01  0.0000000E+00
Ar 3325  0.4444370E+02  0.1672462E+02  0.5740449E+01  0.0000000E+00
Ar 3326  0.4711375E+02  0.1926905E+02  0.5703598E+01  0.0000000E+00
Ar 3327  0.4692479E+02  0.1661054E+02  0.8418564E+01  0.0000000E+00
Ar 3328  0.4410564E+02  0.1934235E+02  0.8426108E+01  0.0000000E+00
Ar 3329  0.4431669E+02  0.1656649E+02  0.1148183E+02  0.0000000E+00
Ar 3330  0.4706499E+02  0.1940530E+02  0.1120243E+02  0.0000000E+00
Ar 3331  0.4716707E+02  0.1648708E+02  0.1395390E+02  0.0000000E+00
Ar 3332  0.4415689E+02  0.1938238E+02  0.1410205E+02  0.0000000E+00
Ar 3333  0.4411248E+02  0.1656687E+02  0.1656687E+02  0.0000000E+00
Ar 3334  0.4708657E+02  0.1912599E+02  0.1664865E+02  0.0000000E+00
Ar 3335  0.4708656E+02  0.1664865E+02  0.1912599E+02  0.0000000E+00
Ar 3336  0.4430093E+02  0.1928443E+02  0.1928443E+02  0.0000000E+00
Ar 3337  0.4434945E+02  0.1669935E+02  0.2186697E+02  0.0000000E+00
Ar 3338  0.4715537E+02  0.1938289E+02  0.2195734E+02  0.0000000E+00
Ar 3339  0.4695150E+02  0.1621373E+02  0.2471324E+02  0.0000000E+00
Ar 3340  0.4445841E+02  0.1934137E+02  0.2459290E+02  0.0000000E+00
Ar 3341  0.4431463E+02  0.1628676E+02  0.2763952E+02  0.0000000E+00
Ar 3342  0.4691948E+02  0.1936684E+02  0.2764089E+02  0.0000000E+00
Ar 3343  0.4711293E+02  0.1665328E+02  0.3050388E+02  0.0000000E+00
Ar 3344  0.4440324E+02  0.1938117E+02  0.3035717E+02  0.0000000E+00
Ar 3345  0.4434655E+02  0.1672794E+02  0.3319303E+02  0.0000000E+00
Ar 3346  0.4691539E+02  0.1960993E+02  0.3300248E+02  0.0000000E+00
Ar 3347  0.4723488E+02  0.1676322E+02  0.3623098E+02  0.0000000E+00
Ar 3348  0.4421745E+02  0.1937968E+02  0.3576375E+02  0.0000000E+00
Ar 3349  0.4408215E+02  0.1672124E+02  0.3844633E+02  0.0000000E+00
Ar 3350  0.4709984E+02  0.1949813E+02  0.3891859E+02  0.0000000E+00
Ar 3351  0.4665864E+02  0.1655062E+02  0.4117813E+02  0.0000000E+00
Ar 3352  0.4413869E+02  0.1947955E+02  0.4147659E+02  0.0000000E+00
Ar 3353  0.4405349E+02  0.1641727E+02  0.4405350E+02  0.0000000E+00
Ar 3354  0.4683441E+02  0.1933320E+02  0.4400116E+02  0.0000000E+00
Ar 3355  0.4662960E+02  0.1681247E+02  0.4662960E+02  0.0000000E+00
Ar 3356  0.4400114E+02  0.1933322E+02  0.4683448E+02  0.0000000E+00
Ar 3357  0.4392653E+02  0.1658364E+02  0.4978773E+02  0.0000000E+00
Ar 3358  0.4707402E+02  0.1946152E+02  0.4959915E+02  0.0000000E+00
Ar 3359  0.4624917E+02  0.1669800E+02  0.5260213E+02  0.0000000E+00
Ar 3360  0.4403241E+02  0.1952455E+02  0.5227344E+02  0.0000000E+00
Ar 3361  0.4421391E+02  0.2238744E+02  0.5487842E+02  0.0000000E+00
Ar 3362  0.4707154E+02  0.2521883E+02  0.5503986E+02  0.0000000E+00
Ar 3363  0.4683102E+02  0.2229889E+02  0.2807628E+01  0.0000000E+00
Ar 3364  0.4407935E+02  0.2468726E+02  0.2711821E+01  0.0000000E+00
Ar 3365  0.4438639E+02  0.2226778E+02  0.5695313E+01  0.0000000E+00
Ar 3366  0.4714132E+02  0.2505067E+02  0.5763285E+01  0.0000000E+00
Ar 3367  0.4700073E+02  0.2180703E+02  0.8252799E+01  0.0000000E+00
Ar 3368  0.4430581E+02  0.2484498E+02  0.8546649E+01  0.0000000E+00
Ar 3369  0.4431517E+02  0.2209942E+02  0.1119978E+02  0.0000000E+00
Ar 3370  0.4709793E+02  0.2508063E+02  0.1109304E+02  0.0000000E+00
Ar 3371  0.4701780E+02  0.2184334E+02  0.1383565E+02  0.0000000E+00
Ar 3372  0.4438420E+02  0.2487741E+02  0.1376053E+02  0.0000000E+00
Ar 3373  0.4434945E+02  0.2186697E+02  0.1669934E+02  0.0000000E+00
Ar 3374  0.4695150E+02  0.2471324E+02  0.1621373E+02  0.0000000E+00
Ar 3375  0.4715537E+02  0.2195735E+02  0.1938289E+02  0.0000000E+00
Ar 3376  0.4445841E+02  0.2459290E+02  0.1934138E+02  0.0000000E+00
Ar 3377  0.4449852E+02  0.2204208E+02  0.2204208E+02  0.0000000E+00
Ar 3378  0.4711594E+02  0.2510822E+02  0.2210727E+02  0.0000000E+00
Ar 3379  0.4711594E+02  0.2210727E+02  0.2510822E+02  0.0000000E+00
Ar 3380  0.4407130E+02  0.2487582E+02  0.2487582E+02  0.0000000E+00
Ar 3381  0.4446354E+02  0.2202309E+02  0.2747439E+02  0.0000000E+00
Ar 3382  0.4745282E+02  0.2513979E+02  0.2776073E+02  0.0000000E+00
Ar 3383  0.4702847E+02  0.2225109E+02  0.3032422E+02  0.0000000E+00
Ar 3384  0.4432034E+02  0.2503306E+02  0.3030518E+02  0.0000000E+00
Ar 3385  0.4421746E+02  0.2224125E+02  0.3334147E+02  0.0000000E+00
Ar 3386  0.4725670E+02  0.2461633E+02  0.3303689E+02  0.0000000E+00
Ar 3387  0.4710193E+02  0.2195582E+02  0.3587082E+02  0.0000000E+00
Ar 3388  0.4433048E+02  0.2495032E+02  0.3599473E+02  0.0000000E+00
Ar 3389  0.4445270E+02  0.2205676E+02  0.3865035E+02  0.0000000E+00
Ar 3390  0.4688711E+02  0.2484068E+02  0.3901717E+02  0.0000000E+00
Ar 3391  0.4700438E+02  0.2218347E+02  0.4145973E+02  0.0000000E+00
Ar 3392  0.4421446E+02  0.2454554E+02  0.4156237E+02  0.0000000E+00
Ar 3393  0.4416270E+02  0.2217002E+02  0.4416270E+02  0.0000000E+00
Ar 3394  0.4715204E+02  0.2503833E+02  0.4433777E+02  0.0000000E+00
Ar 3395  0.4695673E+02  0.2252788E+02  0.4695669E+02  0.0000000E+00
Ar 3396  0.4433780E+02  0.2503833E+02  0.4715205E+02  0.0000000E+00
Ar 3397  0.4425661E+02  0.2225425E+02  0.4953322E+02  0.0000000E+00
Ar 3398  0.4729619E+02  0.2502284E+02  0.5007369E+02  0.0000000E+00
Ar 3399  0.4719730E+02  0.2224741E+02  0.5271892E+02  0.0000000E+00
Ar 3400  0.4416832E+02  0.2528176E+02  0.5273432E+02  0.0000000E+00
Ar 3401  0.4431449E+02  0.2783070E+02  0.2764329E+00  0.0000000E+00
Ar 3402  0.4688002E+02  0.3075092E+02  0.5504614E+02  0.0000000E+00
Ar 3403  0.4689206E+02  0.2766670E+02  0.3029843E+01  0.0000000E+00
Ar 3404  0.4434113E+02  0.3051075E+02  0.3114616E+01  0.0000000E+00
Ar 3405  0.4395984E+02  0.2747731E+02  0.5493781E+01  0.0000000E+00
Ar 3406  0.4705153E+02  0.3052594E+02  0.5814668E+01  0.0000000E+00
Ar 3407  0.4681422E+02  0.2801288E+02  0.8319178E+01  0.0000000E+00
Ar 3408  0.4393851E+02  0.3020613E+02  0.8096093E+01  0.0000000E+00
Ar 3409  0.4383583E+02  0.2779439E+02  0.1118148E+02  0.0000000E+00
Ar 3410  0.4706438E+02  0.3041812E+02  0.1096521E+02  0.0000000E+00
Ar 3411  0.4697459E+02  0.2778701E+02  0.1374090E+02  0.0000000E+00
Ar 3412  0.4431589E+02  0.3050763E+02  0.1378456E+02  0.0000000E+00
Ar 3413  0.4431463E+02  0.2763952E+02  0.1628676E+02  0.0000000E+00
Ar 3414  0.4711293E+02  0.3050388E+02  0.1665328E+02  0.0000000E+00
Ar 3415  0.4691948E+02  0.2764088E+02  0.1936684E+02  0.0000000E+00
Ar 3416  0.4440324E+02  0.3035717E+02  0.1938117E+02  0.0000000E+00
Ar 3417  0.4446354E+02  0.2747439E+02  0.2202308E+02  0.0000000E+00
Ar 3418  0.4702848E+02  0.3032422E+02  0.2225109E+02  0.0000000E+00
Ar 3419  0.4745282E+02  0.2776073E+02  0.2513979E+02  0.0000000E+00
Ar 3420  0.4432034E+02  0.3030518E+02  0.2503305E+02  0.0000000E+00
Ar 3421  0.4496493E+02  0.2780233E+02  0.2780232E+02  0.0000000E+00
Ar 3422  0.4709057E+02  0.3059760E+02  0.2783524E+02  0.0000000E+00
Ar 3423  0.4709056E+02  0.2783524E+02  0.3059760E+02  0.0000000E+00
Ar 3424  0.4459704E+02  0.3077018E+02  0.3077018E+02  0.0000000E+00
Ar 3425  0.4441222E+02  0.2740002E+02  0.3327352E+02  0.0000000E+00
Ar 3426  0.4714564E+02  0.3051796E+02  0.3340146E+02  0.0000000E+00
Ar 3427  0.4741420E+02  0.2774691E+02  0.3580005E+02  0.0000000E+00
Ar 3428  0.4456451E+02  0.3052283E+02  0.3603290E+02  0.0000000E+00
Ar 3429  0.4470962E+02  0.2771883E+02  0.3861508E+02  0.0000000E+00
Ar 3430  0.4707930E+02  0.3044469E+02  0.3855513E+02  0.0000000E+00
Ar 3431  0.4704431E+02  0.2768158E+02  0.4166353E+02  0.0000000E+00
Ar 3432  0.4408237E+02  0.3053068E+02  0.4131559E+02  0.0000000E+00
Ar 3433  0.4460415E+02  0.2772786E+02  0.4460417E+02  0.0000000E+00
Ar 3434  0.4727573E+02  0.3073089E+02  0.4401583E+02  0.0000000E+00
Ar 3435  0.4732693E+02  0.2795026E+02  0.4732693E+02  0.0000000E+00
Ar 3436  0.4401584E+02  0.3073090E+02  0.4727574E+02  0.0000000E+00
Ar 3437  0.4428801E+02  0.2784570E+02  0.4967277E+02  0.0000000E+00
Ar 3438  0.4705345E+02  0.3081408E+02  0.4974555E+02  0.0000000E+00
Ar 3439  0.4671957E+02  0.2806029E+02  0.5247970E+02  0.0000000E+00
Ar 3440  0.4411182E+02  0.3062260E+02  0.5253328E+02  0.0000000E+00
Ar 3441  0.4434304E+02  0.3372027E+02  0.4650917E+00  0.0000000E+00
Ar 3442  0.4667295E+02  0.3603273E+02  0.3935234E+00  0.0000000E+00
Ar 3443  0.4671102E+02  0.3360205E+02  0.3077087E+01  0.0000000E+00
Ar 3444  0.4375676E+02  0.3619777E+02  0.3327825E+01  0.0000000E+00
Ar 3445  0.4403852E+02  0.3321819E+02  0.5798108E+01  0.0000000E+00
Ar 3446  0.4678850E+02  0.3618691E+02  0.5644765E+01  0.0000000E+00
Ar 3447  0.4677769E+02  0.3302281E+02  0.8247843E+01  0.0000000E+00
Ar 3448  0.4417378E+02  0.3591607E+02  0.8344422E+01  0.0000000E+00
Ar 3449  0.4429157E+02  0.3325144E+02  0.1119424E+02  0.0000000E+00
Ar 3450  0.4716736E+02  0.3579439E+02  0.1110110E+02  0.0000000E+00
Ar 3451  0.4723625E+02  0.3326597E+02  0.1401226E+02  0.0000000E+00
Ar 3452  0.4430628E+02  0.3579238E+02  0.1414273E+02  0.0000000E+00
Ar 3453  0.4434655E+02  0.3319302E+02  0.1672794E+02  0.0000000E+00
Ar 3454  0.4723491E+02  0.3623101E+02  0.1676322E+02  0.0000000E+00
Ar 3455  0.4691538E+02  0.3300249E+02  0.1960993E+02  0.0000000E+00
Ar 3456  0.4421745E+02  0.3576375E+02  0.1937967E+02  0.0000000E+00
Ar 3457  0.4421746E+02  0.3334147E+02  0.2224126E+02  0.0000000E+00
Ar 3458  0.4710193E+02  0.3587082E+02  0.2195582E+02  0.0000000E+00
Ar 3459  0.4725670E+02  0.3303689E+02  0.2461633E+02  0.0000000E+00
Ar 3460  0.4433049E+02  0.3599474E+02  0.2495032E+02  0.0000000E+00
Ar 3461  0.4441222E+02  0.3327352E+02  0.2740002E+02  0.0000000E+00
Ar 3462  0.4741420E+02  0.3580005E+02  0.2774690E+02  0.0000000E+00
Ar 3463  0.4714563E+02  0.3340146E+02  0.3051796E+02  0.0000000E+00
Ar 3464  0.4456451E+02  0.3603290E+02  0.3052284E+02  0.0000000E+00
Ar 3465  0.4414246E+02  0.3333045E+02  0.3333045E+02  0.0000000E+00
Ar 3466  0.4691288E+02  0.3602077E+02  0.3330859E+02  0.0000000E+00
Ar 3467  0.4691288E+02  0.3330859E+02  0.3602077E+02  0.0000000E+00
Ar 3468  0.4412958E+02  0.3594570E+02  0.3594570E+02  0.0000000E+00
Ar 3469  0.4434511E+02  0.3331100E+02  0.3862528E+02  0.0000000E+00
Ar 3470  0.4700235E+02  0.3615236E+02  0.3890823E+02  0.0000000E+00
Ar 3471  0.4711378E+02  0.3324479E+02  0.4126648E+02  0.0000000E+00
Ar 3472  0.4435469E+02  0.3623806E+02  0.4169190E+02  0.0000000E+00
Ar 3473  0.4453613E+02  0.3337063E+02  0.4453612E+02  0.0000000E+00
Ar 3474  0.4735860E+02  0.3620048E+02  0.4429648E+02  0.0000000E+00
Ar 3475  0.4703544E+02  0.3363725E+02  0.4703542E+02  0.0000000E+00
Ar 3476  0.4429648E+02  0.3620047E+02  0.4735859E+02  0.0000000E+00
Ar 3477  0.4391243E+02  0.3351326E+02  0.4970650E+02  0.0000000E+00
Ar 3478  0.4714446E+02  0.3638456E+02  0.4963105E+02  0.0000000E+00
Ar 3479  0.4644453E+02  0.3327973E+02  0.5231345E+02  0.0000000E+00
Ar 3480  0.4430809E+02  0.3630100E+02  0.5243634E+02  0.0000000E+00
Ar 3481  0.4423095E+02  0.3883542E+02  0.5497683E+02  0.0000000E+00
Ar 3482  0.4684483E+02  0.4168472E+02  0.3107619E+00  0.0000000E+00
Ar 3483  0.4681308E+02  0.3886574E+02  0.2967120E+01  0.0000000E+00
Ar 3484  0.4427136E+02  0.4163172E+02  0.2878338E+01  0.0000000E+00
Ar 3485  0.4444665E+02  0.3884480E+02  0.5891189E+01  0.0000000E+00
Ar 3486  0.4701714E+02  0.4167707E+02  0.5588989E+01  0.0000000E+00
Ar 3487  0.4737044E+02  0.3888810E+02  0.8145932E+01  0.0000000E+00
Ar 3488  0.4414159E+02  0.4156140E+02  0.8531600E+01  0.0000000E+00
Ar 3489  0.4441780E+02  0.3872429E+02  0.1129483E+02  0.0000000E+00
Ar 3490  0.4713287E+02  0.4136455E+02  0.1120915E+02  0.0000000E+00
Ar 3491  0.4714629E+02  0.3860370E+02  0.1385617E+02  0.0000000E+00
Ar 3492  0.4431900E+02  0.4108432E+02  0.1385152E+02  0.0000000E+00
Ar 3493  0.4408215E+02  0.3844634E+02  0.1672124E+02  0.0000000E+00
Ar 3494  0.4665864E+02  0.4117815E+02  0.1655062E+02  0.0000000E+00
Ar 3495  0.4709986E+02  0.3891861E+02  0.1949813E+02  0.0000000E+00
Ar 3496  0.4413868E+02  0.4147659E+02  0.1947955E+02  0.0000000E+00
Ar 3497  0.4445270E+02  0.3865036E+02  0.2205676E+02  0.0000000E+00
Ar 3498  0.4700443E+02  0.4145975E+02  0.2218344E+02  0.0000000E+00
Ar 3499  0.4688712E+02  0.3901717E+02  0.2484068E+02  0.0000000E+00
Ar 3500  0.4421446E+02  0.4156238E+02  0.2454553E+02  0.0000000E+00
Ar 3501  0.4470963E+02  0.3861508E+02  0.2771884E+02  0.0000000E+00
Ar 3502  0.4704432E+02  0.4166353E+02  0.2768157E+02  0.0000000E+00
Ar 3503  0.4707931E+02  0.3855512E+02  0.3044469E+02  0.0000000E+00
Ar 3504  0.4408237E+02  0.4131560E+02  0.3053068E+02  0.0000000E+00
Ar 3505  0.4434511E+02  0.3862528E+02  0.3331100E+02  0.0000000E+00
Ar 3506  0.4711378E+02  0.4126649E+02  0.3324479E+02  0.0000000E+00
Ar 3507  0.4700235E+02  0.3890823E+02  0.3615236E+02  0.0000000E+00
Ar 3508  0.4435470E+02  0.4169190E+02  0.3623806E+02  0.0000000E+00
Ar 3509  0.4463544E+02  0.3903267E+02  0.3903267E+02  0.0000000E+00
Ar 3510  0.4736922E+02  0.4172760E+02  0.3902491E+02  0.0000000E+00
Ar 3511  0.4736922E+02  0.3902490E+02  0.4172760E+02  0.0000000E+00
Ar 3512  0.4443935E+02  0.4156609E+02  0.4156610E+02  0.0000000E+00
Ar 3513  0.4451941E+02  0.3905188E+02  0.4451941E+02  0.0000000E+00
Ar 3514  0.4684730E+02  0.4170473E+02  0.4427226E+02  0.0000000E+00
Ar 3515  0.4714368E+02  0.3907754E+02  0.4714367E+02  0.0000000E+00
Ar 3516  0.4427226E+02  0.4170474E+02  0.4684729E+02  0.0000000E+00
Ar 3517  0.4460558E+02  0.3898139E+02  0.4994358E+02  0.0000000E+00
Ar 3518  0.4698886E+02  0.4174414E+02  0.4999397E+02  0.0000000E+00
Ar 3519  0.4705686E+02  0.3922305E+02  0.5263741E+02  0.0000000E+00
Ar 3520  0.4444934E+02  0.4158839E+02  0.5248510E+02  0.0000000E+00
Ar 3521  0.4399328E+02  0.4399327E+02  0.3160865E+00  0.0000000E+00
Ar 3522  0.4702218E+02  0.4702219E+02  0.3282591E+00  0.0000000E+00
Ar 3523  0.4708772E+02  0.4427922E+02  0.2980146E+01  0.0000000E+00
Ar 3524  0.4427922E+02  0.4708773E+02  0.2980149E+01  0.0000000E+00
Ar 3525  0.4441009E+02  0.4441010E+02  0.5861960E+01  0.0000000E+00
Ar 3526  0.4724327E+02  0.4724325E+02  0.5709312E+01  0.0000000E+00
Ar 3527  0.4698618E+02  0.4416088E+02  0.8684692E+01  0.0000000E+00
Ar 3528  0.4416090E+02  0.4698617E+02  0.8684698E+01  0.0000000E+00
Ar 3529  0.4410168E+02  0.4410169E+02  0.1135964E+02  0.0000000E+00
Ar 3530  0.4705630E+02  0.4705630E+02  0.1082679E+02  0.0000000E+00
Ar 3531  0.4691761E+02  0.4424730E+02  0.1395795E+02  0.0000000E+00
Ar 3532  0.4424730E+02  0.4691762E+02  0.1395795E+02  0.0000000E+00
Ar 3533  0.4405349E+02  0.4405349E+02  0.1641727E+02  0.0000000E+00
Ar 3534  0.4662958E+02  0.4662959E+02  0.1681249E+02  0.0000000E+00
Ar 3535  0.4683447E+02  0.4400113E+02  0.1933323E+02  0.0000000E+00
Ar 3536  0.4400113E+02  0.4683447E+02  0.1933323E+02  0.0000000E+00
Ar 3537  0.4416270E+02  0.4416270E+02  0.2217002E+02  0.0000000E+00
Ar 3538  0.4695669E+02  0.4695668E+02  0.2252791E+02  0.0000000E+00
Ar 3539  0.4715203E+02  0.4433778E+02  0.2503834E+02  0.0000000E+00
Ar 3540  0.4433779E+02  0.4715205E+02  0.2503834E+02  0.0000000E+00
Ar 3541  0.4460416E+02  0.4460417E+02  0.2772786E+02  0.0000000E+00
Ar 3542  0.4732713E+02  0.4732712E+02  0.2795024E+02  0.0000000E+00
Ar 3543  0.4727575E+02  0.4401583E+02  0.3073088E+02  0.0000000E+00
Ar 3544  0.4401583E+02  0.4727574E+02  0.3073090E+02  0.0000000E+00
Ar 3545  0.4453613E+02  0.4453612E+02  0.3337063E+02  0.0000000E+00
Ar 3546  0.4703544E+02  0.4703542E+02  0.3363725E+02  0.0000000E+00
Ar 3547  0.4735860E+02  0.4429649E+02  0.3620048E+02  0.0000000E+00
Ar 3548  0.4429648E+02  0.4735859E+02  0.3620048E+02  0.0000000E+00
Ar 3549  0.4451941E+02  0.4451940E+02  0.3905188E+02  0.0000000E+00
Ar 3550  0.4714368E+02  0.4714367E+02  0.3907754E+02  0.0000000E+00
Ar 3551  0.4684730E+02  0.4427226E+02  0.4170473E+02  0.0000000E+00
Ar 3552  0.4427226E+02  0.4684729E+02  0.4170474E+02  0.0000000E+00
Ar 3553  0.4466291E+02  0.4466291E+02  0.4466291E+02  0.0000000E+00
Ar 3554  0.4708410E+02  0.4708410E+02  0.4406578E+02  0.0000000E+00
Ar 3555  0.4708410E+02  0.4406578E+02  0.4708410E+02  0.0000000E+00
Ar 3556  0.4406578E+02  0.4708408E+02  0.4708410E+02  0.0000000E+00
Ar 3557  0.4399414E+02  0.4399413E+02  0.5001530E+02  0.0000000E+00
Ar 3558  0.4670879E+02  0.4670880E+02  0.4987298E+02  0.0000000E+00
Ar 3559  0.4718323E+02  0.4459006E+02  0.5273928E+02  0.0000000E+00
Ar 3560  0.4459006E+02  0.4718322E+02  0.5273928E+02  0.0000000E+00
Ar 3561  0.4421291E+02  0.4993552E+02  0.4419011E+00  0.0000000E+00
Ar 3562  0.4691428E+02  0.5218905E+02  0.3455334E+00  0.0000000E+00
Ar 3563  0.4712286E+02  0.4978895E+02  0.3097687E+01  0.0000000E+00
Ar 3564  0.4416376E+02  0.5246371E+02  0.3021803E+01  0.0000000E+00
Ar 3565  0.4446172E+02  0.4960974E+02  0.5614631E+01  0.0000000E+00
Ar 3566  0.4712849E+02  0.5226909E+02  0.5864705E+01  0.0000000E+00
Ar 3567  0.4691391E+02  0.4991679E+02  0.8792868E+01  0.0000000E+00
Ar 3568  0.4435906E+02  0.5262129E+02  0.8919983E+01  0.0000000E+00
Ar 3569  0.4404071E+02  0.4956594E+02  0.1126949E+02  0.0000000E+00
Ar 3570  0.4706215E+02  0.5238804E+02  0.1137770E+02  0.0000000E+00
Ar 3571  0.4684883E+02  0.4987333E+02  0.1420544E+02  0.0000000E+00
Ar 3572  0.4391886E+02  0.5240940E+02  0.1366595E+02  0.0000000E+00
Ar 3573  0.4392653E+02  0.4978773E+02  0.1658365E+02  0.0000000E+00
Ar 3574  0.4624916E+02  0.5260214E+02  0.1669799E+02  0.0000000E+00
Ar 3575  0.4707401E+02  0.4959915E+02  0.1946155E+02  0.0000000E+00
Ar 3576  0.4403242E+02  0.5227344E+02  0.1952455E+02  0.0000000E+00
Ar 3577  0.4425660E+02  0.4953321E+02  0.2225426E+02  0.0000000E+00
Ar 3578  0.4719729E+02  0.5271895E+02  0.2224741E+02  0.0000000E+00
Ar 3579  0.4729619E+02  0.5007372E+02  0.2502288E+02  0.0000000E+00
Ar 3580  0.4416830E+02  0.5273432E+02  0.2528174E+02  0.0000000E+00
Ar 3581  0.4428801E+02  0.4967276E+02  0.2784570E+02  0.0000000E+00
Ar 3582  0.4671958E+02  0.5247973E+02  0.2806029E+02  0.0000000E+00
Ar 3583  0.4705347E+02  0.4974558E+02  0.3081407E+02  0.0000000E+00
Ar 3584  0.4411180E+02  0.5253327E+02  0.3062263E+02  0.0000000E+00
Ar 3585  0.4391243E+02  0.4970650E+02  0.3351326E+02  0.0000000E+00
Ar 3586  0.4644455E+02  0.5231345E+02  0.3327972E+02  0.0000000E+00
Ar 3587  0.4714446E+02  0.4963104E+02  0.3638455E+02  0.0000000E+00
Ar 3588  0.4430809E+02  0.5243634E+02  0.3630099E+02  0.0000000E+00
Ar 3589  0.4460558E+02  0.4994358E+02  0.3898139E+02  0.0000000E+00
Ar 3590  0.4705686E+02  0.5263741E+02  0.3922304E+02  0.0000000E+00
Ar 3591  0.4698886E+02  0.4999398E+02  0.4174414E+02  0.0000000E+00
Ar 3592  0.4444934E+02  0.5248510E+02  0.4158839E+02  0.0000000E+00
Ar 3593  0.4399413E+02  0.5001530E+02  0.4399413E+02  0.0000000E+00
Ar 3594  0.4718323E+02  0.5273928E+02  0.4459007E+02  0.0000000E+00
Ar 3595  0.4670878E+02  0.4987297E+02  0.4670879E+02  0.0000000E+00
Ar 3596  0.4459006E+02  0.5273928E+02  0.4718322E+02  0.0000000E+00
Ar 3597  0.4464453E+02  0.4965902E+02  0.4965903E+02  0.0000000E+00
Ar 3598  0.4708199E+02  0.5266935E+02  0.4971755E+02  0.0000000E+00
Ar 3599  0.4708199E+02  0.4971756E+02  0.5266935E+02  0.0000000E+00
Ar 3600  0.4438765E+02  0.5249883E+02  0.5249883E+02  0.0000000E+00
Ar 3601  0.4960949E+02  0.5514365E+02  0.5514365E+02  0.0000000E+00
Ar 3602  0.5244931E+02  0.2802851E+01  0.2013837E+00  0.0000000E+00
Ar 3603  0.5244931E+02  0.2013895E+00  0.2802856E+01  0.0000000E+00
Ar 3604  0.4976985E+02  0.3078097E+01  0.3078095E+01  0.0000000E+00
Ar 3605  0.4980159E+02  0.4303544E+00  0.5806678E+01  0.0000000E+00
Ar 3606  0.5257450E+02  0.3129792E+01  0.5670389E+01  0.0000000E+00
Ar 3607  0.5265376E+02  0.5513620E+02  0.8457853E+01  0.0000000E+00
Ar 3608  0.4966164E+02  0.3100513E+01  0.8525432E+01  0.0000000E+00
Ar 3609  0.4928021E+02  0.3001795E+00  0.1161646E+02  0.0000000E+00
Ar 3610  0.5251394E+02  0.2711125E+01  0.1086007E+02  0.0000000E+00
Ar 3611  0.5242794E+02  0.2614164E+00  0.1413727E+02  0.0000000E+00
Ar 3612  0.4969886E+02  0.2948136E+01  0.1377937E+02  0.0000000E+00
Ar 3613  0.4967273E+02  0.2927980E+00  0.1682742E+02  0.0000000E+00
Ar 3614  0.5234591E+02  0.2886418E+01  0.1695856E+02  0.0000000E+00
Ar 3615  0.5253791E+02  0.5508983E+02  0.1996254E+02  0.0000000E+00
Ar 3616  0.4943712E+02  0.2941696E+01  0.1933548E+02  0.0000000E+00
Ar 3617  0.4960408E+02  0.4020890E+00  0.2240001E+02  0.0000000E+00
Ar 3618  0.5239641E+02  0.3202480E+01  0.2216802E+02  0.0000000E+00
Ar 3619  0.5244963E+02  0.4590864E+00  0.2529900E+02  0.0000000E+00
Ar 3620  0.4990068E+02  0.3291067E+01  0.2499434E+02  0.0000000E+00
Ar 3621  0.4968090E+02  0.5502837E+02  0.2807503E+02  0.0000000E+00
Ar 3622  0.5243984E+02  0.2798687E+01  0.2798026E+02  0.0000000E+00
Ar 3623  0.5248599E+02  0.5513888E+02  0.3099048E+02  0.0000000E+00
Ar 3624  0.4931743E+02  0.2996747E+01  0.3062425E+02  0.0000000E+00
Ar 3625  0.4968384E+02  0.5515214E+02  0.3368755E+02  0.0000000E+00
Ar 3626  0.5228388E+02  0.2553559E+01  0.3340089E+02  0.0000000E+00
Ar 3627  0.5230454E+02  0.2962537E+00  0.3669323E+02  0.0000000E+00
Ar 3628  0.4975120E+02  0.2997947E+01  0.3603537E+02  0.0000000E+00
Ar 3629  0.4939355E+02  0.3890968E+00  0.3882439E+02  0.0000000E+00
Ar 3630  0.5243570E+02  0.3280466E+01  0.3913050E+02  0.0000000E+00
Ar 3631  0.5185031E+02  0.5526563E+02  0.4103896E+02  0.0000000E+00
Ar 3632  0.4975697E+02  0.3161905E+01  0.4139089E+02  0.0000000E+00
Ar 3633  0.4993556E+02  0.4419351E+00  0.4421291E+02  0.0000000E+00
Ar 3634  0.5246373E+02  0.3021671E+01  0.4416360E+02  0.0000000E+00
Ar 3635  0.5218905E+02  0.3455429E+00  0.4691431E+02  0.0000000E+00
Ar 3636  0.4978896E+02  0.3097681E+01  0.4712284E+02  0.0000000E+00
Ar 3637  0.4981903E+02  0.5508768E+02  0.4981904E+02  0.0000000E+00
Ar 3638  0.5250851E+02  0.2913524E+01  0.4976942E+02  0.0000000E+00
Ar 3639  0.5263260E+02  0.5529134E+02  0.5263259E+02  0.0000000E+00
Ar 3640  0.4976940E+02  0.2913534E+01  0.5250854E+02  0.0000000E+00
Ar 3641  0.4980159E+02  0.5806682E+01  0.4303500E+00  0.0000000E+00
Ar 3642  0.5265376E+02  0.8457856E+01  0.5513620E+02  0.0000000E+00
Ar 3643  0.5257449E+02  0.5670390E+01  0.3129787E+01  0.0000000E+00
Ar 3644  0.4966164E+02  0.8525430E+01  0.3100512E+01  0.0000000E+00
Ar 3645  0.4932656E+02  0.5753980E+01  0.5753983E+01  0.0000000E+00
Ar 3646  0.5223048E+02  0.8391574E+01  0.5714030E+01  0.0000000E+00
Ar 3647  0.5223049E+02  0.5714025E+01  0.8391579E+01  0.0000000E+00
Ar 3648  0.4934494E+02  0.8422090E+01  0.8422089E+01  0.0000000E+00
Ar 3649  0.4932397E+02  0.5705600E+01  0.1112416E+02  0.0000000E+00
Ar 3650  0.5198863E+02  0.8460376E+01  0.1113529E+02  0.0000000E+00
Ar 3651  0.5244377E+02  0.5574976E+01  0.1371565E+02  0.0000000E+00
Ar 3652  0.4948171E+02  0.8283108E+01  0.1380368E+02  0.0000000E+00
Ar 3653  0.4962300E+02  0.5742580E+01  0.1657486E+02  0.0000000E+00
Ar 3654  0.5245812E+02  0.8617370E+01  0.1648902E+02  0.0000000E+00
Ar 3655  0.5229914E+02  0.5698933E+01  0.1935993E+02  0.0000000E+00
Ar 3656  0.4990529E+02  0.8380498E+01  0.1935320E+02  0.0000000E+00
Ar 3657  0.4975512E+02  0.5860078E+01  0.2204740E+02  0.0000000E+00
Ar 3658  0.5258010E+02  0.8342053E+01  0.2209463E+02  0.0000000E+00
Ar 3659  0.5251559E+02  0.5609559E+01  0.2509342E+02  0.0000000E+00
Ar 3660  0.4966123E+02  0.8465183E+01  0.2533563E+02  0.0000000E+00
Ar 3661  0.4969223E+02  0.5804754E+01  0.2786076E+02  0.0000000E+00
Ar 3662  0.5252955E+02  0.8429078E+01  0.2762971E+02  0.0000000E+00
Ar 3663  0.5204123E+02  0.5732861E+01  0.3076890E+02  0.0000000E+00
Ar 3664  0.4972313E+02  0.8368486E+01  0.3068418E+02  0.0000000E+00
Ar 3665  0.4948523E+02  0.5680097E+01  0.3346091E+02  0.0000000E+00
Ar 3666  0.5247719E+02  0.8137689E+01  0.3339756E+02  0.0000000E+00
Ar 3667  0.5246399E+02  0.5318666E+01  0.3611873E+02  0.0000000E+00
Ar 3668  0.4962282E+02  0.8309253E+01  0.3588698E+02  0.0000000E+00
Ar 3669  0.4970452E+02  0.5387160E+01  0.3880721E+02  0.0000000E+00
Ar 3670  0.5229389E+02  0.8508543E+01  0.3885726E+02  0.0000000E+00
Ar 3671  0.5226824E+02  0.6043043E+01  0.4160162E+02  0.0000000E+00
Ar 3672  0.4959785E+02  0.8698208E+01  0.4163573E+02  0.0000000E+00
Ar 3673  0.4960977E+02  0.5614614E+01  0.4446170E+02  0.0000000E+00
Ar 3674  0.5262126E+02  0.8919960E+01  0.4435907E+02  0.0000000E+00
Ar 3675  0.5226907E+02  0.5864668E+01  0.4712844E+02  0.0000000E+00
Ar 3676  0.4991676E+02  0.8792856E+01  0.4691392E+02  0.0000000E+00
Ar 3677  0.4970999E+02  0.5901980E+01  0.4970998E+02  0.0000000E+00
Ar 3678  0.5253158E+02  0.8601561E+01  0.4982961E+02  0.0000000E+00
Ar 3679  0.5239052E+02  0.5694528E+01  0.5239053E+02  0.0000000E+00
Ar 3680  0.4982962E+02  0.8601531E+01  0.5253156E+02  0.0000000E+00
Ar 3681  0.4928020E+02  0.1161646E+02  0.3001812E+00  0.0000000E+00
Ar 3682  0.5242793E+02  0.1413726E+02  0.2614121E+00  0.0000000E+00
Ar 3683  0.5251394E+02  0.1086007E+02  0.2711130E+01  0.0000000E+00
Ar 3684  0.4969886E+02  0.1377938E+02  0.2948137E+01  0.0000000E+00
Ar 3685  0.4932398E+02  0.1112416E+02  0.5705602E+01  0.0000000E+00
Ar 3686  0.5244377E+02  0.1371566E+02  0.5574978E+01  0.0000000E+00
Ar 3687  0.5198864E+02  0.1113530E+02  0.8460377E+01  0.0000000E+00
Ar 3688  0.4948171E+02  0.1380367E+02  0.8283113E+01  0.0000000E+00
Ar 3689  0.4960559E+02  0.1125066E+02  0.1125066E+02  0.0000000E+00
Ar 3690  0.5217838E+02  0.1378457E+02  0.1112893E+02  0.0000000E+00
Ar 3691  0.5217839E+02  0.1112893E+02  0.1378457E+02  0.0000000E+00
Ar 3692  0.4999527E+02  0.1377685E+02  0.1377685E+02  0.0000000E+00
Ar 3693  0.4962013E+02  0.1102021E+02  0.1646171E+02  0.0000000E+00
Ar 3694  0.5235971E+02  0.1366631E+02  0.1656182E+02  0.0000000E+00
Ar 3695  0.5237385E+02  0.1095417E+02  0.1929580E+02  0.0000000E+00
Ar 3696  0.4978088E+02  0.1386071E+02  0.1939217E+02  0.0000000E+00
Ar 3697  0.4987219E+02  0.1088078E+02  0.2243794E+02  0.0000000E+00
Ar 3698  0.5255569E+02  0.1357197E+02  0.2207795E+02  0.0000000E+00
Ar 3699  0.5245918E+02  0.1087050E+02  0.2503585E+02  0.0000000E+00
Ar 3700  0.4973760E+02  0.1365946E+02  0.2507699E+02  0.0000000E+00
Ar 3701  0.4969243E+02  0.1123033E+02  0.2780173E+02  0.0000000E+00
Ar 3702  0.5230709E+02  0.1395564E+02  0.2779714E+02  0.0000000E+00
Ar 3703  0.5249385E+02  0.1087897E+02  0.3065038E+02  0.0000000E+00
Ar 3704  0.4970475E+02  0.1397331E+02  0.3054861E+02  0.0000000E+00
Ar 3705  0.4978626E+02  0.1093456E+02  0.3325928E+02  0.0000000E+00
Ar 3706  0.5217005E+02  0.1349440E+02  0.3309898E+02  0.0000000E+00
Ar 3707  0.5255979E+02  0.1107607E+02  0.3582213E+02  0.0000000E+00
Ar 3708  0.4995717E+02  0.1382684E+02  0.3605259E+02  0.0000000E+00
Ar 3709  0.4963493E+02  0.1104366E+02  0.3856120E+02  0.0000000E+00
Ar 3710  0.5254571E+02  0.1379720E+02  0.3844310E+02  0.0000000E+00
Ar 3711  0.5243492E+02  0.1125551E+02  0.4142728E+02  0.0000000E+00
Ar 3712  0.4967000E+02  0.1385155E+02  0.4120193E+02  0.0000000E+00
Ar 3713  0.4956590E+02  0.1126946E+02  0.4404074E+02  0.0000000E+00
Ar 3714  0.5240948E+02  0.1366583E+02  0.4391869E+02  0.0000000E+00
Ar 3715  0.5238799E+02  0.1137768E+02  0.4706215E+02  0.0000000E+00
Ar 3716  0.4987336E+02  0.1420538E+02  0.4684878E+02  0.0000000E+00
Ar 3717  0.4976447E+02  0.1155140E+02  0.4976450E+02  0.0000000E+00
Ar 3718  0.5269634E+02  0.1442771E+02  0.4945535E+02  0.0000000E+00
Ar 3719  0.5235966E+02  0.1181072E+02  0.5235971E+02  0.0000000E+00
Ar 3720  0.4945533E+02  0.1442774E+02  0.5269640E+02  0.0000000E+00
Ar 3721  0.4967273E+02  0.1682738E+02  0.2928452E+00  0.0000000E+00
Ar 3722  0.5253787E+02  0.1996254E+02  0.5508982E+02  0.0000000E+00
Ar 3723  0.5234589E+02  0.1695855E+02  0.2886419E+01  0.0000000E+00
Ar 3724  0.4943712E+02  0.1933548E+02  0.2941700E+01  0.0000000E+00
Ar 3725  0.4962300E+02  0.1657487E+02  0.5742583E+01  0.0000000E+00
Ar 3726  0.5229914E+02  0.1935993E+02  0.5698928E+01  0.0000000E+00
Ar 3727  0.5245812E+02  0.1648902E+02  0.8617372E+01  0.0000000E+00
Ar 3728  0.4990529E+02  0.1935320E+02  0.8380498E+01  0.0000000E+00
Ar 3729  0.4962014E+02  0.1646172E+02  0.1102021E+02  0.0000000E+00
Ar 3730  0.5237385E+02  0.1929580E+02  0.1095418E+02  0.0000000E+00
Ar 3731  0.5235971E+02  0.1656182E+02  0.1366630E+02  0.0000000E+00
Ar 3732  0.4978088E+02  0.1939217E+02  0.1386071E+02  0.0000000E+00
Ar 3733  0.5003265E+02  0.1636569E+02  0.1636569E+02  0.0000000E+00
Ar 3734  0.5236466E+02  0.1940537E+02  0.1639300E+02  0.0000000E+00
Ar 3735  0.5236466E+02  0.1639300E+02  0.1940537E+02  0.0000000E+00
Ar 3736  0.5012209E+02  0.1937896E+02  0.1937896E+02  0.0000000E+00
Ar 3737  0.4948870E+02  0.1636258E+02  0.2204195E+02  0.0000000E+00
Ar 3738  0.5251568E+02  0.1953643E+02  0.2238523E+02  0.0000000E+00
Ar 3739  0.5229541E+02  0.1646935E+02  0.2472142E+02  0.0000000E+00
Ar 3740  0.4961760E+02  0.1879001E+02  0.2483664E+02  0.0000000E+00
Ar 3741  0.4952917E+02  0.1657597E+02  0.2750919E+02  0.0000000E+00
Ar 3742  0.5246277E+02  0.1929466E+02  0.2757612E+02  0.0000000E+00
Ar 3743  0.5235048E+02  0.1655929E+02  0.3033849E+02  0.0000000E+00
Ar 3744  0.4980533E+02  0.1958383E+02  0.3019618E+02  0.0000000E+00
Ar 3745  0.4984355E+02  0.1688282E+02  0.3319493E+02  0.0000000E+00
Ar 3746  0.5246268E+02  0.1951865E+02  0.3338920E+02  0.0000000E+00
Ar 3747  0.5267465E+02  0.1686462E+02  0.3580169E+02  0.0000000E+00
Ar 3748  0.4993867E+02  0.1965870E+02  0.3583233E+02  0.0000000E+00
Ar 3749  0.4998914E+02  0.1673848E+02  0.3854848E+02  0.0000000E+00
Ar 3750  0.5243569E+02  0.1948899E+02  0.3886239E+02  0.0000000E+00
Ar 3751  0.5226276E+02  0.1651218E+02  0.4125970E+02  0.0000000E+00
Ar 3752  0.4946300E+02  0.1967606E+02  0.4175121E+02  0.0000000E+00
Ar 3753  0.4978770E+02  0.1658362E+02  0.4392637E+02  0.0000000E+00
Ar 3754  0.5227341E+02  0.1952446E+02  0.4403228E+02  0.0000000E+00
Ar 3755  0.5260215E+02  0.1669787E+02  0.4624905E+02  0.0000000E+00
Ar 3756  0.4959922E+02  0.1946157E+02  0.4707397E+02  0.0000000E+00
Ar 3757  0.4959925E+02  0.1696279E+02  0.4959920E+02  0.0000000E+00
Ar 3758  0.5272161E+02  0.1911206E+02  0.4950613E+02  0.0000000E+00
Ar 3759  0.5236916E+02  0.1680587E+02  0.5236913E+02  0.0000000E+00
Ar 3760  0.4950589E+02  0.1911183E+02  0.5272167E+02  0.0000000E+00
Ar 3761  0.4960405E+02  0.2239999E+02  0.4020835E+00  0.0000000E+00
Ar 3762  0.5244961E+02  0.2529907E+02  0.4591023E+00  0.0000000E+00
Ar 3763  0.5239641E+02  0.2216802E+02  0.3202469E+01  0.0000000E+00
Ar 3764  0.4990066E+02  0.2499434E+02  0.3291061E+01  0.0000000E+00
Ar 3765  0.4975512E+02  0.2204740E+02  0.5860078E+01  0.0000000E+00
Ar 3766  0.5251560E+02  0.2509341E+02  0.5609558E+01  0.0000000E+00
Ar 3767  0.5258011E+02  0.2209464E+02  0.8342050E+01  0.0000000E+00
Ar 3768  0.4966122E+02  0.2533563E+02  0.8465184E+01  0.0000000E+00
Ar 3769  0.4987218E+02  0.2243794E+02  0.1088078E+02  0.0000000E+00
Ar 3770  0.5245918E+02  0.2503586E+02  0.1087050E+02  0.0000000E+00
Ar 3771  0.5255568E+02  0.2207794E+02  0.1357197E+02  0.0000000E+00
Ar 3772  0.4973760E+02  0.2507699E+02  0.1365945E+02  0.0000000E+00
Ar 3773  0.4948870E+02  0.2204195E+02  0.1636258E+02  0.0000000E+00
Ar 3774  0.5229541E+02  0.2472142E+02  0.1646935E+02  0.0000000E+00
Ar 3775  0.5251568E+02  0.2238523E+02  0.1953643E+02  0.0000000E+00
Ar 3776  0.4961761E+02  0.2483664E+02  0.1879001E+02  0.0000000E+00
Ar 3777  0.4986371E+02  0.2231842E+02  0.2231842E+02  0.0000000E+00
Ar 3778  0.5258911E+02  0.2502535E+02  0.2203305E+02  0.0000000E+00
Ar 3779  0.5258911E+02  0.2203305E+02  0.2502535E+02  0.0000000E+00
Ar 3780  0.4991849E+02  0.2485175E+02  0.2485175E+02  0.0000000E+00
Ar 3781  0.4969707E+02  0.2233472E+02  0.2765964E+02  0.0000000E+00
Ar 3782  0.5242691E+02  0.2488834E+02  0.2752708E+02  0.0000000E+00
Ar 3783  0.5254306E+02  0.2226591E+02  0.3031785E+02  0.0000000E+00
Ar 3784  0.5018383E+02  0.2504856E+02  0.3058061E+02  0.0000000E+00
Ar 3785  0.5024672E+02  0.2240039E+02  0.3348773E+02  0.0000000E+00
Ar 3786  0.5253777E+02  0.2514606E+02  0.3365943E+02  0.0000000E+00
Ar 3787  0.5263742E+02  0.2220905E+02  0.3637236E+02  0.0000000E+00
Ar 3788  0.4949457E+02  0.2494308E+02  0.3600802E+02  0.0000000E+00
Ar 3789  0.4957996E+02  0.2200453E+02  0.3873622E+02  0.0000000E+00
Ar 3790  0.5235869E+02  0.2493391E+02  0.3870620E+02  0.0000000E+00
Ar 3791  0.5222553E+02  0.2223850E+02  0.4156279E+02  0.0000000E+00
Ar 3792  0.4949116E+02  0.2522729E+02  0.4171677E+02  0.0000000E+00
Ar 3793  0.4953321E+02  0.2225418E+02  0.4425662E+02  0.0000000E+00
Ar 3794  0.5273430E+02  0.2528169E+02  0.4416828E+02  0.0000000E+00
Ar 3795  0.5271902E+02  0.2224764E+02  0.4719733E+02  0.0000000E+00
Ar 3796  0.5007374E+02  0.2502287E+02  0.4729618E+02  0.0000000E+00
Ar 3797  0.4988949E+02  0.2245301E+02  0.4988934E+02  0.0000000E+00
Ar 3798  0.5275345E+02  0.2518972E+02  0.4986146E+02  0.0000000E+00
Ar 3799  0.5254845E+02  0.2265031E+02  0.5254845E+02  0.0000000E+00
Ar 3800  0.4986110E+02  0.2518954E+02  0.5275289E+02  0.0000000E+00
Ar 3801  0.4967346E+02  0.2806797E+02  0.5502832E+02  0.0000000E+00
Ar 3802  0.5249355E+02  0.3099831E+02  0.5513815E+02  0.0000000E+00
Ar 3803  0.5243973E+02  0.2797981E+02  0.2799184E+01  0.0000000E+00
Ar 3804  0.4931722E+02  0.3062413E+02  0.2996826E+01  0.0000000E+00
Ar 3805  0.4969223E+02  0.2786075E+02  0.5804757E+01  0.0000000E+00
Ar 3806  0.5204123E+02  0.3076889E+02  0.5732860E+01  0.0000000E+00
Ar 3807  0.5252955E+02  0.2762971E+02  0.8429079E+01  0.0000000E+00
Ar 3808  0.4972313E+02  0.3068417E+02  0.8368487E+01  0.0000000E+00
Ar 3809  0.4969243E+02  0.2780174E+02  0.1123033E+02  0.0000000E+00
Ar 3810  0.5249385E+02  0.3065038E+02  0.1087897E+02  0.0000000E+00
Ar 3811  0.5230709E+02  0.2779714E+02  0.1395563E+02  0.0000000E+00
Ar 3812  0.4970475E+02  0.3054861E+02  0.1397331E+02  0.0000000E+00
Ar 3813  0.4952917E+02  0.2750919E+02  0.1657597E+02  0.0000000E+00
Ar 3814  0.5235048E+02  0.3033849E+02  0.1655929E+02  0.0000000E+00
Ar 3815  0.5246278E+02  0.2757612E+02  0.1929466E+02  0.0000000E+00
Ar 3816  0.4980533E+02  0.3019617E+02  0.1958383E+02  0.0000000E+00
Ar 3817  0.4969707E+02  0.2765964E+02  0.2233472E+02  0.0000000E+00
Ar 3818  0.5254306E+02  0.3031786E+02  0.2226591E+02  0.0000000E+00
Ar 3819  0.5242692E+02  0.2752708E+02  0.2488833E+02  0.0000000E+00
Ar 3820  0.5018383E+02  0.3058061E+02  0.2504855E+02  0.0000000E+00
Ar 3821  0.5006341E+02  0.2783874E+02  0.2783874E+02  0.0000000E+00
Ar 3822  0.5283691E+02  0.3066456E+02  0.2777021E+02  0.0000000E+00
Ar 3823  0.5283690E+02  0.2777020E+02  0.3066456E+02  0.0000000E+00
Ar 3824  0.4994300E+02  0.3047718E+02  0.3047718E+02  0.0000000E+00
Ar 3825  0.4990811E+02  0.2787992E+02  0.3319805E+02  0.0000000E+00
Ar 3826  0.5247939E+02  0.3074560E+02  0.3335671E+02  0.0000000E+00
Ar 3827  0.5263549E+02  0.2803426E+02  0.3616103E+02  0.0000000E+00
Ar 3828  0.4969733E+02  0.3062257E+02  0.3599669E+02  0.0000000E+00
Ar 3829  0.4956702E+02  0.2767882E+02  0.3878158E+02  0.0000000E+00
Ar 3830  0.5267944E+02  0.3085023E+02  0.3897248E+02  0.0000000E+00
Ar 3831  0.5240486E+02  0.2773464E+02  0.4154278E+02  0.0000000E+00
Ar 3832  0.4996558E+02  0.3033463E+02  0.4138743E+02  0.0000000E+00
Ar 3833  0.4967277E+02  0.2784570E+02  0.4428799E+02  0.0000000E+00
Ar 3834  0.5253327E+02  0.3062263E+02  0.4411181E+02  0.0000000E+00
Ar 3835  0.5247973E+02  0.2806030E+02  0.4671956E+02  0.0000000E+00
Ar 3836  0.4974559E+02  0.3081406E+02  0.4705347E+02  0.0000000E+00
Ar 3837  0.4989168E+02  0.2817043E+02  0.4989163E+02  0.0000000E+00
Ar 3838  0.5235645E+02  0.3071808E+02  0.4959481E+02  0.0000000E+00
Ar 3839  0.5255400E+02  0.2803616E+02  0.5255439E+02  0.0000000E+00
Ar 3840  0.4959470E+02  0.3071794E+02  0.5235655E+02  0.0000000E+00
Ar 3841  0.4968380E+02  0.3368755E+02  0.5515212E+02  0.0000000E+00
Ar 3842  0.5230455E+02  0.3669324E+02  0.2962560E+00  0.0000000E+00
Ar 3843  0.5228371E+02  0.3340135E+02  0.2554096E+01  0.0000000E+00
Ar 3844  0.4975121E+02  0.3603536E+02  0.2997945E+01  0.0000000E+00
Ar 3845  0.4948523E+02  0.3346091E+02  0.5680097E+01  0.0000000E+00
Ar 3846  0.5246399E+02  0.3611873E+02  0.5318664E+01  0.0000000E+00
Ar 3847  0.5247719E+02  0.3339755E+02  0.8137688E+01  0.0000000E+00
Ar 3848  0.4962281E+02  0.3588698E+02  0.8309257E+01  0.0000000E+00
Ar 3849  0.4978626E+02  0.3325928E+02  0.1093456E+02  0.0000000E+00
Ar 3850  0.5255982E+02  0.3582215E+02  0.1107606E+02  0.0000000E+00
Ar 3851  0.5217005E+02  0.3309897E+02  0.1349440E+02  0.0000000E+00
Ar 3852  0.4995761E+02  0.3605301E+02  0.1382686E+02  0.0000000E+00
Ar 3853  0.4984356E+02  0.3319493E+02  0.1688282E+02  0.0000000E+00
Ar 3854  0.5267467E+02  0.3580181E+02  0.1686453E+02  0.0000000E+00
Ar 3855  0.5246268E+02  0.3338921E+02  0.1951863E+02  0.0000000E+00
Ar 3856  0.4993869E+02  0.3583236E+02  0.1965869E+02  0.0000000E+00
Ar 3857  0.5024672E+02  0.3348774E+02  0.2240039E+02  0.0000000E+00
Ar 3858  0.5263741E+02  0.3637237E+02  0.2220903E+02  0.0000000E+00
Ar 3859  0.5253777E+02  0.3365944E+02  0.2514606E+02  0.0000000E+00
Ar 3860  0.4949457E+02  0.3600802E+02  0.2494308E+02  0.0000000E+00
Ar 3861  0.4990811E+02  0.3319805E+02  0.2787992E+02  0.0000000E+00
Ar 3862  0.5263549E+02  0.3616103E+02  0.2803427E+02  0.0000000E+00
Ar 3863  0.5247939E+02  0.3335671E+02  0.3074560E+02  0.0000000E+00
Ar 3864  0.4969733E+02  0.3599669E+02  0.3062257E+02  0.0000000E+00
Ar 3865  0.5003976E+02  0.3313555E+02  0.3313555E+02  0.0000000E+00
Ar 3866  0.5252084E+02  0.3614915E+02  0.3339561E+02  0.0000000E+00
Ar 3867  0.5252084E+02  0.3339561E+02  0.3614915E+02  0.0000000E+00
Ar 3868  0.4988900E+02  0.3595109E+02  0.3595108E+02  0.0000000E+00
Ar 3869  0.4973951E+02  0.3366583E+02  0.3876626E+02  0.0000000E+00
Ar 3870  0.5251384E+02  0.3612863E+02  0.3885180E+02  0.0000000E+00
Ar 3871  0.5251830E+02  0.3357250E+02  0.4147441E+02  0.0000000E+00
Ar 3872  0.4997894E+02  0.3619761E+02  0.4138138E+02  0.0000000E+00
Ar 3873  0.4970650E+02  0.3351326E+02  0.4391242E+02  0.0000000E+00
Ar 3874  0.5243634E+02  0.3630099E+02  0.4430810E+02  0.0000000E+00
Ar 3875  0.5231344E+02  0.3327972E+02  0.4644454E+02  0.0000000E+00
Ar 3876  0.4963105E+02  0.3638457E+02  0.4714445E+02  0.0000000E+00
Ar 3877  0.4969020E+02  0.3352218E+02  0.4969019E+02  0.0000000E+00
Ar 3878  0.5243926E+02  0.3614844E+02  0.4900443E+02  0.0000000E+00
Ar 3879  0.5222635E+02  0.3445751E+02  0.5222634E+02  0.0000000E+00
Ar 3880  0.4900442E+02  0.3614844E+02  0.5243926E+02  0.0000000E+00
Ar 3881  0.4939355E+02  0.3882438E+02  0.3890958E+00  0.0000000E+00
Ar 3882  0.5185032E+02  0.4103895E+02  0.5526563E+02  0.0000000E+00
Ar 3883  0.5243570E+02  0.3913051E+02  0.3280467E+01  0.0000000E+00
Ar 3884  0.4975697E+02  0.4139088E+02  0.3161905E+01  0.0000000E+00
Ar 3885  0.4970453E+02  0.3880720E+02  0.5387165E+01  0.0000000E+00
Ar 3886  0.5226824E+02  0.4160162E+02  0.6043037E+01  0.0000000E+00
Ar 3887  0.5229391E+02  0.3885729E+02  0.8508586E+01  0.0000000E+00
Ar 3888  0.4959788E+02  0.4163573E+02  0.8698243E+01  0.0000000E+00
Ar 3889  0.4963495E+02  0.3856124E+02  0.1104367E+02  0.0000000E+00
Ar 3890  0.5243505E+02  0.4142739E+02  0.1125576E+02  0.0000000E+00
Ar 3891  0.5254574E+02  0.3844338E+02  0.1379735E+02  0.0000000E+00
Ar 3892  0.4967011E+02  0.4120200E+02  0.1385170E+02  0.0000000E+00
Ar 3893  0.4998922E+02  0.3854852E+02  0.1673844E+02  0.0000000E+00
Ar 3894  0.5226242E+02  0.4125975E+02  0.1651259E+02  0.0000000E+00
Ar 3895  0.5243570E+02  0.3886239E+02  0.1948898E+02  0.0000000E+00
Ar 3896  0.4946301E+02  0.4175115E+02  0.1967600E+02  0.0000000E+00
Ar 3897  0.4957996E+02  0.3873622E+02  0.2200451E+02  0.0000000E+00
Ar 3898  0.5222549E+02  0.4156274E+02  0.2223861E+02  0.0000000E+00
Ar 3899  0.5235869E+02  0.3870619E+02  0.2493392E+02  0.0000000E+00
Ar 3900  0.4949118E+02  0.4171680E+02  0.2522730E+02  0.0000000E+00
Ar 3901  0.4956701E+02  0.3878159E+02  0.2767882E+02  0.0000000E+00
Ar 3902  0.5240486E+02  0.4154279E+02  0.2773463E+02  0.0000000E+00
Ar 3903  0.5267943E+02  0.3897248E+02  0.3085024E+02  0.0000000E+00
Ar 3904  0.4996558E+02  0.4138743E+02  0.3033462E+02  0.0000000E+00
Ar 3905  0.4973952E+02  0.3876626E+02  0.3366583E+02  0.0000000E+00
Ar 3906  0.5251830E+02  0.4147442E+02  0.3357251E+02  0.0000000E+00
Ar 3907  0.5251384E+02  0.3885180E+02  0.3612863E+02  0.0000000E+00
Ar 3908  0.4997894E+02  0.4138138E+02  0.3619761E+02  0.0000000E+00
Ar 3909  0.4986217E+02  0.3872684E+02  0.3872684E+02  0.0000000E+00
Ar 3910  0.5257634E+02  0.4148291E+02  0.3897364E+02  0.0000000E+00
Ar 3911  0.5257634E+02  0.3897364E+02  0.4148291E+02  0.0000000E+00
Ar 3912  0.5005943E+02  0.4159439E+02  0.4159440E+02  0.0000000E+00
Ar 3913  0.4994358E+02  0.3898139E+02  0.4460557E+02  0.0000000E+00
Ar 3914  0.5248510E+02  0.4158838E+02  0.4444933E+02  0.0000000E+00
Ar 3915  0.5263742E+02  0.3922305E+02  0.4705686E+02  0.0000000E+00
Ar 3916  0.4999398E+02  0.4174414E+02  0.4698885E+02  0.0000000E+00
Ar 3917  0.4992682E+02  0.3897446E+02  0.4992682E+02  0.0000000E+00
Ar 3918  0.5246914E+02  0.4196630E+02  0.4980828E+02  0.0000000E+00
Ar 3919  0.5242826E+02  0.3898443E+02  0.5242826E+02  0.0000000E+00
Ar 3920  0.4980828E+02  0.4196629E+02  0.5246916E+02  0.0000000E+00
Ar 3921  0.4993557E+02  0.4421292E+02  0.4419349E+00  0.0000000E+00
Ar 3922  0.5218905E+02  0.4691432E+02  0.3455428E+00  0.0000000E+00
Ar 3923  0.5246374E+02  0.4416360E+02  0.3021663E+01  0.0000000E+00
Ar 3924  0.4978896E+02  0.4712284E+02  0.3097682E+01  0.0000000E+00
Ar 3925  0.4960976E+02  0.4446170E+02  0.5614617E+01  0.0000000E+00
Ar 3926  0.5226907E+02  0.4712846E+02  0.5864665E+01  0.0000000E+00
Ar 3927  0.5262127E+02  0.4435907E+02  0.8919980E+01  0.0000000E+00
Ar 3928  0.4991679E+02  0.4691392E+02  0.8792867E+01  0.0000000E+00
Ar 3929  0.4956594E+02  0.4404070E+02  0.1126949E+02  0.0000000E+00
Ar 3930  0.5238803E+02  0.4706216E+02  0.1137770E+02  0.0000000E+00
Ar 3931  0.5240939E+02  0.4391886E+02  0.1366595E+02  0.0000000E+00
Ar 3932  0.4987332E+02  0.4684883E+02  0.1420544E+02  0.0000000E+00
Ar 3933  0.4978774E+02  0.4392653E+02  0.1658364E+02  0.0000000E+00
Ar 3934  0.5260213E+02  0.4624917E+02  0.1669800E+02  0.0000000E+00
Ar 3935  0.5227343E+02  0.4403239E+02  0.1952455E+02  0.0000000E+00
Ar 3936  0.4959915E+02  0.4707401E+02  0.1946155E+02  0.0000000E+00
Ar 3937  0.4953321E+02  0.4425659E+02  0.2225426E+02  0.0000000E+00
Ar 3938  0.5271896E+02  0.4719727E+02  0.2224742E+02  0.0000000E+00
Ar 3939  0.5273432E+02  0.4416829E+02  0.2528173E+02  0.0000000E+00
Ar 3940  0.5007372E+02  0.4729619E+02  0.2502289E+02  0.0000000E+00
Ar 3941  0.4967277E+02  0.4428800E+02  0.2784569E+02  0.0000000E+00
Ar 3942  0.5247972E+02  0.4671958E+02  0.2806030E+02  0.0000000E+00
Ar 3943  0.5253328E+02  0.4411182E+02  0.3062262E+02  0.0000000E+00
Ar 3944  0.4974560E+02  0.4705348E+02  0.3081406E+02  0.0000000E+00
Ar 3945  0.4970651E+02  0.4391242E+02  0.3351325E+02  0.0000000E+00
Ar 3946  0.5231345E+02  0.4644455E+02  0.3327971E+02  0.0000000E+00
Ar 3947  0.5243635E+02  0.4430811E+02  0.3630099E+02  0.0000000E+00
Ar 3948  0.4963105E+02  0.4714446E+02  0.3638456E+02  0.0000000E+00
Ar 3949  0.4994358E+02  0.4460557E+02  0.3898139E+02  0.0000000E+00
Ar 3950  0.5263742E+02  0.4705686E+02  0.3922304E+02  0.0000000E+00
Ar 3951  0.5248509E+02  0.4444934E+02  0.4158838E+02  0.0000000E+00
Ar 3952  0.4999398E+02  0.4698885E+02  0.4174414E+02  0.0000000E+00
Ar 3953  0.5001531E+02  0.4399413E+02  0.4399413E+02  0.0000000E+00
Ar 3954  0.5273929E+02  0.4718323E+02  0.4459006E+02  0.0000000E+00
Ar 3955  0.5273929E+02  0.4459006E+02  0.4718322E+02  0.0000000E+00
Ar 3956  0.4987298E+02  0.4670879E+02  0.4670879E+02  0.0000000E+00
Ar 3957  0.4965903E+02  0.4464454E+02  0.4965903E+02  0.0000000E+00
Ar 3958  0.5266936E+02  0.4708199E+02  0.4971756E+02  0.0000000E+00
Ar 3959  0.5249865E+02  0.4438767E+02  0.5249864E+02  0.0000000E+00
Ar 3960  0.4971756E+02  0.4708199E+02  0.5266935E+02  0.0000000E+00
Ar 3961  0.4981903E+02  0.4981904E+02  0.5508768E+02  0.0000000E+00
Ar 3962  0.5263260E+02  0.5263260E+02  0.5529134E+02  0.0000000E+00
Ar 3963  0.5250851E+02  0.4976942E+02  0.2913523E+01  0.0000000E+00
Ar 3964  0.4976940E+02  0.5250853E+02  0.2913536E+01  0.0000000E+00
Ar 3965  0.4970999E+02  0.4970998E+02  0.5901985E+01  0.0000000E+00
Ar 3966  0.5239052E+02  0.5239051E+02  0.5694534E+01  0.0000000E+00
Ar 3967  0.5253158E+02  0.4982963E+02  0.8601563E+01  0.0000000E+00
Ar 3968  0.4982964E+02  0.5253156E+02  0.8601555E+01  0.0000000E+00
Ar 3969  0.4976446E+02  0.4976447E+02  0.1155141E+02  0.0000000E+00
Ar 3970  0.5235968E+02  0.5235966E+02  0.1181077E+02  0.0000000E+00
Ar 3971  0.5269638E+02  0.4945531E+02  0.1442775E+02  0.0000000E+00
Ar 3972  0.4945532E+02  0.5269638E+02  0.1442775E+02  0.0000000E+00
Ar 3973  0.4959922E+02  0.4959923E+02  0.1696279E+02  0.0000000E+00
Ar 3974  0.5236918E+02  0.5236917E+02  0.1680585E+02  0.0000000E+00
Ar 3975  0.5272165E+02  0.4950603E+02  0.1911198E+02  0.0000000E+00
Ar 3976  0.4950602E+02  0.5272164E+02  0.1911196E+02  0.0000000E+00
Ar 3977  0.4988938E+02  0.4988937E+02  0.2245305E+02  0.0000000E+00
Ar 3978  0.5254848E+02  0.5254847E+02  0.2265044E+02  0.0000000E+00
Ar 3979  0.5275303E+02  0.4986109E+02  0.2518976E+02  0.0000000E+00
Ar 3980  0.4986109E+02  0.5275303E+02  0.2518976E+02  0.0000000E+00
Ar 3981  0.4989171E+02  0.4989171E+02  0.2817049E+02  0.0000000E+00
Ar 3982  0.5255422E+02  0.5255423E+02  0.2803594E+02  0.0000000E+00
Ar 3983  0.5235651E+02  0.4959480E+02  0.3071808E+02  0.0000000E+00
Ar 3984  0.4959481E+02  0.5235651E+02  0.3071808E+02  0.0000000E+00
Ar 3985  0.4969021E+02  0.4969020E+02  0.3352217E+02  0.0000000E+00
Ar 3986  0.5222634E+02  0.5222635E+02  0.3445749E+02  0.0000000E+00
Ar 3987  0.5243926E+02  0.4900443E+02  0.3614843E+02  0.0000000E+00
Ar 3988  0.4900442E+02  0.5243926E+02  0.3614844E+02  0.0000000E+00
Ar 3989  0.4992682E+02  0.4992682E+02  0.3897446E+02  0.0000000E+00
Ar 3990  0.5242826E+02  0.5242827E+02  0.3898443E+02  0.0000000E+00
Ar 3991  0.5246914E+02  0.4980828E+02  0.4196630E+02  0.0000000E+00
Ar 3992  0.4980828E+02  0.5246915E+02  0.4196629E+02  0.0000000E+00
Ar 3993  0.4965903E+02  0.4965903E+02  0.4464454E+02  0.0000000E+00
Ar 3994  0.5249864E+02  0.5249864E+02  0.4438767E+02  0.0000000E+00
Ar 3995  0.5266936E+02  0.4971755E+02  0.4708199E+02  0.0000000E+00
Ar 3996  0.4971756E+02  0.5266935E+02  0.4708199E+02  0.0000000E+00
Ar 3997  0.4973252E+02  0.4973252E+02  0.4973252E+02  0.0000000E+00
Ar 3998  0.5244939E+02  0.5244939E+02  0.4957976E+02  0.0000000E+00
Ar 3999  0.5244939E+02  0.4957976E+02  0.5244939E+02  0.0000000E+00
Ar 4000  0.4957976E+02  0.5244939E+02  0.5244939E+02  0.0000000E+00
