        4000
Lattice="  0.5504848E+02  0.1851029E+00  0.1851024E+00  0.1851029E+00  0.5504848E+02  0.1851013E+00  0.1851024E+00  0.1851013E+00  0.5504848E+02" Properties=species:S:1:id:I:1:pos:R:3:tempK:R:1
Ar    1  0.4741319E+00  0.4741227E+00  0.4741259E+00  0.0000000E+00
Ar    2  0.3019841E+01  0.3019834E+01  0.2707347E+00  0.0000000E+00
Ar    3  0.3019844E+01  0.2707451E+00  0.3019837E+01  0.0000000E+00
Ar    4  0.2707446E+00  0.3019838E+01  0.3019837E+01  0.0000000E+00
Ar    5  0.2499418E+00  0.2499462E+00  0.5545444E+01  0.0000000E+00
Ar    6  0.3076261E+01  0.3076259E+01  0.5974516E+01  0.0000000E+00
Ar    7  0.2957741E+01  0.3188345E+00  0.8258767E+01  0.0000000E+00
Ar    8  0.3188398E+00  0.2957743E+01  0.8258766E+01  0.0000000E+00
Ar    9  0.5492189E+02  0.5492189E+02  0.1110748E+02  0.0000000E+00
Ar   10  0.2666446E+01  0.2666450E+01  0.1110219E+02  0.0000000E+00
Ar   11  0.2725530E+01  0.2458514E+00  0.1410083E+02  0.0000000E+00
Ar   12  0.2458531E+00  0.2725523E+01  0.1410083E+02  0.0000000E+00
Ar   13  0.1453841E+00  0.1453852E+00  0.1642831E+02  0.0000000E+00
Ar   14  0.2801806E+01  0.2801802E+01  0.1697616E+02  0.0000000E+00
Ar   15  0.3042053E+01  0.5506098E+02  0.1979179E+02  0.0000000E+00
Ar   16  0.5506098E+02  0.3042063E+01  0.1979180E+02  0.0000000E+00
Ar   17  0.3551984E+00  0.3552162E+00  0.2193973E+02  0.0000000E+00
Ar   18  0.2784339E+01  0.2784338E+01  0.2225904E+02  0.0000000E+00
Ar   19  0.2639410E+01  0.1079872E+00  0.2482634E+02  0.0000000E+00
Ar   20  0.1079979E+00  0.2639398E+01  0.2482633E+02  0.0000000E+00
Ar   21  0.5507032E+02  0.5507031E+02  0.2798938E+02  0.0000000E+00
Ar   22  0.2605147E+01  0.2605138E+01  0.2784865E+02  0.0000000E+00
Ar   23  0.2532999E+01  0.5509060E+02  0.3063278E+02  0.0000000E+00
Ar   24  0.5509061E+02  0.2532999E+01  0.3063277E+02  0.0000000E+00
Ar   25  0.5502188E+02  0.5502187E+02  0.3374035E+02  0.0000000E+00
Ar   26  0.2694237E+01  0.2694246E+01  0.3365397E+02  0.0000000E+00
Ar   27  0.2850304E+01  0.2762290E+00  0.3641182E+02  0.0000000E+00
Ar   28  0.2762332E+00  0.2850300E+01  0.3641181E+02  0.0000000E+00
Ar   29  0.5486505E+02  0.5486506E+02  0.3919916E+02  0.0000000E+00
Ar   30  0.3001498E+01  0.3001498E+01  0.3854356E+02  0.0000000E+00
Ar   31  0.2850217E+01  0.2529641E+00  0.4181282E+02  0.0000000E+00
Ar   32  0.2529745E+00  0.2850216E+01  0.4181281E+02  0.0000000E+00
Ar   33  0.5476083E+02  0.5476083E+02  0.4420730E+02  0.0000000E+00
Ar   34  0.3088943E+01  0.3088932E+01  0.4410459E+02  0.0000000E+00
Ar   35  0.3274273E+01  0.2589601E+00  0.4738707E+02  0.0000000E+00
Ar   36  0.2589459E+00  0.3274279E+01  0.4738708E+02  0.0000000E+00
Ar   37  0.5526516E+02  0.5526515E+02  0.4959428E+02  0.0000000E+00
Ar   38  0.3034544E+01  0.3034539E+01  0.4984930E+02  0.0000000E+00
Ar   39  0.2883337E+01  0.3212175E+00  0.5250325E+02  0.0000000E+00
Ar   40  0.3212273E+00  0.2883328E+01  0.5250325E+02  0.0000000E+00
Ar   41  0.2499402E+00  0.5545445E+01  0.2499494E+00  0.0000000E+00
Ar   42  0.2957752E+01  0.8258772E+01  0.3188417E+00  0.0000000E+00
Ar   43  0.3076265E+01  0.5974518E+01  0.3076261E+01  0.0000000E+00
Ar   44  0.3188464E+00  0.8258761E+01  0.2957742E+01  0.0000000E+00
Ar   45  0.1941437E+00  0.6088890E+01  0.6088891E+01  0.0000000E+00
Ar   46  0.3227163E+01  0.8360263E+01  0.5647992E+01  0.0000000E+00
Ar   47  0.3227146E+01  0.5647991E+01  0.8360264E+01  0.0000000E+00
Ar   48  0.5477896E+02  0.8794085E+01  0.8794087E+01  0.0000000E+00
Ar   49  0.2589351E+00  0.5472949E+01  0.1089429E+02  0.0000000E+00
Ar   50  0.2911673E+01  0.8093024E+01  0.1088998E+02  0.0000000E+00
Ar   51  0.2741540E+01  0.5491536E+01  0.1430232E+02  0.0000000E+00
Ar   52  0.3241538E+00  0.8475024E+01  0.1409028E+02  0.0000000E+00
Ar   53  0.5478378E+02  0.5829822E+01  0.1660850E+02  0.0000000E+00
Ar   54  0.2987102E+01  0.8615580E+01  0.1691449E+02  0.0000000E+00
Ar   55  0.2725725E+01  0.5398872E+01  0.1962983E+02  0.0000000E+00
Ar   56  0.2425250E+00  0.8266153E+01  0.1938136E+02  0.0000000E+00
Ar   57  0.5507785E+02  0.5998012E+01  0.2240479E+02  0.0000000E+00
Ar   58  0.2953469E+01  0.8328636E+01  0.2214305E+02  0.0000000E+00
Ar   59  0.2977569E+01  0.5697589E+01  0.2499275E+02  0.0000000E+00
Ar   60  0.2084545E+00  0.8268189E+01  0.2527837E+02  0.0000000E+00
Ar   61  0.4296213E+00  0.5411236E+01  0.2784819E+02  0.0000000E+00
Ar   62  0.2872526E+01  0.8075200E+01  0.2797353E+02  0.0000000E+00
Ar   63  0.2953382E+01  0.5578620E+01  0.3044301E+02  0.0000000E+00
Ar   64  0.1790279E+00  0.8059472E+01  0.3028818E+02  0.0000000E+00
Ar   65  0.3134919E+00  0.5467991E+01  0.3342924E+02  0.0000000E+00
Ar   66  0.2760881E+01  0.8354163E+01  0.3339433E+02  0.0000000E+00
Ar   67  0.2882374E+01  0.5743219E+01  0.3602778E+02  0.0000000E+00
Ar   68  0.5515495E+02  0.8164730E+01  0.3608721E+02  0.0000000E+00
Ar   69  0.1796758E+00  0.5633254E+01  0.3900019E+02  0.0000000E+00
Ar   70  0.2882326E+01  0.8227687E+01  0.3886151E+02  0.0000000E+00
Ar   71  0.2964408E+01  0.5505022E+01  0.4146910E+02  0.0000000E+00
Ar   72  0.5510375E+02  0.8823384E+01  0.4182515E+02  0.0000000E+00
Ar   73  0.2711189E+00  0.5621613E+01  0.4420715E+02  0.0000000E+00
Ar   74  0.2756537E+01  0.8185038E+01  0.4426631E+02  0.0000000E+00
Ar   75  0.2801387E+01  0.5552768E+01  0.4701347E+02  0.0000000E+00
Ar   76  0.5515829E+02  0.8614955E+01  0.4704974E+02  0.0000000E+00
Ar   77  0.4448102E+00  0.5828363E+01  0.4978765E+02  0.0000000E+00
Ar   78  0.3104929E+01  0.8435033E+01  0.4971484E+02  0.0000000E+00
Ar   79  0.3056853E+01  0.5611733E+01  0.5259151E+02  0.0000000E+00
Ar   80  0.5516483E+02  0.8534523E+01  0.5260497E+02  0.0000000E+00
Ar   81  0.5492192E+02  0.1110747E+02  0.5492191E+02  0.0000000E+00
Ar   82  0.2725662E+01  0.1410101E+02  0.2458573E+00  0.0000000E+00
Ar   83  0.2666443E+01  0.1110223E+02  0.2666417E+01  0.0000000E+00
Ar   84  0.2458625E+00  0.1410083E+02  0.2725505E+01  0.0000000E+00
Ar   85  0.2589282E+00  0.1089429E+02  0.5472947E+01  0.0000000E+00
Ar   86  0.2741545E+01  0.1430232E+02  0.5491535E+01  0.0000000E+00
Ar   87  0.2911667E+01  0.1088999E+02  0.8093024E+01  0.0000000E+00
Ar   88  0.3241512E+00  0.1409028E+02  0.8475023E+01  0.0000000E+00
Ar   89  0.1563800E+00  0.1139343E+02  0.1139342E+02  0.0000000E+00
Ar   90  0.3121011E+01  0.1372731E+02  0.1097201E+02  0.0000000E+00
Ar   91  0.3121013E+01  0.1097201E+02  0.1372730E+02  0.0000000E+00
Ar   92  0.3870136E+00  0.1414034E+02  0.1414034E+02  0.0000000E+00
Ar   93  0.5511782E+02  0.1139405E+02  0.1700135E+02  0.0000000E+00
Ar   94  0.3088556E+01  0.1386551E+02  0.1665833E+02  0.0000000E+00
Ar   95  0.3108847E+01  0.1115367E+02  0.1946430E+02  0.0000000E+00
Ar   96  0.3646745E+00  0.1373880E+02  0.1954492E+02  0.0000000E+00
Ar   97  0.2204179E+00  0.1119382E+02  0.2259626E+02  0.0000000E+00
Ar   98  0.2953235E+01  0.1387858E+02  0.2235521E+02  0.0000000E+00
Ar   99  0.2853886E+01  0.1100046E+02  0.2498410E+02  0.0000000E+00
Ar  100  0.5496088E+02  0.1363850E+02  0.2501715E+02  0.0000000E+00
Ar  101  0.3504429E+00  0.1109696E+02  0.2792652E+02  0.0000000E+00
Ar  102  0.2860074E+01  0.1375074E+02  0.2747350E+02  0.0000000E+00
Ar  103  0.2983694E+01  0.1097607E+02  0.3055115E+02  0.0000000E+00
Ar  104  0.1562799E+00  0.1358019E+02  0.3017839E+02  0.0000000E+00
Ar  105  0.2189520E+00  0.1134948E+02  0.3339113E+02  0.0000000E+00
Ar  106  0.3015442E+01  0.1366582E+02  0.3332690E+02  0.0000000E+00
Ar  107  0.3030842E+01  0.1122379E+02  0.3594859E+02  0.0000000E+00
Ar  108  0.1976352E+00  0.1388746E+02  0.3592036E+02  0.0000000E+00
Ar  109  0.5519412E+02  0.1110650E+02  0.3866124E+02  0.0000000E+00
Ar  110  0.2923464E+01  0.1365175E+02  0.3871034E+02  0.0000000E+00
Ar  111  0.2856258E+01  0.1119062E+02  0.4183509E+02  0.0000000E+00
Ar  112  0.2250659E+00  0.1374907E+02  0.4114573E+02  0.0000000E+00
Ar  113  0.5517651E+02  0.1138778E+02  0.4426242E+02  0.0000000E+00
Ar  114  0.2620336E+01  0.1445996E+02  0.4413218E+02  0.0000000E+00
Ar  115  0.2852564E+01  0.1147516E+02  0.4658274E+02  0.0000000E+00
Ar  116  0.5513737E+02  0.1436518E+02  0.4698930E+02  0.0000000E+00
Ar  117  0.3354538E+00  0.1177361E+02  0.4941110E+02  0.0000000E+00
Ar  118  0.3023640E+01  0.1386560E+02  0.4966717E+02  0.0000000E+00
Ar  119  0.2807810E+01  0.1087742E+02  0.5262207E+02  0.0000000E+00
Ar  120  0.5520141E+02  0.1430513E+02  0.5259787E+02  0.0000000E+00
Ar  121  0.1453592E+00  0.1642832E+02  0.1454034E+00  0.0000000E+00
Ar  122  0.3042308E+01  0.1979180E+02  0.5506110E+02  0.0000000E+00
Ar  123  0.2801943E+01  0.1697619E+02  0.2801685E+01  0.0000000E+00
Ar  124  0.5506098E+02  0.1979180E+02  0.3042039E+01  0.0000000E+00
Ar  125  0.5478378E+02  0.1660850E+02  0.5829823E+01  0.0000000E+00
Ar  126  0.2725728E+01  0.1962982E+02  0.5398864E+01  0.0000000E+00
Ar  127  0.2987103E+01  0.1691449E+02  0.8615575E+01  0.0000000E+00
Ar  128  0.2425262E+00  0.1938136E+02  0.8266146E+01  0.0000000E+00
Ar  129  0.5511782E+02  0.1700135E+02  0.1139405E+02  0.0000000E+00
Ar  130  0.3108846E+01  0.1946430E+02  0.1115366E+02  0.0000000E+00
Ar  131  0.3088559E+01  0.1665833E+02  0.1386552E+02  0.0000000E+00
Ar  132  0.3646734E+00  0.1954493E+02  0.1373879E+02  0.0000000E+00
Ar  133  0.5490505E+02  0.1676117E+02  0.1676117E+02  0.0000000E+00
Ar  134  0.2929329E+01  0.1932437E+02  0.1665320E+02  0.0000000E+00
Ar  135  0.2929331E+01  0.1665320E+02  0.1932437E+02  0.0000000E+00
Ar  136  0.5488221E+02  0.1928235E+02  0.1928235E+02  0.0000000E+00
Ar  137  0.2165332E+00  0.1636334E+02  0.2186465E+02  0.0000000E+00
Ar  138  0.2755011E+01  0.1948599E+02  0.2201420E+02  0.0000000E+00
Ar  139  0.2640653E+01  0.1663340E+02  0.2489038E+02  0.0000000E+00
Ar  140  0.5507209E+02  0.1944927E+02  0.2515726E+02  0.0000000E+00
Ar  141  0.2331185E+00  0.1642281E+02  0.2760461E+02  0.0000000E+00
Ar  142  0.2791024E+01  0.1918098E+02  0.2776352E+02  0.0000000E+00
Ar  143  0.3153349E+01  0.1674771E+02  0.3034870E+02  0.0000000E+00
Ar  144  0.5520767E+02  0.1986198E+02  0.3111988E+02  0.0000000E+00
Ar  145  0.1763480E+00  0.1592043E+02  0.3265421E+02  0.0000000E+00
Ar  146  0.3236606E+01  0.1946822E+02  0.3333480E+02  0.0000000E+00
Ar  147  0.2884546E+01  0.1656824E+02  0.3563776E+02  0.0000000E+00
Ar  148  0.2013984E+00  0.1968920E+02  0.3608819E+02  0.0000000E+00
Ar  149  0.5511769E+02  0.1670431E+02  0.3860596E+02  0.0000000E+00
Ar  150  0.3137889E+01  0.1955412E+02  0.3891137E+02  0.0000000E+00
Ar  151  0.3177989E+01  0.1679891E+02  0.4135110E+02  0.0000000E+00
Ar  152  0.5007813E+00  0.1928768E+02  0.4150087E+02  0.0000000E+00
Ar  153  0.4798697E+00  0.1709751E+02  0.4435496E+02  0.0000000E+00
Ar  154  0.3011614E+01  0.1947227E+02  0.4437081E+02  0.0000000E+00
Ar  155  0.2916173E+01  0.1645127E+02  0.4724769E+02  0.0000000E+00
Ar  156  0.2542194E+00  0.1968768E+02  0.4714401E+02  0.0000000E+00
Ar  157  0.2917255E+00  0.1685110E+02  0.4981133E+02  0.0000000E+00
Ar  158  0.2901791E+01  0.1938017E+02  0.4956970E+02  0.0000000E+00
Ar  159  0.2880401E+01  0.1694823E+02  0.5238183E+02  0.0000000E+00
Ar  160  0.5507077E+02  0.1991499E+02  0.5245671E+02  0.0000000E+00
Ar  161  0.3551910E+00  0.2193983E+02  0.3552755E+00  0.0000000E+00
Ar  162  0.2639399E+01  0.2482629E+02  0.1079124E+00  0.0000000E+00
Ar  163  0.2784301E+01  0.2225905E+02  0.2784352E+01  0.0000000E+00
Ar  164  0.1080242E+00  0.2482633E+02  0.2639390E+01  0.0000000E+00
Ar  165  0.5507784E+02  0.2240478E+02  0.5998003E+01  0.0000000E+00
Ar  166  0.2977530E+01  0.2499275E+02  0.5697622E+01  0.0000000E+00
Ar  167  0.2953458E+01  0.2214305E+02  0.8328631E+01  0.0000000E+00
Ar  168  0.2084451E+00  0.2527836E+02  0.8268191E+01  0.0000000E+00
Ar  169  0.2204127E+00  0.2259626E+02  0.1119382E+02  0.0000000E+00
Ar  170  0.2853883E+01  0.2498410E+02  0.1100046E+02  0.0000000E+00
Ar  171  0.2953234E+01  0.2235522E+02  0.1387857E+02  0.0000000E+00
Ar  172  0.5496088E+02  0.2501716E+02  0.1363850E+02  0.0000000E+00
Ar  173  0.2165358E+00  0.2186465E+02  0.1636334E+02  0.0000000E+00
Ar  174  0.2640655E+01  0.2489037E+02  0.1663340E+02  0.0000000E+00
Ar  175  0.2755004E+01  0.2201419E+02  0.1948600E+02  0.0000000E+00
Ar  176  0.5507209E+02  0.2515726E+02  0.1944926E+02  0.0000000E+00
Ar  177  0.1663452E+00  0.2203679E+02  0.2203679E+02  0.0000000E+00
Ar  178  0.2780995E+01  0.2497898E+02  0.2186051E+02  0.0000000E+00
Ar  179  0.2780999E+01  0.2186051E+02  0.2497898E+02  0.0000000E+00
Ar  180  0.7263113E+00  0.2482790E+02  0.2482790E+02  0.0000000E+00
Ar  181  0.2301165E+00  0.2194651E+02  0.2786328E+02  0.0000000E+00
Ar  182  0.2942984E+01  0.2483506E+02  0.2770136E+02  0.0000000E+00
Ar  183  0.2934744E+01  0.2217006E+02  0.3082352E+02  0.0000000E+00
Ar  184  0.5523196E+02  0.2500611E+02  0.3060904E+02  0.0000000E+00
Ar  185  0.5501669E+02  0.2224854E+02  0.3326773E+02  0.0000000E+00
Ar  186  0.3048671E+01  0.2477247E+02  0.3340314E+02  0.0000000E+00
Ar  187  0.3199332E+01  0.2206595E+02  0.3613657E+02  0.0000000E+00
Ar  188  0.5288994E+00  0.2484513E+02  0.3597227E+02  0.0000000E+00
Ar  189  0.6173001E+00  0.2201494E+02  0.3887526E+02  0.0000000E+00
Ar  190  0.2946849E+01  0.2483947E+02  0.3884023E+02  0.0000000E+00
Ar  191  0.3226744E+01  0.2204288E+02  0.4162600E+02  0.0000000E+00
Ar  192  0.5525006E+02  0.2489269E+02  0.4153842E+02  0.0000000E+00
Ar  193  0.5498460E+02  0.2236204E+02  0.4418769E+02  0.0000000E+00
Ar  194  0.2663946E+01  0.2468105E+02  0.4410581E+02  0.0000000E+00
Ar  195  0.2850538E+01  0.2234229E+02  0.4676418E+02  0.0000000E+00
Ar  196  0.5505355E+02  0.2525923E+02  0.4707562E+02  0.0000000E+00
Ar  197  0.3968591E+00  0.2244003E+02  0.4964605E+02  0.0000000E+00
Ar  198  0.3214638E+01  0.2497473E+02  0.4995035E+02  0.0000000E+00
Ar  199  0.3107796E+01  0.2220784E+02  0.5243025E+02  0.0000000E+00
Ar  200  0.3617538E+00  0.2517169E+02  0.5235098E+02  0.0000000E+00
Ar  201  0.5507005E+02  0.2798943E+02  0.5507028E+02  0.0000000E+00
Ar  202  0.2532506E+01  0.3063298E+02  0.5509015E+02  0.0000000E+00
Ar  203  0.2605191E+01  0.2784862E+02  0.2605135E+01  0.0000000E+00
Ar  204  0.5509233E+02  0.3063230E+02  0.2534747E+01  0.0000000E+00
Ar  205  0.4296487E+00  0.2784817E+02  0.5411248E+01  0.0000000E+00
Ar  206  0.2953382E+01  0.3044301E+02  0.5578617E+01  0.0000000E+00
Ar  207  0.2872514E+01  0.2797353E+02  0.8075216E+01  0.0000000E+00
Ar  208  0.1790284E+00  0.3028818E+02  0.8059468E+01  0.0000000E+00
Ar  209  0.3504453E+00  0.2792651E+02  0.1109696E+02  0.0000000E+00
Ar  210  0.2983694E+01  0.3055115E+02  0.1097607E+02  0.0000000E+00
Ar  211  0.2860073E+01  0.2747350E+02  0.1375074E+02  0.0000000E+00
Ar  212  0.1562792E+00  0.3017839E+02  0.1358019E+02  0.0000000E+00
Ar  213  0.2331198E+00  0.2760461E+02  0.1642280E+02  0.0000000E+00
Ar  214  0.3153345E+01  0.3034870E+02  0.1674771E+02  0.0000000E+00
Ar  215  0.2791021E+01  0.2776351E+02  0.1918098E+02  0.0000000E+00
Ar  216  0.5520767E+02  0.3111988E+02  0.1986198E+02  0.0000000E+00
Ar  217  0.2301194E+00  0.2786329E+02  0.2194651E+02  0.0000000E+00
Ar  218  0.2934744E+01  0.3082353E+02  0.2217005E+02  0.0000000E+00
Ar  219  0.2942983E+01  0.2770137E+02  0.2483506E+02  0.0000000E+00
Ar  220  0.5523196E+02  0.3060904E+02  0.2500611E+02  0.0000000E+00
Ar  221  0.3374140E+00  0.2744083E+02  0.2744083E+02  0.0000000E+00
Ar  222  0.3068910E+01  0.3030740E+02  0.2735955E+02  0.0000000E+00
Ar  223  0.3068907E+01  0.2735954E+02  0.3030740E+02  0.0000000E+00
Ar  224  0.5489763E+02  0.3069075E+02  0.3069075E+02  0.0000000E+00
Ar  225  0.6075052E+00  0.2788629E+02  0.3304624E+02  0.0000000E+00
Ar  226  0.3387336E+01  0.3052806E+02  0.3335493E+02  0.0000000E+00
Ar  227  0.2862429E+01  0.2749350E+02  0.3624188E+02  0.0000000E+00
Ar  228  0.4988849E+00  0.3045195E+02  0.3575467E+02  0.0000000E+00
Ar  229  0.5506045E+02  0.2768836E+02  0.3886572E+02  0.0000000E+00
Ar  230  0.2602427E+01  0.3058559E+02  0.3871752E+02  0.0000000E+00
Ar  231  0.2848411E+01  0.2813743E+02  0.4126360E+02  0.0000000E+00
Ar  232  0.5504332E+02  0.3007641E+02  0.4147893E+02  0.0000000E+00
Ar  233  0.3003923E+00  0.2786418E+02  0.4442579E+02  0.0000000E+00
Ar  234  0.3039101E+01  0.3060733E+02  0.4441607E+02  0.0000000E+00
Ar  235  0.2991352E+01  0.2768890E+02  0.4685236E+02  0.0000000E+00
Ar  236  0.5516384E+02  0.3069258E+02  0.4688837E+02  0.0000000E+00
Ar  237  0.5502679E+02  0.2806333E+02  0.4961674E+02  0.0000000E+00
Ar  238  0.2996326E+01  0.3072084E+02  0.4932343E+02  0.0000000E+00
Ar  239  0.2833812E+01  0.2809666E+02  0.5249990E+02  0.0000000E+00
Ar  240  0.5500863E+02  0.3116469E+02  0.5254276E+02  0.0000000E+00
Ar  241  0.5502383E+02  0.3374188E+02  0.5502106E+02  0.0000000E+00
Ar  242  0.2850318E+01  0.3641183E+02  0.2762257E+00  0.0000000E+00
Ar  243  0.2694217E+01  0.3365396E+02  0.2694250E+01  0.0000000E+00
Ar  244  0.2762384E+00  0.3641181E+02  0.2850305E+01  0.0000000E+00
Ar  245  0.3134792E+00  0.3342921E+02  0.5467962E+01  0.0000000E+00
Ar  246  0.2882367E+01  0.3602778E+02  0.5743226E+01  0.0000000E+00
Ar  247  0.2760877E+01  0.3339433E+02  0.8354155E+01  0.0000000E+00
Ar  248  0.5515495E+02  0.3608724E+02  0.8164760E+01  0.0000000E+00
Ar  249  0.2189521E+00  0.3339113E+02  0.1134948E+02  0.0000000E+00
Ar  250  0.3030827E+01  0.3594862E+02  0.1122380E+02  0.0000000E+00
Ar  251  0.3015439E+01  0.3332690E+02  0.1366581E+02  0.0000000E+00
Ar  252  0.1975563E+00  0.3592043E+02  0.1388750E+02  0.0000000E+00
Ar  253  0.1763517E+00  0.3265422E+02  0.1592043E+02  0.0000000E+00
Ar  254  0.2884547E+01  0.3563777E+02  0.1656823E+02  0.0000000E+00
Ar  255  0.3236608E+01  0.3333480E+02  0.1946821E+02  0.0000000E+00
Ar  256  0.2013961E+00  0.3608819E+02  0.1968919E+02  0.0000000E+00
Ar  257  0.5501669E+02  0.3326774E+02  0.2224854E+02  0.0000000E+00
Ar  258  0.3199333E+01  0.3613656E+02  0.2206594E+02  0.0000000E+00
Ar  259  0.3048671E+01  0.3340314E+02  0.2477247E+02  0.0000000E+00
Ar  260  0.5288975E+00  0.3597227E+02  0.2484513E+02  0.0000000E+00
Ar  261  0.6075084E+00  0.3304624E+02  0.2788629E+02  0.0000000E+00
Ar  262  0.2862434E+01  0.3624188E+02  0.2749351E+02  0.0000000E+00
Ar  263  0.3387337E+01  0.3335493E+02  0.3052806E+02  0.0000000E+00
Ar  264  0.4988847E+00  0.3575467E+02  0.3045195E+02  0.0000000E+00
Ar  265  0.4539351E+00  0.3362034E+02  0.3362034E+02  0.0000000E+00
Ar  266  0.2915435E+01  0.3605423E+02  0.3329445E+02  0.0000000E+00
Ar  267  0.2915435E+01  0.3329445E+02  0.3605423E+02  0.0000000E+00
Ar  268  0.5526080E+02  0.3647105E+02  0.3647106E+02  0.0000000E+00
Ar  269  0.5527319E+02  0.3337790E+02  0.3885064E+02  0.0000000E+00
Ar  270  0.3000880E+01  0.3611754E+02  0.3895302E+02  0.0000000E+00
Ar  271  0.2740602E+01  0.3325633E+02  0.4137555E+02  0.0000000E+00
Ar  272  0.5513927E+02  0.3607177E+02  0.4153083E+02  0.0000000E+00
Ar  273  0.5312273E+00  0.3391672E+02  0.4445655E+02  0.0000000E+00
Ar  274  0.3405830E+01  0.3630623E+02  0.4381428E+02  0.0000000E+00
Ar  275  0.3195333E+01  0.3366012E+02  0.4670344E+02  0.0000000E+00
Ar  276  0.3747496E+00  0.3614300E+02  0.4671454E+02  0.0000000E+00
Ar  277  0.5511963E+02  0.3383892E+02  0.4975450E+02  0.0000000E+00
Ar  278  0.2982029E+01  0.3607213E+02  0.4977473E+02  0.0000000E+00
Ar  279  0.2621288E+01  0.3362011E+02  0.5242181E+02  0.0000000E+00
Ar  280  0.5533268E+02  0.3682595E+02  0.5260845E+02  0.0000000E+00
Ar  281  0.5486505E+02  0.3919916E+02  0.5486506E+02  0.0000000E+00
Ar  282  0.2850220E+01  0.4181282E+02  0.2529696E+00  0.0000000E+00
Ar  283  0.3001498E+01  0.3854356E+02  0.3001495E+01  0.0000000E+00
Ar  284  0.2529740E+00  0.4181281E+02  0.2850212E+01  0.0000000E+00
Ar  285  0.1796784E+00  0.3900019E+02  0.5633243E+01  0.0000000E+00
Ar  286  0.2964406E+01  0.4146911E+02  0.5505023E+01  0.0000000E+00
Ar  287  0.2882294E+01  0.3886153E+02  0.8227717E+01  0.0000000E+00
Ar  288  0.5510374E+02  0.4182516E+02  0.8823391E+01  0.0000000E+00
Ar  289  0.5519410E+02  0.3866196E+02  0.1110719E+02  0.0000000E+00
Ar  290  0.2856219E+01  0.4183515E+02  0.1119072E+02  0.0000000E+00
Ar  291  0.2923236E+01  0.3871049E+02  0.1365178E+02  0.0000000E+00
Ar  292  0.2249160E+00  0.4114523E+02  0.1374846E+02  0.0000000E+00
Ar  293  0.5511786E+02  0.3860605E+02  0.1670444E+02  0.0000000E+00
Ar  294  0.3178867E+01  0.4135074E+02  0.1679918E+02  0.0000000E+00
Ar  295  0.3137884E+01  0.3891136E+02  0.1955418E+02  0.0000000E+00
Ar  296  0.5009959E+00  0.4150127E+02  0.1928750E+02  0.0000000E+00
Ar  297  0.6172931E+00  0.3887526E+02  0.2201494E+02  0.0000000E+00
Ar  298  0.3226788E+01  0.4162603E+02  0.2204289E+02  0.0000000E+00
Ar  299  0.2946852E+01  0.3884022E+02  0.2483947E+02  0.0000000E+00
Ar  300  0.5525008E+02  0.4153842E+02  0.2489269E+02  0.0000000E+00
Ar  301  0.5506044E+02  0.3886573E+02  0.2768837E+02  0.0000000E+00
Ar  302  0.2848413E+01  0.4126360E+02  0.2813743E+02  0.0000000E+00
Ar  303  0.2602431E+01  0.3871752E+02  0.3058559E+02  0.0000000E+00
Ar  304  0.5504333E+02  0.4147893E+02  0.3007641E+02  0.0000000E+00
Ar  305  0.5527319E+02  0.3885063E+02  0.3337790E+02  0.0000000E+00
Ar  306  0.2740602E+01  0.4137554E+02  0.3325633E+02  0.0000000E+00
Ar  307  0.3000881E+01  0.3895302E+02  0.3611754E+02  0.0000000E+00
Ar  308  0.5513927E+02  0.4153083E+02  0.3607178E+02  0.0000000E+00
Ar  309  0.5545195E+00  0.3882305E+02  0.3882304E+02  0.0000000E+00
Ar  310  0.3025873E+01  0.4191728E+02  0.3922814E+02  0.0000000E+00
Ar  311  0.3025875E+01  0.3922814E+02  0.4191728E+02  0.0000000E+00
Ar  312  0.2861460E+00  0.4139243E+02  0.4139243E+02  0.0000000E+00
Ar  313  0.5509279E+02  0.3890767E+02  0.4439101E+02  0.0000000E+00
Ar  314  0.2966404E+01  0.4170409E+02  0.4435484E+02  0.0000000E+00
Ar  315  0.3153958E+01  0.3880412E+02  0.4681313E+02  0.0000000E+00
Ar  316  0.3421373E+00  0.4176698E+02  0.4690511E+02  0.0000000E+00
Ar  317  0.3875869E+00  0.3885970E+02  0.4941649E+02  0.0000000E+00
Ar  318  0.3164547E+01  0.4134072E+02  0.4965400E+02  0.0000000E+00
Ar  319  0.3325901E+01  0.3916059E+02  0.5247020E+02  0.0000000E+00
Ar  320  0.5535254E+02  0.4115870E+02  0.5201922E+02  0.0000000E+00
Ar  321  0.5476083E+02  0.4420731E+02  0.5476084E+02  0.0000000E+00
Ar  322  0.3274268E+01  0.4738708E+02  0.2589613E+00  0.0000000E+00
Ar  323  0.3088944E+01  0.4410458E+02  0.3088942E+01  0.0000000E+00
Ar  324  0.2589502E+00  0.4738708E+02  0.3274275E+01  0.0000000E+00
Ar  325  0.2711208E+00  0.4420716E+02  0.5621606E+01  0.0000000E+00
Ar  326  0.2801392E+01  0.4701347E+02  0.5552773E+01  0.0000000E+00
Ar  327  0.2756536E+01  0.4426630E+02  0.8185050E+01  0.0000000E+00
Ar  328  0.5515829E+02  0.4704974E+02  0.8614950E+01  0.0000000E+00
Ar  329  0.5517646E+02  0.4426231E+02  0.1138790E+02  0.0000000E+00
Ar  330  0.2852528E+01  0.4658270E+02  0.1147516E+02  0.0000000E+00
Ar  331  0.2620472E+01  0.4413197E+02  0.1446002E+02  0.0000000E+00
Ar  332  0.5513738E+02  0.4698930E+02  0.1436520E+02  0.0000000E+00
Ar  333  0.4796252E+00  0.4435510E+02  0.1709763E+02  0.0000000E+00
Ar  334  0.2916056E+01  0.4724748E+02  0.1645121E+02  0.0000000E+00
Ar  335  0.3010987E+01  0.4437052E+02  0.1947156E+02  0.0000000E+00
Ar  336  0.2541374E+00  0.4714311E+02  0.1968672E+02  0.0000000E+00
Ar  337  0.5498456E+02  0.4418774E+02  0.2236204E+02  0.0000000E+00
Ar  338  0.2850202E+01  0.4676431E+02  0.2234199E+02  0.0000000E+00
Ar  339  0.2663926E+01  0.4410588E+02  0.2468102E+02  0.0000000E+00
Ar  340  0.5505352E+02  0.4707543E+02  0.2525903E+02  0.0000000E+00
Ar  341  0.3004052E+00  0.4442583E+02  0.2786421E+02  0.0000000E+00
Ar  342  0.2991345E+01  0.4685237E+02  0.2768887E+02  0.0000000E+00
Ar  343  0.3039104E+01  0.4441609E+02  0.3060731E+02  0.0000000E+00
Ar  344  0.5516383E+02  0.4688835E+02  0.3069258E+02  0.0000000E+00
Ar  345  0.5312326E+00  0.4445655E+02  0.3391672E+02  0.0000000E+00
Ar  346  0.3195334E+01  0.4670345E+02  0.3366013E+02  0.0000000E+00
Ar  347  0.3405826E+01  0.4381428E+02  0.3630623E+02  0.0000000E+00
Ar  348  0.3747491E+00  0.4671454E+02  0.3614300E+02  0.0000000E+00
Ar  349  0.5509279E+02  0.4439101E+02  0.3890767E+02  0.0000000E+00
Ar  350  0.3153958E+01  0.4681314E+02  0.3880412E+02  0.0000000E+00
Ar  351  0.2966403E+01  0.4435484E+02  0.4170409E+02  0.0000000E+00
Ar  352  0.3421367E+00  0.4690510E+02  0.4176698E+02  0.0000000E+00
Ar  353  0.5531509E+02  0.4431232E+02  0.4431232E+02  0.0000000E+00
Ar  354  0.2990427E+01  0.4701495E+02  0.4430575E+02  0.0000000E+00
Ar  355  0.2990430E+01  0.4430575E+02  0.4701495E+02  0.0000000E+00
Ar  356  0.4916052E+00  0.4696579E+02  0.4696579E+02  0.0000000E+00
Ar  357  0.4367156E+00  0.4428468E+02  0.4999147E+02  0.0000000E+00
Ar  358  0.3150931E+01  0.4714456E+02  0.4989474E+02  0.0000000E+00
Ar  359  0.3051959E+01  0.4428755E+02  0.5253011E+02  0.0000000E+00
Ar  360  0.3743791E+00  0.4697030E+02  0.5226791E+02  0.0000000E+00
Ar  361  0.5526516E+02  0.4959428E+02  0.5526515E+02  0.0000000E+00
Ar  362  0.2883340E+01  0.5250325E+02  0.3212202E+00  0.0000000E+00
Ar  363  0.3034549E+01  0.4984929E+02  0.3034549E+01  0.0000000E+00
Ar  364  0.3212277E+00  0.5250325E+02  0.2883322E+01  0.0000000E+00
Ar  365  0.4448182E+00  0.4978767E+02  0.5828366E+01  0.0000000E+00
Ar  366  0.3056849E+01  0.5259152E+02  0.5611733E+01  0.0000000E+00
Ar  367  0.3104927E+01  0.4971484E+02  0.8435013E+01  0.0000000E+00
Ar  368  0.5516485E+02  0.5260498E+02  0.8534520E+01  0.0000000E+00
Ar  369  0.3354814E+00  0.4941109E+02  0.1177363E+02  0.0000000E+00
Ar  370  0.2807807E+01  0.5262204E+02  0.1087744E+02  0.0000000E+00
Ar  371  0.3023679E+01  0.4966715E+02  0.1386560E+02  0.0000000E+00
Ar  372  0.5520139E+02  0.5259786E+02  0.1430513E+02  0.0000000E+00
Ar  373  0.2917782E+00  0.4981132E+02  0.1685101E+02  0.0000000E+00
Ar  374  0.2880405E+01  0.5238180E+02  0.1694826E+02  0.0000000E+00
Ar  375  0.2901496E+01  0.4956947E+02  0.1938033E+02  0.0000000E+00
Ar  376  0.5507082E+02  0.5245655E+02  0.1991513E+02  0.0000000E+00
Ar  377  0.3967140E+00  0.4964587E+02  0.2243993E+02  0.0000000E+00
Ar  378  0.3107976E+01  0.5243032E+02  0.2220781E+02  0.0000000E+00
Ar  379  0.3214628E+01  0.4995031E+02  0.2497476E+02  0.0000000E+00
Ar  380  0.3615592E+00  0.5235101E+02  0.2517176E+02  0.0000000E+00
Ar  381  0.5502678E+02  0.4961351E+02  0.2806033E+02  0.0000000E+00
Ar  382  0.2833978E+01  0.5249975E+02  0.2809647E+02  0.0000000E+00
Ar  383  0.2996304E+01  0.4932329E+02  0.3072077E+02  0.0000000E+00
Ar  384  0.5500712E+02  0.5254595E+02  0.3116745E+02  0.0000000E+00
Ar  385  0.5511964E+02  0.4975449E+02  0.3383894E+02  0.0000000E+00
Ar  386  0.2621987E+01  0.5242168E+02  0.3362073E+02  0.0000000E+00
Ar  387  0.2982035E+01  0.4977473E+02  0.3607214E+02  0.0000000E+00
Ar  388  0.5533268E+02  0.5260846E+02  0.3682594E+02  0.0000000E+00
Ar  389  0.3875889E+00  0.4941649E+02  0.3885971E+02  0.0000000E+00
Ar  390  0.3325905E+01  0.5247020E+02  0.3916060E+02  0.0000000E+00
Ar  391  0.3164550E+01  0.4965400E+02  0.4134073E+02  0.0000000E+00
Ar  392  0.5535253E+02  0.5201922E+02  0.4115870E+02  0.0000000E+00
Ar  393  0.4367181E+00  0.4999148E+02  0.4428468E+02  0.0000000E+00
Ar  394  0.3051959E+01  0.5253011E+02  0.4428755E+02  0.0000000E+00
Ar  395  0.3150934E+01  0.4989474E+02  0.4714456E+02  0.0000000E+00
Ar  396  0.3743802E+00  0.5226790E+02  0.4697029E+02  0.0000000E+00
Ar  397  0.5512208E+02  0.4981030E+02  0.4981030E+02  0.0000000E+00
Ar  398  0.2909889E+01  0.5260516E+02  0.4981559E+02  0.0000000E+00
Ar  399  0.2909891E+01  0.4981560E+02  0.5260516E+02  0.0000000E+00
Ar  400  0.4081463E+00  0.5279447E+02  0.5279446E+02  0.0000000E+00
Ar  401  0.5545452E+01  0.2499415E+00  0.2499408E+00  0.0000000E+00
Ar  402  0.8258770E+01  0.2957749E+01  0.3188502E+00  0.0000000E+00
Ar  403  0.8258762E+01  0.3188422E+00  0.2957749E+01  0.0000000E+00
Ar  404  0.5974509E+01  0.3076261E+01  0.3076266E+01  0.0000000E+00
Ar  405  0.6088901E+01  0.1941439E+00  0.6088905E+01  0.0000000E+00
Ar  406  0.8360270E+01  0.3227140E+01  0.5647991E+01  0.0000000E+00
Ar  407  0.8794072E+01  0.5477897E+02  0.8794085E+01  0.0000000E+00
Ar  408  0.5647984E+01  0.3227142E+01  0.8360271E+01  0.0000000E+00
Ar  409  0.5472942E+01  0.2589307E+00  0.1089429E+02  0.0000000E+00
Ar  410  0.8093008E+01  0.2911677E+01  0.1089000E+02  0.0000000E+00
Ar  411  0.8475019E+01  0.3241637E+00  0.1409027E+02  0.0000000E+00
Ar  412  0.5491536E+01  0.2741541E+01  0.1430231E+02  0.0000000E+00
Ar  413  0.5829825E+01  0.5478378E+02  0.1660850E+02  0.0000000E+00
Ar  414  0.8615585E+01  0.2987095E+01  0.1691449E+02  0.0000000E+00
Ar  415  0.8266154E+01  0.2425286E+00  0.1938136E+02  0.0000000E+00
Ar  416  0.5398860E+01  0.2725718E+01  0.1962984E+02  0.0000000E+00
Ar  417  0.5998013E+01  0.5507784E+02  0.2240480E+02  0.0000000E+00
Ar  418  0.8328640E+01  0.2953461E+01  0.2214305E+02  0.0000000E+00
Ar  419  0.8268192E+01  0.2084483E+00  0.2527837E+02  0.0000000E+00
Ar  420  0.5697597E+01  0.2977573E+01  0.2499275E+02  0.0000000E+00
Ar  421  0.5411234E+01  0.4296201E+00  0.2784819E+02  0.0000000E+00
Ar  422  0.8075204E+01  0.2872518E+01  0.2797354E+02  0.0000000E+00
Ar  423  0.8059472E+01  0.1790282E+00  0.3028818E+02  0.0000000E+00
Ar  424  0.5578616E+01  0.2953384E+01  0.3044301E+02  0.0000000E+00
Ar  425  0.5467981E+01  0.3135004E+00  0.3342924E+02  0.0000000E+00
Ar  426  0.8354165E+01  0.2760887E+01  0.3339433E+02  0.0000000E+00
Ar  427  0.8164734E+01  0.5515495E+02  0.3608720E+02  0.0000000E+00
Ar  428  0.5743224E+01  0.2882371E+01  0.3602777E+02  0.0000000E+00
Ar  429  0.5633261E+01  0.1796644E+00  0.3900020E+02  0.0000000E+00
Ar  430  0.8227693E+01  0.2882304E+01  0.3886151E+02  0.0000000E+00
Ar  431  0.8823367E+01  0.5510374E+02  0.4182514E+02  0.0000000E+00
Ar  432  0.5505016E+01  0.2964400E+01  0.4146910E+02  0.0000000E+00
Ar  433  0.5621615E+01  0.2711196E+00  0.4420715E+02  0.0000000E+00
Ar  434  0.8185039E+01  0.2756538E+01  0.4426630E+02  0.0000000E+00
Ar  435  0.8614936E+01  0.5515829E+02  0.4704972E+02  0.0000000E+00
Ar  436  0.5552772E+01  0.2801392E+01  0.4701348E+02  0.0000000E+00
Ar  437  0.5828388E+01  0.4448024E+00  0.4978766E+02  0.0000000E+00
Ar  438  0.8435005E+01  0.3104927E+01  0.4971483E+02  0.0000000E+00
Ar  439  0.8534533E+01  0.5516483E+02  0.5260496E+02  0.0000000E+00
Ar  440  0.5611738E+01  0.3056849E+01  0.5259151E+02  0.0000000E+00
Ar  441  0.6088894E+01  0.6088897E+01  0.1941390E+00  0.0000000E+00
Ar  442  0.8794071E+01  0.8794081E+01  0.5477898E+02  0.0000000E+00
Ar  443  0.8360275E+01  0.5647984E+01  0.3227142E+01  0.0000000E+00
Ar  444  0.5647997E+01  0.8360257E+01  0.3227140E+01  0.0000000E+00
Ar  445  0.5655426E+01  0.5655427E+01  0.5655426E+01  0.0000000E+00
Ar  446  0.8300380E+01  0.8300379E+01  0.5706266E+01  0.0000000E+00
Ar  447  0.8300380E+01  0.5706261E+01  0.8300380E+01  0.0000000E+00
Ar  448  0.5706258E+01  0.8300379E+01  0.8300392E+01  0.0000000E+00
Ar  449  0.5510410E+01  0.5510418E+01  0.1172134E+02  0.0000000E+00
Ar  450  0.8137345E+01  0.8137346E+01  0.1174628E+02  0.0000000E+00
Ar  451  0.8188855E+01  0.5415130E+01  0.1428054E+02  0.0000000E+00
Ar  452  0.5415125E+01  0.8188863E+01  0.1428054E+02  0.0000000E+00
Ar  453  0.5404469E+01  0.5404463E+01  0.1733417E+02  0.0000000E+00
Ar  454  0.7860150E+01  0.7860146E+01  0.1703867E+02  0.0000000E+00
Ar  455  0.8130761E+01  0.5529040E+01  0.1966635E+02  0.0000000E+00
Ar  456  0.5529047E+01  0.8130755E+01  0.1966636E+02  0.0000000E+00
Ar  457  0.5500492E+01  0.5500492E+01  0.2198620E+02  0.0000000E+00
Ar  458  0.8241062E+01  0.8241062E+01  0.2232004E+02  0.0000000E+00
Ar  459  0.8341070E+01  0.5642192E+01  0.2476144E+02  0.0000000E+00
Ar  460  0.5642188E+01  0.8341077E+01  0.2476144E+02  0.0000000E+00
Ar  461  0.5579943E+01  0.5579942E+01  0.2777207E+02  0.0000000E+00
Ar  462  0.8025444E+01  0.8025441E+01  0.2795015E+02  0.0000000E+00
Ar  463  0.8049588E+01  0.5630443E+01  0.3073142E+02  0.0000000E+00
Ar  464  0.5630437E+01  0.8049598E+01  0.3073143E+02  0.0000000E+00
Ar  465  0.5516571E+01  0.5516566E+01  0.3342764E+02  0.0000000E+00
Ar  466  0.8363242E+01  0.8363244E+01  0.3327952E+02  0.0000000E+00
Ar  467  0.8342360E+01  0.5807400E+01  0.3609753E+02  0.0000000E+00
Ar  468  0.5807398E+01  0.8342362E+01  0.3609753E+02  0.0000000E+00
Ar  469  0.5543880E+01  0.5543877E+01  0.3884119E+02  0.0000000E+00
Ar  470  0.8158959E+01  0.8158973E+01  0.3908662E+02  0.0000000E+00
Ar  471  0.8286908E+01  0.5520245E+01  0.4158115E+02  0.0000000E+00
Ar  472  0.5520247E+01  0.8286904E+01  0.4158117E+02  0.0000000E+00
Ar  473  0.5810192E+01  0.5810181E+01  0.4431481E+02  0.0000000E+00
Ar  474  0.8347407E+01  0.8347408E+01  0.4391717E+02  0.0000000E+00
Ar  475  0.8374742E+01  0.5585782E+01  0.4677641E+02  0.0000000E+00
Ar  476  0.5585785E+01  0.8374730E+01  0.4677641E+02  0.0000000E+00
Ar  477  0.5853426E+01  0.5853429E+01  0.4945856E+02  0.0000000E+00
Ar  478  0.8413915E+01  0.8413920E+01  0.4937322E+02  0.0000000E+00
Ar  479  0.8385504E+01  0.5761424E+01  0.5231382E+02  0.0000000E+00
Ar  480  0.5761427E+01  0.8385501E+01  0.5231383E+02  0.0000000E+00
Ar  481  0.5472949E+01  0.1089430E+02  0.2589306E+00  0.0000000E+00
Ar  482  0.8475047E+01  0.1409028E+02  0.3241589E+00  0.0000000E+00
Ar  483  0.8093009E+01  0.1089000E+02  0.2911678E+01  0.0000000E+00
Ar  484  0.5491600E+01  0.1430245E+02  0.2741451E+01  0.0000000E+00
Ar  485  0.5510410E+01  0.1172137E+02  0.5510386E+01  0.0000000E+00
Ar  486  0.8188848E+01  0.1428053E+02  0.5415135E+01  0.0000000E+00
Ar  487  0.8137339E+01  0.1174627E+02  0.8137343E+01  0.0000000E+00
Ar  488  0.5415121E+01  0.1428054E+02  0.8188863E+01  0.0000000E+00
Ar  489  0.5390876E+01  0.1083424E+02  0.1083423E+02  0.0000000E+00
Ar  490  0.8033955E+01  0.1401324E+02  0.1118249E+02  0.0000000E+00
Ar  491  0.8033956E+01  0.1118249E+02  0.1401325E+02  0.0000000E+00
Ar  492  0.5689245E+01  0.1393479E+02  0.1393479E+02  0.0000000E+00
Ar  493  0.5698669E+01  0.1115428E+02  0.1701286E+02  0.0000000E+00
Ar  494  0.8112023E+01  0.1398724E+02  0.1688237E+02  0.0000000E+00
Ar  495  0.8109679E+01  0.1094233E+02  0.1974681E+02  0.0000000E+00
Ar  496  0.5756293E+01  0.1394018E+02  0.1956187E+02  0.0000000E+00
Ar  497  0.5423072E+01  0.1134649E+02  0.2218656E+02  0.0000000E+00
Ar  498  0.8466172E+01  0.1388214E+02  0.2222508E+02  0.0000000E+00
Ar  499  0.8484907E+01  0.1119225E+02  0.2470116E+02  0.0000000E+00
Ar  500  0.5756920E+01  0.1378719E+02  0.2486712E+02  0.0000000E+00
Ar  501  0.5718793E+01  0.1107216E+02  0.2739003E+02  0.0000000E+00
Ar  502  0.8494250E+01  0.1357898E+02  0.2779450E+02  0.0000000E+00
Ar  503  0.8097690E+01  0.1104254E+02  0.3058651E+02  0.0000000E+00
Ar  504  0.5535152E+01  0.1377741E+02  0.3019579E+02  0.0000000E+00
Ar  505  0.5524915E+01  0.1078748E+02  0.3336411E+02  0.0000000E+00
Ar  506  0.8164891E+01  0.1363060E+02  0.3304428E+02  0.0000000E+00
Ar  507  0.8268131E+01  0.1103607E+02  0.3585951E+02  0.0000000E+00
Ar  508  0.5463237E+01  0.1376390E+02  0.3590529E+02  0.0000000E+00
Ar  509  0.5535761E+01  0.1095677E+02  0.3858115E+02  0.0000000E+00
Ar  510  0.8325959E+01  0.1348446E+02  0.3833808E+02  0.0000000E+00
Ar  511  0.8307360E+01  0.1106235E+02  0.4147240E+02  0.0000000E+00
Ar  512  0.5930628E+01  0.1373698E+02  0.4137188E+02  0.0000000E+00
Ar  513  0.5780985E+01  0.1129595E+02  0.4415272E+02  0.0000000E+00
Ar  514  0.8428709E+01  0.1395662E+02  0.4454947E+02  0.0000000E+00
Ar  515  0.8337361E+01  0.1105149E+02  0.4672772E+02  0.0000000E+00
Ar  516  0.5663521E+01  0.1376465E+02  0.4698006E+02  0.0000000E+00
Ar  517  0.5665818E+01  0.1112113E+02  0.4937078E+02  0.0000000E+00
Ar  518  0.8261388E+01  0.1379848E+02  0.4953296E+02  0.0000000E+00
Ar  519  0.8496265E+01  0.1122218E+02  0.5207565E+02  0.0000000E+00
Ar  520  0.5497700E+01  0.1368313E+02  0.5253242E+02  0.0000000E+00
Ar  521  0.5829061E+01  0.1660743E+02  0.5478299E+02  0.0000000E+00
Ar  522  0.8265818E+01  0.1938114E+02  0.2425891E+00  0.0000000E+00
Ar  523  0.8615759E+01  0.1691455E+02  0.2987246E+01  0.0000000E+00
Ar  524  0.5398791E+01  0.1963022E+02  0.2726236E+01  0.0000000E+00
Ar  525  0.5404471E+01  0.1733412E+02  0.5404524E+01  0.0000000E+00
Ar  526  0.8130737E+01  0.1966635E+02  0.5529106E+01  0.0000000E+00
Ar  527  0.7860146E+01  0.1703865E+02  0.7860150E+01  0.0000000E+00
Ar  528  0.5529045E+01  0.1966637E+02  0.8130742E+01  0.0000000E+00
Ar  529  0.5698670E+01  0.1701286E+02  0.1115427E+02  0.0000000E+00
Ar  530  0.8109677E+01  0.1974680E+02  0.1094232E+02  0.0000000E+00
Ar  531  0.8112022E+01  0.1688238E+02  0.1398723E+02  0.0000000E+00
Ar  532  0.5756293E+01  0.1956187E+02  0.1394018E+02  0.0000000E+00
Ar  533  0.5701124E+01  0.1686450E+02  0.1686450E+02  0.0000000E+00
Ar  534  0.8231870E+01  0.1934730E+02  0.1684771E+02  0.0000000E+00
Ar  535  0.8231868E+01  0.1684771E+02  0.1934731E+02  0.0000000E+00
Ar  536  0.5976267E+01  0.1970972E+02  0.1970972E+02  0.0000000E+00
Ar  537  0.5782389E+01  0.1687926E+02  0.2211819E+02  0.0000000E+00
Ar  538  0.8522732E+01  0.1935864E+02  0.2227093E+02  0.0000000E+00
Ar  539  0.8432455E+01  0.1638088E+02  0.2508656E+02  0.0000000E+00
Ar  540  0.5571641E+01  0.1926322E+02  0.2483594E+02  0.0000000E+00
Ar  541  0.5574983E+01  0.1645099E+02  0.2749783E+02  0.0000000E+00
Ar  542  0.8104273E+01  0.1894166E+02  0.2770717E+02  0.0000000E+00
Ar  543  0.8373089E+01  0.1630154E+02  0.3039703E+02  0.0000000E+00
Ar  544  0.5959732E+01  0.1923193E+02  0.3043893E+02  0.0000000E+00
Ar  545  0.5611001E+01  0.1638275E+02  0.3306443E+02  0.0000000E+00
Ar  546  0.8278295E+01  0.1958260E+02  0.3303448E+02  0.0000000E+00
Ar  547  0.8245349E+01  0.1631340E+02  0.3579980E+02  0.0000000E+00
Ar  548  0.5818903E+01  0.1915918E+02  0.3614866E+02  0.0000000E+00
Ar  549  0.5832983E+01  0.1656749E+02  0.3872008E+02  0.0000000E+00
Ar  550  0.8337431E+01  0.1965136E+02  0.3880754E+02  0.0000000E+00
Ar  551  0.8259384E+01  0.1668897E+02  0.4148874E+02  0.0000000E+00
Ar  552  0.5622271E+01  0.1938663E+02  0.4170161E+02  0.0000000E+00
Ar  553  0.5880611E+01  0.1678507E+02  0.4440556E+02  0.0000000E+00
Ar  554  0.8514029E+01  0.1922750E+02  0.4416758E+02  0.0000000E+00
Ar  555  0.8395474E+01  0.1668896E+02  0.4703560E+02  0.0000000E+00
Ar  556  0.5732448E+01  0.1922440E+02  0.4718401E+02  0.0000000E+00
Ar  557  0.5724184E+01  0.1654793E+02  0.4973062E+02  0.0000000E+00
Ar  558  0.8477061E+01  0.1939370E+02  0.4996771E+02  0.0000000E+00
Ar  559  0.8587080E+01  0.1651273E+02  0.5246341E+02  0.0000000E+00
Ar  560  0.5661575E+01  0.1943088E+02  0.5240841E+02  0.0000000E+00
Ar  561  0.5997933E+01  0.2240481E+02  0.5507782E+02  0.0000000E+00
Ar  562  0.8268265E+01  0.2527841E+02  0.2084571E+00  0.0000000E+00
Ar  563  0.8328773E+01  0.2214309E+02  0.2953553E+01  0.0000000E+00
Ar  564  0.5697701E+01  0.2499279E+02  0.2977643E+01  0.0000000E+00
Ar  565  0.5500498E+01  0.2198636E+02  0.5500655E+01  0.0000000E+00
Ar  566  0.8341093E+01  0.2476144E+02  0.5642207E+01  0.0000000E+00
Ar  567  0.8241065E+01  0.2232004E+02  0.8241063E+01  0.0000000E+00
Ar  568  0.5642184E+01  0.2476144E+02  0.8341068E+01  0.0000000E+00
Ar  569  0.5423069E+01  0.2218656E+02  0.1134648E+02  0.0000000E+00
Ar  570  0.8484904E+01  0.2470117E+02  0.1119224E+02  0.0000000E+00
Ar  571  0.8466167E+01  0.2222508E+02  0.1388214E+02  0.0000000E+00
Ar  572  0.5756919E+01  0.2486712E+02  0.1378719E+02  0.0000000E+00
Ar  573  0.5782391E+01  0.2211819E+02  0.1687926E+02  0.0000000E+00
Ar  574  0.8432456E+01  0.2508657E+02  0.1638088E+02  0.0000000E+00
Ar  575  0.8522731E+01  0.2227093E+02  0.1935864E+02  0.0000000E+00
Ar  576  0.5571645E+01  0.2483594E+02  0.1926322E+02  0.0000000E+00
Ar  577  0.5313412E+01  0.2230789E+02  0.2230789E+02  0.0000000E+00
Ar  578  0.8350016E+01  0.2494341E+02  0.2201463E+02  0.0000000E+00
Ar  579  0.8350015E+01  0.2201463E+02  0.2494340E+02  0.0000000E+00
Ar  580  0.5623685E+01  0.2469899E+02  0.2469899E+02  0.0000000E+00
Ar  581  0.5821383E+01  0.2194671E+02  0.2766102E+02  0.0000000E+00
Ar  582  0.8484635E+01  0.2482956E+02  0.2758036E+02  0.0000000E+00
Ar  583  0.8561328E+01  0.2224176E+02  0.3027303E+02  0.0000000E+00
Ar  584  0.5904769E+01  0.2467314E+02  0.3048210E+02  0.0000000E+00
Ar  585  0.5874010E+01  0.2218824E+02  0.3334214E+02  0.0000000E+00
Ar  586  0.8355247E+01  0.2477836E+02  0.3329283E+02  0.0000000E+00
Ar  587  0.8304609E+01  0.2193724E+02  0.3601029E+02  0.0000000E+00
Ar  588  0.5877933E+01  0.2499155E+02  0.3584626E+02  0.0000000E+00
Ar  589  0.5747681E+01  0.2216057E+02  0.3867248E+02  0.0000000E+00
Ar  590  0.8578435E+01  0.2480861E+02  0.3857370E+02  0.0000000E+00
Ar  591  0.8386230E+01  0.2223152E+02  0.4159460E+02  0.0000000E+00
Ar  592  0.5848170E+01  0.2475445E+02  0.4155834E+02  0.0000000E+00
Ar  593  0.5746415E+01  0.2227457E+02  0.4448521E+02  0.0000000E+00
Ar  594  0.8514976E+01  0.2492142E+02  0.4436788E+02  0.0000000E+00
Ar  595  0.8320985E+01  0.2177333E+02  0.4690418E+02  0.0000000E+00
Ar  596  0.5791345E+01  0.2490323E+02  0.4725535E+02  0.0000000E+00
Ar  597  0.5895110E+01  0.2199363E+02  0.4989841E+02  0.0000000E+00
Ar  598  0.8520741E+01  0.2535457E+02  0.4968352E+02  0.0000000E+00
Ar  599  0.8347842E+01  0.2214784E+02  0.5260488E+02  0.0000000E+00
Ar  600  0.5696414E+01  0.2515956E+02  0.5253632E+02  0.0000000E+00
Ar  601  0.5411294E+01  0.2784818E+02  0.4296849E+00  0.0000000E+00
Ar  602  0.8059496E+01  0.3028818E+02  0.1790474E+00  0.0000000E+00
Ar  603  0.8075280E+01  0.2797362E+02  0.2872585E+01  0.0000000E+00
Ar  604  0.5578614E+01  0.3044302E+02  0.2953392E+01  0.0000000E+00
Ar  605  0.5579911E+01  0.2777218E+02  0.5580039E+01  0.0000000E+00
Ar  606  0.8049588E+01  0.3073141E+02  0.5630442E+01  0.0000000E+00
Ar  607  0.8025457E+01  0.2795015E+02  0.8025450E+01  0.0000000E+00
Ar  608  0.5630440E+01  0.3073143E+02  0.8049596E+01  0.0000000E+00
Ar  609  0.5718787E+01  0.2739003E+02  0.1107216E+02  0.0000000E+00
Ar  610  0.8097686E+01  0.3058651E+02  0.1104254E+02  0.0000000E+00
Ar  611  0.8494248E+01  0.2779450E+02  0.1357898E+02  0.0000000E+00
Ar  612  0.5535148E+01  0.3019579E+02  0.1377740E+02  0.0000000E+00
Ar  613  0.5574982E+01  0.2749783E+02  0.1645098E+02  0.0000000E+00
Ar  614  0.8373088E+01  0.3039703E+02  0.1630154E+02  0.0000000E+00
Ar  615  0.8104270E+01  0.2770717E+02  0.1894165E+02  0.0000000E+00
Ar  616  0.5959732E+01  0.3043893E+02  0.1923192E+02  0.0000000E+00
Ar  617  0.5821383E+01  0.2766102E+02  0.2194671E+02  0.0000000E+00
Ar  618  0.8561330E+01  0.3027303E+02  0.2224176E+02  0.0000000E+00
Ar  619  0.8484639E+01  0.2758036E+02  0.2482956E+02  0.0000000E+00
Ar  620  0.5904772E+01  0.3048210E+02  0.2467314E+02  0.0000000E+00
Ar  621  0.5872888E+01  0.2752374E+02  0.2752374E+02  0.0000000E+00
Ar  622  0.8627946E+01  0.3036276E+02  0.2753991E+02  0.0000000E+00
Ar  623  0.8627942E+01  0.2753992E+02  0.3036276E+02  0.0000000E+00
Ar  624  0.5360435E+01  0.3026346E+02  0.3026346E+02  0.0000000E+00
Ar  625  0.5814496E+01  0.2782683E+02  0.3333116E+02  0.0000000E+00
Ar  626  0.8472511E+01  0.3019537E+02  0.3306346E+02  0.0000000E+00
Ar  627  0.8407934E+01  0.2759628E+02  0.3594618E+02  0.0000000E+00
Ar  628  0.5740524E+01  0.3034223E+02  0.3624568E+02  0.0000000E+00
Ar  629  0.5602668E+01  0.2758160E+02  0.3863209E+02  0.0000000E+00
Ar  630  0.8637826E+01  0.3031278E+02  0.3881111E+02  0.0000000E+00
Ar  631  0.8386922E+01  0.2766689E+02  0.4123172E+02  0.0000000E+00
Ar  632  0.5713765E+01  0.3077764E+02  0.4107007E+02  0.0000000E+00
Ar  633  0.5523583E+01  0.2748388E+02  0.4397314E+02  0.0000000E+00
Ar  634  0.8005361E+01  0.3021330E+02  0.4393227E+02  0.0000000E+00
Ar  635  0.8312555E+01  0.2796548E+02  0.4681836E+02  0.0000000E+00
Ar  636  0.5880932E+01  0.3038572E+02  0.4706202E+02  0.0000000E+00
Ar  637  0.5785833E+01  0.2786125E+02  0.4963864E+02  0.0000000E+00
Ar  638  0.8457540E+01  0.3068602E+02  0.4972359E+02  0.0000000E+00
Ar  639  0.8315343E+01  0.2763142E+02  0.5252054E+02  0.0000000E+00
Ar  640  0.5808002E+01  0.3075839E+02  0.5214492E+02  0.0000000E+00
Ar  641  0.5468000E+01  0.3342927E+02  0.3135227E+00  0.0000000E+00
Ar  642  0.8164737E+01  0.3608720E+02  0.5515495E+02  0.0000000E+00
Ar  643  0.8354167E+01  0.3339433E+02  0.2760889E+01  0.0000000E+00
Ar  644  0.5743223E+01  0.3602778E+02  0.2882373E+01  0.0000000E+00
Ar  645  0.5516569E+01  0.3342764E+02  0.5516566E+01  0.0000000E+00
Ar  646  0.8342357E+01  0.3609753E+02  0.5807398E+01  0.0000000E+00
Ar  647  0.8363242E+01  0.3327952E+02  0.8363242E+01  0.0000000E+00
Ar  648  0.5807399E+01  0.3609753E+02  0.8342365E+01  0.0000000E+00
Ar  649  0.5524910E+01  0.3336412E+02  0.1078747E+02  0.0000000E+00
Ar  650  0.8268134E+01  0.3585951E+02  0.1103607E+02  0.0000000E+00
Ar  651  0.8164888E+01  0.3304427E+02  0.1363060E+02  0.0000000E+00
Ar  652  0.5463231E+01  0.3590530E+02  0.1376390E+02  0.0000000E+00
Ar  653  0.5610996E+01  0.3306443E+02  0.1638275E+02  0.0000000E+00
Ar  654  0.8245349E+01  0.3579980E+02  0.1631340E+02  0.0000000E+00
Ar  655  0.8278296E+01  0.3303448E+02  0.1958260E+02  0.0000000E+00
Ar  656  0.5818899E+01  0.3614866E+02  0.1915919E+02  0.0000000E+00
Ar  657  0.5874011E+01  0.3334214E+02  0.2218824E+02  0.0000000E+00
Ar  658  0.8304614E+01  0.3601029E+02  0.2193723E+02  0.0000000E+00
Ar  659  0.8355243E+01  0.3329283E+02  0.2477836E+02  0.0000000E+00
Ar  660  0.5877929E+01  0.3584627E+02  0.2499155E+02  0.0000000E+00
Ar  661  0.5814494E+01  0.3333116E+02  0.2782683E+02  0.0000000E+00
Ar  662  0.8407931E+01  0.3594618E+02  0.2759628E+02  0.0000000E+00
Ar  663  0.8472513E+01  0.3306346E+02  0.3019537E+02  0.0000000E+00
Ar  664  0.5740516E+01  0.3624569E+02  0.3034223E+02  0.0000000E+00
Ar  665  0.5875724E+01  0.3339578E+02  0.3339579E+02  0.0000000E+00
Ar  666  0.8604026E+01  0.3578444E+02  0.3320394E+02  0.0000000E+00
Ar  667  0.8604026E+01  0.3320394E+02  0.3578445E+02  0.0000000E+00
Ar  668  0.5823527E+01  0.3606658E+02  0.3606659E+02  0.0000000E+00
Ar  669  0.5839811E+01  0.3317380E+02  0.3850731E+02  0.0000000E+00
Ar  670  0.8599347E+01  0.3619836E+02  0.3889177E+02  0.0000000E+00
Ar  671  0.8474999E+01  0.3328817E+02  0.4130346E+02  0.0000000E+00
Ar  672  0.5774057E+01  0.3597449E+02  0.4150364E+02  0.0000000E+00
Ar  673  0.5846452E+01  0.3321170E+02  0.4408595E+02  0.0000000E+00
Ar  674  0.8409797E+01  0.3599056E+02  0.4417261E+02  0.0000000E+00
Ar  675  0.8347197E+01  0.3298391E+02  0.4684862E+02  0.0000000E+00
Ar  676  0.5619945E+01  0.3627758E+02  0.4690204E+02  0.0000000E+00
Ar  677  0.5736399E+01  0.3351485E+02  0.4954898E+02  0.0000000E+00
Ar  678  0.8429597E+01  0.3588744E+02  0.4975240E+02  0.0000000E+00
Ar  679  0.8263155E+01  0.3341660E+02  0.5262305E+02  0.0000000E+00
Ar  680  0.5371580E+01  0.3618022E+02  0.5240052E+02  0.0000000E+00
Ar  681  0.5633259E+01  0.3900019E+02  0.1796717E+00  0.0000000E+00
Ar  682  0.8823372E+01  0.4182514E+02  0.5510374E+02  0.0000000E+00
Ar  683  0.8227686E+01  0.3886151E+02  0.2882306E+01  0.0000000E+00
Ar  684  0.5505019E+01  0.4146910E+02  0.2964402E+01  0.0000000E+00
Ar  685  0.5543871E+01  0.3884118E+02  0.5543882E+01  0.0000000E+00
Ar  686  0.8286915E+01  0.4158115E+02  0.5520243E+01  0.0000000E+00
Ar  687  0.8158966E+01  0.3908662E+02  0.8158971E+01  0.0000000E+00
Ar  688  0.5520256E+01  0.4158116E+02  0.8286905E+01  0.0000000E+00
Ar  689  0.5535744E+01  0.3858117E+02  0.1095680E+02  0.0000000E+00
Ar  690  0.8307362E+01  0.4147239E+02  0.1106236E+02  0.0000000E+00
Ar  691  0.8325946E+01  0.3833809E+02  0.1348446E+02  0.0000000E+00
Ar  692  0.5930640E+01  0.4137195E+02  0.1373700E+02  0.0000000E+00
Ar  693  0.5833176E+01  0.3871988E+02  0.1656750E+02  0.0000000E+00
Ar  694  0.8259388E+01  0.4148872E+02  0.1668898E+02  0.0000000E+00
Ar  695  0.8337426E+01  0.3880755E+02  0.1965136E+02  0.0000000E+00
Ar  696  0.5622366E+01  0.4170165E+02  0.1938674E+02  0.0000000E+00
Ar  697  0.5747687E+01  0.3867247E+02  0.2216057E+02  0.0000000E+00
Ar  698  0.8386221E+01  0.4159458E+02  0.2223154E+02  0.0000000E+00
Ar  699  0.8578426E+01  0.3857369E+02  0.2480861E+02  0.0000000E+00
Ar  700  0.5848169E+01  0.4155833E+02  0.2475446E+02  0.0000000E+00
Ar  701  0.5602667E+01  0.3863210E+02  0.2758159E+02  0.0000000E+00
Ar  702  0.8386918E+01  0.4123173E+02  0.2766688E+02  0.0000000E+00
Ar  703  0.8637826E+01  0.3881111E+02  0.3031278E+02  0.0000000E+00
Ar  704  0.5713763E+01  0.4107007E+02  0.3077764E+02  0.0000000E+00
Ar  705  0.5839814E+01  0.3850731E+02  0.3317380E+02  0.0000000E+00
Ar  706  0.8474998E+01  0.4130346E+02  0.3328817E+02  0.0000000E+00
Ar  707  0.8599356E+01  0.3889177E+02  0.3619835E+02  0.0000000E+00
Ar  708  0.5774055E+01  0.4150364E+02  0.3597449E+02  0.0000000E+00
Ar  709  0.5516557E+01  0.3917205E+02  0.3917205E+02  0.0000000E+00
Ar  710  0.8290475E+01  0.4186316E+02  0.3872481E+02  0.0000000E+00
Ar  711  0.8290475E+01  0.3872480E+02  0.4186316E+02  0.0000000E+00
Ar  712  0.5530779E+01  0.4194847E+02  0.4194846E+02  0.0000000E+00
Ar  713  0.5914612E+01  0.3885396E+02  0.4446203E+02  0.0000000E+00
Ar  714  0.8520576E+01  0.4172541E+02  0.4415941E+02  0.0000000E+00
Ar  715  0.8266455E+01  0.3903615E+02  0.4749187E+02  0.0000000E+00
Ar  716  0.5678079E+01  0.4167025E+02  0.4713250E+02  0.0000000E+00
Ar  717  0.5429521E+01  0.3872354E+02  0.4971602E+02  0.0000000E+00
Ar  718  0.8718859E+01  0.4161729E+02  0.4967291E+02  0.0000000E+00
Ar  719  0.8505966E+01  0.3892244E+02  0.5229340E+02  0.0000000E+00
Ar  720  0.6090052E+01  0.4167282E+02  0.5235276E+02  0.0000000E+00
Ar  721  0.5621610E+01  0.4420715E+02  0.2711191E+00  0.0000000E+00
Ar  722  0.8614932E+01  0.4704972E+02  0.5515829E+02  0.0000000E+00
Ar  723  0.8185039E+01  0.4426630E+02  0.2756535E+01  0.0000000E+00
Ar  724  0.5552774E+01  0.4701348E+02  0.2801389E+01  0.0000000E+00
Ar  725  0.5810187E+01  0.4431481E+02  0.5810184E+01  0.0000000E+00
Ar  726  0.8374745E+01  0.4677641E+02  0.5585777E+01  0.0000000E+00
Ar  727  0.8347413E+01  0.4391718E+02  0.8347403E+01  0.0000000E+00
Ar  728  0.5585787E+01  0.4677641E+02  0.8374738E+01  0.0000000E+00
Ar  729  0.5781007E+01  0.4415271E+02  0.1129594E+02  0.0000000E+00
Ar  730  0.8337364E+01  0.4672773E+02  0.1105148E+02  0.0000000E+00
Ar  731  0.8428716E+01  0.4454947E+02  0.1395660E+02  0.0000000E+00
Ar  732  0.5663574E+01  0.4698008E+02  0.1376465E+02  0.0000000E+00
Ar  733  0.5880702E+01  0.4440549E+02  0.1678503E+02  0.0000000E+00
Ar  734  0.8395496E+01  0.4703558E+02  0.1668895E+02  0.0000000E+00
Ar  735  0.8514042E+01  0.4416755E+02  0.1922752E+02  0.0000000E+00
Ar  736  0.5732405E+01  0.4718400E+02  0.1922434E+02  0.0000000E+00
Ar  737  0.5746365E+01  0.4448523E+02  0.2227452E+02  0.0000000E+00
Ar  738  0.8321005E+01  0.4690418E+02  0.2177335E+02  0.0000000E+00
Ar  739  0.8514988E+01  0.4436789E+02  0.2492141E+02  0.0000000E+00
Ar  740  0.5791393E+01  0.4725535E+02  0.2490319E+02  0.0000000E+00
Ar  741  0.5523578E+01  0.4397316E+02  0.2748386E+02  0.0000000E+00
Ar  742  0.8312547E+01  0.4681839E+02  0.2796548E+02  0.0000000E+00
Ar  743  0.8005365E+01  0.4393227E+02  0.3021330E+02  0.0000000E+00
Ar  744  0.5880952E+01  0.4706202E+02  0.3038570E+02  0.0000000E+00
Ar  745  0.5846447E+01  0.4408595E+02  0.3321170E+02  0.0000000E+00
Ar  746  0.8347189E+01  0.4684862E+02  0.3298391E+02  0.0000000E+00
Ar  747  0.8409795E+01  0.4417261E+02  0.3599056E+02  0.0000000E+00
Ar  748  0.5619942E+01  0.4690205E+02  0.3627758E+02  0.0000000E+00
Ar  749  0.5914619E+01  0.4446203E+02  0.3885396E+02  0.0000000E+00
Ar  750  0.8266457E+01  0.4749186E+02  0.3903615E+02  0.0000000E+00
Ar  751  0.8520578E+01  0.4415941E+02  0.4172542E+02  0.0000000E+00
Ar  752  0.5678081E+01  0.4713251E+02  0.4167025E+02  0.0000000E+00
Ar  753  0.5784064E+01  0.4441751E+02  0.4441750E+02  0.0000000E+00
Ar  754  0.8714005E+01  0.4699868E+02  0.4426580E+02  0.0000000E+00
Ar  755  0.8714002E+01  0.4426579E+02  0.4699868E+02  0.0000000E+00
Ar  756  0.5798179E+01  0.4723316E+02  0.4723316E+02  0.0000000E+00
Ar  757  0.5633221E+01  0.4452298E+02  0.4976619E+02  0.0000000E+00
Ar  758  0.8627277E+01  0.4683107E+02  0.4994447E+02  0.0000000E+00
Ar  759  0.8866384E+01  0.4434832E+02  0.5269482E+02  0.0000000E+00
Ar  760  0.5947342E+01  0.4714387E+02  0.5242031E+02  0.0000000E+00
Ar  761  0.5828380E+01  0.4978766E+02  0.4448105E+00  0.0000000E+00
Ar  762  0.8534526E+01  0.5260496E+02  0.5516484E+02  0.0000000E+00
Ar  763  0.8435007E+01  0.4971482E+02  0.3104926E+01  0.0000000E+00
Ar  764  0.5611739E+01  0.5259151E+02  0.3056850E+01  0.0000000E+00
Ar  765  0.5853426E+01  0.4945855E+02  0.5853422E+01  0.0000000E+00
Ar  766  0.8385504E+01  0.5231383E+02  0.5761418E+01  0.0000000E+00
Ar  767  0.8413913E+01  0.4937322E+02  0.8413913E+01  0.0000000E+00
Ar  768  0.5761421E+01  0.5231383E+02  0.8385502E+01  0.0000000E+00
Ar  769  0.5665814E+01  0.4937079E+02  0.1112112E+02  0.0000000E+00
Ar  770  0.8496256E+01  0.5207565E+02  0.1122216E+02  0.0000000E+00
Ar  771  0.8261435E+01  0.4953296E+02  0.1379843E+02  0.0000000E+00
Ar  772  0.5497697E+01  0.5253250E+02  0.1368317E+02  0.0000000E+00
Ar  773  0.5724223E+01  0.4973070E+02  0.1654794E+02  0.0000000E+00
Ar  774  0.8587032E+01  0.5246346E+02  0.1651271E+02  0.0000000E+00
Ar  775  0.8476980E+01  0.4996781E+02  0.1939372E+02  0.0000000E+00
Ar  776  0.5661609E+01  0.5240853E+02  0.1943079E+02  0.0000000E+00
Ar  777  0.5895097E+01  0.4989844E+02  0.2199356E+02  0.0000000E+00
Ar  778  0.8347877E+01  0.5260493E+02  0.2214781E+02  0.0000000E+00
Ar  779  0.8520758E+01  0.4968352E+02  0.2535457E+02  0.0000000E+00
Ar  780  0.5696390E+01  0.5253628E+02  0.2515962E+02  0.0000000E+00
Ar  781  0.5785822E+01  0.4963865E+02  0.2786118E+02  0.0000000E+00
Ar  782  0.8315329E+01  0.5252055E+02  0.2763140E+02  0.0000000E+00
Ar  783  0.8457449E+01  0.4972365E+02  0.3068597E+02  0.0000000E+00
Ar  784  0.5807954E+01  0.5214496E+02  0.3075831E+02  0.0000000E+00
Ar  785  0.5736394E+01  0.4954903E+02  0.3351480E+02  0.0000000E+00
Ar  786  0.8263061E+01  0.5262305E+02  0.3341651E+02  0.0000000E+00
Ar  787  0.8429587E+01  0.4975241E+02  0.3588743E+02  0.0000000E+00
Ar  788  0.5371588E+01  0.5240052E+02  0.3618023E+02  0.0000000E+00
Ar  789  0.5429521E+01  0.4971602E+02  0.3872354E+02  0.0000000E+00
Ar  790  0.8505963E+01  0.5229340E+02  0.3892243E+02  0.0000000E+00
Ar  791  0.8718862E+01  0.4967291E+02  0.4161729E+02  0.0000000E+00
Ar  792  0.6090057E+01  0.5235276E+02  0.4167282E+02  0.0000000E+00
Ar  793  0.5633220E+01  0.4976618E+02  0.4452298E+02  0.0000000E+00
Ar  794  0.8866394E+01  0.5269482E+02  0.4434832E+02  0.0000000E+00
Ar  795  0.8627280E+01  0.4994447E+02  0.4683107E+02  0.0000000E+00
Ar  796  0.5947343E+01  0.5242032E+02  0.4714387E+02  0.0000000E+00
Ar  797  0.5861901E+01  0.4980930E+02  0.4980930E+02  0.0000000E+00
Ar  798  0.8530768E+01  0.5245314E+02  0.4991517E+02  0.0000000E+00
Ar  799  0.8530758E+01  0.4991518E+02  0.5245314E+02  0.0000000E+00
Ar  800  0.5814314E+01  0.5247532E+02  0.5247532E+02  0.0000000E+00
Ar  801  0.1110746E+02  0.5492194E+02  0.5492194E+02  0.0000000E+00
Ar  802  0.1410101E+02  0.2725639E+01  0.2458815E+00  0.0000000E+00
Ar  803  0.1410102E+02  0.2458786E+00  0.2725643E+01  0.0000000E+00
Ar  804  0.1110227E+02  0.2666424E+01  0.2666422E+01  0.0000000E+00
Ar  805  0.1089429E+02  0.2589349E+00  0.5472950E+01  0.0000000E+00
Ar  806  0.1430245E+02  0.2741456E+01  0.5491602E+01  0.0000000E+00
Ar  807  0.1409029E+02  0.3241631E+00  0.8475048E+01  0.0000000E+00
Ar  808  0.1088999E+02  0.2911684E+01  0.8093021E+01  0.0000000E+00
Ar  809  0.1139342E+02  0.1563822E+00  0.1139343E+02  0.0000000E+00
Ar  810  0.1372731E+02  0.3121026E+01  0.1097202E+02  0.0000000E+00
Ar  811  0.1414034E+02  0.3870084E+00  0.1414034E+02  0.0000000E+00
Ar  812  0.1097201E+02  0.3121015E+01  0.1372730E+02  0.0000000E+00
Ar  813  0.1139405E+02  0.5511782E+02  0.1700135E+02  0.0000000E+00
Ar  814  0.1386551E+02  0.3088547E+01  0.1665833E+02  0.0000000E+00
Ar  815  0.1373880E+02  0.3646648E+00  0.1954492E+02  0.0000000E+00
Ar  816  0.1115367E+02  0.3108842E+01  0.1946430E+02  0.0000000E+00
Ar  817  0.1119382E+02  0.2204152E+00  0.2259625E+02  0.0000000E+00
Ar  818  0.1387858E+02  0.2953247E+01  0.2235522E+02  0.0000000E+00
Ar  819  0.1363850E+02  0.5496087E+02  0.2501714E+02  0.0000000E+00
Ar  820  0.1100046E+02  0.2853889E+01  0.2498410E+02  0.0000000E+00
Ar  821  0.1109696E+02  0.3504353E+00  0.2792650E+02  0.0000000E+00
Ar  822  0.1375075E+02  0.2860069E+01  0.2747351E+02  0.0000000E+00
Ar  823  0.1358018E+02  0.1562825E+00  0.3017839E+02  0.0000000E+00
Ar  824  0.1097608E+02  0.2983698E+01  0.3055114E+02  0.0000000E+00
Ar  825  0.1134948E+02  0.2189591E+00  0.3339113E+02  0.0000000E+00
Ar  826  0.1366581E+02  0.3015444E+01  0.3332690E+02  0.0000000E+00
Ar  827  0.1388746E+02  0.1976223E+00  0.3592036E+02  0.0000000E+00
Ar  828  0.1122379E+02  0.3030834E+01  0.3594859E+02  0.0000000E+00
Ar  829  0.1110650E+02  0.5519412E+02  0.3866124E+02  0.0000000E+00
Ar  830  0.1365175E+02  0.2923466E+01  0.3871034E+02  0.0000000E+00
Ar  831  0.1374907E+02  0.2250702E+00  0.4114573E+02  0.0000000E+00
Ar  832  0.1119063E+02  0.2856253E+01  0.4183509E+02  0.0000000E+00
Ar  833  0.1138777E+02  0.5517653E+02  0.4426240E+02  0.0000000E+00
Ar  834  0.1445996E+02  0.2620345E+01  0.4413218E+02  0.0000000E+00
Ar  835  0.1436517E+02  0.5513738E+02  0.4698929E+02  0.0000000E+00
Ar  836  0.1147517E+02  0.2852559E+01  0.4658273E+02  0.0000000E+00
Ar  837  0.1177360E+02  0.3354605E+00  0.4941111E+02  0.0000000E+00
Ar  838  0.1386559E+02  0.3023635E+01  0.4966719E+02  0.0000000E+00
Ar  839  0.1430512E+02  0.5520140E+02  0.5259788E+02  0.0000000E+00
Ar  840  0.1087742E+02  0.2807823E+01  0.5262206E+02  0.0000000E+00
Ar  841  0.1089430E+02  0.5472952E+01  0.2589279E+00  0.0000000E+00
Ar  842  0.1409029E+02  0.8475050E+01  0.3241593E+00  0.0000000E+00
Ar  843  0.1430244E+02  0.5491599E+01  0.2741456E+01  0.0000000E+00
Ar  844  0.1088999E+02  0.8093020E+01  0.2911689E+01  0.0000000E+00
Ar  845  0.1172140E+02  0.5510402E+01  0.5510401E+01  0.0000000E+00
Ar  846  0.1428055E+02  0.8188865E+01  0.5415126E+01  0.0000000E+00
Ar  847  0.1428054E+02  0.5415130E+01  0.8188860E+01  0.0000000E+00
Ar  848  0.1174629E+02  0.8137330E+01  0.8137337E+01  0.0000000E+00
Ar  849  0.1083423E+02  0.5390886E+01  0.1083423E+02  0.0000000E+00
Ar  850  0.1401325E+02  0.8033961E+01  0.1118249E+02  0.0000000E+00
Ar  851  0.1393479E+02  0.5689252E+01  0.1393480E+02  0.0000000E+00
Ar  852  0.1118249E+02  0.8033957E+01  0.1401325E+02  0.0000000E+00
Ar  853  0.1115428E+02  0.5698663E+01  0.1701286E+02  0.0000000E+00
Ar  854  0.1398725E+02  0.8112032E+01  0.1688238E+02  0.0000000E+00
Ar  855  0.1394019E+02  0.5756286E+01  0.1956186E+02  0.0000000E+00
Ar  856  0.1094233E+02  0.8109673E+01  0.1974680E+02  0.0000000E+00
Ar  857  0.1134650E+02  0.5423075E+01  0.2218656E+02  0.0000000E+00
Ar  858  0.1388215E+02  0.8466167E+01  0.2222508E+02  0.0000000E+00
Ar  859  0.1378720E+02  0.5756906E+01  0.2486713E+02  0.0000000E+00
Ar  860  0.1119224E+02  0.8484915E+01  0.2470116E+02  0.0000000E+00
Ar  861  0.1107216E+02  0.5718800E+01  0.2739003E+02  0.0000000E+00
Ar  862  0.1357898E+02  0.8494247E+01  0.2779450E+02  0.0000000E+00
Ar  863  0.1377741E+02  0.5535156E+01  0.3019579E+02  0.0000000E+00
Ar  864  0.1104254E+02  0.8097690E+01  0.3058651E+02  0.0000000E+00
Ar  865  0.1078747E+02  0.5524911E+01  0.3336411E+02  0.0000000E+00
Ar  866  0.1363060E+02  0.8164884E+01  0.3304427E+02  0.0000000E+00
Ar  867  0.1376389E+02  0.5463235E+01  0.3590530E+02  0.0000000E+00
Ar  868  0.1103607E+02  0.8268128E+01  0.3585950E+02  0.0000000E+00
Ar  869  0.1095677E+02  0.5535759E+01  0.3858116E+02  0.0000000E+00
Ar  870  0.1348445E+02  0.8325953E+01  0.3833808E+02  0.0000000E+00
Ar  871  0.1373698E+02  0.5930637E+01  0.4137187E+02  0.0000000E+00
Ar  872  0.1106235E+02  0.8307354E+01  0.4147240E+02  0.0000000E+00
Ar  873  0.1129596E+02  0.5780959E+01  0.4415272E+02  0.0000000E+00
Ar  874  0.1395661E+02  0.8428697E+01  0.4454949E+02  0.0000000E+00
Ar  875  0.1376465E+02  0.5663503E+01  0.4698007E+02  0.0000000E+00
Ar  876  0.1105148E+02  0.8337365E+01  0.4672773E+02  0.0000000E+00
Ar  877  0.1112113E+02  0.5665809E+01  0.4937078E+02  0.0000000E+00
Ar  878  0.1379848E+02  0.8261372E+01  0.4953295E+02  0.0000000E+00
Ar  879  0.1368314E+02  0.5497692E+01  0.5253242E+02  0.0000000E+00
Ar  880  0.1122218E+02  0.8496255E+01  0.5207565E+02  0.0000000E+00
Ar  881  0.1139343E+02  0.1139341E+02  0.1563832E+00  0.0000000E+00
Ar  882  0.1414033E+02  0.1414033E+02  0.3870103E+00  0.0000000E+00
Ar  883  0.1372730E+02  0.1097202E+02  0.3121020E+01  0.0000000E+00
Ar  884  0.1097202E+02  0.1372730E+02  0.3121016E+01  0.0000000E+00
Ar  885  0.1083423E+02  0.1083422E+02  0.5390878E+01  0.0000000E+00
Ar  886  0.1393479E+02  0.1393480E+02  0.5689242E+01  0.0000000E+00
Ar  887  0.1401324E+02  0.1118250E+02  0.8033951E+01  0.0000000E+00
Ar  888  0.1118249E+02  0.1401323E+02  0.8033950E+01  0.0000000E+00
Ar  889  0.1072648E+02  0.1072648E+02  0.1072648E+02  0.0000000E+00
Ar  890  0.1363108E+02  0.1363107E+02  0.1081651E+02  0.0000000E+00
Ar  891  0.1363108E+02  0.1081651E+02  0.1363107E+02  0.0000000E+00
Ar  892  0.1081652E+02  0.1363107E+02  0.1363106E+02  0.0000000E+00
Ar  893  0.1067325E+02  0.1067325E+02  0.1684756E+02  0.0000000E+00
Ar  894  0.1334834E+02  0.1334834E+02  0.1651891E+02  0.0000000E+00
Ar  895  0.1396431E+02  0.1074993E+02  0.1927200E+02  0.0000000E+00
Ar  896  0.1074992E+02  0.1396430E+02  0.1927200E+02  0.0000000E+00
Ar  897  0.1128167E+02  0.1128166E+02  0.2168176E+02  0.0000000E+00
Ar  898  0.1378160E+02  0.1378160E+02  0.2184545E+02  0.0000000E+00
Ar  899  0.1383450E+02  0.1108074E+02  0.2510785E+02  0.0000000E+00
Ar  900  0.1108074E+02  0.1383450E+02  0.2510783E+02  0.0000000E+00
Ar  901  0.1095068E+02  0.1095067E+02  0.2771363E+02  0.0000000E+00
Ar  902  0.1372117E+02  0.1372117E+02  0.2762558E+02  0.0000000E+00
Ar  903  0.1367890E+02  0.1097190E+02  0.3038461E+02  0.0000000E+00
Ar  904  0.1097191E+02  0.1367890E+02  0.3038462E+02  0.0000000E+00
Ar  905  0.1097869E+02  0.1097869E+02  0.3314227E+02  0.0000000E+00
Ar  906  0.1375915E+02  0.1375915E+02  0.3344100E+02  0.0000000E+00
Ar  907  0.1389733E+02  0.1131565E+02  0.3618670E+02  0.0000000E+00
Ar  908  0.1131566E+02  0.1389733E+02  0.3618669E+02  0.0000000E+00
Ar  909  0.1087522E+02  0.1087522E+02  0.3863209E+02  0.0000000E+00
Ar  910  0.1380643E+02  0.1380644E+02  0.3873391E+02  0.0000000E+00
Ar  911  0.1385003E+02  0.1124812E+02  0.4166105E+02  0.0000000E+00
Ar  912  0.1124811E+02  0.1385003E+02  0.4166104E+02  0.0000000E+00
Ar  913  0.1111498E+02  0.1111497E+02  0.4453922E+02  0.0000000E+00
Ar  914  0.1399331E+02  0.1399332E+02  0.4452135E+02  0.0000000E+00
Ar  915  0.1388470E+02  0.1112076E+02  0.4717652E+02  0.0000000E+00
Ar  916  0.1112074E+02  0.1388469E+02  0.4717651E+02  0.0000000E+00
Ar  917  0.1124562E+02  0.1124562E+02  0.4965677E+02  0.0000000E+00
Ar  918  0.1375657E+02  0.1375656E+02  0.5000748E+02  0.0000000E+00
Ar  919  0.1383828E+02  0.1118245E+02  0.5227663E+02  0.0000000E+00
Ar  920  0.1118245E+02  0.1383828E+02  0.5227663E+02  0.0000000E+00
Ar  921  0.1139405E+02  0.1700136E+02  0.5511782E+02  0.0000000E+00
Ar  922  0.1373880E+02  0.1954492E+02  0.3646651E+00  0.0000000E+00
Ar  923  0.1386552E+02  0.1665833E+02  0.3088548E+01  0.0000000E+00
Ar  924  0.1115374E+02  0.1946432E+02  0.3108855E+01  0.0000000E+00
Ar  925  0.1115429E+02  0.1701285E+02  0.5698686E+01  0.0000000E+00
Ar  926  0.1394019E+02  0.1956185E+02  0.5756289E+01  0.0000000E+00
Ar  927  0.1398725E+02  0.1688238E+02  0.8112030E+01  0.0000000E+00
Ar  928  0.1094233E+02  0.1974679E+02  0.8109675E+01  0.0000000E+00
Ar  929  0.1067324E+02  0.1684756E+02  0.1067325E+02  0.0000000E+00
Ar  930  0.1396431E+02  0.1927200E+02  0.1074993E+02  0.0000000E+00
Ar  931  0.1334833E+02  0.1651891E+02  0.1334833E+02  0.0000000E+00
Ar  932  0.1074992E+02  0.1927200E+02  0.1396429E+02  0.0000000E+00
Ar  933  0.1081114E+02  0.1621263E+02  0.1621263E+02  0.0000000E+00
Ar  934  0.1345945E+02  0.1911461E+02  0.1637873E+02  0.0000000E+00
Ar  935  0.1345945E+02  0.1637873E+02  0.1911461E+02  0.0000000E+00
Ar  936  0.1147110E+02  0.1953821E+02  0.1953821E+02  0.0000000E+00
Ar  937  0.1088240E+02  0.1681236E+02  0.2226838E+02  0.0000000E+00
Ar  938  0.1393136E+02  0.1897005E+02  0.2206982E+02  0.0000000E+00
Ar  939  0.1389572E+02  0.1652316E+02  0.2515204E+02  0.0000000E+00
Ar  940  0.1119896E+02  0.1929981E+02  0.2482339E+02  0.0000000E+00
Ar  941  0.1118378E+02  0.1664896E+02  0.2762348E+02  0.0000000E+00
Ar  942  0.1369048E+02  0.1938801E+02  0.2772133E+02  0.0000000E+00
Ar  943  0.1362413E+02  0.1622897E+02  0.3050299E+02  0.0000000E+00
Ar  944  0.1085786E+02  0.1924920E+02  0.3064744E+02  0.0000000E+00
Ar  945  0.1096804E+02  0.1632510E+02  0.3308675E+02  0.0000000E+00
Ar  946  0.1356309E+02  0.1919536E+02  0.3323594E+02  0.0000000E+00
Ar  947  0.1389803E+02  0.1663515E+02  0.3590309E+02  0.0000000E+00
Ar  948  0.1077776E+02  0.1908942E+02  0.3587495E+02  0.0000000E+00
Ar  949  0.1077468E+02  0.1663123E+02  0.3864175E+02  0.0000000E+00
Ar  950  0.1377124E+02  0.1920386E+02  0.3865812E+02  0.0000000E+00
Ar  951  0.1390129E+02  0.1650243E+02  0.4156330E+02  0.0000000E+00
Ar  952  0.1135988E+02  0.1929100E+02  0.4151776E+02  0.0000000E+00
Ar  953  0.1143920E+02  0.1667723E+02  0.4448167E+02  0.0000000E+00
Ar  954  0.1409717E+02  0.1929301E+02  0.4417978E+02  0.0000000E+00
Ar  955  0.1405600E+02  0.1637964E+02  0.4719015E+02  0.0000000E+00
Ar  956  0.1124441E+02  0.1938216E+02  0.4704572E+02  0.0000000E+00
Ar  957  0.1109040E+02  0.1653819E+02  0.4963047E+02  0.0000000E+00
Ar  958  0.1384477E+02  0.1951535E+02  0.4994312E+02  0.0000000E+00
Ar  959  0.1366100E+02  0.1656526E+02  0.5251636E+02  0.0000000E+00
Ar  960  0.1090462E+02  0.1931842E+02  0.5250198E+02  0.0000000E+00
Ar  961  0.1119381E+02  0.2259626E+02  0.2204008E+00  0.0000000E+00
Ar  962  0.1363850E+02  0.2501715E+02  0.5496087E+02  0.0000000E+00
Ar  963  0.1387858E+02  0.2235522E+02  0.2953246E+01  0.0000000E+00
Ar  964  0.1100051E+02  0.2498411E+02  0.2853910E+01  0.0000000E+00
Ar  965  0.1134656E+02  0.2218656E+02  0.5423128E+01  0.0000000E+00
Ar  966  0.1378721E+02  0.2486714E+02  0.5756908E+01  0.0000000E+00
Ar  967  0.1388215E+02  0.2222508E+02  0.8466163E+01  0.0000000E+00
Ar  968  0.1119224E+02  0.2470116E+02  0.8484916E+01  0.0000000E+00
Ar  969  0.1128167E+02  0.2168177E+02  0.1128166E+02  0.0000000E+00
Ar  970  0.1383450E+02  0.2510785E+02  0.1108073E+02  0.0000000E+00
Ar  971  0.1378159E+02  0.2184545E+02  0.1378159E+02  0.0000000E+00
Ar  972  0.1108074E+02  0.2510783E+02  0.1383450E+02  0.0000000E+00
Ar  973  0.1088240E+02  0.2226838E+02  0.1681237E+02  0.0000000E+00
Ar  974  0.1389571E+02  0.2515204E+02  0.1652316E+02  0.0000000E+00
Ar  975  0.1393136E+02  0.2206983E+02  0.1897005E+02  0.0000000E+00
Ar  976  0.1119897E+02  0.2482339E+02  0.1929981E+02  0.0000000E+00
Ar  977  0.1070489E+02  0.2197163E+02  0.2197163E+02  0.0000000E+00
Ar  978  0.1390253E+02  0.2452102E+02  0.2200528E+02  0.0000000E+00
Ar  979  0.1390254E+02  0.2200528E+02  0.2452103E+02  0.0000000E+00
Ar  980  0.1106582E+02  0.2481016E+02  0.2481016E+02  0.0000000E+00
Ar  981  0.1110187E+02  0.2206150E+02  0.2746818E+02  0.0000000E+00
Ar  982  0.1395270E+02  0.2478420E+02  0.2749417E+02  0.0000000E+00
Ar  983  0.1367083E+02  0.2218283E+02  0.3052329E+02  0.0000000E+00
Ar  984  0.1108141E+02  0.2461832E+02  0.3030587E+02  0.0000000E+00
Ar  985  0.1085815E+02  0.2203685E+02  0.3330096E+02  0.0000000E+00
Ar  986  0.1373500E+02  0.2474930E+02  0.3307727E+02  0.0000000E+00
Ar  987  0.1370356E+02  0.2179874E+02  0.3594598E+02  0.0000000E+00
Ar  988  0.1122108E+02  0.2480548E+02  0.3608086E+02  0.0000000E+00
Ar  989  0.1120861E+02  0.2171762E+02  0.3885528E+02  0.0000000E+00
Ar  990  0.1414571E+02  0.2478906E+02  0.3866984E+02  0.0000000E+00
Ar  991  0.1387543E+02  0.2208386E+02  0.4128290E+02  0.0000000E+00
Ar  992  0.1115228E+02  0.2471527E+02  0.4161229E+02  0.0000000E+00
Ar  993  0.1119123E+02  0.2216697E+02  0.4437625E+02  0.0000000E+00
Ar  994  0.1382515E+02  0.2491657E+02  0.4435813E+02  0.0000000E+00
Ar  995  0.1385536E+02  0.2187980E+02  0.4703247E+02  0.0000000E+00
Ar  996  0.1112624E+02  0.2512267E+02  0.4716874E+02  0.0000000E+00
Ar  997  0.1083997E+02  0.2246574E+02  0.4982294E+02  0.0000000E+00
Ar  998  0.1367790E+02  0.2514915E+02  0.4976800E+02  0.0000000E+00
Ar  999  0.1351996E+02  0.2202863E+02  0.5254880E+02  0.0000000E+00
Ar 1000  0.1082013E+02  0.2510688E+02  0.5243799E+02  0.0000000E+00
Ar 1001  0.1109699E+02  0.2792652E+02  0.3504365E+00  0.0000000E+00
Ar 1002  0.1358019E+02  0.3017840E+02  0.1562829E+00  0.0000000E+00
Ar 1003  0.1375076E+02  0.2747351E+02  0.2860069E+01  0.0000000E+00
Ar 1004  0.1097608E+02  0.3055114E+02  0.2983699E+01  0.0000000E+00
Ar 1005  0.1107215E+02  0.2739004E+02  0.5718792E+01  0.0000000E+00
Ar 1006  0.1377740E+02  0.3019579E+02  0.5535159E+01  0.0000000E+00
Ar 1007  0.1357899E+02  0.2779450E+02  0.8494247E+01  0.0000000E+00
Ar 1008  0.1104254E+02  0.3058651E+02  0.8097693E+01  0.0000000E+00
Ar 1009  0.1095068E+02  0.2771364E+02  0.1095067E+02  0.0000000E+00
Ar 1010  0.1367890E+02  0.3038461E+02  0.1097190E+02  0.0000000E+00
Ar 1011  0.1372116E+02  0.2762558E+02  0.1372116E+02  0.0000000E+00
Ar 1012  0.1097191E+02  0.3038461E+02  0.1367890E+02  0.0000000E+00
Ar 1013  0.1118378E+02  0.2762348E+02  0.1664896E+02  0.0000000E+00
Ar 1014  0.1362413E+02  0.3050299E+02  0.1622897E+02  0.0000000E+00
Ar 1015  0.1369048E+02  0.2772133E+02  0.1938801E+02  0.0000000E+00
Ar 1016  0.1085786E+02  0.3064745E+02  0.1924920E+02  0.0000000E+00
Ar 1017  0.1110187E+02  0.2746819E+02  0.2206150E+02  0.0000000E+00
Ar 1018  0.1367083E+02  0.3052329E+02  0.2218283E+02  0.0000000E+00
Ar 1019  0.1395269E+02  0.2749417E+02  0.2478420E+02  0.0000000E+00
Ar 1020  0.1108142E+02  0.3030587E+02  0.2461832E+02  0.0000000E+00
Ar 1021  0.1121414E+02  0.2748267E+02  0.2748267E+02  0.0000000E+00
Ar 1022  0.1386866E+02  0.3062167E+02  0.2731735E+02  0.0000000E+00
Ar 1023  0.1386866E+02  0.2731735E+02  0.3062167E+02  0.0000000E+00
Ar 1024  0.1128367E+02  0.3041471E+02  0.3041471E+02  0.0000000E+00
Ar 1025  0.1111603E+02  0.2750910E+02  0.3308406E+02  0.0000000E+00
Ar 1026  0.1382358E+02  0.3006704E+02  0.3292716E+02  0.0000000E+00
Ar 1027  0.1407411E+02  0.2747268E+02  0.3584382E+02  0.0000000E+00
Ar 1028  0.1126131E+02  0.3008446E+02  0.3583232E+02  0.0000000E+00
Ar 1029  0.1127110E+02  0.2759166E+02  0.3876111E+02  0.0000000E+00
Ar 1030  0.1390580E+02  0.3020511E+02  0.3857276E+02  0.0000000E+00
Ar 1031  0.1397623E+02  0.2800489E+02  0.4160088E+02  0.0000000E+00
Ar 1032  0.1096130E+02  0.3061084E+02  0.4156088E+02  0.0000000E+00
Ar 1033  0.1114891E+02  0.2781884E+02  0.4396358E+02  0.0000000E+00
Ar 1034  0.1378984E+02  0.3051992E+02  0.4439531E+02  0.0000000E+00
Ar 1035  0.1372960E+02  0.2791265E+02  0.4708881E+02  0.0000000E+00
Ar 1036  0.1096878E+02  0.3047322E+02  0.4711741E+02  0.0000000E+00
Ar 1037  0.1124648E+02  0.2795898E+02  0.4980104E+02  0.0000000E+00
Ar 1038  0.1400426E+02  0.3050055E+02  0.4972660E+02  0.0000000E+00
Ar 1039  0.1386729E+02  0.2778272E+02  0.5234222E+02  0.0000000E+00
Ar 1040  0.1082504E+02  0.3067116E+02  0.5259093E+02  0.0000000E+00
Ar 1041  0.1134948E+02  0.3339113E+02  0.2189582E+00  0.0000000E+00
Ar 1042  0.1388746E+02  0.3592036E+02  0.1976186E+00  0.0000000E+00
Ar 1043  0.1366581E+02  0.3332690E+02  0.3015435E+01  0.0000000E+00
Ar 1044  0.1122379E+02  0.3594859E+02  0.3030835E+01  0.0000000E+00
Ar 1045  0.1078747E+02  0.3336412E+02  0.5524909E+01  0.0000000E+00
Ar 1046  0.1376389E+02  0.3590529E+02  0.5463238E+01  0.0000000E+00
Ar 1047  0.1363060E+02  0.3304427E+02  0.8164878E+01  0.0000000E+00
Ar 1048  0.1103606E+02  0.3585950E+02  0.8268125E+01  0.0000000E+00
Ar 1049  0.1097869E+02  0.3314226E+02  0.1097869E+02  0.0000000E+00
Ar 1050  0.1389732E+02  0.3618670E+02  0.1131565E+02  0.0000000E+00
Ar 1051  0.1375914E+02  0.3344100E+02  0.1375914E+02  0.0000000E+00
Ar 1052  0.1131566E+02  0.3618670E+02  0.1389733E+02  0.0000000E+00
Ar 1053  0.1096804E+02  0.3308675E+02  0.1632510E+02  0.0000000E+00
Ar 1054  0.1389803E+02  0.3590309E+02  0.1663514E+02  0.0000000E+00
Ar 1055  0.1356310E+02  0.3323595E+02  0.1919536E+02  0.0000000E+00
Ar 1056  0.1077776E+02  0.3587495E+02  0.1908942E+02  0.0000000E+00
Ar 1057  0.1085815E+02  0.3330095E+02  0.2203684E+02  0.0000000E+00
Ar 1058  0.1370355E+02  0.3594599E+02  0.2179874E+02  0.0000000E+00
Ar 1059  0.1373500E+02  0.3307727E+02  0.2474930E+02  0.0000000E+00
Ar 1060  0.1122108E+02  0.3608086E+02  0.2480547E+02  0.0000000E+00
Ar 1061  0.1111603E+02  0.3308407E+02  0.2750910E+02  0.0000000E+00
Ar 1062  0.1407411E+02  0.3584382E+02  0.2747268E+02  0.0000000E+00
Ar 1063  0.1382358E+02  0.3292716E+02  0.3006704E+02  0.0000000E+00
Ar 1064  0.1126132E+02  0.3583232E+02  0.3008446E+02  0.0000000E+00
Ar 1065  0.1118240E+02  0.3325244E+02  0.3325244E+02  0.0000000E+00
Ar 1066  0.1375119E+02  0.3623499E+02  0.3326752E+02  0.0000000E+00
Ar 1067  0.1375119E+02  0.3326752E+02  0.3623499E+02  0.0000000E+00
Ar 1068  0.1099881E+02  0.3593865E+02  0.3593865E+02  0.0000000E+00
Ar 1069  0.1103099E+02  0.3322665E+02  0.3889255E+02  0.0000000E+00
Ar 1070  0.1400524E+02  0.3594483E+02  0.3874125E+02  0.0000000E+00
Ar 1071  0.1385881E+02  0.3312924E+02  0.4159090E+02  0.0000000E+00
Ar 1072  0.1099905E+02  0.3590334E+02  0.4156740E+02  0.0000000E+00
Ar 1073  0.1126909E+02  0.3324892E+02  0.4419468E+02  0.0000000E+00
Ar 1074  0.1414768E+02  0.3580605E+02  0.4441226E+02  0.0000000E+00
Ar 1075  0.1405949E+02  0.3323178E+02  0.4734573E+02  0.0000000E+00
Ar 1076  0.1105107E+02  0.3575929E+02  0.4721319E+02  0.0000000E+00
Ar 1077  0.1092249E+02  0.3329405E+02  0.4976536E+02  0.0000000E+00
Ar 1078  0.1380992E+02  0.3599020E+02  0.4981047E+02  0.0000000E+00
Ar 1079  0.1354273E+02  0.3314808E+02  0.5217425E+02  0.0000000E+00
Ar 1080  0.1103761E+02  0.3591255E+02  0.5263113E+02  0.0000000E+00
Ar 1081  0.1110651E+02  0.3866124E+02  0.5519412E+02  0.0000000E+00
Ar 1082  0.1374907E+02  0.4114573E+02  0.2250686E+00  0.0000000E+00
Ar 1083  0.1365176E+02  0.3871034E+02  0.2923470E+01  0.0000000E+00
Ar 1084  0.1119063E+02  0.4183510E+02  0.2856261E+01  0.0000000E+00
Ar 1085  0.1095677E+02  0.3858116E+02  0.5535755E+01  0.0000000E+00
Ar 1086  0.1373697E+02  0.4137188E+02  0.5930634E+01  0.0000000E+00
Ar 1087  0.1348445E+02  0.3833808E+02  0.8325947E+01  0.0000000E+00
Ar 1088  0.1106236E+02  0.4147240E+02  0.8307359E+01  0.0000000E+00
Ar 1089  0.1087522E+02  0.3863209E+02  0.1087522E+02  0.0000000E+00
Ar 1090  0.1385003E+02  0.4166105E+02  0.1124812E+02  0.0000000E+00
Ar 1091  0.1380644E+02  0.3873391E+02  0.1380643E+02  0.0000000E+00
Ar 1092  0.1124812E+02  0.4166105E+02  0.1385004E+02  0.0000000E+00
Ar 1093  0.1077469E+02  0.3864174E+02  0.1663123E+02  0.0000000E+00
Ar 1094  0.1390129E+02  0.4156332E+02  0.1650243E+02  0.0000000E+00
Ar 1095  0.1377124E+02  0.3865811E+02  0.1920386E+02  0.0000000E+00
Ar 1096  0.1135989E+02  0.4151776E+02  0.1929100E+02  0.0000000E+00
Ar 1097  0.1120861E+02  0.3885528E+02  0.2171763E+02  0.0000000E+00
Ar 1098  0.1387544E+02  0.4128290E+02  0.2208386E+02  0.0000000E+00
Ar 1099  0.1414571E+02  0.3866984E+02  0.2478906E+02  0.0000000E+00
Ar 1100  0.1115227E+02  0.4161230E+02  0.2471527E+02  0.0000000E+00
Ar 1101  0.1127110E+02  0.3876111E+02  0.2759166E+02  0.0000000E+00
Ar 1102  0.1397624E+02  0.4160088E+02  0.2800488E+02  0.0000000E+00
Ar 1103  0.1390581E+02  0.3857277E+02  0.3020510E+02  0.0000000E+00
Ar 1104  0.1096130E+02  0.4156088E+02  0.3061084E+02  0.0000000E+00
Ar 1105  0.1103098E+02  0.3889255E+02  0.3322665E+02  0.0000000E+00
Ar 1106  0.1385881E+02  0.4159090E+02  0.3312924E+02  0.0000000E+00
Ar 1107  0.1400525E+02  0.3874125E+02  0.3594484E+02  0.0000000E+00
Ar 1108  0.1099905E+02  0.4156740E+02  0.3590334E+02  0.0000000E+00
Ar 1109  0.1137537E+02  0.3869983E+02  0.3869983E+02  0.0000000E+00
Ar 1110  0.1372520E+02  0.4144709E+02  0.3848820E+02  0.0000000E+00
Ar 1111  0.1372519E+02  0.3848819E+02  0.4144709E+02  0.0000000E+00
Ar 1112  0.1112063E+02  0.4142466E+02  0.4142466E+02  0.0000000E+00
Ar 1113  0.1139858E+02  0.3879579E+02  0.4430911E+02  0.0000000E+00
Ar 1114  0.1391553E+02  0.4118336E+02  0.4434122E+02  0.0000000E+00
Ar 1115  0.1395573E+02  0.3861108E+02  0.4718718E+02  0.0000000E+00
Ar 1116  0.1123789E+02  0.4134089E+02  0.4715149E+02  0.0000000E+00
Ar 1117  0.1115928E+02  0.3855486E+02  0.4964631E+02  0.0000000E+00
Ar 1118  0.1380376E+02  0.4132437E+02  0.4971845E+02  0.0000000E+00
Ar 1119  0.1363483E+02  0.3849544E+02  0.5257859E+02  0.0000000E+00
Ar 1120  0.1127356E+02  0.4144377E+02  0.5246742E+02  0.0000000E+00
Ar 1121  0.1138777E+02  0.4426240E+02  0.5517652E+02  0.0000000E+00
Ar 1122  0.1436517E+02  0.4698929E+02  0.5513737E+02  0.0000000E+00
Ar 1123  0.1445996E+02  0.4413218E+02  0.2620339E+01  0.0000000E+00
Ar 1124  0.1147517E+02  0.4658272E+02  0.2852561E+01  0.0000000E+00
Ar 1125  0.1129595E+02  0.4415272E+02  0.5780960E+01  0.0000000E+00
Ar 1126  0.1376466E+02  0.4698007E+02  0.5663507E+01  0.0000000E+00
Ar 1127  0.1395661E+02  0.4454949E+02  0.8428691E+01  0.0000000E+00
Ar 1128  0.1105149E+02  0.4672773E+02  0.8337363E+01  0.0000000E+00
Ar 1129  0.1111497E+02  0.4453922E+02  0.1111497E+02  0.0000000E+00
Ar 1130  0.1388470E+02  0.4717652E+02  0.1112076E+02  0.0000000E+00
Ar 1131  0.1399331E+02  0.4452136E+02  0.1399332E+02  0.0000000E+00
Ar 1132  0.1112075E+02  0.4717651E+02  0.1388470E+02  0.0000000E+00
Ar 1133  0.1143920E+02  0.4448167E+02  0.1667723E+02  0.0000000E+00
Ar 1134  0.1405600E+02  0.4719015E+02  0.1637964E+02  0.0000000E+00
Ar 1135  0.1409718E+02  0.4417978E+02  0.1929302E+02  0.0000000E+00
Ar 1136  0.1124440E+02  0.4704575E+02  0.1938216E+02  0.0000000E+00
Ar 1137  0.1119125E+02  0.4437626E+02  0.2216697E+02  0.0000000E+00
Ar 1138  0.1385536E+02  0.4703248E+02  0.2187979E+02  0.0000000E+00
Ar 1139  0.1382515E+02  0.4435813E+02  0.2491658E+02  0.0000000E+00
Ar 1140  0.1112625E+02  0.4716873E+02  0.2512268E+02  0.0000000E+00
Ar 1141  0.1114892E+02  0.4396358E+02  0.2781884E+02  0.0000000E+00
Ar 1142  0.1372960E+02  0.4708881E+02  0.2791265E+02  0.0000000E+00
Ar 1143  0.1378985E+02  0.4439531E+02  0.3051993E+02  0.0000000E+00
Ar 1144  0.1096877E+02  0.4711742E+02  0.3047322E+02  0.0000000E+00
Ar 1145  0.1126909E+02  0.4419468E+02  0.3324892E+02  0.0000000E+00
Ar 1146  0.1405948E+02  0.4734573E+02  0.3323178E+02  0.0000000E+00
Ar 1147  0.1414768E+02  0.4441227E+02  0.3580606E+02  0.0000000E+00
Ar 1148  0.1105107E+02  0.4721319E+02  0.3575929E+02  0.0000000E+00
Ar 1149  0.1139858E+02  0.4430911E+02  0.3879579E+02  0.0000000E+00
Ar 1150  0.1395573E+02  0.4718718E+02  0.3861108E+02  0.0000000E+00
Ar 1151  0.1391552E+02  0.4434122E+02  0.4118336E+02  0.0000000E+00
Ar 1152  0.1123789E+02  0.4715149E+02  0.4134088E+02  0.0000000E+00
Ar 1153  0.1137305E+02  0.4412004E+02  0.4412004E+02  0.0000000E+00
Ar 1154  0.1397383E+02  0.4697601E+02  0.4427495E+02  0.0000000E+00
Ar 1155  0.1397383E+02  0.4427495E+02  0.4697602E+02  0.0000000E+00
Ar 1156  0.1086865E+02  0.4715490E+02  0.4715490E+02  0.0000000E+00
Ar 1157  0.1122565E+02  0.4410173E+02  0.4961760E+02  0.0000000E+00
Ar 1158  0.1420713E+02  0.4682280E+02  0.4991759E+02  0.0000000E+00
Ar 1159  0.1376525E+02  0.4390191E+02  0.5255768E+02  0.0000000E+00
Ar 1160  0.1146930E+02  0.4706216E+02  0.5236254E+02  0.0000000E+00
Ar 1161  0.1177360E+02  0.4941110E+02  0.3354653E+00  0.0000000E+00
Ar 1162  0.1430511E+02  0.5259788E+02  0.5520140E+02  0.0000000E+00
Ar 1163  0.1386559E+02  0.4966719E+02  0.3023636E+01  0.0000000E+00
Ar 1164  0.1087742E+02  0.5262206E+02  0.2807821E+01  0.0000000E+00
Ar 1165  0.1112113E+02  0.4937078E+02  0.5665810E+01  0.0000000E+00
Ar 1166  0.1368313E+02  0.5253243E+02  0.5497697E+01  0.0000000E+00
Ar 1167  0.1379848E+02  0.4953295E+02  0.8261378E+01  0.0000000E+00
Ar 1168  0.1122217E+02  0.5207564E+02  0.8496261E+01  0.0000000E+00
Ar 1169  0.1124563E+02  0.4965677E+02  0.1124562E+02  0.0000000E+00
Ar 1170  0.1383828E+02  0.5227663E+02  0.1118245E+02  0.0000000E+00
Ar 1171  0.1375657E+02  0.5000748E+02  0.1375657E+02  0.0000000E+00
Ar 1172  0.1118245E+02  0.5227663E+02  0.1383829E+02  0.0000000E+00
Ar 1173  0.1109038E+02  0.4963048E+02  0.1653821E+02  0.0000000E+00
Ar 1174  0.1366100E+02  0.5251635E+02  0.1656526E+02  0.0000000E+00
Ar 1175  0.1384477E+02  0.4994312E+02  0.1951535E+02  0.0000000E+00
Ar 1176  0.1090461E+02  0.5250197E+02  0.1931841E+02  0.0000000E+00
Ar 1177  0.1083997E+02  0.4982294E+02  0.2246574E+02  0.0000000E+00
Ar 1178  0.1351996E+02  0.5254879E+02  0.2202863E+02  0.0000000E+00
Ar 1179  0.1367790E+02  0.4976799E+02  0.2514915E+02  0.0000000E+00
Ar 1180  0.1082012E+02  0.5243799E+02  0.2510687E+02  0.0000000E+00
Ar 1181  0.1124649E+02  0.4980103E+02  0.2795900E+02  0.0000000E+00
Ar 1182  0.1386728E+02  0.5234223E+02  0.2778272E+02  0.0000000E+00
Ar 1183  0.1400427E+02  0.4972660E+02  0.3050055E+02  0.0000000E+00
Ar 1184  0.1082504E+02  0.5259093E+02  0.3067116E+02  0.0000000E+00
Ar 1185  0.1092247E+02  0.4976536E+02  0.3329403E+02  0.0000000E+00
Ar 1186  0.1354273E+02  0.5217425E+02  0.3314808E+02  0.0000000E+00
Ar 1187  0.1380992E+02  0.4981047E+02  0.3599020E+02  0.0000000E+00
Ar 1188  0.1103760E+02  0.5263114E+02  0.3591255E+02  0.0000000E+00
Ar 1189  0.1115928E+02  0.4964631E+02  0.3855486E+02  0.0000000E+00
Ar 1190  0.1363483E+02  0.5257859E+02  0.3849544E+02  0.0000000E+00
Ar 1191  0.1380376E+02  0.4971844E+02  0.4132437E+02  0.0000000E+00
Ar 1192  0.1127356E+02  0.5246742E+02  0.4144376E+02  0.0000000E+00
Ar 1193  0.1122566E+02  0.4961759E+02  0.4410173E+02  0.0000000E+00
Ar 1194  0.1376525E+02  0.5255769E+02  0.4390190E+02  0.0000000E+00
Ar 1195  0.1420712E+02  0.4991760E+02  0.4682279E+02  0.0000000E+00
Ar 1196  0.1146930E+02  0.5236255E+02  0.4706216E+02  0.0000000E+00
Ar 1197  0.1165172E+02  0.4985759E+02  0.4985759E+02  0.0000000E+00
Ar 1198  0.1443258E+02  0.5272489E+02  0.4951373E+02  0.0000000E+00
Ar 1199  0.1443258E+02  0.4951374E+02  0.5272489E+02  0.0000000E+00
Ar 1200  0.1189213E+02  0.5251822E+02  0.5251824E+02  0.0000000E+00
Ar 1201  0.1642835E+02  0.1453787E+00  0.1453785E+00  0.0000000E+00
Ar 1202  0.1979182E+02  0.3042274E+01  0.5506109E+02  0.0000000E+00
Ar 1203  0.1979182E+02  0.5506109E+02  0.3042281E+01  0.0000000E+00
Ar 1204  0.1697621E+02  0.2801838E+01  0.2801833E+01  0.0000000E+00
Ar 1205  0.1660743E+02  0.5478299E+02  0.5829067E+01  0.0000000E+00
Ar 1206  0.1963020E+02  0.2726244E+01  0.5398785E+01  0.0000000E+00
Ar 1207  0.1938114E+02  0.2425892E+00  0.8265814E+01  0.0000000E+00
Ar 1208  0.1691456E+02  0.2987259E+01  0.8615748E+01  0.0000000E+00
Ar 1209  0.1700136E+02  0.5511783E+02  0.1139405E+02  0.0000000E+00
Ar 1210  0.1946432E+02  0.3108860E+01  0.1115374E+02  0.0000000E+00
Ar 1211  0.1954492E+02  0.3646706E+00  0.1373881E+02  0.0000000E+00
Ar 1212  0.1665832E+02  0.3088550E+01  0.1386552E+02  0.0000000E+00
Ar 1213  0.1676116E+02  0.5490506E+02  0.1676117E+02  0.0000000E+00
Ar 1214  0.1932437E+02  0.2929333E+01  0.1665320E+02  0.0000000E+00
Ar 1215  0.1928234E+02  0.5488221E+02  0.1928233E+02  0.0000000E+00
Ar 1216  0.1665320E+02  0.2929334E+01  0.1932437E+02  0.0000000E+00
Ar 1217  0.1636334E+02  0.2165370E+00  0.2186465E+02  0.0000000E+00
Ar 1218  0.1948599E+02  0.2755002E+01  0.2201419E+02  0.0000000E+00
Ar 1219  0.1944927E+02  0.5507209E+02  0.2515724E+02  0.0000000E+00
Ar 1220  0.1663340E+02  0.2640640E+01  0.2489038E+02  0.0000000E+00
Ar 1221  0.1642281E+02  0.2331040E+00  0.2760462E+02  0.0000000E+00
Ar 1222  0.1918097E+02  0.2791007E+01  0.2776351E+02  0.0000000E+00
Ar 1223  0.1986199E+02  0.5520769E+02  0.3111987E+02  0.0000000E+00
Ar 1224  0.1674771E+02  0.3153344E+01  0.3034870E+02  0.0000000E+00
Ar 1225  0.1592043E+02  0.1763418E+00  0.3265422E+02  0.0000000E+00
Ar 1226  0.1946822E+02  0.3236616E+01  0.3333480E+02  0.0000000E+00
Ar 1227  0.1968921E+02  0.2013982E+00  0.3608818E+02  0.0000000E+00
Ar 1228  0.1656824E+02  0.2884543E+01  0.3563777E+02  0.0000000E+00
Ar 1229  0.1670431E+02  0.5511769E+02  0.3860595E+02  0.0000000E+00
Ar 1230  0.1955412E+02  0.3137893E+01  0.3891138E+02  0.0000000E+00
Ar 1231  0.1928768E+02  0.5007746E+00  0.4150086E+02  0.0000000E+00
Ar 1232  0.1679892E+02  0.3177995E+01  0.4135110E+02  0.0000000E+00
Ar 1233  0.1709750E+02  0.4798745E+00  0.4435496E+02  0.0000000E+00
Ar 1234  0.1947228E+02  0.3011616E+01  0.4437080E+02  0.0000000E+00
Ar 1235  0.1968767E+02  0.2542252E+00  0.4714399E+02  0.0000000E+00
Ar 1236  0.1645127E+02  0.2916169E+01  0.4724768E+02  0.0000000E+00
Ar 1237  0.1685102E+02  0.2918082E+00  0.4981133E+02  0.0000000E+00
Ar 1238  0.1938017E+02  0.2901789E+01  0.4956969E+02  0.0000000E+00
Ar 1239  0.1991503E+02  0.5507078E+02  0.5245671E+02  0.0000000E+00
Ar 1240  0.1694822E+02  0.2880396E+01  0.5238182E+02  0.0000000E+00
Ar 1241  0.1660742E+02  0.5829065E+01  0.5478298E+02  0.0000000E+00
Ar 1242  0.1938114E+02  0.8265810E+01  0.2425914E+00  0.0000000E+00
Ar 1243  0.1963021E+02  0.5398788E+01  0.2726238E+01  0.0000000E+00
Ar 1244  0.1691456E+02  0.8615750E+01  0.2987256E+01  0.0000000E+00
Ar 1245  0.1733408E+02  0.5404533E+01  0.5404532E+01  0.0000000E+00
Ar 1246  0.1966637E+02  0.8130737E+01  0.5529109E+01  0.0000000E+00
Ar 1247  0.1966636E+02  0.5529108E+01  0.8130733E+01  0.0000000E+00
Ar 1248  0.1703866E+02  0.7860154E+01  0.7860150E+01  0.0000000E+00
Ar 1249  0.1701286E+02  0.5698692E+01  0.1115430E+02  0.0000000E+00
Ar 1250  0.1974680E+02  0.8109690E+01  0.1094233E+02  0.0000000E+00
Ar 1251  0.1956185E+02  0.5756291E+01  0.1394019E+02  0.0000000E+00
Ar 1252  0.1688237E+02  0.8112037E+01  0.1398725E+02  0.0000000E+00
Ar 1253  0.1686450E+02  0.5701134E+01  0.1686449E+02  0.0000000E+00
Ar 1254  0.1934731E+02  0.8231872E+01  0.1684771E+02  0.0000000E+00
Ar 1255  0.1970973E+02  0.5976264E+01  0.1970973E+02  0.0000000E+00
Ar 1256  0.1684772E+02  0.8231874E+01  0.1934730E+02  0.0000000E+00
Ar 1257  0.1687926E+02  0.5782389E+01  0.2211819E+02  0.0000000E+00
Ar 1258  0.1935864E+02  0.8522731E+01  0.2227093E+02  0.0000000E+00
Ar 1259  0.1926322E+02  0.5571654E+01  0.2483594E+02  0.0000000E+00
Ar 1260  0.1638089E+02  0.8432467E+01  0.2508658E+02  0.0000000E+00
Ar 1261  0.1645099E+02  0.5574979E+01  0.2749784E+02  0.0000000E+00
Ar 1262  0.1894165E+02  0.8104281E+01  0.2770718E+02  0.0000000E+00
Ar 1263  0.1923192E+02  0.5959734E+01  0.3043894E+02  0.0000000E+00
Ar 1264  0.1630154E+02  0.8373089E+01  0.3039702E+02  0.0000000E+00
Ar 1265  0.1638274E+02  0.5610991E+01  0.3306443E+02  0.0000000E+00
Ar 1266  0.1958260E+02  0.8278290E+01  0.3303449E+02  0.0000000E+00
Ar 1267  0.1915918E+02  0.5818901E+01  0.3614867E+02  0.0000000E+00
Ar 1268  0.1631340E+02  0.8245342E+01  0.3579979E+02  0.0000000E+00
Ar 1269  0.1656749E+02  0.5833002E+01  0.3872009E+02  0.0000000E+00
Ar 1270  0.1965136E+02  0.8337442E+01  0.3880754E+02  0.0000000E+00
Ar 1271  0.1938665E+02  0.5622279E+01  0.4170162E+02  0.0000000E+00
Ar 1272  0.1668898E+02  0.8259393E+01  0.4148874E+02  0.0000000E+00
Ar 1273  0.1678505E+02  0.5880595E+01  0.4440556E+02  0.0000000E+00
Ar 1274  0.1922750E+02  0.8514036E+01  0.4416758E+02  0.0000000E+00
Ar 1275  0.1922441E+02  0.5732454E+01  0.4718401E+02  0.0000000E+00
Ar 1276  0.1668896E+02  0.8395468E+01  0.4703561E+02  0.0000000E+00
Ar 1277  0.1654792E+02  0.5724169E+01  0.4973063E+02  0.0000000E+00
Ar 1278  0.1939371E+02  0.8477052E+01  0.4996773E+02  0.0000000E+00
Ar 1279  0.1943088E+02  0.5661577E+01  0.5240841E+02  0.0000000E+00
Ar 1280  0.1651273E+02  0.8587070E+01  0.5246341E+02  0.0000000E+00
Ar 1281  0.1700136E+02  0.1139405E+02  0.5511782E+02  0.0000000E+00
Ar 1282  0.1954492E+02  0.1373881E+02  0.3646697E+00  0.0000000E+00
Ar 1283  0.1946432E+02  0.1115374E+02  0.3108856E+01  0.0000000E+00
Ar 1284  0.1665833E+02  0.1386552E+02  0.3088551E+01  0.0000000E+00
Ar 1285  0.1701286E+02  0.1115430E+02  0.5698690E+01  0.0000000E+00
Ar 1286  0.1956185E+02  0.1394019E+02  0.5756291E+01  0.0000000E+00
Ar 1287  0.1974680E+02  0.1094233E+02  0.8109693E+01  0.0000000E+00
Ar 1288  0.1688238E+02  0.1398725E+02  0.8112035E+01  0.0000000E+00
Ar 1289  0.1684755E+02  0.1067324E+02  0.1067324E+02  0.0000000E+00
Ar 1290  0.1927200E+02  0.1396430E+02  0.1074992E+02  0.0000000E+00
Ar 1291  0.1927200E+02  0.1074992E+02  0.1396430E+02  0.0000000E+00
Ar 1292  0.1651891E+02  0.1334833E+02  0.1334833E+02  0.0000000E+00
Ar 1293  0.1621263E+02  0.1081116E+02  0.1621262E+02  0.0000000E+00
Ar 1294  0.1911463E+02  0.1345945E+02  0.1637874E+02  0.0000000E+00
Ar 1295  0.1953822E+02  0.1147110E+02  0.1953821E+02  0.0000000E+00
Ar 1296  0.1637874E+02  0.1345946E+02  0.1911461E+02  0.0000000E+00
Ar 1297  0.1681237E+02  0.1088240E+02  0.2226838E+02  0.0000000E+00
Ar 1298  0.1897006E+02  0.1393136E+02  0.2206983E+02  0.0000000E+00
Ar 1299  0.1929981E+02  0.1119897E+02  0.2482339E+02  0.0000000E+00
Ar 1300  0.1652316E+02  0.1389572E+02  0.2515204E+02  0.0000000E+00
Ar 1301  0.1664897E+02  0.1118377E+02  0.2762348E+02  0.0000000E+00
Ar 1302  0.1938800E+02  0.1369049E+02  0.2772134E+02  0.0000000E+00
Ar 1303  0.1924920E+02  0.1085786E+02  0.3064747E+02  0.0000000E+00
Ar 1304  0.1622897E+02  0.1362413E+02  0.3050298E+02  0.0000000E+00
Ar 1305  0.1632509E+02  0.1096803E+02  0.3308675E+02  0.0000000E+00
Ar 1306  0.1919536E+02  0.1356310E+02  0.3323594E+02  0.0000000E+00
Ar 1307  0.1908941E+02  0.1077776E+02  0.3587494E+02  0.0000000E+00
Ar 1308  0.1663515E+02  0.1389802E+02  0.3590309E+02  0.0000000E+00
Ar 1309  0.1663123E+02  0.1077468E+02  0.3864175E+02  0.0000000E+00
Ar 1310  0.1920386E+02  0.1377124E+02  0.3865811E+02  0.0000000E+00
Ar 1311  0.1929101E+02  0.1135989E+02  0.4151776E+02  0.0000000E+00
Ar 1312  0.1650244E+02  0.1390128E+02  0.4156331E+02  0.0000000E+00
Ar 1313  0.1667723E+02  0.1143919E+02  0.4448168E+02  0.0000000E+00
Ar 1314  0.1929302E+02  0.1409718E+02  0.4417978E+02  0.0000000E+00
Ar 1315  0.1938216E+02  0.1124441E+02  0.4704574E+02  0.0000000E+00
Ar 1316  0.1637964E+02  0.1405600E+02  0.4719015E+02  0.0000000E+00
Ar 1317  0.1653821E+02  0.1109040E+02  0.4963048E+02  0.0000000E+00
Ar 1318  0.1951535E+02  0.1384477E+02  0.4994313E+02  0.0000000E+00
Ar 1319  0.1931842E+02  0.1090462E+02  0.5250198E+02  0.0000000E+00
Ar 1320  0.1656526E+02  0.1366100E+02  0.5251636E+02  0.0000000E+00
Ar 1321  0.1676116E+02  0.1676116E+02  0.5490506E+02  0.0000000E+00
Ar 1322  0.1928234E+02  0.1928233E+02  0.5488221E+02  0.0000000E+00
Ar 1323  0.1932437E+02  0.1665320E+02  0.2929334E+01  0.0000000E+00
Ar 1324  0.1665320E+02  0.1932437E+02  0.2929335E+01  0.0000000E+00
Ar 1325  0.1686450E+02  0.1686450E+02  0.5701131E+01  0.0000000E+00
Ar 1326  0.1970973E+02  0.1970973E+02  0.5976266E+01  0.0000000E+00
Ar 1327  0.1934731E+02  0.1684771E+02  0.8231869E+01  0.0000000E+00
Ar 1328  0.1684771E+02  0.1934730E+02  0.8231870E+01  0.0000000E+00
Ar 1329  0.1621262E+02  0.1621262E+02  0.1081116E+02  0.0000000E+00
Ar 1330  0.1953822E+02  0.1953822E+02  0.1147110E+02  0.0000000E+00
Ar 1331  0.1911463E+02  0.1637874E+02  0.1345945E+02  0.0000000E+00
Ar 1332  0.1637874E+02  0.1911461E+02  0.1345946E+02  0.0000000E+00
Ar 1333  0.1618288E+02  0.1618288E+02  0.1618288E+02  0.0000000E+00
Ar 1334  0.1897403E+02  0.1897403E+02  0.1598104E+02  0.0000000E+00
Ar 1335  0.1897403E+02  0.1598104E+02  0.1897403E+02  0.0000000E+00
Ar 1336  0.1598104E+02  0.1897401E+02  0.1897401E+02  0.0000000E+00
Ar 1337  0.1635232E+02  0.1635231E+02  0.2160852E+02  0.0000000E+00
Ar 1338  0.1929848E+02  0.1929849E+02  0.2198061E+02  0.0000000E+00
Ar 1339  0.1913603E+02  0.1644129E+02  0.2475395E+02  0.0000000E+00
Ar 1340  0.1644130E+02  0.1913602E+02  0.2475394E+02  0.0000000E+00
Ar 1341  0.1657854E+02  0.1657854E+02  0.2776178E+02  0.0000000E+00
Ar 1342  0.1929041E+02  0.1929042E+02  0.2754838E+02  0.0000000E+00
Ar 1343  0.1937206E+02  0.1651608E+02  0.3026228E+02  0.0000000E+00
Ar 1344  0.1651608E+02  0.1937206E+02  0.3026226E+02  0.0000000E+00
Ar 1345  0.1657310E+02  0.1657310E+02  0.3349443E+02  0.0000000E+00
Ar 1346  0.1935042E+02  0.1935043E+02  0.3334990E+02  0.0000000E+00
Ar 1347  0.1956885E+02  0.1658393E+02  0.3592786E+02  0.0000000E+00
Ar 1348  0.1658392E+02  0.1956886E+02  0.3592786E+02  0.0000000E+00
Ar 1349  0.1661916E+02  0.1661916E+02  0.3848022E+02  0.0000000E+00
Ar 1350  0.1927700E+02  0.1927700E+02  0.3875562E+02  0.0000000E+00
Ar 1351  0.1963006E+02  0.1660517E+02  0.4150148E+02  0.0000000E+00
Ar 1352  0.1660517E+02  0.1963006E+02  0.4150148E+02  0.0000000E+00
Ar 1353  0.1654067E+02  0.1654066E+02  0.4406407E+02  0.0000000E+00
Ar 1354  0.1928750E+02  0.1928749E+02  0.4430524E+02  0.0000000E+00
Ar 1355  0.1916261E+02  0.1666749E+02  0.4702447E+02  0.0000000E+00
Ar 1356  0.1666749E+02  0.1916260E+02  0.4702446E+02  0.0000000E+00
Ar 1357  0.1637335E+02  0.1637336E+02  0.5011965E+02  0.0000000E+00
Ar 1358  0.1938717E+02  0.1938717E+02  0.5016151E+02  0.0000000E+00
Ar 1359  0.1937233E+02  0.1647328E+02  0.5242229E+02  0.0000000E+00
Ar 1360  0.1647328E+02  0.1937233E+02  0.5242228E+02  0.0000000E+00
Ar 1361  0.1636334E+02  0.2186465E+02  0.2165402E+00  0.0000000E+00
Ar 1362  0.1944926E+02  0.2515724E+02  0.5507209E+02  0.0000000E+00
Ar 1363  0.1948599E+02  0.2201419E+02  0.2755005E+01  0.0000000E+00
Ar 1364  0.1663340E+02  0.2489039E+02  0.2640641E+01  0.0000000E+00
Ar 1365  0.1687926E+02  0.2211819E+02  0.5782390E+01  0.0000000E+00
Ar 1366  0.1926322E+02  0.2483595E+02  0.5571660E+01  0.0000000E+00
Ar 1367  0.1935864E+02  0.2227094E+02  0.8522732E+01  0.0000000E+00
Ar 1368  0.1638089E+02  0.2508658E+02  0.8432469E+01  0.0000000E+00
Ar 1369  0.1681237E+02  0.2226838E+02  0.1088240E+02  0.0000000E+00
Ar 1370  0.1929980E+02  0.2482339E+02  0.1119897E+02  0.0000000E+00
Ar 1371  0.1897005E+02  0.2206983E+02  0.1393136E+02  0.0000000E+00
Ar 1372  0.1652315E+02  0.2515205E+02  0.1389572E+02  0.0000000E+00
Ar 1373  0.1635232E+02  0.2160852E+02  0.1635232E+02  0.0000000E+00
Ar 1374  0.1913602E+02  0.2475395E+02  0.1644129E+02  0.0000000E+00
Ar 1375  0.1929849E+02  0.2198061E+02  0.1929849E+02  0.0000000E+00
Ar 1376  0.1644130E+02  0.2475394E+02  0.1913602E+02  0.0000000E+00
Ar 1377  0.1652669E+02  0.2177122E+02  0.2177121E+02  0.0000000E+00
Ar 1378  0.1946293E+02  0.2488758E+02  0.2199986E+02  0.0000000E+00
Ar 1379  0.1946293E+02  0.2199986E+02  0.2488758E+02  0.0000000E+00
Ar 1380  0.1662090E+02  0.2455630E+02  0.2455630E+02  0.0000000E+00
Ar 1381  0.1661840E+02  0.2193196E+02  0.2723661E+02  0.0000000E+00
Ar 1382  0.1926443E+02  0.2479873E+02  0.2758165E+02  0.0000000E+00
Ar 1383  0.1907895E+02  0.2196617E+02  0.3029163E+02  0.0000000E+00
Ar 1384  0.1657668E+02  0.2477972E+02  0.3009756E+02  0.0000000E+00
Ar 1385  0.1661013E+02  0.2203737E+02  0.3296365E+02  0.0000000E+00
Ar 1386  0.1948478E+02  0.2450918E+02  0.3333394E+02  0.0000000E+00
Ar 1387  0.1918767E+02  0.2210356E+02  0.3620310E+02  0.0000000E+00
Ar 1388  0.1683201E+02  0.2487482E+02  0.3601134E+02  0.0000000E+00
Ar 1389  0.1659052E+02  0.2202194E+02  0.3864575E+02  0.0000000E+00
Ar 1390  0.1924613E+02  0.2494599E+02  0.3881268E+02  0.0000000E+00
Ar 1391  0.1935745E+02  0.2181659E+02  0.4160741E+02  0.0000000E+00
Ar 1392  0.1667888E+02  0.2448658E+02  0.4145060E+02  0.0000000E+00
Ar 1393  0.1681508E+02  0.2196260E+02  0.4431790E+02  0.0000000E+00
Ar 1394  0.1939475E+02  0.2460251E+02  0.4451541E+02  0.0000000E+00
Ar 1395  0.1939849E+02  0.2208409E+02  0.4721806E+02  0.0000000E+00
Ar 1396  0.1626140E+02  0.2481509E+02  0.4701464E+02  0.0000000E+00
Ar 1397  0.1633475E+02  0.2205398E+02  0.4954980E+02  0.0000000E+00
Ar 1398  0.1880373E+02  0.2483672E+02  0.4964075E+02  0.0000000E+00
Ar 1399  0.1958446E+02  0.2241424E+02  0.5254408E+02  0.0000000E+00
Ar 1400  0.1655763E+02  0.2460815E+02  0.5237528E+02  0.0000000E+00
Ar 1401  0.1642281E+02  0.2760462E+02  0.2331028E+00  0.0000000E+00
Ar 1402  0.1986198E+02  0.3111987E+02  0.5520768E+02  0.0000000E+00
Ar 1403  0.1918097E+02  0.2776352E+02  0.2791008E+01  0.0000000E+00
Ar 1404  0.1674771E+02  0.3034870E+02  0.3153344E+01  0.0000000E+00
Ar 1405  0.1645099E+02  0.2749784E+02  0.5574981E+01  0.0000000E+00
Ar 1406  0.1923192E+02  0.3043894E+02  0.5959731E+01  0.0000000E+00
Ar 1407  0.1894166E+02  0.2770718E+02  0.8104285E+01  0.0000000E+00
Ar 1408  0.1630154E+02  0.3039702E+02  0.8373091E+01  0.0000000E+00
Ar 1409  0.1664897E+02  0.2762349E+02  0.1118377E+02  0.0000000E+00
Ar 1410  0.1924920E+02  0.3064746E+02  0.1085786E+02  0.0000000E+00
Ar 1411  0.1938800E+02  0.2772134E+02  0.1369049E+02  0.0000000E+00
Ar 1412  0.1622896E+02  0.3050298E+02  0.1362413E+02  0.0000000E+00
Ar 1413  0.1657854E+02  0.2776178E+02  0.1657854E+02  0.0000000E+00
Ar 1414  0.1937206E+02  0.3026228E+02  0.1651608E+02  0.0000000E+00
Ar 1415  0.1929041E+02  0.2754837E+02  0.1929042E+02  0.0000000E+00
Ar 1416  0.1651608E+02  0.3026226E+02  0.1937206E+02  0.0000000E+00
Ar 1417  0.1661840E+02  0.2723661E+02  0.2193196E+02  0.0000000E+00
Ar 1418  0.1907895E+02  0.3029163E+02  0.2196617E+02  0.0000000E+00
Ar 1419  0.1926443E+02  0.2758165E+02  0.2479873E+02  0.0000000E+00
Ar 1420  0.1657668E+02  0.3009756E+02  0.2477972E+02  0.0000000E+00
Ar 1421  0.1647518E+02  0.2752983E+02  0.2752983E+02  0.0000000E+00
Ar 1422  0.1926689E+02  0.3031671E+02  0.2752424E+02  0.0000000E+00
Ar 1423  0.1926690E+02  0.2752424E+02  0.3031670E+02  0.0000000E+00
Ar 1424  0.1633257E+02  0.3013234E+02  0.3013234E+02  0.0000000E+00
Ar 1425  0.1659261E+02  0.2741158E+02  0.3294018E+02  0.0000000E+00
Ar 1426  0.1905125E+02  0.3041526E+02  0.3312425E+02  0.0000000E+00
Ar 1427  0.1927173E+02  0.2761251E+02  0.3569095E+02  0.0000000E+00
Ar 1428  0.1649569E+02  0.3009972E+02  0.3600554E+02  0.0000000E+00
Ar 1429  0.1666159E+02  0.2763590E+02  0.3901153E+02  0.0000000E+00
Ar 1430  0.1936938E+02  0.3049567E+02  0.3864833E+02  0.0000000E+00
Ar 1431  0.1930354E+02  0.2729675E+02  0.4197005E+02  0.0000000E+00
Ar 1432  0.1646746E+02  0.3050911E+02  0.4198444E+02  0.0000000E+00
Ar 1433  0.1629706E+02  0.2763127E+02  0.4439879E+02  0.0000000E+00
Ar 1434  0.1930949E+02  0.3043630E+02  0.4448342E+02  0.0000000E+00
Ar 1435  0.1932504E+02  0.2768651E+02  0.4694754E+02  0.0000000E+00
Ar 1436  0.1668912E+02  0.3045598E+02  0.4709577E+02  0.0000000E+00
Ar 1437  0.1656514E+02  0.2755737E+02  0.4961468E+02  0.0000000E+00
Ar 1438  0.1964626E+02  0.3032682E+02  0.4976497E+02  0.0000000E+00
Ar 1439  0.1934197E+02  0.2764863E+02  0.5257550E+02  0.0000000E+00
Ar 1440  0.1667450E+02  0.3043308E+02  0.5247692E+02  0.0000000E+00
Ar 1441  0.1592043E+02  0.3265423E+02  0.1763493E+00  0.0000000E+00
Ar 1442  0.1968921E+02  0.3608819E+02  0.2013965E+00  0.0000000E+00
Ar 1443  0.1946821E+02  0.3333480E+02  0.3236618E+01  0.0000000E+00
Ar 1444  0.1656824E+02  0.3563777E+02  0.2884539E+01  0.0000000E+00
Ar 1445  0.1638274E+02  0.3306443E+02  0.5610989E+01  0.0000000E+00
Ar 1446  0.1915918E+02  0.3614867E+02  0.5818900E+01  0.0000000E+00
Ar 1447  0.1958261E+02  0.3303449E+02  0.8278285E+01  0.0000000E+00
Ar 1448  0.1631340E+02  0.3579979E+02  0.8245345E+01  0.0000000E+00
Ar 1449  0.1632510E+02  0.3308675E+02  0.1096803E+02  0.0000000E+00
Ar 1450  0.1908942E+02  0.3587494E+02  0.1077776E+02  0.0000000E+00
Ar 1451  0.1919536E+02  0.3323594E+02  0.1356311E+02  0.0000000E+00
Ar 1452  0.1663515E+02  0.3590309E+02  0.1389802E+02  0.0000000E+00
Ar 1453  0.1657310E+02  0.3349443E+02  0.1657310E+02  0.0000000E+00
Ar 1454  0.1956885E+02  0.3592786E+02  0.1658393E+02  0.0000000E+00
Ar 1455  0.1935042E+02  0.3334990E+02  0.1935042E+02  0.0000000E+00
Ar 1456  0.1658393E+02  0.3592786E+02  0.1956886E+02  0.0000000E+00
Ar 1457  0.1661014E+02  0.3296365E+02  0.2203736E+02  0.0000000E+00
Ar 1458  0.1918767E+02  0.3620309E+02  0.2210356E+02  0.0000000E+00
Ar 1459  0.1948478E+02  0.3333394E+02  0.2450918E+02  0.0000000E+00
Ar 1460  0.1683201E+02  0.3601133E+02  0.2487482E+02  0.0000000E+00
Ar 1461  0.1659260E+02  0.3294018E+02  0.2741159E+02  0.0000000E+00
Ar 1462  0.1927173E+02  0.3569095E+02  0.2761251E+02  0.0000000E+00
Ar 1463  0.1905125E+02  0.3312426E+02  0.3041526E+02  0.0000000E+00
Ar 1464  0.1649570E+02  0.3600554E+02  0.3009971E+02  0.0000000E+00
Ar 1465  0.1613611E+02  0.3305683E+02  0.3305683E+02  0.0000000E+00
Ar 1466  0.1915566E+02  0.3590768E+02  0.3339589E+02  0.0000000E+00
Ar 1467  0.1915566E+02  0.3339589E+02  0.3590768E+02  0.0000000E+00
Ar 1468  0.1639758E+02  0.3600949E+02  0.3600950E+02  0.0000000E+00
Ar 1469  0.1664669E+02  0.3315694E+02  0.3891075E+02  0.0000000E+00
Ar 1470  0.1937762E+02  0.3592249E+02  0.3863986E+02  0.0000000E+00
Ar 1471  0.1939185E+02  0.3314902E+02  0.4140906E+02  0.0000000E+00
Ar 1472  0.1668579E+02  0.3593179E+02  0.4145870E+02  0.0000000E+00
Ar 1473  0.1675007E+02  0.3329476E+02  0.4437754E+02  0.0000000E+00
Ar 1474  0.1935509E+02  0.3589950E+02  0.4423278E+02  0.0000000E+00
Ar 1475  0.1965662E+02  0.3304601E+02  0.4702748E+02  0.0000000E+00
Ar 1476  0.1676247E+02  0.3626508E+02  0.4731619E+02  0.0000000E+00
Ar 1477  0.1688532E+02  0.3325189E+02  0.4994517E+02  0.0000000E+00
Ar 1478  0.1965434E+02  0.3581908E+02  0.4985095E+02  0.0000000E+00
Ar 1479  0.1956393E+02  0.3342508E+02  0.5257645E+02  0.0000000E+00
Ar 1480  0.1687321E+02  0.3579958E+02  0.5273037E+02  0.0000000E+00
Ar 1481  0.1670432E+02  0.3860595E+02  0.5511769E+02  0.0000000E+00
Ar 1482  0.1928769E+02  0.4150087E+02  0.5007788E+00  0.0000000E+00
Ar 1483  0.1955412E+02  0.3891138E+02  0.3137893E+01  0.0000000E+00
Ar 1484  0.1679893E+02  0.4135110E+02  0.3177991E+01  0.0000000E+00
Ar 1485  0.1656749E+02  0.3872009E+02  0.5832995E+01  0.0000000E+00
Ar 1486  0.1938665E+02  0.4170162E+02  0.5622274E+01  0.0000000E+00
Ar 1487  0.1965136E+02  0.3880754E+02  0.8337438E+01  0.0000000E+00
Ar 1488  0.1668898E+02  0.4148874E+02  0.8259387E+01  0.0000000E+00
Ar 1489  0.1663123E+02  0.3864175E+02  0.1077467E+02  0.0000000E+00
Ar 1490  0.1929101E+02  0.4151776E+02  0.1135989E+02  0.0000000E+00
Ar 1491  0.1920386E+02  0.3865811E+02  0.1377124E+02  0.0000000E+00
Ar 1492  0.1650244E+02  0.4156331E+02  0.1390129E+02  0.0000000E+00
Ar 1493  0.1661916E+02  0.3848021E+02  0.1661916E+02  0.0000000E+00
Ar 1494  0.1963006E+02  0.4150149E+02  0.1660517E+02  0.0000000E+00
Ar 1495  0.1927701E+02  0.3875562E+02  0.1927700E+02  0.0000000E+00
Ar 1496  0.1660518E+02  0.4150149E+02  0.1963006E+02  0.0000000E+00
Ar 1497  0.1659053E+02  0.3864575E+02  0.2202194E+02  0.0000000E+00
Ar 1498  0.1935746E+02  0.4160741E+02  0.2181659E+02  0.0000000E+00
Ar 1499  0.1924613E+02  0.3881268E+02  0.2494598E+02  0.0000000E+00
Ar 1500  0.1667888E+02  0.4145060E+02  0.2448658E+02  0.0000000E+00
Ar 1501  0.1666160E+02  0.3901153E+02  0.2763589E+02  0.0000000E+00
Ar 1502  0.1930354E+02  0.4197005E+02  0.2729675E+02  0.0000000E+00
Ar 1503  0.1936938E+02  0.3864832E+02  0.3049567E+02  0.0000000E+00
Ar 1504  0.1646746E+02  0.4198444E+02  0.3050911E+02  0.0000000E+00
Ar 1505  0.1664669E+02  0.3891075E+02  0.3315694E+02  0.0000000E+00
Ar 1506  0.1939185E+02  0.4140906E+02  0.3314902E+02  0.0000000E+00
Ar 1507  0.1937762E+02  0.3863986E+02  0.3592249E+02  0.0000000E+00
Ar 1508  0.1668579E+02  0.4145871E+02  0.3593179E+02  0.0000000E+00
Ar 1509  0.1674337E+02  0.3884400E+02  0.3884400E+02  0.0000000E+00
Ar 1510  0.1937397E+02  0.4124093E+02  0.3851649E+02  0.0000000E+00
Ar 1511  0.1937398E+02  0.3851649E+02  0.4124093E+02  0.0000000E+00
Ar 1512  0.1628094E+02  0.4143058E+02  0.4143058E+02  0.0000000E+00
Ar 1513  0.1668780E+02  0.3849045E+02  0.4408216E+02  0.0000000E+00
Ar 1514  0.1955808E+02  0.4151233E+02  0.4417262E+02  0.0000000E+00
Ar 1515  0.1954338E+02  0.3887955E+02  0.4708328E+02  0.0000000E+00
Ar 1516  0.1663752E+02  0.4120476E+02  0.4674539E+02  0.0000000E+00
Ar 1517  0.1683115E+02  0.3860987E+02  0.5008653E+02  0.0000000E+00
Ar 1518  0.1969626E+02  0.4173127E+02  0.4957482E+02  0.0000000E+00
Ar 1519  0.1952845E+02  0.3896434E+02  0.5249787E+02  0.0000000E+00
Ar 1520  0.1650796E+02  0.4131429E+02  0.5241694E+02  0.0000000E+00
Ar 1521  0.1709751E+02  0.4435496E+02  0.4798744E+00  0.0000000E+00
Ar 1522  0.1968767E+02  0.4714399E+02  0.2542262E+00  0.0000000E+00
Ar 1523  0.1947228E+02  0.4437080E+02  0.3011620E+01  0.0000000E+00
Ar 1524  0.1645127E+02  0.4724768E+02  0.2916166E+01  0.0000000E+00
Ar 1525  0.1678505E+02  0.4440556E+02  0.5880596E+01  0.0000000E+00
Ar 1526  0.1922440E+02  0.4718401E+02  0.5732455E+01  0.0000000E+00
Ar 1527  0.1922750E+02  0.4416758E+02  0.8514037E+01  0.0000000E+00
Ar 1528  0.1668896E+02  0.4703561E+02  0.8395465E+01  0.0000000E+00
Ar 1529  0.1667723E+02  0.4448168E+02  0.1143921E+02  0.0000000E+00
Ar 1530  0.1938216E+02  0.4704575E+02  0.1124441E+02  0.0000000E+00
Ar 1531  0.1929302E+02  0.4417978E+02  0.1409718E+02  0.0000000E+00
Ar 1532  0.1637965E+02  0.4719016E+02  0.1405600E+02  0.0000000E+00
Ar 1533  0.1654067E+02  0.4406408E+02  0.1654066E+02  0.0000000E+00
Ar 1534  0.1916261E+02  0.4702447E+02  0.1666748E+02  0.0000000E+00
Ar 1535  0.1928749E+02  0.4430524E+02  0.1928748E+02  0.0000000E+00
Ar 1536  0.1666749E+02  0.4702446E+02  0.1916259E+02  0.0000000E+00
Ar 1537  0.1681509E+02  0.4431790E+02  0.2196259E+02  0.0000000E+00
Ar 1538  0.1939850E+02  0.4721806E+02  0.2208409E+02  0.0000000E+00
Ar 1539  0.1939476E+02  0.4451542E+02  0.2460251E+02  0.0000000E+00
Ar 1540  0.1626140E+02  0.4701464E+02  0.2481509E+02  0.0000000E+00
Ar 1541  0.1629706E+02  0.4439879E+02  0.2763128E+02  0.0000000E+00
Ar 1542  0.1932504E+02  0.4694755E+02  0.2768651E+02  0.0000000E+00
Ar 1543  0.1930948E+02  0.4448342E+02  0.3043630E+02  0.0000000E+00
Ar 1544  0.1668912E+02  0.4709577E+02  0.3045598E+02  0.0000000E+00
Ar 1545  0.1675007E+02  0.4437753E+02  0.3329476E+02  0.0000000E+00
Ar 1546  0.1965662E+02  0.4702748E+02  0.3304600E+02  0.0000000E+00
Ar 1547  0.1935509E+02  0.4423278E+02  0.3589950E+02  0.0000000E+00
Ar 1548  0.1676247E+02  0.4731619E+02  0.3626508E+02  0.0000000E+00
Ar 1549  0.1668781E+02  0.4408216E+02  0.3849045E+02  0.0000000E+00
Ar 1550  0.1954338E+02  0.4708328E+02  0.3887955E+02  0.0000000E+00
Ar 1551  0.1955808E+02  0.4417261E+02  0.4151232E+02  0.0000000E+00
Ar 1552  0.1663752E+02  0.4674538E+02  0.4120476E+02  0.0000000E+00
Ar 1553  0.1649037E+02  0.4400346E+02  0.4400346E+02  0.0000000E+00
Ar 1554  0.1936922E+02  0.4679875E+02  0.4407785E+02  0.0000000E+00
Ar 1555  0.1936923E+02  0.4407786E+02  0.4679876E+02  0.0000000E+00
Ar 1556  0.1695791E+02  0.4668284E+02  0.4668284E+02  0.0000000E+00
Ar 1557  0.1651889E+02  0.4390665E+02  0.4983267E+02  0.0000000E+00
Ar 1558  0.1953973E+02  0.4708899E+02  0.4965345E+02  0.0000000E+00
Ar 1559  0.1957994E+02  0.4409432E+02  0.5231943E+02  0.0000000E+00
Ar 1560  0.1670737E+02  0.4648142E+02  0.5262332E+02  0.0000000E+00
Ar 1561  0.1685102E+02  0.4981133E+02  0.2918044E+00  0.0000000E+00
Ar 1562  0.1991503E+02  0.5245671E+02  0.5507079E+02  0.0000000E+00
Ar 1563  0.1938016E+02  0.4956969E+02  0.2901794E+01  0.0000000E+00
Ar 1564  0.1694823E+02  0.5238183E+02  0.2880393E+01  0.0000000E+00
Ar 1565  0.1654792E+02  0.4973063E+02  0.5724170E+01  0.0000000E+00
Ar 1566  0.1943088E+02  0.5240841E+02  0.5661577E+01  0.0000000E+00
Ar 1567  0.1939371E+02  0.4996772E+02  0.8477051E+01  0.0000000E+00
Ar 1568  0.1651272E+02  0.5246341E+02  0.8587069E+01  0.0000000E+00
Ar 1569  0.1653820E+02  0.4963048E+02  0.1109040E+02  0.0000000E+00
Ar 1570  0.1931842E+02  0.5250198E+02  0.1090462E+02  0.0000000E+00
Ar 1571  0.1951535E+02  0.4994313E+02  0.1384477E+02  0.0000000E+00
Ar 1572  0.1656526E+02  0.5251636E+02  0.1366100E+02  0.0000000E+00
Ar 1573  0.1637335E+02  0.5011966E+02  0.1637335E+02  0.0000000E+00
Ar 1574  0.1937233E+02  0.5242228E+02  0.1647329E+02  0.0000000E+00
Ar 1575  0.1938717E+02  0.5016151E+02  0.1938718E+02  0.0000000E+00
Ar 1576  0.1647329E+02  0.5242228E+02  0.1937233E+02  0.0000000E+00
Ar 1577  0.1633475E+02  0.4954980E+02  0.2205399E+02  0.0000000E+00
Ar 1578  0.1958446E+02  0.5254408E+02  0.2241424E+02  0.0000000E+00
Ar 1579  0.1880373E+02  0.4964075E+02  0.2483672E+02  0.0000000E+00
Ar 1580  0.1655763E+02  0.5237529E+02  0.2460815E+02  0.0000000E+00
Ar 1581  0.1656513E+02  0.4961468E+02  0.2755737E+02  0.0000000E+00
Ar 1582  0.1934197E+02  0.5257550E+02  0.2764863E+02  0.0000000E+00
Ar 1583  0.1964626E+02  0.4976497E+02  0.3032682E+02  0.0000000E+00
Ar 1584  0.1667450E+02  0.5247692E+02  0.3043308E+02  0.0000000E+00
Ar 1585  0.1688533E+02  0.4994516E+02  0.3325189E+02  0.0000000E+00
Ar 1586  0.1956393E+02  0.5257646E+02  0.3342508E+02  0.0000000E+00
Ar 1587  0.1965434E+02  0.4985094E+02  0.3581908E+02  0.0000000E+00
Ar 1588  0.1687321E+02  0.5273036E+02  0.3579958E+02  0.0000000E+00
Ar 1589  0.1683115E+02  0.5008653E+02  0.3860986E+02  0.0000000E+00
Ar 1590  0.1952845E+02  0.5249786E+02  0.3896435E+02  0.0000000E+00
Ar 1591  0.1969627E+02  0.4957483E+02  0.4173127E+02  0.0000000E+00
Ar 1592  0.1650796E+02  0.5241694E+02  0.4131429E+02  0.0000000E+00
Ar 1593  0.1651889E+02  0.4983267E+02  0.4390666E+02  0.0000000E+00
Ar 1594  0.1957993E+02  0.5231944E+02  0.4409431E+02  0.0000000E+00
Ar 1595  0.1953973E+02  0.4965345E+02  0.4708899E+02  0.0000000E+00
Ar 1596  0.1670737E+02  0.5262333E+02  0.4648143E+02  0.0000000E+00
Ar 1597  0.1694315E+02  0.4974067E+02  0.4974066E+02  0.0000000E+00
Ar 1598  0.1910244E+02  0.5264101E+02  0.4946773E+02  0.0000000E+00
Ar 1599  0.1910244E+02  0.4946773E+02  0.5264100E+02  0.0000000E+00
Ar 1600  0.1691410E+02  0.5243991E+02  0.5243991E+02  0.0000000E+00
Ar 1601  0.2193994E+02  0.3552498E+00  0.3552550E+00  0.0000000E+00
Ar 1602  0.2482631E+02  0.2639396E+01  0.1080023E+00  0.0000000E+00
Ar 1603  0.2482635E+02  0.1079519E+00  0.2639393E+01  0.0000000E+00
Ar 1604  0.2225908E+02  0.2784308E+01  0.2784307E+01  0.0000000E+00
Ar 1605  0.2240482E+02  0.5507783E+02  0.5997921E+01  0.0000000E+00
Ar 1606  0.2499283E+02  0.2977605E+01  0.5697739E+01  0.0000000E+00
Ar 1607  0.2527844E+02  0.2084534E+00  0.8268253E+01  0.0000000E+00
Ar 1608  0.2214309E+02  0.2953545E+01  0.8328772E+01  0.0000000E+00
Ar 1609  0.2259626E+02  0.2204088E+00  0.1119382E+02  0.0000000E+00
Ar 1610  0.2498411E+02  0.2853906E+01  0.1100051E+02  0.0000000E+00
Ar 1611  0.2501715E+02  0.5496086E+02  0.1363849E+02  0.0000000E+00
Ar 1612  0.2235524E+02  0.2953238E+01  0.1387857E+02  0.0000000E+00
Ar 1613  0.2186465E+02  0.2165406E+00  0.1636334E+02  0.0000000E+00
Ar 1614  0.2489038E+02  0.2640644E+01  0.1663340E+02  0.0000000E+00
Ar 1615  0.2515724E+02  0.5507209E+02  0.1944926E+02  0.0000000E+00
Ar 1616  0.2201420E+02  0.2754994E+01  0.1948600E+02  0.0000000E+00
Ar 1617  0.2203678E+02  0.1663395E+00  0.2203679E+02  0.0000000E+00
Ar 1618  0.2497898E+02  0.2780998E+01  0.2186050E+02  0.0000000E+00
Ar 1619  0.2482790E+02  0.7263179E+00  0.2482789E+02  0.0000000E+00
Ar 1620  0.2186050E+02  0.2780998E+01  0.2497898E+02  0.0000000E+00
Ar 1621  0.2194651E+02  0.2301208E+00  0.2786328E+02  0.0000000E+00
Ar 1622  0.2483506E+02  0.2942990E+01  0.2770136E+02  0.0000000E+00
Ar 1623  0.2500611E+02  0.5523196E+02  0.3060901E+02  0.0000000E+00
Ar 1624  0.2217006E+02  0.2934752E+01  0.3082351E+02  0.0000000E+00
Ar 1625  0.2224854E+02  0.5501669E+02  0.3326772E+02  0.0000000E+00
Ar 1626  0.2477247E+02  0.3048677E+01  0.3340314E+02  0.0000000E+00
Ar 1627  0.2484512E+02  0.5288992E+00  0.3597227E+02  0.0000000E+00
Ar 1628  0.2206595E+02  0.3199359E+01  0.3613658E+02  0.0000000E+00
Ar 1629  0.2201493E+02  0.6173035E+00  0.3887526E+02  0.0000000E+00
Ar 1630  0.2483946E+02  0.2946846E+01  0.3884023E+02  0.0000000E+00
Ar 1631  0.2489270E+02  0.5525006E+02  0.4153842E+02  0.0000000E+00
Ar 1632  0.2204289E+02  0.3226741E+01  0.4162600E+02  0.0000000E+00
Ar 1633  0.2236206E+02  0.5498457E+02  0.4418773E+02  0.0000000E+00
Ar 1634  0.2468107E+02  0.2663935E+01  0.4410582E+02  0.0000000E+00
Ar 1635  0.2525848E+02  0.5505352E+02  0.4707497E+02  0.0000000E+00
Ar 1636  0.2234230E+02  0.2850547E+01  0.4676416E+02  0.0000000E+00
Ar 1637  0.2244006E+02  0.3968512E+00  0.4964602E+02  0.0000000E+00
Ar 1638  0.2497473E+02  0.3214567E+01  0.4995030E+02  0.0000000E+00
Ar 1639  0.2517184E+02  0.3614920E+00  0.5235110E+02  0.0000000E+00
Ar 1640  0.2220786E+02  0.3107782E+01  0.5243025E+02  0.0000000E+00
Ar 1641  0.2240482E+02  0.5997913E+01  0.5507783E+02  0.0000000E+00
Ar 1642  0.2527842E+02  0.8268267E+01  0.2084513E+00  0.0000000E+00
Ar 1643  0.2499281E+02  0.5697743E+01  0.2977616E+01  0.0000000E+00
Ar 1644  0.2214309E+02  0.8328771E+01  0.2953541E+01  0.0000000E+00
Ar 1645  0.2198653E+02  0.5500670E+01  0.5500668E+01  0.0000000E+00
Ar 1646  0.2476145E+02  0.8341090E+01  0.5642218E+01  0.0000000E+00
Ar 1647  0.2476145E+02  0.5642212E+01  0.8341095E+01  0.0000000E+00
Ar 1648  0.2232005E+02  0.8241067E+01  0.8241068E+01  0.0000000E+00
Ar 1649  0.2218656E+02  0.5423127E+01  0.1134656E+02  0.0000000E+00
Ar 1650  0.2470116E+02  0.8484912E+01  0.1119225E+02  0.0000000E+00
Ar 1651  0.2486713E+02  0.5756913E+01  0.1378720E+02  0.0000000E+00
Ar 1652  0.2222509E+02  0.8466161E+01  0.1388216E+02  0.0000000E+00
Ar 1653  0.2211819E+02  0.5782387E+01  0.1687926E+02  0.0000000E+00
Ar 1654  0.2508658E+02  0.8432470E+01  0.1638089E+02  0.0000000E+00
Ar 1655  0.2483595E+02  0.5571653E+01  0.1926322E+02  0.0000000E+00
Ar 1656  0.2227093E+02  0.8522730E+01  0.1935864E+02  0.0000000E+00
Ar 1657  0.2230789E+02  0.5313406E+01  0.2230789E+02  0.0000000E+00
Ar 1658  0.2494341E+02  0.8350022E+01  0.2201463E+02  0.0000000E+00
Ar 1659  0.2469900E+02  0.5623685E+01  0.2469900E+02  0.0000000E+00
Ar 1660  0.2201464E+02  0.8350029E+01  0.2494340E+02  0.0000000E+00
Ar 1661  0.2194671E+02  0.5821392E+01  0.2766103E+02  0.0000000E+00
Ar 1662  0.2482956E+02  0.8484647E+01  0.2758034E+02  0.0000000E+00
Ar 1663  0.2467313E+02  0.5904778E+01  0.3048209E+02  0.0000000E+00
Ar 1664  0.2224175E+02  0.8561334E+01  0.3027303E+02  0.0000000E+00
Ar 1665  0.2218824E+02  0.5874015E+01  0.3334214E+02  0.0000000E+00
Ar 1666  0.2477837E+02  0.8355246E+01  0.3329283E+02  0.0000000E+00
Ar 1667  0.2499156E+02  0.5877944E+01  0.3584627E+02  0.0000000E+00
Ar 1668  0.2193723E+02  0.8304615E+01  0.3601030E+02  0.0000000E+00
Ar 1669  0.2216057E+02  0.5747688E+01  0.3867249E+02  0.0000000E+00
Ar 1670  0.2480861E+02  0.8578424E+01  0.3857370E+02  0.0000000E+00
Ar 1671  0.2475445E+02  0.5848174E+01  0.4155835E+02  0.0000000E+00
Ar 1672  0.2223152E+02  0.8386232E+01  0.4159461E+02  0.0000000E+00
Ar 1673  0.2227457E+02  0.5746419E+01  0.4448522E+02  0.0000000E+00
Ar 1674  0.2492142E+02  0.8514986E+01  0.4436788E+02  0.0000000E+00
Ar 1675  0.2490324E+02  0.5791340E+01  0.4725535E+02  0.0000000E+00
Ar 1676  0.2177332E+02  0.8320999E+01  0.4690417E+02  0.0000000E+00
Ar 1677  0.2199363E+02  0.5895104E+01  0.4989839E+02  0.0000000E+00
Ar 1678  0.2535459E+02  0.8520730E+01  0.4968352E+02  0.0000000E+00
Ar 1679  0.2515954E+02  0.5696412E+01  0.5253634E+02  0.0000000E+00
Ar 1680  0.2214784E+02  0.8347838E+01  0.5260490E+02  0.0000000E+00
Ar 1681  0.2259626E+02  0.1119382E+02  0.2204105E+00  0.0000000E+00
Ar 1682  0.2501715E+02  0.1363849E+02  0.5496086E+02  0.0000000E+00
Ar 1683  0.2498411E+02  0.1100050E+02  0.2853911E+01  0.0000000E+00
Ar 1684  0.2235524E+02  0.1387857E+02  0.2953234E+01  0.0000000E+00
Ar 1685  0.2218655E+02  0.1134656E+02  0.5423129E+01  0.0000000E+00
Ar 1686  0.2486713E+02  0.1378720E+02  0.5756915E+01  0.0000000E+00
Ar 1687  0.2470116E+02  0.1119225E+02  0.8484915E+01  0.0000000E+00
Ar 1688  0.2222508E+02  0.1388216E+02  0.8466164E+01  0.0000000E+00
Ar 1689  0.2168179E+02  0.1128166E+02  0.1128166E+02  0.0000000E+00
Ar 1690  0.2510784E+02  0.1383450E+02  0.1108074E+02  0.0000000E+00
Ar 1691  0.2510784E+02  0.1108074E+02  0.1383450E+02  0.0000000E+00
Ar 1692  0.2184545E+02  0.1378160E+02  0.1378160E+02  0.0000000E+00
Ar 1693  0.2226839E+02  0.1088240E+02  0.1681237E+02  0.0000000E+00
Ar 1694  0.2515204E+02  0.1389572E+02  0.1652315E+02  0.0000000E+00
Ar 1695  0.2482339E+02  0.1119897E+02  0.1929981E+02  0.0000000E+00
Ar 1696  0.2206984E+02  0.1393136E+02  0.1897005E+02  0.0000000E+00
Ar 1697  0.2197162E+02  0.1070490E+02  0.2197162E+02  0.0000000E+00
Ar 1698  0.2452101E+02  0.1390253E+02  0.2200528E+02  0.0000000E+00
Ar 1699  0.2481017E+02  0.1106582E+02  0.2481016E+02  0.0000000E+00
Ar 1700  0.2200528E+02  0.1390253E+02  0.2452102E+02  0.0000000E+00
Ar 1701  0.2206151E+02  0.1110188E+02  0.2746819E+02  0.0000000E+00
Ar 1702  0.2478419E+02  0.1395270E+02  0.2749417E+02  0.0000000E+00
Ar 1703  0.2461831E+02  0.1108141E+02  0.3030587E+02  0.0000000E+00
Ar 1704  0.2218283E+02  0.1367083E+02  0.3052330E+02  0.0000000E+00
Ar 1705  0.2203684E+02  0.1085815E+02  0.3330097E+02  0.0000000E+00
Ar 1706  0.2474929E+02  0.1373500E+02  0.3307727E+02  0.0000000E+00
Ar 1707  0.2480549E+02  0.1122109E+02  0.3608087E+02  0.0000000E+00
Ar 1708  0.2179874E+02  0.1370356E+02  0.3594599E+02  0.0000000E+00
Ar 1709  0.2171763E+02  0.1120861E+02  0.3885527E+02  0.0000000E+00
Ar 1710  0.2478907E+02  0.1414572E+02  0.3866984E+02  0.0000000E+00
Ar 1711  0.2471528E+02  0.1115228E+02  0.4161229E+02  0.0000000E+00
Ar 1712  0.2208386E+02  0.1387544E+02  0.4128290E+02  0.0000000E+00
Ar 1713  0.2216697E+02  0.1119124E+02  0.4437625E+02  0.0000000E+00
Ar 1714  0.2491657E+02  0.1382515E+02  0.4435813E+02  0.0000000E+00
Ar 1715  0.2512267E+02  0.1112624E+02  0.4716875E+02  0.0000000E+00
Ar 1716  0.2187980E+02  0.1385536E+02  0.4703248E+02  0.0000000E+00
Ar 1717  0.2246574E+02  0.1083996E+02  0.4982295E+02  0.0000000E+00
Ar 1718  0.2514916E+02  0.1367789E+02  0.4976799E+02  0.0000000E+00
Ar 1719  0.2510688E+02  0.1082012E+02  0.5243799E+02  0.0000000E+00
Ar 1720  0.2202864E+02  0.1351996E+02  0.5254880E+02  0.0000000E+00
Ar 1721  0.2186465E+02  0.1636334E+02  0.2165442E+00  0.0000000E+00
Ar 1722  0.2515724E+02  0.1944926E+02  0.5507209E+02  0.0000000E+00
Ar 1723  0.2489038E+02  0.1663340E+02  0.2640647E+01  0.0000000E+00
Ar 1724  0.2201420E+02  0.1948600E+02  0.2754995E+01  0.0000000E+00
Ar 1725  0.2211819E+02  0.1687926E+02  0.5782388E+01  0.0000000E+00
Ar 1726  0.2483594E+02  0.1926322E+02  0.5571653E+01  0.0000000E+00
Ar 1727  0.2508658E+02  0.1638089E+02  0.8432469E+01  0.0000000E+00
Ar 1728  0.2227093E+02  0.1935865E+02  0.8522732E+01  0.0000000E+00
Ar 1729  0.2226838E+02  0.1681237E+02  0.1088240E+02  0.0000000E+00
Ar 1730  0.2482339E+02  0.1929981E+02  0.1119897E+02  0.0000000E+00
Ar 1731  0.2515204E+02  0.1652315E+02  0.1389572E+02  0.0000000E+00
Ar 1732  0.2206983E+02  0.1897005E+02  0.1393136E+02  0.0000000E+00
Ar 1733  0.2160852E+02  0.1635232E+02  0.1635231E+02  0.0000000E+00
Ar 1734  0.2475394E+02  0.1913602E+02  0.1644130E+02  0.0000000E+00
Ar 1735  0.2475395E+02  0.1644130E+02  0.1913603E+02  0.0000000E+00
Ar 1736  0.2198061E+02  0.1929849E+02  0.1929848E+02  0.0000000E+00
Ar 1737  0.2177121E+02  0.1652671E+02  0.2177121E+02  0.0000000E+00
Ar 1738  0.2488758E+02  0.1946292E+02  0.2199986E+02  0.0000000E+00
Ar 1739  0.2455630E+02  0.1662091E+02  0.2455630E+02  0.0000000E+00
Ar 1740  0.2199984E+02  0.1946291E+02  0.2488757E+02  0.0000000E+00
Ar 1741  0.2193195E+02  0.1661840E+02  0.2723661E+02  0.0000000E+00
Ar 1742  0.2479873E+02  0.1926443E+02  0.2758164E+02  0.0000000E+00
Ar 1743  0.2477972E+02  0.1657668E+02  0.3009757E+02  0.0000000E+00
Ar 1744  0.2196619E+02  0.1907895E+02  0.3029163E+02  0.0000000E+00
Ar 1745  0.2203737E+02  0.1661014E+02  0.3296366E+02  0.0000000E+00
Ar 1746  0.2450917E+02  0.1948479E+02  0.3333394E+02  0.0000000E+00
Ar 1747  0.2487482E+02  0.1683202E+02  0.3601134E+02  0.0000000E+00
Ar 1748  0.2210355E+02  0.1918767E+02  0.3620310E+02  0.0000000E+00
Ar 1749  0.2202195E+02  0.1659052E+02  0.3864574E+02  0.0000000E+00
Ar 1750  0.2494599E+02  0.1924613E+02  0.3881269E+02  0.0000000E+00
Ar 1751  0.2448659E+02  0.1667888E+02  0.4145060E+02  0.0000000E+00
Ar 1752  0.2181660E+02  0.1935745E+02  0.4160741E+02  0.0000000E+00
Ar 1753  0.2196260E+02  0.1681509E+02  0.4431790E+02  0.0000000E+00
Ar 1754  0.2460252E+02  0.1939476E+02  0.4451541E+02  0.0000000E+00
Ar 1755  0.2481510E+02  0.1626139E+02  0.4701464E+02  0.0000000E+00
Ar 1756  0.2208410E+02  0.1939848E+02  0.4721806E+02  0.0000000E+00
Ar 1757  0.2205399E+02  0.1633475E+02  0.4954981E+02  0.0000000E+00
Ar 1758  0.2483672E+02  0.1880373E+02  0.4964075E+02  0.0000000E+00
Ar 1759  0.2460816E+02  0.1655763E+02  0.5237528E+02  0.0000000E+00
Ar 1760  0.2241424E+02  0.1958445E+02  0.5254408E+02  0.0000000E+00
Ar 1761  0.2203679E+02  0.2203679E+02  0.1663422E+00  0.0000000E+00
Ar 1762  0.2482789E+02  0.2482790E+02  0.7263102E+00  0.0000000E+00
Ar 1763  0.2497898E+02  0.2186050E+02  0.2780997E+01  0.0000000E+00
Ar 1764  0.2186050E+02  0.2497898E+02  0.2780992E+01  0.0000000E+00
Ar 1765  0.2230789E+02  0.2230790E+02  0.5313406E+01  0.0000000E+00
Ar 1766  0.2469900E+02  0.2469900E+02  0.5623692E+01  0.0000000E+00
Ar 1767  0.2494340E+02  0.2201463E+02  0.8350020E+01  0.0000000E+00
Ar 1768  0.2201464E+02  0.2494340E+02  0.8350029E+01  0.0000000E+00
Ar 1769  0.2197162E+02  0.2197163E+02  0.1070490E+02  0.0000000E+00
Ar 1770  0.2481017E+02  0.2481015E+02  0.1106582E+02  0.0000000E+00
Ar 1771  0.2452102E+02  0.2200528E+02  0.1390254E+02  0.0000000E+00
Ar 1772  0.2200528E+02  0.2452101E+02  0.1390253E+02  0.0000000E+00
Ar 1773  0.2177121E+02  0.2177122E+02  0.1652671E+02  0.0000000E+00
Ar 1774  0.2455631E+02  0.2455631E+02  0.1662090E+02  0.0000000E+00
Ar 1775  0.2488758E+02  0.2199984E+02  0.1946292E+02  0.0000000E+00
Ar 1776  0.2199984E+02  0.2488757E+02  0.1946291E+02  0.0000000E+00
Ar 1777  0.2188401E+02  0.2188401E+02  0.2188401E+02  0.0000000E+00
Ar 1778  0.2474846E+02  0.2474846E+02  0.2218583E+02  0.0000000E+00
Ar 1779  0.2474847E+02  0.2218583E+02  0.2474847E+02  0.0000000E+00
Ar 1780  0.2218584E+02  0.2474847E+02  0.2474847E+02  0.0000000E+00
Ar 1781  0.2182476E+02  0.2182476E+02  0.2767022E+02  0.0000000E+00
Ar 1782  0.2472348E+02  0.2472349E+02  0.2789451E+02  0.0000000E+00
Ar 1783  0.2470838E+02  0.2178463E+02  0.3047131E+02  0.0000000E+00
Ar 1784  0.2178463E+02  0.2470836E+02  0.3047131E+02  0.0000000E+00
Ar 1785  0.2215199E+02  0.2215199E+02  0.3324229E+02  0.0000000E+00
Ar 1786  0.2472457E+02  0.2472457E+02  0.3287851E+02  0.0000000E+00
Ar 1787  0.2498828E+02  0.2228299E+02  0.3590179E+02  0.0000000E+00
Ar 1788  0.2228298E+02  0.2498828E+02  0.3590179E+02  0.0000000E+00
Ar 1789  0.2193233E+02  0.2193233E+02  0.3890407E+02  0.0000000E+00
Ar 1790  0.2485096E+02  0.2485096E+02  0.3839024E+02  0.0000000E+00
Ar 1791  0.2476288E+02  0.2203810E+02  0.4156072E+02  0.0000000E+00
Ar 1792  0.2203809E+02  0.2476287E+02  0.4156072E+02  0.0000000E+00
Ar 1793  0.2207853E+02  0.2207852E+02  0.4451884E+02  0.0000000E+00
Ar 1794  0.2490091E+02  0.2490091E+02  0.4412626E+02  0.0000000E+00
Ar 1795  0.2503776E+02  0.2206444E+02  0.4711644E+02  0.0000000E+00
Ar 1796  0.2206444E+02  0.2503776E+02  0.4711644E+02  0.0000000E+00
Ar 1797  0.2241163E+02  0.2241163E+02  0.4985364E+02  0.0000000E+00
Ar 1798  0.2486701E+02  0.2486700E+02  0.4987331E+02  0.0000000E+00
Ar 1799  0.2501947E+02  0.2213730E+02  0.5258103E+02  0.0000000E+00
Ar 1800  0.2213731E+02  0.2501947E+02  0.5258103E+02  0.0000000E+00
Ar 1801  0.2194651E+02  0.2786328E+02  0.2301197E+00  0.0000000E+00
Ar 1802  0.2500610E+02  0.3060902E+02  0.5523197E+02  0.0000000E+00
Ar 1803  0.2483506E+02  0.2770137E+02  0.2942984E+01  0.0000000E+00
Ar 1804  0.2217005E+02  0.3082352E+02  0.2934748E+01  0.0000000E+00
Ar 1805  0.2194672E+02  0.2766103E+02  0.5821392E+01  0.0000000E+00
Ar 1806  0.2467313E+02  0.3048210E+02  0.5904772E+01  0.0000000E+00
Ar 1807  0.2482957E+02  0.2758035E+02  0.8484646E+01  0.0000000E+00
Ar 1808  0.2224175E+02  0.3027303E+02  0.8561336E+01  0.0000000E+00
Ar 1809  0.2206151E+02  0.2746819E+02  0.1110188E+02  0.0000000E+00
Ar 1810  0.2461832E+02  0.3030587E+02  0.1108142E+02  0.0000000E+00
Ar 1811  0.2478419E+02  0.2749417E+02  0.1395270E+02  0.0000000E+00
Ar 1812  0.2218283E+02  0.3052330E+02  0.1367083E+02  0.0000000E+00
Ar 1813  0.2193194E+02  0.2723661E+02  0.1661841E+02  0.0000000E+00
Ar 1814  0.2477973E+02  0.3009757E+02  0.1657668E+02  0.0000000E+00
Ar 1815  0.2479873E+02  0.2758165E+02  0.1926443E+02  0.0000000E+00
Ar 1816  0.2196619E+02  0.3029163E+02  0.1907895E+02  0.0000000E+00
Ar 1817  0.2182477E+02  0.2767022E+02  0.2182476E+02  0.0000000E+00
Ar 1818  0.2470837E+02  0.3047131E+02  0.2178462E+02  0.0000000E+00
Ar 1819  0.2472348E+02  0.2789451E+02  0.2472348E+02  0.0000000E+00
Ar 1820  0.2178463E+02  0.3047132E+02  0.2470836E+02  0.0000000E+00
Ar 1821  0.2229219E+02  0.2758668E+02  0.2758668E+02  0.0000000E+00
Ar 1822  0.2476063E+02  0.3066531E+02  0.2789148E+02  0.0000000E+00
Ar 1823  0.2476063E+02  0.2789149E+02  0.3066531E+02  0.0000000E+00
Ar 1824  0.2192842E+02  0.3046730E+02  0.3046729E+02  0.0000000E+00
Ar 1825  0.2181478E+02  0.2771251E+02  0.3307278E+02  0.0000000E+00
Ar 1826  0.2495080E+02  0.3063975E+02  0.3333034E+02  0.0000000E+00
Ar 1827  0.2482224E+02  0.2768475E+02  0.3594836E+02  0.0000000E+00
Ar 1828  0.2211274E+02  0.3034919E+02  0.3592036E+02  0.0000000E+00
Ar 1829  0.2208037E+02  0.2764262E+02  0.3855336E+02  0.0000000E+00
Ar 1830  0.2475924E+02  0.3041424E+02  0.3875570E+02  0.0000000E+00
Ar 1831  0.2494329E+02  0.2770321E+02  0.4154510E+02  0.0000000E+00
Ar 1832  0.2195802E+02  0.3034166E+02  0.4162425E+02  0.0000000E+00
Ar 1833  0.2197012E+02  0.2751322E+02  0.4444903E+02  0.0000000E+00
Ar 1834  0.2500108E+02  0.3032414E+02  0.4441781E+02  0.0000000E+00
Ar 1835  0.2519327E+02  0.2785796E+02  0.4742087E+02  0.0000000E+00
Ar 1836  0.2234582E+02  0.3025692E+02  0.4702003E+02  0.0000000E+00
Ar 1837  0.2235600E+02  0.2767705E+02  0.4976109E+02  0.0000000E+00
Ar 1838  0.2511522E+02  0.3054613E+02  0.5019899E+02  0.0000000E+00
Ar 1839  0.2485556E+02  0.2747129E+02  0.5252981E+02  0.0000000E+00
Ar 1840  0.2225652E+02  0.3038962E+02  0.5254573E+02  0.0000000E+00
Ar 1841  0.2224854E+02  0.3326772E+02  0.5501669E+02  0.0000000E+00
Ar 1842  0.2484512E+02  0.3597228E+02  0.5289018E+00  0.0000000E+00
Ar 1843  0.2477247E+02  0.3340313E+02  0.3048664E+01  0.0000000E+00
Ar 1844  0.2206595E+02  0.3613658E+02  0.3199359E+01  0.0000000E+00
Ar 1845  0.2218824E+02  0.3334215E+02  0.5874009E+01  0.0000000E+00
Ar 1846  0.2499155E+02  0.3584628E+02  0.5877937E+01  0.0000000E+00
Ar 1847  0.2477836E+02  0.3329283E+02  0.8355242E+01  0.0000000E+00
Ar 1848  0.2193723E+02  0.3601030E+02  0.8304610E+01  0.0000000E+00
Ar 1849  0.2203685E+02  0.3330097E+02  0.1085814E+02  0.0000000E+00
Ar 1850  0.2480549E+02  0.3608086E+02  0.1122109E+02  0.0000000E+00
Ar 1851  0.2474930E+02  0.3307727E+02  0.1373500E+02  0.0000000E+00
Ar 1852  0.2179874E+02  0.3594599E+02  0.1370355E+02  0.0000000E+00
Ar 1853  0.2203737E+02  0.3296366E+02  0.1661014E+02  0.0000000E+00
Ar 1854  0.2487483E+02  0.3601134E+02  0.1683202E+02  0.0000000E+00
Ar 1855  0.2450917E+02  0.3333394E+02  0.1948478E+02  0.0000000E+00
Ar 1856  0.2210355E+02  0.3620309E+02  0.1918767E+02  0.0000000E+00
Ar 1857  0.2215199E+02  0.3324230E+02  0.2215199E+02  0.0000000E+00
Ar 1858  0.2498828E+02  0.3590180E+02  0.2228298E+02  0.0000000E+00
Ar 1859  0.2472457E+02  0.3287852E+02  0.2472457E+02  0.0000000E+00
Ar 1860  0.2228297E+02  0.3590180E+02  0.2498828E+02  0.0000000E+00
Ar 1861  0.2181478E+02  0.3307279E+02  0.2771251E+02  0.0000000E+00
Ar 1862  0.2482224E+02  0.3594836E+02  0.2768475E+02  0.0000000E+00
Ar 1863  0.2495080E+02  0.3333034E+02  0.3063975E+02  0.0000000E+00
Ar 1864  0.2211274E+02  0.3592037E+02  0.3034919E+02  0.0000000E+00
Ar 1865  0.2185283E+02  0.3298693E+02  0.3298693E+02  0.0000000E+00
Ar 1866  0.2485082E+02  0.3622536E+02  0.3330109E+02  0.0000000E+00
Ar 1867  0.2485083E+02  0.3330110E+02  0.3622536E+02  0.0000000E+00
Ar 1868  0.2200813E+02  0.3575674E+02  0.3575673E+02  0.0000000E+00
Ar 1869  0.2202831E+02  0.3319883E+02  0.3879220E+02  0.0000000E+00
Ar 1870  0.2490581E+02  0.3589756E+02  0.3891446E+02  0.0000000E+00
Ar 1871  0.2477926E+02  0.3308522E+02  0.4171568E+02  0.0000000E+00
Ar 1872  0.2223943E+02  0.3599403E+02  0.4146312E+02  0.0000000E+00
Ar 1873  0.2227485E+02  0.3337113E+02  0.4428627E+02  0.0000000E+00
Ar 1874  0.2504604E+02  0.3598578E+02  0.4436757E+02  0.0000000E+00
Ar 1875  0.2459692E+02  0.3312231E+02  0.4730985E+02  0.0000000E+00
Ar 1876  0.2196156E+02  0.3587060E+02  0.4712142E+02  0.0000000E+00
Ar 1877  0.2238863E+02  0.3348364E+02  0.5026050E+02  0.0000000E+00
Ar 1878  0.2497637E+02  0.3607895E+02  0.4952845E+02  0.0000000E+00
Ar 1879  0.2520990E+02  0.3377076E+02  0.5261112E+02  0.0000000E+00
Ar 1880  0.2229601E+02  0.3636415E+02  0.5261672E+02  0.0000000E+00
Ar 1881  0.2201494E+02  0.3887526E+02  0.6173033E+00  0.0000000E+00
Ar 1882  0.2489270E+02  0.4153843E+02  0.5525006E+02  0.0000000E+00
Ar 1883  0.2483946E+02  0.3884023E+02  0.2946845E+01  0.0000000E+00
Ar 1884  0.2204289E+02  0.4162600E+02  0.3226739E+01  0.0000000E+00
Ar 1885  0.2216057E+02  0.3867248E+02  0.5747685E+01  0.0000000E+00
Ar 1886  0.2475446E+02  0.4155835E+02  0.5848176E+01  0.0000000E+00
Ar 1887  0.2480861E+02  0.3857370E+02  0.8578426E+01  0.0000000E+00
Ar 1888  0.2223152E+02  0.4159461E+02  0.8386226E+01  0.0000000E+00
Ar 1889  0.2171763E+02  0.3885528E+02  0.1120861E+02  0.0000000E+00
Ar 1890  0.2471527E+02  0.4161230E+02  0.1115227E+02  0.0000000E+00
Ar 1891  0.2478907E+02  0.3866984E+02  0.1414572E+02  0.0000000E+00
Ar 1892  0.2208386E+02  0.4128290E+02  0.1387544E+02  0.0000000E+00
Ar 1893  0.2202195E+02  0.3864574E+02  0.1659052E+02  0.0000000E+00
Ar 1894  0.2448659E+02  0.4145060E+02  0.1667887E+02  0.0000000E+00
Ar 1895  0.2494599E+02  0.3881269E+02  0.1924613E+02  0.0000000E+00
Ar 1896  0.2181660E+02  0.4160741E+02  0.1935745E+02  0.0000000E+00
Ar 1897  0.2193234E+02  0.3890407E+02  0.2193233E+02  0.0000000E+00
Ar 1898  0.2476287E+02  0.4156073E+02  0.2203809E+02  0.0000000E+00
Ar 1899  0.2485095E+02  0.3839024E+02  0.2485096E+02  0.0000000E+00
Ar 1900  0.2203809E+02  0.4156072E+02  0.2476287E+02  0.0000000E+00
Ar 1901  0.2208037E+02  0.3855336E+02  0.2764262E+02  0.0000000E+00
Ar 1902  0.2494329E+02  0.4154510E+02  0.2770321E+02  0.0000000E+00
Ar 1903  0.2475924E+02  0.3875570E+02  0.3041424E+02  0.0000000E+00
Ar 1904  0.2195801E+02  0.4162425E+02  0.3034166E+02  0.0000000E+00
Ar 1905  0.2202831E+02  0.3879221E+02  0.3319883E+02  0.0000000E+00
Ar 1906  0.2477925E+02  0.4171568E+02  0.3308522E+02  0.0000000E+00
Ar 1907  0.2490581E+02  0.3891447E+02  0.3589756E+02  0.0000000E+00
Ar 1908  0.2223943E+02  0.4146312E+02  0.3599403E+02  0.0000000E+00
Ar 1909  0.2224704E+02  0.3890474E+02  0.3890473E+02  0.0000000E+00
Ar 1910  0.2490508E+02  0.4183954E+02  0.3885511E+02  0.0000000E+00
Ar 1911  0.2490508E+02  0.3885511E+02  0.4183953E+02  0.0000000E+00
Ar 1912  0.2220508E+02  0.4141208E+02  0.4141208E+02  0.0000000E+00
Ar 1913  0.2208005E+02  0.3865417E+02  0.4452023E+02  0.0000000E+00
Ar 1914  0.2460822E+02  0.4161420E+02  0.4429407E+02  0.0000000E+00
Ar 1915  0.2481278E+02  0.3908800E+02  0.4693536E+02  0.0000000E+00
Ar 1916  0.2225391E+02  0.4151676E+02  0.4704929E+02  0.0000000E+00
Ar 1917  0.2209270E+02  0.3873720E+02  0.4955776E+02  0.0000000E+00
Ar 1918  0.2514862E+02  0.4171802E+02  0.4961575E+02  0.0000000E+00
Ar 1919  0.2499678E+02  0.3873869E+02  0.5237497E+02  0.0000000E+00
Ar 1920  0.2234531E+02  0.4148339E+02  0.5231778E+02  0.0000000E+00
Ar 1921  0.2236206E+02  0.4418773E+02  0.5498456E+02  0.0000000E+00
Ar 1922  0.2525906E+02  0.4707548E+02  0.5505353E+02  0.0000000E+00
Ar 1923  0.2468106E+02  0.4410582E+02  0.2663940E+01  0.0000000E+00
Ar 1924  0.2234229E+02  0.4676416E+02  0.2850553E+01  0.0000000E+00
Ar 1925  0.2227456E+02  0.4448521E+02  0.5746419E+01  0.0000000E+00
Ar 1926  0.2490324E+02  0.4725536E+02  0.5791340E+01  0.0000000E+00
Ar 1927  0.2492142E+02  0.4436789E+02  0.8514984E+01  0.0000000E+00
Ar 1928  0.2177332E+02  0.4690417E+02  0.8320994E+01  0.0000000E+00
Ar 1929  0.2216697E+02  0.4437625E+02  0.1119124E+02  0.0000000E+00
Ar 1930  0.2512267E+02  0.4716875E+02  0.1112624E+02  0.0000000E+00
Ar 1931  0.2491657E+02  0.4435813E+02  0.1382515E+02  0.0000000E+00
Ar 1932  0.2187979E+02  0.4703248E+02  0.1385536E+02  0.0000000E+00
Ar 1933  0.2196260E+02  0.4431791E+02  0.1681509E+02  0.0000000E+00
Ar 1934  0.2481510E+02  0.4701464E+02  0.1626139E+02  0.0000000E+00
Ar 1935  0.2460251E+02  0.4451542E+02  0.1939475E+02  0.0000000E+00
Ar 1936  0.2208410E+02  0.4721807E+02  0.1939848E+02  0.0000000E+00
Ar 1937  0.2207852E+02  0.4451884E+02  0.2207851E+02  0.0000000E+00
Ar 1938  0.2503776E+02  0.4711644E+02  0.2206444E+02  0.0000000E+00
Ar 1939  0.2490091E+02  0.4412626E+02  0.2490091E+02  0.0000000E+00
Ar 1940  0.2206444E+02  0.4711644E+02  0.2503776E+02  0.0000000E+00
Ar 1941  0.2197012E+02  0.4444903E+02  0.2751322E+02  0.0000000E+00
Ar 1942  0.2519327E+02  0.4742087E+02  0.2785796E+02  0.0000000E+00
Ar 1943  0.2500108E+02  0.4441781E+02  0.3032414E+02  0.0000000E+00
Ar 1944  0.2234582E+02  0.4702003E+02  0.3025692E+02  0.0000000E+00
Ar 1945  0.2227485E+02  0.4428627E+02  0.3337112E+02  0.0000000E+00
Ar 1946  0.2459692E+02  0.4730984E+02  0.3312231E+02  0.0000000E+00
Ar 1947  0.2504604E+02  0.4436757E+02  0.3598578E+02  0.0000000E+00
Ar 1948  0.2196156E+02  0.4712142E+02  0.3587060E+02  0.0000000E+00
Ar 1949  0.2208006E+02  0.4452023E+02  0.3865416E+02  0.0000000E+00
Ar 1950  0.2481277E+02  0.4693536E+02  0.3908800E+02  0.0000000E+00
Ar 1951  0.2460822E+02  0.4429406E+02  0.4161421E+02  0.0000000E+00
Ar 1952  0.2225392E+02  0.4704929E+02  0.4151677E+02  0.0000000E+00
Ar 1953  0.2224051E+02  0.4413754E+02  0.4413754E+02  0.0000000E+00
Ar 1954  0.2516011E+02  0.4723294E+02  0.4443864E+02  0.0000000E+00
Ar 1955  0.2516011E+02  0.4443864E+02  0.4723294E+02  0.0000000E+00
Ar 1956  0.2257584E+02  0.4689898E+02  0.4689898E+02  0.0000000E+00
Ar 1957  0.2228415E+02  0.4430610E+02  0.4952348E+02  0.0000000E+00
Ar 1958  0.2499612E+02  0.4739425E+02  0.5016546E+02  0.0000000E+00
Ar 1959  0.2526592E+02  0.4421516E+02  0.5277971E+02  0.0000000E+00
Ar 1960  0.2223469E+02  0.4730398E+02  0.5278895E+02  0.0000000E+00
Ar 1961  0.2244001E+02  0.4964601E+02  0.3968497E+00  0.0000000E+00
Ar 1962  0.2517162E+02  0.5235088E+02  0.3618193E+00  0.0000000E+00
Ar 1963  0.2497474E+02  0.4995033E+02  0.3214638E+01  0.0000000E+00
Ar 1964  0.2220786E+02  0.5243025E+02  0.3107790E+01  0.0000000E+00
Ar 1965  0.2199363E+02  0.4989839E+02  0.5895106E+01  0.0000000E+00
Ar 1966  0.2515959E+02  0.5253635E+02  0.5696399E+01  0.0000000E+00
Ar 1967  0.2535457E+02  0.4968353E+02  0.8520735E+01  0.0000000E+00
Ar 1968  0.2214785E+02  0.5260489E+02  0.8347838E+01  0.0000000E+00
Ar 1969  0.2246574E+02  0.4982295E+02  0.1083996E+02  0.0000000E+00
Ar 1970  0.2510688E+02  0.5243799E+02  0.1082012E+02  0.0000000E+00
Ar 1971  0.2514916E+02  0.4976800E+02  0.1367789E+02  0.0000000E+00
Ar 1972  0.2202863E+02  0.5254880E+02  0.1351996E+02  0.0000000E+00
Ar 1973  0.2205399E+02  0.4954981E+02  0.1633474E+02  0.0000000E+00
Ar 1974  0.2460816E+02  0.5237529E+02  0.1655763E+02  0.0000000E+00
Ar 1975  0.2483672E+02  0.4964075E+02  0.1880372E+02  0.0000000E+00
Ar 1976  0.2241424E+02  0.5254408E+02  0.1958445E+02  0.0000000E+00
Ar 1977  0.2241163E+02  0.4985364E+02  0.2241162E+02  0.0000000E+00
Ar 1978  0.2501947E+02  0.5258103E+02  0.2213730E+02  0.0000000E+00
Ar 1979  0.2486701E+02  0.4987331E+02  0.2486700E+02  0.0000000E+00
Ar 1980  0.2213731E+02  0.5258103E+02  0.2501946E+02  0.0000000E+00
Ar 1981  0.2235601E+02  0.4976109E+02  0.2767706E+02  0.0000000E+00
Ar 1982  0.2485556E+02  0.5252981E+02  0.2747129E+02  0.0000000E+00
Ar 1983  0.2511522E+02  0.5019898E+02  0.3054613E+02  0.0000000E+00
Ar 1984  0.2225652E+02  0.5254573E+02  0.3038961E+02  0.0000000E+00
Ar 1985  0.2238862E+02  0.5026050E+02  0.3348364E+02  0.0000000E+00
Ar 1986  0.2520990E+02  0.5261112E+02  0.3377075E+02  0.0000000E+00
Ar 1987  0.2497636E+02  0.4952844E+02  0.3607894E+02  0.0000000E+00
Ar 1988  0.2229601E+02  0.5261672E+02  0.3636415E+02  0.0000000E+00
Ar 1989  0.2209271E+02  0.4955776E+02  0.3873720E+02  0.0000000E+00
Ar 1990  0.2499678E+02  0.5237497E+02  0.3873869E+02  0.0000000E+00
Ar 1991  0.2514862E+02  0.4961575E+02  0.4171801E+02  0.0000000E+00
Ar 1992  0.2234531E+02  0.5231778E+02  0.4148340E+02  0.0000000E+00
Ar 1993  0.2228415E+02  0.4952348E+02  0.4430610E+02  0.0000000E+00
Ar 1994  0.2526592E+02  0.5277971E+02  0.4421516E+02  0.0000000E+00
Ar 1995  0.2499613E+02  0.5016547E+02  0.4739424E+02  0.0000000E+00
Ar 1996  0.2223468E+02  0.5278896E+02  0.4730398E+02  0.0000000E+00
Ar 1997  0.2241778E+02  0.4996971E+02  0.4996971E+02  0.0000000E+00
Ar 1998  0.2533742E+02  0.5273935E+02  0.4991794E+02  0.0000000E+00
Ar 1999  0.2533819E+02  0.4991787E+02  0.5273995E+02  0.0000000E+00
Ar 2000  0.2276349E+02  0.5254456E+02  0.5254456E+02  0.0000000E+00
Ar 2001  0.2798936E+02  0.5507016E+02  0.5507007E+02  0.0000000E+00
Ar 2002  0.3063216E+02  0.2534404E+01  0.5509278E+02  0.0000000E+00
Ar 2003  0.3063303E+02  0.5509057E+02  0.2533382E+01  0.0000000E+00
Ar 2004  0.2784853E+02  0.2605294E+01  0.2605292E+01  0.0000000E+00
Ar 2005  0.2784822E+02  0.4296172E+00  0.5411277E+01  0.0000000E+00
Ar 2006  0.3044292E+02  0.2953172E+01  0.5578425E+01  0.0000000E+00
Ar 2007  0.3028813E+02  0.1790288E+00  0.8059613E+01  0.0000000E+00
Ar 2008  0.2797364E+02  0.2872585E+01  0.8075259E+01  0.0000000E+00
Ar 2009  0.2792652E+02  0.3504438E+00  0.1109699E+02  0.0000000E+00
Ar 2010  0.3055115E+02  0.2983699E+01  0.1097608E+02  0.0000000E+00
Ar 2011  0.3017840E+02  0.1562833E+00  0.1358019E+02  0.0000000E+00
Ar 2012  0.2747351E+02  0.2860067E+01  0.1375075E+02  0.0000000E+00
Ar 2013  0.2760462E+02  0.2331103E+00  0.1642281E+02  0.0000000E+00
Ar 2014  0.3034871E+02  0.3153347E+01  0.1674772E+02  0.0000000E+00
Ar 2015  0.3111988E+02  0.5520769E+02  0.1986198E+02  0.0000000E+00
Ar 2016  0.2776352E+02  0.2791011E+01  0.1918097E+02  0.0000000E+00
Ar 2017  0.2786327E+02  0.2301095E+00  0.2194651E+02  0.0000000E+00
Ar 2018  0.3082352E+02  0.2934748E+01  0.2217005E+02  0.0000000E+00
Ar 2019  0.3060903E+02  0.5523197E+02  0.2500611E+02  0.0000000E+00
Ar 2020  0.2770137E+02  0.2942986E+01  0.2483506E+02  0.0000000E+00
Ar 2021  0.2744083E+02  0.3374029E+00  0.2744082E+02  0.0000000E+00
Ar 2022  0.3030741E+02  0.3068894E+01  0.2735955E+02  0.0000000E+00
Ar 2023  0.3069075E+02  0.5489763E+02  0.3069075E+02  0.0000000E+00
Ar 2024  0.2735955E+02  0.3068902E+01  0.3030740E+02  0.0000000E+00
Ar 2025  0.2788628E+02  0.6074995E+00  0.3304624E+02  0.0000000E+00
Ar 2026  0.3052806E+02  0.3387327E+01  0.3335493E+02  0.0000000E+00
Ar 2027  0.3045195E+02  0.4988841E+00  0.3575468E+02  0.0000000E+00
Ar 2028  0.2749350E+02  0.2862428E+01  0.3624188E+02  0.0000000E+00
Ar 2029  0.2768838E+02  0.5506047E+02  0.3886572E+02  0.0000000E+00
Ar 2030  0.3058559E+02  0.2602445E+01  0.3871752E+02  0.0000000E+00
Ar 2031  0.3007642E+02  0.5504333E+02  0.4147893E+02  0.0000000E+00
Ar 2032  0.2813743E+02  0.2848417E+01  0.4126361E+02  0.0000000E+00
Ar 2033  0.2786419E+02  0.3003853E+00  0.4442587E+02  0.0000000E+00
Ar 2034  0.3060733E+02  0.3039092E+01  0.4441610E+02  0.0000000E+00
Ar 2035  0.3069258E+02  0.5516385E+02  0.4688830E+02  0.0000000E+00
Ar 2036  0.2768882E+02  0.2991411E+01  0.4685223E+02  0.0000000E+00
Ar 2037  0.2805146E+02  0.5502703E+02  0.4960379E+02  0.0000000E+00
Ar 2038  0.3072050E+02  0.2996305E+01  0.4932310E+02  0.0000000E+00
Ar 2039  0.3117559E+02  0.5500359E+02  0.5255412E+02  0.0000000E+00
Ar 2040  0.2809603E+02  0.2834461E+01  0.5249957E+02  0.0000000E+00
Ar 2041  0.2784822E+02  0.5411351E+01  0.4296900E+00  0.0000000E+00
Ar 2042  0.3028819E+02  0.8059479E+01  0.1790411E+00  0.0000000E+00
Ar 2043  0.3044306E+02  0.5578621E+01  0.2953403E+01  0.0000000E+00
Ar 2044  0.2797363E+02  0.8075293E+01  0.2872582E+01  0.0000000E+00
Ar 2045  0.2777224E+02  0.5580062E+01  0.5580058E+01  0.0000000E+00
Ar 2046  0.3073142E+02  0.8049596E+01  0.5630450E+01  0.0000000E+00
Ar 2047  0.3073141E+02  0.5630384E+01  0.8049523E+01  0.0000000E+00
Ar 2048  0.2795016E+02  0.8025487E+01  0.8025489E+01  0.0000000E+00
Ar 2049  0.2739003E+02  0.5718809E+01  0.1107216E+02  0.0000000E+00
Ar 2050  0.3058651E+02  0.8097699E+01  0.1104254E+02  0.0000000E+00
Ar 2051  0.3019579E+02  0.5535152E+01  0.1377741E+02  0.0000000E+00
Ar 2052  0.2779450E+02  0.8494251E+01  0.1357898E+02  0.0000000E+00
Ar 2053  0.2749783E+02  0.5574979E+01  0.1645099E+02  0.0000000E+00
Ar 2054  0.3039703E+02  0.8373090E+01  0.1630155E+02  0.0000000E+00
Ar 2055  0.3043894E+02  0.5959737E+01  0.1923193E+02  0.0000000E+00
Ar 2056  0.2770718E+02  0.8104282E+01  0.1894165E+02  0.0000000E+00
Ar 2057  0.2766103E+02  0.5821385E+01  0.2194670E+02  0.0000000E+00
Ar 2058  0.3027303E+02  0.8561329E+01  0.2224175E+02  0.0000000E+00
Ar 2059  0.3048210E+02  0.5904766E+01  0.2467313E+02  0.0000000E+00
Ar 2060  0.2758035E+02  0.8484645E+01  0.2482956E+02  0.0000000E+00
Ar 2061  0.2752374E+02  0.5872891E+01  0.2752374E+02  0.0000000E+00
Ar 2062  0.3036276E+02  0.8627940E+01  0.2753991E+02  0.0000000E+00
Ar 2063  0.3026346E+02  0.5360434E+01  0.3026346E+02  0.0000000E+00
Ar 2064  0.2753992E+02  0.8627951E+01  0.3036276E+02  0.0000000E+00
Ar 2065  0.2782683E+02  0.5814494E+01  0.3333116E+02  0.0000000E+00
Ar 2066  0.3019537E+02  0.8472509E+01  0.3306347E+02  0.0000000E+00
Ar 2067  0.3034223E+02  0.5740512E+01  0.3624568E+02  0.0000000E+00
Ar 2068  0.2759629E+02  0.8407946E+01  0.3594618E+02  0.0000000E+00
Ar 2069  0.2758160E+02  0.5602669E+01  0.3863208E+02  0.0000000E+00
Ar 2070  0.3031279E+02  0.8637831E+01  0.3881111E+02  0.0000000E+00
Ar 2071  0.3077764E+02  0.5713768E+01  0.4107007E+02  0.0000000E+00
Ar 2072  0.2766689E+02  0.8386915E+01  0.4123172E+02  0.0000000E+00
Ar 2073  0.2748388E+02  0.5523575E+01  0.4397314E+02  0.0000000E+00
Ar 2074  0.3021330E+02  0.8005362E+01  0.4393227E+02  0.0000000E+00
Ar 2075  0.3038571E+02  0.5881015E+01  0.4706196E+02  0.0000000E+00
Ar 2076  0.2796547E+02  0.8312558E+01  0.4681835E+02  0.0000000E+00
Ar 2077  0.2786123E+02  0.5785836E+01  0.4963863E+02  0.0000000E+00
Ar 2078  0.3068602E+02  0.8457551E+01  0.4972359E+02  0.0000000E+00
Ar 2079  0.3075840E+02  0.5808048E+01  0.5214488E+02  0.0000000E+00
Ar 2080  0.2763144E+02  0.8315344E+01  0.5252054E+02  0.0000000E+00
Ar 2081  0.2792653E+02  0.1109698E+02  0.3504362E+00  0.0000000E+00
Ar 2082  0.3017840E+02  0.1358019E+02  0.1562852E+00  0.0000000E+00
Ar 2083  0.3055114E+02  0.1097608E+02  0.2983700E+01  0.0000000E+00
Ar 2084  0.2747350E+02  0.1375075E+02  0.2860068E+01  0.0000000E+00
Ar 2085  0.2739002E+02  0.1107216E+02  0.5718809E+01  0.0000000E+00
Ar 2086  0.3019578E+02  0.1377741E+02  0.5535150E+01  0.0000000E+00
Ar 2087  0.3058650E+02  0.1104253E+02  0.8097693E+01  0.0000000E+00
Ar 2088  0.2779450E+02  0.1357899E+02  0.8494251E+01  0.0000000E+00
Ar 2089  0.2771364E+02  0.1095067E+02  0.1095067E+02  0.0000000E+00
Ar 2090  0.3038461E+02  0.1367891E+02  0.1097191E+02  0.0000000E+00
Ar 2091  0.3038461E+02  0.1097191E+02  0.1367890E+02  0.0000000E+00
Ar 2092  0.2762559E+02  0.1372116E+02  0.1372116E+02  0.0000000E+00
Ar 2093  0.2762349E+02  0.1118378E+02  0.1664897E+02  0.0000000E+00
Ar 2094  0.3050299E+02  0.1362413E+02  0.1622897E+02  0.0000000E+00
Ar 2095  0.3064745E+02  0.1085786E+02  0.1924920E+02  0.0000000E+00
Ar 2096  0.2772133E+02  0.1369049E+02  0.1938800E+02  0.0000000E+00
Ar 2097  0.2746819E+02  0.1110187E+02  0.2206150E+02  0.0000000E+00
Ar 2098  0.3052330E+02  0.1367081E+02  0.2218283E+02  0.0000000E+00
Ar 2099  0.3030587E+02  0.1108141E+02  0.2461831E+02  0.0000000E+00
Ar 2100  0.2749418E+02  0.1395269E+02  0.2478419E+02  0.0000000E+00
Ar 2101  0.2748266E+02  0.1121414E+02  0.2748265E+02  0.0000000E+00
Ar 2102  0.3062167E+02  0.1386866E+02  0.2731735E+02  0.0000000E+00
Ar 2103  0.3041471E+02  0.1128366E+02  0.3041470E+02  0.0000000E+00
Ar 2104  0.2731735E+02  0.1386866E+02  0.3062167E+02  0.0000000E+00
Ar 2105  0.2750910E+02  0.1111603E+02  0.3308406E+02  0.0000000E+00
Ar 2106  0.3006705E+02  0.1382358E+02  0.3292716E+02  0.0000000E+00
Ar 2107  0.3008447E+02  0.1126132E+02  0.3583232E+02  0.0000000E+00
Ar 2108  0.2747268E+02  0.1407411E+02  0.3584382E+02  0.0000000E+00
Ar 2109  0.2759167E+02  0.1127110E+02  0.3876112E+02  0.0000000E+00
Ar 2110  0.3020511E+02  0.1390581E+02  0.3857277E+02  0.0000000E+00
Ar 2111  0.3061085E+02  0.1096130E+02  0.4156088E+02  0.0000000E+00
Ar 2112  0.2800490E+02  0.1397624E+02  0.4160089E+02  0.0000000E+00
Ar 2113  0.2781884E+02  0.1114891E+02  0.4396357E+02  0.0000000E+00
Ar 2114  0.3051992E+02  0.1378984E+02  0.4439531E+02  0.0000000E+00
Ar 2115  0.3047322E+02  0.1096877E+02  0.4711741E+02  0.0000000E+00
Ar 2116  0.2791265E+02  0.1372959E+02  0.4708881E+02  0.0000000E+00
Ar 2117  0.2795899E+02  0.1124647E+02  0.4980103E+02  0.0000000E+00
Ar 2118  0.3050055E+02  0.1400426E+02  0.4972660E+02  0.0000000E+00
Ar 2119  0.3067116E+02  0.1082504E+02  0.5259094E+02  0.0000000E+00
Ar 2120  0.2778272E+02  0.1386728E+02  0.5234222E+02  0.0000000E+00
Ar 2121  0.2760462E+02  0.1642281E+02  0.2331115E+00  0.0000000E+00
Ar 2122  0.3111988E+02  0.1986199E+02  0.5520768E+02  0.0000000E+00
Ar 2123  0.3034870E+02  0.1674772E+02  0.3153345E+01  0.0000000E+00
Ar 2124  0.2776352E+02  0.1918097E+02  0.2791013E+01  0.0000000E+00
Ar 2125  0.2749783E+02  0.1645099E+02  0.5574979E+01  0.0000000E+00
Ar 2126  0.3043894E+02  0.1923192E+02  0.5959736E+01  0.0000000E+00
Ar 2127  0.3039703E+02  0.1630155E+02  0.8373091E+01  0.0000000E+00
Ar 2128  0.2770718E+02  0.1894165E+02  0.8104284E+01  0.0000000E+00
Ar 2129  0.2762349E+02  0.1664896E+02  0.1118378E+02  0.0000000E+00
Ar 2130  0.3064745E+02  0.1924919E+02  0.1085786E+02  0.0000000E+00
Ar 2131  0.3050299E+02  0.1622897E+02  0.1362413E+02  0.0000000E+00
Ar 2132  0.2772134E+02  0.1938800E+02  0.1369049E+02  0.0000000E+00
Ar 2133  0.2776179E+02  0.1657854E+02  0.1657854E+02  0.0000000E+00
Ar 2134  0.3026227E+02  0.1937206E+02  0.1651609E+02  0.0000000E+00
Ar 2135  0.3026227E+02  0.1651609E+02  0.1937207E+02  0.0000000E+00
Ar 2136  0.2754838E+02  0.1929041E+02  0.1929041E+02  0.0000000E+00
Ar 2137  0.2723661E+02  0.1661839E+02  0.2193195E+02  0.0000000E+00
Ar 2138  0.3029163E+02  0.1907895E+02  0.2196618E+02  0.0000000E+00
Ar 2139  0.3009757E+02  0.1657668E+02  0.2477972E+02  0.0000000E+00
Ar 2140  0.2758165E+02  0.1926443E+02  0.2479873E+02  0.0000000E+00
Ar 2141  0.2752984E+02  0.1647517E+02  0.2752984E+02  0.0000000E+00
Ar 2142  0.3031671E+02  0.1926689E+02  0.2752424E+02  0.0000000E+00
Ar 2143  0.3013236E+02  0.1633256E+02  0.3013234E+02  0.0000000E+00
Ar 2144  0.2752424E+02  0.1926689E+02  0.3031670E+02  0.0000000E+00
Ar 2145  0.2741160E+02  0.1659261E+02  0.3294018E+02  0.0000000E+00
Ar 2146  0.3041526E+02  0.1905125E+02  0.3312425E+02  0.0000000E+00
Ar 2147  0.3009971E+02  0.1649570E+02  0.3600554E+02  0.0000000E+00
Ar 2148  0.2761251E+02  0.1927173E+02  0.3569095E+02  0.0000000E+00
Ar 2149  0.2763590E+02  0.1666161E+02  0.3901153E+02  0.0000000E+00
Ar 2150  0.3049567E+02  0.1936939E+02  0.3864832E+02  0.0000000E+00
Ar 2151  0.3050911E+02  0.1646747E+02  0.4198445E+02  0.0000000E+00
Ar 2152  0.2729675E+02  0.1930354E+02  0.4197005E+02  0.0000000E+00
Ar 2153  0.2763127E+02  0.1629707E+02  0.4439879E+02  0.0000000E+00
Ar 2154  0.3043631E+02  0.1930949E+02  0.4448342E+02  0.0000000E+00
Ar 2155  0.3045598E+02  0.1668912E+02  0.4709576E+02  0.0000000E+00
Ar 2156  0.2768651E+02  0.1932504E+02  0.4694755E+02  0.0000000E+00
Ar 2157  0.2755736E+02  0.1656513E+02  0.4961468E+02  0.0000000E+00
Ar 2158  0.3032683E+02  0.1964626E+02  0.4976497E+02  0.0000000E+00
Ar 2159  0.3043309E+02  0.1667450E+02  0.5247691E+02  0.0000000E+00
Ar 2160  0.2764863E+02  0.1934197E+02  0.5257550E+02  0.0000000E+00
Ar 2161  0.2786327E+02  0.2194652E+02  0.2301094E+00  0.0000000E+00
Ar 2162  0.3060903E+02  0.2500611E+02  0.5523197E+02  0.0000000E+00
Ar 2163  0.3082352E+02  0.2217005E+02  0.2934747E+01  0.0000000E+00
Ar 2164  0.2770136E+02  0.2483506E+02  0.2942981E+01  0.0000000E+00
Ar 2165  0.2766103E+02  0.2194670E+02  0.5821389E+01  0.0000000E+00
Ar 2166  0.3048210E+02  0.2467314E+02  0.5904767E+01  0.0000000E+00
Ar 2167  0.3027303E+02  0.2224175E+02  0.8561329E+01  0.0000000E+00
Ar 2168  0.2758035E+02  0.2482956E+02  0.8484644E+01  0.0000000E+00
Ar 2169  0.2746819E+02  0.2206150E+02  0.1110187E+02  0.0000000E+00
Ar 2170  0.3030587E+02  0.2461831E+02  0.1108141E+02  0.0000000E+00
Ar 2171  0.3052330E+02  0.2218283E+02  0.1367081E+02  0.0000000E+00
Ar 2172  0.2749417E+02  0.2478420E+02  0.1395269E+02  0.0000000E+00
Ar 2173  0.2723661E+02  0.2193195E+02  0.1661839E+02  0.0000000E+00
Ar 2174  0.3009756E+02  0.2477972E+02  0.1657668E+02  0.0000000E+00
Ar 2175  0.3029162E+02  0.2196618E+02  0.1907895E+02  0.0000000E+00
Ar 2176  0.2758164E+02  0.2479872E+02  0.1926443E+02  0.0000000E+00
Ar 2177  0.2767022E+02  0.2182476E+02  0.2182476E+02  0.0000000E+00
Ar 2178  0.3047131E+02  0.2470837E+02  0.2178464E+02  0.0000000E+00
Ar 2179  0.3047131E+02  0.2178464E+02  0.2470837E+02  0.0000000E+00
Ar 2180  0.2789451E+02  0.2472348E+02  0.2472348E+02  0.0000000E+00
Ar 2181  0.2758667E+02  0.2229219E+02  0.2758667E+02  0.0000000E+00
Ar 2182  0.3066531E+02  0.2476062E+02  0.2789149E+02  0.0000000E+00
Ar 2183  0.3046730E+02  0.2192842E+02  0.3046729E+02  0.0000000E+00
Ar 2184  0.2789150E+02  0.2476063E+02  0.3066530E+02  0.0000000E+00
Ar 2185  0.2771252E+02  0.2181479E+02  0.3307277E+02  0.0000000E+00
Ar 2186  0.3063974E+02  0.2495080E+02  0.3333035E+02  0.0000000E+00
Ar 2187  0.3034919E+02  0.2211274E+02  0.3592036E+02  0.0000000E+00
Ar 2188  0.2768475E+02  0.2482225E+02  0.3594836E+02  0.0000000E+00
Ar 2189  0.2764261E+02  0.2208038E+02  0.3855336E+02  0.0000000E+00
Ar 2190  0.3041424E+02  0.2475924E+02  0.3875570E+02  0.0000000E+00
Ar 2191  0.3034166E+02  0.2195802E+02  0.4162425E+02  0.0000000E+00
Ar 2192  0.2770321E+02  0.2494328E+02  0.4154510E+02  0.0000000E+00
Ar 2193  0.2751322E+02  0.2197012E+02  0.4444903E+02  0.0000000E+00
Ar 2194  0.3032413E+02  0.2500108E+02  0.4441782E+02  0.0000000E+00
Ar 2195  0.3025693E+02  0.2234582E+02  0.4702002E+02  0.0000000E+00
Ar 2196  0.2785796E+02  0.2519327E+02  0.4742087E+02  0.0000000E+00
Ar 2197  0.2767706E+02  0.2235601E+02  0.4976108E+02  0.0000000E+00
Ar 2198  0.3054613E+02  0.2511522E+02  0.5019898E+02  0.0000000E+00
Ar 2199  0.3038962E+02  0.2225651E+02  0.5254572E+02  0.0000000E+00
Ar 2200  0.2747130E+02  0.2485556E+02  0.5252981E+02  0.0000000E+00
Ar 2201  0.2744083E+02  0.2744082E+02  0.3373996E+00  0.0000000E+00
Ar 2202  0.3069076E+02  0.3069075E+02  0.5489763E+02  0.0000000E+00
Ar 2203  0.3030741E+02  0.2735954E+02  0.3068892E+01  0.0000000E+00
Ar 2204  0.2735954E+02  0.3030740E+02  0.3068907E+01  0.0000000E+00
Ar 2205  0.2752374E+02  0.2752374E+02  0.5872890E+01  0.0000000E+00
Ar 2206  0.3026347E+02  0.3026346E+02  0.5360427E+01  0.0000000E+00
Ar 2207  0.3036276E+02  0.2753992E+02  0.8627939E+01  0.0000000E+00
Ar 2208  0.2753992E+02  0.3036276E+02  0.8627950E+01  0.0000000E+00
Ar 2209  0.2748266E+02  0.2748266E+02  0.1121414E+02  0.0000000E+00
Ar 2210  0.3041470E+02  0.3041470E+02  0.1128367E+02  0.0000000E+00
Ar 2211  0.3062167E+02  0.2731735E+02  0.1386866E+02  0.0000000E+00
Ar 2212  0.2731735E+02  0.3062166E+02  0.1386866E+02  0.0000000E+00
Ar 2213  0.2752985E+02  0.2752984E+02  0.1647517E+02  0.0000000E+00
Ar 2214  0.3013236E+02  0.3013235E+02  0.1633256E+02  0.0000000E+00
Ar 2215  0.3031671E+02  0.2752424E+02  0.1926689E+02  0.0000000E+00
Ar 2216  0.2752424E+02  0.3031671E+02  0.1926689E+02  0.0000000E+00
Ar 2217  0.2758667E+02  0.2758668E+02  0.2229218E+02  0.0000000E+00
Ar 2218  0.3046729E+02  0.3046730E+02  0.2192842E+02  0.0000000E+00
Ar 2219  0.3066530E+02  0.2789149E+02  0.2476063E+02  0.0000000E+00
Ar 2220  0.2789149E+02  0.3066530E+02  0.2476062E+02  0.0000000E+00
Ar 2221  0.2753144E+02  0.2753143E+02  0.2753143E+02  0.0000000E+00
Ar 2222  0.3012631E+02  0.3012631E+02  0.2761302E+02  0.0000000E+00
Ar 2223  0.3012631E+02  0.2761303E+02  0.3012631E+02  0.0000000E+00
Ar 2224  0.2761302E+02  0.3012631E+02  0.3012630E+02  0.0000000E+00
Ar 2225  0.2767064E+02  0.2767063E+02  0.3315127E+02  0.0000000E+00
Ar 2226  0.3036279E+02  0.3036278E+02  0.3344877E+02  0.0000000E+00
Ar 2227  0.3046590E+02  0.2756034E+02  0.3602438E+02  0.0000000E+00
Ar 2228  0.2756034E+02  0.3046590E+02  0.3602438E+02  0.0000000E+00
Ar 2229  0.2749739E+02  0.2749739E+02  0.3841200E+02  0.0000000E+00
Ar 2230  0.3011642E+02  0.3011642E+02  0.3878198E+02  0.0000000E+00
Ar 2231  0.3055362E+02  0.2773153E+02  0.4171681E+02  0.0000000E+00
Ar 2232  0.2773153E+02  0.3055362E+02  0.4171681E+02  0.0000000E+00
Ar 2233  0.2775848E+02  0.2775848E+02  0.4488960E+02  0.0000000E+00
Ar 2234  0.3080265E+02  0.3080266E+02  0.4468511E+02  0.0000000E+00
Ar 2235  0.3056427E+02  0.2784656E+02  0.4710133E+02  0.0000000E+00
Ar 2236  0.2784656E+02  0.3056428E+02  0.4710133E+02  0.0000000E+00
Ar 2237  0.2791726E+02  0.2791726E+02  0.5013361E+02  0.0000000E+00
Ar 2238  0.3060674E+02  0.3060674E+02  0.4990206E+02  0.0000000E+00
Ar 2239  0.3064880E+02  0.2782676E+02  0.5289770E+02  0.0000000E+00
Ar 2240  0.2782676E+02  0.3064881E+02  0.5289771E+02  0.0000000E+00
Ar 2241  0.2788628E+02  0.3304624E+02  0.6075053E+00  0.0000000E+00
Ar 2242  0.3045195E+02  0.3575467E+02  0.4988882E+00  0.0000000E+00
Ar 2243  0.3052806E+02  0.3335493E+02  0.3387342E+01  0.0000000E+00
Ar 2244  0.2749351E+02  0.3624189E+02  0.2862428E+01  0.0000000E+00
Ar 2245  0.2782682E+02  0.3333116E+02  0.5814494E+01  0.0000000E+00
Ar 2246  0.3034223E+02  0.3624569E+02  0.5740514E+01  0.0000000E+00
Ar 2247  0.3019537E+02  0.3306347E+02  0.8472515E+01  0.0000000E+00
Ar 2248  0.2759628E+02  0.3594617E+02  0.8407954E+01  0.0000000E+00
Ar 2249  0.2750910E+02  0.3308407E+02  0.1111604E+02  0.0000000E+00
Ar 2250  0.3008446E+02  0.3583233E+02  0.1126132E+02  0.0000000E+00
Ar 2251  0.3006705E+02  0.3292716E+02  0.1382358E+02  0.0000000E+00
Ar 2252  0.2747268E+02  0.3584382E+02  0.1407411E+02  0.0000000E+00
Ar 2253  0.2741160E+02  0.3294018E+02  0.1659260E+02  0.0000000E+00
Ar 2254  0.3009971E+02  0.3600554E+02  0.1649570E+02  0.0000000E+00
Ar 2255  0.3041526E+02  0.3312425E+02  0.1905126E+02  0.0000000E+00
Ar 2256  0.2761251E+02  0.3569095E+02  0.1927174E+02  0.0000000E+00
Ar 2257  0.2771252E+02  0.3307278E+02  0.2181480E+02  0.0000000E+00
Ar 2258  0.3034919E+02  0.3592036E+02  0.2211274E+02  0.0000000E+00
Ar 2259  0.3063974E+02  0.3333035E+02  0.2495080E+02  0.0000000E+00
Ar 2260  0.2768475E+02  0.3594837E+02  0.2482225E+02  0.0000000E+00
Ar 2261  0.2767064E+02  0.3315128E+02  0.2767063E+02  0.0000000E+00
Ar 2262  0.3046590E+02  0.3602438E+02  0.2756034E+02  0.0000000E+00
Ar 2263  0.3036279E+02  0.3344877E+02  0.3036278E+02  0.0000000E+00
Ar 2264  0.2756034E+02  0.3602438E+02  0.3046590E+02  0.0000000E+00
Ar 2265  0.2784145E+02  0.3312214E+02  0.3312214E+02  0.0000000E+00
Ar 2266  0.3044509E+02  0.3615953E+02  0.3324461E+02  0.0000000E+00
Ar 2267  0.3044509E+02  0.3324461E+02  0.3615953E+02  0.0000000E+00
Ar 2268  0.2736867E+02  0.3584776E+02  0.3584776E+02  0.0000000E+00
Ar 2269  0.2774621E+02  0.3341141E+02  0.3862218E+02  0.0000000E+00
Ar 2270  0.3042330E+02  0.3614643E+02  0.3885113E+02  0.0000000E+00
Ar 2271  0.3046255E+02  0.3322738E+02  0.4170649E+02  0.0000000E+00
Ar 2272  0.2742802E+02  0.3620769E+02  0.4191753E+02  0.0000000E+00
Ar 2273  0.2747237E+02  0.3328170E+02  0.4453201E+02  0.0000000E+00
Ar 2274  0.3052282E+02  0.3603521E+02  0.4463874E+02  0.0000000E+00
Ar 2275  0.3056161E+02  0.3347134E+02  0.4716032E+02  0.0000000E+00
Ar 2276  0.2775273E+02  0.3590694E+02  0.4748940E+02  0.0000000E+00
Ar 2277  0.2808058E+02  0.3317231E+02  0.4990996E+02  0.0000000E+00
Ar 2278  0.3059267E+02  0.3596409E+02  0.4981484E+02  0.0000000E+00
Ar 2279  0.3077513E+02  0.3334897E+02  0.5256997E+02  0.0000000E+00
Ar 2280  0.2806721E+02  0.3618555E+02  0.5260431E+02  0.0000000E+00
Ar 2281  0.2768838E+02  0.3886572E+02  0.5506047E+02  0.0000000E+00
Ar 2282  0.3007642E+02  0.4147893E+02  0.5504332E+02  0.0000000E+00
Ar 2283  0.3058559E+02  0.3871752E+02  0.2602444E+01  0.0000000E+00
Ar 2284  0.2813744E+02  0.4126361E+02  0.2848415E+01  0.0000000E+00
Ar 2285  0.2758160E+02  0.3863208E+02  0.5602670E+01  0.0000000E+00
Ar 2286  0.3077764E+02  0.4107007E+02  0.5713764E+01  0.0000000E+00
Ar 2287  0.3031279E+02  0.3881111E+02  0.8637827E+01  0.0000000E+00
Ar 2288  0.2766689E+02  0.4123173E+02  0.8386910E+01  0.0000000E+00
Ar 2289  0.2759167E+02  0.3876112E+02  0.1127110E+02  0.0000000E+00
Ar 2290  0.3061084E+02  0.4156088E+02  0.1096130E+02  0.0000000E+00
Ar 2291  0.3020511E+02  0.3857277E+02  0.1390581E+02  0.0000000E+00
Ar 2292  0.2800490E+02  0.4160089E+02  0.1397625E+02  0.0000000E+00
Ar 2293  0.2763590E+02  0.3901154E+02  0.1666161E+02  0.0000000E+00
Ar 2294  0.3050911E+02  0.4198444E+02  0.1646746E+02  0.0000000E+00
Ar 2295  0.3049567E+02  0.3864832E+02  0.1936939E+02  0.0000000E+00
Ar 2296  0.2729675E+02  0.4197005E+02  0.1930354E+02  0.0000000E+00
Ar 2297  0.2764261E+02  0.3855337E+02  0.2208038E+02  0.0000000E+00
Ar 2298  0.3034166E+02  0.4162425E+02  0.2195802E+02  0.0000000E+00
Ar 2299  0.3041424E+02  0.3875570E+02  0.2475924E+02  0.0000000E+00
Ar 2300  0.2770321E+02  0.4154510E+02  0.2494329E+02  0.0000000E+00
Ar 2301  0.2749739E+02  0.3841200E+02  0.2749739E+02  0.0000000E+00
Ar 2302  0.3055361E+02  0.4171682E+02  0.2773153E+02  0.0000000E+00
Ar 2303  0.3011643E+02  0.3878199E+02  0.3011642E+02  0.0000000E+00
Ar 2304  0.2773154E+02  0.4171681E+02  0.3055362E+02  0.0000000E+00
Ar 2305  0.2774620E+02  0.3862217E+02  0.3341142E+02  0.0000000E+00
Ar 2306  0.3046255E+02  0.4170648E+02  0.3322738E+02  0.0000000E+00
Ar 2307  0.3042330E+02  0.3885112E+02  0.3614643E+02  0.0000000E+00
Ar 2308  0.2742802E+02  0.4191753E+02  0.3620769E+02  0.0000000E+00
Ar 2309  0.2739986E+02  0.3896817E+02  0.3896817E+02  0.0000000E+00
Ar 2310  0.3013754E+02  0.4138067E+02  0.3874873E+02  0.0000000E+00
Ar 2311  0.3013753E+02  0.3874874E+02  0.4138067E+02  0.0000000E+00
Ar 2312  0.2725818E+02  0.4170417E+02  0.4170417E+02  0.0000000E+00
Ar 2313  0.2769054E+02  0.3872933E+02  0.4477205E+02  0.0000000E+00
Ar 2314  0.3060407E+02  0.4128336E+02  0.4417542E+02  0.0000000E+00
Ar 2315  0.3052970E+02  0.3856474E+02  0.4702449E+02  0.0000000E+00
Ar 2316  0.2779985E+02  0.4170676E+02  0.4709758E+02  0.0000000E+00
Ar 2317  0.2768466E+02  0.3886268E+02  0.4960657E+02  0.0000000E+00
Ar 2318  0.3042739E+02  0.4140402E+02  0.5002920E+02  0.0000000E+00
Ar 2319  0.3088353E+02  0.3895853E+02  0.5269313E+02  0.0000000E+00
Ar 2320  0.2764444E+02  0.4150718E+02  0.5240586E+02  0.0000000E+00
Ar 2321  0.2786419E+02  0.4442581E+02  0.3003845E+00  0.0000000E+00
Ar 2322  0.3069260E+02  0.4688838E+02  0.5516385E+02  0.0000000E+00
Ar 2323  0.3060733E+02  0.4441608E+02  0.3039098E+01  0.0000000E+00
Ar 2324  0.2768888E+02  0.4685234E+02  0.2991360E+01  0.0000000E+00
Ar 2325  0.2748388E+02  0.4397314E+02  0.5523580E+01  0.0000000E+00
Ar 2326  0.3038571E+02  0.4706198E+02  0.5880972E+01  0.0000000E+00
Ar 2327  0.3021330E+02  0.4393227E+02  0.8005364E+01  0.0000000E+00
Ar 2328  0.2796547E+02  0.4681836E+02  0.8312559E+01  0.0000000E+00
Ar 2329  0.2781884E+02  0.4396357E+02  0.1114891E+02  0.0000000E+00
Ar 2330  0.3047321E+02  0.4711742E+02  0.1096876E+02  0.0000000E+00
Ar 2331  0.3051992E+02  0.4439531E+02  0.1378984E+02  0.0000000E+00
Ar 2332  0.2791266E+02  0.4708882E+02  0.1372959E+02  0.0000000E+00
Ar 2333  0.2763127E+02  0.4439879E+02  0.1629707E+02  0.0000000E+00
Ar 2334  0.3045598E+02  0.4709576E+02  0.1668911E+02  0.0000000E+00
Ar 2335  0.3043631E+02  0.4448342E+02  0.1930949E+02  0.0000000E+00
Ar 2336  0.2768651E+02  0.4694755E+02  0.1932504E+02  0.0000000E+00
Ar 2337  0.2751322E+02  0.4444904E+02  0.2197012E+02  0.0000000E+00
Ar 2338  0.3025693E+02  0.4702002E+02  0.2234582E+02  0.0000000E+00
Ar 2339  0.3032414E+02  0.4441782E+02  0.2500108E+02  0.0000000E+00
Ar 2340  0.2785797E+02  0.4742087E+02  0.2519327E+02  0.0000000E+00
Ar 2341  0.2775847E+02  0.4488960E+02  0.2775847E+02  0.0000000E+00
Ar 2342  0.3056427E+02  0.4710133E+02  0.2784656E+02  0.0000000E+00
Ar 2343  0.3080265E+02  0.4468511E+02  0.3080265E+02  0.0000000E+00
Ar 2344  0.2784656E+02  0.4710133E+02  0.3056428E+02  0.0000000E+00
Ar 2345  0.2747237E+02  0.4453201E+02  0.3328170E+02  0.0000000E+00
Ar 2346  0.3056161E+02  0.4716033E+02  0.3347134E+02  0.0000000E+00
Ar 2347  0.3052282E+02  0.4463874E+02  0.3603521E+02  0.0000000E+00
Ar 2348  0.2775273E+02  0.4748941E+02  0.3590694E+02  0.0000000E+00
Ar 2349  0.2769054E+02  0.4477205E+02  0.3872933E+02  0.0000000E+00
Ar 2350  0.3052970E+02  0.4702448E+02  0.3856474E+02  0.0000000E+00
Ar 2351  0.3060407E+02  0.4417542E+02  0.4128336E+02  0.0000000E+00
Ar 2352  0.2779985E+02  0.4709759E+02  0.4170677E+02  0.0000000E+00
Ar 2353  0.2786916E+02  0.4458087E+02  0.4458086E+02  0.0000000E+00
Ar 2354  0.3074340E+02  0.4729393E+02  0.4406709E+02  0.0000000E+00
Ar 2355  0.3074341E+02  0.4406710E+02  0.4729393E+02  0.0000000E+00
Ar 2356  0.2794420E+02  0.4724228E+02  0.4724228E+02  0.0000000E+00
Ar 2357  0.2780047E+02  0.4429682E+02  0.4978570E+02  0.0000000E+00
Ar 2358  0.3076569E+02  0.4701279E+02  0.4977792E+02  0.0000000E+00
Ar 2359  0.3073491E+02  0.4401881E+02  0.5255476E+02  0.0000000E+00
Ar 2360  0.2813892E+02  0.4685728E+02  0.5257953E+02  0.0000000E+00
Ar 2361  0.2806028E+02  0.4961339E+02  0.5502691E+02  0.0000000E+00
Ar 2362  0.3116769E+02  0.5254549E+02  0.5500784E+02  0.0000000E+00
Ar 2363  0.3072079E+02  0.4932336E+02  0.2996400E+01  0.0000000E+00
Ar 2364  0.2809655E+02  0.5249970E+02  0.2834021E+01  0.0000000E+00
Ar 2365  0.2786136E+02  0.4963870E+02  0.5785840E+01  0.0000000E+00
Ar 2366  0.3075831E+02  0.5214514E+02  0.5807926E+01  0.0000000E+00
Ar 2367  0.3068604E+02  0.4972377E+02  0.8457345E+01  0.0000000E+00
Ar 2368  0.2763145E+02  0.5252054E+02  0.8315342E+01  0.0000000E+00
Ar 2369  0.2795899E+02  0.4980104E+02  0.1124647E+02  0.0000000E+00
Ar 2370  0.3067117E+02  0.5259094E+02  0.1082505E+02  0.0000000E+00
Ar 2371  0.3050055E+02  0.4972660E+02  0.1400426E+02  0.0000000E+00
Ar 2372  0.2778272E+02  0.5234223E+02  0.1386728E+02  0.0000000E+00
Ar 2373  0.2755737E+02  0.4961468E+02  0.1656513E+02  0.0000000E+00
Ar 2374  0.3043309E+02  0.5247691E+02  0.1667450E+02  0.0000000E+00
Ar 2375  0.3032683E+02  0.4976497E+02  0.1964626E+02  0.0000000E+00
Ar 2376  0.2764863E+02  0.5257550E+02  0.1934197E+02  0.0000000E+00
Ar 2377  0.2767706E+02  0.4976109E+02  0.2235600E+02  0.0000000E+00
Ar 2378  0.3038962E+02  0.5254573E+02  0.2225651E+02  0.0000000E+00
Ar 2379  0.3054613E+02  0.5019899E+02  0.2511522E+02  0.0000000E+00
Ar 2380  0.2747129E+02  0.5252981E+02  0.2485555E+02  0.0000000E+00
Ar 2381  0.2791726E+02  0.5013360E+02  0.2791725E+02  0.0000000E+00
Ar 2382  0.3064881E+02  0.5289770E+02  0.2782675E+02  0.0000000E+00
Ar 2383  0.3060674E+02  0.4990207E+02  0.3060673E+02  0.0000000E+00
Ar 2384  0.2782676E+02  0.5289770E+02  0.3064880E+02  0.0000000E+00
Ar 2385  0.2808058E+02  0.4990995E+02  0.3317230E+02  0.0000000E+00
Ar 2386  0.3077512E+02  0.5256997E+02  0.3334897E+02  0.0000000E+00
Ar 2387  0.3059266E+02  0.4981485E+02  0.3596409E+02  0.0000000E+00
Ar 2388  0.2806721E+02  0.5260431E+02  0.3618556E+02  0.0000000E+00
Ar 2389  0.2768465E+02  0.4960657E+02  0.3886268E+02  0.0000000E+00
Ar 2390  0.3088353E+02  0.5269314E+02  0.3895853E+02  0.0000000E+00
Ar 2391  0.3042738E+02  0.5002921E+02  0.4140401E+02  0.0000000E+00
Ar 2392  0.2764444E+02  0.5240587E+02  0.4150718E+02  0.0000000E+00
Ar 2393  0.2780047E+02  0.4978570E+02  0.4429681E+02  0.0000000E+00
Ar 2394  0.3073491E+02  0.5255476E+02  0.4401880E+02  0.0000000E+00
Ar 2395  0.3076570E+02  0.4977789E+02  0.4701273E+02  0.0000000E+00
Ar 2396  0.2813889E+02  0.5257935E+02  0.4685704E+02  0.0000000E+00
Ar 2397  0.2820320E+02  0.4991894E+02  0.4991894E+02  0.0000000E+00
Ar 2398  0.3080437E+02  0.5244049E+02  0.4971436E+02  0.0000000E+00
Ar 2399  0.3080486E+02  0.4971434E+02  0.5243998E+02  0.0000000E+00
Ar 2400  0.2809422E+02  0.5259520E+02  0.5259436E+02  0.0000000E+00
Ar 2401  0.3374250E+02  0.5502166E+02  0.5502375E+02  0.0000000E+00
Ar 2402  0.3641182E+02  0.2850292E+01  0.2761510E+00  0.0000000E+00
Ar 2403  0.3641186E+02  0.2762513E+00  0.2850237E+01  0.0000000E+00
Ar 2404  0.3365393E+02  0.2694294E+01  0.2693951E+01  0.0000000E+00
Ar 2405  0.3342908E+02  0.3129037E+00  0.5467548E+01  0.0000000E+00
Ar 2406  0.3602756E+02  0.2882317E+01  0.5743362E+01  0.0000000E+00
Ar 2407  0.3608712E+02  0.5515497E+02  0.8164667E+01  0.0000000E+00
Ar 2408  0.3339422E+02  0.2760818E+01  0.8353920E+01  0.0000000E+00
Ar 2409  0.3339115E+02  0.2189551E+00  0.1134950E+02  0.0000000E+00
Ar 2410  0.3594861E+02  0.3030819E+01  0.1122381E+02  0.0000000E+00
Ar 2411  0.3592043E+02  0.1975468E+00  0.1388750E+02  0.0000000E+00
Ar 2412  0.3332690E+02  0.3015444E+01  0.1366582E+02  0.0000000E+00
Ar 2413  0.3265422E+02  0.1763443E+00  0.1592043E+02  0.0000000E+00
Ar 2414  0.3563777E+02  0.2884552E+01  0.1656822E+02  0.0000000E+00
Ar 2415  0.3608819E+02  0.2013917E+00  0.1968921E+02  0.0000000E+00
Ar 2416  0.3333481E+02  0.3236609E+01  0.1946822E+02  0.0000000E+00
Ar 2417  0.3326773E+02  0.5501668E+02  0.2224854E+02  0.0000000E+00
Ar 2418  0.3613658E+02  0.3199337E+01  0.2206594E+02  0.0000000E+00
Ar 2419  0.3597227E+02  0.5288956E+00  0.2484512E+02  0.0000000E+00
Ar 2420  0.3340315E+02  0.3048670E+01  0.2477248E+02  0.0000000E+00
Ar 2421  0.3304624E+02  0.6075102E+00  0.2788628E+02  0.0000000E+00
Ar 2422  0.3624189E+02  0.2862427E+01  0.2749351E+02  0.0000000E+00
Ar 2423  0.3575468E+02  0.4988944E+00  0.3045195E+02  0.0000000E+00
Ar 2424  0.3335495E+02  0.3387331E+01  0.3052807E+02  0.0000000E+00
Ar 2425  0.3362034E+02  0.4539253E+00  0.3362034E+02  0.0000000E+00
Ar 2426  0.3605423E+02  0.2915423E+01  0.3329445E+02  0.0000000E+00
Ar 2427  0.3647106E+02  0.5526079E+02  0.3647106E+02  0.0000000E+00
Ar 2428  0.3329446E+02  0.2915430E+01  0.3605422E+02  0.0000000E+00
Ar 2429  0.3337789E+02  0.5527319E+02  0.3885064E+02  0.0000000E+00
Ar 2430  0.3611754E+02  0.3000873E+01  0.3895302E+02  0.0000000E+00
Ar 2431  0.3607178E+02  0.5513928E+02  0.4153084E+02  0.0000000E+00
Ar 2432  0.3325632E+02  0.2740606E+01  0.4137556E+02  0.0000000E+00
Ar 2433  0.3391672E+02  0.5312276E+00  0.4445655E+02  0.0000000E+00
Ar 2434  0.3630624E+02  0.3405827E+01  0.4381429E+02  0.0000000E+00
Ar 2435  0.3614302E+02  0.3747656E+00  0.4671453E+02  0.0000000E+00
Ar 2436  0.3366012E+02  0.3195343E+01  0.4670344E+02  0.0000000E+00
Ar 2437  0.3383897E+02  0.5511957E+02  0.4975441E+02  0.0000000E+00
Ar 2438  0.3607221E+02  0.2982031E+01  0.4977463E+02  0.0000000E+00
Ar 2439  0.3682561E+02  0.5533277E+02  0.5260807E+02  0.0000000E+00
Ar 2440  0.3362287E+02  0.2624263E+01  0.5242105E+02  0.0000000E+00
Ar 2441  0.3342948E+02  0.5468251E+01  0.3136423E+00  0.0000000E+00
Ar 2442  0.3608727E+02  0.8164801E+01  0.5515495E+02  0.0000000E+00
Ar 2443  0.3602765E+02  0.5743390E+01  0.2882402E+01  0.0000000E+00
Ar 2444  0.3339435E+02  0.8354212E+01  0.2760912E+01  0.0000000E+00
Ar 2445  0.3342759E+02  0.5516503E+01  0.5516520E+01  0.0000000E+00
Ar 2446  0.3609753E+02  0.8342369E+01  0.5807399E+01  0.0000000E+00
Ar 2447  0.3609753E+02  0.5807407E+01  0.8342363E+01  0.0000000E+00
Ar 2448  0.3327952E+02  0.8363237E+01  0.8363238E+01  0.0000000E+00
Ar 2449  0.3336412E+02  0.5524900E+01  0.1078746E+02  0.0000000E+00
Ar 2450  0.3585951E+02  0.8268125E+01  0.1103608E+02  0.0000000E+00
Ar 2451  0.3590530E+02  0.5463241E+01  0.1376389E+02  0.0000000E+00
Ar 2452  0.3304427E+02  0.8164889E+01  0.1363060E+02  0.0000000E+00
Ar 2453  0.3306444E+02  0.5611002E+01  0.1638275E+02  0.0000000E+00
Ar 2454  0.3579979E+02  0.8245354E+01  0.1631339E+02  0.0000000E+00
Ar 2455  0.3614866E+02  0.5818897E+01  0.1915918E+02  0.0000000E+00
Ar 2456  0.3303448E+02  0.8278294E+01  0.1958259E+02  0.0000000E+00
Ar 2457  0.3334215E+02  0.5874005E+01  0.2218825E+02  0.0000000E+00
Ar 2458  0.3601029E+02  0.8304595E+01  0.2193723E+02  0.0000000E+00
Ar 2459  0.3584628E+02  0.5877930E+01  0.2499157E+02  0.0000000E+00
Ar 2460  0.3329285E+02  0.8355246E+01  0.2477837E+02  0.0000000E+00
Ar 2461  0.3333116E+02  0.5814498E+01  0.2782683E+02  0.0000000E+00
Ar 2462  0.3594619E+02  0.8407934E+01  0.2759629E+02  0.0000000E+00
Ar 2463  0.3624569E+02  0.5740511E+01  0.3034223E+02  0.0000000E+00
Ar 2464  0.3306346E+02  0.8472498E+01  0.3019537E+02  0.0000000E+00
Ar 2465  0.3339578E+02  0.5875722E+01  0.3339579E+02  0.0000000E+00
Ar 2466  0.3578444E+02  0.8604018E+01  0.3320395E+02  0.0000000E+00
Ar 2467  0.3606659E+02  0.5823517E+01  0.3606659E+02  0.0000000E+00
Ar 2468  0.3320395E+02  0.8604018E+01  0.3578445E+02  0.0000000E+00
Ar 2469  0.3317380E+02  0.5839807E+01  0.3850732E+02  0.0000000E+00
Ar 2470  0.3619836E+02  0.8599342E+01  0.3889178E+02  0.0000000E+00
Ar 2471  0.3597450E+02  0.5774046E+01  0.4150364E+02  0.0000000E+00
Ar 2472  0.3328818E+02  0.8474995E+01  0.4130346E+02  0.0000000E+00
Ar 2473  0.3321170E+02  0.5846456E+01  0.4408596E+02  0.0000000E+00
Ar 2474  0.3599056E+02  0.8409787E+01  0.4417261E+02  0.0000000E+00
Ar 2475  0.3627758E+02  0.5619957E+01  0.4690204E+02  0.0000000E+00
Ar 2476  0.3298392E+02  0.8347210E+01  0.4684862E+02  0.0000000E+00
Ar 2477  0.3351485E+02  0.5736411E+01  0.4954898E+02  0.0000000E+00
Ar 2478  0.3588744E+02  0.8429597E+01  0.4975240E+02  0.0000000E+00
Ar 2479  0.3618025E+02  0.5371626E+01  0.5240047E+02  0.0000000E+00
Ar 2480  0.3341661E+02  0.8263150E+01  0.5262305E+02  0.0000000E+00
Ar 2481  0.3339112E+02  0.1134947E+02  0.2189504E+00  0.0000000E+00
Ar 2482  0.3592042E+02  0.1388750E+02  0.1975434E+00  0.0000000E+00
Ar 2483  0.3594862E+02  0.1122381E+02  0.3030816E+01  0.0000000E+00
Ar 2484  0.3332690E+02  0.1366581E+02  0.3015429E+01  0.0000000E+00
Ar 2485  0.3336412E+02  0.1078749E+02  0.5524913E+01  0.0000000E+00
Ar 2486  0.3590530E+02  0.1376389E+02  0.5463236E+01  0.0000000E+00
Ar 2487  0.3585951E+02  0.1103608E+02  0.8268126E+01  0.0000000E+00
Ar 2488  0.3304427E+02  0.1363060E+02  0.8164886E+01  0.0000000E+00
Ar 2489  0.3314228E+02  0.1097869E+02  0.1097869E+02  0.0000000E+00
Ar 2490  0.3618672E+02  0.1389733E+02  0.1131566E+02  0.0000000E+00
Ar 2491  0.3618672E+02  0.1131566E+02  0.1389733E+02  0.0000000E+00
Ar 2492  0.3344100E+02  0.1375914E+02  0.1375914E+02  0.0000000E+00
Ar 2493  0.3308675E+02  0.1096803E+02  0.1632510E+02  0.0000000E+00
Ar 2494  0.3590309E+02  0.1389802E+02  0.1663514E+02  0.0000000E+00
Ar 2495  0.3587495E+02  0.1077776E+02  0.1908942E+02  0.0000000E+00
Ar 2496  0.3323594E+02  0.1356310E+02  0.1919536E+02  0.0000000E+00
Ar 2497  0.3330096E+02  0.1085814E+02  0.2203685E+02  0.0000000E+00
Ar 2498  0.3594598E+02  0.1370355E+02  0.2179875E+02  0.0000000E+00
Ar 2499  0.3608087E+02  0.1122108E+02  0.2480549E+02  0.0000000E+00
Ar 2500  0.3307727E+02  0.1373501E+02  0.2474930E+02  0.0000000E+00
Ar 2501  0.3308407E+02  0.1111602E+02  0.2750910E+02  0.0000000E+00
Ar 2502  0.3584382E+02  0.1407411E+02  0.2747267E+02  0.0000000E+00
Ar 2503  0.3583232E+02  0.1126132E+02  0.3008446E+02  0.0000000E+00
Ar 2504  0.3292716E+02  0.1382358E+02  0.3006705E+02  0.0000000E+00
Ar 2505  0.3325245E+02  0.1118240E+02  0.3325244E+02  0.0000000E+00
Ar 2506  0.3623499E+02  0.1375119E+02  0.3326752E+02  0.0000000E+00
Ar 2507  0.3593867E+02  0.1099879E+02  0.3593866E+02  0.0000000E+00
Ar 2508  0.3326754E+02  0.1375119E+02  0.3623499E+02  0.0000000E+00
Ar 2509  0.3322665E+02  0.1103099E+02  0.3889255E+02  0.0000000E+00
Ar 2510  0.3594484E+02  0.1400524E+02  0.3874126E+02  0.0000000E+00
Ar 2511  0.3590334E+02  0.1099904E+02  0.4156741E+02  0.0000000E+00
Ar 2512  0.3312924E+02  0.1385881E+02  0.4159091E+02  0.0000000E+00
Ar 2513  0.3324891E+02  0.1126908E+02  0.4419468E+02  0.0000000E+00
Ar 2514  0.3580606E+02  0.1414768E+02  0.4441226E+02  0.0000000E+00
Ar 2515  0.3575931E+02  0.1105109E+02  0.4721321E+02  0.0000000E+00
Ar 2516  0.3323181E+02  0.1405948E+02  0.4734576E+02  0.0000000E+00
Ar 2517  0.3329406E+02  0.1092249E+02  0.4976535E+02  0.0000000E+00
Ar 2518  0.3599071E+02  0.1380995E+02  0.4981101E+02  0.0000000E+00
Ar 2519  0.3591260E+02  0.1103760E+02  0.5263118E+02  0.0000000E+00
Ar 2520  0.3314808E+02  0.1354272E+02  0.5217423E+02  0.0000000E+00
Ar 2521  0.3265421E+02  0.1592043E+02  0.1763429E+00  0.0000000E+00
Ar 2522  0.3608818E+02  0.1968921E+02  0.2013916E+00  0.0000000E+00
Ar 2523  0.3563777E+02  0.1656822E+02  0.2884550E+01  0.0000000E+00
Ar 2524  0.3333480E+02  0.1946821E+02  0.3236611E+01  0.0000000E+00
Ar 2525  0.3306444E+02  0.1638275E+02  0.5610997E+01  0.0000000E+00
Ar 2526  0.3614866E+02  0.1915919E+02  0.5818896E+01  0.0000000E+00
Ar 2527  0.3579979E+02  0.1631339E+02  0.8245350E+01  0.0000000E+00
Ar 2528  0.3303448E+02  0.1958260E+02  0.8278292E+01  0.0000000E+00
Ar 2529  0.3308675E+02  0.1632510E+02  0.1096803E+02  0.0000000E+00
Ar 2530  0.3587495E+02  0.1908942E+02  0.1077775E+02  0.0000000E+00
Ar 2531  0.3590309E+02  0.1663514E+02  0.1389802E+02  0.0000000E+00
Ar 2532  0.3323594E+02  0.1919536E+02  0.1356310E+02  0.0000000E+00
Ar 2533  0.3349444E+02  0.1657310E+02  0.1657310E+02  0.0000000E+00
Ar 2534  0.3592786E+02  0.1956887E+02  0.1658392E+02  0.0000000E+00
Ar 2535  0.3592786E+02  0.1658392E+02  0.1956886E+02  0.0000000E+00
Ar 2536  0.3334992E+02  0.1935042E+02  0.1935043E+02  0.0000000E+00
Ar 2537  0.3296366E+02  0.1661013E+02  0.2203737E+02  0.0000000E+00
Ar 2538  0.3620310E+02  0.1918766E+02  0.2210356E+02  0.0000000E+00
Ar 2539  0.3601135E+02  0.1683201E+02  0.2487483E+02  0.0000000E+00
Ar 2540  0.3333394E+02  0.1948478E+02  0.2450917E+02  0.0000000E+00
Ar 2541  0.3294018E+02  0.1659260E+02  0.2741159E+02  0.0000000E+00
Ar 2542  0.3569096E+02  0.1927173E+02  0.2761252E+02  0.0000000E+00
Ar 2543  0.3600554E+02  0.1649569E+02  0.3009972E+02  0.0000000E+00
Ar 2544  0.3312426E+02  0.1905126E+02  0.3041527E+02  0.0000000E+00
Ar 2545  0.3305684E+02  0.1613612E+02  0.3305683E+02  0.0000000E+00
Ar 2546  0.3590769E+02  0.1915565E+02  0.3339590E+02  0.0000000E+00
Ar 2547  0.3600951E+02  0.1639758E+02  0.3600950E+02  0.0000000E+00
Ar 2548  0.3339590E+02  0.1915566E+02  0.3590769E+02  0.0000000E+00
Ar 2549  0.3315694E+02  0.1664669E+02  0.3891075E+02  0.0000000E+00
Ar 2550  0.3592250E+02  0.1937762E+02  0.3863986E+02  0.0000000E+00
Ar 2551  0.3593180E+02  0.1668579E+02  0.4145871E+02  0.0000000E+00
Ar 2552  0.3314902E+02  0.1939185E+02  0.4140906E+02  0.0000000E+00
Ar 2553  0.3329476E+02  0.1675008E+02  0.4437754E+02  0.0000000E+00
Ar 2554  0.3589949E+02  0.1935509E+02  0.4423277E+02  0.0000000E+00
Ar 2555  0.3626513E+02  0.1676246E+02  0.4731623E+02  0.0000000E+00
Ar 2556  0.3304601E+02  0.1965662E+02  0.4702748E+02  0.0000000E+00
Ar 2557  0.3325190E+02  0.1688532E+02  0.4994516E+02  0.0000000E+00
Ar 2558  0.3581912E+02  0.1965433E+02  0.4985097E+02  0.0000000E+00
Ar 2559  0.3579971E+02  0.1687311E+02  0.5273040E+02  0.0000000E+00
Ar 2560  0.3342512E+02  0.1956388E+02  0.5257646E+02  0.0000000E+00
Ar 2561  0.3326772E+02  0.2224855E+02  0.5501668E+02  0.0000000E+00
Ar 2562  0.3597227E+02  0.2484513E+02  0.5288963E+00  0.0000000E+00
Ar 2563  0.3613657E+02  0.2206594E+02  0.3199339E+01  0.0000000E+00
Ar 2564  0.3340315E+02  0.2477248E+02  0.3048672E+01  0.0000000E+00
Ar 2565  0.3334215E+02  0.2218825E+02  0.5874003E+01  0.0000000E+00
Ar 2566  0.3584627E+02  0.2499157E+02  0.5877929E+01  0.0000000E+00
Ar 2567  0.3601029E+02  0.2193723E+02  0.8304593E+01  0.0000000E+00
Ar 2568  0.3329284E+02  0.2477837E+02  0.8355244E+01  0.0000000E+00
Ar 2569  0.3330096E+02  0.2203685E+02  0.1085814E+02  0.0000000E+00
Ar 2570  0.3608087E+02  0.2480549E+02  0.1122107E+02  0.0000000E+00
Ar 2571  0.3594598E+02  0.2179875E+02  0.1370355E+02  0.0000000E+00
Ar 2572  0.3307727E+02  0.2474929E+02  0.1373500E+02  0.0000000E+00
Ar 2573  0.3296366E+02  0.2203737E+02  0.1661013E+02  0.0000000E+00
Ar 2574  0.3601135E+02  0.2487483E+02  0.1683201E+02  0.0000000E+00
Ar 2575  0.3620309E+02  0.2210356E+02  0.1918766E+02  0.0000000E+00
Ar 2576  0.3333394E+02  0.2450917E+02  0.1948478E+02  0.0000000E+00
Ar 2577  0.3324229E+02  0.2215199E+02  0.2215199E+02  0.0000000E+00
Ar 2578  0.3590179E+02  0.2498828E+02  0.2228298E+02  0.0000000E+00
Ar 2579  0.3590180E+02  0.2228298E+02  0.2498828E+02  0.0000000E+00
Ar 2580  0.3287851E+02  0.2472457E+02  0.2472457E+02  0.0000000E+00
Ar 2581  0.3307278E+02  0.2181479E+02  0.2771251E+02  0.0000000E+00
Ar 2582  0.3594836E+02  0.2482225E+02  0.2768475E+02  0.0000000E+00
Ar 2583  0.3592037E+02  0.2211274E+02  0.3034919E+02  0.0000000E+00
Ar 2584  0.3333034E+02  0.2495080E+02  0.3063975E+02  0.0000000E+00
Ar 2585  0.3298692E+02  0.2185282E+02  0.3298694E+02  0.0000000E+00
Ar 2586  0.3622536E+02  0.2485082E+02  0.3330110E+02  0.0000000E+00
Ar 2587  0.3575674E+02  0.2200813E+02  0.3575673E+02  0.0000000E+00
Ar 2588  0.3330109E+02  0.2485082E+02  0.3622536E+02  0.0000000E+00
Ar 2589  0.3319884E+02  0.2202832E+02  0.3879221E+02  0.0000000E+00
Ar 2590  0.3589756E+02  0.2490581E+02  0.3891448E+02  0.0000000E+00
Ar 2591  0.3599404E+02  0.2223943E+02  0.4146314E+02  0.0000000E+00
Ar 2592  0.3308521E+02  0.2477925E+02  0.4171569E+02  0.0000000E+00
Ar 2593  0.3337112E+02  0.2227485E+02  0.4428627E+02  0.0000000E+00
Ar 2594  0.3598579E+02  0.2504603E+02  0.4436757E+02  0.0000000E+00
Ar 2595  0.3587060E+02  0.2196155E+02  0.4712141E+02  0.0000000E+00
Ar 2596  0.3312231E+02  0.2459692E+02  0.4730985E+02  0.0000000E+00
Ar 2597  0.3348365E+02  0.2238862E+02  0.5026050E+02  0.0000000E+00
Ar 2598  0.3607894E+02  0.2497636E+02  0.4952844E+02  0.0000000E+00
Ar 2599  0.3636418E+02  0.2229599E+02  0.5261670E+02  0.0000000E+00
Ar 2600  0.3377076E+02  0.2520990E+02  0.5261112E+02  0.0000000E+00
Ar 2601  0.3304624E+02  0.2788628E+02  0.6075056E+00  0.0000000E+00
Ar 2602  0.3575468E+02  0.3045195E+02  0.4988921E+00  0.0000000E+00
Ar 2603  0.3624189E+02  0.2749351E+02  0.2862425E+01  0.0000000E+00
Ar 2604  0.3335493E+02  0.3052807E+02  0.3387324E+01  0.0000000E+00
Ar 2605  0.3333116E+02  0.2782683E+02  0.5814492E+01  0.0000000E+00
Ar 2606  0.3624568E+02  0.3034224E+02  0.5740507E+01  0.0000000E+00
Ar 2607  0.3594618E+02  0.2759629E+02  0.8407933E+01  0.0000000E+00
Ar 2608  0.3306346E+02  0.3019537E+02  0.8472499E+01  0.0000000E+00
Ar 2609  0.3308407E+02  0.2750910E+02  0.1111602E+02  0.0000000E+00
Ar 2610  0.3583232E+02  0.3008447E+02  0.1126131E+02  0.0000000E+00
Ar 2611  0.3584382E+02  0.2747267E+02  0.1407411E+02  0.0000000E+00
Ar 2612  0.3292716E+02  0.3006704E+02  0.1382358E+02  0.0000000E+00
Ar 2613  0.3294018E+02  0.2741158E+02  0.1659261E+02  0.0000000E+00
Ar 2614  0.3600554E+02  0.3009971E+02  0.1649569E+02  0.0000000E+00
Ar 2615  0.3569096E+02  0.2761251E+02  0.1927173E+02  0.0000000E+00
Ar 2616  0.3312425E+02  0.3041527E+02  0.1905126E+02  0.0000000E+00
Ar 2617  0.3307278E+02  0.2771252E+02  0.2181479E+02  0.0000000E+00
Ar 2618  0.3592036E+02  0.3034919E+02  0.2211274E+02  0.0000000E+00
Ar 2619  0.3594837E+02  0.2768475E+02  0.2482224E+02  0.0000000E+00
Ar 2620  0.3333034E+02  0.3063975E+02  0.2495080E+02  0.0000000E+00
Ar 2621  0.3315128E+02  0.2767064E+02  0.2767064E+02  0.0000000E+00
Ar 2622  0.3602438E+02  0.3046590E+02  0.2756034E+02  0.0000000E+00
Ar 2623  0.3602438E+02  0.2756034E+02  0.3046589E+02  0.0000000E+00
Ar 2624  0.3344878E+02  0.3036279E+02  0.3036279E+02  0.0000000E+00
Ar 2625  0.3312214E+02  0.2784145E+02  0.3312214E+02  0.0000000E+00
Ar 2626  0.3615952E+02  0.3044510E+02  0.3324461E+02  0.0000000E+00
Ar 2627  0.3584777E+02  0.2736866E+02  0.3584777E+02  0.0000000E+00
Ar 2628  0.3324461E+02  0.3044509E+02  0.3615953E+02  0.0000000E+00
Ar 2629  0.3341142E+02  0.2774621E+02  0.3862217E+02  0.0000000E+00
Ar 2630  0.3614643E+02  0.3042330E+02  0.3885112E+02  0.0000000E+00
Ar 2631  0.3620768E+02  0.2742802E+02  0.4191753E+02  0.0000000E+00
Ar 2632  0.3322738E+02  0.3046254E+02  0.4170649E+02  0.0000000E+00
Ar 2633  0.3328170E+02  0.2747236E+02  0.4453202E+02  0.0000000E+00
Ar 2634  0.3603521E+02  0.3052283E+02  0.4463874E+02  0.0000000E+00
Ar 2635  0.3590695E+02  0.2775273E+02  0.4748940E+02  0.0000000E+00
Ar 2636  0.3347134E+02  0.3056161E+02  0.4716032E+02  0.0000000E+00
Ar 2637  0.3317231E+02  0.2808058E+02  0.4990996E+02  0.0000000E+00
Ar 2638  0.3596408E+02  0.3059267E+02  0.4981484E+02  0.0000000E+00
Ar 2639  0.3618555E+02  0.2806722E+02  0.5260429E+02  0.0000000E+00
Ar 2640  0.3334897E+02  0.3077512E+02  0.5256997E+02  0.0000000E+00
Ar 2641  0.3362034E+02  0.3362034E+02  0.4539285E+00  0.0000000E+00
Ar 2642  0.3647105E+02  0.3647105E+02  0.5526079E+02  0.0000000E+00
Ar 2643  0.3605423E+02  0.3329445E+02  0.2915422E+01  0.0000000E+00
Ar 2644  0.3329446E+02  0.3605422E+02  0.2915434E+01  0.0000000E+00
Ar 2645  0.3339577E+02  0.3339579E+02  0.5875723E+01  0.0000000E+00
Ar 2646  0.3606660E+02  0.3606659E+02  0.5823523E+01  0.0000000E+00
Ar 2647  0.3578444E+02  0.3320395E+02  0.8604016E+01  0.0000000E+00
Ar 2648  0.3320394E+02  0.3578445E+02  0.8604019E+01  0.0000000E+00
Ar 2649  0.3325245E+02  0.3325244E+02  0.1118240E+02  0.0000000E+00
Ar 2650  0.3593866E+02  0.3593866E+02  0.1099879E+02  0.0000000E+00
Ar 2651  0.3623500E+02  0.3326753E+02  0.1375119E+02  0.0000000E+00
Ar 2652  0.3326754E+02  0.3623499E+02  0.1375119E+02  0.0000000E+00
Ar 2653  0.3305685E+02  0.3305685E+02  0.1613613E+02  0.0000000E+00
Ar 2654  0.3600951E+02  0.3600950E+02  0.1639758E+02  0.0000000E+00
Ar 2655  0.3590769E+02  0.3339589E+02  0.1915566E+02  0.0000000E+00
Ar 2656  0.3339589E+02  0.3590769E+02  0.1915567E+02  0.0000000E+00
Ar 2657  0.3298692E+02  0.3298694E+02  0.2185283E+02  0.0000000E+00
Ar 2658  0.3575674E+02  0.3575674E+02  0.2200814E+02  0.0000000E+00
Ar 2659  0.3622535E+02  0.3330110E+02  0.2485082E+02  0.0000000E+00
Ar 2660  0.3330109E+02  0.3622536E+02  0.2485082E+02  0.0000000E+00
Ar 2661  0.3312215E+02  0.3312214E+02  0.2784146E+02  0.0000000E+00
Ar 2662  0.3584777E+02  0.3584776E+02  0.2736868E+02  0.0000000E+00
Ar 2663  0.3615953E+02  0.3324461E+02  0.3044510E+02  0.0000000E+00
Ar 2664  0.3324461E+02  0.3615953E+02  0.3044508E+02  0.0000000E+00
Ar 2665  0.3317092E+02  0.3317091E+02  0.3317091E+02  0.0000000E+00
Ar 2666  0.3580257E+02  0.3580258E+02  0.3290004E+02  0.0000000E+00
Ar 2667  0.3580257E+02  0.3290004E+02  0.3580257E+02  0.0000000E+00
Ar 2668  0.3290005E+02  0.3580258E+02  0.3580257E+02  0.0000000E+00
Ar 2669  0.3308020E+02  0.3308019E+02  0.3893636E+02  0.0000000E+00
Ar 2670  0.3581630E+02  0.3581630E+02  0.3922130E+02  0.0000000E+00
Ar 2671  0.3650010E+02  0.3304241E+02  0.4155472E+02  0.0000000E+00
Ar 2672  0.3304241E+02  0.3650009E+02  0.4155471E+02  0.0000000E+00
Ar 2673  0.3338165E+02  0.3338165E+02  0.4423384E+02  0.0000000E+00
Ar 2674  0.3609896E+02  0.3609896E+02  0.4422486E+02  0.0000000E+00
Ar 2675  0.3614634E+02  0.3329498E+02  0.4697159E+02  0.0000000E+00
Ar 2676  0.3329498E+02  0.3614633E+02  0.4697159E+02  0.0000000E+00
Ar 2677  0.3321780E+02  0.3321779E+02  0.5010829E+02  0.0000000E+00
Ar 2678  0.3603767E+02  0.3603767E+02  0.4988447E+02  0.0000000E+00
Ar 2679  0.3623337E+02  0.3338975E+02  0.5269056E+02  0.0000000E+00
Ar 2680  0.3338974E+02  0.3623337E+02  0.5269057E+02  0.0000000E+00
Ar 2681  0.3337789E+02  0.3885064E+02  0.5527319E+02  0.0000000E+00
Ar 2682  0.3607177E+02  0.4153084E+02  0.5513928E+02  0.0000000E+00
Ar 2683  0.3611753E+02  0.3895302E+02  0.3000870E+01  0.0000000E+00
Ar 2684  0.3325632E+02  0.4137556E+02  0.2740607E+01  0.0000000E+00
Ar 2685  0.3317380E+02  0.3850732E+02  0.5839812E+01  0.0000000E+00
Ar 2686  0.3597450E+02  0.4150364E+02  0.5774050E+01  0.0000000E+00
Ar 2687  0.3619835E+02  0.3889178E+02  0.8599347E+01  0.0000000E+00
Ar 2688  0.3328818E+02  0.4130346E+02  0.8474995E+01  0.0000000E+00
Ar 2689  0.3322665E+02  0.3889255E+02  0.1103099E+02  0.0000000E+00
Ar 2690  0.3590334E+02  0.4156741E+02  0.1099904E+02  0.0000000E+00
Ar 2691  0.3594484E+02  0.3874127E+02  0.1400525E+02  0.0000000E+00
Ar 2692  0.3312924E+02  0.4159091E+02  0.1385881E+02  0.0000000E+00
Ar 2693  0.3315694E+02  0.3891076E+02  0.1664669E+02  0.0000000E+00
Ar 2694  0.3593180E+02  0.4145871E+02  0.1668579E+02  0.0000000E+00
Ar 2695  0.3592250E+02  0.3863986E+02  0.1937762E+02  0.0000000E+00
Ar 2696  0.3314903E+02  0.4140906E+02  0.1939185E+02  0.0000000E+00
Ar 2697  0.3319883E+02  0.3879221E+02  0.2202832E+02  0.0000000E+00
Ar 2698  0.3599404E+02  0.4146313E+02  0.2223943E+02  0.0000000E+00
Ar 2699  0.3589756E+02  0.3891448E+02  0.2490581E+02  0.0000000E+00
Ar 2700  0.3308521E+02  0.4171569E+02  0.2477926E+02  0.0000000E+00
Ar 2701  0.3341142E+02  0.3862217E+02  0.2774620E+02  0.0000000E+00
Ar 2702  0.3620768E+02  0.4191754E+02  0.2742802E+02  0.0000000E+00
Ar 2703  0.3614644E+02  0.3885113E+02  0.3042330E+02  0.0000000E+00
Ar 2704  0.3322739E+02  0.4170649E+02  0.3046254E+02  0.0000000E+00
Ar 2705  0.3308020E+02  0.3893636E+02  0.3308019E+02  0.0000000E+00
Ar 2706  0.3650010E+02  0.4155472E+02  0.3304241E+02  0.0000000E+00
Ar 2707  0.3581630E+02  0.3922130E+02  0.3581630E+02  0.0000000E+00
Ar 2708  0.3304241E+02  0.4155471E+02  0.3650009E+02  0.0000000E+00
Ar 2709  0.3311262E+02  0.3852662E+02  0.3852662E+02  0.0000000E+00
Ar 2710  0.3610596E+02  0.4174580E+02  0.3887577E+02  0.0000000E+00
Ar 2711  0.3610596E+02  0.3887578E+02  0.4174579E+02  0.0000000E+00
Ar 2712  0.3310487E+02  0.4119459E+02  0.4119458E+02  0.0000000E+00
Ar 2713  0.3329649E+02  0.3867180E+02  0.4433928E+02  0.0000000E+00
Ar 2714  0.3631289E+02  0.4175816E+02  0.4446622E+02  0.0000000E+00
Ar 2715  0.3615630E+02  0.3903724E+02  0.4705771E+02  0.0000000E+00
Ar 2716  0.3329548E+02  0.4135937E+02  0.4709981E+02  0.0000000E+00
Ar 2717  0.3371605E+02  0.3880239E+02  0.4986160E+02  0.0000000E+00
Ar 2718  0.3614476E+02  0.4136713E+02  0.5008964E+02  0.0000000E+00
Ar 2719  0.3625759E+02  0.3886099E+02  0.5248644E+02  0.0000000E+00
Ar 2720  0.3357312E+02  0.4148278E+02  0.5258147E+02  0.0000000E+00
Ar 2721  0.3391672E+02  0.4445655E+02  0.5312287E+00  0.0000000E+00
Ar 2722  0.3614302E+02  0.4671453E+02  0.3747673E+00  0.0000000E+00
Ar 2723  0.3630624E+02  0.4381429E+02  0.3405825E+01  0.0000000E+00
Ar 2724  0.3366012E+02  0.4670343E+02  0.3195343E+01  0.0000000E+00
Ar 2725  0.3321170E+02  0.4408595E+02  0.5846453E+01  0.0000000E+00
Ar 2726  0.3627757E+02  0.4690204E+02  0.5619948E+01  0.0000000E+00
Ar 2727  0.3599056E+02  0.4417261E+02  0.8409787E+01  0.0000000E+00
Ar 2728  0.3298392E+02  0.4684863E+02  0.8347206E+01  0.0000000E+00
Ar 2729  0.3324891E+02  0.4419468E+02  0.1126908E+02  0.0000000E+00
Ar 2730  0.3575930E+02  0.4721320E+02  0.1105109E+02  0.0000000E+00
Ar 2731  0.3580605E+02  0.4441226E+02  0.1414768E+02  0.0000000E+00
Ar 2732  0.3323180E+02  0.4734576E+02  0.1405948E+02  0.0000000E+00
Ar 2733  0.3329476E+02  0.4437754E+02  0.1675008E+02  0.0000000E+00
Ar 2734  0.3626513E+02  0.4731623E+02  0.1676246E+02  0.0000000E+00
Ar 2735  0.3589949E+02  0.4423277E+02  0.1935508E+02  0.0000000E+00
Ar 2736  0.3304601E+02  0.4702747E+02  0.1965661E+02  0.0000000E+00
Ar 2737  0.3337112E+02  0.4428627E+02  0.2227485E+02  0.0000000E+00
Ar 2738  0.3587059E+02  0.4712141E+02  0.2196155E+02  0.0000000E+00
Ar 2739  0.3598578E+02  0.4436757E+02  0.2504603E+02  0.0000000E+00
Ar 2740  0.3312230E+02  0.4730985E+02  0.2459692E+02  0.0000000E+00
Ar 2741  0.3328170E+02  0.4453202E+02  0.2747237E+02  0.0000000E+00
Ar 2742  0.3590695E+02  0.4748940E+02  0.2775273E+02  0.0000000E+00
Ar 2743  0.3603521E+02  0.4463875E+02  0.3052282E+02  0.0000000E+00
Ar 2744  0.3347134E+02  0.4716032E+02  0.3056160E+02  0.0000000E+00
Ar 2745  0.3338165E+02  0.4423384E+02  0.3338165E+02  0.0000000E+00
Ar 2746  0.3614633E+02  0.4697159E+02  0.3329498E+02  0.0000000E+00
Ar 2747  0.3609896E+02  0.4422487E+02  0.3609896E+02  0.0000000E+00
Ar 2748  0.3329497E+02  0.4697159E+02  0.3614633E+02  0.0000000E+00
Ar 2749  0.3329649E+02  0.4433928E+02  0.3867179E+02  0.0000000E+00
Ar 2750  0.3615630E+02  0.4705770E+02  0.3903724E+02  0.0000000E+00
Ar 2751  0.3631290E+02  0.4446622E+02  0.4175816E+02  0.0000000E+00
Ar 2752  0.3329548E+02  0.4709980E+02  0.4135937E+02  0.0000000E+00
Ar 2753  0.3336189E+02  0.4456037E+02  0.4456036E+02  0.0000000E+00
Ar 2754  0.3630308E+02  0.4731335E+02  0.4428532E+02  0.0000000E+00
Ar 2755  0.3630308E+02  0.4428531E+02  0.4731335E+02  0.0000000E+00
Ar 2756  0.3377402E+02  0.4705730E+02  0.4705730E+02  0.0000000E+00
Ar 2757  0.3352462E+02  0.4404401E+02  0.4988406E+02  0.0000000E+00
Ar 2758  0.3647333E+02  0.4713992E+02  0.4959636E+02  0.0000000E+00
Ar 2759  0.3644726E+02  0.4437825E+02  0.5252802E+02  0.0000000E+00
Ar 2760  0.3346945E+02  0.4646260E+02  0.5237861E+02  0.0000000E+00
Ar 2761  0.3383897E+02  0.4975444E+02  0.5511964E+02  0.0000000E+00
Ar 2762  0.3682564E+02  0.5260808E+02  0.5533277E+02  0.0000000E+00
Ar 2763  0.3607213E+02  0.4977478E+02  0.2982094E+01  0.0000000E+00
Ar 2764  0.3362110E+02  0.5242158E+02  0.2621974E+01  0.0000000E+00
Ar 2765  0.3351476E+02  0.4954907E+02  0.5736400E+01  0.0000000E+00
Ar 2766  0.3617981E+02  0.5240082E+02  0.5371591E+01  0.0000000E+00
Ar 2767  0.3588743E+02  0.4975240E+02  0.8429591E+01  0.0000000E+00
Ar 2768  0.3341652E+02  0.5262312E+02  0.8263059E+01  0.0000000E+00
Ar 2769  0.3329405E+02  0.4976535E+02  0.1092247E+02  0.0000000E+00
Ar 2770  0.3591261E+02  0.5263117E+02  0.1103760E+02  0.0000000E+00
Ar 2771  0.3599071E+02  0.4981101E+02  0.1380995E+02  0.0000000E+00
Ar 2772  0.3314809E+02  0.5217422E+02  0.1354273E+02  0.0000000E+00
Ar 2773  0.3325190E+02  0.4994516E+02  0.1688532E+02  0.0000000E+00
Ar 2774  0.3579970E+02  0.5273040E+02  0.1687311E+02  0.0000000E+00
Ar 2775  0.3581912E+02  0.4985097E+02  0.1965433E+02  0.0000000E+00
Ar 2776  0.3342512E+02  0.5257646E+02  0.1956388E+02  0.0000000E+00
Ar 2777  0.3348365E+02  0.5026051E+02  0.2238862E+02  0.0000000E+00
Ar 2778  0.3636418E+02  0.5261671E+02  0.2229600E+02  0.0000000E+00
Ar 2779  0.3607894E+02  0.4952844E+02  0.2497636E+02  0.0000000E+00
Ar 2780  0.3377075E+02  0.5261112E+02  0.2520990E+02  0.0000000E+00
Ar 2781  0.3317231E+02  0.4990996E+02  0.2808058E+02  0.0000000E+00
Ar 2782  0.3618555E+02  0.5260429E+02  0.2806721E+02  0.0000000E+00
Ar 2783  0.3596409E+02  0.4981485E+02  0.3059266E+02  0.0000000E+00
Ar 2784  0.3334897E+02  0.5256997E+02  0.3077512E+02  0.0000000E+00
Ar 2785  0.3321780E+02  0.5010830E+02  0.3321779E+02  0.0000000E+00
Ar 2786  0.3623337E+02  0.5269057E+02  0.3338975E+02  0.0000000E+00
Ar 2787  0.3603767E+02  0.4988447E+02  0.3603767E+02  0.0000000E+00
Ar 2788  0.3338974E+02  0.5269057E+02  0.3623337E+02  0.0000000E+00
Ar 2789  0.3371605E+02  0.4986160E+02  0.3880239E+02  0.0000000E+00
Ar 2790  0.3625759E+02  0.5248644E+02  0.3886099E+02  0.0000000E+00
Ar 2791  0.3614477E+02  0.5008964E+02  0.4136713E+02  0.0000000E+00
Ar 2792  0.3357312E+02  0.5258147E+02  0.4148277E+02  0.0000000E+00
Ar 2793  0.3352463E+02  0.4988406E+02  0.4404401E+02  0.0000000E+00
Ar 2794  0.3644727E+02  0.5252801E+02  0.4437824E+02  0.0000000E+00
Ar 2795  0.3647333E+02  0.4959636E+02  0.4713992E+02  0.0000000E+00
Ar 2796  0.3346946E+02  0.5237860E+02  0.4646259E+02  0.0000000E+00
Ar 2797  0.3346301E+02  0.4968018E+02  0.4968017E+02  0.0000000E+00
Ar 2798  0.3622549E+02  0.5243799E+02  0.4909775E+02  0.0000000E+00
Ar 2799  0.3622547E+02  0.4909774E+02  0.5243800E+02  0.0000000E+00
Ar 2800  0.3446998E+02  0.5227746E+02  0.5227748E+02  0.0000000E+00
Ar 2801  0.3919805E+02  0.5486480E+02  0.5486479E+02  0.0000000E+00
Ar 2802  0.4181387E+02  0.2850914E+01  0.2523209E+00  0.0000000E+00
Ar 2803  0.4181388E+02  0.2523203E+00  0.2850921E+01  0.0000000E+00
Ar 2804  0.3854248E+02  0.3002320E+01  0.3002302E+01  0.0000000E+00
Ar 2805  0.3900023E+02  0.1796432E+00  0.5633227E+01  0.0000000E+00
Ar 2806  0.4146924E+02  0.2964247E+01  0.5504898E+01  0.0000000E+00
Ar 2807  0.4182501E+02  0.5510373E+02  0.8823492E+01  0.0000000E+00
Ar 2808  0.3886151E+02  0.2882312E+01  0.8227723E+01  0.0000000E+00
Ar 2809  0.3866195E+02  0.5519411E+02  0.1110718E+02  0.0000000E+00
Ar 2810  0.4183515E+02  0.2856224E+01  0.1119074E+02  0.0000000E+00
Ar 2811  0.4114523E+02  0.2249123E+00  0.1374846E+02  0.0000000E+00
Ar 2812  0.3871049E+02  0.2923243E+01  0.1365178E+02  0.0000000E+00
Ar 2813  0.3860603E+02  0.5511785E+02  0.1670444E+02  0.0000000E+00
Ar 2814  0.4135075E+02  0.3178885E+01  0.1679920E+02  0.0000000E+00
Ar 2815  0.4150126E+02  0.5009911E+00  0.1928750E+02  0.0000000E+00
Ar 2816  0.3891135E+02  0.3137879E+01  0.1955417E+02  0.0000000E+00
Ar 2817  0.3887527E+02  0.6172938E+00  0.2201493E+02  0.0000000E+00
Ar 2818  0.4162603E+02  0.3226777E+01  0.2204289E+02  0.0000000E+00
Ar 2819  0.4153842E+02  0.5525007E+02  0.2489271E+02  0.0000000E+00
Ar 2820  0.3884022E+02  0.2946842E+01  0.2483947E+02  0.0000000E+00
Ar 2821  0.3886573E+02  0.5506044E+02  0.2768837E+02  0.0000000E+00
Ar 2822  0.4126360E+02  0.2848409E+01  0.2813743E+02  0.0000000E+00
Ar 2823  0.4147892E+02  0.5504332E+02  0.3007642E+02  0.0000000E+00
Ar 2824  0.3871753E+02  0.2602430E+01  0.3058559E+02  0.0000000E+00
Ar 2825  0.3885064E+02  0.5527319E+02  0.3337790E+02  0.0000000E+00
Ar 2826  0.4137557E+02  0.2740598E+01  0.3325634E+02  0.0000000E+00
Ar 2827  0.4153083E+02  0.5513927E+02  0.3607177E+02  0.0000000E+00
Ar 2828  0.3895303E+02  0.3000877E+01  0.3611753E+02  0.0000000E+00
Ar 2829  0.3882305E+02  0.5545179E+00  0.3882304E+02  0.0000000E+00
Ar 2830  0.4191729E+02  0.3025867E+01  0.3922814E+02  0.0000000E+00
Ar 2831  0.4139243E+02  0.2861395E+00  0.4139244E+02  0.0000000E+00
Ar 2832  0.3922814E+02  0.3025880E+01  0.4191729E+02  0.0000000E+00
Ar 2833  0.3890768E+02  0.5509279E+02  0.4439101E+02  0.0000000E+00
Ar 2834  0.4170408E+02  0.2966402E+01  0.4435484E+02  0.0000000E+00
Ar 2835  0.4176699E+02  0.3421338E+00  0.4690510E+02  0.0000000E+00
Ar 2836  0.3880411E+02  0.3153949E+01  0.4681313E+02  0.0000000E+00
Ar 2837  0.3885977E+02  0.3875694E+00  0.4941653E+02  0.0000000E+00
Ar 2838  0.4134075E+02  0.3164540E+01  0.4965404E+02  0.0000000E+00
Ar 2839  0.4115865E+02  0.5535256E+02  0.5201935E+02  0.0000000E+00
Ar 2840  0.3916024E+02  0.3325916E+01  0.5246986E+02  0.0000000E+00
Ar 2841  0.3900022E+02  0.5633222E+01  0.1796380E+00  0.0000000E+00
Ar 2842  0.4182501E+02  0.8823494E+01  0.5510373E+02  0.0000000E+00
Ar 2843  0.4146924E+02  0.5504895E+01  0.2964244E+01  0.0000000E+00
Ar 2844  0.3886151E+02  0.8227722E+01  0.2882307E+01  0.0000000E+00
Ar 2845  0.3884129E+02  0.5543963E+01  0.5543963E+01  0.0000000E+00
Ar 2846  0.4158117E+02  0.8286878E+01  0.5520222E+01  0.0000000E+00
Ar 2847  0.4158117E+02  0.5520220E+01  0.8286882E+01  0.0000000E+00
Ar 2848  0.3908662E+02  0.8158975E+01  0.8158979E+01  0.0000000E+00
Ar 2849  0.3858118E+02  0.5535739E+01  0.1095680E+02  0.0000000E+00
Ar 2850  0.4147240E+02  0.8307361E+01  0.1106236E+02  0.0000000E+00
Ar 2851  0.4137195E+02  0.5930657E+01  0.1373700E+02  0.0000000E+00
Ar 2852  0.3833810E+02  0.8325943E+01  0.1348445E+02  0.0000000E+00
Ar 2853  0.3871989E+02  0.5833191E+01  0.1656749E+02  0.0000000E+00
Ar 2854  0.4148873E+02  0.8259390E+01  0.1668898E+02  0.0000000E+00
Ar 2855  0.4170166E+02  0.5622375E+01  0.1938675E+02  0.0000000E+00
Ar 2856  0.3880756E+02  0.8337422E+01  0.1965137E+02  0.0000000E+00
Ar 2857  0.3867247E+02  0.5747671E+01  0.2216057E+02  0.0000000E+00
Ar 2858  0.4159458E+02  0.8386219E+01  0.2223155E+02  0.0000000E+00
Ar 2859  0.4155834E+02  0.5848174E+01  0.2475447E+02  0.0000000E+00
Ar 2860  0.3857369E+02  0.8578411E+01  0.2480860E+02  0.0000000E+00
Ar 2861  0.3863210E+02  0.5602660E+01  0.2758160E+02  0.0000000E+00
Ar 2862  0.4123174E+02  0.8386919E+01  0.2766688E+02  0.0000000E+00
Ar 2863  0.4107007E+02  0.5713759E+01  0.3077763E+02  0.0000000E+00
Ar 2864  0.3881112E+02  0.8637816E+01  0.3031278E+02  0.0000000E+00
Ar 2865  0.3850732E+02  0.5839821E+01  0.3317380E+02  0.0000000E+00
Ar 2866  0.4130347E+02  0.8475007E+01  0.3328817E+02  0.0000000E+00
Ar 2867  0.4150365E+02  0.5774046E+01  0.3597450E+02  0.0000000E+00
Ar 2868  0.3889179E+02  0.8599348E+01  0.3619835E+02  0.0000000E+00
Ar 2869  0.3917205E+02  0.5516554E+01  0.3917205E+02  0.0000000E+00
Ar 2870  0.4186318E+02  0.8290475E+01  0.3872481E+02  0.0000000E+00
Ar 2871  0.4194847E+02  0.5530789E+01  0.4194846E+02  0.0000000E+00
Ar 2872  0.3872482E+02  0.8290480E+01  0.4186317E+02  0.0000000E+00
Ar 2873  0.3885396E+02  0.5914620E+01  0.4446204E+02  0.0000000E+00
Ar 2874  0.4172542E+02  0.8520576E+01  0.4415942E+02  0.0000000E+00
Ar 2875  0.4167024E+02  0.5678073E+01  0.4713251E+02  0.0000000E+00
Ar 2876  0.3903614E+02  0.8266463E+01  0.4749186E+02  0.0000000E+00
Ar 2877  0.3872356E+02  0.5429608E+01  0.4971592E+02  0.0000000E+00
Ar 2878  0.4161727E+02  0.8718974E+01  0.4967292E+02  0.0000000E+00
Ar 2879  0.4167299E+02  0.6090012E+01  0.5235283E+02  0.0000000E+00
Ar 2880  0.3892251E+02  0.8506038E+01  0.5229342E+02  0.0000000E+00
Ar 2881  0.3866195E+02  0.1110718E+02  0.5519411E+02  0.0000000E+00
Ar 2882  0.4114523E+02  0.1374845E+02  0.2249153E+00  0.0000000E+00
Ar 2883  0.4183515E+02  0.1119074E+02  0.2856230E+01  0.0000000E+00
Ar 2884  0.3871048E+02  0.1365178E+02  0.2923243E+01  0.0000000E+00
Ar 2885  0.3858117E+02  0.1095680E+02  0.5535738E+01  0.0000000E+00
Ar 2886  0.4137195E+02  0.1373700E+02  0.5930654E+01  0.0000000E+00
Ar 2887  0.4147240E+02  0.1106236E+02  0.8307360E+01  0.0000000E+00
Ar 2888  0.3833810E+02  0.1348445E+02  0.8325938E+01  0.0000000E+00
Ar 2889  0.3863210E+02  0.1087521E+02  0.1087521E+02  0.0000000E+00
Ar 2890  0.4166104E+02  0.1385005E+02  0.1124812E+02  0.0000000E+00
Ar 2891  0.4166104E+02  0.1124812E+02  0.1385005E+02  0.0000000E+00
Ar 2892  0.3873391E+02  0.1380645E+02  0.1380645E+02  0.0000000E+00
Ar 2893  0.3864175E+02  0.1077468E+02  0.1663124E+02  0.0000000E+00
Ar 2894  0.4156332E+02  0.1390129E+02  0.1650244E+02  0.0000000E+00
Ar 2895  0.4151777E+02  0.1135989E+02  0.1929101E+02  0.0000000E+00
Ar 2896  0.3865812E+02  0.1377123E+02  0.1920386E+02  0.0000000E+00
Ar 2897  0.3885527E+02  0.1120861E+02  0.2171763E+02  0.0000000E+00
Ar 2898  0.4128289E+02  0.1387544E+02  0.2208386E+02  0.0000000E+00
Ar 2899  0.4161230E+02  0.1115227E+02  0.2471526E+02  0.0000000E+00
Ar 2900  0.3866983E+02  0.1414571E+02  0.2478907E+02  0.0000000E+00
Ar 2901  0.3876112E+02  0.1127109E+02  0.2759167E+02  0.0000000E+00
Ar 2902  0.4160088E+02  0.1397626E+02  0.2800489E+02  0.0000000E+00
Ar 2903  0.4156087E+02  0.1096131E+02  0.3061084E+02  0.0000000E+00
Ar 2904  0.3857278E+02  0.1390581E+02  0.3020510E+02  0.0000000E+00
Ar 2905  0.3889255E+02  0.1103098E+02  0.3322665E+02  0.0000000E+00
Ar 2906  0.4159091E+02  0.1385881E+02  0.3312924E+02  0.0000000E+00
Ar 2907  0.4156741E+02  0.1099905E+02  0.3590333E+02  0.0000000E+00
Ar 2908  0.3874126E+02  0.1400524E+02  0.3594485E+02  0.0000000E+00
Ar 2909  0.3869983E+02  0.1137537E+02  0.3869984E+02  0.0000000E+00
Ar 2910  0.4144709E+02  0.1372519E+02  0.3848819E+02  0.0000000E+00
Ar 2911  0.4142467E+02  0.1112063E+02  0.4142468E+02  0.0000000E+00
Ar 2912  0.3848819E+02  0.1372519E+02  0.4144709E+02  0.0000000E+00
Ar 2913  0.3879580E+02  0.1139859E+02  0.4430912E+02  0.0000000E+00
Ar 2914  0.4118337E+02  0.1391554E+02  0.4434123E+02  0.0000000E+00
Ar 2915  0.4134090E+02  0.1123798E+02  0.4715150E+02  0.0000000E+00
Ar 2916  0.3861116E+02  0.1395573E+02  0.4718725E+02  0.0000000E+00
Ar 2917  0.3855492E+02  0.1115928E+02  0.4964633E+02  0.0000000E+00
Ar 2918  0.4132443E+02  0.1380392E+02  0.4971854E+02  0.0000000E+00
Ar 2919  0.4144394E+02  0.1127383E+02  0.5246749E+02  0.0000000E+00
Ar 2920  0.3849560E+02  0.1363506E+02  0.5257848E+02  0.0000000E+00
Ar 2921  0.3860604E+02  0.1670444E+02  0.5511785E+02  0.0000000E+00
Ar 2922  0.4150126E+02  0.1928751E+02  0.5009931E+00  0.0000000E+00
Ar 2923  0.4135075E+02  0.1679920E+02  0.3178881E+01  0.0000000E+00
Ar 2924  0.3891135E+02  0.1955418E+02  0.3137878E+01  0.0000000E+00
Ar 2925  0.3871989E+02  0.1656749E+02  0.5833188E+01  0.0000000E+00
Ar 2926  0.4170166E+02  0.1938675E+02  0.5622373E+01  0.0000000E+00
Ar 2927  0.4148873E+02  0.1668898E+02  0.8259382E+01  0.0000000E+00
Ar 2928  0.3880756E+02  0.1965136E+02  0.8337423E+01  0.0000000E+00
Ar 2929  0.3864175E+02  0.1663124E+02  0.1077468E+02  0.0000000E+00
Ar 2930  0.4151777E+02  0.1929101E+02  0.1135989E+02  0.0000000E+00
Ar 2931  0.4156332E+02  0.1650244E+02  0.1390129E+02  0.0000000E+00
Ar 2932  0.3865812E+02  0.1920387E+02  0.1377123E+02  0.0000000E+00
Ar 2933  0.3848019E+02  0.1661917E+02  0.1661917E+02  0.0000000E+00
Ar 2934  0.4150149E+02  0.1963005E+02  0.1660518E+02  0.0000000E+00
Ar 2935  0.4150148E+02  0.1660518E+02  0.1963005E+02  0.0000000E+00
Ar 2936  0.3875562E+02  0.1927701E+02  0.1927701E+02  0.0000000E+00
Ar 2937  0.3864575E+02  0.1659052E+02  0.2202195E+02  0.0000000E+00
Ar 2938  0.4160742E+02  0.1935744E+02  0.2181659E+02  0.0000000E+00
Ar 2939  0.4145060E+02  0.1667887E+02  0.2448658E+02  0.0000000E+00
Ar 2940  0.3881269E+02  0.1924614E+02  0.2494599E+02  0.0000000E+00
Ar 2941  0.3901154E+02  0.1666160E+02  0.2763590E+02  0.0000000E+00
Ar 2942  0.4197006E+02  0.1930354E+02  0.2729675E+02  0.0000000E+00
Ar 2943  0.4198444E+02  0.1646746E+02  0.3050910E+02  0.0000000E+00
Ar 2944  0.3864832E+02  0.1936938E+02  0.3049568E+02  0.0000000E+00
Ar 2945  0.3891076E+02  0.1664668E+02  0.3315695E+02  0.0000000E+00
Ar 2946  0.4140906E+02  0.1939184E+02  0.3314903E+02  0.0000000E+00
Ar 2947  0.4145870E+02  0.1668579E+02  0.3593179E+02  0.0000000E+00
Ar 2948  0.3863986E+02  0.1937763E+02  0.3592249E+02  0.0000000E+00
Ar 2949  0.3884400E+02  0.1674337E+02  0.3884400E+02  0.0000000E+00
Ar 2950  0.4124093E+02  0.1937397E+02  0.3851648E+02  0.0000000E+00
Ar 2951  0.4143058E+02  0.1628094E+02  0.4143058E+02  0.0000000E+00
Ar 2952  0.3851649E+02  0.1937397E+02  0.4124092E+02  0.0000000E+00
Ar 2953  0.3849046E+02  0.1668781E+02  0.4408217E+02  0.0000000E+00
Ar 2954  0.4151234E+02  0.1955809E+02  0.4417261E+02  0.0000000E+00
Ar 2955  0.4120479E+02  0.1663753E+02  0.4674538E+02  0.0000000E+00
Ar 2956  0.3887957E+02  0.1954335E+02  0.4708327E+02  0.0000000E+00
Ar 2957  0.3860984E+02  0.1683112E+02  0.5008658E+02  0.0000000E+00
Ar 2958  0.4173125E+02  0.1969626E+02  0.4957484E+02  0.0000000E+00
Ar 2959  0.4131433E+02  0.1650841E+02  0.5241651E+02  0.0000000E+00
Ar 2960  0.3896433E+02  0.1952848E+02  0.5249787E+02  0.0000000E+00
Ar 2961  0.3887526E+02  0.2201493E+02  0.6172936E+00  0.0000000E+00
Ar 2962  0.4153843E+02  0.2489270E+02  0.5525006E+02  0.0000000E+00
Ar 2963  0.4162602E+02  0.2204289E+02  0.3226774E+01  0.0000000E+00
Ar 2964  0.3884022E+02  0.2483947E+02  0.2946843E+01  0.0000000E+00
Ar 2965  0.3867246E+02  0.2216057E+02  0.5747673E+01  0.0000000E+00
Ar 2966  0.4155834E+02  0.2475447E+02  0.5848170E+01  0.0000000E+00
Ar 2967  0.4159458E+02  0.2223155E+02  0.8386216E+01  0.0000000E+00
Ar 2968  0.3857369E+02  0.2480861E+02  0.8578414E+01  0.0000000E+00
Ar 2969  0.3885527E+02  0.2171762E+02  0.1120861E+02  0.0000000E+00
Ar 2970  0.4161231E+02  0.2471527E+02  0.1115227E+02  0.0000000E+00
Ar 2971  0.4128289E+02  0.2208386E+02  0.1387545E+02  0.0000000E+00
Ar 2972  0.3866984E+02  0.2478907E+02  0.1414571E+02  0.0000000E+00
Ar 2973  0.3864575E+02  0.2202194E+02  0.1659053E+02  0.0000000E+00
Ar 2974  0.4145060E+02  0.2448658E+02  0.1667888E+02  0.0000000E+00
Ar 2975  0.4160742E+02  0.2181659E+02  0.1935744E+02  0.0000000E+00
Ar 2976  0.3881269E+02  0.2494599E+02  0.1924613E+02  0.0000000E+00
Ar 2977  0.3890408E+02  0.2193234E+02  0.2193233E+02  0.0000000E+00
Ar 2978  0.4156073E+02  0.2476288E+02  0.2203810E+02  0.0000000E+00
Ar 2979  0.4156073E+02  0.2203810E+02  0.2476288E+02  0.0000000E+00
Ar 2980  0.3839024E+02  0.2485096E+02  0.2485096E+02  0.0000000E+00
Ar 2981  0.3855336E+02  0.2208038E+02  0.2764261E+02  0.0000000E+00
Ar 2982  0.4154510E+02  0.2494329E+02  0.2770321E+02  0.0000000E+00
Ar 2983  0.4162424E+02  0.2195801E+02  0.3034166E+02  0.0000000E+00
Ar 2984  0.3875570E+02  0.2475924E+02  0.3041423E+02  0.0000000E+00
Ar 2985  0.3879221E+02  0.2202831E+02  0.3319883E+02  0.0000000E+00
Ar 2986  0.4171569E+02  0.2477925E+02  0.3308522E+02  0.0000000E+00
Ar 2987  0.4146313E+02  0.2223943E+02  0.3599404E+02  0.0000000E+00
Ar 2988  0.3891447E+02  0.2490582E+02  0.3589755E+02  0.0000000E+00
Ar 2989  0.3890474E+02  0.2224704E+02  0.3890473E+02  0.0000000E+00
Ar 2990  0.4183954E+02  0.2490508E+02  0.3885512E+02  0.0000000E+00
Ar 2991  0.4141208E+02  0.2220508E+02  0.4141207E+02  0.0000000E+00
Ar 2992  0.3885512E+02  0.2490508E+02  0.4183955E+02  0.0000000E+00
Ar 2993  0.3865418E+02  0.2208006E+02  0.4452024E+02  0.0000000E+00
Ar 2994  0.4161422E+02  0.2460820E+02  0.4429408E+02  0.0000000E+00
Ar 2995  0.4151679E+02  0.2225388E+02  0.4704936E+02  0.0000000E+00
Ar 2996  0.3908802E+02  0.2481277E+02  0.4693537E+02  0.0000000E+00
Ar 2997  0.3873719E+02  0.2209268E+02  0.4955775E+02  0.0000000E+00
Ar 2998  0.4171803E+02  0.2514863E+02  0.4961577E+02  0.0000000E+00
Ar 2999  0.4148341E+02  0.2234539E+02  0.5231772E+02  0.0000000E+00
Ar 3000  0.3873868E+02  0.2499680E+02  0.5237496E+02  0.0000000E+00
Ar 3001  0.3886573E+02  0.2768837E+02  0.5506044E+02  0.0000000E+00
Ar 3002  0.4147893E+02  0.3007641E+02  0.5504332E+02  0.0000000E+00
Ar 3003  0.4126360E+02  0.2813743E+02  0.2848409E+01  0.0000000E+00
Ar 3004  0.3871753E+02  0.3058560E+02  0.2602431E+01  0.0000000E+00
Ar 3005  0.3863210E+02  0.2758159E+02  0.5602658E+01  0.0000000E+00
Ar 3006  0.4107007E+02  0.3077764E+02  0.5713753E+01  0.0000000E+00
Ar 3007  0.4123174E+02  0.2766688E+02  0.8386918E+01  0.0000000E+00
Ar 3008  0.3881113E+02  0.3031278E+02  0.8637811E+01  0.0000000E+00
Ar 3009  0.3876112E+02  0.2759168E+02  0.1127109E+02  0.0000000E+00
Ar 3010  0.4156087E+02  0.3061085E+02  0.1096130E+02  0.0000000E+00
Ar 3011  0.4160088E+02  0.2800489E+02  0.1397626E+02  0.0000000E+00
Ar 3012  0.3857278E+02  0.3020510E+02  0.1390581E+02  0.0000000E+00
Ar 3013  0.3901153E+02  0.2763590E+02  0.1666160E+02  0.0000000E+00
Ar 3014  0.4198444E+02  0.3050910E+02  0.1646746E+02  0.0000000E+00
Ar 3015  0.4197006E+02  0.2729675E+02  0.1930354E+02  0.0000000E+00
Ar 3016  0.3864833E+02  0.3049567E+02  0.1936938E+02  0.0000000E+00
Ar 3017  0.3855336E+02  0.2764261E+02  0.2208038E+02  0.0000000E+00
Ar 3018  0.4162424E+02  0.3034166E+02  0.2195801E+02  0.0000000E+00
Ar 3019  0.4154510E+02  0.2770321E+02  0.2494328E+02  0.0000000E+00
Ar 3020  0.3875571E+02  0.3041424E+02  0.2475923E+02  0.0000000E+00
Ar 3021  0.3841200E+02  0.2749739E+02  0.2749738E+02  0.0000000E+00
Ar 3022  0.4171681E+02  0.3055362E+02  0.2773153E+02  0.0000000E+00
Ar 3023  0.4171680E+02  0.2773153E+02  0.3055362E+02  0.0000000E+00
Ar 3024  0.3878198E+02  0.3011642E+02  0.3011642E+02  0.0000000E+00
Ar 3025  0.3862217E+02  0.2774621E+02  0.3341142E+02  0.0000000E+00
Ar 3026  0.4170649E+02  0.3046255E+02  0.3322738E+02  0.0000000E+00
Ar 3027  0.4191754E+02  0.2742801E+02  0.3620768E+02  0.0000000E+00
Ar 3028  0.3885112E+02  0.3042330E+02  0.3614642E+02  0.0000000E+00
Ar 3029  0.3896817E+02  0.2739985E+02  0.3896818E+02  0.0000000E+00
Ar 3030  0.4138067E+02  0.3013752E+02  0.3874873E+02  0.0000000E+00
Ar 3031  0.4170417E+02  0.2725818E+02  0.4170417E+02  0.0000000E+00
Ar 3032  0.3874873E+02  0.3013753E+02  0.4138066E+02  0.0000000E+00
Ar 3033  0.3872933E+02  0.2769054E+02  0.4477205E+02  0.0000000E+00
Ar 3034  0.4128336E+02  0.3060406E+02  0.4417541E+02  0.0000000E+00
Ar 3035  0.4170677E+02  0.2779983E+02  0.4709761E+02  0.0000000E+00
Ar 3036  0.3856474E+02  0.3052970E+02  0.4702449E+02  0.0000000E+00
Ar 3037  0.3886269E+02  0.2768464E+02  0.4960656E+02  0.0000000E+00
Ar 3038  0.4140403E+02  0.3042736E+02  0.5002922E+02  0.0000000E+00
Ar 3039  0.4150719E+02  0.2764444E+02  0.5240586E+02  0.0000000E+00
Ar 3040  0.3895854E+02  0.3088353E+02  0.5269314E+02  0.0000000E+00
Ar 3041  0.3885063E+02  0.3337790E+02  0.5527319E+02  0.0000000E+00
Ar 3042  0.4153083E+02  0.3607177E+02  0.5513927E+02  0.0000000E+00
Ar 3043  0.4137557E+02  0.3325634E+02  0.2740599E+01  0.0000000E+00
Ar 3044  0.3895302E+02  0.3611753E+02  0.3000876E+01  0.0000000E+00
Ar 3045  0.3850732E+02  0.3317380E+02  0.5839819E+01  0.0000000E+00
Ar 3046  0.4150365E+02  0.3597451E+02  0.5774041E+01  0.0000000E+00
Ar 3047  0.4130347E+02  0.3328818E+02  0.8475002E+01  0.0000000E+00
Ar 3048  0.3889178E+02  0.3619836E+02  0.8599343E+01  0.0000000E+00
Ar 3049  0.3889256E+02  0.3322666E+02  0.1103099E+02  0.0000000E+00
Ar 3050  0.4156741E+02  0.3590333E+02  0.1099904E+02  0.0000000E+00
Ar 3051  0.4159092E+02  0.3312925E+02  0.1385881E+02  0.0000000E+00
Ar 3052  0.3874126E+02  0.3594484E+02  0.1400523E+02  0.0000000E+00
Ar 3053  0.3891076E+02  0.3315695E+02  0.1664668E+02  0.0000000E+00
Ar 3054  0.4145871E+02  0.3593179E+02  0.1668578E+02  0.0000000E+00
Ar 3055  0.4140906E+02  0.3314903E+02  0.1939184E+02  0.0000000E+00
Ar 3056  0.3863987E+02  0.3592249E+02  0.1937763E+02  0.0000000E+00
Ar 3057  0.3879221E+02  0.3319883E+02  0.2202831E+02  0.0000000E+00
Ar 3058  0.4146313E+02  0.3599404E+02  0.2223943E+02  0.0000000E+00
Ar 3059  0.4171569E+02  0.3308522E+02  0.2477926E+02  0.0000000E+00
Ar 3060  0.3891447E+02  0.3589756E+02  0.2490582E+02  0.0000000E+00
Ar 3061  0.3862217E+02  0.3341141E+02  0.2774620E+02  0.0000000E+00
Ar 3062  0.4191753E+02  0.3620768E+02  0.2742801E+02  0.0000000E+00
Ar 3063  0.4170649E+02  0.3322739E+02  0.3046255E+02  0.0000000E+00
Ar 3064  0.3885113E+02  0.3614643E+02  0.3042329E+02  0.0000000E+00
Ar 3065  0.3893636E+02  0.3308020E+02  0.3308020E+02  0.0000000E+00
Ar 3066  0.4155471E+02  0.3650009E+02  0.3304242E+02  0.0000000E+00
Ar 3067  0.4155471E+02  0.3304242E+02  0.3650009E+02  0.0000000E+00
Ar 3068  0.3922129E+02  0.3581631E+02  0.3581630E+02  0.0000000E+00
Ar 3069  0.3852662E+02  0.3311261E+02  0.3852662E+02  0.0000000E+00
Ar 3070  0.4174580E+02  0.3610596E+02  0.3887576E+02  0.0000000E+00
Ar 3071  0.4119459E+02  0.3310485E+02  0.4119457E+02  0.0000000E+00
Ar 3072  0.3887578E+02  0.3610595E+02  0.4174579E+02  0.0000000E+00
Ar 3073  0.3867180E+02  0.3329649E+02  0.4433929E+02  0.0000000E+00
Ar 3074  0.4175816E+02  0.3631289E+02  0.4446622E+02  0.0000000E+00
Ar 3075  0.4135937E+02  0.3329547E+02  0.4709981E+02  0.0000000E+00
Ar 3076  0.3903724E+02  0.3615631E+02  0.4705772E+02  0.0000000E+00
Ar 3077  0.3880239E+02  0.3371604E+02  0.4986159E+02  0.0000000E+00
Ar 3078  0.4136712E+02  0.3614477E+02  0.5008964E+02  0.0000000E+00
Ar 3079  0.4148277E+02  0.3357311E+02  0.5258147E+02  0.0000000E+00
Ar 3080  0.3886098E+02  0.3625759E+02  0.5248643E+02  0.0000000E+00
Ar 3081  0.3882303E+02  0.3882304E+02  0.5545133E+00  0.0000000E+00
Ar 3082  0.4139244E+02  0.4139244E+02  0.2861347E+00  0.0000000E+00
Ar 3083  0.4191729E+02  0.3922814E+02  0.3025863E+01  0.0000000E+00
Ar 3084  0.3922814E+02  0.4191728E+02  0.3025877E+01  0.0000000E+00
Ar 3085  0.3917204E+02  0.3917205E+02  0.5516552E+01  0.0000000E+00
Ar 3086  0.4194847E+02  0.4194846E+02  0.5530785E+01  0.0000000E+00
Ar 3087  0.4186318E+02  0.3872481E+02  0.8290476E+01  0.0000000E+00
Ar 3088  0.3872482E+02  0.4186317E+02  0.8290483E+01  0.0000000E+00
Ar 3089  0.3869983E+02  0.3869984E+02  0.1137536E+02  0.0000000E+00
Ar 3090  0.4142467E+02  0.4142468E+02  0.1112063E+02  0.0000000E+00
Ar 3091  0.4144709E+02  0.3848819E+02  0.1372519E+02  0.0000000E+00
Ar 3092  0.3848819E+02  0.4144709E+02  0.1372520E+02  0.0000000E+00
Ar 3093  0.3884401E+02  0.3884399E+02  0.1674337E+02  0.0000000E+00
Ar 3094  0.4143058E+02  0.4143058E+02  0.1628093E+02  0.0000000E+00
Ar 3095  0.4124093E+02  0.3851648E+02  0.1937398E+02  0.0000000E+00
Ar 3096  0.3851649E+02  0.4124092E+02  0.1937397E+02  0.0000000E+00
Ar 3097  0.3890473E+02  0.3890472E+02  0.2224704E+02  0.0000000E+00
Ar 3098  0.4141208E+02  0.4141207E+02  0.2220508E+02  0.0000000E+00
Ar 3099  0.4183954E+02  0.3885512E+02  0.2490509E+02  0.0000000E+00
Ar 3100  0.3885512E+02  0.4183955E+02  0.2490509E+02  0.0000000E+00
Ar 3101  0.3896817E+02  0.3896817E+02  0.2739986E+02  0.0000000E+00
Ar 3102  0.4170417E+02  0.4170417E+02  0.2725818E+02  0.0000000E+00
Ar 3103  0.4138067E+02  0.3874873E+02  0.3013753E+02  0.0000000E+00
Ar 3104  0.3874873E+02  0.4138067E+02  0.3013753E+02  0.0000000E+00
Ar 3105  0.3852662E+02  0.3852662E+02  0.3311262E+02  0.0000000E+00
Ar 3106  0.4119458E+02  0.4119458E+02  0.3310485E+02  0.0000000E+00
Ar 3107  0.4174580E+02  0.3887577E+02  0.3610596E+02  0.0000000E+00
Ar 3108  0.3887578E+02  0.4174580E+02  0.3610595E+02  0.0000000E+00
Ar 3109  0.3865499E+02  0.3865498E+02  0.3865498E+02  0.0000000E+00
Ar 3110  0.4168858E+02  0.4168857E+02  0.3876805E+02  0.0000000E+00
Ar 3111  0.4168858E+02  0.3876805E+02  0.4168857E+02  0.0000000E+00
Ar 3112  0.3876805E+02  0.4168857E+02  0.4168858E+02  0.0000000E+00
Ar 3113  0.3902671E+02  0.3902671E+02  0.4459630E+02  0.0000000E+00
Ar 3114  0.4165547E+02  0.4165546E+02  0.4441679E+02  0.0000000E+00
Ar 3115  0.4174359E+02  0.3900257E+02  0.4741349E+02  0.0000000E+00
Ar 3116  0.3900257E+02  0.4174358E+02  0.4741350E+02  0.0000000E+00
Ar 3117  0.3873283E+02  0.3873283E+02  0.4978465E+02  0.0000000E+00
Ar 3118  0.4163692E+02  0.4163693E+02  0.5008857E+02  0.0000000E+00
Ar 3119  0.4158984E+02  0.3899604E+02  0.5263081E+02  0.0000000E+00
Ar 3120  0.3899604E+02  0.4158984E+02  0.5263081E+02  0.0000000E+00
Ar 3121  0.3890768E+02  0.4439101E+02  0.5509279E+02  0.0000000E+00
Ar 3122  0.4176699E+02  0.4690510E+02  0.3421384E+00  0.0000000E+00
Ar 3123  0.4170409E+02  0.4435484E+02  0.2966405E+01  0.0000000E+00
Ar 3124  0.3880411E+02  0.4681312E+02  0.3153953E+01  0.0000000E+00
Ar 3125  0.3885396E+02  0.4446203E+02  0.5914620E+01  0.0000000E+00
Ar 3126  0.4167024E+02  0.4713251E+02  0.5678073E+01  0.0000000E+00
Ar 3127  0.4172542E+02  0.4415942E+02  0.8520576E+01  0.0000000E+00
Ar 3128  0.3903614E+02  0.4749186E+02  0.8266456E+01  0.0000000E+00
Ar 3129  0.3879580E+02  0.4430913E+02  0.1139859E+02  0.0000000E+00
Ar 3130  0.4134089E+02  0.4715150E+02  0.1123798E+02  0.0000000E+00
Ar 3131  0.4118337E+02  0.4434123E+02  0.1391554E+02  0.0000000E+00
Ar 3132  0.3861116E+02  0.4718726E+02  0.1395573E+02  0.0000000E+00
Ar 3133  0.3849046E+02  0.4408217E+02  0.1668781E+02  0.0000000E+00
Ar 3134  0.4120480E+02  0.4674538E+02  0.1663753E+02  0.0000000E+00
Ar 3135  0.4151233E+02  0.4417261E+02  0.1955809E+02  0.0000000E+00
Ar 3136  0.3887957E+02  0.4708327E+02  0.1954334E+02  0.0000000E+00
Ar 3137  0.3865418E+02  0.4452023E+02  0.2208005E+02  0.0000000E+00
Ar 3138  0.4151678E+02  0.4704935E+02  0.2225387E+02  0.0000000E+00
Ar 3139  0.4161422E+02  0.4429408E+02  0.2460820E+02  0.0000000E+00
Ar 3140  0.3908802E+02  0.4693537E+02  0.2481277E+02  0.0000000E+00
Ar 3141  0.3872933E+02  0.4477206E+02  0.2769054E+02  0.0000000E+00
Ar 3142  0.4170677E+02  0.4709760E+02  0.2779983E+02  0.0000000E+00
Ar 3143  0.4128336E+02  0.4417542E+02  0.3060406E+02  0.0000000E+00
Ar 3144  0.3856474E+02  0.4702449E+02  0.3052970E+02  0.0000000E+00
Ar 3145  0.3867180E+02  0.4433929E+02  0.3329648E+02  0.0000000E+00
Ar 3146  0.4135937E+02  0.4709981E+02  0.3329547E+02  0.0000000E+00
Ar 3147  0.4175817E+02  0.4446622E+02  0.3631288E+02  0.0000000E+00
Ar 3148  0.3903724E+02  0.4705771E+02  0.3615630E+02  0.0000000E+00
Ar 3149  0.3902671E+02  0.4459630E+02  0.3902671E+02  0.0000000E+00
Ar 3150  0.4174359E+02  0.4741349E+02  0.3900256E+02  0.0000000E+00
Ar 3151  0.4165546E+02  0.4441679E+02  0.4165546E+02  0.0000000E+00
Ar 3152  0.3900257E+02  0.4741349E+02  0.4174357E+02  0.0000000E+00
Ar 3153  0.3918138E+02  0.4449572E+02  0.4449572E+02  0.0000000E+00
Ar 3154  0.4178268E+02  0.4694128E+02  0.4440277E+02  0.0000000E+00
Ar 3155  0.4178267E+02  0.4440276E+02  0.4694128E+02  0.0000000E+00
Ar 3156  0.3905736E+02  0.4715306E+02  0.4715306E+02  0.0000000E+00
Ar 3157  0.3907861E+02  0.4473682E+02  0.4993922E+02  0.0000000E+00
Ar 3158  0.4175756E+02  0.4706879E+02  0.5008584E+02  0.0000000E+00
Ar 3159  0.4169044E+02  0.4444829E+02  0.5253008E+02  0.0000000E+00
Ar 3160  0.3927285E+02  0.4711492E+02  0.5268022E+02  0.0000000E+00
Ar 3161  0.3885977E+02  0.4941654E+02  0.3875823E+00  0.0000000E+00
Ar 3162  0.4115864E+02  0.5201935E+02  0.5535256E+02  0.0000000E+00
Ar 3163  0.4134075E+02  0.4965404E+02  0.3164541E+01  0.0000000E+00
Ar 3164  0.3916017E+02  0.5246986E+02  0.3325970E+01  0.0000000E+00
Ar 3165  0.3872353E+02  0.4971594E+02  0.5429606E+01  0.0000000E+00
Ar 3166  0.4167299E+02  0.5235284E+02  0.6090008E+01  0.0000000E+00
Ar 3167  0.4161727E+02  0.4967291E+02  0.8718974E+01  0.0000000E+00
Ar 3168  0.3892250E+02  0.5229342E+02  0.8506036E+01  0.0000000E+00
Ar 3169  0.3855492E+02  0.4964632E+02  0.1115928E+02  0.0000000E+00
Ar 3170  0.4144393E+02  0.5246749E+02  0.1127383E+02  0.0000000E+00
Ar 3171  0.4132443E+02  0.4971854E+02  0.1380392E+02  0.0000000E+00
Ar 3172  0.3849560E+02  0.5257848E+02  0.1363506E+02  0.0000000E+00
Ar 3173  0.3860984E+02  0.5008658E+02  0.1683112E+02  0.0000000E+00
Ar 3174  0.4131433E+02  0.5241650E+02  0.1650841E+02  0.0000000E+00
Ar 3175  0.4173125E+02  0.4957484E+02  0.1969626E+02  0.0000000E+00
Ar 3176  0.3896433E+02  0.5249787E+02  0.1952848E+02  0.0000000E+00
Ar 3177  0.3873719E+02  0.4955775E+02  0.2209268E+02  0.0000000E+00
Ar 3178  0.4148340E+02  0.5231773E+02  0.2234538E+02  0.0000000E+00
Ar 3179  0.4171802E+02  0.4961577E+02  0.2514863E+02  0.0000000E+00
Ar 3180  0.3873868E+02  0.5237496E+02  0.2499679E+02  0.0000000E+00
Ar 3181  0.3886270E+02  0.4960656E+02  0.2768463E+02  0.0000000E+00
Ar 3182  0.4150719E+02  0.5240586E+02  0.2764444E+02  0.0000000E+00
Ar 3183  0.4140402E+02  0.5002921E+02  0.3042736E+02  0.0000000E+00
Ar 3184  0.3895853E+02  0.5269314E+02  0.3088353E+02  0.0000000E+00
Ar 3185  0.3880239E+02  0.4986160E+02  0.3371604E+02  0.0000000E+00
Ar 3186  0.4148277E+02  0.5258146E+02  0.3357311E+02  0.0000000E+00
Ar 3187  0.4136712E+02  0.5008963E+02  0.3614477E+02  0.0000000E+00
Ar 3188  0.3886099E+02  0.5248643E+02  0.3625758E+02  0.0000000E+00
Ar 3189  0.3873283E+02  0.4978465E+02  0.3873283E+02  0.0000000E+00
Ar 3190  0.4158984E+02  0.5263081E+02  0.3899604E+02  0.0000000E+00
Ar 3191  0.4163692E+02  0.5008857E+02  0.4163693E+02  0.0000000E+00
Ar 3192  0.3899604E+02  0.5263081E+02  0.4158984E+02  0.0000000E+00
Ar 3193  0.3907861E+02  0.4993921E+02  0.4473682E+02  0.0000000E+00
Ar 3194  0.4169044E+02  0.5253008E+02  0.4444828E+02  0.0000000E+00
Ar 3195  0.4175756E+02  0.5008584E+02  0.4706879E+02  0.0000000E+00
Ar 3196  0.3927285E+02  0.5268022E+02  0.4711492E+02  0.0000000E+00
Ar 3197  0.3901437E+02  0.4993932E+02  0.4993932E+02  0.0000000E+00
Ar 3198  0.4191519E+02  0.5253545E+02  0.4981122E+02  0.0000000E+00
Ar 3199  0.4191518E+02  0.4981123E+02  0.5253545E+02  0.0000000E+00
Ar 3200  0.3899165E+02  0.5239032E+02  0.5239031E+02  0.0000000E+00
Ar 3201  0.4421034E+02  0.5476136E+02  0.5476137E+02  0.0000000E+00
Ar 3202  0.4738598E+02  0.3273508E+01  0.2588464E+00  0.0000000E+00
Ar 3203  0.4738597E+02  0.2588455E+00  0.3273511E+01  0.0000000E+00
Ar 3204  0.4410453E+02  0.3088821E+01  0.3088821E+01  0.0000000E+00
Ar 3205  0.4420728E+02  0.2710824E+00  0.5621535E+01  0.0000000E+00
Ar 3206  0.4701353E+02  0.2801295E+01  0.5552655E+01  0.0000000E+00
Ar 3207  0.4704974E+02  0.5515829E+02  0.8614939E+01  0.0000000E+00
Ar 3208  0.4426630E+02  0.2756558E+01  0.8185121E+01  0.0000000E+00
Ar 3209  0.4426230E+02  0.5517647E+02  0.1138789E+02  0.0000000E+00
Ar 3210  0.4658269E+02  0.2852521E+01  0.1147518E+02  0.0000000E+00
Ar 3211  0.4698929E+02  0.5513738E+02  0.1436517E+02  0.0000000E+00
Ar 3212  0.4413197E+02  0.2620478E+01  0.1446001E+02  0.0000000E+00
Ar 3213  0.4435510E+02  0.4796377E+00  0.1709763E+02  0.0000000E+00
Ar 3214  0.4724747E+02  0.2916046E+01  0.1645122E+02  0.0000000E+00
Ar 3215  0.4714310E+02  0.2541262E+00  0.1968671E+02  0.0000000E+00
Ar 3216  0.4437052E+02  0.3010989E+01  0.1947157E+02  0.0000000E+00
Ar 3217  0.4418775E+02  0.5498455E+02  0.2236205E+02  0.0000000E+00
Ar 3218  0.4676430E+02  0.2850189E+01  0.2234200E+02  0.0000000E+00
Ar 3219  0.4707543E+02  0.5505350E+02  0.2525903E+02  0.0000000E+00
Ar 3220  0.4410589E+02  0.2663914E+01  0.2468104E+02  0.0000000E+00
Ar 3221  0.4442582E+02  0.3004056E+00  0.2786421E+02  0.0000000E+00
Ar 3222  0.4685236E+02  0.2991337E+01  0.2768887E+02  0.0000000E+00
Ar 3223  0.4688836E+02  0.5516382E+02  0.3069259E+02  0.0000000E+00
Ar 3224  0.4441609E+02  0.3039111E+01  0.3060731E+02  0.0000000E+00
Ar 3225  0.4445656E+02  0.5312353E+00  0.3391672E+02  0.0000000E+00
Ar 3226  0.4670346E+02  0.3195332E+01  0.3366013E+02  0.0000000E+00
Ar 3227  0.4671454E+02  0.3747521E+00  0.3614301E+02  0.0000000E+00
Ar 3228  0.4381428E+02  0.3405814E+01  0.3630624E+02  0.0000000E+00
Ar 3229  0.4439101E+02  0.5509279E+02  0.3890767E+02  0.0000000E+00
Ar 3230  0.4681313E+02  0.3153952E+01  0.3880412E+02  0.0000000E+00
Ar 3231  0.4690510E+02  0.3421364E+00  0.4176698E+02  0.0000000E+00
Ar 3232  0.4435484E+02  0.2966405E+01  0.4170409E+02  0.0000000E+00
Ar 3233  0.4431232E+02  0.5531510E+02  0.4431231E+02  0.0000000E+00
Ar 3234  0.4701495E+02  0.2990415E+01  0.4430576E+02  0.0000000E+00
Ar 3235  0.4696579E+02  0.4916042E+00  0.4696580E+02  0.0000000E+00
Ar 3236  0.4430575E+02  0.2990418E+01  0.4701497E+02  0.0000000E+00
Ar 3237  0.4428469E+02  0.4366947E+00  0.4999143E+02  0.0000000E+00
Ar 3238  0.4714459E+02  0.3150932E+01  0.4989474E+02  0.0000000E+00
Ar 3239  0.4697034E+02  0.3743729E+00  0.5226781E+02  0.0000000E+00
Ar 3240  0.4428766E+02  0.3052149E+01  0.5253013E+02  0.0000000E+00
Ar 3241  0.4420728E+02  0.5621531E+01  0.2710787E+00  0.0000000E+00
Ar 3242  0.4704973E+02  0.8614941E+01  0.5515830E+02  0.0000000E+00
Ar 3243  0.4701353E+02  0.5552650E+01  0.2801297E+01  0.0000000E+00
Ar 3244  0.4426630E+02  0.8185120E+01  0.2756557E+01  0.0000000E+00
Ar 3245  0.4431485E+02  0.5810129E+01  0.5810128E+01  0.0000000E+00
Ar 3246  0.4677642E+02  0.8374746E+01  0.5585795E+01  0.0000000E+00
Ar 3247  0.4677642E+02  0.5585792E+01  0.8374750E+01  0.0000000E+00
Ar 3248  0.4391718E+02  0.8347405E+01  0.8347403E+01  0.0000000E+00
Ar 3249  0.4415272E+02  0.5780996E+01  0.1129595E+02  0.0000000E+00
Ar 3250  0.4672773E+02  0.8337356E+01  0.1105148E+02  0.0000000E+00
Ar 3251  0.4698008E+02  0.5663567E+01  0.1376466E+02  0.0000000E+00
Ar 3252  0.4454946E+02  0.8428705E+01  0.1395662E+02  0.0000000E+00
Ar 3253  0.4440549E+02  0.5880691E+01  0.1678504E+02  0.0000000E+00
Ar 3254  0.4703559E+02  0.8395490E+01  0.1668895E+02  0.0000000E+00
Ar 3255  0.4718400E+02  0.5732410E+01  0.1922434E+02  0.0000000E+00
Ar 3256  0.4416755E+02  0.8514038E+01  0.1922753E+02  0.0000000E+00
Ar 3257  0.4448526E+02  0.5746366E+01  0.2227452E+02  0.0000000E+00
Ar 3258  0.4690418E+02  0.8321020E+01  0.2177335E+02  0.0000000E+00
Ar 3259  0.4725535E+02  0.5791387E+01  0.2490319E+02  0.0000000E+00
Ar 3260  0.4436789E+02  0.8514995E+01  0.2492143E+02  0.0000000E+00
Ar 3261  0.4397315E+02  0.5523562E+01  0.2748387E+02  0.0000000E+00
Ar 3262  0.4681838E+02  0.8312552E+01  0.2796547E+02  0.0000000E+00
Ar 3263  0.4706202E+02  0.5880965E+01  0.3038570E+02  0.0000000E+00
Ar 3264  0.4393227E+02  0.8005364E+01  0.3021328E+02  0.0000000E+00
Ar 3265  0.4408595E+02  0.5846456E+01  0.3321171E+02  0.0000000E+00
Ar 3266  0.4684863E+02  0.8347199E+01  0.3298390E+02  0.0000000E+00
Ar 3267  0.4690204E+02  0.5619956E+01  0.3627757E+02  0.0000000E+00
Ar 3268  0.4417262E+02  0.8409804E+01  0.3599056E+02  0.0000000E+00
Ar 3269  0.4446203E+02  0.5914617E+01  0.3885397E+02  0.0000000E+00
Ar 3270  0.4749187E+02  0.8266455E+01  0.3903615E+02  0.0000000E+00
Ar 3271  0.4713251E+02  0.5678078E+01  0.4167027E+02  0.0000000E+00
Ar 3272  0.4415942E+02  0.8520572E+01  0.4172543E+02  0.0000000E+00
Ar 3273  0.4441750E+02  0.5784077E+01  0.4441752E+02  0.0000000E+00
Ar 3274  0.4699870E+02  0.8714010E+01  0.4426581E+02  0.0000000E+00
Ar 3275  0.4723317E+02  0.5798169E+01  0.4723315E+02  0.0000000E+00
Ar 3276  0.4426583E+02  0.8714021E+01  0.4699869E+02  0.0000000E+00
Ar 3277  0.4452300E+02  0.5633246E+01  0.4976616E+02  0.0000000E+00
Ar 3278  0.4683107E+02  0.8627308E+01  0.4994450E+02  0.0000000E+00
Ar 3279  0.4714390E+02  0.5947381E+01  0.5242032E+02  0.0000000E+00
Ar 3280  0.4434830E+02  0.8866429E+01  0.5269489E+02  0.0000000E+00
Ar 3281  0.4426230E+02  0.1138789E+02  0.5517647E+02  0.0000000E+00
Ar 3282  0.4698929E+02  0.1436518E+02  0.5513738E+02  0.0000000E+00
Ar 3283  0.4658269E+02  0.1147518E+02  0.2852526E+01  0.0000000E+00
Ar 3284  0.4413197E+02  0.1446001E+02  0.2620489E+01  0.0000000E+00
Ar 3285  0.4415272E+02  0.1129595E+02  0.5780998E+01  0.0000000E+00
Ar 3286  0.4698008E+02  0.1376466E+02  0.5663564E+01  0.0000000E+00
Ar 3287  0.4672773E+02  0.1105148E+02  0.8337353E+01  0.0000000E+00
Ar 3288  0.4454947E+02  0.1395662E+02  0.8428705E+01  0.0000000E+00
Ar 3289  0.4453922E+02  0.1111497E+02  0.1111497E+02  0.0000000E+00
Ar 3290  0.4717650E+02  0.1388469E+02  0.1112075E+02  0.0000000E+00
Ar 3291  0.4717650E+02  0.1112075E+02  0.1388469E+02  0.0000000E+00
Ar 3292  0.4452136E+02  0.1399332E+02  0.1399332E+02  0.0000000E+00
Ar 3293  0.4448168E+02  0.1143920E+02  0.1667723E+02  0.0000000E+00
Ar 3294  0.4719015E+02  0.1405600E+02  0.1637964E+02  0.0000000E+00
Ar 3295  0.4704575E+02  0.1124440E+02  0.1938216E+02  0.0000000E+00
Ar 3296  0.4417977E+02  0.1409717E+02  0.1929302E+02  0.0000000E+00
Ar 3297  0.4437625E+02  0.1119125E+02  0.2216698E+02  0.0000000E+00
Ar 3298  0.4703247E+02  0.1385536E+02  0.2187979E+02  0.0000000E+00
Ar 3299  0.4716874E+02  0.1112625E+02  0.2512267E+02  0.0000000E+00
Ar 3300  0.4435813E+02  0.1382515E+02  0.2491658E+02  0.0000000E+00
Ar 3301  0.4396357E+02  0.1114892E+02  0.2781883E+02  0.0000000E+00
Ar 3302  0.4708881E+02  0.1372960E+02  0.2791265E+02  0.0000000E+00
Ar 3303  0.4711741E+02  0.1096877E+02  0.3047322E+02  0.0000000E+00
Ar 3304  0.4439531E+02  0.1378984E+02  0.3051992E+02  0.0000000E+00
Ar 3305  0.4419467E+02  0.1126908E+02  0.3324890E+02  0.0000000E+00
Ar 3306  0.4734573E+02  0.1405949E+02  0.3323177E+02  0.0000000E+00
Ar 3307  0.4721319E+02  0.1105109E+02  0.3575929E+02  0.0000000E+00
Ar 3308  0.4441227E+02  0.1414768E+02  0.3580604E+02  0.0000000E+00
Ar 3309  0.4430911E+02  0.1139857E+02  0.3879580E+02  0.0000000E+00
Ar 3310  0.4718719E+02  0.1395572E+02  0.3861108E+02  0.0000000E+00
Ar 3311  0.4715150E+02  0.1123789E+02  0.4134088E+02  0.0000000E+00
Ar 3312  0.4434122E+02  0.1391552E+02  0.4118338E+02  0.0000000E+00
Ar 3313  0.4412005E+02  0.1137305E+02  0.4412006E+02  0.0000000E+00
Ar 3314  0.4697601E+02  0.1397383E+02  0.4427493E+02  0.0000000E+00
Ar 3315  0.4715490E+02  0.1086867E+02  0.4715492E+02  0.0000000E+00
Ar 3316  0.4427494E+02  0.1397383E+02  0.4697602E+02  0.0000000E+00
Ar 3317  0.4410172E+02  0.1122570E+02  0.4961763E+02  0.0000000E+00
Ar 3318  0.4682286E+02  0.1420719E+02  0.4991758E+02  0.0000000E+00
Ar 3319  0.4706216E+02  0.1146932E+02  0.5236258E+02  0.0000000E+00
Ar 3320  0.4390209E+02  0.1376540E+02  0.5255759E+02  0.0000000E+00
Ar 3321  0.4435510E+02  0.1709763E+02  0.4796434E+00  0.0000000E+00
Ar 3322  0.4714308E+02  0.1968671E+02  0.2541466E+00  0.0000000E+00
Ar 3323  0.4724747E+02  0.1645122E+02  0.2916053E+01  0.0000000E+00
Ar 3324  0.4437052E+02  0.1947157E+02  0.3010995E+01  0.0000000E+00
Ar 3325  0.4440549E+02  0.1678504E+02  0.5880696E+01  0.0000000E+00
Ar 3326  0.4718400E+02  0.1922434E+02  0.5732414E+01  0.0000000E+00
Ar 3327  0.4703559E+02  0.1668895E+02  0.8395492E+01  0.0000000E+00
Ar 3328  0.4416755E+02  0.1922753E+02  0.8514039E+01  0.0000000E+00
Ar 3329  0.4448168E+02  0.1667723E+02  0.1143920E+02  0.0000000E+00
Ar 3330  0.4704575E+02  0.1938216E+02  0.1124440E+02  0.0000000E+00
Ar 3331  0.4719015E+02  0.1637964E+02  0.1405600E+02  0.0000000E+00
Ar 3332  0.4417978E+02  0.1929302E+02  0.1409717E+02  0.0000000E+00
Ar 3333  0.4406408E+02  0.1654067E+02  0.1654067E+02  0.0000000E+00
Ar 3334  0.4702447E+02  0.1916260E+02  0.1666749E+02  0.0000000E+00
Ar 3335  0.4702446E+02  0.1666749E+02  0.1916259E+02  0.0000000E+00
Ar 3336  0.4430526E+02  0.1928750E+02  0.1928750E+02  0.0000000E+00
Ar 3337  0.4431790E+02  0.1681508E+02  0.2196259E+02  0.0000000E+00
Ar 3338  0.4721807E+02  0.1939850E+02  0.2208410E+02  0.0000000E+00
Ar 3339  0.4701463E+02  0.1626139E+02  0.2481509E+02  0.0000000E+00
Ar 3340  0.4451541E+02  0.1939474E+02  0.2460251E+02  0.0000000E+00
Ar 3341  0.4439880E+02  0.1629706E+02  0.2763127E+02  0.0000000E+00
Ar 3342  0.4694755E+02  0.1932505E+02  0.2768652E+02  0.0000000E+00
Ar 3343  0.4709576E+02  0.1668912E+02  0.3045597E+02  0.0000000E+00
Ar 3344  0.4448342E+02  0.1930949E+02  0.3043630E+02  0.0000000E+00
Ar 3345  0.4437754E+02  0.1675008E+02  0.3329476E+02  0.0000000E+00
Ar 3346  0.4702749E+02  0.1965662E+02  0.3304601E+02  0.0000000E+00
Ar 3347  0.4731618E+02  0.1676247E+02  0.3626508E+02  0.0000000E+00
Ar 3348  0.4423277E+02  0.1935508E+02  0.3589949E+02  0.0000000E+00
Ar 3349  0.4408215E+02  0.1668781E+02  0.3849045E+02  0.0000000E+00
Ar 3350  0.4708327E+02  0.1954337E+02  0.3887955E+02  0.0000000E+00
Ar 3351  0.4674538E+02  0.1663752E+02  0.4120475E+02  0.0000000E+00
Ar 3352  0.4417262E+02  0.1955808E+02  0.4151231E+02  0.0000000E+00
Ar 3353  0.4400346E+02  0.1649039E+02  0.4400346E+02  0.0000000E+00
Ar 3354  0.4679876E+02  0.1936924E+02  0.4407785E+02  0.0000000E+00
Ar 3355  0.4668284E+02  0.1695793E+02  0.4668284E+02  0.0000000E+00
Ar 3356  0.4407782E+02  0.1936925E+02  0.4679884E+02  0.0000000E+00
Ar 3357  0.4390687E+02  0.1651893E+02  0.4983269E+02  0.0000000E+00
Ar 3358  0.4708900E+02  0.1953971E+02  0.4965339E+02  0.0000000E+00
Ar 3359  0.4648180E+02  0.1670742E+02  0.5262307E+02  0.0000000E+00
Ar 3360  0.4409438E+02  0.1958006E+02  0.5231951E+02  0.0000000E+00
Ar 3361  0.4418779E+02  0.2236206E+02  0.5498452E+02  0.0000000E+00
Ar 3362  0.4707494E+02  0.2525845E+02  0.5505348E+02  0.0000000E+00
Ar 3363  0.4676429E+02  0.2234200E+02  0.2850205E+01  0.0000000E+00
Ar 3364  0.4410589E+02  0.2468104E+02  0.2663909E+01  0.0000000E+00
Ar 3365  0.4448525E+02  0.2227452E+02  0.5746367E+01  0.0000000E+00
Ar 3366  0.4725535E+02  0.2490320E+02  0.5791380E+01  0.0000000E+00
Ar 3367  0.4690418E+02  0.2177334E+02  0.8321020E+01  0.0000000E+00
Ar 3368  0.4436789E+02  0.2492143E+02  0.8514991E+01  0.0000000E+00
Ar 3369  0.4437625E+02  0.2216698E+02  0.1119125E+02  0.0000000E+00
Ar 3370  0.4716874E+02  0.2512267E+02  0.1112624E+02  0.0000000E+00
Ar 3371  0.4703248E+02  0.2187979E+02  0.1385536E+02  0.0000000E+00
Ar 3372  0.4435813E+02  0.2491658E+02  0.1382516E+02  0.0000000E+00
Ar 3373  0.4431790E+02  0.2196259E+02  0.1681507E+02  0.0000000E+00
Ar 3374  0.4701464E+02  0.2481509E+02  0.1626140E+02  0.0000000E+00
Ar 3375  0.4721807E+02  0.2208410E+02  0.1939850E+02  0.0000000E+00
Ar 3376  0.4451541E+02  0.2460251E+02  0.1939475E+02  0.0000000E+00
Ar 3377  0.4451885E+02  0.2207853E+02  0.2207853E+02  0.0000000E+00
Ar 3378  0.4711645E+02  0.2503776E+02  0.2206444E+02  0.0000000E+00
Ar 3379  0.4711645E+02  0.2206443E+02  0.2503776E+02  0.0000000E+00
Ar 3380  0.4412627E+02  0.2490092E+02  0.2490092E+02  0.0000000E+00
Ar 3381  0.4444904E+02  0.2197012E+02  0.2751322E+02  0.0000000E+00
Ar 3382  0.4742087E+02  0.2519328E+02  0.2785796E+02  0.0000000E+00
Ar 3383  0.4702002E+02  0.2234581E+02  0.3025693E+02  0.0000000E+00
Ar 3384  0.4441781E+02  0.2500108E+02  0.3032413E+02  0.0000000E+00
Ar 3385  0.4428627E+02  0.2227484E+02  0.3337113E+02  0.0000000E+00
Ar 3386  0.4730984E+02  0.2459693E+02  0.3312231E+02  0.0000000E+00
Ar 3387  0.4712141E+02  0.2196155E+02  0.3587060E+02  0.0000000E+00
Ar 3388  0.4436757E+02  0.2504603E+02  0.3598579E+02  0.0000000E+00
Ar 3389  0.4452023E+02  0.2208006E+02  0.3865417E+02  0.0000000E+00
Ar 3390  0.4693536E+02  0.2481278E+02  0.3908800E+02  0.0000000E+00
Ar 3391  0.4704929E+02  0.2225391E+02  0.4151677E+02  0.0000000E+00
Ar 3392  0.4429407E+02  0.2460822E+02  0.4161420E+02  0.0000000E+00
Ar 3393  0.4413754E+02  0.2224049E+02  0.4413753E+02  0.0000000E+00
Ar 3394  0.4723294E+02  0.2516010E+02  0.4443861E+02  0.0000000E+00
Ar 3395  0.4689897E+02  0.2257583E+02  0.4689894E+02  0.0000000E+00
Ar 3396  0.4443865E+02  0.2516012E+02  0.4723295E+02  0.0000000E+00
Ar 3397  0.4430603E+02  0.2228419E+02  0.4952350E+02  0.0000000E+00
Ar 3398  0.4739419E+02  0.2499612E+02  0.5016540E+02  0.0000000E+00
Ar 3399  0.4730391E+02  0.2223440E+02  0.5278892E+02  0.0000000E+00
Ar 3400  0.4421518E+02  0.2526597E+02  0.5277970E+02  0.0000000E+00
Ar 3401  0.4442589E+02  0.2786421E+02  0.3004056E+00  0.0000000E+00
Ar 3402  0.4688830E+02  0.3069259E+02  0.5516383E+02  0.0000000E+00
Ar 3403  0.4685228E+02  0.2768881E+02  0.2991377E+01  0.0000000E+00
Ar 3404  0.4441610E+02  0.3060730E+02  0.3039107E+01  0.0000000E+00
Ar 3405  0.4397315E+02  0.2748386E+02  0.5523562E+01  0.0000000E+00
Ar 3406  0.4706196E+02  0.3038569E+02  0.5881021E+01  0.0000000E+00
Ar 3407  0.4681838E+02  0.2796547E+02  0.8312550E+01  0.0000000E+00
Ar 3408  0.4393227E+02  0.3021329E+02  0.8005357E+01  0.0000000E+00
Ar 3409  0.4396357E+02  0.2781883E+02  0.1114892E+02  0.0000000E+00
Ar 3410  0.4711741E+02  0.3047322E+02  0.1096876E+02  0.0000000E+00
Ar 3411  0.4708881E+02  0.2791265E+02  0.1372960E+02  0.0000000E+00
Ar 3412  0.4439531E+02  0.3051992E+02  0.1378984E+02  0.0000000E+00
Ar 3413  0.4439880E+02  0.2763128E+02  0.1629706E+02  0.0000000E+00
Ar 3414  0.4709577E+02  0.3045596E+02  0.1668911E+02  0.0000000E+00
Ar 3415  0.4694755E+02  0.2768652E+02  0.1932505E+02  0.0000000E+00
Ar 3416  0.4448342E+02  0.3043630E+02  0.1930949E+02  0.0000000E+00
Ar 3417  0.4444904E+02  0.2751322E+02  0.2197011E+02  0.0000000E+00
Ar 3418  0.4702003E+02  0.3025693E+02  0.2234581E+02  0.0000000E+00
Ar 3419  0.4742087E+02  0.2785796E+02  0.2519328E+02  0.0000000E+00
Ar 3420  0.4441781E+02  0.3032414E+02  0.2500108E+02  0.0000000E+00
Ar 3421  0.4488960E+02  0.2775848E+02  0.2775847E+02  0.0000000E+00
Ar 3422  0.4710133E+02  0.3056428E+02  0.2784656E+02  0.0000000E+00
Ar 3423  0.4710133E+02  0.2784656E+02  0.3056428E+02  0.0000000E+00
Ar 3424  0.4468511E+02  0.3080265E+02  0.3080265E+02  0.0000000E+00
Ar 3425  0.4453201E+02  0.2747237E+02  0.3328170E+02  0.0000000E+00
Ar 3426  0.4716032E+02  0.3056161E+02  0.3347134E+02  0.0000000E+00
Ar 3427  0.4748941E+02  0.2775273E+02  0.3590695E+02  0.0000000E+00
Ar 3428  0.4463875E+02  0.3052282E+02  0.3603521E+02  0.0000000E+00
Ar 3429  0.4477206E+02  0.2769054E+02  0.3872933E+02  0.0000000E+00
Ar 3430  0.4702449E+02  0.3052970E+02  0.3856473E+02  0.0000000E+00
Ar 3431  0.4709758E+02  0.2779984E+02  0.4170676E+02  0.0000000E+00
Ar 3432  0.4417542E+02  0.3060406E+02  0.4128335E+02  0.0000000E+00
Ar 3433  0.4458088E+02  0.2786914E+02  0.4458091E+02  0.0000000E+00
Ar 3434  0.4729394E+02  0.3074340E+02  0.4406710E+02  0.0000000E+00
Ar 3435  0.4724249E+02  0.2794416E+02  0.4724249E+02  0.0000000E+00
Ar 3436  0.4406710E+02  0.3074340E+02  0.4729395E+02  0.0000000E+00
Ar 3437  0.4429683E+02  0.2780047E+02  0.4978568E+02  0.0000000E+00
Ar 3438  0.4701275E+02  0.3076571E+02  0.4977790E+02  0.0000000E+00
Ar 3439  0.4685707E+02  0.2813889E+02  0.5257934E+02  0.0000000E+00
Ar 3440  0.4401881E+02  0.3073491E+02  0.5255476E+02  0.0000000E+00
Ar 3441  0.4445657E+02  0.3391672E+02  0.5312319E+00  0.0000000E+00
Ar 3442  0.4671454E+02  0.3614302E+02  0.3747594E+00  0.0000000E+00
Ar 3443  0.4670345E+02  0.3366013E+02  0.3195338E+01  0.0000000E+00
Ar 3444  0.4381429E+02  0.3630624E+02  0.3405810E+01  0.0000000E+00
Ar 3445  0.4408595E+02  0.3321171E+02  0.5846454E+01  0.0000000E+00
Ar 3446  0.4690204E+02  0.3627757E+02  0.5619957E+01  0.0000000E+00
Ar 3447  0.4684862E+02  0.3298391E+02  0.8347201E+01  0.0000000E+00
Ar 3448  0.4417261E+02  0.3599056E+02  0.8409801E+01  0.0000000E+00
Ar 3449  0.4419468E+02  0.3324891E+02  0.1126908E+02  0.0000000E+00
Ar 3450  0.4721321E+02  0.3575930E+02  0.1105111E+02  0.0000000E+00
Ar 3451  0.4734576E+02  0.3323179E+02  0.1405949E+02  0.0000000E+00
Ar 3452  0.4441227E+02  0.3580605E+02  0.1414769E+02  0.0000000E+00
Ar 3453  0.4437753E+02  0.3329476E+02  0.1675007E+02  0.0000000E+00
Ar 3454  0.4731623E+02  0.3626513E+02  0.1676246E+02  0.0000000E+00
Ar 3455  0.4702748E+02  0.3304601E+02  0.1965662E+02  0.0000000E+00
Ar 3456  0.4423277E+02  0.3589949E+02  0.1935508E+02  0.0000000E+00
Ar 3457  0.4428627E+02  0.3337113E+02  0.2227484E+02  0.0000000E+00
Ar 3458  0.4712141E+02  0.3587060E+02  0.2196155E+02  0.0000000E+00
Ar 3459  0.4730984E+02  0.3312231E+02  0.2459692E+02  0.0000000E+00
Ar 3460  0.4436758E+02  0.3598579E+02  0.2504603E+02  0.0000000E+00
Ar 3461  0.4453201E+02  0.3328170E+02  0.2747237E+02  0.0000000E+00
Ar 3462  0.4748941E+02  0.3590695E+02  0.2775273E+02  0.0000000E+00
Ar 3463  0.4716032E+02  0.3347134E+02  0.3056161E+02  0.0000000E+00
Ar 3464  0.4463875E+02  0.3603520E+02  0.3052283E+02  0.0000000E+00
Ar 3465  0.4423384E+02  0.3338165E+02  0.3338165E+02  0.0000000E+00
Ar 3466  0.4697160E+02  0.3614633E+02  0.3329498E+02  0.0000000E+00
Ar 3467  0.4697159E+02  0.3329498E+02  0.3614633E+02  0.0000000E+00
Ar 3468  0.4422487E+02  0.3609897E+02  0.3609896E+02  0.0000000E+00
Ar 3469  0.4433929E+02  0.3329648E+02  0.3867179E+02  0.0000000E+00
Ar 3470  0.4705771E+02  0.3615630E+02  0.3903723E+02  0.0000000E+00
Ar 3471  0.4709980E+02  0.3329546E+02  0.4135936E+02  0.0000000E+00
Ar 3472  0.4446622E+02  0.3631289E+02  0.4175816E+02  0.0000000E+00
Ar 3473  0.4456037E+02  0.3336189E+02  0.4456036E+02  0.0000000E+00
Ar 3474  0.4731335E+02  0.3630309E+02  0.4428532E+02  0.0000000E+00
Ar 3475  0.4705731E+02  0.3377403E+02  0.4705728E+02  0.0000000E+00
Ar 3476  0.4428532E+02  0.3630309E+02  0.4731334E+02  0.0000000E+00
Ar 3477  0.4404402E+02  0.3352462E+02  0.4988406E+02  0.0000000E+00
Ar 3478  0.4713993E+02  0.3647332E+02  0.4959636E+02  0.0000000E+00
Ar 3479  0.4646261E+02  0.3346946E+02  0.5237860E+02  0.0000000E+00
Ar 3480  0.4437823E+02  0.3644726E+02  0.5252801E+02  0.0000000E+00
Ar 3481  0.4439101E+02  0.3890767E+02  0.5509278E+02  0.0000000E+00
Ar 3482  0.4690510E+02  0.4176698E+02  0.3421336E+00  0.0000000E+00
Ar 3483  0.4681313E+02  0.3880412E+02  0.3153958E+01  0.0000000E+00
Ar 3484  0.4435484E+02  0.4170409E+02  0.2966400E+01  0.0000000E+00
Ar 3485  0.4446203E+02  0.3885396E+02  0.5914614E+01  0.0000000E+00
Ar 3486  0.4713251E+02  0.4167026E+02  0.5678077E+01  0.0000000E+00
Ar 3487  0.4749187E+02  0.3903616E+02  0.8266459E+01  0.0000000E+00
Ar 3488  0.4415942E+02  0.4172542E+02  0.8520569E+01  0.0000000E+00
Ar 3489  0.4430912E+02  0.3879580E+02  0.1139858E+02  0.0000000E+00
Ar 3490  0.4715154E+02  0.4134089E+02  0.1123794E+02  0.0000000E+00
Ar 3491  0.4718727E+02  0.3861115E+02  0.1395572E+02  0.0000000E+00
Ar 3492  0.4434122E+02  0.4118337E+02  0.1391552E+02  0.0000000E+00
Ar 3493  0.4408216E+02  0.3849046E+02  0.1668781E+02  0.0000000E+00
Ar 3494  0.4674538E+02  0.4120478E+02  0.1663752E+02  0.0000000E+00
Ar 3495  0.4708327E+02  0.3887955E+02  0.1954335E+02  0.0000000E+00
Ar 3496  0.4417261E+02  0.4151232E+02  0.1955808E+02  0.0000000E+00
Ar 3497  0.4452023E+02  0.3865418E+02  0.2208006E+02  0.0000000E+00
Ar 3498  0.4704935E+02  0.4151678E+02  0.2225388E+02  0.0000000E+00
Ar 3499  0.4693537E+02  0.3908802E+02  0.2481277E+02  0.0000000E+00
Ar 3500  0.4429409E+02  0.4161421E+02  0.2460821E+02  0.0000000E+00
Ar 3501  0.4477206E+02  0.3872932E+02  0.2769054E+02  0.0000000E+00
Ar 3502  0.4709759E+02  0.4170676E+02  0.2779983E+02  0.0000000E+00
Ar 3503  0.4702450E+02  0.3856473E+02  0.3052970E+02  0.0000000E+00
Ar 3504  0.4417542E+02  0.4128336E+02  0.3060406E+02  0.0000000E+00
Ar 3505  0.4433929E+02  0.3867179E+02  0.3329648E+02  0.0000000E+00
Ar 3506  0.4709980E+02  0.4135937E+02  0.3329547E+02  0.0000000E+00
Ar 3507  0.4705771E+02  0.3903723E+02  0.3615630E+02  0.0000000E+00
Ar 3508  0.4446622E+02  0.4175816E+02  0.3631289E+02  0.0000000E+00
Ar 3509  0.4459631E+02  0.3902672E+02  0.3902672E+02  0.0000000E+00
Ar 3510  0.4741350E+02  0.4174359E+02  0.3900257E+02  0.0000000E+00
Ar 3511  0.4741350E+02  0.3900257E+02  0.4174359E+02  0.0000000E+00
Ar 3512  0.4441680E+02  0.4165546E+02  0.4165546E+02  0.0000000E+00
Ar 3513  0.4449572E+02  0.3918139E+02  0.4449571E+02  0.0000000E+00
Ar 3514  0.4694130E+02  0.4178268E+02  0.4440277E+02  0.0000000E+00
Ar 3515  0.4715306E+02  0.3905735E+02  0.4715306E+02  0.0000000E+00
Ar 3516  0.4440277E+02  0.4178268E+02  0.4694128E+02  0.0000000E+00
Ar 3517  0.4473682E+02  0.3907861E+02  0.4993921E+02  0.0000000E+00
Ar 3518  0.4706880E+02  0.4175756E+02  0.5008584E+02  0.0000000E+00
Ar 3519  0.4711491E+02  0.3927284E+02  0.5268022E+02  0.0000000E+00
Ar 3520  0.4444829E+02  0.4169045E+02  0.5253008E+02  0.0000000E+00
Ar 3521  0.4431232E+02  0.4431232E+02  0.5531509E+02  0.0000000E+00
Ar 3522  0.4696579E+02  0.4696580E+02  0.4916003E+00  0.0000000E+00
Ar 3523  0.4701496E+02  0.4430576E+02  0.2990417E+01  0.0000000E+00
Ar 3524  0.4430575E+02  0.4701497E+02  0.2990419E+01  0.0000000E+00
Ar 3525  0.4441750E+02  0.4441752E+02  0.5784077E+01  0.0000000E+00
Ar 3526  0.4723318E+02  0.4723316E+02  0.5798170E+01  0.0000000E+00
Ar 3527  0.4699871E+02  0.4426580E+02  0.8714018E+01  0.0000000E+00
Ar 3528  0.4426583E+02  0.4699869E+02  0.8714026E+01  0.0000000E+00
Ar 3529  0.4412005E+02  0.4412006E+02  0.1137305E+02  0.0000000E+00
Ar 3530  0.4715490E+02  0.4715490E+02  0.1086867E+02  0.0000000E+00
Ar 3531  0.4697602E+02  0.4427494E+02  0.1397383E+02  0.0000000E+00
Ar 3532  0.4427494E+02  0.4697602E+02  0.1397383E+02  0.0000000E+00
Ar 3533  0.4400345E+02  0.4400346E+02  0.1649038E+02  0.0000000E+00
Ar 3534  0.4668282E+02  0.4668283E+02  0.1695795E+02  0.0000000E+00
Ar 3535  0.4679883E+02  0.4407782E+02  0.1936926E+02  0.0000000E+00
Ar 3536  0.4407782E+02  0.4679884E+02  0.1936926E+02  0.0000000E+00
Ar 3537  0.4413754E+02  0.4413754E+02  0.2224049E+02  0.0000000E+00
Ar 3538  0.4689894E+02  0.4689894E+02  0.2257585E+02  0.0000000E+00
Ar 3539  0.4723293E+02  0.4443862E+02  0.2516013E+02  0.0000000E+00
Ar 3540  0.4443863E+02  0.4723294E+02  0.2516013E+02  0.0000000E+00
Ar 3541  0.4458091E+02  0.4458092E+02  0.2786914E+02  0.0000000E+00
Ar 3542  0.4724273E+02  0.4724272E+02  0.2794412E+02  0.0000000E+00
Ar 3543  0.4729395E+02  0.4406710E+02  0.3074339E+02  0.0000000E+00
Ar 3544  0.4406710E+02  0.4729395E+02  0.3074341E+02  0.0000000E+00
Ar 3545  0.4456038E+02  0.4456036E+02  0.3336188E+02  0.0000000E+00
Ar 3546  0.4705730E+02  0.4705729E+02  0.3377402E+02  0.0000000E+00
Ar 3547  0.4731335E+02  0.4428533E+02  0.3630309E+02  0.0000000E+00
Ar 3548  0.4428532E+02  0.4731334E+02  0.3630309E+02  0.0000000E+00
Ar 3549  0.4449572E+02  0.4449571E+02  0.3918140E+02  0.0000000E+00
Ar 3550  0.4715306E+02  0.4715306E+02  0.3905735E+02  0.0000000E+00
Ar 3551  0.4694130E+02  0.4440277E+02  0.4178268E+02  0.0000000E+00
Ar 3552  0.4440277E+02  0.4694129E+02  0.4178268E+02  0.0000000E+00
Ar 3553  0.4466927E+02  0.4466926E+02  0.4466926E+02  0.0000000E+00
Ar 3554  0.4709089E+02  0.4709089E+02  0.4407008E+02  0.0000000E+00
Ar 3555  0.4709090E+02  0.4407007E+02  0.4709089E+02  0.0000000E+00
Ar 3556  0.4407007E+02  0.4709088E+02  0.4709090E+02  0.0000000E+00
Ar 3557  0.4399703E+02  0.4399703E+02  0.4981197E+02  0.0000000E+00
Ar 3558  0.4675952E+02  0.4675952E+02  0.4991745E+02  0.0000000E+00
Ar 3559  0.4721706E+02  0.4461994E+02  0.5277429E+02  0.0000000E+00
Ar 3560  0.4461993E+02  0.4721705E+02  0.5277429E+02  0.0000000E+00
Ar 3561  0.4428468E+02  0.4999143E+02  0.4366970E+00  0.0000000E+00
Ar 3562  0.4697034E+02  0.5226781E+02  0.3743754E+00  0.0000000E+00
Ar 3563  0.4714458E+02  0.4989474E+02  0.3150928E+01  0.0000000E+00
Ar 3564  0.4428768E+02  0.5253013E+02  0.3052152E+01  0.0000000E+00
Ar 3565  0.4452301E+02  0.4976616E+02  0.5633247E+01  0.0000000E+00
Ar 3566  0.4714390E+02  0.5242033E+02  0.5947380E+01  0.0000000E+00
Ar 3567  0.4683109E+02  0.4994451E+02  0.8627326E+01  0.0000000E+00
Ar 3568  0.4434830E+02  0.5269488E+02  0.8866438E+01  0.0000000E+00
Ar 3569  0.4410172E+02  0.4961763E+02  0.1122570E+02  0.0000000E+00
Ar 3570  0.4706217E+02  0.5236258E+02  0.1146933E+02  0.0000000E+00
Ar 3571  0.4682285E+02  0.4991757E+02  0.1420717E+02  0.0000000E+00
Ar 3572  0.4390208E+02  0.5255758E+02  0.1376540E+02  0.0000000E+00
Ar 3573  0.4390687E+02  0.4983268E+02  0.1651893E+02  0.0000000E+00
Ar 3574  0.4648180E+02  0.5262307E+02  0.1670742E+02  0.0000000E+00
Ar 3575  0.4708896E+02  0.4965342E+02  0.1953975E+02  0.0000000E+00
Ar 3576  0.4409439E+02  0.5231951E+02  0.1958006E+02  0.0000000E+00
Ar 3577  0.4430602E+02  0.4952349E+02  0.2228420E+02  0.0000000E+00
Ar 3578  0.4730390E+02  0.5278895E+02  0.2223441E+02  0.0000000E+00
Ar 3579  0.4739419E+02  0.5016544E+02  0.2499617E+02  0.0000000E+00
Ar 3580  0.4421516E+02  0.5277970E+02  0.2526595E+02  0.0000000E+00
Ar 3581  0.4429683E+02  0.4978568E+02  0.2780047E+02  0.0000000E+00
Ar 3582  0.4685730E+02  0.5257953E+02  0.2813891E+02  0.0000000E+00
Ar 3583  0.4701279E+02  0.4977796E+02  0.3076571E+02  0.0000000E+00
Ar 3584  0.4401879E+02  0.5255475E+02  0.3073494E+02  0.0000000E+00
Ar 3585  0.4404402E+02  0.4988407E+02  0.3352462E+02  0.0000000E+00
Ar 3586  0.4646263E+02  0.5237860E+02  0.3346945E+02  0.0000000E+00
Ar 3587  0.4713993E+02  0.4959636E+02  0.3647332E+02  0.0000000E+00
Ar 3588  0.4437824E+02  0.5252801E+02  0.3644725E+02  0.0000000E+00
Ar 3589  0.4473682E+02  0.4993921E+02  0.3907861E+02  0.0000000E+00
Ar 3590  0.4711491E+02  0.5268022E+02  0.3927284E+02  0.0000000E+00
Ar 3591  0.4706880E+02  0.5008584E+02  0.4175755E+02  0.0000000E+00
Ar 3592  0.4444828E+02  0.5253008E+02  0.4169044E+02  0.0000000E+00
Ar 3593  0.4399703E+02  0.4981197E+02  0.4399703E+02  0.0000000E+00
Ar 3594  0.4721706E+02  0.5277430E+02  0.4461994E+02  0.0000000E+00
Ar 3595  0.4675951E+02  0.4991745E+02  0.4675952E+02  0.0000000E+00
Ar 3596  0.4461994E+02  0.5277429E+02  0.4721705E+02  0.0000000E+00
Ar 3597  0.4466310E+02  0.4968681E+02  0.4968681E+02  0.0000000E+00
Ar 3598  0.4702751E+02  0.5264909E+02  0.4987929E+02  0.0000000E+00
Ar 3599  0.4702751E+02  0.4987929E+02  0.5264909E+02  0.0000000E+00
Ar 3600  0.4443739E+02  0.5242069E+02  0.5242069E+02  0.0000000E+00
Ar 3601  0.4959430E+02  0.5526515E+02  0.5526515E+02  0.0000000E+00
Ar 3602  0.5250327E+02  0.2883327E+01  0.3212174E+00  0.0000000E+00
Ar 3603  0.5250327E+02  0.3212262E+00  0.2883331E+01  0.0000000E+00
Ar 3604  0.4984915E+02  0.3034452E+01  0.3034450E+01  0.0000000E+00
Ar 3605  0.4978753E+02  0.4448130E+00  0.5828237E+01  0.0000000E+00
Ar 3606  0.5259152E+02  0.3056858E+01  0.5611738E+01  0.0000000E+00
Ar 3607  0.5260497E+02  0.5516485E+02  0.8534522E+01  0.0000000E+00
Ar 3608  0.4971485E+02  0.3104934E+01  0.8435007E+01  0.0000000E+00
Ar 3609  0.4941114E+02  0.3354708E+00  0.1177368E+02  0.0000000E+00
Ar 3610  0.5262206E+02  0.2807815E+01  0.1087744E+02  0.0000000E+00
Ar 3611  0.5259785E+02  0.5520139E+02  0.1430513E+02  0.0000000E+00
Ar 3612  0.4966715E+02  0.3023672E+01  0.1386561E+02  0.0000000E+00
Ar 3613  0.4981131E+02  0.2917782E+00  0.1685100E+02  0.0000000E+00
Ar 3614  0.5238180E+02  0.2880400E+01  0.1694826E+02  0.0000000E+00
Ar 3615  0.5245654E+02  0.5507081E+02  0.1991512E+02  0.0000000E+00
Ar 3616  0.4956946E+02  0.2901488E+01  0.1938034E+02  0.0000000E+00
Ar 3617  0.4964587E+02  0.3967203E+00  0.2243994E+02  0.0000000E+00
Ar 3618  0.5243031E+02  0.3107963E+01  0.2220781E+02  0.0000000E+00
Ar 3619  0.5235101E+02  0.3615757E+00  0.2517177E+02  0.0000000E+00
Ar 3620  0.4995032E+02  0.3214626E+01  0.2497476E+02  0.0000000E+00
Ar 3621  0.4961351E+02  0.5502679E+02  0.2806034E+02  0.0000000E+00
Ar 3622  0.5249975E+02  0.2833986E+01  0.2809648E+02  0.0000000E+00
Ar 3623  0.5254595E+02  0.5500710E+02  0.3116745E+02  0.0000000E+00
Ar 3624  0.4932329E+02  0.2996292E+01  0.3072077E+02  0.0000000E+00
Ar 3625  0.4975450E+02  0.5511965E+02  0.3383895E+02  0.0000000E+00
Ar 3626  0.5242168E+02  0.2621982E+01  0.3362072E+02  0.0000000E+00
Ar 3627  0.5260845E+02  0.5533268E+02  0.3682594E+02  0.0000000E+00
Ar 3628  0.4977472E+02  0.2982035E+01  0.3607213E+02  0.0000000E+00
Ar 3629  0.4941650E+02  0.3875911E+00  0.3885972E+02  0.0000000E+00
Ar 3630  0.5247020E+02  0.3325904E+01  0.3916059E+02  0.0000000E+00
Ar 3631  0.5201922E+02  0.5535254E+02  0.4115870E+02  0.0000000E+00
Ar 3632  0.4965399E+02  0.3164534E+01  0.4134073E+02  0.0000000E+00
Ar 3633  0.4999148E+02  0.4367254E+00  0.4428469E+02  0.0000000E+00
Ar 3634  0.5253012E+02  0.3051964E+01  0.4428755E+02  0.0000000E+00
Ar 3635  0.5226791E+02  0.3743710E+00  0.4697030E+02  0.0000000E+00
Ar 3636  0.4989474E+02  0.3150927E+01  0.4714456E+02  0.0000000E+00
Ar 3637  0.4981030E+02  0.5512207E+02  0.4981032E+02  0.0000000E+00
Ar 3638  0.5260515E+02  0.2909880E+01  0.4981561E+02  0.0000000E+00
Ar 3639  0.5279448E+02  0.4081335E+00  0.5279447E+02  0.0000000E+00
Ar 3640  0.4981555E+02  0.2909894E+01  0.5260522E+02  0.0000000E+00
Ar 3641  0.4978753E+02  0.5828242E+01  0.4448077E+00  0.0000000E+00
Ar 3642  0.5260497E+02  0.8534524E+01  0.5516485E+02  0.0000000E+00
Ar 3643  0.5259151E+02  0.5611738E+01  0.3056853E+01  0.0000000E+00
Ar 3644  0.4971485E+02  0.8435006E+01  0.3104935E+01  0.0000000E+00
Ar 3645  0.4945859E+02  0.5853443E+01  0.5853446E+01  0.0000000E+00
Ar 3646  0.5231381E+02  0.8385507E+01  0.5761434E+01  0.0000000E+00
Ar 3647  0.5231383E+02  0.5761430E+01  0.8385513E+01  0.0000000E+00
Ar 3648  0.4937324E+02  0.8413920E+01  0.8413921E+01  0.0000000E+00
Ar 3649  0.4937078E+02  0.5665811E+01  0.1112113E+02  0.0000000E+00
Ar 3650  0.5207565E+02  0.8496265E+01  0.1122216E+02  0.0000000E+00
Ar 3651  0.5253250E+02  0.5497693E+01  0.1368317E+02  0.0000000E+00
Ar 3652  0.4953296E+02  0.8261430E+01  0.1379844E+02  0.0000000E+00
Ar 3653  0.4973070E+02  0.5724218E+01  0.1654795E+02  0.0000000E+00
Ar 3654  0.5246347E+02  0.8587024E+01  0.1651272E+02  0.0000000E+00
Ar 3655  0.5240853E+02  0.5661612E+01  0.1943079E+02  0.0000000E+00
Ar 3656  0.4996782E+02  0.8476971E+01  0.1939372E+02  0.0000000E+00
Ar 3657  0.4989844E+02  0.5895088E+01  0.2199356E+02  0.0000000E+00
Ar 3658  0.5260494E+02  0.8347873E+01  0.2214781E+02  0.0000000E+00
Ar 3659  0.5253628E+02  0.5696398E+01  0.2515962E+02  0.0000000E+00
Ar 3660  0.4968352E+02  0.8520754E+01  0.2535457E+02  0.0000000E+00
Ar 3661  0.4963864E+02  0.5785821E+01  0.2786117E+02  0.0000000E+00
Ar 3662  0.5252056E+02  0.8315329E+01  0.2763141E+02  0.0000000E+00
Ar 3663  0.5214496E+02  0.5807957E+01  0.3075830E+02  0.0000000E+00
Ar 3664  0.4972365E+02  0.8457458E+01  0.3068595E+02  0.0000000E+00
Ar 3665  0.4954902E+02  0.5736407E+01  0.3351479E+02  0.0000000E+00
Ar 3666  0.5262306E+02  0.8263054E+01  0.3341651E+02  0.0000000E+00
Ar 3667  0.5240051E+02  0.5371588E+01  0.3618023E+02  0.0000000E+00
Ar 3668  0.4975242E+02  0.8429593E+01  0.3588743E+02  0.0000000E+00
Ar 3669  0.4971601E+02  0.5429509E+01  0.3872355E+02  0.0000000E+00
Ar 3670  0.5229340E+02  0.8505953E+01  0.3892243E+02  0.0000000E+00
Ar 3671  0.5235275E+02  0.6090053E+01  0.4167281E+02  0.0000000E+00
Ar 3672  0.4967292E+02  0.8718868E+01  0.4161730E+02  0.0000000E+00
Ar 3673  0.4976619E+02  0.5633216E+01  0.4452298E+02  0.0000000E+00
Ar 3674  0.5269482E+02  0.8866398E+01  0.4434834E+02  0.0000000E+00
Ar 3675  0.5242031E+02  0.5947346E+01  0.4714385E+02  0.0000000E+00
Ar 3676  0.4994448E+02  0.8627298E+01  0.4683110E+02  0.0000000E+00
Ar 3677  0.4980932E+02  0.5861898E+01  0.4980930E+02  0.0000000E+00
Ar 3678  0.5245314E+02  0.8530800E+01  0.4991519E+02  0.0000000E+00
Ar 3679  0.5247532E+02  0.5814307E+01  0.5247533E+02  0.0000000E+00
Ar 3680  0.4991520E+02  0.8530771E+01  0.5245312E+02  0.0000000E+00
Ar 3681  0.4941113E+02  0.1177367E+02  0.3354736E+00  0.0000000E+00
Ar 3682  0.5259784E+02  0.1430511E+02  0.5520138E+02  0.0000000E+00
Ar 3683  0.5262205E+02  0.1087744E+02  0.2807822E+01  0.0000000E+00
Ar 3684  0.4966715E+02  0.1386561E+02  0.3023672E+01  0.0000000E+00
Ar 3685  0.4937079E+02  0.1112113E+02  0.5665812E+01  0.0000000E+00
Ar 3686  0.5253250E+02  0.1368317E+02  0.5497695E+01  0.0000000E+00
Ar 3687  0.5207566E+02  0.1122217E+02  0.8496266E+01  0.0000000E+00
Ar 3688  0.4953296E+02  0.1379844E+02  0.8261434E+01  0.0000000E+00
Ar 3689  0.4965677E+02  0.1124563E+02  0.1124563E+02  0.0000000E+00
Ar 3690  0.5227663E+02  0.1383830E+02  0.1118245E+02  0.0000000E+00
Ar 3691  0.5227664E+02  0.1118245E+02  0.1383829E+02  0.0000000E+00
Ar 3692  0.5000748E+02  0.1375657E+02  0.1375657E+02  0.0000000E+00
Ar 3693  0.4963049E+02  0.1109037E+02  0.1653821E+02  0.0000000E+00
Ar 3694  0.5251635E+02  0.1366100E+02  0.1656526E+02  0.0000000E+00
Ar 3695  0.5250197E+02  0.1090461E+02  0.1931841E+02  0.0000000E+00
Ar 3696  0.4994312E+02  0.1384477E+02  0.1951535E+02  0.0000000E+00
Ar 3697  0.4982295E+02  0.1083996E+02  0.2246573E+02  0.0000000E+00
Ar 3698  0.5254881E+02  0.1351996E+02  0.2202864E+02  0.0000000E+00
Ar 3699  0.5243799E+02  0.1082013E+02  0.2510687E+02  0.0000000E+00
Ar 3700  0.4976800E+02  0.1367790E+02  0.2514916E+02  0.0000000E+00
Ar 3701  0.4980102E+02  0.1124648E+02  0.2795899E+02  0.0000000E+00
Ar 3702  0.5234223E+02  0.1386728E+02  0.2778273E+02  0.0000000E+00
Ar 3703  0.5259093E+02  0.1082504E+02  0.3067116E+02  0.0000000E+00
Ar 3704  0.4972660E+02  0.1400426E+02  0.3050055E+02  0.0000000E+00
Ar 3705  0.4976537E+02  0.1092246E+02  0.3329404E+02  0.0000000E+00
Ar 3706  0.5217425E+02  0.1354274E+02  0.3314808E+02  0.0000000E+00
Ar 3707  0.5263114E+02  0.1103761E+02  0.3591254E+02  0.0000000E+00
Ar 3708  0.4981047E+02  0.1380992E+02  0.3599020E+02  0.0000000E+00
Ar 3709  0.4964632E+02  0.1115928E+02  0.3855485E+02  0.0000000E+00
Ar 3710  0.5257859E+02  0.1363482E+02  0.3849544E+02  0.0000000E+00
Ar 3711  0.5246740E+02  0.1127356E+02  0.4144378E+02  0.0000000E+00
Ar 3712  0.4971845E+02  0.1380377E+02  0.4132435E+02  0.0000000E+00
Ar 3713  0.4961761E+02  0.1122567E+02  0.4410174E+02  0.0000000E+00
Ar 3714  0.5255769E+02  0.1376525E+02  0.4390190E+02  0.0000000E+00
Ar 3715  0.5236254E+02  0.1146932E+02  0.4706217E+02  0.0000000E+00
Ar 3716  0.4991759E+02  0.1420710E+02  0.4682276E+02  0.0000000E+00
Ar 3717  0.4985757E+02  0.1165174E+02  0.4985759E+02  0.0000000E+00
Ar 3718  0.5272486E+02  0.1443259E+02  0.4951371E+02  0.0000000E+00
Ar 3719  0.5251819E+02  0.1189217E+02  0.5251824E+02  0.0000000E+00
Ar 3720  0.4951370E+02  0.1443261E+02  0.5272490E+02  0.0000000E+00
Ar 3721  0.4981131E+02  0.1685093E+02  0.2918589E+00  0.0000000E+00
Ar 3722  0.5245656E+02  0.1991517E+02  0.5507083E+02  0.0000000E+00
Ar 3723  0.5238179E+02  0.1694826E+02  0.2880405E+01  0.0000000E+00
Ar 3724  0.4956946E+02  0.1938034E+02  0.2901493E+01  0.0000000E+00
Ar 3725  0.4973069E+02  0.1654795E+02  0.5724222E+01  0.0000000E+00
Ar 3726  0.5240853E+02  0.1943079E+02  0.5661607E+01  0.0000000E+00
Ar 3727  0.5246347E+02  0.1651272E+02  0.8587027E+01  0.0000000E+00
Ar 3728  0.4996782E+02  0.1939372E+02  0.8476969E+01  0.0000000E+00
Ar 3729  0.4963048E+02  0.1653821E+02  0.1109037E+02  0.0000000E+00
Ar 3730  0.5250197E+02  0.1931841E+02  0.1090461E+02  0.0000000E+00
Ar 3731  0.5251635E+02  0.1656526E+02  0.1366100E+02  0.0000000E+00
Ar 3732  0.4994312E+02  0.1951535E+02  0.1384477E+02  0.0000000E+00
Ar 3733  0.5011966E+02  0.1637336E+02  0.1637335E+02  0.0000000E+00
Ar 3734  0.5242228E+02  0.1937232E+02  0.1647327E+02  0.0000000E+00
Ar 3735  0.5242228E+02  0.1647328E+02  0.1937232E+02  0.0000000E+00
Ar 3736  0.5016153E+02  0.1938719E+02  0.1938719E+02  0.0000000E+00
Ar 3737  0.4954980E+02  0.1633475E+02  0.2205399E+02  0.0000000E+00
Ar 3738  0.5254409E+02  0.1958446E+02  0.2241424E+02  0.0000000E+00
Ar 3739  0.5237529E+02  0.1655764E+02  0.2460816E+02  0.0000000E+00
Ar 3740  0.4964075E+02  0.1880373E+02  0.2483673E+02  0.0000000E+00
Ar 3741  0.4961467E+02  0.1656513E+02  0.2755736E+02  0.0000000E+00
Ar 3742  0.5257548E+02  0.1934197E+02  0.2764863E+02  0.0000000E+00
Ar 3743  0.5247692E+02  0.1667450E+02  0.3043309E+02  0.0000000E+00
Ar 3744  0.4976498E+02  0.1964626E+02  0.3032684E+02  0.0000000E+00
Ar 3745  0.4994515E+02  0.1688532E+02  0.3325189E+02  0.0000000E+00
Ar 3746  0.5257644E+02  0.1956393E+02  0.3342509E+02  0.0000000E+00
Ar 3747  0.5273036E+02  0.1687320E+02  0.3579958E+02  0.0000000E+00
Ar 3748  0.4985094E+02  0.1965435E+02  0.3581910E+02  0.0000000E+00
Ar 3749  0.5008653E+02  0.1683115E+02  0.3860987E+02  0.0000000E+00
Ar 3750  0.5249785E+02  0.1952845E+02  0.3896435E+02  0.0000000E+00
Ar 3751  0.5241694E+02  0.1650797E+02  0.4131428E+02  0.0000000E+00
Ar 3752  0.4957481E+02  0.1969627E+02  0.4173128E+02  0.0000000E+00
Ar 3753  0.4983268E+02  0.1651889E+02  0.4390666E+02  0.0000000E+00
Ar 3754  0.5231944E+02  0.1957993E+02  0.4409430E+02  0.0000000E+00
Ar 3755  0.5262332E+02  0.1670738E+02  0.4648143E+02  0.0000000E+00
Ar 3756  0.4965348E+02  0.1953977E+02  0.4708895E+02  0.0000000E+00
Ar 3757  0.4974073E+02  0.1694315E+02  0.4974066E+02  0.0000000E+00
Ar 3758  0.5264100E+02  0.1910259E+02  0.4946785E+02  0.0000000E+00
Ar 3759  0.5243993E+02  0.1691410E+02  0.5243991E+02  0.0000000E+00
Ar 3760  0.4946753E+02  0.1910240E+02  0.5264114E+02  0.0000000E+00
Ar 3761  0.4964584E+02  0.2243995E+02  0.3967123E+00  0.0000000E+00
Ar 3762  0.5235099E+02  0.2517181E+02  0.3615186E+00  0.0000000E+00
Ar 3763  0.5243031E+02  0.2220781E+02  0.3107950E+01  0.0000000E+00
Ar 3764  0.4995026E+02  0.2497476E+02  0.3214595E+01  0.0000000E+00
Ar 3765  0.4989843E+02  0.2199356E+02  0.5895087E+01  0.0000000E+00
Ar 3766  0.5253628E+02  0.2515960E+02  0.5696401E+01  0.0000000E+00
Ar 3767  0.5260494E+02  0.2214781E+02  0.8347867E+01  0.0000000E+00
Ar 3768  0.4968352E+02  0.2535457E+02  0.8520755E+01  0.0000000E+00
Ar 3769  0.4982295E+02  0.2246573E+02  0.1083996E+02  0.0000000E+00
Ar 3770  0.5243799E+02  0.2510687E+02  0.1082013E+02  0.0000000E+00
Ar 3771  0.5254880E+02  0.2202864E+02  0.1351996E+02  0.0000000E+00
Ar 3772  0.4976800E+02  0.2514916E+02  0.1367790E+02  0.0000000E+00
Ar 3773  0.4954980E+02  0.2205399E+02  0.1633475E+02  0.0000000E+00
Ar 3774  0.5237529E+02  0.2460816E+02  0.1655764E+02  0.0000000E+00
Ar 3775  0.5254409E+02  0.2241424E+02  0.1958446E+02  0.0000000E+00
Ar 3776  0.4964075E+02  0.2483673E+02  0.1880373E+02  0.0000000E+00
Ar 3777  0.4985365E+02  0.2241163E+02  0.2241163E+02  0.0000000E+00
Ar 3778  0.5258104E+02  0.2501948E+02  0.2213731E+02  0.0000000E+00
Ar 3779  0.5258103E+02  0.2213731E+02  0.2501948E+02  0.0000000E+00
Ar 3780  0.4987330E+02  0.2486701E+02  0.2486700E+02  0.0000000E+00
Ar 3781  0.4976109E+02  0.2235600E+02  0.2767706E+02  0.0000000E+00
Ar 3782  0.5252980E+02  0.2485557E+02  0.2747129E+02  0.0000000E+00
Ar 3783  0.5254574E+02  0.2225652E+02  0.3038961E+02  0.0000000E+00
Ar 3784  0.5019898E+02  0.2511522E+02  0.3054612E+02  0.0000000E+00
Ar 3785  0.5026050E+02  0.2238862E+02  0.3348364E+02  0.0000000E+00
Ar 3786  0.5261112E+02  0.2520989E+02  0.3377074E+02  0.0000000E+00
Ar 3787  0.5261673E+02  0.2229601E+02  0.3636416E+02  0.0000000E+00
Ar 3788  0.4952845E+02  0.2497635E+02  0.3607894E+02  0.0000000E+00
Ar 3789  0.4955775E+02  0.2209271E+02  0.3873720E+02  0.0000000E+00
Ar 3790  0.5237497E+02  0.2499678E+02  0.3873869E+02  0.0000000E+00
Ar 3791  0.5231777E+02  0.2234531E+02  0.4148340E+02  0.0000000E+00
Ar 3792  0.4961575E+02  0.2514861E+02  0.4171801E+02  0.0000000E+00
Ar 3793  0.4952349E+02  0.2228415E+02  0.4430609E+02  0.0000000E+00
Ar 3794  0.5277972E+02  0.2526588E+02  0.4421515E+02  0.0000000E+00
Ar 3795  0.5278900E+02  0.2223470E+02  0.4730397E+02  0.0000000E+00
Ar 3796  0.5016551E+02  0.2499618E+02  0.4739424E+02  0.0000000E+00
Ar 3797  0.4996976E+02  0.2241779E+02  0.4996962E+02  0.0000000E+00
Ar 3798  0.5274014E+02  0.2533847E+02  0.4991781E+02  0.0000000E+00
Ar 3799  0.5254459E+02  0.2276364E+02  0.5254460E+02  0.0000000E+00
Ar 3800  0.4991764E+02  0.2533751E+02  0.5273903E+02  0.0000000E+00
Ar 3801  0.4960376E+02  0.2805145E+02  0.5502704E+02  0.0000000E+00
Ar 3802  0.5255415E+02  0.3117556E+02  0.5500338E+02  0.0000000E+00
Ar 3803  0.5249945E+02  0.2809600E+02  0.2834414E+01  0.0000000E+00
Ar 3804  0.4932303E+02  0.3072051E+02  0.2996272E+01  0.0000000E+00
Ar 3805  0.4963862E+02  0.2786116E+02  0.5785838E+01  0.0000000E+00
Ar 3806  0.5214496E+02  0.3075830E+02  0.5807966E+01  0.0000000E+00
Ar 3807  0.5252056E+02  0.2763141E+02  0.8315328E+01  0.0000000E+00
Ar 3808  0.4972365E+02  0.3068595E+02  0.8457458E+01  0.0000000E+00
Ar 3809  0.4980102E+02  0.2795899E+02  0.1124648E+02  0.0000000E+00
Ar 3810  0.5259093E+02  0.3067116E+02  0.1082504E+02  0.0000000E+00
Ar 3811  0.5234224E+02  0.2778273E+02  0.1386727E+02  0.0000000E+00
Ar 3812  0.4972660E+02  0.3050054E+02  0.1400427E+02  0.0000000E+00
Ar 3813  0.4961468E+02  0.2755736E+02  0.1656513E+02  0.0000000E+00
Ar 3814  0.5247692E+02  0.3043308E+02  0.1667450E+02  0.0000000E+00
Ar 3815  0.5257549E+02  0.2764863E+02  0.1934197E+02  0.0000000E+00
Ar 3816  0.4976497E+02  0.3032683E+02  0.1964626E+02  0.0000000E+00
Ar 3817  0.4976109E+02  0.2767706E+02  0.2235600E+02  0.0000000E+00
Ar 3818  0.5254573E+02  0.3038962E+02  0.2225652E+02  0.0000000E+00
Ar 3819  0.5252981E+02  0.2747129E+02  0.2485556E+02  0.0000000E+00
Ar 3820  0.5019899E+02  0.3054612E+02  0.2511522E+02  0.0000000E+00
Ar 3821  0.5013359E+02  0.2791727E+02  0.2791726E+02  0.0000000E+00
Ar 3822  0.5289771E+02  0.3064881E+02  0.2782676E+02  0.0000000E+00
Ar 3823  0.5289771E+02  0.2782676E+02  0.3064880E+02  0.0000000E+00
Ar 3824  0.4990206E+02  0.3060673E+02  0.3060673E+02  0.0000000E+00
Ar 3825  0.4990996E+02  0.2808057E+02  0.3317231E+02  0.0000000E+00
Ar 3826  0.5256998E+02  0.3077511E+02  0.3334897E+02  0.0000000E+00
Ar 3827  0.5260430E+02  0.2806722E+02  0.3618555E+02  0.0000000E+00
Ar 3828  0.4981485E+02  0.3059266E+02  0.3596408E+02  0.0000000E+00
Ar 3829  0.4960658E+02  0.2768465E+02  0.3886268E+02  0.0000000E+00
Ar 3830  0.5269315E+02  0.3088353E+02  0.3895853E+02  0.0000000E+00
Ar 3831  0.5240586E+02  0.2764444E+02  0.4150719E+02  0.0000000E+00
Ar 3832  0.5002921E+02  0.3042738E+02  0.4140402E+02  0.0000000E+00
Ar 3833  0.4978568E+02  0.2780047E+02  0.4429680E+02  0.0000000E+00
Ar 3834  0.5255474E+02  0.3073494E+02  0.4401879E+02  0.0000000E+00
Ar 3835  0.5257959E+02  0.2813892E+02  0.4685734E+02  0.0000000E+00
Ar 3836  0.4977795E+02  0.3076569E+02  0.4701279E+02  0.0000000E+00
Ar 3837  0.4991897E+02  0.2820322E+02  0.4991890E+02  0.0000000E+00
Ar 3838  0.5243991E+02  0.3080503E+02  0.4971439E+02  0.0000000E+00
Ar 3839  0.5259408E+02  0.2809389E+02  0.5259538E+02  0.0000000E+00
Ar 3840  0.4971438E+02  0.3080444E+02  0.5244054E+02  0.0000000E+00
Ar 3841  0.4975447E+02  0.3383898E+02  0.5511965E+02  0.0000000E+00
Ar 3842  0.5260846E+02  0.3682593E+02  0.5533268E+02  0.0000000E+00
Ar 3843  0.5242120E+02  0.3362281E+02  0.2624331E+01  0.0000000E+00
Ar 3844  0.4977469E+02  0.3607218E+02  0.2982044E+01  0.0000000E+00
Ar 3845  0.4954903E+02  0.3351479E+02  0.5736409E+01  0.0000000E+00
Ar 3846  0.5240052E+02  0.3618025E+02  0.5371611E+01  0.0000000E+00
Ar 3847  0.5262306E+02  0.3341650E+02  0.8263050E+01  0.0000000E+00
Ar 3848  0.4975241E+02  0.3588743E+02  0.8429597E+01  0.0000000E+00
Ar 3849  0.4976537E+02  0.3329404E+02  0.1092247E+02  0.0000000E+00
Ar 3850  0.5263119E+02  0.3591259E+02  0.1103761E+02  0.0000000E+00
Ar 3851  0.5217424E+02  0.3314808E+02  0.1354274E+02  0.0000000E+00
Ar 3852  0.4981102E+02  0.3599070E+02  0.1380996E+02  0.0000000E+00
Ar 3853  0.4994517E+02  0.3325191E+02  0.1688532E+02  0.0000000E+00
Ar 3854  0.5273040E+02  0.3579971E+02  0.1687312E+02  0.0000000E+00
Ar 3855  0.5257645E+02  0.3342513E+02  0.1956389E+02  0.0000000E+00
Ar 3856  0.4985097E+02  0.3581913E+02  0.1965434E+02  0.0000000E+00
Ar 3857  0.5026050E+02  0.3348364E+02  0.2238862E+02  0.0000000E+00
Ar 3858  0.5261671E+02  0.3636418E+02  0.2229599E+02  0.0000000E+00
Ar 3859  0.5261112E+02  0.3377074E+02  0.2520990E+02  0.0000000E+00
Ar 3860  0.4952845E+02  0.3607894E+02  0.2497635E+02  0.0000000E+00
Ar 3861  0.4990996E+02  0.3317231E+02  0.2808057E+02  0.0000000E+00
Ar 3862  0.5260430E+02  0.3618555E+02  0.2806723E+02  0.0000000E+00
Ar 3863  0.5256998E+02  0.3334897E+02  0.3077512E+02  0.0000000E+00
Ar 3864  0.4981485E+02  0.3596408E+02  0.3059266E+02  0.0000000E+00
Ar 3865  0.5010830E+02  0.3321779E+02  0.3321779E+02  0.0000000E+00
Ar 3866  0.5269057E+02  0.3623337E+02  0.3338974E+02  0.0000000E+00
Ar 3867  0.5269057E+02  0.3338974E+02  0.3623337E+02  0.0000000E+00
Ar 3868  0.4988448E+02  0.3603768E+02  0.3603768E+02  0.0000000E+00
Ar 3869  0.4986159E+02  0.3371604E+02  0.3880239E+02  0.0000000E+00
Ar 3870  0.5248644E+02  0.3625759E+02  0.3886098E+02  0.0000000E+00
Ar 3871  0.5258148E+02  0.3357312E+02  0.4148277E+02  0.0000000E+00
Ar 3872  0.5008963E+02  0.3614476E+02  0.4136712E+02  0.0000000E+00
Ar 3873  0.4988407E+02  0.3352462E+02  0.4404401E+02  0.0000000E+00
Ar 3874  0.5252801E+02  0.3644726E+02  0.4437824E+02  0.0000000E+00
Ar 3875  0.5237859E+02  0.3346945E+02  0.4646263E+02  0.0000000E+00
Ar 3876  0.4959637E+02  0.3647333E+02  0.4713992E+02  0.0000000E+00
Ar 3877  0.4968017E+02  0.3346300E+02  0.4968017E+02  0.0000000E+00
Ar 3878  0.5243800E+02  0.3622546E+02  0.4909776E+02  0.0000000E+00
Ar 3879  0.5227746E+02  0.3446992E+02  0.5227746E+02  0.0000000E+00
Ar 3880  0.4909775E+02  0.3622548E+02  0.5243799E+02  0.0000000E+00
Ar 3881  0.4941649E+02  0.3885971E+02  0.3875899E+00  0.0000000E+00
Ar 3882  0.5201922E+02  0.4115869E+02  0.5535254E+02  0.0000000E+00
Ar 3883  0.5247020E+02  0.3916059E+02  0.3325903E+01  0.0000000E+00
Ar 3884  0.4965399E+02  0.4134073E+02  0.3164534E+01  0.0000000E+00
Ar 3885  0.4971602E+02  0.3872354E+02  0.5429512E+01  0.0000000E+00
Ar 3886  0.5235276E+02  0.4167282E+02  0.6090045E+01  0.0000000E+00
Ar 3887  0.5229344E+02  0.3892249E+02  0.8506037E+01  0.0000000E+00
Ar 3888  0.4967297E+02  0.4161729E+02  0.8718920E+01  0.0000000E+00
Ar 3889  0.4964634E+02  0.3855492E+02  0.1115928E+02  0.0000000E+00
Ar 3890  0.5246751E+02  0.4144394E+02  0.1127381E+02  0.0000000E+00
Ar 3891  0.5257847E+02  0.3849560E+02  0.1363506E+02  0.0000000E+00
Ar 3892  0.4971853E+02  0.4132442E+02  0.1380392E+02  0.0000000E+00
Ar 3893  0.5008657E+02  0.3860985E+02  0.1683112E+02  0.0000000E+00
Ar 3894  0.5241651E+02  0.4131433E+02  0.1650843E+02  0.0000000E+00
Ar 3895  0.5249787E+02  0.3896433E+02  0.1952849E+02  0.0000000E+00
Ar 3896  0.4957482E+02  0.4173126E+02  0.1969625E+02  0.0000000E+00
Ar 3897  0.4955775E+02  0.3873719E+02  0.2209269E+02  0.0000000E+00
Ar 3898  0.5231772E+02  0.4148341E+02  0.2234538E+02  0.0000000E+00
Ar 3899  0.5237497E+02  0.3873867E+02  0.2499679E+02  0.0000000E+00
Ar 3900  0.4961577E+02  0.4171803E+02  0.2514863E+02  0.0000000E+00
Ar 3901  0.4960657E+02  0.3886269E+02  0.2768465E+02  0.0000000E+00
Ar 3902  0.5240587E+02  0.4150720E+02  0.2764444E+02  0.0000000E+00
Ar 3903  0.5269314E+02  0.3895853E+02  0.3088353E+02  0.0000000E+00
Ar 3904  0.5002922E+02  0.4140402E+02  0.3042736E+02  0.0000000E+00
Ar 3905  0.4986160E+02  0.3880239E+02  0.3371603E+02  0.0000000E+00
Ar 3906  0.5258148E+02  0.4148277E+02  0.3357312E+02  0.0000000E+00
Ar 3907  0.5248644E+02  0.3886098E+02  0.3625759E+02  0.0000000E+00
Ar 3908  0.5008963E+02  0.4136712E+02  0.3614476E+02  0.0000000E+00
Ar 3909  0.4978465E+02  0.3873283E+02  0.3873283E+02  0.0000000E+00
Ar 3910  0.5263081E+02  0.4158984E+02  0.3899603E+02  0.0000000E+00
Ar 3911  0.5263082E+02  0.3899603E+02  0.4158984E+02  0.0000000E+00
Ar 3912  0.5008856E+02  0.4163692E+02  0.4163693E+02  0.0000000E+00
Ar 3913  0.4993922E+02  0.3907861E+02  0.4473681E+02  0.0000000E+00
Ar 3914  0.5253008E+02  0.4169043E+02  0.4444828E+02  0.0000000E+00
Ar 3915  0.5268024E+02  0.3927285E+02  0.4711491E+02  0.0000000E+00
Ar 3916  0.5008584E+02  0.4175755E+02  0.4706879E+02  0.0000000E+00
Ar 3917  0.4993937E+02  0.3901437E+02  0.4993936E+02  0.0000000E+00
Ar 3918  0.5253543E+02  0.4191519E+02  0.4981121E+02  0.0000000E+00
Ar 3919  0.5239071E+02  0.3899162E+02  0.5239072E+02  0.0000000E+00
Ar 3920  0.4981121E+02  0.4191517E+02  0.5253544E+02  0.0000000E+00
Ar 3921  0.4999148E+02  0.4428470E+02  0.4367237E+00  0.0000000E+00
Ar 3922  0.5226791E+02  0.4697030E+02  0.3743712E+00  0.0000000E+00
Ar 3923  0.5253012E+02  0.4428755E+02  0.3051957E+01  0.0000000E+00
Ar 3924  0.4989475E+02  0.4714457E+02  0.3150927E+01  0.0000000E+00
Ar 3925  0.4976619E+02  0.4452299E+02  0.5633217E+01  0.0000000E+00
Ar 3926  0.5242031E+02  0.4714386E+02  0.5947342E+01  0.0000000E+00
Ar 3927  0.5269484E+02  0.4434833E+02  0.8866439E+01  0.0000000E+00
Ar 3928  0.4994451E+02  0.4683110E+02  0.8627319E+01  0.0000000E+00
Ar 3929  0.4961763E+02  0.4410171E+02  0.1122569E+02  0.0000000E+00
Ar 3930  0.5236257E+02  0.4706217E+02  0.1146933E+02  0.0000000E+00
Ar 3931  0.5255757E+02  0.4390208E+02  0.1376540E+02  0.0000000E+00
Ar 3932  0.4991756E+02  0.4682284E+02  0.1420717E+02  0.0000000E+00
Ar 3933  0.4983269E+02  0.4390687E+02  0.1651893E+02  0.0000000E+00
Ar 3934  0.5262306E+02  0.4648180E+02  0.1670742E+02  0.0000000E+00
Ar 3935  0.5231951E+02  0.4409437E+02  0.1958006E+02  0.0000000E+00
Ar 3936  0.4965342E+02  0.4708897E+02  0.1953974E+02  0.0000000E+00
Ar 3937  0.4952349E+02  0.4430601E+02  0.2228420E+02  0.0000000E+00
Ar 3938  0.5278895E+02  0.4730388E+02  0.2223442E+02  0.0000000E+00
Ar 3939  0.5277971E+02  0.4421516E+02  0.2526594E+02  0.0000000E+00
Ar 3940  0.5016545E+02  0.4739418E+02  0.2499619E+02  0.0000000E+00
Ar 3941  0.4978568E+02  0.4429682E+02  0.2780047E+02  0.0000000E+00
Ar 3942  0.5257953E+02  0.4685730E+02  0.2813892E+02  0.0000000E+00
Ar 3943  0.5255475E+02  0.4401880E+02  0.3073492E+02  0.0000000E+00
Ar 3944  0.4977797E+02  0.4701279E+02  0.3076570E+02  0.0000000E+00
Ar 3945  0.4988407E+02  0.4404401E+02  0.3352462E+02  0.0000000E+00
Ar 3946  0.5237860E+02  0.4646264E+02  0.3346945E+02  0.0000000E+00
Ar 3947  0.5252801E+02  0.4437825E+02  0.3644725E+02  0.0000000E+00
Ar 3948  0.4959637E+02  0.4713992E+02  0.3647333E+02  0.0000000E+00
Ar 3949  0.4993922E+02  0.4473681E+02  0.3907861E+02  0.0000000E+00
Ar 3950  0.5268023E+02  0.4711491E+02  0.3927284E+02  0.0000000E+00
Ar 3951  0.5253008E+02  0.4444828E+02  0.4169043E+02  0.0000000E+00
Ar 3952  0.5008584E+02  0.4706879E+02  0.4175755E+02  0.0000000E+00
Ar 3953  0.4981197E+02  0.4399703E+02  0.4399703E+02  0.0000000E+00
Ar 3954  0.5277430E+02  0.4721705E+02  0.4461994E+02  0.0000000E+00
Ar 3955  0.5277430E+02  0.4461993E+02  0.4721705E+02  0.0000000E+00
Ar 3956  0.4991746E+02  0.4675952E+02  0.4675952E+02  0.0000000E+00
Ar 3957  0.4968682E+02  0.4466310E+02  0.4968681E+02  0.0000000E+00
Ar 3958  0.5264910E+02  0.4702752E+02  0.4987928E+02  0.0000000E+00
Ar 3959  0.5241982E+02  0.4443763E+02  0.5241982E+02  0.0000000E+00
Ar 3960  0.4987929E+02  0.4702752E+02  0.5264909E+02  0.0000000E+00
Ar 3961  0.4981030E+02  0.4981032E+02  0.5512208E+02  0.0000000E+00
Ar 3962  0.5279447E+02  0.5279448E+02  0.4081304E+00  0.0000000E+00
Ar 3963  0.5260515E+02  0.4981561E+02  0.2909880E+01  0.0000000E+00
Ar 3964  0.4981555E+02  0.5260522E+02  0.2909894E+01  0.0000000E+00
Ar 3965  0.4980932E+02  0.4980930E+02  0.5861903E+01  0.0000000E+00
Ar 3966  0.5247532E+02  0.5247532E+02  0.5814313E+01  0.0000000E+00
Ar 3967  0.5245314E+02  0.4991521E+02  0.8530806E+01  0.0000000E+00
Ar 3968  0.4991523E+02  0.5245312E+02  0.8530800E+01  0.0000000E+00
Ar 3969  0.4985755E+02  0.4985756E+02  0.1165175E+02  0.0000000E+00
Ar 3970  0.5251821E+02  0.5251819E+02  0.1189222E+02  0.0000000E+00
Ar 3971  0.5272488E+02  0.4951368E+02  0.1443262E+02  0.0000000E+00
Ar 3972  0.4951369E+02  0.5272489E+02  0.1443261E+02  0.0000000E+00
Ar 3973  0.4974071E+02  0.4974072E+02  0.1694314E+02  0.0000000E+00
Ar 3974  0.5243995E+02  0.5243995E+02  0.1691408E+02  0.0000000E+00
Ar 3975  0.5264114E+02  0.4946768E+02  0.1910253E+02  0.0000000E+00
Ar 3976  0.4946767E+02  0.5264113E+02  0.1910251E+02  0.0000000E+00
Ar 3977  0.4996965E+02  0.4996964E+02  0.2241779E+02  0.0000000E+00
Ar 3978  0.5254463E+02  0.5254462E+02  0.2276380E+02  0.0000000E+00
Ar 3979  0.5273965E+02  0.4991757E+02  0.2533834E+02  0.0000000E+00
Ar 3980  0.4991758E+02  0.5273964E+02  0.2533834E+02  0.0000000E+00
Ar 3981  0.4991896E+02  0.4991896E+02  0.2820324E+02  0.0000000E+00
Ar 3982  0.5259469E+02  0.5259470E+02  0.2809364E+02  0.0000000E+00
Ar 3983  0.5244011E+02  0.4971440E+02  0.3080495E+02  0.0000000E+00
Ar 3984  0.4971440E+02  0.5244011E+02  0.3080496E+02  0.0000000E+00
Ar 3985  0.4968018E+02  0.4968017E+02  0.3346300E+02  0.0000000E+00
Ar 3986  0.5227743E+02  0.5227744E+02  0.3446992E+02  0.0000000E+00
Ar 3987  0.5243800E+02  0.4909776E+02  0.3622546E+02  0.0000000E+00
Ar 3988  0.4909775E+02  0.5243800E+02  0.3622547E+02  0.0000000E+00
Ar 3989  0.4993937E+02  0.4993936E+02  0.3901437E+02  0.0000000E+00
Ar 3990  0.5239071E+02  0.5239072E+02  0.3899163E+02  0.0000000E+00
Ar 3991  0.5253543E+02  0.4981121E+02  0.4191518E+02  0.0000000E+00
Ar 3992  0.4981121E+02  0.5253544E+02  0.4191518E+02  0.0000000E+00
Ar 3993  0.4968681E+02  0.4968681E+02  0.4466310E+02  0.0000000E+00
Ar 3994  0.5241982E+02  0.5241981E+02  0.4443764E+02  0.0000000E+00
Ar 3995  0.5264910E+02  0.4987928E+02  0.4702752E+02  0.0000000E+00
Ar 3996  0.4987928E+02  0.5264909E+02  0.4702752E+02  0.0000000E+00
Ar 3997  0.4969577E+02  0.4969577E+02  0.4969577E+02  0.0000000E+00
Ar 3998  0.5256282E+02  0.5256281E+02  0.4960947E+02  0.0000000E+00
Ar 3999  0.5256282E+02  0.4960948E+02  0.5256281E+02  0.0000000E+00
Ar 4000  0.4960948E+02  0.5256281E+02  0.5256281E+02  0.0000000E+00
