        4000
Lattice="  0.5524526E+02  0.2480212E+00  0.2480233E+00  0.2480211E+00  0.5524525E+02  0.2480131E+00  0.2480232E+00  0.2480132E+00  0.5524525E+02" Properties=species:S:1:id:I:1:pos:R:3:tempK:R:1
Ar    1  0.9639688E+00  0.9639554E+00  0.9639730E+00  0.0000000E+00
Ar    2  0.3671946E+01  0.3671914E+01  0.5517854E+02  0.0000000E+00
Ar    3  0.3671954E+01  0.5517853E+02  0.3671909E+01  0.0000000E+00
Ar    4  0.5517849E+02  0.3671934E+01  0.3671953E+01  0.0000000E+00
Ar    5  0.2787824E+00  0.2787740E+00  0.5655189E+01  0.0000000E+00
Ar    6  0.2808574E+01  0.2808565E+01  0.5911920E+01  0.0000000E+00
Ar    7  0.2816167E+01  0.9049746E-01  0.8183389E+01  0.0000000E+00
Ar    8  0.9029346E-01  0.2816188E+01  0.8183196E+01  0.0000000E+00
Ar    9  0.4487802E+00  0.4494067E+00  0.1113717E+02  0.0000000E+00
Ar   10  0.3038403E+01  0.3038413E+01  0.1098622E+02  0.0000000E+00
Ar   11  0.2810596E+01  0.1795461E+00  0.1418523E+02  0.0000000E+00
Ar   12  0.1795445E+00  0.2810612E+01  0.1418522E+02  0.0000000E+00
Ar   13  0.5506200E+02  0.5506199E+02  0.1857131E+02  0.0000000E+00
Ar   14  0.3014926E+01  0.3014915E+01  0.1725357E+02  0.0000000E+00
Ar   15  0.3679741E+01  0.2174665E+00  0.1969317E+02  0.0000000E+00
Ar   16  0.2174693E+00  0.3679742E+01  0.1969316E+02  0.0000000E+00
Ar   17  0.3355471E+00  0.3355209E+00  0.2265661E+02  0.0000000E+00
Ar   18  0.3159152E+01  0.3159149E+01  0.2275329E+02  0.0000000E+00
Ar   19  0.3210871E+01  0.5519519E+02  0.2554447E+02  0.0000000E+00
Ar   20  0.5519519E+02  0.3210866E+01  0.2554448E+02  0.0000000E+00
Ar   21  0.5539252E+02  0.5539249E+02  0.2780472E+02  0.0000000E+00
Ar   22  0.3112544E+01  0.3112542E+01  0.2768729E+02  0.0000000E+00
Ar   23  0.3166867E+01  0.2782955E+00  0.3081465E+02  0.0000000E+00
Ar   24  0.2783069E+00  0.3166846E+01  0.3081465E+02  0.0000000E+00
Ar   25  0.5549564E+02  0.5549563E+02  0.3415822E+02  0.0000000E+00
Ar   26  0.3086112E+01  0.3086091E+01  0.3343189E+02  0.0000000E+00
Ar   27  0.3025197E+01  0.2206295E+00  0.3651539E+02  0.0000000E+00
Ar   28  0.2206276E+00  0.3025211E+01  0.3651541E+02  0.0000000E+00
Ar   29  0.8254062E+00  0.8254088E+00  0.3940376E+02  0.0000000E+00
Ar   30  0.3164070E+01  0.3164067E+01  0.3924099E+02  0.0000000E+00
Ar   31  0.3159666E+01  0.5521789E+02  0.4172845E+02  0.0000000E+00
Ar   32  0.5521792E+02  0.3159673E+01  0.4172848E+02  0.0000000E+00
Ar   33  0.3075975E+00  0.3075758E+00  0.4411294E+02  0.0000000E+00
Ar   34  0.2946537E+01  0.2946540E+01  0.4480959E+02  0.0000000E+00
Ar   35  0.2872059E+01  0.5540663E+02  0.4709815E+02  0.0000000E+00
Ar   36  0.5540662E+02  0.2872062E+01  0.4709819E+02  0.0000000E+00
Ar   37  0.8075406E+00  0.8075207E+00  0.5031267E+02  0.0000000E+00
Ar   38  0.3162606E+01  0.3162593E+01  0.4970060E+02  0.0000000E+00
Ar   39  0.3291849E+01  0.5095134E+00  0.5260727E+02  0.0000000E+00
Ar   40  0.5095310E+00  0.3291838E+01  0.5260728E+02  0.0000000E+00
Ar   41  0.2787774E+00  0.5655204E+01  0.2787747E+00  0.0000000E+00
Ar   42  0.2816179E+01  0.8183333E+01  0.9053509E-01  0.0000000E+00
Ar   43  0.2808567E+01  0.5911908E+01  0.2808577E+01  0.0000000E+00
Ar   44  0.9029907E-01  0.8183222E+01  0.2816190E+01  0.0000000E+00
Ar   45  0.5494490E+02  0.5822930E+01  0.5822907E+01  0.0000000E+00
Ar   46  0.2658189E+01  0.8399400E+01  0.5595304E+01  0.0000000E+00
Ar   47  0.2658188E+01  0.5595341E+01  0.8399387E+01  0.0000000E+00
Ar   48  0.9498914E-01  0.8426827E+01  0.8426815E+01  0.0000000E+00
Ar   49  0.2879859E+00  0.6079576E+01  0.1137303E+02  0.0000000E+00
Ar   50  0.3077580E+01  0.8648399E+01  0.1128938E+02  0.0000000E+00
Ar   51  0.2990406E+01  0.5638531E+01  0.1438245E+02  0.0000000E+00
Ar   52  0.3813048E+00  0.8368647E+01  0.1394778E+02  0.0000000E+00
Ar   53  0.5521554E+02  0.5749229E+01  0.1675146E+02  0.0000000E+00
Ar   54  0.3155486E+01  0.8443484E+01  0.1703836E+02  0.0000000E+00
Ar   55  0.3017797E+01  0.5894081E+01  0.2013981E+02  0.0000000E+00
Ar   56  0.5021253E+00  0.8425525E+01  0.1964209E+02  0.0000000E+00
Ar   57  0.5526920E+02  0.5359787E+01  0.2253100E+02  0.0000000E+00
Ar   58  0.2786475E+01  0.8495534E+01  0.2263648E+02  0.0000000E+00
Ar   59  0.2494894E+01  0.5868550E+01  0.2537187E+02  0.0000000E+00
Ar   60  0.5537150E+02  0.8614334E+01  0.2527778E+02  0.0000000E+00
Ar   61  0.5518956E+02  0.5815713E+01  0.2796447E+02  0.0000000E+00
Ar   62  0.3001231E+01  0.8707145E+01  0.2774271E+02  0.0000000E+00
Ar   63  0.2666569E+01  0.5837891E+01  0.3072530E+02  0.0000000E+00
Ar   64  0.4868468E+00  0.8684544E+01  0.3090103E+02  0.0000000E+00
Ar   65  0.2145507E+00  0.5762506E+01  0.3307087E+02  0.0000000E+00
Ar   66  0.3052475E+01  0.8499755E+01  0.3336171E+02  0.0000000E+00
Ar   67  0.3102224E+01  0.5583110E+01  0.3620142E+02  0.0000000E+00
Ar   68  0.3168368E+00  0.8133908E+01  0.3614034E+02  0.0000000E+00
Ar   69  0.5522481E+02  0.5753633E+01  0.3887441E+02  0.0000000E+00
Ar   70  0.3246626E+01  0.8224245E+01  0.3878894E+02  0.0000000E+00
Ar   71  0.2716166E+01  0.5807186E+01  0.4187796E+02  0.0000000E+00
Ar   72  0.3047414E+00  0.8665367E+01  0.4175900E+02  0.0000000E+00
Ar   73  0.5537758E+02  0.5631517E+01  0.4443304E+02  0.0000000E+00
Ar   74  0.3106334E+01  0.8607784E+01  0.4427285E+02  0.0000000E+00
Ar   75  0.3383248E+01  0.5867789E+01  0.4728400E+02  0.0000000E+00
Ar   76  0.5539683E+02  0.8971460E+01  0.4734808E+02  0.0000000E+00
Ar   77  0.5517363E+02  0.5792993E+01  0.4994781E+02  0.0000000E+00
Ar   78  0.3055070E+01  0.8491937E+01  0.4992545E+02  0.0000000E+00
Ar   79  0.3231823E+01  0.6072248E+01  0.5257280E+02  0.0000000E+00
Ar   80  0.5543981E+02  0.9297058E+01  0.5273905E+02  0.0000000E+00
Ar   81  0.4487518E+00  0.1113716E+02  0.4494343E+00  0.0000000E+00
Ar   82  0.2810978E+01  0.1418520E+02  0.1793155E+00  0.0000000E+00
Ar   83  0.3038408E+01  0.1098627E+02  0.3038368E+01  0.0000000E+00
Ar   84  0.1796525E+00  0.1418530E+02  0.2810586E+01  0.0000000E+00
Ar   85  0.2880079E+00  0.1137302E+02  0.6079545E+01  0.0000000E+00
Ar   86  0.2990404E+01  0.1438251E+02  0.5638395E+01  0.0000000E+00
Ar   87  0.3077612E+01  0.1128939E+02  0.8648370E+01  0.0000000E+00
Ar   88  0.3813334E+00  0.1394777E+02  0.8368611E+01  0.0000000E+00
Ar   89  0.3330585E+00  0.1135825E+02  0.1135825E+02  0.0000000E+00
Ar   90  0.3113184E+01  0.1415071E+02  0.1146057E+02  0.0000000E+00
Ar   91  0.3113189E+01  0.1146056E+02  0.1415071E+02  0.0000000E+00
Ar   92  0.6003563E+00  0.1387236E+02  0.1387236E+02  0.0000000E+00
Ar   93  0.4739770E+00  0.1110304E+02  0.1676334E+02  0.0000000E+00
Ar   94  0.3028816E+01  0.1408219E+02  0.1722423E+02  0.0000000E+00
Ar   95  0.2870510E+01  0.1124082E+02  0.1969504E+02  0.0000000E+00
Ar   96  0.5530035E+02  0.1408552E+02  0.1981229E+02  0.0000000E+00
Ar   97  0.2269775E+00  0.1091305E+02  0.2229386E+02  0.0000000E+00
Ar   98  0.2770282E+01  0.1392777E+02  0.2233424E+02  0.0000000E+00
Ar   99  0.2958966E+01  0.1127508E+02  0.2507012E+02  0.0000000E+00
Ar  100  0.2700776E+00  0.1382478E+02  0.2495200E+02  0.0000000E+00
Ar  101  0.5537978E+02  0.1110202E+02  0.2787135E+02  0.0000000E+00
Ar  102  0.2949577E+01  0.1377267E+02  0.2791517E+02  0.0000000E+00
Ar  103  0.2905238E+01  0.1128934E+02  0.3074210E+02  0.0000000E+00
Ar  104  0.5537210E+02  0.1361602E+02  0.3043992E+02  0.0000000E+00
Ar  105  0.2025483E+00  0.1094042E+02  0.3317214E+02  0.0000000E+00
Ar  106  0.2872624E+01  0.1418272E+02  0.3315383E+02  0.0000000E+00
Ar  107  0.2870264E+01  0.1087743E+02  0.3612672E+02  0.0000000E+00
Ar  108  0.5532477E+02  0.1410614E+02  0.3597902E+02  0.0000000E+00
Ar  109  0.5536112E+02  0.1105801E+02  0.3889899E+02  0.0000000E+00
Ar  110  0.2746734E+01  0.1409962E+02  0.3864764E+02  0.0000000E+00
Ar  111  0.3007974E+01  0.1138872E+02  0.4152940E+02  0.0000000E+00
Ar  112  0.4174945E+00  0.1415385E+02  0.4150575E+02  0.0000000E+00
Ar  113  0.5537250E+02  0.1122443E+02  0.4417717E+02  0.0000000E+00
Ar  114  0.3301069E+01  0.1396421E+02  0.4424999E+02  0.0000000E+00
Ar  115  0.2942931E+01  0.1148542E+02  0.4713505E+02  0.0000000E+00
Ar  116  0.4820807E+00  0.1423787E+02  0.4735434E+02  0.0000000E+00
Ar  117  0.5538845E+02  0.1120496E+02  0.4985874E+02  0.0000000E+00
Ar  118  0.3098808E+01  0.1393537E+02  0.5014589E+02  0.0000000E+00
Ar  119  0.3057365E+01  0.1103424E+02  0.5296814E+02  0.0000000E+00
Ar  120  0.5553782E+02  0.1456026E+02  0.5301114E+02  0.0000000E+00
Ar  121  0.5506204E+02  0.1857141E+02  0.5506186E+02  0.0000000E+00
Ar  122  0.3679609E+01  0.1969358E+02  0.2173796E+00  0.0000000E+00
Ar  123  0.3015053E+01  0.1725368E+02  0.3014793E+01  0.0000000E+00
Ar  124  0.2175008E+00  0.1969308E+02  0.3679851E+01  0.0000000E+00
Ar  125  0.5521557E+02  0.1675143E+02  0.5749243E+01  0.0000000E+00
Ar  126  0.3017895E+01  0.2013988E+02  0.5894122E+01  0.0000000E+00
Ar  127  0.3155471E+01  0.1703834E+02  0.8443483E+01  0.0000000E+00
Ar  128  0.5021294E+00  0.1964209E+02  0.8425527E+01  0.0000000E+00
Ar  129  0.4739712E+00  0.1676334E+02  0.1110303E+02  0.0000000E+00
Ar  130  0.2870496E+01  0.1969504E+02  0.1124083E+02  0.0000000E+00
Ar  131  0.3028815E+01  0.1722423E+02  0.1408219E+02  0.0000000E+00
Ar  132  0.5530035E+02  0.1981229E+02  0.1408552E+02  0.0000000E+00
Ar  133  0.4429423E+00  0.1665038E+02  0.1665038E+02  0.0000000E+00
Ar  134  0.2947761E+01  0.1982893E+02  0.1705256E+02  0.0000000E+00
Ar  135  0.2947758E+01  0.1705256E+02  0.1982893E+02  0.0000000E+00
Ar  136  0.5539080E+02  0.1976327E+02  0.1976327E+02  0.0000000E+00
Ar  137  0.3309303E+00  0.1707546E+02  0.2216821E+02  0.0000000E+00
Ar  138  0.3124770E+01  0.1961590E+02  0.2260957E+02  0.0000000E+00
Ar  139  0.2881247E+01  0.1659020E+02  0.2520889E+02  0.0000000E+00
Ar  140  0.5538772E+02  0.1948973E+02  0.2492259E+02  0.0000000E+00
Ar  141  0.5516058E+02  0.1631341E+02  0.2764268E+02  0.0000000E+00
Ar  142  0.2956995E+01  0.1988058E+02  0.2759217E+02  0.0000000E+00
Ar  143  0.2968614E+01  0.1647047E+02  0.3035950E+02  0.0000000E+00
Ar  144  0.5705644E+00  0.1949311E+02  0.3044468E+02  0.0000000E+00
Ar  145  0.4243376E+00  0.1745628E+02  0.3376338E+02  0.0000000E+00
Ar  146  0.3095043E+01  0.1953814E+02  0.3345176E+02  0.0000000E+00
Ar  147  0.3045791E+01  0.1682937E+02  0.3640963E+02  0.0000000E+00
Ar  148  0.4807086E+00  0.1960448E+02  0.3654215E+02  0.0000000E+00
Ar  149  0.5537718E+02  0.1671031E+02  0.3882769E+02  0.0000000E+00
Ar  150  0.3320151E+01  0.1929133E+02  0.3882945E+02  0.0000000E+00
Ar  151  0.3304375E+01  0.1683763E+02  0.4184633E+02  0.0000000E+00
Ar  152  0.3058526E+00  0.1955402E+02  0.4151775E+02  0.0000000E+00
Ar  153  0.5522138E+02  0.1704075E+02  0.4469949E+02  0.0000000E+00
Ar  154  0.3152867E+01  0.1960581E+02  0.4454841E+02  0.0000000E+00
Ar  155  0.3236219E+01  0.1715139E+02  0.4721725E+02  0.0000000E+00
Ar  156  0.5542195E+02  0.1963181E+02  0.4740290E+02  0.0000000E+00
Ar  157  0.5549122E+02  0.1682595E+02  0.4978565E+02  0.0000000E+00
Ar  158  0.3101163E+01  0.1983989E+02  0.5027245E+02  0.0000000E+00
Ar  159  0.2927928E+01  0.1683953E+02  0.5279781E+02  0.0000000E+00
Ar  160  0.5514592E+02  0.2001800E+02  0.5218512E+02  0.0000000E+00
Ar  161  0.3356629E+00  0.2265629E+02  0.3357029E+00  0.0000000E+00
Ar  162  0.3210764E+01  0.2554425E+02  0.5519485E+02  0.0000000E+00
Ar  163  0.3159322E+01  0.2275330E+02  0.3159386E+01  0.0000000E+00
Ar  164  0.5519521E+02  0.2554453E+02  0.3210639E+01  0.0000000E+00
Ar  165  0.5526922E+02  0.2253109E+02  0.5359721E+01  0.0000000E+00
Ar  166  0.2494854E+01  0.2537217E+02  0.5868790E+01  0.0000000E+00
Ar  167  0.2786495E+01  0.2263655E+02  0.8495570E+01  0.0000000E+00
Ar  168  0.5537142E+02  0.2527760E+02  0.8614521E+01  0.0000000E+00
Ar  169  0.2269359E+00  0.2229385E+02  0.1091308E+02  0.0000000E+00
Ar  170  0.2958900E+01  0.2507013E+02  0.1127515E+02  0.0000000E+00
Ar  171  0.2770283E+01  0.2233424E+02  0.1392776E+02  0.0000000E+00
Ar  172  0.2700729E+00  0.2495200E+02  0.1382478E+02  0.0000000E+00
Ar  173  0.3309339E+00  0.2216821E+02  0.1707545E+02  0.0000000E+00
Ar  174  0.2881247E+01  0.2520889E+02  0.1659020E+02  0.0000000E+00
Ar  175  0.3124770E+01  0.2260957E+02  0.1961590E+02  0.0000000E+00
Ar  176  0.5538772E+02  0.2492258E+02  0.1948974E+02  0.0000000E+00
Ar  177  0.4147425E+00  0.2246878E+02  0.2246879E+02  0.0000000E+00
Ar  178  0.3005850E+01  0.2503772E+02  0.2249691E+02  0.0000000E+00
Ar  179  0.3005847E+01  0.2249691E+02  0.2503772E+02  0.0000000E+00
Ar  180  0.5529235E+02  0.2501678E+02  0.2501679E+02  0.0000000E+00
Ar  181  0.3011738E+00  0.2231458E+02  0.2773821E+02  0.0000000E+00
Ar  182  0.3032800E+01  0.2490390E+02  0.2799489E+02  0.0000000E+00
Ar  183  0.2998191E+01  0.2215626E+02  0.3068004E+02  0.0000000E+00
Ar  184  0.5547702E+02  0.2497973E+02  0.3089606E+02  0.0000000E+00
Ar  185  0.3244354E+00  0.2217585E+02  0.3342313E+02  0.0000000E+00
Ar  186  0.3268752E+01  0.2533553E+02  0.3352389E+02  0.0000000E+00
Ar  187  0.3321099E+01  0.2229165E+02  0.3587752E+02  0.0000000E+00
Ar  188  0.5193981E+00  0.2483872E+02  0.3639025E+02  0.0000000E+00
Ar  189  0.3951686E+00  0.2245575E+02  0.3895762E+02  0.0000000E+00
Ar  190  0.3408899E+01  0.2517373E+02  0.3884315E+02  0.0000000E+00
Ar  191  0.3106984E+01  0.2239671E+02  0.4164716E+02  0.0000000E+00
Ar  192  0.3314402E+00  0.2521805E+02  0.4119714E+02  0.0000000E+00
Ar  193  0.4060974E+00  0.2205488E+02  0.4425417E+02  0.0000000E+00
Ar  194  0.2920556E+01  0.2528875E+02  0.4422831E+02  0.0000000E+00
Ar  195  0.2840930E+01  0.2237755E+02  0.4733366E+02  0.0000000E+00
Ar  196  0.5545955E+02  0.2508973E+02  0.4715489E+02  0.0000000E+00
Ar  197  0.5523088E+02  0.2262483E+02  0.4987365E+02  0.0000000E+00
Ar  198  0.2903457E+01  0.2530922E+02  0.4974809E+02  0.0000000E+00
Ar  199  0.2677274E+01  0.2252469E+02  0.5279064E+02  0.0000000E+00
Ar  200  0.5538272E+02  0.2545489E+02  0.5274508E+02  0.0000000E+00
Ar  201  0.5539469E+02  0.2780300E+02  0.5538964E+02  0.0000000E+00
Ar  202  0.3163949E+01  0.3081265E+02  0.2774417E+00  0.0000000E+00
Ar  203  0.3116173E+01  0.2768480E+02  0.3110584E+01  0.0000000E+00
Ar  204  0.2813742E+00  0.3081908E+02  0.3174190E+01  0.0000000E+00
Ar  205  0.5518995E+02  0.2796237E+02  0.5818213E+01  0.0000000E+00
Ar  206  0.2668226E+01  0.3072491E+02  0.5839952E+01  0.0000000E+00
Ar  207  0.3001216E+01  0.2774278E+02  0.8707218E+01  0.0000000E+00
Ar  208  0.4868469E+00  0.3090109E+02  0.8684679E+01  0.0000000E+00
Ar  209  0.5537975E+02  0.2787136E+02  0.1110199E+02  0.0000000E+00
Ar  210  0.2905230E+01  0.3074214E+02  0.1128939E+02  0.0000000E+00
Ar  211  0.2949575E+01  0.2791517E+02  0.1377267E+02  0.0000000E+00
Ar  212  0.5537209E+02  0.3043992E+02  0.1361603E+02  0.0000000E+00
Ar  213  0.5516058E+02  0.2764268E+02  0.1631343E+02  0.0000000E+00
Ar  214  0.2968600E+01  0.3035951E+02  0.1647046E+02  0.0000000E+00
Ar  215  0.2956980E+01  0.2759219E+02  0.1988058E+02  0.0000000E+00
Ar  216  0.5705650E+00  0.3044470E+02  0.1949307E+02  0.0000000E+00
Ar  217  0.3011661E+00  0.2773821E+02  0.2231457E+02  0.0000000E+00
Ar  218  0.2998188E+01  0.3068004E+02  0.2215627E+02  0.0000000E+00
Ar  219  0.3032798E+01  0.2799488E+02  0.2490390E+02  0.0000000E+00
Ar  220  0.5547702E+02  0.3089606E+02  0.2497972E+02  0.0000000E+00
Ar  221  0.4121815E+00  0.2798322E+02  0.2798323E+02  0.0000000E+00
Ar  222  0.3231655E+01  0.3051341E+02  0.2767791E+02  0.0000000E+00
Ar  223  0.3231657E+01  0.2767790E+02  0.3051341E+02  0.0000000E+00
Ar  224  0.9235317E+00  0.3059691E+02  0.3059691E+02  0.0000000E+00
Ar  225  0.3668096E+00  0.2801723E+02  0.3349804E+02  0.0000000E+00
Ar  226  0.2975653E+01  0.3079027E+02  0.3358761E+02  0.0000000E+00
Ar  227  0.3247470E+01  0.2803350E+02  0.3580590E+02  0.0000000E+00
Ar  228  0.5552726E+02  0.3090431E+02  0.3663559E+02  0.0000000E+00
Ar  229  0.3399023E+00  0.2787128E+02  0.3875593E+02  0.0000000E+00
Ar  230  0.3279142E+01  0.3056332E+02  0.3879098E+02  0.0000000E+00
Ar  231  0.3237447E+01  0.2766183E+02  0.4171305E+02  0.0000000E+00
Ar  232  0.5535847E+02  0.3027233E+02  0.4118548E+02  0.0000000E+00
Ar  233  0.5538282E+02  0.2792638E+02  0.4419253E+02  0.0000000E+00
Ar  234  0.3038228E+01  0.3075466E+02  0.4435330E+02  0.0000000E+00
Ar  235  0.3104602E+01  0.2770302E+02  0.4706193E+02  0.0000000E+00
Ar  236  0.5547960E+02  0.3130385E+02  0.4740516E+02  0.0000000E+00
Ar  237  0.6077643E+00  0.2805799E+02  0.4966878E+02  0.0000000E+00
Ar  238  0.2951485E+01  0.3117055E+02  0.4980642E+02  0.0000000E+00
Ar  239  0.3040493E+01  0.2818173E+02  0.5226194E+02  0.0000000E+00
Ar  240  0.4272677E+00  0.3137172E+02  0.5226922E+02  0.0000000E+00
Ar  241  0.5549682E+02  0.3416276E+02  0.5549626E+02  0.0000000E+00
Ar  242  0.3003940E+01  0.3648972E+02  0.2186753E+00  0.0000000E+00
Ar  243  0.3087269E+01  0.3343032E+02  0.3088429E+01  0.0000000E+00
Ar  244  0.2240123E+00  0.3659513E+02  0.3098665E+01  0.0000000E+00
Ar  245  0.2149960E+00  0.3307262E+02  0.5765037E+01  0.0000000E+00
Ar  246  0.3100133E+01  0.3620260E+02  0.5582171E+01  0.0000000E+00
Ar  247  0.3052472E+01  0.3336191E+02  0.8500017E+01  0.0000000E+00
Ar  248  0.3180126E+00  0.3614022E+02  0.8135405E+01  0.0000000E+00
Ar  249  0.2025046E+00  0.3317163E+02  0.1094004E+02  0.0000000E+00
Ar  250  0.2870214E+01  0.3612676E+02  0.1087753E+02  0.0000000E+00
Ar  251  0.2872627E+01  0.3315394E+02  0.1418277E+02  0.0000000E+00
Ar  252  0.5532476E+02  0.3597945E+02  0.1410651E+02  0.0000000E+00
Ar  253  0.4242826E+00  0.3376350E+02  0.1745626E+02  0.0000000E+00
Ar  254  0.3045792E+01  0.3640970E+02  0.1682942E+02  0.0000000E+00
Ar  255  0.3095003E+01  0.3345167E+02  0.1953816E+02  0.0000000E+00
Ar  256  0.4808021E+00  0.3654215E+02  0.1960451E+02  0.0000000E+00
Ar  257  0.3244067E+00  0.3342313E+02  0.2217584E+02  0.0000000E+00
Ar  258  0.3321098E+01  0.3587751E+02  0.2229166E+02  0.0000000E+00
Ar  259  0.3268739E+01  0.3352388E+02  0.2533554E+02  0.0000000E+00
Ar  260  0.5193856E+00  0.3639036E+02  0.2483858E+02  0.0000000E+00
Ar  261  0.3668122E+00  0.3349803E+02  0.2801724E+02  0.0000000E+00
Ar  262  0.3247455E+01  0.3580590E+02  0.2803350E+02  0.0000000E+00
Ar  263  0.2975661E+01  0.3358761E+02  0.3079028E+02  0.0000000E+00
Ar  264  0.5552726E+02  0.3663558E+02  0.3090432E+02  0.0000000E+00
Ar  265  0.5537924E+02  0.3321338E+02  0.3321339E+02  0.0000000E+00
Ar  266  0.3307756E+01  0.3641435E+02  0.3356846E+02  0.0000000E+00
Ar  267  0.3307750E+01  0.3356846E+02  0.3641435E+02  0.0000000E+00
Ar  268  0.4634843E+00  0.3619276E+02  0.3619276E+02  0.0000000E+00
Ar  269  0.4639831E+00  0.3326305E+02  0.3892588E+02  0.0000000E+00
Ar  270  0.3356919E+01  0.3604813E+02  0.3894818E+02  0.0000000E+00
Ar  271  0.3002899E+01  0.3301063E+02  0.4156513E+02  0.0000000E+00
Ar  272  0.5115657E+00  0.3613269E+02  0.4110380E+02  0.0000000E+00
Ar  273  0.5533029E+02  0.3378570E+02  0.4448872E+02  0.0000000E+00
Ar  274  0.3032150E+01  0.3625643E+02  0.4463460E+02  0.0000000E+00
Ar  275  0.3442970E+01  0.3352856E+02  0.4711591E+02  0.0000000E+00
Ar  276  0.5553796E+02  0.3632296E+02  0.4671585E+02  0.0000000E+00
Ar  277  0.5535469E+02  0.3406725E+02  0.4985219E+02  0.0000000E+00
Ar  278  0.3054209E+01  0.3639232E+02  0.4968384E+02  0.0000000E+00
Ar  279  0.3358876E+01  0.3392791E+02  0.5306348E+02  0.0000000E+00
Ar  280  0.5552200E+02  0.3645899E+02  0.5259419E+02  0.0000000E+00
Ar  281  0.8258594E+00  0.3940417E+02  0.8244546E+00  0.0000000E+00
Ar  282  0.3159746E+01  0.4172832E+02  0.5521789E+02  0.0000000E+00
Ar  283  0.3161201E+01  0.3923980E+02  0.3165437E+01  0.0000000E+00
Ar  284  0.5521789E+02  0.4172872E+02  0.3159514E+01  0.0000000E+00
Ar  285  0.5522794E+02  0.3881818E+02  0.5686372E+01  0.0000000E+00
Ar  286  0.2715980E+01  0.4187777E+02  0.5807240E+01  0.0000000E+00
Ar  287  0.3246543E+01  0.3878905E+02  0.8224190E+01  0.0000000E+00
Ar  288  0.3046344E+00  0.4175834E+02  0.8664375E+01  0.0000000E+00
Ar  289  0.5536125E+02  0.3889913E+02  0.1105817E+02  0.0000000E+00
Ar  290  0.3008317E+01  0.4152973E+02  0.1138843E+02  0.0000000E+00
Ar  291  0.2746974E+01  0.3864714E+02  0.1409969E+02  0.0000000E+00
Ar  292  0.4162103E+00  0.4150446E+02  0.1415228E+02  0.0000000E+00
Ar  293  0.5537722E+02  0.3882748E+02  0.1671008E+02  0.0000000E+00
Ar  294  0.3304424E+01  0.4184599E+02  0.1683796E+02  0.0000000E+00
Ar  295  0.3320425E+01  0.3882961E+02  0.1929129E+02  0.0000000E+00
Ar  296  0.3060703E+00  0.4151757E+02  0.1955382E+02  0.0000000E+00
Ar  297  0.3951658E+00  0.3895786E+02  0.2245568E+02  0.0000000E+00
Ar  298  0.3106930E+01  0.4164730E+02  0.2239677E+02  0.0000000E+00
Ar  299  0.3408848E+01  0.3884318E+02  0.2517365E+02  0.0000000E+00
Ar  300  0.3314605E+00  0.4119730E+02  0.2521805E+02  0.0000000E+00
Ar  301  0.3399094E+00  0.3875598E+02  0.2787124E+02  0.0000000E+00
Ar  302  0.3237442E+01  0.4171314E+02  0.2766177E+02  0.0000000E+00
Ar  303  0.3279130E+01  0.3879098E+02  0.3056332E+02  0.0000000E+00
Ar  304  0.5535849E+02  0.4118554E+02  0.3027231E+02  0.0000000E+00
Ar  305  0.4639771E+00  0.3892589E+02  0.3326305E+02  0.0000000E+00
Ar  306  0.3002913E+01  0.4156511E+02  0.3301064E+02  0.0000000E+00
Ar  307  0.3356920E+01  0.3894818E+02  0.3604812E+02  0.0000000E+00
Ar  308  0.5115665E+00  0.4110381E+02  0.3613269E+02  0.0000000E+00
Ar  309  0.5558978E+02  0.3959974E+02  0.3959974E+02  0.0000000E+00
Ar  310  0.3206053E+01  0.4185081E+02  0.3913770E+02  0.0000000E+00
Ar  311  0.3206052E+01  0.3913770E+02  0.4185081E+02  0.0000000E+00
Ar  312  0.5537533E+02  0.4203215E+02  0.4203215E+02  0.0000000E+00
Ar  313  0.6980576E+00  0.3953759E+02  0.4464210E+02  0.0000000E+00
Ar  314  0.3295325E+01  0.4188583E+02  0.4477498E+02  0.0000000E+00
Ar  315  0.3343440E+01  0.3910906E+02  0.4723481E+02  0.0000000E+00
Ar  316  0.5537648E+02  0.4189778E+02  0.4725878E+02  0.0000000E+00
Ar  317  0.5564133E+02  0.4001134E+02  0.5114975E+02  0.0000000E+00
Ar  318  0.3299119E+01  0.4180344E+02  0.4968391E+02  0.0000000E+00
Ar  319  0.3100923E+01  0.3911935E+02  0.5268334E+02  0.0000000E+00
Ar  320  0.4978389E+00  0.4238637E+02  0.5284365E+02  0.0000000E+00
Ar  321  0.3075943E+00  0.4411292E+02  0.3075666E+00  0.0000000E+00
Ar  322  0.2872054E+01  0.4709815E+02  0.5540663E+02  0.0000000E+00
Ar  323  0.2946532E+01  0.4480957E+02  0.2946526E+01  0.0000000E+00
Ar  324  0.5540662E+02  0.4709820E+02  0.2872062E+01  0.0000000E+00
Ar  325  0.5537757E+02  0.4443309E+02  0.5631518E+01  0.0000000E+00
Ar  326  0.3383244E+01  0.4728397E+02  0.5867796E+01  0.0000000E+00
Ar  327  0.3106330E+01  0.4427284E+02  0.8607811E+01  0.0000000E+00
Ar  328  0.5539683E+02  0.4734804E+02  0.8971554E+01  0.0000000E+00
Ar  329  0.5537231E+02  0.4417722E+02  0.1122455E+02  0.0000000E+00
Ar  330  0.2942921E+01  0.4713417E+02  0.1148630E+02  0.0000000E+00
Ar  331  0.3299198E+01  0.4424914E+02  0.1396458E+02  0.0000000E+00
Ar  332  0.4817983E+00  0.4735446E+02  0.1423766E+02  0.0000000E+00
Ar  333  0.5522140E+02  0.4470040E+02  0.1704077E+02  0.0000000E+00
Ar  334  0.3236145E+01  0.4721738E+02  0.1715120E+02  0.0000000E+00
Ar  335  0.3153701E+01  0.4454813E+02  0.1960603E+02  0.0000000E+00
Ar  336  0.5542146E+02  0.4740385E+02  0.1963328E+02  0.0000000E+00
Ar  337  0.4061363E+00  0.4425379E+02  0.2205471E+02  0.0000000E+00
Ar  338  0.2841154E+01  0.4733309E+02  0.2237697E+02  0.0000000E+00
Ar  339  0.2920746E+01  0.4422828E+02  0.2528849E+02  0.0000000E+00
Ar  340  0.5545994E+02  0.4715169E+02  0.2508572E+02  0.0000000E+00
Ar  341  0.5538272E+02  0.4419304E+02  0.2792645E+02  0.0000000E+00
Ar  342  0.3105712E+01  0.4706071E+02  0.2770230E+02  0.0000000E+00
Ar  343  0.3038152E+01  0.4435330E+02  0.3075457E+02  0.0000000E+00
Ar  344  0.5547905E+02  0.4740347E+02  0.3130344E+02  0.0000000E+00
Ar  345  0.5533029E+02  0.4448867E+02  0.3378574E+02  0.0000000E+00
Ar  346  0.3443038E+01  0.4711585E+02  0.3352857E+02  0.0000000E+00
Ar  347  0.3032130E+01  0.4463462E+02  0.3625644E+02  0.0000000E+00
Ar  348  0.5553795E+02  0.4671612E+02  0.3632280E+02  0.0000000E+00
Ar  349  0.6980454E+00  0.4464210E+02  0.3953758E+02  0.0000000E+00
Ar  350  0.3343458E+01  0.4723471E+02  0.3910915E+02  0.0000000E+00
Ar  351  0.3295319E+01  0.4477496E+02  0.4188585E+02  0.0000000E+00
Ar  352  0.5537648E+02  0.4725877E+02  0.4189778E+02  0.0000000E+00
Ar  353  0.3992780E+00  0.4442419E+02  0.4442420E+02  0.0000000E+00
Ar  354  0.3417995E+01  0.4757185E+02  0.4470030E+02  0.0000000E+00
Ar  355  0.3417994E+01  0.4470029E+02  0.4757185E+02  0.0000000E+00
Ar  356  0.6981352E+00  0.4747102E+02  0.4747103E+02  0.0000000E+00
Ar  357  0.5560812E+02  0.4503482E+02  0.5020067E+02  0.0000000E+00
Ar  358  0.3263848E+01  0.4740574E+02  0.5013836E+02  0.0000000E+00
Ar  359  0.3000282E+01  0.4480429E+02  0.5258859E+02  0.0000000E+00
Ar  360  0.5554404E+02  0.4724445E+02  0.5285026E+02  0.0000000E+00
Ar  361  0.8075360E+00  0.5031268E+02  0.8075233E+00  0.0000000E+00
Ar  362  0.3291856E+01  0.5260727E+02  0.5095162E+00  0.0000000E+00
Ar  363  0.3162612E+01  0.4970061E+02  0.3162586E+01  0.0000000E+00
Ar  364  0.5095294E+00  0.5260727E+02  0.3291820E+01  0.0000000E+00
Ar  365  0.5517362E+02  0.4994780E+02  0.5792978E+01  0.0000000E+00
Ar  366  0.3231827E+01  0.5257281E+02  0.6072230E+01  0.0000000E+00
Ar  367  0.3055077E+01  0.4992548E+02  0.8491936E+01  0.0000000E+00
Ar  368  0.5543999E+02  0.5273903E+02  0.9297179E+01  0.0000000E+00
Ar  369  0.5538851E+02  0.4985869E+02  0.1120498E+02  0.0000000E+00
Ar  370  0.3057653E+01  0.5296805E+02  0.1103463E+02  0.0000000E+00
Ar  371  0.3098998E+01  0.5014614E+02  0.1393530E+02  0.0000000E+00
Ar  372  0.5553805E+02  0.5301130E+02  0.1456031E+02  0.0000000E+00
Ar  373  0.5549136E+02  0.4978591E+02  0.1682623E+02  0.0000000E+00
Ar  374  0.2928088E+01  0.5279773E+02  0.1683957E+02  0.0000000E+00
Ar  375  0.3100780E+01  0.5027206E+02  0.1984018E+02  0.0000000E+00
Ar  376  0.5514564E+02  0.5218544E+02  0.2001806E+02  0.0000000E+00
Ar  377  0.5523098E+02  0.4987228E+02  0.2262296E+02  0.0000000E+00
Ar  378  0.2676932E+01  0.5279035E+02  0.2252490E+02  0.0000000E+00
Ar  379  0.2903510E+01  0.4974761E+02  0.2530865E+02  0.0000000E+00
Ar  380  0.5538271E+02  0.5274378E+02  0.2545522E+02  0.0000000E+00
Ar  381  0.6090543E+00  0.4966801E+02  0.2805691E+02  0.0000000E+00
Ar  382  0.3040660E+01  0.5226125E+02  0.2818150E+02  0.0000000E+00
Ar  383  0.2951051E+01  0.4980666E+02  0.3116998E+02  0.0000000E+00
Ar  384  0.4155658E+00  0.5227909E+02  0.3137413E+02  0.0000000E+00
Ar  385  0.5535437E+02  0.4985479E+02  0.3406419E+02  0.0000000E+00
Ar  386  0.3356993E+01  0.5306387E+02  0.3392397E+02  0.0000000E+00
Ar  387  0.3053983E+01  0.4968384E+02  0.3639239E+02  0.0000000E+00
Ar  388  0.5552035E+02  0.5259764E+02  0.3645631E+02  0.0000000E+00
Ar  389  0.5564165E+02  0.5115020E+02  0.4001105E+02  0.0000000E+00
Ar  390  0.3100572E+01  0.5268627E+02  0.3911648E+02  0.0000000E+00
Ar  391  0.3299094E+01  0.4968392E+02  0.4180342E+02  0.0000000E+00
Ar  392  0.4978451E+00  0.5284362E+02  0.4238641E+02  0.0000000E+00
Ar  393  0.5560811E+02  0.5020066E+02  0.4503483E+02  0.0000000E+00
Ar  394  0.3000292E+01  0.5258857E+02  0.4480434E+02  0.0000000E+00
Ar  395  0.3263843E+01  0.5013835E+02  0.4740574E+02  0.0000000E+00
Ar  396  0.5554404E+02  0.5285026E+02  0.4724444E+02  0.0000000E+00
Ar  397  0.4464454E+00  0.4965691E+02  0.4965691E+02  0.0000000E+00
Ar  398  0.3048267E+01  0.5286453E+02  0.5033201E+02  0.0000000E+00
Ar  399  0.3048271E+01  0.5033201E+02  0.5286454E+02  0.0000000E+00
Ar  400  0.8136235E+00  0.5313270E+02  0.5313271E+02  0.0000000E+00
Ar  401  0.5655248E+01  0.2787888E+00  0.2787910E+00  0.0000000E+00
Ar  402  0.8183362E+01  0.2816167E+01  0.9052365E-01  0.0000000E+00
Ar  403  0.8183370E+01  0.9053586E-01  0.2816171E+01  0.0000000E+00
Ar  404  0.5911925E+01  0.2808581E+01  0.2808567E+01  0.0000000E+00
Ar  405  0.5822930E+01  0.5494492E+02  0.5822927E+01  0.0000000E+00
Ar  406  0.8399441E+01  0.2658177E+01  0.5595316E+01  0.0000000E+00
Ar  407  0.8426826E+01  0.9496800E-01  0.8426811E+01  0.0000000E+00
Ar  408  0.5595352E+01  0.2658184E+01  0.8399384E+01  0.0000000E+00
Ar  409  0.6079582E+01  0.2879744E+00  0.1137302E+02  0.0000000E+00
Ar  410  0.8648385E+01  0.3077584E+01  0.1128938E+02  0.0000000E+00
Ar  411  0.8368661E+01  0.3812934E+00  0.1394778E+02  0.0000000E+00
Ar  412  0.5638530E+01  0.2990397E+01  0.1438244E+02  0.0000000E+00
Ar  413  0.5749245E+01  0.5521554E+02  0.1675144E+02  0.0000000E+00
Ar  414  0.8443489E+01  0.3155487E+01  0.1703836E+02  0.0000000E+00
Ar  415  0.8425528E+01  0.5021322E+00  0.1964209E+02  0.0000000E+00
Ar  416  0.5894092E+01  0.3017797E+01  0.2013982E+02  0.0000000E+00
Ar  417  0.5359799E+01  0.5526919E+02  0.2253100E+02  0.0000000E+00
Ar  418  0.8495549E+01  0.2786484E+01  0.2263648E+02  0.0000000E+00
Ar  419  0.8614338E+01  0.5537149E+02  0.2527777E+02  0.0000000E+00
Ar  420  0.5868538E+01  0.2494884E+01  0.2537185E+02  0.0000000E+00
Ar  421  0.5815715E+01  0.5518954E+02  0.2796446E+02  0.0000000E+00
Ar  422  0.8707145E+01  0.3001231E+01  0.2774270E+02  0.0000000E+00
Ar  423  0.8684559E+01  0.4868386E+00  0.3090103E+02  0.0000000E+00
Ar  424  0.5837907E+01  0.2666548E+01  0.3072529E+02  0.0000000E+00
Ar  425  0.5762523E+01  0.2145325E+00  0.3307087E+02  0.0000000E+00
Ar  426  0.8499767E+01  0.3052461E+01  0.3336171E+02  0.0000000E+00
Ar  427  0.8133933E+01  0.3168449E+00  0.3614035E+02  0.0000000E+00
Ar  428  0.5583107E+01  0.3102228E+01  0.3620144E+02  0.0000000E+00
Ar  429  0.5753638E+01  0.5522479E+02  0.3887439E+02  0.0000000E+00
Ar  430  0.8224249E+01  0.3246633E+01  0.3878893E+02  0.0000000E+00
Ar  431  0.8665394E+01  0.3047326E+00  0.4175901E+02  0.0000000E+00
Ar  432  0.5807189E+01  0.2716149E+01  0.4187794E+02  0.0000000E+00
Ar  433  0.5631509E+01  0.5537756E+02  0.4443300E+02  0.0000000E+00
Ar  434  0.8607770E+01  0.3106337E+01  0.4427282E+02  0.0000000E+00
Ar  435  0.8971467E+01  0.5539679E+02  0.4734810E+02  0.0000000E+00
Ar  436  0.5867806E+01  0.3383250E+01  0.4728397E+02  0.0000000E+00
Ar  437  0.5793020E+01  0.5517364E+02  0.4994779E+02  0.0000000E+00
Ar  438  0.8491950E+01  0.3055060E+01  0.4992547E+02  0.0000000E+00
Ar  439  0.9297076E+01  0.5543979E+02  0.5273900E+02  0.0000000E+00
Ar  440  0.6072269E+01  0.3231807E+01  0.5257282E+02  0.0000000E+00
Ar  441  0.5822941E+01  0.5822924E+01  0.5494492E+02  0.0000000E+00
Ar  442  0.8426818E+01  0.8426809E+01  0.9495977E-01  0.0000000E+00
Ar  443  0.8399437E+01  0.5595307E+01  0.2658176E+01  0.0000000E+00
Ar  444  0.5595355E+01  0.8399429E+01  0.2658163E+01  0.0000000E+00
Ar  445  0.5742825E+01  0.5742803E+01  0.5742801E+01  0.0000000E+00
Ar  446  0.8540812E+01  0.8540828E+01  0.5798553E+01  0.0000000E+00
Ar  447  0.8540800E+01  0.5798545E+01  0.8540819E+01  0.0000000E+00
Ar  448  0.5798555E+01  0.8540797E+01  0.8540814E+01  0.0000000E+00
Ar  449  0.5578489E+01  0.5578504E+01  0.1150080E+02  0.0000000E+00
Ar  450  0.8268982E+01  0.8268986E+01  0.1145893E+02  0.0000000E+00
Ar  451  0.8448541E+01  0.5741110E+01  0.1417638E+02  0.0000000E+00
Ar  452  0.5741115E+01  0.8448544E+01  0.1417638E+02  0.0000000E+00
Ar  453  0.5605222E+01  0.5605206E+01  0.1693123E+02  0.0000000E+00
Ar  454  0.8503415E+01  0.8503408E+01  0.1710612E+02  0.0000000E+00
Ar  455  0.8630239E+01  0.5534700E+01  0.1989477E+02  0.0000000E+00
Ar  456  0.5534709E+01  0.8630228E+01  0.1989478E+02  0.0000000E+00
Ar  457  0.5959757E+01  0.5959748E+01  0.2292821E+02  0.0000000E+00
Ar  458  0.8429934E+01  0.8429920E+01  0.2276061E+02  0.0000000E+00
Ar  459  0.8537885E+01  0.5498242E+01  0.2535474E+02  0.0000000E+00
Ar  460  0.5498240E+01  0.8537875E+01  0.2535474E+02  0.0000000E+00
Ar  461  0.5560864E+01  0.5560863E+01  0.2740501E+02  0.0000000E+00
Ar  462  0.8357765E+01  0.8357766E+01  0.2756417E+02  0.0000000E+00
Ar  463  0.8637953E+01  0.5582704E+01  0.3064855E+02  0.0000000E+00
Ar  464  0.5582716E+01  0.8637941E+01  0.3064855E+02  0.0000000E+00
Ar  465  0.5675090E+01  0.5675084E+01  0.3323306E+02  0.0000000E+00
Ar  466  0.8256395E+01  0.8256387E+01  0.3309772E+02  0.0000000E+00
Ar  467  0.8334208E+01  0.5619383E+01  0.3618174E+02  0.0000000E+00
Ar  468  0.5619385E+01  0.8334201E+01  0.3618175E+02  0.0000000E+00
Ar  469  0.5902773E+01  0.5902764E+01  0.3900055E+02  0.0000000E+00
Ar  470  0.8476803E+01  0.8476804E+01  0.3921944E+02  0.0000000E+00
Ar  471  0.8641449E+01  0.5551691E+01  0.4182923E+02  0.0000000E+00
Ar  472  0.5551675E+01  0.8641450E+01  0.4182924E+02  0.0000000E+00
Ar  473  0.5815773E+01  0.5815768E+01  0.4429899E+02  0.0000000E+00
Ar  474  0.8829277E+01  0.8829275E+01  0.4450388E+02  0.0000000E+00
Ar  475  0.8508942E+01  0.5851674E+01  0.4732147E+02  0.0000000E+00
Ar  476  0.5851682E+01  0.8508947E+01  0.4732146E+02  0.0000000E+00
Ar  477  0.5766513E+01  0.5766509E+01  0.5022232E+02  0.0000000E+00
Ar  478  0.8584151E+01  0.8584134E+01  0.4998787E+02  0.0000000E+00
Ar  479  0.8764092E+01  0.5859359E+01  0.5266155E+02  0.0000000E+00
Ar  480  0.5859362E+01  0.8764086E+01  0.5266155E+02  0.0000000E+00
Ar  481  0.6079630E+01  0.1137307E+02  0.2879633E+00  0.0000000E+00
Ar  482  0.8368527E+01  0.1394810E+02  0.3812131E+00  0.0000000E+00
Ar  483  0.8648413E+01  0.1128941E+02  0.3077573E+01  0.0000000E+00
Ar  484  0.5638653E+01  0.1438271E+02  0.2990213E+01  0.0000000E+00
Ar  485  0.5578450E+01  0.1150088E+02  0.5578433E+01  0.0000000E+00
Ar  486  0.8448593E+01  0.1417637E+02  0.5741208E+01  0.0000000E+00
Ar  487  0.8268936E+01  0.1145889E+02  0.8268961E+01  0.0000000E+00
Ar  488  0.5741099E+01  0.1417638E+02  0.8448542E+01  0.0000000E+00
Ar  489  0.5991291E+01  0.1140438E+02  0.1140438E+02  0.0000000E+00
Ar  490  0.8420169E+01  0.1432149E+02  0.1084025E+02  0.0000000E+00
Ar  491  0.8420184E+01  0.1084025E+02  0.1432151E+02  0.0000000E+00
Ar  492  0.5340705E+01  0.1414908E+02  0.1414909E+02  0.0000000E+00
Ar  493  0.5808646E+01  0.1115144E+02  0.1704069E+02  0.0000000E+00
Ar  494  0.8261539E+01  0.1389140E+02  0.1664599E+02  0.0000000E+00
Ar  495  0.8439286E+01  0.1104813E+02  0.1991412E+02  0.0000000E+00
Ar  496  0.5681994E+01  0.1410768E+02  0.1977003E+02  0.0000000E+00
Ar  497  0.5814818E+01  0.1091287E+02  0.2259821E+02  0.0000000E+00
Ar  498  0.8246502E+01  0.1396853E+02  0.2239788E+02  0.0000000E+00
Ar  499  0.8442924E+01  0.1109024E+02  0.2510400E+02  0.0000000E+00
Ar  500  0.5480197E+01  0.1388522E+02  0.2490376E+02  0.0000000E+00
Ar  501  0.5762733E+01  0.1112299E+02  0.2790726E+02  0.0000000E+00
Ar  502  0.8260387E+01  0.1402229E+02  0.2778594E+02  0.0000000E+00
Ar  503  0.8386770E+01  0.1105000E+02  0.3044424E+02  0.0000000E+00
Ar  504  0.5608636E+01  0.1384477E+02  0.3060312E+02  0.0000000E+00
Ar  505  0.5667507E+01  0.1138269E+02  0.3342434E+02  0.0000000E+00
Ar  506  0.8315211E+01  0.1399669E+02  0.3330126E+02  0.0000000E+00
Ar  507  0.8525579E+01  0.1116029E+02  0.3610742E+02  0.0000000E+00
Ar  508  0.5769256E+01  0.1395994E+02  0.3620506E+02  0.0000000E+00
Ar  509  0.5575783E+01  0.1119128E+02  0.3907229E+02  0.0000000E+00
Ar  510  0.8443112E+01  0.1393894E+02  0.3907002E+02  0.0000000E+00
Ar  511  0.8598209E+01  0.1127242E+02  0.4161284E+02  0.0000000E+00
Ar  512  0.5636997E+01  0.1410700E+02  0.4160433E+02  0.0000000E+00
Ar  513  0.5672063E+01  0.1112348E+02  0.4448851E+02  0.0000000E+00
Ar  514  0.8625307E+01  0.1388921E+02  0.4408056E+02  0.0000000E+00
Ar  515  0.8752342E+01  0.1144774E+02  0.4722664E+02  0.0000000E+00
Ar  516  0.5915003E+01  0.1431335E+02  0.4702104E+02  0.0000000E+00
Ar  517  0.5544687E+01  0.1113729E+02  0.5008276E+02  0.0000000E+00
Ar  518  0.8541949E+01  0.1396081E+02  0.4994258E+02  0.0000000E+00
Ar  519  0.8487527E+01  0.1149022E+02  0.5283262E+02  0.0000000E+00
Ar  520  0.5818166E+01  0.1377527E+02  0.5275317E+02  0.0000000E+00
Ar  521  0.5749654E+01  0.1675173E+02  0.5521553E+02  0.0000000E+00
Ar  522  0.8425315E+01  0.1964153E+02  0.5021523E+00  0.0000000E+00
Ar  523  0.8443539E+01  0.1703812E+02  0.3155753E+01  0.0000000E+00
Ar  524  0.5893776E+01  0.2013966E+02  0.3017862E+01  0.0000000E+00
Ar  525  0.5605202E+01  0.1693137E+02  0.5605236E+01  0.0000000E+00
Ar  526  0.8630143E+01  0.1989490E+02  0.5534726E+01  0.0000000E+00
Ar  527  0.8503450E+01  0.1710610E+02  0.8503452E+01  0.0000000E+00
Ar  528  0.5534697E+01  0.1989472E+02  0.8630282E+01  0.0000000E+00
Ar  529  0.5808632E+01  0.1704067E+02  0.1115145E+02  0.0000000E+00
Ar  530  0.8439274E+01  0.1991409E+02  0.1104816E+02  0.0000000E+00
Ar  531  0.8261543E+01  0.1664598E+02  0.1389139E+02  0.0000000E+00
Ar  532  0.5681995E+01  0.1977003E+02  0.1410767E+02  0.0000000E+00
Ar  533  0.5739112E+01  0.1695991E+02  0.1695992E+02  0.0000000E+00
Ar  534  0.8421582E+01  0.1994512E+02  0.1677750E+02  0.0000000E+00
Ar  535  0.8421579E+01  0.1677750E+02  0.1994512E+02  0.0000000E+00
Ar  536  0.5600651E+01  0.1969349E+02  0.1969349E+02  0.0000000E+00
Ar  537  0.5381696E+01  0.1660304E+02  0.2260198E+02  0.0000000E+00
Ar  538  0.8160231E+01  0.1936126E+02  0.2264360E+02  0.0000000E+00
Ar  539  0.8370033E+01  0.1668453E+02  0.2492124E+02  0.0000000E+00
Ar  540  0.5528222E+01  0.1949699E+02  0.2530184E+02  0.0000000E+00
Ar  541  0.5580326E+01  0.1653183E+02  0.2760405E+02  0.0000000E+00
Ar  542  0.8597814E+01  0.1945630E+02  0.2746070E+02  0.0000000E+00
Ar  543  0.8356678E+01  0.1688117E+02  0.3045733E+02  0.0000000E+00
Ar  544  0.5491626E+01  0.1956620E+02  0.3020783E+02  0.0000000E+00
Ar  545  0.5732992E+01  0.1692466E+02  0.3323346E+02  0.0000000E+00
Ar  546  0.8687268E+01  0.1899753E+02  0.3345262E+02  0.0000000E+00
Ar  547  0.8417582E+01  0.1659156E+02  0.3606684E+02  0.0000000E+00
Ar  548  0.6018508E+01  0.1934979E+02  0.3606676E+02  0.0000000E+00
Ar  549  0.5949497E+01  0.1656864E+02  0.3890673E+02  0.0000000E+00
Ar  550  0.8411717E+01  0.1936701E+02  0.3908279E+02  0.0000000E+00
Ar  551  0.8700852E+01  0.1668172E+02  0.4180948E+02  0.0000000E+00
Ar  552  0.6082287E+01  0.1958321E+02  0.4187621E+02  0.0000000E+00
Ar  553  0.5841998E+01  0.1666734E+02  0.4439211E+02  0.0000000E+00
Ar  554  0.8821981E+01  0.1949279E+02  0.4443682E+02  0.0000000E+00
Ar  555  0.8582273E+01  0.1673233E+02  0.4751787E+02  0.0000000E+00
Ar  556  0.5811967E+01  0.1965468E+02  0.4739899E+02  0.0000000E+00
Ar  557  0.5690478E+01  0.1684812E+02  0.5036427E+02  0.0000000E+00
Ar  558  0.8647679E+01  0.1955086E+02  0.4990021E+02  0.0000000E+00
Ar  559  0.8572064E+01  0.1668653E+02  0.5256020E+02  0.0000000E+00
Ar  560  0.6043589E+01  0.1951732E+02  0.5283906E+02  0.0000000E+00
Ar  561  0.5359964E+01  0.2253121E+02  0.5526927E+02  0.0000000E+00
Ar  562  0.8614334E+01  0.2527780E+02  0.5537145E+02  0.0000000E+00
Ar  563  0.8495379E+01  0.2263601E+02  0.2786174E+01  0.0000000E+00
Ar  564  0.5868746E+01  0.2537167E+02  0.2494774E+01  0.0000000E+00
Ar  565  0.5959754E+01  0.2292822E+02  0.5959648E+01  0.0000000E+00
Ar  566  0.8538005E+01  0.2535463E+02  0.5498186E+01  0.0000000E+00
Ar  567  0.8429974E+01  0.2276063E+02  0.8429986E+01  0.0000000E+00
Ar  568  0.5498247E+01  0.2535484E+02  0.8538064E+01  0.0000000E+00
Ar  569  0.5814815E+01  0.2259821E+02  0.1091287E+02  0.0000000E+00
Ar  570  0.8442919E+01  0.2510403E+02  0.1109028E+02  0.0000000E+00
Ar  571  0.8246507E+01  0.2239788E+02  0.1396852E+02  0.0000000E+00
Ar  572  0.5480192E+01  0.2490376E+02  0.1388521E+02  0.0000000E+00
Ar  573  0.5381695E+01  0.2260198E+02  0.1660304E+02  0.0000000E+00
Ar  574  0.8370033E+01  0.2492124E+02  0.1668453E+02  0.0000000E+00
Ar  575  0.8160233E+01  0.2264360E+02  0.1936126E+02  0.0000000E+00
Ar  576  0.5528213E+01  0.2530184E+02  0.1949700E+02  0.0000000E+00
Ar  577  0.5976658E+01  0.2232475E+02  0.2232476E+02  0.0000000E+00
Ar  578  0.8366539E+01  0.2496509E+02  0.2217498E+02  0.0000000E+00
Ar  579  0.8366542E+01  0.2217497E+02  0.2496509E+02  0.0000000E+00
Ar  580  0.5828288E+01  0.2494724E+02  0.2494724E+02  0.0000000E+00
Ar  581  0.5722301E+01  0.2220635E+02  0.2774404E+02  0.0000000E+00
Ar  582  0.8480162E+01  0.2486805E+02  0.2742154E+02  0.0000000E+00
Ar  583  0.8583873E+01  0.2178785E+02  0.3052662E+02  0.0000000E+00
Ar  584  0.5904126E+01  0.2488540E+02  0.3020910E+02  0.0000000E+00
Ar  585  0.6020422E+01  0.2215488E+02  0.3311093E+02  0.0000000E+00
Ar  586  0.8793146E+01  0.2494305E+02  0.3315539E+02  0.0000000E+00
Ar  587  0.8639460E+01  0.2214991E+02  0.3610695E+02  0.0000000E+00
Ar  588  0.5936662E+01  0.2492951E+02  0.3614535E+02  0.0000000E+00
Ar  589  0.5931869E+01  0.2228317E+02  0.3907074E+02  0.0000000E+00
Ar  590  0.8534666E+01  0.2494437E+02  0.3889065E+02  0.0000000E+00
Ar  591  0.8655045E+01  0.2217905E+02  0.4175200E+02  0.0000000E+00
Ar  592  0.5801577E+01  0.2507001E+02  0.4149514E+02  0.0000000E+00
Ar  593  0.5852231E+01  0.2218973E+02  0.4435785E+02  0.0000000E+00
Ar  594  0.8349548E+01  0.2490714E+02  0.4428493E+02  0.0000000E+00
Ar  595  0.8629771E+01  0.2208110E+02  0.4702448E+02  0.0000000E+00
Ar  596  0.5905939E+01  0.2448804E+02  0.4731764E+02  0.0000000E+00
Ar  597  0.5801717E+01  0.2220924E+02  0.5016306E+02  0.0000000E+00
Ar  598  0.8483112E+01  0.2514047E+02  0.4996090E+02  0.0000000E+00
Ar  599  0.8672711E+01  0.2257625E+02  0.5259497E+02  0.0000000E+00
Ar  600  0.5740409E+01  0.2508503E+02  0.5250845E+02  0.0000000E+00
Ar  601  0.5814919E+01  0.2796516E+02  0.5518934E+02  0.0000000E+00
Ar  602  0.8684471E+01  0.3090106E+02  0.4868283E+00  0.0000000E+00
Ar  603  0.8707084E+01  0.2774271E+02  0.3001252E+01  0.0000000E+00
Ar  604  0.5837128E+01  0.3072546E+02  0.2665880E+01  0.0000000E+00
Ar  605  0.5561190E+01  0.2740490E+02  0.5561119E+01  0.0000000E+00
Ar  606  0.8637949E+01  0.3064868E+02  0.5582773E+01  0.0000000E+00
Ar  607  0.8357776E+01  0.2756418E+02  0.8357765E+01  0.0000000E+00
Ar  608  0.5582697E+01  0.3064857E+02  0.8638009E+01  0.0000000E+00
Ar  609  0.5762746E+01  0.2790734E+02  0.1112309E+02  0.0000000E+00
Ar  610  0.8386771E+01  0.3044425E+02  0.1105001E+02  0.0000000E+00
Ar  611  0.8260382E+01  0.2778595E+02  0.1402229E+02  0.0000000E+00
Ar  612  0.5608562E+01  0.3060319E+02  0.1384478E+02  0.0000000E+00
Ar  613  0.5580328E+01  0.2760405E+02  0.1653182E+02  0.0000000E+00
Ar  614  0.8356672E+01  0.3045733E+02  0.1688117E+02  0.0000000E+00
Ar  615  0.8597814E+01  0.2746070E+02  0.1945630E+02  0.0000000E+00
Ar  616  0.5491622E+01  0.3020783E+02  0.1956620E+02  0.0000000E+00
Ar  617  0.5722299E+01  0.2774404E+02  0.2220634E+02  0.0000000E+00
Ar  618  0.8583871E+01  0.3052662E+02  0.2178784E+02  0.0000000E+00
Ar  619  0.8480160E+01  0.2742154E+02  0.2486805E+02  0.0000000E+00
Ar  620  0.5904123E+01  0.3020910E+02  0.2488540E+02  0.0000000E+00
Ar  621  0.5802986E+01  0.2782027E+02  0.2782027E+02  0.0000000E+00
Ar  622  0.8474579E+01  0.3026789E+02  0.2766635E+02  0.0000000E+00
Ar  623  0.8474578E+01  0.2766634E+02  0.3026789E+02  0.0000000E+00
Ar  624  0.6140110E+01  0.3046797E+02  0.3046798E+02  0.0000000E+00
Ar  625  0.6009464E+01  0.2719110E+02  0.3278163E+02  0.0000000E+00
Ar  626  0.8484266E+01  0.3053698E+02  0.3359188E+02  0.0000000E+00
Ar  627  0.8570201E+01  0.2771420E+02  0.3605741E+02  0.0000000E+00
Ar  628  0.5737660E+01  0.3066143E+02  0.3609893E+02  0.0000000E+00
Ar  629  0.5899044E+01  0.2780086E+02  0.3886851E+02  0.0000000E+00
Ar  630  0.8646553E+01  0.3037472E+02  0.3849197E+02  0.0000000E+00
Ar  631  0.8338593E+01  0.2754248E+02  0.4157081E+02  0.0000000E+00
Ar  632  0.5851231E+01  0.3048924E+02  0.4135904E+02  0.0000000E+00
Ar  633  0.5744823E+01  0.2759686E+02  0.4445287E+02  0.0000000E+00
Ar  634  0.8432014E+01  0.3042860E+02  0.4418071E+02  0.0000000E+00
Ar  635  0.8445765E+01  0.2762771E+02  0.4728565E+02  0.0000000E+00
Ar  636  0.5622284E+01  0.3045046E+02  0.4675872E+02  0.0000000E+00
Ar  637  0.5524248E+01  0.2771120E+02  0.4973788E+02  0.0000000E+00
Ar  638  0.8076654E+01  0.3063464E+02  0.4971866E+02  0.0000000E+00
Ar  639  0.8318597E+01  0.2823954E+02  0.5246758E+02  0.0000000E+00
Ar  640  0.5592204E+01  0.3095502E+02  0.5277026E+02  0.0000000E+00
Ar  641  0.5761619E+01  0.3307040E+02  0.2143006E+00  0.0000000E+00
Ar  642  0.8133490E+01  0.3614045E+02  0.3165992E+00  0.0000000E+00
Ar  643  0.8499734E+01  0.3336173E+02  0.3052436E+01  0.0000000E+00
Ar  644  0.5583853E+01  0.3620146E+02  0.3103334E+01  0.0000000E+00
Ar  645  0.5675323E+01  0.3323315E+02  0.5675472E+01  0.0000000E+00
Ar  646  0.8334253E+01  0.3618174E+02  0.5619441E+01  0.0000000E+00
Ar  647  0.8256393E+01  0.3309779E+02  0.8256477E+01  0.0000000E+00
Ar  648  0.5619304E+01  0.3618182E+02  0.8334251E+01  0.0000000E+00
Ar  649  0.5667428E+01  0.3342445E+02  0.1138272E+02  0.0000000E+00
Ar  650  0.8525577E+01  0.3610741E+02  0.1116032E+02  0.0000000E+00
Ar  651  0.8315187E+01  0.3330123E+02  0.1399662E+02  0.0000000E+00
Ar  652  0.5769237E+01  0.3620510E+02  0.1395990E+02  0.0000000E+00
Ar  653  0.5732961E+01  0.3323345E+02  0.1692465E+02  0.0000000E+00
Ar  654  0.8417578E+01  0.3606662E+02  0.1659148E+02  0.0000000E+00
Ar  655  0.8687293E+01  0.3345259E+02  0.1899753E+02  0.0000000E+00
Ar  656  0.6018578E+01  0.3606666E+02  0.1934994E+02  0.0000000E+00
Ar  657  0.6020430E+01  0.3311092E+02  0.2215489E+02  0.0000000E+00
Ar  658  0.8639491E+01  0.3610694E+02  0.2214996E+02  0.0000000E+00
Ar  659  0.8793146E+01  0.3315539E+02  0.2494306E+02  0.0000000E+00
Ar  660  0.5936672E+01  0.3614532E+02  0.2492953E+02  0.0000000E+00
Ar  661  0.6009464E+01  0.3278163E+02  0.2719110E+02  0.0000000E+00
Ar  662  0.8570200E+01  0.3605740E+02  0.2771420E+02  0.0000000E+00
Ar  663  0.8484264E+01  0.3359188E+02  0.3053698E+02  0.0000000E+00
Ar  664  0.5737658E+01  0.3609893E+02  0.3066142E+02  0.0000000E+00
Ar  665  0.6027306E+01  0.3374886E+02  0.3374887E+02  0.0000000E+00
Ar  666  0.8901528E+01  0.3617499E+02  0.3303664E+02  0.0000000E+00
Ar  667  0.8901533E+01  0.3303664E+02  0.3617499E+02  0.0000000E+00
Ar  668  0.5793339E+01  0.3636452E+02  0.3636451E+02  0.0000000E+00
Ar  669  0.6304111E+01  0.3350330E+02  0.3870998E+02  0.0000000E+00
Ar  670  0.8681132E+01  0.3621030E+02  0.3903457E+02  0.0000000E+00
Ar  671  0.8640107E+01  0.3330572E+02  0.4173063E+02  0.0000000E+00
Ar  672  0.6024916E+01  0.3617240E+02  0.4159164E+02  0.0000000E+00
Ar  673  0.5857319E+01  0.3346005E+02  0.4418883E+02  0.0000000E+00
Ar  674  0.8557995E+01  0.3622077E+02  0.4436872E+02  0.0000000E+00
Ar  675  0.8498204E+01  0.3327261E+02  0.4696457E+02  0.0000000E+00
Ar  676  0.6522262E+01  0.3598204E+02  0.4720790E+02  0.0000000E+00
Ar  677  0.5970494E+01  0.3341281E+02  0.5008636E+02  0.0000000E+00
Ar  678  0.8622537E+01  0.3617082E+02  0.4988194E+02  0.0000000E+00
Ar  679  0.8576292E+01  0.3334286E+02  0.5290174E+02  0.0000000E+00
Ar  680  0.6116942E+01  0.3619809E+02  0.5260266E+02  0.0000000E+00
Ar  681  0.5776196E+01  0.3889348E+02  0.5522367E+02  0.0000000E+00
Ar  682  0.8665975E+01  0.4175955E+02  0.3048082E+00  0.0000000E+00
Ar  683  0.8224312E+01  0.3878896E+02  0.3246691E+01  0.0000000E+00
Ar  684  0.5807161E+01  0.4187798E+02  0.2716229E+01  0.0000000E+00
Ar  685  0.5902792E+01  0.3900056E+02  0.5902831E+01  0.0000000E+00
Ar  686  0.8641445E+01  0.4182924E+02  0.5551697E+01  0.0000000E+00
Ar  687  0.8476812E+01  0.3921944E+02  0.8476835E+01  0.0000000E+00
Ar  688  0.5551871E+01  0.4182925E+02  0.8641236E+01  0.0000000E+00
Ar  689  0.5575749E+01  0.3907228E+02  0.1119135E+02  0.0000000E+00
Ar  690  0.8598244E+01  0.4161283E+02  0.1127237E+02  0.0000000E+00
Ar  691  0.8443248E+01  0.3906998E+02  0.1393880E+02  0.0000000E+00
Ar  692  0.5637021E+01  0.4160435E+02  0.1410703E+02  0.0000000E+00
Ar  693  0.5949803E+01  0.3890658E+02  0.1656855E+02  0.0000000E+00
Ar  694  0.8700895E+01  0.4180948E+02  0.1668177E+02  0.0000000E+00
Ar  695  0.8411850E+01  0.3908276E+02  0.1936724E+02  0.0000000E+00
Ar  696  0.6082372E+01  0.4187623E+02  0.1958323E+02  0.0000000E+00
Ar  697  0.5931859E+01  0.3907079E+02  0.2228325E+02  0.0000000E+00
Ar  698  0.8655309E+01  0.4175210E+02  0.2217949E+02  0.0000000E+00
Ar  699  0.8534683E+01  0.3889066E+02  0.2494438E+02  0.0000000E+00
Ar  700  0.5801513E+01  0.4149519E+02  0.2506998E+02  0.0000000E+00
Ar  701  0.5899012E+01  0.3886851E+02  0.2780082E+02  0.0000000E+00
Ar  702  0.8338588E+01  0.4157081E+02  0.2754246E+02  0.0000000E+00
Ar  703  0.8646548E+01  0.3849197E+02  0.3037471E+02  0.0000000E+00
Ar  704  0.5851231E+01  0.4135902E+02  0.3048924E+02  0.0000000E+00
Ar  705  0.6304110E+01  0.3870998E+02  0.3350330E+02  0.0000000E+00
Ar  706  0.8640113E+01  0.4173063E+02  0.3330573E+02  0.0000000E+00
Ar  707  0.8681125E+01  0.3903456E+02  0.3621030E+02  0.0000000E+00
Ar  708  0.6024920E+01  0.4159164E+02  0.3617240E+02  0.0000000E+00
Ar  709  0.6006434E+01  0.3901622E+02  0.3901622E+02  0.0000000E+00
Ar  710  0.8847816E+01  0.4158637E+02  0.3910095E+02  0.0000000E+00
Ar  711  0.8847825E+01  0.3910095E+02  0.4158637E+02  0.0000000E+00
Ar  712  0.6195041E+01  0.4173265E+02  0.4173265E+02  0.0000000E+00
Ar  713  0.6121710E+01  0.3919241E+02  0.4434916E+02  0.0000000E+00
Ar  714  0.8650874E+01  0.4175258E+02  0.4472586E+02  0.0000000E+00
Ar  715  0.8945036E+01  0.3875451E+02  0.4699157E+02  0.0000000E+00
Ar  716  0.6261704E+01  0.4177316E+02  0.4743087E+02  0.0000000E+00
Ar  717  0.6111455E+01  0.3903064E+02  0.4984621E+02  0.0000000E+00
Ar  718  0.8524758E+01  0.4188901E+02  0.5010379E+02  0.0000000E+00
Ar  719  0.8438329E+01  0.3895253E+02  0.5264585E+02  0.0000000E+00
Ar  720  0.5675637E+01  0.4173192E+02  0.5298895E+02  0.0000000E+00
Ar  721  0.5631495E+01  0.4443297E+02  0.5537757E+02  0.0000000E+00
Ar  722  0.8971467E+01  0.4734811E+02  0.5539680E+02  0.0000000E+00
Ar  723  0.8607769E+01  0.4427282E+02  0.3106343E+01  0.0000000E+00
Ar  724  0.5867805E+01  0.4728397E+02  0.3383252E+01  0.0000000E+00
Ar  725  0.5815770E+01  0.4429899E+02  0.5815773E+01  0.0000000E+00
Ar  726  0.8508946E+01  0.4732146E+02  0.5851679E+01  0.0000000E+00
Ar  727  0.8829285E+01  0.4450387E+02  0.8829263E+01  0.0000000E+00
Ar  728  0.5851682E+01  0.4732149E+02  0.8508936E+01  0.0000000E+00
Ar  729  0.5672169E+01  0.4448846E+02  0.1112348E+02  0.0000000E+00
Ar  730  0.8752377E+01  0.4722664E+02  0.1144773E+02  0.0000000E+00
Ar  731  0.8625411E+01  0.4408052E+02  0.1388922E+02  0.0000000E+00
Ar  732  0.5915019E+01  0.4702092E+02  0.1431336E+02  0.0000000E+00
Ar  733  0.5842073E+01  0.4439216E+02  0.1666736E+02  0.0000000E+00
Ar  734  0.8582208E+01  0.4751787E+02  0.1673240E+02  0.0000000E+00
Ar  735  0.8822070E+01  0.4443683E+02  0.1949279E+02  0.0000000E+00
Ar  736  0.5811949E+01  0.4739889E+02  0.1965474E+02  0.0000000E+00
Ar  737  0.5852219E+01  0.4435808E+02  0.2218970E+02  0.0000000E+00
Ar  738  0.8629664E+01  0.4702448E+02  0.2208103E+02  0.0000000E+00
Ar  739  0.8349429E+01  0.4428496E+02  0.2490703E+02  0.0000000E+00
Ar  740  0.5905339E+01  0.4731767E+02  0.2448774E+02  0.0000000E+00
Ar  741  0.5744922E+01  0.4445273E+02  0.2759680E+02  0.0000000E+00
Ar  742  0.8445784E+01  0.4728563E+02  0.2762765E+02  0.0000000E+00
Ar  743  0.8432015E+01  0.4418068E+02  0.3042858E+02  0.0000000E+00
Ar  744  0.5622365E+01  0.4675862E+02  0.3045044E+02  0.0000000E+00
Ar  745  0.5857344E+01  0.4418881E+02  0.3346004E+02  0.0000000E+00
Ar  746  0.8498149E+01  0.4696461E+02  0.3327259E+02  0.0000000E+00
Ar  747  0.8558006E+01  0.4436874E+02  0.3622076E+02  0.0000000E+00
Ar  748  0.6522275E+01  0.4720790E+02  0.3598204E+02  0.0000000E+00
Ar  749  0.6121715E+01  0.4434917E+02  0.3919241E+02  0.0000000E+00
Ar  750  0.8945069E+01  0.4699153E+02  0.3875451E+02  0.0000000E+00
Ar  751  0.8650874E+01  0.4472585E+02  0.4175259E+02  0.0000000E+00
Ar  752  0.6261709E+01  0.4743084E+02  0.4177320E+02  0.0000000E+00
Ar  753  0.6033144E+01  0.4445842E+02  0.4445842E+02  0.0000000E+00
Ar  754  0.8715887E+01  0.4727868E+02  0.4453011E+02  0.0000000E+00
Ar  755  0.8715883E+01  0.4453010E+02  0.4727869E+02  0.0000000E+00
Ar  756  0.5901668E+01  0.4709546E+02  0.4709546E+02  0.0000000E+00
Ar  757  0.5671860E+01  0.4416297E+02  0.5017489E+02  0.0000000E+00
Ar  758  0.8357101E+01  0.4721709E+02  0.4986802E+02  0.0000000E+00
Ar  759  0.8508137E+01  0.4449789E+02  0.5271908E+02  0.0000000E+00
Ar  760  0.5929454E+01  0.4751603E+02  0.5270382E+02  0.0000000E+00
Ar  761  0.5793026E+01  0.4994780E+02  0.5517364E+02  0.0000000E+00
Ar  762  0.9297086E+01  0.5273900E+02  0.5543979E+02  0.0000000E+00
Ar  763  0.8491949E+01  0.4992547E+02  0.3055056E+01  0.0000000E+00
Ar  764  0.6072272E+01  0.5257283E+02  0.3231807E+01  0.0000000E+00
Ar  765  0.5766514E+01  0.5022231E+02  0.5766502E+01  0.0000000E+00
Ar  766  0.8764087E+01  0.5266155E+02  0.5859359E+01  0.0000000E+00
Ar  767  0.8584162E+01  0.4998788E+02  0.8584131E+01  0.0000000E+00
Ar  768  0.5859366E+01  0.5266155E+02  0.8764050E+01  0.0000000E+00
Ar  769  0.5544722E+01  0.5008285E+02  0.1113738E+02  0.0000000E+00
Ar  770  0.8487269E+01  0.5283261E+02  0.1149040E+02  0.0000000E+00
Ar  771  0.8541862E+01  0.4994256E+02  0.1396089E+02  0.0000000E+00
Ar  772  0.5818017E+01  0.5275324E+02  0.1377539E+02  0.0000000E+00
Ar  773  0.5690560E+01  0.5036399E+02  0.1684831E+02  0.0000000E+00
Ar  774  0.8571774E+01  0.5256022E+02  0.1668641E+02  0.0000000E+00
Ar  775  0.8647653E+01  0.4990016E+02  0.1955084E+02  0.0000000E+00
Ar  776  0.6043330E+01  0.5283883E+02  0.1951722E+02  0.0000000E+00
Ar  777  0.5801539E+01  0.5016306E+02  0.2220919E+02  0.0000000E+00
Ar  778  0.8672795E+01  0.5259490E+02  0.2257624E+02  0.0000000E+00
Ar  779  0.8482981E+01  0.4996080E+02  0.2514039E+02  0.0000000E+00
Ar  780  0.5740384E+01  0.5250848E+02  0.2508488E+02  0.0000000E+00
Ar  781  0.5524244E+01  0.4973764E+02  0.2771100E+02  0.0000000E+00
Ar  782  0.8318690E+01  0.5246748E+02  0.2823949E+02  0.0000000E+00
Ar  783  0.8076692E+01  0.4971861E+02  0.3063464E+02  0.0000000E+00
Ar  784  0.5592592E+01  0.5277043E+02  0.3095492E+02  0.0000000E+00
Ar  785  0.5970434E+01  0.5008647E+02  0.3341291E+02  0.0000000E+00
Ar  786  0.8576348E+01  0.5290175E+02  0.3334289E+02  0.0000000E+00
Ar  787  0.8622725E+01  0.4988169E+02  0.3617085E+02  0.0000000E+00
Ar  788  0.6116191E+01  0.5260291E+02  0.3619770E+02  0.0000000E+00
Ar  789  0.6111639E+01  0.4984595E+02  0.3903096E+02  0.0000000E+00
Ar  790  0.8438307E+01  0.5264601E+02  0.3895283E+02  0.0000000E+00
Ar  791  0.8524778E+01  0.5010376E+02  0.4188904E+02  0.0000000E+00
Ar  792  0.5675628E+01  0.5298926E+02  0.4173146E+02  0.0000000E+00
Ar  793  0.5671868E+01  0.5017488E+02  0.4416296E+02  0.0000000E+00
Ar  794  0.8508138E+01  0.5271906E+02  0.4449789E+02  0.0000000E+00
Ar  795  0.8357106E+01  0.4986801E+02  0.4721709E+02  0.0000000E+00
Ar  796  0.5929464E+01  0.5270381E+02  0.4751602E+02  0.0000000E+00
Ar  797  0.5599219E+01  0.5020693E+02  0.5020693E+02  0.0000000E+00
Ar  798  0.8876752E+01  0.5260446E+02  0.4968417E+02  0.0000000E+00
Ar  799  0.8876752E+01  0.4968417E+02  0.5260446E+02  0.0000000E+00
Ar  800  0.5822027E+01  0.5296174E+02  0.5296174E+02  0.0000000E+00
Ar  801  0.1113755E+02  0.4493732E+00  0.4493739E+00  0.0000000E+00
Ar  802  0.1418530E+02  0.2810952E+01  0.1794142E+00  0.0000000E+00
Ar  803  0.1418530E+02  0.1794216E+00  0.2810956E+01  0.0000000E+00
Ar  804  0.1098634E+02  0.3038370E+01  0.3038374E+01  0.0000000E+00
Ar  805  0.1137308E+02  0.2879771E+00  0.6079603E+01  0.0000000E+00
Ar  806  0.1438279E+02  0.2990234E+01  0.5638533E+01  0.0000000E+00
Ar  807  0.1394810E+02  0.3812484E+00  0.8368505E+01  0.0000000E+00
Ar  808  0.1128940E+02  0.3077580E+01  0.8648396E+01  0.0000000E+00
Ar  809  0.1135827E+02  0.3330626E+00  0.1135826E+02  0.0000000E+00
Ar  810  0.1415069E+02  0.3113165E+01  0.1146056E+02  0.0000000E+00
Ar  811  0.1387238E+02  0.6003594E+00  0.1387238E+02  0.0000000E+00
Ar  812  0.1146057E+02  0.3113202E+01  0.1415071E+02  0.0000000E+00
Ar  813  0.1110305E+02  0.4739807E+00  0.1676333E+02  0.0000000E+00
Ar  814  0.1408220E+02  0.3028816E+01  0.1722422E+02  0.0000000E+00
Ar  815  0.1408552E+02  0.5530034E+02  0.1981228E+02  0.0000000E+00
Ar  816  0.1124083E+02  0.2870505E+01  0.1969504E+02  0.0000000E+00
Ar  817  0.1091304E+02  0.2269767E+00  0.2229387E+02  0.0000000E+00
Ar  818  0.1392777E+02  0.2770261E+01  0.2233424E+02  0.0000000E+00
Ar  819  0.1382479E+02  0.2700803E+00  0.2495201E+02  0.0000000E+00
Ar  820  0.1127509E+02  0.2958966E+01  0.2507011E+02  0.0000000E+00
Ar  821  0.1110204E+02  0.5537977E+02  0.2787134E+02  0.0000000E+00
Ar  822  0.1377267E+02  0.2949578E+01  0.2791516E+02  0.0000000E+00
Ar  823  0.1361602E+02  0.5537208E+02  0.3043993E+02  0.0000000E+00
Ar  824  0.1128934E+02  0.2905225E+01  0.3074208E+02  0.0000000E+00
Ar  825  0.1094043E+02  0.2025367E+00  0.3317216E+02  0.0000000E+00
Ar  826  0.1418272E+02  0.2872615E+01  0.3315384E+02  0.0000000E+00
Ar  827  0.1410615E+02  0.5532475E+02  0.3597901E+02  0.0000000E+00
Ar  828  0.1087744E+02  0.2870268E+01  0.3612673E+02  0.0000000E+00
Ar  829  0.1105802E+02  0.5536110E+02  0.3889897E+02  0.0000000E+00
Ar  830  0.1409963E+02  0.2746712E+01  0.3864764E+02  0.0000000E+00
Ar  831  0.1415386E+02  0.4174973E+00  0.4150577E+02  0.0000000E+00
Ar  832  0.1138873E+02  0.3007986E+01  0.4152938E+02  0.0000000E+00
Ar  833  0.1122442E+02  0.5537248E+02  0.4417716E+02  0.0000000E+00
Ar  834  0.1396420E+02  0.3301104E+01  0.4424999E+02  0.0000000E+00
Ar  835  0.1423789E+02  0.4820898E+00  0.4735432E+02  0.0000000E+00
Ar  836  0.1148539E+02  0.2942930E+01  0.4713505E+02  0.0000000E+00
Ar  837  0.1120498E+02  0.5538839E+02  0.4985871E+02  0.0000000E+00
Ar  838  0.1393538E+02  0.3098786E+01  0.5014588E+02  0.0000000E+00
Ar  839  0.1456021E+02  0.5553789E+02  0.5301118E+02  0.0000000E+00
Ar  840  0.1103423E+02  0.3057346E+01  0.5296812E+02  0.0000000E+00
Ar  841  0.1137307E+02  0.6079602E+01  0.2879788E+00  0.0000000E+00
Ar  842  0.1394810E+02  0.8368498E+01  0.3812486E+00  0.0000000E+00
Ar  843  0.1438278E+02  0.5638528E+01  0.2990225E+01  0.0000000E+00
Ar  844  0.1128939E+02  0.8648389E+01  0.3077572E+01  0.0000000E+00
Ar  845  0.1150099E+02  0.5578398E+01  0.5578395E+01  0.0000000E+00
Ar  846  0.1417638E+02  0.8448608E+01  0.5741211E+01  0.0000000E+00
Ar  847  0.1417638E+02  0.5741209E+01  0.8448607E+01  0.0000000E+00
Ar  848  0.1145887E+02  0.8268927E+01  0.8268936E+01  0.0000000E+00
Ar  849  0.1140437E+02  0.5991292E+01  0.1140440E+02  0.0000000E+00
Ar  850  0.1432147E+02  0.8420174E+01  0.1084027E+02  0.0000000E+00
Ar  851  0.1414910E+02  0.5340721E+01  0.1414910E+02  0.0000000E+00
Ar  852  0.1084026E+02  0.8420170E+01  0.1432151E+02  0.0000000E+00
Ar  853  0.1115146E+02  0.5808644E+01  0.1704067E+02  0.0000000E+00
Ar  854  0.1389140E+02  0.8261560E+01  0.1664600E+02  0.0000000E+00
Ar  855  0.1410769E+02  0.5681991E+01  0.1977003E+02  0.0000000E+00
Ar  856  0.1104814E+02  0.8439285E+01  0.1991411E+02  0.0000000E+00
Ar  857  0.1091287E+02  0.5814807E+01  0.2259821E+02  0.0000000E+00
Ar  858  0.1396855E+02  0.8246493E+01  0.2239787E+02  0.0000000E+00
Ar  859  0.1388522E+02  0.5480194E+01  0.2490375E+02  0.0000000E+00
Ar  860  0.1109027E+02  0.8442904E+01  0.2510399E+02  0.0000000E+00
Ar  861  0.1112300E+02  0.5762726E+01  0.2790726E+02  0.0000000E+00
Ar  862  0.1402230E+02  0.8260375E+01  0.2778594E+02  0.0000000E+00
Ar  863  0.1384478E+02  0.5608621E+01  0.3060312E+02  0.0000000E+00
Ar  864  0.1105001E+02  0.8386762E+01  0.3044425E+02  0.0000000E+00
Ar  865  0.1138271E+02  0.5667505E+01  0.3342435E+02  0.0000000E+00
Ar  866  0.1399670E+02  0.8315208E+01  0.3330126E+02  0.0000000E+00
Ar  867  0.1395997E+02  0.5769240E+01  0.3620505E+02  0.0000000E+00
Ar  868  0.1116029E+02  0.8525582E+01  0.3610741E+02  0.0000000E+00
Ar  869  0.1119128E+02  0.5575791E+01  0.3907226E+02  0.0000000E+00
Ar  870  0.1393893E+02  0.8443100E+01  0.3907001E+02  0.0000000E+00
Ar  871  0.1410701E+02  0.5637010E+01  0.4160432E+02  0.0000000E+00
Ar  872  0.1127243E+02  0.8598202E+01  0.4161283E+02  0.0000000E+00
Ar  873  0.1112346E+02  0.5672069E+01  0.4448851E+02  0.0000000E+00
Ar  874  0.1388921E+02  0.8625298E+01  0.4408056E+02  0.0000000E+00
Ar  875  0.1431333E+02  0.5915013E+01  0.4702102E+02  0.0000000E+00
Ar  876  0.1144775E+02  0.8752312E+01  0.4722664E+02  0.0000000E+00
Ar  877  0.1113730E+02  0.5544670E+01  0.5008277E+02  0.0000000E+00
Ar  878  0.1396082E+02  0.8541945E+01  0.4994258E+02  0.0000000E+00
Ar  879  0.1377528E+02  0.5818095E+01  0.5275322E+02  0.0000000E+00
Ar  880  0.1149024E+02  0.8487501E+01  0.5283262E+02  0.0000000E+00
Ar  881  0.1135826E+02  0.1135826E+02  0.3330592E+00  0.0000000E+00
Ar  882  0.1387238E+02  0.1387238E+02  0.6003649E+00  0.0000000E+00
Ar  883  0.1415070E+02  0.1146055E+02  0.3113175E+01  0.0000000E+00
Ar  884  0.1146055E+02  0.1415067E+02  0.3113166E+01  0.0000000E+00
Ar  885  0.1140438E+02  0.1140439E+02  0.5991312E+01  0.0000000E+00
Ar  886  0.1414911E+02  0.1414910E+02  0.5340725E+01  0.0000000E+00
Ar  887  0.1432148E+02  0.1084027E+02  0.8420171E+01  0.0000000E+00
Ar  888  0.1084028E+02  0.1432149E+02  0.8420188E+01  0.0000000E+00
Ar  889  0.1093777E+02  0.1093777E+02  0.1093774E+02  0.0000000E+00
Ar  890  0.1375919E+02  0.1375917E+02  0.1100259E+02  0.0000000E+00
Ar  891  0.1375918E+02  0.1100259E+02  0.1375918E+02  0.0000000E+00
Ar  892  0.1100257E+02  0.1375918E+02  0.1375918E+02  0.0000000E+00
Ar  893  0.1099736E+02  0.1099736E+02  0.1732982E+02  0.0000000E+00
Ar  894  0.1361431E+02  0.1361432E+02  0.1638188E+02  0.0000000E+00
Ar  895  0.1375178E+02  0.1065668E+02  0.1958265E+02  0.0000000E+00
Ar  896  0.1065669E+02  0.1375177E+02  0.1958264E+02  0.0000000E+00
Ar  897  0.1121666E+02  0.1121665E+02  0.2272421E+02  0.0000000E+00
Ar  898  0.1397312E+02  0.1397311E+02  0.2195261E+02  0.0000000E+00
Ar  899  0.1388848E+02  0.1123168E+02  0.2498777E+02  0.0000000E+00
Ar  900  0.1123169E+02  0.1388847E+02  0.2498778E+02  0.0000000E+00
Ar  901  0.1097379E+02  0.1097378E+02  0.2777017E+02  0.0000000E+00
Ar  902  0.1357286E+02  0.1357286E+02  0.2815408E+02  0.0000000E+00
Ar  903  0.1385273E+02  0.1099937E+02  0.3080195E+02  0.0000000E+00
Ar  904  0.1099937E+02  0.1385273E+02  0.3080195E+02  0.0000000E+00
Ar  905  0.1121342E+02  0.1121342E+02  0.3334466E+02  0.0000000E+00
Ar  906  0.1380887E+02  0.1380886E+02  0.3323997E+02  0.0000000E+00
Ar  907  0.1387192E+02  0.1099940E+02  0.3627704E+02  0.0000000E+00
Ar  908  0.1099940E+02  0.1387191E+02  0.3627704E+02  0.0000000E+00
Ar  909  0.1127150E+02  0.1127150E+02  0.3887737E+02  0.0000000E+00
Ar  910  0.1405750E+02  0.1405748E+02  0.3895916E+02  0.0000000E+00
Ar  911  0.1412427E+02  0.1119749E+02  0.4127096E+02  0.0000000E+00
Ar  912  0.1119751E+02  0.1412427E+02  0.4127097E+02  0.0000000E+00
Ar  913  0.1157930E+02  0.1157929E+02  0.4422279E+02  0.0000000E+00
Ar  914  0.1417994E+02  0.1417992E+02  0.4409827E+02  0.0000000E+00
Ar  915  0.1399426E+02  0.1133653E+02  0.4714493E+02  0.0000000E+00
Ar  916  0.1133657E+02  0.1399424E+02  0.4714494E+02  0.0000000E+00
Ar  917  0.1115754E+02  0.1115752E+02  0.4986331E+02  0.0000000E+00
Ar  918  0.1410420E+02  0.1410419E+02  0.4984976E+02  0.0000000E+00
Ar  919  0.1425452E+02  0.1117289E+02  0.5300636E+02  0.0000000E+00
Ar  920  0.1117290E+02  0.1425451E+02  0.5300637E+02  0.0000000E+00
Ar  921  0.1110306E+02  0.1676338E+02  0.4740484E+00  0.0000000E+00
Ar  922  0.1408558E+02  0.1981231E+02  0.5530031E+02  0.0000000E+00
Ar  923  0.1408219E+02  0.1722425E+02  0.3028806E+01  0.0000000E+00
Ar  924  0.1124024E+02  0.1969506E+02  0.2870094E+01  0.0000000E+00
Ar  925  0.1115150E+02  0.1704077E+02  0.5808688E+01  0.0000000E+00
Ar  926  0.1410777E+02  0.1977002E+02  0.5682011E+01  0.0000000E+00
Ar  927  0.1389148E+02  0.1664595E+02  0.8261631E+01  0.0000000E+00
Ar  928  0.1104814E+02  0.1991411E+02  0.8439321E+01  0.0000000E+00
Ar  929  0.1099737E+02  0.1732979E+02  0.1099739E+02  0.0000000E+00
Ar  930  0.1375178E+02  0.1958265E+02  0.1065670E+02  0.0000000E+00
Ar  931  0.1361431E+02  0.1638188E+02  0.1361431E+02  0.0000000E+00
Ar  932  0.1065670E+02  0.1958265E+02  0.1375176E+02  0.0000000E+00
Ar  933  0.1091346E+02  0.1656204E+02  0.1656204E+02  0.0000000E+00
Ar  934  0.1336256E+02  0.1917535E+02  0.1665526E+02  0.0000000E+00
Ar  935  0.1336257E+02  0.1665526E+02  0.1917535E+02  0.0000000E+00
Ar  936  0.1062219E+02  0.1961085E+02  0.1961086E+02  0.0000000E+00
Ar  937  0.1138005E+02  0.1638237E+02  0.2230858E+02  0.0000000E+00
Ar  938  0.1378713E+02  0.1931198E+02  0.2222997E+02  0.0000000E+00
Ar  939  0.1385175E+02  0.1645530E+02  0.2514337E+02  0.0000000E+00
Ar  940  0.1121905E+02  0.1920495E+02  0.2512995E+02  0.0000000E+00
Ar  941  0.1102431E+02  0.1654866E+02  0.2799470E+02  0.0000000E+00
Ar  942  0.1414211E+02  0.1947365E+02  0.2772172E+02  0.0000000E+00
Ar  943  0.1385806E+02  0.1675769E+02  0.3085883E+02  0.0000000E+00
Ar  944  0.1142380E+02  0.1943097E+02  0.3023549E+02  0.0000000E+00
Ar  945  0.1117350E+02  0.1664003E+02  0.3348900E+02  0.0000000E+00
Ar  946  0.1376928E+02  0.1951432E+02  0.3354649E+02  0.0000000E+00
Ar  947  0.1386462E+02  0.1678585E+02  0.3622366E+02  0.0000000E+00
Ar  948  0.1114145E+02  0.1930112E+02  0.3631956E+02  0.0000000E+00
Ar  949  0.1114449E+02  0.1679410E+02  0.3903028E+02  0.0000000E+00
Ar  950  0.1418336E+02  0.1946720E+02  0.3874915E+02  0.0000000E+00
Ar  951  0.1384412E+02  0.1686135E+02  0.4135037E+02  0.0000000E+00
Ar  952  0.1126368E+02  0.1947826E+02  0.4174266E+02  0.0000000E+00
Ar  953  0.1118511E+02  0.1632035E+02  0.4453839E+02  0.0000000E+00
Ar  954  0.1379527E+02  0.1928797E+02  0.4443132E+02  0.0000000E+00
Ar  955  0.1397081E+02  0.1710857E+02  0.4730758E+02  0.0000000E+00
Ar  956  0.1137901E+02  0.1961291E+02  0.4729376E+02  0.0000000E+00
Ar  957  0.1129185E+02  0.1672080E+02  0.5019561E+02  0.0000000E+00
Ar  958  0.1366901E+02  0.1952447E+02  0.5013848E+02  0.0000000E+00
Ar  959  0.1388476E+02  0.1687055E+02  0.5296866E+02  0.0000000E+00
Ar  960  0.1104529E+02  0.1958546E+02  0.5310242E+02  0.0000000E+00
Ar  961  0.1091253E+02  0.2229319E+02  0.2269945E+00  0.0000000E+00
Ar  962  0.1382479E+02  0.2495201E+02  0.2700663E+00  0.0000000E+00
Ar  963  0.1392780E+02  0.2233424E+02  0.2770256E+01  0.0000000E+00
Ar  964  0.1127511E+02  0.2507006E+02  0.2958966E+01  0.0000000E+00
Ar  965  0.1091290E+02  0.2259820E+02  0.5814833E+01  0.0000000E+00
Ar  966  0.1388525E+02  0.2490379E+02  0.5480222E+01  0.0000000E+00
Ar  967  0.1396856E+02  0.2239789E+02  0.8246509E+01  0.0000000E+00
Ar  968  0.1109029E+02  0.2510404E+02  0.8442916E+01  0.0000000E+00
Ar  969  0.1121665E+02  0.2272422E+02  0.1121665E+02  0.0000000E+00
Ar  970  0.1388848E+02  0.2498777E+02  0.1123168E+02  0.0000000E+00
Ar  971  0.1397312E+02  0.2195261E+02  0.1397311E+02  0.0000000E+00
Ar  972  0.1123168E+02  0.2498778E+02  0.1388847E+02  0.0000000E+00
Ar  973  0.1138004E+02  0.2230858E+02  0.1638237E+02  0.0000000E+00
Ar  974  0.1385175E+02  0.2514337E+02  0.1645529E+02  0.0000000E+00
Ar  975  0.1378713E+02  0.2222996E+02  0.1931198E+02  0.0000000E+00
Ar  976  0.1121905E+02  0.2512995E+02  0.1920495E+02  0.0000000E+00
Ar  977  0.1100218E+02  0.2252160E+02  0.2252160E+02  0.0000000E+00
Ar  978  0.1385195E+02  0.2504398E+02  0.2185979E+02  0.0000000E+00
Ar  979  0.1385194E+02  0.2185979E+02  0.2504399E+02  0.0000000E+00
Ar  980  0.1144116E+02  0.2502594E+02  0.2502594E+02  0.0000000E+00
Ar  981  0.1121005E+02  0.2210572E+02  0.2761605E+02  0.0000000E+00
Ar  982  0.1395421E+02  0.2470927E+02  0.2768882E+02  0.0000000E+00
Ar  983  0.1379318E+02  0.2210778E+02  0.3038486E+02  0.0000000E+00
Ar  984  0.1110526E+02  0.2512524E+02  0.3026013E+02  0.0000000E+00
Ar  985  0.1118584E+02  0.2205559E+02  0.3343348E+02  0.0000000E+00
Ar  986  0.1391097E+02  0.2469019E+02  0.3343854E+02  0.0000000E+00
Ar  987  0.1380844E+02  0.2226344E+02  0.3626190E+02  0.0000000E+00
Ar  988  0.1120065E+02  0.2492886E+02  0.3609994E+02  0.0000000E+00
Ar  989  0.1096446E+02  0.2220895E+02  0.3873733E+02  0.0000000E+00
Ar  990  0.1394585E+02  0.2486208E+02  0.3914328E+02  0.0000000E+00
Ar  991  0.1410777E+02  0.2216986E+02  0.4191719E+02  0.0000000E+00
Ar  992  0.1112930E+02  0.2463738E+02  0.4148643E+02  0.0000000E+00
Ar  993  0.1129878E+02  0.2237159E+02  0.4425430E+02  0.0000000E+00
Ar  994  0.1388749E+02  0.2500909E+02  0.4408328E+02  0.0000000E+00
Ar  995  0.1396088E+02  0.2245796E+02  0.4695645E+02  0.0000000E+00
Ar  996  0.1143752E+02  0.2510702E+02  0.4699782E+02  0.0000000E+00
Ar  997  0.1123963E+02  0.2232045E+02  0.4960452E+02  0.0000000E+00
Ar  998  0.1392190E+02  0.2502721E+02  0.5002342E+02  0.0000000E+00
Ar  999  0.1355233E+02  0.2261240E+02  0.5270758E+02  0.0000000E+00
Ar 1000  0.1113166E+02  0.2529813E+02  0.5263295E+02  0.0000000E+00
Ar 1001  0.1110197E+02  0.2787130E+02  0.5537981E+02  0.0000000E+00
Ar 1002  0.1361603E+02  0.3043993E+02  0.5537207E+02  0.0000000E+00
Ar 1003  0.1377271E+02  0.2791519E+02  0.2949572E+01  0.0000000E+00
Ar 1004  0.1128938E+02  0.3074215E+02  0.2905228E+01  0.0000000E+00
Ar 1005  0.1112308E+02  0.2790734E+02  0.5762746E+01  0.0000000E+00
Ar 1006  0.1384480E+02  0.3060313E+02  0.5608626E+01  0.0000000E+00
Ar 1007  0.1402232E+02  0.2778596E+02  0.8260399E+01  0.0000000E+00
Ar 1008  0.1105002E+02  0.3044426E+02  0.8386783E+01  0.0000000E+00
Ar 1009  0.1097383E+02  0.2777018E+02  0.1097383E+02  0.0000000E+00
Ar 1010  0.1385273E+02  0.3080195E+02  0.1099937E+02  0.0000000E+00
Ar 1011  0.1357287E+02  0.2815408E+02  0.1357286E+02  0.0000000E+00
Ar 1012  0.1099937E+02  0.3080194E+02  0.1385272E+02  0.0000000E+00
Ar 1013  0.1102431E+02  0.2799470E+02  0.1654867E+02  0.0000000E+00
Ar 1014  0.1385807E+02  0.3085881E+02  0.1675768E+02  0.0000000E+00
Ar 1015  0.1414211E+02  0.2772171E+02  0.1947365E+02  0.0000000E+00
Ar 1016  0.1142381E+02  0.3023550E+02  0.1943097E+02  0.0000000E+00
Ar 1017  0.1121005E+02  0.2761605E+02  0.2210572E+02  0.0000000E+00
Ar 1018  0.1379318E+02  0.3038485E+02  0.2210777E+02  0.0000000E+00
Ar 1019  0.1395422E+02  0.2768882E+02  0.2470927E+02  0.0000000E+00
Ar 1020  0.1110525E+02  0.3026013E+02  0.2512524E+02  0.0000000E+00
Ar 1021  0.1136351E+02  0.2760586E+02  0.2760586E+02  0.0000000E+00
Ar 1022  0.1388879E+02  0.3036591E+02  0.2766087E+02  0.0000000E+00
Ar 1023  0.1388879E+02  0.2766087E+02  0.3036591E+02  0.0000000E+00
Ar 1024  0.1121997E+02  0.3043859E+02  0.3043860E+02  0.0000000E+00
Ar 1025  0.1121265E+02  0.2752840E+02  0.3338337E+02  0.0000000E+00
Ar 1026  0.1366092E+02  0.3007817E+02  0.3328695E+02  0.0000000E+00
Ar 1027  0.1394989E+02  0.2746426E+02  0.3622344E+02  0.0000000E+00
Ar 1028  0.1139659E+02  0.3028315E+02  0.3614396E+02  0.0000000E+00
Ar 1029  0.1152786E+02  0.2757159E+02  0.3912449E+02  0.0000000E+00
Ar 1030  0.1387106E+02  0.3076945E+02  0.3928103E+02  0.0000000E+00
Ar 1031  0.1385957E+02  0.2781701E+02  0.4200331E+02  0.0000000E+00
Ar 1032  0.1111932E+02  0.3026503E+02  0.4154824E+02  0.0000000E+00
Ar 1033  0.1111930E+02  0.2787679E+02  0.4458736E+02  0.0000000E+00
Ar 1034  0.1406999E+02  0.3059458E+02  0.4452901E+02  0.0000000E+00
Ar 1035  0.1385517E+02  0.2780299E+02  0.4734057E+02  0.0000000E+00
Ar 1036  0.1127305E+02  0.3069997E+02  0.4710506E+02  0.0000000E+00
Ar 1037  0.1105041E+02  0.2803601E+02  0.5004634E+02  0.0000000E+00
Ar 1038  0.1405324E+02  0.3067872E+02  0.5034198E+02  0.0000000E+00
Ar 1039  0.1374364E+02  0.2767431E+02  0.5286009E+02  0.0000000E+00
Ar 1040  0.1115268E+02  0.3066807E+02  0.5268996E+02  0.0000000E+00
Ar 1041  0.1094045E+02  0.3317219E+02  0.2025327E+00  0.0000000E+00
Ar 1042  0.1410615E+02  0.3597903E+02  0.5532476E+02  0.0000000E+00
Ar 1043  0.1418273E+02  0.3315384E+02  0.2872611E+01  0.0000000E+00
Ar 1044  0.1087742E+02  0.3612673E+02  0.2870263E+01  0.0000000E+00
Ar 1045  0.1138270E+02  0.3342435E+02  0.5667514E+01  0.0000000E+00
Ar 1046  0.1395996E+02  0.3620505E+02  0.5769240E+01  0.0000000E+00
Ar 1047  0.1399670E+02  0.3330126E+02  0.8315214E+01  0.0000000E+00
Ar 1048  0.1116028E+02  0.3610742E+02  0.8525591E+01  0.0000000E+00
Ar 1049  0.1121341E+02  0.3334466E+02  0.1121342E+02  0.0000000E+00
Ar 1050  0.1387192E+02  0.3627704E+02  0.1099939E+02  0.0000000E+00
Ar 1051  0.1380887E+02  0.3323997E+02  0.1380886E+02  0.0000000E+00
Ar 1052  0.1099945E+02  0.3627704E+02  0.1387188E+02  0.0000000E+00
Ar 1053  0.1117357E+02  0.3348892E+02  0.1664004E+02  0.0000000E+00
Ar 1054  0.1386460E+02  0.3622365E+02  0.1678584E+02  0.0000000E+00
Ar 1055  0.1376928E+02  0.3354649E+02  0.1951432E+02  0.0000000E+00
Ar 1056  0.1114146E+02  0.3631955E+02  0.1930113E+02  0.0000000E+00
Ar 1057  0.1118584E+02  0.3343348E+02  0.2205559E+02  0.0000000E+00
Ar 1058  0.1380844E+02  0.3626189E+02  0.2226344E+02  0.0000000E+00
Ar 1059  0.1391097E+02  0.3343854E+02  0.2469019E+02  0.0000000E+00
Ar 1060  0.1120066E+02  0.3609993E+02  0.2492887E+02  0.0000000E+00
Ar 1061  0.1121265E+02  0.3338338E+02  0.2752840E+02  0.0000000E+00
Ar 1062  0.1394990E+02  0.3622345E+02  0.2746426E+02  0.0000000E+00
Ar 1063  0.1366092E+02  0.3328695E+02  0.3007818E+02  0.0000000E+00
Ar 1064  0.1139658E+02  0.3614396E+02  0.3028315E+02  0.0000000E+00
Ar 1065  0.1150595E+02  0.3305125E+02  0.3305126E+02  0.0000000E+00
Ar 1066  0.1387749E+02  0.3635606E+02  0.3316028E+02  0.0000000E+00
Ar 1067  0.1387749E+02  0.3316028E+02  0.3635607E+02  0.0000000E+00
Ar 1068  0.1151517E+02  0.3623899E+02  0.3623899E+02  0.0000000E+00
Ar 1069  0.1135172E+02  0.3341582E+02  0.3896041E+02  0.0000000E+00
Ar 1070  0.1403919E+02  0.3608454E+02  0.3903871E+02  0.0000000E+00
Ar 1071  0.1427261E+02  0.3333015E+02  0.4189852E+02  0.0000000E+00
Ar 1072  0.1150725E+02  0.3616416E+02  0.4161005E+02  0.0000000E+00
Ar 1073  0.1104141E+02  0.3316394E+02  0.4434834E+02  0.0000000E+00
Ar 1074  0.1384412E+02  0.3603556E+02  0.4476861E+02  0.0000000E+00
Ar 1075  0.1416600E+02  0.3301197E+02  0.4718756E+02  0.0000000E+00
Ar 1076  0.1117160E+02  0.3605172E+02  0.4695310E+02  0.0000000E+00
Ar 1077  0.1131725E+02  0.3314297E+02  0.4997401E+02  0.0000000E+00
Ar 1078  0.1393340E+02  0.3588779E+02  0.4969085E+02  0.0000000E+00
Ar 1079  0.1417366E+02  0.3341113E+02  0.5275758E+02  0.0000000E+00
Ar 1080  0.1123114E+02  0.3621494E+02  0.5259292E+02  0.0000000E+00
Ar 1081  0.1105797E+02  0.3889899E+02  0.5536112E+02  0.0000000E+00
Ar 1082  0.1415384E+02  0.4150576E+02  0.4174862E+00  0.0000000E+00
Ar 1083  0.1409963E+02  0.3864764E+02  0.2746719E+01  0.0000000E+00
Ar 1084  0.1138872E+02  0.4152939E+02  0.3007984E+01  0.0000000E+00
Ar 1085  0.1119128E+02  0.3907226E+02  0.5575785E+01  0.0000000E+00
Ar 1086  0.1410701E+02  0.4160433E+02  0.5637000E+01  0.0000000E+00
Ar 1087  0.1393893E+02  0.3907001E+02  0.8443100E+01  0.0000000E+00
Ar 1088  0.1127243E+02  0.4161282E+02  0.8598207E+01  0.0000000E+00
Ar 1089  0.1127154E+02  0.3887737E+02  0.1127150E+02  0.0000000E+00
Ar 1090  0.1412429E+02  0.4127096E+02  0.1119750E+02  0.0000000E+00
Ar 1091  0.1405751E+02  0.3895917E+02  0.1405749E+02  0.0000000E+00
Ar 1092  0.1119753E+02  0.4127094E+02  0.1412428E+02  0.0000000E+00
Ar 1093  0.1114450E+02  0.3903022E+02  0.1679410E+02  0.0000000E+00
Ar 1094  0.1384412E+02  0.4135038E+02  0.1686135E+02  0.0000000E+00
Ar 1095  0.1418335E+02  0.3874915E+02  0.1946719E+02  0.0000000E+00
Ar 1096  0.1126369E+02  0.4174264E+02  0.1947826E+02  0.0000000E+00
Ar 1097  0.1096449E+02  0.3873732E+02  0.2220898E+02  0.0000000E+00
Ar 1098  0.1410778E+02  0.4191718E+02  0.2216988E+02  0.0000000E+00
Ar 1099  0.1394587E+02  0.3914327E+02  0.2486209E+02  0.0000000E+00
Ar 1100  0.1112945E+02  0.4148642E+02  0.2463751E+02  0.0000000E+00
Ar 1101  0.1152786E+02  0.3912448E+02  0.2757160E+02  0.0000000E+00
Ar 1102  0.1385957E+02  0.4200331E+02  0.2781702E+02  0.0000000E+00
Ar 1103  0.1387106E+02  0.3928103E+02  0.3076945E+02  0.0000000E+00
Ar 1104  0.1111932E+02  0.4154824E+02  0.3026503E+02  0.0000000E+00
Ar 1105  0.1135173E+02  0.3896041E+02  0.3341582E+02  0.0000000E+00
Ar 1106  0.1427260E+02  0.4189852E+02  0.3333015E+02  0.0000000E+00
Ar 1107  0.1403919E+02  0.3903870E+02  0.3608453E+02  0.0000000E+00
Ar 1108  0.1150725E+02  0.4161004E+02  0.3616416E+02  0.0000000E+00
Ar 1109  0.1128135E+02  0.3893468E+02  0.3893468E+02  0.0000000E+00
Ar 1110  0.1405957E+02  0.4151482E+02  0.3889212E+02  0.0000000E+00
Ar 1111  0.1405957E+02  0.3889212E+02  0.4151483E+02  0.0000000E+00
Ar 1112  0.1144321E+02  0.4186436E+02  0.4186437E+02  0.0000000E+00
Ar 1113  0.1128132E+02  0.3876921E+02  0.4424986E+02  0.0000000E+00
Ar 1114  0.1423814E+02  0.4184843E+02  0.4434880E+02  0.0000000E+00
Ar 1115  0.1432254E+02  0.3897404E+02  0.4712199E+02  0.0000000E+00
Ar 1116  0.1157770E+02  0.4155737E+02  0.4680230E+02  0.0000000E+00
Ar 1117  0.1145399E+02  0.3878388E+02  0.4974626E+02  0.0000000E+00
Ar 1118  0.1384019E+02  0.4167088E+02  0.5001972E+02  0.0000000E+00
Ar 1119  0.1393465E+02  0.3890963E+02  0.5288061E+02  0.0000000E+00
Ar 1120  0.1111104E+02  0.4163867E+02  0.5282176E+02  0.0000000E+00
Ar 1121  0.1122445E+02  0.4417719E+02  0.5537248E+02  0.0000000E+00
Ar 1122  0.1423789E+02  0.4735433E+02  0.4820904E+00  0.0000000E+00
Ar 1123  0.1396422E+02  0.4424999E+02  0.3301087E+01  0.0000000E+00
Ar 1124  0.1148540E+02  0.4713504E+02  0.2942926E+01  0.0000000E+00
Ar 1125  0.1112348E+02  0.4448850E+02  0.5672079E+01  0.0000000E+00
Ar 1126  0.1431332E+02  0.4702102E+02  0.5915005E+01  0.0000000E+00
Ar 1127  0.1388921E+02  0.4408056E+02  0.8625308E+01  0.0000000E+00
Ar 1128  0.1144775E+02  0.4722664E+02  0.8752300E+01  0.0000000E+00
Ar 1129  0.1157932E+02  0.4422279E+02  0.1157927E+02  0.0000000E+00
Ar 1130  0.1399426E+02  0.4714493E+02  0.1133653E+02  0.0000000E+00
Ar 1131  0.1417994E+02  0.4409827E+02  0.1417991E+02  0.0000000E+00
Ar 1132  0.1133657E+02  0.4714493E+02  0.1399426E+02  0.0000000E+00
Ar 1133  0.1118515E+02  0.4453839E+02  0.1632036E+02  0.0000000E+00
Ar 1134  0.1397080E+02  0.4730762E+02  0.1710860E+02  0.0000000E+00
Ar 1135  0.1379527E+02  0.4443134E+02  0.1928798E+02  0.0000000E+00
Ar 1136  0.1137899E+02  0.4729378E+02  0.1961290E+02  0.0000000E+00
Ar 1137  0.1129877E+02  0.4425436E+02  0.2237160E+02  0.0000000E+00
Ar 1138  0.1396088E+02  0.4695646E+02  0.2245794E+02  0.0000000E+00
Ar 1139  0.1388750E+02  0.4408328E+02  0.2500910E+02  0.0000000E+00
Ar 1140  0.1143756E+02  0.4699782E+02  0.2510700E+02  0.0000000E+00
Ar 1141  0.1111930E+02  0.4458734E+02  0.2787680E+02  0.0000000E+00
Ar 1142  0.1385517E+02  0.4734057E+02  0.2780301E+02  0.0000000E+00
Ar 1143  0.1406994E+02  0.4452904E+02  0.3059457E+02  0.0000000E+00
Ar 1144  0.1127304E+02  0.4710505E+02  0.3069994E+02  0.0000000E+00
Ar 1145  0.1104138E+02  0.4434837E+02  0.3316394E+02  0.0000000E+00
Ar 1146  0.1416597E+02  0.4718756E+02  0.3301196E+02  0.0000000E+00
Ar 1147  0.1384410E+02  0.4476862E+02  0.3603556E+02  0.0000000E+00
Ar 1148  0.1117159E+02  0.4695313E+02  0.3605166E+02  0.0000000E+00
Ar 1149  0.1128131E+02  0.4424985E+02  0.3876920E+02  0.0000000E+00
Ar 1150  0.1432255E+02  0.4712200E+02  0.3897404E+02  0.0000000E+00
Ar 1151  0.1423814E+02  0.4434880E+02  0.4184843E+02  0.0000000E+00
Ar 1152  0.1157771E+02  0.4680230E+02  0.4155738E+02  0.0000000E+00
Ar 1153  0.1143123E+02  0.4453827E+02  0.4453827E+02  0.0000000E+00
Ar 1154  0.1406816E+02  0.4712311E+02  0.4429338E+02  0.0000000E+00
Ar 1155  0.1406816E+02  0.4429337E+02  0.4712311E+02  0.0000000E+00
Ar 1156  0.1164758E+02  0.4751188E+02  0.4751188E+02  0.0000000E+00
Ar 1157  0.1137382E+02  0.4464206E+02  0.5005517E+02  0.0000000E+00
Ar 1158  0.1431099E+02  0.4696253E+02  0.4974469E+02  0.0000000E+00
Ar 1159  0.1437857E+02  0.4463614E+02  0.5306736E+02  0.0000000E+00
Ar 1160  0.1164715E+02  0.4707984E+02  0.5281832E+02  0.0000000E+00
Ar 1161  0.1120500E+02  0.4985872E+02  0.5538839E+02  0.0000000E+00
Ar 1162  0.1456020E+02  0.5301116E+02  0.5553791E+02  0.0000000E+00
Ar 1163  0.1393537E+02  0.5014589E+02  0.3098791E+01  0.0000000E+00
Ar 1164  0.1103424E+02  0.5296812E+02  0.3057350E+01  0.0000000E+00
Ar 1165  0.1113730E+02  0.5008276E+02  0.5544671E+01  0.0000000E+00
Ar 1166  0.1377529E+02  0.5275322E+02  0.5818110E+01  0.0000000E+00
Ar 1167  0.1396082E+02  0.4994258E+02  0.8541943E+01  0.0000000E+00
Ar 1168  0.1149023E+02  0.5283262E+02  0.8487498E+01  0.0000000E+00
Ar 1169  0.1115755E+02  0.4986331E+02  0.1115753E+02  0.0000000E+00
Ar 1170  0.1425451E+02  0.5300636E+02  0.1117289E+02  0.0000000E+00
Ar 1171  0.1410419E+02  0.4984978E+02  0.1410420E+02  0.0000000E+00
Ar 1172  0.1117289E+02  0.5300635E+02  0.1425451E+02  0.0000000E+00
Ar 1173  0.1129185E+02  0.5019565E+02  0.1672081E+02  0.0000000E+00
Ar 1174  0.1388478E+02  0.5296866E+02  0.1687055E+02  0.0000000E+00
Ar 1175  0.1366906E+02  0.5013842E+02  0.1952446E+02  0.0000000E+00
Ar 1176  0.1104573E+02  0.5310200E+02  0.1958542E+02  0.0000000E+00
Ar 1177  0.1123959E+02  0.4960445E+02  0.2232039E+02  0.0000000E+00
Ar 1178  0.1355236E+02  0.5270757E+02  0.2261242E+02  0.0000000E+00
Ar 1179  0.1392189E+02  0.5002343E+02  0.2502721E+02  0.0000000E+00
Ar 1180  0.1113169E+02  0.5263296E+02  0.2529814E+02  0.0000000E+00
Ar 1181  0.1105042E+02  0.5004636E+02  0.2803598E+02  0.0000000E+00
Ar 1182  0.1374366E+02  0.5286008E+02  0.2767430E+02  0.0000000E+00
Ar 1183  0.1405325E+02  0.5034198E+02  0.3067872E+02  0.0000000E+00
Ar 1184  0.1115265E+02  0.5268999E+02  0.3066806E+02  0.0000000E+00
Ar 1185  0.1131722E+02  0.4997404E+02  0.3314294E+02  0.0000000E+00
Ar 1186  0.1417363E+02  0.5275755E+02  0.3341112E+02  0.0000000E+00
Ar 1187  0.1393336E+02  0.4969086E+02  0.3588777E+02  0.0000000E+00
Ar 1188  0.1123107E+02  0.5259294E+02  0.3621490E+02  0.0000000E+00
Ar 1189  0.1145397E+02  0.4974627E+02  0.3878387E+02  0.0000000E+00
Ar 1190  0.1393458E+02  0.5288061E+02  0.3890956E+02  0.0000000E+00
Ar 1191  0.1384019E+02  0.5001972E+02  0.4167088E+02  0.0000000E+00
Ar 1192  0.1111106E+02  0.5282177E+02  0.4163870E+02  0.0000000E+00
Ar 1193  0.1137382E+02  0.5005518E+02  0.4464207E+02  0.0000000E+00
Ar 1194  0.1437861E+02  0.5306738E+02  0.4463616E+02  0.0000000E+00
Ar 1195  0.1431100E+02  0.4974469E+02  0.4696253E+02  0.0000000E+00
Ar 1196  0.1164714E+02  0.5281834E+02  0.4707983E+02  0.0000000E+00
Ar 1197  0.1167966E+02  0.4997286E+02  0.4997286E+02  0.0000000E+00
Ar 1198  0.1419904E+02  0.5281268E+02  0.5011587E+02  0.0000000E+00
Ar 1199  0.1419904E+02  0.5011588E+02  0.5281268E+02  0.0000000E+00
Ar 1200  0.1111679E+02  0.5255825E+02  0.5255825E+02  0.0000000E+00
Ar 1201  0.1857151E+02  0.5506192E+02  0.5506191E+02  0.0000000E+00
Ar 1202  0.1969353E+02  0.3679716E+01  0.2174239E+00  0.0000000E+00
Ar 1203  0.1969353E+02  0.2174449E+00  0.3679737E+01  0.0000000E+00
Ar 1204  0.1725383E+02  0.3014955E+01  0.3014942E+01  0.0000000E+00
Ar 1205  0.1675172E+02  0.5521556E+02  0.5749678E+01  0.0000000E+00
Ar 1206  0.2013972E+02  0.3017964E+01  0.5893827E+01  0.0000000E+00
Ar 1207  0.1964155E+02  0.5021601E+00  0.8425301E+01  0.0000000E+00
Ar 1208  0.1703811E+02  0.3155748E+01  0.8443551E+01  0.0000000E+00
Ar 1209  0.1676339E+02  0.4740359E+00  0.1110308E+02  0.0000000E+00
Ar 1210  0.1969506E+02  0.2870077E+01  0.1124025E+02  0.0000000E+00
Ar 1211  0.1981232E+02  0.5530031E+02  0.1408559E+02  0.0000000E+00
Ar 1212  0.1722424E+02  0.3028821E+01  0.1408218E+02  0.0000000E+00
Ar 1213  0.1665037E+02  0.4429402E+00  0.1665038E+02  0.0000000E+00
Ar 1214  0.1982893E+02  0.2947756E+01  0.1705255E+02  0.0000000E+00
Ar 1215  0.1976328E+02  0.5539082E+02  0.1976329E+02  0.0000000E+00
Ar 1216  0.1705256E+02  0.2947761E+01  0.1982893E+02  0.0000000E+00
Ar 1217  0.1707545E+02  0.3309409E+00  0.2216820E+02  0.0000000E+00
Ar 1218  0.1961591E+02  0.3124774E+01  0.2260958E+02  0.0000000E+00
Ar 1219  0.1948974E+02  0.5538769E+02  0.2492258E+02  0.0000000E+00
Ar 1220  0.1659022E+02  0.2881239E+01  0.2520890E+02  0.0000000E+00
Ar 1221  0.1631342E+02  0.5516058E+02  0.2764268E+02  0.0000000E+00
Ar 1222  0.1988059E+02  0.2956990E+01  0.2759216E+02  0.0000000E+00
Ar 1223  0.1949310E+02  0.5705524E+00  0.3044469E+02  0.0000000E+00
Ar 1224  0.1647047E+02  0.2968599E+01  0.3035949E+02  0.0000000E+00
Ar 1225  0.1745627E+02  0.4243359E+00  0.3376337E+02  0.0000000E+00
Ar 1226  0.1953816E+02  0.3095036E+01  0.3345178E+02  0.0000000E+00
Ar 1227  0.1960449E+02  0.4807142E+00  0.3654214E+02  0.0000000E+00
Ar 1228  0.1682938E+02  0.3045788E+01  0.3640963E+02  0.0000000E+00
Ar 1229  0.1671033E+02  0.5537718E+02  0.3882769E+02  0.0000000E+00
Ar 1230  0.1929136E+02  0.3320154E+01  0.3882944E+02  0.0000000E+00
Ar 1231  0.1955415E+02  0.3058301E+00  0.4151789E+02  0.0000000E+00
Ar 1232  0.1683764E+02  0.3304368E+01  0.4184634E+02  0.0000000E+00
Ar 1233  0.1704092E+02  0.5522136E+02  0.4469965E+02  0.0000000E+00
Ar 1234  0.1960586E+02  0.3152807E+01  0.4454843E+02  0.0000000E+00
Ar 1235  0.1963211E+02  0.5542200E+02  0.4740286E+02  0.0000000E+00
Ar 1236  0.1715137E+02  0.3236257E+01  0.4721722E+02  0.0000000E+00
Ar 1237  0.1682612E+02  0.5549123E+02  0.4978570E+02  0.0000000E+00
Ar 1238  0.1984003E+02  0.3101099E+01  0.5027247E+02  0.0000000E+00
Ar 1239  0.2001804E+02  0.5514586E+02  0.5218526E+02  0.0000000E+00
Ar 1240  0.1683953E+02  0.2927956E+01  0.5279786E+02  0.0000000E+00
Ar 1241  0.1675173E+02  0.5749668E+01  0.5521556E+02  0.0000000E+00
Ar 1242  0.1964155E+02  0.8425296E+01  0.5021586E+00  0.0000000E+00
Ar 1243  0.2013975E+02  0.5893810E+01  0.3017976E+01  0.0000000E+00
Ar 1244  0.1703812E+02  0.8443547E+01  0.3155756E+01  0.0000000E+00
Ar 1245  0.1693150E+02  0.5605247E+01  0.5605234E+01  0.0000000E+00
Ar 1246  0.1989489E+02  0.8630190E+01  0.5534729E+01  0.0000000E+00
Ar 1247  0.1989489E+02  0.5534727E+01  0.8630192E+01  0.0000000E+00
Ar 1248  0.1710609E+02  0.8503510E+01  0.8503508E+01  0.0000000E+00
Ar 1249  0.1704078E+02  0.5808681E+01  0.1115149E+02  0.0000000E+00
Ar 1250  0.1991409E+02  0.8439313E+01  0.1104817E+02  0.0000000E+00
Ar 1251  0.1977003E+02  0.5682012E+01  0.1410777E+02  0.0000000E+00
Ar 1252  0.1664595E+02  0.8261626E+01  0.1389148E+02  0.0000000E+00
Ar 1253  0.1695991E+02  0.5739110E+01  0.1695992E+02  0.0000000E+00
Ar 1254  0.1994512E+02  0.8421584E+01  0.1677752E+02  0.0000000E+00
Ar 1255  0.1969350E+02  0.5600646E+01  0.1969349E+02  0.0000000E+00
Ar 1256  0.1677752E+02  0.8421567E+01  0.1994512E+02  0.0000000E+00
Ar 1257  0.1660304E+02  0.5381687E+01  0.2260198E+02  0.0000000E+00
Ar 1258  0.1936128E+02  0.8160232E+01  0.2264359E+02  0.0000000E+00
Ar 1259  0.1949700E+02  0.5528219E+01  0.2530184E+02  0.0000000E+00
Ar 1260  0.1668455E+02  0.8370019E+01  0.2492125E+02  0.0000000E+00
Ar 1261  0.1653184E+02  0.5580324E+01  0.2760404E+02  0.0000000E+00
Ar 1262  0.1945632E+02  0.8597811E+01  0.2746071E+02  0.0000000E+00
Ar 1263  0.1956621E+02  0.5491608E+01  0.3020784E+02  0.0000000E+00
Ar 1264  0.1688116E+02  0.8356667E+01  0.3045734E+02  0.0000000E+00
Ar 1265  0.1692468E+02  0.5732985E+01  0.3323345E+02  0.0000000E+00
Ar 1266  0.1899753E+02  0.8687261E+01  0.3345263E+02  0.0000000E+00
Ar 1267  0.1934978E+02  0.6018512E+01  0.3606676E+02  0.0000000E+00
Ar 1268  0.1659156E+02  0.8417584E+01  0.3606685E+02  0.0000000E+00
Ar 1269  0.1656865E+02  0.5949496E+01  0.3890673E+02  0.0000000E+00
Ar 1270  0.1936703E+02  0.8411720E+01  0.3908280E+02  0.0000000E+00
Ar 1271  0.1958321E+02  0.6082276E+01  0.4187621E+02  0.0000000E+00
Ar 1272  0.1668172E+02  0.8700854E+01  0.4180948E+02  0.0000000E+00
Ar 1273  0.1666736E+02  0.5841997E+01  0.4439212E+02  0.0000000E+00
Ar 1274  0.1949279E+02  0.8821952E+01  0.4443684E+02  0.0000000E+00
Ar 1275  0.1965473E+02  0.5811921E+01  0.4739903E+02  0.0000000E+00
Ar 1276  0.1673235E+02  0.8582254E+01  0.4751789E+02  0.0000000E+00
Ar 1277  0.1684814E+02  0.5690479E+01  0.5036425E+02  0.0000000E+00
Ar 1278  0.1955092E+02  0.8647606E+01  0.4990023E+02  0.0000000E+00
Ar 1279  0.1951739E+02  0.6043562E+01  0.5283900E+02  0.0000000E+00
Ar 1280  0.1668654E+02  0.8572052E+01  0.5256020E+02  0.0000000E+00
Ar 1281  0.1676339E+02  0.1110308E+02  0.4740410E+00  0.0000000E+00
Ar 1282  0.1981232E+02  0.1408559E+02  0.5530031E+02  0.0000000E+00
Ar 1283  0.1969507E+02  0.1124025E+02  0.2870072E+01  0.0000000E+00
Ar 1284  0.1722425E+02  0.1408219E+02  0.3028807E+01  0.0000000E+00
Ar 1285  0.1704078E+02  0.1115150E+02  0.5808676E+01  0.0000000E+00
Ar 1286  0.1977003E+02  0.1410777E+02  0.5682008E+01  0.0000000E+00
Ar 1287  0.1991410E+02  0.1104817E+02  0.8439310E+01  0.0000000E+00
Ar 1288  0.1664595E+02  0.1389147E+02  0.8261629E+01  0.0000000E+00
Ar 1289  0.1732977E+02  0.1099741E+02  0.1099741E+02  0.0000000E+00
Ar 1290  0.1958266E+02  0.1375178E+02  0.1065672E+02  0.0000000E+00
Ar 1291  0.1958266E+02  0.1065672E+02  0.1375178E+02  0.0000000E+00
Ar 1292  0.1638190E+02  0.1361431E+02  0.1361431E+02  0.0000000E+00
Ar 1293  0.1656204E+02  0.1091349E+02  0.1656206E+02  0.0000000E+00
Ar 1294  0.1917538E+02  0.1336256E+02  0.1665528E+02  0.0000000E+00
Ar 1295  0.1961087E+02  0.1062219E+02  0.1961087E+02  0.0000000E+00
Ar 1296  0.1665527E+02  0.1336259E+02  0.1917537E+02  0.0000000E+00
Ar 1297  0.1638238E+02  0.1138004E+02  0.2230858E+02  0.0000000E+00
Ar 1298  0.1931199E+02  0.1378712E+02  0.2222996E+02  0.0000000E+00
Ar 1299  0.1920496E+02  0.1121904E+02  0.2512995E+02  0.0000000E+00
Ar 1300  0.1645530E+02  0.1385173E+02  0.2514337E+02  0.0000000E+00
Ar 1301  0.1654868E+02  0.1102431E+02  0.2799471E+02  0.0000000E+00
Ar 1302  0.1947365E+02  0.1414210E+02  0.2772173E+02  0.0000000E+00
Ar 1303  0.1943098E+02  0.1142379E+02  0.3023550E+02  0.0000000E+00
Ar 1304  0.1675770E+02  0.1385805E+02  0.3085884E+02  0.0000000E+00
Ar 1305  0.1664004E+02  0.1117350E+02  0.3348900E+02  0.0000000E+00
Ar 1306  0.1951433E+02  0.1376928E+02  0.3354651E+02  0.0000000E+00
Ar 1307  0.1930114E+02  0.1114145E+02  0.3631957E+02  0.0000000E+00
Ar 1308  0.1678587E+02  0.1386461E+02  0.3622365E+02  0.0000000E+00
Ar 1309  0.1679411E+02  0.1114447E+02  0.3903029E+02  0.0000000E+00
Ar 1310  0.1946721E+02  0.1418335E+02  0.3874916E+02  0.0000000E+00
Ar 1311  0.1947827E+02  0.1126366E+02  0.4174267E+02  0.0000000E+00
Ar 1312  0.1686136E+02  0.1384409E+02  0.4135038E+02  0.0000000E+00
Ar 1313  0.1632037E+02  0.1118510E+02  0.4453838E+02  0.0000000E+00
Ar 1314  0.1928799E+02  0.1379526E+02  0.4443134E+02  0.0000000E+00
Ar 1315  0.1961293E+02  0.1137898E+02  0.4729377E+02  0.0000000E+00
Ar 1316  0.1710859E+02  0.1397081E+02  0.4730759E+02  0.0000000E+00
Ar 1317  0.1672083E+02  0.1129183E+02  0.5019561E+02  0.0000000E+00
Ar 1318  0.1952449E+02  0.1366900E+02  0.5013848E+02  0.0000000E+00
Ar 1319  0.1958548E+02  0.1104528E+02  0.5310243E+02  0.0000000E+00
Ar 1320  0.1687056E+02  0.1388475E+02  0.5296866E+02  0.0000000E+00
Ar 1321  0.1665038E+02  0.1665038E+02  0.4429389E+00  0.0000000E+00
Ar 1322  0.1976328E+02  0.1976328E+02  0.5539081E+02  0.0000000E+00
Ar 1323  0.1982894E+02  0.1705256E+02  0.2947755E+01  0.0000000E+00
Ar 1324  0.1705256E+02  0.1982893E+02  0.2947761E+01  0.0000000E+00
Ar 1325  0.1695992E+02  0.1695991E+02  0.5739108E+01  0.0000000E+00
Ar 1326  0.1969349E+02  0.1969349E+02  0.5600652E+01  0.0000000E+00
Ar 1327  0.1994512E+02  0.1677751E+02  0.8421584E+01  0.0000000E+00
Ar 1328  0.1677753E+02  0.1994513E+02  0.8421579E+01  0.0000000E+00
Ar 1329  0.1656206E+02  0.1656204E+02  0.1091351E+02  0.0000000E+00
Ar 1330  0.1961087E+02  0.1961087E+02  0.1062219E+02  0.0000000E+00
Ar 1331  0.1917539E+02  0.1665528E+02  0.1336258E+02  0.0000000E+00
Ar 1332  0.1665527E+02  0.1917537E+02  0.1336259E+02  0.0000000E+00
Ar 1333  0.1633601E+02  0.1633600E+02  0.1633599E+02  0.0000000E+00
Ar 1334  0.1910512E+02  0.1910511E+02  0.1635581E+02  0.0000000E+00
Ar 1335  0.1910512E+02  0.1635580E+02  0.1910510E+02  0.0000000E+00
Ar 1336  0.1635582E+02  0.1910511E+02  0.1910511E+02  0.0000000E+00
Ar 1337  0.1679279E+02  0.1679277E+02  0.2236117E+02  0.0000000E+00
Ar 1338  0.1936971E+02  0.1936970E+02  0.2274055E+02  0.0000000E+00
Ar 1339  0.1934776E+02  0.1670828E+02  0.2514553E+02  0.0000000E+00
Ar 1340  0.1670829E+02  0.1934774E+02  0.2514555E+02  0.0000000E+00
Ar 1341  0.1654506E+02  0.1654505E+02  0.2800125E+02  0.0000000E+00
Ar 1342  0.1951519E+02  0.1951517E+02  0.2778947E+02  0.0000000E+00
Ar 1343  0.1927589E+02  0.1654593E+02  0.3088218E+02  0.0000000E+00
Ar 1344  0.1654592E+02  0.1927589E+02  0.3088218E+02  0.0000000E+00
Ar 1345  0.1653977E+02  0.1653977E+02  0.3326651E+02  0.0000000E+00
Ar 1346  0.1971274E+02  0.1971274E+02  0.3339113E+02  0.0000000E+00
Ar 1347  0.1924861E+02  0.1679047E+02  0.3601363E+02  0.0000000E+00
Ar 1348  0.1679048E+02  0.1924859E+02  0.3601362E+02  0.0000000E+00
Ar 1349  0.1675995E+02  0.1675994E+02  0.3889199E+02  0.0000000E+00
Ar 1350  0.1956693E+02  0.1956691E+02  0.3924062E+02  0.0000000E+00
Ar 1351  0.1924476E+02  0.1652855E+02  0.4158470E+02  0.0000000E+00
Ar 1352  0.1652857E+02  0.1924476E+02  0.4158469E+02  0.0000000E+00
Ar 1353  0.1686457E+02  0.1686456E+02  0.4433000E+02  0.0000000E+00
Ar 1354  0.1947383E+02  0.1947382E+02  0.4430032E+02  0.0000000E+00
Ar 1355  0.1965544E+02  0.1657973E+02  0.4704015E+02  0.0000000E+00
Ar 1356  0.1657973E+02  0.1965543E+02  0.4704015E+02  0.0000000E+00
Ar 1357  0.1678871E+02  0.1678871E+02  0.5007064E+02  0.0000000E+00
Ar 1358  0.1947693E+02  0.1947691E+02  0.4979959E+02  0.0000000E+00
Ar 1359  0.1958258E+02  0.1670107E+02  0.5283476E+02  0.0000000E+00
Ar 1360  0.1670108E+02  0.1958258E+02  0.5283477E+02  0.0000000E+00
Ar 1361  0.1707547E+02  0.2216821E+02  0.3309425E+00  0.0000000E+00
Ar 1362  0.1948975E+02  0.2492257E+02  0.5538769E+02  0.0000000E+00
Ar 1363  0.1961591E+02  0.2260958E+02  0.3124773E+01  0.0000000E+00
Ar 1364  0.1659022E+02  0.2520890E+02  0.2881244E+01  0.0000000E+00
Ar 1365  0.1660305E+02  0.2260199E+02  0.5381694E+01  0.0000000E+00
Ar 1366  0.1949700E+02  0.2530185E+02  0.5528216E+01  0.0000000E+00
Ar 1367  0.1936128E+02  0.2264359E+02  0.8160234E+01  0.0000000E+00
Ar 1368  0.1668456E+02  0.2492125E+02  0.8370032E+01  0.0000000E+00
Ar 1369  0.1638238E+02  0.2230858E+02  0.1138004E+02  0.0000000E+00
Ar 1370  0.1920496E+02  0.2512995E+02  0.1121904E+02  0.0000000E+00
Ar 1371  0.1931199E+02  0.2222996E+02  0.1378712E+02  0.0000000E+00
Ar 1372  0.1645529E+02  0.2514337E+02  0.1385173E+02  0.0000000E+00
Ar 1373  0.1679279E+02  0.2236118E+02  0.1679277E+02  0.0000000E+00
Ar 1374  0.1934775E+02  0.2514554E+02  0.1670828E+02  0.0000000E+00
Ar 1375  0.1936971E+02  0.2274055E+02  0.1936970E+02  0.0000000E+00
Ar 1376  0.1670829E+02  0.2514554E+02  0.1934775E+02  0.0000000E+00
Ar 1377  0.1668538E+02  0.2201225E+02  0.2201225E+02  0.0000000E+00
Ar 1378  0.1941457E+02  0.2486189E+02  0.2230163E+02  0.0000000E+00
Ar 1379  0.1941457E+02  0.2230162E+02  0.2486190E+02  0.0000000E+00
Ar 1380  0.1682539E+02  0.2542293E+02  0.2542293E+02  0.0000000E+00
Ar 1381  0.1658579E+02  0.2224355E+02  0.2774792E+02  0.0000000E+00
Ar 1382  0.1960183E+02  0.2466737E+02  0.2777367E+02  0.0000000E+00
Ar 1383  0.1939288E+02  0.2218344E+02  0.3055985E+02  0.0000000E+00
Ar 1384  0.1655401E+02  0.2489288E+02  0.3042478E+02  0.0000000E+00
Ar 1385  0.1650475E+02  0.2199016E+02  0.3354049E+02  0.0000000E+00
Ar 1386  0.1929705E+02  0.2520369E+02  0.3298764E+02  0.0000000E+00
Ar 1387  0.1993287E+02  0.2251285E+02  0.3608784E+02  0.0000000E+00
Ar 1388  0.1652136E+02  0.2484951E+02  0.3583690E+02  0.0000000E+00
Ar 1389  0.1677172E+02  0.2234000E+02  0.3878589E+02  0.0000000E+00
Ar 1390  0.1984084E+02  0.2522406E+02  0.3894077E+02  0.0000000E+00
Ar 1391  0.1969651E+02  0.2267311E+02  0.4169219E+02  0.0000000E+00
Ar 1392  0.1677597E+02  0.2518767E+02  0.4186826E+02  0.0000000E+00
Ar 1393  0.1663895E+02  0.2245178E+02  0.4448453E+02  0.0000000E+00
Ar 1394  0.1949085E+02  0.2517798E+02  0.4455221E+02  0.0000000E+00
Ar 1395  0.1934389E+02  0.2210271E+02  0.4730098E+02  0.0000000E+00
Ar 1396  0.1663355E+02  0.2513013E+02  0.4737194E+02  0.0000000E+00
Ar 1397  0.1661956E+02  0.2215512E+02  0.5008912E+02  0.0000000E+00
Ar 1398  0.1971771E+02  0.2516186E+02  0.5010543E+02  0.0000000E+00
Ar 1399  0.1961826E+02  0.2218509E+02  0.5248309E+02  0.0000000E+00
Ar 1400  0.1653806E+02  0.2470296E+02  0.5284704E+02  0.0000000E+00
Ar 1401  0.1631343E+02  0.2764267E+02  0.5516058E+02  0.0000000E+00
Ar 1402  0.1949309E+02  0.3044469E+02  0.5705556E+00  0.0000000E+00
Ar 1403  0.1988059E+02  0.2759216E+02  0.2956989E+01  0.0000000E+00
Ar 1404  0.1647047E+02  0.3035951E+02  0.2968591E+01  0.0000000E+00
Ar 1405  0.1653188E+02  0.2760408E+02  0.5580342E+01  0.0000000E+00
Ar 1406  0.1956620E+02  0.3020783E+02  0.5491610E+01  0.0000000E+00
Ar 1407  0.1945633E+02  0.2746071E+02  0.8597814E+01  0.0000000E+00
Ar 1408  0.1688117E+02  0.3045734E+02  0.8356659E+01  0.0000000E+00
Ar 1409  0.1654868E+02  0.2799471E+02  0.1102431E+02  0.0000000E+00
Ar 1410  0.1943098E+02  0.3023551E+02  0.1142379E+02  0.0000000E+00
Ar 1411  0.1947365E+02  0.2772173E+02  0.1414210E+02  0.0000000E+00
Ar 1412  0.1675770E+02  0.3085884E+02  0.1385805E+02  0.0000000E+00
Ar 1413  0.1654506E+02  0.2800125E+02  0.1654505E+02  0.0000000E+00
Ar 1414  0.1927590E+02  0.3088217E+02  0.1654594E+02  0.0000000E+00
Ar 1415  0.1951519E+02  0.2778947E+02  0.1951518E+02  0.0000000E+00
Ar 1416  0.1654592E+02  0.3088217E+02  0.1927590E+02  0.0000000E+00
Ar 1417  0.1658578E+02  0.2774792E+02  0.2224356E+02  0.0000000E+00
Ar 1418  0.1939288E+02  0.3055984E+02  0.2218345E+02  0.0000000E+00
Ar 1419  0.1960182E+02  0.2777366E+02  0.2466737E+02  0.0000000E+00
Ar 1420  0.1655400E+02  0.3042478E+02  0.2489288E+02  0.0000000E+00
Ar 1421  0.1658234E+02  0.2795896E+02  0.2795897E+02  0.0000000E+00
Ar 1422  0.1944040E+02  0.3029772E+02  0.2765469E+02  0.0000000E+00
Ar 1423  0.1944039E+02  0.2765468E+02  0.3029773E+02  0.0000000E+00
Ar 1424  0.1657448E+02  0.3058706E+02  0.3058705E+02  0.0000000E+00
Ar 1425  0.1644465E+02  0.2777166E+02  0.3334474E+02  0.0000000E+00
Ar 1426  0.1893767E+02  0.3070248E+02  0.3341401E+02  0.0000000E+00
Ar 1427  0.1945493E+02  0.2791732E+02  0.3615568E+02  0.0000000E+00
Ar 1428  0.1661328E+02  0.3087830E+02  0.3634125E+02  0.0000000E+00
Ar 1429  0.1680932E+02  0.2790149E+02  0.3920961E+02  0.0000000E+00
Ar 1430  0.1961950E+02  0.3064712E+02  0.3871629E+02  0.0000000E+00
Ar 1431  0.1928484E+02  0.2794081E+02  0.4194429E+02  0.0000000E+00
Ar 1432  0.1694258E+02  0.3062007E+02  0.4184941E+02  0.0000000E+00
Ar 1433  0.1670104E+02  0.2777204E+02  0.4462417E+02  0.0000000E+00
Ar 1434  0.1952050E+02  0.3070722E+02  0.4459740E+02  0.0000000E+00
Ar 1435  0.1937093E+02  0.2768483E+02  0.4739771E+02  0.0000000E+00
Ar 1436  0.1671322E+02  0.3050480E+02  0.4731336E+02  0.0000000E+00
Ar 1437  0.1671867E+02  0.2796889E+02  0.5032498E+02  0.0000000E+00
Ar 1438  0.1959197E+02  0.3068066E+02  0.4995803E+02  0.0000000E+00
Ar 1439  0.1967548E+02  0.2805336E+02  0.5258397E+02  0.0000000E+00
Ar 1440  0.1700026E+02  0.3092539E+02  0.5264715E+02  0.0000000E+00
Ar 1441  0.1745632E+02  0.3376340E+02  0.4243324E+00  0.0000000E+00
Ar 1442  0.1960450E+02  0.3654213E+02  0.4807148E+00  0.0000000E+00
Ar 1443  0.1953816E+02  0.3345177E+02  0.3095036E+01  0.0000000E+00
Ar 1444  0.1682938E+02  0.3640963E+02  0.3045796E+01  0.0000000E+00
Ar 1445  0.1692467E+02  0.3323345E+02  0.5732981E+01  0.0000000E+00
Ar 1446  0.1934978E+02  0.3606676E+02  0.6018504E+01  0.0000000E+00
Ar 1447  0.1899753E+02  0.3345262E+02  0.8687260E+01  0.0000000E+00
Ar 1448  0.1659156E+02  0.3606685E+02  0.8417579E+01  0.0000000E+00
Ar 1449  0.1664004E+02  0.3348899E+02  0.1117350E+02  0.0000000E+00
Ar 1450  0.1930113E+02  0.3631957E+02  0.1114145E+02  0.0000000E+00
Ar 1451  0.1951433E+02  0.3354650E+02  0.1376928E+02  0.0000000E+00
Ar 1452  0.1678586E+02  0.3622365E+02  0.1386461E+02  0.0000000E+00
Ar 1453  0.1653977E+02  0.3326650E+02  0.1653977E+02  0.0000000E+00
Ar 1454  0.1924861E+02  0.3601363E+02  0.1679048E+02  0.0000000E+00
Ar 1455  0.1971274E+02  0.3339112E+02  0.1971274E+02  0.0000000E+00
Ar 1456  0.1679048E+02  0.3601362E+02  0.1924860E+02  0.0000000E+00
Ar 1457  0.1650475E+02  0.3354049E+02  0.2199017E+02  0.0000000E+00
Ar 1458  0.1993286E+02  0.3608784E+02  0.2251285E+02  0.0000000E+00
Ar 1459  0.1929704E+02  0.3298764E+02  0.2520369E+02  0.0000000E+00
Ar 1460  0.1652136E+02  0.3583690E+02  0.2484951E+02  0.0000000E+00
Ar 1461  0.1644465E+02  0.3334475E+02  0.2777166E+02  0.0000000E+00
Ar 1462  0.1945491E+02  0.3615569E+02  0.2791732E+02  0.0000000E+00
Ar 1463  0.1893767E+02  0.3341401E+02  0.3070249E+02  0.0000000E+00
Ar 1464  0.1661328E+02  0.3634125E+02  0.3087830E+02  0.0000000E+00
Ar 1465  0.1592369E+02  0.3332444E+02  0.3332444E+02  0.0000000E+00
Ar 1466  0.1942407E+02  0.3627816E+02  0.3323048E+02  0.0000000E+00
Ar 1467  0.1942408E+02  0.3323048E+02  0.3627817E+02  0.0000000E+00
Ar 1468  0.1723654E+02  0.3628314E+02  0.3628315E+02  0.0000000E+00
Ar 1469  0.1689532E+02  0.3313225E+02  0.3916271E+02  0.0000000E+00
Ar 1470  0.1959986E+02  0.3625603E+02  0.3918991E+02  0.0000000E+00
Ar 1471  0.1963011E+02  0.3354211E+02  0.4207162E+02  0.0000000E+00
Ar 1472  0.1667230E+02  0.3611421E+02  0.4162833E+02  0.0000000E+00
Ar 1473  0.1687481E+02  0.3354565E+02  0.4465233E+02  0.0000000E+00
Ar 1474  0.1943753E+02  0.3632117E+02  0.4441154E+02  0.0000000E+00
Ar 1475  0.1955946E+02  0.3351529E+02  0.4730071E+02  0.0000000E+00
Ar 1476  0.1683094E+02  0.3587090E+02  0.4719513E+02  0.0000000E+00
Ar 1477  0.1683307E+02  0.3331090E+02  0.4998240E+02  0.0000000E+00
Ar 1478  0.1954965E+02  0.3626551E+02  0.4998240E+02  0.0000000E+00
Ar 1479  0.1974477E+02  0.3343961E+02  0.5299991E+02  0.0000000E+00
Ar 1480  0.1675176E+02  0.3602381E+02  0.5259083E+02  0.0000000E+00
Ar 1481  0.1671032E+02  0.3882769E+02  0.5537720E+02  0.0000000E+00
Ar 1482  0.1955408E+02  0.4151782E+02  0.3058281E+00  0.0000000E+00
Ar 1483  0.1929136E+02  0.3882943E+02  0.3320145E+01  0.0000000E+00
Ar 1484  0.1683764E+02  0.4184633E+02  0.3304356E+01  0.0000000E+00
Ar 1485  0.1656864E+02  0.3890672E+02  0.5949491E+01  0.0000000E+00
Ar 1486  0.1958321E+02  0.4187621E+02  0.6082269E+01  0.0000000E+00
Ar 1487  0.1936702E+02  0.3908281E+02  0.8411716E+01  0.0000000E+00
Ar 1488  0.1668171E+02  0.4180948E+02  0.8700850E+01  0.0000000E+00
Ar 1489  0.1679411E+02  0.3903028E+02  0.1114447E+02  0.0000000E+00
Ar 1490  0.1947827E+02  0.4174267E+02  0.1126367E+02  0.0000000E+00
Ar 1491  0.1946721E+02  0.3874916E+02  0.1418335E+02  0.0000000E+00
Ar 1492  0.1686136E+02  0.4135039E+02  0.1384410E+02  0.0000000E+00
Ar 1493  0.1675995E+02  0.3889199E+02  0.1675994E+02  0.0000000E+00
Ar 1494  0.1924476E+02  0.4158469E+02  0.1652856E+02  0.0000000E+00
Ar 1495  0.1956693E+02  0.3924063E+02  0.1956691E+02  0.0000000E+00
Ar 1496  0.1652857E+02  0.4158468E+02  0.1924475E+02  0.0000000E+00
Ar 1497  0.1677172E+02  0.3878589E+02  0.2233999E+02  0.0000000E+00
Ar 1498  0.1969651E+02  0.4169219E+02  0.2267311E+02  0.0000000E+00
Ar 1499  0.1984084E+02  0.3894077E+02  0.2522406E+02  0.0000000E+00
Ar 1500  0.1677597E+02  0.4186826E+02  0.2518767E+02  0.0000000E+00
Ar 1501  0.1680932E+02  0.3920961E+02  0.2790149E+02  0.0000000E+00
Ar 1502  0.1928484E+02  0.4194429E+02  0.2794081E+02  0.0000000E+00
Ar 1503  0.1961951E+02  0.3871630E+02  0.3064713E+02  0.0000000E+00
Ar 1504  0.1694257E+02  0.4184941E+02  0.3062006E+02  0.0000000E+00
Ar 1505  0.1689533E+02  0.3916271E+02  0.3313225E+02  0.0000000E+00
Ar 1506  0.1963010E+02  0.4207161E+02  0.3354211E+02  0.0000000E+00
Ar 1507  0.1959985E+02  0.3918991E+02  0.3625603E+02  0.0000000E+00
Ar 1508  0.1667229E+02  0.4162832E+02  0.3611421E+02  0.0000000E+00
Ar 1509  0.1639252E+02  0.3872688E+02  0.3872688E+02  0.0000000E+00
Ar 1510  0.1948568E+02  0.4185053E+02  0.3903454E+02  0.0000000E+00
Ar 1511  0.1948568E+02  0.3903454E+02  0.4185054E+02  0.0000000E+00
Ar 1512  0.1688946E+02  0.4139197E+02  0.4139197E+02  0.0000000E+00
Ar 1513  0.1653934E+02  0.3902219E+02  0.4431068E+02  0.0000000E+00
Ar 1514  0.1960993E+02  0.4139130E+02  0.4442534E+02  0.0000000E+00
Ar 1515  0.1945126E+02  0.3870642E+02  0.4712191E+02  0.0000000E+00
Ar 1516  0.1711657E+02  0.4159149E+02  0.4738236E+02  0.0000000E+00
Ar 1517  0.1687518E+02  0.3891704E+02  0.5024060E+02  0.0000000E+00
Ar 1518  0.1955318E+02  0.4139749E+02  0.5016238E+02  0.0000000E+00
Ar 1519  0.1984013E+02  0.3900254E+02  0.5301609E+02  0.0000000E+00
Ar 1520  0.1698387E+02  0.4179348E+02  0.5317018E+02  0.0000000E+00
Ar 1521  0.1704076E+02  0.4469947E+02  0.5522139E+02  0.0000000E+00
Ar 1522  0.1963188E+02  0.4740283E+02  0.5542196E+02  0.0000000E+00
Ar 1523  0.1960583E+02  0.4454842E+02  0.3152834E+01  0.0000000E+00
Ar 1524  0.1715136E+02  0.4721723E+02  0.3236249E+01  0.0000000E+00
Ar 1525  0.1666736E+02  0.4439211E+02  0.5841990E+01  0.0000000E+00
Ar 1526  0.1965470E+02  0.4739901E+02  0.5811939E+01  0.0000000E+00
Ar 1527  0.1949278E+02  0.4443684E+02  0.8821952E+01  0.0000000E+00
Ar 1528  0.1673234E+02  0.4751787E+02  0.8582260E+01  0.0000000E+00
Ar 1529  0.1632038E+02  0.4453838E+02  0.1118510E+02  0.0000000E+00
Ar 1530  0.1961293E+02  0.4729376E+02  0.1137899E+02  0.0000000E+00
Ar 1531  0.1928799E+02  0.4443134E+02  0.1379526E+02  0.0000000E+00
Ar 1532  0.1710859E+02  0.4730759E+02  0.1397082E+02  0.0000000E+00
Ar 1533  0.1686457E+02  0.4433000E+02  0.1686456E+02  0.0000000E+00
Ar 1534  0.1965544E+02  0.4704015E+02  0.1657973E+02  0.0000000E+00
Ar 1535  0.1947383E+02  0.4430031E+02  0.1947382E+02  0.0000000E+00
Ar 1536  0.1657974E+02  0.4704016E+02  0.1965543E+02  0.0000000E+00
Ar 1537  0.1663895E+02  0.4448453E+02  0.2245178E+02  0.0000000E+00
Ar 1538  0.1934388E+02  0.4730098E+02  0.2210271E+02  0.0000000E+00
Ar 1539  0.1949085E+02  0.4455221E+02  0.2517798E+02  0.0000000E+00
Ar 1540  0.1663354E+02  0.4737194E+02  0.2513014E+02  0.0000000E+00
Ar 1541  0.1670104E+02  0.4462418E+02  0.2777205E+02  0.0000000E+00
Ar 1542  0.1937092E+02  0.4739771E+02  0.2768483E+02  0.0000000E+00
Ar 1543  0.1952051E+02  0.4459739E+02  0.3070721E+02  0.0000000E+00
Ar 1544  0.1671322E+02  0.4731336E+02  0.3050482E+02  0.0000000E+00
Ar 1545  0.1687481E+02  0.4465233E+02  0.3354565E+02  0.0000000E+00
Ar 1546  0.1955946E+02  0.4730070E+02  0.3351529E+02  0.0000000E+00
Ar 1547  0.1943753E+02  0.4441153E+02  0.3632117E+02  0.0000000E+00
Ar 1548  0.1683093E+02  0.4719513E+02  0.3587089E+02  0.0000000E+00
Ar 1549  0.1653934E+02  0.4431068E+02  0.3902220E+02  0.0000000E+00
Ar 1550  0.1945126E+02  0.4712191E+02  0.3870641E+02  0.0000000E+00
Ar 1551  0.1960994E+02  0.4442533E+02  0.4139130E+02  0.0000000E+00
Ar 1552  0.1711657E+02  0.4738236E+02  0.4159148E+02  0.0000000E+00
Ar 1553  0.1732336E+02  0.4426663E+02  0.4426662E+02  0.0000000E+00
Ar 1554  0.1962917E+02  0.4710522E+02  0.4430735E+02  0.0000000E+00
Ar 1555  0.1962918E+02  0.4430735E+02  0.4710523E+02  0.0000000E+00
Ar 1556  0.1697238E+02  0.4739284E+02  0.4739286E+02  0.0000000E+00
Ar 1557  0.1687838E+02  0.4412580E+02  0.4995708E+02  0.0000000E+00
Ar 1558  0.1983340E+02  0.4692024E+02  0.4979188E+02  0.0000000E+00
Ar 1559  0.1976662E+02  0.4454344E+02  0.5265892E+02  0.0000000E+00
Ar 1560  0.1692000E+02  0.4747443E+02  0.5234489E+02  0.0000000E+00
Ar 1561  0.1682610E+02  0.4978570E+02  0.5549124E+02  0.0000000E+00
Ar 1562  0.2001794E+02  0.5218519E+02  0.5514604E+02  0.0000000E+00
Ar 1563  0.1983992E+02  0.5027243E+02  0.3101166E+01  0.0000000E+00
Ar 1564  0.1683953E+02  0.5279786E+02  0.2927961E+01  0.0000000E+00
Ar 1565  0.1684815E+02  0.5036425E+02  0.5690485E+01  0.0000000E+00
Ar 1566  0.1951736E+02  0.5283903E+02  0.6043580E+01  0.0000000E+00
Ar 1567  0.1955087E+02  0.4990023E+02  0.8647660E+01  0.0000000E+00
Ar 1568  0.1668653E+02  0.5256021E+02  0.8572057E+01  0.0000000E+00
Ar 1569  0.1672081E+02  0.5019561E+02  0.1129184E+02  0.0000000E+00
Ar 1570  0.1958547E+02  0.5310243E+02  0.1104528E+02  0.0000000E+00
Ar 1571  0.1952448E+02  0.5013847E+02  0.1366900E+02  0.0000000E+00
Ar 1572  0.1687056E+02  0.5296866E+02  0.1388475E+02  0.0000000E+00
Ar 1573  0.1678872E+02  0.5007064E+02  0.1678871E+02  0.0000000E+00
Ar 1574  0.1958260E+02  0.5283477E+02  0.1670107E+02  0.0000000E+00
Ar 1575  0.1947693E+02  0.4979959E+02  0.1947691E+02  0.0000000E+00
Ar 1576  0.1670107E+02  0.5283478E+02  0.1958259E+02  0.0000000E+00
Ar 1577  0.1661955E+02  0.5008912E+02  0.2215512E+02  0.0000000E+00
Ar 1578  0.1961826E+02  0.5248308E+02  0.2218510E+02  0.0000000E+00
Ar 1579  0.1971770E+02  0.5010543E+02  0.2516186E+02  0.0000000E+00
Ar 1580  0.1653806E+02  0.5284704E+02  0.2470296E+02  0.0000000E+00
Ar 1581  0.1671867E+02  0.5032497E+02  0.2796889E+02  0.0000000E+00
Ar 1582  0.1967548E+02  0.5258397E+02  0.2805336E+02  0.0000000E+00
Ar 1583  0.1959198E+02  0.4995802E+02  0.3068066E+02  0.0000000E+00
Ar 1584  0.1700027E+02  0.5264713E+02  0.3092538E+02  0.0000000E+00
Ar 1585  0.1683306E+02  0.4998240E+02  0.3331090E+02  0.0000000E+00
Ar 1586  0.1974476E+02  0.5299992E+02  0.3343960E+02  0.0000000E+00
Ar 1587  0.1954965E+02  0.4998240E+02  0.3626551E+02  0.0000000E+00
Ar 1588  0.1675175E+02  0.5259083E+02  0.3602378E+02  0.0000000E+00
Ar 1589  0.1687519E+02  0.5024059E+02  0.3891705E+02  0.0000000E+00
Ar 1590  0.1984012E+02  0.5301610E+02  0.3900254E+02  0.0000000E+00
Ar 1591  0.1955319E+02  0.5016237E+02  0.4139749E+02  0.0000000E+00
Ar 1592  0.1698388E+02  0.5317019E+02  0.4179350E+02  0.0000000E+00
Ar 1593  0.1687839E+02  0.4995708E+02  0.4412580E+02  0.0000000E+00
Ar 1594  0.1976667E+02  0.5265892E+02  0.4454346E+02  0.0000000E+00
Ar 1595  0.1983330E+02  0.4979178E+02  0.4692023E+02  0.0000000E+00
Ar 1596  0.1692003E+02  0.5234489E+02  0.4747445E+02  0.0000000E+00
Ar 1597  0.1650188E+02  0.4971746E+02  0.4971747E+02  0.0000000E+00
Ar 1598  0.1966103E+02  0.5242063E+02  0.4994202E+02  0.0000000E+00
Ar 1599  0.1966102E+02  0.4994193E+02  0.5242071E+02  0.0000000E+00
Ar 1600  0.1690393E+02  0.5278818E+02  0.5278819E+02  0.0000000E+00
Ar 1601  0.2265615E+02  0.3358151E+00  0.3358291E+00  0.0000000E+00
Ar 1602  0.2554449E+02  0.3210539E+01  0.5519511E+02  0.0000000E+00
Ar 1603  0.2554407E+02  0.5519472E+02  0.3210701E+01  0.0000000E+00
Ar 1604  0.2275333E+02  0.3159559E+01  0.3159589E+01  0.0000000E+00
Ar 1605  0.2253131E+02  0.5526930E+02  0.5359943E+01  0.0000000E+00
Ar 1606  0.2537196E+02  0.2494681E+01  0.5869058E+01  0.0000000E+00
Ar 1607  0.2527778E+02  0.5537136E+02  0.8614419E+01  0.0000000E+00
Ar 1608  0.2263612E+02  0.2786184E+01  0.8495372E+01  0.0000000E+00
Ar 1609  0.2229320E+02  0.2269648E+00  0.1091254E+02  0.0000000E+00
Ar 1610  0.2507007E+02  0.2958909E+01  0.1127518E+02  0.0000000E+00
Ar 1611  0.2495201E+02  0.2700695E+00  0.1382480E+02  0.0000000E+00
Ar 1612  0.2233424E+02  0.2770266E+01  0.1392780E+02  0.0000000E+00
Ar 1613  0.2216821E+02  0.3309360E+00  0.1707547E+02  0.0000000E+00
Ar 1614  0.2520890E+02  0.2881238E+01  0.1659021E+02  0.0000000E+00
Ar 1615  0.2492259E+02  0.5538769E+02  0.1948974E+02  0.0000000E+00
Ar 1616  0.2260958E+02  0.3124777E+01  0.1961590E+02  0.0000000E+00
Ar 1617  0.2246879E+02  0.4147423E+00  0.2246878E+02  0.0000000E+00
Ar 1618  0.2503774E+02  0.3005842E+01  0.2249692E+02  0.0000000E+00
Ar 1619  0.2501679E+02  0.5529235E+02  0.2501678E+02  0.0000000E+00
Ar 1620  0.2249692E+02  0.3005847E+01  0.2503773E+02  0.0000000E+00
Ar 1621  0.2231458E+02  0.3011697E+00  0.2773820E+02  0.0000000E+00
Ar 1622  0.2490390E+02  0.3032793E+01  0.2799489E+02  0.0000000E+00
Ar 1623  0.2497974E+02  0.5547700E+02  0.3089604E+02  0.0000000E+00
Ar 1624  0.2215628E+02  0.2998208E+01  0.3068004E+02  0.0000000E+00
Ar 1625  0.2217587E+02  0.3244382E+00  0.3342313E+02  0.0000000E+00
Ar 1626  0.2533553E+02  0.3268751E+01  0.3352390E+02  0.0000000E+00
Ar 1627  0.2483871E+02  0.5194143E+00  0.3639025E+02  0.0000000E+00
Ar 1628  0.2229166E+02  0.3321101E+01  0.3587754E+02  0.0000000E+00
Ar 1629  0.2245578E+02  0.3951702E+00  0.3895765E+02  0.0000000E+00
Ar 1630  0.2517376E+02  0.3408877E+01  0.3884323E+02  0.0000000E+00
Ar 1631  0.2521804E+02  0.3313780E+00  0.4119725E+02  0.0000000E+00
Ar 1632  0.2239668E+02  0.3106970E+01  0.4164718E+02  0.0000000E+00
Ar 1633  0.2205509E+02  0.4060250E+00  0.4425429E+02  0.0000000E+00
Ar 1634  0.2528816E+02  0.2921174E+01  0.4422716E+02  0.0000000E+00
Ar 1635  0.2507502E+02  0.5546161E+02  0.4714264E+02  0.0000000E+00
Ar 1636  0.2237680E+02  0.2841647E+01  0.4733361E+02  0.0000000E+00
Ar 1637  0.2262270E+02  0.5523035E+02  0.4987210E+02  0.0000000E+00
Ar 1638  0.2530757E+02  0.2904205E+01  0.4974712E+02  0.0000000E+00
Ar 1639  0.2545560E+02  0.5538148E+02  0.5274414E+02  0.0000000E+00
Ar 1640  0.2252501E+02  0.2676979E+01  0.5279051E+02  0.0000000E+00
Ar 1641  0.2253127E+02  0.5359986E+01  0.5526929E+02  0.0000000E+00
Ar 1642  0.2527760E+02  0.8614528E+01  0.5537140E+02  0.0000000E+00
Ar 1643  0.2537209E+02  0.5868874E+01  0.2494801E+01  0.0000000E+00
Ar 1644  0.2263610E+02  0.8495393E+01  0.2786207E+01  0.0000000E+00
Ar 1645  0.2292827E+02  0.5959645E+01  0.5959665E+01  0.0000000E+00
Ar 1646  0.2535474E+02  0.8538179E+01  0.5498197E+01  0.0000000E+00
Ar 1647  0.2535477E+02  0.5498177E+01  0.8538162E+01  0.0000000E+00
Ar 1648  0.2276066E+02  0.8430034E+01  0.8430036E+01  0.0000000E+00
Ar 1649  0.2259822E+02  0.5814832E+01  0.1091291E+02  0.0000000E+00
Ar 1650  0.2510408E+02  0.8442936E+01  0.1109034E+02  0.0000000E+00
Ar 1651  0.2490379E+02  0.5480224E+01  0.1388525E+02  0.0000000E+00
Ar 1652  0.2239789E+02  0.8246519E+01  0.1396855E+02  0.0000000E+00
Ar 1653  0.2260200E+02  0.5381693E+01  0.1660305E+02  0.0000000E+00
Ar 1654  0.2492127E+02  0.8370036E+01  0.1668455E+02  0.0000000E+00
Ar 1655  0.2530185E+02  0.5528203E+01  0.1949700E+02  0.0000000E+00
Ar 1656  0.2264360E+02  0.8160227E+01  0.1936126E+02  0.0000000E+00
Ar 1657  0.2232476E+02  0.5976656E+01  0.2232476E+02  0.0000000E+00
Ar 1658  0.2496510E+02  0.8366535E+01  0.2217497E+02  0.0000000E+00
Ar 1659  0.2494725E+02  0.5828282E+01  0.2494724E+02  0.0000000E+00
Ar 1660  0.2217498E+02  0.8366541E+01  0.2496510E+02  0.0000000E+00
Ar 1661  0.2220636E+02  0.5722299E+01  0.2774403E+02  0.0000000E+00
Ar 1662  0.2486807E+02  0.8480165E+01  0.2742155E+02  0.0000000E+00
Ar 1663  0.2488541E+02  0.5904130E+01  0.3020910E+02  0.0000000E+00
Ar 1664  0.2178786E+02  0.8583865E+01  0.3052661E+02  0.0000000E+00
Ar 1665  0.2215489E+02  0.6020441E+01  0.3311095E+02  0.0000000E+00
Ar 1666  0.2494306E+02  0.8793150E+01  0.3315540E+02  0.0000000E+00
Ar 1667  0.2492952E+02  0.5936664E+01  0.3614535E+02  0.0000000E+00
Ar 1668  0.2214991E+02  0.8639454E+01  0.3610696E+02  0.0000000E+00
Ar 1669  0.2228319E+02  0.5931878E+01  0.3907076E+02  0.0000000E+00
Ar 1670  0.2494439E+02  0.8534675E+01  0.3889065E+02  0.0000000E+00
Ar 1671  0.2507000E+02  0.5801597E+01  0.4149515E+02  0.0000000E+00
Ar 1672  0.2217905E+02  0.8655051E+01  0.4175202E+02  0.0000000E+00
Ar 1673  0.2218978E+02  0.5852199E+01  0.4435785E+02  0.0000000E+00
Ar 1674  0.2490708E+02  0.8349544E+01  0.4428489E+02  0.0000000E+00
Ar 1675  0.2448817E+02  0.5905815E+01  0.4731762E+02  0.0000000E+00
Ar 1676  0.2208114E+02  0.8629737E+01  0.4702447E+02  0.0000000E+00
Ar 1677  0.2220945E+02  0.5801431E+01  0.5016318E+02  0.0000000E+00
Ar 1678  0.2514039E+02  0.8483103E+01  0.4996088E+02  0.0000000E+00
Ar 1679  0.2508497E+02  0.5740374E+01  0.5250830E+02  0.0000000E+00
Ar 1680  0.2257625E+02  0.8672659E+01  0.5259494E+02  0.0000000E+00
Ar 1681  0.2229318E+02  0.1091256E+02  0.2269545E+00  0.0000000E+00
Ar 1682  0.2495202E+02  0.1382478E+02  0.2700720E+00  0.0000000E+00
Ar 1683  0.2507008E+02  0.1127518E+02  0.2958901E+01  0.0000000E+00
Ar 1684  0.2233424E+02  0.1392780E+02  0.2770265E+01  0.0000000E+00
Ar 1685  0.2259822E+02  0.1091291E+02  0.5814835E+01  0.0000000E+00
Ar 1686  0.2490379E+02  0.1388524E+02  0.5480226E+01  0.0000000E+00
Ar 1687  0.2510408E+02  0.1109034E+02  0.8442939E+01  0.0000000E+00
Ar 1688  0.2239789E+02  0.1396855E+02  0.8246522E+01  0.0000000E+00
Ar 1689  0.2272424E+02  0.1121667E+02  0.1121667E+02  0.0000000E+00
Ar 1690  0.2498779E+02  0.1388848E+02  0.1123170E+02  0.0000000E+00
Ar 1691  0.2498779E+02  0.1123170E+02  0.1388849E+02  0.0000000E+00
Ar 1692  0.2195263E+02  0.1397311E+02  0.1397311E+02  0.0000000E+00
Ar 1693  0.2230859E+02  0.1138004E+02  0.1638238E+02  0.0000000E+00
Ar 1694  0.2514338E+02  0.1385175E+02  0.1645530E+02  0.0000000E+00
Ar 1695  0.2512996E+02  0.1121904E+02  0.1920495E+02  0.0000000E+00
Ar 1696  0.2222997E+02  0.1378713E+02  0.1931196E+02  0.0000000E+00
Ar 1697  0.2252160E+02  0.1100217E+02  0.2252158E+02  0.0000000E+00
Ar 1698  0.2504399E+02  0.1385196E+02  0.2185978E+02  0.0000000E+00
Ar 1699  0.2502595E+02  0.1144117E+02  0.2502593E+02  0.0000000E+00
Ar 1700  0.2185979E+02  0.1385194E+02  0.2504400E+02  0.0000000E+00
Ar 1701  0.2210573E+02  0.1121006E+02  0.2761605E+02  0.0000000E+00
Ar 1702  0.2470928E+02  0.1395421E+02  0.2768882E+02  0.0000000E+00
Ar 1703  0.2512525E+02  0.1110526E+02  0.3026014E+02  0.0000000E+00
Ar 1704  0.2210778E+02  0.1379317E+02  0.3038487E+02  0.0000000E+00
Ar 1705  0.2205559E+02  0.1118584E+02  0.3343349E+02  0.0000000E+00
Ar 1706  0.2469021E+02  0.1391096E+02  0.3343856E+02  0.0000000E+00
Ar 1707  0.2492887E+02  0.1120064E+02  0.3609994E+02  0.0000000E+00
Ar 1708  0.2226346E+02  0.1380844E+02  0.3626189E+02  0.0000000E+00
Ar 1709  0.2220896E+02  0.1096446E+02  0.3873734E+02  0.0000000E+00
Ar 1710  0.2486211E+02  0.1394585E+02  0.3914328E+02  0.0000000E+00
Ar 1711  0.2463740E+02  0.1112930E+02  0.4148644E+02  0.0000000E+00
Ar 1712  0.2216988E+02  0.1410777E+02  0.4191717E+02  0.0000000E+00
Ar 1713  0.2237160E+02  0.1129877E+02  0.4425430E+02  0.0000000E+00
Ar 1714  0.2500910E+02  0.1388750E+02  0.4408328E+02  0.0000000E+00
Ar 1715  0.2510697E+02  0.1143757E+02  0.4699780E+02  0.0000000E+00
Ar 1716  0.2245796E+02  0.1396086E+02  0.4695646E+02  0.0000000E+00
Ar 1717  0.2232047E+02  0.1123962E+02  0.4960453E+02  0.0000000E+00
Ar 1718  0.2502721E+02  0.1392189E+02  0.5002343E+02  0.0000000E+00
Ar 1719  0.2529813E+02  0.1113165E+02  0.5263296E+02  0.0000000E+00
Ar 1720  0.2261243E+02  0.1355232E+02  0.5270759E+02  0.0000000E+00
Ar 1721  0.2216821E+02  0.1707547E+02  0.3309283E+00  0.0000000E+00
Ar 1722  0.2492259E+02  0.1948974E+02  0.5538769E+02  0.0000000E+00
Ar 1723  0.2520891E+02  0.1659021E+02  0.2881239E+01  0.0000000E+00
Ar 1724  0.2260958E+02  0.1961590E+02  0.3124782E+01  0.0000000E+00
Ar 1725  0.2260200E+02  0.1660305E+02  0.5381694E+01  0.0000000E+00
Ar 1726  0.2530185E+02  0.1949699E+02  0.5528207E+01  0.0000000E+00
Ar 1727  0.2492126E+02  0.1668455E+02  0.8370041E+01  0.0000000E+00
Ar 1728  0.2264360E+02  0.1936126E+02  0.8160229E+01  0.0000000E+00
Ar 1729  0.2230859E+02  0.1638238E+02  0.1138005E+02  0.0000000E+00
Ar 1730  0.2512996E+02  0.1920495E+02  0.1121904E+02  0.0000000E+00
Ar 1731  0.2514338E+02  0.1645529E+02  0.1385175E+02  0.0000000E+00
Ar 1732  0.2222997E+02  0.1931198E+02  0.1378712E+02  0.0000000E+00
Ar 1733  0.2236121E+02  0.1679278E+02  0.1679278E+02  0.0000000E+00
Ar 1734  0.2514555E+02  0.1934774E+02  0.1670829E+02  0.0000000E+00
Ar 1735  0.2514555E+02  0.1670828E+02  0.1934775E+02  0.0000000E+00
Ar 1736  0.2274054E+02  0.1936970E+02  0.1936970E+02  0.0000000E+00
Ar 1737  0.2201225E+02  0.1668537E+02  0.2201225E+02  0.0000000E+00
Ar 1738  0.2486190E+02  0.1941455E+02  0.2230162E+02  0.0000000E+00
Ar 1739  0.2542294E+02  0.1682538E+02  0.2542293E+02  0.0000000E+00
Ar 1740  0.2230163E+02  0.1941456E+02  0.2486190E+02  0.0000000E+00
Ar 1741  0.2224357E+02  0.1658577E+02  0.2774793E+02  0.0000000E+00
Ar 1742  0.2466737E+02  0.1960182E+02  0.2777367E+02  0.0000000E+00
Ar 1743  0.2489289E+02  0.1655400E+02  0.3042477E+02  0.0000000E+00
Ar 1744  0.2218345E+02  0.1939287E+02  0.3055985E+02  0.0000000E+00
Ar 1745  0.2199018E+02  0.1650475E+02  0.3354050E+02  0.0000000E+00
Ar 1746  0.2520371E+02  0.1929704E+02  0.3298763E+02  0.0000000E+00
Ar 1747  0.2484954E+02  0.1652136E+02  0.3583691E+02  0.0000000E+00
Ar 1748  0.2251285E+02  0.1993285E+02  0.3608785E+02  0.0000000E+00
Ar 1749  0.2234001E+02  0.1677172E+02  0.3878588E+02  0.0000000E+00
Ar 1750  0.2522407E+02  0.1984084E+02  0.3894076E+02  0.0000000E+00
Ar 1751  0.2518769E+02  0.1677596E+02  0.4186825E+02  0.0000000E+00
Ar 1752  0.2267313E+02  0.1969651E+02  0.4169219E+02  0.0000000E+00
Ar 1753  0.2245179E+02  0.1663894E+02  0.4448452E+02  0.0000000E+00
Ar 1754  0.2517800E+02  0.1949083E+02  0.4455222E+02  0.0000000E+00
Ar 1755  0.2513014E+02  0.1663354E+02  0.4737195E+02  0.0000000E+00
Ar 1756  0.2210273E+02  0.1934387E+02  0.4730098E+02  0.0000000E+00
Ar 1757  0.2215514E+02  0.1661955E+02  0.5008912E+02  0.0000000E+00
Ar 1758  0.2516188E+02  0.1971770E+02  0.5010544E+02  0.0000000E+00
Ar 1759  0.2470299E+02  0.1653805E+02  0.5284704E+02  0.0000000E+00
Ar 1760  0.2218512E+02  0.1961823E+02  0.5248309E+02  0.0000000E+00
Ar 1761  0.2246879E+02  0.2246878E+02  0.4147443E+00  0.0000000E+00
Ar 1762  0.2501679E+02  0.2501677E+02  0.5529236E+02  0.0000000E+00
Ar 1763  0.2503773E+02  0.2249692E+02  0.3005843E+01  0.0000000E+00
Ar 1764  0.2249691E+02  0.2503772E+02  0.3005851E+01  0.0000000E+00
Ar 1765  0.2232476E+02  0.2232476E+02  0.5976658E+01  0.0000000E+00
Ar 1766  0.2494725E+02  0.2494724E+02  0.5828283E+01  0.0000000E+00
Ar 1767  0.2496510E+02  0.2217497E+02  0.8366540E+01  0.0000000E+00
Ar 1768  0.2217498E+02  0.2496509E+02  0.8366543E+01  0.0000000E+00
Ar 1769  0.2252160E+02  0.2252158E+02  0.1100217E+02  0.0000000E+00
Ar 1770  0.2502595E+02  0.2502594E+02  0.1144117E+02  0.0000000E+00
Ar 1771  0.2504400E+02  0.2185978E+02  0.1385196E+02  0.0000000E+00
Ar 1772  0.2185979E+02  0.2504400E+02  0.1385196E+02  0.0000000E+00
Ar 1773  0.2201226E+02  0.2201226E+02  0.1668538E+02  0.0000000E+00
Ar 1774  0.2542294E+02  0.2542293E+02  0.1682539E+02  0.0000000E+00
Ar 1775  0.2486190E+02  0.2230161E+02  0.1941455E+02  0.0000000E+00
Ar 1776  0.2230163E+02  0.2486189E+02  0.1941457E+02  0.0000000E+00
Ar 1777  0.2245436E+02  0.2245435E+02  0.2245436E+02  0.0000000E+00
Ar 1778  0.2508929E+02  0.2508927E+02  0.2206187E+02  0.0000000E+00
Ar 1779  0.2508928E+02  0.2206187E+02  0.2508927E+02  0.0000000E+00
Ar 1780  0.2206188E+02  0.2508928E+02  0.2508929E+02  0.0000000E+00
Ar 1781  0.2252815E+02  0.2252814E+02  0.2775369E+02  0.0000000E+00
Ar 1782  0.2508367E+02  0.2508366E+02  0.2776519E+02  0.0000000E+00
Ar 1783  0.2500732E+02  0.2242076E+02  0.3053420E+02  0.0000000E+00
Ar 1784  0.2242077E+02  0.2500732E+02  0.3053419E+02  0.0000000E+00
Ar 1785  0.2231530E+02  0.2231528E+02  0.3345212E+02  0.0000000E+00
Ar 1786  0.2512780E+02  0.2512779E+02  0.3342625E+02  0.0000000E+00
Ar 1787  0.2543268E+02  0.2231257E+02  0.3601589E+02  0.0000000E+00
Ar 1788  0.2231259E+02  0.2543267E+02  0.3601590E+02  0.0000000E+00
Ar 1789  0.2268936E+02  0.2268934E+02  0.3881168E+02  0.0000000E+00
Ar 1790  0.2521411E+02  0.2521410E+02  0.3919854E+02  0.0000000E+00
Ar 1791  0.2519652E+02  0.2242291E+02  0.4172441E+02  0.0000000E+00
Ar 1792  0.2242292E+02  0.2519650E+02  0.4172442E+02  0.0000000E+00
Ar 1793  0.2224659E+02  0.2224658E+02  0.4443804E+02  0.0000000E+00
Ar 1794  0.2503855E+02  0.2503854E+02  0.4485894E+02  0.0000000E+00
Ar 1795  0.2489126E+02  0.2223089E+02  0.4722230E+02  0.0000000E+00
Ar 1796  0.2223090E+02  0.2489125E+02  0.4722229E+02  0.0000000E+00
Ar 1797  0.2213327E+02  0.2213326E+02  0.4988615E+02  0.0000000E+00
Ar 1798  0.2529557E+02  0.2529556E+02  0.4965607E+02  0.0000000E+00
Ar 1799  0.2494288E+02  0.2232557E+02  0.5257816E+02  0.0000000E+00
Ar 1800  0.2232557E+02  0.2494287E+02  0.5257816E+02  0.0000000E+00
Ar 1801  0.2231458E+02  0.2773820E+02  0.3011674E+00  0.0000000E+00
Ar 1802  0.2497974E+02  0.3089604E+02  0.5547700E+02  0.0000000E+00
Ar 1803  0.2490391E+02  0.2799488E+02  0.3032799E+01  0.0000000E+00
Ar 1804  0.2215627E+02  0.3068004E+02  0.2998206E+01  0.0000000E+00
Ar 1805  0.2220636E+02  0.2774403E+02  0.5722298E+01  0.0000000E+00
Ar 1806  0.2488541E+02  0.3020909E+02  0.5904131E+01  0.0000000E+00
Ar 1807  0.2486806E+02  0.2742155E+02  0.8480166E+01  0.0000000E+00
Ar 1808  0.2178786E+02  0.3052661E+02  0.8583864E+01  0.0000000E+00
Ar 1809  0.2210574E+02  0.2761605E+02  0.1121006E+02  0.0000000E+00
Ar 1810  0.2512525E+02  0.3026014E+02  0.1110526E+02  0.0000000E+00
Ar 1811  0.2470928E+02  0.2768882E+02  0.1395421E+02  0.0000000E+00
Ar 1812  0.2210779E+02  0.3038487E+02  0.1379318E+02  0.0000000E+00
Ar 1813  0.2224357E+02  0.2774793E+02  0.1658577E+02  0.0000000E+00
Ar 1814  0.2489289E+02  0.3042477E+02  0.1655400E+02  0.0000000E+00
Ar 1815  0.2466736E+02  0.2777366E+02  0.1960182E+02  0.0000000E+00
Ar 1816  0.2218345E+02  0.3055985E+02  0.1939287E+02  0.0000000E+00
Ar 1817  0.2252814E+02  0.2775368E+02  0.2252814E+02  0.0000000E+00
Ar 1818  0.2500732E+02  0.3053420E+02  0.2242076E+02  0.0000000E+00
Ar 1819  0.2508367E+02  0.2776518E+02  0.2508366E+02  0.0000000E+00
Ar 1820  0.2242077E+02  0.3053419E+02  0.2500731E+02  0.0000000E+00
Ar 1821  0.2169849E+02  0.2757645E+02  0.2757644E+02  0.0000000E+00
Ar 1822  0.2513341E+02  0.3082351E+02  0.2787328E+02  0.0000000E+00
Ar 1823  0.2513340E+02  0.2787328E+02  0.3082351E+02  0.0000000E+00
Ar 1824  0.2230379E+02  0.3075668E+02  0.3075668E+02  0.0000000E+00
Ar 1825  0.2222797E+02  0.2815632E+02  0.3329234E+02  0.0000000E+00
Ar 1826  0.2503540E+02  0.3083543E+02  0.3331846E+02  0.0000000E+00
Ar 1827  0.2498980E+02  0.2819295E+02  0.3589888E+02  0.0000000E+00
Ar 1828  0.2228231E+02  0.3078113E+02  0.3609266E+02  0.0000000E+00
Ar 1829  0.2220232E+02  0.2805478E+02  0.3911215E+02  0.0000000E+00
Ar 1830  0.2526588E+02  0.3061375E+02  0.3921749E+02  0.0000000E+00
Ar 1831  0.2489837E+02  0.2784984E+02  0.4164394E+02  0.0000000E+00
Ar 1832  0.2202979E+02  0.3054324E+02  0.4181953E+02  0.0000000E+00
Ar 1833  0.2234457E+02  0.2776072E+02  0.4438452E+02  0.0000000E+00
Ar 1834  0.2500926E+02  0.3059592E+02  0.4449567E+02  0.0000000E+00
Ar 1835  0.2532490E+02  0.2791936E+02  0.4720182E+02  0.0000000E+00
Ar 1836  0.2211644E+02  0.3029871E+02  0.4728987E+02  0.0000000E+00
Ar 1837  0.2220359E+02  0.2774716E+02  0.5009798E+02  0.0000000E+00
Ar 1838  0.2523920E+02  0.3059510E+02  0.5005353E+02  0.0000000E+00
Ar 1839  0.2526809E+02  0.2804376E+02  0.5285983E+02  0.0000000E+00
Ar 1840  0.2229200E+02  0.3071656E+02  0.5269917E+02  0.0000000E+00
Ar 1841  0.2217586E+02  0.3342314E+02  0.3244429E+00  0.0000000E+00
Ar 1842  0.2483871E+02  0.3639025E+02  0.5193994E+00  0.0000000E+00
Ar 1843  0.2533554E+02  0.3352390E+02  0.3268756E+01  0.0000000E+00
Ar 1844  0.2229166E+02  0.3587753E+02  0.3321100E+01  0.0000000E+00
Ar 1845  0.2215488E+02  0.3311094E+02  0.6020444E+01  0.0000000E+00
Ar 1846  0.2492951E+02  0.3614534E+02  0.5936674E+01  0.0000000E+00
Ar 1847  0.2494306E+02  0.3315540E+02  0.8793157E+01  0.0000000E+00
Ar 1848  0.2214992E+02  0.3610695E+02  0.8639454E+01  0.0000000E+00
Ar 1849  0.2205560E+02  0.3343348E+02  0.1118584E+02  0.0000000E+00
Ar 1850  0.2492887E+02  0.3609994E+02  0.1120065E+02  0.0000000E+00
Ar 1851  0.2469021E+02  0.3343856E+02  0.1391097E+02  0.0000000E+00
Ar 1852  0.2226345E+02  0.3626189E+02  0.1380844E+02  0.0000000E+00
Ar 1853  0.2199018E+02  0.3354050E+02  0.1650476E+02  0.0000000E+00
Ar 1854  0.2484954E+02  0.3583692E+02  0.1652137E+02  0.0000000E+00
Ar 1855  0.2520371E+02  0.3298763E+02  0.1929705E+02  0.0000000E+00
Ar 1856  0.2251285E+02  0.3608786E+02  0.1993284E+02  0.0000000E+00
Ar 1857  0.2231531E+02  0.3345213E+02  0.2231527E+02  0.0000000E+00
Ar 1858  0.2543268E+02  0.3601589E+02  0.2231257E+02  0.0000000E+00
Ar 1859  0.2512780E+02  0.3342626E+02  0.2512779E+02  0.0000000E+00
Ar 1860  0.2231258E+02  0.3601590E+02  0.2543268E+02  0.0000000E+00
Ar 1861  0.2222797E+02  0.3329234E+02  0.2815632E+02  0.0000000E+00
Ar 1862  0.2498979E+02  0.3589888E+02  0.2819295E+02  0.0000000E+00
Ar 1863  0.2503540E+02  0.3331846E+02  0.3083543E+02  0.0000000E+00
Ar 1864  0.2228231E+02  0.3609266E+02  0.3078113E+02  0.0000000E+00
Ar 1865  0.2195163E+02  0.3356988E+02  0.3356989E+02  0.0000000E+00
Ar 1866  0.2470194E+02  0.3612524E+02  0.3332392E+02  0.0000000E+00
Ar 1867  0.2470194E+02  0.3332392E+02  0.3612525E+02  0.0000000E+00
Ar 1868  0.2220915E+02  0.3625346E+02  0.3625347E+02  0.0000000E+00
Ar 1869  0.2243026E+02  0.3369965E+02  0.3914596E+02  0.0000000E+00
Ar 1870  0.2508282E+02  0.3641915E+02  0.3891230E+02  0.0000000E+00
Ar 1871  0.2518792E+02  0.3333345E+02  0.4202314E+02  0.0000000E+00
Ar 1872  0.2242814E+02  0.3607326E+02  0.4208884E+02  0.0000000E+00
Ar 1873  0.2212950E+02  0.3313975E+02  0.4474488E+02  0.0000000E+00
Ar 1874  0.2510783E+02  0.3610727E+02  0.4488221E+02  0.0000000E+00
Ar 1875  0.2515435E+02  0.3336075E+02  0.4737767E+02  0.0000000E+00
Ar 1876  0.2233750E+02  0.3621780E+02  0.4716015E+02  0.0000000E+00
Ar 1877  0.2238212E+02  0.3330925E+02  0.4992758E+02  0.0000000E+00
Ar 1878  0.2511042E+02  0.3618398E+02  0.4995761E+02  0.0000000E+00
Ar 1879  0.2548011E+02  0.3367239E+02  0.5287544E+02  0.0000000E+00
Ar 1880  0.2237023E+02  0.3622379E+02  0.5262385E+02  0.0000000E+00
Ar 1881  0.2245576E+02  0.3895764E+02  0.3951723E+00  0.0000000E+00
Ar 1882  0.2521805E+02  0.4119717E+02  0.3314134E+00  0.0000000E+00
Ar 1883  0.2517375E+02  0.3884317E+02  0.3408893E+01  0.0000000E+00
Ar 1884  0.2239671E+02  0.4164718E+02  0.3106981E+01  0.0000000E+00
Ar 1885  0.2228319E+02  0.3907075E+02  0.5931881E+01  0.0000000E+00
Ar 1886  0.2507002E+02  0.4149516E+02  0.5801579E+01  0.0000000E+00
Ar 1887  0.2494439E+02  0.3889065E+02  0.8534676E+01  0.0000000E+00
Ar 1888  0.2217905E+02  0.4175202E+02  0.8655051E+01  0.0000000E+00
Ar 1889  0.2220896E+02  0.3873733E+02  0.1096446E+02  0.0000000E+00
Ar 1890  0.2463740E+02  0.4148644E+02  0.1112931E+02  0.0000000E+00
Ar 1891  0.2486211E+02  0.3914328E+02  0.1394586E+02  0.0000000E+00
Ar 1892  0.2216988E+02  0.4191716E+02  0.1410777E+02  0.0000000E+00
Ar 1893  0.2234000E+02  0.3878588E+02  0.1677172E+02  0.0000000E+00
Ar 1894  0.2518768E+02  0.4186826E+02  0.1677597E+02  0.0000000E+00
Ar 1895  0.2522407E+02  0.3894076E+02  0.1984084E+02  0.0000000E+00
Ar 1896  0.2267313E+02  0.4169219E+02  0.1969650E+02  0.0000000E+00
Ar 1897  0.2268936E+02  0.3881167E+02  0.2268935E+02  0.0000000E+00
Ar 1898  0.2519652E+02  0.4172441E+02  0.2242291E+02  0.0000000E+00
Ar 1899  0.2521411E+02  0.3919854E+02  0.2521411E+02  0.0000000E+00
Ar 1900  0.2242292E+02  0.4172442E+02  0.2519651E+02  0.0000000E+00
Ar 1901  0.2220232E+02  0.3911215E+02  0.2805478E+02  0.0000000E+00
Ar 1902  0.2489837E+02  0.4164394E+02  0.2784984E+02  0.0000000E+00
Ar 1903  0.2526588E+02  0.3921749E+02  0.3061376E+02  0.0000000E+00
Ar 1904  0.2202980E+02  0.4181953E+02  0.3054324E+02  0.0000000E+00
Ar 1905  0.2243025E+02  0.3914596E+02  0.3369965E+02  0.0000000E+00
Ar 1906  0.2518793E+02  0.4202314E+02  0.3333346E+02  0.0000000E+00
Ar 1907  0.2508282E+02  0.3891229E+02  0.3641915E+02  0.0000000E+00
Ar 1908  0.2242813E+02  0.4208885E+02  0.3607326E+02  0.0000000E+00
Ar 1909  0.2220535E+02  0.3876210E+02  0.3876209E+02  0.0000000E+00
Ar 1910  0.2509167E+02  0.4201639E+02  0.3903837E+02  0.0000000E+00
Ar 1911  0.2509167E+02  0.3903837E+02  0.4201638E+02  0.0000000E+00
Ar 1912  0.2224519E+02  0.4161190E+02  0.4161191E+02  0.0000000E+00
Ar 1913  0.2240715E+02  0.3884698E+02  0.4439280E+02  0.0000000E+00
Ar 1914  0.2555541E+02  0.4199698E+02  0.4476477E+02  0.0000000E+00
Ar 1915  0.2516218E+02  0.3886343E+02  0.4733557E+02  0.0000000E+00
Ar 1916  0.2235964E+02  0.4190704E+02  0.4715920E+02  0.0000000E+00
Ar 1917  0.2225420E+02  0.3894309E+02  0.4998323E+02  0.0000000E+00
Ar 1918  0.2477493E+02  0.4163234E+02  0.4993297E+02  0.0000000E+00
Ar 1919  0.2521300E+02  0.3862690E+02  0.5271302E+02  0.0000000E+00
Ar 1920  0.2259222E+02  0.4143601E+02  0.5311361E+02  0.0000000E+00
Ar 1921  0.2205495E+02  0.4425422E+02  0.4060519E+00  0.0000000E+00
Ar 1922  0.2508585E+02  0.4715164E+02  0.5546005E+02  0.0000000E+00
Ar 1923  0.2528863E+02  0.4422804E+02  0.2920692E+01  0.0000000E+00
Ar 1924  0.2237737E+02  0.4733364E+02  0.2841149E+01  0.0000000E+00
Ar 1925  0.2218977E+02  0.4435785E+02  0.5852219E+01  0.0000000E+00
Ar 1926  0.2448810E+02  0.4731761E+02  0.5905937E+01  0.0000000E+00
Ar 1927  0.2490714E+02  0.4428492E+02  0.8349541E+01  0.0000000E+00
Ar 1928  0.2208111E+02  0.4702447E+02  0.8629745E+01  0.0000000E+00
Ar 1929  0.2237159E+02  0.4425430E+02  0.1129877E+02  0.0000000E+00
Ar 1930  0.2510700E+02  0.4699783E+02  0.1143750E+02  0.0000000E+00
Ar 1931  0.2500910E+02  0.4408327E+02  0.1388749E+02  0.0000000E+00
Ar 1932  0.2245797E+02  0.4695646E+02  0.1396086E+02  0.0000000E+00
Ar 1933  0.2245179E+02  0.4448452E+02  0.1663893E+02  0.0000000E+00
Ar 1934  0.2513014E+02  0.4737195E+02  0.1663353E+02  0.0000000E+00
Ar 1935  0.2517799E+02  0.4455223E+02  0.1949083E+02  0.0000000E+00
Ar 1936  0.2210273E+02  0.4730098E+02  0.1934387E+02  0.0000000E+00
Ar 1937  0.2224659E+02  0.4443804E+02  0.2224658E+02  0.0000000E+00
Ar 1938  0.2489126E+02  0.4722230E+02  0.2223089E+02  0.0000000E+00
Ar 1939  0.2503855E+02  0.4485894E+02  0.2503854E+02  0.0000000E+00
Ar 1940  0.2223090E+02  0.4722230E+02  0.2489125E+02  0.0000000E+00
Ar 1941  0.2234457E+02  0.4438452E+02  0.2776072E+02  0.0000000E+00
Ar 1942  0.2532489E+02  0.4720182E+02  0.2791936E+02  0.0000000E+00
Ar 1943  0.2500927E+02  0.4449567E+02  0.3059592E+02  0.0000000E+00
Ar 1944  0.2211644E+02  0.4728987E+02  0.3029871E+02  0.0000000E+00
Ar 1945  0.2212950E+02  0.4474488E+02  0.3313975E+02  0.0000000E+00
Ar 1946  0.2515435E+02  0.4737767E+02  0.3336075E+02  0.0000000E+00
Ar 1947  0.2510783E+02  0.4488221E+02  0.3610727E+02  0.0000000E+00
Ar 1948  0.2233750E+02  0.4716016E+02  0.3621780E+02  0.0000000E+00
Ar 1949  0.2240715E+02  0.4439280E+02  0.3884698E+02  0.0000000E+00
Ar 1950  0.2516218E+02  0.4733557E+02  0.3886343E+02  0.0000000E+00
Ar 1951  0.2555541E+02  0.4476476E+02  0.4199696E+02  0.0000000E+00
Ar 1952  0.2235964E+02  0.4715918E+02  0.4190705E+02  0.0000000E+00
Ar 1953  0.2238623E+02  0.4429810E+02  0.4429810E+02  0.0000000E+00
Ar 1954  0.2551029E+02  0.4729365E+02  0.4444722E+02  0.0000000E+00
Ar 1955  0.2551041E+02  0.4444741E+02  0.4729394E+02  0.0000000E+00
Ar 1956  0.2225415E+02  0.4697812E+02  0.4697809E+02  0.0000000E+00
Ar 1957  0.2257224E+02  0.4453472E+02  0.4999982E+02  0.0000000E+00
Ar 1958  0.2529793E+02  0.4718838E+02  0.4981538E+02  0.0000000E+00
Ar 1959  0.2481460E+02  0.4454368E+02  0.5261356E+02  0.0000000E+00
Ar 1960  0.2257497E+02  0.4732891E+02  0.5251855E+02  0.0000000E+00
Ar 1961  0.2262453E+02  0.4987339E+02  0.5523094E+02  0.0000000E+00
Ar 1962  0.2545468E+02  0.5274473E+02  0.5538238E+02  0.0000000E+00
Ar 1963  0.2530869E+02  0.4974773E+02  0.2903736E+01  0.0000000E+00
Ar 1964  0.2252477E+02  0.5279057E+02  0.2677266E+01  0.0000000E+00
Ar 1965  0.2220931E+02  0.5016305E+02  0.5801651E+01  0.0000000E+00
Ar 1966  0.2508502E+02  0.5250839E+02  0.5740354E+01  0.0000000E+00
Ar 1967  0.2514049E+02  0.4996095E+02  0.8483070E+01  0.0000000E+00
Ar 1968  0.2257628E+02  0.5259496E+02  0.8672686E+01  0.0000000E+00
Ar 1969  0.2232048E+02  0.4960452E+02  0.1123960E+02  0.0000000E+00
Ar 1970  0.2529815E+02  0.5263293E+02  0.1113165E+02  0.0000000E+00
Ar 1971  0.2502721E+02  0.5002343E+02  0.1392188E+02  0.0000000E+00
Ar 1972  0.2261242E+02  0.5270759E+02  0.1355232E+02  0.0000000E+00
Ar 1973  0.2215514E+02  0.5008912E+02  0.1661954E+02  0.0000000E+00
Ar 1974  0.2470299E+02  0.5284704E+02  0.1653805E+02  0.0000000E+00
Ar 1975  0.2516188E+02  0.5010544E+02  0.1971769E+02  0.0000000E+00
Ar 1976  0.2218512E+02  0.5248309E+02  0.1961823E+02  0.0000000E+00
Ar 1977  0.2213327E+02  0.4988615E+02  0.2213326E+02  0.0000000E+00
Ar 1978  0.2494288E+02  0.5257816E+02  0.2232557E+02  0.0000000E+00
Ar 1979  0.2529558E+02  0.4965606E+02  0.2529557E+02  0.0000000E+00
Ar 1980  0.2232557E+02  0.5257816E+02  0.2494287E+02  0.0000000E+00
Ar 1981  0.2220359E+02  0.5009798E+02  0.2774716E+02  0.0000000E+00
Ar 1982  0.2526809E+02  0.5285983E+02  0.2804376E+02  0.0000000E+00
Ar 1983  0.2523920E+02  0.5005352E+02  0.3059510E+02  0.0000000E+00
Ar 1984  0.2229201E+02  0.5269917E+02  0.3071656E+02  0.0000000E+00
Ar 1985  0.2238213E+02  0.4992758E+02  0.3330926E+02  0.0000000E+00
Ar 1986  0.2548011E+02  0.5287543E+02  0.3367239E+02  0.0000000E+00
Ar 1987  0.2511042E+02  0.4995762E+02  0.3618398E+02  0.0000000E+00
Ar 1988  0.2237023E+02  0.5262385E+02  0.3622379E+02  0.0000000E+00
Ar 1989  0.2225418E+02  0.4998322E+02  0.3894307E+02  0.0000000E+00
Ar 1990  0.2521300E+02  0.5271301E+02  0.3862691E+02  0.0000000E+00
Ar 1991  0.2477492E+02  0.4993280E+02  0.4163217E+02  0.0000000E+00
Ar 1992  0.2259218E+02  0.5311360E+02  0.4143597E+02  0.0000000E+00
Ar 1993  0.2257185E+02  0.4999957E+02  0.4453450E+02  0.0000000E+00
Ar 1994  0.2481452E+02  0.5261178E+02  0.4454175E+02  0.0000000E+00
Ar 1995  0.2529725E+02  0.4981355E+02  0.4718568E+02  0.0000000E+00
Ar 1996  0.2257457E+02  0.5251725E+02  0.4732869E+02  0.0000000E+00
Ar 1997  0.2249071E+02  0.4986872E+02  0.4986891E+02  0.0000000E+00
Ar 1998  0.2568478E+02  0.5262279E+02  0.4995846E+02  0.0000000E+00
Ar 1999  0.2568897E+02  0.4996006E+02  0.5262632E+02  0.0000000E+00
Ar 2000  0.2242995E+02  0.5265735E+02  0.5265942E+02  0.0000000E+00
Ar 2001  0.2779973E+02  0.5538780E+02  0.5539477E+02  0.0000000E+00
Ar 2002  0.3082222E+02  0.3176016E+01  0.2818094E+00  0.0000000E+00
Ar 2003  0.3081280E+02  0.2777975E+00  0.3165832E+01  0.0000000E+00
Ar 2004  0.2768283E+02  0.3111077E+01  0.3116821E+01  0.0000000E+00
Ar 2005  0.2796455E+02  0.5518941E+02  0.5815539E+01  0.0000000E+00
Ar 2006  0.3072573E+02  0.2665778E+01  0.5837603E+01  0.0000000E+00
Ar 2007  0.3090107E+02  0.4867906E+00  0.8684326E+01  0.0000000E+00
Ar 2008  0.2774273E+02  0.3001117E+01  0.8707133E+01  0.0000000E+00
Ar 2009  0.2787128E+02  0.5537979E+02  0.1110207E+02  0.0000000E+00
Ar 2010  0.3074211E+02  0.2905223E+01  0.1128944E+02  0.0000000E+00
Ar 2011  0.3043994E+02  0.5537210E+02  0.1361607E+02  0.0000000E+00
Ar 2012  0.2791519E+02  0.2949577E+01  0.1377272E+02  0.0000000E+00
Ar 2013  0.2764271E+02  0.5516058E+02  0.1631343E+02  0.0000000E+00
Ar 2014  0.3035955E+02  0.2968596E+01  0.1647048E+02  0.0000000E+00
Ar 2015  0.3044471E+02  0.5705445E+00  0.1949308E+02  0.0000000E+00
Ar 2016  0.2759219E+02  0.2956977E+01  0.1988058E+02  0.0000000E+00
Ar 2017  0.2773821E+02  0.3011759E+00  0.2231457E+02  0.0000000E+00
Ar 2018  0.3068005E+02  0.2998193E+01  0.2215629E+02  0.0000000E+00
Ar 2019  0.3089606E+02  0.5547700E+02  0.2497972E+02  0.0000000E+00
Ar 2020  0.2799490E+02  0.3032795E+01  0.2490389E+02  0.0000000E+00
Ar 2021  0.2798321E+02  0.4121902E+00  0.2798321E+02  0.0000000E+00
Ar 2022  0.3051341E+02  0.3231649E+01  0.2767792E+02  0.0000000E+00
Ar 2023  0.3059691E+02  0.9235105E+00  0.3059691E+02  0.0000000E+00
Ar 2024  0.2767791E+02  0.3231645E+01  0.3051341E+02  0.0000000E+00
Ar 2025  0.2801724E+02  0.3667971E+00  0.3349804E+02  0.0000000E+00
Ar 2026  0.3079028E+02  0.2975638E+01  0.3358761E+02  0.0000000E+00
Ar 2027  0.3090432E+02  0.5552725E+02  0.3663558E+02  0.0000000E+00
Ar 2028  0.2803351E+02  0.3247468E+01  0.3580588E+02  0.0000000E+00
Ar 2029  0.2787125E+02  0.3398907E+00  0.3875596E+02  0.0000000E+00
Ar 2030  0.3056333E+02  0.3279117E+01  0.3879099E+02  0.0000000E+00
Ar 2031  0.3027219E+02  0.5535849E+02  0.4118572E+02  0.0000000E+00
Ar 2032  0.2766191E+02  0.3237416E+01  0.4171306E+02  0.0000000E+00
Ar 2033  0.2792667E+02  0.5538248E+02  0.4419435E+02  0.0000000E+00
Ar 2034  0.3075447E+02  0.3037755E+01  0.4435371E+02  0.0000000E+00
Ar 2035  0.3130273E+02  0.5547749E+02  0.4740029E+02  0.0000000E+00
Ar 2036  0.2770007E+02  0.3108664E+01  0.4705735E+02  0.0000000E+00
Ar 2037  0.2805567E+02  0.6125273E+00  0.4966776E+02  0.0000000E+00
Ar 2038  0.3116851E+02  0.2951347E+01  0.4980566E+02  0.0000000E+00
Ar 2039  0.3137634E+02  0.4137312E+00  0.5228247E+02  0.0000000E+00
Ar 2040  0.2818147E+02  0.3040174E+01  0.5225969E+02  0.0000000E+00
Ar 2041  0.2796278E+02  0.5817923E+01  0.5518992E+02  0.0000000E+00
Ar 2042  0.3090107E+02  0.8684807E+01  0.4868281E+00  0.0000000E+00
Ar 2043  0.3072477E+02  0.5840174E+01  0.2668468E+01  0.0000000E+00
Ar 2044  0.2774279E+02  0.8707215E+01  0.3001229E+01  0.0000000E+00
Ar 2045  0.2740484E+02  0.5561431E+01  0.5561277E+01  0.0000000E+00
Ar 2046  0.3064865E+02  0.8638091E+01  0.5582800E+01  0.0000000E+00
Ar 2047  0.3064870E+02  0.5582776E+01  0.8637889E+01  0.0000000E+00
Ar 2048  0.2756433E+02  0.8357725E+01  0.8357766E+01  0.0000000E+00
Ar 2049  0.2790745E+02  0.5762694E+01  0.1112312E+02  0.0000000E+00
Ar 2050  0.3044428E+02  0.8386739E+01  0.1105000E+02  0.0000000E+00
Ar 2051  0.3060320E+02  0.5608575E+01  0.1384480E+02  0.0000000E+00
Ar 2052  0.2778598E+02  0.8260403E+01  0.1402233E+02  0.0000000E+00
Ar 2053  0.2760409E+02  0.5580328E+01  0.1653189E+02  0.0000000E+00
Ar 2054  0.3045735E+02  0.8356684E+01  0.1688117E+02  0.0000000E+00
Ar 2055  0.3020784E+02  0.5491612E+01  0.1956620E+02  0.0000000E+00
Ar 2056  0.2746072E+02  0.8597803E+01  0.1945631E+02  0.0000000E+00
Ar 2057  0.2774404E+02  0.5722296E+01  0.2220636E+02  0.0000000E+00
Ar 2058  0.3052663E+02  0.8583865E+01  0.2178786E+02  0.0000000E+00
Ar 2059  0.3020911E+02  0.5904130E+01  0.2488541E+02  0.0000000E+00
Ar 2060  0.2742155E+02  0.8480154E+01  0.2486805E+02  0.0000000E+00
Ar 2061  0.2782027E+02  0.5802981E+01  0.2782026E+02  0.0000000E+00
Ar 2062  0.3026789E+02  0.8474565E+01  0.2766635E+02  0.0000000E+00
Ar 2063  0.3046798E+02  0.6140089E+01  0.3046798E+02  0.0000000E+00
Ar 2064  0.2766635E+02  0.8474573E+01  0.3026790E+02  0.0000000E+00
Ar 2065  0.2719110E+02  0.6009461E+01  0.3278164E+02  0.0000000E+00
Ar 2066  0.3053699E+02  0.8484255E+01  0.3359189E+02  0.0000000E+00
Ar 2067  0.3066145E+02  0.5737646E+01  0.3609893E+02  0.0000000E+00
Ar 2068  0.2771421E+02  0.8570195E+01  0.3605743E+02  0.0000000E+00
Ar 2069  0.2780088E+02  0.5899023E+01  0.3886852E+02  0.0000000E+00
Ar 2070  0.3037473E+02  0.8646546E+01  0.3849197E+02  0.0000000E+00
Ar 2071  0.3048925E+02  0.5851220E+01  0.4135905E+02  0.0000000E+00
Ar 2072  0.2754249E+02  0.8338618E+01  0.4157076E+02  0.0000000E+00
Ar 2073  0.2759684E+02  0.5745464E+01  0.4445220E+02  0.0000000E+00
Ar 2074  0.3042864E+02  0.8432139E+01  0.4418058E+02  0.0000000E+00
Ar 2075  0.3045034E+02  0.5622501E+01  0.4675851E+02  0.0000000E+00
Ar 2076  0.2762767E+02  0.8445813E+01  0.4728568E+02  0.0000000E+00
Ar 2077  0.2771099E+02  0.5524149E+01  0.4973735E+02  0.0000000E+00
Ar 2078  0.3063471E+02  0.8076648E+01  0.4971860E+02  0.0000000E+00
Ar 2079  0.3095442E+02  0.5592834E+01  0.5277085E+02  0.0000000E+00
Ar 2080  0.2823942E+02  0.8318849E+01  0.5246712E+02  0.0000000E+00
Ar 2081  0.2787131E+02  0.1110195E+02  0.5537978E+02  0.0000000E+00
Ar 2082  0.3043995E+02  0.1361603E+02  0.5537205E+02  0.0000000E+00
Ar 2083  0.3074217E+02  0.1128953E+02  0.2905243E+01  0.0000000E+00
Ar 2084  0.2791520E+02  0.1377271E+02  0.2949578E+01  0.0000000E+00
Ar 2085  0.2790743E+02  0.1112317E+02  0.5762782E+01  0.0000000E+00
Ar 2086  0.3060320E+02  0.1384481E+02  0.5608585E+01  0.0000000E+00
Ar 2087  0.3044429E+02  0.1105006E+02  0.8386820E+01  0.0000000E+00
Ar 2088  0.2778597E+02  0.1402234E+02  0.8260411E+01  0.0000000E+00
Ar 2089  0.2777019E+02  0.1097391E+02  0.1097391E+02  0.0000000E+00
Ar 2090  0.3080195E+02  0.1385272E+02  0.1099938E+02  0.0000000E+00
Ar 2091  0.3080196E+02  0.1099936E+02  0.1385272E+02  0.0000000E+00
Ar 2092  0.2815409E+02  0.1357288E+02  0.1357288E+02  0.0000000E+00
Ar 2093  0.2799471E+02  0.1102431E+02  0.1654868E+02  0.0000000E+00
Ar 2094  0.3085884E+02  0.1385806E+02  0.1675769E+02  0.0000000E+00
Ar 2095  0.3023551E+02  0.1142379E+02  0.1943097E+02  0.0000000E+00
Ar 2096  0.2772173E+02  0.1414210E+02  0.1947365E+02  0.0000000E+00
Ar 2097  0.2761605E+02  0.1121005E+02  0.2210572E+02  0.0000000E+00
Ar 2098  0.3038488E+02  0.1379317E+02  0.2210778E+02  0.0000000E+00
Ar 2099  0.3026014E+02  0.1110524E+02  0.2512525E+02  0.0000000E+00
Ar 2100  0.2768883E+02  0.1395421E+02  0.2470927E+02  0.0000000E+00
Ar 2101  0.2760587E+02  0.1136350E+02  0.2760588E+02  0.0000000E+00
Ar 2102  0.3036593E+02  0.1388877E+02  0.2766087E+02  0.0000000E+00
Ar 2103  0.3043861E+02  0.1121998E+02  0.3043859E+02  0.0000000E+00
Ar 2104  0.2766088E+02  0.1388878E+02  0.3036592E+02  0.0000000E+00
Ar 2105  0.2752843E+02  0.1121265E+02  0.3338339E+02  0.0000000E+00
Ar 2106  0.3007820E+02  0.1366091E+02  0.3328695E+02  0.0000000E+00
Ar 2107  0.3028316E+02  0.1139659E+02  0.3614396E+02  0.0000000E+00
Ar 2108  0.2746428E+02  0.1394989E+02  0.3622345E+02  0.0000000E+00
Ar 2109  0.2757160E+02  0.1152785E+02  0.3912449E+02  0.0000000E+00
Ar 2110  0.3076947E+02  0.1387105E+02  0.3928103E+02  0.0000000E+00
Ar 2111  0.3026504E+02  0.1111932E+02  0.4154824E+02  0.0000000E+00
Ar 2112  0.2781704E+02  0.1385956E+02  0.4200332E+02  0.0000000E+00
Ar 2113  0.2787678E+02  0.1111932E+02  0.4458732E+02  0.0000000E+00
Ar 2114  0.3059491E+02  0.1407008E+02  0.4452930E+02  0.0000000E+00
Ar 2115  0.3070006E+02  0.1127308E+02  0.4710509E+02  0.0000000E+00
Ar 2116  0.2780298E+02  0.1385516E+02  0.4734055E+02  0.0000000E+00
Ar 2117  0.2803599E+02  0.1105046E+02  0.5004635E+02  0.0000000E+00
Ar 2118  0.3067875E+02  0.1405324E+02  0.5034195E+02  0.0000000E+00
Ar 2119  0.3066811E+02  0.1115265E+02  0.5268996E+02  0.0000000E+00
Ar 2120  0.2767432E+02  0.1374364E+02  0.5286009E+02  0.0000000E+00
Ar 2121  0.2764271E+02  0.1631344E+02  0.5516059E+02  0.0000000E+00
Ar 2122  0.3044471E+02  0.1949308E+02  0.5705459E+00  0.0000000E+00
Ar 2123  0.3035954E+02  0.1647047E+02  0.2968594E+01  0.0000000E+00
Ar 2124  0.2759219E+02  0.1988058E+02  0.2956977E+01  0.0000000E+00
Ar 2125  0.2760409E+02  0.1653188E+02  0.5580329E+01  0.0000000E+00
Ar 2126  0.3020784E+02  0.1956620E+02  0.5491609E+01  0.0000000E+00
Ar 2127  0.3045735E+02  0.1688117E+02  0.8356679E+01  0.0000000E+00
Ar 2128  0.2746072E+02  0.1945631E+02  0.8597806E+01  0.0000000E+00
Ar 2129  0.2799471E+02  0.1654868E+02  0.1102431E+02  0.0000000E+00
Ar 2130  0.3023551E+02  0.1943098E+02  0.1142379E+02  0.0000000E+00
Ar 2131  0.3085884E+02  0.1675769E+02  0.1385806E+02  0.0000000E+00
Ar 2132  0.2772173E+02  0.1947364E+02  0.1414210E+02  0.0000000E+00
Ar 2133  0.2800125E+02  0.1654504E+02  0.1654504E+02  0.0000000E+00
Ar 2134  0.3088218E+02  0.1927590E+02  0.1654593E+02  0.0000000E+00
Ar 2135  0.3088218E+02  0.1654592E+02  0.1927590E+02  0.0000000E+00
Ar 2136  0.2778947E+02  0.1951517E+02  0.1951518E+02  0.0000000E+00
Ar 2137  0.2774793E+02  0.1658578E+02  0.2224357E+02  0.0000000E+00
Ar 2138  0.3055986E+02  0.1939287E+02  0.2218345E+02  0.0000000E+00
Ar 2139  0.3042479E+02  0.1655400E+02  0.2489289E+02  0.0000000E+00
Ar 2140  0.2777367E+02  0.1960182E+02  0.2466736E+02  0.0000000E+00
Ar 2141  0.2795898E+02  0.1658231E+02  0.2795897E+02  0.0000000E+00
Ar 2142  0.3029774E+02  0.1944040E+02  0.2765468E+02  0.0000000E+00
Ar 2143  0.3058707E+02  0.1657448E+02  0.3058706E+02  0.0000000E+00
Ar 2144  0.2765469E+02  0.1944040E+02  0.3029773E+02  0.0000000E+00
Ar 2145  0.2777165E+02  0.1644464E+02  0.3334474E+02  0.0000000E+00
Ar 2146  0.3070249E+02  0.1893766E+02  0.3341401E+02  0.0000000E+00
Ar 2147  0.3087832E+02  0.1661327E+02  0.3634125E+02  0.0000000E+00
Ar 2148  0.2791733E+02  0.1945492E+02  0.3615567E+02  0.0000000E+00
Ar 2149  0.2790151E+02  0.1680931E+02  0.3920961E+02  0.0000000E+00
Ar 2150  0.3064714E+02  0.1961950E+02  0.3871629E+02  0.0000000E+00
Ar 2151  0.3062008E+02  0.1694258E+02  0.4184943E+02  0.0000000E+00
Ar 2152  0.2794082E+02  0.1928484E+02  0.4194429E+02  0.0000000E+00
Ar 2153  0.2777207E+02  0.1670103E+02  0.4462419E+02  0.0000000E+00
Ar 2154  0.3070723E+02  0.1952049E+02  0.4459742E+02  0.0000000E+00
Ar 2155  0.3050497E+02  0.1671309E+02  0.4731339E+02  0.0000000E+00
Ar 2156  0.2768486E+02  0.1937089E+02  0.4739772E+02  0.0000000E+00
Ar 2157  0.2796891E+02  0.1671865E+02  0.5032498E+02  0.0000000E+00
Ar 2158  0.3068067E+02  0.1959195E+02  0.4995802E+02  0.0000000E+00
Ar 2159  0.3092539E+02  0.1700025E+02  0.5264714E+02  0.0000000E+00
Ar 2160  0.2805336E+02  0.1967546E+02  0.5258397E+02  0.0000000E+00
Ar 2161  0.2773822E+02  0.2231457E+02  0.3011739E+00  0.0000000E+00
Ar 2162  0.3089606E+02  0.2497972E+02  0.5547699E+02  0.0000000E+00
Ar 2163  0.3068005E+02  0.2215629E+02  0.2998195E+01  0.0000000E+00
Ar 2164  0.2799490E+02  0.2490390E+02  0.3032800E+01  0.0000000E+00
Ar 2165  0.2774404E+02  0.2220636E+02  0.5722291E+01  0.0000000E+00
Ar 2166  0.3020911E+02  0.2488540E+02  0.5904131E+01  0.0000000E+00
Ar 2167  0.3052662E+02  0.2178786E+02  0.8583863E+01  0.0000000E+00
Ar 2168  0.2742155E+02  0.2486805E+02  0.8480158E+01  0.0000000E+00
Ar 2169  0.2761606E+02  0.2210572E+02  0.1121005E+02  0.0000000E+00
Ar 2170  0.3026014E+02  0.2512525E+02  0.1110524E+02  0.0000000E+00
Ar 2171  0.3038487E+02  0.2210778E+02  0.1379317E+02  0.0000000E+00
Ar 2172  0.2768883E+02  0.2470926E+02  0.1395421E+02  0.0000000E+00
Ar 2173  0.2774793E+02  0.2224356E+02  0.1658578E+02  0.0000000E+00
Ar 2174  0.3042478E+02  0.2489288E+02  0.1655400E+02  0.0000000E+00
Ar 2175  0.3055986E+02  0.2218344E+02  0.1939287E+02  0.0000000E+00
Ar 2176  0.2777367E+02  0.2466735E+02  0.1960182E+02  0.0000000E+00
Ar 2177  0.2775370E+02  0.2252813E+02  0.2252814E+02  0.0000000E+00
Ar 2178  0.3053420E+02  0.2500732E+02  0.2242076E+02  0.0000000E+00
Ar 2179  0.3053420E+02  0.2242076E+02  0.2500732E+02  0.0000000E+00
Ar 2180  0.2776517E+02  0.2508365E+02  0.2508365E+02  0.0000000E+00
Ar 2181  0.2757644E+02  0.2169848E+02  0.2757644E+02  0.0000000E+00
Ar 2182  0.3082352E+02  0.2513340E+02  0.2787329E+02  0.0000000E+00
Ar 2183  0.3075670E+02  0.2230379E+02  0.3075669E+02  0.0000000E+00
Ar 2184  0.2787330E+02  0.2513340E+02  0.3082350E+02  0.0000000E+00
Ar 2185  0.2815632E+02  0.2222796E+02  0.3329233E+02  0.0000000E+00
Ar 2186  0.3083545E+02  0.2503539E+02  0.3331846E+02  0.0000000E+00
Ar 2187  0.3078114E+02  0.2228230E+02  0.3609267E+02  0.0000000E+00
Ar 2188  0.2819296E+02  0.2498978E+02  0.3589888E+02  0.0000000E+00
Ar 2189  0.2805479E+02  0.2220232E+02  0.3911215E+02  0.0000000E+00
Ar 2190  0.3061377E+02  0.2526586E+02  0.3921749E+02  0.0000000E+00
Ar 2191  0.3054325E+02  0.2202979E+02  0.4181954E+02  0.0000000E+00
Ar 2192  0.2784986E+02  0.2489836E+02  0.4164395E+02  0.0000000E+00
Ar 2193  0.2776073E+02  0.2234456E+02  0.4438453E+02  0.0000000E+00
Ar 2194  0.3059593E+02  0.2500926E+02  0.4449566E+02  0.0000000E+00
Ar 2195  0.3029871E+02  0.2211643E+02  0.4728988E+02  0.0000000E+00
Ar 2196  0.2791938E+02  0.2532488E+02  0.4720183E+02  0.0000000E+00
Ar 2197  0.2774717E+02  0.2220358E+02  0.5009799E+02  0.0000000E+00
Ar 2198  0.3059512E+02  0.2523919E+02  0.5005354E+02  0.0000000E+00
Ar 2199  0.3071661E+02  0.2229195E+02  0.5269918E+02  0.0000000E+00
Ar 2200  0.2804377E+02  0.2526808E+02  0.5285983E+02  0.0000000E+00
Ar 2201  0.2798322E+02  0.2798322E+02  0.4121932E+00  0.0000000E+00
Ar 2202  0.3059692E+02  0.3059692E+02  0.9235139E+00  0.0000000E+00
Ar 2203  0.3051341E+02  0.2767791E+02  0.3231646E+01  0.0000000E+00
Ar 2204  0.2767791E+02  0.3051340E+02  0.3231646E+01  0.0000000E+00
Ar 2205  0.2782027E+02  0.2782025E+02  0.5802980E+01  0.0000000E+00
Ar 2206  0.3046797E+02  0.3046797E+02  0.6140094E+01  0.0000000E+00
Ar 2207  0.3026789E+02  0.2766635E+02  0.8474566E+01  0.0000000E+00
Ar 2208  0.2766635E+02  0.3026789E+02  0.8474579E+01  0.0000000E+00
Ar 2209  0.2760587E+02  0.2760587E+02  0.1136351E+02  0.0000000E+00
Ar 2210  0.3043861E+02  0.3043859E+02  0.1121998E+02  0.0000000E+00
Ar 2211  0.3036593E+02  0.2766087E+02  0.1388877E+02  0.0000000E+00
Ar 2212  0.2766088E+02  0.3036592E+02  0.1388878E+02  0.0000000E+00
Ar 2213  0.2795898E+02  0.2795897E+02  0.1658231E+02  0.0000000E+00
Ar 2214  0.3058706E+02  0.3058706E+02  0.1657449E+02  0.0000000E+00
Ar 2215  0.3029773E+02  0.2765467E+02  0.1944040E+02  0.0000000E+00
Ar 2216  0.2765469E+02  0.3029773E+02  0.1944040E+02  0.0000000E+00
Ar 2217  0.2757644E+02  0.2757643E+02  0.2169848E+02  0.0000000E+00
Ar 2218  0.3075671E+02  0.3075669E+02  0.2230379E+02  0.0000000E+00
Ar 2219  0.3082351E+02  0.2787328E+02  0.2513340E+02  0.0000000E+00
Ar 2220  0.2787329E+02  0.3082350E+02  0.2513341E+02  0.0000000E+00
Ar 2221  0.2760911E+02  0.2760909E+02  0.2760908E+02  0.0000000E+00
Ar 2222  0.3083776E+02  0.3083775E+02  0.2782892E+02  0.0000000E+00
Ar 2223  0.3083776E+02  0.2782893E+02  0.3083774E+02  0.0000000E+00
Ar 2224  0.2782893E+02  0.3083774E+02  0.3083774E+02  0.0000000E+00
Ar 2225  0.2786501E+02  0.2786499E+02  0.3369824E+02  0.0000000E+00
Ar 2226  0.3036768E+02  0.3036767E+02  0.3322364E+02  0.0000000E+00
Ar 2227  0.3098866E+02  0.2763987E+02  0.3612535E+02  0.0000000E+00
Ar 2228  0.2763988E+02  0.3098866E+02  0.3612535E+02  0.0000000E+00
Ar 2229  0.2799055E+02  0.2799054E+02  0.3860944E+02  0.0000000E+00
Ar 2230  0.3067184E+02  0.3067183E+02  0.3873557E+02  0.0000000E+00
Ar 2231  0.3075269E+02  0.2797102E+02  0.4191967E+02  0.0000000E+00
Ar 2232  0.2797103E+02  0.3075268E+02  0.4191967E+02  0.0000000E+00
Ar 2233  0.2768434E+02  0.2768433E+02  0.4382720E+02  0.0000000E+00
Ar 2234  0.3060369E+02  0.3060367E+02  0.4458094E+02  0.0000000E+00
Ar 2235  0.3061440E+02  0.2796696E+02  0.4748173E+02  0.0000000E+00
Ar 2236  0.2796696E+02  0.3061439E+02  0.4748174E+02  0.0000000E+00
Ar 2237  0.2805300E+02  0.2805299E+02  0.5003417E+02  0.0000000E+00
Ar 2238  0.3109912E+02  0.3109911E+02  0.4991781E+02  0.0000000E+00
Ar 2239  0.3061577E+02  0.2786642E+02  0.5285280E+02  0.0000000E+00
Ar 2240  0.2786644E+02  0.3061575E+02  0.5285279E+02  0.0000000E+00
Ar 2241  0.2801724E+02  0.3349803E+02  0.3668000E+00  0.0000000E+00
Ar 2242  0.3090433E+02  0.3663558E+02  0.5552725E+02  0.0000000E+00
Ar 2243  0.3079027E+02  0.3358762E+02  0.2975646E+01  0.0000000E+00
Ar 2244  0.2803351E+02  0.3580588E+02  0.3247469E+01  0.0000000E+00
Ar 2245  0.2719111E+02  0.3278163E+02  0.6009465E+01  0.0000000E+00
Ar 2246  0.3066145E+02  0.3609893E+02  0.5737657E+01  0.0000000E+00
Ar 2247  0.3053699E+02  0.3359190E+02  0.8484250E+01  0.0000000E+00
Ar 2248  0.2771421E+02  0.3605742E+02  0.8570196E+01  0.0000000E+00
Ar 2249  0.2752842E+02  0.3338339E+02  0.1121265E+02  0.0000000E+00
Ar 2250  0.3028316E+02  0.3614396E+02  0.1139659E+02  0.0000000E+00
Ar 2251  0.3007820E+02  0.3328694E+02  0.1366090E+02  0.0000000E+00
Ar 2252  0.2746428E+02  0.3622345E+02  0.1394989E+02  0.0000000E+00
Ar 2253  0.2777166E+02  0.3334473E+02  0.1644464E+02  0.0000000E+00
Ar 2254  0.3087833E+02  0.3634126E+02  0.1661328E+02  0.0000000E+00
Ar 2255  0.3070249E+02  0.3341401E+02  0.1893766E+02  0.0000000E+00
Ar 2256  0.2791734E+02  0.3615567E+02  0.1945492E+02  0.0000000E+00
Ar 2257  0.2815631E+02  0.3329232E+02  0.2222797E+02  0.0000000E+00
Ar 2258  0.3078114E+02  0.3609268E+02  0.2228232E+02  0.0000000E+00
Ar 2259  0.3083544E+02  0.3331846E+02  0.2503539E+02  0.0000000E+00
Ar 2260  0.2819295E+02  0.3589887E+02  0.2498978E+02  0.0000000E+00
Ar 2261  0.2786500E+02  0.3369824E+02  0.2786499E+02  0.0000000E+00
Ar 2262  0.3098866E+02  0.3612535E+02  0.2763986E+02  0.0000000E+00
Ar 2263  0.3036768E+02  0.3322364E+02  0.3036768E+02  0.0000000E+00
Ar 2264  0.2763987E+02  0.3612534E+02  0.3098866E+02  0.0000000E+00
Ar 2265  0.2806284E+02  0.3337450E+02  0.3337449E+02  0.0000000E+00
Ar 2266  0.3066300E+02  0.3606988E+02  0.3329965E+02  0.0000000E+00
Ar 2267  0.3066300E+02  0.3329965E+02  0.3606988E+02  0.0000000E+00
Ar 2268  0.2771426E+02  0.3602847E+02  0.3602847E+02  0.0000000E+00
Ar 2269  0.2782554E+02  0.3318135E+02  0.3920389E+02  0.0000000E+00
Ar 2270  0.3010049E+02  0.3602735E+02  0.3886380E+02  0.0000000E+00
Ar 2271  0.3065171E+02  0.3348737E+02  0.4187945E+02  0.0000000E+00
Ar 2272  0.2776353E+02  0.3608705E+02  0.4150184E+02  0.0000000E+00
Ar 2273  0.2803370E+02  0.3331299E+02  0.4494208E+02  0.0000000E+00
Ar 2274  0.3029251E+02  0.3627419E+02  0.4432234E+02  0.0000000E+00
Ar 2275  0.3104254E+02  0.3366453E+02  0.4725255E+02  0.0000000E+00
Ar 2276  0.2800704E+02  0.3638805E+02  0.4716510E+02  0.0000000E+00
Ar 2277  0.2793100E+02  0.3346085E+02  0.5011375E+02  0.0000000E+00
Ar 2278  0.3101809E+02  0.3612997E+02  0.4999294E+02  0.0000000E+00
Ar 2279  0.3067688E+02  0.3363038E+02  0.5299986E+02  0.0000000E+00
Ar 2280  0.2789540E+02  0.3630965E+02  0.5251717E+02  0.0000000E+00
Ar 2281  0.2787126E+02  0.3875593E+02  0.3398937E+00  0.0000000E+00
Ar 2282  0.3027230E+02  0.4118553E+02  0.5535847E+02  0.0000000E+00
Ar 2283  0.3056334E+02  0.3879098E+02  0.3279130E+01  0.0000000E+00
Ar 2284  0.2766188E+02  0.4171306E+02  0.3237435E+01  0.0000000E+00
Ar 2285  0.2780088E+02  0.3886852E+02  0.5899029E+01  0.0000000E+00
Ar 2286  0.3048926E+02  0.4135904E+02  0.5851229E+01  0.0000000E+00
Ar 2287  0.3037472E+02  0.3849196E+02  0.8646546E+01  0.0000000E+00
Ar 2288  0.2754250E+02  0.4157079E+02  0.8338598E+01  0.0000000E+00
Ar 2289  0.2757160E+02  0.3912448E+02  0.1152785E+02  0.0000000E+00
Ar 2290  0.3026504E+02  0.4154824E+02  0.1111931E+02  0.0000000E+00
Ar 2291  0.3076947E+02  0.3928103E+02  0.1387106E+02  0.0000000E+00
Ar 2292  0.2781704E+02  0.4200333E+02  0.1385956E+02  0.0000000E+00
Ar 2293  0.2790151E+02  0.3920961E+02  0.1680932E+02  0.0000000E+00
Ar 2294  0.3062008E+02  0.4184943E+02  0.1694257E+02  0.0000000E+00
Ar 2295  0.3064714E+02  0.3871629E+02  0.1961951E+02  0.0000000E+00
Ar 2296  0.2794082E+02  0.4194430E+02  0.1928484E+02  0.0000000E+00
Ar 2297  0.2805479E+02  0.3911215E+02  0.2220232E+02  0.0000000E+00
Ar 2298  0.3054325E+02  0.4181954E+02  0.2202979E+02  0.0000000E+00
Ar 2299  0.3061377E+02  0.3921749E+02  0.2526587E+02  0.0000000E+00
Ar 2300  0.2784985E+02  0.4164394E+02  0.2489836E+02  0.0000000E+00
Ar 2301  0.2799054E+02  0.3860944E+02  0.2799054E+02  0.0000000E+00
Ar 2302  0.3075269E+02  0.4191968E+02  0.2797103E+02  0.0000000E+00
Ar 2303  0.3067184E+02  0.3873557E+02  0.3067183E+02  0.0000000E+00
Ar 2304  0.2797103E+02  0.4191967E+02  0.3075268E+02  0.0000000E+00
Ar 2305  0.2782554E+02  0.3920389E+02  0.3318134E+02  0.0000000E+00
Ar 2306  0.3065172E+02  0.4187945E+02  0.3348736E+02  0.0000000E+00
Ar 2307  0.3010049E+02  0.3886379E+02  0.3602734E+02  0.0000000E+00
Ar 2308  0.2776354E+02  0.4150184E+02  0.3608705E+02  0.0000000E+00
Ar 2309  0.2762131E+02  0.3919344E+02  0.3919345E+02  0.0000000E+00
Ar 2310  0.3050657E+02  0.4202863E+02  0.3911060E+02  0.0000000E+00
Ar 2311  0.3050657E+02  0.3911059E+02  0.4202863E+02  0.0000000E+00
Ar 2312  0.2822500E+02  0.4185454E+02  0.4185454E+02  0.0000000E+00
Ar 2313  0.2782646E+02  0.3913034E+02  0.4451996E+02  0.0000000E+00
Ar 2314  0.3078700E+02  0.4174276E+02  0.4463415E+02  0.0000000E+00
Ar 2315  0.3085193E+02  0.3909055E+02  0.4737662E+02  0.0000000E+00
Ar 2316  0.2825324E+02  0.4180348E+02  0.4734170E+02  0.0000000E+00
Ar 2317  0.2791279E+02  0.3907834E+02  0.4982170E+02  0.0000000E+00
Ar 2318  0.3106120E+02  0.4161309E+02  0.4983793E+02  0.0000000E+00
Ar 2319  0.3039734E+02  0.3879322E+02  0.5256748E+02  0.0000000E+00
Ar 2320  0.2768995E+02  0.4161044E+02  0.5269522E+02  0.0000000E+00
Ar 2321  0.2792662E+02  0.4419316E+02  0.5538273E+02  0.0000000E+00
Ar 2322  0.3130348E+02  0.4740381E+02  0.5547905E+02  0.0000000E+00
Ar 2323  0.3075465E+02  0.4435351E+02  0.3037995E+01  0.0000000E+00
Ar 2324  0.2770228E+02  0.4706075E+02  0.3105705E+01  0.0000000E+00
Ar 2325  0.2759686E+02  0.4445270E+02  0.5744985E+01  0.0000000E+00
Ar 2326  0.3045043E+02  0.4675867E+02  0.5622333E+01  0.0000000E+00
Ar 2327  0.3042862E+02  0.4418065E+02  0.8432072E+01  0.0000000E+00
Ar 2328  0.2762771E+02  0.4728568E+02  0.8445758E+01  0.0000000E+00
Ar 2329  0.2787681E+02  0.4458737E+02  0.1111928E+02  0.0000000E+00
Ar 2330  0.3069997E+02  0.4710518E+02  0.1127306E+02  0.0000000E+00
Ar 2331  0.3059489E+02  0.4452943E+02  0.1406988E+02  0.0000000E+00
Ar 2332  0.2780300E+02  0.4734058E+02  0.1385511E+02  0.0000000E+00
Ar 2333  0.2777207E+02  0.4462419E+02  0.1670102E+02  0.0000000E+00
Ar 2334  0.3050496E+02  0.4731339E+02  0.1671308E+02  0.0000000E+00
Ar 2335  0.3070722E+02  0.4459742E+02  0.1952050E+02  0.0000000E+00
Ar 2336  0.2768486E+02  0.4739772E+02  0.1937090E+02  0.0000000E+00
Ar 2337  0.2776072E+02  0.4438452E+02  0.2234458E+02  0.0000000E+00
Ar 2338  0.3029871E+02  0.4728987E+02  0.2211642E+02  0.0000000E+00
Ar 2339  0.3059593E+02  0.4449567E+02  0.2500925E+02  0.0000000E+00
Ar 2340  0.2791938E+02  0.4720182E+02  0.2532488E+02  0.0000000E+00
Ar 2341  0.2768434E+02  0.4382720E+02  0.2768433E+02  0.0000000E+00
Ar 2342  0.3061441E+02  0.4748173E+02  0.2796696E+02  0.0000000E+00
Ar 2343  0.3060369E+02  0.4458094E+02  0.3060368E+02  0.0000000E+00
Ar 2344  0.2796696E+02  0.4748173E+02  0.3061439E+02  0.0000000E+00
Ar 2345  0.2803370E+02  0.4494208E+02  0.3331300E+02  0.0000000E+00
Ar 2346  0.3104254E+02  0.4725255E+02  0.3366453E+02  0.0000000E+00
Ar 2347  0.3029252E+02  0.4432233E+02  0.3627418E+02  0.0000000E+00
Ar 2348  0.2800704E+02  0.4716510E+02  0.3638805E+02  0.0000000E+00
Ar 2349  0.2782645E+02  0.4451995E+02  0.3913034E+02  0.0000000E+00
Ar 2350  0.3085193E+02  0.4737662E+02  0.3909055E+02  0.0000000E+00
Ar 2351  0.3078700E+02  0.4463414E+02  0.4174275E+02  0.0000000E+00
Ar 2352  0.2825322E+02  0.4734166E+02  0.4180343E+02  0.0000000E+00
Ar 2353  0.2849002E+02  0.4430159E+02  0.4430159E+02  0.0000000E+00
Ar 2354  0.3085511E+02  0.4716940E+02  0.4455570E+02  0.0000000E+00
Ar 2355  0.3085512E+02  0.4455597E+02  0.4716964E+02  0.0000000E+00
Ar 2356  0.2836991E+02  0.4714768E+02  0.4714757E+02  0.0000000E+00
Ar 2357  0.2794011E+02  0.4440672E+02  0.5041408E+02  0.0000000E+00
Ar 2358  0.3073277E+02  0.4688518E+02  0.4997679E+02  0.0000000E+00
Ar 2359  0.3074440E+02  0.4430602E+02  0.5288174E+02  0.0000000E+00
Ar 2360  0.2819394E+02  0.4738081E+02  0.5257296E+02  0.0000000E+00
Ar 2361  0.2805725E+02  0.4966841E+02  0.6091514E+00  0.0000000E+00
Ar 2362  0.3137267E+02  0.5227043E+02  0.4266709E+00  0.0000000E+00
Ar 2363  0.3117003E+02  0.4980623E+02  0.2951696E+01  0.0000000E+00
Ar 2364  0.2818190E+02  0.5226162E+02  0.3040185E+01  0.0000000E+00
Ar 2365  0.2771125E+02  0.4973781E+02  0.5524147E+01  0.0000000E+00
Ar 2366  0.3095505E+02  0.5277042E+02  0.5592408E+01  0.0000000E+00
Ar 2367  0.3063476E+02  0.4971866E+02  0.8076802E+01  0.0000000E+00
Ar 2368  0.2823943E+02  0.5246745E+02  0.8318786E+01  0.0000000E+00
Ar 2369  0.2803605E+02  0.5004629E+02  0.1105032E+02  0.0000000E+00
Ar 2370  0.3066814E+02  0.5268993E+02  0.1115283E+02  0.0000000E+00
Ar 2371  0.3067873E+02  0.5034196E+02  0.1405323E+02  0.0000000E+00
Ar 2372  0.2767433E+02  0.5286005E+02  0.1374362E+02  0.0000000E+00
Ar 2373  0.2796890E+02  0.5032498E+02  0.1671866E+02  0.0000000E+00
Ar 2374  0.3092540E+02  0.5264714E+02  0.1700025E+02  0.0000000E+00
Ar 2375  0.3068067E+02  0.4995802E+02  0.1959195E+02  0.0000000E+00
Ar 2376  0.2805336E+02  0.5258397E+02  0.1967546E+02  0.0000000E+00
Ar 2377  0.2774717E+02  0.5009798E+02  0.2220358E+02  0.0000000E+00
Ar 2378  0.3071661E+02  0.5269918E+02  0.2229195E+02  0.0000000E+00
Ar 2379  0.3059512E+02  0.5005353E+02  0.2523918E+02  0.0000000E+00
Ar 2380  0.2804376E+02  0.5285982E+02  0.2526808E+02  0.0000000E+00
Ar 2381  0.2805300E+02  0.5003416E+02  0.2805299E+02  0.0000000E+00
Ar 2382  0.3061576E+02  0.5285279E+02  0.2786642E+02  0.0000000E+00
Ar 2383  0.3109911E+02  0.4991780E+02  0.3109910E+02  0.0000000E+00
Ar 2384  0.2786643E+02  0.5285278E+02  0.3061575E+02  0.0000000E+00
Ar 2385  0.2793100E+02  0.5011375E+02  0.3346085E+02  0.0000000E+00
Ar 2386  0.3067687E+02  0.5299986E+02  0.3363038E+02  0.0000000E+00
Ar 2387  0.3101809E+02  0.4999296E+02  0.3612998E+02  0.0000000E+00
Ar 2388  0.2789540E+02  0.5251717E+02  0.3630965E+02  0.0000000E+00
Ar 2389  0.2791279E+02  0.4982169E+02  0.3907834E+02  0.0000000E+00
Ar 2390  0.3039734E+02  0.5256749E+02  0.3879324E+02  0.0000000E+00
Ar 2391  0.3106118E+02  0.4983791E+02  0.4161310E+02  0.0000000E+00
Ar 2392  0.2769003E+02  0.5269526E+02  0.4161029E+02  0.0000000E+00
Ar 2393  0.2794035E+02  0.5041164E+02  0.4440415E+02  0.0000000E+00
Ar 2394  0.3074433E+02  0.5288155E+02  0.4430601E+02  0.0000000E+00
Ar 2395  0.3073412E+02  0.4997515E+02  0.4688495E+02  0.0000000E+00
Ar 2396  0.2819115E+02  0.5257162E+02  0.4737826E+02  0.0000000E+00
Ar 2397  0.2829420E+02  0.4972950E+02  0.4972852E+02  0.0000000E+00
Ar 2398  0.3129881E+02  0.5254599E+02  0.4966645E+02  0.0000000E+00
Ar 2399  0.3130405E+02  0.4967807E+02  0.5254725E+02  0.0000000E+00
Ar 2400  0.2861056E+02  0.5271870E+02  0.5271103E+02  0.0000000E+00
Ar 2401  0.3416574E+02  0.5549652E+02  0.5549695E+02  0.0000000E+00
Ar 2402  0.3657014E+02  0.3075870E+01  0.2233515E+00  0.0000000E+00
Ar 2403  0.3650162E+02  0.2196515E+00  0.3014455E+01  0.0000000E+00
Ar 2404  0.3342975E+02  0.3089279E+01  0.3088458E+01  0.0000000E+00
Ar 2405  0.3307096E+02  0.2145370E+00  0.5762493E+01  0.0000000E+00
Ar 2406  0.3620149E+02  0.3103024E+01  0.5584050E+01  0.0000000E+00
Ar 2407  0.3614075E+02  0.3166964E+00  0.8134387E+01  0.0000000E+00
Ar 2408  0.3336153E+02  0.3052112E+01  0.8500346E+01  0.0000000E+00
Ar 2409  0.3317162E+02  0.2024737E+00  0.1094007E+02  0.0000000E+00
Ar 2410  0.3612657E+02  0.2870254E+01  0.1087715E+02  0.0000000E+00
Ar 2411  0.3597943E+02  0.5532476E+02  0.1410650E+02  0.0000000E+00
Ar 2412  0.3315396E+02  0.2872634E+01  0.1418279E+02  0.0000000E+00
Ar 2413  0.3376353E+02  0.4242910E+00  0.1745629E+02  0.0000000E+00
Ar 2414  0.3640972E+02  0.3045803E+01  0.1682944E+02  0.0000000E+00
Ar 2415  0.3654216E+02  0.4808024E+00  0.1960450E+02  0.0000000E+00
Ar 2416  0.3345167E+02  0.3094995E+01  0.1953816E+02  0.0000000E+00
Ar 2417  0.3342313E+02  0.3244008E+00  0.2217585E+02  0.0000000E+00
Ar 2418  0.3587750E+02  0.3321088E+01  0.2229166E+02  0.0000000E+00
Ar 2419  0.3639037E+02  0.5193867E+00  0.2483858E+02  0.0000000E+00
Ar 2420  0.3352389E+02  0.3268721E+01  0.2533555E+02  0.0000000E+00
Ar 2421  0.3349804E+02  0.3667954E+00  0.2801725E+02  0.0000000E+00
Ar 2422  0.3580592E+02  0.3247463E+01  0.2803350E+02  0.0000000E+00
Ar 2423  0.3663559E+02  0.5552723E+02  0.3090431E+02  0.0000000E+00
Ar 2424  0.3358762E+02  0.2975667E+01  0.3079026E+02  0.0000000E+00
Ar 2425  0.3321338E+02  0.5537922E+02  0.3321339E+02  0.0000000E+00
Ar 2426  0.3641436E+02  0.3307741E+01  0.3356846E+02  0.0000000E+00
Ar 2427  0.3619276E+02  0.4634875E+00  0.3619274E+02  0.0000000E+00
Ar 2428  0.3356847E+02  0.3307735E+01  0.3641436E+02  0.0000000E+00
Ar 2429  0.3326306E+02  0.4639700E+00  0.3892589E+02  0.0000000E+00
Ar 2430  0.3604813E+02  0.3356902E+01  0.3894819E+02  0.0000000E+00
Ar 2431  0.3613269E+02  0.5115570E+00  0.4110383E+02  0.0000000E+00
Ar 2432  0.3301062E+02  0.3002918E+01  0.4156515E+02  0.0000000E+00
Ar 2433  0.3378481E+02  0.5533025E+02  0.4448772E+02  0.0000000E+00
Ar 2434  0.3625638E+02  0.3032334E+01  0.4463438E+02  0.0000000E+00
Ar 2435  0.3632213E+02  0.5553834E+02  0.4671456E+02  0.0000000E+00
Ar 2436  0.3352846E+02  0.3442941E+01  0.4711581E+02  0.0000000E+00
Ar 2437  0.3406521E+02  0.5535464E+02  0.4985224E+02  0.0000000E+00
Ar 2438  0.3639332E+02  0.3054724E+01  0.4968191E+02  0.0000000E+00
Ar 2439  0.3645674E+02  0.5551959E+02  0.5259530E+02  0.0000000E+00
Ar 2440  0.3391995E+02  0.3356267E+01  0.5306259E+02  0.0000000E+00
Ar 2441  0.3307278E+02  0.5765767E+01  0.2148640E+00  0.0000000E+00
Ar 2442  0.3614022E+02  0.8135126E+01  0.3179502E+00  0.0000000E+00
Ar 2443  0.3620235E+02  0.5583109E+01  0.3101300E+01  0.0000000E+00
Ar 2444  0.3336163E+02  0.8500414E+01  0.3052393E+01  0.0000000E+00
Ar 2445  0.3323269E+02  0.5675849E+01  0.5675670E+01  0.0000000E+00
Ar 2446  0.3618186E+02  0.8334354E+01  0.5619452E+01  0.0000000E+00
Ar 2447  0.3618176E+02  0.5619328E+01  0.8334248E+01  0.0000000E+00
Ar 2448  0.3309783E+02  0.8256481E+01  0.8256498E+01  0.0000000E+00
Ar 2449  0.3342442E+02  0.5667339E+01  0.1138258E+02  0.0000000E+00
Ar 2450  0.3610735E+02  0.8525511E+01  0.1116031E+02  0.0000000E+00
Ar 2451  0.3620507E+02  0.5769228E+01  0.1395988E+02  0.0000000E+00
Ar 2452  0.3330124E+02  0.8315127E+01  0.1399656E+02  0.0000000E+00
Ar 2453  0.3323345E+02  0.5732981E+01  0.1692467E+02  0.0000000E+00
Ar 2454  0.3606664E+02  0.8417567E+01  0.1659147E+02  0.0000000E+00
Ar 2455  0.3606668E+02  0.6018575E+01  0.1934994E+02  0.0000000E+00
Ar 2456  0.3345261E+02  0.8687298E+01  0.1899755E+02  0.0000000E+00
Ar 2457  0.3311094E+02  0.6020444E+01  0.2215487E+02  0.0000000E+00
Ar 2458  0.3610696E+02  0.8639476E+01  0.2214997E+02  0.0000000E+00
Ar 2459  0.3614534E+02  0.5936655E+01  0.2492952E+02  0.0000000E+00
Ar 2460  0.3315540E+02  0.8793129E+01  0.2494306E+02  0.0000000E+00
Ar 2461  0.3278164E+02  0.6009445E+01  0.2719111E+02  0.0000000E+00
Ar 2462  0.3605741E+02  0.8570179E+01  0.2771421E+02  0.0000000E+00
Ar 2463  0.3609895E+02  0.5737649E+01  0.3066144E+02  0.0000000E+00
Ar 2464  0.3359189E+02  0.8484257E+01  0.3053700E+02  0.0000000E+00
Ar 2465  0.3374888E+02  0.6027292E+01  0.3374888E+02  0.0000000E+00
Ar 2466  0.3617502E+02  0.8901525E+01  0.3303663E+02  0.0000000E+00
Ar 2467  0.3636453E+02  0.5793323E+01  0.3636452E+02  0.0000000E+00
Ar 2468  0.3303666E+02  0.8901529E+01  0.3617500E+02  0.0000000E+00
Ar 2469  0.3350331E+02  0.6304102E+01  0.3870998E+02  0.0000000E+00
Ar 2470  0.3621032E+02  0.8681108E+01  0.3903458E+02  0.0000000E+00
Ar 2471  0.3617240E+02  0.6024911E+01  0.4159166E+02  0.0000000E+00
Ar 2472  0.3330573E+02  0.8640101E+01  0.4173062E+02  0.0000000E+00
Ar 2473  0.3346004E+02  0.5857363E+01  0.4418882E+02  0.0000000E+00
Ar 2474  0.3622077E+02  0.8558233E+01  0.4436879E+02  0.0000000E+00
Ar 2475  0.3598212E+02  0.6522440E+01  0.4720779E+02  0.0000000E+00
Ar 2476  0.3327273E+02  0.8498358E+01  0.4696459E+02  0.0000000E+00
Ar 2477  0.3341335E+02  0.5970283E+01  0.5008682E+02  0.0000000E+00
Ar 2478  0.3617118E+02  0.8624259E+01  0.4988057E+02  0.0000000E+00
Ar 2479  0.3619884E+02  0.6117596E+01  0.5260306E+02  0.0000000E+00
Ar 2480  0.3334332E+02  0.8576701E+01  0.5290188E+02  0.0000000E+00
Ar 2481  0.3317171E+02  0.1094010E+02  0.2024888E+00  0.0000000E+00
Ar 2482  0.3597947E+02  0.1410651E+02  0.5532476E+02  0.0000000E+00
Ar 2483  0.3612689E+02  0.1087757E+02  0.2870228E+01  0.0000000E+00
Ar 2484  0.3315396E+02  0.1418278E+02  0.2872624E+01  0.0000000E+00
Ar 2485  0.3342445E+02  0.1138285E+02  0.5667549E+01  0.0000000E+00
Ar 2486  0.3620510E+02  0.1395991E+02  0.5769216E+01  0.0000000E+00
Ar 2487  0.3610746E+02  0.1116031E+02  0.8525634E+01  0.0000000E+00
Ar 2488  0.3330123E+02  0.1399666E+02  0.8315223E+01  0.0000000E+00
Ar 2489  0.3334466E+02  0.1121341E+02  0.1121340E+02  0.0000000E+00
Ar 2490  0.3627706E+02  0.1387188E+02  0.1099946E+02  0.0000000E+00
Ar 2491  0.3627705E+02  0.1099946E+02  0.1387188E+02  0.0000000E+00
Ar 2492  0.3323999E+02  0.1380885E+02  0.1380886E+02  0.0000000E+00
Ar 2493  0.3348894E+02  0.1117357E+02  0.1664004E+02  0.0000000E+00
Ar 2494  0.3622366E+02  0.1386461E+02  0.1678586E+02  0.0000000E+00
Ar 2495  0.3631955E+02  0.1114145E+02  0.1930113E+02  0.0000000E+00
Ar 2496  0.3354652E+02  0.1376927E+02  0.1951433E+02  0.0000000E+00
Ar 2497  0.3343349E+02  0.1118583E+02  0.2205559E+02  0.0000000E+00
Ar 2498  0.3626191E+02  0.1380843E+02  0.2226344E+02  0.0000000E+00
Ar 2499  0.3609995E+02  0.1120064E+02  0.2492887E+02  0.0000000E+00
Ar 2500  0.3343857E+02  0.1391096E+02  0.2469020E+02  0.0000000E+00
Ar 2501  0.3338339E+02  0.1121264E+02  0.2752841E+02  0.0000000E+00
Ar 2502  0.3622347E+02  0.1394988E+02  0.2746427E+02  0.0000000E+00
Ar 2503  0.3614398E+02  0.1139657E+02  0.3028315E+02  0.0000000E+00
Ar 2504  0.3328697E+02  0.1366091E+02  0.3007818E+02  0.0000000E+00
Ar 2505  0.3305127E+02  0.1150593E+02  0.3305127E+02  0.0000000E+00
Ar 2506  0.3635608E+02  0.1387748E+02  0.3316031E+02  0.0000000E+00
Ar 2507  0.3623900E+02  0.1151515E+02  0.3623901E+02  0.0000000E+00
Ar 2508  0.3316030E+02  0.1387748E+02  0.3635606E+02  0.0000000E+00
Ar 2509  0.3341584E+02  0.1135172E+02  0.3896043E+02  0.0000000E+00
Ar 2510  0.3608456E+02  0.1403918E+02  0.3903872E+02  0.0000000E+00
Ar 2511  0.3616420E+02  0.1150724E+02  0.4161006E+02  0.0000000E+00
Ar 2512  0.3333017E+02  0.1427261E+02  0.4189853E+02  0.0000000E+00
Ar 2513  0.3316401E+02  0.1104141E+02  0.4434835E+02  0.0000000E+00
Ar 2514  0.3603567E+02  0.1384416E+02  0.4476865E+02  0.0000000E+00
Ar 2515  0.3605183E+02  0.1117173E+02  0.4695315E+02  0.0000000E+00
Ar 2516  0.3301199E+02  0.1416599E+02  0.4718765E+02  0.0000000E+00
Ar 2517  0.3314303E+02  0.1131731E+02  0.4997411E+02  0.0000000E+00
Ar 2518  0.3588789E+02  0.1393338E+02  0.4969090E+02  0.0000000E+00
Ar 2519  0.3621556E+02  0.1123101E+02  0.5259310E+02  0.0000000E+00
Ar 2520  0.3341115E+02  0.1417374E+02  0.5275749E+02  0.0000000E+00
Ar 2521  0.3376353E+02  0.1745629E+02  0.4242887E+00  0.0000000E+00
Ar 2522  0.3654217E+02  0.1960450E+02  0.4808046E+00  0.0000000E+00
Ar 2523  0.3640970E+02  0.1682942E+02  0.3045797E+01  0.0000000E+00
Ar 2524  0.3345167E+02  0.1953816E+02  0.3095001E+01  0.0000000E+00
Ar 2525  0.3323346E+02  0.1692463E+02  0.5732959E+01  0.0000000E+00
Ar 2526  0.3606667E+02  0.1934993E+02  0.6018575E+01  0.0000000E+00
Ar 2527  0.3606664E+02  0.1659147E+02  0.8417567E+01  0.0000000E+00
Ar 2528  0.3345261E+02  0.1899753E+02  0.8687282E+01  0.0000000E+00
Ar 2529  0.3348894E+02  0.1664004E+02  0.1117357E+02  0.0000000E+00
Ar 2530  0.3631955E+02  0.1930113E+02  0.1114144E+02  0.0000000E+00
Ar 2531  0.3622366E+02  0.1678586E+02  0.1386461E+02  0.0000000E+00
Ar 2532  0.3354651E+02  0.1951433E+02  0.1376927E+02  0.0000000E+00
Ar 2533  0.3326651E+02  0.1653978E+02  0.1653978E+02  0.0000000E+00
Ar 2534  0.3601363E+02  0.1924861E+02  0.1679049E+02  0.0000000E+00
Ar 2535  0.3601363E+02  0.1679049E+02  0.1924861E+02  0.0000000E+00
Ar 2536  0.3339113E+02  0.1971275E+02  0.1971274E+02  0.0000000E+00
Ar 2537  0.3354049E+02  0.1650476E+02  0.2199018E+02  0.0000000E+00
Ar 2538  0.3608786E+02  0.1993286E+02  0.2251285E+02  0.0000000E+00
Ar 2539  0.3583692E+02  0.1652137E+02  0.2484953E+02  0.0000000E+00
Ar 2540  0.3298765E+02  0.1929703E+02  0.2520371E+02  0.0000000E+00
Ar 2541  0.3334475E+02  0.1644464E+02  0.2777165E+02  0.0000000E+00
Ar 2542  0.3615568E+02  0.1945491E+02  0.2791733E+02  0.0000000E+00
Ar 2543  0.3634126E+02  0.1661327E+02  0.3087831E+02  0.0000000E+00
Ar 2544  0.3341403E+02  0.1893765E+02  0.3070250E+02  0.0000000E+00
Ar 2545  0.3332446E+02  0.1592368E+02  0.3332444E+02  0.0000000E+00
Ar 2546  0.3627817E+02  0.1942406E+02  0.3323048E+02  0.0000000E+00
Ar 2547  0.3628315E+02  0.1723651E+02  0.3628315E+02  0.0000000E+00
Ar 2548  0.3323049E+02  0.1942406E+02  0.3627817E+02  0.0000000E+00
Ar 2549  0.3313227E+02  0.1689532E+02  0.3916273E+02  0.0000000E+00
Ar 2550  0.3625605E+02  0.1959985E+02  0.3918991E+02  0.0000000E+00
Ar 2551  0.3611422E+02  0.1667230E+02  0.4162834E+02  0.0000000E+00
Ar 2552  0.3354212E+02  0.1963010E+02  0.4207163E+02  0.0000000E+00
Ar 2553  0.3354567E+02  0.1687476E+02  0.4465240E+02  0.0000000E+00
Ar 2554  0.3632118E+02  0.1943752E+02  0.4441154E+02  0.0000000E+00
Ar 2555  0.3587088E+02  0.1683087E+02  0.4719513E+02  0.0000000E+00
Ar 2556  0.3351531E+02  0.1955941E+02  0.4730071E+02  0.0000000E+00
Ar 2557  0.3331106E+02  0.1683317E+02  0.4998258E+02  0.0000000E+00
Ar 2558  0.3626543E+02  0.1954972E+02  0.4998234E+02  0.0000000E+00
Ar 2559  0.3602412E+02  0.1675156E+02  0.5259125E+02  0.0000000E+00
Ar 2560  0.3343967E+02  0.1974474E+02  0.5299996E+02  0.0000000E+00
Ar 2561  0.3342313E+02  0.2217585E+02  0.3243985E+00  0.0000000E+00
Ar 2562  0.3639037E+02  0.2483857E+02  0.5194023E+00  0.0000000E+00
Ar 2563  0.3587751E+02  0.2229165E+02  0.3321090E+01  0.0000000E+00
Ar 2564  0.3352388E+02  0.2533554E+02  0.3268726E+01  0.0000000E+00
Ar 2565  0.3311094E+02  0.2215487E+02  0.6020446E+01  0.0000000E+00
Ar 2566  0.3614534E+02  0.2492952E+02  0.5936651E+01  0.0000000E+00
Ar 2567  0.3610696E+02  0.2214997E+02  0.8639478E+01  0.0000000E+00
Ar 2568  0.3315540E+02  0.2494306E+02  0.8793131E+01  0.0000000E+00
Ar 2569  0.3343350E+02  0.2205559E+02  0.1118583E+02  0.0000000E+00
Ar 2570  0.3609995E+02  0.2492887E+02  0.1120064E+02  0.0000000E+00
Ar 2571  0.3626191E+02  0.2226344E+02  0.1380843E+02  0.0000000E+00
Ar 2572  0.3343857E+02  0.2469020E+02  0.1391096E+02  0.0000000E+00
Ar 2573  0.3354049E+02  0.2199018E+02  0.1650476E+02  0.0000000E+00
Ar 2574  0.3583692E+02  0.2484953E+02  0.1652137E+02  0.0000000E+00
Ar 2575  0.3608786E+02  0.2251285E+02  0.1993286E+02  0.0000000E+00
Ar 2576  0.3298765E+02  0.2520370E+02  0.1929704E+02  0.0000000E+00
Ar 2577  0.3345213E+02  0.2231528E+02  0.2231528E+02  0.0000000E+00
Ar 2578  0.3601590E+02  0.2543268E+02  0.2231257E+02  0.0000000E+00
Ar 2579  0.3601590E+02  0.2231256E+02  0.2543268E+02  0.0000000E+00
Ar 2580  0.3342627E+02  0.2512779E+02  0.2512780E+02  0.0000000E+00
Ar 2581  0.3329235E+02  0.2222796E+02  0.2815632E+02  0.0000000E+00
Ar 2582  0.3589889E+02  0.2498978E+02  0.2819295E+02  0.0000000E+00
Ar 2583  0.3609267E+02  0.2228231E+02  0.3078114E+02  0.0000000E+00
Ar 2584  0.3331847E+02  0.2503538E+02  0.3083543E+02  0.0000000E+00
Ar 2585  0.3356990E+02  0.2195164E+02  0.3356990E+02  0.0000000E+00
Ar 2586  0.3612526E+02  0.2470194E+02  0.3332393E+02  0.0000000E+00
Ar 2587  0.3625348E+02  0.2220916E+02  0.3625348E+02  0.0000000E+00
Ar 2588  0.3332393E+02  0.2470193E+02  0.3612526E+02  0.0000000E+00
Ar 2589  0.3369967E+02  0.2243025E+02  0.3914598E+02  0.0000000E+00
Ar 2590  0.3641916E+02  0.2508280E+02  0.3891229E+02  0.0000000E+00
Ar 2591  0.3607327E+02  0.2242813E+02  0.4208887E+02  0.0000000E+00
Ar 2592  0.3333347E+02  0.2518791E+02  0.4202314E+02  0.0000000E+00
Ar 2593  0.3313975E+02  0.2212949E+02  0.4474490E+02  0.0000000E+00
Ar 2594  0.3610729E+02  0.2510779E+02  0.4488224E+02  0.0000000E+00
Ar 2595  0.3621782E+02  0.2233748E+02  0.4716016E+02  0.0000000E+00
Ar 2596  0.3336077E+02  0.2515430E+02  0.4737770E+02  0.0000000E+00
Ar 2597  0.3330931E+02  0.2238205E+02  0.4992762E+02  0.0000000E+00
Ar 2598  0.3618400E+02  0.2511041E+02  0.4995761E+02  0.0000000E+00
Ar 2599  0.3622378E+02  0.2237025E+02  0.5262387E+02  0.0000000E+00
Ar 2600  0.3367242E+02  0.2548010E+02  0.5287543E+02  0.0000000E+00
Ar 2601  0.3349804E+02  0.2801725E+02  0.3667927E+00  0.0000000E+00
Ar 2602  0.3663559E+02  0.3090431E+02  0.5552724E+02  0.0000000E+00
Ar 2603  0.3580591E+02  0.2803349E+02  0.3247459E+01  0.0000000E+00
Ar 2604  0.3358762E+02  0.3079028E+02  0.2975659E+01  0.0000000E+00
Ar 2605  0.3278164E+02  0.2719111E+02  0.6009450E+01  0.0000000E+00
Ar 2606  0.3609895E+02  0.3066143E+02  0.5737644E+01  0.0000000E+00
Ar 2607  0.3605741E+02  0.2771421E+02  0.8570176E+01  0.0000000E+00
Ar 2608  0.3359188E+02  0.3053700E+02  0.8484255E+01  0.0000000E+00
Ar 2609  0.3338339E+02  0.2752842E+02  0.1121265E+02  0.0000000E+00
Ar 2610  0.3614398E+02  0.3028315E+02  0.1139658E+02  0.0000000E+00
Ar 2611  0.3622347E+02  0.2746427E+02  0.1394988E+02  0.0000000E+00
Ar 2612  0.3328698E+02  0.3007818E+02  0.1366092E+02  0.0000000E+00
Ar 2613  0.3334475E+02  0.2777165E+02  0.1644463E+02  0.0000000E+00
Ar 2614  0.3634126E+02  0.3087831E+02  0.1661328E+02  0.0000000E+00
Ar 2615  0.3615568E+02  0.2791733E+02  0.1945491E+02  0.0000000E+00
Ar 2616  0.3341403E+02  0.3070248E+02  0.1893767E+02  0.0000000E+00
Ar 2617  0.3329234E+02  0.2815631E+02  0.2222796E+02  0.0000000E+00
Ar 2618  0.3609268E+02  0.3078114E+02  0.2228231E+02  0.0000000E+00
Ar 2619  0.3589889E+02  0.2819295E+02  0.2498978E+02  0.0000000E+00
Ar 2620  0.3331847E+02  0.3083544E+02  0.2503538E+02  0.0000000E+00
Ar 2621  0.3369825E+02  0.2786499E+02  0.2786499E+02  0.0000000E+00
Ar 2622  0.3612535E+02  0.3098866E+02  0.2763986E+02  0.0000000E+00
Ar 2623  0.3612535E+02  0.2763986E+02  0.3098865E+02  0.0000000E+00
Ar 2624  0.3322365E+02  0.3036767E+02  0.3036767E+02  0.0000000E+00
Ar 2625  0.3337451E+02  0.2806280E+02  0.3337450E+02  0.0000000E+00
Ar 2626  0.3606988E+02  0.3066298E+02  0.3329965E+02  0.0000000E+00
Ar 2627  0.3602848E+02  0.2771425E+02  0.3602848E+02  0.0000000E+00
Ar 2628  0.3329965E+02  0.3066298E+02  0.3606987E+02  0.0000000E+00
Ar 2629  0.3318136E+02  0.2782552E+02  0.3920389E+02  0.0000000E+00
Ar 2630  0.3602734E+02  0.3010048E+02  0.3886380E+02  0.0000000E+00
Ar 2631  0.3608706E+02  0.2776352E+02  0.4150184E+02  0.0000000E+00
Ar 2632  0.3348739E+02  0.3065169E+02  0.4187945E+02  0.0000000E+00
Ar 2633  0.3331301E+02  0.2803367E+02  0.4494209E+02  0.0000000E+00
Ar 2634  0.3627421E+02  0.3029250E+02  0.4432234E+02  0.0000000E+00
Ar 2635  0.3638806E+02  0.2800702E+02  0.4716511E+02  0.0000000E+00
Ar 2636  0.3366454E+02  0.3104252E+02  0.4725254E+02  0.0000000E+00
Ar 2637  0.3346087E+02  0.2793098E+02  0.5011373E+02  0.0000000E+00
Ar 2638  0.3613000E+02  0.3101808E+02  0.4999294E+02  0.0000000E+00
Ar 2639  0.3630969E+02  0.2789537E+02  0.5251716E+02  0.0000000E+00
Ar 2640  0.3363039E+02  0.3067686E+02  0.5299985E+02  0.0000000E+00
Ar 2641  0.3321338E+02  0.3321337E+02  0.5537923E+02  0.0000000E+00
Ar 2642  0.3619276E+02  0.3619275E+02  0.4634814E+00  0.0000000E+00
Ar 2643  0.3641436E+02  0.3356846E+02  0.3307741E+01  0.0000000E+00
Ar 2644  0.3356846E+02  0.3641436E+02  0.3307734E+01  0.0000000E+00
Ar 2645  0.3374888E+02  0.3374887E+02  0.6027295E+01  0.0000000E+00
Ar 2646  0.3636452E+02  0.3636451E+02  0.5793325E+01  0.0000000E+00
Ar 2647  0.3617502E+02  0.3303663E+02  0.8901520E+01  0.0000000E+00
Ar 2648  0.3303666E+02  0.3617500E+02  0.8901539E+01  0.0000000E+00
Ar 2649  0.3305127E+02  0.3305126E+02  0.1150593E+02  0.0000000E+00
Ar 2650  0.3623900E+02  0.3623901E+02  0.1151516E+02  0.0000000E+00
Ar 2651  0.3635607E+02  0.3316031E+02  0.1387749E+02  0.0000000E+00
Ar 2652  0.3316030E+02  0.3635606E+02  0.1387748E+02  0.0000000E+00
Ar 2653  0.3332446E+02  0.3332444E+02  0.1592369E+02  0.0000000E+00
Ar 2654  0.3628315E+02  0.3628314E+02  0.1723652E+02  0.0000000E+00
Ar 2655  0.3627817E+02  0.3323048E+02  0.1942407E+02  0.0000000E+00
Ar 2656  0.3323049E+02  0.3627817E+02  0.1942407E+02  0.0000000E+00
Ar 2657  0.3356990E+02  0.3356989E+02  0.2195165E+02  0.0000000E+00
Ar 2658  0.3625348E+02  0.3625347E+02  0.2220916E+02  0.0000000E+00
Ar 2659  0.3612526E+02  0.3332393E+02  0.2470194E+02  0.0000000E+00
Ar 2660  0.3332394E+02  0.3612526E+02  0.2470194E+02  0.0000000E+00
Ar 2661  0.3337451E+02  0.3337450E+02  0.2806282E+02  0.0000000E+00
Ar 2662  0.3602848E+02  0.3602848E+02  0.2771424E+02  0.0000000E+00
Ar 2663  0.3606989E+02  0.3329965E+02  0.3066299E+02  0.0000000E+00
Ar 2664  0.3329966E+02  0.3606988E+02  0.3066299E+02  0.0000000E+00
Ar 2665  0.3297948E+02  0.3297947E+02  0.3297948E+02  0.0000000E+00
Ar 2666  0.3625037E+02  0.3625035E+02  0.3367445E+02  0.0000000E+00
Ar 2667  0.3625037E+02  0.3367444E+02  0.3625036E+02  0.0000000E+00
Ar 2668  0.3367445E+02  0.3625036E+02  0.3625036E+02  0.0000000E+00
Ar 2669  0.3353084E+02  0.3353083E+02  0.3917531E+02  0.0000000E+00
Ar 2670  0.3642560E+02  0.3642559E+02  0.3899232E+02  0.0000000E+00
Ar 2671  0.3618248E+02  0.3317068E+02  0.4173702E+02  0.0000000E+00
Ar 2672  0.3317070E+02  0.3618246E+02  0.4173701E+02  0.0000000E+00
Ar 2673  0.3380835E+02  0.3380834E+02  0.4471075E+02  0.0000000E+00
Ar 2674  0.3651620E+02  0.3651618E+02  0.4503625E+02  0.0000000E+00
Ar 2675  0.3647007E+02  0.3366828E+02  0.4743649E+02  0.0000000E+00
Ar 2676  0.3366830E+02  0.3647005E+02  0.4743649E+02  0.0000000E+00
Ar 2677  0.3393456E+02  0.3393455E+02  0.4995224E+02  0.0000000E+00
Ar 2678  0.3652088E+02  0.3652086E+02  0.4982405E+02  0.0000000E+00
Ar 2679  0.3642744E+02  0.3359013E+02  0.5261577E+02  0.0000000E+00
Ar 2680  0.3359015E+02  0.3642744E+02  0.5261578E+02  0.0000000E+00
Ar 2681  0.3326306E+02  0.3892589E+02  0.4639689E+00  0.0000000E+00
Ar 2682  0.3613269E+02  0.4110383E+02  0.5115607E+00  0.0000000E+00
Ar 2683  0.3604812E+02  0.3894819E+02  0.3356912E+01  0.0000000E+00
Ar 2684  0.3301062E+02  0.4156515E+02  0.3002905E+01  0.0000000E+00
Ar 2685  0.3350330E+02  0.3870998E+02  0.6304104E+01  0.0000000E+00
Ar 2686  0.3617240E+02  0.4159166E+02  0.6024911E+01  0.0000000E+00
Ar 2687  0.3621031E+02  0.3903458E+02  0.8681111E+01  0.0000000E+00
Ar 2688  0.3330573E+02  0.4173062E+02  0.8640101E+01  0.0000000E+00
Ar 2689  0.3341583E+02  0.3896043E+02  0.1135173E+02  0.0000000E+00
Ar 2690  0.3616419E+02  0.4161005E+02  0.1150725E+02  0.0000000E+00
Ar 2691  0.3608455E+02  0.3903872E+02  0.1403918E+02  0.0000000E+00
Ar 2692  0.3333017E+02  0.4189854E+02  0.1427260E+02  0.0000000E+00
Ar 2693  0.3313227E+02  0.3916273E+02  0.1689533E+02  0.0000000E+00
Ar 2694  0.3611422E+02  0.4162833E+02  0.1667230E+02  0.0000000E+00
Ar 2695  0.3625604E+02  0.3918991E+02  0.1959985E+02  0.0000000E+00
Ar 2696  0.3354211E+02  0.4207162E+02  0.1963010E+02  0.0000000E+00
Ar 2697  0.3369967E+02  0.3914597E+02  0.2243025E+02  0.0000000E+00
Ar 2698  0.3607327E+02  0.4208886E+02  0.2242814E+02  0.0000000E+00
Ar 2699  0.3641916E+02  0.3891228E+02  0.2508281E+02  0.0000000E+00
Ar 2700  0.3333347E+02  0.4202314E+02  0.2518791E+02  0.0000000E+00
Ar 2701  0.3318135E+02  0.3920390E+02  0.2782552E+02  0.0000000E+00
Ar 2702  0.3608706E+02  0.4150184E+02  0.2776353E+02  0.0000000E+00
Ar 2703  0.3602733E+02  0.3886379E+02  0.3010048E+02  0.0000000E+00
Ar 2704  0.3348738E+02  0.4187944E+02  0.3065170E+02  0.0000000E+00
Ar 2705  0.3353085E+02  0.3917531E+02  0.3353083E+02  0.0000000E+00
Ar 2706  0.3618248E+02  0.4173701E+02  0.3317068E+02  0.0000000E+00
Ar 2707  0.3642560E+02  0.3899232E+02  0.3642559E+02  0.0000000E+00
Ar 2708  0.3317070E+02  0.4173701E+02  0.3618245E+02  0.0000000E+00
Ar 2709  0.3325925E+02  0.3893208E+02  0.3893208E+02  0.0000000E+00
Ar 2710  0.3642498E+02  0.4179886E+02  0.3907916E+02  0.0000000E+00
Ar 2711  0.3642498E+02  0.3907916E+02  0.4179885E+02  0.0000000E+00
Ar 2712  0.3380742E+02  0.4163462E+02  0.4163462E+02  0.0000000E+00
Ar 2713  0.3360393E+02  0.3908757E+02  0.4441404E+02  0.0000000E+00
Ar 2714  0.3641465E+02  0.4174858E+02  0.4439161E+02  0.0000000E+00
Ar 2715  0.3612371E+02  0.3924151E+02  0.4731301E+02  0.0000000E+00
Ar 2716  0.3359726E+02  0.4202261E+02  0.4717032E+02  0.0000000E+00
Ar 2717  0.3337105E+02  0.3891968E+02  0.5017440E+02  0.0000000E+00
Ar 2718  0.3635487E+02  0.4208936E+02  0.4994725E+02  0.0000000E+00
Ar 2719  0.3628033E+02  0.3913021E+02  0.5268950E+02  0.0000000E+00
Ar 2720  0.3339486E+02  0.4142355E+02  0.5298767E+02  0.0000000E+00
Ar 2721  0.3378472E+02  0.4448780E+02  0.5533025E+02  0.0000000E+00
Ar 2722  0.3632184E+02  0.4671472E+02  0.5553879E+02  0.0000000E+00
Ar 2723  0.3625637E+02  0.4463434E+02  0.3032376E+01  0.0000000E+00
Ar 2724  0.3352850E+02  0.4711592E+02  0.3442923E+01  0.0000000E+00
Ar 2725  0.3346005E+02  0.4418885E+02  0.5857323E+01  0.0000000E+00
Ar 2726  0.3598200E+02  0.4720792E+02  0.6522383E+01  0.0000000E+00
Ar 2727  0.3622076E+02  0.4436885E+02  0.8558204E+01  0.0000000E+00
Ar 2728  0.3327268E+02  0.4696466E+02  0.8498256E+01  0.0000000E+00
Ar 2729  0.3316397E+02  0.4434842E+02  0.1104136E+02  0.0000000E+00
Ar 2730  0.3605175E+02  0.4695321E+02  0.1117165E+02  0.0000000E+00
Ar 2731  0.3603567E+02  0.4476867E+02  0.1384414E+02  0.0000000E+00
Ar 2732  0.3301198E+02  0.4718769E+02  0.1416595E+02  0.0000000E+00
Ar 2733  0.3354567E+02  0.4465240E+02  0.1687476E+02  0.0000000E+00
Ar 2734  0.3587087E+02  0.4719513E+02  0.1683088E+02  0.0000000E+00
Ar 2735  0.3632117E+02  0.4441153E+02  0.1943752E+02  0.0000000E+00
Ar 2736  0.3351531E+02  0.4730071E+02  0.1955941E+02  0.0000000E+00
Ar 2737  0.3313975E+02  0.4474490E+02  0.2212949E+02  0.0000000E+00
Ar 2738  0.3621781E+02  0.4716015E+02  0.2233749E+02  0.0000000E+00
Ar 2739  0.3610729E+02  0.4488225E+02  0.2510780E+02  0.0000000E+00
Ar 2740  0.3336077E+02  0.4737770E+02  0.2515430E+02  0.0000000E+00
Ar 2741  0.3331301E+02  0.4494209E+02  0.2803368E+02  0.0000000E+00
Ar 2742  0.3638806E+02  0.4716511E+02  0.2800703E+02  0.0000000E+00
Ar 2743  0.3627420E+02  0.4432234E+02  0.3029250E+02  0.0000000E+00
Ar 2744  0.3366454E+02  0.4725254E+02  0.3104253E+02  0.0000000E+00
Ar 2745  0.3380835E+02  0.4471075E+02  0.3380835E+02  0.0000000E+00
Ar 2746  0.3647006E+02  0.4743648E+02  0.3366829E+02  0.0000000E+00
Ar 2747  0.3651620E+02  0.4503625E+02  0.3651618E+02  0.0000000E+00
Ar 2748  0.3366829E+02  0.4743649E+02  0.3647005E+02  0.0000000E+00
Ar 2749  0.3360392E+02  0.4441403E+02  0.3908758E+02  0.0000000E+00
Ar 2750  0.3612371E+02  0.4731300E+02  0.3924152E+02  0.0000000E+00
Ar 2751  0.3641465E+02  0.4439160E+02  0.4174858E+02  0.0000000E+00
Ar 2752  0.3359728E+02  0.4717031E+02  0.4202259E+02  0.0000000E+00
Ar 2753  0.3343968E+02  0.4424266E+02  0.4424266E+02  0.0000000E+00
Ar 2754  0.3654641E+02  0.4715823E+02  0.4460532E+02  0.0000000E+00
Ar 2755  0.3654642E+02  0.4460532E+02  0.4715824E+02  0.0000000E+00
Ar 2756  0.3372847E+02  0.4703745E+02  0.4703747E+02  0.0000000E+00
Ar 2757  0.3359758E+02  0.4452499E+02  0.5002398E+02  0.0000000E+00
Ar 2758  0.3638836E+02  0.4690311E+02  0.5005433E+02  0.0000000E+00
Ar 2759  0.3667491E+02  0.4461881E+02  0.5276817E+02  0.0000000E+00
Ar 2760  0.3403181E+02  0.4735633E+02  0.5294914E+02  0.0000000E+00
Ar 2761  0.3406695E+02  0.4985084E+02  0.5535498E+02  0.0000000E+00
Ar 2762  0.3645926E+02  0.5259298E+02  0.5552123E+02  0.0000000E+00
Ar 2763  0.3639258E+02  0.4968250E+02  0.3054337E+01  0.0000000E+00
Ar 2764  0.3392684E+02  0.5306346E+02  0.3358872E+01  0.0000000E+00
Ar 2765  0.3341299E+02  0.5008654E+02  0.5970463E+01  0.0000000E+00
Ar 2766  0.3619881E+02  0.5260280E+02  0.6117846E+01  0.0000000E+00
Ar 2767  0.3617081E+02  0.4988155E+02  0.8623353E+01  0.0000000E+00
Ar 2768  0.3334317E+02  0.5290175E+02  0.8576781E+01  0.0000000E+00
Ar 2769  0.3314304E+02  0.4997418E+02  0.1131725E+02  0.0000000E+00
Ar 2770  0.3621542E+02  0.5259310E+02  0.1123101E+02  0.0000000E+00
Ar 2771  0.3588786E+02  0.4969088E+02  0.1393335E+02  0.0000000E+00
Ar 2772  0.3341116E+02  0.5275747E+02  0.1417372E+02  0.0000000E+00
Ar 2773  0.3331106E+02  0.4998257E+02  0.1683317E+02  0.0000000E+00
Ar 2774  0.3602412E+02  0.5259124E+02  0.1675156E+02  0.0000000E+00
Ar 2775  0.3626543E+02  0.4998234E+02  0.1954972E+02  0.0000000E+00
Ar 2776  0.3343967E+02  0.5299995E+02  0.1974474E+02  0.0000000E+00
Ar 2777  0.3330931E+02  0.4992762E+02  0.2238205E+02  0.0000000E+00
Ar 2778  0.3622378E+02  0.5262386E+02  0.2237025E+02  0.0000000E+00
Ar 2779  0.3618399E+02  0.4995761E+02  0.2511042E+02  0.0000000E+00
Ar 2780  0.3367241E+02  0.5287542E+02  0.2548009E+02  0.0000000E+00
Ar 2781  0.3346087E+02  0.5011373E+02  0.2793098E+02  0.0000000E+00
Ar 2782  0.3630968E+02  0.5251717E+02  0.2789537E+02  0.0000000E+00
Ar 2783  0.3612998E+02  0.4999293E+02  0.3101808E+02  0.0000000E+00
Ar 2784  0.3363039E+02  0.5299985E+02  0.3067687E+02  0.0000000E+00
Ar 2785  0.3393455E+02  0.4995224E+02  0.3393455E+02  0.0000000E+00
Ar 2786  0.3642744E+02  0.5261576E+02  0.3359013E+02  0.0000000E+00
Ar 2787  0.3652087E+02  0.4982404E+02  0.3652086E+02  0.0000000E+00
Ar 2788  0.3359015E+02  0.5261578E+02  0.3642744E+02  0.0000000E+00
Ar 2789  0.3337104E+02  0.5017439E+02  0.3891968E+02  0.0000000E+00
Ar 2790  0.3628035E+02  0.5268950E+02  0.3913021E+02  0.0000000E+00
Ar 2791  0.3635488E+02  0.4994724E+02  0.4208935E+02  0.0000000E+00
Ar 2792  0.3339490E+02  0.5298766E+02  0.4142353E+02  0.0000000E+00
Ar 2793  0.3359764E+02  0.5002397E+02  0.4452493E+02  0.0000000E+00
Ar 2794  0.3667491E+02  0.5276799E+02  0.4461867E+02  0.0000000E+00
Ar 2795  0.3638836E+02  0.5005435E+02  0.4690312E+02  0.0000000E+00
Ar 2796  0.3403193E+02  0.5294950E+02  0.4735681E+02  0.0000000E+00
Ar 2797  0.3355341E+02  0.4970327E+02  0.4970060E+02  0.0000000E+00
Ar 2798  0.3675450E+02  0.5237210E+02  0.4994558E+02  0.0000000E+00
Ar 2799  0.3675505E+02  0.4994512E+02  0.5237184E+02  0.0000000E+00
Ar 2800  0.3391593E+02  0.5262293E+02  0.5262934E+02  0.0000000E+00
Ar 2801  0.3940459E+02  0.8266502E+00  0.8275163E+00  0.0000000E+00
Ar 2802  0.4172947E+02  0.3159144E+01  0.5521873E+02  0.0000000E+00
Ar 2803  0.4172913E+02  0.5521872E+02  0.3159355E+01  0.0000000E+00
Ar 2804  0.3923998E+02  0.3165818E+01  0.3163034E+01  0.0000000E+00
Ar 2805  0.3888600E+02  0.5522404E+02  0.5767326E+01  0.0000000E+00
Ar 2806  0.4187767E+02  0.2716389E+01  0.5806804E+01  0.0000000E+00
Ar 2807  0.4175966E+02  0.3048715E+00  0.8665532E+01  0.0000000E+00
Ar 2808  0.3878897E+02  0.3246626E+01  0.8224110E+01  0.0000000E+00
Ar 2809  0.3889929E+02  0.5536129E+02  0.1105807E+02  0.0000000E+00
Ar 2810  0.4152972E+02  0.3008399E+01  0.1138845E+02  0.0000000E+00
Ar 2811  0.4150448E+02  0.4162124E+00  0.1415228E+02  0.0000000E+00
Ar 2812  0.3864707E+02  0.2746965E+01  0.1409960E+02  0.0000000E+00
Ar 2813  0.3882749E+02  0.5537720E+02  0.1671008E+02  0.0000000E+00
Ar 2814  0.4184600E+02  0.3304415E+01  0.1683797E+02  0.0000000E+00
Ar 2815  0.4151760E+02  0.3060627E+00  0.1955382E+02  0.0000000E+00
Ar 2816  0.3882963E+02  0.3320435E+01  0.1929129E+02  0.0000000E+00
Ar 2817  0.3895787E+02  0.3951520E+00  0.2245570E+02  0.0000000E+00
Ar 2818  0.4164732E+02  0.3106928E+01  0.2239678E+02  0.0000000E+00
Ar 2819  0.4119731E+02  0.3314557E+00  0.2521805E+02  0.0000000E+00
Ar 2820  0.3884320E+02  0.3408844E+01  0.2517367E+02  0.0000000E+00
Ar 2821  0.3875598E+02  0.3398938E+00  0.2787123E+02  0.0000000E+00
Ar 2822  0.4171314E+02  0.3237418E+01  0.2766178E+02  0.0000000E+00
Ar 2823  0.4118555E+02  0.5535847E+02  0.3027232E+02  0.0000000E+00
Ar 2824  0.3879099E+02  0.3279127E+01  0.3056334E+02  0.0000000E+00
Ar 2825  0.3892590E+02  0.4639642E+00  0.3326306E+02  0.0000000E+00
Ar 2826  0.4156513E+02  0.3002898E+01  0.3301064E+02  0.0000000E+00
Ar 2827  0.4110383E+02  0.5115546E+00  0.3613269E+02  0.0000000E+00
Ar 2828  0.3894821E+02  0.3356912E+01  0.3604811E+02  0.0000000E+00
Ar 2829  0.3959977E+02  0.5558976E+02  0.3959974E+02  0.0000000E+00
Ar 2830  0.4185084E+02  0.3206050E+01  0.3913772E+02  0.0000000E+00
Ar 2831  0.4203219E+02  0.5537531E+02  0.4203216E+02  0.0000000E+00
Ar 2832  0.3913771E+02  0.3206039E+01  0.4185084E+02  0.0000000E+00
Ar 2833  0.3953771E+02  0.6979773E+00  0.4464205E+02  0.0000000E+00
Ar 2834  0.4188595E+02  0.3295345E+01  0.4477492E+02  0.0000000E+00
Ar 2835  0.4189789E+02  0.5537639E+02  0.4725868E+02  0.0000000E+00
Ar 2836  0.3910946E+02  0.3343397E+01  0.4723424E+02  0.0000000E+00
Ar 2837  0.4001589E+02  0.5564258E+02  0.5115359E+02  0.0000000E+00
Ar 2838  0.4180354E+02  0.3299239E+01  0.4968396E+02  0.0000000E+00
Ar 2839  0.4238483E+02  0.4962371E+00  0.5284304E+02  0.0000000E+00
Ar 2840  0.3911248E+02  0.3099284E+01  0.5269163E+02  0.0000000E+00
Ar 2841  0.3883718E+02  0.5708947E+01  0.5522674E+02  0.0000000E+00
Ar 2842  0.4175885E+02  0.8664644E+01  0.3047431E+00  0.0000000E+00
Ar 2843  0.4187756E+02  0.5806881E+01  0.2716209E+01  0.0000000E+00
Ar 2844  0.3878905E+02  0.8224138E+01  0.3246516E+01  0.0000000E+00
Ar 2845  0.3900121E+02  0.5902991E+01  0.5903016E+01  0.0000000E+00
Ar 2846  0.4182926E+02  0.8641139E+01  0.5551808E+01  0.0000000E+00
Ar 2847  0.4182925E+02  0.5551778E+01  0.8641139E+01  0.0000000E+00
Ar 2848  0.3921951E+02  0.8477425E+01  0.8477421E+01  0.0000000E+00
Ar 2849  0.3907227E+02  0.5575713E+01  0.1119120E+02  0.0000000E+00
Ar 2850  0.4161291E+02  0.8598209E+01  0.1127242E+02  0.0000000E+00
Ar 2851  0.4160437E+02  0.5637045E+01  0.1410707E+02  0.0000000E+00
Ar 2852  0.3906998E+02  0.8443244E+01  0.1393877E+02  0.0000000E+00
Ar 2853  0.3890658E+02  0.5949813E+01  0.1656855E+02  0.0000000E+00
Ar 2854  0.4180951E+02  0.8700899E+01  0.1668178E+02  0.0000000E+00
Ar 2855  0.4187623E+02  0.6082359E+01  0.1958325E+02  0.0000000E+00
Ar 2856  0.3908277E+02  0.8411845E+01  0.1936726E+02  0.0000000E+00
Ar 2857  0.3907081E+02  0.5931868E+01  0.2228327E+02  0.0000000E+00
Ar 2858  0.4175211E+02  0.8655318E+01  0.2217951E+02  0.0000000E+00
Ar 2859  0.4149522E+02  0.5801488E+01  0.2506999E+02  0.0000000E+00
Ar 2860  0.3889068E+02  0.8534673E+01  0.2494440E+02  0.0000000E+00
Ar 2861  0.3886854E+02  0.5898994E+01  0.2780082E+02  0.0000000E+00
Ar 2862  0.4157082E+02  0.8338578E+01  0.2754247E+02  0.0000000E+00
Ar 2863  0.4135907E+02  0.5851209E+01  0.3048925E+02  0.0000000E+00
Ar 2864  0.3849199E+02  0.8646543E+01  0.3037471E+02  0.0000000E+00
Ar 2865  0.3870999E+02  0.6304107E+01  0.3350329E+02  0.0000000E+00
Ar 2866  0.4173065E+02  0.8640098E+01  0.3330572E+02  0.0000000E+00
Ar 2867  0.4159166E+02  0.6024927E+01  0.3617241E+02  0.0000000E+00
Ar 2868  0.3903457E+02  0.8681117E+01  0.3621031E+02  0.0000000E+00
Ar 2869  0.3901624E+02  0.6006433E+01  0.3901624E+02  0.0000000E+00
Ar 2870  0.4158638E+02  0.8847807E+01  0.3910097E+02  0.0000000E+00
Ar 2871  0.4173267E+02  0.6195024E+01  0.4173268E+02  0.0000000E+00
Ar 2872  0.3910097E+02  0.8847823E+01  0.4158641E+02  0.0000000E+00
Ar 2873  0.3919245E+02  0.6121768E+01  0.4434915E+02  0.0000000E+00
Ar 2874  0.4175264E+02  0.8650975E+01  0.4472582E+02  0.0000000E+00
Ar 2875  0.4177330E+02  0.6261786E+01  0.4743074E+02  0.0000000E+00
Ar 2876  0.3875470E+02  0.8945393E+01  0.4699115E+02  0.0000000E+00
Ar 2877  0.3903202E+02  0.6112535E+01  0.4984511E+02  0.0000000E+00
Ar 2878  0.4188916E+02  0.8524663E+01  0.5010375E+02  0.0000000E+00
Ar 2879  0.4173058E+02  0.5675043E+01  0.5299015E+02  0.0000000E+00
Ar 2880  0.3895457E+02  0.8439087E+01  0.5264631E+02  0.0000000E+00
Ar 2881  0.3889941E+02  0.1105834E+02  0.5536131E+02  0.0000000E+00
Ar 2882  0.4150449E+02  0.1415228E+02  0.4162167E+00  0.0000000E+00
Ar 2883  0.4152972E+02  0.1138845E+02  0.3008399E+01  0.0000000E+00
Ar 2884  0.3864718E+02  0.1409973E+02  0.2746964E+01  0.0000000E+00
Ar 2885  0.3907231E+02  0.1119123E+02  0.5575750E+01  0.0000000E+00
Ar 2886  0.4160436E+02  0.1410707E+02  0.5637044E+01  0.0000000E+00
Ar 2887  0.4161291E+02  0.1127242E+02  0.8598213E+01  0.0000000E+00
Ar 2888  0.3906998E+02  0.1393878E+02  0.8443244E+01  0.0000000E+00
Ar 2889  0.3887737E+02  0.1127153E+02  0.1127154E+02  0.0000000E+00
Ar 2890  0.4127095E+02  0.1412428E+02  0.1119752E+02  0.0000000E+00
Ar 2891  0.4127095E+02  0.1119751E+02  0.1412428E+02  0.0000000E+00
Ar 2892  0.3895917E+02  0.1405750E+02  0.1405750E+02  0.0000000E+00
Ar 2893  0.3903023E+02  0.1114447E+02  0.1679410E+02  0.0000000E+00
Ar 2894  0.4135038E+02  0.1384410E+02  0.1686136E+02  0.0000000E+00
Ar 2895  0.4174264E+02  0.1126368E+02  0.1947828E+02  0.0000000E+00
Ar 2896  0.3874915E+02  0.1418336E+02  0.1946720E+02  0.0000000E+00
Ar 2897  0.3873734E+02  0.1096448E+02  0.2220899E+02  0.0000000E+00
Ar 2898  0.4191719E+02  0.1410777E+02  0.2216988E+02  0.0000000E+00
Ar 2899  0.4148643E+02  0.1112945E+02  0.2463751E+02  0.0000000E+00
Ar 2900  0.3914328E+02  0.1394587E+02  0.2486210E+02  0.0000000E+00
Ar 2901  0.3912448E+02  0.1152785E+02  0.2757160E+02  0.0000000E+00
Ar 2902  0.4200330E+02  0.1385957E+02  0.2781700E+02  0.0000000E+00
Ar 2903  0.4154826E+02  0.1111932E+02  0.3026502E+02  0.0000000E+00
Ar 2904  0.3928103E+02  0.1387106E+02  0.3076946E+02  0.0000000E+00
Ar 2905  0.3896043E+02  0.1135171E+02  0.3341583E+02  0.0000000E+00
Ar 2906  0.4189854E+02  0.1427260E+02  0.3333016E+02  0.0000000E+00
Ar 2907  0.4161006E+02  0.1150724E+02  0.3616418E+02  0.0000000E+00
Ar 2908  0.3903872E+02  0.1403917E+02  0.3608455E+02  0.0000000E+00
Ar 2909  0.3893470E+02  0.1128132E+02  0.3893469E+02  0.0000000E+00
Ar 2910  0.4151482E+02  0.1405956E+02  0.3889213E+02  0.0000000E+00
Ar 2911  0.4186438E+02  0.1144320E+02  0.4186438E+02  0.0000000E+00
Ar 2912  0.3889213E+02  0.1405957E+02  0.4151484E+02  0.0000000E+00
Ar 2913  0.3876924E+02  0.1128137E+02  0.4424986E+02  0.0000000E+00
Ar 2914  0.4184845E+02  0.1423818E+02  0.4434878E+02  0.0000000E+00
Ar 2915  0.4155751E+02  0.1157781E+02  0.4680230E+02  0.0000000E+00
Ar 2916  0.3897403E+02  0.1432259E+02  0.4712211E+02  0.0000000E+00
Ar 2917  0.3878420E+02  0.1145388E+02  0.4974615E+02  0.0000000E+00
Ar 2918  0.4167112E+02  0.1384050E+02  0.5001950E+02  0.0000000E+00
Ar 2919  0.4163859E+02  0.1111135E+02  0.5282155E+02  0.0000000E+00
Ar 2920  0.3890950E+02  0.1393515E+02  0.5287989E+02  0.0000000E+00
Ar 2921  0.3882749E+02  0.1671008E+02  0.5537721E+02  0.0000000E+00
Ar 2922  0.4151770E+02  0.1955391E+02  0.3060536E+00  0.0000000E+00
Ar 2923  0.4184600E+02  0.1683797E+02  0.3304414E+01  0.0000000E+00
Ar 2924  0.3882962E+02  0.1929129E+02  0.3320437E+01  0.0000000E+00
Ar 2925  0.3890658E+02  0.1656855E+02  0.5949808E+01  0.0000000E+00
Ar 2926  0.4187624E+02  0.1958324E+02  0.6082364E+01  0.0000000E+00
Ar 2927  0.4180950E+02  0.1668178E+02  0.8700900E+01  0.0000000E+00
Ar 2928  0.3908276E+02  0.1936726E+02  0.8411840E+01  0.0000000E+00
Ar 2929  0.3903023E+02  0.1679410E+02  0.1114447E+02  0.0000000E+00
Ar 2930  0.4174264E+02  0.1947827E+02  0.1126369E+02  0.0000000E+00
Ar 2931  0.4135039E+02  0.1686136E+02  0.1384411E+02  0.0000000E+00
Ar 2932  0.3874915E+02  0.1946720E+02  0.1418336E+02  0.0000000E+00
Ar 2933  0.3889200E+02  0.1675995E+02  0.1675996E+02  0.0000000E+00
Ar 2934  0.4158469E+02  0.1924476E+02  0.1652857E+02  0.0000000E+00
Ar 2935  0.4158468E+02  0.1652857E+02  0.1924476E+02  0.0000000E+00
Ar 2936  0.3924062E+02  0.1956693E+02  0.1956693E+02  0.0000000E+00
Ar 2937  0.3878590E+02  0.1677171E+02  0.2234000E+02  0.0000000E+00
Ar 2938  0.4169220E+02  0.1969651E+02  0.2267311E+02  0.0000000E+00
Ar 2939  0.4186827E+02  0.1677597E+02  0.2518768E+02  0.0000000E+00
Ar 2940  0.3894078E+02  0.1984084E+02  0.2522406E+02  0.0000000E+00
Ar 2941  0.3920960E+02  0.1680934E+02  0.2790149E+02  0.0000000E+00
Ar 2942  0.4194430E+02  0.1928484E+02  0.2794082E+02  0.0000000E+00
Ar 2943  0.4184942E+02  0.1694259E+02  0.3062009E+02  0.0000000E+00
Ar 2944  0.3871630E+02  0.1961950E+02  0.3064713E+02  0.0000000E+00
Ar 2945  0.3916272E+02  0.1689532E+02  0.3313227E+02  0.0000000E+00
Ar 2946  0.4207162E+02  0.1963011E+02  0.3354212E+02  0.0000000E+00
Ar 2947  0.4162834E+02  0.1667229E+02  0.3611422E+02  0.0000000E+00
Ar 2948  0.3918991E+02  0.1959983E+02  0.3625603E+02  0.0000000E+00
Ar 2949  0.3872690E+02  0.1639252E+02  0.3872689E+02  0.0000000E+00
Ar 2950  0.4185054E+02  0.1948567E+02  0.3903455E+02  0.0000000E+00
Ar 2951  0.4139199E+02  0.1688945E+02  0.4139198E+02  0.0000000E+00
Ar 2952  0.3903458E+02  0.1948567E+02  0.4185057E+02  0.0000000E+00
Ar 2953  0.3902222E+02  0.1653932E+02  0.4431073E+02  0.0000000E+00
Ar 2954  0.4139133E+02  0.1960993E+02  0.4442537E+02  0.0000000E+00
Ar 2955  0.4159154E+02  0.1711660E+02  0.4738244E+02  0.0000000E+00
Ar 2956  0.3870643E+02  0.1945121E+02  0.4712191E+02  0.0000000E+00
Ar 2957  0.3891693E+02  0.1687550E+02  0.5024044E+02  0.0000000E+00
Ar 2958  0.4139761E+02  0.1955313E+02  0.5016257E+02  0.0000000E+00
Ar 2959  0.4179364E+02  0.1698330E+02  0.5317104E+02  0.0000000E+00
Ar 2960  0.3900267E+02  0.1984024E+02  0.5301620E+02  0.0000000E+00
Ar 2961  0.3895788E+02  0.2245571E+02  0.3951532E+00  0.0000000E+00
Ar 2962  0.4119739E+02  0.2521804E+02  0.3314109E+00  0.0000000E+00
Ar 2963  0.4164732E+02  0.2239675E+02  0.3106918E+01  0.0000000E+00
Ar 2964  0.3884325E+02  0.2517368E+02  0.3408826E+01  0.0000000E+00
Ar 2965  0.3907081E+02  0.2228327E+02  0.5931858E+01  0.0000000E+00
Ar 2966  0.4149521E+02  0.2506997E+02  0.5801505E+01  0.0000000E+00
Ar 2967  0.4175210E+02  0.2217951E+02  0.8655320E+01  0.0000000E+00
Ar 2968  0.3889068E+02  0.2494440E+02  0.8534665E+01  0.0000000E+00
Ar 2969  0.3873734E+02  0.2220899E+02  0.1096448E+02  0.0000000E+00
Ar 2970  0.4148643E+02  0.2463752E+02  0.1112945E+02  0.0000000E+00
Ar 2971  0.4191719E+02  0.2216987E+02  0.1410776E+02  0.0000000E+00
Ar 2972  0.3914329E+02  0.2486210E+02  0.1394587E+02  0.0000000E+00
Ar 2973  0.3878590E+02  0.2234000E+02  0.1677171E+02  0.0000000E+00
Ar 2974  0.4186827E+02  0.2518768E+02  0.1677597E+02  0.0000000E+00
Ar 2975  0.4169220E+02  0.2267312E+02  0.1969651E+02  0.0000000E+00
Ar 2976  0.3894077E+02  0.2522406E+02  0.1984084E+02  0.0000000E+00
Ar 2977  0.3881168E+02  0.2268935E+02  0.2268935E+02  0.0000000E+00
Ar 2978  0.4172442E+02  0.2519650E+02  0.2242291E+02  0.0000000E+00
Ar 2979  0.4172442E+02  0.2242291E+02  0.2519651E+02  0.0000000E+00
Ar 2980  0.3919855E+02  0.2521410E+02  0.2521410E+02  0.0000000E+00
Ar 2981  0.3911215E+02  0.2220231E+02  0.2805480E+02  0.0000000E+00
Ar 2982  0.4164395E+02  0.2489836E+02  0.2784984E+02  0.0000000E+00
Ar 2983  0.4181955E+02  0.2202979E+02  0.3054324E+02  0.0000000E+00
Ar 2984  0.3921750E+02  0.2526586E+02  0.3061376E+02  0.0000000E+00
Ar 2985  0.3914597E+02  0.2243026E+02  0.3369966E+02  0.0000000E+00
Ar 2986  0.4202315E+02  0.2518791E+02  0.3333346E+02  0.0000000E+00
Ar 2987  0.4208885E+02  0.2242814E+02  0.3607326E+02  0.0000000E+00
Ar 2988  0.3891230E+02  0.2508280E+02  0.3641915E+02  0.0000000E+00
Ar 2989  0.3876212E+02  0.2220534E+02  0.3876209E+02  0.0000000E+00
Ar 2990  0.4201641E+02  0.2509166E+02  0.3903838E+02  0.0000000E+00
Ar 2991  0.4161192E+02  0.2224517E+02  0.4161193E+02  0.0000000E+00
Ar 2992  0.3903839E+02  0.2509165E+02  0.4201642E+02  0.0000000E+00
Ar 2993  0.3884700E+02  0.2240714E+02  0.4439283E+02  0.0000000E+00
Ar 2994  0.4199697E+02  0.2555538E+02  0.4476476E+02  0.0000000E+00
Ar 2995  0.4190700E+02  0.2235963E+02  0.4715911E+02  0.0000000E+00
Ar 2996  0.3886342E+02  0.2516218E+02  0.4733559E+02  0.0000000E+00
Ar 2997  0.3894311E+02  0.2225416E+02  0.4998325E+02  0.0000000E+00
Ar 2998  0.4163214E+02  0.2477498E+02  0.4993273E+02  0.0000000E+00
Ar 2999  0.4143618E+02  0.2259220E+02  0.5311354E+02  0.0000000E+00
Ar 3000  0.3862702E+02  0.2521289E+02  0.5271301E+02  0.0000000E+00
Ar 3001  0.3875600E+02  0.2787121E+02  0.3398911E+00  0.0000000E+00
Ar 3002  0.4118575E+02  0.3027219E+02  0.5535850E+02  0.0000000E+00
Ar 3003  0.4171316E+02  0.2766181E+02  0.3237404E+01  0.0000000E+00
Ar 3004  0.3879100E+02  0.3056332E+02  0.3279112E+01  0.0000000E+00
Ar 3005  0.3886854E+02  0.2780083E+02  0.5898989E+01  0.0000000E+00
Ar 3006  0.4135907E+02  0.3048924E+02  0.5851204E+01  0.0000000E+00
Ar 3007  0.4157078E+02  0.2754246E+02  0.8338600E+01  0.0000000E+00
Ar 3008  0.3849198E+02  0.3037471E+02  0.8646540E+01  0.0000000E+00
Ar 3009  0.3912448E+02  0.2757159E+02  0.1152786E+02  0.0000000E+00
Ar 3010  0.4154825E+02  0.3026503E+02  0.1111933E+02  0.0000000E+00
Ar 3011  0.4200332E+02  0.2781702E+02  0.1385957E+02  0.0000000E+00
Ar 3012  0.3928103E+02  0.3076946E+02  0.1387106E+02  0.0000000E+00
Ar 3013  0.3920960E+02  0.2790149E+02  0.1680933E+02  0.0000000E+00
Ar 3014  0.4184943E+02  0.3062008E+02  0.1694258E+02  0.0000000E+00
Ar 3015  0.4194430E+02  0.2794082E+02  0.1928485E+02  0.0000000E+00
Ar 3016  0.3871629E+02  0.3064713E+02  0.1961950E+02  0.0000000E+00
Ar 3017  0.3911215E+02  0.2805479E+02  0.2220231E+02  0.0000000E+00
Ar 3018  0.4181955E+02  0.3054324E+02  0.2202979E+02  0.0000000E+00
Ar 3019  0.4164396E+02  0.2784985E+02  0.2489836E+02  0.0000000E+00
Ar 3020  0.3921750E+02  0.3061376E+02  0.2526586E+02  0.0000000E+00
Ar 3021  0.3860945E+02  0.2799054E+02  0.2799054E+02  0.0000000E+00
Ar 3022  0.4191968E+02  0.3075269E+02  0.2797102E+02  0.0000000E+00
Ar 3023  0.4191967E+02  0.2797102E+02  0.3075269E+02  0.0000000E+00
Ar 3024  0.3873557E+02  0.3067183E+02  0.3067183E+02  0.0000000E+00
Ar 3025  0.3920389E+02  0.2782553E+02  0.3318135E+02  0.0000000E+00
Ar 3026  0.4187946E+02  0.3065170E+02  0.3348737E+02  0.0000000E+00
Ar 3027  0.4150185E+02  0.2776353E+02  0.3608704E+02  0.0000000E+00
Ar 3028  0.3886380E+02  0.3010049E+02  0.3602734E+02  0.0000000E+00
Ar 3029  0.3919347E+02  0.2762129E+02  0.3919346E+02  0.0000000E+00
Ar 3030  0.4202864E+02  0.3050653E+02  0.3911060E+02  0.0000000E+00
Ar 3031  0.4185466E+02  0.2822501E+02  0.4185466E+02  0.0000000E+00
Ar 3032  0.3911062E+02  0.3050654E+02  0.4202863E+02  0.0000000E+00
Ar 3033  0.3913036E+02  0.2782642E+02  0.4451999E+02  0.0000000E+00
Ar 3034  0.4174280E+02  0.3078695E+02  0.4463416E+02  0.0000000E+00
Ar 3035  0.4180344E+02  0.2825321E+02  0.4734167E+02  0.0000000E+00
Ar 3036  0.3909056E+02  0.3085193E+02  0.4737662E+02  0.0000000E+00
Ar 3037  0.3907832E+02  0.2791280E+02  0.4982170E+02  0.0000000E+00
Ar 3038  0.4161310E+02  0.3106115E+02  0.4983792E+02  0.0000000E+00
Ar 3039  0.4161027E+02  0.2769005E+02  0.5269527E+02  0.0000000E+00
Ar 3040  0.3879325E+02  0.3039733E+02  0.5256751E+02  0.0000000E+00
Ar 3041  0.3892591E+02  0.3326304E+02  0.4639692E+00  0.0000000E+00
Ar 3042  0.4110383E+02  0.3613269E+02  0.5115558E+00  0.0000000E+00
Ar 3043  0.4156518E+02  0.3301059E+02  0.3002897E+01  0.0000000E+00
Ar 3044  0.3894820E+02  0.3604812E+02  0.3356911E+01  0.0000000E+00
Ar 3045  0.3870999E+02  0.3350330E+02  0.6304096E+01  0.0000000E+00
Ar 3046  0.4159167E+02  0.3617241E+02  0.6024931E+01  0.0000000E+00
Ar 3047  0.4173063E+02  0.3330572E+02  0.8640102E+01  0.0000000E+00
Ar 3048  0.3903458E+02  0.3621031E+02  0.8681117E+01  0.0000000E+00
Ar 3049  0.3896041E+02  0.3341582E+02  0.1135171E+02  0.0000000E+00
Ar 3050  0.4161007E+02  0.3616419E+02  0.1150725E+02  0.0000000E+00
Ar 3051  0.4189854E+02  0.3333016E+02  0.1427260E+02  0.0000000E+00
Ar 3052  0.3903871E+02  0.3608455E+02  0.1403917E+02  0.0000000E+00
Ar 3053  0.3916272E+02  0.3313226E+02  0.1689532E+02  0.0000000E+00
Ar 3054  0.4162834E+02  0.3611423E+02  0.1667230E+02  0.0000000E+00
Ar 3055  0.4207163E+02  0.3354211E+02  0.1963011E+02  0.0000000E+00
Ar 3056  0.3918992E+02  0.3625603E+02  0.1959984E+02  0.0000000E+00
Ar 3057  0.3914597E+02  0.3369966E+02  0.2243026E+02  0.0000000E+00
Ar 3058  0.4208887E+02  0.3607327E+02  0.2242814E+02  0.0000000E+00
Ar 3059  0.4202315E+02  0.3333346E+02  0.2518791E+02  0.0000000E+00
Ar 3060  0.3891230E+02  0.3641914E+02  0.2508280E+02  0.0000000E+00
Ar 3061  0.3920390E+02  0.3318135E+02  0.2782553E+02  0.0000000E+00
Ar 3062  0.4150185E+02  0.3608703E+02  0.2776353E+02  0.0000000E+00
Ar 3063  0.4187946E+02  0.3348737E+02  0.3065170E+02  0.0000000E+00
Ar 3064  0.3886381E+02  0.3602735E+02  0.3010049E+02  0.0000000E+00
Ar 3065  0.3917531E+02  0.3353084E+02  0.3353083E+02  0.0000000E+00
Ar 3066  0.4173703E+02  0.3618247E+02  0.3317068E+02  0.0000000E+00
Ar 3067  0.4173702E+02  0.3317069E+02  0.3618246E+02  0.0000000E+00
Ar 3068  0.3899234E+02  0.3642559E+02  0.3642559E+02  0.0000000E+00
Ar 3069  0.3893209E+02  0.3325924E+02  0.3893207E+02  0.0000000E+00
Ar 3070  0.4179887E+02  0.3642498E+02  0.3907918E+02  0.0000000E+00
Ar 3071  0.4163462E+02  0.3380739E+02  0.4163461E+02  0.0000000E+00
Ar 3072  0.3907918E+02  0.3642496E+02  0.4179885E+02  0.0000000E+00
Ar 3073  0.3908760E+02  0.3360391E+02  0.4441403E+02  0.0000000E+00
Ar 3074  0.4174860E+02  0.3641464E+02  0.4439161E+02  0.0000000E+00
Ar 3075  0.4202262E+02  0.3359725E+02  0.4717032E+02  0.0000000E+00
Ar 3076  0.3924153E+02  0.3612368E+02  0.4731299E+02  0.0000000E+00
Ar 3077  0.3891970E+02  0.3337103E+02  0.5017440E+02  0.0000000E+00
Ar 3078  0.4208937E+02  0.3635486E+02  0.4994726E+02  0.0000000E+00
Ar 3079  0.4142356E+02  0.3339485E+02  0.5298766E+02  0.0000000E+00
Ar 3080  0.3913021E+02  0.3628030E+02  0.5268951E+02  0.0000000E+00
Ar 3081  0.3959977E+02  0.3959974E+02  0.5558975E+02  0.0000000E+00
Ar 3082  0.4203218E+02  0.4203217E+02  0.5537531E+02  0.0000000E+00
Ar 3083  0.4185083E+02  0.3913771E+02  0.3206053E+01  0.0000000E+00
Ar 3084  0.3913771E+02  0.4185083E+02  0.3206025E+01  0.0000000E+00
Ar 3085  0.3901624E+02  0.3901624E+02  0.6006438E+01  0.0000000E+00
Ar 3086  0.4173268E+02  0.4173267E+02  0.6195028E+01  0.0000000E+00
Ar 3087  0.4158639E+02  0.3910097E+02  0.8847830E+01  0.0000000E+00
Ar 3088  0.3910097E+02  0.4158641E+02  0.8847828E+01  0.0000000E+00
Ar 3089  0.3893470E+02  0.3893469E+02  0.1128133E+02  0.0000000E+00
Ar 3090  0.4186439E+02  0.4186437E+02  0.1144322E+02  0.0000000E+00
Ar 3091  0.4151483E+02  0.3889213E+02  0.1405956E+02  0.0000000E+00
Ar 3092  0.3889213E+02  0.4151483E+02  0.1405956E+02  0.0000000E+00
Ar 3093  0.3872689E+02  0.3872688E+02  0.1639251E+02  0.0000000E+00
Ar 3094  0.4139199E+02  0.4139197E+02  0.1688945E+02  0.0000000E+00
Ar 3095  0.4185057E+02  0.3903456E+02  0.1948567E+02  0.0000000E+00
Ar 3096  0.3903458E+02  0.4185056E+02  0.1948567E+02  0.0000000E+00
Ar 3097  0.3876211E+02  0.3876209E+02  0.2220534E+02  0.0000000E+00
Ar 3098  0.4161193E+02  0.4161192E+02  0.2224516E+02  0.0000000E+00
Ar 3099  0.4201643E+02  0.3903839E+02  0.2509166E+02  0.0000000E+00
Ar 3100  0.3903839E+02  0.4201642E+02  0.2509165E+02  0.0000000E+00
Ar 3101  0.3919349E+02  0.3919348E+02  0.2762129E+02  0.0000000E+00
Ar 3102  0.4185480E+02  0.4185479E+02  0.2822504E+02  0.0000000E+00
Ar 3103  0.4202864E+02  0.3911062E+02  0.3050652E+02  0.0000000E+00
Ar 3104  0.3911064E+02  0.4202863E+02  0.3050653E+02  0.0000000E+00
Ar 3105  0.3893208E+02  0.3893207E+02  0.3325923E+02  0.0000000E+00
Ar 3106  0.4163462E+02  0.4163461E+02  0.3380739E+02  0.0000000E+00
Ar 3107  0.4179887E+02  0.3907918E+02  0.3642497E+02  0.0000000E+00
Ar 3108  0.3907918E+02  0.4179885E+02  0.3642497E+02  0.0000000E+00
Ar 3109  0.3909001E+02  0.3909001E+02  0.3909000E+02  0.0000000E+00
Ar 3110  0.4168596E+02  0.4168595E+02  0.3910943E+02  0.0000000E+00
Ar 3111  0.4168596E+02  0.3910943E+02  0.4168595E+02  0.0000000E+00
Ar 3112  0.3910944E+02  0.4168595E+02  0.4168595E+02  0.0000000E+00
Ar 3113  0.3919453E+02  0.3919452E+02  0.4447515E+02  0.0000000E+00
Ar 3114  0.4172469E+02  0.4172468E+02  0.4464683E+02  0.0000000E+00
Ar 3115  0.4175270E+02  0.3912592E+02  0.4719260E+02  0.0000000E+00
Ar 3116  0.3912593E+02  0.4175270E+02  0.4719259E+02  0.0000000E+00
Ar 3117  0.3902907E+02  0.3902905E+02  0.4985807E+02  0.0000000E+00
Ar 3118  0.4163774E+02  0.4163772E+02  0.5005840E+02  0.0000000E+00
Ar 3119  0.4178051E+02  0.3901927E+02  0.5276111E+02  0.0000000E+00
Ar 3120  0.3901929E+02  0.4178049E+02  0.5276113E+02  0.0000000E+00
Ar 3121  0.3953766E+02  0.4464215E+02  0.6980234E+00  0.0000000E+00
Ar 3122  0.4189787E+02  0.4725873E+02  0.5537644E+02  0.0000000E+00
Ar 3123  0.4188586E+02  0.4477499E+02  0.3295354E+01  0.0000000E+00
Ar 3124  0.3910910E+02  0.4723463E+02  0.3343421E+01  0.0000000E+00
Ar 3125  0.3919244E+02  0.4434914E+02  0.6121744E+01  0.0000000E+00
Ar 3126  0.4177317E+02  0.4743086E+02  0.6261797E+01  0.0000000E+00
Ar 3127  0.4175263E+02  0.4472584E+02  0.8650957E+01  0.0000000E+00
Ar 3128  0.3875464E+02  0.4699132E+02  0.8945230E+01  0.0000000E+00
Ar 3129  0.3876924E+02  0.4424987E+02  0.1128137E+02  0.0000000E+00
Ar 3130  0.4155748E+02  0.4680230E+02  0.1157779E+02  0.0000000E+00
Ar 3131  0.4184845E+02  0.4434878E+02  0.1423818E+02  0.0000000E+00
Ar 3132  0.3897404E+02  0.4712210E+02  0.1432259E+02  0.0000000E+00
Ar 3133  0.3902221E+02  0.4431073E+02  0.1653932E+02  0.0000000E+00
Ar 3134  0.4159155E+02  0.4738243E+02  0.1711661E+02  0.0000000E+00
Ar 3135  0.4139132E+02  0.4442537E+02  0.1960993E+02  0.0000000E+00
Ar 3136  0.3870642E+02  0.4712190E+02  0.1945122E+02  0.0000000E+00
Ar 3137  0.3884699E+02  0.4439283E+02  0.2240715E+02  0.0000000E+00
Ar 3138  0.4190698E+02  0.4715910E+02  0.2235964E+02  0.0000000E+00
Ar 3139  0.4199698E+02  0.4476477E+02  0.2555539E+02  0.0000000E+00
Ar 3140  0.3886342E+02  0.4733559E+02  0.2516218E+02  0.0000000E+00
Ar 3141  0.3913034E+02  0.4451999E+02  0.2782642E+02  0.0000000E+00
Ar 3142  0.4180349E+02  0.4734170E+02  0.2825325E+02  0.0000000E+00
Ar 3143  0.4174285E+02  0.4463416E+02  0.3078692E+02  0.0000000E+00
Ar 3144  0.3909055E+02  0.4737662E+02  0.3085193E+02  0.0000000E+00
Ar 3145  0.3908760E+02  0.4441403E+02  0.3360391E+02  0.0000000E+00
Ar 3146  0.4202263E+02  0.4717032E+02  0.3359725E+02  0.0000000E+00
Ar 3147  0.4174860E+02  0.4439160E+02  0.3641463E+02  0.0000000E+00
Ar 3148  0.3924154E+02  0.4731299E+02  0.3612369E+02  0.0000000E+00
Ar 3149  0.3919454E+02  0.4447515E+02  0.3919451E+02  0.0000000E+00
Ar 3150  0.4175270E+02  0.4719259E+02  0.3912592E+02  0.0000000E+00
Ar 3151  0.4172469E+02  0.4464683E+02  0.4172469E+02  0.0000000E+00
Ar 3152  0.3912593E+02  0.4719258E+02  0.4175271E+02  0.0000000E+00
Ar 3153  0.3907092E+02  0.4432942E+02  0.4432943E+02  0.0000000E+00
Ar 3154  0.4178166E+02  0.4717321E+02  0.4438384E+02  0.0000000E+00
Ar 3155  0.4178165E+02  0.4438382E+02  0.4717323E+02  0.0000000E+00
Ar 3156  0.3914412E+02  0.4706671E+02  0.4706673E+02  0.0000000E+00
Ar 3157  0.3941030E+02  0.4437448E+02  0.5012092E+02  0.0000000E+00
Ar 3158  0.4204709E+02  0.4725400E+02  0.4991394E+02  0.0000000E+00
Ar 3159  0.4185959E+02  0.4474327E+02  0.5278481E+02  0.0000000E+00
Ar 3160  0.3926480E+02  0.4708911E+02  0.5267980E+02  0.0000000E+00
Ar 3161  0.4001618E+02  0.5115284E+02  0.5564177E+02  0.0000000E+00
Ar 3162  0.4238473E+02  0.5284308E+02  0.4963443E+00  0.0000000E+00
Ar 3163  0.4180358E+02  0.4968395E+02  0.3299320E+01  0.0000000E+00
Ar 3164  0.3911902E+02  0.5268486E+02  0.3100213E+01  0.0000000E+00
Ar 3165  0.3903092E+02  0.4984595E+02  0.6111982E+01  0.0000000E+00
Ar 3166  0.4173176E+02  0.5298928E+02  0.5675047E+01  0.0000000E+00
Ar 3167  0.4188905E+02  0.5010383E+02  0.8524628E+01  0.0000000E+00
Ar 3168  0.3895330E+02  0.5264597E+02  0.8438831E+01  0.0000000E+00
Ar 3169  0.3878411E+02  0.4974617E+02  0.1145379E+02  0.0000000E+00
Ar 3170  0.4163849E+02  0.5282156E+02  0.1111126E+02  0.0000000E+00
Ar 3171  0.4167112E+02  0.5001950E+02  0.1384050E+02  0.0000000E+00
Ar 3172  0.3890942E+02  0.5287990E+02  0.1393505E+02  0.0000000E+00
Ar 3173  0.3891693E+02  0.5024043E+02  0.1687550E+02  0.0000000E+00
Ar 3174  0.4179364E+02  0.5317102E+02  0.1698331E+02  0.0000000E+00
Ar 3175  0.4139761E+02  0.5016257E+02  0.1955313E+02  0.0000000E+00
Ar 3176  0.3900266E+02  0.5301619E+02  0.1984025E+02  0.0000000E+00
Ar 3177  0.3894311E+02  0.4998324E+02  0.2225417E+02  0.0000000E+00
Ar 3178  0.4143622E+02  0.5311356E+02  0.2259224E+02  0.0000000E+00
Ar 3179  0.4163230E+02  0.4993290E+02  0.2477499E+02  0.0000000E+00
Ar 3180  0.3862701E+02  0.5271301E+02  0.2521290E+02  0.0000000E+00
Ar 3181  0.3907831E+02  0.4982171E+02  0.2791280E+02  0.0000000E+00
Ar 3182  0.4161042E+02  0.5269522E+02  0.2768998E+02  0.0000000E+00
Ar 3183  0.4161310E+02  0.4983794E+02  0.3106118E+02  0.0000000E+00
Ar 3184  0.3879323E+02  0.5256748E+02  0.3039733E+02  0.0000000E+00
Ar 3185  0.3891969E+02  0.5017438E+02  0.3337104E+02  0.0000000E+00
Ar 3186  0.4142356E+02  0.5298765E+02  0.3339484E+02  0.0000000E+00
Ar 3187  0.4208938E+02  0.4994725E+02  0.3635485E+02  0.0000000E+00
Ar 3188  0.3913021E+02  0.5268950E+02  0.3628031E+02  0.0000000E+00
Ar 3189  0.3902907E+02  0.4985806E+02  0.3902905E+02  0.0000000E+00
Ar 3190  0.4178053E+02  0.5276110E+02  0.3901925E+02  0.0000000E+00
Ar 3191  0.4163774E+02  0.5005840E+02  0.4163771E+02  0.0000000E+00
Ar 3192  0.3901931E+02  0.5276112E+02  0.4178047E+02  0.0000000E+00
Ar 3193  0.3941031E+02  0.5012090E+02  0.4437447E+02  0.0000000E+00
Ar 3194  0.4185959E+02  0.5278481E+02  0.4474327E+02  0.0000000E+00
Ar 3195  0.4204710E+02  0.4991393E+02  0.4725400E+02  0.0000000E+00
Ar 3196  0.3926480E+02  0.5267968E+02  0.4708915E+02  0.0000000E+00
Ar 3197  0.3916501E+02  0.4950763E+02  0.4950760E+02  0.0000000E+00
Ar 3198  0.4155590E+02  0.5282771E+02  0.4999211E+02  0.0000000E+00
Ar 3199  0.4155583E+02  0.4999214E+02  0.5282781E+02  0.0000000E+00
Ar 3200  0.3905972E+02  0.5266872E+02  0.5266873E+02  0.0000000E+00
Ar 3201  0.4412056E+02  0.3112560E+00  0.3113411E+00  0.0000000E+00
Ar 3202  0.4709810E+02  0.2872287E+01  0.5540662E+02  0.0000000E+00
Ar 3203  0.4709811E+02  0.5540661E+02  0.2872292E+01  0.0000000E+00
Ar 3204  0.4481104E+02  0.2947162E+01  0.2947173E+01  0.0000000E+00
Ar 3205  0.4443292E+02  0.5537727E+02  0.5631687E+01  0.0000000E+00
Ar 3206  0.4728385E+02  0.3383255E+01  0.5867795E+01  0.0000000E+00
Ar 3207  0.4734823E+02  0.5539670E+02  0.8971664E+01  0.0000000E+00
Ar 3208  0.4427286E+02  0.3106338E+01  0.8607457E+01  0.0000000E+00
Ar 3209  0.4417724E+02  0.5537235E+02  0.1122456E+02  0.0000000E+00
Ar 3210  0.4713420E+02  0.2942926E+01  0.1148632E+02  0.0000000E+00
Ar 3211  0.4735446E+02  0.4817777E+00  0.1423768E+02  0.0000000E+00
Ar 3212  0.4424916E+02  0.3299201E+01  0.1396461E+02  0.0000000E+00
Ar 3213  0.4470039E+02  0.5522140E+02  0.1704079E+02  0.0000000E+00
Ar 3214  0.4721737E+02  0.3236144E+01  0.1715122E+02  0.0000000E+00
Ar 3215  0.4740386E+02  0.5542147E+02  0.1963329E+02  0.0000000E+00
Ar 3216  0.4454815E+02  0.3153698E+01  0.1960604E+02  0.0000000E+00
Ar 3217  0.4425380E+02  0.4061247E+00  0.2205471E+02  0.0000000E+00
Ar 3218  0.4733310E+02  0.2841145E+01  0.2237699E+02  0.0000000E+00
Ar 3219  0.4715169E+02  0.5545992E+02  0.2508572E+02  0.0000000E+00
Ar 3220  0.4422829E+02  0.2920732E+01  0.2528850E+02  0.0000000E+00
Ar 3221  0.4419306E+02  0.5538270E+02  0.2792646E+02  0.0000000E+00
Ar 3222  0.4706073E+02  0.3105706E+01  0.2770230E+02  0.0000000E+00
Ar 3223  0.4740347E+02  0.5547905E+02  0.3130344E+02  0.0000000E+00
Ar 3224  0.4435331E+02  0.3038146E+01  0.3075460E+02  0.0000000E+00
Ar 3225  0.4448867E+02  0.5533028E+02  0.3378573E+02  0.0000000E+00
Ar 3226  0.4711586E+02  0.3443039E+01  0.3352858E+02  0.0000000E+00
Ar 3227  0.4671612E+02  0.5553793E+02  0.3632279E+02  0.0000000E+00
Ar 3228  0.4463462E+02  0.3032127E+01  0.3625644E+02  0.0000000E+00
Ar 3229  0.4464211E+02  0.6980445E+00  0.3953760E+02  0.0000000E+00
Ar 3230  0.4723473E+02  0.3343452E+01  0.3910916E+02  0.0000000E+00
Ar 3231  0.4725879E+02  0.5537646E+02  0.4189779E+02  0.0000000E+00
Ar 3232  0.4477498E+02  0.3295337E+01  0.4188584E+02  0.0000000E+00
Ar 3233  0.4442421E+02  0.3992715E+00  0.4442418E+02  0.0000000E+00
Ar 3234  0.4757187E+02  0.3418003E+01  0.4470034E+02  0.0000000E+00
Ar 3235  0.4747093E+02  0.6981034E+00  0.4747108E+02  0.0000000E+00
Ar 3236  0.4470029E+02  0.3418000E+01  0.4757189E+02  0.0000000E+00
Ar 3237  0.4503470E+02  0.5560833E+02  0.5020131E+02  0.0000000E+00
Ar 3238  0.4740613E+02  0.3264066E+01  0.5013776E+02  0.0000000E+00
Ar 3239  0.4724805E+02  0.5554387E+02  0.5285283E+02  0.0000000E+00
Ar 3240  0.4480510E+02  0.3000831E+01  0.5258818E+02  0.0000000E+00
Ar 3241  0.4443297E+02  0.5631680E+01  0.5537726E+02  0.0000000E+00
Ar 3242  0.4734824E+02  0.8971653E+01  0.5539669E+02  0.0000000E+00
Ar 3243  0.4728384E+02  0.5867796E+01  0.3383256E+01  0.0000000E+00
Ar 3244  0.4427286E+02  0.8607451E+01  0.3106353E+01  0.0000000E+00
Ar 3245  0.4429905E+02  0.5815662E+01  0.5815672E+01  0.0000000E+00
Ar 3246  0.4732153E+02  0.8508821E+01  0.5851535E+01  0.0000000E+00
Ar 3247  0.4732153E+02  0.5851530E+01  0.8508815E+01  0.0000000E+00
Ar 3248  0.4450387E+02  0.8829163E+01  0.8829164E+01  0.0000000E+00
Ar 3249  0.4448847E+02  0.5672114E+01  0.1112339E+02  0.0000000E+00
Ar 3250  0.4722664E+02  0.8752375E+01  0.1144775E+02  0.0000000E+00
Ar 3251  0.4702092E+02  0.5915025E+01  0.1431337E+02  0.0000000E+00
Ar 3252  0.4408054E+02  0.8625406E+01  0.1388923E+02  0.0000000E+00
Ar 3253  0.4439219E+02  0.5842078E+01  0.1666739E+02  0.0000000E+00
Ar 3254  0.4751788E+02  0.8582205E+01  0.1673242E+02  0.0000000E+00
Ar 3255  0.4739891E+02  0.5811927E+01  0.1965475E+02  0.0000000E+00
Ar 3256  0.4443686E+02  0.8822083E+01  0.1949280E+02  0.0000000E+00
Ar 3257  0.4435808E+02  0.5852222E+01  0.2218971E+02  0.0000000E+00
Ar 3258  0.4702450E+02  0.8629652E+01  0.2208105E+02  0.0000000E+00
Ar 3259  0.4731769E+02  0.5905336E+01  0.2448774E+02  0.0000000E+00
Ar 3260  0.4428496E+02  0.8349415E+01  0.2490702E+02  0.0000000E+00
Ar 3261  0.4445274E+02  0.5744925E+01  0.2759682E+02  0.0000000E+00
Ar 3262  0.4728565E+02  0.8445791E+01  0.2762765E+02  0.0000000E+00
Ar 3263  0.4675863E+02  0.5622353E+01  0.3045044E+02  0.0000000E+00
Ar 3264  0.4418069E+02  0.8432020E+01  0.3042860E+02  0.0000000E+00
Ar 3265  0.4418885E+02  0.5857337E+01  0.3346005E+02  0.0000000E+00
Ar 3266  0.4696462E+02  0.8498150E+01  0.3327260E+02  0.0000000E+00
Ar 3267  0.4720791E+02  0.6522264E+01  0.3598205E+02  0.0000000E+00
Ar 3268  0.4436876E+02  0.8558008E+01  0.3622077E+02  0.0000000E+00
Ar 3269  0.4434917E+02  0.6121708E+01  0.3919243E+02  0.0000000E+00
Ar 3270  0.4699154E+02  0.8945061E+01  0.3875454E+02  0.0000000E+00
Ar 3271  0.4743086E+02  0.6261703E+01  0.4177322E+02  0.0000000E+00
Ar 3272  0.4472587E+02  0.8650863E+01  0.4175261E+02  0.0000000E+00
Ar 3273  0.4445845E+02  0.6033153E+01  0.4445845E+02  0.0000000E+00
Ar 3274  0.4727869E+02  0.8715894E+01  0.4453013E+02  0.0000000E+00
Ar 3275  0.4709544E+02  0.5901732E+01  0.4709555E+02  0.0000000E+00
Ar 3276  0.4453013E+02  0.8715926E+01  0.4727872E+02  0.0000000E+00
Ar 3277  0.4416282E+02  0.5672144E+01  0.5017468E+02  0.0000000E+00
Ar 3278  0.4721710E+02  0.8357199E+01  0.4986811E+02  0.0000000E+00
Ar 3279  0.4751605E+02  0.5929422E+01  0.5270376E+02  0.0000000E+00
Ar 3280  0.4449784E+02  0.8508073E+01  0.5271912E+02  0.0000000E+00
Ar 3281  0.4417722E+02  0.1122454E+02  0.5537235E+02  0.0000000E+00
Ar 3282  0.4735445E+02  0.1423768E+02  0.4817978E+00  0.0000000E+00
Ar 3283  0.4713419E+02  0.1148631E+02  0.2942925E+01  0.0000000E+00
Ar 3284  0.4424916E+02  0.1396460E+02  0.3299214E+01  0.0000000E+00
Ar 3285  0.4448846E+02  0.1112339E+02  0.5672122E+01  0.0000000E+00
Ar 3286  0.4702092E+02  0.1431336E+02  0.5915046E+01  0.0000000E+00
Ar 3287  0.4722665E+02  0.1144774E+02  0.8752381E+01  0.0000000E+00
Ar 3288  0.4408053E+02  0.1388922E+02  0.8625408E+01  0.0000000E+00
Ar 3289  0.4422278E+02  0.1157930E+02  0.1157930E+02  0.0000000E+00
Ar 3290  0.4714494E+02  0.1399427E+02  0.1133658E+02  0.0000000E+00
Ar 3291  0.4714494E+02  0.1133657E+02  0.1399428E+02  0.0000000E+00
Ar 3292  0.4409827E+02  0.1417993E+02  0.1417993E+02  0.0000000E+00
Ar 3293  0.4453838E+02  0.1118513E+02  0.1632038E+02  0.0000000E+00
Ar 3294  0.4730762E+02  0.1397079E+02  0.1710860E+02  0.0000000E+00
Ar 3295  0.4729379E+02  0.1137898E+02  0.1961292E+02  0.0000000E+00
Ar 3296  0.4443135E+02  0.1379527E+02  0.1928799E+02  0.0000000E+00
Ar 3297  0.4425437E+02  0.1129878E+02  0.2237160E+02  0.0000000E+00
Ar 3298  0.4695647E+02  0.1396087E+02  0.2245796E+02  0.0000000E+00
Ar 3299  0.4699783E+02  0.1143756E+02  0.2510699E+02  0.0000000E+00
Ar 3300  0.4408329E+02  0.1388749E+02  0.2500910E+02  0.0000000E+00
Ar 3301  0.4458734E+02  0.1111929E+02  0.2787678E+02  0.0000000E+00
Ar 3302  0.4734058E+02  0.1385515E+02  0.2780300E+02  0.0000000E+00
Ar 3303  0.4710507E+02  0.1127304E+02  0.3069993E+02  0.0000000E+00
Ar 3304  0.4452904E+02  0.1406993E+02  0.3059456E+02  0.0000000E+00
Ar 3305  0.4434838E+02  0.1104139E+02  0.3316395E+02  0.0000000E+00
Ar 3306  0.4718756E+02  0.1416597E+02  0.3301196E+02  0.0000000E+00
Ar 3307  0.4695315E+02  0.1117157E+02  0.3605166E+02  0.0000000E+00
Ar 3308  0.4476865E+02  0.1384409E+02  0.3603557E+02  0.0000000E+00
Ar 3309  0.4424987E+02  0.1128131E+02  0.3876922E+02  0.0000000E+00
Ar 3310  0.4712201E+02  0.1432254E+02  0.3897404E+02  0.0000000E+00
Ar 3311  0.4680231E+02  0.1157771E+02  0.4155740E+02  0.0000000E+00
Ar 3312  0.4434881E+02  0.1423814E+02  0.4184843E+02  0.0000000E+00
Ar 3313  0.4453829E+02  0.1143124E+02  0.4453828E+02  0.0000000E+00
Ar 3314  0.4712312E+02  0.1406817E+02  0.4429338E+02  0.0000000E+00
Ar 3315  0.4751192E+02  0.1164742E+02  0.4751167E+02  0.0000000E+00
Ar 3316  0.4429348E+02  0.1406818E+02  0.4712303E+02  0.0000000E+00
Ar 3317  0.4464208E+02  0.1137381E+02  0.5005514E+02  0.0000000E+00
Ar 3318  0.4696286E+02  0.1431080E+02  0.4974443E+02  0.0000000E+00
Ar 3319  0.4707980E+02  0.1164728E+02  0.5281830E+02  0.0000000E+00
Ar 3320  0.4463579E+02  0.1437856E+02  0.5306784E+02  0.0000000E+00
Ar 3321  0.4470042E+02  0.1704084E+02  0.5522143E+02  0.0000000E+00
Ar 3322  0.4740377E+02  0.1963349E+02  0.5542150E+02  0.0000000E+00
Ar 3323  0.4721732E+02  0.1715119E+02  0.3236177E+01  0.0000000E+00
Ar 3324  0.4454812E+02  0.1960607E+02  0.3153666E+01  0.0000000E+00
Ar 3325  0.4439218E+02  0.1666738E+02  0.5842074E+01  0.0000000E+00
Ar 3326  0.4739892E+02  0.1965477E+02  0.5811923E+01  0.0000000E+00
Ar 3327  0.4751788E+02  0.1673243E+02  0.8582207E+01  0.0000000E+00
Ar 3328  0.4443686E+02  0.1949281E+02  0.8822085E+01  0.0000000E+00
Ar 3329  0.4453839E+02  0.1632037E+02  0.1118513E+02  0.0000000E+00
Ar 3330  0.4729379E+02  0.1961292E+02  0.1137898E+02  0.0000000E+00
Ar 3331  0.4730762E+02  0.1710859E+02  0.1397080E+02  0.0000000E+00
Ar 3332  0.4443135E+02  0.1928798E+02  0.1379527E+02  0.0000000E+00
Ar 3333  0.4433002E+02  0.1686457E+02  0.1686458E+02  0.0000000E+00
Ar 3334  0.4704017E+02  0.1965543E+02  0.1657972E+02  0.0000000E+00
Ar 3335  0.4704017E+02  0.1657972E+02  0.1965544E+02  0.0000000E+00
Ar 3336  0.4430034E+02  0.1947382E+02  0.1947382E+02  0.0000000E+00
Ar 3337  0.4448454E+02  0.1663893E+02  0.2245179E+02  0.0000000E+00
Ar 3338  0.4730100E+02  0.1934387E+02  0.2210272E+02  0.0000000E+00
Ar 3339  0.4737197E+02  0.1663355E+02  0.2513014E+02  0.0000000E+00
Ar 3340  0.4455223E+02  0.1949084E+02  0.2517798E+02  0.0000000E+00
Ar 3341  0.4462418E+02  0.1670104E+02  0.2777205E+02  0.0000000E+00
Ar 3342  0.4739773E+02  0.1937092E+02  0.2768483E+02  0.0000000E+00
Ar 3343  0.4731337E+02  0.1671321E+02  0.3050482E+02  0.0000000E+00
Ar 3344  0.4459742E+02  0.1952051E+02  0.3070722E+02  0.0000000E+00
Ar 3345  0.4465234E+02  0.1687480E+02  0.3354566E+02  0.0000000E+00
Ar 3346  0.4730070E+02  0.1955944E+02  0.3351531E+02  0.0000000E+00
Ar 3347  0.4719514E+02  0.1683092E+02  0.3587091E+02  0.0000000E+00
Ar 3348  0.4441155E+02  0.1943752E+02  0.3632118E+02  0.0000000E+00
Ar 3349  0.4431069E+02  0.1653931E+02  0.3902220E+02  0.0000000E+00
Ar 3350  0.4712193E+02  0.1945126E+02  0.3870642E+02  0.0000000E+00
Ar 3351  0.4738237E+02  0.1711656E+02  0.4159148E+02  0.0000000E+00
Ar 3352  0.4442536E+02  0.1960993E+02  0.4139129E+02  0.0000000E+00
Ar 3353  0.4426666E+02  0.1732335E+02  0.4426662E+02  0.0000000E+00
Ar 3354  0.4710521E+02  0.1962916E+02  0.4430737E+02  0.0000000E+00
Ar 3355  0.4739293E+02  0.1697240E+02  0.4739291E+02  0.0000000E+00
Ar 3356  0.4430738E+02  0.1962918E+02  0.4710521E+02  0.0000000E+00
Ar 3357  0.4412622E+02  0.1687853E+02  0.4995671E+02  0.0000000E+00
Ar 3358  0.4692028E+02  0.1983321E+02  0.4979192E+02  0.0000000E+00
Ar 3359  0.4747413E+02  0.1691976E+02  0.5234496E+02  0.0000000E+00
Ar 3360  0.4454346E+02  0.1976637E+02  0.5265894E+02  0.0000000E+00
Ar 3361  0.4425388E+02  0.2205486E+02  0.4060707E+00  0.0000000E+00
Ar 3362  0.4714256E+02  0.2507476E+02  0.5546154E+02  0.0000000E+00
Ar 3363  0.4733301E+02  0.2237637E+02  0.2841735E+01  0.0000000E+00
Ar 3364  0.4422743E+02  0.2528804E+02  0.2921209E+01  0.0000000E+00
Ar 3365  0.4435807E+02  0.2218972E+02  0.5852217E+01  0.0000000E+00
Ar 3366  0.4731759E+02  0.2448781E+02  0.5905336E+01  0.0000000E+00
Ar 3367  0.4702450E+02  0.2208105E+02  0.8629647E+01  0.0000000E+00
Ar 3368  0.4428493E+02  0.2490696E+02  0.8349436E+01  0.0000000E+00
Ar 3369  0.4425437E+02  0.2237160E+02  0.1129878E+02  0.0000000E+00
Ar 3370  0.4699782E+02  0.2510694E+02  0.1143761E+02  0.0000000E+00
Ar 3371  0.4695647E+02  0.2245795E+02  0.1396088E+02  0.0000000E+00
Ar 3372  0.4408329E+02  0.2500909E+02  0.1388750E+02  0.0000000E+00
Ar 3373  0.4448454E+02  0.2245179E+02  0.1663894E+02  0.0000000E+00
Ar 3374  0.4737196E+02  0.2513013E+02  0.1663355E+02  0.0000000E+00
Ar 3375  0.4730100E+02  0.2210272E+02  0.1934387E+02  0.0000000E+00
Ar 3376  0.4455223E+02  0.2517798E+02  0.1949084E+02  0.0000000E+00
Ar 3377  0.4443805E+02  0.2224659E+02  0.2224659E+02  0.0000000E+00
Ar 3378  0.4722231E+02  0.2489126E+02  0.2223089E+02  0.0000000E+00
Ar 3379  0.4722231E+02  0.2223089E+02  0.2489126E+02  0.0000000E+00
Ar 3380  0.4485896E+02  0.2503855E+02  0.2503855E+02  0.0000000E+00
Ar 3381  0.4438453E+02  0.2234456E+02  0.2776072E+02  0.0000000E+00
Ar 3382  0.4720182E+02  0.2532487E+02  0.2791936E+02  0.0000000E+00
Ar 3383  0.4728989E+02  0.2211645E+02  0.3029871E+02  0.0000000E+00
Ar 3384  0.4449567E+02  0.2500926E+02  0.3059593E+02  0.0000000E+00
Ar 3385  0.4474489E+02  0.2212949E+02  0.3313974E+02  0.0000000E+00
Ar 3386  0.4737768E+02  0.2515435E+02  0.3336075E+02  0.0000000E+00
Ar 3387  0.4716017E+02  0.2233749E+02  0.3621780E+02  0.0000000E+00
Ar 3388  0.4488222E+02  0.2510782E+02  0.3610727E+02  0.0000000E+00
Ar 3389  0.4439281E+02  0.2240714E+02  0.3884698E+02  0.0000000E+00
Ar 3390  0.4733558E+02  0.2516217E+02  0.3886342E+02  0.0000000E+00
Ar 3391  0.4715921E+02  0.2235962E+02  0.4190704E+02  0.0000000E+00
Ar 3392  0.4476478E+02  0.2555542E+02  0.4199701E+02  0.0000000E+00
Ar 3393  0.4429809E+02  0.2238622E+02  0.4429811E+02  0.0000000E+00
Ar 3394  0.4729404E+02  0.2551039E+02  0.4444744E+02  0.0000000E+00
Ar 3395  0.4697806E+02  0.2225413E+02  0.4697820E+02  0.0000000E+00
Ar 3396  0.4444715E+02  0.2551024E+02  0.4729366E+02  0.0000000E+00
Ar 3397  0.4453438E+02  0.2257169E+02  0.4999958E+02  0.0000000E+00
Ar 3398  0.4718567E+02  0.2529680E+02  0.4981376E+02  0.0000000E+00
Ar 3399  0.4732828E+02  0.2257457E+02  0.5251706E+02  0.0000000E+00
Ar 3400  0.4454166E+02  0.2481453E+02  0.5261174E+02  0.0000000E+00
Ar 3401  0.4419436E+02  0.2792656E+02  0.5538245E+02  0.0000000E+00
Ar 3402  0.4740024E+02  0.3130274E+02  0.5547747E+02  0.0000000E+00
Ar 3403  0.4705737E+02  0.2770011E+02  0.3108699E+01  0.0000000E+00
Ar 3404  0.4435374E+02  0.3075448E+02  0.3037760E+01  0.0000000E+00
Ar 3405  0.4445224E+02  0.2759678E+02  0.5745405E+01  0.0000000E+00
Ar 3406  0.4675848E+02  0.3045035E+02  0.5622522E+01  0.0000000E+00
Ar 3407  0.4728566E+02  0.2762761E+02  0.8445833E+01  0.0000000E+00
Ar 3408  0.4418059E+02  0.3042861E+02  0.8432125E+01  0.0000000E+00
Ar 3409  0.4458732E+02  0.2787678E+02  0.1111933E+02  0.0000000E+00
Ar 3410  0.4710512E+02  0.3070000E+02  0.1127309E+02  0.0000000E+00
Ar 3411  0.4734056E+02  0.2780298E+02  0.1385515E+02  0.0000000E+00
Ar 3412  0.4452934E+02  0.3059489E+02  0.1407001E+02  0.0000000E+00
Ar 3413  0.4462419E+02  0.2777206E+02  0.1670104E+02  0.0000000E+00
Ar 3414  0.4731339E+02  0.3050497E+02  0.1671310E+02  0.0000000E+00
Ar 3415  0.4739774E+02  0.2768485E+02  0.1937091E+02  0.0000000E+00
Ar 3416  0.4459743E+02  0.3070722E+02  0.1952050E+02  0.0000000E+00
Ar 3417  0.4438453E+02  0.2776072E+02  0.2234456E+02  0.0000000E+00
Ar 3418  0.4728989E+02  0.3029871E+02  0.2211645E+02  0.0000000E+00
Ar 3419  0.4720183E+02  0.2791936E+02  0.2532488E+02  0.0000000E+00
Ar 3420  0.4449568E+02  0.3059593E+02  0.2500926E+02  0.0000000E+00
Ar 3421  0.4382721E+02  0.2768435E+02  0.2768434E+02  0.0000000E+00
Ar 3422  0.4748173E+02  0.3061439E+02  0.2796695E+02  0.0000000E+00
Ar 3423  0.4748173E+02  0.2796695E+02  0.3061439E+02  0.0000000E+00
Ar 3424  0.4458095E+02  0.3060368E+02  0.3060368E+02  0.0000000E+00
Ar 3425  0.4494209E+02  0.2803368E+02  0.3331301E+02  0.0000000E+00
Ar 3426  0.4725255E+02  0.3104252E+02  0.3366453E+02  0.0000000E+00
Ar 3427  0.4716512E+02  0.2800703E+02  0.3638805E+02  0.0000000E+00
Ar 3428  0.4432234E+02  0.3029250E+02  0.3627419E+02  0.0000000E+00
Ar 3429  0.4451998E+02  0.2782643E+02  0.3913034E+02  0.0000000E+00
Ar 3430  0.4737663E+02  0.3085192E+02  0.3909054E+02  0.0000000E+00
Ar 3431  0.4734173E+02  0.2825323E+02  0.4180350E+02  0.0000000E+00
Ar 3432  0.4463416E+02  0.3078694E+02  0.4174280E+02  0.0000000E+00
Ar 3433  0.4430167E+02  0.2849004E+02  0.4430166E+02  0.0000000E+00
Ar 3434  0.4716982E+02  0.3085510E+02  0.4455613E+02  0.0000000E+00
Ar 3435  0.4714761E+02  0.2836986E+02  0.4714771E+02  0.0000000E+00
Ar 3436  0.4455576E+02  0.3085506E+02  0.4716948E+02  0.0000000E+00
Ar 3437  0.4440417E+02  0.2794040E+02  0.5041161E+02  0.0000000E+00
Ar 3438  0.4688497E+02  0.3073416E+02  0.4997517E+02  0.0000000E+00
Ar 3439  0.4737831E+02  0.2819100E+02  0.5257161E+02  0.0000000E+00
Ar 3440  0.4430603E+02  0.3074432E+02  0.5288156E+02  0.0000000E+00
Ar 3441  0.4448861E+02  0.3378578E+02  0.5533029E+02  0.0000000E+00
Ar 3442  0.4671567E+02  0.3632322E+02  0.5553751E+02  0.0000000E+00
Ar 3443  0.4711588E+02  0.3352854E+02  0.3443084E+01  0.0000000E+00
Ar 3444  0.4463465E+02  0.3625644E+02  0.3032101E+01  0.0000000E+00
Ar 3445  0.4418884E+02  0.3346003E+02  0.5857378E+01  0.0000000E+00
Ar 3446  0.4720797E+02  0.3598216E+02  0.6522411E+01  0.0000000E+00
Ar 3447  0.4696467E+02  0.3327273E+02  0.8498281E+01  0.0000000E+00
Ar 3448  0.4436891E+02  0.3622075E+02  0.8558209E+01  0.0000000E+00
Ar 3449  0.4434839E+02  0.3316400E+02  0.1104140E+02  0.0000000E+00
Ar 3450  0.4695322E+02  0.3605177E+02  0.1117168E+02  0.0000000E+00
Ar 3451  0.4718766E+02  0.3301197E+02  0.1416597E+02  0.0000000E+00
Ar 3452  0.4476868E+02  0.3603567E+02  0.1384415E+02  0.0000000E+00
Ar 3453  0.4465240E+02  0.3354566E+02  0.1687476E+02  0.0000000E+00
Ar 3454  0.4719514E+02  0.3587086E+02  0.1683088E+02  0.0000000E+00
Ar 3455  0.4730072E+02  0.3351531E+02  0.1955941E+02  0.0000000E+00
Ar 3456  0.4441155E+02  0.3632116E+02  0.1943752E+02  0.0000000E+00
Ar 3457  0.4474490E+02  0.3313975E+02  0.2212949E+02  0.0000000E+00
Ar 3458  0.4716017E+02  0.3621780E+02  0.2233749E+02  0.0000000E+00
Ar 3459  0.4737771E+02  0.3336076E+02  0.2515431E+02  0.0000000E+00
Ar 3460  0.4488225E+02  0.3610727E+02  0.2510781E+02  0.0000000E+00
Ar 3461  0.4494210E+02  0.3331301E+02  0.2803368E+02  0.0000000E+00
Ar 3462  0.4716512E+02  0.3638804E+02  0.2800704E+02  0.0000000E+00
Ar 3463  0.4725255E+02  0.3366453E+02  0.3104253E+02  0.0000000E+00
Ar 3464  0.4432235E+02  0.3627420E+02  0.3029250E+02  0.0000000E+00
Ar 3465  0.4471076E+02  0.3380834E+02  0.3380835E+02  0.0000000E+00
Ar 3466  0.4743651E+02  0.3647005E+02  0.3366829E+02  0.0000000E+00
Ar 3467  0.4743650E+02  0.3366829E+02  0.3647005E+02  0.0000000E+00
Ar 3468  0.4503627E+02  0.3651619E+02  0.3651618E+02  0.0000000E+00
Ar 3469  0.4441403E+02  0.3360391E+02  0.3908757E+02  0.0000000E+00
Ar 3470  0.4731302E+02  0.3612369E+02  0.3924153E+02  0.0000000E+00
Ar 3471  0.4717032E+02  0.3359725E+02  0.4202261E+02  0.0000000E+00
Ar 3472  0.4439162E+02  0.3641463E+02  0.4174860E+02  0.0000000E+00
Ar 3473  0.4424266E+02  0.3343965E+02  0.4424266E+02  0.0000000E+00
Ar 3474  0.4715828E+02  0.3654646E+02  0.4460537E+02  0.0000000E+00
Ar 3475  0.4703741E+02  0.3372851E+02  0.4703738E+02  0.0000000E+00
Ar 3476  0.4460538E+02  0.3654646E+02  0.4715825E+02  0.0000000E+00
Ar 3477  0.4452496E+02  0.3359765E+02  0.5002400E+02  0.0000000E+00
Ar 3478  0.4690327E+02  0.3638847E+02  0.5005443E+02  0.0000000E+00
Ar 3479  0.4735751E+02  0.3403258E+02  0.5295084E+02  0.0000000E+00
Ar 3480  0.4461889E+02  0.3667487E+02  0.5276830E+02  0.0000000E+00
Ar 3481  0.4464204E+02  0.3953768E+02  0.6980209E+00  0.0000000E+00
Ar 3482  0.4725877E+02  0.4189779E+02  0.5537645E+02  0.0000000E+00
Ar 3483  0.4723431E+02  0.3910954E+02  0.3343530E+01  0.0000000E+00
Ar 3484  0.4477492E+02  0.4188593E+02  0.3295346E+01  0.0000000E+00
Ar 3485  0.4434917E+02  0.3919243E+02  0.6121754E+01  0.0000000E+00
Ar 3486  0.4743081E+02  0.4177335E+02  0.6261729E+01  0.0000000E+00
Ar 3487  0.4699140E+02  0.3875465E+02  0.8945191E+01  0.0000000E+00
Ar 3488  0.4472591E+02  0.4175261E+02  0.8650919E+01  0.0000000E+00
Ar 3489  0.4424989E+02  0.3876924E+02  0.1128133E+02  0.0000000E+00
Ar 3490  0.4680234E+02  0.4155745E+02  0.1157775E+02  0.0000000E+00
Ar 3491  0.4712213E+02  0.3897402E+02  0.1432257E+02  0.0000000E+00
Ar 3492  0.4434882E+02  0.4184844E+02  0.1423816E+02  0.0000000E+00
Ar 3493  0.4431074E+02  0.3902221E+02  0.1653930E+02  0.0000000E+00
Ar 3494  0.4738245E+02  0.4159153E+02  0.1711661E+02  0.0000000E+00
Ar 3495  0.4712192E+02  0.3870642E+02  0.1945122E+02  0.0000000E+00
Ar 3496  0.4442537E+02  0.4139130E+02  0.1960993E+02  0.0000000E+00
Ar 3497  0.4439284E+02  0.3884698E+02  0.2240715E+02  0.0000000E+00
Ar 3498  0.4715913E+02  0.4190696E+02  0.2235962E+02  0.0000000E+00
Ar 3499  0.4733559E+02  0.3886339E+02  0.2516218E+02  0.0000000E+00
Ar 3500  0.4476478E+02  0.4199698E+02  0.2555540E+02  0.0000000E+00
Ar 3501  0.4451999E+02  0.3913033E+02  0.2782642E+02  0.0000000E+00
Ar 3502  0.4734172E+02  0.4180348E+02  0.2825325E+02  0.0000000E+00
Ar 3503  0.4737663E+02  0.3909054E+02  0.3085193E+02  0.0000000E+00
Ar 3504  0.4463417E+02  0.4174283E+02  0.3078691E+02  0.0000000E+00
Ar 3505  0.4441404E+02  0.3908757E+02  0.3360390E+02  0.0000000E+00
Ar 3506  0.4717034E+02  0.4202261E+02  0.3359725E+02  0.0000000E+00
Ar 3507  0.4731302E+02  0.3924153E+02  0.3612369E+02  0.0000000E+00
Ar 3508  0.4439162E+02  0.4174859E+02  0.3641463E+02  0.0000000E+00
Ar 3509  0.4447516E+02  0.3919452E+02  0.3919452E+02  0.0000000E+00
Ar 3510  0.4719261E+02  0.4175268E+02  0.3912592E+02  0.0000000E+00
Ar 3511  0.4719261E+02  0.3912592E+02  0.4175269E+02  0.0000000E+00
Ar 3512  0.4464685E+02  0.4172469E+02  0.4172469E+02  0.0000000E+00
Ar 3513  0.4432947E+02  0.3907089E+02  0.4432945E+02  0.0000000E+00
Ar 3514  0.4717323E+02  0.4178155E+02  0.4438385E+02  0.0000000E+00
Ar 3515  0.4706729E+02  0.3914420E+02  0.4706727E+02  0.0000000E+00
Ar 3516  0.4438387E+02  0.4178155E+02  0.4717322E+02  0.0000000E+00
Ar 3517  0.4437449E+02  0.3941027E+02  0.5012098E+02  0.0000000E+00
Ar 3518  0.4725402E+02  0.4204668E+02  0.4991393E+02  0.0000000E+00
Ar 3519  0.4708913E+02  0.3926475E+02  0.5267980E+02  0.0000000E+00
Ar 3520  0.4474331E+02  0.4185957E+02  0.5278482E+02  0.0000000E+00
Ar 3521  0.4442420E+02  0.4442418E+02  0.3992775E+00  0.0000000E+00
Ar 3522  0.4747092E+02  0.4747108E+02  0.6980982E+00  0.0000000E+00
Ar 3523  0.4757188E+02  0.4470033E+02  0.3418008E+01  0.0000000E+00
Ar 3524  0.4470028E+02  0.4757190E+02  0.3418017E+01  0.0000000E+00
Ar 3525  0.4445846E+02  0.4445845E+02  0.6033166E+01  0.0000000E+00
Ar 3526  0.4709548E+02  0.4709551E+02  0.5901771E+01  0.0000000E+00
Ar 3527  0.4727871E+02  0.4453012E+02  0.8715919E+01  0.0000000E+00
Ar 3528  0.4453016E+02  0.4727868E+02  0.8715928E+01  0.0000000E+00
Ar 3529  0.4453829E+02  0.4453827E+02  0.1143124E+02  0.0000000E+00
Ar 3530  0.4751171E+02  0.4751169E+02  0.1164724E+02  0.0000000E+00
Ar 3531  0.4712304E+02  0.4429345E+02  0.1406816E+02  0.0000000E+00
Ar 3532  0.4429347E+02  0.4712302E+02  0.1406819E+02  0.0000000E+00
Ar 3533  0.4426666E+02  0.4426663E+02  0.1732337E+02  0.0000000E+00
Ar 3534  0.4739298E+02  0.4739297E+02  0.1697242E+02  0.0000000E+00
Ar 3535  0.4710520E+02  0.4430739E+02  0.1962919E+02  0.0000000E+00
Ar 3536  0.4430740E+02  0.4710518E+02  0.1962920E+02  0.0000000E+00
Ar 3537  0.4429811E+02  0.4429809E+02  0.2238622E+02  0.0000000E+00
Ar 3538  0.4697816E+02  0.4697816E+02  0.2225412E+02  0.0000000E+00
Ar 3539  0.4729394E+02  0.4444728E+02  0.2551033E+02  0.0000000E+00
Ar 3540  0.4444729E+02  0.4729393E+02  0.2551034E+02  0.0000000E+00
Ar 3541  0.4430175E+02  0.4430173E+02  0.2849009E+02  0.0000000E+00
Ar 3542  0.4714772E+02  0.4714770E+02  0.2836980E+02  0.0000000E+00
Ar 3543  0.4716983E+02  0.4455611E+02  0.3085508E+02  0.0000000E+00
Ar 3544  0.4455613E+02  0.4716983E+02  0.3085507E+02  0.0000000E+00
Ar 3545  0.4424266E+02  0.4424266E+02  0.3343963E+02  0.0000000E+00
Ar 3546  0.4703723E+02  0.4703721E+02  0.3372855E+02  0.0000000E+00
Ar 3547  0.4715828E+02  0.4460537E+02  0.3654647E+02  0.0000000E+00
Ar 3548  0.4460538E+02  0.4715825E+02  0.3654647E+02  0.0000000E+00
Ar 3549  0.4432947E+02  0.4432945E+02  0.3907089E+02  0.0000000E+00
Ar 3550  0.4706730E+02  0.4706726E+02  0.3914420E+02  0.0000000E+00
Ar 3551  0.4717324E+02  0.4438385E+02  0.4178156E+02  0.0000000E+00
Ar 3552  0.4438387E+02  0.4717322E+02  0.4178155E+02  0.0000000E+00
Ar 3553  0.4441387E+02  0.4441387E+02  0.4441388E+02  0.0000000E+00
Ar 3554  0.4722848E+02  0.4722851E+02  0.4477148E+02  0.0000000E+00
Ar 3555  0.4722849E+02  0.4477149E+02  0.4722852E+02  0.0000000E+00
Ar 3556  0.4477156E+02  0.4722919E+02  0.4722918E+02  0.0000000E+00
Ar 3557  0.4479247E+02  0.4479237E+02  0.5006298E+02  0.0000000E+00
Ar 3558  0.4736066E+02  0.4736110E+02  0.5000683E+02  0.0000000E+00
Ar 3559  0.4735361E+02  0.4451772E+02  0.5266488E+02  0.0000000E+00
Ar 3560  0.4451775E+02  0.4735355E+02  0.5266499E+02  0.0000000E+00
Ar 3561  0.4503467E+02  0.5020135E+02  0.5560833E+02  0.0000000E+00
Ar 3562  0.4724806E+02  0.5285282E+02  0.5554388E+02  0.0000000E+00
Ar 3563  0.4740614E+02  0.5013775E+02  0.3264072E+01  0.0000000E+00
Ar 3564  0.4480504E+02  0.5258818E+02  0.3000850E+01  0.0000000E+00
Ar 3565  0.4416286E+02  0.5017466E+02  0.5672169E+01  0.0000000E+00
Ar 3566  0.4751606E+02  0.5270376E+02  0.5929418E+01  0.0000000E+00
Ar 3567  0.4721712E+02  0.4986810E+02  0.8357208E+01  0.0000000E+00
Ar 3568  0.4449785E+02  0.5271913E+02  0.8508080E+01  0.0000000E+00
Ar 3569  0.4464209E+02  0.5005513E+02  0.1137382E+02  0.0000000E+00
Ar 3570  0.4707978E+02  0.5281831E+02  0.1164728E+02  0.0000000E+00
Ar 3571  0.4696291E+02  0.4974442E+02  0.1431086E+02  0.0000000E+00
Ar 3572  0.4463579E+02  0.5306781E+02  0.1437855E+02  0.0000000E+00
Ar 3573  0.4412622E+02  0.4995671E+02  0.1687854E+02  0.0000000E+00
Ar 3574  0.4747416E+02  0.5234499E+02  0.1691978E+02  0.0000000E+00
Ar 3575  0.4692026E+02  0.4979208E+02  0.1983330E+02  0.0000000E+00
Ar 3576  0.4454340E+02  0.5265896E+02  0.1976637E+02  0.0000000E+00
Ar 3577  0.4453463E+02  0.4999980E+02  0.2257213E+02  0.0000000E+00
Ar 3578  0.4732860E+02  0.5251833E+02  0.2257506E+02  0.0000000E+00
Ar 3579  0.4718820E+02  0.4981561E+02  0.2529760E+02  0.0000000E+00
Ar 3580  0.4454357E+02  0.5261357E+02  0.2481461E+02  0.0000000E+00
Ar 3581  0.4440677E+02  0.5041409E+02  0.2794017E+02  0.0000000E+00
Ar 3582  0.4738093E+02  0.5257301E+02  0.2819353E+02  0.0000000E+00
Ar 3583  0.4688514E+02  0.4997687E+02  0.3073285E+02  0.0000000E+00
Ar 3584  0.4430605E+02  0.5288175E+02  0.3074439E+02  0.0000000E+00
Ar 3585  0.4452504E+02  0.5002400E+02  0.3359761E+02  0.0000000E+00
Ar 3586  0.4735756E+02  0.5295095E+02  0.3403257E+02  0.0000000E+00
Ar 3587  0.4690327E+02  0.5005441E+02  0.3638848E+02  0.0000000E+00
Ar 3588  0.4461903E+02  0.5276846E+02  0.3667486E+02  0.0000000E+00
Ar 3589  0.4437450E+02  0.5012098E+02  0.3941027E+02  0.0000000E+00
Ar 3590  0.4708911E+02  0.5267986E+02  0.3926474E+02  0.0000000E+00
Ar 3591  0.4725402E+02  0.4991393E+02  0.4204668E+02  0.0000000E+00
Ar 3592  0.4474331E+02  0.5278482E+02  0.4185956E+02  0.0000000E+00
Ar 3593  0.4479247E+02  0.5006297E+02  0.4479237E+02  0.0000000E+00
Ar 3594  0.4735361E+02  0.5266488E+02  0.4451771E+02  0.0000000E+00
Ar 3595  0.4736066E+02  0.5000683E+02  0.4736111E+02  0.0000000E+00
Ar 3596  0.4451777E+02  0.5266497E+02  0.4735355E+02  0.0000000E+00
Ar 3597  0.4466907E+02  0.5003550E+02  0.5003550E+02  0.0000000E+00
Ar 3598  0.4746138E+02  0.5271580E+02  0.4984465E+02  0.0000000E+00
Ar 3599  0.4746138E+02  0.4984465E+02  0.5271580E+02  0.0000000E+00
Ar 3600  0.4396464E+02  0.5272585E+02  0.5272588E+02  0.0000000E+00
Ar 3601  0.5030780E+02  0.8050990E+00  0.8050958E+00  0.0000000E+00
Ar 3602  0.5260709E+02  0.3291384E+01  0.5095782E+00  0.0000000E+00
Ar 3603  0.5260709E+02  0.5095801E+00  0.3291378E+01  0.0000000E+00
Ar 3604  0.4970042E+02  0.3161259E+01  0.3161255E+01  0.0000000E+00
Ar 3605  0.4994780E+02  0.5517364E+02  0.5792659E+01  0.0000000E+00
Ar 3606  0.5257258E+02  0.3231658E+01  0.6072136E+01  0.0000000E+00
Ar 3607  0.5273814E+02  0.5544029E+02  0.9296280E+01  0.0000000E+00
Ar 3608  0.4992524E+02  0.3054686E+01  0.8491545E+01  0.0000000E+00
Ar 3609  0.4985868E+02  0.5538849E+02  0.1120498E+02  0.0000000E+00
Ar 3610  0.5296805E+02  0.3057463E+01  0.1103451E+02  0.0000000E+00
Ar 3611  0.5301144E+02  0.5553798E+02  0.1456042E+02  0.0000000E+00
Ar 3612  0.5014616E+02  0.3098981E+01  0.1393531E+02  0.0000000E+00
Ar 3613  0.4978591E+02  0.5549135E+02  0.1682620E+02  0.0000000E+00
Ar 3614  0.5279774E+02  0.2928082E+01  0.1683959E+02  0.0000000E+00
Ar 3615  0.5218543E+02  0.5514563E+02  0.2001806E+02  0.0000000E+00
Ar 3616  0.5027206E+02  0.3100775E+01  0.1984018E+02  0.0000000E+00
Ar 3617  0.4987229E+02  0.5523099E+02  0.2262297E+02  0.0000000E+00
Ar 3618  0.5279039E+02  0.2676916E+01  0.2252489E+02  0.0000000E+00
Ar 3619  0.5274378E+02  0.5538269E+02  0.2545521E+02  0.0000000E+00
Ar 3620  0.4974763E+02  0.2903509E+01  0.2530865E+02  0.0000000E+00
Ar 3621  0.4966801E+02  0.6090338E+00  0.2805691E+02  0.0000000E+00
Ar 3622  0.5226127E+02  0.3040662E+01  0.2818149E+02  0.0000000E+00
Ar 3623  0.5227913E+02  0.4155377E+00  0.3137416E+02  0.0000000E+00
Ar 3624  0.4980667E+02  0.2951058E+01  0.3116998E+02  0.0000000E+00
Ar 3625  0.4985480E+02  0.5535435E+02  0.3406420E+02  0.0000000E+00
Ar 3626  0.5306388E+02  0.3357000E+01  0.3392399E+02  0.0000000E+00
Ar 3627  0.5259766E+02  0.5552033E+02  0.3645633E+02  0.0000000E+00
Ar 3628  0.4968385E+02  0.3053967E+01  0.3639240E+02  0.0000000E+00
Ar 3629  0.5115023E+02  0.5564164E+02  0.4001104E+02  0.0000000E+00
Ar 3630  0.5268629E+02  0.3100575E+01  0.3911651E+02  0.0000000E+00
Ar 3631  0.5284361E+02  0.4978607E+00  0.4238643E+02  0.0000000E+00
Ar 3632  0.4968393E+02  0.3299095E+01  0.4180343E+02  0.0000000E+00
Ar 3633  0.5020064E+02  0.5560810E+02  0.4503483E+02  0.0000000E+00
Ar 3634  0.5258858E+02  0.3000291E+01  0.4480433E+02  0.0000000E+00
Ar 3635  0.5285026E+02  0.5554402E+02  0.4724445E+02  0.0000000E+00
Ar 3636  0.5013839E+02  0.3263847E+01  0.4740573E+02  0.0000000E+00
Ar 3637  0.4965693E+02  0.4462517E+00  0.4965680E+02  0.0000000E+00
Ar 3638  0.5286416E+02  0.3048214E+01  0.5033240E+02  0.0000000E+00
Ar 3639  0.5313261E+02  0.8136411E+00  0.5313268E+02  0.0000000E+00
Ar 3640  0.5033195E+02  0.3048615E+01  0.5286484E+02  0.0000000E+00
Ar 3641  0.4994781E+02  0.5792683E+01  0.5517365E+02  0.0000000E+00
Ar 3642  0.5273813E+02  0.9296302E+01  0.5544028E+02  0.0000000E+00
Ar 3643  0.5257261E+02  0.6072150E+01  0.3231655E+01  0.0000000E+00
Ar 3644  0.4992524E+02  0.8491536E+01  0.3054700E+01  0.0000000E+00
Ar 3645  0.5022221E+02  0.5766429E+01  0.5766435E+01  0.0000000E+00
Ar 3646  0.5266155E+02  0.8764038E+01  0.5859327E+01  0.0000000E+00
Ar 3647  0.5266156E+02  0.5859314E+01  0.8764035E+01  0.0000000E+00
Ar 3648  0.4998787E+02  0.8584145E+01  0.8584153E+01  0.0000000E+00
Ar 3649  0.5008285E+02  0.5544510E+01  0.1113718E+02  0.0000000E+00
Ar 3650  0.5283263E+02  0.8487265E+01  0.1149041E+02  0.0000000E+00
Ar 3651  0.5275325E+02  0.5818012E+01  0.1377538E+02  0.0000000E+00
Ar 3652  0.4994257E+02  0.8541855E+01  0.1396091E+02  0.0000000E+00
Ar 3653  0.5036400E+02  0.5690573E+01  0.1684837E+02  0.0000000E+00
Ar 3654  0.5256023E+02  0.8571775E+01  0.1668641E+02  0.0000000E+00
Ar 3655  0.5283884E+02  0.6043319E+01  0.1951724E+02  0.0000000E+00
Ar 3656  0.4990017E+02  0.8647649E+01  0.1955084E+02  0.0000000E+00
Ar 3657  0.5016308E+02  0.5801524E+01  0.2220921E+02  0.0000000E+00
Ar 3658  0.5259492E+02  0.8672785E+01  0.2257624E+02  0.0000000E+00
Ar 3659  0.5250850E+02  0.5740380E+01  0.2508488E+02  0.0000000E+00
Ar 3660  0.4996081E+02  0.8482973E+01  0.2514038E+02  0.0000000E+00
Ar 3661  0.4973766E+02  0.5524248E+01  0.2771101E+02  0.0000000E+00
Ar 3662  0.5246750E+02  0.8318671E+01  0.2823949E+02  0.0000000E+00
Ar 3663  0.5277046E+02  0.5592590E+01  0.3095493E+02  0.0000000E+00
Ar 3664  0.4971862E+02  0.8076684E+01  0.3063465E+02  0.0000000E+00
Ar 3665  0.5008648E+02  0.5970435E+01  0.3341292E+02  0.0000000E+00
Ar 3666  0.5290175E+02  0.8576347E+01  0.3334289E+02  0.0000000E+00
Ar 3667  0.5260291E+02  0.6116184E+01  0.3619772E+02  0.0000000E+00
Ar 3668  0.4988169E+02  0.8622721E+01  0.3617086E+02  0.0000000E+00
Ar 3669  0.4984597E+02  0.6111630E+01  0.3903096E+02  0.0000000E+00
Ar 3670  0.5264601E+02  0.8438298E+01  0.3895284E+02  0.0000000E+00
Ar 3671  0.5298929E+02  0.5675635E+01  0.4173150E+02  0.0000000E+00
Ar 3672  0.5010378E+02  0.8524762E+01  0.4188905E+02  0.0000000E+00
Ar 3673  0.5017491E+02  0.5671865E+01  0.4416298E+02  0.0000000E+00
Ar 3674  0.5271909E+02  0.8508138E+01  0.4449790E+02  0.0000000E+00
Ar 3675  0.5270385E+02  0.5929447E+01  0.4751605E+02  0.0000000E+00
Ar 3676  0.4986804E+02  0.8357095E+01  0.4721711E+02  0.0000000E+00
Ar 3677  0.5020703E+02  0.5599240E+01  0.5020703E+02  0.0000000E+00
Ar 3678  0.5260451E+02  0.8876751E+01  0.4968417E+02  0.0000000E+00
Ar 3679  0.5296165E+02  0.5821961E+01  0.5296183E+02  0.0000000E+00
Ar 3680  0.4968414E+02  0.8876634E+01  0.5260456E+02  0.0000000E+00
Ar 3681  0.4985871E+02  0.1120504E+02  0.5538848E+02  0.0000000E+00
Ar 3682  0.5301145E+02  0.1456035E+02  0.5553806E+02  0.0000000E+00
Ar 3683  0.5296804E+02  0.1103449E+02  0.3057459E+01  0.0000000E+00
Ar 3684  0.5014614E+02  0.1393531E+02  0.3098995E+01  0.0000000E+00
Ar 3685  0.5008284E+02  0.1113718E+02  0.5544518E+01  0.0000000E+00
Ar 3686  0.5275329E+02  0.1377537E+02  0.5817953E+01  0.0000000E+00
Ar 3687  0.5283264E+02  0.1149042E+02  0.8487249E+01  0.0000000E+00
Ar 3688  0.4994258E+02  0.1396091E+02  0.8541858E+01  0.0000000E+00
Ar 3689  0.4986335E+02  0.1115756E+02  0.1115756E+02  0.0000000E+00
Ar 3690  0.5300636E+02  0.1425451E+02  0.1117289E+02  0.0000000E+00
Ar 3691  0.5300635E+02  0.1117289E+02  0.1425450E+02  0.0000000E+00
Ar 3692  0.4984980E+02  0.1410419E+02  0.1410420E+02  0.0000000E+00
Ar 3693  0.5019565E+02  0.1129185E+02  0.1672082E+02  0.0000000E+00
Ar 3694  0.5296867E+02  0.1388478E+02  0.1687056E+02  0.0000000E+00
Ar 3695  0.5310201E+02  0.1104573E+02  0.1958543E+02  0.0000000E+00
Ar 3696  0.5013842E+02  0.1366905E+02  0.1952446E+02  0.0000000E+00
Ar 3697  0.4960448E+02  0.1123960E+02  0.2232040E+02  0.0000000E+00
Ar 3698  0.5270759E+02  0.1355236E+02  0.2261243E+02  0.0000000E+00
Ar 3699  0.5263297E+02  0.1113167E+02  0.2529814E+02  0.0000000E+00
Ar 3700  0.5002344E+02  0.1392189E+02  0.2502720E+02  0.0000000E+00
Ar 3701  0.5004639E+02  0.1105043E+02  0.2803599E+02  0.0000000E+00
Ar 3702  0.5286009E+02  0.1374365E+02  0.2767430E+02  0.0000000E+00
Ar 3703  0.5269003E+02  0.1115263E+02  0.3066805E+02  0.0000000E+00
Ar 3704  0.5034198E+02  0.1405324E+02  0.3067873E+02  0.0000000E+00
Ar 3705  0.4997406E+02  0.1131722E+02  0.3314292E+02  0.0000000E+00
Ar 3706  0.5275756E+02  0.1417362E+02  0.3341112E+02  0.0000000E+00
Ar 3707  0.5259297E+02  0.1123104E+02  0.3621492E+02  0.0000000E+00
Ar 3708  0.4969087E+02  0.1393336E+02  0.3588778E+02  0.0000000E+00
Ar 3709  0.4974628E+02  0.1145397E+02  0.3878386E+02  0.0000000E+00
Ar 3710  0.5288063E+02  0.1393458E+02  0.3890956E+02  0.0000000E+00
Ar 3711  0.5282180E+02  0.1111105E+02  0.4163869E+02  0.0000000E+00
Ar 3712  0.5001974E+02  0.1384019E+02  0.4167087E+02  0.0000000E+00
Ar 3713  0.5005520E+02  0.1137381E+02  0.4464207E+02  0.0000000E+00
Ar 3714  0.5306737E+02  0.1437857E+02  0.4463616E+02  0.0000000E+00
Ar 3715  0.5281837E+02  0.1164712E+02  0.4707982E+02  0.0000000E+00
Ar 3716  0.4974472E+02  0.1431107E+02  0.4696260E+02  0.0000000E+00
Ar 3717  0.4997291E+02  0.1167948E+02  0.4997268E+02  0.0000000E+00
Ar 3718  0.5281273E+02  0.1419898E+02  0.5011579E+02  0.0000000E+00
Ar 3719  0.5255830E+02  0.1111658E+02  0.5255838E+02  0.0000000E+00
Ar 3720  0.5011628E+02  0.1419888E+02  0.5281266E+02  0.0000000E+00
Ar 3721  0.4978594E+02  0.1682635E+02  0.5549138E+02  0.0000000E+00
Ar 3722  0.5218552E+02  0.2001801E+02  0.5514572E+02  0.0000000E+00
Ar 3723  0.5279778E+02  0.1683955E+02  0.2928121E+01  0.0000000E+00
Ar 3724  0.5027204E+02  0.1984021E+02  0.3100774E+01  0.0000000E+00
Ar 3725  0.5036400E+02  0.1684835E+02  0.5690579E+01  0.0000000E+00
Ar 3726  0.5283879E+02  0.1951728E+02  0.6043321E+01  0.0000000E+00
Ar 3727  0.5256023E+02  0.1668642E+02  0.8571768E+01  0.0000000E+00
Ar 3728  0.4990017E+02  0.1955088E+02  0.8647595E+01  0.0000000E+00
Ar 3729  0.5019565E+02  0.1672083E+02  0.1129184E+02  0.0000000E+00
Ar 3730  0.5310201E+02  0.1958543E+02  0.1104573E+02  0.0000000E+00
Ar 3731  0.5296867E+02  0.1687055E+02  0.1388478E+02  0.0000000E+00
Ar 3732  0.5013842E+02  0.1952445E+02  0.1366906E+02  0.0000000E+00
Ar 3733  0.5007064E+02  0.1678870E+02  0.1678871E+02  0.0000000E+00
Ar 3734  0.5283478E+02  0.1958259E+02  0.1670107E+02  0.0000000E+00
Ar 3735  0.5283478E+02  0.1670107E+02  0.1958259E+02  0.0000000E+00
Ar 3736  0.4979962E+02  0.1947693E+02  0.1947693E+02  0.0000000E+00
Ar 3737  0.5008914E+02  0.1661955E+02  0.2215513E+02  0.0000000E+00
Ar 3738  0.5248311E+02  0.1961826E+02  0.2218512E+02  0.0000000E+00
Ar 3739  0.5284705E+02  0.1653805E+02  0.2470298E+02  0.0000000E+00
Ar 3740  0.5010545E+02  0.1971768E+02  0.2516186E+02  0.0000000E+00
Ar 3741  0.5032500E+02  0.1671866E+02  0.2796889E+02  0.0000000E+00
Ar 3742  0.5258397E+02  0.1967547E+02  0.2805338E+02  0.0000000E+00
Ar 3743  0.5264714E+02  0.1700027E+02  0.3092538E+02  0.0000000E+00
Ar 3744  0.4995803E+02  0.1959198E+02  0.3068067E+02  0.0000000E+00
Ar 3745  0.4998241E+02  0.1683307E+02  0.3331091E+02  0.0000000E+00
Ar 3746  0.5299993E+02  0.1974475E+02  0.3343962E+02  0.0000000E+00
Ar 3747  0.5259085E+02  0.1675174E+02  0.3602380E+02  0.0000000E+00
Ar 3748  0.4998241E+02  0.1954964E+02  0.3626551E+02  0.0000000E+00
Ar 3749  0.5024060E+02  0.1687518E+02  0.3891705E+02  0.0000000E+00
Ar 3750  0.5301609E+02  0.1984011E+02  0.3900255E+02  0.0000000E+00
Ar 3751  0.5317018E+02  0.1698388E+02  0.4179351E+02  0.0000000E+00
Ar 3752  0.5016237E+02  0.1955316E+02  0.4139749E+02  0.0000000E+00
Ar 3753  0.4995708E+02  0.1687839E+02  0.4412579E+02  0.0000000E+00
Ar 3754  0.5265896E+02  0.1976663E+02  0.4454339E+02  0.0000000E+00
Ar 3755  0.5234494E+02  0.1692007E+02  0.4747445E+02  0.0000000E+00
Ar 3756  0.4979199E+02  0.1983343E+02  0.4692021E+02  0.0000000E+00
Ar 3757  0.4971764E+02  0.1650207E+02  0.4971760E+02  0.0000000E+00
Ar 3758  0.5242078E+02  0.1966112E+02  0.4994171E+02  0.0000000E+00
Ar 3759  0.5278807E+02  0.1690386E+02  0.5278819E+02  0.0000000E+00
Ar 3760  0.4994232E+02  0.1966099E+02  0.5242066E+02  0.0000000E+00
Ar 3761  0.4987193E+02  0.2262235E+02  0.5523073E+02  0.0000000E+00
Ar 3762  0.5274309E+02  0.2545526E+02  0.5538162E+02  0.0000000E+00
Ar 3763  0.5279023E+02  0.2252514E+02  0.2676771E+01  0.0000000E+00
Ar 3764  0.4974675E+02  0.2530725E+02  0.2904134E+01  0.0000000E+00
Ar 3765  0.5016313E+02  0.2220935E+02  0.5801320E+01  0.0000000E+00
Ar 3766  0.5250836E+02  0.2508481E+02  0.5740349E+01  0.0000000E+00
Ar 3767  0.5259488E+02  0.2257621E+02  0.8672765E+01  0.0000000E+00
Ar 3768  0.4996079E+02  0.2514031E+02  0.8482968E+01  0.0000000E+00
Ar 3769  0.4960448E+02  0.2232039E+02  0.1123961E+02  0.0000000E+00
Ar 3770  0.5263296E+02  0.2529812E+02  0.1113167E+02  0.0000000E+00
Ar 3771  0.5270758E+02  0.2261243E+02  0.1355237E+02  0.0000000E+00
Ar 3772  0.5002343E+02  0.2502720E+02  0.1392189E+02  0.0000000E+00
Ar 3773  0.5008913E+02  0.2215513E+02  0.1661955E+02  0.0000000E+00
Ar 3774  0.5284705E+02  0.2470298E+02  0.1653806E+02  0.0000000E+00
Ar 3775  0.5248311E+02  0.2218512E+02  0.1961826E+02  0.0000000E+00
Ar 3776  0.5010545E+02  0.2516186E+02  0.1971769E+02  0.0000000E+00
Ar 3777  0.4988615E+02  0.2213327E+02  0.2213327E+02  0.0000000E+00
Ar 3778  0.5257817E+02  0.2494286E+02  0.2232556E+02  0.0000000E+00
Ar 3779  0.5257817E+02  0.2232556E+02  0.2494287E+02  0.0000000E+00
Ar 3780  0.4965608E+02  0.2529556E+02  0.2529557E+02  0.0000000E+00
Ar 3781  0.5009800E+02  0.2220359E+02  0.2774717E+02  0.0000000E+00
Ar 3782  0.5285984E+02  0.2526808E+02  0.2804377E+02  0.0000000E+00
Ar 3783  0.5269918E+02  0.2229200E+02  0.3071659E+02  0.0000000E+00
Ar 3784  0.5005354E+02  0.2523920E+02  0.3059511E+02  0.0000000E+00
Ar 3785  0.4992758E+02  0.2238213E+02  0.3330928E+02  0.0000000E+00
Ar 3786  0.5287544E+02  0.2548009E+02  0.3367239E+02  0.0000000E+00
Ar 3787  0.5262385E+02  0.2237021E+02  0.3622380E+02  0.0000000E+00
Ar 3788  0.4995763E+02  0.2511039E+02  0.3618398E+02  0.0000000E+00
Ar 3789  0.4998323E+02  0.2225417E+02  0.3894309E+02  0.0000000E+00
Ar 3790  0.5271302E+02  0.2521299E+02  0.3862690E+02  0.0000000E+00
Ar 3791  0.5311365E+02  0.2259222E+02  0.4143604E+02  0.0000000E+00
Ar 3792  0.4993301E+02  0.2477494E+02  0.4163237E+02  0.0000000E+00
Ar 3793  0.4999988E+02  0.2257241E+02  0.4453481E+02  0.0000000E+00
Ar 3794  0.5261420E+02  0.2481462E+02  0.4454429E+02  0.0000000E+00
Ar 3795  0.5251894E+02  0.2257520E+02  0.4732905E+02  0.0000000E+00
Ar 3796  0.4981595E+02  0.2529823E+02  0.4718912E+02  0.0000000E+00
Ar 3797  0.4986868E+02  0.2249080E+02  0.4986865E+02  0.0000000E+00
Ar 3798  0.5262671E+02  0.2568982E+02  0.4996066E+02  0.0000000E+00
Ar 3799  0.5265936E+02  0.2243046E+02  0.5265687E+02  0.0000000E+00
Ar 3800  0.4995859E+02  0.2568421E+02  0.5262168E+02  0.0000000E+00
Ar 3801  0.4966756E+02  0.2805538E+02  0.6125213E+00  0.0000000E+00
Ar 3802  0.5228558E+02  0.3137657E+02  0.4098923E+00  0.0000000E+00
Ar 3803  0.5225998E+02  0.2818162E+02  0.3040132E+01  0.0000000E+00
Ar 3804  0.4980579E+02  0.3116845E+02  0.2951186E+01  0.0000000E+00
Ar 3805  0.4973736E+02  0.2771089E+02  0.5524096E+01  0.0000000E+00
Ar 3806  0.5277105E+02  0.3095451E+02  0.5593033E+01  0.0000000E+00
Ar 3807  0.5246710E+02  0.2823937E+02  0.8318913E+01  0.0000000E+00
Ar 3808  0.4971858E+02  0.3063473E+02  0.8076691E+01  0.0000000E+00
Ar 3809  0.5004638E+02  0.2803599E+02  0.1105046E+02  0.0000000E+00
Ar 3810  0.5269005E+02  0.3066808E+02  0.1115259E+02  0.0000000E+00
Ar 3811  0.5286009E+02  0.2767430E+02  0.1374365E+02  0.0000000E+00
Ar 3812  0.5034196E+02  0.3067874E+02  0.1405325E+02  0.0000000E+00
Ar 3813  0.5032500E+02  0.2796888E+02  0.1671867E+02  0.0000000E+00
Ar 3814  0.5264714E+02  0.3092538E+02  0.1700024E+02  0.0000000E+00
Ar 3815  0.5258397E+02  0.2805337E+02  0.1967547E+02  0.0000000E+00
Ar 3816  0.4995803E+02  0.3068067E+02  0.1959196E+02  0.0000000E+00
Ar 3817  0.5009800E+02  0.2774716E+02  0.2220358E+02  0.0000000E+00
Ar 3818  0.5269919E+02  0.3071663E+02  0.2229195E+02  0.0000000E+00
Ar 3819  0.5285984E+02  0.2804377E+02  0.2526808E+02  0.0000000E+00
Ar 3820  0.5005354E+02  0.3059512E+02  0.2523919E+02  0.0000000E+00
Ar 3821  0.5003417E+02  0.2805301E+02  0.2805301E+02  0.0000000E+00
Ar 3822  0.5285280E+02  0.3061576E+02  0.2786642E+02  0.0000000E+00
Ar 3823  0.5285280E+02  0.2786643E+02  0.3061576E+02  0.0000000E+00
Ar 3824  0.4991783E+02  0.3109910E+02  0.3109911E+02  0.0000000E+00
Ar 3825  0.5011375E+02  0.2793098E+02  0.3346085E+02  0.0000000E+00
Ar 3826  0.5299987E+02  0.3067687E+02  0.3363037E+02  0.0000000E+00
Ar 3827  0.5251718E+02  0.2789538E+02  0.3630965E+02  0.0000000E+00
Ar 3828  0.4999296E+02  0.3101808E+02  0.3612997E+02  0.0000000E+00
Ar 3829  0.4982172E+02  0.2791278E+02  0.3907833E+02  0.0000000E+00
Ar 3830  0.5256748E+02  0.3039732E+02  0.3879320E+02  0.0000000E+00
Ar 3831  0.5269521E+02  0.2768991E+02  0.4161048E+02  0.0000000E+00
Ar 3832  0.4983795E+02  0.3106119E+02  0.4161309E+02  0.0000000E+00
Ar 3833  0.5041497E+02  0.2794001E+02  0.4440765E+02  0.0000000E+00
Ar 3834  0.5288183E+02  0.3074439E+02  0.4430602E+02  0.0000000E+00
Ar 3835  0.5257354E+02  0.2819468E+02  0.4738174E+02  0.0000000E+00
Ar 3836  0.4997743E+02  0.3073229E+02  0.4688520E+02  0.0000000E+00
Ar 3837  0.4972826E+02  0.2829430E+02  0.4972952E+02  0.0000000E+00
Ar 3838  0.5254694E+02  0.3130574E+02  0.4967958E+02  0.0000000E+00
Ar 3839  0.5271014E+02  0.2861111E+02  0.5271987E+02  0.0000000E+00
Ar 3840  0.4966545E+02  0.3129889E+02  0.5254619E+02  0.0000000E+00
Ar 3841  0.4985432E+02  0.3406478E+02  0.5535440E+02  0.0000000E+00
Ar 3842  0.5259729E+02  0.3645594E+02  0.5551930E+02  0.0000000E+00
Ar 3843  0.5306088E+02  0.3391742E+02  0.3355315E+01  0.0000000E+00
Ar 3844  0.4968282E+02  0.3639360E+02  0.3054639E+01  0.0000000E+00
Ar 3845  0.5008697E+02  0.3341340E+02  0.5970249E+01  0.0000000E+00
Ar 3846  0.5260335E+02  0.3619848E+02  0.6116828E+01  0.0000000E+00
Ar 3847  0.5290194E+02  0.3334334E+02  0.8576673E+01  0.0000000E+00
Ar 3848  0.4988083E+02  0.3617111E+02  0.8623956E+01  0.0000000E+00
Ar 3849  0.4997418E+02  0.3314297E+02  0.1131727E+02  0.0000000E+00
Ar 3850  0.5259313E+02  0.3621542E+02  0.1123095E+02  0.0000000E+00
Ar 3851  0.5275748E+02  0.3341114E+02  0.1417371E+02  0.0000000E+00
Ar 3852  0.4969091E+02  0.3588786E+02  0.1393334E+02  0.0000000E+00
Ar 3853  0.4998260E+02  0.3331107E+02  0.1683318E+02  0.0000000E+00
Ar 3854  0.5259127E+02  0.3602412E+02  0.1675155E+02  0.0000000E+00
Ar 3855  0.5299998E+02  0.3343967E+02  0.1974473E+02  0.0000000E+00
Ar 3856  0.4998235E+02  0.3626543E+02  0.1954973E+02  0.0000000E+00
Ar 3857  0.4992761E+02  0.3330931E+02  0.2238205E+02  0.0000000E+00
Ar 3858  0.5262385E+02  0.3622376E+02  0.2237025E+02  0.0000000E+00
Ar 3859  0.5287543E+02  0.3367240E+02  0.2548009E+02  0.0000000E+00
Ar 3860  0.4995763E+02  0.3618399E+02  0.2511040E+02  0.0000000E+00
Ar 3861  0.5011375E+02  0.3346085E+02  0.2793099E+02  0.0000000E+00
Ar 3862  0.5251718E+02  0.3630967E+02  0.2789537E+02  0.0000000E+00
Ar 3863  0.5299987E+02  0.3363037E+02  0.3067688E+02  0.0000000E+00
Ar 3864  0.4999296E+02  0.3612998E+02  0.3101808E+02  0.0000000E+00
Ar 3865  0.4995226E+02  0.3393454E+02  0.3393455E+02  0.0000000E+00
Ar 3866  0.5261577E+02  0.3642743E+02  0.3359014E+02  0.0000000E+00
Ar 3867  0.5261578E+02  0.3359014E+02  0.3642743E+02  0.0000000E+00
Ar 3868  0.4982406E+02  0.3652085E+02  0.3652086E+02  0.0000000E+00
Ar 3869  0.5017440E+02  0.3337104E+02  0.3891967E+02  0.0000000E+00
Ar 3870  0.5268951E+02  0.3628031E+02  0.3913021E+02  0.0000000E+00
Ar 3871  0.5298768E+02  0.3339484E+02  0.4142354E+02  0.0000000E+00
Ar 3872  0.4994728E+02  0.3635486E+02  0.4208937E+02  0.0000000E+00
Ar 3873  0.5002400E+02  0.3359758E+02  0.4452504E+02  0.0000000E+00
Ar 3874  0.5276850E+02  0.3667486E+02  0.4461903E+02  0.0000000E+00
Ar 3875  0.5295020E+02  0.3403243E+02  0.4735669E+02  0.0000000E+00
Ar 3876  0.5005440E+02  0.3638847E+02  0.4690326E+02  0.0000000E+00
Ar 3877  0.4969962E+02  0.3355412E+02  0.4970343E+02  0.0000000E+00
Ar 3878  0.5237194E+02  0.3675532E+02  0.4994561E+02  0.0000000E+00
Ar 3879  0.5263085E+02  0.3391674E+02  0.5262236E+02  0.0000000E+00
Ar 3880  0.4994621E+02  0.3675457E+02  0.5237230E+02  0.0000000E+00
Ar 3881  0.5115205E+02  0.4001234E+02  0.5564275E+02  0.0000000E+00
Ar 3882  0.5284256E+02  0.4238491E+02  0.4978015E+00  0.0000000E+00
Ar 3883  0.5269372E+02  0.3910905E+02  0.3099347E+01  0.0000000E+00
Ar 3884  0.4968395E+02  0.4180334E+02  0.3299069E+01  0.0000000E+00
Ar 3885  0.4984513E+02  0.3903210E+02  0.6112458E+01  0.0000000E+00
Ar 3886  0.5299032E+02  0.4173007E+02  0.5675667E+01  0.0000000E+00
Ar 3887  0.5264655E+02  0.3895450E+02  0.8438642E+01  0.0000000E+00
Ar 3888  0.5010366E+02  0.4188918E+02  0.8524822E+01  0.0000000E+00
Ar 3889  0.4974617E+02  0.3878413E+02  0.1145383E+02  0.0000000E+00
Ar 3890  0.5282162E+02  0.4163856E+02  0.1111136E+02  0.0000000E+00
Ar 3891  0.5287992E+02  0.3890944E+02  0.1393504E+02  0.0000000E+00
Ar 3892  0.5001957E+02  0.4167111E+02  0.1384046E+02  0.0000000E+00
Ar 3893  0.5024045E+02  0.3891692E+02  0.1687551E+02  0.0000000E+00
Ar 3894  0.5317103E+02  0.4179363E+02  0.1698332E+02  0.0000000E+00
Ar 3895  0.5301619E+02  0.3900265E+02  0.1984025E+02  0.0000000E+00
Ar 3896  0.5016257E+02  0.4139760E+02  0.1955313E+02  0.0000000E+00
Ar 3897  0.4998324E+02  0.3894311E+02  0.2225416E+02  0.0000000E+00
Ar 3898  0.5311357E+02  0.4143621E+02  0.2259223E+02  0.0000000E+00
Ar 3899  0.5271303E+02  0.3862699E+02  0.2521290E+02  0.0000000E+00
Ar 3900  0.4993290E+02  0.4163228E+02  0.2477500E+02  0.0000000E+00
Ar 3901  0.4982171E+02  0.3907831E+02  0.2791279E+02  0.0000000E+00
Ar 3902  0.5269523E+02  0.4161041E+02  0.2768996E+02  0.0000000E+00
Ar 3903  0.5256749E+02  0.3879320E+02  0.3039733E+02  0.0000000E+00
Ar 3904  0.4983794E+02  0.4161309E+02  0.3106118E+02  0.0000000E+00
Ar 3905  0.5017441E+02  0.3891968E+02  0.3337105E+02  0.0000000E+00
Ar 3906  0.5298768E+02  0.4142357E+02  0.3339482E+02  0.0000000E+00
Ar 3907  0.5268952E+02  0.3913022E+02  0.3628032E+02  0.0000000E+00
Ar 3908  0.4994728E+02  0.4208937E+02  0.3635485E+02  0.0000000E+00
Ar 3909  0.4985809E+02  0.3902904E+02  0.3902904E+02  0.0000000E+00
Ar 3910  0.5276111E+02  0.4178051E+02  0.3901926E+02  0.0000000E+00
Ar 3911  0.5276112E+02  0.3901924E+02  0.4178051E+02  0.0000000E+00
Ar 3912  0.5005843E+02  0.4163772E+02  0.4163773E+02  0.0000000E+00
Ar 3913  0.5012100E+02  0.3941027E+02  0.4437450E+02  0.0000000E+00
Ar 3914  0.5278485E+02  0.4185956E+02  0.4474330E+02  0.0000000E+00
Ar 3915  0.5267989E+02  0.3926476E+02  0.4708907E+02  0.0000000E+00
Ar 3916  0.4991394E+02  0.4204669E+02  0.4725400E+02  0.0000000E+00
Ar 3917  0.4950796E+02  0.3916522E+02  0.4950799E+02  0.0000000E+00
Ar 3918  0.5282764E+02  0.4155581E+02  0.4999179E+02  0.0000000E+00
Ar 3919  0.5266865E+02  0.3906000E+02  0.5266869E+02  0.0000000E+00
Ar 3920  0.4999180E+02  0.4155588E+02  0.5282759E+02  0.0000000E+00
Ar 3921  0.5020065E+02  0.4503482E+02  0.5560810E+02  0.0000000E+00
Ar 3922  0.5285026E+02  0.4724445E+02  0.5554403E+02  0.0000000E+00
Ar 3923  0.5258857E+02  0.4480441E+02  0.3000295E+01  0.0000000E+00
Ar 3924  0.5013839E+02  0.4740574E+02  0.3263851E+01  0.0000000E+00
Ar 3925  0.5017493E+02  0.4416296E+02  0.5671891E+01  0.0000000E+00
Ar 3926  0.5270387E+02  0.4751603E+02  0.5929482E+01  0.0000000E+00
Ar 3927  0.5271910E+02  0.4449787E+02  0.8508148E+01  0.0000000E+00
Ar 3928  0.4986806E+02  0.4721707E+02  0.8357129E+01  0.0000000E+00
Ar 3929  0.5005513E+02  0.4464210E+02  0.1137386E+02  0.0000000E+00
Ar 3930  0.5281830E+02  0.4707978E+02  0.1164729E+02  0.0000000E+00
Ar 3931  0.5306782E+02  0.4463575E+02  0.1437854E+02  0.0000000E+00
Ar 3932  0.4974443E+02  0.4696291E+02  0.1431087E+02  0.0000000E+00
Ar 3933  0.4995670E+02  0.4412620E+02  0.1687853E+02  0.0000000E+00
Ar 3934  0.5234499E+02  0.4747414E+02  0.1691979E+02  0.0000000E+00
Ar 3935  0.5265898E+02  0.4454338E+02  0.1976638E+02  0.0000000E+00
Ar 3936  0.4979210E+02  0.4692023E+02  0.1983330E+02  0.0000000E+00
Ar 3937  0.4999979E+02  0.4453462E+02  0.2257213E+02  0.0000000E+00
Ar 3938  0.5251833E+02  0.4732858E+02  0.2257507E+02  0.0000000E+00
Ar 3939  0.5261358E+02  0.4454355E+02  0.2481461E+02  0.0000000E+00
Ar 3940  0.4981563E+02  0.4718818E+02  0.2529761E+02  0.0000000E+00
Ar 3941  0.5041411E+02  0.4440677E+02  0.2794015E+02  0.0000000E+00
Ar 3942  0.5257302E+02  0.4738092E+02  0.2819352E+02  0.0000000E+00
Ar 3943  0.5288176E+02  0.4430603E+02  0.3074437E+02  0.0000000E+00
Ar 3944  0.4997688E+02  0.4688512E+02  0.3073286E+02  0.0000000E+00
Ar 3945  0.5002403E+02  0.4452504E+02  0.3359761E+02  0.0000000E+00
Ar 3946  0.5295096E+02  0.4735756E+02  0.3403258E+02  0.0000000E+00
Ar 3947  0.5276849E+02  0.4461902E+02  0.3667485E+02  0.0000000E+00
Ar 3948  0.5005442E+02  0.4690325E+02  0.3638848E+02  0.0000000E+00
Ar 3949  0.5012100E+02  0.4437449E+02  0.3941028E+02  0.0000000E+00
Ar 3950  0.5267986E+02  0.4708910E+02  0.3926473E+02  0.0000000E+00
Ar 3951  0.5278485E+02  0.4474330E+02  0.4185956E+02  0.0000000E+00
Ar 3952  0.4991394E+02  0.4725400E+02  0.4204669E+02  0.0000000E+00
Ar 3953  0.5006302E+02  0.4479242E+02  0.4479243E+02  0.0000000E+00
Ar 3954  0.5266489E+02  0.4735359E+02  0.4451771E+02  0.0000000E+00
Ar 3955  0.5266488E+02  0.4451770E+02  0.4735360E+02  0.0000000E+00
Ar 3956  0.5000671E+02  0.4736093E+02  0.4736093E+02  0.0000000E+00
Ar 3957  0.5003517E+02  0.4466989E+02  0.5003518E+02  0.0000000E+00
Ar 3958  0.5271529E+02  0.4746216E+02  0.4984442E+02  0.0000000E+00
Ar 3959  0.5272638E+02  0.4396372E+02  0.5272637E+02  0.0000000E+00
Ar 3960  0.4984406E+02  0.4746252E+02  0.5271524E+02  0.0000000E+00
Ar 3961  0.4965693E+02  0.4965679E+02  0.4462517E+00  0.0000000E+00
Ar 3962  0.5313259E+02  0.5313266E+02  0.8136452E+00  0.0000000E+00
Ar 3963  0.5286416E+02  0.5033240E+02  0.3048225E+01  0.0000000E+00
Ar 3964  0.5033194E+02  0.5286484E+02  0.3048624E+01  0.0000000E+00
Ar 3965  0.5020704E+02  0.5020703E+02  0.5599262E+01  0.0000000E+00
Ar 3966  0.5296165E+02  0.5296184E+02  0.5821959E+01  0.0000000E+00
Ar 3967  0.5260453E+02  0.4968414E+02  0.8876779E+01  0.0000000E+00
Ar 3968  0.4968411E+02  0.5260457E+02  0.8876636E+01  0.0000000E+00
Ar 3969  0.4997273E+02  0.4997272E+02  0.1167931E+02  0.0000000E+00
Ar 3970  0.5255824E+02  0.5255841E+02  0.1111649E+02  0.0000000E+00
Ar 3971  0.5281270E+02  0.5011618E+02  0.1419881E+02  0.0000000E+00
Ar 3972  0.5011619E+02  0.5281267E+02  0.1419883E+02  0.0000000E+00
Ar 3973  0.4971777E+02  0.4971776E+02  0.1650223E+02  0.0000000E+00
Ar 3974  0.5278807E+02  0.5278804E+02  0.1690379E+02  0.0000000E+00
Ar 3975  0.5242076E+02  0.4994202E+02  0.1966109E+02  0.0000000E+00
Ar 3976  0.4994202E+02  0.5242073E+02  0.1966111E+02  0.0000000E+00
Ar 3977  0.4986846E+02  0.4986846E+02  0.2249086E+02  0.0000000E+00
Ar 3978  0.5265737E+02  0.5265738E+02  0.2243107E+02  0.0000000E+00
Ar 3979  0.5262352E+02  0.4996029E+02  0.2568745E+02  0.0000000E+00
Ar 3980  0.4996030E+02  0.5262351E+02  0.2568746E+02  0.0000000E+00
Ar 3981  0.4972878E+02  0.4972876E+02  0.2829475E+02  0.0000000E+00
Ar 3982  0.5271536E+02  0.5271533E+02  0.2861203E+02  0.0000000E+00
Ar 3983  0.5254712E+02  0.4967407E+02  0.3130404E+02  0.0000000E+00
Ar 3984  0.4967406E+02  0.5254712E+02  0.3130404E+02  0.0000000E+00
Ar 3985  0.4970093E+02  0.4970093E+02  0.3355514E+02  0.0000000E+00
Ar 3986  0.5262626E+02  0.5262623E+02  0.3391678E+02  0.0000000E+00
Ar 3987  0.5237227E+02  0.4994601E+02  0.3675476E+02  0.0000000E+00
Ar 3988  0.4994602E+02  0.5237225E+02  0.3675474E+02  0.0000000E+00
Ar 3989  0.4950798E+02  0.4950797E+02  0.3916520E+02  0.0000000E+00
Ar 3990  0.5266864E+02  0.5266864E+02  0.3905996E+02  0.0000000E+00
Ar 3991  0.5282765E+02  0.4999179E+02  0.4155582E+02  0.0000000E+00
Ar 3992  0.4999179E+02  0.5282764E+02  0.4155582E+02  0.0000000E+00
Ar 3993  0.5003517E+02  0.5003517E+02  0.4466989E+02  0.0000000E+00
Ar 3994  0.5272637E+02  0.5272637E+02  0.4396372E+02  0.0000000E+00
Ar 3995  0.5271529E+02  0.4984441E+02  0.4746217E+02  0.0000000E+00
Ar 3996  0.4984406E+02  0.5271524E+02  0.4746253E+02  0.0000000E+00
Ar 3997  0.4981758E+02  0.4981792E+02  0.4981792E+02  0.0000000E+00
Ar 3998  0.5304370E+02  0.5304364E+02  0.5025738E+02  0.0000000E+00
Ar 3999  0.5304370E+02  0.5025738E+02  0.5304365E+02  0.0000000E+00
Ar 4000  0.5025725E+02  0.5304362E+02  0.5304362E+02  0.0000000E+00
