        4000
Lattice="  0.5530959E+02  0.4756155E+00  0.4754625E+00  0.4756139E+00  0.5530921E+02  0.4756718E+00  0.4754559E+00  0.4756668E+00  0.5530874E+02" Properties=species:S:1:id:I:1:pos:R:3:tempK:R:1
Ar    1  0.9350686E+00  0.9416660E+00  0.9404549E+00  0.0000000E+00
Ar    2  0.2984216E+01  0.2988983E+01  0.4705135E+00  0.0000000E+00
Ar    3  0.2981122E+01  0.4617182E+00  0.2983494E+01  0.0000000E+00
Ar    4  0.4809125E+00  0.2996016E+01  0.2993211E+01  0.0000000E+00
Ar    5  0.6453445E+00  0.6610358E+00  0.5658629E+01  0.0000000E+00
Ar    6  0.3470657E+01  0.3466590E+01  0.6767510E+01  0.0000000E+00
Ar    7  0.3369242E+01  0.8003486E+00  0.9041221E+01  0.0000000E+00
Ar    8  0.7917627E+00  0.3366476E+01  0.9034189E+01  0.0000000E+00
Ar    9  0.1093620E+01  0.1073460E+01  0.1248230E+02  0.0000000E+00
Ar   10  0.3660952E+01  0.3658962E+01  0.1228192E+02  0.0000000E+00
Ar   11  0.4298155E+01  0.5258046E+00  0.1463308E+02  0.0000000E+00
Ar   12  0.5133010E+00  0.4284868E+01  0.1462972E+02  0.0000000E+00
Ar   13  0.1199761E+01  0.1197212E+01  0.1805629E+02  0.0000000E+00
Ar   14  0.3925547E+01  0.3928842E+01  0.1678854E+02  0.0000000E+00
Ar   15  0.3933243E+01  0.5470123E+00  0.2028937E+02  0.0000000E+00
Ar   16  0.5457184E+00  0.3928731E+01  0.2029216E+02  0.0000000E+00
Ar   17  0.5471713E+02  0.5471151E+02  0.2295169E+02  0.0000000E+00
Ar   18  0.3568688E+01  0.3568115E+01  0.2287256E+02  0.0000000E+00
Ar   19  0.2679165E+01  0.2991337E+00  0.2404664E+02  0.0000000E+00
Ar   20  0.2982606E+00  0.2677626E+01  0.2404491E+02  0.0000000E+00
Ar   21  0.4871163E+01  0.1565639E+01  0.2892269E+02  0.0000000E+00
Ar   22  0.3440280E+01  0.3573789E+01  0.2804891E+02  0.0000000E+00
Ar   23  0.3976271E+01  0.5538056E+02  0.3073220E+02  0.0000000E+00
Ar   24  0.5547349E+02  0.3949796E+01  0.3055305E+02  0.0000000E+00
Ar   25  0.1538328E+01  0.1538256E+01  0.3254715E+02  0.0000000E+00
Ar   26  0.3679061E+01  0.3678907E+01  0.3363772E+02  0.0000000E+00
Ar   27  0.4399261E+01  0.5545652E+02  0.3549720E+02  0.0000000E+00
Ar   28  0.5545687E+02  0.4400084E+01  0.3549811E+02  0.0000000E+00
Ar   29  0.5422826E+00  0.5435315E+00  0.3799071E+02  0.0000000E+00
Ar   30  0.3802115E+01  0.3801913E+01  0.3702659E+02  0.0000000E+00
Ar   31  0.4907520E+01  0.5175398E+00  0.4144639E+02  0.0000000E+00
Ar   32  0.5155733E+00  0.4909843E+01  0.4144507E+02  0.0000000E+00
Ar   33  0.1361156E+01  0.1360875E+01  0.4376729E+02  0.0000000E+00
Ar   34  0.3915932E+01  0.3919119E+01  0.4438171E+02  0.0000000E+00
Ar   35  0.3267851E+01  0.5556730E+02  0.4740726E+02  0.0000000E+00
Ar   36  0.5557164E+02  0.3236655E+01  0.4740049E+02  0.0000000E+00
Ar   37  0.5488185E+02  0.5487842E+02  0.4986183E+02  0.0000000E+00
Ar   38  0.3908663E+01  0.3906978E+01  0.5029456E+02  0.0000000E+00
Ar   39  0.4568550E+01  0.1112383E+01  0.5285323E+02  0.0000000E+00
Ar   40  0.1103936E+01  0.4572940E+01  0.5285502E+02  0.0000000E+00
Ar   41  0.6597727E+00  0.5662142E+01  0.6530290E+00  0.0000000E+00
Ar   42  0.3372262E+01  0.9037298E+01  0.8018169E+00  0.0000000E+00
Ar   43  0.3469466E+01  0.6768807E+01  0.3468560E+01  0.0000000E+00
Ar   44  0.7903566E+00  0.9037049E+01  0.3363458E+01  0.0000000E+00
Ar   45  0.1425580E+01  0.5487930E+01  0.5485333E+01  0.0000000E+00
Ar   46  0.3902394E+01  0.9272261E+01  0.6402816E+01  0.0000000E+00
Ar   47  0.3902914E+01  0.6403046E+01  0.9271928E+01  0.0000000E+00
Ar   48  0.1136115E+01  0.8519853E+01  0.8520406E+01  0.0000000E+00
Ar   49  0.8841138E+00  0.6288043E+01  0.1170973E+02  0.0000000E+00
Ar   50  0.3571391E+01  0.8830952E+01  0.1181637E+02  0.0000000E+00
Ar   51  0.3352924E+01  0.6698718E+01  0.1434058E+02  0.0000000E+00
Ar   52  0.6210480E+00  0.9018957E+01  0.1490794E+02  0.0000000E+00
Ar   53  0.7172440E+00  0.6481582E+01  0.1774009E+02  0.0000000E+00
Ar   54  0.3593309E+01  0.9005079E+01  0.1745918E+02  0.0000000E+00
Ar   55  0.3452144E+01  0.6211533E+01  0.1985509E+02  0.0000000E+00
Ar   56  0.5549531E+02  0.8790568E+01  0.1971606E+02  0.0000000E+00
Ar   57  0.5547852E+02  0.6372695E+01  0.2330813E+02  0.0000000E+00
Ar   58  0.3123598E+01  0.9047914E+01  0.2234604E+02  0.0000000E+00
Ar   59  0.3080268E+01  0.6502161E+01  0.2500716E+02  0.0000000E+00
Ar   60  0.5330413E+00  0.8950317E+01  0.2453628E+02  0.0000000E+00
Ar   61  0.4689874E+00  0.6149964E+01  0.2793195E+02  0.0000000E+00
Ar   62  0.3560827E+01  0.8871103E+01  0.2813099E+02  0.0000000E+00
Ar   63  0.3722291E+01  0.6564159E+01  0.3153696E+02  0.0000000E+00
Ar   64  0.5536590E+02  0.9937759E+01  0.3101265E+02  0.0000000E+00
Ar   65  0.5533345E+02  0.6745488E+01  0.3297147E+02  0.0000000E+00
Ar   66  0.3041718E+01  0.9781116E+01  0.3302628E+02  0.0000000E+00
Ar   67  0.3202276E+01  0.7165261E+01  0.3562116E+02  0.0000000E+00
Ar   68  0.4386074E+00  0.9795554E+01  0.3605320E+02  0.0000000E+00
Ar   69  0.9656397E+00  0.6466084E+01  0.3832905E+02  0.0000000E+00
Ar   70  0.4093238E+01  0.9159536E+01  0.3894694E+02  0.0000000E+00
Ar   71  0.3721125E+01  0.6417344E+01  0.4131453E+02  0.0000000E+00
Ar   72  0.1041918E+01  0.8719265E+01  0.4202613E+02  0.0000000E+00
Ar   73  0.7393736E+00  0.6605984E+01  0.4477973E+02  0.0000000E+00
Ar   74  0.3470681E+01  0.8544040E+01  0.4469263E+02  0.0000000E+00
Ar   75  0.3904486E+01  0.6387857E+01  0.4743307E+02  0.0000000E+00
Ar   76  0.6411796E+00  0.9456472E+01  0.4745752E+02  0.0000000E+00
Ar   77  0.7425413E+00  0.6993765E+01  0.4974534E+02  0.0000000E+00
Ar   78  0.3352330E+01  0.9267126E+01  0.5004029E+02  0.0000000E+00
Ar   79  0.3756743E+01  0.6263634E+01  0.5329451E+02  0.0000000E+00
Ar   80  0.8996800E+00  0.8936297E+01  0.5287569E+02  0.0000000E+00
Ar   81  0.1083326E+01  0.1247390E+02  0.1075438E+01  0.0000000E+00
Ar   82  0.4296038E+01  0.1463058E+02  0.5212778E+00  0.0000000E+00
Ar   83  0.3660997E+01  0.1228272E+02  0.3658512E+01  0.0000000E+00
Ar   84  0.5171651E+00  0.1462971E+02  0.4270987E+01  0.0000000E+00
Ar   85  0.8831282E+00  0.1171442E+02  0.6284584E+01  0.0000000E+00
Ar   86  0.3352058E+01  0.1433563E+02  0.6703229E+01  0.0000000E+00
Ar   87  0.3571336E+01  0.1181575E+02  0.8831435E+01  0.0000000E+00
Ar   88  0.6109717E+00  0.1491047E+02  0.9010453E+01  0.0000000E+00
Ar   89  0.5812292E+00  0.1143432E+02  0.1143328E+02  0.0000000E+00
Ar   90  0.3503242E+01  0.1416670E+02  0.1150479E+02  0.0000000E+00
Ar   91  0.3503447E+01  0.1150501E+02  0.1416658E+02  0.0000000E+00
Ar   92  0.4292787E+00  0.1345634E+02  0.1345631E+02  0.0000000E+00
Ar   93  0.3716505E+00  0.1171638E+02  0.1716813E+02  0.0000000E+00
Ar   94  0.3341479E+01  0.1406278E+02  0.1719061E+02  0.0000000E+00
Ar   95  0.3366556E+01  0.1181546E+02  0.1999346E+02  0.0000000E+00
Ar   96  0.6125831E+00  0.1448599E+02  0.1984384E+02  0.0000000E+00
Ar   97  0.5537595E+02  0.1189334E+02  0.2280434E+02  0.0000000E+00
Ar   98  0.3238422E+01  0.1436863E+02  0.2241254E+02  0.0000000E+00
Ar   99  0.3340854E+01  0.1173435E+02  0.2557403E+02  0.0000000E+00
Ar  100  0.6064754E+00  0.1472141E+02  0.2523797E+02  0.0000000E+00
Ar  101  0.5562447E+02  0.1123788E+02  0.2770156E+02  0.0000000E+00
Ar  102  0.3356274E+01  0.1444916E+02  0.2777273E+02  0.0000000E+00
Ar  103  0.3203294E+01  0.1185684E+02  0.3017868E+02  0.0000000E+00
Ar  104  0.5534820E+02  0.1331679E+02  0.2959450E+02  0.0000000E+00
Ar  105  0.5535536E+02  0.1230903E+02  0.3363448E+02  0.0000000E+00
Ar  106  0.3160245E+01  0.1433003E+02  0.3343220E+02  0.0000000E+00
Ar  107  0.3305259E+01  0.1173895E+02  0.3614283E+02  0.0000000E+00
Ar  108  0.5572242E+02  0.1430725E+02  0.3680634E+02  0.0000000E+00
Ar  109  0.5566615E+02  0.1130281E+02  0.3953294E+02  0.0000000E+00
Ar  110  0.3544428E+01  0.1429534E+02  0.3907145E+02  0.0000000E+00
Ar  111  0.3673188E+01  0.1159482E+02  0.4185847E+02  0.0000000E+00
Ar  112  0.8341312E+00  0.1537747E+02  0.4187595E+02  0.0000000E+00
Ar  113  0.5527100E+02  0.1167871E+02  0.4267219E+02  0.0000000E+00
Ar  114  0.3810434E+01  0.1471499E+02  0.4406179E+02  0.0000000E+00
Ar  115  0.4015276E+01  0.1221947E+02  0.4754560E+02  0.0000000E+00
Ar  116  0.7985927E+00  0.1287051E+02  0.4591753E+02  0.0000000E+00
Ar  117  0.1228386E+01  0.1216134E+02  0.5013031E+02  0.0000000E+00
Ar  118  0.3868989E+01  0.1440995E+02  0.5032527E+02  0.0000000E+00
Ar  119  0.3969309E+01  0.1175505E+02  0.5334375E+02  0.0000000E+00
Ar  120  0.7017171E+00  0.1516056E+02  0.5263466E+02  0.0000000E+00
Ar  121  0.1276317E+01  0.1798822E+02  0.1208617E+01  0.0000000E+00
Ar  122  0.3939682E+01  0.2027783E+02  0.5184607E+00  0.0000000E+00
Ar  123  0.3932604E+01  0.1678098E+02  0.3938147E+01  0.0000000E+00
Ar  124  0.5543138E+02  0.2048800E+02  0.3138115E+01  0.0000000E+00
Ar  125  0.6808009E+00  0.1778402E+02  0.6431477E+01  0.0000000E+00
Ar  126  0.3148057E+01  0.1993774E+02  0.5950088E+01  0.0000000E+00
Ar  127  0.3593114E+01  0.1746033E+02  0.9003062E+01  0.0000000E+00
Ar  128  0.5549616E+02  0.1971716E+02  0.8796975E+01  0.0000000E+00
Ar  129  0.3715680E+00  0.1716819E+02  0.1171660E+02  0.0000000E+00
Ar  130  0.3366173E+01  0.1999403E+02  0.1181554E+02  0.0000000E+00
Ar  131  0.3341265E+01  0.1719077E+02  0.1406261E+02  0.0000000E+00
Ar  132  0.6124040E+00  0.1984350E+02  0.1448629E+02  0.0000000E+00
Ar  133  0.7246768E+00  0.1577870E+02  0.1577890E+02  0.0000000E+00
Ar  134  0.3354883E+01  0.1957380E+02  0.1710835E+02  0.0000000E+00
Ar  135  0.3354825E+01  0.1710829E+02  0.1957374E+02  0.0000000E+00
Ar  136  0.5526937E+02  0.2115763E+02  0.2115787E+02  0.0000000E+00
Ar  137  0.3500918E+00  0.1735516E+02  0.2219097E+02  0.0000000E+00
Ar  138  0.3498835E+01  0.1963783E+02  0.2246212E+02  0.0000000E+00
Ar  139  0.3319971E+01  0.1704037E+02  0.2511616E+02  0.0000000E+00
Ar  140  0.7374747E+00  0.1962524E+02  0.2510343E+02  0.0000000E+00
Ar  141  0.5714078E+00  0.1704151E+02  0.2795290E+02  0.0000000E+00
Ar  142  0.3568893E+01  0.1973271E+02  0.2782635E+02  0.0000000E+00
Ar  143  0.3332237E+01  0.1701677E+02  0.3090114E+02  0.0000000E+00
Ar  144  0.5545568E+02  0.1910776E+02  0.3082638E+02  0.0000000E+00
Ar  145  0.6341121E+00  0.1773683E+02  0.3444082E+02  0.0000000E+00
Ar  146  0.2983208E+01  0.1991351E+02  0.3393613E+02  0.0000000E+00
Ar  147  0.2985764E+01  0.1738039E+02  0.3689668E+02  0.0000000E+00
Ar  148  0.5529494E+02  0.2014769E+02  0.3651934E+02  0.0000000E+00
Ar  149  0.5547881E+02  0.1667047E+02  0.3863509E+02  0.0000000E+00
Ar  150  0.3648622E+01  0.2008216E+02  0.3909985E+02  0.0000000E+00
Ar  151  0.3622306E+01  0.1755292E+02  0.4172977E+02  0.0000000E+00
Ar  152  0.6352701E+00  0.1958080E+02  0.4239068E+02  0.0000000E+00
Ar  153  0.5576213E+02  0.1654335E+02  0.4456033E+02  0.0000000E+00
Ar  154  0.3635878E+01  0.1978359E+02  0.4502943E+02  0.0000000E+00
Ar  155  0.3290426E+01  0.1688173E+02  0.4714163E+02  0.0000000E+00
Ar  156  0.5566924E+02  0.1900780E+02  0.4600329E+02  0.0000000E+00
Ar  157  0.7506557E+00  0.1776947E+02  0.5057206E+02  0.0000000E+00
Ar  158  0.3553190E+01  0.1979945E+02  0.5046029E+02  0.0000000E+00
Ar  159  0.3851956E+01  0.1730020E+02  0.5279739E+02  0.0000000E+00
Ar  160  0.5531886E+02  0.2038514E+02  0.5335476E+02  0.0000000E+00
Ar  161  0.5444079E+02  0.2393044E+02  0.5475819E+02  0.0000000E+00
Ar  162  0.2586468E+01  0.2406423E+02  0.2461954E+00  0.0000000E+00
Ar  163  0.3557689E+01  0.2285630E+02  0.3552245E+01  0.0000000E+00
Ar  164  0.4290995E+00  0.2410126E+02  0.2932655E+01  0.0000000E+00
Ar  165  0.3572650E+00  0.2298703E+02  0.6484977E+01  0.0000000E+00
Ar  166  0.3106089E+01  0.2504039E+02  0.6505929E+01  0.0000000E+00
Ar  167  0.3130408E+01  0.2234710E+02  0.9048676E+01  0.0000000E+00
Ar  168  0.5123310E+00  0.2434896E+02  0.8715362E+01  0.0000000E+00
Ar  169  0.5537534E+02  0.2280553E+02  0.1189606E+02  0.0000000E+00
Ar  170  0.3337579E+01  0.2556753E+02  0.1173930E+02  0.0000000E+00
Ar  171  0.3238249E+01  0.2241215E+02  0.1436838E+02  0.0000000E+00
Ar  172  0.6056783E+00  0.2523506E+02  0.1471774E+02  0.0000000E+00
Ar  173  0.3498011E+00  0.2219103E+02  0.1735532E+02  0.0000000E+00
Ar  174  0.3318784E+01  0.2511650E+02  0.1703954E+02  0.0000000E+00
Ar  175  0.3498841E+01  0.2246234E+02  0.1963782E+02  0.0000000E+00
Ar  176  0.7375513E+00  0.2510369E+02  0.1962521E+02  0.0000000E+00
Ar  177  0.6550884E+00  0.2322793E+02  0.2322758E+02  0.0000000E+00
Ar  178  0.3735271E+01  0.2538455E+02  0.2243730E+02  0.0000000E+00
Ar  179  0.3735161E+01  0.2243750E+02  0.2538425E+02  0.0000000E+00
Ar  180  0.5521949E+02  0.2610865E+02  0.2610826E+02  0.0000000E+00
Ar  181  0.5549376E+02  0.2122089E+02  0.2819420E+02  0.0000000E+00
Ar  182  0.3838920E+01  0.2524545E+02  0.2812146E+02  0.0000000E+00
Ar  183  0.3292252E+01  0.2232582E+02  0.3101723E+02  0.0000000E+00
Ar  184  0.5570608E+02  0.2463656E+02  0.2999260E+02  0.0000000E+00
Ar  185  0.5542596E+02  0.2305796E+02  0.3318055E+02  0.0000000E+00
Ar  186  0.3580713E+01  0.2556449E+02  0.3330048E+02  0.0000000E+00
Ar  187  0.3193154E+01  0.2289202E+02  0.3587126E+02  0.0000000E+00
Ar  188  0.5559376E+02  0.2505555E+02  0.3590448E+02  0.0000000E+00
Ar  189  0.5537011E+02  0.2254299E+02  0.3953480E+02  0.0000000E+00
Ar  190  0.3218726E+01  0.2531269E+02  0.3907229E+02  0.0000000E+00
Ar  191  0.3441923E+01  0.2272199E+02  0.4195567E+02  0.0000000E+00
Ar  192  0.5543039E+02  0.2554461E+02  0.4156853E+02  0.0000000E+00
Ar  193  0.5492895E+02  0.2388057E+02  0.4458554E+02  0.0000000E+00
Ar  194  0.2997754E+01  0.2539679E+02  0.4421373E+02  0.0000000E+00
Ar  195  0.3094303E+01  0.2286607E+02  0.4732407E+02  0.0000000E+00
Ar  196  0.5577543E+02  0.2512687E+02  0.4728873E+02  0.0000000E+00
Ar  197  0.5556292E+02  0.2276092E+02  0.5109267E+02  0.0000000E+00
Ar  198  0.3858627E+01  0.2564081E+02  0.5036524E+02  0.0000000E+00
Ar  199  0.3543000E+01  0.2243446E+02  0.5283075E+02  0.0000000E+00
Ar  200  0.5595647E+02  0.2739324E+02  0.5339997E+02  0.0000000E+00
Ar  201  0.2163914E+01  0.2864017E+02  0.5532025E+02  0.0000000E+00
Ar  202  0.3913316E+01  0.3056283E+02  0.5550984E+02  0.0000000E+00
Ar  203  0.3441914E+01  0.2807112E+02  0.3427961E+01  0.0000000E+00
Ar  204  0.5540719E+02  0.3056821E+02  0.3940411E+01  0.0000000E+00
Ar  205  0.4609210E+00  0.2794673E+02  0.6175699E+01  0.0000000E+00
Ar  206  0.3718541E+01  0.3152612E+02  0.6529107E+01  0.0000000E+00
Ar  207  0.3579861E+01  0.2813493E+02  0.8883914E+01  0.0000000E+00
Ar  208  0.5533592E+02  0.3103374E+02  0.9928538E+01  0.0000000E+00
Ar  209  0.5562134E+02  0.2783832E+02  0.1131028E+02  0.0000000E+00
Ar  210  0.3197326E+01  0.3019342E+02  0.1185757E+02  0.0000000E+00
Ar  211  0.3356324E+01  0.2777353E+02  0.1444808E+02  0.0000000E+00
Ar  212  0.5534902E+02  0.2960007E+02  0.1333475E+02  0.0000000E+00
Ar  213  0.5708957E+00  0.2795264E+02  0.1704042E+02  0.0000000E+00
Ar  214  0.3333130E+01  0.3090099E+02  0.1701837E+02  0.0000000E+00
Ar  215  0.3568941E+01  0.2782666E+02  0.1973257E+02  0.0000000E+00
Ar  216  0.5545605E+02  0.3082675E+02  0.1910782E+02  0.0000000E+00
Ar  217  0.5549382E+02  0.2819457E+02  0.2122069E+02  0.0000000E+00
Ar  218  0.3292418E+01  0.3101768E+02  0.2232549E+02  0.0000000E+00
Ar  219  0.3838991E+01  0.2812174E+02  0.2524523E+02  0.0000000E+00
Ar  220  0.5570612E+02  0.2999350E+02  0.2463606E+02  0.0000000E+00
Ar  221  0.5488667E+02  0.2889869E+02  0.2889846E+02  0.0000000E+00
Ar  222  0.3253225E+01  0.3033506E+02  0.2808950E+02  0.0000000E+00
Ar  223  0.3253209E+01  0.2808989E+02  0.3033474E+02  0.0000000E+00
Ar  224  0.6366588E+00  0.3120600E+02  0.3120561E+02  0.0000000E+00
Ar  225  0.5552375E+02  0.2728230E+02  0.3290387E+02  0.0000000E+00
Ar  226  0.3556958E+01  0.3093741E+02  0.3362485E+02  0.0000000E+00
Ar  227  0.3423379E+01  0.2790287E+02  0.3645498E+02  0.0000000E+00
Ar  228  0.1021507E+01  0.3102034E+02  0.3665068E+02  0.0000000E+00
Ar  229  0.5582234E+02  0.2785641E+02  0.3872389E+02  0.0000000E+00
Ar  230  0.3697807E+01  0.3046266E+02  0.3888786E+02  0.0000000E+00
Ar  231  0.3757917E+01  0.2830854E+02  0.4155288E+02  0.0000000E+00
Ar  232  0.7907762E+00  0.3133853E+02  0.4139147E+02  0.0000000E+00
Ar  233  0.6963990E+00  0.2828766E+02  0.4360998E+02  0.0000000E+00
Ar  234  0.4146164E+01  0.3084764E+02  0.4407482E+02  0.0000000E+00
Ar  235  0.3418497E+01  0.2791556E+02  0.4743886E+02  0.0000000E+00
Ar  236  0.6711381E+00  0.3014953E+02  0.4651365E+02  0.0000000E+00
Ar  237  0.5557743E+02  0.2843167E+02  0.4988979E+02  0.0000000E+00
Ar  238  0.3555490E+01  0.3072248E+02  0.4974605E+02  0.0000000E+00
Ar  239  0.3421435E+01  0.2869301E+02  0.5283119E+02  0.0000000E+00
Ar  240  0.5583540E+02  0.3071072E+02  0.5200581E+02  0.0000000E+00
Ar  241  0.1514636E+01  0.3265333E+02  0.1597572E+01  0.0000000E+00
Ar  242  0.4365944E+01  0.3543263E+02  0.5547971E+02  0.0000000E+00
Ar  243  0.3843162E+01  0.3368858E+02  0.3708679E+01  0.0000000E+00
Ar  244  0.5544759E+02  0.3551946E+02  0.4404086E+01  0.0000000E+00
Ar  245  0.5532857E+02  0.3297017E+02  0.6742760E+01  0.0000000E+00
Ar  246  0.3218988E+01  0.3561427E+02  0.7117023E+01  0.0000000E+00
Ar  247  0.3049697E+01  0.3304623E+02  0.9753358E+01  0.0000000E+00
Ar  248  0.4663195E+00  0.3609424E+02  0.9792368E+01  0.0000000E+00
Ar  249  0.5535320E+02  0.3368283E+02  0.1234113E+02  0.0000000E+00
Ar  250  0.3313962E+01  0.3614639E+02  0.1174501E+02  0.0000000E+00
Ar  251  0.3165347E+01  0.3342366E+02  0.1433624E+02  0.0000000E+00
Ar  252  0.5572770E+02  0.3683172E+02  0.1432887E+02  0.0000000E+00
Ar  253  0.6362827E+00  0.3444412E+02  0.1774185E+02  0.0000000E+00
Ar  254  0.2988770E+01  0.3689896E+02  0.1738018E+02  0.0000000E+00
Ar  255  0.2986840E+01  0.3393582E+02  0.1991738E+02  0.0000000E+00
Ar  256  0.5529037E+02  0.3653234E+02  0.2016243E+02  0.0000000E+00
Ar  257  0.5542584E+02  0.3318084E+02  0.2305764E+02  0.0000000E+00
Ar  258  0.3192526E+01  0.3587190E+02  0.2289216E+02  0.0000000E+00
Ar  259  0.3580942E+01  0.3330103E+02  0.2556408E+02  0.0000000E+00
Ar  260  0.5559394E+02  0.3590348E+02  0.2505606E+02  0.0000000E+00
Ar  261  0.5552371E+02  0.3290448E+02  0.2728226E+02  0.0000000E+00
Ar  262  0.3422081E+01  0.3645515E+02  0.2790346E+02  0.0000000E+00
Ar  263  0.3556844E+01  0.3362530E+02  0.3093697E+02  0.0000000E+00
Ar  264  0.1026094E+01  0.3663247E+02  0.3099194E+02  0.0000000E+00
Ar  265  0.5570915E+02  0.3427155E+02  0.3426914E+02  0.0000000E+00
Ar  266  0.3779434E+01  0.3628172E+02  0.3351579E+02  0.0000000E+00
Ar  267  0.3781369E+01  0.3351699E+02  0.3628077E+02  0.0000000E+00
Ar  268  0.5580089E+02  0.3665751E+02  0.3665762E+02  0.0000000E+00
Ar  269  0.6475309E+00  0.3420634E+02  0.3886761E+02  0.0000000E+00
Ar  270  0.3567134E+01  0.3639021E+02  0.3898092E+02  0.0000000E+00
Ar  271  0.3678326E+01  0.3377833E+02  0.4149193E+02  0.0000000E+00
Ar  272  0.5553255E+02  0.3665454E+02  0.4278250E+02  0.0000000E+00
Ar  273  0.5588385E+02  0.3375072E+02  0.4467256E+02  0.0000000E+00
Ar  274  0.3547640E+01  0.3620426E+02  0.4496547E+02  0.0000000E+00
Ar  275  0.3756113E+01  0.3323609E+02  0.4739974E+02  0.0000000E+00
Ar  276  0.5588966E+02  0.3628331E+02  0.4712619E+02  0.0000000E+00
Ar  277  0.5564424E+02  0.3370258E+02  0.4926539E+02  0.0000000E+00
Ar  278  0.2654121E+01  0.3689258E+02  0.4967434E+02  0.0000000E+00
Ar  279  0.3944794E+01  0.3390929E+02  0.5218217E+02  0.0000000E+00
Ar  280  0.7643457E+00  0.3560829E+02  0.5258663E+02  0.0000000E+00
Ar  281  0.5160358E+00  0.3798630E+02  0.5838613E+00  0.0000000E+00
Ar  282  0.4850490E+01  0.4145932E+02  0.5427627E+00  0.0000000E+00
Ar  283  0.3825841E+01  0.3704340E+02  0.3782838E+01  0.0000000E+00
Ar  284  0.5080686E+00  0.4146975E+02  0.4883960E+01  0.0000000E+00
Ar  285  0.9709717E+00  0.3833224E+02  0.6471921E+01  0.0000000E+00
Ar  286  0.3675640E+01  0.4130756E+02  0.6400772E+01  0.0000000E+00
Ar  287  0.4059991E+01  0.3895574E+02  0.9164303E+01  0.0000000E+00
Ar  288  0.1106478E+01  0.4196939E+02  0.8648704E+01  0.0000000E+00
Ar  289  0.5571325E+02  0.3965238E+02  0.1157181E+02  0.0000000E+00
Ar  290  0.3671969E+01  0.4186355E+02  0.1160688E+02  0.0000000E+00
Ar  291  0.3542276E+01  0.3907824E+02  0.1429412E+02  0.0000000E+00
Ar  292  0.7950204E+00  0.4180382E+02  0.1516653E+02  0.0000000E+00
Ar  293  0.5548192E+02  0.3863877E+02  0.1665971E+02  0.0000000E+00
Ar  294  0.3606350E+01  0.4173715E+02  0.1755097E+02  0.0000000E+00
Ar  295  0.3648464E+01  0.3910075E+02  0.2008342E+02  0.0000000E+00
Ar  296  0.6364593E+00  0.4238557E+02  0.1957807E+02  0.0000000E+00
Ar  297  0.5537095E+02  0.3953887E+02  0.2254702E+02  0.0000000E+00
Ar  298  0.3441995E+01  0.4195703E+02  0.2272176E+02  0.0000000E+00
Ar  299  0.3219252E+01  0.3907250E+02  0.2531355E+02  0.0000000E+00
Ar  300  0.5543785E+02  0.4158250E+02  0.2556489E+02  0.0000000E+00
Ar  301  0.5582304E+02  0.3872344E+02  0.2785427E+02  0.0000000E+00
Ar  302  0.3703399E+01  0.4158899E+02  0.2830857E+02  0.0000000E+00
Ar  303  0.3696395E+01  0.3889141E+02  0.3046227E+02  0.0000000E+00
Ar  304  0.7915012E+00  0.4140233E+02  0.3134512E+02  0.0000000E+00
Ar  305  0.6575868E+00  0.3886939E+02  0.3421188E+02  0.0000000E+00
Ar  306  0.3679299E+01  0.4149429E+02  0.3377628E+02  0.0000000E+00
Ar  307  0.3567375E+01  0.3898055E+02  0.3638991E+02  0.0000000E+00
Ar  308  0.5552946E+02  0.4277858E+02  0.3665924E+02  0.0000000E+00
Ar  309  0.9553384E+00  0.3953025E+02  0.3952922E+02  0.0000000E+00
Ar  310  0.3484994E+01  0.4179451E+02  0.3877107E+02  0.0000000E+00
Ar  311  0.3481814E+01  0.3877161E+02  0.4179207E+02  0.0000000E+00
Ar  312  0.5528826E+02  0.4189143E+02  0.4188574E+02  0.0000000E+00
Ar  313  0.7855885E+00  0.3938964E+02  0.4432723E+02  0.0000000E+00
Ar  314  0.3291737E+01  0.4162801E+02  0.4435614E+02  0.0000000E+00
Ar  315  0.3826074E+01  0.3881561E+02  0.4717889E+02  0.0000000E+00
Ar  316  0.8258011E+00  0.4147331E+02  0.4705908E+02  0.0000000E+00
Ar  317  0.5482018E+02  0.3852826E+02  0.5066843E+02  0.0000000E+00
Ar  318  0.3452996E+01  0.4148991E+02  0.4977944E+02  0.0000000E+00
Ar  319  0.3584052E+01  0.3799737E+02  0.5296490E+02  0.0000000E+00
Ar  320  0.9858892E+00  0.4132584E+02  0.5295333E+02  0.0000000E+00
Ar  321  0.1365176E+01  0.4378677E+02  0.1347930E+01  0.0000000E+00
Ar  322  0.3284673E+01  0.4739927E+02  0.5556729E+02  0.0000000E+00
Ar  323  0.3914494E+01  0.4437272E+02  0.3916053E+01  0.0000000E+00
Ar  324  0.5557200E+02  0.4738975E+02  0.3176807E+01  0.0000000E+00
Ar  325  0.7638218E+00  0.4487119E+02  0.6659584E+01  0.0000000E+00
Ar  326  0.3910836E+01  0.4743898E+02  0.6387540E+01  0.0000000E+00
Ar  327  0.3507291E+01  0.4471632E+02  0.8563296E+01  0.0000000E+00
Ar  328  0.6427923E+00  0.4745332E+02  0.9483648E+01  0.0000000E+00
Ar  329  0.5521761E+02  0.4272961E+02  0.1164052E+02  0.0000000E+00
Ar  330  0.4028571E+01  0.4754681E+02  0.1221430E+02  0.0000000E+00
Ar  331  0.3833301E+01  0.4404544E+02  0.1474592E+02  0.0000000E+00
Ar  332  0.8381202E+00  0.4594339E+02  0.1284890E+02  0.0000000E+00
Ar  333  0.5576944E+02  0.4440762E+02  0.1636083E+02  0.0000000E+00
Ar  334  0.3265153E+01  0.4716878E+02  0.1688205E+02  0.0000000E+00
Ar  335  0.3651428E+01  0.4501866E+02  0.1978003E+02  0.0000000E+00
Ar  336  0.5563233E+02  0.4596214E+02  0.1897555E+02  0.0000000E+00
Ar  337  0.5494263E+02  0.4462411E+02  0.2389507E+02  0.0000000E+00
Ar  338  0.3106337E+01  0.4732491E+02  0.2284372E+02  0.0000000E+00
Ar  339  0.2991671E+01  0.4420827E+02  0.2540339E+02  0.0000000E+00
Ar  340  0.5576485E+02  0.4734298E+02  0.2521787E+02  0.0000000E+00
Ar  341  0.7085038E+00  0.4374065E+02  0.2836442E+02  0.0000000E+00
Ar  342  0.3385677E+01  0.4741838E+02  0.2790931E+02  0.0000000E+00
Ar  343  0.4149528E+01  0.4407892E+02  0.3086177E+02  0.0000000E+00
Ar  344  0.5596700E+02  0.4716728E+02  0.3094350E+02  0.0000000E+00
Ar  345  0.5588425E+02  0.4466503E+02  0.3377277E+02  0.0000000E+00
Ar  346  0.3766191E+01  0.4739080E+02  0.3323035E+02  0.0000000E+00
Ar  347  0.3544605E+01  0.4497019E+02  0.3619933E+02  0.0000000E+00
Ar  348  0.5588155E+02  0.4714843E+02  0.3623859E+02  0.0000000E+00
Ar  349  0.7875020E+00  0.4434393E+02  0.3937128E+02  0.0000000E+00
Ar  350  0.3834970E+01  0.4719218E+02  0.3880361E+02  0.0000000E+00
Ar  351  0.3290149E+01  0.4436047E+02  0.4162464E+02  0.0000000E+00
Ar  352  0.8216371E+00  0.4704065E+02  0.4144321E+02  0.0000000E+00
Ar  353  0.5575325E+02  0.4401949E+02  0.4401837E+02  0.0000000E+00
Ar  354  0.3651508E+01  0.4695766E+02  0.4407857E+02  0.0000000E+00
Ar  355  0.3653465E+01  0.4408270E+02  0.4695860E+02  0.0000000E+00
Ar  356  0.5572126E+02  0.4683845E+02  0.4683876E+02  0.0000000E+00
Ar  357  0.1100242E+01  0.4420511E+02  0.4958127E+02  0.0000000E+00
Ar  358  0.3965140E+01  0.4679015E+02  0.4925474E+02  0.0000000E+00
Ar  359  0.3074991E+01  0.4438010E+02  0.5315426E+02  0.0000000E+00
Ar  360  0.5559655E+02  0.4718731E+02  0.5279054E+02  0.0000000E+00
Ar  361  0.5487219E+02  0.4986171E+02  0.5488936E+02  0.0000000E+00
Ar  362  0.4567998E+01  0.5285139E+02  0.1106110E+01  0.0000000E+00
Ar  363  0.3908188E+01  0.5029501E+02  0.3907264E+01  0.0000000E+00
Ar  364  0.1103469E+01  0.5285770E+02  0.4576216E+01  0.0000000E+00
Ar  365  0.7434656E+00  0.4977346E+02  0.7058921E+01  0.0000000E+00
Ar  366  0.3757979E+01  0.5329561E+02  0.6263875E+01  0.0000000E+00
Ar  367  0.3353782E+01  0.5003802E+02  0.9272986E+01  0.0000000E+00
Ar  368  0.9074604E+00  0.5286113E+02  0.8945703E+01  0.0000000E+00
Ar  369  0.1231776E+01  0.5013713E+02  0.1214301E+02  0.0000000E+00
Ar  370  0.3968684E+01  0.5334501E+02  0.1175836E+02  0.0000000E+00
Ar  371  0.3859022E+01  0.5032491E+02  0.1440986E+02  0.0000000E+00
Ar  372  0.7135425E+00  0.5268439E+02  0.1517775E+02  0.0000000E+00
Ar  373  0.6360156E+00  0.5056969E+02  0.1778179E+02  0.0000000E+00
Ar  374  0.3832761E+01  0.5279538E+02  0.1731206E+02  0.0000000E+00
Ar  375  0.3574502E+01  0.5044830E+02  0.1981058E+02  0.0000000E+00
Ar  376  0.6492811E+00  0.5253102E+02  0.2001804E+02  0.0000000E+00
Ar  377  0.5565417E+02  0.5057999E+02  0.2292702E+02  0.0000000E+00
Ar  378  0.3700851E+01  0.5271965E+02  0.2269094E+02  0.0000000E+00
Ar  379  0.3838590E+01  0.5035092E+02  0.2562745E+02  0.0000000E+00
Ar  380  0.5591255E+02  0.5251758E+02  0.2757144E+02  0.0000000E+00
Ar  381  0.5560301E+02  0.4991337E+02  0.2853131E+02  0.0000000E+00
Ar  382  0.3686897E+01  0.5284415E+02  0.2879985E+02  0.0000000E+00
Ar  383  0.3560246E+01  0.4973387E+02  0.3065248E+02  0.0000000E+00
Ar  384  0.5590047E+02  0.5204621E+02  0.3104108E+02  0.0000000E+00
Ar  385  0.5571426E+02  0.4895770E+02  0.3332863E+02  0.0000000E+00
Ar  386  0.3978435E+01  0.5220642E+02  0.3390087E+02  0.0000000E+00
Ar  387  0.2584152E+01  0.4971913E+02  0.3684030E+02  0.0000000E+00
Ar  388  0.7649872E+00  0.5248407E+02  0.3534730E+02  0.0000000E+00
Ar  389  0.5483809E+02  0.5068550E+02  0.3850825E+02  0.0000000E+00
Ar  390  0.3539578E+01  0.5294352E+02  0.3796590E+02  0.0000000E+00
Ar  391  0.3449649E+01  0.4976350E+02  0.4150869E+02  0.0000000E+00
Ar  392  0.1011398E+01  0.5299701E+02  0.4129398E+02  0.0000000E+00
Ar  393  0.1106676E+01  0.4959990E+02  0.4423816E+02  0.0000000E+00
Ar  394  0.3068755E+01  0.5315838E+02  0.4438920E+02  0.0000000E+00
Ar  395  0.3969694E+01  0.4924440E+02  0.4679288E+02  0.0000000E+00
Ar  396  0.5560369E+02  0.5278084E+02  0.4718531E+02  0.0000000E+00
Ar  397  0.5543441E+02  0.5018267E+02  0.5020082E+02  0.0000000E+00
Ar  398  0.4229058E+01  0.5260226E+02  0.4943492E+02  0.0000000E+00
Ar  399  0.4227784E+01  0.4943918E+02  0.5260426E+02  0.0000000E+00
Ar  400  0.2025830E+01  0.5344256E+02  0.5343367E+02  0.0000000E+00
Ar  401  0.5650896E+01  0.6423751E+00  0.6488425E+00  0.0000000E+00
Ar  402  0.9036508E+01  0.3366199E+01  0.7934187E+00  0.0000000E+00
Ar  403  0.9040769E+01  0.7970319E+00  0.3366530E+01  0.0000000E+00
Ar  404  0.6764379E+01  0.3467167E+01  0.3469460E+01  0.0000000E+00
Ar  405  0.5485751E+01  0.1399010E+01  0.5493769E+01  0.0000000E+00
Ar  406  0.9275793E+01  0.3896765E+01  0.6396731E+01  0.0000000E+00
Ar  407  0.8522574E+01  0.1129483E+01  0.8509433E+01  0.0000000E+00
Ar  408  0.6404965E+01  0.3898967E+01  0.9271517E+01  0.0000000E+00
Ar  409  0.6294497E+01  0.8889002E+00  0.1170437E+02  0.0000000E+00
Ar  410  0.8830255E+01  0.3571471E+01  0.1181666E+02  0.0000000E+00
Ar  411  0.9013330E+01  0.6263813E+00  0.1490486E+02  0.0000000E+00
Ar  412  0.6697695E+01  0.3361477E+01  0.1434226E+02  0.0000000E+00
Ar  413  0.6514437E+01  0.7077507E+00  0.1776791E+02  0.0000000E+00
Ar  414  0.9005143E+01  0.3590849E+01  0.1745808E+02  0.0000000E+00
Ar  415  0.8799272E+01  0.5549453E+02  0.1972362E+02  0.0000000E+00
Ar  416  0.6211501E+01  0.3459551E+01  0.1985705E+02  0.0000000E+00
Ar  417  0.6368200E+01  0.5547838E+02  0.2330977E+02  0.0000000E+00
Ar  418  0.9047536E+01  0.3123440E+01  0.2234594E+02  0.0000000E+00
Ar  419  0.8954518E+01  0.5336186E+00  0.2453815E+02  0.0000000E+00
Ar  420  0.6502091E+01  0.3079505E+01  0.2500686E+02  0.0000000E+00
Ar  421  0.6219717E+01  0.4337293E+00  0.2789911E+02  0.0000000E+00
Ar  422  0.8871051E+01  0.3560896E+01  0.2813090E+02  0.0000000E+00
Ar  423  0.9937711E+01  0.5536571E+02  0.3101245E+02  0.0000000E+00
Ar  424  0.6564288E+01  0.3722398E+01  0.3153708E+02  0.0000000E+00
Ar  425  0.6745880E+01  0.5533324E+02  0.3297162E+02  0.0000000E+00
Ar  426  0.9781632E+01  0.3041324E+01  0.3302636E+02  0.0000000E+00
Ar  427  0.9793742E+01  0.4382091E+00  0.3605586E+02  0.0000000E+00
Ar  428  0.7164715E+01  0.3203355E+01  0.3562102E+02  0.0000000E+00
Ar  429  0.6463975E+01  0.9660762E+00  0.3832846E+02  0.0000000E+00
Ar  430  0.9160516E+01  0.4092052E+01  0.3894672E+02  0.0000000E+00
Ar  431  0.9129359E+01  0.8917209E+00  0.4218360E+02  0.0000000E+00
Ar  432  0.6417705E+01  0.3719458E+01  0.4131464E+02  0.0000000E+00
Ar  433  0.6603529E+01  0.7409983E+00  0.4478210E+02  0.0000000E+00
Ar  434  0.8540269E+01  0.3470712E+01  0.4469128E+02  0.0000000E+00
Ar  435  0.9448524E+01  0.6438600E+00  0.4746089E+02  0.0000000E+00
Ar  436  0.6387340E+01  0.3899417E+01  0.4743285E+02  0.0000000E+00
Ar  437  0.6961275E+01  0.7393931E+00  0.4972665E+02  0.0000000E+00
Ar  438  0.9264183E+01  0.3357116E+01  0.5003413E+02  0.0000000E+00
Ar  439  0.8925762E+01  0.9050652E+00  0.5283560E+02  0.0000000E+00
Ar  440  0.6260696E+01  0.3754955E+01  0.5328287E+02  0.0000000E+00
Ar  441  0.5478215E+01  0.5494291E+01  0.1411451E+01  0.0000000E+00
Ar  442  0.8515241E+01  0.8518326E+01  0.1129815E+01  0.0000000E+00
Ar  443  0.9273602E+01  0.6401288E+01  0.3896961E+01  0.0000000E+00
Ar  444  0.6403370E+01  0.9272499E+01  0.3901020E+01  0.0000000E+00
Ar  445  0.6201355E+01  0.6196854E+01  0.6197218E+01  0.0000000E+00
Ar  446  0.9175745E+01  0.9175477E+01  0.6252240E+01  0.0000000E+00
Ar  447  0.9175574E+01  0.6251931E+01  0.9174678E+01  0.0000000E+00
Ar  448  0.6252752E+01  0.9175932E+01  0.9175904E+01  0.0000000E+00
Ar  449  0.6334707E+01  0.6334404E+01  0.1188024E+02  0.0000000E+00
Ar  450  0.9085800E+01  0.9085904E+01  0.1171870E+02  0.0000000E+00
Ar  451  0.8928949E+01  0.6092631E+01  0.1444640E+02  0.0000000E+00
Ar  452  0.6092379E+01  0.8928721E+01  0.1444606E+02  0.0000000E+00
Ar  453  0.6417492E+01  0.6417073E+01  0.1737689E+02  0.0000000E+00
Ar  454  0.8851024E+01  0.8851064E+01  0.1693637E+02  0.0000000E+00
Ar  455  0.8861547E+01  0.6152563E+01  0.1987207E+02  0.0000000E+00
Ar  456  0.6152974E+01  0.8861345E+01  0.1987237E+02  0.0000000E+00
Ar  457  0.6170820E+01  0.6170863E+01  0.2226240E+02  0.0000000E+00
Ar  458  0.8759451E+01  0.8759418E+01  0.2258366E+02  0.0000000E+00
Ar  459  0.8700962E+01  0.5960702E+01  0.2534515E+02  0.0000000E+00
Ar  460  0.5961095E+01  0.8700917E+01  0.2534560E+02  0.0000000E+00
Ar  461  0.6084452E+01  0.6084430E+01  0.2817662E+02  0.0000000E+00
Ar  462  0.8821929E+01  0.8821989E+01  0.2828270E+02  0.0000000E+00
Ar  463  0.9109610E+01  0.6185908E+01  0.3076809E+02  0.0000000E+00
Ar  464  0.6185828E+01  0.9109634E+01  0.3076805E+02  0.0000000E+00
Ar  465  0.6391907E+01  0.6392155E+01  0.3386873E+02  0.0000000E+00
Ar  466  0.8943742E+01  0.8943772E+01  0.3328333E+02  0.0000000E+00
Ar  467  0.8948787E+01  0.6522812E+01  0.3614583E+02  0.0000000E+00
Ar  468  0.6522690E+01  0.8948721E+01  0.3614565E+02  0.0000000E+00
Ar  469  0.6206189E+01  0.6206056E+01  0.3831483E+02  0.0000000E+00
Ar  470  0.9119570E+01  0.9119534E+01  0.3920917E+02  0.0000000E+00
Ar  471  0.9283013E+01  0.6577394E+01  0.4201362E+02  0.0000000E+00
Ar  472  0.6577363E+01  0.9282973E+01  0.4201352E+02  0.0000000E+00
Ar  473  0.6540563E+01  0.6541006E+01  0.4457831E+02  0.0000000E+00
Ar  474  0.9208439E+01  0.9208384E+01  0.4467367E+02  0.0000000E+00
Ar  475  0.9243013E+01  0.6614647E+01  0.4765448E+02  0.0000000E+00
Ar  476  0.6613851E+01  0.9243011E+01  0.4765452E+02  0.0000000E+00
Ar  477  0.6216382E+01  0.6219933E+01  0.5079566E+02  0.0000000E+00
Ar  478  0.8974821E+01  0.8976616E+01  0.5074661E+02  0.0000000E+00
Ar  479  0.9279095E+01  0.6152679E+01  0.5301576E+02  0.0000000E+00
Ar  480  0.6149698E+01  0.9274667E+01  0.5301817E+02  0.0000000E+00
Ar  481  0.6294330E+01  0.1170517E+02  0.8908130E+00  0.0000000E+00
Ar  482  0.9014538E+01  0.1490451E+02  0.6276083E+00  0.0000000E+00
Ar  483  0.8829432E+01  0.1181754E+02  0.3571242E+01  0.0000000E+00
Ar  484  0.6696607E+01  0.1434384E+02  0.3359257E+01  0.0000000E+00
Ar  485  0.6334424E+01  0.1188079E+02  0.6334091E+01  0.0000000E+00
Ar  486  0.8928316E+01  0.1444661E+02  0.6091801E+01  0.0000000E+00
Ar  487  0.9085612E+01  0.1171891E+02  0.9085706E+01  0.0000000E+00
Ar  488  0.6092597E+01  0.1444616E+02  0.8928614E+01  0.0000000E+00
Ar  489  0.6664566E+01  0.1177110E+02  0.1177096E+02  0.0000000E+00
Ar  490  0.9197555E+01  0.1451889E+02  0.1167196E+02  0.0000000E+00
Ar  491  0.9197669E+01  0.1167186E+02  0.1451886E+02  0.0000000E+00
Ar  492  0.6400261E+01  0.1426648E+02  0.1426634E+02  0.0000000E+00
Ar  493  0.6425825E+01  0.1168485E+02  0.1708891E+02  0.0000000E+00
Ar  494  0.9165400E+01  0.1449831E+02  0.1685144E+02  0.0000000E+00
Ar  495  0.8935423E+01  0.1140070E+02  0.1984866E+02  0.0000000E+00
Ar  496  0.6158172E+01  0.1433785E+02  0.2000608E+02  0.0000000E+00
Ar  497  0.6299912E+01  0.1146602E+02  0.2231631E+02  0.0000000E+00
Ar  498  0.8875840E+01  0.1435060E+02  0.2227561E+02  0.0000000E+00
Ar  499  0.8803586E+01  0.1165804E+02  0.2517776E+02  0.0000000E+00
Ar  500  0.6076037E+01  0.1411074E+02  0.2507364E+02  0.0000000E+00
Ar  501  0.6291905E+01  0.1170675E+02  0.2772735E+02  0.0000000E+00
Ar  502  0.8853509E+01  0.1432071E+02  0.2794460E+02  0.0000000E+00
Ar  503  0.8905093E+01  0.1158449E+02  0.3059836E+02  0.0000000E+00
Ar  504  0.5827584E+01  0.1413809E+02  0.3038920E+02  0.0000000E+00
Ar  505  0.6318937E+01  0.1181988E+02  0.3346027E+02  0.0000000E+00
Ar  506  0.8788737E+01  0.1457015E+02  0.3357718E+02  0.0000000E+00
Ar  507  0.9069715E+01  0.1158503E+02  0.3582114E+02  0.0000000E+00
Ar  508  0.5999555E+01  0.1423274E+02  0.3611357E+02  0.0000000E+00
Ar  509  0.6619605E+01  0.1187607E+02  0.3883429E+02  0.0000000E+00
Ar  510  0.8944143E+01  0.1453191E+02  0.3887650E+02  0.0000000E+00
Ar  511  0.9323775E+01  0.1187023E+02  0.4171926E+02  0.0000000E+00
Ar  512  0.6334744E+01  0.1421268E+02  0.4148300E+02  0.0000000E+00
Ar  513  0.6410883E+01  0.1182759E+02  0.4463232E+02  0.0000000E+00
Ar  514  0.9198243E+01  0.1450829E+02  0.4447434E+02  0.0000000E+00
Ar  515  0.9264252E+01  0.1183193E+02  0.4728219E+02  0.0000000E+00
Ar  516  0.6757294E+01  0.1511015E+02  0.4742025E+02  0.0000000E+00
Ar  517  0.6792177E+01  0.1215725E+02  0.5005435E+02  0.0000000E+00
Ar  518  0.9263154E+01  0.1467025E+02  0.5001187E+02  0.0000000E+00
Ar  519  0.9378350E+01  0.1226928E+02  0.5302922E+02  0.0000000E+00
Ar  520  0.6912246E+01  0.1461138E+02  0.5323551E+02  0.0000000E+00
Ar  521  0.6516706E+01  0.1776088E+02  0.7132610E+00  0.0000000E+00
Ar  522  0.8803054E+01  0.1972136E+02  0.5549550E+02  0.0000000E+00
Ar  523  0.9005395E+01  0.1745814E+02  0.3590497E+01  0.0000000E+00
Ar  524  0.6197658E+01  0.1985984E+02  0.3439597E+01  0.0000000E+00
Ar  525  0.6414872E+01  0.1738066E+02  0.6416202E+01  0.0000000E+00
Ar  526  0.8862520E+01  0.1987174E+02  0.6152139E+01  0.0000000E+00
Ar  527  0.8850934E+01  0.1693659E+02  0.8850785E+01  0.0000000E+00
Ar  528  0.6152283E+01  0.1987102E+02  0.8861124E+01  0.0000000E+00
Ar  529  0.6425819E+01  0.1708890E+02  0.1168493E+02  0.0000000E+00
Ar  530  0.8935350E+01  0.1984855E+02  0.1140124E+02  0.0000000E+00
Ar  531  0.9165319E+01  0.1685145E+02  0.1449822E+02  0.0000000E+00
Ar  532  0.6158625E+01  0.2000584E+02  0.1433766E+02  0.0000000E+00
Ar  533  0.6242501E+01  0.1682343E+02  0.1682339E+02  0.0000000E+00
Ar  534  0.8836272E+01  0.1966520E+02  0.1717555E+02  0.0000000E+00
Ar  535  0.8836131E+01  0.1717558E+02  0.1966509E+02  0.0000000E+00
Ar  536  0.6264075E+01  0.1968676E+02  0.1968664E+02  0.0000000E+00
Ar  537  0.6004868E+01  0.1701557E+02  0.2248221E+02  0.0000000E+00
Ar  538  0.8793921E+01  0.1964664E+02  0.2264987E+02  0.0000000E+00
Ar  539  0.8663135E+01  0.1711447E+02  0.2525947E+02  0.0000000E+00
Ar  540  0.5881316E+01  0.1953981E+02  0.2514277E+02  0.0000000E+00
Ar  541  0.6233561E+01  0.1707656E+02  0.2806290E+02  0.0000000E+00
Ar  542  0.8751422E+01  0.1989986E+02  0.2781056E+02  0.0000000E+00
Ar  543  0.8873830E+01  0.1717233E+02  0.3050903E+02  0.0000000E+00
Ar  544  0.6220535E+01  0.1972032E+02  0.3083143E+02  0.0000000E+00
Ar  545  0.6109249E+01  0.1722603E+02  0.3392192E+02  0.0000000E+00
Ar  546  0.9337059E+01  0.1986821E+02  0.3338621E+02  0.0000000E+00
Ar  547  0.8859709E+01  0.1727735E+02  0.3649700E+02  0.0000000E+00
Ar  548  0.6266395E+01  0.2020889E+02  0.3630266E+02  0.0000000E+00
Ar  549  0.6146890E+01  0.1721078E+02  0.3905491E+02  0.0000000E+00
Ar  550  0.8870346E+01  0.1995536E+02  0.3928742E+02  0.0000000E+00
Ar  551  0.8867566E+01  0.1723999E+02  0.4164082E+02  0.0000000E+00
Ar  552  0.6298823E+01  0.2000908E+02  0.4177396E+02  0.0000000E+00
Ar  553  0.6287909E+01  0.1709034E+02  0.4409225E+02  0.0000000E+00
Ar  554  0.8857705E+01  0.1969468E+02  0.4433391E+02  0.0000000E+00
Ar  555  0.9161844E+01  0.1751219E+02  0.4719625E+02  0.0000000E+00
Ar  556  0.6311405E+01  0.1963679E+02  0.4738088E+02  0.0000000E+00
Ar  557  0.6113984E+01  0.1730017E+02  0.5026763E+02  0.0000000E+00
Ar  558  0.8670363E+01  0.2010459E+02  0.4999336E+02  0.0000000E+00
Ar  559  0.8960238E+01  0.1756890E+02  0.5277525E+02  0.0000000E+00
Ar  560  0.6572217E+01  0.2021296E+02  0.5297981E+02  0.0000000E+00
Ar  561  0.6510106E+01  0.2339925E+02  0.5550005E+02  0.0000000E+00
Ar  562  0.8918767E+01  0.2461705E+02  0.5151795E+00  0.0000000E+00
Ar  563  0.9049733E+01  0.2234444E+02  0.3121186E+01  0.0000000E+00
Ar  564  0.6495817E+01  0.2499914E+02  0.3082242E+01  0.0000000E+00
Ar  565  0.6164950E+01  0.2225864E+02  0.6174173E+01  0.0000000E+00
Ar  566  0.8707351E+01  0.2535490E+02  0.5958817E+01  0.0000000E+00
Ar  567  0.8761225E+01  0.2258332E+02  0.8759248E+01  0.0000000E+00
Ar  568  0.5966932E+01  0.2533468E+02  0.8697943E+01  0.0000000E+00
Ar  569  0.6300382E+01  0.2231638E+02  0.1146603E+02  0.0000000E+00
Ar  570  0.8804060E+01  0.2517771E+02  0.1165796E+02  0.0000000E+00
Ar  571  0.8875989E+01  0.2227587E+02  0.1435060E+02  0.0000000E+00
Ar  572  0.6075765E+01  0.2507272E+02  0.1411129E+02  0.0000000E+00
Ar  573  0.6004935E+01  0.2248210E+02  0.1701549E+02  0.0000000E+00
Ar  574  0.8663292E+01  0.2525964E+02  0.1711454E+02  0.0000000E+00
Ar  575  0.8793915E+01  0.2265004E+02  0.1964652E+02  0.0000000E+00
Ar  576  0.5881222E+01  0.2514303E+02  0.1953947E+02  0.0000000E+00
Ar  577  0.5978998E+01  0.2246380E+02  0.2246359E+02  0.0000000E+00
Ar  578  0.8721240E+01  0.2532703E+02  0.2266937E+02  0.0000000E+00
Ar  579  0.8721273E+01  0.2266956E+02  0.2532679E+02  0.0000000E+00
Ar  580  0.6347569E+01  0.2520258E+02  0.2520245E+02  0.0000000E+00
Ar  581  0.6207828E+01  0.2264895E+02  0.2817718E+02  0.0000000E+00
Ar  582  0.8852028E+01  0.2521112E+02  0.2785734E+02  0.0000000E+00
Ar  583  0.8999758E+01  0.2282591E+02  0.3095123E+02  0.0000000E+00
Ar  584  0.6313460E+01  0.2542104E+02  0.3078524E+02  0.0000000E+00
Ar  585  0.6038927E+01  0.2263583E+02  0.3350840E+02  0.0000000E+00
Ar  586  0.9073188E+01  0.2541665E+02  0.3352344E+02  0.0000000E+00
Ar  587  0.9033066E+01  0.2261197E+02  0.3630184E+02  0.0000000E+00
Ar  588  0.6304885E+01  0.2561568E+02  0.3656841E+02  0.0000000E+00
Ar  589  0.6340725E+01  0.2281843E+02  0.3877828E+02  0.0000000E+00
Ar  590  0.9289724E+01  0.2532899E+02  0.3896271E+02  0.0000000E+00
Ar  591  0.9050943E+01  0.2258598E+02  0.4170958E+02  0.0000000E+00
Ar  592  0.6402296E+01  0.2532601E+02  0.4183966E+02  0.0000000E+00
Ar  593  0.6108140E+01  0.2270978E+02  0.4444426E+02  0.0000000E+00
Ar  594  0.8862751E+01  0.2521854E+02  0.4470128E+02  0.0000000E+00
Ar  595  0.9025228E+01  0.2226157E+02  0.4703401E+02  0.0000000E+00
Ar  596  0.6209791E+01  0.2511220E+02  0.4723440E+02  0.0000000E+00
Ar  597  0.5954416E+01  0.2236880E+02  0.4998125E+02  0.0000000E+00
Ar  598  0.9061525E+01  0.2501797E+02  0.4977215E+02  0.0000000E+00
Ar  599  0.8791170E+01  0.2275179E+02  0.5274252E+02  0.0000000E+00
Ar  600  0.6293058E+01  0.2524315E+02  0.5279016E+02  0.0000000E+00
Ar  601  0.6131672E+01  0.2792900E+02  0.4757945E+00  0.0000000E+00
Ar  602  0.9957044E+01  0.3097744E+02  0.5538538E+02  0.0000000E+00
Ar  603  0.8864772E+01  0.2812844E+02  0.3547129E+01  0.0000000E+00
Ar  604  0.6595270E+01  0.3153749E+02  0.3736490E+01  0.0000000E+00
Ar  605  0.6084835E+01  0.2817563E+02  0.6085255E+01  0.0000000E+00
Ar  606  0.9111422E+01  0.3076670E+02  0.6199123E+01  0.0000000E+00
Ar  607  0.8822022E+01  0.2828225E+02  0.8824813E+01  0.0000000E+00
Ar  608  0.6180467E+01  0.3076931E+02  0.9104755E+01  0.0000000E+00
Ar  609  0.6299790E+01  0.2772570E+02  0.1171604E+02  0.0000000E+00
Ar  610  0.8902016E+01  0.3060277E+02  0.1158180E+02  0.0000000E+00
Ar  611  0.8854539E+01  0.2794553E+02  0.1432047E+02  0.0000000E+00
Ar  612  0.5824329E+01  0.3039264E+02  0.1413435E+02  0.0000000E+00
Ar  613  0.6233244E+01  0.2806347E+02  0.1707577E+02  0.0000000E+00
Ar  614  0.8874241E+01  0.3050928E+02  0.1717254E+02  0.0000000E+00
Ar  615  0.8751353E+01  0.2781073E+02  0.1989983E+02  0.0000000E+00
Ar  616  0.6220742E+01  0.3083164E+02  0.1972030E+02  0.0000000E+00
Ar  617  0.6207846E+01  0.2817740E+02  0.2264871E+02  0.0000000E+00
Ar  618  0.8999877E+01  0.3095145E+02  0.2282586E+02  0.0000000E+00
Ar  619  0.8852002E+01  0.2785753E+02  0.2521092E+02  0.0000000E+00
Ar  620  0.6313466E+01  0.3078545E+02  0.2542086E+02  0.0000000E+00
Ar  621  0.6340276E+01  0.2782066E+02  0.2782051E+02  0.0000000E+00
Ar  622  0.9165772E+01  0.3082303E+02  0.2821991E+02  0.0000000E+00
Ar  623  0.9165762E+01  0.2822020E+02  0.3082273E+02  0.0000000E+00
Ar  624  0.6062045E+01  0.3070955E+02  0.3070920E+02  0.0000000E+00
Ar  625  0.6469332E+01  0.2781543E+02  0.3360269E+02  0.0000000E+00
Ar  626  0.9102107E+01  0.3080251E+02  0.3361922E+02  0.0000000E+00
Ar  627  0.9331554E+01  0.2793493E+02  0.3659108E+02  0.0000000E+00
Ar  628  0.6573373E+01  0.3062459E+02  0.3620625E+02  0.0000000E+00
Ar  629  0.6438134E+01  0.2805595E+02  0.3906111E+02  0.0000000E+00
Ar  630  0.9344795E+01  0.3082022E+02  0.3894903E+02  0.0000000E+00
Ar  631  0.8766905E+01  0.2815018E+02  0.4211468E+02  0.0000000E+00
Ar  632  0.6441309E+01  0.3102198E+02  0.4114499E+02  0.0000000E+00
Ar  633  0.6029002E+01  0.2791331E+02  0.4452404E+02  0.0000000E+00
Ar  634  0.9232318E+01  0.3092842E+02  0.4443732E+02  0.0000000E+00
Ar  635  0.9314062E+01  0.2779400E+02  0.4724666E+02  0.0000000E+00
Ar  636  0.6683026E+01  0.3039953E+02  0.4721536E+02  0.0000000E+00
Ar  637  0.6737690E+01  0.2777349E+02  0.4992753E+02  0.0000000E+00
Ar  638  0.9330816E+01  0.3065928E+02  0.4973496E+02  0.0000000E+00
Ar  639  0.8790124E+01  0.2821415E+02  0.5293675E+02  0.0000000E+00
Ar  640  0.6412086E+01  0.3069682E+02  0.5260981E+02  0.0000000E+00
Ar  641  0.6752946E+01  0.3296808E+02  0.5533618E+02  0.0000000E+00
Ar  642  0.9797188E+01  0.3605907E+02  0.4354800E+00  0.0000000E+00
Ar  643  0.9809132E+01  0.3301134E+02  0.3039150E+01  0.0000000E+00
Ar  644  0.7174118E+01  0.3560130E+02  0.3193913E+01  0.0000000E+00
Ar  645  0.6391215E+01  0.3386057E+02  0.6408974E+01  0.0000000E+00
Ar  646  0.8946000E+01  0.3614317E+02  0.6529307E+01  0.0000000E+00
Ar  647  0.8942773E+01  0.3328552E+02  0.8942493E+01  0.0000000E+00
Ar  648  0.6517319E+01  0.3616294E+02  0.8963779E+01  0.0000000E+00
Ar  649  0.6318430E+01  0.3346275E+02  0.1180844E+02  0.0000000E+00
Ar  650  0.9062178E+01  0.3581993E+02  0.1157311E+02  0.0000000E+00
Ar  651  0.8787708E+01  0.3357900E+02  0.1456717E+02  0.0000000E+00
Ar  652  0.6004086E+01  0.3611277E+02  0.1424016E+02  0.0000000E+00
Ar  653  0.6109444E+01  0.3392245E+02  0.1722722E+02  0.0000000E+00
Ar  654  0.8859510E+01  0.3649766E+02  0.1727737E+02  0.0000000E+00
Ar  655  0.9337147E+01  0.3338642E+02  0.1986823E+02  0.0000000E+00
Ar  656  0.6266805E+01  0.3630341E+02  0.2020871E+02  0.0000000E+00
Ar  657  0.6038627E+01  0.3350945E+02  0.2263513E+02  0.0000000E+00
Ar  658  0.9033461E+01  0.3630232E+02  0.2261165E+02  0.0000000E+00
Ar  659  0.9073231E+01  0.3352372E+02  0.2541639E+02  0.0000000E+00
Ar  660  0.6304692E+01  0.3656895E+02  0.2561526E+02  0.0000000E+00
Ar  661  0.6469350E+01  0.3360292E+02  0.2781512E+02  0.0000000E+00
Ar  662  0.9331667E+01  0.3659130E+02  0.2793467E+02  0.0000000E+00
Ar  663  0.9102145E+01  0.3361944E+02  0.3080219E+02  0.0000000E+00
Ar  664  0.6573349E+01  0.3620649E+02  0.3062442E+02  0.0000000E+00
Ar  665  0.6352251E+01  0.3358725E+02  0.3358688E+02  0.0000000E+00
Ar  666  0.8852676E+01  0.3616849E+02  0.3367778E+02  0.0000000E+00
Ar  667  0.8852575E+01  0.3367799E+02  0.3616842E+02  0.0000000E+00
Ar  668  0.6223790E+01  0.3629186E+02  0.3629149E+02  0.0000000E+00
Ar  669  0.6326144E+01  0.3381599E+02  0.3903162E+02  0.0000000E+00
Ar  670  0.8955263E+01  0.3640529E+02  0.3908311E+02  0.0000000E+00
Ar  671  0.9456672E+01  0.3363646E+02  0.4181245E+02  0.0000000E+00
Ar  672  0.6311113E+01  0.3633281E+02  0.4214171E+02  0.0000000E+00
Ar  673  0.6676781E+01  0.3397209E+02  0.4461434E+02  0.0000000E+00
Ar  674  0.9123627E+01  0.3675527E+02  0.4441192E+02  0.0000000E+00
Ar  675  0.9058853E+01  0.3356027E+02  0.4698346E+02  0.0000000E+00
Ar  676  0.6598069E+01  0.3648116E+02  0.4759001E+02  0.0000000E+00
Ar  677  0.6568451E+01  0.3314212E+02  0.4977197E+02  0.0000000E+00
Ar  678  0.9227275E+01  0.3621109E+02  0.4989630E+02  0.0000000E+00
Ar  679  0.9477991E+01  0.3356625E+02  0.5242542E+02  0.0000000E+00
Ar  680  0.6470221E+01  0.3629998E+02  0.5260518E+02  0.0000000E+00
Ar  681  0.6403367E+01  0.3830998E+02  0.1008128E+01  0.0000000E+00
Ar  682  0.8533469E+01  0.4195037E+02  0.1116960E+01  0.0000000E+00
Ar  683  0.9163261E+01  0.3894881E+02  0.4093178E+01  0.0000000E+00
Ar  684  0.6447721E+01  0.4131562E+02  0.3753239E+01  0.0000000E+00
Ar  685  0.6207760E+01  0.3832345E+02  0.6217361E+01  0.0000000E+00
Ar  686  0.9282447E+01  0.4201263E+02  0.6577811E+01  0.0000000E+00
Ar  687  0.9118652E+01  0.3920729E+02  0.9114939E+01  0.0000000E+00
Ar  688  0.6572650E+01  0.4201495E+02  0.9287903E+01  0.0000000E+00
Ar  689  0.6624911E+01  0.3881656E+02  0.1186538E+02  0.0000000E+00
Ar  690  0.9323096E+01  0.4171812E+02  0.1186907E+02  0.0000000E+00
Ar  691  0.8946631E+01  0.3887792E+02  0.1453532E+02  0.0000000E+00
Ar  692  0.6336846E+01  0.4148258E+02  0.1421412E+02  0.0000000E+00
Ar  693  0.6147153E+01  0.3905572E+02  0.1721127E+02  0.0000000E+00
Ar  694  0.8868587E+01  0.4164106E+02  0.1723999E+02  0.0000000E+00
Ar  695  0.8871218E+01  0.3928771E+02  0.1995536E+02  0.0000000E+00
Ar  696  0.6298376E+01  0.4177361E+02  0.2000803E+02  0.0000000E+00
Ar  697  0.6340731E+01  0.3877852E+02  0.2281771E+02  0.0000000E+00
Ar  698  0.9050491E+01  0.4170998E+02  0.2258574E+02  0.0000000E+00
Ar  699  0.9289405E+01  0.3896312E+02  0.2532828E+02  0.0000000E+00
Ar  700  0.6402088E+01  0.4184023E+02  0.2532606E+02  0.0000000E+00
Ar  701  0.6436511E+01  0.3906284E+02  0.2805545E+02  0.0000000E+00
Ar  702  0.8766131E+01  0.4211623E+02  0.2815044E+02  0.0000000E+00
Ar  703  0.9345298E+01  0.3894920E+02  0.3082045E+02  0.0000000E+00
Ar  704  0.6442351E+01  0.4114404E+02  0.3101767E+02  0.0000000E+00
Ar  705  0.6327427E+01  0.3903116E+02  0.3381521E+02  0.0000000E+00
Ar  706  0.9455151E+01  0.4181496E+02  0.3363578E+02  0.0000000E+00
Ar  707  0.8955310E+01  0.3908338E+02  0.3640498E+02  0.0000000E+00
Ar  708  0.6311711E+01  0.4214449E+02  0.3633035E+02  0.0000000E+00
Ar  709  0.6255172E+01  0.3901040E+02  0.3901021E+02  0.0000000E+00
Ar  710  0.8990171E+01  0.4170719E+02  0.3912462E+02  0.0000000E+00
Ar  711  0.8989861E+01  0.3912316E+02  0.4170919E+02  0.0000000E+00
Ar  712  0.6050088E+01  0.4146432E+02  0.4146143E+02  0.0000000E+00
Ar  713  0.6123430E+01  0.3907966E+02  0.4446714E+02  0.0000000E+00
Ar  714  0.9044865E+01  0.4211549E+02  0.4458908E+02  0.0000000E+00
Ar  715  0.9169610E+01  0.3915429E+02  0.4724265E+02  0.0000000E+00
Ar  716  0.6337639E+01  0.4147982E+02  0.4722766E+02  0.0000000E+00
Ar  717  0.6362650E+01  0.3893969E+02  0.5004669E+02  0.0000000E+00
Ar  718  0.9179451E+01  0.4202019E+02  0.4985185E+02  0.0000000E+00
Ar  719  0.8791202E+01  0.3951157E+02  0.5271387E+02  0.0000000E+00
Ar  720  0.5909488E+01  0.4194553E+02  0.5283495E+02  0.0000000E+00
Ar  721  0.6569743E+01  0.4470322E+02  0.7213665E+00  0.0000000E+00
Ar  722  0.9478748E+01  0.4746036E+02  0.6410093E+00  0.0000000E+00
Ar  723  0.8532585E+01  0.4468042E+02  0.3453078E+01  0.0000000E+00
Ar  724  0.6388238E+01  0.4742968E+02  0.3897840E+01  0.0000000E+00
Ar  725  0.6542959E+01  0.4457629E+02  0.6539318E+01  0.0000000E+00
Ar  726  0.9243238E+01  0.4765351E+02  0.6615286E+01  0.0000000E+00
Ar  727  0.9206951E+01  0.4467312E+02  0.9209066E+01  0.0000000E+00
Ar  728  0.6612105E+01  0.4765391E+02  0.9243620E+01  0.0000000E+00
Ar  729  0.6414584E+01  0.4463320E+02  0.1183188E+02  0.0000000E+00
Ar  730  0.9265281E+01  0.4728535E+02  0.1182996E+02  0.0000000E+00
Ar  731  0.9199446E+01  0.4447367E+02  0.1450844E+02  0.0000000E+00
Ar  732  0.6758294E+01  0.4742020E+02  0.1510867E+02  0.0000000E+00
Ar  733  0.6291459E+01  0.4409218E+02  0.1709428E+02  0.0000000E+00
Ar  734  0.9163367E+01  0.4719633E+02  0.1751395E+02  0.0000000E+00
Ar  735  0.8857570E+01  0.4433464E+02  0.1969613E+02  0.0000000E+00
Ar  736  0.6310218E+01  0.4738156E+02  0.1963644E+02  0.0000000E+00
Ar  737  0.6107619E+01  0.4444603E+02  0.2271210E+02  0.0000000E+00
Ar  738  0.9024088E+01  0.4703490E+02  0.2226108E+02  0.0000000E+00
Ar  739  0.8860784E+01  0.4470329E+02  0.2521837E+02  0.0000000E+00
Ar  740  0.6204447E+01  0.4723363E+02  0.2511486E+02  0.0000000E+00
Ar  741  0.6026296E+01  0.4452985E+02  0.2791584E+02  0.0000000E+00
Ar  742  0.9318138E+01  0.4724751E+02  0.2779121E+02  0.0000000E+00
Ar  743  0.9234739E+01  0.4443764E+02  0.3092854E+02  0.0000000E+00
Ar  744  0.6681640E+01  0.4721275E+02  0.3039607E+02  0.0000000E+00
Ar  745  0.6673456E+01  0.4461377E+02  0.3396635E+02  0.0000000E+00
Ar  746  0.9061735E+01  0.4698078E+02  0.3356259E+02  0.0000000E+00
Ar  747  0.9128444E+01  0.4440493E+02  0.3675368E+02  0.0000000E+00
Ar  748  0.6595723E+01  0.4759295E+02  0.3647105E+02  0.0000000E+00
Ar  749  0.6129227E+01  0.4447164E+02  0.3907179E+02  0.0000000E+00
Ar  750  0.9162271E+01  0.4724321E+02  0.3914659E+02  0.0000000E+00
Ar  751  0.9044729E+01  0.4459100E+02  0.4211261E+02  0.0000000E+00
Ar  752  0.6337279E+01  0.4722376E+02  0.4147984E+02  0.0000000E+00
Ar  753  0.5765215E+01  0.4411188E+02  0.4410952E+02  0.0000000E+00
Ar  754  0.9293157E+01  0.4727908E+02  0.4444143E+02  0.0000000E+00
Ar  755  0.9294362E+01  0.4444919E+02  0.4727298E+02  0.0000000E+00
Ar  756  0.6394721E+01  0.4655267E+02  0.4655065E+02  0.0000000E+00
Ar  757  0.6408939E+01  0.4451733E+02  0.4996052E+02  0.0000000E+00
Ar  758  0.8994350E+01  0.4680159E+02  0.5003709E+02  0.0000000E+00
Ar  759  0.9488565E+01  0.4461074E+02  0.5270003E+02  0.0000000E+00
Ar  760  0.6401558E+01  0.4648761E+02  0.5317992E+02  0.0000000E+00
Ar  761  0.6962656E+01  0.4970605E+02  0.7387611E+00  0.0000000E+00
Ar  762  0.8937896E+01  0.5284582E+02  0.9088861E+00  0.0000000E+00
Ar  763  0.9261280E+01  0.5002996E+02  0.3351219E+01  0.0000000E+00
Ar  764  0.6259004E+01  0.5329597E+02  0.3754442E+01  0.0000000E+00
Ar  765  0.6212418E+01  0.5079851E+02  0.6222959E+01  0.0000000E+00
Ar  766  0.9275925E+01  0.5301219E+02  0.6151794E+01  0.0000000E+00
Ar  767  0.8974004E+01  0.5074571E+02  0.8976545E+01  0.0000000E+00
Ar  768  0.6149115E+01  0.5302072E+02  0.9279568E+01  0.0000000E+00
Ar  769  0.6790090E+01  0.5005566E+02  0.1215838E+02  0.0000000E+00
Ar  770  0.9377861E+01  0.5302926E+02  0.1227041E+02  0.0000000E+00
Ar  771  0.9262725E+01  0.5001280E+02  0.1466915E+02  0.0000000E+00
Ar  772  0.6909929E+01  0.5323715E+02  0.1461154E+02  0.0000000E+00
Ar  773  0.6110336E+01  0.5027215E+02  0.1730174E+02  0.0000000E+00
Ar  774  0.8958083E+01  0.5277787E+02  0.1757079E+02  0.0000000E+00
Ar  775  0.8669023E+01  0.4999353E+02  0.2010398E+02  0.0000000E+00
Ar  776  0.6559429E+01  0.5298205E+02  0.2021355E+02  0.0000000E+00
Ar  777  0.5965316E+01  0.4996869E+02  0.2236851E+02  0.0000000E+00
Ar  778  0.8789340E+01  0.5274002E+02  0.2274714E+02  0.0000000E+00
Ar  779  0.9061688E+01  0.4977094E+02  0.2501559E+02  0.0000000E+00
Ar  780  0.6292812E+01  0.5278176E+02  0.2524666E+02  0.0000000E+00
Ar  781  0.6738009E+01  0.4991650E+02  0.2775597E+02  0.0000000E+00
Ar  782  0.8788242E+01  0.5294016E+02  0.2822111E+02  0.0000000E+00
Ar  783  0.9328254E+01  0.4973319E+02  0.3065989E+02  0.0000000E+00
Ar  784  0.6425548E+01  0.5259922E+02  0.3070446E+02  0.0000000E+00
Ar  785  0.6565533E+01  0.4977029E+02  0.3314278E+02  0.0000000E+00
Ar  786  0.9466308E+01  0.5244064E+02  0.3358277E+02  0.0000000E+00
Ar  787  0.9225908E+01  0.4989814E+02  0.3621033E+02  0.0000000E+00
Ar  788  0.6470996E+01  0.5259894E+02  0.3630389E+02  0.0000000E+00
Ar  789  0.6355611E+01  0.5003919E+02  0.3893870E+02  0.0000000E+00
Ar  790  0.8782904E+01  0.5268368E+02  0.3950837E+02  0.0000000E+00
Ar  791  0.9173530E+01  0.4984661E+02  0.4201378E+02  0.0000000E+00
Ar  792  0.5925494E+01  0.5279643E+02  0.4195870E+02  0.0000000E+00
Ar  793  0.6402949E+01  0.4995519E+02  0.4452099E+02  0.0000000E+00
Ar  794  0.9477769E+01  0.5271441E+02  0.4458134E+02  0.0000000E+00
Ar  795  0.8994114E+01  0.5004803E+02  0.4679486E+02  0.0000000E+00
Ar  796  0.6401572E+01  0.5317526E+02  0.4649176E+02  0.0000000E+00
Ar  797  0.6832772E+01  0.4969268E+02  0.4968635E+02  0.0000000E+00
Ar  798  0.9574294E+01  0.5355183E+02  0.5027051E+02  0.0000000E+00
Ar  799  0.9586453E+01  0.5028148E+02  0.5354848E+02  0.0000000E+00
Ar  800  0.6539774E+01  0.5324833E+02  0.5325230E+02  0.0000000E+00
Ar  801  0.1247416E+02  0.1054383E+01  0.1087014E+01  0.0000000E+00
Ar  802  0.1463117E+02  0.4269503E+01  0.5132556E+00  0.0000000E+00
Ar  803  0.1462875E+02  0.5239535E+00  0.4290734E+01  0.0000000E+00
Ar  804  0.1228236E+02  0.3657900E+01  0.3658675E+01  0.0000000E+00
Ar  805  0.1170413E+02  0.8890546E+00  0.6298622E+01  0.0000000E+00
Ar  806  0.1434207E+02  0.3357683E+01  0.6699726E+01  0.0000000E+00
Ar  807  0.1490885E+02  0.6211058E+00  0.9014561E+01  0.0000000E+00
Ar  808  0.1181494E+02  0.3572160E+01  0.8829295E+01  0.0000000E+00
Ar  809  0.1143090E+02  0.5880520E+00  0.1143565E+02  0.0000000E+00
Ar  810  0.1416646E+02  0.3503130E+01  0.1150468E+02  0.0000000E+00
Ar  811  0.1345609E+02  0.4297967E+00  0.1345733E+02  0.0000000E+00
Ar  812  0.1150487E+02  0.3503190E+01  0.1416635E+02  0.0000000E+00
Ar  813  0.1171471E+02  0.3719898E+00  0.1716676E+02  0.0000000E+00
Ar  814  0.1406273E+02  0.3341248E+01  0.1719051E+02  0.0000000E+00
Ar  815  0.1448592E+02  0.6127092E+00  0.1984380E+02  0.0000000E+00
Ar  816  0.1181517E+02  0.3366343E+01  0.1999341E+02  0.0000000E+00
Ar  817  0.1189285E+02  0.5537546E+02  0.2280417E+02  0.0000000E+00
Ar  818  0.1436862E+02  0.3238470E+01  0.2241245E+02  0.0000000E+00
Ar  819  0.1472093E+02  0.6063554E+00  0.2523695E+02  0.0000000E+00
Ar  820  0.1173427E+02  0.3340782E+01  0.2557405E+02  0.0000000E+00
Ar  821  0.1123647E+02  0.5562438E+02  0.2769985E+02  0.0000000E+00
Ar  822  0.1444916E+02  0.3356267E+01  0.2777262E+02  0.0000000E+00
Ar  823  0.1331672E+02  0.5534785E+02  0.2959474E+02  0.0000000E+00
Ar  824  0.1185719E+02  0.3203387E+01  0.3017800E+02  0.0000000E+00
Ar  825  0.1230801E+02  0.5535537E+02  0.3363653E+02  0.0000000E+00
Ar  826  0.1433001E+02  0.3160430E+01  0.3343209E+02  0.0000000E+00
Ar  827  0.1430517E+02  0.5572237E+02  0.3680348E+02  0.0000000E+00
Ar  828  0.1173879E+02  0.3304682E+01  0.3614248E+02  0.0000000E+00
Ar  829  0.1136642E+02  0.5566560E+02  0.3962654E+02  0.0000000E+00
Ar  830  0.1429697E+02  0.3536425E+01  0.3907647E+02  0.0000000E+00
Ar  831  0.1536156E+02  0.8549902E+00  0.4179760E+02  0.0000000E+00
Ar  832  0.1160326E+02  0.3675644E+01  0.4186219E+02  0.0000000E+00
Ar  833  0.1213717E+02  0.5550449E+02  0.4355089E+02  0.0000000E+00
Ar  834  0.1453703E+02  0.3270658E+01  0.4442675E+02  0.0000000E+00
Ar  835  0.1423205E+02  0.6137447E+00  0.4702149E+02  0.0000000E+00
Ar  836  0.1224950E+02  0.3942211E+01  0.4752546E+02  0.0000000E+00
Ar  837  0.1211359E+02  0.1242588E+01  0.5006216E+02  0.0000000E+00
Ar  838  0.1441561E+02  0.3838739E+01  0.5033051E+02  0.0000000E+00
Ar  839  0.1532377E+02  0.8232512E+00  0.5269708E+02  0.0000000E+00
Ar  840  0.1175176E+02  0.3965171E+01  0.5333447E+02  0.0000000E+00
Ar  841  0.1172131E+02  0.6282093E+01  0.8847527E+00  0.0000000E+00
Ar  842  0.1490996E+02  0.9010770E+01  0.6136800E+00  0.0000000E+00
Ar  843  0.1433915E+02  0.6699417E+01  0.3351784E+01  0.0000000E+00
Ar  844  0.1181561E+02  0.8829173E+01  0.3571389E+01  0.0000000E+00
Ar  845  0.1188052E+02  0.6333555E+01  0.6333659E+01  0.0000000E+00
Ar  846  0.1444593E+02  0.8928471E+01  0.6092045E+01  0.0000000E+00
Ar  847  0.1444606E+02  0.6092217E+01  0.8928790E+01  0.0000000E+00
Ar  848  0.1171895E+02  0.9085284E+01  0.9085227E+01  0.0000000E+00
Ar  849  0.1176997E+02  0.6663983E+01  0.1177063E+02  0.0000000E+00
Ar  850  0.1451863E+02  0.9197571E+01  0.1167207E+02  0.0000000E+00
Ar  851  0.1426622E+02  0.6400208E+01  0.1426632E+02  0.0000000E+00
Ar  852  0.1167197E+02  0.9197371E+01  0.1451834E+02  0.0000000E+00
Ar  853  0.1168459E+02  0.6425737E+01  0.1708895E+02  0.0000000E+00
Ar  854  0.1449801E+02  0.9165054E+01  0.1685122E+02  0.0000000E+00
Ar  855  0.1433762E+02  0.6158163E+01  0.2000617E+02  0.0000000E+00
Ar  856  0.1140070E+02  0.8935389E+01  0.1984861E+02  0.0000000E+00
Ar  857  0.1146602E+02  0.6299934E+01  0.2231623E+02  0.0000000E+00
Ar  858  0.1435059E+02  0.8875864E+01  0.2227560E+02  0.0000000E+00
Ar  859  0.1411071E+02  0.6076022E+01  0.2507357E+02  0.0000000E+00
Ar  860  0.1165802E+02  0.8803558E+01  0.2517771E+02  0.0000000E+00
Ar  861  0.1170669E+02  0.6291904E+01  0.2772728E+02  0.0000000E+00
Ar  862  0.1432072E+02  0.8853567E+01  0.2794461E+02  0.0000000E+00
Ar  863  0.1413813E+02  0.5827687E+01  0.3038912E+02  0.0000000E+00
Ar  864  0.1158446E+02  0.8905154E+01  0.3059835E+02  0.0000000E+00
Ar  865  0.1181994E+02  0.6319116E+01  0.3346029E+02  0.0000000E+00
Ar  866  0.1457010E+02  0.8788791E+01  0.3357721E+02  0.0000000E+00
Ar  867  0.1423265E+02  0.5999173E+01  0.3611398E+02  0.0000000E+00
Ar  868  0.1158507E+02  0.9069762E+01  0.3582120E+02  0.0000000E+00
Ar  869  0.1187617E+02  0.6618905E+01  0.3883451E+02  0.0000000E+00
Ar  870  0.1453165E+02  0.8944117E+01  0.3887650E+02  0.0000000E+00
Ar  871  0.1421409E+02  0.6330029E+01  0.4148694E+02  0.0000000E+00
Ar  872  0.1187040E+02  0.9323719E+01  0.4171924E+02  0.0000000E+00
Ar  873  0.1182856E+02  0.6411269E+01  0.4463263E+02  0.0000000E+00
Ar  874  0.1450872E+02  0.9199245E+01  0.4447367E+02  0.0000000E+00
Ar  875  0.1511099E+02  0.6757198E+01  0.4742108E+02  0.0000000E+00
Ar  876  0.1183241E+02  0.9264887E+01  0.4728211E+02  0.0000000E+00
Ar  877  0.1216105E+02  0.6788537E+01  0.5005419E+02  0.0000000E+00
Ar  878  0.1467041E+02  0.9265721E+01  0.5001274E+02  0.0000000E+00
Ar  879  0.1462369E+02  0.6891347E+01  0.5324565E+02  0.0000000E+00
Ar  880  0.1229345E+02  0.9358576E+01  0.5302994E+02  0.0000000E+00
Ar  881  0.1143403E+02  0.1143226E+02  0.5869164E+00  0.0000000E+00
Ar  882  0.1345650E+02  0.1345643E+02  0.4300012E+00  0.0000000E+00
Ar  883  0.1416644E+02  0.1150486E+02  0.3503290E+01  0.0000000E+00
Ar  884  0.1150488E+02  0.1416635E+02  0.3503190E+01  0.0000000E+00
Ar  885  0.1177014E+02  0.1177086E+02  0.6664466E+01  0.0000000E+00
Ar  886  0.1426628E+02  0.1426648E+02  0.6400287E+01  0.0000000E+00
Ar  887  0.1451901E+02  0.1167207E+02  0.9197757E+01  0.0000000E+00
Ar  888  0.1167207E+02  0.1451876E+02  0.9197475E+01  0.0000000E+00
Ar  889  0.1155042E+02  0.1155042E+02  0.1155013E+02  0.0000000E+00
Ar  890  0.1435025E+02  0.1435085E+02  0.1183162E+02  0.0000000E+00
Ar  891  0.1435031E+02  0.1183154E+02  0.1435048E+02  0.0000000E+00
Ar  892  0.1183172E+02  0.1435079E+02  0.1435065E+02  0.0000000E+00
Ar  893  0.1171555E+02  0.1171553E+02  0.1756549E+02  0.0000000E+00
Ar  894  0.1448930E+02  0.1448925E+02  0.1721512E+02  0.0000000E+00
Ar  895  0.1463035E+02  0.1151560E+02  0.2005396E+02  0.0000000E+00
Ar  896  0.1151565E+02  0.1463029E+02  0.2005397E+02  0.0000000E+00
Ar  897  0.1180954E+02  0.1180950E+02  0.2271406E+02  0.0000000E+00
Ar  898  0.1444505E+02  0.1444505E+02  0.2228088E+02  0.0000000E+00
Ar  899  0.1438596E+02  0.1131400E+02  0.2535830E+02  0.0000000E+00
Ar  900  0.1131400E+02  0.1438598E+02  0.2535829E+02  0.0000000E+00
Ar  901  0.1180801E+02  0.1180805E+02  0.2827530E+02  0.0000000E+00
Ar  902  0.1447925E+02  0.1447927E+02  0.2793815E+02  0.0000000E+00
Ar  903  0.1448685E+02  0.1191732E+02  0.3093259E+02  0.0000000E+00
Ar  904  0.1191730E+02  0.1448685E+02  0.3093259E+02  0.0000000E+00
Ar  905  0.1161874E+02  0.1161878E+02  0.3318032E+02  0.0000000E+00
Ar  906  0.1459160E+02  0.1459163E+02  0.3353712E+02  0.0000000E+00
Ar  907  0.1471011E+02  0.1168698E+02  0.3638534E+02  0.0000000E+00
Ar  908  0.1168693E+02  0.1471019E+02  0.3638536E+02  0.0000000E+00
Ar  909  0.1182936E+02  0.1182942E+02  0.3865878E+02  0.0000000E+00
Ar  910  0.1434411E+02  0.1434423E+02  0.3953327E+02  0.0000000E+00
Ar  911  0.1469741E+02  0.1182470E+02  0.4209858E+02  0.0000000E+00
Ar  912  0.1182430E+02  0.1469777E+02  0.4209913E+02  0.0000000E+00
Ar  913  0.1174295E+02  0.1174292E+02  0.4443753E+02  0.0000000E+00
Ar  914  0.1480135E+02  0.1480196E+02  0.4429959E+02  0.0000000E+00
Ar  915  0.1493809E+02  0.1193746E+02  0.4729949E+02  0.0000000E+00
Ar  916  0.1193660E+02  0.1493816E+02  0.4730016E+02  0.0000000E+00
Ar  917  0.1155639E+02  0.1155597E+02  0.5050422E+02  0.0000000E+00
Ar  918  0.1437099E+02  0.1437117E+02  0.5013143E+02  0.0000000E+00
Ar  919  0.1499982E+02  0.1165575E+02  0.5269328E+02  0.0000000E+00
Ar  920  0.1165271E+02  0.1499851E+02  0.5269281E+02  0.0000000E+00
Ar  921  0.1171674E+02  0.1716688E+02  0.3722013E+00  0.0000000E+00
Ar  922  0.1448606E+02  0.1984477E+02  0.6110982E+00  0.0000000E+00
Ar  923  0.1406335E+02  0.1719016E+02  0.3341285E+01  0.0000000E+00
Ar  924  0.1181602E+02  0.1999327E+02  0.3367176E+01  0.0000000E+00
Ar  925  0.1168482E+02  0.1708914E+02  0.6425427E+01  0.0000000E+00
Ar  926  0.1433841E+02  0.2000584E+02  0.6158445E+01  0.0000000E+00
Ar  927  0.1449806E+02  0.1685145E+02  0.9165137E+01  0.0000000E+00
Ar  928  0.1140157E+02  0.1984779E+02  0.8936585E+01  0.0000000E+00
Ar  929  0.1171557E+02  0.1756555E+02  0.1171564E+02  0.0000000E+00
Ar  930  0.1463039E+02  0.2005401E+02  0.1151581E+02  0.0000000E+00
Ar  931  0.1448936E+02  0.1721532E+02  0.1448913E+02  0.0000000E+00
Ar  932  0.1151576E+02  0.2005417E+02  0.1463019E+02  0.0000000E+00
Ar  933  0.1168025E+02  0.1732143E+02  0.1732126E+02  0.0000000E+00
Ar  934  0.1440558E+02  0.1988108E+02  0.1711519E+02  0.0000000E+00
Ar  935  0.1440555E+02  0.1711534E+02  0.1988088E+02  0.0000000E+00
Ar  936  0.1149913E+02  0.2014253E+02  0.2014240E+02  0.0000000E+00
Ar  937  0.1187026E+02  0.1711066E+02  0.2277536E+02  0.0000000E+00
Ar  938  0.1432159E+02  0.2002364E+02  0.2256756E+02  0.0000000E+00
Ar  939  0.1435699E+02  0.1704603E+02  0.2530056E+02  0.0000000E+00
Ar  940  0.1156716E+02  0.1984594E+02  0.2535455E+02  0.0000000E+00
Ar  941  0.1169968E+02  0.1691446E+02  0.2814452E+02  0.0000000E+00
Ar  942  0.1454197E+02  0.1982634E+02  0.2807624E+02  0.0000000E+00
Ar  943  0.1447866E+02  0.1741791E+02  0.3060578E+02  0.0000000E+00
Ar  944  0.1168750E+02  0.2005595E+02  0.3075953E+02  0.0000000E+00
Ar  945  0.1187781E+02  0.1728845E+02  0.3312057E+02  0.0000000E+00
Ar  946  0.1432163E+02  0.2019576E+02  0.3366933E+02  0.0000000E+00
Ar  947  0.1446134E+02  0.1729332E+02  0.3613660E+02  0.0000000E+00
Ar  948  0.1164935E+02  0.1981905E+02  0.3644892E+02  0.0000000E+00
Ar  949  0.1144556E+02  0.1728820E+02  0.3908490E+02  0.0000000E+00
Ar  950  0.1440087E+02  0.1966973E+02  0.3903876E+02  0.0000000E+00
Ar  951  0.1426273E+02  0.1740439E+02  0.4176308E+02  0.0000000E+00
Ar  952  0.1171639E+02  0.2000656E+02  0.4179200E+02  0.0000000E+00
Ar  953  0.1199647E+02  0.1720205E+02  0.4458083E+02  0.0000000E+00
Ar  954  0.1464394E+02  0.2006017E+02  0.4451623E+02  0.0000000E+00
Ar  955  0.1487258E+02  0.1742659E+02  0.4722485E+02  0.0000000E+00
Ar  956  0.1173941E+02  0.1991210E+02  0.4708907E+02  0.0000000E+00
Ar  957  0.1167128E+02  0.1752689E+02  0.5014164E+02  0.0000000E+00
Ar  958  0.1462410E+02  0.1993840E+02  0.4986927E+02  0.0000000E+00
Ar  959  0.1445387E+02  0.1744858E+02  0.5277214E+02  0.0000000E+00
Ar  960  0.1159533E+02  0.1993998E+02  0.5292123E+02  0.0000000E+00
Ar  961  0.1188524E+02  0.2280467E+02  0.5537453E+02  0.0000000E+00
Ar  962  0.1472569E+02  0.2524057E+02  0.6064231E+00  0.0000000E+00
Ar  963  0.1436976E+02  0.2241197E+02  0.3238708E+01  0.0000000E+00
Ar  964  0.1172968E+02  0.2557784E+02  0.3341030E+01  0.0000000E+00
Ar  965  0.1146724E+02  0.2231515E+02  0.6299035E+01  0.0000000E+00
Ar  966  0.1410924E+02  0.2507487E+02  0.6075096E+01  0.0000000E+00
Ar  967  0.1435177E+02  0.2227524E+02  0.8876409E+01  0.0000000E+00
Ar  968  0.1165842E+02  0.2517701E+02  0.8802736E+01  0.0000000E+00
Ar  969  0.1180975E+02  0.2271424E+02  0.1180967E+02  0.0000000E+00
Ar  970  0.1438652E+02  0.2535870E+02  0.1131425E+02  0.0000000E+00
Ar  971  0.1444521E+02  0.2228106E+02  0.1444497E+02  0.0000000E+00
Ar  972  0.1131425E+02  0.2535838E+02  0.1438617E+02  0.0000000E+00
Ar  973  0.1187053E+02  0.2277539E+02  0.1711068E+02  0.0000000E+00
Ar  974  0.1435709E+02  0.2530061E+02  0.1704601E+02  0.0000000E+00
Ar  975  0.1432163E+02  0.2256773E+02  0.2002349E+02  0.0000000E+00
Ar  976  0.1156723E+02  0.2535476E+02  0.1984582E+02  0.0000000E+00
Ar  977  0.1175961E+02  0.2272113E+02  0.2272092E+02  0.0000000E+00
Ar  978  0.1425056E+02  0.2512086E+02  0.2264092E+02  0.0000000E+00
Ar  979  0.1425054E+02  0.2264111E+02  0.2512066E+02  0.0000000E+00
Ar  980  0.1148704E+02  0.2529551E+02  0.2529532E+02  0.0000000E+00
Ar  981  0.1150990E+02  0.2258281E+02  0.2775904E+02  0.0000000E+00
Ar  982  0.1442132E+02  0.2528323E+02  0.2812928E+02  0.0000000E+00
Ar  983  0.1410379E+02  0.2293093E+02  0.3093440E+02  0.0000000E+00
Ar  984  0.1171987E+02  0.2572329E+02  0.3073869E+02  0.0000000E+00
Ar  985  0.1165668E+02  0.2271367E+02  0.3355361E+02  0.0000000E+00
Ar  986  0.1448060E+02  0.2526904E+02  0.3346055E+02  0.0000000E+00
Ar  987  0.1441666E+02  0.2220476E+02  0.3655668E+02  0.0000000E+00
Ar  988  0.1189535E+02  0.2504226E+02  0.3637683E+02  0.0000000E+00
Ar  989  0.1179922E+02  0.2224976E+02  0.3889582E+02  0.0000000E+00
Ar  990  0.1454993E+02  0.2538152E+02  0.3914172E+02  0.0000000E+00
Ar  991  0.1456833E+02  0.2235640E+02  0.4177028E+02  0.0000000E+00
Ar  992  0.1146312E+02  0.2522978E+02  0.4203367E+02  0.0000000E+00
Ar  993  0.1168308E+02  0.2239780E+02  0.4459013E+02  0.0000000E+00
Ar  994  0.1420252E+02  0.2528697E+02  0.4451337E+02  0.0000000E+00
Ar  995  0.1496581E+02  0.2259207E+02  0.4709255E+02  0.0000000E+00
Ar  996  0.1183844E+02  0.2507541E+02  0.4739381E+02  0.0000000E+00
Ar  997  0.1149094E+02  0.2235197E+02  0.4980193E+02  0.0000000E+00
Ar  998  0.1467642E+02  0.2535237E+02  0.4983442E+02  0.0000000E+00
Ar  999  0.1426542E+02  0.2253412E+02  0.5213948E+02  0.0000000E+00
Ar 1000  0.1139895E+02  0.2519387E+02  0.5234680E+02  0.0000000E+00
Ar 1001  0.1115284E+02  0.2754558E+02  0.5562051E+02  0.0000000E+00
Ar 1002  0.1330510E+02  0.2959496E+02  0.5534783E+02  0.0000000E+00
Ar 1003  0.1445046E+02  0.2777244E+02  0.3354753E+01  0.0000000E+00
Ar 1004  0.1186788E+02  0.3015423E+02  0.3212958E+01  0.0000000E+00
Ar 1005  0.1169761E+02  0.2772924E+02  0.6282289E+01  0.0000000E+00
Ar 1006  0.1413923E+02  0.3038703E+02  0.5830071E+01  0.0000000E+00
Ar 1007  0.1431943E+02  0.2794489E+02  0.8852918E+01  0.0000000E+00
Ar 1008  0.1158386E+02  0.3060020E+02  0.8907402E+01  0.0000000E+00
Ar 1009  0.1180779E+02  0.2827584E+02  0.1180829E+02  0.0000000E+00
Ar 1010  0.1448660E+02  0.3093368E+02  0.1191719E+02  0.0000000E+00
Ar 1011  0.1447986E+02  0.2793851E+02  0.1447960E+02  0.0000000E+00
Ar 1012  0.1191780E+02  0.3093332E+02  0.1448661E+02  0.0000000E+00
Ar 1013  0.1170003E+02  0.2814471E+02  0.1691453E+02  0.0000000E+00
Ar 1014  0.1447901E+02  0.3060612E+02  0.1741802E+02  0.0000000E+00
Ar 1015  0.1454209E+02  0.2807631E+02  0.1982643E+02  0.0000000E+00
Ar 1016  0.1168773E+02  0.3075974E+02  0.2005598E+02  0.0000000E+00
Ar 1017  0.1150994E+02  0.2775921E+02  0.2258265E+02  0.0000000E+00
Ar 1018  0.1410387E+02  0.3093469E+02  0.2293075E+02  0.0000000E+00
Ar 1019  0.1442136E+02  0.2812954E+02  0.2528301E+02  0.0000000E+00
Ar 1020  0.1171988E+02  0.3073896E+02  0.2572306E+02  0.0000000E+00
Ar 1021  0.1142270E+02  0.2791728E+02  0.2791705E+02  0.0000000E+00
Ar 1022  0.1444569E+02  0.3092893E+02  0.2817094E+02  0.0000000E+00
Ar 1023  0.1444568E+02  0.2817119E+02  0.3092863E+02  0.0000000E+00
Ar 1024  0.1180125E+02  0.3085449E+02  0.3085420E+02  0.0000000E+00
Ar 1025  0.1169299E+02  0.2818756E+02  0.3334989E+02  0.0000000E+00
Ar 1026  0.1428315E+02  0.3075467E+02  0.3365289E+02  0.0000000E+00
Ar 1027  0.1438232E+02  0.2791852E+02  0.3632550E+02  0.0000000E+00
Ar 1028  0.1161449E+02  0.3095075E+02  0.3624859E+02  0.0000000E+00
Ar 1029  0.1188152E+02  0.2803344E+02  0.3924696E+02  0.0000000E+00
Ar 1030  0.1472374E+02  0.3062006E+02  0.3895479E+02  0.0000000E+00
Ar 1031  0.1453257E+02  0.2798798E+02  0.4213797E+02  0.0000000E+00
Ar 1032  0.1189220E+02  0.3065894E+02  0.4178240E+02  0.0000000E+00
Ar 1033  0.1163568E+02  0.2788806E+02  0.4450077E+02  0.0000000E+00
Ar 1034  0.1479885E+02  0.3087609E+02  0.4445865E+02  0.0000000E+00
Ar 1035  0.1430683E+02  0.2765419E+02  0.4721922E+02  0.0000000E+00
Ar 1036  0.1197532E+02  0.3092101E+02  0.4692191E+02  0.0000000E+00
Ar 1037  0.1195865E+02  0.2790942E+02  0.5006068E+02  0.0000000E+00
Ar 1038  0.1436879E+02  0.3057052E+02  0.4967867E+02  0.0000000E+00
Ar 1039  0.1512561E+02  0.2790453E+02  0.5289143E+02  0.0000000E+00
Ar 1040  0.1177900E+02  0.3071447E+02  0.5236293E+02  0.0000000E+00
Ar 1041  0.1227528E+02  0.3360790E+02  0.5535896E+02  0.0000000E+00
Ar 1042  0.1429222E+02  0.3678760E+02  0.5571808E+02  0.0000000E+00
Ar 1043  0.1432927E+02  0.3343300E+02  0.3160085E+01  0.0000000E+00
Ar 1044  0.1174063E+02  0.3614305E+02  0.3297558E+01  0.0000000E+00
Ar 1045  0.1183527E+02  0.3346229E+02  0.6333493E+01  0.0000000E+00
Ar 1046  0.1423298E+02  0.3611550E+02  0.5997168E+01  0.0000000E+00
Ar 1047  0.1457323E+02  0.3357747E+02  0.8790459E+01  0.0000000E+00
Ar 1048  0.1158838E+02  0.3582264E+02  0.9073708E+01  0.0000000E+00
Ar 1049  0.1161726E+02  0.3318256E+02  0.1161925E+02  0.0000000E+00
Ar 1050  0.1470961E+02  0.3638620E+02  0.1168777E+02  0.0000000E+00
Ar 1051  0.1459140E+02  0.3353759E+02  0.1459127E+02  0.0000000E+00
Ar 1052  0.1168696E+02  0.3638538E+02  0.1470864E+02  0.0000000E+00
Ar 1053  0.1187820E+02  0.3312087E+02  0.1728864E+02  0.0000000E+00
Ar 1054  0.1446184E+02  0.3613712E+02  0.1729343E+02  0.0000000E+00
Ar 1055  0.1432180E+02  0.3366967E+02  0.2019573E+02  0.0000000E+00
Ar 1056  0.1164974E+02  0.3644893E+02  0.1981895E+02  0.0000000E+00
Ar 1057  0.1165708E+02  0.3355384E+02  0.2271380E+02  0.0000000E+00
Ar 1058  0.1441690E+02  0.3655706E+02  0.2220465E+02  0.0000000E+00
Ar 1059  0.1448071E+02  0.3346079E+02  0.2526881E+02  0.0000000E+00
Ar 1060  0.1189549E+02  0.3637714E+02  0.2504213E+02  0.0000000E+00
Ar 1061  0.1169304E+02  0.3335021E+02  0.2818732E+02  0.0000000E+00
Ar 1062  0.1438266E+02  0.3632564E+02  0.2791812E+02  0.0000000E+00
Ar 1063  0.1428320E+02  0.3365316E+02  0.3075440E+02  0.0000000E+00
Ar 1064  0.1161458E+02  0.3624882E+02  0.3095047E+02  0.0000000E+00
Ar 1065  0.1181811E+02  0.3351518E+02  0.3351491E+02  0.0000000E+00
Ar 1066  0.1480029E+02  0.3625876E+02  0.3355753E+02  0.0000000E+00
Ar 1067  0.1480026E+02  0.3355801E+02  0.3625835E+02  0.0000000E+00
Ar 1068  0.1255395E+02  0.3648216E+02  0.3648167E+02  0.0000000E+00
Ar 1069  0.1227569E+02  0.3373362E+02  0.3903049E+02  0.0000000E+00
Ar 1070  0.1482253E+02  0.3629664E+02  0.3932722E+02  0.0000000E+00
Ar 1071  0.1461500E+02  0.3348068E+02  0.4175874E+02  0.0000000E+00
Ar 1072  0.1193624E+02  0.3621141E+02  0.4195612E+02  0.0000000E+00
Ar 1073  0.1209653E+02  0.3366939E+02  0.4466483E+02  0.0000000E+00
Ar 1074  0.1458397E+02  0.3650233E+02  0.4441483E+02  0.0000000E+00
Ar 1075  0.1453370E+02  0.3379436E+02  0.4725242E+02  0.0000000E+00
Ar 1076  0.1198521E+02  0.3641535E+02  0.4723978E+02  0.0000000E+00
Ar 1077  0.1204167E+02  0.3363937E+02  0.4991694E+02  0.0000000E+00
Ar 1078  0.1455693E+02  0.3621853E+02  0.4991457E+02  0.0000000E+00
Ar 1079  0.1460658E+02  0.3355776E+02  0.5283134E+02  0.0000000E+00
Ar 1080  0.1177081E+02  0.3646470E+02  0.5283111E+02  0.0000000E+00
Ar 1081  0.1118833E+02  0.3945988E+02  0.5564844E+02  0.0000000E+00
Ar 1082  0.1543873E+02  0.4185069E+02  0.8697362E+00  0.0000000E+00
Ar 1083  0.1429399E+02  0.3907556E+02  0.3538834E+01  0.0000000E+00
Ar 1084  0.1158983E+02  0.4186247E+02  0.3668633E+01  0.0000000E+00
Ar 1085  0.1187894E+02  0.3883841E+02  0.6618993E+01  0.0000000E+00
Ar 1086  0.1421301E+02  0.4148171E+02  0.6336921E+01  0.0000000E+00
Ar 1087  0.1453435E+02  0.3887733E+02  0.8946335E+01  0.0000000E+00
Ar 1088  0.1187138E+02  0.4171908E+02  0.9324958E+01  0.0000000E+00
Ar 1089  0.1182533E+02  0.3865873E+02  0.1182674E+02  0.0000000E+00
Ar 1090  0.1469767E+02  0.4210005E+02  0.1182334E+02  0.0000000E+00
Ar 1091  0.1434361E+02  0.3953374E+02  0.1434312E+02  0.0000000E+00
Ar 1092  0.1182450E+02  0.4209881E+02  0.1469750E+02  0.0000000E+00
Ar 1093  0.1144646E+02  0.3908534E+02  0.1728854E+02  0.0000000E+00
Ar 1094  0.1426210E+02  0.4176398E+02  0.1740352E+02  0.0000000E+00
Ar 1095  0.1440130E+02  0.3903948E+02  0.1966959E+02  0.0000000E+00
Ar 1096  0.1171660E+02  0.4179253E+02  0.2000581E+02  0.0000000E+00
Ar 1097  0.1179966E+02  0.3889644E+02  0.2224929E+02  0.0000000E+00
Ar 1098  0.1456856E+02  0.4177067E+02  0.2235579E+02  0.0000000E+00
Ar 1099  0.1455011E+02  0.3914181E+02  0.2538112E+02  0.0000000E+00
Ar 1100  0.1146316E+02  0.4203389E+02  0.2522943E+02  0.0000000E+00
Ar 1101  0.1188155E+02  0.3924729E+02  0.2803384E+02  0.0000000E+00
Ar 1102  0.1453241E+02  0.4213847E+02  0.2798838E+02  0.0000000E+00
Ar 1103  0.1472382E+02  0.3895509E+02  0.3061974E+02  0.0000000E+00
Ar 1104  0.1189185E+02  0.4178318E+02  0.3065896E+02  0.0000000E+00
Ar 1105  0.1227536E+02  0.3903136E+02  0.3373306E+02  0.0000000E+00
Ar 1106  0.1461501E+02  0.4175911E+02  0.3348038E+02  0.0000000E+00
Ar 1107  0.1482248E+02  0.3932746E+02  0.3629631E+02  0.0000000E+00
Ar 1108  0.1193610E+02  0.4195650E+02  0.3621063E+02  0.0000000E+00
Ar 1109  0.1189163E+02  0.3893782E+02  0.3893743E+02  0.0000000E+00
Ar 1110  0.1501229E+02  0.4193921E+02  0.3915828E+02  0.0000000E+00
Ar 1111  0.1501359E+02  0.3915753E+02  0.4193909E+02  0.0000000E+00
Ar 1112  0.1221133E+02  0.4171289E+02  0.4171215E+02  0.0000000E+00
Ar 1113  0.1191103E+02  0.3902908E+02  0.4430688E+02  0.0000000E+00
Ar 1114  0.1457281E+02  0.4164479E+02  0.4455613E+02  0.0000000E+00
Ar 1115  0.1498298E+02  0.3901920E+02  0.4738426E+02  0.0000000E+00
Ar 1116  0.1184911E+02  0.4154028E+02  0.4706321E+02  0.0000000E+00
Ar 1117  0.1176611E+02  0.3919460E+02  0.4986076E+02  0.0000000E+00
Ar 1118  0.1458483E+02  0.4172267E+02  0.5023938E+02  0.0000000E+00
Ar 1119  0.1432985E+02  0.3899115E+02  0.5306115E+02  0.0000000E+00
Ar 1120  0.1200288E+02  0.4166041E+02  0.5223501E+02  0.0000000E+00
Ar 1121  0.1161537E+02  0.4259753E+02  0.5522691E+02  0.0000000E+00
Ar 1122  0.1278396E+02  0.4590575E+02  0.8601084E+00  0.0000000E+00
Ar 1123  0.1474620E+02  0.4402351E+02  0.3883671E+01  0.0000000E+00
Ar 1124  0.1221559E+02  0.4755065E+02  0.4042632E+01  0.0000000E+00
Ar 1125  0.1182733E+02  0.4462958E+02  0.6413580E+01  0.0000000E+00
Ar 1126  0.1511270E+02  0.4742109E+02  0.6758013E+01  0.0000000E+00
Ar 1127  0.1450869E+02  0.4447585E+02  0.9197009E+01  0.0000000E+00
Ar 1128  0.1183384E+02  0.4728192E+02  0.9263571E+01  0.0000000E+00
Ar 1129  0.1174302E+02  0.4443787E+02  0.1174294E+02  0.0000000E+00
Ar 1130  0.1493844E+02  0.4730026E+02  0.1193719E+02  0.0000000E+00
Ar 1131  0.1480176E+02  0.4430029E+02  0.1480240E+02  0.0000000E+00
Ar 1132  0.1193597E+02  0.4730028E+02  0.1493771E+02  0.0000000E+00
Ar 1133  0.1199588E+02  0.4458113E+02  0.1720108E+02  0.0000000E+00
Ar 1134  0.1487244E+02  0.4722517E+02  0.1742628E+02  0.0000000E+00
Ar 1135  0.1464398E+02  0.4451679E+02  0.2005963E+02  0.0000000E+00
Ar 1136  0.1173945E+02  0.4708991E+02  0.1991169E+02  0.0000000E+00
Ar 1137  0.1168309E+02  0.4459036E+02  0.2239740E+02  0.0000000E+00
Ar 1138  0.1496575E+02  0.4709330E+02  0.2259170E+02  0.0000000E+00
Ar 1139  0.1420256E+02  0.4451368E+02  0.2528663E+02  0.0000000E+00
Ar 1140  0.1183832E+02  0.4739403E+02  0.2507480E+02  0.0000000E+00
Ar 1141  0.1163574E+02  0.4450110E+02  0.2788809E+02  0.0000000E+00
Ar 1142  0.1430553E+02  0.4722063E+02  0.2765397E+02  0.0000000E+00
Ar 1143  0.1479708E+02  0.4446087E+02  0.3087571E+02  0.0000000E+00
Ar 1144  0.1197457E+02  0.4692367E+02  0.3092073E+02  0.0000000E+00
Ar 1145  0.1209620E+02  0.4466579E+02  0.3366888E+02  0.0000000E+00
Ar 1146  0.1452958E+02  0.4725693E+02  0.3379449E+02  0.0000000E+00
Ar 1147  0.1458309E+02  0.4441604E+02  0.3650215E+02  0.0000000E+00
Ar 1148  0.1198147E+02  0.4724356E+02  0.3641555E+02  0.0000000E+00
Ar 1149  0.1191339E+02  0.4430833E+02  0.3903133E+02  0.0000000E+00
Ar 1150  0.1498082E+02  0.4738525E+02  0.3901760E+02  0.0000000E+00
Ar 1151  0.1456844E+02  0.4456202E+02  0.4164174E+02  0.0000000E+00
Ar 1152  0.1184396E+02  0.4706937E+02  0.4153496E+02  0.0000000E+00
Ar 1153  0.1182908E+02  0.4450148E+02  0.4449868E+02  0.0000000E+00
Ar 1154  0.1450872E+02  0.4718799E+02  0.4424373E+02  0.0000000E+00
Ar 1155  0.1451080E+02  0.4424875E+02  0.4718457E+02  0.0000000E+00
Ar 1156  0.1176224E+02  0.4764392E+02  0.4763990E+02  0.0000000E+00
Ar 1157  0.1185247E+02  0.4449931E+02  0.4996433E+02  0.0000000E+00
Ar 1158  0.1490880E+02  0.4732994E+02  0.4978598E+02  0.0000000E+00
Ar 1159  0.1449634E+02  0.4446603E+02  0.5273235E+02  0.0000000E+00
Ar 1160  0.1207163E+02  0.4739588E+02  0.5296135E+02  0.0000000E+00
Ar 1161  0.1212082E+02  0.5012411E+02  0.1236141E+01  0.0000000E+00
Ar 1162  0.1521023E+02  0.5264011E+02  0.7136043E+00  0.0000000E+00
Ar 1163  0.1440886E+02  0.5032790E+02  0.3859295E+01  0.0000000E+00
Ar 1164  0.1175784E+02  0.5333980E+02  0.3977920E+01  0.0000000E+00
Ar 1165  0.1215914E+02  0.5005534E+02  0.6791722E+01  0.0000000E+00
Ar 1166  0.1461504E+02  0.5323783E+02  0.6906493E+01  0.0000000E+00
Ar 1167  0.1467134E+02  0.5001216E+02  0.9265266E+01  0.0000000E+00
Ar 1168  0.1227719E+02  0.5303056E+02  0.9374353E+01  0.0000000E+00
Ar 1169  0.1155598E+02  0.5050302E+02  0.1155656E+02  0.0000000E+00
Ar 1170  0.1499951E+02  0.5269337E+02  0.1165475E+02  0.0000000E+00
Ar 1171  0.1437062E+02  0.5013155E+02  0.1437071E+02  0.0000000E+00
Ar 1172  0.1165265E+02  0.5269266E+02  0.1499868E+02  0.0000000E+00
Ar 1173  0.1167127E+02  0.5014170E+02  0.1752602E+02  0.0000000E+00
Ar 1174  0.1445431E+02  0.5277293E+02  0.1744765E+02  0.0000000E+00
Ar 1175  0.1462386E+02  0.4986967E+02  0.1993737E+02  0.0000000E+00
Ar 1176  0.1159351E+02  0.5292237E+02  0.1993859E+02  0.0000000E+00
Ar 1177  0.1148971E+02  0.4980178E+02  0.2235149E+02  0.0000000E+00
Ar 1178  0.1426391E+02  0.5213957E+02  0.2253376E+02  0.0000000E+00
Ar 1179  0.1467578E+02  0.4983486E+02  0.2535286E+02  0.0000000E+00
Ar 1180  0.1139744E+02  0.5234662E+02  0.2519286E+02  0.0000000E+00
Ar 1181  0.1195724E+02  0.5006376E+02  0.2791111E+02  0.0000000E+00
Ar 1182  0.1512807E+02  0.5288739E+02  0.2790358E+02  0.0000000E+00
Ar 1183  0.1436592E+02  0.4968077E+02  0.3057038E+02  0.0000000E+00
Ar 1184  0.1177662E+02  0.5236568E+02  0.3072077E+02  0.0000000E+00
Ar 1185  0.1203335E+02  0.4992700E+02  0.3364152E+02  0.0000000E+00
Ar 1186  0.1461019E+02  0.5282579E+02  0.3356030E+02  0.0000000E+00
Ar 1187  0.1455366E+02  0.4991636E+02  0.3621857E+02  0.0000000E+00
Ar 1188  0.1176360E+02  0.5284331E+02  0.3646853E+02  0.0000000E+00
Ar 1189  0.1176514E+02  0.4986713E+02  0.3919208E+02  0.0000000E+00
Ar 1190  0.1432976E+02  0.5306049E+02  0.3898798E+02  0.0000000E+00
Ar 1191  0.1457890E+02  0.5024840E+02  0.4172305E+02  0.0000000E+00
Ar 1192  0.1194904E+02  0.5264977E+02  0.4184206E+02  0.0000000E+00
Ar 1193  0.1184516E+02  0.4997182E+02  0.4449325E+02  0.0000000E+00
Ar 1194  0.1451968E+02  0.5275517E+02  0.4449805E+02  0.0000000E+00
Ar 1195  0.1491370E+02  0.4980184E+02  0.4732417E+02  0.0000000E+00
Ar 1196  0.1207460E+02  0.5297328E+02  0.4738964E+02  0.0000000E+00
Ar 1197  0.1197764E+02  0.4999840E+02  0.4999795E+02  0.0000000E+00
Ar 1198  0.1456836E+02  0.5360762E+02  0.5021303E+02  0.0000000E+00
Ar 1199  0.1455835E+02  0.5019076E+02  0.5351087E+02  0.0000000E+00
Ar 1200  0.1210608E+02  0.5327690E+02  0.5342673E+02  0.0000000E+00
Ar 1201  0.1799182E+02  0.1206512E+01  0.1279209E+01  0.0000000E+00
Ar 1202  0.2051630E+02  0.3131746E+01  0.5543093E+02  0.0000000E+00
Ar 1203  0.2030474E+02  0.5115521E+00  0.3906326E+01  0.0000000E+00
Ar 1204  0.1677985E+02  0.3934469E+01  0.3934856E+01  0.0000000E+00
Ar 1205  0.1776498E+02  0.7069012E+00  0.6495020E+01  0.0000000E+00
Ar 1206  0.1986245E+02  0.3414540E+01  0.6181934E+01  0.0000000E+00
Ar 1207  0.1971946E+02  0.5549626E+02  0.8802552E+01  0.0000000E+00
Ar 1208  0.1745962E+02  0.3592827E+01  0.9004595E+01  0.0000000E+00
Ar 1209  0.1716769E+02  0.3720728E+00  0.1171823E+02  0.0000000E+00
Ar 1210  0.1999329E+02  0.3367648E+01  0.1181617E+02  0.0000000E+00
Ar 1211  0.1984452E+02  0.6110555E+00  0.1448621E+02  0.0000000E+00
Ar 1212  0.1719009E+02  0.3341450E+01  0.1406351E+02  0.0000000E+00
Ar 1213  0.1577986E+02  0.7237341E+00  0.1577846E+02  0.0000000E+00
Ar 1214  0.1957424E+02  0.3354623E+01  0.1710843E+02  0.0000000E+00
Ar 1215  0.2115800E+02  0.5526928E+02  0.2115778E+02  0.0000000E+00
Ar 1216  0.1710850E+02  0.3354817E+01  0.1957346E+02  0.0000000E+00
Ar 1217  0.1735528E+02  0.3501624E+00  0.2219093E+02  0.0000000E+00
Ar 1218  0.1963833E+02  0.3498925E+01  0.2246178E+02  0.0000000E+00
Ar 1219  0.1962533E+02  0.7375604E+00  0.2510340E+02  0.0000000E+00
Ar 1220  0.1704027E+02  0.3319822E+01  0.2511607E+02  0.0000000E+00
Ar 1221  0.1704145E+02  0.5714888E+00  0.2795273E+02  0.0000000E+00
Ar 1222  0.1973277E+02  0.3568971E+01  0.2782629E+02  0.0000000E+00
Ar 1223  0.1910773E+02  0.5545558E+02  0.3082632E+02  0.0000000E+00
Ar 1224  0.1701697E+02  0.3332203E+01  0.3090117E+02  0.0000000E+00
Ar 1225  0.1773922E+02  0.6332890E+00  0.3444279E+02  0.0000000E+00
Ar 1226  0.1991427E+02  0.2982578E+01  0.3393700E+02  0.0000000E+00
Ar 1227  0.2014752E+02  0.5529417E+02  0.3651991E+02  0.0000000E+00
Ar 1228  0.1737961E+02  0.2985780E+01  0.3689617E+02  0.0000000E+00
Ar 1229  0.1666951E+02  0.5547945E+02  0.3863787E+02  0.0000000E+00
Ar 1230  0.2008280E+02  0.3648541E+01  0.3909994E+02  0.0000000E+00
Ar 1231  0.1958504E+02  0.6362881E+00  0.4239511E+02  0.0000000E+00
Ar 1232  0.1755410E+02  0.3621360E+01  0.4173752E+02  0.0000000E+00
Ar 1233  0.1639413E+02  0.5575386E+02  0.4441662E+02  0.0000000E+00
Ar 1234  0.1977962E+02  0.3656433E+01  0.4500676E+02  0.0000000E+00
Ar 1235  0.1895557E+02  0.5563444E+02  0.4594052E+02  0.0000000E+00
Ar 1236  0.1695801E+02  0.3377835E+01  0.4713469E+02  0.0000000E+00
Ar 1237  0.1692426E+02  0.8329441E+00  0.4932646E+02  0.0000000E+00
Ar 1238  0.1981749E+02  0.3606892E+01  0.5040902E+02  0.0000000E+00
Ar 1239  0.1911291E+02  0.8570408E+00  0.5234024E+02  0.0000000E+00
Ar 1240  0.1729318E+02  0.3895512E+01  0.5280281E+02  0.0000000E+00
Ar 1241  0.1778382E+02  0.6441085E+01  0.6866615E+00  0.0000000E+00
Ar 1242  0.1971996E+02  0.8800943E+01  0.5549553E+02  0.0000000E+00
Ar 1243  0.1993546E+02  0.5951978E+01  0.3151719E+01  0.0000000E+00
Ar 1244  0.1746042E+02  0.9003327E+01  0.3593142E+01  0.0000000E+00
Ar 1245  0.1738062E+02  0.6416259E+01  0.6414084E+01  0.0000000E+00
Ar 1246  0.1986988E+02  0.8862969E+01  0.6152235E+01  0.0000000E+00
Ar 1247  0.1987018E+02  0.6153329E+01  0.8863746E+01  0.0000000E+00
Ar 1248  0.1693634E+02  0.8850925E+01  0.8850922E+01  0.0000000E+00
Ar 1249  0.1708901E+02  0.6425622E+01  0.1168495E+02  0.0000000E+00
Ar 1250  0.1984751E+02  0.8936974E+01  0.1140207E+02  0.0000000E+00
Ar 1251  0.2000553E+02  0.6158913E+01  0.1433860E+02  0.0000000E+00
Ar 1252  0.1685135E+02  0.9165537E+01  0.1449827E+02  0.0000000E+00
Ar 1253  0.1682361E+02  0.6242721E+01  0.1682348E+02  0.0000000E+00
Ar 1254  0.1966532E+02  0.8836634E+01  0.1717584E+02  0.0000000E+00
Ar 1255  0.1968704E+02  0.6263952E+01  0.1968646E+02  0.0000000E+00
Ar 1256  0.1717547E+02  0.8836099E+01  0.1966508E+02  0.0000000E+00
Ar 1257  0.1701555E+02  0.6004878E+01  0.2248207E+02  0.0000000E+00
Ar 1258  0.1964670E+02  0.8793912E+01  0.2264980E+02  0.0000000E+00
Ar 1259  0.1953981E+02  0.5881333E+01  0.2514266E+02  0.0000000E+00
Ar 1260  0.1711450E+02  0.8663172E+01  0.2525944E+02  0.0000000E+00
Ar 1261  0.1707660E+02  0.6233580E+01  0.2806291E+02  0.0000000E+00
Ar 1262  0.1989991E+02  0.8751438E+01  0.2781057E+02  0.0000000E+00
Ar 1263  0.1972038E+02  0.6220600E+01  0.3083137E+02  0.0000000E+00
Ar 1264  0.1717235E+02  0.8873849E+01  0.3050900E+02  0.0000000E+00
Ar 1265  0.1722573E+02  0.6109477E+01  0.3392163E+02  0.0000000E+00
Ar 1266  0.1986816E+02  0.9337234E+01  0.3338586E+02  0.0000000E+00
Ar 1267  0.2020867E+02  0.6267186E+01  0.3630227E+02  0.0000000E+00
Ar 1268  0.1727698E+02  0.8860174E+01  0.3649649E+02  0.0000000E+00
Ar 1269  0.1720985E+02  0.6147000E+01  0.3905326E+02  0.0000000E+00
Ar 1270  0.1995473E+02  0.8872714E+01  0.3928527E+02  0.0000000E+00
Ar 1271  0.2000569E+02  0.6300934E+01  0.4177013E+02  0.0000000E+00
Ar 1272  0.1723816E+02  0.8868276E+01  0.4164027E+02  0.0000000E+00
Ar 1273  0.1707924E+02  0.6274465E+01  0.4409283E+02  0.0000000E+00
Ar 1274  0.1969452E+02  0.8856776E+01  0.4433397E+02  0.0000000E+00
Ar 1275  0.1964042E+02  0.6311469E+01  0.4737768E+02  0.0000000E+00
Ar 1276  0.1751289E+02  0.9162940E+01  0.4719589E+02  0.0000000E+00
Ar 1277  0.1730888E+02  0.6103358E+01  0.5027435E+02  0.0000000E+00
Ar 1278  0.2010501E+02  0.8669867E+01  0.4999044E+02  0.0000000E+00
Ar 1279  0.2022444E+02  0.6580812E+01  0.5297899E+02  0.0000000E+00
Ar 1280  0.1756834E+02  0.8958620E+01  0.5277744E+02  0.0000000E+00
Ar 1281  0.1716885E+02  0.1171779E+02  0.3720511E+00  0.0000000E+00
Ar 1282  0.1984441E+02  0.1448686E+02  0.6111144E+00  0.0000000E+00
Ar 1283  0.1999467E+02  0.1181596E+02  0.3366313E+01  0.0000000E+00
Ar 1284  0.1719074E+02  0.1406302E+02  0.3341141E+01  0.0000000E+00
Ar 1285  0.1708913E+02  0.1168515E+02  0.6425728E+01  0.0000000E+00
Ar 1286  0.2000577E+02  0.1433800E+02  0.6158749E+01  0.0000000E+00
Ar 1287  0.1984804E+02  0.1140192E+02  0.8935841E+01  0.0000000E+00
Ar 1288  0.1685149E+02  0.1449853E+02  0.9165490E+01  0.0000000E+00
Ar 1289  0.1756546E+02  0.1171577E+02  0.1171554E+02  0.0000000E+00
Ar 1290  0.2005418E+02  0.1463033E+02  0.1151589E+02  0.0000000E+00
Ar 1291  0.2005404E+02  0.1151616E+02  0.1463013E+02  0.0000000E+00
Ar 1292  0.1721534E+02  0.1448935E+02  0.1448915E+02  0.0000000E+00
Ar 1293  0.1732151E+02  0.1168019E+02  0.1732120E+02  0.0000000E+00
Ar 1294  0.1988116E+02  0.1440555E+02  0.1711515E+02  0.0000000E+00
Ar 1295  0.2014262E+02  0.1149912E+02  0.2014234E+02  0.0000000E+00
Ar 1296  0.1711539E+02  0.1440542E+02  0.1988088E+02  0.0000000E+00
Ar 1297  0.1711068E+02  0.1187023E+02  0.2277534E+02  0.0000000E+00
Ar 1298  0.2002366E+02  0.1432155E+02  0.2256752E+02  0.0000000E+00
Ar 1299  0.1984601E+02  0.1156718E+02  0.2535449E+02  0.0000000E+00
Ar 1300  0.1704604E+02  0.1435698E+02  0.2530054E+02  0.0000000E+00
Ar 1301  0.1691448E+02  0.1169971E+02  0.2814450E+02  0.0000000E+00
Ar 1302  0.1982638E+02  0.1454198E+02  0.2807621E+02  0.0000000E+00
Ar 1303  0.2005594E+02  0.1168761E+02  0.3075940E+02  0.0000000E+00
Ar 1304  0.1741793E+02  0.1447866E+02  0.3060577E+02  0.0000000E+00
Ar 1305  0.1728841E+02  0.1187781E+02  0.3312058E+02  0.0000000E+00
Ar 1306  0.2019575E+02  0.1432167E+02  0.3366928E+02  0.0000000E+00
Ar 1307  0.1981873E+02  0.1164956E+02  0.3644859E+02  0.0000000E+00
Ar 1308  0.1729327E+02  0.1446139E+02  0.3613655E+02  0.0000000E+00
Ar 1309  0.1728775E+02  0.1144607E+02  0.3908443E+02  0.0000000E+00
Ar 1310  0.1966949E+02  0.1440126E+02  0.3903862E+02  0.0000000E+00
Ar 1311  0.2000541E+02  0.1171740E+02  0.4179143E+02  0.0000000E+00
Ar 1312  0.1740400E+02  0.1426341E+02  0.4176273E+02  0.0000000E+00
Ar 1313  0.1720134E+02  0.1199770E+02  0.4458154E+02  0.0000000E+00
Ar 1314  0.2005959E+02  0.1464443E+02  0.4451616E+02  0.0000000E+00
Ar 1315  0.1991212E+02  0.1173965E+02  0.4708894E+02  0.0000000E+00
Ar 1316  0.1742627E+02  0.1487350E+02  0.4722532E+02  0.0000000E+00
Ar 1317  0.1752742E+02  0.1167234E+02  0.5014140E+02  0.0000000E+00
Ar 1318  0.1993875E+02  0.1462440E+02  0.4986943E+02  0.0000000E+00
Ar 1319  0.1993886E+02  0.1159458E+02  0.5292088E+02  0.0000000E+00
Ar 1320  0.1744851E+02  0.1445464E+02  0.5277210E+02  0.0000000E+00
Ar 1321  0.1577943E+02  0.1577949E+02  0.7232994E+00  0.0000000E+00
Ar 1322  0.2115773E+02  0.2115863E+02  0.5526907E+02  0.0000000E+00
Ar 1323  0.1957400E+02  0.1710872E+02  0.3354581E+01  0.0000000E+00
Ar 1324  0.1710867E+02  0.1957404E+02  0.3354385E+01  0.0000000E+00
Ar 1325  0.1682377E+02  0.1682372E+02  0.6242779E+01  0.0000000E+00
Ar 1326  0.1968688E+02  0.1968696E+02  0.6263711E+01  0.0000000E+00
Ar 1327  0.1966552E+02  0.1717592E+02  0.8836477E+01  0.0000000E+00
Ar 1328  0.1717585E+02  0.1966536E+02  0.8836378E+01  0.0000000E+00
Ar 1329  0.1732148E+02  0.1732144E+02  0.1168005E+02  0.0000000E+00
Ar 1330  0.2014264E+02  0.2014257E+02  0.1149898E+02  0.0000000E+00
Ar 1331  0.1988118E+02  0.1711536E+02  0.1440530E+02  0.0000000E+00
Ar 1332  0.1711543E+02  0.1988110E+02  0.1440529E+02  0.0000000E+00
Ar 1333  0.1715282E+02  0.1715276E+02  0.1715257E+02  0.0000000E+00
Ar 1334  0.1988851E+02  0.1988843E+02  0.1701402E+02  0.0000000E+00
Ar 1335  0.1988849E+02  0.1701419E+02  0.1988823E+02  0.0000000E+00
Ar 1336  0.1701424E+02  0.1988845E+02  0.1988824E+02  0.0000000E+00
Ar 1337  0.1697239E+02  0.1697236E+02  0.2245316E+02  0.0000000E+00
Ar 1338  0.1987207E+02  0.1987204E+02  0.2276582E+02  0.0000000E+00
Ar 1339  0.1991637E+02  0.1685313E+02  0.2543300E+02  0.0000000E+00
Ar 1340  0.1685315E+02  0.1991635E+02  0.2543305E+02  0.0000000E+00
Ar 1341  0.1696992E+02  0.1696990E+02  0.2800651E+02  0.0000000E+00
Ar 1342  0.1995187E+02  0.1995182E+02  0.2800145E+02  0.0000000E+00
Ar 1343  0.2009365E+02  0.1713585E+02  0.3083787E+02  0.0000000E+00
Ar 1344  0.1713588E+02  0.2009362E+02  0.3083790E+02  0.0000000E+00
Ar 1345  0.1722738E+02  0.1722738E+02  0.3363251E+02  0.0000000E+00
Ar 1346  0.2010334E+02  0.2010330E+02  0.3351591E+02  0.0000000E+00
Ar 1347  0.1991772E+02  0.1734227E+02  0.3604445E+02  0.0000000E+00
Ar 1348  0.1734218E+02  0.1991776E+02  0.3604441E+02  0.0000000E+00
Ar 1349  0.1720994E+02  0.1721010E+02  0.3892614E+02  0.0000000E+00
Ar 1350  0.1985419E+02  0.1985432E+02  0.3926867E+02  0.0000000E+00
Ar 1351  0.1983446E+02  0.1696185E+02  0.4157903E+02  0.0000000E+00
Ar 1352  0.1696155E+02  0.1983482E+02  0.4157897E+02  0.0000000E+00
Ar 1353  0.1749403E+02  0.1749430E+02  0.4419682E+02  0.0000000E+00
Ar 1354  0.1992524E+02  0.1992549E+02  0.4470991E+02  0.0000000E+00
Ar 1355  0.1995497E+02  0.1730421E+02  0.4734229E+02  0.0000000E+00
Ar 1356  0.1730384E+02  0.1995530E+02  0.4734225E+02  0.0000000E+00
Ar 1357  0.1707063E+02  0.1707084E+02  0.5017601E+02  0.0000000E+00
Ar 1358  0.2011770E+02  0.2011797E+02  0.4999372E+02  0.0000000E+00
Ar 1359  0.2002917E+02  0.1719525E+02  0.5265650E+02  0.0000000E+00
Ar 1360  0.1719503E+02  0.2002938E+02  0.5265659E+02  0.0000000E+00
Ar 1361  0.1735546E+02  0.2219144E+02  0.3491313E+00  0.0000000E+00
Ar 1362  0.1962530E+02  0.2510348E+02  0.7379850E+00  0.0000000E+00
Ar 1363  0.1963777E+02  0.2246189E+02  0.3498072E+01  0.0000000E+00
Ar 1364  0.1704078E+02  0.2511608E+02  0.3319591E+01  0.0000000E+00
Ar 1365  0.1701569E+02  0.2248223E+02  0.6004750E+01  0.0000000E+00
Ar 1366  0.1953976E+02  0.2514306E+02  0.5880932E+01  0.0000000E+00
Ar 1367  0.1964675E+02  0.2265013E+02  0.8793780E+01  0.0000000E+00
Ar 1368  0.1711445E+02  0.2525974E+02  0.8663100E+01  0.0000000E+00
Ar 1369  0.1711090E+02  0.2277558E+02  0.1187024E+02  0.0000000E+00
Ar 1370  0.1984603E+02  0.2535475E+02  0.1156700E+02  0.0000000E+00
Ar 1371  0.2002370E+02  0.2256774E+02  0.1432140E+02  0.0000000E+00
Ar 1372  0.1704629E+02  0.2530064E+02  0.1435686E+02  0.0000000E+00
Ar 1373  0.1697245E+02  0.2245338E+02  0.1697220E+02  0.0000000E+00
Ar 1374  0.1991640E+02  0.2543327E+02  0.1685296E+02  0.0000000E+00
Ar 1375  0.1987211E+02  0.2276604E+02  0.1987184E+02  0.0000000E+00
Ar 1376  0.1685322E+02  0.2543327E+02  0.1991617E+02  0.0000000E+00
Ar 1377  0.1729170E+02  0.2275987E+02  0.2275968E+02  0.0000000E+00
Ar 1378  0.2001679E+02  0.2521385E+02  0.2268326E+02  0.0000000E+00
Ar 1379  0.2001675E+02  0.2268349E+02  0.2521359E+02  0.0000000E+00
Ar 1380  0.1728086E+02  0.2547165E+02  0.2547144E+02  0.0000000E+00
Ar 1381  0.1737750E+02  0.2276789E+02  0.2790979E+02  0.0000000E+00
Ar 1382  0.2004352E+02  0.2500451E+02  0.2802113E+02  0.0000000E+00
Ar 1383  0.1979425E+02  0.2264981E+02  0.3095268E+02  0.0000000E+00
Ar 1384  0.1727427E+02  0.2539988E+02  0.3099534E+02  0.0000000E+00
Ar 1385  0.1711557E+02  0.2248540E+02  0.3355001E+02  0.0000000E+00
Ar 1386  0.1986840E+02  0.2540910E+02  0.3367361E+02  0.0000000E+00
Ar 1387  0.2010343E+02  0.2268075E+02  0.3658140E+02  0.0000000E+00
Ar 1388  0.1715996E+02  0.2514354E+02  0.3627244E+02  0.0000000E+00
Ar 1389  0.1698034E+02  0.2267783E+02  0.3904793E+02  0.0000000E+00
Ar 1390  0.1994209E+02  0.2520747E+02  0.3919835E+02  0.0000000E+00
Ar 1391  0.1996885E+02  0.2255625E+02  0.4198280E+02  0.0000000E+00
Ar 1392  0.1723277E+02  0.2526954E+02  0.4185620E+02  0.0000000E+00
Ar 1393  0.1755742E+02  0.2253718E+02  0.4470625E+02  0.0000000E+00
Ar 1394  0.2001025E+02  0.2523317E+02  0.4435931E+02  0.0000000E+00
Ar 1395  0.2011852E+02  0.2253619E+02  0.4728009E+02  0.0000000E+00
Ar 1396  0.1728397E+02  0.2516040E+02  0.4703687E+02  0.0000000E+00
Ar 1397  0.1727792E+02  0.2269570E+02  0.4983464E+02  0.0000000E+00
Ar 1398  0.1980005E+02  0.2527882E+02  0.4968760E+02  0.0000000E+00
Ar 1399  0.1985184E+02  0.2272184E+02  0.5251714E+02  0.0000000E+00
Ar 1400  0.1735036E+02  0.2502375E+02  0.5254973E+02  0.0000000E+00
Ar 1401  0.1704117E+02  0.2795329E+02  0.5713257E+00  0.0000000E+00
Ar 1402  0.1910958E+02  0.3082850E+02  0.5545654E+02  0.0000000E+00
Ar 1403  0.1973248E+02  0.2782663E+02  0.3568718E+01  0.0000000E+00
Ar 1404  0.1701632E+02  0.3090120E+02  0.3331933E+01  0.0000000E+00
Ar 1405  0.1707713E+02  0.2806304E+02  0.6233573E+01  0.0000000E+00
Ar 1406  0.1972007E+02  0.3083150E+02  0.6220070E+01  0.0000000E+00
Ar 1407  0.1989997E+02  0.2781071E+02  0.8751233E+01  0.0000000E+00
Ar 1408  0.1717238E+02  0.3050901E+02  0.8873657E+01  0.0000000E+00
Ar 1409  0.1691436E+02  0.2814477E+02  0.1169944E+02  0.0000000E+00
Ar 1410  0.2005601E+02  0.3075980E+02  0.1168731E+02  0.0000000E+00
Ar 1411  0.1982644E+02  0.2807644E+02  0.1454178E+02  0.0000000E+00
Ar 1412  0.1741799E+02  0.3060601E+02  0.1447858E+02  0.0000000E+00
Ar 1413  0.1697021E+02  0.2800665E+02  0.1696988E+02  0.0000000E+00
Ar 1414  0.2009369E+02  0.3083817E+02  0.1713565E+02  0.0000000E+00
Ar 1415  0.1995191E+02  0.2800174E+02  0.1995159E+02  0.0000000E+00
Ar 1416  0.1713613E+02  0.3083822E+02  0.2009371E+02  0.0000000E+00
Ar 1417  0.1737752E+02  0.2791001E+02  0.2276767E+02  0.0000000E+00
Ar 1418  0.1979431E+02  0.3095297E+02  0.2264959E+02  0.0000000E+00
Ar 1419  0.2004356E+02  0.2802139E+02  0.2500428E+02  0.0000000E+00
Ar 1420  0.1727432E+02  0.3099561E+02  0.2539963E+02  0.0000000E+00
Ar 1421  0.1723245E+02  0.2830078E+02  0.2830050E+02  0.0000000E+00
Ar 1422  0.2009606E+02  0.3076394E+02  0.2819128E+02  0.0000000E+00
Ar 1423  0.2009605E+02  0.2819155E+02  0.3076365E+02  0.0000000E+00
Ar 1424  0.1734744E+02  0.3107427E+02  0.3107400E+02  0.0000000E+00
Ar 1425  0.1700867E+02  0.2848201E+02  0.3363307E+02  0.0000000E+00
Ar 1426  0.2015428E+02  0.3092726E+02  0.3358312E+02  0.0000000E+00
Ar 1427  0.2028906E+02  0.2811033E+02  0.3636737E+02  0.0000000E+00
Ar 1428  0.1763314E+02  0.3084683E+02  0.3609541E+02  0.0000000E+00
Ar 1429  0.1740207E+02  0.2788060E+02  0.3872566E+02  0.0000000E+00
Ar 1430  0.2012654E+02  0.3064720E+02  0.3907169E+02  0.0000000E+00
Ar 1431  0.1979872E+02  0.2807127E+02  0.4180961E+02  0.0000000E+00
Ar 1432  0.1716409E+02  0.3082082E+02  0.4175034E+02  0.0000000E+00
Ar 1433  0.1716270E+02  0.2799231E+02  0.4453480E+02  0.0000000E+00
Ar 1434  0.1990996E+02  0.3083845E+02  0.4447105E+02  0.0000000E+00
Ar 1435  0.1995487E+02  0.2800805E+02  0.4659816E+02  0.0000000E+00
Ar 1436  0.1726455E+02  0.3056780E+02  0.4730928E+02  0.0000000E+00
Ar 1437  0.1733541E+02  0.2782881E+02  0.4958350E+02  0.0000000E+00
Ar 1438  0.2002692E+02  0.3098456E+02  0.4957265E+02  0.0000000E+00
Ar 1439  0.1958636E+02  0.2808765E+02  0.5247328E+02  0.0000000E+00
Ar 1440  0.1745996E+02  0.3084987E+02  0.5235317E+02  0.0000000E+00
Ar 1441  0.1773727E+02  0.3444254E+02  0.6338615E+00  0.0000000E+00
Ar 1442  0.2014959E+02  0.3652201E+02  0.5529331E+02  0.0000000E+00
Ar 1443  0.1991397E+02  0.3393558E+02  0.2982726E+01  0.0000000E+00
Ar 1444  0.1738057E+02  0.3689735E+02  0.2986555E+01  0.0000000E+00
Ar 1445  0.1722596E+02  0.3392180E+02  0.6108615E+01  0.0000000E+00
Ar 1446  0.2020856E+02  0.3630274E+02  0.6266225E+01  0.0000000E+00
Ar 1447  0.1986821E+02  0.3338653E+02  0.9336856E+01  0.0000000E+00
Ar 1448  0.1727735E+02  0.3649708E+02  0.8859773E+01  0.0000000E+00
Ar 1449  0.1728884E+02  0.3312108E+02  0.1187772E+02  0.0000000E+00
Ar 1450  0.1981897E+02  0.3644933E+02  0.1164912E+02  0.0000000E+00
Ar 1451  0.2019587E+02  0.3366961E+02  0.1432145E+02  0.0000000E+00
Ar 1452  0.1729377E+02  0.3613699E+02  0.1446152E+02  0.0000000E+00
Ar 1453  0.1722781E+02  0.3363288E+02  0.1722740E+02  0.0000000E+00
Ar 1454  0.1991789E+02  0.3604486E+02  0.1734205E+02  0.0000000E+00
Ar 1455  0.2010341E+02  0.3351623E+02  0.2010306E+02  0.0000000E+00
Ar 1456  0.1734230E+02  0.3604478E+02  0.1991762E+02  0.0000000E+00
Ar 1457  0.1711570E+02  0.3355035E+02  0.2248523E+02  0.0000000E+00
Ar 1458  0.2010350E+02  0.3658175E+02  0.2268053E+02  0.0000000E+00
Ar 1459  0.1986843E+02  0.3367395E+02  0.2540883E+02  0.0000000E+00
Ar 1460  0.1716006E+02  0.3627273E+02  0.2514334E+02  0.0000000E+00
Ar 1461  0.1700884E+02  0.3363327E+02  0.2848178E+02  0.0000000E+00
Ar 1462  0.2028907E+02  0.3636771E+02  0.2811004E+02  0.0000000E+00
Ar 1463  0.2015432E+02  0.3358339E+02  0.3092696E+02  0.0000000E+00
Ar 1464  0.1763319E+02  0.3609573E+02  0.3084653E+02  0.0000000E+00
Ar 1465  0.1692004E+02  0.3343096E+02  0.3343068E+02  0.0000000E+00
Ar 1466  0.2012938E+02  0.3636737E+02  0.3361590E+02  0.0000000E+00
Ar 1467  0.2012938E+02  0.3361625E+02  0.3636717E+02  0.0000000E+00
Ar 1468  0.1751970E+02  0.3654976E+02  0.3654967E+02  0.0000000E+00
Ar 1469  0.1745126E+02  0.3335484E+02  0.3893746E+02  0.0000000E+00
Ar 1470  0.2015366E+02  0.3614118E+02  0.3896813E+02  0.0000000E+00
Ar 1471  0.2023808E+02  0.3355084E+02  0.4157267E+02  0.0000000E+00
Ar 1472  0.1746800E+02  0.3611912E+02  0.4155261E+02  0.0000000E+00
Ar 1473  0.1734806E+02  0.3378692E+02  0.4432471E+02  0.0000000E+00
Ar 1474  0.1966038E+02  0.3647571E+02  0.4449348E+02  0.0000000E+00
Ar 1475  0.1997224E+02  0.3395411E+02  0.4712833E+02  0.0000000E+00
Ar 1476  0.1717172E+02  0.3622663E+02  0.4710661E+02  0.0000000E+00
Ar 1477  0.1743958E+02  0.3374023E+02  0.4991920E+02  0.0000000E+00
Ar 1478  0.2006966E+02  0.3654293E+02  0.5013486E+02  0.0000000E+00
Ar 1479  0.1991164E+02  0.3330771E+02  0.5279735E+02  0.0000000E+00
Ar 1480  0.1699726E+02  0.3645190E+02  0.5300003E+02  0.0000000E+00
Ar 1481  0.1667555E+02  0.3863762E+02  0.5547745E+02  0.0000000E+00
Ar 1482  0.1958013E+02  0.4239548E+02  0.6355364E+00  0.0000000E+00
Ar 1483  0.2008253E+02  0.3910014E+02  0.3648407E+01  0.0000000E+00
Ar 1484  0.1756319E+02  0.4172438E+02  0.3635145E+01  0.0000000E+00
Ar 1485  0.1721050E+02  0.3905466E+02  0.6146964E+01  0.0000000E+00
Ar 1486  0.2000890E+02  0.4177331E+02  0.6299783E+01  0.0000000E+00
Ar 1487  0.1995500E+02  0.3928704E+02  0.8870777E+01  0.0000000E+00
Ar 1488  0.1723942E+02  0.4164088E+02  0.8867447E+01  0.0000000E+00
Ar 1489  0.1728833E+02  0.3908543E+02  0.1144589E+02  0.0000000E+00
Ar 1490  0.2000632E+02  0.4179215E+02  0.1171681E+02  0.0000000E+00
Ar 1491  0.1966988E+02  0.3903928E+02  0.1440087E+02  0.0000000E+00
Ar 1492  0.1740359E+02  0.4176355E+02  0.1426280E+02  0.0000000E+00
Ar 1493  0.1721008E+02  0.3892651E+02  0.1720985E+02  0.0000000E+00
Ar 1494  0.1983465E+02  0.4157952E+02  0.1696143E+02  0.0000000E+00
Ar 1495  0.1985437E+02  0.3926902E+02  0.1985399E+02  0.0000000E+00
Ar 1496  0.1696172E+02  0.4157948E+02  0.1983432E+02  0.0000000E+00
Ar 1497  0.1698063E+02  0.3904832E+02  0.2267756E+02  0.0000000E+00
Ar 1498  0.1996891E+02  0.4198322E+02  0.2255599E+02  0.0000000E+00
Ar 1499  0.1994219E+02  0.3919871E+02  0.2520721E+02  0.0000000E+00
Ar 1500  0.1723291E+02  0.4185658E+02  0.2526940E+02  0.0000000E+00
Ar 1501  0.1740209E+02  0.3872605E+02  0.2788031E+02  0.0000000E+00
Ar 1502  0.1979882E+02  0.4181000E+02  0.2807104E+02  0.0000000E+00
Ar 1503  0.2012660E+02  0.3907203E+02  0.3064684E+02  0.0000000E+00
Ar 1504  0.1716386E+02  0.4175101E+02  0.3082048E+02  0.0000000E+00
Ar 1505  0.1745143E+02  0.3893770E+02  0.3335455E+02  0.0000000E+00
Ar 1506  0.2023793E+02  0.4157283E+02  0.3355028E+02  0.0000000E+00
Ar 1507  0.2015336E+02  0.3896799E+02  0.3614075E+02  0.0000000E+00
Ar 1508  0.1746812E+02  0.4155260E+02  0.3611927E+02  0.0000000E+00
Ar 1509  0.1739312E+02  0.3905246E+02  0.3905251E+02  0.0000000E+00
Ar 1510  0.1975357E+02  0.4170648E+02  0.3879397E+02  0.0000000E+00
Ar 1511  0.1975217E+02  0.3879396E+02  0.4170700E+02  0.0000000E+00
Ar 1512  0.1732820E+02  0.4220016E+02  0.4219933E+02  0.0000000E+00
Ar 1513  0.1728758E+02  0.3921051E+02  0.4474058E+02  0.0000000E+00
Ar 1514  0.2023323E+02  0.4177390E+02  0.4456662E+02  0.0000000E+00
Ar 1515  0.1983188E+02  0.3894928E+02  0.4707119E+02  0.0000000E+00
Ar 1516  0.1743409E+02  0.4191877E+02  0.4722257E+02  0.0000000E+00
Ar 1517  0.1720377E+02  0.3907263E+02  0.5035772E+02  0.0000000E+00
Ar 1518  0.1986619E+02  0.4218627E+02  0.5014279E+02  0.0000000E+00
Ar 1519  0.2018999E+02  0.3947821E+02  0.5269070E+02  0.0000000E+00
Ar 1520  0.1689975E+02  0.4182684E+02  0.5301444E+02  0.0000000E+00
Ar 1521  0.1641346E+02  0.4453425E+02  0.5576514E+02  0.0000000E+00
Ar 1522  0.1898773E+02  0.4596375E+02  0.5563423E+02  0.0000000E+00
Ar 1523  0.1977941E+02  0.4502196E+02  0.3652422E+01  0.0000000E+00
Ar 1524  0.1687180E+02  0.4715729E+02  0.3260923E+01  0.0000000E+00
Ar 1525  0.1709616E+02  0.4409348E+02  0.6294919E+01  0.0000000E+00
Ar 1526  0.1963776E+02  0.4738078E+02  0.6312168E+01  0.0000000E+00
Ar 1527  0.1969464E+02  0.4433408E+02  0.8857571E+01  0.0000000E+00
Ar 1528  0.1751172E+02  0.4719627E+02  0.9161641E+01  0.0000000E+00
Ar 1529  0.1720177E+02  0.4458134E+02  0.1199674E+02  0.0000000E+00
Ar 1530  0.1991170E+02  0.4708918E+02  0.1173971E+02  0.0000000E+00
Ar 1531  0.2006003E+02  0.4451655E+02  0.1464410E+02  0.0000000E+00
Ar 1532  0.1742652E+02  0.4722525E+02  0.1487303E+02  0.0000000E+00
Ar 1533  0.1749365E+02  0.4419739E+02  0.1749352E+02  0.0000000E+00
Ar 1534  0.1995514E+02  0.4734272E+02  0.1730382E+02  0.0000000E+00
Ar 1535  0.1992506E+02  0.4471047E+02  0.1992493E+02  0.0000000E+00
Ar 1536  0.1730401E+02  0.4734283E+02  0.1995489E+02  0.0000000E+00
Ar 1537  0.1755752E+02  0.4470692E+02  0.2253698E+02  0.0000000E+00
Ar 1538  0.2011839E+02  0.4728051E+02  0.2253574E+02  0.0000000E+00
Ar 1539  0.2001034E+02  0.4435978E+02  0.2523290E+02  0.0000000E+00
Ar 1540  0.1728364E+02  0.4703750E+02  0.2516009E+02  0.0000000E+00
Ar 1541  0.1716258E+02  0.4453530E+02  0.2799220E+02  0.0000000E+00
Ar 1542  0.1995489E+02  0.4659856E+02  0.2800774E+02  0.0000000E+00
Ar 1543  0.1991001E+02  0.4447154E+02  0.3083818E+02  0.0000000E+00
Ar 1544  0.1726449E+02  0.4730999E+02  0.3056743E+02  0.0000000E+00
Ar 1545  0.1734754E+02  0.4432514E+02  0.3378663E+02  0.0000000E+00
Ar 1546  0.1997243E+02  0.4712859E+02  0.3395405E+02  0.0000000E+00
Ar 1547  0.1966017E+02  0.4449251E+02  0.3647512E+02  0.0000000E+00
Ar 1548  0.1717090E+02  0.4710720E+02  0.3622655E+02  0.0000000E+00
Ar 1549  0.1728641E+02  0.4474028E+02  0.3921129E+02  0.0000000E+00
Ar 1550  0.1983129E+02  0.4707030E+02  0.3894901E+02  0.0000000E+00
Ar 1551  0.2023416E+02  0.4456765E+02  0.4177340E+02  0.0000000E+00
Ar 1552  0.1743334E+02  0.4722239E+02  0.4191821E+02  0.0000000E+00
Ar 1553  0.1730288E+02  0.4466518E+02  0.4466052E+02  0.0000000E+00
Ar 1554  0.2012122E+02  0.4739617E+02  0.4444299E+02  0.0000000E+00
Ar 1555  0.2012005E+02  0.4444520E+02  0.4739505E+02  0.0000000E+00
Ar 1556  0.1740571E+02  0.4723653E+02  0.4722927E+02  0.0000000E+00
Ar 1557  0.1713735E+02  0.4441684E+02  0.5004148E+02  0.0000000E+00
Ar 1558  0.2029357E+02  0.4701629E+02  0.4992602E+02  0.0000000E+00
Ar 1559  0.1957345E+02  0.4473816E+02  0.5273117E+02  0.0000000E+00
Ar 1560  0.1728553E+02  0.4732032E+02  0.5257480E+02  0.0000000E+00
Ar 1561  0.1821835E+02  0.5103006E+02  0.5588570E+02  0.0000000E+00
Ar 1562  0.2038203E+02  0.5365954E+02  0.5545838E+02  0.0000000E+00
Ar 1563  0.1981073E+02  0.5045332E+02  0.3561611E+01  0.0000000E+00
Ar 1564  0.1732563E+02  0.5281085E+02  0.3832492E+01  0.0000000E+00
Ar 1565  0.1730171E+02  0.5027677E+02  0.6105203E+01  0.0000000E+00
Ar 1566  0.2020435E+02  0.5297879E+02  0.6570939E+01  0.0000000E+00
Ar 1567  0.2010350E+02  0.4999287E+02  0.8671310E+01  0.0000000E+00
Ar 1568  0.1756691E+02  0.5277533E+02  0.8962076E+01  0.0000000E+00
Ar 1569  0.1752774E+02  0.5014165E+02  0.1167236E+02  0.0000000E+00
Ar 1570  0.1993929E+02  0.5292059E+02  0.1159606E+02  0.0000000E+00
Ar 1571  0.1993834E+02  0.4986933E+02  0.1462444E+02  0.0000000E+00
Ar 1572  0.1744863E+02  0.5277233E+02  0.1445426E+02  0.0000000E+00
Ar 1573  0.1707057E+02  0.5017621E+02  0.1707040E+02  0.0000000E+00
Ar 1574  0.2002951E+02  0.5265687E+02  0.1719472E+02  0.0000000E+00
Ar 1575  0.2011806E+02  0.4999404E+02  0.2011786E+02  0.0000000E+00
Ar 1576  0.1719525E+02  0.5265705E+02  0.2002894E+02  0.0000000E+00
Ar 1577  0.1727790E+02  0.4983535E+02  0.2269543E+02  0.0000000E+00
Ar 1578  0.1985205E+02  0.5251763E+02  0.2272145E+02  0.0000000E+00
Ar 1579  0.1980018E+02  0.4968799E+02  0.2527863E+02  0.0000000E+00
Ar 1580  0.1735114E+02  0.5255002E+02  0.2502396E+02  0.0000000E+00
Ar 1581  0.1733486E+02  0.4958448E+02  0.2782813E+02  0.0000000E+00
Ar 1582  0.1958693E+02  0.5247346E+02  0.2808794E+02  0.0000000E+00
Ar 1583  0.2002736E+02  0.4957293E+02  0.3098421E+02  0.0000000E+00
Ar 1584  0.1745985E+02  0.5235360E+02  0.3084960E+02  0.0000000E+00
Ar 1585  0.1743933E+02  0.4991951E+02  0.3374047E+02  0.0000000E+00
Ar 1586  0.1991250E+02  0.5279894E+02  0.3330924E+02  0.0000000E+00
Ar 1587  0.2006973E+02  0.5013601E+02  0.3654161E+02  0.0000000E+00
Ar 1588  0.1699801E+02  0.5300229E+02  0.3645186E+02  0.0000000E+00
Ar 1589  0.1720346E+02  0.5035736E+02  0.3907194E+02  0.0000000E+00
Ar 1590  0.2019176E+02  0.5268842E+02  0.3947901E+02  0.0000000E+00
Ar 1591  0.1986649E+02  0.5014362E+02  0.4218657E+02  0.0000000E+00
Ar 1592  0.1689742E+02  0.5302303E+02  0.4182731E+02  0.0000000E+00
Ar 1593  0.1713723E+02  0.5004597E+02  0.4442012E+02  0.0000000E+00
Ar 1594  0.1954714E+02  0.5271654E+02  0.4476288E+02  0.0000000E+00
Ar 1595  0.2029221E+02  0.4992416E+02  0.4701840E+02  0.0000000E+00
Ar 1596  0.1729274E+02  0.5276767E+02  0.4739970E+02  0.0000000E+00
Ar 1597  0.1848477E+02  0.4991104E+02  0.4992157E+02  0.0000000E+00
Ar 1598  0.2010912E+02  0.5328888E+02  0.4945767E+02  0.0000000E+00
Ar 1599  0.2014116E+02  0.4933810E+02  0.5337806E+02  0.0000000E+00
Ar 1600  0.1799407E+02  0.5247218E+02  0.5253502E+02  0.0000000E+00
Ar 1601  0.2409287E+02  0.5479884E+02  0.5439552E+02  0.0000000E+00
Ar 1602  0.2410469E+02  0.2890811E+01  0.3985007E+00  0.0000000E+00
Ar 1603  0.2406206E+02  0.2551125E+00  0.2584923E+01  0.0000000E+00
Ar 1604  0.2286330E+02  0.3552513E+01  0.3549461E+01  0.0000000E+00
Ar 1605  0.2337699E+02  0.5550188E+02  0.6493009E+01  0.0000000E+00
Ar 1606  0.2499849E+02  0.3079568E+01  0.6494855E+01  0.0000000E+00
Ar 1607  0.2459086E+02  0.5206172E+00  0.8913323E+01  0.0000000E+00
Ar 1608  0.2234360E+02  0.3120797E+01  0.9049488E+01  0.0000000E+00
Ar 1609  0.2280542E+02  0.5537458E+02  0.1188550E+02  0.0000000E+00
Ar 1610  0.2557893E+02  0.3338684E+01  0.1172905E+02  0.0000000E+00
Ar 1611  0.2523721E+02  0.6057868E+00  0.1472094E+02  0.0000000E+00
Ar 1612  0.2241200E+02  0.3238475E+01  0.1436935E+02  0.0000000E+00
Ar 1613  0.2219142E+02  0.3489401E+00  0.1735547E+02  0.0000000E+00
Ar 1614  0.2511623E+02  0.3319535E+01  0.1704066E+02  0.0000000E+00
Ar 1615  0.2510372E+02  0.7380410E+00  0.1962491E+02  0.0000000E+00
Ar 1616  0.2246217E+02  0.3498147E+01  0.1963726E+02  0.0000000E+00
Ar 1617  0.2322908E+02  0.6556114E+00  0.2322844E+02  0.0000000E+00
Ar 1618  0.2538468E+02  0.3735220E+01  0.2243702E+02  0.0000000E+00
Ar 1619  0.2610915E+02  0.5521894E+02  0.2610889E+02  0.0000000E+00
Ar 1620  0.2243753E+02  0.3735185E+01  0.2538423E+02  0.0000000E+00
Ar 1621  0.2122086E+02  0.5549355E+02  0.2819418E+02  0.0000000E+00
Ar 1622  0.2524552E+02  0.3838937E+01  0.2812139E+02  0.0000000E+00
Ar 1623  0.2463678E+02  0.5570578E+02  0.2999298E+02  0.0000000E+00
Ar 1624  0.2232559E+02  0.3292242E+01  0.3101740E+02  0.0000000E+00
Ar 1625  0.2305807E+02  0.5542559E+02  0.3318103E+02  0.0000000E+00
Ar 1626  0.2556505E+02  0.3580920E+01  0.3329965E+02  0.0000000E+00
Ar 1627  0.2505641E+02  0.5559236E+02  0.3590367E+02  0.0000000E+00
Ar 1628  0.2289267E+02  0.3192659E+01  0.3587078E+02  0.0000000E+00
Ar 1629  0.2254764E+02  0.5537091E+02  0.3953972E+02  0.0000000E+00
Ar 1630  0.2531080E+02  0.3216978E+01  0.3907251E+02  0.0000000E+00
Ar 1631  0.2556743E+02  0.5543787E+02  0.4158401E+02  0.0000000E+00
Ar 1632  0.2272085E+02  0.3442722E+01  0.4195799E+02  0.0000000E+00
Ar 1633  0.2388806E+02  0.5494140E+02  0.4462604E+02  0.0000000E+00
Ar 1634  0.2539994E+02  0.2993896E+01  0.4420843E+02  0.0000000E+00
Ar 1635  0.2525832E+02  0.5576898E+02  0.4735656E+02  0.0000000E+00
Ar 1636  0.2281927E+02  0.3129384E+01  0.4732756E+02  0.0000000E+00
Ar 1637  0.2192504E+02  0.5550180E+02  0.5078814E+02  0.0000000E+00
Ar 1638  0.2561427E+02  0.3829740E+01  0.5034426E+02  0.0000000E+00
Ar 1639  0.2774493E+02  0.5585448E+02  0.5237009E+02  0.0000000E+00
Ar 1640  0.2258211E+02  0.3528458E+01  0.5263812E+02  0.0000000E+00
Ar 1641  0.2299896E+02  0.6493236E+01  0.3595107E+00  0.0000000E+00
Ar 1642  0.2433712E+02  0.8688562E+01  0.5153700E+00  0.0000000E+00
Ar 1643  0.2504143E+02  0.6502815E+01  0.3107283E+01  0.0000000E+00
Ar 1644  0.2234860E+02  0.9047284E+01  0.3128999E+01  0.0000000E+00
Ar 1645  0.2225752E+02  0.6175692E+01  0.6168524E+01  0.0000000E+00
Ar 1646  0.2533747E+02  0.8700638E+01  0.5966840E+01  0.0000000E+00
Ar 1647  0.2535645E+02  0.5959114E+01  0.8707843E+01  0.0000000E+00
Ar 1648  0.2258307E+02  0.8760648E+01  0.8761897E+01  0.0000000E+00
Ar 1649  0.2231470E+02  0.6299009E+01  0.1146690E+02  0.0000000E+00
Ar 1650  0.2517660E+02  0.8802862E+01  0.1165845E+02  0.0000000E+00
Ar 1651  0.2507554E+02  0.6075079E+01  0.1410854E+02  0.0000000E+00
Ar 1652  0.2227509E+02  0.8876721E+01  0.1435212E+02  0.0000000E+00
Ar 1653  0.2248232E+02  0.6004902E+01  0.1701556E+02  0.0000000E+00
Ar 1654  0.2525981E+02  0.8663374E+01  0.1711429E+02  0.0000000E+00
Ar 1655  0.2514321E+02  0.5881018E+01  0.1953941E+02  0.0000000E+00
Ar 1656  0.2265023E+02  0.8793936E+01  0.1964644E+02  0.0000000E+00
Ar 1657  0.2246390E+02  0.5978857E+01  0.2246342E+02  0.0000000E+00
Ar 1658  0.2532715E+02  0.8721162E+01  0.2266927E+02  0.0000000E+00
Ar 1659  0.2520271E+02  0.6347579E+01  0.2520232E+02  0.0000000E+00
Ar 1660  0.2266965E+02  0.8721272E+01  0.2532673E+02  0.0000000E+00
Ar 1661  0.2264902E+02  0.6207861E+01  0.2817712E+02  0.0000000E+00
Ar 1662  0.2521122E+02  0.8852038E+01  0.2785730E+02  0.0000000E+00
Ar 1663  0.2542103E+02  0.6313562E+01  0.3078499E+02  0.0000000E+00
Ar 1664  0.2282597E+02  0.8999791E+01  0.3095113E+02  0.0000000E+00
Ar 1665  0.2263605E+02  0.6038789E+01  0.3350841E+02  0.0000000E+00
Ar 1666  0.2541645E+02  0.9073197E+01  0.3352306E+02  0.0000000E+00
Ar 1667  0.2561591E+02  0.6304668E+01  0.3656777E+02  0.0000000E+00
Ar 1668  0.2261191E+02  0.9034013E+01  0.3630128E+02  0.0000000E+00
Ar 1669  0.2281768E+02  0.6341724E+01  0.3877760E+02  0.0000000E+00
Ar 1670  0.2532919E+02  0.9289427E+01  0.3896288E+02  0.0000000E+00
Ar 1671  0.2532726E+02  0.6402489E+01  0.4184115E+02  0.0000000E+00
Ar 1672  0.2258594E+02  0.9051367E+01  0.4170858E+02  0.0000000E+00
Ar 1673  0.2271379E+02  0.6109661E+01  0.4444792E+02  0.0000000E+00
Ar 1674  0.2521915E+02  0.8858821E+01  0.4470454E+02  0.0000000E+00
Ar 1675  0.2511691E+02  0.6199021E+01  0.4723104E+02  0.0000000E+00
Ar 1676  0.2226214E+02  0.9025315E+01  0.4703349E+02  0.0000000E+00
Ar 1677  0.2239881E+02  0.5981824E+01  0.4998065E+02  0.0000000E+00
Ar 1678  0.2501267E+02  0.9062790E+01  0.4977186E+02  0.0000000E+00
Ar 1679  0.2523830E+02  0.6288145E+01  0.5277737E+02  0.0000000E+00
Ar 1680  0.2275936E+02  0.8806670E+01  0.5273277E+02  0.0000000E+00
Ar 1681  0.2280478E+02  0.1189358E+02  0.5537441E+02  0.0000000E+00
Ar 1682  0.2523372E+02  0.1471718E+02  0.6045601E+00  0.0000000E+00
Ar 1683  0.2556975E+02  0.1173904E+02  0.3337190E+01  0.0000000E+00
Ar 1684  0.2241210E+02  0.1436897E+02  0.3238273E+01  0.0000000E+00
Ar 1685  0.2231590E+02  0.1146732E+02  0.6299992E+01  0.0000000E+00
Ar 1686  0.2507372E+02  0.1411069E+02  0.6075387E+01  0.0000000E+00
Ar 1687  0.2517761E+02  0.1165815E+02  0.8803698E+01  0.0000000E+00
Ar 1688  0.2227565E+02  0.1435141E+02  0.8876317E+01  0.0000000E+00
Ar 1689  0.2271434E+02  0.1180996E+02  0.1180975E+02  0.0000000E+00
Ar 1690  0.2535842E+02  0.1438670E+02  0.1131432E+02  0.0000000E+00
Ar 1691  0.2535870E+02  0.1131485E+02  0.1438670E+02  0.0000000E+00
Ar 1692  0.2228119E+02  0.1444520E+02  0.1444510E+02  0.0000000E+00
Ar 1693  0.2277555E+02  0.1187059E+02  0.1711076E+02  0.0000000E+00
Ar 1694  0.2530066E+02  0.1435706E+02  0.1704613E+02  0.0000000E+00
Ar 1695  0.2535488E+02  0.1156718E+02  0.1984572E+02  0.0000000E+00
Ar 1696  0.2256783E+02  0.1432159E+02  0.2002342E+02  0.0000000E+00
Ar 1697  0.2272120E+02  0.1175963E+02  0.2272086E+02  0.0000000E+00
Ar 1698  0.2512098E+02  0.1425051E+02  0.2264084E+02  0.0000000E+00
Ar 1699  0.2529558E+02  0.1148703E+02  0.2529524E+02  0.0000000E+00
Ar 1700  0.2264118E+02  0.1425053E+02  0.2512061E+02  0.0000000E+00
Ar 1701  0.2258288E+02  0.1150990E+02  0.2775902E+02  0.0000000E+00
Ar 1702  0.2528332E+02  0.1442130E+02  0.2812925E+02  0.0000000E+00
Ar 1703  0.2572333E+02  0.1171991E+02  0.3073862E+02  0.0000000E+00
Ar 1704  0.2293091E+02  0.1410383E+02  0.3093429E+02  0.0000000E+00
Ar 1705  0.2271364E+02  0.1165694E+02  0.3355322E+02  0.0000000E+00
Ar 1706  0.2526906E+02  0.1448087E+02  0.3346026E+02  0.0000000E+00
Ar 1707  0.2504262E+02  0.1189570E+02  0.3637649E+02  0.0000000E+00
Ar 1708  0.2220469E+02  0.1441698E+02  0.3655643E+02  0.0000000E+00
Ar 1709  0.2224973E+02  0.1180002E+02  0.3889531E+02  0.0000000E+00
Ar 1710  0.2538098E+02  0.1455066E+02  0.3914076E+02  0.0000000E+00
Ar 1711  0.2523082E+02  0.1146310E+02  0.4203309E+02  0.0000000E+00
Ar 1712  0.2235616E+02  0.1456912E+02  0.4177024E+02  0.0000000E+00
Ar 1713  0.2239769E+02  0.1168378E+02  0.4458874E+02  0.0000000E+00
Ar 1714  0.2528734E+02  0.1420263E+02  0.4451281E+02  0.0000000E+00
Ar 1715  0.2507499E+02  0.1183821E+02  0.4739328E+02  0.0000000E+00
Ar 1716  0.2259200E+02  0.1496619E+02  0.4709231E+02  0.0000000E+00
Ar 1717  0.2235221E+02  0.1149032E+02  0.4980164E+02  0.0000000E+00
Ar 1718  0.2535272E+02  0.1467595E+02  0.4983433E+02  0.0000000E+00
Ar 1719  0.2519393E+02  0.1139802E+02  0.5234569E+02  0.0000000E+00
Ar 1720  0.2253424E+02  0.1426540E+02  0.5214002E+02  0.0000000E+00
Ar 1721  0.2219152E+02  0.1735574E+02  0.3488002E+00  0.0000000E+00
Ar 1722  0.2510367E+02  0.1962534E+02  0.7380760E+00  0.0000000E+00
Ar 1723  0.2511612E+02  0.1704008E+02  0.3317880E+01  0.0000000E+00
Ar 1724  0.2246193E+02  0.1963799E+02  0.3498122E+01  0.0000000E+00
Ar 1725  0.2248204E+02  0.1701573E+02  0.6004852E+01  0.0000000E+00
Ar 1726  0.2514328E+02  0.1953949E+02  0.5880712E+01  0.0000000E+00
Ar 1727  0.2525968E+02  0.1711482E+02  0.8663297E+01  0.0000000E+00
Ar 1728  0.2265018E+02  0.1964675E+02  0.8793794E+01  0.0000000E+00
Ar 1729  0.2277546E+02  0.1711101E+02  0.1187051E+02  0.0000000E+00
Ar 1730  0.2535482E+02  0.1984603E+02  0.1156711E+02  0.0000000E+00
Ar 1731  0.2530062E+02  0.1704633E+02  0.1435692E+02  0.0000000E+00
Ar 1732  0.2256778E+02  0.2002368E+02  0.1432146E+02  0.0000000E+00
Ar 1733  0.2245351E+02  0.1697239E+02  0.1697219E+02  0.0000000E+00
Ar 1734  0.2543333E+02  0.1991637E+02  0.1685299E+02  0.0000000E+00
Ar 1735  0.2543339E+02  0.1685318E+02  0.1991612E+02  0.0000000E+00
Ar 1736  0.2276609E+02  0.1987207E+02  0.1987187E+02  0.0000000E+00
Ar 1737  0.2275990E+02  0.1729168E+02  0.2275963E+02  0.0000000E+00
Ar 1738  0.2521393E+02  0.2001676E+02  0.2268326E+02  0.0000000E+00
Ar 1739  0.2547173E+02  0.1728086E+02  0.2547142E+02  0.0000000E+00
Ar 1740  0.2268355E+02  0.2001673E+02  0.2521358E+02  0.0000000E+00
Ar 1741  0.2276795E+02  0.1737747E+02  0.2790975E+02  0.0000000E+00
Ar 1742  0.2500458E+02  0.2004349E+02  0.2802111E+02  0.0000000E+00
Ar 1743  0.2539990E+02  0.1727435E+02  0.3099522E+02  0.0000000E+00
Ar 1744  0.2264986E+02  0.1979424E+02  0.3095265E+02  0.0000000E+00
Ar 1745  0.2248528E+02  0.1711573E+02  0.3354995E+02  0.0000000E+00
Ar 1746  0.2540917E+02  0.1986845E+02  0.3367352E+02  0.0000000E+00
Ar 1747  0.2514358E+02  0.1716032E+02  0.3627212E+02  0.0000000E+00
Ar 1748  0.2268077E+02  0.2010346E+02  0.3658139E+02  0.0000000E+00
Ar 1749  0.2267754E+02  0.1698086E+02  0.3904768E+02  0.0000000E+00
Ar 1750  0.2520753E+02  0.1994211E+02  0.3919829E+02  0.0000000E+00
Ar 1751  0.2526953E+02  0.1723300E+02  0.4185604E+02  0.0000000E+00
Ar 1752  0.2255613E+02  0.1996886E+02  0.4198277E+02  0.0000000E+00
Ar 1753  0.2253703E+02  0.1755776E+02  0.4470636E+02  0.0000000E+00
Ar 1754  0.2523308E+02  0.2001037E+02  0.4435927E+02  0.0000000E+00
Ar 1755  0.2516057E+02  0.1728373E+02  0.4703677E+02  0.0000000E+00
Ar 1756  0.2253610E+02  0.2011876E+02  0.4728013E+02  0.0000000E+00
Ar 1757  0.2269552E+02  0.1727806E+02  0.4983469E+02  0.0000000E+00
Ar 1758  0.2527869E+02  0.1980025E+02  0.4968758E+02  0.0000000E+00
Ar 1759  0.2502366E+02  0.1735130E+02  0.5254924E+02  0.0000000E+00
Ar 1760  0.2272101E+02  0.1985258E+02  0.5251719E+02  0.0000000E+00
Ar 1761  0.2322950E+02  0.2322933E+02  0.6558383E+00  0.0000000E+00
Ar 1762  0.2610915E+02  0.2610901E+02  0.5521837E+02  0.0000000E+00
Ar 1763  0.2538469E+02  0.2243723E+02  0.3735074E+01  0.0000000E+00
Ar 1764  0.2243737E+02  0.2538469E+02  0.3735151E+01  0.0000000E+00
Ar 1765  0.2246378E+02  0.2246374E+02  0.5978612E+01  0.0000000E+00
Ar 1766  0.2520272E+02  0.2520263E+02  0.6347434E+01  0.0000000E+00
Ar 1767  0.2532719E+02  0.2266954E+02  0.8720970E+01  0.0000000E+00
Ar 1768  0.2266964E+02  0.2532706E+02  0.8721030E+01  0.0000000E+00
Ar 1769  0.2272119E+02  0.2272113E+02  0.1175942E+02  0.0000000E+00
Ar 1770  0.2529561E+02  0.2529553E+02  0.1148683E+02  0.0000000E+00
Ar 1771  0.2512091E+02  0.2264116E+02  0.1425037E+02  0.0000000E+00
Ar 1772  0.2264119E+02  0.2512088E+02  0.1425033E+02  0.0000000E+00
Ar 1773  0.2275990E+02  0.2275985E+02  0.1729152E+02  0.0000000E+00
Ar 1774  0.2547176E+02  0.2547170E+02  0.1728066E+02  0.0000000E+00
Ar 1775  0.2521394E+02  0.2268351E+02  0.2001654E+02  0.0000000E+00
Ar 1776  0.2268358E+02  0.2521385E+02  0.2001651E+02  0.0000000E+00
Ar 1777  0.2243027E+02  0.2243022E+02  0.2243000E+02  0.0000000E+00
Ar 1778  0.2519433E+02  0.2519425E+02  0.2265708E+02  0.0000000E+00
Ar 1779  0.2519432E+02  0.2265733E+02  0.2519397E+02  0.0000000E+00
Ar 1780  0.2265738E+02  0.2519423E+02  0.2519398E+02  0.0000000E+00
Ar 1781  0.2266402E+02  0.2266396E+02  0.2835476E+02  0.0000000E+00
Ar 1782  0.2518353E+02  0.2518346E+02  0.2815320E+02  0.0000000E+00
Ar 1783  0.2516466E+02  0.2268013E+02  0.3124552E+02  0.0000000E+00
Ar 1784  0.2268015E+02  0.2516459E+02  0.3124552E+02  0.0000000E+00
Ar 1785  0.2253119E+02  0.2253114E+02  0.3392228E+02  0.0000000E+00
Ar 1786  0.2525405E+02  0.2525398E+02  0.3371215E+02  0.0000000E+00
Ar 1787  0.2552761E+02  0.2276372E+02  0.3655848E+02  0.0000000E+00
Ar 1788  0.2276377E+02  0.2552758E+02  0.3655849E+02  0.0000000E+00
Ar 1789  0.2242431E+02  0.2242428E+02  0.3914426E+02  0.0000000E+00
Ar 1790  0.2536175E+02  0.2536169E+02  0.3900761E+02  0.0000000E+00
Ar 1791  0.2552993E+02  0.2271731E+02  0.4196915E+02  0.0000000E+00
Ar 1792  0.2271717E+02  0.2552996E+02  0.4196924E+02  0.0000000E+00
Ar 1793  0.2287639E+02  0.2287653E+02  0.4448639E+02  0.0000000E+00
Ar 1794  0.2567178E+02  0.2567178E+02  0.4509862E+02  0.0000000E+00
Ar 1795  0.2533695E+02  0.2255627E+02  0.4719020E+02  0.0000000E+00
Ar 1796  0.2255611E+02  0.2533705E+02  0.4719020E+02  0.0000000E+00
Ar 1797  0.2297367E+02  0.2297377E+02  0.5023247E+02  0.0000000E+00
Ar 1798  0.2541070E+02  0.2541079E+02  0.4936352E+02  0.0000000E+00
Ar 1799  0.2549527E+02  0.2242971E+02  0.5302790E+02  0.0000000E+00
Ar 1800  0.2242970E+02  0.2549535E+02  0.5302785E+02  0.0000000E+00
Ar 1801  0.2121992E+02  0.2819371E+02  0.5549294E+02  0.0000000E+00
Ar 1802  0.2463739E+02  0.2999297E+02  0.5570534E+02  0.0000000E+00
Ar 1803  0.2524559E+02  0.2812170E+02  0.3838903E+01  0.0000000E+00
Ar 1804  0.2232555E+02  0.3101619E+02  0.3293686E+01  0.0000000E+00
Ar 1805  0.2264843E+02  0.2817743E+02  0.6207147E+01  0.0000000E+00
Ar 1806  0.2542103E+02  0.3078526E+02  0.6313481E+01  0.0000000E+00
Ar 1807  0.2521121E+02  0.2785756E+02  0.8851792E+01  0.0000000E+00
Ar 1808  0.2282595E+02  0.3095152E+02  0.8999634E+01  0.0000000E+00
Ar 1809  0.2258285E+02  0.2775929E+02  0.1150972E+02  0.0000000E+00
Ar 1810  0.2572343E+02  0.3073895E+02  0.1171975E+02  0.0000000E+00
Ar 1811  0.2528338E+02  0.2812954E+02  0.1442111E+02  0.0000000E+00
Ar 1812  0.2293101E+02  0.3093466E+02  0.1410362E+02  0.0000000E+00
Ar 1813  0.2276798E+02  0.2791003E+02  0.1737727E+02  0.0000000E+00
Ar 1814  0.2539995E+02  0.3099563E+02  0.1727407E+02  0.0000000E+00
Ar 1815  0.2500461E+02  0.2802142E+02  0.2004327E+02  0.0000000E+00
Ar 1816  0.2264991E+02  0.3095299E+02  0.1979400E+02  0.0000000E+00
Ar 1817  0.2266404E+02  0.2835507E+02  0.2266372E+02  0.0000000E+00
Ar 1818  0.2516469E+02  0.3124586E+02  0.2267987E+02  0.0000000E+00
Ar 1819  0.2518355E+02  0.2815350E+02  0.2518320E+02  0.0000000E+00
Ar 1820  0.2268020E+02  0.3124584E+02  0.2516434E+02  0.0000000E+00
Ar 1821  0.2262454E+02  0.2814149E+02  0.2814120E+02  0.0000000E+00
Ar 1822  0.2539464E+02  0.3103748E+02  0.2817639E+02  0.0000000E+00
Ar 1823  0.2539461E+02  0.2817669E+02  0.3103717E+02  0.0000000E+00
Ar 1824  0.2290546E+02  0.3094093E+02  0.3094062E+02  0.0000000E+00
Ar 1825  0.2287776E+02  0.2820128E+02  0.3379356E+02  0.0000000E+00
Ar 1826  0.2564495E+02  0.3108578E+02  0.3355399E+02  0.0000000E+00
Ar 1827  0.2538351E+02  0.2823966E+02  0.3635268E+02  0.0000000E+00
Ar 1828  0.2292517E+02  0.3083765E+02  0.3649483E+02  0.0000000E+00
Ar 1829  0.2268957E+02  0.2820632E+02  0.3926511E+02  0.0000000E+00
Ar 1830  0.2546355E+02  0.3072799E+02  0.3933439E+02  0.0000000E+00
Ar 1831  0.2551167E+02  0.2804344E+02  0.4210930E+02  0.0000000E+00
Ar 1832  0.2266330E+02  0.3071568E+02  0.4183117E+02  0.0000000E+00
Ar 1833  0.2295134E+02  0.2798862E+02  0.4448563E+02  0.0000000E+00
Ar 1834  0.2528679E+02  0.3102593E+02  0.4434663E+02  0.0000000E+00
Ar 1835  0.2527941E+02  0.2853931E+02  0.4743785E+02  0.0000000E+00
Ar 1836  0.2281146E+02  0.3115690E+02  0.4707893E+02  0.0000000E+00
Ar 1837  0.2238593E+02  0.2808656E+02  0.4967353E+02  0.0000000E+00
Ar 1838  0.2548109E+02  0.3093489E+02  0.5012923E+02  0.0000000E+00
Ar 1839  0.2515633E+02  0.2783654E+02  0.5210132E+02  0.0000000E+00
Ar 1840  0.2270057E+02  0.3095526E+02  0.5243139E+02  0.0000000E+00
Ar 1841  0.2305399E+02  0.3318026E+02  0.5542387E+02  0.0000000E+00
Ar 1842  0.2505826E+02  0.3590675E+02  0.5559278E+02  0.0000000E+00
Ar 1843  0.2556423E+02  0.3330009E+02  0.3580726E+01  0.0000000E+00
Ar 1844  0.2289106E+02  0.3587053E+02  0.3193114E+01  0.0000000E+00
Ar 1845  0.2263544E+02  0.3350863E+02  0.6038486E+01  0.0000000E+00
Ar 1846  0.2561542E+02  0.3656833E+02  0.6305032E+01  0.0000000E+00
Ar 1847  0.2541651E+02  0.3352359E+02  0.9073260E+01  0.0000000E+00
Ar 1848  0.2261185E+02  0.3630188E+02  0.9033326E+01  0.0000000E+00
Ar 1849  0.2271355E+02  0.3355383E+02  0.1165653E+02  0.0000000E+00
Ar 1850  0.2504229E+02  0.3637692E+02  0.1189551E+02  0.0000000E+00
Ar 1851  0.2526915E+02  0.3346078E+02  0.1448050E+02  0.0000000E+00
Ar 1852  0.2220475E+02  0.3655690E+02  0.1441657E+02  0.0000000E+00
Ar 1853  0.2248543E+02  0.3355035E+02  0.1711541E+02  0.0000000E+00
Ar 1854  0.2514362E+02  0.3627267E+02  0.1715989E+02  0.0000000E+00
Ar 1855  0.2540922E+02  0.3367393E+02  0.1986814E+02  0.0000000E+00
Ar 1856  0.2268087E+02  0.3658177E+02  0.2010319E+02  0.0000000E+00
Ar 1857  0.2253125E+02  0.3392264E+02  0.2253088E+02  0.0000000E+00
Ar 1858  0.2552766E+02  0.3655888E+02  0.2276344E+02  0.0000000E+00
Ar 1859  0.2525408E+02  0.3371248E+02  0.2525371E+02  0.0000000E+00
Ar 1860  0.2276383E+02  0.3655886E+02  0.2552731E+02  0.0000000E+00
Ar 1861  0.2287781E+02  0.3379386E+02  0.2820100E+02  0.0000000E+00
Ar 1862  0.2538354E+02  0.3635306E+02  0.2823935E+02  0.0000000E+00
Ar 1863  0.2564495E+02  0.3355430E+02  0.3108540E+02  0.0000000E+00
Ar 1864  0.2292519E+02  0.3649506E+02  0.3083720E+02  0.0000000E+00
Ar 1865  0.2279686E+02  0.3363155E+02  0.3363127E+02  0.0000000E+00
Ar 1866  0.2563613E+02  0.3640724E+02  0.3363879E+02  0.0000000E+00
Ar 1867  0.2563621E+02  0.3363939E+02  0.3640715E+02  0.0000000E+00
Ar 1868  0.2275444E+02  0.3632019E+02  0.3632007E+02  0.0000000E+00
Ar 1869  0.2278157E+02  0.3353686E+02  0.3906694E+02  0.0000000E+00
Ar 1870  0.2568530E+02  0.3632299E+02  0.3892227E+02  0.0000000E+00
Ar 1871  0.2541517E+02  0.3378046E+02  0.4169849E+02  0.0000000E+00
Ar 1872  0.2267869E+02  0.3644268E+02  0.4159449E+02  0.0000000E+00
Ar 1873  0.2269162E+02  0.3375206E+02  0.4451057E+02  0.0000000E+00
Ar 1874  0.2549970E+02  0.3625059E+02  0.4431115E+02  0.0000000E+00
Ar 1875  0.2526996E+02  0.3384818E+02  0.4748941E+02  0.0000000E+00
Ar 1876  0.2270254E+02  0.3640727E+02  0.4747145E+02  0.0000000E+00
Ar 1877  0.2253538E+02  0.3369531E+02  0.5011276E+02  0.0000000E+00
Ar 1878  0.2545396E+02  0.3654353E+02  0.5014929E+02  0.0000000E+00
Ar 1879  0.2552233E+02  0.3383073E+02  0.5274016E+02  0.0000000E+00
Ar 1880  0.2268473E+02  0.3647297E+02  0.5256624E+02  0.0000000E+00
Ar 1881  0.2254347E+02  0.3953602E+02  0.5536922E+02  0.0000000E+00
Ar 1882  0.2555649E+02  0.4157750E+02  0.5543466E+02  0.0000000E+00
Ar 1883  0.2531132E+02  0.3907112E+02  0.3219237E+01  0.0000000E+00
Ar 1884  0.2272241E+02  0.4195795E+02  0.3441847E+01  0.0000000E+00
Ar 1885  0.2281767E+02  0.3877791E+02  0.6341558E+01  0.0000000E+00
Ar 1886  0.2532635E+02  0.4183975E+02  0.6402368E+01  0.0000000E+00
Ar 1887  0.2532845E+02  0.3896279E+02  0.9290170E+01  0.0000000E+00
Ar 1888  0.2258527E+02  0.4170975E+02  0.9051926E+01  0.0000000E+00
Ar 1889  0.2224978E+02  0.3889595E+02  0.1179941E+02  0.0000000E+00
Ar 1890  0.2523021E+02  0.4203387E+02  0.1146298E+02  0.0000000E+00
Ar 1891  0.2538142E+02  0.3914174E+02  0.1454996E+02  0.0000000E+00
Ar 1892  0.2235654E+02  0.4177074E+02  0.1456845E+02  0.0000000E+00
Ar 1893  0.2267783E+02  0.3904825E+02  0.1698029E+02  0.0000000E+00
Ar 1894  0.2526959E+02  0.4185657E+02  0.1723272E+02  0.0000000E+00
Ar 1895  0.2520759E+02  0.3919872E+02  0.1994184E+02  0.0000000E+00
Ar 1896  0.2255621E+02  0.4198319E+02  0.1996859E+02  0.0000000E+00
Ar 1897  0.2242439E+02  0.3914466E+02  0.2242401E+02  0.0000000E+00
Ar 1898  0.2552999E+02  0.4196957E+02  0.2271704E+02  0.0000000E+00
Ar 1899  0.2536180E+02  0.3900802E+02  0.2536140E+02  0.0000000E+00
Ar 1900  0.2271726E+02  0.4196966E+02  0.2552969E+02  0.0000000E+00
Ar 1901  0.2268964E+02  0.3926549E+02  0.2820603E+02  0.0000000E+00
Ar 1902  0.2551173E+02  0.4210972E+02  0.2804319E+02  0.0000000E+00
Ar 1903  0.2546362E+02  0.3933477E+02  0.3072769E+02  0.0000000E+00
Ar 1904  0.2266338E+02  0.4183154E+02  0.3071542E+02  0.0000000E+00
Ar 1905  0.2278131E+02  0.3906656E+02  0.3353547E+02  0.0000000E+00
Ar 1906  0.2541536E+02  0.4169860E+02  0.3377984E+02  0.0000000E+00
Ar 1907  0.2568510E+02  0.3892218E+02  0.3632170E+02  0.0000000E+00
Ar 1908  0.2267876E+02  0.4159459E+02  0.3644162E+02  0.0000000E+00
Ar 1909  0.2276544E+02  0.3901466E+02  0.3901383E+02  0.0000000E+00
Ar 1910  0.2543698E+02  0.4156058E+02  0.3893517E+02  0.0000000E+00
Ar 1911  0.2543653E+02  0.3893526E+02  0.4155924E+02  0.0000000E+00
Ar 1912  0.2292790E+02  0.4148858E+02  0.4148757E+02  0.0000000E+00
Ar 1913  0.2269158E+02  0.3897423E+02  0.4443629E+02  0.0000000E+00
Ar 1914  0.2537568E+02  0.4150544E+02  0.4424600E+02  0.0000000E+00
Ar 1915  0.2559359E+02  0.3885579E+02  0.4711594E+02  0.0000000E+00
Ar 1916  0.2295312E+02  0.4209164E+02  0.4685654E+02  0.0000000E+00
Ar 1917  0.2246330E+02  0.3947236E+02  0.4932273E+02  0.0000000E+00
Ar 1918  0.2570010E+02  0.4167361E+02  0.4958507E+02  0.0000000E+00
Ar 1919  0.2579925E+02  0.3905868E+02  0.5280007E+02  0.0000000E+00
Ar 1920  0.2308758E+02  0.4172013E+02  0.5249679E+02  0.0000000E+00
Ar 1921  0.2388316E+02  0.4459260E+02  0.5493055E+02  0.0000000E+00
Ar 1922  0.2514273E+02  0.4729578E+02  0.5577264E+02  0.0000000E+00
Ar 1923  0.2540205E+02  0.4421536E+02  0.2990961E+01  0.0000000E+00
Ar 1924  0.2285990E+02  0.4732645E+02  0.3092211E+01  0.0000000E+00
Ar 1925  0.2271017E+02  0.4444507E+02  0.6108572E+01  0.0000000E+00
Ar 1926  0.2511332E+02  0.4723338E+02  0.6208912E+01  0.0000000E+00
Ar 1927  0.2521850E+02  0.4470183E+02  0.8862549E+01  0.0000000E+00
Ar 1928  0.2226125E+02  0.4703307E+02  0.9026602E+01  0.0000000E+00
Ar 1929  0.2239790E+02  0.4458991E+02  0.1168363E+02  0.0000000E+00
Ar 1930  0.2507519E+02  0.4739403E+02  0.1183858E+02  0.0000000E+00
Ar 1931  0.2528723E+02  0.4451364E+02  0.1420243E+02  0.0000000E+00
Ar 1932  0.2259214E+02  0.4709285E+02  0.1496584E+02  0.0000000E+00
Ar 1933  0.2253716E+02  0.4470675E+02  0.1755738E+02  0.0000000E+00
Ar 1934  0.2516056E+02  0.4703723E+02  0.1728384E+02  0.0000000E+00
Ar 1935  0.2523315E+02  0.4435973E+02  0.2001016E+02  0.0000000E+00
Ar 1936  0.2253625E+02  0.4728042E+02  0.2011850E+02  0.0000000E+00
Ar 1937  0.2287646E+02  0.4448678E+02  0.2287621E+02  0.0000000E+00
Ar 1938  0.2533703E+02  0.4719062E+02  0.2255599E+02  0.0000000E+00
Ar 1939  0.2567189E+02  0.4509898E+02  0.2567151E+02  0.0000000E+00
Ar 1940  0.2255619E+02  0.4719049E+02  0.2533666E+02  0.0000000E+00
Ar 1941  0.2295142E+02  0.4448603E+02  0.2798838E+02  0.0000000E+00
Ar 1942  0.2527975E+02  0.4743814E+02  0.2853903E+02  0.0000000E+00
Ar 1943  0.2528686E+02  0.4434704E+02  0.3102573E+02  0.0000000E+00
Ar 1944  0.2281162E+02  0.4707933E+02  0.3115664E+02  0.0000000E+00
Ar 1945  0.2269165E+02  0.4451089E+02  0.3375169E+02  0.0000000E+00
Ar 1946  0.2527065E+02  0.4748996E+02  0.3384710E+02  0.0000000E+00
Ar 1947  0.2550035E+02  0.4431147E+02  0.3625031E+02  0.0000000E+00
Ar 1948  0.2270407E+02  0.4746896E+02  0.3640544E+02  0.0000000E+00
Ar 1949  0.2269281E+02  0.4443595E+02  0.3897447E+02  0.0000000E+00
Ar 1950  0.2559515E+02  0.4711769E+02  0.3885623E+02  0.0000000E+00
Ar 1951  0.2537679E+02  0.4424823E+02  0.4150473E+02  0.0000000E+00
Ar 1952  0.2295477E+02  0.4685881E+02  0.4209206E+02  0.0000000E+00
Ar 1953  0.2290801E+02  0.4469677E+02  0.4469446E+02  0.0000000E+00
Ar 1954  0.2560230E+02  0.4696155E+02  0.4439801E+02  0.0000000E+00
Ar 1955  0.2560284E+02  0.4439920E+02  0.4695761E+02  0.0000000E+00
Ar 1956  0.2278106E+02  0.4722271E+02  0.4722746E+02  0.0000000E+00
Ar 1957  0.2306127E+02  0.4467321E+02  0.4988222E+02  0.0000000E+00
Ar 1958  0.2550959E+02  0.4740511E+02  0.4991234E+02  0.0000000E+00
Ar 1959  0.2608612E+02  0.4478590E+02  0.5248673E+02  0.0000000E+00
Ar 1960  0.2266838E+02  0.4764079E+02  0.5347701E+02  0.0000000E+00
Ar 1961  0.2248100E+02  0.5101153E+02  0.5554523E+02  0.0000000E+00
Ar 1962  0.2679201E+02  0.5151123E+02  0.5535429E+02  0.0000000E+00
Ar 1963  0.2563883E+02  0.5037136E+02  0.3844692E+01  0.0000000E+00
Ar 1964  0.2243901E+02  0.5284912E+02  0.3572424E+01  0.0000000E+00
Ar 1965  0.2237036E+02  0.4997903E+02  0.5962085E+01  0.0000000E+00
Ar 1966  0.2523972E+02  0.5279003E+02  0.6293676E+01  0.0000000E+00
Ar 1967  0.2501726E+02  0.4977226E+02  0.9061962E+01  0.0000000E+00
Ar 1968  0.2274652E+02  0.5274343E+02  0.8787631E+01  0.0000000E+00
Ar 1969  0.2235177E+02  0.4980245E+02  0.1149085E+02  0.0000000E+00
Ar 1970  0.2519415E+02  0.5234691E+02  0.1139880E+02  0.0000000E+00
Ar 1971  0.2535253E+02  0.4983468E+02  0.1467641E+02  0.0000000E+00
Ar 1972  0.2253424E+02  0.5213957E+02  0.1426562E+02  0.0000000E+00
Ar 1973  0.2269564E+02  0.4983495E+02  0.1727792E+02  0.0000000E+00
Ar 1974  0.2502384E+02  0.5254981E+02  0.1735060E+02  0.0000000E+00
Ar 1975  0.2527882E+02  0.4968805E+02  0.1979996E+02  0.0000000E+00
Ar 1976  0.2272140E+02  0.5251769E+02  0.1985200E+02  0.0000000E+00
Ar 1977  0.2297385E+02  0.5023287E+02  0.2297343E+02  0.0000000E+00
Ar 1978  0.2549533E+02  0.5302842E+02  0.2242954E+02  0.0000000E+00
Ar 1979  0.2541078E+02  0.4936393E+02  0.2541048E+02  0.0000000E+00
Ar 1980  0.2243002E+02  0.5302830E+02  0.2549499E+02  0.0000000E+00
Ar 1981  0.2238654E+02  0.4967347E+02  0.2808615E+02  0.0000000E+00
Ar 1982  0.2515656E+02  0.5210187E+02  0.2783616E+02  0.0000000E+00
Ar 1983  0.2548116E+02  0.5012964E+02  0.3093453E+02  0.0000000E+00
Ar 1984  0.2270190E+02  0.5243307E+02  0.3095670E+02  0.0000000E+00
Ar 1985  0.2253576E+02  0.5011304E+02  0.3369523E+02  0.0000000E+00
Ar 1986  0.2552264E+02  0.5274047E+02  0.3383062E+02  0.0000000E+00
Ar 1987  0.2545507E+02  0.5014961E+02  0.3654350E+02  0.0000000E+00
Ar 1988  0.2268552E+02  0.5256661E+02  0.3647348E+02  0.0000000E+00
Ar 1989  0.2246341E+02  0.4932099E+02  0.3946931E+02  0.0000000E+00
Ar 1990  0.2579923E+02  0.5280160E+02  0.3905994E+02  0.0000000E+00
Ar 1991  0.2569742E+02  0.4958875E+02  0.4167085E+02  0.0000000E+00
Ar 1992  0.2308774E+02  0.5249901E+02  0.4172018E+02  0.0000000E+00
Ar 1993  0.2305364E+02  0.4988335E+02  0.4466767E+02  0.0000000E+00
Ar 1994  0.2606910E+02  0.5248198E+02  0.4477761E+02  0.0000000E+00
Ar 1995  0.2550443E+02  0.4991429E+02  0.4740200E+02  0.0000000E+00
Ar 1996  0.2260173E+02  0.5348056E+02  0.4765845E+02  0.0000000E+00
Ar 1997  0.2186417E+02  0.5004349E+02  0.5004557E+02  0.0000000E+00
Ar 1998  0.2526178E+02  0.5266828E+02  0.4994874E+02  0.0000000E+00
Ar 1999  0.2527248E+02  0.4996105E+02  0.5265899E+02  0.0000000E+00
Ar 2000  0.2262324E+02  0.5256612E+02  0.5255770E+02  0.0000000E+00
Ar 2001  0.2900257E+02  0.2105361E+01  0.2172205E+01  0.0000000E+00
Ar 2002  0.3055651E+02  0.3994211E+01  0.5541900E+02  0.0000000E+00
Ar 2003  0.3057279E+02  0.5551050E+02  0.3902260E+01  0.0000000E+00
Ar 2004  0.2802862E+02  0.3509849E+01  0.3512409E+01  0.0000000E+00
Ar 2005  0.2793443E+02  0.4748546E+00  0.6136677E+01  0.0000000E+00
Ar 2006  0.3152908E+02  0.3729725E+01  0.6587314E+01  0.0000000E+00
Ar 2007  0.3099098E+02  0.5538908E+02  0.9941988E+01  0.0000000E+00
Ar 2008  0.2812773E+02  0.3546722E+01  0.8864666E+01  0.0000000E+00
Ar 2009  0.2759215E+02  0.5562154E+02  0.1117605E+02  0.0000000E+00
Ar 2010  0.3016810E+02  0.3209639E+01  0.1185807E+02  0.0000000E+00
Ar 2011  0.2959349E+02  0.5534826E+02  0.1330474E+02  0.0000000E+00
Ar 2012  0.2777310E+02  0.3354821E+01  0.1444985E+02  0.0000000E+00
Ar 2013  0.2795476E+02  0.5713026E+00  0.1704097E+02  0.0000000E+00
Ar 2014  0.3090118E+02  0.3332289E+01  0.1701647E+02  0.0000000E+00
Ar 2015  0.3082887E+02  0.5545724E+02  0.1911025E+02  0.0000000E+00
Ar 2016  0.2782679E+02  0.3568782E+01  0.1973227E+02  0.0000000E+00
Ar 2017  0.2819376E+02  0.5549341E+02  0.2121981E+02  0.0000000E+00
Ar 2018  0.3101681E+02  0.3293898E+01  0.2232486E+02  0.0000000E+00
Ar 2019  0.2999354E+02  0.5570599E+02  0.2463683E+02  0.0000000E+00
Ar 2020  0.2812182E+02  0.3839076E+01  0.2524513E+02  0.0000000E+00
Ar 2021  0.2889834E+02  0.5488709E+02  0.2889824E+02  0.0000000E+00
Ar 2022  0.3033520E+02  0.3253319E+01  0.2808955E+02  0.0000000E+00
Ar 2023  0.3120555E+02  0.6361297E+00  0.3120530E+02  0.0000000E+00
Ar 2024  0.2809010E+02  0.3253125E+01  0.3033479E+02  0.0000000E+00
Ar 2025  0.2728249E+02  0.5552348E+02  0.3290439E+02  0.0000000E+00
Ar 2026  0.3093705E+02  0.3556749E+01  0.3362476E+02  0.0000000E+00
Ar 2027  0.3097304E+02  0.1030897E+01  0.3661783E+02  0.0000000E+00
Ar 2028  0.2790226E+02  0.3420309E+01  0.3645650E+02  0.0000000E+00
Ar 2029  0.2785470E+02  0.5582293E+02  0.3872763E+02  0.0000000E+00
Ar 2030  0.3046193E+02  0.3695172E+01  0.3889320E+02  0.0000000E+00
Ar 2031  0.3135142E+02  0.7927133E+00  0.4141336E+02  0.0000000E+00
Ar 2032  0.2830489E+02  0.3673004E+01  0.4160711E+02  0.0000000E+00
Ar 2033  0.2837582E+02  0.7239755E+00  0.4376704E+02  0.0000000E+00
Ar 2034  0.3087337E+02  0.4145273E+01  0.4407511E+02  0.0000000E+00
Ar 2035  0.3050488E+02  0.6606314E+00  0.4668759E+02  0.0000000E+00
Ar 2036  0.2790081E+02  0.3364938E+01  0.4740668E+02  0.0000000E+00
Ar 2037  0.2849634E+02  0.5559727E+02  0.4983595E+02  0.0000000E+00
Ar 2038  0.3063118E+02  0.3592224E+01  0.4972613E+02  0.0000000E+00
Ar 2039  0.3113885E+02  0.5587933E+02  0.5221794E+02  0.0000000E+00
Ar 2040  0.2882396E+02  0.3851331E+01  0.5282671E+02  0.0000000E+00
Ar 2041  0.2794719E+02  0.6180718E+01  0.4656537E+00  0.0000000E+00
Ar 2042  0.3103476E+02  0.9921089E+01  0.5533975E+02  0.0000000E+00
Ar 2043  0.3152304E+02  0.6534707E+01  0.3731503E+01  0.0000000E+00
Ar 2044  0.2813339E+02  0.8883232E+01  0.3577420E+01  0.0000000E+00
Ar 2045  0.2817659E+02  0.6085639E+01  0.6085280E+01  0.0000000E+00
Ar 2046  0.3077150E+02  0.9112659E+01  0.6183471E+01  0.0000000E+00
Ar 2047  0.3076632E+02  0.6195030E+01  0.9115030E+01  0.0000000E+00
Ar 2048  0.2828310E+02  0.8824776E+01  0.8823203E+01  0.0000000E+00
Ar 2049  0.2772963E+02  0.6280590E+01  0.1169569E+02  0.0000000E+00
Ar 2050  0.3060040E+02  0.8906385E+01  0.1158546E+02  0.0000000E+00
Ar 2051  0.3038681E+02  0.5829295E+01  0.1413754E+02  0.0000000E+00
Ar 2052  0.2794476E+02  0.8853011E+01  0.1431884E+02  0.0000000E+00
Ar 2053  0.2806320E+02  0.6233483E+01  0.1707682E+02  0.0000000E+00
Ar 2054  0.3050919E+02  0.8873820E+01  0.1717207E+02  0.0000000E+00
Ar 2055  0.3083166E+02  0.6220366E+01  0.1971969E+02  0.0000000E+00
Ar 2056  0.2781084E+02  0.8751358E+01  0.1989968E+02  0.0000000E+00
Ar 2057  0.2817748E+02  0.6207305E+01  0.2264800E+02  0.0000000E+00
Ar 2058  0.3095175E+02  0.8999838E+01  0.2282569E+02  0.0000000E+00
Ar 2059  0.3078560E+02  0.6313473E+01  0.2542074E+02  0.0000000E+00
Ar 2060  0.2785764E+02  0.8851949E+01  0.2521077E+02  0.0000000E+00
Ar 2061  0.2782078E+02  0.6340273E+01  0.2782046E+02  0.0000000E+00
Ar 2062  0.3082311E+02  0.9165811E+01  0.2821988E+02  0.0000000E+00
Ar 2063  0.3070962E+02  0.6062077E+01  0.3070919E+02  0.0000000E+00
Ar 2064  0.2822027E+02  0.9165794E+01  0.3082258E+02  0.0000000E+00
Ar 2065  0.2781512E+02  0.6469127E+01  0.3360185E+02  0.0000000E+00
Ar 2066  0.3080261E+02  0.9102392E+01  0.3361857E+02  0.0000000E+00
Ar 2067  0.3062475E+02  0.6573845E+01  0.3620560E+02  0.0000000E+00
Ar 2068  0.2793516E+02  0.9331920E+01  0.3659040E+02  0.0000000E+00
Ar 2069  0.2805432E+02  0.6436358E+01  0.3906349E+02  0.0000000E+00
Ar 2070  0.3082056E+02  0.9345931E+01  0.3894837E+02  0.0000000E+00
Ar 2071  0.3101624E+02  0.6444777E+01  0.4113979E+02  0.0000000E+00
Ar 2072  0.2815073E+02  0.8764878E+01  0.4211752E+02  0.0000000E+00
Ar 2073  0.2792402E+02  0.6023355E+01  0.4453839E+02  0.0000000E+00
Ar 2074  0.3092907E+02  0.9236505E+01  0.4443628E+02  0.0000000E+00
Ar 2075  0.3039452E+02  0.6683242E+01  0.4721027E+02  0.0000000E+00
Ar 2076  0.2778844E+02  0.9321453E+01  0.4724682E+02  0.0000000E+00
Ar 2077  0.2773129E+02  0.6736959E+01  0.4989230E+02  0.0000000E+00
Ar 2078  0.3066235E+02  0.9330950E+01  0.4972906E+02  0.0000000E+00
Ar 2079  0.3071701E+02  0.6460890E+01  0.5258590E+02  0.0000000E+00
Ar 2080  0.2821476E+02  0.8791603E+01  0.5293855E+02  0.0000000E+00
Ar 2081  0.2784371E+02  0.1131544E+02  0.5561703E+02  0.0000000E+00
Ar 2082  0.2959740E+02  0.1333135E+02  0.5534669E+02  0.0000000E+00
Ar 2083  0.3019198E+02  0.1185480E+02  0.3196634E+01  0.0000000E+00
Ar 2084  0.2777398E+02  0.1444955E+02  0.3354957E+01  0.0000000E+00
Ar 2085  0.2772656E+02  0.1171299E+02  0.6297208E+01  0.0000000E+00
Ar 2086  0.3039085E+02  0.1413586E+02  0.5825482E+01  0.0000000E+00
Ar 2087  0.3060142E+02  0.1158418E+02  0.8903343E+01  0.0000000E+00
Ar 2088  0.2794516E+02  0.1432072E+02  0.8854118E+01  0.0000000E+00
Ar 2089  0.2827563E+02  0.1180847E+02  0.1180790E+02  0.0000000E+00
Ar 2090  0.3093334E+02  0.1448674E+02  0.1191785E+02  0.0000000E+00
Ar 2091  0.3093384E+02  0.1191757E+02  0.1448655E+02  0.0000000E+00
Ar 2092  0.2793881E+02  0.1448012E+02  0.1447987E+02  0.0000000E+00
Ar 2093  0.2814493E+02  0.1169975E+02  0.1691420E+02  0.0000000E+00
Ar 2094  0.3060619E+02  0.1447883E+02  0.1741784E+02  0.0000000E+00
Ar 2095  0.3076006E+02  0.1168740E+02  0.2005575E+02  0.0000000E+00
Ar 2096  0.2807648E+02  0.1454197E+02  0.1982627E+02  0.0000000E+00
Ar 2097  0.2775936E+02  0.1150990E+02  0.2258250E+02  0.0000000E+00
Ar 2098  0.3093481E+02  0.1410378E+02  0.2293065E+02  0.0000000E+00
Ar 2099  0.3073909E+02  0.1171996E+02  0.2572305E+02  0.0000000E+00
Ar 2100  0.2812962E+02  0.1442137E+02  0.2528295E+02  0.0000000E+00
Ar 2101  0.2791734E+02  0.1142269E+02  0.2791701E+02  0.0000000E+00
Ar 2102  0.3092903E+02  0.1444572E+02  0.2817090E+02  0.0000000E+00
Ar 2103  0.3085457E+02  0.1180130E+02  0.3085409E+02  0.0000000E+00
Ar 2104  0.2817127E+02  0.1444568E+02  0.3092860E+02  0.0000000E+00
Ar 2105  0.2818755E+02  0.1169296E+02  0.3334973E+02  0.0000000E+00
Ar 2106  0.3075469E+02  0.1428323E+02  0.3365274E+02  0.0000000E+00
Ar 2107  0.3095059E+02  0.1161447E+02  0.3624828E+02  0.0000000E+00
Ar 2108  0.2791842E+02  0.1438313E+02  0.3632485E+02  0.0000000E+00
Ar 2109  0.2803448E+02  0.1188151E+02  0.3924674E+02  0.0000000E+00
Ar 2110  0.3062027E+02  0.1472395E+02  0.3895440E+02  0.0000000E+00
Ar 2111  0.3065953E+02  0.1189164E+02  0.4178212E+02  0.0000000E+00
Ar 2112  0.2798911E+02  0.1453221E+02  0.4213811E+02  0.0000000E+00
Ar 2113  0.2788975E+02  0.1163628E+02  0.4450088E+02  0.0000000E+00
Ar 2114  0.3087514E+02  0.1479186E+02  0.4446463E+02  0.0000000E+00
Ar 2115  0.3091930E+02  0.1197383E+02  0.4692387E+02  0.0000000E+00
Ar 2116  0.2765471E+02  0.1430324E+02  0.4722205E+02  0.0000000E+00
Ar 2117  0.2791351E+02  0.1195510E+02  0.5006560E+02  0.0000000E+00
Ar 2118  0.3057083E+02  0.1436510E+02  0.4968162E+02  0.0000000E+00
Ar 2119  0.3072617E+02  0.1177576E+02  0.5236373E+02  0.0000000E+00
Ar 2120  0.2790111E+02  0.1512985E+02  0.5288383E+02  0.0000000E+00
Ar 2121  0.2795349E+02  0.1704075E+02  0.5700022E+00  0.0000000E+00
Ar 2122  0.3082866E+02  0.1911022E+02  0.5545682E+02  0.0000000E+00
Ar 2123  0.3090170E+02  0.1701790E+02  0.3333183E+01  0.0000000E+00
Ar 2124  0.2782688E+02  0.1973241E+02  0.3568661E+01  0.0000000E+00
Ar 2125  0.2806341E+02  0.1707627E+02  0.6233000E+01  0.0000000E+00
Ar 2126  0.3083153E+02  0.1972026E+02  0.6220133E+01  0.0000000E+00
Ar 2127  0.3050896E+02  0.1717305E+02  0.8874271E+01  0.0000000E+00
Ar 2128  0.2781068E+02  0.1990014E+02  0.8751049E+01  0.0000000E+00
Ar 2129  0.2814474E+02  0.1691480E+02  0.1169994E+02  0.0000000E+00
Ar 2130  0.3075955E+02  0.2005634E+02  0.1168780E+02  0.0000000E+00
Ar 2131  0.3060611E+02  0.1741826E+02  0.1447900E+02  0.0000000E+00
Ar 2132  0.2807631E+02  0.1982675E+02  0.1454190E+02  0.0000000E+00
Ar 2133  0.2800666E+02  0.1697019E+02  0.1697009E+02  0.0000000E+00
Ar 2134  0.3083834E+02  0.2009403E+02  0.1713597E+02  0.0000000E+00
Ar 2135  0.3083830E+02  0.1713592E+02  0.2009347E+02  0.0000000E+00
Ar 2136  0.2800186E+02  0.1995183E+02  0.1995159E+02  0.0000000E+00
Ar 2137  0.2791010E+02  0.1737751E+02  0.2276762E+02  0.0000000E+00
Ar 2138  0.3095308E+02  0.1979423E+02  0.2264953E+02  0.0000000E+00
Ar 2139  0.3099571E+02  0.1727429E+02  0.2539958E+02  0.0000000E+00
Ar 2140  0.2802152E+02  0.2004350E+02  0.2500426E+02  0.0000000E+00
Ar 2141  0.2830088E+02  0.1723242E+02  0.2830048E+02  0.0000000E+00
Ar 2142  0.3076406E+02  0.2009602E+02  0.2819126E+02  0.0000000E+00
Ar 2143  0.3107436E+02  0.1734744E+02  0.3107393E+02  0.0000000E+00
Ar 2144  0.2819162E+02  0.2009601E+02  0.3076362E+02  0.0000000E+00
Ar 2145  0.2848209E+02  0.1700906E+02  0.3363266E+02  0.0000000E+00
Ar 2146  0.3092727E+02  0.2015437E+02  0.3358297E+02  0.0000000E+00
Ar 2147  0.3084676E+02  0.1763323E+02  0.3609524E+02  0.0000000E+00
Ar 2148  0.2811032E+02  0.2028912E+02  0.3636728E+02  0.0000000E+00
Ar 2149  0.2788066E+02  0.1740217E+02  0.3872552E+02  0.0000000E+00
Ar 2150  0.3064714E+02  0.2012668E+02  0.3907161E+02  0.0000000E+00
Ar 2151  0.3082096E+02  0.1716339E+02  0.4175155E+02  0.0000000E+00
Ar 2152  0.2807122E+02  0.1979898E+02  0.4180940E+02  0.0000000E+00
Ar 2153  0.2799294E+02  0.1716217E+02  0.4453475E+02  0.0000000E+00
Ar 2154  0.3083850E+02  0.1991081E+02  0.4447077E+02  0.0000000E+00
Ar 2155  0.3056693E+02  0.1726474E+02  0.4730818E+02  0.0000000E+00
Ar 2156  0.2800784E+02  0.1995523E+02  0.4659805E+02  0.0000000E+00
Ar 2157  0.2782850E+02  0.1733543E+02  0.4958327E+02  0.0000000E+00
Ar 2158  0.3098472E+02  0.2002690E+02  0.4957249E+02  0.0000000E+00
Ar 2159  0.3084963E+02  0.1745966E+02  0.5235338E+02  0.0000000E+00
Ar 2160  0.2808817E+02  0.1958703E+02  0.5247309E+02  0.0000000E+00
Ar 2161  0.2819366E+02  0.2122009E+02  0.5549286E+02  0.0000000E+00
Ar 2162  0.2999332E+02  0.2463699E+02  0.5570544E+02  0.0000000E+00
Ar 2163  0.3101642E+02  0.2232538E+02  0.3293669E+01  0.0000000E+00
Ar 2164  0.2812191E+02  0.2524539E+02  0.3838978E+01  0.0000000E+00
Ar 2165  0.2817754E+02  0.2264821E+02  0.6207072E+01  0.0000000E+00
Ar 2166  0.3078551E+02  0.2542096E+02  0.6313404E+01  0.0000000E+00
Ar 2167  0.3095151E+02  0.2282611E+02  0.8999705E+01  0.0000000E+00
Ar 2168  0.2785770E+02  0.2521106E+02  0.8851755E+01  0.0000000E+00
Ar 2169  0.2775926E+02  0.2258287E+02  0.1150972E+02  0.0000000E+00
Ar 2170  0.3073911E+02  0.2572328E+02  0.1171972E+02  0.0000000E+00
Ar 2171  0.3093480E+02  0.2293096E+02  0.1410373E+02  0.0000000E+00
Ar 2172  0.2812967E+02  0.2528326E+02  0.1442115E+02  0.0000000E+00
Ar 2173  0.2791010E+02  0.2276790E+02  0.1737730E+02  0.0000000E+00
Ar 2174  0.3099567E+02  0.2539988E+02  0.1727415E+02  0.0000000E+00
Ar 2175  0.3095309E+02  0.2264983E+02  0.1979401E+02  0.0000000E+00
Ar 2176  0.2802154E+02  0.2500455E+02  0.2004328E+02  0.0000000E+00
Ar 2177  0.2835515E+02  0.2266397E+02  0.2266371E+02  0.0000000E+00
Ar 2178  0.3124598E+02  0.2516461E+02  0.2267985E+02  0.0000000E+00
Ar 2179  0.3124598E+02  0.2268012E+02  0.2516431E+02  0.0000000E+00
Ar 2180  0.2815362E+02  0.2518349E+02  0.2518322E+02  0.0000000E+00
Ar 2181  0.2814157E+02  0.2262446E+02  0.2814118E+02  0.0000000E+00
Ar 2182  0.3103761E+02  0.2539457E+02  0.2817639E+02  0.0000000E+00
Ar 2183  0.3094103E+02  0.2290542E+02  0.3094059E+02  0.0000000E+00
Ar 2184  0.2817675E+02  0.2539455E+02  0.3103716E+02  0.0000000E+00
Ar 2185  0.2820135E+02  0.2287775E+02  0.3379350E+02  0.0000000E+00
Ar 2186  0.3108582E+02  0.2564490E+02  0.3355391E+02  0.0000000E+00
Ar 2187  0.3083759E+02  0.2292515E+02  0.3649464E+02  0.0000000E+00
Ar 2188  0.2823971E+02  0.2538346E+02  0.3635267E+02  0.0000000E+00
Ar 2189  0.2820634E+02  0.2268967E+02  0.3926500E+02  0.0000000E+00
Ar 2190  0.3072806E+02  0.2546361E+02  0.3933427E+02  0.0000000E+00
Ar 2191  0.3071572E+02  0.2266365E+02  0.4183081E+02  0.0000000E+00
Ar 2192  0.2804350E+02  0.2551170E+02  0.4210923E+02  0.0000000E+00
Ar 2193  0.2798868E+02  0.2295149E+02  0.4448552E+02  0.0000000E+00
Ar 2194  0.3102613E+02  0.2528667E+02  0.4434667E+02  0.0000000E+00
Ar 2195  0.3115707E+02  0.2281151E+02  0.4707903E+02  0.0000000E+00
Ar 2196  0.2853937E+02  0.2527944E+02  0.4743793E+02  0.0000000E+00
Ar 2197  0.2808655E+02  0.2238609E+02  0.4967353E+02  0.0000000E+00
Ar 2198  0.3093493E+02  0.2548112E+02  0.5012928E+02  0.0000000E+00
Ar 2199  0.3095539E+02  0.2270092E+02  0.5243171E+02  0.0000000E+00
Ar 2200  0.2783649E+02  0.2515643E+02  0.5210141E+02  0.0000000E+00
Ar 2201  0.2889832E+02  0.2889871E+02  0.5488634E+02  0.0000000E+00
Ar 2202  0.3120600E+02  0.3120547E+02  0.6362880E+00  0.0000000E+00
Ar 2203  0.3033530E+02  0.2808983E+02  0.3253122E+01  0.0000000E+00
Ar 2204  0.2809029E+02  0.3033519E+02  0.3253273E+01  0.0000000E+00
Ar 2205  0.2782088E+02  0.2782076E+02  0.6340137E+01  0.0000000E+00
Ar 2206  0.3070983E+02  0.3070945E+02  0.6062013E+01  0.0000000E+00
Ar 2207  0.3082316E+02  0.2822016E+02  0.9165634E+01  0.0000000E+00
Ar 2208  0.2822037E+02  0.3082287E+02  0.9165707E+01  0.0000000E+00
Ar 2209  0.2791741E+02  0.2791728E+02  0.1142252E+02  0.0000000E+00
Ar 2210  0.3085462E+02  0.3085438E+02  0.1180118E+02  0.0000000E+00
Ar 2211  0.3092909E+02  0.2817120E+02  0.1444549E+02  0.0000000E+00
Ar 2212  0.2817132E+02  0.3092894E+02  0.1444551E+02  0.0000000E+00
Ar 2213  0.2830094E+02  0.2830078E+02  0.1723219E+02  0.0000000E+00
Ar 2214  0.3107440E+02  0.3107429E+02  0.1734722E+02  0.0000000E+00
Ar 2215  0.3076408E+02  0.2819158E+02  0.2009577E+02  0.0000000E+00
Ar 2216  0.2819167E+02  0.3076395E+02  0.2009576E+02  0.0000000E+00
Ar 2217  0.2814158E+02  0.2814148E+02  0.2262419E+02  0.0000000E+00
Ar 2218  0.3094106E+02  0.3094094E+02  0.2290514E+02  0.0000000E+00
Ar 2219  0.3103762E+02  0.2817671E+02  0.2539429E+02  0.0000000E+00
Ar 2220  0.2817680E+02  0.3103754E+02  0.2539427E+02  0.0000000E+00
Ar 2221  0.2759949E+02  0.2759943E+02  0.2759913E+02  0.0000000E+00
Ar 2222  0.3105120E+02  0.3105111E+02  0.2848798E+02  0.0000000E+00
Ar 2223  0.3105118E+02  0.2848835E+02  0.3105072E+02  0.0000000E+00
Ar 2224  0.2848840E+02  0.3105105E+02  0.3105071E+02  0.0000000E+00
Ar 2225  0.2820067E+02  0.2820060E+02  0.3393672E+02  0.0000000E+00
Ar 2226  0.3074519E+02  0.3074520E+02  0.3397655E+02  0.0000000E+00
Ar 2227  0.3118897E+02  0.2812969E+02  0.3638796E+02  0.0000000E+00
Ar 2228  0.2812974E+02  0.3118901E+02  0.3638810E+02  0.0000000E+00
Ar 2229  0.2807521E+02  0.2807516E+02  0.3924287E+02  0.0000000E+00
Ar 2230  0.3091375E+02  0.3091392E+02  0.3906924E+02  0.0000000E+00
Ar 2231  0.3107763E+02  0.2819824E+02  0.4186892E+02  0.0000000E+00
Ar 2232  0.2819821E+02  0.3107760E+02  0.4186889E+02  0.0000000E+00
Ar 2233  0.2832579E+02  0.2832570E+02  0.4432435E+02  0.0000000E+00
Ar 2234  0.3093258E+02  0.3093268E+02  0.4430784E+02  0.0000000E+00
Ar 2235  0.3109486E+02  0.2801313E+02  0.4716086E+02  0.0000000E+00
Ar 2236  0.2801327E+02  0.3109488E+02  0.4716075E+02  0.0000000E+00
Ar 2237  0.2837876E+02  0.2837875E+02  0.5011522E+02  0.0000000E+00
Ar 2238  0.3105702E+02  0.3105693E+02  0.4972094E+02  0.0000000E+00
Ar 2239  0.3133667E+02  0.2817692E+02  0.5234163E+02  0.0000000E+00
Ar 2240  0.2817716E+02  0.3133658E+02  0.5234141E+02  0.0000000E+00
Ar 2241  0.2728149E+02  0.3290360E+02  0.5552260E+02  0.0000000E+00
Ar 2242  0.3102416E+02  0.3665369E+02  0.1023644E+01  0.0000000E+00
Ar 2243  0.3093784E+02  0.3362552E+02  0.3557172E+01  0.0000000E+00
Ar 2244  0.2790143E+02  0.3645397E+02  0.3423291E+01  0.0000000E+00
Ar 2245  0.2781459E+02  0.3360192E+02  0.6469033E+01  0.0000000E+00
Ar 2246  0.3062473E+02  0.3620490E+02  0.6576299E+01  0.0000000E+00
Ar 2247  0.3080290E+02  0.3361804E+02  0.9103165E+01  0.0000000E+00
Ar 2248  0.2793459E+02  0.3659092E+02  0.9332166E+01  0.0000000E+00
Ar 2249  0.2818765E+02  0.3335011E+02  0.1169287E+02  0.0000000E+00
Ar 2250  0.3095088E+02  0.3624869E+02  0.1161423E+02  0.0000000E+00
Ar 2251  0.3075479E+02  0.3365315E+02  0.1428296E+02  0.0000000E+00
Ar 2252  0.2791859E+02  0.3632561E+02  0.1438233E+02  0.0000000E+00
Ar 2253  0.2848211E+02  0.3363326E+02  0.1700855E+02  0.0000000E+00
Ar 2254  0.3084686E+02  0.3609567E+02  0.1763289E+02  0.0000000E+00
Ar 2255  0.3092736E+02  0.3358345E+02  0.2015404E+02  0.0000000E+00
Ar 2256  0.2811038E+02  0.3636764E+02  0.2028886E+02  0.0000000E+00
Ar 2257  0.2820139E+02  0.3379390E+02  0.2287747E+02  0.0000000E+00
Ar 2258  0.3083775E+02  0.3649511E+02  0.2292489E+02  0.0000000E+00
Ar 2259  0.3108587E+02  0.3355434E+02  0.2564456E+02  0.0000000E+00
Ar 2260  0.2823973E+02  0.3635308E+02  0.2538316E+02  0.0000000E+00
Ar 2261  0.2820064E+02  0.3393710E+02  0.2820021E+02  0.0000000E+00
Ar 2262  0.3118912E+02  0.3638849E+02  0.2812937E+02  0.0000000E+00
Ar 2263  0.3074520E+02  0.3397691E+02  0.3074476E+02  0.0000000E+00
Ar 2264  0.2812974E+02  0.3638836E+02  0.3118854E+02  0.0000000E+00
Ar 2265  0.2837936E+02  0.3378954E+02  0.3378919E+02  0.0000000E+00
Ar 2266  0.3112250E+02  0.3632385E+02  0.3353762E+02  0.0000000E+00
Ar 2267  0.3112231E+02  0.3353823E+02  0.3632368E+02  0.0000000E+00
Ar 2268  0.2827216E+02  0.3650493E+02  0.3650480E+02  0.0000000E+00
Ar 2269  0.2827719E+02  0.3364803E+02  0.3902410E+02  0.0000000E+00
Ar 2270  0.3086065E+02  0.3630956E+02  0.3896988E+02  0.0000000E+00
Ar 2271  0.3101173E+02  0.3376925E+02  0.4169106E+02  0.0000000E+00
Ar 2272  0.2818179E+02  0.3624284E+02  0.4168822E+02  0.0000000E+00
Ar 2273  0.2816414E+02  0.3383207E+02  0.4465482E+02  0.0000000E+00
Ar 2274  0.3083898E+02  0.3620383E+02  0.4426421E+02  0.0000000E+00
Ar 2275  0.3080307E+02  0.3362813E+02  0.4709762E+02  0.0000000E+00
Ar 2276  0.2828825E+02  0.3652010E+02  0.4724046E+02  0.0000000E+00
Ar 2277  0.2806513E+02  0.3407892E+02  0.4995909E+02  0.0000000E+00
Ar 2278  0.3091546E+02  0.3623370E+02  0.4989562E+02  0.0000000E+00
Ar 2279  0.3093269E+02  0.3367690E+02  0.5261546E+02  0.0000000E+00
Ar 2280  0.2835193E+02  0.3619286E+02  0.5307814E+02  0.0000000E+00
Ar 2281  0.2786083E+02  0.3872865E+02  0.5582245E+02  0.0000000E+00
Ar 2282  0.3133490E+02  0.4139065E+02  0.7926987E+00  0.0000000E+00
Ar 2283  0.3045783E+02  0.3888969E+02  0.3699849E+01  0.0000000E+00
Ar 2284  0.2830726E+02  0.4157055E+02  0.3727594E+01  0.0000000E+00
Ar 2285  0.2805521E+02  0.3906228E+02  0.6438327E+01  0.0000000E+00
Ar 2286  0.3101948E+02  0.4114269E+02  0.6443076E+01  0.0000000E+00
Ar 2287  0.3082053E+02  0.3894943E+02  0.9345489E+01  0.0000000E+00
Ar 2288  0.2815033E+02  0.4211567E+02  0.8766631E+01  0.0000000E+00
Ar 2289  0.2803368E+02  0.3924719E+02  0.1188138E+02  0.0000000E+00
Ar 2290  0.3065946E+02  0.4178237E+02  0.1189216E+02  0.0000000E+00
Ar 2291  0.3062022E+02  0.3895505E+02  0.1472361E+02  0.0000000E+00
Ar 2292  0.2798834E+02  0.4213835E+02  0.1453252E+02  0.0000000E+00
Ar 2293  0.2788071E+02  0.3872596E+02  0.1740195E+02  0.0000000E+00
Ar 2294  0.3082098E+02  0.4175093E+02  0.1716389E+02  0.0000000E+00
Ar 2295  0.3064725E+02  0.3907198E+02  0.2012641E+02  0.0000000E+00
Ar 2296  0.2807132E+02  0.4180987E+02  0.1979866E+02  0.0000000E+00
Ar 2297  0.2820639E+02  0.3926546E+02  0.2268935E+02  0.0000000E+00
Ar 2298  0.3071579E+02  0.4183141E+02  0.2266316E+02  0.0000000E+00
Ar 2299  0.3072811E+02  0.3933471E+02  0.2546325E+02  0.0000000E+00
Ar 2300  0.2804353E+02  0.4210965E+02  0.2551139E+02  0.0000000E+00
Ar 2301  0.2807522E+02  0.3924326E+02  0.2807486E+02  0.0000000E+00
Ar 2302  0.3107763E+02  0.4186932E+02  0.2819788E+02  0.0000000E+00
Ar 2303  0.3091404E+02  0.3906965E+02  0.3091332E+02  0.0000000E+00
Ar 2304  0.2819830E+02  0.4186937E+02  0.3107726E+02  0.0000000E+00
Ar 2305  0.2827738E+02  0.3902398E+02  0.3364696E+02  0.0000000E+00
Ar 2306  0.3101210E+02  0.4169122E+02  0.3376852E+02  0.0000000E+00
Ar 2307  0.3086063E+02  0.3897026E+02  0.3630887E+02  0.0000000E+00
Ar 2308  0.2818247E+02  0.4168913E+02  0.3624291E+02  0.0000000E+00
Ar 2309  0.2824613E+02  0.3904474E+02  0.3904445E+02  0.0000000E+00
Ar 2310  0.3104920E+02  0.4181957E+02  0.3922717E+02  0.0000000E+00
Ar 2311  0.3104974E+02  0.3922802E+02  0.4181910E+02  0.0000000E+00
Ar 2312  0.2801044E+02  0.4165860E+02  0.4165777E+02  0.0000000E+00
Ar 2313  0.2817803E+02  0.3893217E+02  0.4416790E+02  0.0000000E+00
Ar 2314  0.3096758E+02  0.4176364E+02  0.4460759E+02  0.0000000E+00
Ar 2315  0.3107529E+02  0.3890245E+02  0.4683713E+02  0.0000000E+00
Ar 2316  0.2823047E+02  0.4160103E+02  0.4697708E+02  0.0000000E+00
Ar 2317  0.2820693E+02  0.3878217E+02  0.5007903E+02  0.0000000E+00
Ar 2318  0.3087809E+02  0.4132443E+02  0.4995664E+02  0.0000000E+00
Ar 2319  0.3082261E+02  0.3873649E+02  0.5285884E+02  0.0000000E+00
Ar 2320  0.2845494E+02  0.4189112E+02  0.5321826E+02  0.0000000E+00
Ar 2321  0.2834076E+02  0.4368794E+02  0.7009493E+00  0.0000000E+00
Ar 2322  0.3030975E+02  0.4661089E+02  0.6672495E+00  0.0000000E+00
Ar 2323  0.3085407E+02  0.4407699E+02  0.4152328E+01  0.0000000E+00
Ar 2324  0.2791610E+02  0.4743356E+02  0.3409313E+01  0.0000000E+00
Ar 2325  0.2791277E+02  0.4452577E+02  0.6028989E+01  0.0000000E+00
Ar 2326  0.3039869E+02  0.4721364E+02  0.6683779E+01  0.0000000E+00
Ar 2327  0.3092939E+02  0.4443703E+02  0.9233728E+01  0.0000000E+00
Ar 2328  0.2779286E+02  0.4724721E+02  0.9316326E+01  0.0000000E+00
Ar 2329  0.2788878E+02  0.4450101E+02  0.1163610E+02  0.0000000E+00
Ar 2330  0.3092148E+02  0.4692280E+02  0.1197495E+02  0.0000000E+00
Ar 2331  0.3087600E+02  0.4446022E+02  0.1479731E+02  0.0000000E+00
Ar 2332  0.2765426E+02  0.4722015E+02  0.1430595E+02  0.0000000E+00
Ar 2333  0.2799248E+02  0.4453515E+02  0.1716249E+02  0.0000000E+00
Ar 2334  0.3056755E+02  0.4730931E+02  0.1726452E+02  0.0000000E+00
Ar 2335  0.3083851E+02  0.4447145E+02  0.1991008E+02  0.0000000E+00
Ar 2336  0.2800798E+02  0.4659860E+02  0.1995487E+02  0.0000000E+00
Ar 2337  0.2798871E+02  0.4448599E+02  0.2295119E+02  0.0000000E+00
Ar 2338  0.3115712E+02  0.4707941E+02  0.2281132E+02  0.0000000E+00
Ar 2339  0.3102606E+02  0.4434700E+02  0.2528648E+02  0.0000000E+00
Ar 2340  0.2853942E+02  0.4743839E+02  0.2527921E+02  0.0000000E+00
Ar 2341  0.2832583E+02  0.4432481E+02  0.2832541E+02  0.0000000E+00
Ar 2342  0.3109498E+02  0.4716131E+02  0.2801275E+02  0.0000000E+00
Ar 2343  0.3093278E+02  0.4430828E+02  0.3093225E+02  0.0000000E+00
Ar 2344  0.2801335E+02  0.4716124E+02  0.3109452E+02  0.0000000E+00
Ar 2345  0.2816451E+02  0.4465532E+02  0.3383146E+02  0.0000000E+00
Ar 2346  0.3080326E+02  0.4709821E+02  0.3362779E+02  0.0000000E+00
Ar 2347  0.3083851E+02  0.4426551E+02  0.3620443E+02  0.0000000E+00
Ar 2348  0.2828867E+02  0.4724117E+02  0.3651904E+02  0.0000000E+00
Ar 2349  0.2817750E+02  0.4416957E+02  0.3893271E+02  0.0000000E+00
Ar 2350  0.3107458E+02  0.4683776E+02  0.3890160E+02  0.0000000E+00
Ar 2351  0.3096722E+02  0.4460822E+02  0.4176329E+02  0.0000000E+00
Ar 2352  0.2823242E+02  0.4697938E+02  0.4159982E+02  0.0000000E+00
Ar 2353  0.2809230E+02  0.4419879E+02  0.4419760E+02  0.0000000E+00
Ar 2354  0.3063860E+02  0.4712147E+02  0.4449801E+02  0.0000000E+00
Ar 2355  0.3064054E+02  0.4450070E+02  0.4711978E+02  0.0000000E+00
Ar 2356  0.2797877E+02  0.4684544E+02  0.4684512E+02  0.0000000E+00
Ar 2357  0.2823695E+02  0.4424369E+02  0.4985270E+02  0.0000000E+00
Ar 2358  0.3122239E+02  0.4695559E+02  0.4979869E+02  0.0000000E+00
Ar 2359  0.3128900E+02  0.4390140E+02  0.5281059E+02  0.0000000E+00
Ar 2360  0.2867569E+02  0.4699087E+02  0.5250162E+02  0.0000000E+00
Ar 2361  0.2851356E+02  0.4983710E+02  0.5558642E+02  0.0000000E+00
Ar 2362  0.3075653E+02  0.5196864E+02  0.5584491E+02  0.0000000E+00
Ar 2363  0.3069979E+02  0.4974232E+02  0.3562316E+01  0.0000000E+00
Ar 2364  0.2880904E+02  0.5285386E+02  0.3580794E+01  0.0000000E+00
Ar 2365  0.2777156E+02  0.4992494E+02  0.6737337E+01  0.0000000E+00
Ar 2366  0.3069931E+02  0.5260674E+02  0.6413091E+01  0.0000000E+00
Ar 2367  0.3066061E+02  0.4973434E+02  0.9330347E+01  0.0000000E+00
Ar 2368  0.2821680E+02  0.5293895E+02  0.8788183E+01  0.0000000E+00
Ar 2369  0.2791114E+02  0.5006239E+02  0.1195785E+02  0.0000000E+00
Ar 2370  0.3071797E+02  0.5236784E+02  0.1177426E+02  0.0000000E+00
Ar 2371  0.3057086E+02  0.4967991E+02  0.1436820E+02  0.0000000E+00
Ar 2372  0.2790449E+02  0.5289103E+02  0.1512590E+02  0.0000000E+00
Ar 2373  0.2782893E+02  0.4958381E+02  0.1733552E+02  0.0000000E+00
Ar 2374  0.3085018E+02  0.5235380E+02  0.1745971E+02  0.0000000E+00
Ar 2375  0.3098464E+02  0.4957296E+02  0.2002678E+02  0.0000000E+00
Ar 2376  0.2808804E+02  0.5247376E+02  0.1958648E+02  0.0000000E+00
Ar 2377  0.2808647E+02  0.4967401E+02  0.2238584E+02  0.0000000E+00
Ar 2378  0.3095564E+02  0.5243237E+02  0.2270047E+02  0.0000000E+00
Ar 2379  0.3093501E+02  0.5012982E+02  0.2548085E+02  0.0000000E+00
Ar 2380  0.2783654E+02  0.5210193E+02  0.2515612E+02  0.0000000E+00
Ar 2381  0.2837887E+02  0.5011566E+02  0.2837843E+02  0.0000000E+00
Ar 2382  0.3133672E+02  0.5234216E+02  0.2817666E+02  0.0000000E+00
Ar 2383  0.3105712E+02  0.4972144E+02  0.3105659E+02  0.0000000E+00
Ar 2384  0.2817716E+02  0.5234198E+02  0.3133627E+02  0.0000000E+00
Ar 2385  0.2806556E+02  0.4995984E+02  0.3407864E+02  0.0000000E+00
Ar 2386  0.3093292E+02  0.5261657E+02  0.3367637E+02  0.0000000E+00
Ar 2387  0.3091605E+02  0.4989652E+02  0.3623322E+02  0.0000000E+00
Ar 2388  0.2835355E+02  0.5308044E+02  0.3619298E+02  0.0000000E+00
Ar 2389  0.2820836E+02  0.5007930E+02  0.3878161E+02  0.0000000E+00
Ar 2390  0.3082152E+02  0.5286432E+02  0.3874120E+02  0.0000000E+00
Ar 2391  0.3087876E+02  0.4995633E+02  0.4132422E+02  0.0000000E+00
Ar 2392  0.2844903E+02  0.5323686E+02  0.4190362E+02  0.0000000E+00
Ar 2393  0.2823475E+02  0.4985434E+02  0.4423697E+02  0.0000000E+00
Ar 2394  0.3129627E+02  0.5282069E+02  0.4388158E+02  0.0000000E+00
Ar 2395  0.3125031E+02  0.4976044E+02  0.4697046E+02  0.0000000E+00
Ar 2396  0.2868784E+02  0.5246836E+02  0.4694824E+02  0.0000000E+00
Ar 2397  0.2882101E+02  0.4986409E+02  0.4987005E+02  0.0000000E+00
Ar 2398  0.3075305E+02  0.5306906E+02  0.5017613E+02  0.0000000E+00
Ar 2399  0.3080938E+02  0.5015808E+02  0.5303401E+02  0.0000000E+00
Ar 2400  0.2785722E+02  0.5250482E+02  0.5250902E+02  0.0000000E+00
Ar 2401  0.3260680E+02  0.1603691E+01  0.1498018E+01  0.0000000E+00
Ar 2402  0.3552005E+02  0.4404861E+01  0.5544499E+02  0.0000000E+00
Ar 2403  0.3546373E+02  0.5546842E+02  0.4378539E+01  0.0000000E+00
Ar 2404  0.3366372E+02  0.3687914E+01  0.3783511E+01  0.0000000E+00
Ar 2405  0.3297569E+02  0.5533706E+02  0.6745431E+01  0.0000000E+00
Ar 2406  0.3561368E+02  0.3195386E+01  0.7181663E+01  0.0000000E+00
Ar 2407  0.3605800E+02  0.4400413E+00  0.9803424E+01  0.0000000E+00
Ar 2408  0.3301710E+02  0.3045564E+01  0.9795960E+01  0.0000000E+00
Ar 2409  0.3360396E+02  0.5535636E+02  0.1227915E+02  0.0000000E+00
Ar 2410  0.3613962E+02  0.3304276E+01  0.1174343E+02  0.0000000E+00
Ar 2411  0.3678856E+02  0.5571888E+02  0.1429373E+02  0.0000000E+00
Ar 2412  0.3343099E+02  0.3160430E+01  0.1433151E+02  0.0000000E+00
Ar 2413  0.3444127E+02  0.6332071E+00  0.1773897E+02  0.0000000E+00
Ar 2414  0.3689483E+02  0.2986177E+01  0.1738043E+02  0.0000000E+00
Ar 2415  0.3652023E+02  0.5529488E+02  0.2014571E+02  0.0000000E+00
Ar 2416  0.3393602E+02  0.2982922E+01  0.1991351E+02  0.0000000E+00
Ar 2417  0.3317987E+02  0.5542434E+02  0.2305381E+02  0.0000000E+00
Ar 2418  0.3587125E+02  0.3192478E+01  0.2289071E+02  0.0000000E+00
Ar 2419  0.3590214E+02  0.5559370E+02  0.2505558E+02  0.0000000E+00
Ar 2420  0.3330141E+02  0.3580987E+01  0.2556349E+02  0.0000000E+00
Ar 2421  0.3290471E+02  0.5552350E+02  0.2728282E+02  0.0000000E+00
Ar 2422  0.3645538E+02  0.3422166E+01  0.2790318E+02  0.0000000E+00
Ar 2423  0.3663267E+02  0.1025494E+01  0.3099175E+02  0.0000000E+00
Ar 2424  0.3362554E+02  0.3556972E+01  0.3093733E+02  0.0000000E+00
Ar 2425  0.3427098E+02  0.5570810E+02  0.3427288E+02  0.0000000E+00
Ar 2426  0.3628209E+02  0.3778953E+01  0.3351619E+02  0.0000000E+00
Ar 2427  0.3667891E+02  0.5580098E+02  0.3664674E+02  0.0000000E+00
Ar 2428  0.3351519E+02  0.3778651E+01  0.3628194E+02  0.0000000E+00
Ar 2429  0.3395275E+02  0.6738632E+00  0.3849238E+02  0.0000000E+00
Ar 2430  0.3638665E+02  0.3561305E+01  0.3898112E+02  0.0000000E+00
Ar 2431  0.3613765E+02  0.5535500E+02  0.4230564E+02  0.0000000E+00
Ar 2432  0.3377796E+02  0.3678566E+01  0.4149524E+02  0.0000000E+00
Ar 2433  0.3378674E+02  0.5588526E+02  0.4466549E+02  0.0000000E+00
Ar 2434  0.3617602E+02  0.3558189E+01  0.4498604E+02  0.0000000E+00
Ar 2435  0.3615997E+02  0.5587049E+02  0.4720179E+02  0.0000000E+00
Ar 2436  0.3322119E+02  0.3764510E+01  0.4739435E+02  0.0000000E+00
Ar 2437  0.3326176E+02  0.5571781E+02  0.4898189E+02  0.0000000E+00
Ar 2438  0.3684113E+02  0.2551445E+01  0.4975398E+02  0.0000000E+00
Ar 2439  0.3522727E+02  0.7507977E+00  0.5244109E+02  0.0000000E+00
Ar 2440  0.3391263E+02  0.4000040E+01  0.5222251E+02  0.0000000E+00
Ar 2441  0.3298604E+02  0.6755915E+01  0.5533273E+02  0.0000000E+00
Ar 2442  0.3610184E+02  0.9818775E+01  0.4693927E+00  0.0000000E+00
Ar 2443  0.3563274E+02  0.7156975E+01  0.3209185E+01  0.0000000E+00
Ar 2444  0.3303867E+02  0.9761796E+01  0.3048675E+01  0.0000000E+00
Ar 2445  0.3386564E+02  0.6396131E+01  0.6393295E+01  0.0000000E+00
Ar 2446  0.3615540E+02  0.8957980E+01  0.6521599E+01  0.0000000E+00
Ar 2447  0.3614468E+02  0.6525889E+01  0.8948524E+01  0.0000000E+00
Ar 2448  0.3328461E+02  0.8943266E+01  0.8943055E+01  0.0000000E+00
Ar 2449  0.3346047E+02  0.6324519E+01  0.1182661E+02  0.0000000E+00
Ar 2450  0.3582116E+02  0.9072403E+01  0.1158715E+02  0.0000000E+00
Ar 2451  0.3611389E+02  0.5998270E+01  0.1423340E+02  0.0000000E+00
Ar 2452  0.3357735E+02  0.8788806E+01  0.1457187E+02  0.0000000E+00
Ar 2453  0.3392269E+02  0.6108280E+01  0.1722617E+02  0.0000000E+00
Ar 2454  0.3649732E+02  0.8859724E+01  0.1727718E+02  0.0000000E+00
Ar 2455  0.3630321E+02  0.6266425E+01  0.2020814E+02  0.0000000E+00
Ar 2456  0.3338702E+02  0.9336848E+01  0.1986789E+02  0.0000000E+00
Ar 2457  0.3350961E+02  0.6038343E+01  0.2263453E+02  0.0000000E+00
Ar 2458  0.3630254E+02  0.9033157E+01  0.2261141E+02  0.0000000E+00
Ar 2459  0.3656929E+02  0.6304701E+01  0.2561497E+02  0.0000000E+00
Ar 2460  0.3352389E+02  0.9073318E+01  0.2541633E+02  0.0000000E+00
Ar 2461  0.3360311E+02  0.6469399E+01  0.2781495E+02  0.0000000E+00
Ar 2462  0.3659153E+02  0.9331674E+01  0.2793448E+02  0.0000000E+00
Ar 2463  0.3620661E+02  0.6573512E+01  0.3062426E+02  0.0000000E+00
Ar 2464  0.3361955E+02  0.9102212E+01  0.3080212E+02  0.0000000E+00
Ar 2465  0.3358747E+02  0.6352102E+01  0.3358692E+02  0.0000000E+00
Ar 2466  0.3616868E+02  0.8852745E+01  0.3367759E+02  0.0000000E+00
Ar 2467  0.3629176E+02  0.6223405E+01  0.3629102E+02  0.0000000E+00
Ar 2468  0.3367863E+02  0.8853200E+01  0.3616809E+02  0.0000000E+00
Ar 2469  0.3381540E+02  0.6327432E+01  0.3903034E+02  0.0000000E+00
Ar 2470  0.3640545E+02  0.8955495E+01  0.3908327E+02  0.0000000E+00
Ar 2471  0.3632964E+02  0.6312385E+01  0.4214536E+02  0.0000000E+00
Ar 2472  0.3363607E+02  0.9455218E+01  0.4181544E+02  0.0000000E+00
Ar 2473  0.3396070E+02  0.6674857E+01  0.4460846E+02  0.0000000E+00
Ar 2474  0.3675387E+02  0.9131183E+01  0.4440070E+02  0.0000000E+00
Ar 2475  0.3646454E+02  0.6592161E+01  0.4759404E+02  0.0000000E+00
Ar 2476  0.3356391E+02  0.9064109E+01  0.4697836E+02  0.0000000E+00
Ar 2477  0.3314036E+02  0.6571742E+01  0.4976994E+02  0.0000000E+00
Ar 2478  0.3621595E+02  0.9225915E+01  0.4989529E+02  0.0000000E+00
Ar 2479  0.3630109E+02  0.6475898E+01  0.5260555E+02  0.0000000E+00
Ar 2480  0.3359782E+02  0.9459234E+01  0.5243771E+02  0.0000000E+00
Ar 2481  0.3366931E+02  0.1234112E+02  0.5534977E+02  0.0000000E+00
Ar 2482  0.3682734E+02  0.1432390E+02  0.5572582E+02  0.0000000E+00
Ar 2483  0.3614279E+02  0.1175255E+02  0.3325200E+01  0.0000000E+00
Ar 2484  0.3342570E+02  0.1433653E+02  0.3163561E+01  0.0000000E+00
Ar 2485  0.3345990E+02  0.1180915E+02  0.6315271E+01  0.0000000E+00
Ar 2486  0.3611338E+02  0.1423862E+02  0.6003943E+01  0.0000000E+00
Ar 2487  0.3582002E+02  0.1157917E+02  0.9065090E+01  0.0000000E+00
Ar 2488  0.3357808E+02  0.1456848E+02  0.8787808E+01  0.0000000E+00
Ar 2489  0.3318212E+02  0.1161977E+02  0.1161833E+02  0.0000000E+00
Ar 2490  0.3638575E+02  0.1471030E+02  0.1168775E+02  0.0000000E+00
Ar 2491  0.3638584E+02  0.1168849E+02  0.1470998E+02  0.0000000E+00
Ar 2492  0.3353784E+02  0.1459123E+02  0.1459098E+02  0.0000000E+00
Ar 2493  0.3312129E+02  0.1187788E+02  0.1728855E+02  0.0000000E+00
Ar 2494  0.3613731E+02  0.1446201E+02  0.1729372E+02  0.0000000E+00
Ar 2495  0.3644931E+02  0.1164923E+02  0.1981856E+02  0.0000000E+00
Ar 2496  0.3366976E+02  0.1432165E+02  0.2019563E+02  0.0000000E+00
Ar 2497  0.3355412E+02  0.1165673E+02  0.2271327E+02  0.0000000E+00
Ar 2498  0.3655714E+02  0.1441672E+02  0.2220445E+02  0.0000000E+00
Ar 2499  0.3637733E+02  0.1189542E+02  0.2504195E+02  0.0000000E+00
Ar 2500  0.3346093E+02  0.1448070E+02  0.2526875E+02  0.0000000E+00
Ar 2501  0.3335034E+02  0.1169306E+02  0.2818729E+02  0.0000000E+00
Ar 2502  0.3632577E+02  0.1438266E+02  0.2791805E+02  0.0000000E+00
Ar 2503  0.3624895E+02  0.1161461E+02  0.3095039E+02  0.0000000E+00
Ar 2504  0.3365329E+02  0.1428318E+02  0.3075434E+02  0.0000000E+00
Ar 2505  0.3351528E+02  0.1181832E+02  0.3351478E+02  0.0000000E+00
Ar 2506  0.3625886E+02  0.1480031E+02  0.3355740E+02  0.0000000E+00
Ar 2507  0.3648260E+02  0.1255400E+02  0.3648172E+02  0.0000000E+00
Ar 2508  0.3355822E+02  0.1480031E+02  0.3625820E+02  0.0000000E+00
Ar 2509  0.3373398E+02  0.1227545E+02  0.3903077E+02  0.0000000E+00
Ar 2510  0.3629710E+02  0.1482280E+02  0.3932702E+02  0.0000000E+00
Ar 2511  0.3621093E+02  0.1193645E+02  0.4195586E+02  0.0000000E+00
Ar 2512  0.3348074E+02  0.1461504E+02  0.4175853E+02  0.0000000E+00
Ar 2513  0.3366870E+02  0.1209549E+02  0.4466634E+02  0.0000000E+00
Ar 2514  0.3650238E+02  0.1458301E+02  0.4441542E+02  0.0000000E+00
Ar 2515  0.3641585E+02  0.1197915E+02  0.4724534E+02  0.0000000E+00
Ar 2516  0.3379547E+02  0.1452660E+02  0.4725978E+02  0.0000000E+00
Ar 2517  0.3364488E+02  0.1202808E+02  0.4993295E+02  0.0000000E+00
Ar 2518  0.3622055E+02  0.1455183E+02  0.4991650E+02  0.0000000E+00
Ar 2519  0.3648011E+02  0.1175296E+02  0.5285690E+02  0.0000000E+00
Ar 2520  0.3356516E+02  0.1461333E+02  0.5281850E+02  0.0000000E+00
Ar 2521  0.3444409E+02  0.1774023E+02  0.6364880E+00  0.0000000E+00
Ar 2522  0.3653288E+02  0.2016264E+02  0.5528952E+02  0.0000000E+00
Ar 2523  0.3689884E+02  0.1737963E+02  0.2988885E+01  0.0000000E+00
Ar 2524  0.3393552E+02  0.1991748E+02  0.2986450E+01  0.0000000E+00
Ar 2525  0.3392200E+02  0.1722691E+02  0.6109761E+01  0.0000000E+00
Ar 2526  0.3630308E+02  0.2020879E+02  0.6267302E+01  0.0000000E+00
Ar 2527  0.3649753E+02  0.1727738E+02  0.8859017E+01  0.0000000E+00
Ar 2528  0.3338593E+02  0.1986868E+02  0.9337231E+01  0.0000000E+00
Ar 2529  0.3312078E+02  0.1728936E+02  0.1187872E+02  0.0000000E+00
Ar 2530  0.3644837E+02  0.1981960E+02  0.1165047E+02  0.0000000E+00
Ar 2531  0.3613731E+02  0.1729399E+02  0.1446230E+02  0.0000000E+00
Ar 2532  0.3366973E+02  0.2019604E+02  0.1432172E+02  0.0000000E+00
Ar 2533  0.3363303E+02  0.1722774E+02  0.1722773E+02  0.0000000E+00
Ar 2534  0.3604501E+02  0.1991782E+02  0.1734210E+02  0.0000000E+00
Ar 2535  0.3604495E+02  0.1734225E+02  0.1991759E+02  0.0000000E+00
Ar 2536  0.3351633E+02  0.2010330E+02  0.2010303E+02  0.0000000E+00
Ar 2537  0.3355048E+02  0.1711562E+02  0.2248512E+02  0.0000000E+00
Ar 2538  0.3658191E+02  0.2010341E+02  0.2268049E+02  0.0000000E+00
Ar 2539  0.3627288E+02  0.1716005E+02  0.2514328E+02  0.0000000E+00
Ar 2540  0.3367408E+02  0.1986837E+02  0.2540881E+02  0.0000000E+00
Ar 2541  0.3363338E+02  0.1700883E+02  0.2848174E+02  0.0000000E+00
Ar 2542  0.3636786E+02  0.2028907E+02  0.2811001E+02  0.0000000E+00
Ar 2543  0.3609587E+02  0.1763319E+02  0.3084645E+02  0.0000000E+00
Ar 2544  0.3358351E+02  0.2015431E+02  0.3092691E+02  0.0000000E+00
Ar 2545  0.3343110E+02  0.1692015E+02  0.3343057E+02  0.0000000E+00
Ar 2546  0.3636763E+02  0.2012946E+02  0.3361582E+02  0.0000000E+00
Ar 2547  0.3655039E+02  0.1752000E+02  0.3654934E+02  0.0000000E+00
Ar 2548  0.3361626E+02  0.2012954E+02  0.3636680E+02  0.0000000E+00
Ar 2549  0.3335507E+02  0.1745163E+02  0.3893705E+02  0.0000000E+00
Ar 2550  0.3614115E+02  0.2015359E+02  0.3896737E+02  0.0000000E+00
Ar 2551  0.3611997E+02  0.1746852E+02  0.4155192E+02  0.0000000E+00
Ar 2552  0.3355075E+02  0.2023840E+02  0.4157178E+02  0.0000000E+00
Ar 2553  0.3378676E+02  0.1734779E+02  0.4432460E+02  0.0000000E+00
Ar 2554  0.3647607E+02  0.1965996E+02  0.4449185E+02  0.0000000E+00
Ar 2555  0.3622742E+02  0.1717010E+02  0.4710633E+02  0.0000000E+00
Ar 2556  0.3395426E+02  0.1997232E+02  0.4712804E+02  0.0000000E+00
Ar 2557  0.3374032E+02  0.1743944E+02  0.4991905E+02  0.0000000E+00
Ar 2558  0.3654202E+02  0.2006959E+02  0.5013521E+02  0.0000000E+00
Ar 2559  0.3645400E+02  0.1699603E+02  0.5300004E+02  0.0000000E+00
Ar 2560  0.3330587E+02  0.1991296E+02  0.5279499E+02  0.0000000E+00
Ar 2561  0.3318000E+02  0.2305415E+02  0.5542375E+02  0.0000000E+00
Ar 2562  0.3590110E+02  0.2505662E+02  0.5559246E+02  0.0000000E+00
Ar 2563  0.3587104E+02  0.2289159E+02  0.3192016E+01  0.0000000E+00
Ar 2564  0.3330073E+02  0.2556445E+02  0.3581011E+01  0.0000000E+00
Ar 2565  0.3350957E+02  0.2263519E+02  0.6037952E+01  0.0000000E+00
Ar 2566  0.3656884E+02  0.2561568E+02  0.6304361E+01  0.0000000E+00
Ar 2567  0.3630223E+02  0.2261175E+02  0.9033998E+01  0.0000000E+00
Ar 2568  0.3352369E+02  0.2541645E+02  0.9073069E+01  0.0000000E+00
Ar 2569  0.3355376E+02  0.2271431E+02  0.1165741E+02  0.0000000E+00
Ar 2570  0.3637719E+02  0.2504263E+02  0.1189549E+02  0.0000000E+00
Ar 2571  0.3655709E+02  0.2220498E+02  0.1441705E+02  0.0000000E+00
Ar 2572  0.3346081E+02  0.2526905E+02  0.1448068E+02  0.0000000E+00
Ar 2573  0.3355051E+02  0.2248539E+02  0.1711556E+02  0.0000000E+00
Ar 2574  0.3627269E+02  0.2514361E+02  0.1716007E+02  0.0000000E+00
Ar 2575  0.3658192E+02  0.2268079E+02  0.2010317E+02  0.0000000E+00
Ar 2576  0.3367403E+02  0.2540913E+02  0.1986817E+02  0.0000000E+00
Ar 2577  0.3392275E+02  0.2253115E+02  0.2253086E+02  0.0000000E+00
Ar 2578  0.3655899E+02  0.2552760E+02  0.2276345E+02  0.0000000E+00
Ar 2579  0.3655899E+02  0.2276376E+02  0.2552727E+02  0.0000000E+00
Ar 2580  0.3371260E+02  0.2525399E+02  0.2525368E+02  0.0000000E+00
Ar 2581  0.3379401E+02  0.2287774E+02  0.2820097E+02  0.0000000E+00
Ar 2582  0.3635319E+02  0.2538346E+02  0.2823932E+02  0.0000000E+00
Ar 2583  0.3649534E+02  0.2292518E+02  0.3083734E+02  0.0000000E+00
Ar 2584  0.3355445E+02  0.2564490E+02  0.3108541E+02  0.0000000E+00
Ar 2585  0.3363173E+02  0.2279686E+02  0.3363117E+02  0.0000000E+00
Ar 2586  0.3640774E+02  0.2563625E+02  0.3363897E+02  0.0000000E+00
Ar 2587  0.3632066E+02  0.2275459E+02  0.3631978E+02  0.0000000E+00
Ar 2588  0.3363922E+02  0.2563609E+02  0.3640679E+02  0.0000000E+00
Ar 2589  0.3353594E+02  0.2278153E+02  0.3906602E+02  0.0000000E+00
Ar 2590  0.3632228E+02  0.2568512E+02  0.3892183E+02  0.0000000E+00
Ar 2591  0.3644227E+02  0.2267874E+02  0.4159421E+02  0.0000000E+00
Ar 2592  0.3378034E+02  0.2541532E+02  0.4169826E+02  0.0000000E+00
Ar 2593  0.3375199E+02  0.2269172E+02  0.4451043E+02  0.0000000E+00
Ar 2594  0.3625108E+02  0.2550038E+02  0.4431115E+02  0.0000000E+00
Ar 2595  0.3640582E+02  0.2270413E+02  0.4746801E+02  0.0000000E+00
Ar 2596  0.3384758E+02  0.2527074E+02  0.4748989E+02  0.0000000E+00
Ar 2597  0.3369547E+02  0.2253568E+02  0.5011255E+02  0.0000000E+00
Ar 2598  0.3654479E+02  0.2545540E+02  0.5014922E+02  0.0000000E+00
Ar 2599  0.3647344E+02  0.2268350E+02  0.5256743E+02  0.0000000E+00
Ar 2600  0.3383108E+02  0.2552236E+02  0.5273965E+02  0.0000000E+00
Ar 2601  0.3290464E+02  0.2728282E+02  0.5552286E+02  0.0000000E+00
Ar 2602  0.3661765E+02  0.3096867E+02  0.1029980E+01  0.0000000E+00
Ar 2603  0.3645689E+02  0.2790309E+02  0.3419480E+01  0.0000000E+00
Ar 2604  0.3362538E+02  0.3093721E+02  0.3556695E+01  0.0000000E+00
Ar 2605  0.3360261E+02  0.2781508E+02  0.6469093E+01  0.0000000E+00
Ar 2606  0.3620607E+02  0.3062466E+02  0.6573697E+01  0.0000000E+00
Ar 2607  0.3659103E+02  0.2793504E+02  0.9331753E+01  0.0000000E+00
Ar 2608  0.3361923E+02  0.3080244E+02  0.9102253E+01  0.0000000E+00
Ar 2609  0.3335031E+02  0.2818752E+02  0.1169279E+02  0.0000000E+00
Ar 2610  0.3624898E+02  0.3095053E+02  0.1161431E+02  0.0000000E+00
Ar 2611  0.3632539E+02  0.2791833E+02  0.1438299E+02  0.0000000E+00
Ar 2612  0.3365330E+02  0.3075462E+02  0.1428301E+02  0.0000000E+00
Ar 2613  0.3363317E+02  0.2848207E+02  0.1700888E+02  0.0000000E+00
Ar 2614  0.3609582E+02  0.3084672E+02  0.1763299E+02  0.0000000E+00
Ar 2615  0.3636783E+02  0.2811032E+02  0.2028886E+02  0.0000000E+00
Ar 2616  0.3358347E+02  0.3092725E+02  0.2015411E+02  0.0000000E+00
Ar 2617  0.3379398E+02  0.2820129E+02  0.2287748E+02  0.0000000E+00
Ar 2618  0.3649529E+02  0.3083766E+02  0.2292491E+02  0.0000000E+00
Ar 2619  0.3635320E+02  0.2823964E+02  0.2538314E+02  0.0000000E+00
Ar 2620  0.3355443E+02  0.3108579E+02  0.2564458E+02  0.0000000E+00
Ar 2621  0.3393722E+02  0.2820050E+02  0.2820016E+02  0.0000000E+00
Ar 2622  0.3638865E+02  0.3118903E+02  0.2812931E+02  0.0000000E+00
Ar 2623  0.3638872E+02  0.2812970E+02  0.3118869E+02  0.0000000E+00
Ar 2624  0.3397711E+02  0.3074507E+02  0.3074475E+02  0.0000000E+00
Ar 2625  0.3378975E+02  0.2837936E+02  0.3378921E+02  0.0000000E+00
Ar 2626  0.3632440E+02  0.3112221E+02  0.3353781E+02  0.0000000E+00
Ar 2627  0.3650552E+02  0.2827202E+02  0.3650464E+02  0.0000000E+00
Ar 2628  0.3353810E+02  0.3112240E+02  0.3632348E+02  0.0000000E+00
Ar 2629  0.3364758E+02  0.2827734E+02  0.3902374E+02  0.0000000E+00
Ar 2630  0.3630958E+02  0.3086054E+02  0.3896974E+02  0.0000000E+00
Ar 2631  0.3624360E+02  0.2818244E+02  0.4168892E+02  0.0000000E+00
Ar 2632  0.3376909E+02  0.3101202E+02  0.4169092E+02  0.0000000E+00
Ar 2633  0.3383203E+02  0.2816448E+02  0.4465488E+02  0.0000000E+00
Ar 2634  0.3620592E+02  0.3083809E+02  0.4426550E+02  0.0000000E+00
Ar 2635  0.3651976E+02  0.2828842E+02  0.4724066E+02  0.0000000E+00
Ar 2636  0.3362820E+02  0.3080295E+02  0.4709765E+02  0.0000000E+00
Ar 2637  0.3407888E+02  0.2806505E+02  0.4995932E+02  0.0000000E+00
Ar 2638  0.3623352E+02  0.3091561E+02  0.4989590E+02  0.0000000E+00
Ar 2639  0.3619353E+02  0.2835372E+02  0.5308001E+02  0.0000000E+00
Ar 2640  0.3367664E+02  0.3093264E+02  0.5261607E+02  0.0000000E+00
Ar 2641  0.3427494E+02  0.3427128E+02  0.5570761E+02  0.0000000E+00
Ar 2642  0.3664541E+02  0.3668158E+02  0.5580004E+02  0.0000000E+00
Ar 2643  0.3628302E+02  0.3351491E+02  0.3777890E+01  0.0000000E+00
Ar 2644  0.3351768E+02  0.3628160E+02  0.3781925E+01  0.0000000E+00
Ar 2645  0.3358758E+02  0.3358730E+02  0.6352233E+01  0.0000000E+00
Ar 2646  0.3629243E+02  0.3629110E+02  0.6223545E+01  0.0000000E+00
Ar 2647  0.3616872E+02  0.3367817E+02  0.8852893E+01  0.0000000E+00
Ar 2648  0.3367986E+02  0.3616874E+02  0.8854023E+01  0.0000000E+00
Ar 2649  0.3351536E+02  0.3351506E+02  0.1181833E+02  0.0000000E+00
Ar 2650  0.3648268E+02  0.3648237E+02  0.1255366E+02  0.0000000E+00
Ar 2651  0.3625879E+02  0.3355791E+02  0.1480012E+02  0.0000000E+00
Ar 2652  0.3355821E+02  0.3625865E+02  0.1479996E+02  0.0000000E+00
Ar 2653  0.3343105E+02  0.3343102E+02  0.1691990E+02  0.0000000E+00
Ar 2654  0.3655038E+02  0.3655036E+02  0.1751977E+02  0.0000000E+00
Ar 2655  0.3636752E+02  0.3361622E+02  0.2012931E+02  0.0000000E+00
Ar 2656  0.3361637E+02  0.3636739E+02  0.2012922E+02  0.0000000E+00
Ar 2657  0.3363178E+02  0.3363165E+02  0.2279657E+02  0.0000000E+00
Ar 2658  0.3632064E+02  0.3632051E+02  0.2275446E+02  0.0000000E+00
Ar 2659  0.3640766E+02  0.3363935E+02  0.2563582E+02  0.0000000E+00
Ar 2660  0.3363941E+02  0.3640755E+02  0.2563584E+02  0.0000000E+00
Ar 2661  0.3378991E+02  0.3378980E+02  0.2837899E+02  0.0000000E+00
Ar 2662  0.3650567E+02  0.3650548E+02  0.2827148E+02  0.0000000E+00
Ar 2663  0.3632438E+02  0.3353813E+02  0.3112187E+02  0.0000000E+00
Ar 2664  0.3353829E+02  0.3632413E+02  0.3112181E+02  0.0000000E+00
Ar 2665  0.3333993E+02  0.3333975E+02  0.3333933E+02  0.0000000E+00
Ar 2666  0.3623036E+02  0.3623020E+02  0.3380609E+02  0.0000000E+00
Ar 2667  0.3623049E+02  0.3380668E+02  0.3622940E+02  0.0000000E+00
Ar 2668  0.3380694E+02  0.3622986E+02  0.3622975E+02  0.0000000E+00
Ar 2669  0.3368414E+02  0.3368452E+02  0.3901141E+02  0.0000000E+00
Ar 2670  0.3626095E+02  0.3626096E+02  0.3900072E+02  0.0000000E+00
Ar 2671  0.3642050E+02  0.3369762E+02  0.4188408E+02  0.0000000E+00
Ar 2672  0.3369761E+02  0.3642105E+02  0.4188441E+02  0.0000000E+00
Ar 2673  0.3355490E+02  0.3355472E+02  0.4485307E+02  0.0000000E+00
Ar 2674  0.3631143E+02  0.3631169E+02  0.4482716E+02  0.0000000E+00
Ar 2675  0.3626827E+02  0.3336777E+02  0.4710446E+02  0.0000000E+00
Ar 2676  0.3336865E+02  0.3626743E+02  0.4710480E+02  0.0000000E+00
Ar 2677  0.3360919E+02  0.3360895E+02  0.4981421E+02  0.0000000E+00
Ar 2678  0.3650931E+02  0.3650937E+02  0.4951360E+02  0.0000000E+00
Ar 2679  0.3675185E+02  0.3407001E+02  0.5277731E+02  0.0000000E+00
Ar 2680  0.3407079E+02  0.3675969E+02  0.5278846E+02  0.0000000E+00
Ar 2681  0.3420228E+02  0.3887033E+02  0.6468721E+00  0.0000000E+00
Ar 2682  0.3665137E+02  0.4277703E+02  0.5553137E+02  0.0000000E+00
Ar 2683  0.3639045E+02  0.3897976E+02  0.3566696E+01  0.0000000E+00
Ar 2684  0.3377600E+02  0.4149087E+02  0.3679244E+01  0.0000000E+00
Ar 2685  0.3381563E+02  0.3902959E+02  0.6328425E+01  0.0000000E+00
Ar 2686  0.3633276E+02  0.4214302E+02  0.6311689E+01  0.0000000E+00
Ar 2687  0.3640558E+02  0.3908391E+02  0.8955296E+01  0.0000000E+00
Ar 2688  0.3363692E+02  0.4181325E+02  0.9456322E+01  0.0000000E+00
Ar 2689  0.3373426E+02  0.3903079E+02  0.1227536E+02  0.0000000E+00
Ar 2690  0.3621153E+02  0.4195621E+02  0.1193651E+02  0.0000000E+00
Ar 2691  0.3629710E+02  0.3932770E+02  0.1482266E+02  0.0000000E+00
Ar 2692  0.3348079E+02  0.4175901E+02  0.1461490E+02  0.0000000E+00
Ar 2693  0.3335506E+02  0.3893764E+02  0.1745123E+02  0.0000000E+00
Ar 2694  0.3611987E+02  0.4155290E+02  0.1746839E+02  0.0000000E+00
Ar 2695  0.3614110E+02  0.3896835E+02  0.2015371E+02  0.0000000E+00
Ar 2696  0.3355091E+02  0.4157279E+02  0.2023819E+02  0.0000000E+00
Ar 2697  0.3353684E+02  0.3906724E+02  0.2278142E+02  0.0000000E+00
Ar 2698  0.3644280E+02  0.4159503E+02  0.2267847E+02  0.0000000E+00
Ar 2699  0.3632323E+02  0.3892284E+02  0.2568504E+02  0.0000000E+00
Ar 2700  0.3378061E+02  0.4169901E+02  0.2541488E+02  0.0000000E+00
Ar 2701  0.3364850E+02  0.3902491E+02  0.2827678E+02  0.0000000E+00
Ar 2702  0.3624341E+02  0.4168927E+02  0.2818164E+02  0.0000000E+00
Ar 2703  0.3630993E+02  0.3897025E+02  0.3086000E+02  0.0000000E+00
Ar 2704  0.3376962E+02  0.4169179E+02  0.3101134E+02  0.0000000E+00
Ar 2705  0.3368469E+02  0.3901183E+02  0.3368363E+02  0.0000000E+00
Ar 2706  0.3642146E+02  0.4188507E+02  0.3369699E+02  0.0000000E+00
Ar 2707  0.3626111E+02  0.3900118E+02  0.3626032E+02  0.0000000E+00
Ar 2708  0.3369787E+02  0.4188457E+02  0.3641974E+02  0.0000000E+00
Ar 2709  0.3383389E+02  0.3936403E+02  0.3936360E+02  0.0000000E+00
Ar 2710  0.3654885E+02  0.4182183E+02  0.3899665E+02  0.0000000E+00
Ar 2711  0.3654795E+02  0.3899739E+02  0.4182218E+02  0.0000000E+00
Ar 2712  0.3375321E+02  0.4193585E+02  0.4193435E+02  0.0000000E+00
Ar 2713  0.3375217E+02  0.3903510E+02  0.4443184E+02  0.0000000E+00
Ar 2714  0.3654801E+02  0.4185940E+02  0.4440751E+02  0.0000000E+00
Ar 2715  0.3603636E+02  0.3908640E+02  0.4716086E+02  0.0000000E+00
Ar 2716  0.3340326E+02  0.4182461E+02  0.4715485E+02  0.0000000E+00
Ar 2717  0.3379018E+02  0.3912892E+02  0.4998071E+02  0.0000000E+00
Ar 2718  0.3624808E+02  0.4170594E+02  0.4980101E+02  0.0000000E+00
Ar 2719  0.3674229E+02  0.3947464E+02  0.5264116E+02  0.0000000E+00
Ar 2720  0.3366680E+02  0.4137131E+02  0.5296781E+02  0.0000000E+00
Ar 2721  0.3374396E+02  0.4466109E+02  0.5587650E+02  0.0000000E+00
Ar 2722  0.3627125E+02  0.4714137E+02  0.5588550E+02  0.0000000E+00
Ar 2723  0.3620260E+02  0.4496653E+02  0.3547797E+01  0.0000000E+00
Ar 2724  0.3322819E+02  0.4739213E+02  0.3757585E+01  0.0000000E+00
Ar 2725  0.3396910E+02  0.4461368E+02  0.6674815E+01  0.0000000E+00
Ar 2726  0.3647946E+02  0.4759063E+02  0.6596447E+01  0.0000000E+00
Ar 2727  0.3675574E+02  0.4440849E+02  0.9125886E+01  0.0000000E+00
Ar 2728  0.3356205E+02  0.4698176E+02  0.9058995E+01  0.0000000E+00
Ar 2729  0.3366974E+02  0.4466527E+02  0.1209629E+02  0.0000000E+00
Ar 2730  0.3641590E+02  0.4724229E+02  0.1198381E+02  0.0000000E+00
Ar 2731  0.3650231E+02  0.4441505E+02  0.1458388E+02  0.0000000E+00
Ar 2732  0.3379540E+02  0.4725524E+02  0.1453140E+02  0.0000000E+00
Ar 2733  0.3378693E+02  0.4432511E+02  0.1734811E+02  0.0000000E+00
Ar 2734  0.3622699E+02  0.4710684E+02  0.1717102E+02  0.0000000E+00
Ar 2735  0.3647650E+02  0.4449345E+02  0.1966000E+02  0.0000000E+00
Ar 2736  0.3395434E+02  0.4712842E+02  0.1997224E+02  0.0000000E+00
Ar 2737  0.3375223E+02  0.4451105E+02  0.2269147E+02  0.0000000E+00
Ar 2738  0.3640780E+02  0.4747121E+02  0.2270280E+02  0.0000000E+00
Ar 2739  0.3625098E+02  0.4431168E+02  0.2549981E+02  0.0000000E+00
Ar 2740  0.3384870E+02  0.4749036E+02  0.2526958E+02  0.0000000E+00
Ar 2741  0.3383234E+02  0.4465535E+02  0.2816403E+02  0.0000000E+00
Ar 2742  0.3652024E+02  0.4724119E+02  0.2828812E+02  0.0000000E+00
Ar 2743  0.3620552E+02  0.4426595E+02  0.3083850E+02  0.0000000E+00
Ar 2744  0.3362834E+02  0.4709810E+02  0.3080258E+02  0.0000000E+00
Ar 2745  0.3355543E+02  0.4485391E+02  0.3355418E+02  0.0000000E+00
Ar 2746  0.3626796E+02  0.4710540E+02  0.3336806E+02  0.0000000E+00
Ar 2747  0.3631225E+02  0.4482775E+02  0.3631046E+02  0.0000000E+00
Ar 2748  0.3336841E+02  0.4710510E+02  0.3626752E+02  0.0000000E+00
Ar 2749  0.3375193E+02  0.4443151E+02  0.3903366E+02  0.0000000E+00
Ar 2750  0.3603609E+02  0.4716106E+02  0.3908614E+02  0.0000000E+00
Ar 2751  0.3654941E+02  0.4440870E+02  0.4185878E+02  0.0000000E+00
Ar 2752  0.3340386E+02  0.4715503E+02  0.4182515E+02  0.0000000E+00
Ar 2753  0.3356485E+02  0.4450397E+02  0.4450354E+02  0.0000000E+00
Ar 2754  0.3645286E+02  0.4743349E+02  0.4459472E+02  0.0000000E+00
Ar 2755  0.3645210E+02  0.4459549E+02  0.4743311E+02  0.0000000E+00
Ar 2756  0.3395322E+02  0.4724669E+02  0.4725498E+02  0.0000000E+00
Ar 2757  0.3336826E+02  0.4406917E+02  0.4990494E+02  0.0000000E+00
Ar 2758  0.3584867E+02  0.4758179E+02  0.5041116E+02  0.0000000E+00
Ar 2759  0.3647211E+02  0.4414442E+02  0.5244564E+02  0.0000000E+00
Ar 2760  0.3328497E+02  0.4663732E+02  0.5298157E+02  0.0000000E+00
Ar 2761  0.3351657E+02  0.4910382E+02  0.5567553E+02  0.0000000E+00
Ar 2762  0.3552254E+02  0.5254757E+02  0.7653191E+00  0.0000000E+00
Ar 2763  0.3687919E+02  0.4968627E+02  0.2631322E+01  0.0000000E+00
Ar 2764  0.3390674E+02  0.5218729E+02  0.3957721E+01  0.0000000E+00
Ar 2765  0.3314273E+02  0.4976852E+02  0.6570301E+01  0.0000000E+00
Ar 2766  0.3630531E+02  0.5260416E+02  0.6472493E+01  0.0000000E+00
Ar 2767  0.3621001E+02  0.4989752E+02  0.9226862E+01  0.0000000E+00
Ar 2768  0.3357252E+02  0.5243405E+02  0.9471680E+01  0.0000000E+00
Ar 2769  0.3364131E+02  0.4992333E+02  0.1203710E+02  0.0000000E+00
Ar 2770  0.3646552E+02  0.5283539E+02  0.1176806E+02  0.0000000E+00
Ar 2771  0.3621966E+02  0.4991581E+02  0.1455573E+02  0.0000000E+00
Ar 2772  0.3356008E+02  0.5283063E+02  0.1460776E+02  0.0000000E+00
Ar 2773  0.3374011E+02  0.4991927E+02  0.1743965E+02  0.0000000E+00
Ar 2774  0.3645002E+02  0.5300188E+02  0.1699636E+02  0.0000000E+00
Ar 2775  0.3654298E+02  0.5013555E+02  0.2006939E+02  0.0000000E+00
Ar 2776  0.3330753E+02  0.5279685E+02  0.1991142E+02  0.0000000E+00
Ar 2777  0.3369554E+02  0.5011317E+02  0.2253516E+02  0.0000000E+00
Ar 2778  0.3647332E+02  0.5256723E+02  0.2268376E+02  0.0000000E+00
Ar 2779  0.3654518E+02  0.5014991E+02  0.2545474E+02  0.0000000E+00
Ar 2780  0.3383164E+02  0.5274045E+02  0.2552251E+02  0.0000000E+00
Ar 2781  0.3407885E+02  0.4995974E+02  0.2806433E+02  0.0000000E+00
Ar 2782  0.3619362E+02  0.5307917E+02  0.2835318E+02  0.0000000E+00
Ar 2783  0.3623351E+02  0.4989640E+02  0.3091477E+02  0.0000000E+00
Ar 2784  0.3367676E+02  0.5261640E+02  0.3093234E+02  0.0000000E+00
Ar 2785  0.3360936E+02  0.4981481E+02  0.3360859E+02  0.0000000E+00
Ar 2786  0.3675608E+02  0.5278441E+02  0.3407029E+02  0.0000000E+00
Ar 2787  0.3650968E+02  0.4951334E+02  0.3650985E+02  0.0000000E+00
Ar 2788  0.3406953E+02  0.5277846E+02  0.3675155E+02  0.0000000E+00
Ar 2789  0.3379082E+02  0.4997924E+02  0.3913062E+02  0.0000000E+00
Ar 2790  0.3674694E+02  0.5264125E+02  0.3946645E+02  0.0000000E+00
Ar 2791  0.3625037E+02  0.4980997E+02  0.4171165E+02  0.0000000E+00
Ar 2792  0.3368379E+02  0.5296445E+02  0.4134848E+02  0.0000000E+00
Ar 2793  0.3337272E+02  0.4991005E+02  0.4406629E+02  0.0000000E+00
Ar 2794  0.3648030E+02  0.5247031E+02  0.4413940E+02  0.0000000E+00
Ar 2795  0.3584460E+02  0.5036532E+02  0.4753983E+02  0.0000000E+00
Ar 2796  0.3329743E+02  0.5293223E+02  0.4660021E+02  0.0000000E+00
Ar 2797  0.3328307E+02  0.4999227E+02  0.4997563E+02  0.0000000E+00
Ar 2798  0.3569270E+02  0.5300291E+02  0.4989877E+02  0.0000000E+00
Ar 2799  0.3569485E+02  0.4997667E+02  0.5295711E+02  0.0000000E+00
Ar 2800  0.3359045E+02  0.5270369E+02  0.5269598E+02  0.0000000E+00
Ar 2801  0.3798411E+02  0.5666481E+00  0.5309897E+00  0.0000000E+00
Ar 2802  0.4145106E+02  0.4879515E+01  0.5107618E+00  0.0000000E+00
Ar 2803  0.4144868E+02  0.5349338E+00  0.4854572E+01  0.0000000E+00
Ar 2804  0.3703168E+02  0.3785016E+01  0.3813959E+01  0.0000000E+00
Ar 2805  0.3831467E+02  0.9894084E+00  0.6424537E+01  0.0000000E+00
Ar 2806  0.4131270E+02  0.3747598E+01  0.6439814E+01  0.0000000E+00
Ar 2807  0.4200180E+02  0.1078056E+01  0.8622217E+01  0.0000000E+00
Ar 2808  0.3894964E+02  0.4093377E+01  0.9165254E+01  0.0000000E+00
Ar 2809  0.3944500E+02  0.5564330E+02  0.1115762E+02  0.0000000E+00
Ar 2810  0.4185927E+02  0.3671904E+01  0.1159173E+02  0.0000000E+00
Ar 2811  0.4186100E+02  0.8635999E+00  0.1544874E+02  0.0000000E+00
Ar 2812  0.3907377E+02  0.3542824E+01  0.1429367E+02  0.0000000E+00
Ar 2813  0.3863199E+02  0.5547797E+02  0.1667495E+02  0.0000000E+00
Ar 2814  0.4173313E+02  0.3628959E+01  0.1756039E+02  0.0000000E+00
Ar 2815  0.4239139E+02  0.6363853E+00  0.1957774E+02  0.0000000E+00
Ar 2816  0.3910042E+02  0.3648711E+01  0.2008258E+02  0.0000000E+00
Ar 2817  0.3953891E+02  0.5537047E+02  0.2254721E+02  0.0000000E+00
Ar 2818  0.4195697E+02  0.3441850E+01  0.2272138E+02  0.0000000E+00
Ar 2819  0.4158239E+02  0.5543760E+02  0.2556534E+02  0.0000000E+00
Ar 2820  0.3907282E+02  0.3219298E+01  0.2531341E+02  0.0000000E+00
Ar 2821  0.3872193E+02  0.5582262E+02  0.2785260E+02  0.0000000E+00
Ar 2822  0.4158916E+02  0.3703440E+01  0.2830850E+02  0.0000000E+00
Ar 2823  0.4140252E+02  0.7916450E+00  0.3134495E+02  0.0000000E+00
Ar 2824  0.3889128E+02  0.3696279E+01  0.3046235E+02  0.0000000E+00
Ar 2825  0.3887258E+02  0.6577397E+00  0.3420867E+02  0.0000000E+00
Ar 2826  0.4149422E+02  0.3679296E+01  0.3377632E+02  0.0000000E+00
Ar 2827  0.4277841E+02  0.5552929E+02  0.3665845E+02  0.0000000E+00
Ar 2828  0.3898067E+02  0.3567646E+01  0.3638990E+02  0.0000000E+00
Ar 2829  0.3953307E+02  0.9581326E+00  0.3953489E+02  0.0000000E+00
Ar 2830  0.4179440E+02  0.3486132E+01  0.3877057E+02  0.0000000E+00
Ar 2831  0.4187565E+02  0.5529065E+02  0.4190625E+02  0.0000000E+00
Ar 2832  0.3877302E+02  0.3521438E+01  0.4176531E+02  0.0000000E+00
Ar 2833  0.3916534E+02  0.8820635E+00  0.4452212E+02  0.0000000E+00
Ar 2834  0.4160132E+02  0.3316006E+01  0.4431970E+02  0.0000000E+00
Ar 2835  0.4222552E+02  0.8218787E+00  0.4740169E+02  0.0000000E+00
Ar 2836  0.3879639E+02  0.3847780E+01  0.4719448E+02  0.0000000E+00
Ar 2837  0.3850124E+02  0.5481334E+02  0.5068243E+02  0.0000000E+00
Ar 2838  0.4150486E+02  0.3437456E+01  0.4977315E+02  0.0000000E+00
Ar 2839  0.4123619E+02  0.1058987E+01  0.5298089E+02  0.0000000E+00
Ar 2840  0.3796043E+02  0.3543724E+01  0.5295518E+02  0.0000000E+00
Ar 2841  0.3833122E+02  0.6482452E+01  0.9561305E+00  0.0000000E+00
Ar 2842  0.4218087E+02  0.9140495E+01  0.9036753E+00  0.0000000E+00
Ar 2843  0.4130801E+02  0.6410444E+01  0.3701416E+01  0.0000000E+00
Ar 2844  0.3895066E+02  0.9170087E+01  0.4074073E+01  0.0000000E+00
Ar 2845  0.3830607E+02  0.6211605E+01  0.6206365E+01  0.0000000E+00
Ar 2846  0.4201442E+02  0.9286447E+01  0.6578021E+01  0.0000000E+00
Ar 2847  0.4201497E+02  0.6580375E+01  0.9285293E+01  0.0000000E+00
Ar 2848  0.3921067E+02  0.9116773E+01  0.9119532E+01  0.0000000E+00
Ar 2849  0.3883594E+02  0.6623245E+01  0.1188043E+02  0.0000000E+00
Ar 2850  0.4171829E+02  0.9327633E+01  0.1187395E+02  0.0000000E+00
Ar 2851  0.4148473E+02  0.6336276E+01  0.1421293E+02  0.0000000E+00
Ar 2852  0.3887695E+02  0.8947730E+01  0.1453637E+02  0.0000000E+00
Ar 2853  0.3905512E+02  0.6147130E+01  0.1721026E+02  0.0000000E+00
Ar 2854  0.4164136E+02  0.8867194E+01  0.1723892E+02  0.0000000E+00
Ar 2855  0.4177351E+02  0.6298976E+01  0.2000784E+02  0.0000000E+00
Ar 2856  0.3928746E+02  0.8870755E+01  0.1995474E+02  0.0000000E+00
Ar 2857  0.3877876E+02  0.6340771E+01  0.2281742E+02  0.0000000E+00
Ar 2858  0.4171011E+02  0.9050460E+01  0.2258530E+02  0.0000000E+00
Ar 2859  0.4184044E+02  0.6401766E+01  0.2532574E+02  0.0000000E+00
Ar 2860  0.3896332E+02  0.9289123E+01  0.2532795E+02  0.0000000E+00
Ar 2861  0.3906312E+02  0.6436529E+01  0.2805526E+02  0.0000000E+00
Ar 2862  0.4211649E+02  0.8766088E+01  0.2815012E+02  0.0000000E+00
Ar 2863  0.4114402E+02  0.6442212E+01  0.3101765E+02  0.0000000E+00
Ar 2864  0.3894938E+02  0.9345341E+01  0.3082031E+02  0.0000000E+00
Ar 2865  0.3903118E+02  0.6327478E+01  0.3381506E+02  0.0000000E+00
Ar 2866  0.4181512E+02  0.9455188E+01  0.3363563E+02  0.0000000E+00
Ar 2867  0.4214452E+02  0.6311765E+01  0.3633018E+02  0.0000000E+00
Ar 2868  0.3908341E+02  0.8955599E+01  0.3640509E+02  0.0000000E+00
Ar 2869  0.3900962E+02  0.6255291E+01  0.3900948E+02  0.0000000E+00
Ar 2870  0.4170756E+02  0.8990454E+01  0.3912427E+02  0.0000000E+00
Ar 2871  0.4146352E+02  0.6055036E+01  0.4145891E+02  0.0000000E+00
Ar 2872  0.3912602E+02  0.8990411E+01  0.4170543E+02  0.0000000E+00
Ar 2873  0.3906572E+02  0.6135160E+01  0.4447302E+02  0.0000000E+00
Ar 2874  0.4211232E+02  0.9045692E+01  0.4458899E+02  0.0000000E+00
Ar 2875  0.4148038E+02  0.6338688E+01  0.4722057E+02  0.0000000E+00
Ar 2876  0.3914136E+02  0.9155769E+01  0.4724296E+02  0.0000000E+00
Ar 2877  0.3894514E+02  0.6348564E+01  0.5003354E+02  0.0000000E+00
Ar 2878  0.4201113E+02  0.9170347E+01  0.4983583E+02  0.0000000E+00
Ar 2879  0.4196645E+02  0.5929716E+01  0.5279324E+02  0.0000000E+00
Ar 2880  0.3950803E+02  0.8772529E+01  0.5265582E+02  0.0000000E+00
Ar 2881  0.3966810E+02  0.1146364E+02  0.5568088E+02  0.0000000E+00
Ar 2882  0.4181127E+02  0.1527036E+02  0.8180311E+00  0.0000000E+00
Ar 2883  0.4186705E+02  0.1160960E+02  0.3675725E+01  0.0000000E+00
Ar 2884  0.3907799E+02  0.1429600E+02  0.3540984E+01  0.0000000E+00
Ar 2885  0.3882520E+02  0.1187231E+02  0.6627602E+01  0.0000000E+00
Ar 2886  0.4148937E+02  0.1421390E+02  0.6330847E+01  0.0000000E+00
Ar 2887  0.4171811E+02  0.1187291E+02  0.9326512E+01  0.0000000E+00
Ar 2888  0.3887822E+02  0.1453667E+02  0.8947611E+01  0.0000000E+00
Ar 2889  0.3865949E+02  0.1182848E+02  0.1182757E+02  0.0000000E+00
Ar 2890  0.4209855E+02  0.1469920E+02  0.1182422E+02  0.0000000E+00
Ar 2891  0.4210023E+02  0.1182329E+02  0.1469943E+02  0.0000000E+00
Ar 2892  0.3953397E+02  0.1434396E+02  0.1434402E+02  0.0000000E+00
Ar 2893  0.3908507E+02  0.1144592E+02  0.1728886E+02  0.0000000E+00
Ar 2894  0.4176096E+02  0.1426233E+02  0.1740729E+02  0.0000000E+00
Ar 2895  0.4179277E+02  0.1171636E+02  0.2000568E+02  0.0000000E+00
Ar 2896  0.3903929E+02  0.1440120E+02  0.1966988E+02  0.0000000E+00
Ar 2897  0.3889658E+02  0.1179944E+02  0.2224889E+02  0.0000000E+00
Ar 2898  0.4177097E+02  0.1456846E+02  0.2235563E+02  0.0000000E+00
Ar 2899  0.4203411E+02  0.1146302E+02  0.2522921E+02  0.0000000E+00
Ar 2900  0.3914199E+02  0.1455013E+02  0.2538107E+02  0.0000000E+00
Ar 2901  0.3924746E+02  0.1188153E+02  0.2803368E+02  0.0000000E+00
Ar 2902  0.4213869E+02  0.1453241E+02  0.2798827E+02  0.0000000E+00
Ar 2903  0.4178337E+02  0.1189189E+02  0.3065885E+02  0.0000000E+00
Ar 2904  0.3895526E+02  0.1472381E+02  0.3061965E+02  0.0000000E+00
Ar 2905  0.3903152E+02  0.1227550E+02  0.3373281E+02  0.0000000E+00
Ar 2906  0.4175933E+02  0.1461508E+02  0.3348023E+02  0.0000000E+00
Ar 2907  0.4195645E+02  0.1193640E+02  0.3621002E+02  0.0000000E+00
Ar 2908  0.3932782E+02  0.1482284E+02  0.3629623E+02  0.0000000E+00
Ar 2909  0.3893830E+02  0.1189204E+02  0.3893754E+02  0.0000000E+00
Ar 2910  0.4194114E+02  0.1501334E+02  0.3915810E+02  0.0000000E+00
Ar 2911  0.4171354E+02  0.1221138E+02  0.4171278E+02  0.0000000E+00
Ar 2912  0.3916036E+02  0.1501143E+02  0.4193946E+02  0.0000000E+00
Ar 2913  0.3903327E+02  0.1191548E+02  0.4430856E+02  0.0000000E+00
Ar 2914  0.4164147E+02  0.1456395E+02  0.4456722E+02  0.0000000E+00
Ar 2915  0.4153415E+02  0.1184112E+02  0.4707394E+02  0.0000000E+00
Ar 2916  0.3901739E+02  0.1497754E+02  0.4738499E+02  0.0000000E+00
Ar 2917  0.3919107E+02  0.1176854E+02  0.4986876E+02  0.0000000E+00
Ar 2918  0.4172567E+02  0.1458188E+02  0.5024887E+02  0.0000000E+00
Ar 2919  0.4183970E+02  0.1195846E+02  0.5266337E+02  0.0000000E+00
Ar 2920  0.3898199E+02  0.1432880E+02  0.5305796E+02  0.0000000E+00
Ar 2921  0.3863614E+02  0.1665692E+02  0.5548121E+02  0.0000000E+00
Ar 2922  0.4238854E+02  0.1958787E+02  0.6375431E+00  0.0000000E+00
Ar 2923  0.4174520E+02  0.1754823E+02  0.3608846E+01  0.0000000E+00
Ar 2924  0.3910113E+02  0.2008366E+02  0.3648957E+01  0.0000000E+00
Ar 2925  0.3905464E+02  0.1721089E+02  0.6147268E+01  0.0000000E+00
Ar 2926  0.4177150E+02  0.2000601E+02  0.6300044E+01  0.0000000E+00
Ar 2927  0.4164095E+02  0.1723801E+02  0.8868184E+01  0.0000000E+00
Ar 2928  0.3928691E+02  0.1995560E+02  0.8872938E+01  0.0000000E+00
Ar 2929  0.3908475E+02  0.1728943E+02  0.1144644E+02  0.0000000E+00
Ar 2930  0.4179237E+02  0.2000537E+02  0.1171715E+02  0.0000000E+00
Ar 2931  0.4176041E+02  0.1740709E+02  0.1426275E+02  0.0000000E+00
Ar 2932  0.3903953E+02  0.1967012E+02  0.1440159E+02  0.0000000E+00
Ar 2933  0.3892677E+02  0.1720996E+02  0.1720980E+02  0.0000000E+00
Ar 2934  0.4157785E+02  0.1983616E+02  0.1696146E+02  0.0000000E+00
Ar 2935  0.4157777E+02  0.1696151E+02  0.1983609E+02  0.0000000E+00
Ar 2936  0.3926897E+02  0.1985432E+02  0.1985414E+02  0.0000000E+00
Ar 2937  0.3904845E+02  0.1698057E+02  0.2267757E+02  0.0000000E+00
Ar 2938  0.4198341E+02  0.1996880E+02  0.2255593E+02  0.0000000E+00
Ar 2939  0.4185680E+02  0.1723287E+02  0.2526931E+02  0.0000000E+00
Ar 2940  0.3919888E+02  0.1994210E+02  0.2520718E+02  0.0000000E+00
Ar 2941  0.3872622E+02  0.1740207E+02  0.2788026E+02  0.0000000E+00
Ar 2942  0.4181016E+02  0.1979880E+02  0.2807092E+02  0.0000000E+00
Ar 2943  0.4175116E+02  0.1716384E+02  0.3082037E+02  0.0000000E+00
Ar 2944  0.3907220E+02  0.2012660E+02  0.3064678E+02  0.0000000E+00
Ar 2945  0.3893786E+02  0.1745141E+02  0.3335443E+02  0.0000000E+00
Ar 2946  0.4157317E+02  0.2023842E+02  0.3355025E+02  0.0000000E+00
Ar 2947  0.4155309E+02  0.1746828E+02  0.3611870E+02  0.0000000E+00
Ar 2948  0.3896875E+02  0.2015407E+02  0.3614037E+02  0.0000000E+00
Ar 2949  0.3905323E+02  0.1739363E+02  0.3905211E+02  0.0000000E+00
Ar 2950  0.4170804E+02  0.1975222E+02  0.3879344E+02  0.0000000E+00
Ar 2951  0.4220073E+02  0.1732746E+02  0.4220032E+02  0.0000000E+00
Ar 2952  0.3879472E+02  0.1975377E+02  0.4170628E+02  0.0000000E+00
Ar 2953  0.3921509E+02  0.1728331E+02  0.4474051E+02  0.0000000E+00
Ar 2954  0.4177406E+02  0.2023447E+02  0.4456711E+02  0.0000000E+00
Ar 2955  0.4191974E+02  0.1743199E+02  0.4722234E+02  0.0000000E+00
Ar 2956  0.3894979E+02  0.1983055E+02  0.4706915E+02  0.0000000E+00
Ar 2957  0.3907359E+02  0.1720399E+02  0.5035475E+02  0.0000000E+00
Ar 2958  0.4218696E+02  0.1986684E+02  0.5014218E+02  0.0000000E+00
Ar 2959  0.4183324E+02  0.1689431E+02  0.5303618E+02  0.0000000E+00
Ar 2960  0.3948015E+02  0.2019222E+02  0.5268803E+02  0.0000000E+00
Ar 2961  0.3954368E+02  0.2254980E+02  0.5537093E+02  0.0000000E+00
Ar 2962  0.4158758E+02  0.2557164E+02  0.5543842E+02  0.0000000E+00
Ar 2963  0.4195822E+02  0.2272014E+02  0.3442746E+01  0.0000000E+00
Ar 2964  0.3907288E+02  0.2531200E+02  0.3217847E+01  0.0000000E+00
Ar 2965  0.3877843E+02  0.2281752E+02  0.6341173E+01  0.0000000E+00
Ar 2966  0.4184177E+02  0.2532722E+02  0.6402109E+01  0.0000000E+00
Ar 2967  0.4170961E+02  0.2258626E+02  0.9050603E+01  0.0000000E+00
Ar 2968  0.3896353E+02  0.2532877E+02  0.9288825E+01  0.0000000E+00
Ar 2969  0.3889648E+02  0.2224966E+02  0.1180011E+02  0.0000000E+00
Ar 2970  0.4203390E+02  0.2523065E+02  0.1146284E+02  0.0000000E+00
Ar 2971  0.4177108E+02  0.2235591E+02  0.1456881E+02  0.0000000E+00
Ar 2972  0.3914134E+02  0.2538098E+02  0.1455036E+02  0.0000000E+00
Ar 2973  0.3904837E+02  0.2267769E+02  0.1698071E+02  0.0000000E+00
Ar 2974  0.4185679E+02  0.2526966E+02  0.1723278E+02  0.0000000E+00
Ar 2975  0.4198340E+02  0.2255614E+02  0.1996849E+02  0.0000000E+00
Ar 2976  0.3919887E+02  0.2520753E+02  0.1994185E+02  0.0000000E+00
Ar 2977  0.3914482E+02  0.2242429E+02  0.2242399E+02  0.0000000E+00
Ar 2978  0.4196977E+02  0.2552992E+02  0.2271701E+02  0.0000000E+00
Ar 2979  0.4196981E+02  0.2271719E+02  0.2552963E+02  0.0000000E+00
Ar 2980  0.3900818E+02  0.2536171E+02  0.2536137E+02  0.0000000E+00
Ar 2981  0.3926565E+02  0.2268958E+02  0.2820596E+02  0.0000000E+00
Ar 2982  0.4210990E+02  0.2551166E+02  0.2804306E+02  0.0000000E+00
Ar 2983  0.4183170E+02  0.2266336E+02  0.3071527E+02  0.0000000E+00
Ar 2984  0.3933492E+02  0.2546350E+02  0.3072761E+02  0.0000000E+00
Ar 2985  0.3906766E+02  0.2278177E+02  0.3353661E+02  0.0000000E+00
Ar 2986  0.4169920E+02  0.2541514E+02  0.3378017E+02  0.0000000E+00
Ar 2987  0.4159525E+02  0.2267881E+02  0.3644237E+02  0.0000000E+00
Ar 2988  0.3892310E+02  0.2568542E+02  0.3632295E+02  0.0000000E+00
Ar 2989  0.3901444E+02  0.2276549E+02  0.3901426E+02  0.0000000E+00
Ar 2990  0.4156001E+02  0.2543681E+02  0.3893516E+02  0.0000000E+00
Ar 2991  0.4148830E+02  0.2292801E+02  0.4148821E+02  0.0000000E+00
Ar 2992  0.3893610E+02  0.2543721E+02  0.4156036E+02  0.0000000E+00
Ar 2993  0.3897536E+02  0.2269299E+02  0.4443585E+02  0.0000000E+00
Ar 2994  0.4150575E+02  0.2537689E+02  0.4424826E+02  0.0000000E+00
Ar 2995  0.4209282E+02  0.2295472E+02  0.4685852E+02  0.0000000E+00
Ar 2996  0.3885696E+02  0.2559534E+02  0.4711741E+02  0.0000000E+00
Ar 2997  0.3946950E+02  0.2246331E+02  0.4932009E+02  0.0000000E+00
Ar 2998  0.4167149E+02  0.2569740E+02  0.4958867E+02  0.0000000E+00
Ar 2999  0.4172042E+02  0.2308795E+02  0.5249815E+02  0.0000000E+00
Ar 3000  0.3906091E+02  0.2580001E+02  0.5280192E+02  0.0000000E+00
Ar 3001  0.3872547E+02  0.2785170E+02  0.5582232E+02  0.0000000E+00
Ar 3002  0.4141430E+02  0.3135110E+02  0.7895840E+00  0.0000000E+00
Ar 3003  0.4160769E+02  0.2830575E+02  0.3674020E+01  0.0000000E+00
Ar 3004  0.3889405E+02  0.3046230E+02  0.3694382E+01  0.0000000E+00
Ar 3005  0.3906404E+02  0.2805498E+02  0.6436141E+01  0.0000000E+00
Ar 3006  0.4114212E+02  0.3101764E+02  0.6442169E+01  0.0000000E+00
Ar 3007  0.4211855E+02  0.2815114E+02  0.8764091E+01  0.0000000E+00
Ar 3008  0.3894932E+02  0.3082081E+02  0.9345422E+01  0.0000000E+00
Ar 3009  0.3924735E+02  0.2803470E+02  0.1188130E+02  0.0000000E+00
Ar 3010  0.4178343E+02  0.3065937E+02  0.1189109E+02  0.0000000E+00
Ar 3011  0.4213913E+02  0.2798940E+02  0.1453181E+02  0.0000000E+00
Ar 3012  0.3895508E+02  0.3062011E+02  0.1472373E+02  0.0000000E+00
Ar 3013  0.3872617E+02  0.2788060E+02  0.1740188E+02  0.0000000E+00
Ar 3014  0.4175255E+02  0.3082082E+02  0.1716276E+02  0.0000000E+00
Ar 3015  0.4181008E+02  0.2807123E+02  0.1979867E+02  0.0000000E+00
Ar 3016  0.3907221E+02  0.3064712E+02  0.2012642E+02  0.0000000E+00
Ar 3017  0.3926560E+02  0.2820628E+02  0.2268935E+02  0.0000000E+00
Ar 3018  0.4183149E+02  0.3071564E+02  0.2266327E+02  0.0000000E+00
Ar 3019  0.4210985E+02  0.2804342E+02  0.2551136E+02  0.0000000E+00
Ar 3020  0.3933488E+02  0.3072797E+02  0.2546321E+02  0.0000000E+00
Ar 3021  0.3924340E+02  0.2807514E+02  0.2807479E+02  0.0000000E+00
Ar 3022  0.4186946E+02  0.3107755E+02  0.2819780E+02  0.0000000E+00
Ar 3023  0.4186945E+02  0.2819815E+02  0.3107720E+02  0.0000000E+00
Ar 3024  0.3906993E+02  0.3091387E+02  0.3091361E+02  0.0000000E+00
Ar 3025  0.3902529E+02  0.2827711E+02  0.3364829E+02  0.0000000E+00
Ar 3026  0.4169197E+02  0.3101178E+02  0.3376903E+02  0.0000000E+00
Ar 3027  0.4168929E+02  0.2818190E+02  0.3624260E+02  0.0000000E+00
Ar 3028  0.3897052E+02  0.3086060E+02  0.3630920E+02  0.0000000E+00
Ar 3029  0.3904537E+02  0.2824609E+02  0.3904459E+02  0.0000000E+00
Ar 3030  0.4182038E+02  0.3104994E+02  0.3922813E+02  0.0000000E+00
Ar 3031  0.4165859E+02  0.2801062E+02  0.4165849E+02  0.0000000E+00
Ar 3032  0.3922821E+02  0.3104889E+02  0.4181898E+02  0.0000000E+00
Ar 3033  0.3893370E+02  0.2817742E+02  0.4416940E+02  0.0000000E+00
Ar 3034  0.4176447E+02  0.3096671E+02  0.4460787E+02  0.0000000E+00
Ar 3035  0.4160090E+02  0.2823253E+02  0.4697903E+02  0.0000000E+00
Ar 3036  0.3890200E+02  0.3107374E+02  0.4683768E+02  0.0000000E+00
Ar 3037  0.3878236E+02  0.2820873E+02  0.5007852E+02  0.0000000E+00
Ar 3038  0.4132510E+02  0.3087856E+02  0.4995500E+02  0.0000000E+00
Ar 3039  0.4190595E+02  0.2844967E+02  0.5323462E+02  0.0000000E+00
Ar 3040  0.3874286E+02  0.3082148E+02  0.5286328E+02  0.0000000E+00
Ar 3041  0.3847879E+02  0.3394962E+02  0.6770840E+00  0.0000000E+00
Ar 3042  0.4229260E+02  0.3612473E+02  0.5535154E+02  0.0000000E+00
Ar 3043  0.4149374E+02  0.3378055E+02  0.3678526E+01  0.0000000E+00
Ar 3044  0.3898228E+02  0.3638692E+02  0.3561276E+01  0.0000000E+00
Ar 3045  0.3903238E+02  0.3381536E+02  0.6325654E+01  0.0000000E+00
Ar 3046  0.4214725E+02  0.3632896E+02  0.6311643E+01  0.0000000E+00
Ar 3047  0.4181717E+02  0.3363539E+02  0.9454440E+01  0.0000000E+00
Ar 3048  0.3908335E+02  0.3640563E+02  0.8955437E+01  0.0000000E+00
Ar 3049  0.3903179E+02  0.3373315E+02  0.1227543E+02  0.0000000E+00
Ar 3050  0.4195684E+02  0.3620996E+02  0.1193593E+02  0.0000000E+00
Ar 3051  0.4175938E+02  0.3348059E+02  0.1461485E+02  0.0000000E+00
Ar 3052  0.3932795E+02  0.3629706E+02  0.1482275E+02  0.0000000E+00
Ar 3053  0.3893769E+02  0.3335494E+02  0.1745137E+02  0.0000000E+00
Ar 3054  0.4155292E+02  0.3611984E+02  0.1746845E+02  0.0000000E+00
Ar 3055  0.4157272E+02  0.3355079E+02  0.2023830E+02  0.0000000E+00
Ar 3056  0.3896843E+02  0.3614111E+02  0.2015363E+02  0.0000000E+00
Ar 3057  0.3906732E+02  0.3353675E+02  0.2278144E+02  0.0000000E+00
Ar 3058  0.4159516E+02  0.3644270E+02  0.2267840E+02  0.0000000E+00
Ar 3059  0.4169916E+02  0.3378048E+02  0.2541483E+02  0.0000000E+00
Ar 3060  0.3892297E+02  0.3632313E+02  0.2568501E+02  0.0000000E+00
Ar 3061  0.3902510E+02  0.3364837E+02  0.2827682E+02  0.0000000E+00
Ar 3062  0.4168945E+02  0.3624322E+02  0.2818170E+02  0.0000000E+00
Ar 3063  0.4169192E+02  0.3376935E+02  0.3101151E+02  0.0000000E+00
Ar 3064  0.3897054E+02  0.3630963E+02  0.3086013E+02  0.0000000E+00
Ar 3065  0.3901243E+02  0.3368421E+02  0.3368396E+02  0.0000000E+00
Ar 3066  0.4188560E+02  0.3642096E+02  0.3369739E+02  0.0000000E+00
Ar 3067  0.4188557E+02  0.3369777E+02  0.3642062E+02  0.0000000E+00
Ar 3068  0.3900151E+02  0.3626077E+02  0.3626038E+02  0.0000000E+00
Ar 3069  0.3936448E+02  0.3383361E+02  0.3936370E+02  0.0000000E+00
Ar 3070  0.4182338E+02  0.3654773E+02  0.3899667E+02  0.0000000E+00
Ar 3071  0.4193543E+02  0.3375312E+02  0.4193572E+02  0.0000000E+00
Ar 3072  0.3899760E+02  0.3654824E+02  0.4182156E+02  0.0000000E+00
Ar 3073  0.3903429E+02  0.3375153E+02  0.4443119E+02  0.0000000E+00
Ar 3074  0.4186012E+02  0.3654912E+02  0.4440848E+02  0.0000000E+00
Ar 3075  0.4182601E+02  0.3340357E+02  0.4715415E+02  0.0000000E+00
Ar 3076  0.3908634E+02  0.3603626E+02  0.4716091E+02  0.0000000E+00
Ar 3077  0.3913191E+02  0.3379108E+02  0.4997913E+02  0.0000000E+00
Ar 3078  0.4171255E+02  0.3625189E+02  0.4981041E+02  0.0000000E+00
Ar 3079  0.4134544E+02  0.3369082E+02  0.5296524E+02  0.0000000E+00
Ar 3080  0.3946524E+02  0.3674763E+02  0.5264037E+02  0.0000000E+00
Ar 3081  0.3953621E+02  0.3953223E+02  0.9550811E+00  0.0000000E+00
Ar 3082  0.4190763E+02  0.4187426E+02  0.5528992E+02  0.0000000E+00
Ar 3083  0.4176578E+02  0.3877259E+02  0.3522395E+01  0.0000000E+00
Ar 3084  0.3877058E+02  0.4179288E+02  0.3483210E+01  0.0000000E+00
Ar 3085  0.3900910E+02  0.3901038E+02  0.6255103E+01  0.0000000E+00
Ar 3086  0.4146144E+02  0.4146091E+02  0.6055267E+01  0.0000000E+00
Ar 3087  0.4170796E+02  0.3912388E+02  0.8989647E+01  0.0000000E+00
Ar 3088  0.3912461E+02  0.4170863E+02  0.8990254E+01  0.0000000E+00
Ar 3089  0.3893855E+02  0.3893816E+02  0.1189181E+02  0.0000000E+00
Ar 3090  0.4171425E+02  0.4171278E+02  0.1221089E+02  0.0000000E+00
Ar 3091  0.4194169E+02  0.3916046E+02  0.1501190E+02  0.0000000E+00
Ar 3092  0.3915863E+02  0.4193946E+02  0.1501295E+02  0.0000000E+00
Ar 3093  0.3905312E+02  0.3905297E+02  0.1739385E+02  0.0000000E+00
Ar 3094  0.4220126E+02  0.4220033E+02  0.1732736E+02  0.0000000E+00
Ar 3095  0.4170767E+02  0.3879459E+02  0.1975263E+02  0.0000000E+00
Ar 3096  0.3879464E+02  0.4170742E+02  0.1975286E+02  0.0000000E+00
Ar 3097  0.3901458E+02  0.3901446E+02  0.2276505E+02  0.0000000E+00
Ar 3098  0.4148863E+02  0.4148847E+02  0.2292756E+02  0.0000000E+00
Ar 3099  0.4156043E+02  0.3893601E+02  0.2543674E+02  0.0000000E+00
Ar 3100  0.3893619E+02  0.4156026E+02  0.2543678E+02  0.0000000E+00
Ar 3101  0.3904589E+02  0.3904567E+02  0.2824572E+02  0.0000000E+00
Ar 3102  0.4165933E+02  0.4165909E+02  0.2801039E+02  0.0000000E+00
Ar 3103  0.4182066E+02  0.3922882E+02  0.3104945E+02  0.0000000E+00
Ar 3104  0.3922910E+02  0.4182019E+02  0.3104923E+02  0.0000000E+00
Ar 3105  0.3936472E+02  0.3936449E+02  0.3383287E+02  0.0000000E+00
Ar 3106  0.4193658E+02  0.4193609E+02  0.3375274E+02  0.0000000E+00
Ar 3107  0.4182331E+02  0.3899751E+02  0.3654725E+02  0.0000000E+00
Ar 3108  0.3899799E+02  0.4182295E+02  0.3654698E+02  0.0000000E+00
Ar 3109  0.3925418E+02  0.3925368E+02  0.3925306E+02  0.0000000E+00
Ar 3110  0.4184214E+02  0.4184291E+02  0.3914900E+02  0.0000000E+00
Ar 3111  0.4184218E+02  0.3914976E+02  0.4184175E+02  0.0000000E+00
Ar 3112  0.3915120E+02  0.4184252E+02  0.4184160E+02  0.0000000E+00
Ar 3113  0.3884670E+02  0.3884715E+02  0.4482747E+02  0.0000000E+00
Ar 3114  0.4163409E+02  0.4163305E+02  0.4450064E+02  0.0000000E+00
Ar 3115  0.4176275E+02  0.3901680E+02  0.4734985E+02  0.0000000E+00
Ar 3116  0.3901471E+02  0.4176369E+02  0.4734817E+02  0.0000000E+00
Ar 3117  0.3892990E+02  0.3893249E+02  0.5031929E+02  0.0000000E+00
Ar 3118  0.4172290E+02  0.4172559E+02  0.5025790E+02  0.0000000E+00
Ar 3119  0.4176810E+02  0.3923376E+02  0.5281651E+02  0.0000000E+00
Ar 3120  0.3924048E+02  0.4177732E+02  0.5282388E+02  0.0000000E+00
Ar 3121  0.3938527E+02  0.4433263E+02  0.7867444E+00  0.0000000E+00
Ar 3122  0.4145844E+02  0.4709182E+02  0.8263212E+00  0.0000000E+00
Ar 3123  0.4162346E+02  0.4436491E+02  0.3292397E+01  0.0000000E+00
Ar 3124  0.3881112E+02  0.4718293E+02  0.3828258E+01  0.0000000E+00
Ar 3125  0.3907721E+02  0.4446819E+02  0.6126280E+01  0.0000000E+00
Ar 3126  0.4147950E+02  0.4722657E+02  0.6336462E+01  0.0000000E+00
Ar 3127  0.4211439E+02  0.4459085E+02  0.9045285E+01  0.0000000E+00
Ar 3128  0.3915108E+02  0.4724257E+02  0.9167594E+01  0.0000000E+00
Ar 3129  0.3903057E+02  0.4430720E+02  0.1191326E+02  0.0000000E+00
Ar 3130  0.4153948E+02  0.4706534E+02  0.1184717E+02  0.0000000E+00
Ar 3131  0.4164575E+02  0.4455824E+02  0.1457119E+02  0.0000000E+00
Ar 3132  0.3901969E+02  0.4738463E+02  0.1498122E+02  0.0000000E+00
Ar 3133  0.3921340E+02  0.4474097E+02  0.1728581E+02  0.0000000E+00
Ar 3134  0.4192074E+02  0.4722281E+02  0.1743267E+02  0.0000000E+00
Ar 3135  0.4177417E+02  0.4456691E+02  0.2023396E+02  0.0000000E+00
Ar 3136  0.3894972E+02  0.4707132E+02  0.1983092E+02  0.0000000E+00
Ar 3137  0.3897492E+02  0.4443671E+02  0.2269221E+02  0.0000000E+00
Ar 3138  0.4209177E+02  0.4685755E+02  0.2295347E+02  0.0000000E+00
Ar 3139  0.4150647E+02  0.4424762E+02  0.2537638E+02  0.0000000E+00
Ar 3140  0.3885628E+02  0.4711680E+02  0.2559434E+02  0.0000000E+00
Ar 3141  0.3893294E+02  0.4416913E+02  0.2817772E+02  0.0000000E+00
Ar 3142  0.4160203E+02  0.4697832E+02  0.2823066E+02  0.0000000E+00
Ar 3143  0.4176507E+02  0.4460875E+02  0.3096656E+02  0.0000000E+00
Ar 3144  0.3890242E+02  0.4683872E+02  0.3107403E+02  0.0000000E+00
Ar 3145  0.3903531E+02  0.4443241E+02  0.3375121E+02  0.0000000E+00
Ar 3146  0.4182526E+02  0.4715476E+02  0.3340279E+02  0.0000000E+00
Ar 3147  0.4186039E+02  0.4440903E+02  0.3654719E+02  0.0000000E+00
Ar 3148  0.3908647E+02  0.4716168E+02  0.3603600E+02  0.0000000E+00
Ar 3149  0.3884775E+02  0.4482793E+02  0.3884606E+02  0.0000000E+00
Ar 3150  0.4176437E+02  0.4734921E+02  0.3901566E+02  0.0000000E+00
Ar 3151  0.4163535E+02  0.4450096E+02  0.4163414E+02  0.0000000E+00
Ar 3152  0.3901580E+02  0.4734994E+02  0.4176186E+02  0.0000000E+00
Ar 3153  0.3941141E+02  0.4466488E+02  0.4466423E+02  0.0000000E+00
Ar 3154  0.4175309E+02  0.4746002E+02  0.4428843E+02  0.0000000E+00
Ar 3155  0.4175441E+02  0.4428862E+02  0.4745691E+02  0.0000000E+00
Ar 3156  0.3900315E+02  0.4732172E+02  0.4732143E+02  0.0000000E+00
Ar 3157  0.3936455E+02  0.4448885E+02  0.4993979E+02  0.0000000E+00
Ar 3158  0.4166306E+02  0.4712567E+02  0.5007567E+02  0.0000000E+00
Ar 3159  0.4161058E+02  0.4450648E+02  0.5269457E+02  0.0000000E+00
Ar 3160  0.3909507E+02  0.4747147E+02  0.5287877E+02  0.0000000E+00
Ar 3161  0.3851701E+02  0.5066246E+02  0.5482413E+02  0.0000000E+00
Ar 3162  0.4132159E+02  0.5293333E+02  0.1004035E+01  0.0000000E+00
Ar 3163  0.4149630E+02  0.4977680E+02  0.3449978E+01  0.0000000E+00
Ar 3164  0.3798454E+02  0.5296019E+02  0.3574440E+01  0.0000000E+00
Ar 3165  0.3894077E+02  0.5004323E+02  0.6361816E+01  0.0000000E+00
Ar 3166  0.4195916E+02  0.5282977E+02  0.5913166E+01  0.0000000E+00
Ar 3167  0.4201928E+02  0.4984811E+02  0.9177809E+01  0.0000000E+00
Ar 3168  0.3951297E+02  0.5270086E+02  0.8788244E+01  0.0000000E+00
Ar 3169  0.3919342E+02  0.4986323E+02  0.1176561E+02  0.0000000E+00
Ar 3170  0.4167886E+02  0.5228617E+02  0.1198812E+02  0.0000000E+00
Ar 3171  0.4172409E+02  0.5024245E+02  0.1458363E+02  0.0000000E+00
Ar 3172  0.3898884E+02  0.5305959E+02  0.1432856E+02  0.0000000E+00
Ar 3173  0.3907337E+02  0.5035769E+02  0.1720375E+02  0.0000000E+00
Ar 3174  0.4182987E+02  0.5301941E+02  0.1690068E+02  0.0000000E+00
Ar 3175  0.4218611E+02  0.5014217E+02  0.1986608E+02  0.0000000E+00
Ar 3176  0.3947882E+02  0.5269136E+02  0.2019002E+02  0.0000000E+00
Ar 3177  0.3947219E+02  0.4932278E+02  0.2246262E+02  0.0000000E+00
Ar 3178  0.4171893E+02  0.5249768E+02  0.2308811E+02  0.0000000E+00
Ar 3179  0.4167326E+02  0.4958649E+02  0.2569902E+02  0.0000000E+00
Ar 3180  0.3905948E+02  0.5280171E+02  0.2579983E+02  0.0000000E+00
Ar 3181  0.3878299E+02  0.5007945E+02  0.2820773E+02  0.0000000E+00
Ar 3182  0.4189847E+02  0.5322593E+02  0.2845111E+02  0.0000000E+00
Ar 3183  0.4132607E+02  0.4995610E+02  0.3087732E+02  0.0000000E+00
Ar 3184  0.3873879E+02  0.5285985E+02  0.3082415E+02  0.0000000E+00
Ar 3185  0.3913015E+02  0.4998150E+02  0.3379057E+02  0.0000000E+00
Ar 3186  0.4136459E+02  0.5297049E+02  0.3368109E+02  0.0000000E+00
Ar 3187  0.4170921E+02  0.4980486E+02  0.3624880E+02  0.0000000E+00
Ar 3188  0.3947235E+02  0.5264082E+02  0.3674486E+02  0.0000000E+00
Ar 3189  0.3893195E+02  0.5031970E+02  0.3893025E+02  0.0000000E+00
Ar 3190  0.4177495E+02  0.5282150E+02  0.3923898E+02  0.0000000E+00
Ar 3191  0.4172822E+02  0.5025852E+02  0.4172297E+02  0.0000000E+00
Ar 3192  0.3923402E+02  0.5281688E+02  0.4177024E+02  0.0000000E+00
Ar 3193  0.3935060E+02  0.4994423E+02  0.4448874E+02  0.0000000E+00
Ar 3194  0.4161927E+02  0.5267616E+02  0.4448807E+02  0.0000000E+00
Ar 3195  0.4166206E+02  0.5007363E+02  0.4712217E+02  0.0000000E+00
Ar 3196  0.3909633E+02  0.5286997E+02  0.4747312E+02  0.0000000E+00
Ar 3197  0.3866597E+02  0.5038951E+02  0.5038917E+02  0.0000000E+00
Ar 3198  0.4184835E+02  0.5320748E+02  0.4976601E+02  0.0000000E+00
Ar 3199  0.4193752E+02  0.4968018E+02  0.5341685E+02  0.0000000E+00
Ar 3200  0.4057117E+02  0.5275947E+02  0.5276272E+02  0.0000000E+00
Ar 3201  0.4377989E+02  0.1360560E+01  0.1367962E+01  0.0000000E+00
Ar 3202  0.4742501E+02  0.3215864E+01  0.5556247E+02  0.0000000E+00
Ar 3203  0.4741204E+02  0.5556252E+02  0.3233655E+01  0.0000000E+00
Ar 3204  0.4436502E+02  0.3918955E+01  0.3923331E+01  0.0000000E+00
Ar 3205  0.4471492E+02  0.7129584E+00  0.6580633E+01  0.0000000E+00
Ar 3206  0.4743450E+02  0.3914507E+01  0.6384321E+01  0.0000000E+00
Ar 3207  0.4745394E+02  0.6478365E+00  0.9459615E+01  0.0000000E+00
Ar 3208  0.4468327E+02  0.3455457E+01  0.8521084E+01  0.0000000E+00
Ar 3209  0.4258764E+02  0.5525881E+02  0.1165640E+02  0.0000000E+00
Ar 3210  0.4754902E+02  0.4023522E+01  0.1221790E+02  0.0000000E+00
Ar 3211  0.4589406E+02  0.8209454E+00  0.1282551E+02  0.0000000E+00
Ar 3212  0.4403913E+02  0.3861447E+01  0.1473361E+02  0.0000000E+00
Ar 3213  0.4453501E+02  0.5575897E+02  0.1642499E+02  0.0000000E+00
Ar 3214  0.4716269E+02  0.3259439E+01  0.1687679E+02  0.0000000E+00
Ar 3215  0.4597760E+02  0.5563782E+02  0.1900107E+02  0.0000000E+00
Ar 3216  0.4502031E+02  0.3650781E+01  0.1977887E+02  0.0000000E+00
Ar 3217  0.4462305E+02  0.5494227E+02  0.2389420E+02  0.0000000E+00
Ar 3218  0.4732465E+02  0.3107568E+01  0.2284459E+02  0.0000000E+00
Ar 3219  0.4733904E+02  0.5576469E+02  0.2521665E+02  0.0000000E+00
Ar 3220  0.4420825E+02  0.2991797E+01  0.2540315E+02  0.0000000E+00
Ar 3221  0.4374079E+02  0.7086045E+00  0.2836426E+02  0.0000000E+00
Ar 3222  0.4741869E+02  0.3385631E+01  0.2790902E+02  0.0000000E+00
Ar 3223  0.4668953E+02  0.6580789E+00  0.3047046E+02  0.0000000E+00
Ar 3224  0.4407902E+02  0.4149562E+01  0.3086172E+02  0.0000000E+00
Ar 3225  0.4466513E+02  0.5588403E+02  0.3377281E+02  0.0000000E+00
Ar 3226  0.4739113E+02  0.3766319E+01  0.3323014E+02  0.0000000E+00
Ar 3227  0.4714894E+02  0.5588122E+02  0.3623877E+02  0.0000000E+00
Ar 3228  0.4497052E+02  0.3544648E+01  0.3619909E+02  0.0000000E+00
Ar 3229  0.4434366E+02  0.7880884E+00  0.3937216E+02  0.0000000E+00
Ar 3230  0.4719232E+02  0.3834591E+01  0.3880306E+02  0.0000000E+00
Ar 3231  0.4706486E+02  0.8246514E+00  0.4144667E+02  0.0000000E+00
Ar 3232  0.4436764E+02  0.3291325E+01  0.4162113E+02  0.0000000E+00
Ar 3233  0.4404359E+02  0.5575097E+02  0.4401011E+02  0.0000000E+00
Ar 3234  0.4695849E+02  0.3647202E+01  0.4408149E+02  0.0000000E+00
Ar 3235  0.4684721E+02  0.5572009E+02  0.4684192E+02  0.0000000E+00
Ar 3236  0.4417029E+02  0.3868052E+01  0.4689798E+02  0.0000000E+00
Ar 3237  0.4455352E+02  0.1074284E+01  0.4996796E+02  0.0000000E+00
Ar 3238  0.4678213E+02  0.3962822E+01  0.4925238E+02  0.0000000E+00
Ar 3239  0.4718118E+02  0.5560602E+02  0.5278188E+02  0.0000000E+00
Ar 3240  0.4437958E+02  0.3046911E+01  0.5313976E+02  0.0000000E+00
Ar 3241  0.4481822E+02  0.6629333E+01  0.7449643E+00  0.0000000E+00
Ar 3242  0.4745351E+02  0.9480644E+01  0.6470466E+00  0.0000000E+00
Ar 3243  0.4744228E+02  0.6382759E+01  0.3912265E+01  0.0000000E+00
Ar 3244  0.4470716E+02  0.8535388E+01  0.3490789E+01  0.0000000E+00
Ar 3245  0.4458296E+02  0.6540295E+01  0.6544019E+01  0.0000000E+00
Ar 3246  0.4766185E+02  0.9243837E+01  0.6618182E+01  0.0000000E+00
Ar 3247  0.4766142E+02  0.6619451E+01  0.9243256E+01  0.0000000E+00
Ar 3248  0.4467227E+02  0.9215018E+01  0.9214854E+01  0.0000000E+00
Ar 3249  0.4463460E+02  0.6411532E+01  0.1182832E+02  0.0000000E+00
Ar 3250  0.4728463E+02  0.9266274E+01  0.1183624E+02  0.0000000E+00
Ar 3251  0.4742109E+02  0.6756567E+01  0.1511127E+02  0.0000000E+00
Ar 3252  0.4447674E+02  0.9197793E+01  0.1450872E+02  0.0000000E+00
Ar 3253  0.4409464E+02  0.6292795E+01  0.1709245E+02  0.0000000E+00
Ar 3254  0.4719636E+02  0.9160803E+01  0.1751121E+02  0.0000000E+00
Ar 3255  0.4738106E+02  0.6310566E+01  0.1963757E+02  0.0000000E+00
Ar 3256  0.4433462E+02  0.8857353E+01  0.1969535E+02  0.0000000E+00
Ar 3257  0.4444596E+02  0.6108249E+01  0.2271158E+02  0.0000000E+00
Ar 3258  0.4703494E+02  0.9024241E+01  0.2226141E+02  0.0000000E+00
Ar 3259  0.4723361E+02  0.6204590E+01  0.2511465E+02  0.0000000E+00
Ar 3260  0.4470344E+02  0.8860506E+01  0.2521806E+02  0.0000000E+00
Ar 3261  0.4453004E+02  0.6026343E+01  0.2791579E+02  0.0000000E+00
Ar 3262  0.4724767E+02  0.9318192E+01  0.2779101E+02  0.0000000E+00
Ar 3263  0.4721299E+02  0.6681728E+01  0.3039589E+02  0.0000000E+00
Ar 3264  0.4443782E+02  0.9234794E+01  0.3092842E+02  0.0000000E+00
Ar 3265  0.4461386E+02  0.6673500E+01  0.3396624E+02  0.0000000E+00
Ar 3266  0.4698098E+02  0.9061737E+01  0.3356246E+02  0.0000000E+00
Ar 3267  0.4759316E+02  0.6595851E+01  0.3647078E+02  0.0000000E+00
Ar 3268  0.4440508E+02  0.9128478E+01  0.3675355E+02  0.0000000E+00
Ar 3269  0.4447130E+02  0.6129307E+01  0.3907211E+02  0.0000000E+00
Ar 3270  0.4724364E+02  0.9161954E+01  0.3914614E+02  0.0000000E+00
Ar 3271  0.4722390E+02  0.6336408E+01  0.4148003E+02  0.0000000E+00
Ar 3272  0.4459196E+02  0.9045056E+01  0.4211216E+02  0.0000000E+00
Ar 3273  0.4411920E+02  0.5778618E+01  0.4409457E+02  0.0000000E+00
Ar 3274  0.4727719E+02  0.9291911E+01  0.4444337E+02  0.0000000E+00
Ar 3275  0.4655860E+02  0.6396968E+01  0.4655347E+02  0.0000000E+00
Ar 3276  0.4443739E+02  0.9290462E+01  0.4728183E+02  0.0000000E+00
Ar 3277  0.4453148E+02  0.6401390E+01  0.4994404E+02  0.0000000E+00
Ar 3278  0.4679975E+02  0.8995495E+01  0.5005331E+02  0.0000000E+00
Ar 3279  0.4649618E+02  0.6395936E+01  0.5317200E+02  0.0000000E+00
Ar 3280  0.4455620E+02  0.9453976E+01  0.5271675E+02  0.0000000E+00
Ar 3281  0.4359563E+02  0.1213915E+02  0.5548978E+02  0.0000000E+00
Ar 3282  0.4702924E+02  0.1422095E+02  0.6159516E+00  0.0000000E+00
Ar 3283  0.4752313E+02  0.1224907E+02  0.3945241E+01  0.0000000E+00
Ar 3284  0.4442838E+02  0.1454736E+02  0.3259520E+01  0.0000000E+00
Ar 3285  0.4463504E+02  0.1182929E+02  0.6414289E+01  0.0000000E+00
Ar 3286  0.4742210E+02  0.1511103E+02  0.6757248E+01  0.0000000E+00
Ar 3287  0.4728549E+02  0.1183507E+02  0.9267127E+01  0.0000000E+00
Ar 3288  0.4447498E+02  0.1450904E+02  0.9199970E+01  0.0000000E+00
Ar 3289  0.4443742E+02  0.1174456E+02  0.1174478E+02  0.0000000E+00
Ar 3290  0.4729984E+02  0.1493809E+02  0.1193712E+02  0.0000000E+00
Ar 3291  0.4730018E+02  0.1193736E+02  0.1493806E+02  0.0000000E+00
Ar 3292  0.4430014E+02  0.1480310E+02  0.1480340E+02  0.0000000E+00
Ar 3293  0.4458217E+02  0.1199767E+02  0.1720172E+02  0.0000000E+00
Ar 3294  0.4722856E+02  0.1487115E+02  0.1742715E+02  0.0000000E+00
Ar 3295  0.4709031E+02  0.1173815E+02  0.1991169E+02  0.0000000E+00
Ar 3296  0.4451704E+02  0.1464395E+02  0.2005920E+02  0.0000000E+00
Ar 3297  0.4459046E+02  0.1168309E+02  0.2239728E+02  0.0000000E+00
Ar 3298  0.4709349E+02  0.1496570E+02  0.2259136E+02  0.0000000E+00
Ar 3299  0.4739428E+02  0.1183835E+02  0.2507460E+02  0.0000000E+00
Ar 3300  0.4451390E+02  0.1420256E+02  0.2528650E+02  0.0000000E+00
Ar 3301  0.4450129E+02  0.1163573E+02  0.2788793E+02  0.0000000E+00
Ar 3302  0.4722082E+02  0.1430552E+02  0.2765385E+02  0.0000000E+00
Ar 3303  0.4692388E+02  0.1197456E+02  0.3092059E+02  0.0000000E+00
Ar 3304  0.4446106E+02  0.1479705E+02  0.3087556E+02  0.0000000E+00
Ar 3305  0.4466601E+02  0.1209618E+02  0.3366868E+02  0.0000000E+00
Ar 3306  0.4725715E+02  0.1452965E+02  0.3379429E+02  0.0000000E+00
Ar 3307  0.4724387E+02  0.1198170E+02  0.3641505E+02  0.0000000E+00
Ar 3308  0.4441629E+02  0.1458316E+02  0.3650152E+02  0.0000000E+00
Ar 3309  0.4430835E+02  0.1191387E+02  0.3903079E+02  0.0000000E+00
Ar 3310  0.4738587E+02  0.1498081E+02  0.3901810E+02  0.0000000E+00
Ar 3311  0.4707032E+02  0.1184326E+02  0.4153560E+02  0.0000000E+00
Ar 3312  0.4456289E+02  0.1456841E+02  0.4164283E+02  0.0000000E+00
Ar 3313  0.4450075E+02  0.1182521E+02  0.4450124E+02  0.0000000E+00
Ar 3314  0.4718589E+02  0.1450516E+02  0.4424953E+02  0.0000000E+00
Ar 3315  0.4763628E+02  0.1176109E+02  0.4764017E+02  0.0000000E+00
Ar 3316  0.4424432E+02  0.1450323E+02  0.4718785E+02  0.0000000E+00
Ar 3317  0.4449088E+02  0.1183625E+02  0.4997552E+02  0.0000000E+00
Ar 3318  0.4732416E+02  0.1490973E+02  0.4979962E+02  0.0000000E+00
Ar 3319  0.4738210E+02  0.1206680E+02  0.5296865E+02  0.0000000E+00
Ar 3320  0.4449889E+02  0.1452544E+02  0.5277087E+02  0.0000000E+00
Ar 3321  0.4439100E+02  0.1640714E+02  0.5575267E+02  0.0000000E+00
Ar 3322  0.4595170E+02  0.1897205E+02  0.5563684E+02  0.0000000E+00
Ar 3323  0.4714070E+02  0.1696217E+02  0.3381640E+01  0.0000000E+00
Ar 3324  0.4500780E+02  0.1977993E+02  0.3652543E+01  0.0000000E+00
Ar 3325  0.4409471E+02  0.1707952E+02  0.6275438E+01  0.0000000E+00
Ar 3326  0.4737934E+02  0.1964039E+02  0.6310801E+01  0.0000000E+00
Ar 3327  0.4719636E+02  0.1751368E+02  0.9162389E+01  0.0000000E+00
Ar 3328  0.4433457E+02  0.1969604E+02  0.8856749E+01  0.0000000E+00
Ar 3329  0.4458230E+02  0.1720119E+02  0.1199857E+02  0.0000000E+00
Ar 3330  0.4708983E+02  0.1991233E+02  0.1173882E+02  0.0000000E+00
Ar 3331  0.4722898E+02  0.1742693E+02  0.1487140E+02  0.0000000E+00
Ar 3332  0.4451695E+02  0.2005905E+02  0.1464411E+02  0.0000000E+00
Ar 3333  0.4419483E+02  0.1750427E+02  0.1750415E+02  0.0000000E+00
Ar 3334  0.4734335E+02  0.1995503E+02  0.1730396E+02  0.0000000E+00
Ar 3335  0.4734332E+02  0.1730414E+02  0.1995495E+02  0.0000000E+00
Ar 3336  0.4471196E+02  0.1992825E+02  0.1992808E+02  0.0000000E+00
Ar 3337  0.4470711E+02  0.1755734E+02  0.2253668E+02  0.0000000E+00
Ar 3338  0.4728064E+02  0.2011834E+02  0.2253578E+02  0.0000000E+00
Ar 3339  0.4703767E+02  0.1728359E+02  0.2515994E+02  0.0000000E+00
Ar 3340  0.4435998E+02  0.2001027E+02  0.2523280E+02  0.0000000E+00
Ar 3341  0.4453552E+02  0.1716259E+02  0.2799212E+02  0.0000000E+00
Ar 3342  0.4659877E+02  0.1995485E+02  0.2800762E+02  0.0000000E+00
Ar 3343  0.4731021E+02  0.1726450E+02  0.3056724E+02  0.0000000E+00
Ar 3344  0.4447172E+02  0.1990998E+02  0.3083801E+02  0.0000000E+00
Ar 3345  0.4432534E+02  0.1734810E+02  0.3378659E+02  0.0000000E+00
Ar 3346  0.4712881E+02  0.1997250E+02  0.3395393E+02  0.0000000E+00
Ar 3347  0.4710750E+02  0.1717090E+02  0.3622645E+02  0.0000000E+00
Ar 3348  0.4449434E+02  0.1966017E+02  0.3647570E+02  0.0000000E+00
Ar 3349  0.4474287E+02  0.1728492E+02  0.3921286E+02  0.0000000E+00
Ar 3350  0.4707160E+02  0.1983179E+02  0.3894893E+02  0.0000000E+00
Ar 3351  0.4722427E+02  0.1743354E+02  0.4191938E+02  0.0000000E+00
Ar 3352  0.4456716E+02  0.2023357E+02  0.4177345E+02  0.0000000E+00
Ar 3353  0.4466472E+02  0.1729438E+02  0.4466824E+02  0.0000000E+00
Ar 3354  0.4739525E+02  0.2011920E+02  0.4444544E+02  0.0000000E+00
Ar 3355  0.4723574E+02  0.1739790E+02  0.4723662E+02  0.0000000E+00
Ar 3356  0.4444368E+02  0.2012103E+02  0.4739515E+02  0.0000000E+00
Ar 3357  0.4442111E+02  0.1713773E+02  0.5004698E+02  0.0000000E+00
Ar 3358  0.4701887E+02  0.2029194E+02  0.4992383E+02  0.0000000E+00
Ar 3359  0.4739861E+02  0.1729344E+02  0.5276567E+02  0.0000000E+00
Ar 3360  0.4476390E+02  0.1954937E+02  0.5272103E+02  0.0000000E+00
Ar 3361  0.4462663E+02  0.2388278E+02  0.5493814E+02  0.0000000E+00
Ar 3362  0.4737086E+02  0.2527889E+02  0.5577105E+02  0.0000000E+00
Ar 3363  0.4732653E+02  0.2280734E+02  0.3147433E+01  0.0000000E+00
Ar 3364  0.4420450E+02  0.2539782E+02  0.2997425E+01  0.0000000E+00
Ar 3365  0.4444873E+02  0.2271518E+02  0.6109074E+01  0.0000000E+00
Ar 3366  0.4722948E+02  0.2511770E+02  0.6198976E+01  0.0000000E+00
Ar 3367  0.4703420E+02  0.2226191E+02  0.9024344E+01  0.0000000E+00
Ar 3368  0.4470584E+02  0.2521977E+02  0.8858050E+01  0.0000000E+00
Ar 3369  0.4458932E+02  0.2239770E+02  0.1168355E+02  0.0000000E+00
Ar 3370  0.4739402E+02  0.2507449E+02  0.1183794E+02  0.0000000E+00
Ar 3371  0.4709325E+02  0.2259167E+02  0.1496564E+02  0.0000000E+00
Ar 3372  0.4451369E+02  0.2528730E+02  0.1420219E+02  0.0000000E+00
Ar 3373  0.4470721E+02  0.2253693E+02  0.1755728E+02  0.0000000E+00
Ar 3374  0.4703748E+02  0.2516054E+02  0.1728310E+02  0.0000000E+00
Ar 3375  0.4728071E+02  0.2253610E+02  0.2011822E+02  0.0000000E+00
Ar 3376  0.4436000E+02  0.2523308E+02  0.2001007E+02  0.0000000E+00
Ar 3377  0.4448692E+02  0.2287635E+02  0.2287615E+02  0.0000000E+00
Ar 3378  0.4719070E+02  0.2533685E+02  0.2255589E+02  0.0000000E+00
Ar 3379  0.4719066E+02  0.2255610E+02  0.2533659E+02  0.0000000E+00
Ar 3380  0.4509914E+02  0.2567183E+02  0.2567147E+02  0.0000000E+00
Ar 3381  0.4448625E+02  0.2295136E+02  0.2798826E+02  0.0000000E+00
Ar 3382  0.4743833E+02  0.2527970E+02  0.2853896E+02  0.0000000E+00
Ar 3383  0.4707954E+02  0.2281158E+02  0.3115646E+02  0.0000000E+00
Ar 3384  0.4434722E+02  0.2528682E+02  0.3102550E+02  0.0000000E+00
Ar 3385  0.4451120E+02  0.2269178E+02  0.3375168E+02  0.0000000E+00
Ar 3386  0.4749014E+02  0.2526993E+02  0.3384790E+02  0.0000000E+00
Ar 3387  0.4747271E+02  0.2270277E+02  0.3640754E+02  0.0000000E+00
Ar 3388  0.4431184E+02  0.2549996E+02  0.3625025E+02  0.0000000E+00
Ar 3389  0.4443705E+02  0.2269189E+02  0.3897374E+02  0.0000000E+00
Ar 3390  0.4711641E+02  0.2559396E+02  0.3885513E+02  0.0000000E+00
Ar 3391  0.4685709E+02  0.2295345E+02  0.4209111E+02  0.0000000E+00
Ar 3392  0.4424688E+02  0.2537615E+02  0.4150560E+02  0.0000000E+00
Ar 3393  0.4469506E+02  0.2290860E+02  0.4469639E+02  0.0000000E+00
Ar 3394  0.4695816E+02  0.2560362E+02  0.4440001E+02  0.0000000E+00
Ar 3395  0.4722744E+02  0.2277899E+02  0.4721947E+02  0.0000000E+00
Ar 3396  0.4440021E+02  0.2560321E+02  0.4696086E+02  0.0000000E+00
Ar 3397  0.4466635E+02  0.2305232E+02  0.4988194E+02  0.0000000E+00
Ar 3398  0.4740113E+02  0.2550295E+02  0.4991265E+02  0.0000000E+00
Ar 3399  0.4764927E+02  0.2260635E+02  0.5347199E+02  0.0000000E+00
Ar 3400  0.4477416E+02  0.2606384E+02  0.5248028E+02  0.0000000E+00
Ar 3401  0.4373489E+02  0.2834154E+02  0.7277662E+00  0.0000000E+00
Ar 3402  0.4661610E+02  0.3043509E+02  0.6615469E+00  0.0000000E+00
Ar 3403  0.4740235E+02  0.2789577E+02  0.3356659E+01  0.0000000E+00
Ar 3404  0.4407473E+02  0.3087514E+02  0.4138279E+01  0.0000000E+00
Ar 3405  0.4454126E+02  0.2792792E+02  0.6020097E+01  0.0000000E+00
Ar 3406  0.4720991E+02  0.3039400E+02  0.6683672E+01  0.0000000E+00
Ar 3407  0.4724671E+02  0.2778936E+02  0.9322585E+01  0.0000000E+00
Ar 3408  0.4443730E+02  0.3092883E+02  0.9235920E+01  0.0000000E+00
Ar 3409  0.4450152E+02  0.2788994E+02  0.1163587E+02  0.0000000E+00
Ar 3410  0.4692486E+02  0.3091865E+02  0.1197275E+02  0.0000000E+00
Ar 3411  0.4722348E+02  0.2765471E+02  0.1430171E+02  0.0000000E+00
Ar 3412  0.4446694E+02  0.3087503E+02  0.1478999E+02  0.0000000E+00
Ar 3413  0.4453560E+02  0.2799323E+02  0.1716166E+02  0.0000000E+00
Ar 3414  0.4730917E+02  0.3056708E+02  0.1726437E+02  0.0000000E+00
Ar 3415  0.4659869E+02  0.2800786E+02  0.1995486E+02  0.0000000E+00
Ar 3416  0.4447155E+02  0.3083847E+02  0.1991035E+02  0.0000000E+00
Ar 3417  0.4448617E+02  0.2798865E+02  0.2295115E+02  0.0000000E+00
Ar 3418  0.4707970E+02  0.3115695E+02  0.2281131E+02  0.0000000E+00
Ar 3419  0.4743846E+02  0.2853935E+02  0.2527935E+02  0.0000000E+00
Ar 3420  0.4434729E+02  0.3102596E+02  0.2528636E+02  0.0000000E+00
Ar 3421  0.4432499E+02  0.2832577E+02  0.2832535E+02  0.0000000E+00
Ar 3422  0.4716154E+02  0.3109485E+02  0.2801271E+02  0.0000000E+00
Ar 3423  0.4716143E+02  0.2801326E+02  0.3109445E+02  0.0000000E+00
Ar 3424  0.4430834E+02  0.3093263E+02  0.3093231E+02  0.0000000E+00
Ar 3425  0.4465552E+02  0.2816424E+02  0.3383179E+02  0.0000000E+00
Ar 3426  0.4709832E+02  0.3080309E+02  0.3362775E+02  0.0000000E+00
Ar 3427  0.4724135E+02  0.2828827E+02  0.3651959E+02  0.0000000E+00
Ar 3428  0.4426582E+02  0.3083924E+02  0.3620396E+02  0.0000000E+00
Ar 3429  0.4416860E+02  0.2817841E+02  0.3893166E+02  0.0000000E+00
Ar 3430  0.4683891E+02  0.3107514E+02  0.3890181E+02  0.0000000E+00
Ar 3431  0.4697743E+02  0.2823035E+02  0.4160110E+02  0.0000000E+00
Ar 3432  0.4460873E+02  0.3096751E+02  0.4176372E+02  0.0000000E+00
Ar 3433  0.4419852E+02  0.2809233E+02  0.4419851E+02  0.0000000E+00
Ar 3434  0.4712186E+02  0.3064187E+02  0.4450135E+02  0.0000000E+00
Ar 3435  0.4684628E+02  0.2797921E+02  0.4684559E+02  0.0000000E+00
Ar 3436  0.4449988E+02  0.3063927E+02  0.4712270E+02  0.0000000E+00
Ar 3437  0.4423643E+02  0.2823357E+02  0.4985186E+02  0.0000000E+00
Ar 3438  0.4697413E+02  0.3126248E+02  0.4975706E+02  0.0000000E+00
Ar 3439  0.4694084E+02  0.2868763E+02  0.5245282E+02  0.0000000E+00
Ar 3440  0.4387895E+02  0.3130157E+02  0.5282141E+02  0.0000000E+00
Ar 3441  0.4467151E+02  0.3380013E+02  0.5589309E+02  0.0000000E+00
Ar 3442  0.4720938E+02  0.3615849E+02  0.5586513E+02  0.0000000E+00
Ar 3443  0.4740791E+02  0.3321751E+02  0.3765326E+01  0.0000000E+00
Ar 3444  0.4499139E+02  0.3617624E+02  0.3554245E+01  0.0000000E+00
Ar 3445  0.4461003E+02  0.3396086E+02  0.6673537E+01  0.0000000E+00
Ar 3446  0.4759590E+02  0.3646195E+02  0.6590748E+01  0.0000000E+00
Ar 3447  0.4697952E+02  0.3356307E+02  0.9064645E+01  0.0000000E+00
Ar 3448  0.4440614E+02  0.3675295E+02  0.9128737E+01  0.0000000E+00
Ar 3449  0.4466783E+02  0.3366794E+02  0.1209466E+02  0.0000000E+00
Ar 3450  0.4724502E+02  0.3641478E+02  0.1197972E+02  0.0000000E+00
Ar 3451  0.4726064E+02  0.3379512E+02  0.1452620E+02  0.0000000E+00
Ar 3452  0.4441633E+02  0.3650209E+02  0.1458244E+02  0.0000000E+00
Ar 3453  0.4432539E+02  0.3378698E+02  0.1734771E+02  0.0000000E+00
Ar 3454  0.4710720E+02  0.3622755E+02  0.1716946E+02  0.0000000E+00
Ar 3455  0.4712869E+02  0.3395450E+02  0.1997227E+02  0.0000000E+00
Ar 3456  0.4449366E+02  0.3647653E+02  0.1965961E+02  0.0000000E+00
Ar 3457  0.4451120E+02  0.3375196E+02  0.2269150E+02  0.0000000E+00
Ar 3458  0.4747128E+02  0.3640748E+02  0.2270286E+02  0.0000000E+00
Ar 3459  0.4749060E+02  0.3384829E+02  0.2526978E+02  0.0000000E+00
Ar 3460  0.4431184E+02  0.3625078E+02  0.2549981E+02  0.0000000E+00
Ar 3461  0.4465555E+02  0.3383223E+02  0.2816401E+02  0.0000000E+00
Ar 3462  0.4724140E+02  0.3652006E+02  0.2828811E+02  0.0000000E+00
Ar 3463  0.4709832E+02  0.3362821E+02  0.3080258E+02  0.0000000E+00
Ar 3464  0.4426635E+02  0.3620523E+02  0.3083866E+02  0.0000000E+00
Ar 3465  0.4485432E+02  0.3355499E+02  0.3355466E+02  0.0000000E+00
Ar 3466  0.4710558E+02  0.3626769E+02  0.3336829E+02  0.0000000E+00
Ar 3467  0.4710548E+02  0.3336901E+02  0.3626677E+02  0.0000000E+00
Ar 3468  0.4482827E+02  0.3631144E+02  0.3631124E+02  0.0000000E+00
Ar 3469  0.4443291E+02  0.3375203E+02  0.3903465E+02  0.0000000E+00
Ar 3470  0.4716203E+02  0.3603626E+02  0.3908581E+02  0.0000000E+00
Ar 3471  0.4715573E+02  0.3340331E+02  0.4182395E+02  0.0000000E+00
Ar 3472  0.4440919E+02  0.3654791E+02  0.4185876E+02  0.0000000E+00
Ar 3473  0.4450520E+02  0.3356384E+02  0.4450392E+02  0.0000000E+00
Ar 3474  0.4743346E+02  0.3645386E+02  0.4459545E+02  0.0000000E+00
Ar 3475  0.4725663E+02  0.3395362E+02  0.4724309E+02  0.0000000E+00
Ar 3476  0.4459598E+02  0.3645395E+02  0.4743269E+02  0.0000000E+00
Ar 3477  0.4406566E+02  0.3337569E+02  0.4991022E+02  0.0000000E+00
Ar 3478  0.4752742E+02  0.3584233E+02  0.5034732E+02  0.0000000E+00
Ar 3479  0.4660735E+02  0.3329936E+02  0.5294670E+02  0.0000000E+00
Ar 3480  0.4413719E+02  0.3648208E+02  0.5247072E+02  0.0000000E+00
Ar 3481  0.4453298E+02  0.3917695E+02  0.8856109E+00  0.0000000E+00
Ar 3482  0.4740491E+02  0.4222146E+02  0.8226421E+00  0.0000000E+00
Ar 3483  0.4719828E+02  0.3879939E+02  0.3846575E+01  0.0000000E+00
Ar 3484  0.4432011E+02  0.4159882E+02  0.3317506E+01  0.0000000E+00
Ar 3485  0.4447692E+02  0.3906541E+02  0.6132740E+01  0.0000000E+00
Ar 3486  0.4722325E+02  0.4147937E+02  0.6338126E+01  0.0000000E+00
Ar 3487  0.4724702E+02  0.3914040E+02  0.9153803E+01  0.0000000E+00
Ar 3488  0.4459032E+02  0.4211115E+02  0.9044760E+01  0.0000000E+00
Ar 3489  0.4431010E+02  0.3903085E+02  0.1191254E+02  0.0000000E+00
Ar 3490  0.4707688E+02  0.4153333E+02  0.1184026E+02  0.0000000E+00
Ar 3491  0.4738630E+02  0.3901669E+02  0.1497661E+02  0.0000000E+00
Ar 3492  0.4457036E+02  0.4164050E+02  0.1456256E+02  0.0000000E+00
Ar 3493  0.4474292E+02  0.3921584E+02  0.1728254E+02  0.0000000E+00
Ar 3494  0.4722507E+02  0.4191930E+02  0.1743261E+02  0.0000000E+00
Ar 3495  0.4707090E+02  0.3894971E+02  0.1983081E+02  0.0000000E+00
Ar 3496  0.4456719E+02  0.4177409E+02  0.2023395E+02  0.0000000E+00
Ar 3497  0.4443697E+02  0.3897482E+02  0.2269227E+02  0.0000000E+00
Ar 3498  0.4685791E+02  0.4209168E+02  0.2295348E+02  0.0000000E+00
Ar 3499  0.4711698E+02  0.3885601E+02  0.2559436E+02  0.0000000E+00
Ar 3500  0.4424779E+02  0.4150629E+02  0.2537641E+02  0.0000000E+00
Ar 3501  0.4416929E+02  0.3893264E+02  0.2817786E+02  0.0000000E+00
Ar 3502  0.4697849E+02  0.4160180E+02  0.2823067E+02  0.0000000E+00
Ar 3503  0.4683899E+02  0.3890193E+02  0.3107439E+02  0.0000000E+00
Ar 3504  0.4460908E+02  0.4176489E+02  0.3096664E+02  0.0000000E+00
Ar 3505  0.4443261E+02  0.3903478E+02  0.3375126E+02  0.0000000E+00
Ar 3506  0.4715492E+02  0.4182479E+02  0.3340313E+02  0.0000000E+00
Ar 3507  0.4716175E+02  0.3908610E+02  0.3603591E+02  0.0000000E+00
Ar 3508  0.4440981E+02  0.4185975E+02  0.3654789E+02  0.0000000E+00
Ar 3509  0.4482892E+02  0.3884597E+02  0.3884544E+02  0.0000000E+00
Ar 3510  0.4735025E+02  0.4176262E+02  0.3901602E+02  0.0000000E+00
Ar 3511  0.4734956E+02  0.3901598E+02  0.4176269E+02  0.0000000E+00
Ar 3512  0.4450323E+02  0.4162958E+02  0.4162845E+02  0.0000000E+00
Ar 3513  0.4466607E+02  0.3941292E+02  0.4466472E+02  0.0000000E+00
Ar 3514  0.4745946E+02  0.4175537E+02  0.4428895E+02  0.0000000E+00
Ar 3515  0.4732202E+02  0.3900305E+02  0.4732178E+02  0.0000000E+00
Ar 3516  0.4428948E+02  0.4175334E+02  0.4746130E+02  0.0000000E+00
Ar 3517  0.4448896E+02  0.3934957E+02  0.4994320E+02  0.0000000E+00
Ar 3518  0.4712239E+02  0.4166101E+02  0.5007103E+02  0.0000000E+00
Ar 3519  0.4747420E+02  0.3910005E+02  0.5286781E+02  0.0000000E+00
Ar 3520  0.4448844E+02  0.4161675E+02  0.5267667E+02  0.0000000E+00
Ar 3521  0.4400989E+02  0.4404639E+02  0.5574945E+02  0.0000000E+00
Ar 3522  0.4685142E+02  0.4683807E+02  0.5571982E+02  0.0000000E+00
Ar 3523  0.4689544E+02  0.4416438E+02  0.3872049E+01  0.0000000E+00
Ar 3524  0.4408367E+02  0.4695984E+02  0.3642591E+01  0.0000000E+00
Ar 3525  0.4409541E+02  0.4411861E+02  0.5779342E+01  0.0000000E+00
Ar 3526  0.4655704E+02  0.4655595E+02  0.6397118E+01  0.0000000E+00
Ar 3527  0.4728448E+02  0.4443382E+02  0.9291152E+01  0.0000000E+00
Ar 3528  0.4444929E+02  0.4727374E+02  0.9291855E+01  0.0000000E+00
Ar 3529  0.4450362E+02  0.4449882E+02  0.1182555E+02  0.0000000E+00
Ar 3530  0.4764193E+02  0.4763457E+02  0.1176084E+02  0.0000000E+00
Ar 3531  0.4719200E+02  0.4424275E+02  0.1450241E+02  0.0000000E+00
Ar 3532  0.4425201E+02  0.4718201E+02  0.1450611E+02  0.0000000E+00
Ar 3533  0.4467201E+02  0.4466152E+02  0.1729459E+02  0.0000000E+00
Ar 3534  0.4724713E+02  0.4722662E+02  0.1739863E+02  0.0000000E+00
Ar 3535  0.4739603E+02  0.4444487E+02  0.2011988E+02  0.0000000E+00
Ar 3536  0.4444612E+02  0.4739562E+02  0.2011934E+02  0.0000000E+00
Ar 3537  0.4469618E+02  0.4469599E+02  0.2290781E+02  0.0000000E+00
Ar 3538  0.4722307E+02  0.4722312E+02  0.2277748E+02  0.0000000E+00
Ar 3539  0.4695989E+02  0.4440149E+02  0.2560354E+02  0.0000000E+00
Ar 3540  0.4440149E+02  0.4695987E+02  0.2560340E+02  0.0000000E+00
Ar 3541  0.4419905E+02  0.4419886E+02  0.2809187E+02  0.0000000E+00
Ar 3542  0.4684585E+02  0.4684581E+02  0.2797877E+02  0.0000000E+00
Ar 3543  0.4712302E+02  0.4450138E+02  0.3064075E+02  0.0000000E+00
Ar 3544  0.4450167E+02  0.4712280E+02  0.3064069E+02  0.0000000E+00
Ar 3545  0.4450570E+02  0.4450539E+02  0.3356281E+02  0.0000000E+00
Ar 3546  0.4725204E+02  0.4725167E+02  0.3395192E+02  0.0000000E+00
Ar 3547  0.4743388E+02  0.4459582E+02  0.3645348E+02  0.0000000E+00
Ar 3548  0.4459651E+02  0.4743331E+02  0.3645262E+02  0.0000000E+00
Ar 3549  0.4466584E+02  0.4466551E+02  0.3941192E+02  0.0000000E+00
Ar 3550  0.4732158E+02  0.4732213E+02  0.3900288E+02  0.0000000E+00
Ar 3551  0.4746013E+02  0.4429018E+02  0.4175387E+02  0.0000000E+00
Ar 3552  0.4428970E+02  0.4745999E+02  0.4175460E+02  0.0000000E+00
Ar 3553  0.4476579E+02  0.4476439E+02  0.4476409E+02  0.0000000E+00
Ar 3554  0.4736964E+02  0.4736976E+02  0.4452366E+02  0.0000000E+00
Ar 3555  0.4736882E+02  0.4452475E+02  0.4736785E+02  0.0000000E+00
Ar 3556  0.4452150E+02  0.4737234E+02  0.4737218E+02  0.0000000E+00
Ar 3557  0.4423536E+02  0.4423917E+02  0.5018144E+02  0.0000000E+00
Ar 3558  0.4723914E+02  0.4723998E+02  0.5007748E+02  0.0000000E+00
Ar 3559  0.4698002E+02  0.4449185E+02  0.5259479E+02  0.0000000E+00
Ar 3560  0.4449156E+02  0.4698344E+02  0.5259794E+02  0.0000000E+00
Ar 3561  0.4419881E+02  0.4957655E+02  0.1098714E+01  0.0000000E+00
Ar 3562  0.4718331E+02  0.5279172E+02  0.5559769E+02  0.0000000E+00
Ar 3563  0.4678727E+02  0.4926245E+02  0.3960238E+01  0.0000000E+00
Ar 3564  0.4438633E+02  0.5314512E+02  0.3063863E+01  0.0000000E+00
Ar 3565  0.4452567E+02  0.4995344E+02  0.6409722E+01  0.0000000E+00
Ar 3566  0.4649165E+02  0.5318174E+02  0.6400546E+01  0.0000000E+00
Ar 3567  0.4680433E+02  0.5003714E+02  0.9000579E+01  0.0000000E+00
Ar 3568  0.4460598E+02  0.5270670E+02  0.9485290E+01  0.0000000E+00
Ar 3569  0.4449983E+02  0.4996534E+02  0.1184967E+02  0.0000000E+00
Ar 3570  0.4739234E+02  0.5295860E+02  0.1206926E+02  0.0000000E+00
Ar 3571  0.4733181E+02  0.4978442E+02  0.1490659E+02  0.0000000E+00
Ar 3572  0.4446932E+02  0.5273082E+02  0.1450775E+02  0.0000000E+00
Ar 3573  0.4441744E+02  0.5004173E+02  0.1713754E+02  0.0000000E+00
Ar 3574  0.4733193E+02  0.5259792E+02  0.1728185E+02  0.0000000E+00
Ar 3575  0.4701739E+02  0.4992660E+02  0.2029143E+02  0.0000000E+00
Ar 3576  0.4474201E+02  0.5273293E+02  0.1956868E+02  0.0000000E+00
Ar 3577  0.4466960E+02  0.4988235E+02  0.2305621E+02  0.0000000E+00
Ar 3578  0.4764824E+02  0.5347520E+02  0.2264003E+02  0.0000000E+00
Ar 3579  0.4740240E+02  0.4991264E+02  0.2550494E+02  0.0000000E+00
Ar 3580  0.4477980E+02  0.5248431E+02  0.2607516E+02  0.0000000E+00
Ar 3581  0.4424020E+02  0.4985186E+02  0.2823518E+02  0.0000000E+00
Ar 3582  0.4697043E+02  0.5248078E+02  0.2868036E+02  0.0000000E+00
Ar 3583  0.4696376E+02  0.4978400E+02  0.3123986E+02  0.0000000E+00
Ar 3584  0.4389031E+02  0.5281611E+02  0.3129465E+02  0.0000000E+00
Ar 3585  0.4406809E+02  0.4990738E+02  0.3337086E+02  0.0000000E+00
Ar 3586  0.4661054E+02  0.5295501E+02  0.3329285E+02  0.0000000E+00
Ar 3587  0.4755877E+02  0.5038288E+02  0.3584238E+02  0.0000000E+00
Ar 3588  0.4414451E+02  0.5245330E+02  0.3647553E+02  0.0000000E+00
Ar 3589  0.4448928E+02  0.4994166E+02  0.3936026E+02  0.0000000E+00
Ar 3590  0.4748140E+02  0.5287908E+02  0.3909907E+02  0.0000000E+00
Ar 3591  0.4712602E+02  0.5007400E+02  0.4165919E+02  0.0000000E+00
Ar 3592  0.4450652E+02  0.5269625E+02  0.4160611E+02  0.0000000E+00
Ar 3593  0.4424317E+02  0.5018503E+02  0.4423361E+02  0.0000000E+00
Ar 3594  0.4698937E+02  0.5259778E+02  0.4448136E+02  0.0000000E+00
Ar 3595  0.4724029E+02  0.5007797E+02  0.4723814E+02  0.0000000E+00
Ar 3596  0.4449698E+02  0.5259659E+02  0.4697751E+02  0.0000000E+00
Ar 3597  0.4398274E+02  0.5020777E+02  0.5020849E+02  0.0000000E+00
Ar 3598  0.4691025E+02  0.5294412E+02  0.4944201E+02  0.0000000E+00
Ar 3599  0.4690855E+02  0.4944468E+02  0.5294500E+02  0.0000000E+00
Ar 3600  0.4395411E+02  0.5340409E+02  0.5339121E+02  0.0000000E+00
Ar 3601  0.4985561E+02  0.5488586E+02  0.5487346E+02  0.0000000E+00
Ar 3602  0.5285713E+02  0.4577286E+01  0.1105114E+01  0.0000000E+00
Ar 3603  0.5285375E+02  0.1101882E+01  0.4567092E+01  0.0000000E+00
Ar 3604  0.5030072E+02  0.3909289E+01  0.3906817E+01  0.0000000E+00
Ar 3605  0.4973610E+02  0.7545506E+00  0.6988910E+01  0.0000000E+00
Ar 3606  0.5328261E+02  0.3747099E+01  0.6256896E+01  0.0000000E+00
Ar 3607  0.5283255E+02  0.9190284E+00  0.8924984E+01  0.0000000E+00
Ar 3608  0.5003039E+02  0.3359218E+01  0.9271454E+01  0.0000000E+00
Ar 3609  0.5013242E+02  0.1212369E+01  0.1219105E+02  0.0000000E+00
Ar 3610  0.5333434E+02  0.3966951E+01  0.1175141E+02  0.0000000E+00
Ar 3611  0.5269747E+02  0.7205027E+00  0.1515194E+02  0.0000000E+00
Ar 3612  0.5032754E+02  0.3868107E+01  0.1441486E+02  0.0000000E+00
Ar 3613  0.5059365E+02  0.6356422E+00  0.1777633E+02  0.0000000E+00
Ar 3614  0.5279487E+02  0.3821710E+01  0.1731759E+02  0.0000000E+00
Ar 3615  0.5252542E+02  0.6466087E+00  0.2006145E+02  0.0000000E+00
Ar 3616  0.5045024E+02  0.3571640E+01  0.1981033E+02  0.0000000E+00
Ar 3617  0.5064725E+02  0.5565411E+02  0.2299190E+02  0.0000000E+00
Ar 3618  0.5271666E+02  0.3710810E+01  0.2269654E+02  0.0000000E+00
Ar 3619  0.4963676E+02  0.5585859E+02  0.2576565E+02  0.0000000E+00
Ar 3620  0.5034948E+02  0.3841215E+01  0.2562720E+02  0.0000000E+00
Ar 3621  0.4906039E+02  0.5544838E+02  0.2941572E+02  0.0000000E+00
Ar 3622  0.5285321E+02  0.3623288E+01  0.2877109E+02  0.0000000E+00
Ar 3623  0.5204661E+02  0.5590005E+02  0.3103999E+02  0.0000000E+00
Ar 3624  0.4973432E+02  0.3560380E+01  0.3065203E+02  0.0000000E+00
Ar 3625  0.4895748E+02  0.5571403E+02  0.3332798E+02  0.0000000E+00
Ar 3626  0.5220724E+02  0.3978032E+01  0.3390029E+02  0.0000000E+00
Ar 3627  0.5248458E+02  0.7647170E+00  0.3534676E+02  0.0000000E+00
Ar 3628  0.4971869E+02  0.2584465E+01  0.3683879E+02  0.0000000E+00
Ar 3629  0.5068283E+02  0.5483699E+02  0.3850746E+02  0.0000000E+00
Ar 3630  0.5294173E+02  0.3539340E+01  0.3796421E+02  0.0000000E+00
Ar 3631  0.5299180E+02  0.1012484E+01  0.4129499E+02  0.0000000E+00
Ar 3632  0.4976245E+02  0.3450056E+01  0.4150934E+02  0.0000000E+00
Ar 3633  0.4959169E+02  0.1104572E+01  0.4422499E+02  0.0000000E+00
Ar 3634  0.5315487E+02  0.3069787E+01  0.4439325E+02  0.0000000E+00
Ar 3635  0.5278615E+02  0.5560365E+02  0.4718394E+02  0.0000000E+00
Ar 3636  0.4925432E+02  0.3957838E+01  0.4678694E+02  0.0000000E+00
Ar 3637  0.5020474E+02  0.5543951E+02  0.5020159E+02  0.0000000E+00
Ar 3638  0.5260790E+02  0.4230319E+01  0.4943243E+02  0.0000000E+00
Ar 3639  0.5342247E+02  0.2010986E+01  0.5341447E+02  0.0000000E+00
Ar 3640  0.4943960E+02  0.4232112E+01  0.5260513E+02  0.0000000E+00
Ar 3641  0.4974163E+02  0.7013229E+01  0.7505862E+00  0.0000000E+00
Ar 3642  0.5281702E+02  0.8929791E+01  0.9255638E+00  0.0000000E+00
Ar 3643  0.5329264E+02  0.6268919E+01  0.3749174E+01  0.0000000E+00
Ar 3644  0.5002749E+02  0.9274956E+01  0.3361059E+01  0.0000000E+00
Ar 3645  0.5079431E+02  0.6219367E+01  0.6215409E+01  0.0000000E+00
Ar 3646  0.5302357E+02  0.9285991E+01  0.6154719E+01  0.0000000E+00
Ar 3647  0.5302157E+02  0.6157023E+01  0.9279999E+01  0.0000000E+00
Ar 3648  0.5075212E+02  0.8981149E+01  0.8980639E+01  0.0000000E+00
Ar 3649  0.5005719E+02  0.6790530E+01  0.1215629E+02  0.0000000E+00
Ar 3650  0.5302878E+02  0.9374045E+01  0.1227480E+02  0.0000000E+00
Ar 3651  0.5324363E+02  0.6903869E+01  0.1460886E+02  0.0000000E+00
Ar 3652  0.5001334E+02  0.9259744E+01  0.1466764E+02  0.0000000E+00
Ar 3653  0.5027674E+02  0.6107440E+01  0.1730213E+02  0.0000000E+00
Ar 3654  0.5277825E+02  0.8958205E+01  0.1756908E+02  0.0000000E+00
Ar 3655  0.5298396E+02  0.6553200E+01  0.2019804E+02  0.0000000E+00
Ar 3656  0.4999377E+02  0.8668178E+01  0.2010391E+02  0.0000000E+00
Ar 3657  0.4996946E+02  0.5966204E+01  0.2236782E+02  0.0000000E+00
Ar 3658  0.5274130E+02  0.8776326E+01  0.2273472E+02  0.0000000E+00
Ar 3659  0.5278150E+02  0.6293001E+01  0.2524717E+02  0.0000000E+00
Ar 3660  0.4977131E+02  0.9061698E+01  0.2501537E+02  0.0000000E+00
Ar 3661  0.4991664E+02  0.6738126E+01  0.2775579E+02  0.0000000E+00
Ar 3662  0.5294042E+02  0.8788327E+01  0.2822094E+02  0.0000000E+00
Ar 3663  0.5259959E+02  0.6424612E+01  0.3070355E+02  0.0000000E+00
Ar 3664  0.4973343E+02  0.9328289E+01  0.3065973E+02  0.0000000E+00
Ar 3665  0.4977076E+02  0.6565563E+01  0.3314271E+02  0.0000000E+00
Ar 3666  0.5244104E+02  0.9466521E+01  0.3358261E+02  0.0000000E+00
Ar 3667  0.5259815E+02  0.6471080E+01  0.3630336E+02  0.0000000E+00
Ar 3668  0.4989858E+02  0.9225969E+01  0.3620989E+02  0.0000000E+00
Ar 3669  0.5003963E+02  0.6354590E+01  0.3893841E+02  0.0000000E+00
Ar 3670  0.5268403E+02  0.8782512E+01  0.3950889E+02  0.0000000E+00
Ar 3671  0.5279430E+02  0.5925403E+01  0.4196295E+02  0.0000000E+00
Ar 3672  0.4984642E+02  0.9172586E+01  0.4201553E+02  0.0000000E+00
Ar 3673  0.4995228E+02  0.6402398E+01  0.4452779E+02  0.0000000E+00
Ar 3674  0.5271054E+02  0.9476449E+01  0.4458454E+02  0.0000000E+00
Ar 3675  0.5317766E+02  0.6403355E+01  0.4649189E+02  0.0000000E+00
Ar 3676  0.5004159E+02  0.8999396E+01  0.4679545E+02  0.0000000E+00
Ar 3677  0.4968750E+02  0.6824068E+01  0.4968425E+02  0.0000000E+00
Ar 3678  0.5354781E+02  0.9591703E+01  0.5027000E+02  0.0000000E+00
Ar 3679  0.5324827E+02  0.6560737E+01  0.5323656E+02  0.0000000E+00
Ar 3680  0.5028130E+02  0.9582919E+01  0.5354994E+02  0.0000000E+00
Ar 3681  0.5006427E+02  0.1210220E+02  0.1242342E+01  0.0000000E+00
Ar 3682  0.5272021E+02  0.1534779E+02  0.8180978E+00  0.0000000E+00
Ar 3683  0.5333562E+02  0.1175574E+02  0.3963045E+01  0.0000000E+00
Ar 3684  0.5032948E+02  0.1441329E+02  0.3835101E+01  0.0000000E+00
Ar 3685  0.5005764E+02  0.1215952E+02  0.6786118E+01  0.0000000E+00
Ar 3686  0.5324557E+02  0.1462239E+02  0.6890472E+01  0.0000000E+00
Ar 3687  0.5303012E+02  0.1229111E+02  0.9358030E+01  0.0000000E+00
Ar 3688  0.5001427E+02  0.1466658E+02  0.9260452E+01  0.0000000E+00
Ar 3689  0.5050814E+02  0.1155904E+02  0.1155872E+02  0.0000000E+00
Ar 3690  0.5269320E+02  0.1499887E+02  0.1165402E+02  0.0000000E+00
Ar 3691  0.5269268E+02  0.1165306E+02  0.1499877E+02  0.0000000E+00
Ar 3692  0.5013312E+02  0.1437053E+02  0.1437017E+02  0.0000000E+00
Ar 3693  0.5014368E+02  0.1166984E+02  0.1752698E+02  0.0000000E+00
Ar 3694  0.5277307E+02  0.1445418E+02  0.1744723E+02  0.0000000E+00
Ar 3695  0.5292281E+02  0.1159387E+02  0.1993868E+02  0.0000000E+00
Ar 3696  0.4987326E+02  0.1462425E+02  0.1994026E+02  0.0000000E+00
Ar 3697  0.4980224E+02  0.1148954E+02  0.2235137E+02  0.0000000E+00
Ar 3698  0.5214075E+02  0.1426384E+02  0.2253492E+02  0.0000000E+00
Ar 3699  0.5234694E+02  0.1139716E+02  0.2519257E+02  0.0000000E+00
Ar 3700  0.4983503E+02  0.1467576E+02  0.2535279E+02  0.0000000E+00
Ar 3701  0.5006397E+02  0.1195728E+02  0.2791099E+02  0.0000000E+00
Ar 3702  0.5288745E+02  0.1512817E+02  0.2790356E+02  0.0000000E+00
Ar 3703  0.5236588E+02  0.1177670E+02  0.3072061E+02  0.0000000E+00
Ar 3704  0.4968099E+02  0.1436593E+02  0.3057026E+02  0.0000000E+00
Ar 3705  0.4992728E+02  0.1203341E+02  0.3364135E+02  0.0000000E+00
Ar 3706  0.5282593E+02  0.1461027E+02  0.3356007E+02  0.0000000E+00
Ar 3707  0.5284392E+02  0.1176318E+02  0.3646870E+02  0.0000000E+00
Ar 3708  0.4991661E+02  0.1455395E+02  0.3621844E+02  0.0000000E+00
Ar 3709  0.4986621E+02  0.1176505E+02  0.3919041E+02  0.0000000E+00
Ar 3710  0.5305917E+02  0.1432924E+02  0.3898570E+02  0.0000000E+00
Ar 3711  0.5236570E+02  0.1197837E+02  0.4170257E+02  0.0000000E+00
Ar 3712  0.5024480E+02  0.1458184E+02  0.4172307E+02  0.0000000E+00
Ar 3713  0.4997116E+02  0.1184367E+02  0.4449671E+02  0.0000000E+00
Ar 3714  0.5272927E+02  0.1451005E+02  0.4447205E+02  0.0000000E+00
Ar 3715  0.5296521E+02  0.1206470E+02  0.4738687E+02  0.0000000E+00
Ar 3716  0.4978944E+02  0.1490279E+02  0.4732674E+02  0.0000000E+00
Ar 3717  0.4999829E+02  0.1197796E+02  0.4999545E+02  0.0000000E+00
Ar 3718  0.5337804E+02  0.1447761E+02  0.5023392E+02  0.0000000E+00
Ar 3719  0.5342253E+02  0.1211195E+02  0.5328118E+02  0.0000000E+00
Ar 3720  0.5020602E+02  0.1456305E+02  0.5361116E+02  0.0000000E+00
Ar 3721  0.4932515E+02  0.1693410E+02  0.8288693E+00  0.0000000E+00
Ar 3722  0.5235528E+02  0.1909370E+02  0.8430483E+00  0.0000000E+00
Ar 3723  0.5280591E+02  0.1729400E+02  0.3889402E+01  0.0000000E+00
Ar 3724  0.5041410E+02  0.1981295E+02  0.3601249E+01  0.0000000E+00
Ar 3725  0.5027604E+02  0.1730852E+02  0.6101368E+01  0.0000000E+00
Ar 3726  0.5298074E+02  0.2021775E+02  0.6575198E+01  0.0000000E+00
Ar 3727  0.5277863E+02  0.1756824E+02  0.8957701E+01  0.0000000E+00
Ar 3728  0.4999115E+02  0.2010420E+02  0.8668507E+01  0.0000000E+00
Ar 3729  0.5014359E+02  0.1752709E+02  0.1166945E+02  0.0000000E+00
Ar 3730  0.5292209E+02  0.1993838E+02  0.1159368E+02  0.0000000E+00
Ar 3731  0.5277292E+02  0.1744731E+02  0.1445421E+02  0.0000000E+00
Ar 3732  0.4987314E+02  0.1994064E+02  0.1462399E+02  0.0000000E+00
Ar 3733  0.5017699E+02  0.1707061E+02  0.1707042E+02  0.0000000E+00
Ar 3734  0.5265721E+02  0.2002925E+02  0.1719464E+02  0.0000000E+00
Ar 3735  0.5265728E+02  0.1719480E+02  0.2002911E+02  0.0000000E+00
Ar 3736  0.4999416E+02  0.2011805E+02  0.2011796E+02  0.0000000E+00
Ar 3737  0.4983550E+02  0.1727788E+02  0.2269547E+02  0.0000000E+00
Ar 3738  0.5251787E+02  0.1985210E+02  0.2272123E+02  0.0000000E+00
Ar 3739  0.5254960E+02  0.1735159E+02  0.2502381E+02  0.0000000E+00
Ar 3740  0.4968823E+02  0.1980017E+02  0.2527856E+02  0.0000000E+00
Ar 3741  0.4958470E+02  0.1733483E+02  0.2782800E+02  0.0000000E+00
Ar 3742  0.5247370E+02  0.1958695E+02  0.2808789E+02  0.0000000E+00
Ar 3743  0.5235378E+02  0.1745969E+02  0.3084929E+02  0.0000000E+00
Ar 3744  0.4957316E+02  0.2002732E+02  0.3098405E+02  0.0000000E+00
Ar 3745  0.4991965E+02  0.1743949E+02  0.3374050E+02  0.0000000E+00
Ar 3746  0.5279692E+02  0.1991240E+02  0.3330749E+02  0.0000000E+00
Ar 3747  0.5300210E+02  0.1699691E+02  0.3645120E+02  0.0000000E+00
Ar 3748  0.5013514E+02  0.2007009E+02  0.3654267E+02  0.0000000E+00
Ar 3749  0.5035705E+02  0.1720432E+02  0.3907268E+02  0.0000000E+00
Ar 3750  0.5269232E+02  0.2018930E+02  0.3947725E+02  0.0000000E+00
Ar 3751  0.5302728E+02  0.1689592E+02  0.4183046E+02  0.0000000E+00
Ar 3752  0.5014374E+02  0.1986518E+02  0.4218747E+02  0.0000000E+00
Ar 3753  0.5004279E+02  0.1713684E+02  0.4441864E+02  0.0000000E+00
Ar 3754  0.5275780E+02  0.1956991E+02  0.4475105E+02  0.0000000E+00
Ar 3755  0.5257725E+02  0.1728774E+02  0.4731447E+02  0.0000000E+00
Ar 3756  0.4992575E+02  0.2029383E+02  0.4701542E+02  0.0000000E+00
Ar 3757  0.4991257E+02  0.1848185E+02  0.4990294E+02  0.0000000E+00
Ar 3758  0.5339347E+02  0.2013648E+02  0.4935477E+02  0.0000000E+00
Ar 3759  0.5251266E+02  0.1796651E+02  0.5247839E+02  0.0000000E+00
Ar 3760  0.4944966E+02  0.2011562E+02  0.5328956E+02  0.0000000E+00
Ar 3761  0.5079656E+02  0.2194319E+02  0.5549987E+02  0.0000000E+00
Ar 3762  0.5240819E+02  0.2771503E+02  0.5588628E+02  0.0000000E+00
Ar 3763  0.5263916E+02  0.2257576E+02  0.3531543E+01  0.0000000E+00
Ar 3764  0.5033069E+02  0.2559783E+02  0.3829945E+01  0.0000000E+00
Ar 3765  0.4997967E+02  0.2239581E+02  0.5981049E+01  0.0000000E+00
Ar 3766  0.5277289E+02  0.2523726E+02  0.6287289E+01  0.0000000E+00
Ar 3767  0.5273272E+02  0.2275058E+02  0.8803086E+01  0.0000000E+00
Ar 3768  0.4977067E+02  0.2501208E+02  0.9063604E+01  0.0000000E+00
Ar 3769  0.4980211E+02  0.2235173E+02  0.1148888E+02  0.0000000E+00
Ar 3770  0.5234676E+02  0.2519286E+02  0.1139636E+02  0.0000000E+00
Ar 3771  0.5214053E+02  0.2253537E+02  0.1426355E+02  0.0000000E+00
Ar 3772  0.4983488E+02  0.2535322E+02  0.1467537E+02  0.0000000E+00
Ar 3773  0.4983550E+02  0.2269556E+02  0.1727767E+02  0.0000000E+00
Ar 3774  0.5254993E+02  0.2502393E+02  0.1735140E+02  0.0000000E+00
Ar 3775  0.5251796E+02  0.2272112E+02  0.1985208E+02  0.0000000E+00
Ar 3776  0.4968826E+02  0.2527878E+02  0.1979987E+02  0.0000000E+00
Ar 3777  0.5023308E+02  0.2297377E+02  0.2297341E+02  0.0000000E+00
Ar 3778  0.5302862E+02  0.2549531E+02  0.2242953E+02  0.0000000E+00
Ar 3779  0.5302857E+02  0.2242994E+02  0.2549492E+02  0.0000000E+00
Ar 3780  0.4936399E+02  0.2541063E+02  0.2541035E+02  0.0000000E+00
Ar 3781  0.4967368E+02  0.2238648E+02  0.2808600E+02  0.0000000E+00
Ar 3782  0.5210209E+02  0.2515647E+02  0.2783603E+02  0.0000000E+00
Ar 3783  0.5243339E+02  0.2270196E+02  0.3095653E+02  0.0000000E+00
Ar 3784  0.5012989E+02  0.2548114E+02  0.3093443E+02  0.0000000E+00
Ar 3785  0.5011317E+02  0.2253558E+02  0.3369497E+02  0.0000000E+00
Ar 3786  0.5274104E+02  0.2552316E+02  0.3383110E+02  0.0000000E+00
Ar 3787  0.5256700E+02  0.2268472E+02  0.3647210E+02  0.0000000E+00
Ar 3788  0.5015011E+02  0.2545465E+02  0.3654380E+02  0.0000000E+00
Ar 3789  0.4932371E+02  0.2246322E+02  0.3947263E+02  0.0000000E+00
Ar 3790  0.5280039E+02  0.2580007E+02  0.3905732E+02  0.0000000E+00
Ar 3791  0.5249599E+02  0.2308760E+02  0.4171864E+02  0.0000000E+00
Ar 3792  0.4958536E+02  0.2570074E+02  0.4167371E+02  0.0000000E+00
Ar 3793  0.4988312E+02  0.2306200E+02  0.4467307E+02  0.0000000E+00
Ar 3794  0.5248889E+02  0.2608713E+02  0.4478551E+02  0.0000000E+00
Ar 3795  0.5344704E+02  0.2266894E+02  0.4764843E+02  0.0000000E+00
Ar 3796  0.4991333E+02  0.2550882E+02  0.4740377E+02  0.0000000E+00
Ar 3797  0.5004488E+02  0.2186373E+02  0.5004155E+02  0.0000000E+00
Ar 3798  0.5265622E+02  0.2527780E+02  0.4996291E+02  0.0000000E+00
Ar 3799  0.5252093E+02  0.2263493E+02  0.5253599E+02  0.0000000E+00
Ar 3800  0.4994666E+02  0.2526045E+02  0.5266463E+02  0.0000000E+00
Ar 3801  0.4982624E+02  0.2847054E+02  0.5559507E+02  0.0000000E+00
Ar 3802  0.5223973E+02  0.3115269E+02  0.5588653E+02  0.0000000E+00
Ar 3803  0.5283697E+02  0.2876769E+02  0.3841011E+01  0.0000000E+00
Ar 3804  0.4972826E+02  0.3061721E+02  0.3606931E+01  0.0000000E+00
Ar 3805  0.4988051E+02  0.2771582E+02  0.6738223E+01  0.0000000E+00
Ar 3806  0.5258613E+02  0.3071837E+02  0.6470136E+01  0.0000000E+00
Ar 3807  0.5294037E+02  0.2821072E+02  0.8793765E+01  0.0000000E+00
Ar 3808  0.4972920E+02  0.3066184E+02  0.9330989E+01  0.0000000E+00
Ar 3809  0.5006706E+02  0.2791390E+02  0.1195368E+02  0.0000000E+00
Ar 3810  0.5236321E+02  0.3072633E+02  0.1177812E+02  0.0000000E+00
Ar 3811  0.5288455E+02  0.2790269E+02  0.1512954E+02  0.0000000E+00
Ar 3812  0.4968219E+02  0.3057078E+02  0.1436390E+02  0.0000000E+00
Ar 3813  0.4958411E+02  0.2782844E+02  0.1733478E+02  0.0000000E+00
Ar 3814  0.5235379E+02  0.3084990E+02  0.1745927E+02  0.0000000E+00
Ar 3815  0.5247372E+02  0.2808852E+02  0.1958683E+02  0.0000000E+00
Ar 3816  0.4957302E+02  0.3098459E+02  0.2002693E+02  0.0000000E+00
Ar 3817  0.4967381E+02  0.2808634E+02  0.2238616E+02  0.0000000E+00
Ar 3818  0.5243367E+02  0.3095704E+02  0.2270176E+02  0.0000000E+00
Ar 3819  0.5210219E+02  0.2783634E+02  0.2515619E+02  0.0000000E+00
Ar 3820  0.5013002E+02  0.3093483E+02  0.2548082E+02  0.0000000E+00
Ar 3821  0.5011580E+02  0.2837879E+02  0.2837840E+02  0.0000000E+00
Ar 3822  0.5234235E+02  0.3133663E+02  0.2817651E+02  0.0000000E+00
Ar 3823  0.5234218E+02  0.2817707E+02  0.3133608E+02  0.0000000E+00
Ar 3824  0.4972168E+02  0.3105704E+02  0.3105652E+02  0.0000000E+00
Ar 3825  0.4995989E+02  0.2806474E+02  0.3407809E+02  0.0000000E+00
Ar 3826  0.5261635E+02  0.3093280E+02  0.3367608E+02  0.0000000E+00
Ar 3827  0.5307884E+02  0.2835287E+02  0.3619301E+02  0.0000000E+00
Ar 3828  0.4989655E+02  0.3091494E+02  0.3623295E+02  0.0000000E+00
Ar 3829  0.5008008E+02  0.2820720E+02  0.3878228E+02  0.0000000E+00
Ar 3830  0.5285775E+02  0.3082503E+02  0.3873621E+02  0.0000000E+00
Ar 3831  0.5320581E+02  0.2845607E+02  0.4188490E+02  0.0000000E+00
Ar 3832  0.4995682E+02  0.3087737E+02  0.4132554E+02  0.0000000E+00
Ar 3833  0.4985171E+02  0.2823637E+02  0.4424376E+02  0.0000000E+00
Ar 3834  0.5281154E+02  0.3129039E+02  0.4390356E+02  0.0000000E+00
Ar 3835  0.5250268E+02  0.2867247E+02  0.4699603E+02  0.0000000E+00
Ar 3836  0.4980812E+02  0.3122307E+02  0.4695244E+02  0.0000000E+00
Ar 3837  0.4987144E+02  0.2882223E+02  0.4986192E+02  0.0000000E+00
Ar 3838  0.5303989E+02  0.3082545E+02  0.5015795E+02  0.0000000E+00
Ar 3839  0.5251991E+02  0.2785499E+02  0.5250915E+02  0.0000000E+00
Ar 3840  0.5016830E+02  0.3074271E+02  0.5305680E+02  0.0000000E+00
Ar 3841  0.4907241E+02  0.3333791E+02  0.5570094E+02  0.0000000E+00
Ar 3842  0.5291731E+02  0.3569474E+02  0.5605036E+02  0.0000000E+00
Ar 3843  0.5224398E+02  0.3392321E+02  0.3995949E+01  0.0000000E+00
Ar 3844  0.4975249E+02  0.3684946E+02  0.2551132E+01  0.0000000E+00
Ar 3845  0.4978482E+02  0.3313439E+02  0.6574282E+01  0.0000000E+00
Ar 3846  0.5261978E+02  0.3629835E+02  0.6474469E+01  0.0000000E+00
Ar 3847  0.5243935E+02  0.3359666E+02  0.9461411E+01  0.0000000E+00
Ar 3848  0.4989474E+02  0.3621688E+02  0.9227700E+01  0.0000000E+00
Ar 3849  0.4993218E+02  0.3364497E+02  0.1202840E+02  0.0000000E+00
Ar 3850  0.5286405E+02  0.3648440E+02  0.1174882E+02  0.0000000E+00
Ar 3851  0.5281775E+02  0.3356601E+02  0.1461235E+02  0.0000000E+00
Ar 3852  0.4991749E+02  0.3622040E+02  0.1455129E+02  0.0000000E+00
Ar 3853  0.4991948E+02  0.3374110E+02  0.1743934E+02  0.0000000E+00
Ar 3854  0.5300164E+02  0.3645368E+02  0.1699644E+02  0.0000000E+00
Ar 3855  0.5279660E+02  0.3330769E+02  0.1991320E+02  0.0000000E+00
Ar 3856  0.5013548E+02  0.3654286E+02  0.2006972E+02  0.0000000E+00
Ar 3857  0.5011320E+02  0.3369552E+02  0.2253530E+02  0.0000000E+00
Ar 3858  0.5256745E+02  0.3647308E+02  0.2268384E+02  0.0000000E+00
Ar 3859  0.5274071E+02  0.3383167E+02  0.2552256E+02  0.0000000E+00
Ar 3860  0.5015022E+02  0.3654498E+02  0.2545472E+02  0.0000000E+00
Ar 3861  0.4995997E+02  0.3407877E+02  0.2806431E+02  0.0000000E+00
Ar 3862  0.5307942E+02  0.3619347E+02  0.2835319E+02  0.0000000E+00
Ar 3863  0.5261648E+02  0.3367661E+02  0.3093224E+02  0.0000000E+00
Ar 3864  0.4989642E+02  0.3623327E+02  0.3091493E+02  0.0000000E+00
Ar 3865  0.4981493E+02  0.3360897E+02  0.3360858E+02  0.0000000E+00
Ar 3866  0.5278411E+02  0.3675523E+02  0.3407053E+02  0.0000000E+00
Ar 3867  0.5279001E+02  0.3407130E+02  0.3675891E+02  0.0000000E+00
Ar 3868  0.4951473E+02  0.3650992E+02  0.3650934E+02  0.0000000E+00
Ar 3869  0.4998235E+02  0.3379111E+02  0.3912842E+02  0.0000000E+00
Ar 3870  0.5264282E+02  0.3674092E+02  0.3947340E+02  0.0000000E+00
Ar 3871  0.5297190E+02  0.3366901E+02  0.4137716E+02  0.0000000E+00
Ar 3872  0.4980230E+02  0.3624957E+02  0.4170515E+02  0.0000000E+00
Ar 3873  0.4990632E+02  0.3336997E+02  0.4406841E+02  0.0000000E+00
Ar 3874  0.5244588E+02  0.3647243E+02  0.4414239E+02  0.0000000E+00
Ar 3875  0.5300982E+02  0.3328654E+02  0.4665418E+02  0.0000000E+00
Ar 3876  0.5041228E+02  0.3584753E+02  0.4758452E+02  0.0000000E+00
Ar 3877  0.4996876E+02  0.3327973E+02  0.4999093E+02  0.0000000E+00
Ar 3878  0.5293809E+02  0.3570926E+02  0.4999280E+02  0.0000000E+00
Ar 3879  0.5268597E+02  0.3359361E+02  0.5270230E+02  0.0000000E+00
Ar 3880  0.4988700E+02  0.3569235E+02  0.5300067E+02  0.0000000E+00
Ar 3881  0.5068603E+02  0.3849759E+02  0.5480075E+02  0.0000000E+00
Ar 3882  0.5301895E+02  0.4118587E+02  0.1069307E+01  0.0000000E+00
Ar 3883  0.5295747E+02  0.3794532E+02  0.3528429E+01  0.0000000E+00
Ar 3884  0.4978344E+02  0.4150049E+02  0.3429673E+01  0.0000000E+00
Ar 3885  0.5003220E+02  0.3894137E+02  0.6352818E+01  0.0000000E+00
Ar 3886  0.5278165E+02  0.4196925E+02  0.5941834E+01  0.0000000E+00
Ar 3887  0.5265943E+02  0.3951420E+02  0.8770525E+01  0.0000000E+00
Ar 3888  0.4983539E+02  0.4201248E+02  0.9168421E+01  0.0000000E+00
Ar 3889  0.4986869E+02  0.3918869E+02  0.1177015E+02  0.0000000E+00
Ar 3890  0.5231223E+02  0.4165495E+02  0.1200518E+02  0.0000000E+00
Ar 3891  0.5306051E+02  0.3897986E+02  0.1432890E+02  0.0000000E+00
Ar 3892  0.5024571E+02  0.4172562E+02  0.1458693E+02  0.0000000E+00
Ar 3893  0.5035526E+02  0.3907390E+02  0.1720358E+02  0.0000000E+00
Ar 3894  0.5304416E+02  0.4183651E+02  0.1689171E+02  0.0000000E+00
Ar 3895  0.5269140E+02  0.3947860E+02  0.2018959E+02  0.0000000E+00
Ar 3896  0.5014250E+02  0.4218725E+02  0.1986538E+02  0.0000000E+00
Ar 3897  0.4932270E+02  0.3947189E+02  0.2246274E+02  0.0000000E+00
Ar 3898  0.5249831E+02  0.4171899E+02  0.2308779E+02  0.0000000E+00
Ar 3899  0.5280210E+02  0.3905930E+02  0.2579970E+02  0.0000000E+00
Ar 3900  0.4958665E+02  0.4167313E+02  0.2569922E+02  0.0000000E+00
Ar 3901  0.5007976E+02  0.3878268E+02  0.2820779E+02  0.0000000E+00
Ar 3902  0.5322618E+02  0.4189831E+02  0.2845093E+02  0.0000000E+00
Ar 3903  0.5286025E+02  0.3873862E+02  0.3082413E+02  0.0000000E+00
Ar 3904  0.4995628E+02  0.4132582E+02  0.3087733E+02  0.0000000E+00
Ar 3905  0.4998127E+02  0.3913011E+02  0.3379062E+02  0.0000000E+00
Ar 3906  0.5297075E+02  0.4136418E+02  0.3368159E+02  0.0000000E+00
Ar 3907  0.5264013E+02  0.3947127E+02  0.3674656E+02  0.0000000E+00
Ar 3908  0.4980561E+02  0.4170740E+02  0.3625083E+02  0.0000000E+00
Ar 3909  0.5032039E+02  0.3893018E+02  0.3893207E+02  0.0000000E+00
Ar 3910  0.5281823E+02  0.4177368E+02  0.3923811E+02  0.0000000E+00
Ar 3911  0.5282103E+02  0.3923738E+02  0.4177602E+02  0.0000000E+00
Ar 3912  0.5026611E+02  0.4172803E+02  0.4172569E+02  0.0000000E+00
Ar 3913  0.4994170E+02  0.3936547E+02  0.4448765E+02  0.0000000E+00
Ar 3914  0.5269724E+02  0.4161252E+02  0.4450283E+02  0.0000000E+00
Ar 3915  0.5287889E+02  0.3909520E+02  0.4746774E+02  0.0000000E+00
Ar 3916  0.5007573E+02  0.4166312E+02  0.4712453E+02  0.0000000E+00
Ar 3917  0.5039351E+02  0.3867146E+02  0.5039194E+02  0.0000000E+00
Ar 3918  0.5341461E+02  0.4193368E+02  0.4967639E+02  0.0000000E+00
Ar 3919  0.5275626E+02  0.4057687E+02  0.5275196E+02  0.0000000E+00
Ar 3920  0.4977121E+02  0.4185250E+02  0.5319823E+02  0.0000000E+00
Ar 3921  0.4997924E+02  0.4457443E+02  0.1078771E+01  0.0000000E+00
Ar 3922  0.5277657E+02  0.4718258E+02  0.5560957E+02  0.0000000E+00
Ar 3923  0.5314801E+02  0.4437546E+02  0.3051466E+01  0.0000000E+00
Ar 3924  0.4924341E+02  0.4678247E+02  0.3961200E+01  0.0000000E+00
Ar 3925  0.4994900E+02  0.4453266E+02  0.6394746E+01  0.0000000E+00
Ar 3926  0.5316637E+02  0.4649779E+02  0.6400694E+01  0.0000000E+00
Ar 3927  0.5271546E+02  0.4454633E+02  0.9445114E+01  0.0000000E+00
Ar 3928  0.5005755E+02  0.4679052E+02  0.8995343E+01  0.0000000E+00
Ar 3929  0.4998166E+02  0.4449119E+02  0.1183305E+02  0.0000000E+00
Ar 3930  0.5296532E+02  0.4737690E+02  0.1205821E+02  0.0000000E+00
Ar 3931  0.5274908E+02  0.4447117E+02  0.1451374E+02  0.0000000E+00
Ar 3932  0.4979683E+02  0.4731826E+02  0.1489857E+02  0.0000000E+00
Ar 3933  0.5004540E+02  0.4441987E+02  0.1713651E+02  0.0000000E+00
Ar 3934  0.5259477E+02  0.4731884E+02  0.1728104E+02  0.0000000E+00
Ar 3935  0.5272842E+02  0.4473661E+02  0.1957743E+02  0.0000000E+00
Ar 3936  0.4992512E+02  0.4701762E+02  0.2029119E+02  0.0000000E+00
Ar 3937  0.4988254E+02  0.4466958E+02  0.2305605E+02  0.0000000E+00
Ar 3938  0.5347886E+02  0.4766444E+02  0.2261521E+02  0.0000000E+00
Ar 3939  0.5248402E+02  0.4477955E+02  0.2607556E+02  0.0000000E+00
Ar 3940  0.4991276E+02  0.4740237E+02  0.2550510E+02  0.0000000E+00
Ar 3941  0.4985207E+02  0.4424011E+02  0.2823533E+02  0.0000000E+00
Ar 3942  0.5248101E+02  0.4697033E+02  0.2868041E+02  0.0000000E+00
Ar 3943  0.5281646E+02  0.4389003E+02  0.3129461E+02  0.0000000E+00
Ar 3944  0.4978431E+02  0.4696340E+02  0.3123994E+02  0.0000000E+00
Ar 3945  0.4990765E+02  0.4406744E+02  0.3337110E+02  0.0000000E+00
Ar 3946  0.5295535E+02  0.4661025E+02  0.3329281E+02  0.0000000E+00
Ar 3947  0.5245310E+02  0.4414383E+02  0.3647584E+02  0.0000000E+00
Ar 3948  0.5038324E+02  0.4755871E+02  0.3584227E+02  0.0000000E+00
Ar 3949  0.4994243E+02  0.4448847E+02  0.3936050E+02  0.0000000E+00
Ar 3950  0.5287933E+02  0.4748105E+02  0.3909841E+02  0.0000000E+00
Ar 3951  0.5269752E+02  0.4450602E+02  0.4160710E+02  0.0000000E+00
Ar 3952  0.5007434E+02  0.4712644E+02  0.4165743E+02  0.0000000E+00
Ar 3953  0.5018692E+02  0.4424056E+02  0.4423149E+02  0.0000000E+00
Ar 3954  0.5259720E+02  0.4698610E+02  0.4447979E+02  0.0000000E+00
Ar 3955  0.5259471E+02  0.4449331E+02  0.4697592E+02  0.0000000E+00
Ar 3956  0.5007463E+02  0.4723741E+02  0.4723606E+02  0.0000000E+00
Ar 3957  0.5021141E+02  0.4398017E+02  0.5020753E+02  0.0000000E+00
Ar 3958  0.5294932E+02  0.4689456E+02  0.4943748E+02  0.0000000E+00
Ar 3959  0.5339764E+02  0.4395639E+02  0.5342158E+02  0.0000000E+00
Ar 3960  0.4944341E+02  0.4690623E+02  0.5294094E+02  0.0000000E+00
Ar 3961  0.5018718E+02  0.5022181E+02  0.5544076E+02  0.0000000E+00
Ar 3962  0.5342701E+02  0.5341005E+02  0.2007720E+01  0.0000000E+00
Ar 3963  0.5261028E+02  0.4942873E+02  0.4231481E+01  0.0000000E+00
Ar 3964  0.4943945E+02  0.5260940E+02  0.4230355E+01  0.0000000E+00
Ar 3965  0.4969159E+02  0.4968004E+02  0.6822195E+01  0.0000000E+00
Ar 3966  0.5324368E+02  0.5324915E+02  0.6559844E+01  0.0000000E+00
Ar 3967  0.5355235E+02  0.5028313E+02  0.9594676E+01  0.0000000E+00
Ar 3968  0.5026596E+02  0.5354557E+02  0.9581373E+01  0.0000000E+00
Ar 3969  0.5000356E+02  0.4999040E+02  0.1197956E+02  0.0000000E+00
Ar 3970  0.5337811E+02  0.5335942E+02  0.1218448E+02  0.0000000E+00
Ar 3971  0.5348275E+02  0.5018890E+02  0.1452850E+02  0.0000000E+00
Ar 3972  0.5020164E+02  0.5346622E+02  0.1452627E+02  0.0000000E+00
Ar 3973  0.4994655E+02  0.4994583E+02  0.1848771E+02  0.0000000E+00
Ar 3974  0.5258881E+02  0.5260032E+02  0.1809134E+02  0.0000000E+00
Ar 3975  0.5340362E+02  0.4938889E+02  0.2008952E+02  0.0000000E+00
Ar 3976  0.4936394E+02  0.5339862E+02  0.2010905E+02  0.0000000E+00
Ar 3977  0.5004711E+02  0.5004654E+02  0.2185920E+02  0.0000000E+00
Ar 3978  0.5250071E+02  0.5249973E+02  0.2257587E+02  0.0000000E+00
Ar 3979  0.5265851E+02  0.4995525E+02  0.2526900E+02  0.0000000E+00
Ar 3980  0.4995601E+02  0.5265769E+02  0.2526939E+02  0.0000000E+00
Ar 3981  0.4986999E+02  0.4986979E+02  0.2882349E+02  0.0000000E+00
Ar 3982  0.5251351E+02  0.5251504E+02  0.2785554E+02  0.0000000E+00
Ar 3983  0.5307551E+02  0.5018520E+02  0.3078497E+02  0.0000000E+00
Ar 3984  0.5018594E+02  0.5307388E+02  0.3078570E+02  0.0000000E+00
Ar 3985  0.4998830E+02  0.4998821E+02  0.3327945E+02  0.0000000E+00
Ar 3986  0.5273318E+02  0.5273290E+02  0.3356450E+02  0.0000000E+00
Ar 3987  0.5297448E+02  0.4995464E+02  0.3569655E+02  0.0000000E+00
Ar 3988  0.4995448E+02  0.5297349E+02  0.3569529E+02  0.0000000E+00
Ar 3989  0.5037963E+02  0.5037943E+02  0.3866890E+02  0.0000000E+00
Ar 3990  0.5275457E+02  0.5275360E+02  0.4056788E+02  0.0000000E+00
Ar 3991  0.5341084E+02  0.4969462E+02  0.4194223E+02  0.0000000E+00
Ar 3992  0.4969470E+02  0.5341290E+02  0.4194286E+02  0.0000000E+00
Ar 3993  0.5020966E+02  0.5020913E+02  0.4397902E+02  0.0000000E+00
Ar 3994  0.5340878E+02  0.5340790E+02  0.4394812E+02  0.0000000E+00
Ar 3995  0.5294545E+02  0.4943957E+02  0.4689483E+02  0.0000000E+00
Ar 3996  0.4944410E+02  0.5294681E+02  0.4690176E+02  0.0000000E+00
Ar 3997  0.4982425E+02  0.4982260E+02  0.4982352E+02  0.0000000E+00
Ar 3998  0.5250088E+02  0.5250036E+02  0.5021015E+02  0.0000000E+00
Ar 3999  0.5249557E+02  0.5020974E+02  0.5250681E+02  0.0000000E+00
Ar 4000  0.5019812E+02  0.5250625E+02  0.5250092E+02  0.0000000E+00
