        4000
Lattice="  0.5533145E+02  0.4122836E+00  0.4123119E+00  0.4122838E+00  0.5533144E+02  0.4123039E+00  0.4123123E+00  0.4123042E+00  0.5533146E+02" Properties=species:S:1:id:I:1:pos:R:3:tempK:R:1
Ar    1  0.8165525E+00  0.8235780E+00  0.8233971E+00  0.0000000E+00
Ar    2  0.3387283E+01  0.3386963E+01  0.5166810E+00  0.0000000E+00
Ar    3  0.3387032E+01  0.5166539E+00  0.3387074E+01  0.0000000E+00
Ar    4  0.5174635E+00  0.3385667E+01  0.3385773E+01  0.0000000E+00
Ar    5  0.7803949E+00  0.7798217E+00  0.5827002E+01  0.0000000E+00
Ar    6  0.3454804E+01  0.3456084E+01  0.6110559E+01  0.0000000E+00
Ar    7  0.3795336E+01  0.5395897E+00  0.9263386E+01  0.0000000E+00
Ar    8  0.5377601E+00  0.3797894E+01  0.9266454E+01  0.0000000E+00
Ar    9  0.7772467E+00  0.7636119E+00  0.1277634E+02  0.0000000E+00
Ar   10  0.3241242E+01  0.3238979E+01  0.1179888E+02  0.0000000E+00
Ar   11  0.3766423E+01  0.4743791E+00  0.1453264E+02  0.0000000E+00
Ar   12  0.4720954E+00  0.3741562E+01  0.1451776E+02  0.0000000E+00
Ar   13  0.1286198E+01  0.1291590E+01  0.1729363E+02  0.0000000E+00
Ar   14  0.3438377E+01  0.3438968E+01  0.1664427E+02  0.0000000E+00
Ar   15  0.2882170E+01  0.3242091E+00  0.2004287E+02  0.0000000E+00
Ar   16  0.3270478E+00  0.2885232E+01  0.2004398E+02  0.0000000E+00
Ar   17  0.5482615E+02  0.5482599E+02  0.2361533E+02  0.0000000E+00
Ar   18  0.3302576E+01  0.3302234E+01  0.2259022E+02  0.0000000E+00
Ar   19  0.2767032E+01  0.5537385E+02  0.2486860E+02  0.0000000E+00
Ar   20  0.5537385E+02  0.2766837E+01  0.2486839E+02  0.0000000E+00
Ar   21  0.2232769E+00  0.2233142E+00  0.2809184E+02  0.0000000E+00
Ar   22  0.3310414E+01  0.3310403E+01  0.2790723E+02  0.0000000E+00
Ar   23  0.4493268E+01  0.5553985E+02  0.3158790E+02  0.0000000E+00
Ar   24  0.5553988E+02  0.4493227E+01  0.3158791E+02  0.0000000E+00
Ar   25  0.5596833E+02  0.5596834E+02  0.3310600E+02  0.0000000E+00
Ar   26  0.3568711E+01  0.3568677E+01  0.3333528E+02  0.0000000E+00
Ar   27  0.3582487E+01  0.6311858E+00  0.3543417E+02  0.0000000E+00
Ar   28  0.6315689E+00  0.3582635E+01  0.3543441E+02  0.0000000E+00
Ar   29  0.9422843E+00  0.9428220E+00  0.3863092E+02  0.0000000E+00
Ar   30  0.3632826E+01  0.3632258E+01  0.3706309E+02  0.0000000E+00
Ar   31  0.3943348E+01  0.8169563E+00  0.4103135E+02  0.0000000E+00
Ar   32  0.8164305E+00  0.3944800E+01  0.4102942E+02  0.0000000E+00
Ar   33  0.1278324E+01  0.1280173E+01  0.4362651E+02  0.0000000E+00
Ar   34  0.3889932E+01  0.3890260E+01  0.4424017E+02  0.0000000E+00
Ar   35  0.2893544E+01  0.3878173E+00  0.4728036E+02  0.0000000E+00
Ar   36  0.3913563E+00  0.2897208E+01  0.4728329E+02  0.0000000E+00
Ar   37  0.5603907E+02  0.5603490E+02  0.5055612E+02  0.0000000E+00
Ar   38  0.3643726E+01  0.3642695E+01  0.5007834E+02  0.0000000E+00
Ar   39  0.3893352E+01  0.5490248E+00  0.5203381E+02  0.0000000E+00
Ar   40  0.5481969E+00  0.3896585E+01  0.5203409E+02  0.0000000E+00
Ar   41  0.7801921E+00  0.5827296E+01  0.7804652E+00  0.0000000E+00
Ar   42  0.3795259E+01  0.9262660E+01  0.5395608E+00  0.0000000E+00
Ar   43  0.3455088E+01  0.6110490E+01  0.3456225E+01  0.0000000E+00
Ar   44  0.5374918E+00  0.9267320E+01  0.3797780E+01  0.0000000E+00
Ar   45  0.9068870E+00  0.6331221E+01  0.6331196E+01  0.0000000E+00
Ar   46  0.3337437E+01  0.8804090E+01  0.5994823E+01  0.0000000E+00
Ar   47  0.3337595E+01  0.5995039E+01  0.8803980E+01  0.0000000E+00
Ar   48  0.3458979E+00  0.8726097E+01  0.8725773E+01  0.0000000E+00
Ar   49  0.6987519E+00  0.6262449E+01  0.1170776E+02  0.0000000E+00
Ar   50  0.3278554E+01  0.8812287E+01  0.1136780E+02  0.0000000E+00
Ar   51  0.3676877E+01  0.6323830E+01  0.1442439E+02  0.0000000E+00
Ar   52  0.7948901E+00  0.8642785E+01  0.1455106E+02  0.0000000E+00
Ar   53  0.2328899E+00  0.5903119E+01  0.1737064E+02  0.0000000E+00
Ar   54  0.3363040E+01  0.8893877E+01  0.1684351E+02  0.0000000E+00
Ar   55  0.3138982E+01  0.5617209E+01  0.1974925E+02  0.0000000E+00
Ar   56  0.4293827E+00  0.8714573E+01  0.1991499E+02  0.0000000E+00
Ar   57  0.3140113E+00  0.6023893E+01  0.2273804E+02  0.0000000E+00
Ar   58  0.3201962E+01  0.8620355E+01  0.2250480E+02  0.0000000E+00
Ar   59  0.3133893E+01  0.6048826E+01  0.2535094E+02  0.0000000E+00
Ar   60  0.5555582E+02  0.8941701E+01  0.2535327E+02  0.0000000E+00
Ar   61  0.7190240E+00  0.6456875E+01  0.2823591E+02  0.0000000E+00
Ar   62  0.3239208E+01  0.8939011E+01  0.2797120E+02  0.0000000E+00
Ar   63  0.3343976E+01  0.6093523E+01  0.3085226E+02  0.0000000E+00
Ar   64  0.5535649E+02  0.8838593E+01  0.3067383E+02  0.0000000E+00
Ar   65  0.5554298E+02  0.6956223E+01  0.3364221E+02  0.0000000E+00
Ar   66  0.3187093E+01  0.9223036E+01  0.3330524E+02  0.0000000E+00
Ar   67  0.3389156E+01  0.6680532E+01  0.3556661E+02  0.0000000E+00
Ar   68  0.5318413E+00  0.9188237E+01  0.3610651E+02  0.0000000E+00
Ar   69  0.5025078E+00  0.6564335E+01  0.3828627E+02  0.0000000E+00
Ar   70  0.3384073E+01  0.9350467E+01  0.3896098E+02  0.0000000E+00
Ar   71  0.3730998E+01  0.6423736E+01  0.4140141E+02  0.0000000E+00
Ar   72  0.8143845E+00  0.8571426E+01  0.4200863E+02  0.0000000E+00
Ar   73  0.6823686E+00  0.5267717E+01  0.4451001E+02  0.0000000E+00
Ar   74  0.3305710E+01  0.8484678E+01  0.4477654E+02  0.0000000E+00
Ar   75  0.3721160E+01  0.6402186E+01  0.4764898E+02  0.0000000E+00
Ar   76  0.6312844E+00  0.1018355E+02  0.4781348E+02  0.0000000E+00
Ar   77  0.6433667E+00  0.6161200E+01  0.4949237E+02  0.0000000E+00
Ar   78  0.3600092E+01  0.9191287E+01  0.4993772E+02  0.0000000E+00
Ar   79  0.3435386E+01  0.6447007E+01  0.5351056E+02  0.0000000E+00
Ar   80  0.1248579E+01  0.8804653E+01  0.5312405E+02  0.0000000E+00
Ar   81  0.7741850E+00  0.1277696E+02  0.7668544E+00  0.0000000E+00
Ar   82  0.3762045E+01  0.1453548E+02  0.4733572E+00  0.0000000E+00
Ar   83  0.3241682E+01  0.1179907E+02  0.3238609E+01  0.0000000E+00
Ar   84  0.4726018E+00  0.1451652E+02  0.3746097E+01  0.0000000E+00
Ar   85  0.6986845E+00  0.1170823E+02  0.6262437E+01  0.0000000E+00
Ar   86  0.3676718E+01  0.1442455E+02  0.6323613E+01  0.0000000E+00
Ar   87  0.3278390E+01  0.1136796E+02  0.8812041E+01  0.0000000E+00
Ar   88  0.7947773E+00  0.1455120E+02  0.8642997E+01  0.0000000E+00
Ar   89  0.5316551E+00  0.1128549E+02  0.1128561E+02  0.0000000E+00
Ar   90  0.3436704E+01  0.1433424E+02  0.1166987E+02  0.0000000E+00
Ar   91  0.3436742E+01  0.1166985E+02  0.1433424E+02  0.0000000E+00
Ar   92  0.3562468E+00  0.1381257E+02  0.1381257E+02  0.0000000E+00
Ar   93  0.5670127E+00  0.1158763E+02  0.1723814E+02  0.0000000E+00
Ar   94  0.3544378E+01  0.1408756E+02  0.1695130E+02  0.0000000E+00
Ar   95  0.3117122E+01  0.1125733E+02  0.1963115E+02  0.0000000E+00
Ar   96  0.4653160E+00  0.1428989E+02  0.1978916E+02  0.0000000E+00
Ar   97  0.5548314E+02  0.1177204E+02  0.2272296E+02  0.0000000E+00
Ar   98  0.3149550E+01  0.1394676E+02  0.2271223E+02  0.0000000E+00
Ar   99  0.2828287E+01  0.1146320E+02  0.2534983E+02  0.0000000E+00
Ar  100  0.5526606E+02  0.1449657E+02  0.2517764E+02  0.0000000E+00
Ar  101  0.5540107E+02  0.1148105E+02  0.2794469E+02  0.0000000E+00
Ar  102  0.3068573E+01  0.1454772E+02  0.2781740E+02  0.0000000E+00
Ar  103  0.2959784E+01  0.1139554E+02  0.3058337E+02  0.0000000E+00
Ar  104  0.5564962E+02  0.1412012E+02  0.3085897E+02  0.0000000E+00
Ar  105  0.5542766E+02  0.1161430E+02  0.3338030E+02  0.0000000E+00
Ar  106  0.3491639E+01  0.1406030E+02  0.3343984E+02  0.0000000E+00
Ar  107  0.3362742E+01  0.1159630E+02  0.3607339E+02  0.0000000E+00
Ar  108  0.6195277E+00  0.1448136E+02  0.3650194E+02  0.0000000E+00
Ar  109  0.4218385E+00  0.1142571E+02  0.3934567E+02  0.0000000E+00
Ar  110  0.3477511E+01  0.1406266E+02  0.3915612E+02  0.0000000E+00
Ar  111  0.3271141E+01  0.1181044E+02  0.4221271E+02  0.0000000E+00
Ar  112  0.5195159E+00  0.1399407E+02  0.4131835E+02  0.0000000E+00
Ar  113  0.5559498E+02  0.1177947E+02  0.4464785E+02  0.0000000E+00
Ar  114  0.3303738E+01  0.1431120E+02  0.4447741E+02  0.0000000E+00
Ar  115  0.3652022E+01  0.1220528E+02  0.4725345E+02  0.0000000E+00
Ar  116  0.6826740E+00  0.1442642E+02  0.4715782E+02  0.0000000E+00
Ar  117  0.8447796E+00  0.1193256E+02  0.5098499E+02  0.0000000E+00
Ar  118  0.3907364E+01  0.1460699E+02  0.5029143E+02  0.0000000E+00
Ar  119  0.3679175E+01  0.1186536E+02  0.5315435E+02  0.0000000E+00
Ar  120  0.5567042E+02  0.1535405E+02  0.5327547E+02  0.0000000E+00
Ar  121  0.1290539E+01  0.1729049E+02  0.1278655E+01  0.0000000E+00
Ar  122  0.2875795E+01  0.2003920E+02  0.3220206E+00  0.0000000E+00
Ar  123  0.3436720E+01  0.1664490E+02  0.3438930E+01  0.0000000E+00
Ar  124  0.3017401E+00  0.2004938E+02  0.2851924E+01  0.0000000E+00
Ar  125  0.2329722E+00  0.1737053E+02  0.5902695E+01  0.0000000E+00
Ar  126  0.3139451E+01  0.1974854E+02  0.5617607E+01  0.0000000E+00
Ar  127  0.3363110E+01  0.1684345E+02  0.8893640E+01  0.0000000E+00
Ar  128  0.4290134E+00  0.1991566E+02  0.8713802E+01  0.0000000E+00
Ar  129  0.5668890E+00  0.1723800E+02  0.1158775E+02  0.0000000E+00
Ar  130  0.3116807E+01  0.1963113E+02  0.1125706E+02  0.0000000E+00
Ar  131  0.3544281E+01  0.1695115E+02  0.1408760E+02  0.0000000E+00
Ar  132  0.4652498E+00  0.1978895E+02  0.1429022E+02  0.0000000E+00
Ar  133  0.3340842E+00  0.1739473E+02  0.1739482E+02  0.0000000E+00
Ar  134  0.3083352E+01  0.1971633E+02  0.1700911E+02  0.0000000E+00
Ar  135  0.3083397E+01  0.1700898E+02  0.1971636E+02  0.0000000E+00
Ar  136  0.5556820E+02  0.1953925E+02  0.1953934E+02  0.0000000E+00
Ar  137  0.7113250E+00  0.1718943E+02  0.2230132E+02  0.0000000E+00
Ar  138  0.3287123E+01  0.1973765E+02  0.2227213E+02  0.0000000E+00
Ar  139  0.3194037E+01  0.1682622E+02  0.2496509E+02  0.0000000E+00
Ar  140  0.4213370E+00  0.1949605E+02  0.2490741E+02  0.0000000E+00
Ar  141  0.4379915E+00  0.1712978E+02  0.2835535E+02  0.0000000E+00
Ar  142  0.3494399E+01  0.1976862E+02  0.2808776E+02  0.0000000E+00
Ar  143  0.3684579E+01  0.1734163E+02  0.3118113E+02  0.0000000E+00
Ar  144  0.5560298E+02  0.1978848E+02  0.3107828E+02  0.0000000E+00
Ar  145  0.4062902E+00  0.1598448E+02  0.3293147E+02  0.0000000E+00
Ar  146  0.2745060E+01  0.2000361E+02  0.3361973E+02  0.0000000E+00
Ar  147  0.2989298E+01  0.1733805E+02  0.3644396E+02  0.0000000E+00
Ar  148  0.5537516E+02  0.2012061E+02  0.3613505E+02  0.0000000E+00
Ar  149  0.5566018E+02  0.1795619E+02  0.3981599E+02  0.0000000E+00
Ar  150  0.3577481E+01  0.2030019E+02  0.3881700E+02  0.0000000E+00
Ar  151  0.3264615E+01  0.1678915E+02  0.4186041E+02  0.0000000E+00
Ar  152  0.5565367E+02  0.2002734E+02  0.4273696E+02  0.0000000E+00
Ar  153  0.5577659E+02  0.1691118E+02  0.4446196E+02  0.0000000E+00
Ar  154  0.3132137E+01  0.1984053E+02  0.4474515E+02  0.0000000E+00
Ar  155  0.3322625E+01  0.1694132E+02  0.4713859E+02  0.0000000E+00
Ar  156  0.6035242E+00  0.2026811E+02  0.4773624E+02  0.0000000E+00
Ar  157  0.5576030E+02  0.1685970E+02  0.4991186E+02  0.0000000E+00
Ar  158  0.3292003E+01  0.1974747E+02  0.4991724E+02  0.0000000E+00
Ar  159  0.3342846E+01  0.1717511E+02  0.5312814E+02  0.0000000E+00
Ar  160  0.5580602E+02  0.2021113E+02  0.5376385E+02  0.0000000E+00
Ar  161  0.5482501E+02  0.2361289E+02  0.5482727E+02  0.0000000E+00
Ar  162  0.2795229E+01  0.2489721E+02  0.5535563E+02  0.0000000E+00
Ar  163  0.3307138E+01  0.2258446E+02  0.3305782E+01  0.0000000E+00
Ar  164  0.5538173E+02  0.2483545E+02  0.2728963E+01  0.0000000E+00
Ar  165  0.3157811E+00  0.2273859E+02  0.6023612E+01  0.0000000E+00
Ar  166  0.3129643E+01  0.2535753E+02  0.6049023E+01  0.0000000E+00
Ar  167  0.3202397E+01  0.2250490E+02  0.8620090E+01  0.0000000E+00
Ar  168  0.5555732E+02  0.2535580E+02  0.8942032E+01  0.0000000E+00
Ar  169  0.5548201E+02  0.2272063E+02  0.1177116E+02  0.0000000E+00
Ar  170  0.2828516E+01  0.2535043E+02  0.1146295E+02  0.0000000E+00
Ar  171  0.3150065E+01  0.2271103E+02  0.1394780E+02  0.0000000E+00
Ar  172  0.5526538E+02  0.2517795E+02  0.1449720E+02  0.0000000E+00
Ar  173  0.7111725E+00  0.2230107E+02  0.1718972E+02  0.0000000E+00
Ar  174  0.3193815E+01  0.2496506E+02  0.1682633E+02  0.0000000E+00
Ar  175  0.3287126E+01  0.2227212E+02  0.1973770E+02  0.0000000E+00
Ar  176  0.4213579E+00  0.2490742E+02  0.1949611E+02  0.0000000E+00
Ar  177  0.5187597E+00  0.2314052E+02  0.2314047E+02  0.0000000E+00
Ar  178  0.3049952E+01  0.2537996E+02  0.2253694E+02  0.0000000E+00
Ar  179  0.3049950E+01  0.2253692E+02  0.2537998E+02  0.0000000E+00
Ar  180  0.5545593E+02  0.2514690E+02  0.2514691E+02  0.0000000E+00
Ar  181  0.3717893E+00  0.2168357E+02  0.2754113E+02  0.0000000E+00
Ar  182  0.3459137E+01  0.2533366E+02  0.2783976E+02  0.0000000E+00
Ar  183  0.3198351E+01  0.2222358E+02  0.3085465E+02  0.0000000E+00
Ar  184  0.5552611E+02  0.2476704E+02  0.2980905E+02  0.0000000E+00
Ar  185  0.5557465E+02  0.2263558E+02  0.3303373E+02  0.0000000E+00
Ar  186  0.3555567E+01  0.2523609E+02  0.3351465E+02  0.0000000E+00
Ar  187  0.3282770E+01  0.2274444E+02  0.3610419E+02  0.0000000E+00
Ar  188  0.5572689E+02  0.2493179E+02  0.3603665E+02  0.0000000E+00
Ar  189  0.5567040E+02  0.2286253E+02  0.3933059E+02  0.0000000E+00
Ar  190  0.3189779E+01  0.2518146E+02  0.3923738E+02  0.0000000E+00
Ar  191  0.3443823E+01  0.2262039E+02  0.4164681E+02  0.0000000E+00
Ar  192  0.5561687E+02  0.2544387E+02  0.4202757E+02  0.0000000E+00
Ar  193  0.5514104E+02  0.2262116E+02  0.4446942E+02  0.0000000E+00
Ar  194  0.3068335E+01  0.2534788E+02  0.4439569E+02  0.0000000E+00
Ar  195  0.3293305E+01  0.2281895E+02  0.4687777E+02  0.0000000E+00
Ar  196  0.6248517E+00  0.2553298E+02  0.4750205E+02  0.0000000E+00
Ar  197  0.5581922E+02  0.2280316E+02  0.5010121E+02  0.0000000E+00
Ar  198  0.3420487E+01  0.2560245E+02  0.5014987E+02  0.0000000E+00
Ar  199  0.3241259E+01  0.2251859E+02  0.5267746E+02  0.0000000E+00
Ar  200  0.5558626E+02  0.2547046E+02  0.5212900E+02  0.0000000E+00
Ar  201  0.2276622E+00  0.2809229E+02  0.2226729E+00  0.0000000E+00
Ar  202  0.4496616E+01  0.3159182E+02  0.5554943E+02  0.0000000E+00
Ar  203  0.3311588E+01  0.2790248E+02  0.3299752E+01  0.0000000E+00
Ar  204  0.5551910E+02  0.3158935E+02  0.4490272E+01  0.0000000E+00
Ar  205  0.7181017E+00  0.2824800E+02  0.6484182E+01  0.0000000E+00
Ar  206  0.3352523E+01  0.3084541E+02  0.6086207E+01  0.0000000E+00
Ar  207  0.3246745E+01  0.2797062E+02  0.8945142E+01  0.0000000E+00
Ar  208  0.5534486E+02  0.3070260E+02  0.8859642E+01  0.0000000E+00
Ar  209  0.5540047E+02  0.2794519E+02  0.1148204E+02  0.0000000E+00
Ar  210  0.2958833E+01  0.3058955E+02  0.1138849E+02  0.0000000E+00
Ar  211  0.3067918E+01  0.2781733E+02  0.1454756E+02  0.0000000E+00
Ar  212  0.5564996E+02  0.3086042E+02  0.1412185E+02  0.0000000E+00
Ar  213  0.4378311E+00  0.2835586E+02  0.1712962E+02  0.0000000E+00
Ar  214  0.3684595E+01  0.3118132E+02  0.1734189E+02  0.0000000E+00
Ar  215  0.3494322E+01  0.2808776E+02  0.1976862E+02  0.0000000E+00
Ar  216  0.5560306E+02  0.3107820E+02  0.1978848E+02  0.0000000E+00
Ar  217  0.3718026E+00  0.2754113E+02  0.2168359E+02  0.0000000E+00
Ar  218  0.3198343E+01  0.3085460E+02  0.2222359E+02  0.0000000E+00
Ar  219  0.3459241E+01  0.2783971E+02  0.2533366E+02  0.0000000E+00
Ar  220  0.5552610E+02  0.2980890E+02  0.2476713E+02  0.0000000E+00
Ar  221  0.5499507E+02  0.2839011E+02  0.2839025E+02  0.0000000E+00
Ar  222  0.3210387E+01  0.3116062E+02  0.2801812E+02  0.0000000E+00
Ar  223  0.3210435E+01  0.2801811E+02  0.3116062E+02  0.0000000E+00
Ar  224  0.5558680E+02  0.3084682E+02  0.3084685E+02  0.0000000E+00
Ar  225  0.7794884E+00  0.2845534E+02  0.3376029E+02  0.0000000E+00
Ar  226  0.3618830E+01  0.3090246E+02  0.3353002E+02  0.0000000E+00
Ar  227  0.3265077E+01  0.2761179E+02  0.3616885E+02  0.0000000E+00
Ar  228  0.5613537E+00  0.3134520E+02  0.3667374E+02  0.0000000E+00
Ar  229  0.5581444E+02  0.2831676E+02  0.3927052E+02  0.0000000E+00
Ar  230  0.3865249E+01  0.3086142E+02  0.3846567E+02  0.0000000E+00
Ar  231  0.3425893E+01  0.2805387E+02  0.4154618E+02  0.0000000E+00
Ar  232  0.9098547E+00  0.3106875E+02  0.4078866E+02  0.0000000E+00
Ar  233  0.9718277E+00  0.2839846E+02  0.4418839E+02  0.0000000E+00
Ar  234  0.3684638E+01  0.3100125E+02  0.4435479E+02  0.0000000E+00
Ar  235  0.3425154E+01  0.2800496E+02  0.4733801E+02  0.0000000E+00
Ar  236  0.5589825E+02  0.3070644E+02  0.4702144E+02  0.0000000E+00
Ar  237  0.5555250E+02  0.2811552E+02  0.4970182E+02  0.0000000E+00
Ar  238  0.3063053E+01  0.3087332E+02  0.5011313E+02  0.0000000E+00
Ar  239  0.2999552E+01  0.2829694E+02  0.5291961E+02  0.0000000E+00
Ar  240  0.6301243E+00  0.3143742E+02  0.5233775E+02  0.0000000E+00
Ar  241  0.6716230E+00  0.3269891E+02  0.5551264E+02  0.0000000E+00
Ar  242  0.3605200E+01  0.3547844E+02  0.5795876E+00  0.0000000E+00
Ar  243  0.3589798E+01  0.3333765E+02  0.3564265E+01  0.0000000E+00
Ar  244  0.6799014E+00  0.3540089E+02  0.3584493E+01  0.0000000E+00
Ar  245  0.5553860E+02  0.3366737E+02  0.6956615E+01  0.0000000E+00
Ar  246  0.3379057E+01  0.3558523E+02  0.6687514E+01  0.0000000E+00
Ar  247  0.3186793E+01  0.3332324E+02  0.9202256E+01  0.0000000E+00
Ar  248  0.5564892E+00  0.3608319E+02  0.9179683E+01  0.0000000E+00
Ar  249  0.5542389E+02  0.3336672E+02  0.1161895E+02  0.0000000E+00
Ar  250  0.3379938E+01  0.3607097E+02  0.1161008E+02  0.0000000E+00
Ar  251  0.3492269E+01  0.3343855E+02  0.1406227E+02  0.0000000E+00
Ar  252  0.6207753E+00  0.3649998E+02  0.1448263E+02  0.0000000E+00
Ar  253  0.4062542E+00  0.3292714E+02  0.1598404E+02  0.0000000E+00
Ar  254  0.2990866E+01  0.3644442E+02  0.1733934E+02  0.0000000E+00
Ar  255  0.2744855E+01  0.3361995E+02  0.2000380E+02  0.0000000E+00
Ar  256  0.5537477E+02  0.3613518E+02  0.2012001E+02  0.0000000E+00
Ar  257  0.5557496E+02  0.3303420E+02  0.2263520E+02  0.0000000E+00
Ar  258  0.3282579E+01  0.3610462E+02  0.2274443E+02  0.0000000E+00
Ar  259  0.3555677E+01  0.3351472E+02  0.2523602E+02  0.0000000E+00
Ar  260  0.5572683E+02  0.3603586E+02  0.2493236E+02  0.0000000E+00
Ar  261  0.7794331E+00  0.3376024E+02  0.2845531E+02  0.0000000E+00
Ar  262  0.3265072E+01  0.3616883E+02  0.2761178E+02  0.0000000E+00
Ar  263  0.3618791E+01  0.3353004E+02  0.3090240E+02  0.0000000E+00
Ar  264  0.5615350E+00  0.3667368E+02  0.3134494E+02  0.0000000E+00
Ar  265  0.5485892E+02  0.3398751E+02  0.3398730E+02  0.0000000E+00
Ar  266  0.3581954E+01  0.3603368E+02  0.3354845E+02  0.0000000E+00
Ar  267  0.3581971E+01  0.3354852E+02  0.3603369E+02  0.0000000E+00
Ar  268  0.6360758E+00  0.3631952E+02  0.3632074E+02  0.0000000E+00
Ar  269  0.5568214E+02  0.3387218E+02  0.3889300E+02  0.0000000E+00
Ar  270  0.3672892E+01  0.3632533E+02  0.3909422E+02  0.0000000E+00
Ar  271  0.3505062E+01  0.3355490E+02  0.4174664E+02  0.0000000E+00
Ar  272  0.5576720E+02  0.3673478E+02  0.4210800E+02  0.0000000E+00
Ar  273  0.8559527E+00  0.3320976E+02  0.4402444E+02  0.0000000E+00
Ar  274  0.3490401E+01  0.3624898E+02  0.4453647E+02  0.0000000E+00
Ar  275  0.3537776E+01  0.3310779E+02  0.4698756E+02  0.0000000E+00
Ar  276  0.5560977E+02  0.3609022E+02  0.4657017E+02  0.0000000E+00
Ar  277  0.5583025E+02  0.3325373E+02  0.4940674E+02  0.0000000E+00
Ar  278  0.2841538E+01  0.3678432E+02  0.4997340E+02  0.0000000E+00
Ar  279  0.4114662E+01  0.3355857E+02  0.5277140E+02  0.0000000E+00
Ar  280  0.5591167E+02  0.3525860E+02  0.5256379E+02  0.0000000E+00
Ar  281  0.9573515E+00  0.3862249E+02  0.9510188E+00  0.0000000E+00
Ar  282  0.3919811E+01  0.4100810E+02  0.8642239E+00  0.0000000E+00
Ar  283  0.3652727E+01  0.3708039E+02  0.3604918E+01  0.0000000E+00
Ar  284  0.7843304E+00  0.4107759E+02  0.3954420E+01  0.0000000E+00
Ar  285  0.5119530E+00  0.3830479E+02  0.6541073E+01  0.0000000E+00
Ar  286  0.3726655E+01  0.4139895E+02  0.6424671E+01  0.0000000E+00
Ar  287  0.3394383E+01  0.3896527E+02  0.9360606E+01  0.0000000E+00
Ar  288  0.8319626E+00  0.4205213E+02  0.8613201E+01  0.0000000E+00
Ar  289  0.4299867E+00  0.3936166E+02  0.1146222E+02  0.0000000E+00
Ar  290  0.3272475E+01  0.4221946E+02  0.1181663E+02  0.0000000E+00
Ar  291  0.3477117E+01  0.3915664E+02  0.1406341E+02  0.0000000E+00
Ar  292  0.5161565E+00  0.4132065E+02  0.1399142E+02  0.0000000E+00
Ar  293  0.5565998E+02  0.3981674E+02  0.1795543E+02  0.0000000E+00
Ar  294  0.3264480E+01  0.4186143E+02  0.1678890E+02  0.0000000E+00
Ar  295  0.3576318E+01  0.3881624E+02  0.2029950E+02  0.0000000E+00
Ar  296  0.5565445E+02  0.4273663E+02  0.2002813E+02  0.0000000E+00
Ar  297  0.5567075E+02  0.3933003E+02  0.2286270E+02  0.0000000E+00
Ar  298  0.3445132E+01  0.4164590E+02  0.2262003E+02  0.0000000E+00
Ar  299  0.3190267E+01  0.3923675E+02  0.2518200E+02  0.0000000E+00
Ar  300  0.5561797E+02  0.4202607E+02  0.2544088E+02  0.0000000E+00
Ar  301  0.5581426E+02  0.3927091E+02  0.2831623E+02  0.0000000E+00
Ar  302  0.3426265E+01  0.4154664E+02  0.2805328E+02  0.0000000E+00
Ar  303  0.3865310E+01  0.3846564E+02  0.3086133E+02  0.0000000E+00
Ar  304  0.9103590E+00  0.4078921E+02  0.3106785E+02  0.0000000E+00
Ar  305  0.5568109E+02  0.3888122E+02  0.3386196E+02  0.0000000E+00
Ar  306  0.3508884E+01  0.4174437E+02  0.3355484E+02  0.0000000E+00
Ar  307  0.3672380E+01  0.3909418E+02  0.3632498E+02  0.0000000E+00
Ar  308  0.5576841E+02  0.4211394E+02  0.3674148E+02  0.0000000E+00
Ar  309  0.5587269E+02  0.3944320E+02  0.3944384E+02  0.0000000E+00
Ar  310  0.3359478E+01  0.4191716E+02  0.3877435E+02  0.0000000E+00
Ar  311  0.3357409E+01  0.3877422E+02  0.4191710E+02  0.0000000E+00
Ar  312  0.5573510E+02  0.4206186E+02  0.4206157E+02  0.0000000E+00
Ar  313  0.5587434E+02  0.3919911E+02  0.4506626E+02  0.0000000E+00
Ar  314  0.3315031E+01  0.4177091E+02  0.4434078E+02  0.0000000E+00
Ar  315  0.3410941E+01  0.3922190E+02  0.4720339E+02  0.0000000E+00
Ar  316  0.5597779E+02  0.4207225E+02  0.4697331E+02  0.0000000E+00
Ar  317  0.5502331E+02  0.3903612E+02  0.5048909E+02  0.0000000E+00
Ar  318  0.3470212E+01  0.4123702E+02  0.5028211E+02  0.0000000E+00
Ar  319  0.2871076E+01  0.3880722E+02  0.5342425E+02  0.0000000E+00
Ar  320  0.7596692E+00  0.4131437E+02  0.5303876E+02  0.0000000E+00
Ar  321  0.1279661E+01  0.4362660E+02  0.1278001E+01  0.0000000E+00
Ar  322  0.2886709E+01  0.4728166E+02  0.3870182E+00  0.0000000E+00
Ar  323  0.3897215E+01  0.4423652E+02  0.3882109E+01  0.0000000E+00
Ar  324  0.3974500E+00  0.4728238E+02  0.2904539E+01  0.0000000E+00
Ar  325  0.6866659E+00  0.4450394E+02  0.5266269E+01  0.0000000E+00
Ar  326  0.3716482E+01  0.4765030E+02  0.6404892E+01  0.0000000E+00
Ar  327  0.3307301E+01  0.4477828E+02  0.8488544E+01  0.0000000E+00
Ar  328  0.6301688E+00  0.4782914E+02  0.1020324E+02  0.0000000E+00
Ar  329  0.5559308E+02  0.4466157E+02  0.1176870E+02  0.0000000E+00
Ar  330  0.3655132E+01  0.4725058E+02  0.1220429E+02  0.0000000E+00
Ar  331  0.3303925E+01  0.4447956E+02  0.1431490E+02  0.0000000E+00
Ar  332  0.6830012E+00  0.4715785E+02  0.1442495E+02  0.0000000E+00
Ar  333  0.5577468E+02  0.4447765E+02  0.1692532E+02  0.0000000E+00
Ar  334  0.3319896E+01  0.4713607E+02  0.1694058E+02  0.0000000E+00
Ar  335  0.3132470E+01  0.4474413E+02  0.1983976E+02  0.0000000E+00
Ar  336  0.6029790E+00  0.4773170E+02  0.2026360E+02  0.0000000E+00
Ar  337  0.5514064E+02  0.4446851E+02  0.2262162E+02  0.0000000E+00
Ar  338  0.3294236E+01  0.4687833E+02  0.2281748E+02  0.0000000E+00
Ar  339  0.3069416E+01  0.4439634E+02  0.2534709E+02  0.0000000E+00
Ar  340  0.6364056E+00  0.4746657E+02  0.2548840E+02  0.0000000E+00
Ar  341  0.9685306E+00  0.4421434E+02  0.2841493E+02  0.0000000E+00
Ar  342  0.3415500E+01  0.4733673E+02  0.2800493E+02  0.0000000E+00
Ar  343  0.3686499E+01  0.4435356E+02  0.3099855E+02  0.0000000E+00
Ar  344  0.5685734E+00  0.4656424E+02  0.3029285E+02  0.0000000E+00
Ar  345  0.8513411E+00  0.4401902E+02  0.3321104E+02  0.0000000E+00
Ar  346  0.3531859E+01  0.4699148E+02  0.3310314E+02  0.0000000E+00
Ar  347  0.3488192E+01  0.4453871E+02  0.3624644E+02  0.0000000E+00
Ar  348  0.5560362E+02  0.4657743E+02  0.3608159E+02  0.0000000E+00
Ar  349  0.5587460E+02  0.4507304E+02  0.3919481E+02  0.0000000E+00
Ar  350  0.3413622E+01  0.4720333E+02  0.3921995E+02  0.0000000E+00
Ar  351  0.3314404E+01  0.4434333E+02  0.4176825E+02  0.0000000E+00
Ar  352  0.5597795E+02  0.4697558E+02  0.4206913E+02  0.0000000E+00
Ar  353  0.5569259E+02  0.4443741E+02  0.4443297E+02  0.0000000E+00
Ar  354  0.3457485E+01  0.4743357E+02  0.4410549E+02  0.0000000E+00
Ar  355  0.3455761E+01  0.4410594E+02  0.4743098E+02  0.0000000E+00
Ar  356  0.5533986E+02  0.4678064E+02  0.4678109E+02  0.0000000E+00
Ar  357  0.5551839E+02  0.4474229E+02  0.5031549E+02  0.0000000E+00
Ar  358  0.3152910E+01  0.4697274E+02  0.4969002E+02  0.0000000E+00
Ar  359  0.3374753E+01  0.4446524E+02  0.5246778E+02  0.0000000E+00
Ar  360  0.5563014E+02  0.4752115E+02  0.5293575E+02  0.0000000E+00
Ar  361  0.5603430E+02  0.5055493E+02  0.5604068E+02  0.0000000E+00
Ar  362  0.3891200E+01  0.5202982E+02  0.5490809E+00  0.0000000E+00
Ar  363  0.3643373E+01  0.5007795E+02  0.3643384E+01  0.0000000E+00
Ar  364  0.5475188E+00  0.5203540E+02  0.3897871E+01  0.0000000E+00
Ar  365  0.6432028E+00  0.4949296E+02  0.6160537E+01  0.0000000E+00
Ar  366  0.3434123E+01  0.5351069E+02  0.6449566E+01  0.0000000E+00
Ar  367  0.3600162E+01  0.4993873E+02  0.9191845E+01  0.0000000E+00
Ar  368  0.1248574E+01  0.5311740E+02  0.8811235E+01  0.0000000E+00
Ar  369  0.8390694E+00  0.5098626E+02  0.1193458E+02  0.0000000E+00
Ar  370  0.3677377E+01  0.5315466E+02  0.1186927E+02  0.0000000E+00
Ar  371  0.3905678E+01  0.5029105E+02  0.1460819E+02  0.0000000E+00
Ar  372  0.5567825E+02  0.5326727E+02  0.1534897E+02  0.0000000E+00
Ar  373  0.5576105E+02  0.4990223E+02  0.1685860E+02  0.0000000E+00
Ar  374  0.3343606E+01  0.5312590E+02  0.1717893E+02  0.0000000E+00
Ar  375  0.3291812E+01  0.4991327E+02  0.1974772E+02  0.0000000E+00
Ar  376  0.5583886E+02  0.5372890E+02  0.2020631E+02  0.0000000E+00
Ar  377  0.5582293E+02  0.5009790E+02  0.2279434E+02  0.0000000E+00
Ar  378  0.3243310E+01  0.5268342E+02  0.2252221E+02  0.0000000E+00
Ar  379  0.3417758E+01  0.5014986E+02  0.2560289E+02  0.0000000E+00
Ar  380  0.5558528E+02  0.5213155E+02  0.2546847E+02  0.0000000E+00
Ar  381  0.5553014E+02  0.4968533E+02  0.2810252E+02  0.0000000E+00
Ar  382  0.3051443E+01  0.5290694E+02  0.2824782E+02  0.0000000E+00
Ar  383  0.3058358E+01  0.5010616E+02  0.3086022E+02  0.0000000E+00
Ar  384  0.6438504E+00  0.5237069E+02  0.3143537E+02  0.0000000E+00
Ar  385  0.5582568E+02  0.4940426E+02  0.3323172E+02  0.0000000E+00
Ar  386  0.4101091E+01  0.5273466E+02  0.3355698E+02  0.0000000E+00
Ar  387  0.2828434E+01  0.4996091E+02  0.3677810E+02  0.0000000E+00
Ar  388  0.5590962E+02  0.5255951E+02  0.3530384E+02  0.0000000E+00
Ar  389  0.5502340E+02  0.5050725E+02  0.3904069E+02  0.0000000E+00
Ar  390  0.2874274E+01  0.5340827E+02  0.3877615E+02  0.0000000E+00
Ar  391  0.3480632E+01  0.5027716E+02  0.4124402E+02  0.0000000E+00
Ar  392  0.7670444E+00  0.5304695E+02  0.4131997E+02  0.0000000E+00
Ar  393  0.5551850E+02  0.5030821E+02  0.4474421E+02  0.0000000E+00
Ar  394  0.3371092E+01  0.5246844E+02  0.4447230E+02  0.0000000E+00
Ar  395  0.3154540E+01  0.4968096E+02  0.4697881E+02  0.0000000E+00
Ar  396  0.5563271E+02  0.5293501E+02  0.4752116E+02  0.0000000E+00
Ar  397  0.5603838E+02  0.5044061E+02  0.5044834E+02  0.0000000E+00
Ar  398  0.4148245E+01  0.5254942E+02  0.4991061E+02  0.0000000E+00
Ar  399  0.4148111E+01  0.4991401E+02  0.5254748E+02  0.0000000E+00
Ar  400  0.1538472E+01  0.5259410E+02  0.5259311E+02  0.0000000E+00
Ar  401  0.5826251E+01  0.7812816E+00  0.7821656E+00  0.0000000E+00
Ar  402  0.9267068E+01  0.3796050E+01  0.5364514E+00  0.0000000E+00
Ar  403  0.9270010E+01  0.5347434E+00  0.3795019E+01  0.0000000E+00
Ar  404  0.6109963E+01  0.3454229E+01  0.3454255E+01  0.0000000E+00
Ar  405  0.6330457E+01  0.9070428E+00  0.6330826E+01  0.0000000E+00
Ar  406  0.8805114E+01  0.3333524E+01  0.5991140E+01  0.0000000E+00
Ar  407  0.8726272E+01  0.3438704E+00  0.8724355E+01  0.0000000E+00
Ar  408  0.5993081E+01  0.3335673E+01  0.8805022E+01  0.0000000E+00
Ar  409  0.6259980E+01  0.6989831E+00  0.1170527E+02  0.0000000E+00
Ar  410  0.8811799E+01  0.3277676E+01  0.1136816E+02  0.0000000E+00
Ar  411  0.8639551E+01  0.7954317E+00  0.1454795E+02  0.0000000E+00
Ar  412  0.6323617E+01  0.3676823E+01  0.1442434E+02  0.0000000E+00
Ar  413  0.5904061E+01  0.2336293E+00  0.1737105E+02  0.0000000E+00
Ar  414  0.8893822E+01  0.3362470E+01  0.1684330E+02  0.0000000E+00
Ar  415  0.8713887E+01  0.4294954E+00  0.1991407E+02  0.0000000E+00
Ar  416  0.5616669E+01  0.3138939E+01  0.1974901E+02  0.0000000E+00
Ar  417  0.6023864E+01  0.3139949E+00  0.2273792E+02  0.0000000E+00
Ar  418  0.8620328E+01  0.3201601E+01  0.2250442E+02  0.0000000E+00
Ar  419  0.8941682E+01  0.5555579E+02  0.2535329E+02  0.0000000E+00
Ar  420  0.6048859E+01  0.3133891E+01  0.2535094E+02  0.0000000E+00
Ar  421  0.6456890E+01  0.7189873E+00  0.2823595E+02  0.0000000E+00
Ar  422  0.8938985E+01  0.3239148E+01  0.2797123E+02  0.0000000E+00
Ar  423  0.8838461E+01  0.5535658E+02  0.3067379E+02  0.0000000E+00
Ar  424  0.6093547E+01  0.3343923E+01  0.3085224E+02  0.0000000E+00
Ar  425  0.6956283E+01  0.5554295E+02  0.3364229E+02  0.0000000E+00
Ar  426  0.9223134E+01  0.3187082E+01  0.3330523E+02  0.0000000E+00
Ar  427  0.9188121E+01  0.5318257E+00  0.3610704E+02  0.0000000E+00
Ar  428  0.6681053E+01  0.3389225E+01  0.3556628E+02  0.0000000E+00
Ar  429  0.6562146E+01  0.5027810E+00  0.3828814E+02  0.0000000E+00
Ar  430  0.9350256E+01  0.3383757E+01  0.3896099E+02  0.0000000E+00
Ar  431  0.8571857E+01  0.8144191E+00  0.4200879E+02  0.0000000E+00
Ar  432  0.6423813E+01  0.3730909E+01  0.4140141E+02  0.0000000E+00
Ar  433  0.5265359E+01  0.6828969E+00  0.4451099E+02  0.0000000E+00
Ar  434  0.8484796E+01  0.3305778E+01  0.4477648E+02  0.0000000E+00
Ar  435  0.1018356E+02  0.6315214E+00  0.4781296E+02  0.0000000E+00
Ar  436  0.6402428E+01  0.3721279E+01  0.4764911E+02  0.0000000E+00
Ar  437  0.6160889E+01  0.6414883E+00  0.4949302E+02  0.0000000E+00
Ar  438  0.9191548E+01  0.3599535E+01  0.4993727E+02  0.0000000E+00
Ar  439  0.8795120E+01  0.1257454E+01  0.5310396E+02  0.0000000E+00
Ar  440  0.6448202E+01  0.3438816E+01  0.5351096E+02  0.0000000E+00
Ar  441  0.6330718E+01  0.6330557E+01  0.9068931E+00  0.0000000E+00
Ar  442  0.8725386E+01  0.8725347E+01  0.3441218E+00  0.0000000E+00
Ar  443  0.8804664E+01  0.5992678E+01  0.3335387E+01  0.0000000E+00
Ar  444  0.5992956E+01  0.8804897E+01  0.3335426E+01  0.0000000E+00
Ar  445  0.6210887E+01  0.6210243E+01  0.6210286E+01  0.0000000E+00
Ar  446  0.8806784E+01  0.8806978E+01  0.6366780E+01  0.0000000E+00
Ar  447  0.8806820E+01  0.6366623E+01  0.8806962E+01  0.0000000E+00
Ar  448  0.6366609E+01  0.8807105E+01  0.8807208E+01  0.0000000E+00
Ar  449  0.6210994E+01  0.6210727E+01  0.1175897E+02  0.0000000E+00
Ar  450  0.8936735E+01  0.8936733E+01  0.1165262E+02  0.0000000E+00
Ar  451  0.9169648E+01  0.6201539E+01  0.1432602E+02  0.0000000E+00
Ar  452  0.6201759E+01  0.9169799E+01  0.1432626E+02  0.0000000E+00
Ar  453  0.5986445E+01  0.5986291E+01  0.1734578E+02  0.0000000E+00
Ar  454  0.9127515E+01  0.9127521E+01  0.1695920E+02  0.0000000E+00
Ar  455  0.8725074E+01  0.5910111E+01  0.1998012E+02  0.0000000E+00
Ar  456  0.5910147E+01  0.8725117E+01  0.1998011E+02  0.0000000E+00
Ar  457  0.5915149E+01  0.5915090E+01  0.2266807E+02  0.0000000E+00
Ar  458  0.8586614E+01  0.8586606E+01  0.2279639E+02  0.0000000E+00
Ar  459  0.8953773E+01  0.5621729E+01  0.2507396E+02  0.0000000E+00
Ar  460  0.5621824E+01  0.8953782E+01  0.2507402E+02  0.0000000E+00
Ar  461  0.6512950E+01  0.6512896E+01  0.2803675E+02  0.0000000E+00
Ar  462  0.9004271E+01  0.9004278E+01  0.2840463E+02  0.0000000E+00
Ar  463  0.8899365E+01  0.5816565E+01  0.3082555E+02  0.0000000E+00
Ar  464  0.5816580E+01  0.8899351E+01  0.3082553E+02  0.0000000E+00
Ar  465  0.6243535E+01  0.6243567E+01  0.3350447E+02  0.0000000E+00
Ar  466  0.8731235E+01  0.8731232E+01  0.3307218E+02  0.0000000E+00
Ar  467  0.9086922E+01  0.6136576E+01  0.3620271E+02  0.0000000E+00
Ar  468  0.6136591E+01  0.9086860E+01  0.3620268E+02  0.0000000E+00
Ar  469  0.5900967E+01  0.5900943E+01  0.3874918E+02  0.0000000E+00
Ar  470  0.8881441E+01  0.8881418E+01  0.3896947E+02  0.0000000E+00
Ar  471  0.9353986E+01  0.6234478E+01  0.4198524E+02  0.0000000E+00
Ar  472  0.6234522E+01  0.9353891E+01  0.4198526E+02  0.0000000E+00
Ar  473  0.6659252E+01  0.6659302E+01  0.4461867E+02  0.0000000E+00
Ar  474  0.9227079E+01  0.9227059E+01  0.4443184E+02  0.0000000E+00
Ar  475  0.9095909E+01  0.6517397E+01  0.4753400E+02  0.0000000E+00
Ar  476  0.6516872E+01  0.9095677E+01  0.4753453E+02  0.0000000E+00
Ar  477  0.6448645E+01  0.6448591E+01  0.5066052E+02  0.0000000E+00
Ar  478  0.8963795E+01  0.8963715E+01  0.5035278E+02  0.0000000E+00
Ar  479  0.8824331E+01  0.6376671E+01  0.5334313E+02  0.0000000E+00
Ar  480  0.6372861E+01  0.8823312E+01  0.5334672E+02  0.0000000E+00
Ar  481  0.6259612E+01  0.1170521E+02  0.6992659E+00  0.0000000E+00
Ar  482  0.8639279E+01  0.1454775E+02  0.7957024E+00  0.0000000E+00
Ar  483  0.8811892E+01  0.1136815E+02  0.3277936E+01  0.0000000E+00
Ar  484  0.6323549E+01  0.1442459E+02  0.3676648E+01  0.0000000E+00
Ar  485  0.6210758E+01  0.1175910E+02  0.6210800E+01  0.0000000E+00
Ar  486  0.9169634E+01  0.1432620E+02  0.6201581E+01  0.0000000E+00
Ar  487  0.8936637E+01  0.1165280E+02  0.8936671E+01  0.0000000E+00
Ar  488  0.6201497E+01  0.1432610E+02  0.9169826E+01  0.0000000E+00
Ar  489  0.5813480E+01  0.1140289E+02  0.1140274E+02  0.0000000E+00
Ar  490  0.8846458E+01  0.1413803E+02  0.1167167E+02  0.0000000E+00
Ar  491  0.8846602E+01  0.1167183E+02  0.1413801E+02  0.0000000E+00
Ar  492  0.6034313E+01  0.1406331E+02  0.1406330E+02  0.0000000E+00
Ar  493  0.6361466E+01  0.1161508E+02  0.1700940E+02  0.0000000E+00
Ar  494  0.8753989E+01  0.1410254E+02  0.1706899E+02  0.0000000E+00
Ar  495  0.8742479E+01  0.1140035E+02  0.2013501E+02  0.0000000E+00
Ar  496  0.5611746E+01  0.1419793E+02  0.1977533E+02  0.0000000E+00
Ar  497  0.6068375E+01  0.1135850E+02  0.2272681E+02  0.0000000E+00
Ar  498  0.8606445E+01  0.1409869E+02  0.2260508E+02  0.0000000E+00
Ar  499  0.8708405E+01  0.1131318E+02  0.2524245E+02  0.0000000E+00
Ar  500  0.5915381E+01  0.1417286E+02  0.2517308E+02  0.0000000E+00
Ar  501  0.5763603E+01  0.1153000E+02  0.2801078E+02  0.0000000E+00
Ar  502  0.8816981E+01  0.1422657E+02  0.2829939E+02  0.0000000E+00
Ar  503  0.8713985E+01  0.1176141E+02  0.3097992E+02  0.0000000E+00
Ar  504  0.5674613E+01  0.1409775E+02  0.3064750E+02  0.0000000E+00
Ar  505  0.5932083E+01  0.1141825E+02  0.3343966E+02  0.0000000E+00
Ar  506  0.8668646E+01  0.1442250E+02  0.3336963E+02  0.0000000E+00
Ar  507  0.8925244E+01  0.1168223E+02  0.3595030E+02  0.0000000E+00
Ar  508  0.6079460E+01  0.1443760E+02  0.3625271E+02  0.0000000E+00
Ar  509  0.6225735E+01  0.1148494E+02  0.3871915E+02  0.0000000E+00
Ar  510  0.8848405E+01  0.1402412E+02  0.3875133E+02  0.0000000E+00
Ar  511  0.8982783E+01  0.1181680E+02  0.4182312E+02  0.0000000E+00
Ar  512  0.6230399E+01  0.1421772E+02  0.4210473E+02  0.0000000E+00
Ar  513  0.6424927E+01  0.1169958E+02  0.4491089E+02  0.0000000E+00
Ar  514  0.9055106E+01  0.1447964E+02  0.4463513E+02  0.0000000E+00
Ar  515  0.9044512E+01  0.1185873E+02  0.4734450E+02  0.0000000E+00
Ar  516  0.6509639E+01  0.1435463E+02  0.4713811E+02  0.0000000E+00
Ar  517  0.6547802E+01  0.1201690E+02  0.5038921E+02  0.0000000E+00
Ar  518  0.9163840E+01  0.1462535E+02  0.5030130E+02  0.0000000E+00
Ar  519  0.8835944E+01  0.1219761E+02  0.5322913E+02  0.0000000E+00
Ar  520  0.6141672E+01  0.1498381E+02  0.5286449E+02  0.0000000E+00
Ar  521  0.5903553E+01  0.1737036E+02  0.2331281E+00  0.0000000E+00
Ar  522  0.8715416E+01  0.1991123E+02  0.4286335E+00  0.0000000E+00
Ar  523  0.8893936E+01  0.1684338E+02  0.3362285E+01  0.0000000E+00
Ar  524  0.5617669E+01  0.1974837E+02  0.3138418E+01  0.0000000E+00
Ar  525  0.5986305E+01  0.1734567E+02  0.5985474E+01  0.0000000E+00
Ar  526  0.8726120E+01  0.1997923E+02  0.5910156E+01  0.0000000E+00
Ar  527  0.9127477E+01  0.1695914E+02  0.9127549E+01  0.0000000E+00
Ar  528  0.5910371E+01  0.1997968E+02  0.8725160E+01  0.0000000E+00
Ar  529  0.6361562E+01  0.1700930E+02  0.1161500E+02  0.0000000E+00
Ar  530  0.8742545E+01  0.2013492E+02  0.1140053E+02  0.0000000E+00
Ar  531  0.8754003E+01  0.1706884E+02  0.1410265E+02  0.0000000E+00
Ar  532  0.5611890E+01  0.1977487E+02  0.1419816E+02  0.0000000E+00
Ar  533  0.5827590E+01  0.1689721E+02  0.1689725E+02  0.0000000E+00
Ar  534  0.8477113E+01  0.1957649E+02  0.1680540E+02  0.0000000E+00
Ar  535  0.8477049E+01  0.1680537E+02  0.1957651E+02  0.0000000E+00
Ar  536  0.5941726E+01  0.1973655E+02  0.1973656E+02  0.0000000E+00
Ar  537  0.6144738E+01  0.1681567E+02  0.2236542E+02  0.0000000E+00
Ar  538  0.8666543E+01  0.1980475E+02  0.2243837E+02  0.0000000E+00
Ar  539  0.8577876E+01  0.1685504E+02  0.2530836E+02  0.0000000E+00
Ar  540  0.5896152E+01  0.1971004E+02  0.2495404E+02  0.0000000E+00
Ar  541  0.5742893E+01  0.1695059E+02  0.2796506E+02  0.0000000E+00
Ar  542  0.8718848E+01  0.1952714E+02  0.2795492E+02  0.0000000E+00
Ar  543  0.8740512E+01  0.1690811E+02  0.3074815E+02  0.0000000E+00
Ar  544  0.6312116E+01  0.1972937E+02  0.3053629E+02  0.0000000E+00
Ar  545  0.6021553E+01  0.1728274E+02  0.3364383E+02  0.0000000E+00
Ar  546  0.8610634E+01  0.1989034E+02  0.3350613E+02  0.0000000E+00
Ar  547  0.8854095E+01  0.1733457E+02  0.3608708E+02  0.0000000E+00
Ar  548  0.6037835E+01  0.1980935E+02  0.3614198E+02  0.0000000E+00
Ar  549  0.6119773E+01  0.1730050E+02  0.3872970E+02  0.0000000E+00
Ar  550  0.8694531E+01  0.1980412E+02  0.3890378E+02  0.0000000E+00
Ar  551  0.8581145E+01  0.1694272E+02  0.4169127E+02  0.0000000E+00
Ar  552  0.5887539E+01  0.1994298E+02  0.4163334E+02  0.0000000E+00
Ar  553  0.5997812E+01  0.1683117E+02  0.4454271E+02  0.0000000E+00
Ar  554  0.8709369E+01  0.1960713E+02  0.4431782E+02  0.0000000E+00
Ar  555  0.9123408E+01  0.1729748E+02  0.4728577E+02  0.0000000E+00
Ar  556  0.5928858E+01  0.1948087E+02  0.4709419E+02  0.0000000E+00
Ar  557  0.6515186E+01  0.1697008E+02  0.5002225E+02  0.0000000E+00
Ar  558  0.8710029E+01  0.1971988E+02  0.5007506E+02  0.0000000E+00
Ar  559  0.8925775E+01  0.1744162E+02  0.5276008E+02  0.0000000E+00
Ar  560  0.5663071E+01  0.1982110E+02  0.5290761E+02  0.0000000E+00
Ar  561  0.6027593E+01  0.2273880E+02  0.3138900E+00  0.0000000E+00
Ar  562  0.8937148E+01  0.2535253E+02  0.5555494E+02  0.0000000E+00
Ar  563  0.8619701E+01  0.2250374E+02  0.3200758E+01  0.0000000E+00
Ar  564  0.6050012E+01  0.2534501E+02  0.3141402E+01  0.0000000E+00
Ar  565  0.5915209E+01  0.2266734E+02  0.5916251E+01  0.0000000E+00
Ar  566  0.8954619E+01  0.2507348E+02  0.5620364E+01  0.0000000E+00
Ar  567  0.8587048E+01  0.2279604E+02  0.8586960E+01  0.0000000E+00
Ar  568  0.5622065E+01  0.2507350E+02  0.8953758E+01  0.0000000E+00
Ar  569  0.6068645E+01  0.2272676E+02  0.1135866E+02  0.0000000E+00
Ar  570  0.8708801E+01  0.2524249E+02  0.1131314E+02  0.0000000E+00
Ar  571  0.8606706E+01  0.2260492E+02  0.1409883E+02  0.0000000E+00
Ar  572  0.5915319E+01  0.2517253E+02  0.1417335E+02  0.0000000E+00
Ar  573  0.6144714E+01  0.2236532E+02  0.1681571E+02  0.0000000E+00
Ar  574  0.8578018E+01  0.2530837E+02  0.1685520E+02  0.0000000E+00
Ar  575  0.8666514E+01  0.2243835E+02  0.1980477E+02  0.0000000E+00
Ar  576  0.5896139E+01  0.2495404E+02  0.1971001E+02  0.0000000E+00
Ar  577  0.5769784E+01  0.2277327E+02  0.2277325E+02  0.0000000E+00
Ar  578  0.8622062E+01  0.2501332E+02  0.2228898E+02  0.0000000E+00
Ar  579  0.8622075E+01  0.2228898E+02  0.2501332E+02  0.0000000E+00
Ar  580  0.5829608E+01  0.2529869E+02  0.2529872E+02  0.0000000E+00
Ar  581  0.6036373E+01  0.2235510E+02  0.2775446E+02  0.0000000E+00
Ar  582  0.8782580E+01  0.2512404E+02  0.2783834E+02  0.0000000E+00
Ar  583  0.8824886E+01  0.2260524E+02  0.3061150E+02  0.0000000E+00
Ar  584  0.6199810E+01  0.2528163E+02  0.3091104E+02  0.0000000E+00
Ar  585  0.5945107E+01  0.2202893E+02  0.3331224E+02  0.0000000E+00
Ar  586  0.9099537E+01  0.2534587E+02  0.3364601E+02  0.0000000E+00
Ar  587  0.8914677E+01  0.2235290E+02  0.3636217E+02  0.0000000E+00
Ar  588  0.6283434E+01  0.2538538E+02  0.3610190E+02  0.0000000E+00
Ar  589  0.6040730E+01  0.2287620E+02  0.3883184E+02  0.0000000E+00
Ar  590  0.8929281E+01  0.2504173E+02  0.3916776E+02  0.0000000E+00
Ar  591  0.8680426E+01  0.2253205E+02  0.4182080E+02  0.0000000E+00
Ar  592  0.6171521E+01  0.2514433E+02  0.4159855E+02  0.0000000E+00
Ar  593  0.6054006E+01  0.2263176E+02  0.4458387E+02  0.0000000E+00
Ar  594  0.8646622E+01  0.2528242E+02  0.4446605E+02  0.0000000E+00
Ar  595  0.8502712E+01  0.2225129E+02  0.4706463E+02  0.0000000E+00
Ar  596  0.5980782E+01  0.2526466E+02  0.4741790E+02  0.0000000E+00
Ar  597  0.5892136E+01  0.2261598E+02  0.5008065E+02  0.0000000E+00
Ar  598  0.8779878E+01  0.2509475E+02  0.4985443E+02  0.0000000E+00
Ar  599  0.8521458E+01  0.2221393E+02  0.5274061E+02  0.0000000E+00
Ar  600  0.6241036E+01  0.2532410E+02  0.5285697E+02  0.0000000E+00
Ar  601  0.6439727E+01  0.2823503E+02  0.7201811E+00  0.0000000E+00
Ar  602  0.8828703E+01  0.3064078E+02  0.5536620E+02  0.0000000E+00
Ar  603  0.8931530E+01  0.2797255E+02  0.3230054E+01  0.0000000E+00
Ar  604  0.6096616E+01  0.3084872E+02  0.3340437E+01  0.0000000E+00
Ar  605  0.6513667E+01  0.2803718E+02  0.6514874E+01  0.0000000E+00
Ar  606  0.8898282E+01  0.3082637E+02  0.5819281E+01  0.0000000E+00
Ar  607  0.9005928E+01  0.2840447E+02  0.9004105E+01  0.0000000E+00
Ar  608  0.5814586E+01  0.3082595E+02  0.8898768E+01  0.0000000E+00
Ar  609  0.5761652E+01  0.2801077E+02  0.1152977E+02  0.0000000E+00
Ar  610  0.8714430E+01  0.3098042E+02  0.1176110E+02  0.0000000E+00
Ar  611  0.8817215E+01  0.2829924E+02  0.1422680E+02  0.0000000E+00
Ar  612  0.5674867E+01  0.3064747E+02  0.1409709E+02  0.0000000E+00
Ar  613  0.5742707E+01  0.2796515E+02  0.1695050E+02  0.0000000E+00
Ar  614  0.8740812E+01  0.3074781E+02  0.1690840E+02  0.0000000E+00
Ar  615  0.8718815E+01  0.2795492E+02  0.1952718E+02  0.0000000E+00
Ar  616  0.6312133E+01  0.3053634E+02  0.1972949E+02  0.0000000E+00
Ar  617  0.6036362E+01  0.2775442E+02  0.2235509E+02  0.0000000E+00
Ar  618  0.8824904E+01  0.3061146E+02  0.2260528E+02  0.0000000E+00
Ar  619  0.8782582E+01  0.2783827E+02  0.2512409E+02  0.0000000E+00
Ar  620  0.6199767E+01  0.3091094E+02  0.2528167E+02  0.0000000E+00
Ar  621  0.6365278E+01  0.2806769E+02  0.2806772E+02  0.0000000E+00
Ar  622  0.8650910E+01  0.3074387E+02  0.2811711E+02  0.0000000E+00
Ar  623  0.8650954E+01  0.2811709E+02  0.3074390E+02  0.0000000E+00
Ar  624  0.5805180E+01  0.3045361E+02  0.3045358E+02  0.0000000E+00
Ar  625  0.6529233E+01  0.2824377E+02  0.3373973E+02  0.0000000E+00
Ar  626  0.9163326E+01  0.3090061E+02  0.3346758E+02  0.0000000E+00
Ar  627  0.9189364E+01  0.2777975E+02  0.3631512E+02  0.0000000E+00
Ar  628  0.6658908E+01  0.3067255E+02  0.3646718E+02  0.0000000E+00
Ar  629  0.6487474E+01  0.2785506E+02  0.3915367E+02  0.0000000E+00
Ar  630  0.9013441E+01  0.3064956E+02  0.3918474E+02  0.0000000E+00
Ar  631  0.8774567E+01  0.2795934E+02  0.4209144E+02  0.0000000E+00
Ar  632  0.5972787E+01  0.3089210E+02  0.4146996E+02  0.0000000E+00
Ar  633  0.5657711E+01  0.2761754E+02  0.4459595E+02  0.0000000E+00
Ar  634  0.9139791E+01  0.3091341E+02  0.4482657E+02  0.0000000E+00
Ar  635  0.8923817E+01  0.2775079E+02  0.4714009E+02  0.0000000E+00
Ar  636  0.6359991E+01  0.3041349E+02  0.4724123E+02  0.0000000E+00
Ar  637  0.6082063E+01  0.2811504E+02  0.5005123E+02  0.0000000E+00
Ar  638  0.9251319E+01  0.3057466E+02  0.4976991E+02  0.0000000E+00
Ar  639  0.9020443E+01  0.2799954E+02  0.5272546E+02  0.0000000E+00
Ar  640  0.5988379E+01  0.3067585E+02  0.5226998E+02  0.0000000E+00
Ar  641  0.6971675E+01  0.3360246E+02  0.5553916E+02  0.0000000E+00
Ar  642  0.9187813E+01  0.3612162E+02  0.5203998E+00  0.0000000E+00
Ar  643  0.9228240E+01  0.3330693E+02  0.3205124E+01  0.0000000E+00
Ar  644  0.6683498E+01  0.3554681E+02  0.3407226E+01  0.0000000E+00
Ar  645  0.6223585E+01  0.3351495E+02  0.6256449E+01  0.0000000E+00
Ar  646  0.9091421E+01  0.3620399E+02  0.6138234E+01  0.0000000E+00
Ar  647  0.8729534E+01  0.3307345E+02  0.8729105E+01  0.0000000E+00
Ar  648  0.6108258E+01  0.3620277E+02  0.9065463E+01  0.0000000E+00
Ar  649  0.5932350E+01  0.3344453E+02  0.1141311E+02  0.0000000E+00
Ar  650  0.8922791E+01  0.3595134E+02  0.1168063E+02  0.0000000E+00
Ar  651  0.8668864E+01  0.3336951E+02  0.1442268E+02  0.0000000E+00
Ar  652  0.6078925E+01  0.3625307E+02  0.1443831E+02  0.0000000E+00
Ar  653  0.6021836E+01  0.3364396E+02  0.1728291E+02  0.0000000E+00
Ar  654  0.8854438E+01  0.3608746E+02  0.1733541E+02  0.0000000E+00
Ar  655  0.8610883E+01  0.3350596E+02  0.1989079E+02  0.0000000E+00
Ar  656  0.6038438E+01  0.3614263E+02  0.1980947E+02  0.0000000E+00
Ar  657  0.5945168E+01  0.3331228E+02  0.2202908E+02  0.0000000E+00
Ar  658  0.8914955E+01  0.3636229E+02  0.2235290E+02  0.0000000E+00
Ar  659  0.9099560E+01  0.3364593E+02  0.2534590E+02  0.0000000E+00
Ar  660  0.6283536E+01  0.3610188E+02  0.2538551E+02  0.0000000E+00
Ar  661  0.6529192E+01  0.3373973E+02  0.2824378E+02  0.0000000E+00
Ar  662  0.9189342E+01  0.3631512E+02  0.2777977E+02  0.0000000E+00
Ar  663  0.9163251E+01  0.3346751E+02  0.3090062E+02  0.0000000E+00
Ar  664  0.6658910E+01  0.3646705E+02  0.3067262E+02  0.0000000E+00
Ar  665  0.6497256E+01  0.3322725E+02  0.3322727E+02  0.0000000E+00
Ar  666  0.9019780E+01  0.3645369E+02  0.3345972E+02  0.0000000E+00
Ar  667  0.9019846E+01  0.3345967E+02  0.3645379E+02  0.0000000E+00
Ar  668  0.6258329E+01  0.3616504E+02  0.3616510E+02  0.0000000E+00
Ar  669  0.6139055E+01  0.3368428E+02  0.3882929E+02  0.0000000E+00
Ar  670  0.9352750E+01  0.3628366E+02  0.3887779E+02  0.0000000E+00
Ar  671  0.9214396E+01  0.3333499E+02  0.4201770E+02  0.0000000E+00
Ar  672  0.6483145E+01  0.3611056E+02  0.4160446E+02  0.0000000E+00
Ar  673  0.6223979E+01  0.3362967E+02  0.4476236E+02  0.0000000E+00
Ar  674  0.8856699E+01  0.3653470E+02  0.4479787E+02  0.0000000E+00
Ar  675  0.9245652E+01  0.3365496E+02  0.4743831E+02  0.0000000E+00
Ar  676  0.6196261E+01  0.3653837E+02  0.4716478E+02  0.0000000E+00
Ar  677  0.6099981E+01  0.3322604E+02  0.4967497E+02  0.0000000E+00
Ar  678  0.9076690E+01  0.3640405E+02  0.4992894E+02  0.0000000E+00
Ar  679  0.9198867E+01  0.3362813E+02  0.5264310E+02  0.0000000E+00
Ar  680  0.6558678E+01  0.3653990E+02  0.5293308E+02  0.0000000E+00
Ar  681  0.6554787E+01  0.3825529E+02  0.5214531E+00  0.0000000E+00
Ar  682  0.8560029E+01  0.4198977E+02  0.8022900E+00  0.0000000E+00
Ar  683  0.9355396E+01  0.3896165E+02  0.3383480E+01  0.0000000E+00
Ar  684  0.6428109E+01  0.4139704E+02  0.3728242E+01  0.0000000E+00
Ar  685  0.5900738E+01  0.3875534E+02  0.5906526E+01  0.0000000E+00
Ar  686  0.9356279E+01  0.4198622E+02  0.6234996E+01  0.0000000E+00
Ar  687  0.8878835E+01  0.3896921E+02  0.8879222E+01  0.0000000E+00
Ar  688  0.6230734E+01  0.4198591E+02  0.9356096E+01  0.0000000E+00
Ar  689  0.6231785E+01  0.3871574E+02  0.1148604E+02  0.0000000E+00
Ar  690  0.8981859E+01  0.4182289E+02  0.1181684E+02  0.0000000E+00
Ar  691  0.8848782E+01  0.3875209E+02  0.1402491E+02  0.0000000E+00
Ar  692  0.6230967E+01  0.4210449E+02  0.1421810E+02  0.0000000E+00
Ar  693  0.6118999E+01  0.3873090E+02  0.1730076E+02  0.0000000E+00
Ar  694  0.8581463E+01  0.4169145E+02  0.1694338E+02  0.0000000E+00
Ar  695  0.8694327E+01  0.3890405E+02  0.1980425E+02  0.0000000E+00
Ar  696  0.5887849E+01  0.4163219E+02  0.1994205E+02  0.0000000E+00
Ar  697  0.6040742E+01  0.3883141E+02  0.2287562E+02  0.0000000E+00
Ar  698  0.8680868E+01  0.4182059E+02  0.2253159E+02  0.0000000E+00
Ar  699  0.8929542E+01  0.3916746E+02  0.2504185E+02  0.0000000E+00
Ar  700  0.6171801E+01  0.4159871E+02  0.2514423E+02  0.0000000E+00
Ar  701  0.6487641E+01  0.3915348E+02  0.2785516E+02  0.0000000E+00
Ar  702  0.8774752E+01  0.4209139E+02  0.2795976E+02  0.0000000E+00
Ar  703  0.9013517E+01  0.3918460E+02  0.3065002E+02  0.0000000E+00
Ar  704  0.5972855E+01  0.4146986E+02  0.3089154E+02  0.0000000E+00
Ar  705  0.6139012E+01  0.3882922E+02  0.3368440E+02  0.0000000E+00
Ar  706  0.9212808E+01  0.4201935E+02  0.3333446E+02  0.0000000E+00
Ar  707  0.9352688E+01  0.3887780E+02  0.3628356E+02  0.0000000E+00
Ar  708  0.6483097E+01  0.4160437E+02  0.3611079E+02  0.0000000E+00
Ar  709  0.6448149E+01  0.3899080E+02  0.3899084E+02  0.0000000E+00
Ar  710  0.9238284E+01  0.4165707E+02  0.3901020E+02  0.0000000E+00
Ar  711  0.9238279E+01  0.3901028E+02  0.4165708E+02  0.0000000E+00
Ar  712  0.6129440E+01  0.4176001E+02  0.4175883E+02  0.0000000E+00
Ar  713  0.6271288E+01  0.3909167E+02  0.4433678E+02  0.0000000E+00
Ar  714  0.8905929E+01  0.4156249E+02  0.4452796E+02  0.0000000E+00
Ar  715  0.9147101E+01  0.3904151E+02  0.4743423E+02  0.0000000E+00
Ar  716  0.6425856E+01  0.4177302E+02  0.4729217E+02  0.0000000E+00
Ar  717  0.6335715E+01  0.3909800E+02  0.5025228E+02  0.0000000E+00
Ar  718  0.8930977E+01  0.4192308E+02  0.4989678E+02  0.0000000E+00
Ar  719  0.8882147E+01  0.3930896E+02  0.5269513E+02  0.0000000E+00
Ar  720  0.6190321E+01  0.4207875E+02  0.5254645E+02  0.0000000E+00
Ar  721  0.5277025E+01  0.4452073E+02  0.6786140E+00  0.0000000E+00
Ar  722  0.1020210E+02  0.4782750E+02  0.6277096E+00  0.0000000E+00
Ar  723  0.8480314E+01  0.4477478E+02  0.3305148E+01  0.0000000E+00
Ar  724  0.6399209E+01  0.4764656E+02  0.3725208E+01  0.0000000E+00
Ar  725  0.6657803E+01  0.4461759E+02  0.6660802E+01  0.0000000E+00
Ar  726  0.9096088E+01  0.4753293E+02  0.6517934E+01  0.0000000E+00
Ar  727  0.9227186E+01  0.4443160E+02  0.9227493E+01  0.0000000E+00
Ar  728  0.6515932E+01  0.4753415E+02  0.9093625E+01  0.0000000E+00
Ar  729  0.6425561E+01  0.4491147E+02  0.1170079E+02  0.0000000E+00
Ar  730  0.9044019E+01  0.4734437E+02  0.1185852E+02  0.0000000E+00
Ar  731  0.9054833E+01  0.4463496E+02  0.1447934E+02  0.0000000E+00
Ar  732  0.6512626E+01  0.4713893E+02  0.1435737E+02  0.0000000E+00
Ar  733  0.5998367E+01  0.4454283E+02  0.1683261E+02  0.0000000E+00
Ar  734  0.9122274E+01  0.4728603E+02  0.1729738E+02  0.0000000E+00
Ar  735  0.8708771E+01  0.4431721E+02  0.1960641E+02  0.0000000E+00
Ar  736  0.5927672E+01  0.4709430E+02  0.1948080E+02  0.0000000E+00
Ar  737  0.6053464E+01  0.4458431E+02  0.2263166E+02  0.0000000E+00
Ar  738  0.8502242E+01  0.4706417E+02  0.2225051E+02  0.0000000E+00
Ar  739  0.8647086E+01  0.4446517E+02  0.2528253E+02  0.0000000E+00
Ar  740  0.5977586E+01  0.4742132E+02  0.2526718E+02  0.0000000E+00
Ar  741  0.5656487E+01  0.4459684E+02  0.2761820E+02  0.0000000E+00
Ar  742  0.8924185E+01  0.4714025E+02  0.2775045E+02  0.0000000E+00
Ar  743  0.9138179E+01  0.4482830E+02  0.3091328E+02  0.0000000E+00
Ar  744  0.6362220E+01  0.4723822E+02  0.3041147E+02  0.0000000E+00
Ar  745  0.6223401E+01  0.4476568E+02  0.3362456E+02  0.0000000E+00
Ar  746  0.9244664E+01  0.4743929E+02  0.3365731E+02  0.0000000E+00
Ar  747  0.8859787E+01  0.4479590E+02  0.3653313E+02  0.0000000E+00
Ar  748  0.6206860E+01  0.4715729E+02  0.3652514E+02  0.0000000E+00
Ar  749  0.6270844E+01  0.4433784E+02  0.3909086E+02  0.0000000E+00
Ar  750  0.9144565E+01  0.4743932E+02  0.3904118E+02  0.0000000E+00
Ar  751  0.8905126E+01  0.4452817E+02  0.4156151E+02  0.0000000E+00
Ar  752  0.6424621E+01  0.4729084E+02  0.4177124E+02  0.0000000E+00
Ar  753  0.6244815E+01  0.4418868E+02  0.4418843E+02  0.0000000E+00
Ar  754  0.9422481E+01  0.4706672E+02  0.4456389E+02  0.0000000E+00
Ar  755  0.9424487E+01  0.4456422E+02  0.4706518E+02  0.0000000E+00
Ar  756  0.6275342E+01  0.4692910E+02  0.4692138E+02  0.0000000E+00
Ar  757  0.6200914E+01  0.4452269E+02  0.4992160E+02  0.0000000E+00
Ar  758  0.8945503E+01  0.4731507E+02  0.4976770E+02  0.0000000E+00
Ar  759  0.9261907E+01  0.4458478E+02  0.5277377E+02  0.0000000E+00
Ar  760  0.6528083E+01  0.4697654E+02  0.5321539E+02  0.0000000E+00
Ar  761  0.6163544E+01  0.4949268E+02  0.6411472E+00  0.0000000E+00
Ar  762  0.8809095E+01  0.5310838E+02  0.1250290E+01  0.0000000E+00
Ar  763  0.9191292E+01  0.4993637E+02  0.3600858E+01  0.0000000E+00
Ar  764  0.6449879E+01  0.5351090E+02  0.3436811E+01  0.0000000E+00
Ar  765  0.6443880E+01  0.5065945E+02  0.6452146E+01  0.0000000E+00
Ar  766  0.8823920E+01  0.5334216E+02  0.6376453E+01  0.0000000E+00
Ar  767  0.8963262E+01  0.5035203E+02  0.8963926E+01  0.0000000E+00
Ar  768  0.6373434E+01  0.5334723E+02  0.8824456E+01  0.0000000E+00
Ar  769  0.6546412E+01  0.5038978E+02  0.1201652E+02  0.0000000E+00
Ar  770  0.8835580E+01  0.5322855E+02  0.1219822E+02  0.0000000E+00
Ar  771  0.9163280E+01  0.5030052E+02  0.1462554E+02  0.0000000E+00
Ar  772  0.6141130E+01  0.5286352E+02  0.1498331E+02  0.0000000E+00
Ar  773  0.6515516E+01  0.5002392E+02  0.1696992E+02  0.0000000E+00
Ar  774  0.8925722E+01  0.5275985E+02  0.1744135E+02  0.0000000E+00
Ar  775  0.8709911E+01  0.5007464E+02  0.1971935E+02  0.0000000E+00
Ar  776  0.5659258E+01  0.5290630E+02  0.1982440E+02  0.0000000E+00
Ar  777  0.5888465E+01  0.5007895E+02  0.2261624E+02  0.0000000E+00
Ar  778  0.8519642E+01  0.5274003E+02  0.2221309E+02  0.0000000E+00
Ar  779  0.8778360E+01  0.4985306E+02  0.2509498E+02  0.0000000E+00
Ar  780  0.6248219E+01  0.5285570E+02  0.2531987E+02  0.0000000E+00
Ar  781  0.6082368E+01  0.5004782E+02  0.2811483E+02  0.0000000E+00
Ar  782  0.9019637E+01  0.5272720E+02  0.2799995E+02  0.0000000E+00
Ar  783  0.9251016E+01  0.4977263E+02  0.3057521E+02  0.0000000E+00
Ar  784  0.5998025E+01  0.5226611E+02  0.3066714E+02  0.0000000E+00
Ar  785  0.6107205E+01  0.4967669E+02  0.3322242E+02  0.0000000E+00
Ar  786  0.9178863E+01  0.5265919E+02  0.3364272E+02  0.0000000E+00
Ar  787  0.9069669E+01  0.4993546E+02  0.3640274E+02  0.0000000E+00
Ar  788  0.6545072E+01  0.5292022E+02  0.3654210E+02  0.0000000E+00
Ar  789  0.6318243E+01  0.5023972E+02  0.3909081E+02  0.0000000E+00
Ar  790  0.8874176E+01  0.5269350E+02  0.3931083E+02  0.0000000E+00
Ar  791  0.8916438E+01  0.4990827E+02  0.4191499E+02  0.0000000E+00
Ar  792  0.6179644E+01  0.5254441E+02  0.4208400E+02  0.0000000E+00
Ar  793  0.6199611E+01  0.4992265E+02  0.4451718E+02  0.0000000E+00
Ar  794  0.9244782E+01  0.5277948E+02  0.4456278E+02  0.0000000E+00
Ar  795  0.8945781E+01  0.4976950E+02  0.4731158E+02  0.0000000E+00
Ar  796  0.6528786E+01  0.5321636E+02  0.4697447E+02  0.0000000E+00
Ar  797  0.6350943E+01  0.4993822E+02  0.4993787E+02  0.0000000E+00
Ar  798  0.9736239E+01  0.5319191E+02  0.5026311E+02  0.0000000E+00
Ar  799  0.9741091E+01  0.5026491E+02  0.5319515E+02  0.0000000E+00
Ar  800  0.6188196E+01  0.5314111E+02  0.5313826E+02  0.0000000E+00
Ar  801  0.1277733E+02  0.7657658E+00  0.7768000E+00  0.0000000E+00
Ar  802  0.1452181E+02  0.3740312E+01  0.4725992E+00  0.0000000E+00
Ar  803  0.1452523E+02  0.4742541E+00  0.3760252E+01  0.0000000E+00
Ar  804  0.1179899E+02  0.3239541E+01  0.3239577E+01  0.0000000E+00
Ar  805  0.1170761E+02  0.6992146E+00  0.6261256E+01  0.0000000E+00
Ar  806  0.1442475E+02  0.3676680E+01  0.6323840E+01  0.0000000E+00
Ar  807  0.1455083E+02  0.7952905E+00  0.8642168E+01  0.0000000E+00
Ar  808  0.1136774E+02  0.3278519E+01  0.8812132E+01  0.0000000E+00
Ar  809  0.1128558E+02  0.5316096E+00  0.1128538E+02  0.0000000E+00
Ar  810  0.1433420E+02  0.3436858E+01  0.1166990E+02  0.0000000E+00
Ar  811  0.1381272E+02  0.3563973E+00  0.1381291E+02  0.0000000E+00
Ar  812  0.1166968E+02  0.3436918E+01  0.1433442E+02  0.0000000E+00
Ar  813  0.1158775E+02  0.5671440E+00  0.1723808E+02  0.0000000E+00
Ar  814  0.1408765E+02  0.3544515E+01  0.1695128E+02  0.0000000E+00
Ar  815  0.1429000E+02  0.4653277E+00  0.1978923E+02  0.0000000E+00
Ar  816  0.1125704E+02  0.3116880E+01  0.1963126E+02  0.0000000E+00
Ar  817  0.1177202E+02  0.5548320E+02  0.2272306E+02  0.0000000E+00
Ar  818  0.1394674E+02  0.3149481E+01  0.2271220E+02  0.0000000E+00
Ar  819  0.1449604E+02  0.5526613E+02  0.2517718E+02  0.0000000E+00
Ar  820  0.1146323E+02  0.2828216E+01  0.2534975E+02  0.0000000E+00
Ar  821  0.1148107E+02  0.5540104E+02  0.2794475E+02  0.0000000E+00
Ar  822  0.1454774E+02  0.3068538E+01  0.2781740E+02  0.0000000E+00
Ar  823  0.1412016E+02  0.5564962E+02  0.3085898E+02  0.0000000E+00
Ar  824  0.1139556E+02  0.2959787E+01  0.3058336E+02  0.0000000E+00
Ar  825  0.1161417E+02  0.5542762E+02  0.3338033E+02  0.0000000E+00
Ar  826  0.1406033E+02  0.3491652E+01  0.3343984E+02  0.0000000E+00
Ar  827  0.1448189E+02  0.6193158E+00  0.3650246E+02  0.0000000E+00
Ar  828  0.1159647E+02  0.3362766E+01  0.3607353E+02  0.0000000E+00
Ar  829  0.1142936E+02  0.4219651E+00  0.3934882E+02  0.0000000E+00
Ar  830  0.1406277E+02  0.3477359E+01  0.3915645E+02  0.0000000E+00
Ar  831  0.1401734E+02  0.5215611E+00  0.4134311E+02  0.0000000E+00
Ar  832  0.1181067E+02  0.3271055E+01  0.4221269E+02  0.0000000E+00
Ar  833  0.1177961E+02  0.5559484E+02  0.4464629E+02  0.0000000E+00
Ar  834  0.1431283E+02  0.3301169E+01  0.4447675E+02  0.0000000E+00
Ar  835  0.1442634E+02  0.6838386E+00  0.4715654E+02  0.0000000E+00
Ar  836  0.1220575E+02  0.3652540E+01  0.4725272E+02  0.0000000E+00
Ar  837  0.1193885E+02  0.8391877E+00  0.5098376E+02  0.0000000E+00
Ar  838  0.1460889E+02  0.3908248E+01  0.5029209E+02  0.0000000E+00
Ar  839  0.1531502E+02  0.5567098E+02  0.5330446E+02  0.0000000E+00
Ar  840  0.1186454E+02  0.3678208E+01  0.5315157E+02  0.0000000E+00
Ar  841  0.1170766E+02  0.6261184E+01  0.6994844E+00  0.0000000E+00
Ar  842  0.1455099E+02  0.8642289E+01  0.7953870E+00  0.0000000E+00
Ar  843  0.1442483E+02  0.6323716E+01  0.3676802E+01  0.0000000E+00
Ar  844  0.1136807E+02  0.8812413E+01  0.3278667E+01  0.0000000E+00
Ar  845  0.1175916E+02  0.6210722E+01  0.6210824E+01  0.0000000E+00
Ar  846  0.1432628E+02  0.9169926E+01  0.6201687E+01  0.0000000E+00
Ar  847  0.1432610E+02  0.6201450E+01  0.9169815E+01  0.0000000E+00
Ar  848  0.1165316E+02  0.8936645E+01  0.8936625E+01  0.0000000E+00
Ar  849  0.1140253E+02  0.5813433E+01  0.1140289E+02  0.0000000E+00
Ar  850  0.1413779E+02  0.8846285E+01  0.1167162E+02  0.0000000E+00
Ar  851  0.1406332E+02  0.6034399E+01  0.1406331E+02  0.0000000E+00
Ar  852  0.1167146E+02  0.8846052E+01  0.1413785E+02  0.0000000E+00
Ar  853  0.1161476E+02  0.6361281E+01  0.1700943E+02  0.0000000E+00
Ar  854  0.1410237E+02  0.8753805E+01  0.1706892E+02  0.0000000E+00
Ar  855  0.1419782E+02  0.5611745E+01  0.1977530E+02  0.0000000E+00
Ar  856  0.1140039E+02  0.8742475E+01  0.2013494E+02  0.0000000E+00
Ar  857  0.1135850E+02  0.6068344E+01  0.2272679E+02  0.0000000E+00
Ar  858  0.1409868E+02  0.8606434E+01  0.2260508E+02  0.0000000E+00
Ar  859  0.1417288E+02  0.5915363E+01  0.2517308E+02  0.0000000E+00
Ar  860  0.1131319E+02  0.8708391E+01  0.2524245E+02  0.0000000E+00
Ar  861  0.1152999E+02  0.5763590E+01  0.2801078E+02  0.0000000E+00
Ar  862  0.1422657E+02  0.8816971E+01  0.2829940E+02  0.0000000E+00
Ar  863  0.1409777E+02  0.5674617E+01  0.3064752E+02  0.0000000E+00
Ar  864  0.1176141E+02  0.8714006E+01  0.3097994E+02  0.0000000E+00
Ar  865  0.1141827E+02  0.5932070E+01  0.3343968E+02  0.0000000E+00
Ar  866  0.1442251E+02  0.8668650E+01  0.3336965E+02  0.0000000E+00
Ar  867  0.1443764E+02  0.6079427E+01  0.3625279E+02  0.0000000E+00
Ar  868  0.1168226E+02  0.8925231E+01  0.3595033E+02  0.0000000E+00
Ar  869  0.1148499E+02  0.6225674E+01  0.3871918E+02  0.0000000E+00
Ar  870  0.1402416E+02  0.8848395E+01  0.3875137E+02  0.0000000E+00
Ar  871  0.1421776E+02  0.6230274E+01  0.4210468E+02  0.0000000E+00
Ar  872  0.1181685E+02  0.8982738E+01  0.4182316E+02  0.0000000E+00
Ar  873  0.1170011E+02  0.6425041E+01  0.4491088E+02  0.0000000E+00
Ar  874  0.1447982E+02  0.9055053E+01  0.4463515E+02  0.0000000E+00
Ar  875  0.1435527E+02  0.6509931E+01  0.4713793E+02  0.0000000E+00
Ar  876  0.1185890E+02  0.9044478E+01  0.4734432E+02  0.0000000E+00
Ar  877  0.1201974E+02  0.6549666E+01  0.5038921E+02  0.0000000E+00
Ar  878  0.1462513E+02  0.9164761E+01  0.5030129E+02  0.0000000E+00
Ar  879  0.1498733E+02  0.6137648E+01  0.5286557E+02  0.0000000E+00
Ar  880  0.1219810E+02  0.8837768E+01  0.5322906E+02  0.0000000E+00
Ar  881  0.1128530E+02  0.1128533E+02  0.5315549E+00  0.0000000E+00
Ar  882  0.1381295E+02  0.1381290E+02  0.3565175E+00  0.0000000E+00
Ar  883  0.1433421E+02  0.1166986E+02  0.3436971E+01  0.0000000E+00
Ar  884  0.1166972E+02  0.1433423E+02  0.3436808E+01  0.0000000E+00
Ar  885  0.1140261E+02  0.1140310E+02  0.5813815E+01  0.0000000E+00
Ar  886  0.1406331E+02  0.1406330E+02  0.6034493E+01  0.0000000E+00
Ar  887  0.1413795E+02  0.1167192E+02  0.8846635E+01  0.0000000E+00
Ar  888  0.1167133E+02  0.1413787E+02  0.8846104E+01  0.0000000E+00
Ar  889  0.1163670E+02  0.1163712E+02  0.1163720E+02  0.0000000E+00
Ar  890  0.1433928E+02  0.1433939E+02  0.1143183E+02  0.0000000E+00
Ar  891  0.1433926E+02  0.1143177E+02  0.1433937E+02  0.0000000E+00
Ar  892  0.1143174E+02  0.1433931E+02  0.1433939E+02  0.0000000E+00
Ar  893  0.1189406E+02  0.1189402E+02  0.1750501E+02  0.0000000E+00
Ar  894  0.1452572E+02  0.1452575E+02  0.1706429E+02  0.0000000E+00
Ar  895  0.1445686E+02  0.1149700E+02  0.1981860E+02  0.0000000E+00
Ar  896  0.1149701E+02  0.1445688E+02  0.1981862E+02  0.0000000E+00
Ar  897  0.1158158E+02  0.1158157E+02  0.2247771E+02  0.0000000E+00
Ar  898  0.1417585E+02  0.1417586E+02  0.2272673E+02  0.0000000E+00
Ar  899  0.1402789E+02  0.1126009E+02  0.2533822E+02  0.0000000E+00
Ar  900  0.1126007E+02  0.1402789E+02  0.2533821E+02  0.0000000E+00
Ar  901  0.1172944E+02  0.1172943E+02  0.2843401E+02  0.0000000E+00
Ar  902  0.1418558E+02  0.1418559E+02  0.2748969E+02  0.0000000E+00
Ar  903  0.1451073E+02  0.1183160E+02  0.3085579E+02  0.0000000E+00
Ar  904  0.1183163E+02  0.1451070E+02  0.3085580E+02  0.0000000E+00
Ar  905  0.1163860E+02  0.1163861E+02  0.3327430E+02  0.0000000E+00
Ar  906  0.1436222E+02  0.1436221E+02  0.3365125E+02  0.0000000E+00
Ar  907  0.1450440E+02  0.1151030E+02  0.3625819E+02  0.0000000E+00
Ar  908  0.1151031E+02  0.1450438E+02  0.3625818E+02  0.0000000E+00
Ar  909  0.1138069E+02  0.1138066E+02  0.3860463E+02  0.0000000E+00
Ar  910  0.1409109E+02  0.1409111E+02  0.3943666E+02  0.0000000E+00
Ar  911  0.1456681E+02  0.1148615E+02  0.4194533E+02  0.0000000E+00
Ar  912  0.1148617E+02  0.1456676E+02  0.4194529E+02  0.0000000E+00
Ar  913  0.1195276E+02  0.1195268E+02  0.4479639E+02  0.0000000E+00
Ar  914  0.1456911E+02  0.1456908E+02  0.4487144E+02  0.0000000E+00
Ar  915  0.1449727E+02  0.1150812E+02  0.4748773E+02  0.0000000E+00
Ar  916  0.1150816E+02  0.1449713E+02  0.4748781E+02  0.0000000E+00
Ar  917  0.1159332E+02  0.1159322E+02  0.5014521E+02  0.0000000E+00
Ar  918  0.1407246E+02  0.1407250E+02  0.5020650E+02  0.0000000E+00
Ar  919  0.1480385E+02  0.1160332E+02  0.5310796E+02  0.0000000E+00
Ar  920  0.1160316E+02  0.1480388E+02  0.5310798E+02  0.0000000E+00
Ar  921  0.1158857E+02  0.1723798E+02  0.5669547E+00  0.0000000E+00
Ar  922  0.1429117E+02  0.1979035E+02  0.4649111E+00  0.0000000E+00
Ar  923  0.1408779E+02  0.1695096E+02  0.3544405E+01  0.0000000E+00
Ar  924  0.1125823E+02  0.1963086E+02  0.3116962E+01  0.0000000E+00
Ar  925  0.1161478E+02  0.1700939E+02  0.6361416E+01  0.0000000E+00
Ar  926  0.1419826E+02  0.1977460E+02  0.5612211E+01  0.0000000E+00
Ar  927  0.1410239E+02  0.1706898E+02  0.8754050E+01  0.0000000E+00
Ar  928  0.1140044E+02  0.2013490E+02  0.8742758E+01  0.0000000E+00
Ar  929  0.1189406E+02  0.1750494E+02  0.1189408E+02  0.0000000E+00
Ar  930  0.1445686E+02  0.1981862E+02  0.1149705E+02  0.0000000E+00
Ar  931  0.1452576E+02  0.1706428E+02  0.1452581E+02  0.0000000E+00
Ar  932  0.1149700E+02  0.1981861E+02  0.1445690E+02  0.0000000E+00
Ar  933  0.1150839E+02  0.1706603E+02  0.1706605E+02  0.0000000E+00
Ar  934  0.1416100E+02  0.1967673E+02  0.1712385E+02  0.0000000E+00
Ar  935  0.1416097E+02  0.1712382E+02  0.1967675E+02  0.0000000E+00
Ar  936  0.1176332E+02  0.1971083E+02  0.1971082E+02  0.0000000E+00
Ar  937  0.1109027E+02  0.1691408E+02  0.2247000E+02  0.0000000E+00
Ar  938  0.1419170E+02  0.1959130E+02  0.2258510E+02  0.0000000E+00
Ar  939  0.1412075E+02  0.1703373E+02  0.2513011E+02  0.0000000E+00
Ar  940  0.1157138E+02  0.1966963E+02  0.2511831E+02  0.0000000E+00
Ar  941  0.1145883E+02  0.1705258E+02  0.2787095E+02  0.0000000E+00
Ar  942  0.1429975E+02  0.1981703E+02  0.2803167E+02  0.0000000E+00
Ar  943  0.1426034E+02  0.1700896E+02  0.3078644E+02  0.0000000E+00
Ar  944  0.1162392E+02  0.1976922E+02  0.3079484E+02  0.0000000E+00
Ar  945  0.1132131E+02  0.1707177E+02  0.3358542E+02  0.0000000E+00
Ar  946  0.1438584E+02  0.1978481E+02  0.3340577E+02  0.0000000E+00
Ar  947  0.1416245E+02  0.1712346E+02  0.3602038E+02  0.0000000E+00
Ar  948  0.1155754E+02  0.1961457E+02  0.3612185E+02  0.0000000E+00
Ar  949  0.1133635E+02  0.1700760E+02  0.3927071E+02  0.0000000E+00
Ar  950  0.1420031E+02  0.1950890E+02  0.3880710E+02  0.0000000E+00
Ar  951  0.1445081E+02  0.1701112E+02  0.4189164E+02  0.0000000E+00
Ar  952  0.1154967E+02  0.1978232E+02  0.4176577E+02  0.0000000E+00
Ar  953  0.1163585E+02  0.1744632E+02  0.4457509E+02  0.0000000E+00
Ar  954  0.1463246E+02  0.1983284E+02  0.4457278E+02  0.0000000E+00
Ar  955  0.1421049E+02  0.1704369E+02  0.4721090E+02  0.0000000E+00
Ar  956  0.1178090E+02  0.1975065E+02  0.4726550E+02  0.0000000E+00
Ar  957  0.1166284E+02  0.1717432E+02  0.4997185E+02  0.0000000E+00
Ar  958  0.1434285E+02  0.1947027E+02  0.4977010E+02  0.0000000E+00
Ar  959  0.1427668E+02  0.1726541E+02  0.5297469E+02  0.0000000E+00
Ar  960  0.1179352E+02  0.1982989E+02  0.5284237E+02  0.0000000E+00
Ar  961  0.1177397E+02  0.2272602E+02  0.5548376E+02  0.0000000E+00
Ar  962  0.1449563E+02  0.2517603E+02  0.5526700E+02  0.0000000E+00
Ar  963  0.1394731E+02  0.2271186E+02  0.3148579E+01  0.0000000E+00
Ar  964  0.1146378E+02  0.2534943E+02  0.2827375E+01  0.0000000E+00
Ar  965  0.1135961E+02  0.2272520E+02  0.6069368E+01  0.0000000E+00
Ar  966  0.1417290E+02  0.2517292E+02  0.5915392E+01  0.0000000E+00
Ar  967  0.1409891E+02  0.2260485E+02  0.8606629E+01  0.0000000E+00
Ar  968  0.1131401E+02  0.2524112E+02  0.8708658E+01  0.0000000E+00
Ar  969  0.1158164E+02  0.2247783E+02  0.1158158E+02  0.0000000E+00
Ar  970  0.1402804E+02  0.2533817E+02  0.1126016E+02  0.0000000E+00
Ar  971  0.1417588E+02  0.2272668E+02  0.1417582E+02  0.0000000E+00
Ar  972  0.1126023E+02  0.2533819E+02  0.1402813E+02  0.0000000E+00
Ar  973  0.1109038E+02  0.2246999E+02  0.1691423E+02  0.0000000E+00
Ar  974  0.1412079E+02  0.2513006E+02  0.1703375E+02  0.0000000E+00
Ar  975  0.1419171E+02  0.2258508E+02  0.1959133E+02  0.0000000E+00
Ar  976  0.1157139E+02  0.2511829E+02  0.1966966E+02  0.0000000E+00
Ar  977  0.1154063E+02  0.2239353E+02  0.2239353E+02  0.0000000E+00
Ar  978  0.1423714E+02  0.2565234E+02  0.2251079E+02  0.0000000E+00
Ar  979  0.1423714E+02  0.2251075E+02  0.2565238E+02  0.0000000E+00
Ar  980  0.1159913E+02  0.2513040E+02  0.2513043E+02  0.0000000E+00
Ar  981  0.1127214E+02  0.2210707E+02  0.2816156E+02  0.0000000E+00
Ar  982  0.1447343E+02  0.2518450E+02  0.2819394E+02  0.0000000E+00
Ar  983  0.1442999E+02  0.2241361E+02  0.3069922E+02  0.0000000E+00
Ar  984  0.1152737E+02  0.2525429E+02  0.3052399E+02  0.0000000E+00
Ar  985  0.1132289E+02  0.2244858E+02  0.3354840E+02  0.0000000E+00
Ar  986  0.1430401E+02  0.2522650E+02  0.3371119E+02  0.0000000E+00
Ar  987  0.1441981E+02  0.2251393E+02  0.3619871E+02  0.0000000E+00
Ar  988  0.1157078E+02  0.2501938E+02  0.3622361E+02  0.0000000E+00
Ar  989  0.1147538E+02  0.2236911E+02  0.3909950E+02  0.0000000E+00
Ar  990  0.1430475E+02  0.2539732E+02  0.3870397E+02  0.0000000E+00
Ar  991  0.1441132E+02  0.2269626E+02  0.4202612E+02  0.0000000E+00
Ar  992  0.1160185E+02  0.2509658E+02  0.4194216E+02  0.0000000E+00
Ar  993  0.1152617E+02  0.2240454E+02  0.4443416E+02  0.0000000E+00
Ar  994  0.1448302E+02  0.2501895E+02  0.4460610E+02  0.0000000E+00
Ar  995  0.1432709E+02  0.2228050E+02  0.4745142E+02  0.0000000E+00
Ar  996  0.1181085E+02  0.2484293E+02  0.4725602E+02  0.0000000E+00
Ar  997  0.1130326E+02  0.2224458E+02  0.4981195E+02  0.0000000E+00
Ar  998  0.1466539E+02  0.2504792E+02  0.4996307E+02  0.0000000E+00
Ar  999  0.1421719E+02  0.2233738E+02  0.5215228E+02  0.0000000E+00
Ar 1000  0.1173487E+02  0.2492046E+02  0.5252051E+02  0.0000000E+00
Ar 1001  0.1148162E+02  0.2794416E+02  0.5540083E+02  0.0000000E+00
Ar 1002  0.1412013E+02  0.3086038E+02  0.5564987E+02  0.0000000E+00
Ar 1003  0.1454807E+02  0.2781760E+02  0.3068357E+01  0.0000000E+00
Ar 1004  0.1139723E+02  0.3058392E+02  0.2960520E+01  0.0000000E+00
Ar 1005  0.1153039E+02  0.2801116E+02  0.5764054E+01  0.0000000E+00
Ar 1006  0.1409780E+02  0.3064759E+02  0.5674641E+01  0.0000000E+00
Ar 1007  0.1422616E+02  0.2829960E+02  0.8816821E+01  0.0000000E+00
Ar 1008  0.1176133E+02  0.3098017E+02  0.8714287E+01  0.0000000E+00
Ar 1009  0.1172997E+02  0.2843385E+02  0.1173007E+02  0.0000000E+00
Ar 1010  0.1451089E+02  0.3085585E+02  0.1183148E+02  0.0000000E+00
Ar 1011  0.1418584E+02  0.2748966E+02  0.1418580E+02  0.0000000E+00
Ar 1012  0.1183204E+02  0.3085545E+02  0.1451110E+02  0.0000000E+00
Ar 1013  0.1145891E+02  0.2787088E+02  0.1705270E+02  0.0000000E+00
Ar 1014  0.1426069E+02  0.3078631E+02  0.1700938E+02  0.0000000E+00
Ar 1015  0.1429983E+02  0.2803162E+02  0.1981706E+02  0.0000000E+00
Ar 1016  0.1162405E+02  0.3079482E+02  0.1976935E+02  0.0000000E+00
Ar 1017  0.1127215E+02  0.2816151E+02  0.2210708E+02  0.0000000E+00
Ar 1018  0.1443000E+02  0.3069916E+02  0.2241366E+02  0.0000000E+00
Ar 1019  0.1447344E+02  0.2819391E+02  0.2518453E+02  0.0000000E+00
Ar 1020  0.1152739E+02  0.3052394E+02  0.2525436E+02  0.0000000E+00
Ar 1021  0.1146015E+02  0.2782046E+02  0.2782049E+02  0.0000000E+00
Ar 1022  0.1444529E+02  0.3092053E+02  0.2791116E+02  0.0000000E+00
Ar 1023  0.1444530E+02  0.2791114E+02  0.3092055E+02  0.0000000E+00
Ar 1024  0.1172831E+02  0.3064334E+02  0.3064336E+02  0.0000000E+00
Ar 1025  0.1161068E+02  0.2791137E+02  0.3347613E+02  0.0000000E+00
Ar 1026  0.1406326E+02  0.3103449E+02  0.3356416E+02  0.0000000E+00
Ar 1027  0.1378641E+02  0.2796645E+02  0.3617578E+02  0.0000000E+00
Ar 1028  0.1161205E+02  0.3075710E+02  0.3635580E+02  0.0000000E+00
Ar 1029  0.1159709E+02  0.2769899E+02  0.3932017E+02  0.0000000E+00
Ar 1030  0.1426877E+02  0.3066763E+02  0.3857297E+02  0.0000000E+00
Ar 1031  0.1415844E+02  0.2813139E+02  0.4174641E+02  0.0000000E+00
Ar 1032  0.1152578E+02  0.3058343E+02  0.4179824E+02  0.0000000E+00
Ar 1033  0.1175606E+02  0.2794383E+02  0.4460629E+02  0.0000000E+00
Ar 1034  0.1449475E+02  0.3060529E+02  0.4492706E+02  0.0000000E+00
Ar 1035  0.1438014E+02  0.2794415E+02  0.4734467E+02  0.0000000E+00
Ar 1036  0.1183095E+02  0.3065093E+02  0.4727631E+02  0.0000000E+00
Ar 1037  0.1180067E+02  0.2788156E+02  0.5009777E+02  0.0000000E+00
Ar 1038  0.1450823E+02  0.3061275E+02  0.4993155E+02  0.0000000E+00
Ar 1039  0.1471981E+02  0.2809937E+02  0.5276234E+02  0.0000000E+00
Ar 1040  0.1181383E+02  0.3077812E+02  0.5246150E+02  0.0000000E+00
Ar 1041  0.1160654E+02  0.3338913E+02  0.5543129E+02  0.0000000E+00
Ar 1042  0.1448130E+02  0.3650279E+02  0.6190374E+00  0.0000000E+00
Ar 1043  0.1406016E+02  0.3343997E+02  0.3491704E+01  0.0000000E+00
Ar 1044  0.1159364E+02  0.3607188E+02  0.3354334E+01  0.0000000E+00
Ar 1045  0.1142148E+02  0.3343974E+02  0.5934954E+01  0.0000000E+00
Ar 1046  0.1443756E+02  0.3625262E+02  0.6079251E+01  0.0000000E+00
Ar 1047  0.1442278E+02  0.3336969E+02  0.8668521E+01  0.0000000E+00
Ar 1048  0.1168315E+02  0.3595022E+02  0.8925369E+01  0.0000000E+00
Ar 1049  0.1163847E+02  0.3327429E+02  0.1163837E+02  0.0000000E+00
Ar 1050  0.1450469E+02  0.3625831E+02  0.1151060E+02  0.0000000E+00
Ar 1051  0.1436286E+02  0.3365149E+02  0.1436296E+02  0.0000000E+00
Ar 1052  0.1151055E+02  0.3625844E+02  0.1450480E+02  0.0000000E+00
Ar 1053  0.1132170E+02  0.3358529E+02  0.1707206E+02  0.0000000E+00
Ar 1054  0.1416254E+02  0.3602047E+02  0.1712368E+02  0.0000000E+00
Ar 1055  0.1438584E+02  0.3340582E+02  0.1978492E+02  0.0000000E+00
Ar 1056  0.1155772E+02  0.3612189E+02  0.1961478E+02  0.0000000E+00
Ar 1057  0.1132294E+02  0.3354836E+02  0.2244863E+02  0.0000000E+00
Ar 1058  0.1441986E+02  0.3619872E+02  0.2251405E+02  0.0000000E+00
Ar 1059  0.1430407E+02  0.3371111E+02  0.2522655E+02  0.0000000E+00
Ar 1060  0.1157083E+02  0.3622352E+02  0.2501940E+02  0.0000000E+00
Ar 1061  0.1161062E+02  0.3347613E+02  0.2791139E+02  0.0000000E+00
Ar 1062  0.1378651E+02  0.3617567E+02  0.2796651E+02  0.0000000E+00
Ar 1063  0.1406330E+02  0.3356411E+02  0.3103453E+02  0.0000000E+00
Ar 1064  0.1161205E+02  0.3635574E+02  0.3075712E+02  0.0000000E+00
Ar 1065  0.1152718E+02  0.3398544E+02  0.3398546E+02  0.0000000E+00
Ar 1066  0.1451050E+02  0.3628640E+02  0.3358843E+02  0.0000000E+00
Ar 1067  0.1451050E+02  0.3358842E+02  0.3628644E+02  0.0000000E+00
Ar 1068  0.1207262E+02  0.3636998E+02  0.3636981E+02  0.0000000E+00
Ar 1069  0.1174411E+02  0.3370261E+02  0.3899008E+02  0.0000000E+00
Ar 1070  0.1454842E+02  0.3656701E+02  0.3944481E+02  0.0000000E+00
Ar 1071  0.1471530E+02  0.3338822E+02  0.4167164E+02  0.0000000E+00
Ar 1072  0.1173190E+02  0.3628440E+02  0.4172196E+02  0.0000000E+00
Ar 1073  0.1194577E+02  0.3356160E+02  0.4445288E+02  0.0000000E+00
Ar 1074  0.1452275E+02  0.3633291E+02  0.4451320E+02  0.0000000E+00
Ar 1075  0.1452598E+02  0.3339491E+02  0.4728891E+02  0.0000000E+00
Ar 1076  0.1171575E+02  0.3653523E+02  0.4720720E+02  0.0000000E+00
Ar 1077  0.1169788E+02  0.3345983E+02  0.4967584E+02  0.0000000E+00
Ar 1078  0.1430454E+02  0.3643778E+02  0.4994487E+02  0.0000000E+00
Ar 1079  0.1415005E+02  0.3351992E+02  0.5227693E+02  0.0000000E+00
Ar 1080  0.1157477E+02  0.3640805E+02  0.5279312E+02  0.0000000E+00
Ar 1081  0.1141175E+02  0.3934853E+02  0.4189063E+00  0.0000000E+00
Ar 1082  0.1400774E+02  0.4133020E+02  0.5215778E+00  0.0000000E+00
Ar 1083  0.1406184E+02  0.3915626E+02  0.3477275E+01  0.0000000E+00
Ar 1084  0.1181199E+02  0.4221422E+02  0.3272917E+01  0.0000000E+00
Ar 1085  0.1148667E+02  0.3871910E+02  0.6226864E+01  0.0000000E+00
Ar 1086  0.1421785E+02  0.4210498E+02  0.6230331E+01  0.0000000E+00
Ar 1087  0.1402440E+02  0.3875153E+02  0.8848659E+01  0.0000000E+00
Ar 1088  0.1181674E+02  0.4182309E+02  0.8982872E+01  0.0000000E+00
Ar 1089  0.1137975E+02  0.3860513E+02  0.1138009E+02  0.0000000E+00
Ar 1090  0.1456644E+02  0.4194528E+02  0.1148584E+02  0.0000000E+00
Ar 1091  0.1409105E+02  0.3943677E+02  0.1409109E+02  0.0000000E+00
Ar 1092  0.1148557E+02  0.4194513E+02  0.1456596E+02  0.0000000E+00
Ar 1093  0.1133644E+02  0.3927086E+02  0.1700750E+02  0.0000000E+00
Ar 1094  0.1445081E+02  0.4189160E+02  0.1701112E+02  0.0000000E+00
Ar 1095  0.1420026E+02  0.3880701E+02  0.1950897E+02  0.0000000E+00
Ar 1096  0.1154980E+02  0.4176571E+02  0.1978196E+02  0.0000000E+00
Ar 1097  0.1147552E+02  0.3909919E+02  0.2236876E+02  0.0000000E+00
Ar 1098  0.1441165E+02  0.4202609E+02  0.2269607E+02  0.0000000E+00
Ar 1099  0.1430482E+02  0.3870395E+02  0.2539728E+02  0.0000000E+00
Ar 1100  0.1160229E+02  0.4194179E+02  0.2509671E+02  0.0000000E+00
Ar 1101  0.1159771E+02  0.3931958E+02  0.2769902E+02  0.0000000E+00
Ar 1102  0.1415838E+02  0.4174648E+02  0.2813134E+02  0.0000000E+00
Ar 1103  0.1426880E+02  0.3857291E+02  0.3066758E+02  0.0000000E+00
Ar 1104  0.1152566E+02  0.4179837E+02  0.3058390E+02  0.0000000E+00
Ar 1105  0.1174401E+02  0.3899011E+02  0.3370260E+02  0.0000000E+00
Ar 1106  0.1471533E+02  0.4167149E+02  0.3338821E+02  0.0000000E+00
Ar 1107  0.1454846E+02  0.3944476E+02  0.3656705E+02  0.0000000E+00
Ar 1108  0.1173193E+02  0.4172189E+02  0.3628441E+02  0.0000000E+00
Ar 1109  0.1189022E+02  0.3906193E+02  0.3906196E+02  0.0000000E+00
Ar 1110  0.1522252E+02  0.4187171E+02  0.3902110E+02  0.0000000E+00
Ar 1111  0.1522252E+02  0.3902100E+02  0.4187184E+02  0.0000000E+00
Ar 1112  0.1217276E+02  0.4159557E+02  0.4159564E+02  0.0000000E+00
Ar 1113  0.1166843E+02  0.3898140E+02  0.4435840E+02  0.0000000E+00
Ar 1114  0.1437110E+02  0.4163188E+02  0.4475651E+02  0.0000000E+00
Ar 1115  0.1449151E+02  0.3926706E+02  0.4762264E+02  0.0000000E+00
Ar 1116  0.1187256E+02  0.4171673E+02  0.4736568E+02  0.0000000E+00
Ar 1117  0.1154581E+02  0.3902396E+02  0.5035046E+02  0.0000000E+00
Ar 1118  0.1448167E+02  0.4192722E+02  0.4999421E+02  0.0000000E+00
Ar 1119  0.1429139E+02  0.3902787E+02  0.5275380E+02  0.0000000E+00
Ar 1120  0.1157953E+02  0.4166006E+02  0.5253580E+02  0.0000000E+00
Ar 1121  0.1177244E+02  0.4465994E+02  0.5559626E+02  0.0000000E+00
Ar 1122  0.1442987E+02  0.4715795E+02  0.6827621E+00  0.0000000E+00
Ar 1123  0.1431276E+02  0.4447818E+02  0.3302932E+01  0.0000000E+00
Ar 1124  0.1220526E+02  0.4725043E+02  0.3651903E+01  0.0000000E+00
Ar 1125  0.1169942E+02  0.4491038E+02  0.6425122E+01  0.0000000E+00
Ar 1126  0.1435225E+02  0.4713816E+02  0.6506204E+01  0.0000000E+00
Ar 1127  0.1447972E+02  0.4463529E+02  0.9054821E+01  0.0000000E+00
Ar 1128  0.1185852E+02  0.4734391E+02  0.9044764E+01  0.0000000E+00
Ar 1129  0.1195316E+02  0.4479679E+02  0.1195275E+02  0.0000000E+00
Ar 1130  0.1449706E+02  0.4748772E+02  0.1150811E+02  0.0000000E+00
Ar 1131  0.1456784E+02  0.4487163E+02  0.1456800E+02  0.0000000E+00
Ar 1132  0.1150769E+02  0.4748732E+02  0.1449669E+02  0.0000000E+00
Ar 1133  0.1163568E+02  0.4457540E+02  0.1744593E+02  0.0000000E+00
Ar 1134  0.1421051E+02  0.4721093E+02  0.1704388E+02  0.0000000E+00
Ar 1135  0.1463255E+02  0.4457278E+02  0.1983287E+02  0.0000000E+00
Ar 1136  0.1178044E+02  0.4726568E+02  0.1975072E+02  0.0000000E+00
Ar 1137  0.1152610E+02  0.4443397E+02  0.2240393E+02  0.0000000E+00
Ar 1138  0.1432693E+02  0.4745163E+02  0.2228000E+02  0.0000000E+00
Ar 1139  0.1448311E+02  0.4460585E+02  0.2501896E+02  0.0000000E+00
Ar 1140  0.1181113E+02  0.4725589E+02  0.2484269E+02  0.0000000E+00
Ar 1141  0.1175627E+02  0.4460618E+02  0.2794391E+02  0.0000000E+00
Ar 1142  0.1438007E+02  0.4734474E+02  0.2794419E+02  0.0000000E+00
Ar 1143  0.1449475E+02  0.4492724E+02  0.3060542E+02  0.0000000E+00
Ar 1144  0.1182966E+02  0.4727755E+02  0.3065074E+02  0.0000000E+00
Ar 1145  0.1194567E+02  0.4445278E+02  0.3356159E+02  0.0000000E+00
Ar 1146  0.1452607E+02  0.4728893E+02  0.3339494E+02  0.0000000E+00
Ar 1147  0.1452247E+02  0.4451345E+02  0.3633299E+02  0.0000000E+00
Ar 1148  0.1171459E+02  0.4720807E+02  0.3653558E+02  0.0000000E+00
Ar 1149  0.1166817E+02  0.4435860E+02  0.3898141E+02  0.0000000E+00
Ar 1150  0.1448946E+02  0.4762342E+02  0.3926779E+02  0.0000000E+00
Ar 1151  0.1436994E+02  0.4475819E+02  0.4163165E+02  0.0000000E+00
Ar 1152  0.1186787E+02  0.4737114E+02  0.4171466E+02  0.0000000E+00
Ar 1153  0.1189699E+02  0.4420669E+02  0.4420574E+02  0.0000000E+00
Ar 1154  0.1435176E+02  0.4728103E+02  0.4471066E+02  0.0000000E+00
Ar 1155  0.1435393E+02  0.4471271E+02  0.4727869E+02  0.0000000E+00
Ar 1156  0.1183017E+02  0.4741529E+02  0.4741285E+02  0.0000000E+00
Ar 1157  0.1188168E+02  0.4471459E+02  0.4992763E+02  0.0000000E+00
Ar 1158  0.1447024E+02  0.4720826E+02  0.5007511E+02  0.0000000E+00
Ar 1159  0.1436625E+02  0.4462758E+02  0.5307277E+02  0.0000000E+00
Ar 1160  0.1214072E+02  0.4731155E+02  0.5250136E+02  0.0000000E+00
Ar 1161  0.1193940E+02  0.5098849E+02  0.8422213E+00  0.0000000E+00
Ar 1162  0.1534414E+02  0.5326859E+02  0.5567611E+02  0.0000000E+00
Ar 1163  0.1460759E+02  0.5029168E+02  0.3907030E+01  0.0000000E+00
Ar 1164  0.1186816E+02  0.5315397E+02  0.3678774E+01  0.0000000E+00
Ar 1165  0.1202038E+02  0.5038953E+02  0.6549653E+01  0.0000000E+00
Ar 1166  0.1498434E+02  0.5286465E+02  0.6141619E+01  0.0000000E+00
Ar 1167  0.1462511E+02  0.5030125E+02  0.9164747E+01  0.0000000E+00
Ar 1168  0.1219800E+02  0.5322904E+02  0.8837466E+01  0.0000000E+00
Ar 1169  0.1159291E+02  0.5014470E+02  0.1159326E+02  0.0000000E+00
Ar 1170  0.1480373E+02  0.5310796E+02  0.1160335E+02  0.0000000E+00
Ar 1171  0.1407229E+02  0.5020654E+02  0.1407259E+02  0.0000000E+00
Ar 1172  0.1160319E+02  0.5310771E+02  0.1480387E+02  0.0000000E+00
Ar 1173  0.1166276E+02  0.4997142E+02  0.1717408E+02  0.0000000E+00
Ar 1174  0.1427672E+02  0.5297484E+02  0.1726531E+02  0.0000000E+00
Ar 1175  0.1434271E+02  0.4977052E+02  0.1947055E+02  0.0000000E+00
Ar 1176  0.1179390E+02  0.5284238E+02  0.1982992E+02  0.0000000E+00
Ar 1177  0.1130336E+02  0.4981257E+02  0.2224474E+02  0.0000000E+00
Ar 1178  0.1421663E+02  0.5215207E+02  0.2233737E+02  0.0000000E+00
Ar 1179  0.1466473E+02  0.4996383E+02  0.2504761E+02  0.0000000E+00
Ar 1180  0.1173275E+02  0.5252047E+02  0.2492019E+02  0.0000000E+00
Ar 1181  0.1179975E+02  0.5009868E+02  0.2788087E+02  0.0000000E+00
Ar 1182  0.1471906E+02  0.5276284E+02  0.2809890E+02  0.0000000E+00
Ar 1183  0.1450805E+02  0.4993149E+02  0.3061282E+02  0.0000000E+00
Ar 1184  0.1181181E+02  0.5246185E+02  0.3078035E+02  0.0000000E+00
Ar 1185  0.1169598E+02  0.4967635E+02  0.3346027E+02  0.0000000E+00
Ar 1186  0.1414986E+02  0.5227656E+02  0.3352070E+02  0.0000000E+00
Ar 1187  0.1430379E+02  0.4994505E+02  0.3643883E+02  0.0000000E+00
Ar 1188  0.1156982E+02  0.5279776E+02  0.3641168E+02  0.0000000E+00
Ar 1189  0.1154018E+02  0.5035410E+02  0.3902163E+02  0.0000000E+00
Ar 1190  0.1429234E+02  0.5275354E+02  0.3902738E+02  0.0000000E+00
Ar 1191  0.1448158E+02  0.4999431E+02  0.4192625E+02  0.0000000E+00
Ar 1192  0.1158039E+02  0.5253698E+02  0.4165699E+02  0.0000000E+00
Ar 1193  0.1187870E+02  0.4993204E+02  0.4471221E+02  0.0000000E+00
Ar 1194  0.1436531E+02  0.5307537E+02  0.4462558E+02  0.0000000E+00
Ar 1195  0.1446697E+02  0.5007803E+02  0.4720680E+02  0.0000000E+00
Ar 1196  0.1213616E+02  0.5250412E+02  0.4730777E+02  0.0000000E+00
Ar 1197  0.1173551E+02  0.5038850E+02  0.5039092E+02  0.0000000E+00
Ar 1198  0.1464037E+02  0.5252371E+02  0.5004515E+02  0.0000000E+00
Ar 1199  0.1464041E+02  0.5004537E+02  0.5252592E+02  0.0000000E+00
Ar 1200  0.1234132E+02  0.5366987E+02  0.5366833E+02  0.0000000E+00
Ar 1201  0.1728964E+02  0.1278875E+01  0.1288489E+01  0.0000000E+00
Ar 1202  0.2004870E+02  0.2851127E+01  0.3020939E+00  0.0000000E+00
Ar 1203  0.2004164E+02  0.3416998E+00  0.2895199E+01  0.0000000E+00
Ar 1204  0.1664533E+02  0.3437268E+01  0.3437499E+01  0.0000000E+00
Ar 1205  0.1736986E+02  0.2326946E+00  0.5902333E+01  0.0000000E+00
Ar 1206  0.1974808E+02  0.3138536E+01  0.5618471E+01  0.0000000E+00
Ar 1207  0.1991079E+02  0.4280444E+00  0.8716293E+01  0.0000000E+00
Ar 1208  0.1684385E+02  0.3362886E+01  0.8893826E+01  0.0000000E+00
Ar 1209  0.1723789E+02  0.5668503E+00  0.1158869E+02  0.0000000E+00
Ar 1210  0.1963051E+02  0.3117217E+01  0.1125878E+02  0.0000000E+00
Ar 1211  0.1979024E+02  0.4648698E+00  0.1429125E+02  0.0000000E+00
Ar 1212  0.1695095E+02  0.3544211E+01  0.1408778E+02  0.0000000E+00
Ar 1213  0.1739533E+02  0.3339260E+00  0.1739509E+02  0.0000000E+00
Ar 1214  0.1971650E+02  0.3083321E+01  0.1700891E+02  0.0000000E+00
Ar 1215  0.1953942E+02  0.5556814E+02  0.1953958E+02  0.0000000E+00
Ar 1216  0.1700900E+02  0.3083373E+01  0.1971636E+02  0.0000000E+00
Ar 1217  0.1718945E+02  0.7113070E+00  0.2230131E+02  0.0000000E+00
Ar 1218  0.1973765E+02  0.3287099E+01  0.2227212E+02  0.0000000E+00
Ar 1219  0.1949606E+02  0.4213492E+00  0.2490744E+02  0.0000000E+00
Ar 1220  0.1682623E+02  0.3194021E+01  0.2496510E+02  0.0000000E+00
Ar 1221  0.1712981E+02  0.4380025E+00  0.2835542E+02  0.0000000E+00
Ar 1222  0.1976864E+02  0.3494384E+01  0.2808774E+02  0.0000000E+00
Ar 1223  0.1978855E+02  0.5560300E+02  0.3107827E+02  0.0000000E+00
Ar 1224  0.1734170E+02  0.3684511E+01  0.3118115E+02  0.0000000E+00
Ar 1225  0.1598444E+02  0.4063093E+00  0.3293157E+02  0.0000000E+00
Ar 1226  0.2000372E+02  0.2744862E+01  0.3361991E+02  0.0000000E+00
Ar 1227  0.2012172E+02  0.5537503E+02  0.3613629E+02  0.0000000E+00
Ar 1228  0.1733801E+02  0.2989547E+01  0.3644368E+02  0.0000000E+00
Ar 1229  0.1795638E+02  0.5565932E+02  0.3981729E+02  0.0000000E+00
Ar 1230  0.2029920E+02  0.3576728E+01  0.3881509E+02  0.0000000E+00
Ar 1231  0.2003020E+02  0.5565365E+02  0.4273665E+02  0.0000000E+00
Ar 1232  0.1678999E+02  0.3261421E+01  0.4186314E+02  0.0000000E+00
Ar 1233  0.1691420E+02  0.5577729E+02  0.4446284E+02  0.0000000E+00
Ar 1234  0.1983750E+02  0.3136107E+01  0.4474050E+02  0.0000000E+00
Ar 1235  0.2025164E+02  0.6033367E+00  0.4772463E+02  0.0000000E+00
Ar 1236  0.1694096E+02  0.3323125E+01  0.4713636E+02  0.0000000E+00
Ar 1237  0.1743172E+02  0.5579817E+02  0.5048153E+02  0.0000000E+00
Ar 1238  0.1976090E+02  0.3292120E+01  0.4990362E+02  0.0000000E+00
Ar 1239  0.1957535E+02  0.5582238E+02  0.5318757E+02  0.0000000E+00
Ar 1240  0.1722584E+02  0.3299899E+01  0.5313540E+02  0.0000000E+00
Ar 1241  0.1737055E+02  0.5902764E+01  0.2327681E+00  0.0000000E+00
Ar 1242  0.1991511E+02  0.8713714E+01  0.4287102E+00  0.0000000E+00
Ar 1243  0.1974807E+02  0.5618910E+01  0.3139830E+01  0.0000000E+00
Ar 1244  0.1684381E+02  0.8893744E+01  0.3363068E+01  0.0000000E+00
Ar 1245  0.1734571E+02  0.5985578E+01  0.5985667E+01  0.0000000E+00
Ar 1246  0.1997916E+02  0.8725919E+01  0.5910226E+01  0.0000000E+00
Ar 1247  0.1997850E+02  0.5910631E+01  0.8726345E+01  0.0000000E+00
Ar 1248  0.1695910E+02  0.9127490E+01  0.9127535E+01  0.0000000E+00
Ar 1249  0.1700929E+02  0.6361648E+01  0.1161500E+02  0.0000000E+00
Ar 1250  0.2013493E+02  0.8742846E+01  0.1140057E+02  0.0000000E+00
Ar 1251  0.1977436E+02  0.5612332E+01  0.1419859E+02  0.0000000E+00
Ar 1252  0.1706894E+02  0.8754250E+01  0.1410262E+02  0.0000000E+00
Ar 1253  0.1689736E+02  0.5827642E+01  0.1689732E+02  0.0000000E+00
Ar 1254  0.1957657E+02  0.8477185E+01  0.1680545E+02  0.0000000E+00
Ar 1255  0.1973653E+02  0.5941680E+01  0.1973653E+02  0.0000000E+00
Ar 1256  0.1680531E+02  0.8477027E+01  0.1957650E+02  0.0000000E+00
Ar 1257  0.1681567E+02  0.6144721E+01  0.2236543E+02  0.0000000E+00
Ar 1258  0.1980481E+02  0.8666549E+01  0.2243836E+02  0.0000000E+00
Ar 1259  0.1971003E+02  0.5896133E+01  0.2495406E+02  0.0000000E+00
Ar 1260  0.1685505E+02  0.8577874E+01  0.2530837E+02  0.0000000E+00
Ar 1261  0.1695061E+02  0.5742871E+01  0.2796505E+02  0.0000000E+00
Ar 1262  0.1952716E+02  0.8718835E+01  0.2795492E+02  0.0000000E+00
Ar 1263  0.1972942E+02  0.6312089E+01  0.3053633E+02  0.0000000E+00
Ar 1264  0.1690814E+02  0.8740501E+01  0.3074817E+02  0.0000000E+00
Ar 1265  0.1728273E+02  0.6021533E+01  0.3364375E+02  0.0000000E+00
Ar 1266  0.1989034E+02  0.8610656E+01  0.3350605E+02  0.0000000E+00
Ar 1267  0.1980934E+02  0.6038221E+01  0.3614164E+02  0.0000000E+00
Ar 1268  0.1733460E+02  0.8854064E+01  0.3608709E+02  0.0000000E+00
Ar 1269  0.1730039E+02  0.6119770E+01  0.3872951E+02  0.0000000E+00
Ar 1270  0.1980396E+02  0.8694597E+01  0.3890356E+02  0.0000000E+00
Ar 1271  0.1993967E+02  0.5890540E+01  0.4163042E+02  0.0000000E+00
Ar 1272  0.1694257E+02  0.8581202E+01  0.4169112E+02  0.0000000E+00
Ar 1273  0.1683203E+02  0.5997807E+01  0.4454223E+02  0.0000000E+00
Ar 1274  0.1960585E+02  0.8710406E+01  0.4431638E+02  0.0000000E+00
Ar 1275  0.1948092E+02  0.5929724E+01  0.4709542E+02  0.0000000E+00
Ar 1276  0.1729743E+02  0.9123028E+01  0.4728592E+02  0.0000000E+00
Ar 1277  0.1696877E+02  0.6517218E+01  0.5002400E+02  0.0000000E+00
Ar 1278  0.1971913E+02  0.8710446E+01  0.5007511E+02  0.0000000E+00
Ar 1279  0.1982713E+02  0.5655758E+01  0.5290778E+02  0.0000000E+00
Ar 1280  0.1744200E+02  0.8926526E+01  0.5276006E+02  0.0000000E+00
Ar 1281  0.1723809E+02  0.1158864E+02  0.5670412E+00  0.0000000E+00
Ar 1282  0.1979030E+02  0.1429133E+02  0.4648501E+00  0.0000000E+00
Ar 1283  0.1963135E+02  0.1125762E+02  0.3116591E+01  0.0000000E+00
Ar 1284  0.1695092E+02  0.1408778E+02  0.3544381E+01  0.0000000E+00
Ar 1285  0.1700939E+02  0.1161499E+02  0.6361675E+01  0.0000000E+00
Ar 1286  0.1977445E+02  0.1419833E+02  0.5612244E+01  0.0000000E+00
Ar 1287  0.2013489E+02  0.1140052E+02  0.8742825E+01  0.0000000E+00
Ar 1288  0.1706894E+02  0.1410266E+02  0.8754259E+01  0.0000000E+00
Ar 1289  0.1750489E+02  0.1189413E+02  0.1189407E+02  0.0000000E+00
Ar 1290  0.1981864E+02  0.1445683E+02  0.1149704E+02  0.0000000E+00
Ar 1291  0.1981865E+02  0.1149704E+02  0.1445686E+02  0.0000000E+00
Ar 1292  0.1706428E+02  0.1452580E+02  0.1452583E+02  0.0000000E+00
Ar 1293  0.1706609E+02  0.1150832E+02  0.1706609E+02  0.0000000E+00
Ar 1294  0.1967670E+02  0.1416101E+02  0.1712388E+02  0.0000000E+00
Ar 1295  0.1971087E+02  0.1176330E+02  0.1971080E+02  0.0000000E+00
Ar 1296  0.1712383E+02  0.1416096E+02  0.1967674E+02  0.0000000E+00
Ar 1297  0.1691407E+02  0.1109026E+02  0.2247000E+02  0.0000000E+00
Ar 1298  0.1959129E+02  0.1419171E+02  0.2258506E+02  0.0000000E+00
Ar 1299  0.1966965E+02  0.1157138E+02  0.2511831E+02  0.0000000E+00
Ar 1300  0.1703373E+02  0.1412073E+02  0.2513010E+02  0.0000000E+00
Ar 1301  0.1705261E+02  0.1145882E+02  0.2787095E+02  0.0000000E+00
Ar 1302  0.1981706E+02  0.1429974E+02  0.2803166E+02  0.0000000E+00
Ar 1303  0.1976924E+02  0.1162392E+02  0.3079484E+02  0.0000000E+00
Ar 1304  0.1700898E+02  0.1426033E+02  0.3078644E+02  0.0000000E+00
Ar 1305  0.1707179E+02  0.1132127E+02  0.3358547E+02  0.0000000E+00
Ar 1306  0.1978483E+02  0.1438582E+02  0.3340575E+02  0.0000000E+00
Ar 1307  0.1961461E+02  0.1155757E+02  0.3612184E+02  0.0000000E+00
Ar 1308  0.1712346E+02  0.1416245E+02  0.3602037E+02  0.0000000E+00
Ar 1309  0.1700757E+02  0.1133635E+02  0.3927070E+02  0.0000000E+00
Ar 1310  0.1950886E+02  0.1420037E+02  0.3880710E+02  0.0000000E+00
Ar 1311  0.1978205E+02  0.1155002E+02  0.4176546E+02  0.0000000E+00
Ar 1312  0.1701106E+02  0.1445084E+02  0.4189164E+02  0.0000000E+00
Ar 1313  0.1744541E+02  0.1163684E+02  0.4457513E+02  0.0000000E+00
Ar 1314  0.1983264E+02  0.1463256E+02  0.4457277E+02  0.0000000E+00
Ar 1315  0.1975049E+02  0.1178096E+02  0.4726534E+02  0.0000000E+00
Ar 1316  0.1704363E+02  0.1421063E+02  0.4721089E+02  0.0000000E+00
Ar 1317  0.1717424E+02  0.1166303E+02  0.4997173E+02  0.0000000E+00
Ar 1318  0.1947024E+02  0.1434294E+02  0.4977002E+02  0.0000000E+00
Ar 1319  0.1983002E+02  0.1179396E+02  0.5284230E+02  0.0000000E+00
Ar 1320  0.1726531E+02  0.1427676E+02  0.5297467E+02  0.0000000E+00
Ar 1321  0.1739541E+02  0.1739544E+02  0.3338310E+00  0.0000000E+00
Ar 1322  0.1953937E+02  0.1953936E+02  0.5556813E+02  0.0000000E+00
Ar 1323  0.1971642E+02  0.1700890E+02  0.3083370E+01  0.0000000E+00
Ar 1324  0.1700884E+02  0.1971649E+02  0.3083321E+01  0.0000000E+00
Ar 1325  0.1689740E+02  0.1689740E+02  0.5827699E+01  0.0000000E+00
Ar 1326  0.1973652E+02  0.1973650E+02  0.5941643E+01  0.0000000E+00
Ar 1327  0.1957656E+02  0.1680542E+02  0.8477207E+01  0.0000000E+00
Ar 1328  0.1680546E+02  0.1957653E+02  0.8477155E+01  0.0000000E+00
Ar 1329  0.1706617E+02  0.1706617E+02  0.1150828E+02  0.0000000E+00
Ar 1330  0.1971087E+02  0.1971083E+02  0.1176331E+02  0.0000000E+00
Ar 1331  0.1967669E+02  0.1712386E+02  0.1416102E+02  0.0000000E+00
Ar 1332  0.1712386E+02  0.1967672E+02  0.1416097E+02  0.0000000E+00
Ar 1333  0.1740991E+02  0.1740993E+02  0.1740996E+02  0.0000000E+00
Ar 1334  0.1992138E+02  0.1992138E+02  0.1695979E+02  0.0000000E+00
Ar 1335  0.1992140E+02  0.1695977E+02  0.1992142E+02  0.0000000E+00
Ar 1336  0.1695978E+02  0.1992140E+02  0.1992141E+02  0.0000000E+00
Ar 1337  0.1690779E+02  0.1690781E+02  0.2229861E+02  0.0000000E+00
Ar 1338  0.1949341E+02  0.1949342E+02  0.2290418E+02  0.0000000E+00
Ar 1339  0.1987573E+02  0.1676957E+02  0.2507103E+02  0.0000000E+00
Ar 1340  0.1676957E+02  0.1987571E+02  0.2507105E+02  0.0000000E+00
Ar 1341  0.1714336E+02  0.1714335E+02  0.2805689E+02  0.0000000E+00
Ar 1342  0.1983953E+02  0.1983951E+02  0.2806257E+02  0.0000000E+00
Ar 1343  0.1980742E+02  0.1686210E+02  0.3070573E+02  0.0000000E+00
Ar 1344  0.1686211E+02  0.1980740E+02  0.3070575E+02  0.0000000E+00
Ar 1345  0.1697895E+02  0.1697893E+02  0.3326138E+02  0.0000000E+00
Ar 1346  0.1983976E+02  0.1983974E+02  0.3391115E+02  0.0000000E+00
Ar 1347  0.1991470E+02  0.1713330E+02  0.3647387E+02  0.0000000E+00
Ar 1348  0.1713329E+02  0.1991468E+02  0.3647382E+02  0.0000000E+00
Ar 1349  0.1719906E+02  0.1719909E+02  0.3877380E+02  0.0000000E+00
Ar 1350  0.1995770E+02  0.1995766E+02  0.3913027E+02  0.0000000E+00
Ar 1351  0.1985778E+02  0.1713687E+02  0.4158151E+02  0.0000000E+00
Ar 1352  0.1713682E+02  0.1985785E+02  0.4158154E+02  0.0000000E+00
Ar 1353  0.1712442E+02  0.1712458E+02  0.4428729E+02  0.0000000E+00
Ar 1354  0.1991002E+02  0.1991002E+02  0.4477894E+02  0.0000000E+00
Ar 1355  0.1969859E+02  0.1724955E+02  0.4731650E+02  0.0000000E+00
Ar 1356  0.1724943E+02  0.1969863E+02  0.4731652E+02  0.0000000E+00
Ar 1357  0.1701234E+02  0.1701243E+02  0.5008714E+02  0.0000000E+00
Ar 1358  0.1990875E+02  0.1990898E+02  0.5001619E+02  0.0000000E+00
Ar 1359  0.1989218E+02  0.1721011E+02  0.5257751E+02  0.0000000E+00
Ar 1360  0.1720999E+02  0.1989232E+02  0.5257757E+02  0.0000000E+00
Ar 1361  0.1718846E+02  0.2230098E+02  0.7105127E+00  0.0000000E+00
Ar 1362  0.1949614E+02  0.2490744E+02  0.4214918E+00  0.0000000E+00
Ar 1363  0.1973752E+02  0.2227219E+02  0.3286979E+01  0.0000000E+00
Ar 1364  0.1682605E+02  0.2496490E+02  0.3193872E+01  0.0000000E+00
Ar 1365  0.1681561E+02  0.2236542E+02  0.6144772E+01  0.0000000E+00
Ar 1366  0.1970996E+02  0.2495401E+02  0.5896107E+01  0.0000000E+00
Ar 1367  0.1980479E+02  0.2243831E+02  0.8666498E+01  0.0000000E+00
Ar 1368  0.1685484E+02  0.2530840E+02  0.8577731E+01  0.0000000E+00
Ar 1369  0.1691410E+02  0.2247002E+02  0.1109031E+02  0.0000000E+00
Ar 1370  0.1966964E+02  0.2511828E+02  0.1157138E+02  0.0000000E+00
Ar 1371  0.1959131E+02  0.2258503E+02  0.1419173E+02  0.0000000E+00
Ar 1372  0.1703375E+02  0.2513007E+02  0.1412076E+02  0.0000000E+00
Ar 1373  0.1690780E+02  0.2229860E+02  0.1690782E+02  0.0000000E+00
Ar 1374  0.1987577E+02  0.2507098E+02  0.1676957E+02  0.0000000E+00
Ar 1375  0.1949342E+02  0.2290416E+02  0.1949347E+02  0.0000000E+00
Ar 1376  0.1676956E+02  0.2507101E+02  0.1987576E+02  0.0000000E+00
Ar 1377  0.1677919E+02  0.2239990E+02  0.2239993E+02  0.0000000E+00
Ar 1378  0.1975763E+02  0.2530893E+02  0.2243831E+02  0.0000000E+00
Ar 1379  0.1975761E+02  0.2243827E+02  0.2530896E+02  0.0000000E+00
Ar 1380  0.1703084E+02  0.2525881E+02  0.2525884E+02  0.0000000E+00
Ar 1381  0.1710077E+02  0.2276994E+02  0.2817004E+02  0.0000000E+00
Ar 1382  0.1993799E+02  0.2553124E+02  0.2797038E+02  0.0000000E+00
Ar 1383  0.1979749E+02  0.2260245E+02  0.3110226E+02  0.0000000E+00
Ar 1384  0.1708790E+02  0.2548243E+02  0.3090717E+02  0.0000000E+00
Ar 1385  0.1697605E+02  0.2271966E+02  0.3355874E+02  0.0000000E+00
Ar 1386  0.1991252E+02  0.2532656E+02  0.3389269E+02  0.0000000E+00
Ar 1387  0.1977486E+02  0.2261042E+02  0.3629601E+02  0.0000000E+00
Ar 1388  0.1708625E+02  0.2513019E+02  0.3631924E+02  0.0000000E+00
Ar 1389  0.1696460E+02  0.2269443E+02  0.3912991E+02  0.0000000E+00
Ar 1390  0.2003910E+02  0.2506946E+02  0.3924955E+02  0.0000000E+00
Ar 1391  0.2012126E+02  0.2267868E+02  0.4192455E+02  0.0000000E+00
Ar 1392  0.1710833E+02  0.2522862E+02  0.4173007E+02  0.0000000E+00
Ar 1393  0.1731231E+02  0.2250877E+02  0.4446631E+02  0.0000000E+00
Ar 1394  0.2006640E+02  0.2534015E+02  0.4447585E+02  0.0000000E+00
Ar 1395  0.2009194E+02  0.2270841E+02  0.4731027E+02  0.0000000E+00
Ar 1396  0.1724928E+02  0.2536816E+02  0.4701415E+02  0.0000000E+00
Ar 1397  0.1738868E+02  0.2239965E+02  0.4983685E+02  0.0000000E+00
Ar 1398  0.2003499E+02  0.2520792E+02  0.4993143E+02  0.0000000E+00
Ar 1399  0.1990622E+02  0.2252780E+02  0.5275927E+02  0.0000000E+00
Ar 1400  0.1713023E+02  0.2516909E+02  0.5305349E+02  0.0000000E+00
Ar 1401  0.1713125E+02  0.2835642E+02  0.4374630E+00  0.0000000E+00
Ar 1402  0.1978764E+02  0.3107685E+02  0.5560356E+02  0.0000000E+00
Ar 1403  0.1976805E+02  0.2808813E+02  0.3493665E+01  0.0000000E+00
Ar 1404  0.1734156E+02  0.3118091E+02  0.3684229E+01  0.0000000E+00
Ar 1405  0.1695017E+02  0.2796475E+02  0.5742749E+01  0.0000000E+00
Ar 1406  0.1972934E+02  0.3053624E+02  0.6312065E+01  0.0000000E+00
Ar 1407  0.1952711E+02  0.2795482E+02  0.8718814E+01  0.0000000E+00
Ar 1408  0.1690812E+02  0.3074803E+02  0.8740428E+01  0.0000000E+00
Ar 1409  0.1705257E+02  0.2787090E+02  0.1145878E+02  0.0000000E+00
Ar 1410  0.1976921E+02  0.3079481E+02  0.1162390E+02  0.0000000E+00
Ar 1411  0.1981706E+02  0.2803164E+02  0.1429977E+02  0.0000000E+00
Ar 1412  0.1700893E+02  0.3078631E+02  0.1426028E+02  0.0000000E+00
Ar 1413  0.1714334E+02  0.2805688E+02  0.1714336E+02  0.0000000E+00
Ar 1414  0.1980743E+02  0.3070572E+02  0.1686212E+02  0.0000000E+00
Ar 1415  0.1983955E+02  0.2806255E+02  0.1983954E+02  0.0000000E+00
Ar 1416  0.1686213E+02  0.3070574E+02  0.1980745E+02  0.0000000E+00
Ar 1417  0.1710082E+02  0.2816996E+02  0.2276998E+02  0.0000000E+00
Ar 1418  0.1979750E+02  0.3110222E+02  0.2260249E+02  0.0000000E+00
Ar 1419  0.1993799E+02  0.2797034E+02  0.2553126E+02  0.0000000E+00
Ar 1420  0.1708790E+02  0.3090714E+02  0.2548245E+02  0.0000000E+00
Ar 1421  0.1689414E+02  0.2824369E+02  0.2824372E+02  0.0000000E+00
Ar 1422  0.1973698E+02  0.3081537E+02  0.2807252E+02  0.0000000E+00
Ar 1423  0.1973698E+02  0.2807250E+02  0.3081541E+02  0.0000000E+00
Ar 1424  0.1706172E+02  0.3076967E+02  0.3076970E+02  0.0000000E+00
Ar 1425  0.1668288E+02  0.2789304E+02  0.3381679E+02  0.0000000E+00
Ar 1426  0.2012008E+02  0.3102464E+02  0.3365342E+02  0.0000000E+00
Ar 1427  0.1999651E+02  0.2813489E+02  0.3621883E+02  0.0000000E+00
Ar 1428  0.1720538E+02  0.3083911E+02  0.3620513E+02  0.0000000E+00
Ar 1429  0.1738298E+02  0.2803927E+02  0.3901692E+02  0.0000000E+00
Ar 1430  0.1973374E+02  0.3078449E+02  0.3886838E+02  0.0000000E+00
Ar 1431  0.1978437E+02  0.2813695E+02  0.4186808E+02  0.0000000E+00
Ar 1432  0.1698134E+02  0.3053258E+02  0.4176025E+02  0.0000000E+00
Ar 1433  0.1699170E+02  0.2779857E+02  0.4422926E+02  0.0000000E+00
Ar 1434  0.1969349E+02  0.3087929E+02  0.4439196E+02  0.0000000E+00
Ar 1435  0.1992371E+02  0.2790351E+02  0.4714707E+02  0.0000000E+00
Ar 1436  0.1726935E+02  0.3069052E+02  0.4705379E+02  0.0000000E+00
Ar 1437  0.1710121E+02  0.2779009E+02  0.4981235E+02  0.0000000E+00
Ar 1438  0.1992170E+02  0.3066381E+02  0.4967420E+02  0.0000000E+00
Ar 1439  0.1961437E+02  0.2777717E+02  0.5236571E+02  0.0000000E+00
Ar 1440  0.1704648E+02  0.3075452E+02  0.5212281E+02  0.0000000E+00
Ar 1441  0.1598469E+02  0.3293261E+02  0.4063345E+00  0.0000000E+00
Ar 1442  0.2012103E+02  0.3613535E+02  0.5537509E+02  0.0000000E+00
Ar 1443  0.2000355E+02  0.3361902E+02  0.2743954E+01  0.0000000E+00
Ar 1444  0.1733773E+02  0.3644381E+02  0.2988808E+01  0.0000000E+00
Ar 1445  0.1728278E+02  0.3364365E+02  0.6021274E+01  0.0000000E+00
Ar 1446  0.1980922E+02  0.3614190E+02  0.6037672E+01  0.0000000E+00
Ar 1447  0.1989023E+02  0.3350615E+02  0.8610595E+01  0.0000000E+00
Ar 1448  0.1733433E+02  0.3608698E+02  0.8853963E+01  0.0000000E+00
Ar 1449  0.1707180E+02  0.3358544E+02  0.1132120E+02  0.0000000E+00
Ar 1450  0.1961452E+02  0.3612181E+02  0.1155754E+02  0.0000000E+00
Ar 1451  0.1978482E+02  0.3340572E+02  0.1438584E+02  0.0000000E+00
Ar 1452  0.1712362E+02  0.3602043E+02  0.1416259E+02  0.0000000E+00
Ar 1453  0.1697902E+02  0.3326140E+02  0.1697899E+02  0.0000000E+00
Ar 1454  0.1991471E+02  0.3647386E+02  0.1713330E+02  0.0000000E+00
Ar 1455  0.1983976E+02  0.3391112E+02  0.1983976E+02  0.0000000E+00
Ar 1456  0.1713329E+02  0.3647380E+02  0.1991469E+02  0.0000000E+00
Ar 1457  0.1697605E+02  0.3355870E+02  0.2271967E+02  0.0000000E+00
Ar 1458  0.1977489E+02  0.3629598E+02  0.2261042E+02  0.0000000E+00
Ar 1459  0.1991252E+02  0.3389265E+02  0.2532658E+02  0.0000000E+00
Ar 1460  0.1708625E+02  0.3631921E+02  0.2513020E+02  0.0000000E+00
Ar 1461  0.1668292E+02  0.3381672E+02  0.2789313E+02  0.0000000E+00
Ar 1462  0.1999655E+02  0.3621876E+02  0.2813494E+02  0.0000000E+00
Ar 1463  0.2012007E+02  0.3365339E+02  0.3102467E+02  0.0000000E+00
Ar 1464  0.1720544E+02  0.3620506E+02  0.3083917E+02  0.0000000E+00
Ar 1465  0.1737336E+02  0.3361267E+02  0.3361272E+02  0.0000000E+00
Ar 1466  0.1997590E+02  0.3618482E+02  0.3367373E+02  0.0000000E+00
Ar 1467  0.1997591E+02  0.3367371E+02  0.3618484E+02  0.0000000E+00
Ar 1468  0.1696829E+02  0.3645240E+02  0.3645244E+02  0.0000000E+00
Ar 1469  0.1719801E+02  0.3330161E+02  0.3890495E+02  0.0000000E+00
Ar 1470  0.2003710E+02  0.3649065E+02  0.3893399E+02  0.0000000E+00
Ar 1471  0.1989960E+02  0.3348246E+02  0.4208803E+02  0.0000000E+00
Ar 1472  0.1756909E+02  0.3611188E+02  0.4160531E+02  0.0000000E+00
Ar 1473  0.1701606E+02  0.3361525E+02  0.4447128E+02  0.0000000E+00
Ar 1474  0.1978088E+02  0.3643087E+02  0.4467233E+02  0.0000000E+00
Ar 1475  0.1966125E+02  0.3331599E+02  0.4731110E+02  0.0000000E+00
Ar 1476  0.1700292E+02  0.3622845E+02  0.4725266E+02  0.0000000E+00
Ar 1477  0.1698697E+02  0.3367300E+02  0.5008340E+02  0.0000000E+00
Ar 1478  0.1961871E+02  0.3633650E+02  0.4970503E+02  0.0000000E+00
Ar 1479  0.1959378E+02  0.3368733E+02  0.5286428E+02  0.0000000E+00
Ar 1480  0.1696894E+02  0.3616415E+02  0.5315822E+02  0.0000000E+00
Ar 1481  0.1795605E+02  0.3981580E+02  0.5566005E+02  0.0000000E+00
Ar 1482  0.2002802E+02  0.4273657E+02  0.5565381E+02  0.0000000E+00
Ar 1483  0.2030010E+02  0.3881658E+02  0.3577178E+01  0.0000000E+00
Ar 1484  0.1678935E+02  0.4186111E+02  0.3263979E+01  0.0000000E+00
Ar 1485  0.1730028E+02  0.3872954E+02  0.6119707E+01  0.0000000E+00
Ar 1486  0.1994222E+02  0.4163254E+02  0.5888177E+01  0.0000000E+00
Ar 1487  0.1980404E+02  0.3890364E+02  0.8694550E+01  0.0000000E+00
Ar 1488  0.1694274E+02  0.4169120E+02  0.8581136E+01  0.0000000E+00
Ar 1489  0.1700761E+02  0.3927077E+02  0.1133640E+02  0.0000000E+00
Ar 1490  0.1978231E+02  0.4176559E+02  0.1154979E+02  0.0000000E+00
Ar 1491  0.1950892E+02  0.3880707E+02  0.1420035E+02  0.0000000E+00
Ar 1492  0.1701103E+02  0.4189160E+02  0.1445090E+02  0.0000000E+00
Ar 1493  0.1719902E+02  0.3877373E+02  0.1719909E+02  0.0000000E+00
Ar 1494  0.1985783E+02  0.4158150E+02  0.1713686E+02  0.0000000E+00
Ar 1495  0.1995770E+02  0.3913025E+02  0.1995766E+02  0.0000000E+00
Ar 1496  0.1713687E+02  0.4158145E+02  0.1985781E+02  0.0000000E+00
Ar 1497  0.1696464E+02  0.3912987E+02  0.2269447E+02  0.0000000E+00
Ar 1498  0.2012130E+02  0.4192449E+02  0.2267867E+02  0.0000000E+00
Ar 1499  0.2003913E+02  0.3924951E+02  0.2506947E+02  0.0000000E+00
Ar 1500  0.1710842E+02  0.4173006E+02  0.2522871E+02  0.0000000E+00
Ar 1501  0.1738299E+02  0.3901689E+02  0.2803930E+02  0.0000000E+00
Ar 1502  0.1978437E+02  0.4186804E+02  0.2813699E+02  0.0000000E+00
Ar 1503  0.1973373E+02  0.3886834E+02  0.3078452E+02  0.0000000E+00
Ar 1504  0.1698132E+02  0.4176016E+02  0.3053259E+02  0.0000000E+00
Ar 1505  0.1719806E+02  0.3890488E+02  0.3330163E+02  0.0000000E+00
Ar 1506  0.1989958E+02  0.4208800E+02  0.3348246E+02  0.0000000E+00
Ar 1507  0.2003702E+02  0.3893387E+02  0.3649067E+02  0.0000000E+00
Ar 1508  0.1756906E+02  0.4160526E+02  0.3611188E+02  0.0000000E+00
Ar 1509  0.1761280E+02  0.3916455E+02  0.3916474E+02  0.0000000E+00
Ar 1510  0.1991971E+02  0.4208325E+02  0.3920782E+02  0.0000000E+00
Ar 1511  0.1991969E+02  0.3920760E+02  0.4208430E+02  0.0000000E+00
Ar 1512  0.1759087E+02  0.4182420E+02  0.4182462E+02  0.0000000E+00
Ar 1513  0.1734804E+02  0.3943632E+02  0.4478423E+02  0.0000000E+00
Ar 1514  0.2015833E+02  0.4182117E+02  0.4454063E+02  0.0000000E+00
Ar 1515  0.1991149E+02  0.3915277E+02  0.4731566E+02  0.0000000E+00
Ar 1516  0.1731271E+02  0.4199958E+02  0.4742529E+02  0.0000000E+00
Ar 1517  0.1710582E+02  0.3909951E+02  0.5023171E+02  0.0000000E+00
Ar 1518  0.1968213E+02  0.4192842E+02  0.5022385E+02  0.0000000E+00
Ar 1519  0.1981407E+02  0.3921276E+02  0.5253701E+02  0.0000000E+00
Ar 1520  0.1698792E+02  0.4196006E+02  0.5292341E+02  0.0000000E+00
Ar 1521  0.1690550E+02  0.4445368E+02  0.5577750E+02  0.0000000E+00
Ar 1522  0.2026324E+02  0.4773285E+02  0.6041763E+00  0.0000000E+00
Ar 1523  0.1983997E+02  0.4474366E+02  0.3133217E+01  0.0000000E+00
Ar 1524  0.1694124E+02  0.4713894E+02  0.3323656E+01  0.0000000E+00
Ar 1525  0.1683099E+02  0.4454274E+02  0.5997855E+01  0.0000000E+00
Ar 1526  0.1948079E+02  0.4709460E+02  0.5929303E+01  0.0000000E+00
Ar 1527  0.1960677E+02  0.4431717E+02  0.8709784E+01  0.0000000E+00
Ar 1528  0.1729755E+02  0.4728549E+02  0.9123642E+01  0.0000000E+00
Ar 1529  0.1744607E+02  0.4457488E+02  0.1163630E+02  0.0000000E+00
Ar 1530  0.1975062E+02  0.4726533E+02  0.1178103E+02  0.0000000E+00
Ar 1531  0.1983277E+02  0.4457272E+02  0.1463251E+02  0.0000000E+00
Ar 1532  0.1704348E+02  0.4721071E+02  0.1421056E+02  0.0000000E+00
Ar 1533  0.1712444E+02  0.4428721E+02  0.1712454E+02  0.0000000E+00
Ar 1534  0.1969856E+02  0.4731647E+02  0.1724949E+02  0.0000000E+00
Ar 1535  0.1991004E+02  0.4477892E+02  0.1991001E+02  0.0000000E+00
Ar 1536  0.1724933E+02  0.4731667E+02  0.1969863E+02  0.0000000E+00
Ar 1537  0.1731241E+02  0.4446634E+02  0.2250875E+02  0.0000000E+00
Ar 1538  0.2009197E+02  0.4731022E+02  0.2270842E+02  0.0000000E+00
Ar 1539  0.2006642E+02  0.4447578E+02  0.2534017E+02  0.0000000E+00
Ar 1540  0.1724937E+02  0.4701431E+02  0.2536827E+02  0.0000000E+00
Ar 1541  0.1699182E+02  0.4422928E+02  0.2779870E+02  0.0000000E+00
Ar 1542  0.1992375E+02  0.4714703E+02  0.2790361E+02  0.0000000E+00
Ar 1543  0.1969354E+02  0.4439192E+02  0.3087933E+02  0.0000000E+00
Ar 1544  0.1726940E+02  0.4705382E+02  0.3069065E+02  0.0000000E+00
Ar 1545  0.1701611E+02  0.4447115E+02  0.3361531E+02  0.0000000E+00
Ar 1546  0.1966130E+02  0.4731108E+02  0.3331612E+02  0.0000000E+00
Ar 1547  0.1978059E+02  0.4467214E+02  0.3643054E+02  0.0000000E+00
Ar 1548  0.1700305E+02  0.4725261E+02  0.3622846E+02  0.0000000E+00
Ar 1549  0.1734746E+02  0.4478360E+02  0.3943610E+02  0.0000000E+00
Ar 1550  0.1990997E+02  0.4731446E+02  0.3915057E+02  0.0000000E+00
Ar 1551  0.2015962E+02  0.4453950E+02  0.4182125E+02  0.0000000E+00
Ar 1552  0.1731099E+02  0.4742468E+02  0.4199873E+02  0.0000000E+00
Ar 1553  0.1695520E+02  0.4473353E+02  0.4473385E+02  0.0000000E+00
Ar 1554  0.1980518E+02  0.4714508E+02  0.4466995E+02  0.0000000E+00
Ar 1555  0.1980569E+02  0.4467045E+02  0.4714512E+02  0.0000000E+00
Ar 1556  0.1728626E+02  0.4742659E+02  0.4742655E+02  0.0000000E+00
Ar 1557  0.1694994E+02  0.4467599E+02  0.5003647E+02  0.0000000E+00
Ar 1558  0.2012433E+02  0.4679206E+02  0.5013987E+02  0.0000000E+00
Ar 1559  0.1945520E+02  0.4459827E+02  0.5285974E+02  0.0000000E+00
Ar 1560  0.1687221E+02  0.4745068E+02  0.5312068E+02  0.0000000E+00
Ar 1561  0.1687517E+02  0.4989691E+02  0.5576271E+02  0.0000000E+00
Ar 1562  0.2017103E+02  0.5374746E+02  0.5579161E+02  0.0000000E+00
Ar 1563  0.1975204E+02  0.4991383E+02  0.3291993E+01  0.0000000E+00
Ar 1564  0.1718353E+02  0.5312539E+02  0.3328347E+01  0.0000000E+00
Ar 1565  0.1696939E+02  0.5002221E+02  0.6515721E+01  0.0000000E+00
Ar 1566  0.1981926E+02  0.5290830E+02  0.5666080E+01  0.0000000E+00
Ar 1567  0.1971965E+02  0.5007495E+02  0.8709944E+01  0.0000000E+00
Ar 1568  0.1744167E+02  0.5275967E+02  0.8926415E+01  0.0000000E+00
Ar 1569  0.1717425E+02  0.4997177E+02  0.1166298E+02  0.0000000E+00
Ar 1570  0.1982991E+02  0.5284232E+02  0.1179383E+02  0.0000000E+00
Ar 1571  0.1947019E+02  0.4977000E+02  0.1434295E+02  0.0000000E+00
Ar 1572  0.1726520E+02  0.5297450E+02  0.1427680E+02  0.0000000E+00
Ar 1573  0.1701213E+02  0.5008703E+02  0.1701255E+02  0.0000000E+00
Ar 1574  0.1989233E+02  0.5257734E+02  0.1720999E+02  0.0000000E+00
Ar 1575  0.1990888E+02  0.5001605E+02  0.1990897E+02  0.0000000E+00
Ar 1576  0.1721057E+02  0.5257738E+02  0.1989176E+02  0.0000000E+00
Ar 1577  0.1738850E+02  0.4983697E+02  0.2239961E+02  0.0000000E+00
Ar 1578  0.1990621E+02  0.5275914E+02  0.2252787E+02  0.0000000E+00
Ar 1579  0.2003513E+02  0.4993123E+02  0.2520789E+02  0.0000000E+00
Ar 1580  0.1713021E+02  0.5305325E+02  0.2516956E+02  0.0000000E+00
Ar 1581  0.1710102E+02  0.4981248E+02  0.2778999E+02  0.0000000E+00
Ar 1582  0.1961484E+02  0.5236519E+02  0.2777729E+02  0.0000000E+00
Ar 1583  0.1992177E+02  0.4967399E+02  0.3066385E+02  0.0000000E+00
Ar 1584  0.1704635E+02  0.5212217E+02  0.3075491E+02  0.0000000E+00
Ar 1585  0.1698705E+02  0.5008315E+02  0.3367312E+02  0.0000000E+00
Ar 1586  0.1959388E+02  0.5286394E+02  0.3368744E+02  0.0000000E+00
Ar 1587  0.1961868E+02  0.4970529E+02  0.3633621E+02  0.0000000E+00
Ar 1588  0.1696938E+02  0.5315816E+02  0.3616394E+02  0.0000000E+00
Ar 1589  0.1710595E+02  0.5023147E+02  0.3909933E+02  0.0000000E+00
Ar 1590  0.1981447E+02  0.5253636E+02  0.3921326E+02  0.0000000E+00
Ar 1591  0.1968099E+02  0.5022172E+02  0.4192878E+02  0.0000000E+00
Ar 1592  0.1698746E+02  0.5292447E+02  0.4196083E+02  0.0000000E+00
Ar 1593  0.1694958E+02  0.5003602E+02  0.4467566E+02  0.0000000E+00
Ar 1594  0.1945610E+02  0.5285941E+02  0.4459840E+02  0.0000000E+00
Ar 1595  0.2012427E+02  0.5013995E+02  0.4679201E+02  0.0000000E+00
Ar 1596  0.1687042E+02  0.5312165E+02  0.4745059E+02  0.0000000E+00
Ar 1597  0.1731787E+02  0.5006767E+02  0.5006868E+02  0.0000000E+00
Ar 1598  0.1983198E+02  0.5312275E+02  0.5009482E+02  0.0000000E+00
Ar 1599  0.1982593E+02  0.5009772E+02  0.5312885E+02  0.0000000E+00
Ar 1600  0.1747057E+02  0.5302738E+02  0.5302379E+02  0.0000000E+00
Ar 1601  0.2361169E+02  0.5482805E+02  0.5482566E+02  0.0000000E+00
Ar 1602  0.2485413E+02  0.2733260E+01  0.5537088E+02  0.0000000E+00
Ar 1603  0.2489693E+02  0.5535406E+02  0.2800294E+01  0.0000000E+00
Ar 1604  0.2257978E+02  0.3312067E+01  0.3309023E+01  0.0000000E+00
Ar 1605  0.2273791E+02  0.3142730E+00  0.6028348E+01  0.0000000E+00
Ar 1606  0.2534446E+02  0.3141566E+01  0.6051819E+01  0.0000000E+00
Ar 1607  0.2535401E+02  0.5555537E+02  0.8936300E+01  0.0000000E+00
Ar 1608  0.2250360E+02  0.3201191E+01  0.8619674E+01  0.0000000E+00
Ar 1609  0.2272373E+02  0.5548259E+02  0.1177306E+02  0.0000000E+00
Ar 1610  0.2534996E+02  0.2827810E+01  0.1146357E+02  0.0000000E+00
Ar 1611  0.2517708E+02  0.5526651E+02  0.1449672E+02  0.0000000E+00
Ar 1612  0.2271140E+02  0.3148952E+01  0.1394804E+02  0.0000000E+00
Ar 1613  0.2230079E+02  0.7104150E+00  0.1718868E+02  0.0000000E+00
Ar 1614  0.2496487E+02  0.3193693E+01  0.1682612E+02  0.0000000E+00
Ar 1615  0.2490744E+02  0.4214700E+00  0.1949614E+02  0.0000000E+00
Ar 1616  0.2227219E+02  0.3286992E+01  0.1973760E+02  0.0000000E+00
Ar 1617  0.2314038E+02  0.5187990E+00  0.2314033E+02  0.0000000E+00
Ar 1618  0.2538001E+02  0.3049950E+01  0.2253692E+02  0.0000000E+00
Ar 1619  0.2514671E+02  0.5545592E+02  0.2514678E+02  0.0000000E+00
Ar 1620  0.2253693E+02  0.3049907E+01  0.2537999E+02  0.0000000E+00
Ar 1621  0.2168373E+02  0.3717707E+00  0.2754122E+02  0.0000000E+00
Ar 1622  0.2533365E+02  0.3459109E+01  0.2783974E+02  0.0000000E+00
Ar 1623  0.2476701E+02  0.5552608E+02  0.2980909E+02  0.0000000E+00
Ar 1624  0.2222359E+02  0.3198332E+01  0.3085463E+02  0.0000000E+00
Ar 1625  0.2263545E+02  0.5557456E+02  0.3303372E+02  0.0000000E+00
Ar 1626  0.2523607E+02  0.3555573E+01  0.3351470E+02  0.0000000E+00
Ar 1627  0.2493205E+02  0.5572671E+02  0.3603638E+02  0.0000000E+00
Ar 1628  0.2274546E+02  0.3282170E+01  0.3610435E+02  0.0000000E+00
Ar 1629  0.2285916E+02  0.5567031E+02  0.3932780E+02  0.0000000E+00
Ar 1630  0.2518077E+02  0.3190166E+01  0.3923683E+02  0.0000000E+00
Ar 1631  0.2544291E+02  0.5561741E+02  0.4202952E+02  0.0000000E+00
Ar 1632  0.2261776E+02  0.3447704E+01  0.4164636E+02  0.0000000E+00
Ar 1633  0.2262450E+02  0.5514232E+02  0.4447041E+02  0.0000000E+00
Ar 1634  0.2534738E+02  0.3071645E+01  0.4439852E+02  0.0000000E+00
Ar 1635  0.2546052E+02  0.6428004E+00  0.4744041E+02  0.0000000E+00
Ar 1636  0.2281247E+02  0.3297028E+01  0.4687994E+02  0.0000000E+00
Ar 1637  0.2277386E+02  0.5582605E+02  0.5008088E+02  0.0000000E+00
Ar 1638  0.2560060E+02  0.3416512E+01  0.5015031E+02  0.0000000E+00
Ar 1639  0.2546949E+02  0.5558843E+02  0.5213454E+02  0.0000000E+00
Ar 1640  0.2252416E+02  0.3244631E+01  0.5268942E+02  0.0000000E+00
Ar 1641  0.2273989E+02  0.6023899E+01  0.3155685E+00  0.0000000E+00
Ar 1642  0.2535600E+02  0.8941566E+01  0.5555666E+02  0.0000000E+00
Ar 1643  0.2535500E+02  0.6047294E+01  0.3135664E+01  0.0000000E+00
Ar 1644  0.2250445E+02  0.8619856E+01  0.3202183E+01  0.0000000E+00
Ar 1645  0.2266609E+02  0.5916982E+01  0.5916556E+01  0.0000000E+00
Ar 1646  0.2507347E+02  0.8954235E+01  0.5621285E+01  0.0000000E+00
Ar 1647  0.2507314E+02  0.5620289E+01  0.8955078E+01  0.0000000E+00
Ar 1648  0.2279586E+02  0.8587306E+01  0.8587022E+01  0.0000000E+00
Ar 1649  0.2272472E+02  0.6069590E+01  0.1136028E+02  0.0000000E+00
Ar 1650  0.2524037E+02  0.8708913E+01  0.1131444E+02  0.0000000E+00
Ar 1651  0.2517260E+02  0.5915302E+01  0.1417328E+02  0.0000000E+00
Ar 1652  0.2260475E+02  0.8606846E+01  0.1409908E+02  0.0000000E+00
Ar 1653  0.2236541E+02  0.6144770E+01  0.1681563E+02  0.0000000E+00
Ar 1654  0.2530845E+02  0.8577854E+01  0.1685495E+02  0.0000000E+00
Ar 1655  0.2495403E+02  0.5896110E+01  0.1970994E+02  0.0000000E+00
Ar 1656  0.2243837E+02  0.8666474E+01  0.1980476E+02  0.0000000E+00
Ar 1657  0.2277328E+02  0.5769780E+01  0.2277328E+02  0.0000000E+00
Ar 1658  0.2501330E+02  0.8622051E+01  0.2228896E+02  0.0000000E+00
Ar 1659  0.2529870E+02  0.5829606E+01  0.2529873E+02  0.0000000E+00
Ar 1660  0.2228899E+02  0.8622053E+01  0.2501335E+02  0.0000000E+00
Ar 1661  0.2235511E+02  0.6036365E+01  0.2775447E+02  0.0000000E+00
Ar 1662  0.2512404E+02  0.8782537E+01  0.2783835E+02  0.0000000E+00
Ar 1663  0.2528162E+02  0.6199769E+01  0.3091104E+02  0.0000000E+00
Ar 1664  0.2260525E+02  0.8824875E+01  0.3061153E+02  0.0000000E+00
Ar 1665  0.2202897E+02  0.5945079E+01  0.3331231E+02  0.0000000E+00
Ar 1666  0.2534586E+02  0.9099463E+01  0.3364599E+02  0.0000000E+00
Ar 1667  0.2538544E+02  0.6283484E+01  0.3610193E+02  0.0000000E+00
Ar 1668  0.2235284E+02  0.8914819E+01  0.3636205E+02  0.0000000E+00
Ar 1669  0.2287573E+02  0.6041306E+01  0.3883073E+02  0.0000000E+00
Ar 1670  0.2504214E+02  0.8929960E+01  0.3916646E+02  0.0000000E+00
Ar 1671  0.2514301E+02  0.6171248E+01  0.4159964E+02  0.0000000E+00
Ar 1672  0.2253174E+02  0.8681677E+01  0.4181898E+02  0.0000000E+00
Ar 1673  0.2262925E+02  0.6054226E+01  0.4458314E+02  0.0000000E+00
Ar 1674  0.2528257E+02  0.8647552E+01  0.4446463E+02  0.0000000E+00
Ar 1675  0.2527060E+02  0.5975028E+01  0.4742501E+02  0.0000000E+00
Ar 1676  0.2225024E+02  0.8503286E+01  0.4706299E+02  0.0000000E+00
Ar 1677  0.2261477E+02  0.5885069E+01  0.5007518E+02  0.0000000E+00
Ar 1678  0.2509461E+02  0.8775317E+01  0.4985146E+02  0.0000000E+00
Ar 1679  0.2531560E+02  0.6250954E+01  0.5285386E+02  0.0000000E+00
Ar 1680  0.2221315E+02  0.8520354E+01  0.5273984E+02  0.0000000E+00
Ar 1681  0.2272125E+02  0.1177190E+02  0.5548195E+02  0.0000000E+00
Ar 1682  0.2517724E+02  0.1449724E+02  0.5526528E+02  0.0000000E+00
Ar 1683  0.2535063E+02  0.1146339E+02  0.2828621E+01  0.0000000E+00
Ar 1684  0.2271076E+02  0.1394849E+02  0.3149758E+01  0.0000000E+00
Ar 1685  0.2272598E+02  0.1135902E+02  0.6069447E+01  0.0000000E+00
Ar 1686  0.2517213E+02  0.1417361E+02  0.5915312E+01  0.0000000E+00
Ar 1687  0.2524196E+02  0.1131341E+02  0.8709046E+01  0.0000000E+00
Ar 1688  0.2260470E+02  0.1409891E+02  0.8606942E+01  0.0000000E+00
Ar 1689  0.2247801E+02  0.1158163E+02  0.1158164E+02  0.0000000E+00
Ar 1690  0.2533815E+02  0.1402829E+02  0.1126030E+02  0.0000000E+00
Ar 1691  0.2533825E+02  0.1126032E+02  0.1402819E+02  0.0000000E+00
Ar 1692  0.2272672E+02  0.1417576E+02  0.1417586E+02  0.0000000E+00
Ar 1693  0.2247005E+02  0.1109035E+02  0.1691417E+02  0.0000000E+00
Ar 1694  0.2513010E+02  0.1412076E+02  0.1703376E+02  0.0000000E+00
Ar 1695  0.2511831E+02  0.1157137E+02  0.1966964E+02  0.0000000E+00
Ar 1696  0.2258507E+02  0.1419170E+02  0.1959132E+02  0.0000000E+00
Ar 1697  0.2239357E+02  0.1154060E+02  0.2239353E+02  0.0000000E+00
Ar 1698  0.2565235E+02  0.1423711E+02  0.2251080E+02  0.0000000E+00
Ar 1699  0.2513045E+02  0.1159908E+02  0.2513045E+02  0.0000000E+00
Ar 1700  0.2251076E+02  0.1423712E+02  0.2565237E+02  0.0000000E+00
Ar 1701  0.2210710E+02  0.1127213E+02  0.2816158E+02  0.0000000E+00
Ar 1702  0.2518452E+02  0.1447340E+02  0.2819394E+02  0.0000000E+00
Ar 1703  0.2525432E+02  0.1152734E+02  0.3052401E+02  0.0000000E+00
Ar 1704  0.2241365E+02  0.1442996E+02  0.3069920E+02  0.0000000E+00
Ar 1705  0.2244860E+02  0.1132291E+02  0.3354837E+02  0.0000000E+00
Ar 1706  0.2522647E+02  0.1430414E+02  0.3371107E+02  0.0000000E+00
Ar 1707  0.2501934E+02  0.1157096E+02  0.3622320E+02  0.0000000E+00
Ar 1708  0.2251398E+02  0.1441990E+02  0.3619878E+02  0.0000000E+00
Ar 1709  0.2236881E+02  0.1147598E+02  0.3909914E+02  0.0000000E+00
Ar 1710  0.2539724E+02  0.1430500E+02  0.3870380E+02  0.0000000E+00
Ar 1711  0.2509694E+02  0.1160241E+02  0.4194158E+02  0.0000000E+00
Ar 1712  0.2269567E+02  0.1441199E+02  0.4202606E+02  0.0000000E+00
Ar 1713  0.2240386E+02  0.1152716E+02  0.4443346E+02  0.0000000E+00
Ar 1714  0.2501905E+02  0.1448319E+02  0.4460589E+02  0.0000000E+00
Ar 1715  0.2484239E+02  0.1181063E+02  0.4725533E+02  0.0000000E+00
Ar 1716  0.2228026E+02  0.1432742E+02  0.4745117E+02  0.0000000E+00
Ar 1717  0.2224484E+02  0.1130366E+02  0.4981185E+02  0.0000000E+00
Ar 1718  0.2504754E+02  0.1466524E+02  0.4996342E+02  0.0000000E+00
Ar 1719  0.2492059E+02  0.1173414E+02  0.5252095E+02  0.0000000E+00
Ar 1720  0.2233751E+02  0.1421728E+02  0.5215241E+02  0.0000000E+00
Ar 1721  0.2230052E+02  0.1718892E+02  0.7103889E+00  0.0000000E+00
Ar 1722  0.2490742E+02  0.1949614E+02  0.4215125E+00  0.0000000E+00
Ar 1723  0.2496485E+02  0.1682622E+02  0.3193476E+01  0.0000000E+00
Ar 1724  0.2227213E+02  0.1973767E+02  0.3287028E+01  0.0000000E+00
Ar 1725  0.2236530E+02  0.1681571E+02  0.6144754E+01  0.0000000E+00
Ar 1726  0.2495402E+02  0.1970992E+02  0.5896108E+01  0.0000000E+00
Ar 1727  0.2530831E+02  0.1685519E+02  0.8578022E+01  0.0000000E+00
Ar 1728  0.2243834E+02  0.1980476E+02  0.8666494E+01  0.0000000E+00
Ar 1729  0.2246998E+02  0.1691419E+02  0.1109043E+02  0.0000000E+00
Ar 1730  0.2511826E+02  0.1966969E+02  0.1157142E+02  0.0000000E+00
Ar 1731  0.2513007E+02  0.1703375E+02  0.1412083E+02  0.0000000E+00
Ar 1732  0.2258504E+02  0.1959129E+02  0.1419173E+02  0.0000000E+00
Ar 1733  0.2229862E+02  0.1690780E+02  0.1690785E+02  0.0000000E+00
Ar 1734  0.2507098E+02  0.1987578E+02  0.1676957E+02  0.0000000E+00
Ar 1735  0.2507099E+02  0.1676954E+02  0.1987578E+02  0.0000000E+00
Ar 1736  0.2290415E+02  0.1949345E+02  0.1949349E+02  0.0000000E+00
Ar 1737  0.2239991E+02  0.1677919E+02  0.2239995E+02  0.0000000E+00
Ar 1738  0.2530896E+02  0.1975764E+02  0.2243832E+02  0.0000000E+00
Ar 1739  0.2525883E+02  0.1703085E+02  0.2525886E+02  0.0000000E+00
Ar 1740  0.2243826E+02  0.1975761E+02  0.2530895E+02  0.0000000E+00
Ar 1741  0.2276995E+02  0.1710075E+02  0.2817003E+02  0.0000000E+00
Ar 1742  0.2553125E+02  0.1993798E+02  0.2797038E+02  0.0000000E+00
Ar 1743  0.2548243E+02  0.1708788E+02  0.3090716E+02  0.0000000E+00
Ar 1744  0.2260247E+02  0.1979748E+02  0.3110224E+02  0.0000000E+00
Ar 1745  0.2271966E+02  0.1697602E+02  0.3355873E+02  0.0000000E+00
Ar 1746  0.2532659E+02  0.1991250E+02  0.3389269E+02  0.0000000E+00
Ar 1747  0.2513022E+02  0.1708625E+02  0.3631918E+02  0.0000000E+00
Ar 1748  0.2261044E+02  0.1977484E+02  0.3629602E+02  0.0000000E+00
Ar 1749  0.2269447E+02  0.1696457E+02  0.3912992E+02  0.0000000E+00
Ar 1750  0.2506950E+02  0.2003904E+02  0.3924959E+02  0.0000000E+00
Ar 1751  0.2522858E+02  0.1710835E+02  0.4173011E+02  0.0000000E+00
Ar 1752  0.2267870E+02  0.2012123E+02  0.4192454E+02  0.0000000E+00
Ar 1753  0.2250875E+02  0.1731231E+02  0.4446638E+02  0.0000000E+00
Ar 1754  0.2534010E+02  0.2006654E+02  0.4447579E+02  0.0000000E+00
Ar 1755  0.2536808E+02  0.1724934E+02  0.4701411E+02  0.0000000E+00
Ar 1756  0.2270839E+02  0.2009199E+02  0.4731025E+02  0.0000000E+00
Ar 1757  0.2239947E+02  0.1738894E+02  0.4983677E+02  0.0000000E+00
Ar 1758  0.2520794E+02  0.2003500E+02  0.4993140E+02  0.0000000E+00
Ar 1759  0.2516891E+02  0.1713118E+02  0.5305286E+02  0.0000000E+00
Ar 1760  0.2252773E+02  0.1990628E+02  0.5275925E+02  0.0000000E+00
Ar 1761  0.2314034E+02  0.2314040E+02  0.5188254E+00  0.0000000E+00
Ar 1762  0.2514676E+02  0.2514676E+02  0.5545596E+02  0.0000000E+00
Ar 1763  0.2538002E+02  0.2253687E+02  0.3049985E+01  0.0000000E+00
Ar 1764  0.2253691E+02  0.2538002E+02  0.3049951E+01  0.0000000E+00
Ar 1765  0.2277328E+02  0.2277326E+02  0.5769798E+01  0.0000000E+00
Ar 1766  0.2529870E+02  0.2529870E+02  0.5829626E+01  0.0000000E+00
Ar 1767  0.2501331E+02  0.2228893E+02  0.8622045E+01  0.0000000E+00
Ar 1768  0.2228895E+02  0.2501330E+02  0.8622046E+01  0.0000000E+00
Ar 1769  0.2239353E+02  0.2239353E+02  0.1154058E+02  0.0000000E+00
Ar 1770  0.2513044E+02  0.2513042E+02  0.1159909E+02  0.0000000E+00
Ar 1771  0.2565231E+02  0.2251081E+02  0.1423714E+02  0.0000000E+00
Ar 1772  0.2251077E+02  0.2565232E+02  0.1423713E+02  0.0000000E+00
Ar 1773  0.2239992E+02  0.2239992E+02  0.1677922E+02  0.0000000E+00
Ar 1774  0.2525883E+02  0.2525883E+02  0.1703088E+02  0.0000000E+00
Ar 1775  0.2530896E+02  0.2243830E+02  0.1975767E+02  0.0000000E+00
Ar 1776  0.2243829E+02  0.2530893E+02  0.1975764E+02  0.0000000E+00
Ar 1777  0.2226990E+02  0.2226990E+02  0.2226990E+02  0.0000000E+00
Ar 1778  0.2529718E+02  0.2529716E+02  0.2248359E+02  0.0000000E+00
Ar 1779  0.2529718E+02  0.2248356E+02  0.2529719E+02  0.0000000E+00
Ar 1780  0.2248357E+02  0.2529715E+02  0.2529718E+02  0.0000000E+00
Ar 1781  0.2244293E+02  0.2244291E+02  0.2826804E+02  0.0000000E+00
Ar 1782  0.2504506E+02  0.2504504E+02  0.2805698E+02  0.0000000E+00
Ar 1783  0.2523607E+02  0.2235167E+02  0.3087508E+02  0.0000000E+00
Ar 1784  0.2235169E+02  0.2523605E+02  0.3087505E+02  0.0000000E+00
Ar 1785  0.2275005E+02  0.2275004E+02  0.3373445E+02  0.0000000E+00
Ar 1786  0.2554662E+02  0.2554660E+02  0.3372814E+02  0.0000000E+00
Ar 1787  0.2521188E+02  0.2265522E+02  0.3655671E+02  0.0000000E+00
Ar 1788  0.2265524E+02  0.2521185E+02  0.3655668E+02  0.0000000E+00
Ar 1789  0.2269983E+02  0.2269978E+02  0.3920016E+02  0.0000000E+00
Ar 1790  0.2530571E+02  0.2530567E+02  0.3940057E+02  0.0000000E+00
Ar 1791  0.2541777E+02  0.2270859E+02  0.4175335E+02  0.0000000E+00
Ar 1792  0.2270862E+02  0.2541775E+02  0.4175336E+02  0.0000000E+00
Ar 1793  0.2292293E+02  0.2292294E+02  0.4455072E+02  0.0000000E+00
Ar 1794  0.2563361E+02  0.2563357E+02  0.4499257E+02  0.0000000E+00
Ar 1795  0.2536700E+02  0.2275987E+02  0.4727664E+02  0.0000000E+00
Ar 1796  0.2275990E+02  0.2536698E+02  0.4727665E+02  0.0000000E+00
Ar 1797  0.2275623E+02  0.2275622E+02  0.5020244E+02  0.0000000E+00
Ar 1798  0.2543572E+02  0.2543568E+02  0.4973205E+02  0.0000000E+00
Ar 1799  0.2529255E+02  0.2231044E+02  0.5278323E+02  0.0000000E+00
Ar 1800  0.2231047E+02  0.2529255E+02  0.5278322E+02  0.0000000E+00
Ar 1801  0.2168374E+02  0.2754119E+02  0.3717937E+00  0.0000000E+00
Ar 1802  0.2476705E+02  0.2980907E+02  0.5552610E+02  0.0000000E+00
Ar 1803  0.2533367E+02  0.2783973E+02  0.3459114E+01  0.0000000E+00
Ar 1804  0.2222342E+02  0.3085448E+02  0.3198292E+01  0.0000000E+00
Ar 1805  0.2235496E+02  0.2775444E+02  0.6036244E+01  0.0000000E+00
Ar 1806  0.2528160E+02  0.3091099E+02  0.6199814E+01  0.0000000E+00
Ar 1807  0.2512404E+02  0.2783832E+02  0.8782568E+01  0.0000000E+00
Ar 1808  0.2260525E+02  0.3061151E+02  0.8824927E+01  0.0000000E+00
Ar 1809  0.2210710E+02  0.2816154E+02  0.1127215E+02  0.0000000E+00
Ar 1810  0.2525432E+02  0.3052398E+02  0.1152738E+02  0.0000000E+00
Ar 1811  0.2518451E+02  0.2819392E+02  0.1447343E+02  0.0000000E+00
Ar 1812  0.2241366E+02  0.3069919E+02  0.1442998E+02  0.0000000E+00
Ar 1813  0.2276996E+02  0.2817001E+02  0.1710076E+02  0.0000000E+00
Ar 1814  0.2548242E+02  0.3090714E+02  0.1708790E+02  0.0000000E+00
Ar 1815  0.2553125E+02  0.2797035E+02  0.1993800E+02  0.0000000E+00
Ar 1816  0.2260247E+02  0.3110222E+02  0.1979750E+02  0.0000000E+00
Ar 1817  0.2244295E+02  0.2826802E+02  0.2244295E+02  0.0000000E+00
Ar 1818  0.2523607E+02  0.3087507E+02  0.2235170E+02  0.0000000E+00
Ar 1819  0.2504506E+02  0.2805697E+02  0.2504506E+02  0.0000000E+00
Ar 1820  0.2235169E+02  0.3087504E+02  0.2523608E+02  0.0000000E+00
Ar 1821  0.2264650E+02  0.2800811E+02  0.2800813E+02  0.0000000E+00
Ar 1822  0.2543295E+02  0.3120420E+02  0.2818535E+02  0.0000000E+00
Ar 1823  0.2543295E+02  0.2818531E+02  0.3120424E+02  0.0000000E+00
Ar 1824  0.2257565E+02  0.3068930E+02  0.3068933E+02  0.0000000E+00
Ar 1825  0.2270714E+02  0.2801748E+02  0.3376468E+02  0.0000000E+00
Ar 1826  0.2522153E+02  0.3083769E+02  0.3366605E+02  0.0000000E+00
Ar 1827  0.2573638E+02  0.2815855E+02  0.3626775E+02  0.0000000E+00
Ar 1828  0.2281141E+02  0.3078958E+02  0.3648932E+02  0.0000000E+00
Ar 1829  0.2241975E+02  0.2791678E+02  0.3925016E+02  0.0000000E+00
Ar 1830  0.2532414E+02  0.3064010E+02  0.3944649E+02  0.0000000E+00
Ar 1831  0.2548744E+02  0.2817885E+02  0.4197565E+02  0.0000000E+00
Ar 1832  0.2263837E+02  0.3068713E+02  0.4225008E+02  0.0000000E+00
Ar 1833  0.2267518E+02  0.2797862E+02  0.4470304E+02  0.0000000E+00
Ar 1834  0.2546262E+02  0.3091836E+02  0.4473437E+02  0.0000000E+00
Ar 1835  0.2504641E+02  0.2821948E+02  0.4749042E+02  0.0000000E+00
Ar 1836  0.2263899E+02  0.3106230E+02  0.4710397E+02  0.0000000E+00
Ar 1837  0.2219548E+02  0.2789030E+02  0.4994455E+02  0.0000000E+00
Ar 1838  0.2554231E+02  0.3106802E+02  0.4976492E+02  0.0000000E+00
Ar 1839  0.2517446E+02  0.2804576E+02  0.5219544E+02  0.0000000E+00
Ar 1840  0.2239192E+02  0.3070507E+02  0.5260481E+02  0.0000000E+00
Ar 1841  0.2263181E+02  0.3303063E+02  0.5557441E+02  0.0000000E+00
Ar 1842  0.2493156E+02  0.3603619E+02  0.5572688E+02  0.0000000E+00
Ar 1843  0.2523602E+02  0.3351460E+02  0.3555586E+01  0.0000000E+00
Ar 1844  0.2274467E+02  0.3610421E+02  0.3282579E+01  0.0000000E+00
Ar 1845  0.2202890E+02  0.3331227E+02  0.5945084E+01  0.0000000E+00
Ar 1846  0.2538539E+02  0.3610190E+02  0.6283453E+01  0.0000000E+00
Ar 1847  0.2534587E+02  0.3364600E+02  0.9099511E+01  0.0000000E+00
Ar 1848  0.2235290E+02  0.3636212E+02  0.8914725E+01  0.0000000E+00
Ar 1849  0.2244862E+02  0.3354838E+02  0.1132292E+02  0.0000000E+00
Ar 1850  0.2501941E+02  0.3622349E+02  0.1157085E+02  0.0000000E+00
Ar 1851  0.2522648E+02  0.3371114E+02  0.1430405E+02  0.0000000E+00
Ar 1852  0.2251402E+02  0.3619879E+02  0.1441983E+02  0.0000000E+00
Ar 1853  0.2271965E+02  0.3355873E+02  0.1697602E+02  0.0000000E+00
Ar 1854  0.2513021E+02  0.3631921E+02  0.1708620E+02  0.0000000E+00
Ar 1855  0.2532659E+02  0.3389268E+02  0.1991251E+02  0.0000000E+00
Ar 1856  0.2261045E+02  0.3629600E+02  0.1977485E+02  0.0000000E+00
Ar 1857  0.2275006E+02  0.3373441E+02  0.2275008E+02  0.0000000E+00
Ar 1858  0.2521186E+02  0.3655669E+02  0.2265523E+02  0.0000000E+00
Ar 1859  0.2554662E+02  0.3372811E+02  0.2554663E+02  0.0000000E+00
Ar 1860  0.2265523E+02  0.3655667E+02  0.2521187E+02  0.0000000E+00
Ar 1861  0.2270715E+02  0.3376466E+02  0.2801752E+02  0.0000000E+00
Ar 1862  0.2573637E+02  0.3626773E+02  0.2815857E+02  0.0000000E+00
Ar 1863  0.2522152E+02  0.3366602E+02  0.3083771E+02  0.0000000E+00
Ar 1864  0.2281139E+02  0.3648930E+02  0.3078962E+02  0.0000000E+00
Ar 1865  0.2278854E+02  0.3358345E+02  0.3358347E+02  0.0000000E+00
Ar 1866  0.2514104E+02  0.3629761E+02  0.3353476E+02  0.0000000E+00
Ar 1867  0.2514105E+02  0.3353478E+02  0.3629768E+02  0.0000000E+00
Ar 1868  0.2290404E+02  0.3622626E+02  0.3622628E+02  0.0000000E+00
Ar 1869  0.2258474E+02  0.3368975E+02  0.3907057E+02  0.0000000E+00
Ar 1870  0.2534721E+02  0.3637954E+02  0.3904705E+02  0.0000000E+00
Ar 1871  0.2539596E+02  0.3370528E+02  0.4175145E+02  0.0000000E+00
Ar 1872  0.2256104E+02  0.3633607E+02  0.4160934E+02  0.0000000E+00
Ar 1873  0.2255577E+02  0.3398967E+02  0.4452432E+02  0.0000000E+00
Ar 1874  0.2536787E+02  0.3653868E+02  0.4450830E+02  0.0000000E+00
Ar 1875  0.2528934E+02  0.3390467E+02  0.4737154E+02  0.0000000E+00
Ar 1876  0.2280724E+02  0.3664714E+02  0.4731350E+02  0.0000000E+00
Ar 1877  0.2240367E+02  0.3373464E+02  0.5007664E+02  0.0000000E+00
Ar 1878  0.2530132E+02  0.3650037E+02  0.5008497E+02  0.0000000E+00
Ar 1879  0.2542151E+02  0.3368021E+02  0.5249938E+02  0.0000000E+00
Ar 1880  0.2238309E+02  0.3682999E+02  0.5254924E+02  0.0000000E+00
Ar 1881  0.2286237E+02  0.3933056E+02  0.5567038E+02  0.0000000E+00
Ar 1882  0.2544060E+02  0.4202517E+02  0.5561758E+02  0.0000000E+00
Ar 1883  0.2518039E+02  0.3923669E+02  0.3189999E+01  0.0000000E+00
Ar 1884  0.2261980E+02  0.4164688E+02  0.3444626E+01  0.0000000E+00
Ar 1885  0.2287589E+02  0.3883141E+02  0.6040924E+01  0.0000000E+00
Ar 1886  0.2514293E+02  0.4159871E+02  0.6172340E+01  0.0000000E+00
Ar 1887  0.2504180E+02  0.3916735E+02  0.8929644E+01  0.0000000E+00
Ar 1888  0.2253192E+02  0.4182026E+02  0.8680818E+01  0.0000000E+00
Ar 1889  0.2236914E+02  0.3909945E+02  0.1147560E+02  0.0000000E+00
Ar 1890  0.2509669E+02  0.4194206E+02  0.1160200E+02  0.0000000E+00
Ar 1891  0.2539731E+02  0.3870389E+02  0.1430480E+02  0.0000000E+00
Ar 1892  0.2269613E+02  0.4202611E+02  0.1441151E+02  0.0000000E+00
Ar 1893  0.2269450E+02  0.3912993E+02  0.1696455E+02  0.0000000E+00
Ar 1894  0.2522858E+02  0.4173012E+02  0.1710839E+02  0.0000000E+00
Ar 1895  0.2506950E+02  0.3924959E+02  0.2003903E+02  0.0000000E+00
Ar 1896  0.2267872E+02  0.4192457E+02  0.2012121E+02  0.0000000E+00
Ar 1897  0.2269982E+02  0.3920015E+02  0.2269979E+02  0.0000000E+00
Ar 1898  0.2541775E+02  0.4175334E+02  0.2270860E+02  0.0000000E+00
Ar 1899  0.2530570E+02  0.3940055E+02  0.2530568E+02  0.0000000E+00
Ar 1900  0.2270862E+02  0.4175334E+02  0.2541776E+02  0.0000000E+00
Ar 1901  0.2241973E+02  0.3925014E+02  0.2791680E+02  0.0000000E+00
Ar 1902  0.2548742E+02  0.4197563E+02  0.2817889E+02  0.0000000E+00
Ar 1903  0.2532415E+02  0.3944646E+02  0.3064014E+02  0.0000000E+00
Ar 1904  0.2263836E+02  0.4225005E+02  0.3068718E+02  0.0000000E+00
Ar 1905  0.2258468E+02  0.3907045E+02  0.3368960E+02  0.0000000E+00
Ar 1906  0.2539603E+02  0.4175140E+02  0.3370527E+02  0.0000000E+00
Ar 1907  0.2534707E+02  0.3904626E+02  0.3637880E+02  0.0000000E+00
Ar 1908  0.2256081E+02  0.4160848E+02  0.3633512E+02  0.0000000E+00
Ar 1909  0.2270837E+02  0.3891980E+02  0.3891979E+02  0.0000000E+00
Ar 1910  0.2579269E+02  0.4174079E+02  0.3885502E+02  0.0000000E+00
Ar 1911  0.2579199E+02  0.3885609E+02  0.4174203E+02  0.0000000E+00
Ar 1912  0.2244096E+02  0.4161118E+02  0.4161241E+02  0.0000000E+00
Ar 1913  0.2266006E+02  0.3890301E+02  0.4444193E+02  0.0000000E+00
Ar 1914  0.2532760E+02  0.4151678E+02  0.4436866E+02  0.0000000E+00
Ar 1915  0.2556034E+02  0.3904673E+02  0.4730271E+02  0.0000000E+00
Ar 1916  0.2281855E+02  0.4143756E+02  0.4734417E+02  0.0000000E+00
Ar 1917  0.2246839E+02  0.3919343E+02  0.5007805E+02  0.0000000E+00
Ar 1918  0.2548261E+02  0.4158882E+02  0.4997993E+02  0.0000000E+00
Ar 1919  0.2554920E+02  0.3922631E+02  0.5299725E+02  0.0000000E+00
Ar 1920  0.2307435E+02  0.4177482E+02  0.5244165E+02  0.0000000E+00
Ar 1921  0.2262185E+02  0.4446949E+02  0.5514151E+02  0.0000000E+00
Ar 1922  0.2552743E+02  0.4749779E+02  0.6258605E+00  0.0000000E+00
Ar 1923  0.2534829E+02  0.4439659E+02  0.3068336E+01  0.0000000E+00
Ar 1924  0.2281713E+02  0.4687831E+02  0.3294108E+01  0.0000000E+00
Ar 1925  0.2263111E+02  0.4458358E+02  0.6054073E+01  0.0000000E+00
Ar 1926  0.2526551E+02  0.4741779E+02  0.5980854E+01  0.0000000E+00
Ar 1927  0.2528257E+02  0.4446577E+02  0.8646850E+01  0.0000000E+00
Ar 1928  0.2225091E+02  0.4706342E+02  0.8503585E+01  0.0000000E+00
Ar 1929  0.2240437E+02  0.4443391E+02  0.1152647E+02  0.0000000E+00
Ar 1930  0.2484280E+02  0.4725584E+02  0.1181060E+02  0.0000000E+00
Ar 1931  0.2501906E+02  0.4460605E+02  0.1448308E+02  0.0000000E+00
Ar 1932  0.2228051E+02  0.4745117E+02  0.1432723E+02  0.0000000E+00
Ar 1933  0.2250876E+02  0.4446632E+02  0.1731227E+02  0.0000000E+00
Ar 1934  0.2536807E+02  0.4701414E+02  0.1724935E+02  0.0000000E+00
Ar 1935  0.2534011E+02  0.4447577E+02  0.2006649E+02  0.0000000E+00
Ar 1936  0.2270842E+02  0.4731019E+02  0.2009199E+02  0.0000000E+00
Ar 1937  0.2292293E+02  0.4455068E+02  0.2292294E+02  0.0000000E+00
Ar 1938  0.2536700E+02  0.4727660E+02  0.2275989E+02  0.0000000E+00
Ar 1939  0.2563359E+02  0.4499254E+02  0.2563359E+02  0.0000000E+00
Ar 1940  0.2275993E+02  0.4727657E+02  0.2536701E+02  0.0000000E+00
Ar 1941  0.2267517E+02  0.4470301E+02  0.2797867E+02  0.0000000E+00
Ar 1942  0.2504640E+02  0.4749039E+02  0.2821952E+02  0.0000000E+00
Ar 1943  0.2546260E+02  0.4473434E+02  0.3091844E+02  0.0000000E+00
Ar 1944  0.2263897E+02  0.4710394E+02  0.3106234E+02  0.0000000E+00
Ar 1945  0.2255573E+02  0.4452431E+02  0.3398974E+02  0.0000000E+00
Ar 1946  0.2528944E+02  0.4737152E+02  0.3390475E+02  0.0000000E+00
Ar 1947  0.2536824E+02  0.4450776E+02  0.3653807E+02  0.0000000E+00
Ar 1948  0.2280743E+02  0.4731341E+02  0.3664714E+02  0.0000000E+00
Ar 1949  0.2266049E+02  0.4444089E+02  0.3890239E+02  0.0000000E+00
Ar 1950  0.2556120E+02  0.4730249E+02  0.3904708E+02  0.0000000E+00
Ar 1951  0.2532837E+02  0.4436940E+02  0.4151673E+02  0.0000000E+00
Ar 1952  0.2281873E+02  0.4734399E+02  0.4143674E+02  0.0000000E+00
Ar 1953  0.2254607E+02  0.4452254E+02  0.4452293E+02  0.0000000E+00
Ar 1954  0.2545835E+02  0.4695249E+02  0.4402555E+02  0.0000000E+00
Ar 1955  0.2545672E+02  0.4402592E+02  0.4695135E+02  0.0000000E+00
Ar 1956  0.2277945E+02  0.4734372E+02  0.4734139E+02  0.0000000E+00
Ar 1957  0.2315176E+02  0.4449167E+02  0.5004622E+02  0.0000000E+00
Ar 1958  0.2552456E+02  0.4722284E+02  0.4989685E+02  0.0000000E+00
Ar 1959  0.2571455E+02  0.4452146E+02  0.5262542E+02  0.0000000E+00
Ar 1960  0.2285130E+02  0.4727430E+02  0.5292424E+02  0.0000000E+00
Ar 1961  0.2279319E+02  0.5009473E+02  0.5582242E+02  0.0000000E+00
Ar 1962  0.2546887E+02  0.5212886E+02  0.5558882E+02  0.0000000E+00
Ar 1963  0.2560015E+02  0.5014866E+02  0.3423132E+01  0.0000000E+00
Ar 1964  0.2251715E+02  0.5267270E+02  0.3242108E+01  0.0000000E+00
Ar 1965  0.2261415E+02  0.5007702E+02  0.5893069E+01  0.0000000E+00
Ar 1966  0.2532090E+02  0.5285534E+02  0.6242263E+01  0.0000000E+00
Ar 1967  0.2509429E+02  0.4985330E+02  0.8779265E+01  0.0000000E+00
Ar 1968  0.2221392E+02  0.5274010E+02  0.8521627E+01  0.0000000E+00
Ar 1969  0.2224441E+02  0.4981175E+02  0.1130337E+02  0.0000000E+00
Ar 1970  0.2492061E+02  0.5252026E+02  0.1173516E+02  0.0000000E+00
Ar 1971  0.2504790E+02  0.4996290E+02  0.1466559E+02  0.0000000E+00
Ar 1972  0.2233742E+02  0.5215225E+02  0.1421733E+02  0.0000000E+00
Ar 1973  0.2239957E+02  0.4983673E+02  0.1738885E+02  0.0000000E+00
Ar 1974  0.2516899E+02  0.5305316E+02  0.1713065E+02  0.0000000E+00
Ar 1975  0.2520791E+02  0.4993136E+02  0.2003500E+02  0.0000000E+00
Ar 1976  0.2252773E+02  0.5275923E+02  0.1990628E+02  0.0000000E+00
Ar 1977  0.2275625E+02  0.5020241E+02  0.2275621E+02  0.0000000E+00
Ar 1978  0.2529251E+02  0.5278322E+02  0.2231048E+02  0.0000000E+00
Ar 1979  0.2543567E+02  0.4973204E+02  0.2543571E+02  0.0000000E+00
Ar 1980  0.2231053E+02  0.5278321E+02  0.2529253E+02  0.0000000E+00
Ar 1981  0.2219562E+02  0.4994432E+02  0.2789025E+02  0.0000000E+00
Ar 1982  0.2517454E+02  0.5219542E+02  0.2804570E+02  0.0000000E+00
Ar 1983  0.2554228E+02  0.4976488E+02  0.3106806E+02  0.0000000E+00
Ar 1984  0.2239248E+02  0.5260407E+02  0.3070492E+02  0.0000000E+00
Ar 1985  0.2240365E+02  0.5007662E+02  0.3373471E+02  0.0000000E+00
Ar 1986  0.2542147E+02  0.5249932E+02  0.3368027E+02  0.0000000E+00
Ar 1987  0.2530154E+02  0.5008487E+02  0.3650047E+02  0.0000000E+00
Ar 1988  0.2238337E+02  0.5254942E+02  0.3683006E+02  0.0000000E+00
Ar 1989  0.2246888E+02  0.5007634E+02  0.3919176E+02  0.0000000E+00
Ar 1990  0.2555046E+02  0.5299598E+02  0.3922640E+02  0.0000000E+00
Ar 1991  0.2548531E+02  0.4998056E+02  0.4159037E+02  0.0000000E+00
Ar 1992  0.2307122E+02  0.5243915E+02  0.4177224E+02  0.0000000E+00
Ar 1993  0.2315103E+02  0.5004626E+02  0.4449009E+02  0.0000000E+00
Ar 1994  0.2570887E+02  0.5262930E+02  0.4452015E+02  0.0000000E+00
Ar 1995  0.2551594E+02  0.4988929E+02  0.4722279E+02  0.0000000E+00
Ar 1996  0.2284859E+02  0.5292821E+02  0.4727181E+02  0.0000000E+00
Ar 1997  0.2250805E+02  0.4981330E+02  0.4981080E+02  0.0000000E+00
Ar 1998  0.2533861E+02  0.5277734E+02  0.4989484E+02  0.0000000E+00
Ar 1999  0.2533886E+02  0.4990724E+02  0.5277280E+02  0.0000000E+00
Ar 2000  0.2241102E+02  0.5234149E+02  0.5233586E+02  0.0000000E+00
Ar 2001  0.2808386E+02  0.2226028E+00  0.2256890E+00  0.0000000E+00
Ar 2002  0.3159739E+02  0.4503442E+01  0.5552450E+02  0.0000000E+00
Ar 2003  0.3159105E+02  0.5554668E+02  0.4499330E+01  0.0000000E+00
Ar 2004  0.2790007E+02  0.3294856E+01  0.3308123E+01  0.0000000E+00
Ar 2005  0.2824000E+02  0.7195149E+00  0.6441261E+01  0.0000000E+00
Ar 2006  0.3084716E+02  0.3341041E+01  0.6098425E+01  0.0000000E+00
Ar 2007  0.3064517E+02  0.5536821E+02  0.8821433E+01  0.0000000E+00
Ar 2008  0.2797266E+02  0.3227793E+01  0.8929533E+01  0.0000000E+00
Ar 2009  0.2794486E+02  0.5540031E+02  0.1148219E+02  0.0000000E+00
Ar 2010  0.3058401E+02  0.2960843E+01  0.1139639E+02  0.0000000E+00
Ar 2011  0.3086418E+02  0.5565016E+02  0.1412363E+02  0.0000000E+00
Ar 2012  0.2781757E+02  0.3068090E+01  0.1454795E+02  0.0000000E+00
Ar 2013  0.2835703E+02  0.4373241E+00  0.1713114E+02  0.0000000E+00
Ar 2014  0.3118111E+02  0.3684283E+01  0.1734181E+02  0.0000000E+00
Ar 2015  0.3107711E+02  0.5560360E+02  0.1978783E+02  0.0000000E+00
Ar 2016  0.2808809E+02  0.3493549E+01  0.1976815E+02  0.0000000E+00
Ar 2017  0.2754118E+02  0.3717839E+00  0.2168374E+02  0.0000000E+00
Ar 2018  0.3085455E+02  0.3198262E+01  0.2222342E+02  0.0000000E+00
Ar 2019  0.2980894E+02  0.5552614E+02  0.2476719E+02  0.0000000E+00
Ar 2020  0.2783973E+02  0.3459196E+01  0.2533365E+02  0.0000000E+00
Ar 2021  0.2839012E+02  0.5499502E+02  0.2839029E+02  0.0000000E+00
Ar 2022  0.3116062E+02  0.3210418E+01  0.2801812E+02  0.0000000E+00
Ar 2023  0.3084712E+02  0.5558667E+02  0.3084721E+02  0.0000000E+00
Ar 2024  0.2801809E+02  0.3210442E+01  0.3116066E+02  0.0000000E+00
Ar 2025  0.2845522E+02  0.7794413E+00  0.3376030E+02  0.0000000E+00
Ar 2026  0.3090239E+02  0.3618821E+01  0.3353011E+02  0.0000000E+00
Ar 2027  0.3134511E+02  0.5619151E+00  0.3667328E+02  0.0000000E+00
Ar 2028  0.2761155E+02  0.3264949E+01  0.3616884E+02  0.0000000E+00
Ar 2029  0.2831522E+02  0.5581434E+02  0.3927160E+02  0.0000000E+00
Ar 2030  0.3086025E+02  0.3865694E+01  0.3846485E+02  0.0000000E+00
Ar 2031  0.3106783E+02  0.9118177E+00  0.4079027E+02  0.0000000E+00
Ar 2032  0.2805095E+02  0.3427286E+01  0.4154727E+02  0.0000000E+00
Ar 2033  0.2841141E+02  0.9701435E+00  0.4421867E+02  0.0000000E+00
Ar 2034  0.3099548E+02  0.3687293E+01  0.4434737E+02  0.0000000E+00
Ar 2035  0.3071141E+02  0.5589743E+02  0.4695891E+02  0.0000000E+00
Ar 2036  0.2800542E+02  0.3405783E+01  0.4734017E+02  0.0000000E+00
Ar 2037  0.2809539E+02  0.5551652E+02  0.4967360E+02  0.0000000E+00
Ar 2038  0.3085124E+02  0.3062806E+01  0.5009773E+02  0.0000000E+00
Ar 2039  0.3140628E+02  0.6344780E+00  0.5236327E+02  0.0000000E+00
Ar 2040  0.2823110E+02  0.3071809E+01  0.5290233E+02  0.0000000E+00
Ar 2041  0.2825206E+02  0.6482311E+01  0.7192215E+00  0.0000000E+00
Ar 2042  0.3069404E+02  0.8850481E+01  0.5534730E+02  0.0000000E+00
Ar 2043  0.3084024E+02  0.6089339E+01  0.3354192E+01  0.0000000E+00
Ar 2044  0.2797201E+02  0.8942159E+01  0.3242546E+01  0.0000000E+00
Ar 2045  0.2803758E+02  0.6515687E+01  0.6514164E+01  0.0000000E+00
Ar 2046  0.3082607E+02  0.8898500E+01  0.5814987E+01  0.0000000E+00
Ar 2047  0.3082661E+02  0.5818801E+01  0.8898143E+01  0.0000000E+00
Ar 2048  0.2840427E+02  0.9004335E+01  0.9006289E+01  0.0000000E+00
Ar 2049  0.2801127E+02  0.5763162E+01  0.1153025E+02  0.0000000E+00
Ar 2050  0.3098032E+02  0.8714703E+01  0.1176152E+02  0.0000000E+00
Ar 2051  0.3064729E+02  0.5674803E+01  0.1409763E+02  0.0000000E+00
Ar 2052  0.2829947E+02  0.8816993E+01  0.1422622E+02  0.0000000E+00
Ar 2053  0.2796475E+02  0.5742609E+01  0.1695022E+02  0.0000000E+00
Ar 2054  0.3074793E+02  0.8740624E+01  0.1690818E+02  0.0000000E+00
Ar 2055  0.3053630E+02  0.6312120E+01  0.1972947E+02  0.0000000E+00
Ar 2056  0.2795483E+02  0.8718805E+01  0.1952714E+02  0.0000000E+00
Ar 2057  0.2775443E+02  0.6036248E+01  0.2235498E+02  0.0000000E+00
Ar 2058  0.3061157E+02  0.8825021E+01  0.2260538E+02  0.0000000E+00
Ar 2059  0.3091094E+02  0.6199772E+01  0.2528165E+02  0.0000000E+00
Ar 2060  0.2783827E+02  0.8782564E+01  0.2512412E+02  0.0000000E+00
Ar 2061  0.2806770E+02  0.6365286E+01  0.2806773E+02  0.0000000E+00
Ar 2062  0.3074388E+02  0.8650903E+01  0.2811709E+02  0.0000000E+00
Ar 2063  0.3045364E+02  0.5805189E+01  0.3045362E+02  0.0000000E+00
Ar 2064  0.2811705E+02  0.8650912E+01  0.3074394E+02  0.0000000E+00
Ar 2065  0.2824368E+02  0.6529140E+01  0.3373967E+02  0.0000000E+00
Ar 2066  0.3090058E+02  0.9163257E+01  0.3346749E+02  0.0000000E+00
Ar 2067  0.3067257E+02  0.6659538E+01  0.3646627E+02  0.0000000E+00
Ar 2068  0.2777969E+02  0.9189165E+01  0.3631488E+02  0.0000000E+00
Ar 2069  0.2785485E+02  0.6488013E+01  0.3915355E+02  0.0000000E+00
Ar 2070  0.3065025E+02  0.9013352E+01  0.3918443E+02  0.0000000E+00
Ar 2071  0.3089022E+02  0.5973795E+01  0.4147085E+02  0.0000000E+00
Ar 2072  0.2795964E+02  0.8775146E+01  0.4209155E+02  0.0000000E+00
Ar 2073  0.2761849E+02  0.5654269E+01  0.4459711E+02  0.0000000E+00
Ar 2074  0.3091338E+02  0.9137130E+01  0.4482918E+02  0.0000000E+00
Ar 2075  0.3041141E+02  0.6364539E+01  0.4723718E+02  0.0000000E+00
Ar 2076  0.2775049E+02  0.8923604E+01  0.4713981E+02  0.0000000E+00
Ar 2077  0.2811450E+02  0.6080456E+01  0.5004757E+02  0.0000000E+00
Ar 2078  0.3057589E+02  0.9247336E+01  0.4977614E+02  0.0000000E+00
Ar 2079  0.3065123E+02  0.6019765E+01  0.5226253E+02  0.0000000E+00
Ar 2080  0.2799711E+02  0.9019261E+01  0.5272842E+02  0.0000000E+00
Ar 2081  0.2794497E+02  0.1148245E+02  0.5540017E+02  0.0000000E+00
Ar 2082  0.3086072E+02  0.1412194E+02  0.5564983E+02  0.0000000E+00
Ar 2083  0.3058800E+02  0.1139135E+02  0.2959899E+01  0.0000000E+00
Ar 2084  0.2781717E+02  0.1454792E+02  0.3067339E+01  0.0000000E+00
Ar 2085  0.2801121E+02  0.1152946E+02  0.5761706E+01  0.0000000E+00
Ar 2086  0.3064731E+02  0.1409723E+02  0.5675070E+01  0.0000000E+00
Ar 2087  0.3097988E+02  0.1176115E+02  0.8715249E+01  0.0000000E+00
Ar 2088  0.2829917E+02  0.1422685E+02  0.8817213E+01  0.0000000E+00
Ar 2089  0.2843370E+02  0.1173046E+02  0.1173023E+02  0.0000000E+00
Ar 2090  0.3085527E+02  0.1451138E+02  0.1183205E+02  0.0000000E+00
Ar 2091  0.3085581E+02  0.1183163E+02  0.1451105E+02  0.0000000E+00
Ar 2092  0.2748967E+02  0.1418599E+02  0.1418603E+02  0.0000000E+00
Ar 2093  0.2787092E+02  0.1145883E+02  0.1705262E+02  0.0000000E+00
Ar 2094  0.3078625E+02  0.1426037E+02  0.1700913E+02  0.0000000E+00
Ar 2095  0.3079487E+02  0.1162393E+02  0.1976930E+02  0.0000000E+00
Ar 2096  0.2803163E+02  0.1429978E+02  0.1981704E+02  0.0000000E+00
Ar 2097  0.2816154E+02  0.1127216E+02  0.2210709E+02  0.0000000E+00
Ar 2098  0.3069917E+02  0.1442999E+02  0.2241367E+02  0.0000000E+00
Ar 2099  0.3052396E+02  0.1152742E+02  0.2525440E+02  0.0000000E+00
Ar 2100  0.2819392E+02  0.1447345E+02  0.2518453E+02  0.0000000E+00
Ar 2101  0.2782048E+02  0.1146016E+02  0.2782048E+02  0.0000000E+00
Ar 2102  0.3092054E+02  0.1444528E+02  0.2791117E+02  0.0000000E+00
Ar 2103  0.3064334E+02  0.1172829E+02  0.3064336E+02  0.0000000E+00
Ar 2104  0.2791114E+02  0.1444529E+02  0.3092057E+02  0.0000000E+00
Ar 2105  0.2791136E+02  0.1161061E+02  0.3347614E+02  0.0000000E+00
Ar 2106  0.3103450E+02  0.1406326E+02  0.3356414E+02  0.0000000E+00
Ar 2107  0.3075709E+02  0.1161198E+02  0.3635567E+02  0.0000000E+00
Ar 2108  0.2796654E+02  0.1378665E+02  0.3617548E+02  0.0000000E+00
Ar 2109  0.2769873E+02  0.1159883E+02  0.3931837E+02  0.0000000E+00
Ar 2110  0.3066753E+02  0.1426872E+02  0.3857277E+02  0.0000000E+00
Ar 2111  0.3058436E+02  0.1152603E+02  0.4179760E+02  0.0000000E+00
Ar 2112  0.2813155E+02  0.1415855E+02  0.4174622E+02  0.0000000E+00
Ar 2113  0.2794426E+02  0.1175627E+02  0.4460623E+02  0.0000000E+00
Ar 2114  0.3060492E+02  0.1449429E+02  0.4492751E+02  0.0000000E+00
Ar 2115  0.3065069E+02  0.1182548E+02  0.4728203E+02  0.0000000E+00
Ar 2116  0.2794461E+02  0.1437969E+02  0.4734500E+02  0.0000000E+00
Ar 2117  0.2788052E+02  0.1179897E+02  0.5009930E+02  0.0000000E+00
Ar 2118  0.3061262E+02  0.1450868E+02  0.4993152E+02  0.0000000E+00
Ar 2119  0.3078346E+02  0.1181049E+02  0.5246104E+02  0.0000000E+00
Ar 2120  0.2809820E+02  0.1471982E+02  0.5276222E+02  0.0000000E+00
Ar 2121  0.2835693E+02  0.1713107E+02  0.4371506E+00  0.0000000E+00
Ar 2122  0.3107709E+02  0.1978783E+02  0.5560358E+02  0.0000000E+00
Ar 2123  0.3118118E+02  0.1734176E+02  0.3684339E+01  0.0000000E+00
Ar 2124  0.2808822E+02  0.1976799E+02  0.3493566E+01  0.0000000E+00
Ar 2125  0.2796483E+02  0.1695005E+02  0.5742552E+01  0.0000000E+00
Ar 2126  0.3053633E+02  0.1972943E+02  0.6312087E+01  0.0000000E+00
Ar 2127  0.3074752E+02  0.1690865E+02  0.8740832E+01  0.0000000E+00
Ar 2128  0.2795486E+02  0.1952716E+02  0.8718777E+01  0.0000000E+00
Ar 2129  0.2787082E+02  0.1705271E+02  0.1145889E+02  0.0000000E+00
Ar 2130  0.3079479E+02  0.1976940E+02  0.1162414E+02  0.0000000E+00
Ar 2131  0.3078620E+02  0.1700953E+02  0.1426084E+02  0.0000000E+00
Ar 2132  0.2803163E+02  0.1981709E+02  0.1429990E+02  0.0000000E+00
Ar 2133  0.2805691E+02  0.1714332E+02  0.1714334E+02  0.0000000E+00
Ar 2134  0.3070576E+02  0.1980746E+02  0.1686217E+02  0.0000000E+00
Ar 2135  0.3070575E+02  0.1686212E+02  0.1980745E+02  0.0000000E+00
Ar 2136  0.2806256E+02  0.1983955E+02  0.1983957E+02  0.0000000E+00
Ar 2137  0.2816996E+02  0.1710081E+02  0.2276998E+02  0.0000000E+00
Ar 2138  0.3110222E+02  0.1979749E+02  0.2260249E+02  0.0000000E+00
Ar 2139  0.3090714E+02  0.1708788E+02  0.2548244E+02  0.0000000E+00
Ar 2140  0.2797036E+02  0.1993798E+02  0.2553127E+02  0.0000000E+00
Ar 2141  0.2824370E+02  0.1689414E+02  0.2824374E+02  0.0000000E+00
Ar 2142  0.3081539E+02  0.1973697E+02  0.2807252E+02  0.0000000E+00
Ar 2143  0.3076970E+02  0.1706170E+02  0.3076971E+02  0.0000000E+00
Ar 2144  0.2807249E+02  0.1973696E+02  0.3081541E+02  0.0000000E+00
Ar 2145  0.2789307E+02  0.1668292E+02  0.3381674E+02  0.0000000E+00
Ar 2146  0.3102464E+02  0.2012006E+02  0.3365342E+02  0.0000000E+00
Ar 2147  0.3083912E+02  0.1720548E+02  0.3620504E+02  0.0000000E+00
Ar 2148  0.2813489E+02  0.1999650E+02  0.3621885E+02  0.0000000E+00
Ar 2149  0.2803927E+02  0.1738301E+02  0.3901682E+02  0.0000000E+00
Ar 2150  0.3078447E+02  0.1973379E+02  0.3886835E+02  0.0000000E+00
Ar 2151  0.3053259E+02  0.1698146E+02  0.4176023E+02  0.0000000E+00
Ar 2152  0.2813700E+02  0.1978440E+02  0.4186805E+02  0.0000000E+00
Ar 2153  0.2779856E+02  0.1699207E+02  0.4422917E+02  0.0000000E+00
Ar 2154  0.3087938E+02  0.1969379E+02  0.4439182E+02  0.0000000E+00
Ar 2155  0.3069012E+02  0.1726989E+02  0.4705356E+02  0.0000000E+00
Ar 2156  0.2790349E+02  0.1992382E+02  0.4714700E+02  0.0000000E+00
Ar 2157  0.2778992E+02  0.1710149E+02  0.4981228E+02  0.0000000E+00
Ar 2158  0.3066377E+02  0.1992170E+02  0.4967430E+02  0.0000000E+00
Ar 2159  0.3075440E+02  0.1704666E+02  0.5212304E+02  0.0000000E+00
Ar 2160  0.2777728E+02  0.1961443E+02  0.5236572E+02  0.0000000E+00
Ar 2161  0.2754111E+02  0.2168360E+02  0.3717930E+00  0.0000000E+00
Ar 2162  0.2980893E+02  0.2476716E+02  0.5552616E+02  0.0000000E+00
Ar 2163  0.3085451E+02  0.2222339E+02  0.3198272E+01  0.0000000E+00
Ar 2164  0.2783972E+02  0.2533362E+02  0.3459226E+01  0.0000000E+00
Ar 2165  0.2775446E+02  0.2235491E+02  0.6036245E+01  0.0000000E+00
Ar 2166  0.3091094E+02  0.2528161E+02  0.6199773E+01  0.0000000E+00
Ar 2167  0.3061151E+02  0.2260525E+02  0.8824934E+01  0.0000000E+00
Ar 2168  0.2783829E+02  0.2512407E+02  0.8782585E+01  0.0000000E+00
Ar 2169  0.2816152E+02  0.2210709E+02  0.1127216E+02  0.0000000E+00
Ar 2170  0.3052396E+02  0.2525435E+02  0.1152739E+02  0.0000000E+00
Ar 2171  0.3069918E+02  0.2241369E+02  0.1443002E+02  0.0000000E+00
Ar 2172  0.2819392E+02  0.2518450E+02  0.1447347E+02  0.0000000E+00
Ar 2173  0.2816996E+02  0.2276996E+02  0.1710083E+02  0.0000000E+00
Ar 2174  0.3090714E+02  0.2548242E+02  0.1708791E+02  0.0000000E+00
Ar 2175  0.3110223E+02  0.2260246E+02  0.1979752E+02  0.0000000E+00
Ar 2176  0.2797036E+02  0.2553125E+02  0.1993800E+02  0.0000000E+00
Ar 2177  0.2826802E+02  0.2244297E+02  0.2244298E+02  0.0000000E+00
Ar 2178  0.3087507E+02  0.2523604E+02  0.2235169E+02  0.0000000E+00
Ar 2179  0.3087507E+02  0.2235166E+02  0.2523607E+02  0.0000000E+00
Ar 2180  0.2805700E+02  0.2504505E+02  0.2504508E+02  0.0000000E+00
Ar 2181  0.2800813E+02  0.2264649E+02  0.2800814E+02  0.0000000E+00
Ar 2182  0.3120422E+02  0.2543294E+02  0.2818535E+02  0.0000000E+00
Ar 2183  0.3068929E+02  0.2257563E+02  0.3068931E+02  0.0000000E+00
Ar 2184  0.2818533E+02  0.2543293E+02  0.3120423E+02  0.0000000E+00
Ar 2185  0.2801750E+02  0.2270711E+02  0.3376469E+02  0.0000000E+00
Ar 2186  0.3083771E+02  0.2522153E+02  0.3366604E+02  0.0000000E+00
Ar 2187  0.3078960E+02  0.2281140E+02  0.3648929E+02  0.0000000E+00
Ar 2188  0.2815857E+02  0.2573635E+02  0.3626777E+02  0.0000000E+00
Ar 2189  0.2791679E+02  0.2241972E+02  0.3925016E+02  0.0000000E+00
Ar 2190  0.3064012E+02  0.2532412E+02  0.3944648E+02  0.0000000E+00
Ar 2191  0.3068715E+02  0.2263841E+02  0.4225004E+02  0.0000000E+00
Ar 2192  0.2817889E+02  0.2548739E+02  0.4197565E+02  0.0000000E+00
Ar 2193  0.2797866E+02  0.2267518E+02  0.4470304E+02  0.0000000E+00
Ar 2194  0.3091845E+02  0.2546255E+02  0.4473437E+02  0.0000000E+00
Ar 2195  0.3106232E+02  0.2263892E+02  0.4710405E+02  0.0000000E+00
Ar 2196  0.2821956E+02  0.2504637E+02  0.4749046E+02  0.0000000E+00
Ar 2197  0.2789027E+02  0.2219553E+02  0.4994456E+02  0.0000000E+00
Ar 2198  0.3106815E+02  0.2554227E+02  0.4976511E+02  0.0000000E+00
Ar 2199  0.3070503E+02  0.2239205E+02  0.5260491E+02  0.0000000E+00
Ar 2200  0.2804563E+02  0.2517451E+02  0.5219542E+02  0.0000000E+00
Ar 2201  0.2839014E+02  0.2839022E+02  0.5499505E+02  0.0000000E+00
Ar 2202  0.3084712E+02  0.3084710E+02  0.5558676E+02  0.0000000E+00
Ar 2203  0.3116065E+02  0.2801806E+02  0.3210401E+01  0.0000000E+00
Ar 2204  0.2801815E+02  0.3116064E+02  0.3210494E+01  0.0000000E+00
Ar 2205  0.2806770E+02  0.2806771E+02  0.6365295E+01  0.0000000E+00
Ar 2206  0.3045367E+02  0.3045358E+02  0.5805197E+01  0.0000000E+00
Ar 2207  0.3074390E+02  0.2811706E+02  0.8650883E+01  0.0000000E+00
Ar 2208  0.2811706E+02  0.3074387E+02  0.8650930E+01  0.0000000E+00
Ar 2209  0.2782047E+02  0.2782045E+02  0.1146017E+02  0.0000000E+00
Ar 2210  0.3064334E+02  0.3064332E+02  0.1172830E+02  0.0000000E+00
Ar 2211  0.3092056E+02  0.2791113E+02  0.1444528E+02  0.0000000E+00
Ar 2212  0.2791114E+02  0.3092053E+02  0.1444531E+02  0.0000000E+00
Ar 2213  0.2824370E+02  0.2824371E+02  0.1689416E+02  0.0000000E+00
Ar 2214  0.3076969E+02  0.3076968E+02  0.1706172E+02  0.0000000E+00
Ar 2215  0.3081540E+02  0.2807250E+02  0.1973700E+02  0.0000000E+00
Ar 2216  0.2807249E+02  0.3081540E+02  0.1973697E+02  0.0000000E+00
Ar 2217  0.2800812E+02  0.2800810E+02  0.2264652E+02  0.0000000E+00
Ar 2218  0.3068928E+02  0.3068927E+02  0.2257566E+02  0.0000000E+00
Ar 2219  0.3120422E+02  0.2818531E+02  0.2543297E+02  0.0000000E+00
Ar 2220  0.2818534E+02  0.3120420E+02  0.2543296E+02  0.0000000E+00
Ar 2221  0.2777383E+02  0.2777382E+02  0.2777384E+02  0.0000000E+00
Ar 2222  0.3119826E+02  0.3119826E+02  0.2800198E+02  0.0000000E+00
Ar 2223  0.3119826E+02  0.2800196E+02  0.3119827E+02  0.0000000E+00
Ar 2224  0.2800198E+02  0.3119824E+02  0.3119827E+02  0.0000000E+00
Ar 2225  0.2837291E+02  0.2837289E+02  0.3349665E+02  0.0000000E+00
Ar 2226  0.3095246E+02  0.3095246E+02  0.3369400E+02  0.0000000E+00
Ar 2227  0.3104572E+02  0.2814944E+02  0.3634873E+02  0.0000000E+00
Ar 2228  0.2814947E+02  0.3104570E+02  0.3634874E+02  0.0000000E+00
Ar 2229  0.2808587E+02  0.2808584E+02  0.3913513E+02  0.0000000E+00
Ar 2230  0.3082576E+02  0.3082574E+02  0.3925843E+02  0.0000000E+00
Ar 2231  0.3114375E+02  0.2817776E+02  0.4165652E+02  0.0000000E+00
Ar 2232  0.2817778E+02  0.3114371E+02  0.4165651E+02  0.0000000E+00
Ar 2233  0.2812437E+02  0.2812428E+02  0.4487738E+02  0.0000000E+00
Ar 2234  0.3090657E+02  0.3090652E+02  0.4406420E+02  0.0000000E+00
Ar 2235  0.3100262E+02  0.2799771E+02  0.4724968E+02  0.0000000E+00
Ar 2236  0.2799778E+02  0.3100261E+02  0.4724969E+02  0.0000000E+00
Ar 2237  0.2816400E+02  0.2816399E+02  0.5006342E+02  0.0000000E+00
Ar 2238  0.3063209E+02  0.3063201E+02  0.4978264E+02  0.0000000E+00
Ar 2239  0.3113100E+02  0.2840833E+02  0.5267629E+02  0.0000000E+00
Ar 2240  0.2840839E+02  0.3113101E+02  0.5267623E+02  0.0000000E+00
Ar 2241  0.2845511E+02  0.3376010E+02  0.7793864E+00  0.0000000E+00
Ar 2242  0.3134526E+02  0.3667363E+02  0.5621682E+00  0.0000000E+00
Ar 2243  0.3090243E+02  0.3353018E+02  0.3618896E+01  0.0000000E+00
Ar 2244  0.2761147E+02  0.3616862E+02  0.3265114E+01  0.0000000E+00
Ar 2245  0.2824361E+02  0.3373957E+02  0.6529175E+01  0.0000000E+00
Ar 2246  0.3067251E+02  0.3646526E+02  0.6661407E+01  0.0000000E+00
Ar 2247  0.3090059E+02  0.3346747E+02  0.9163321E+01  0.0000000E+00
Ar 2248  0.2777966E+02  0.3631502E+02  0.9189432E+01  0.0000000E+00
Ar 2249  0.2791136E+02  0.3347610E+02  0.1161066E+02  0.0000000E+00
Ar 2250  0.3075712E+02  0.3635572E+02  0.1161203E+02  0.0000000E+00
Ar 2251  0.3103451E+02  0.3356413E+02  0.1406326E+02  0.0000000E+00
Ar 2252  0.2796649E+02  0.3617565E+02  0.1378648E+02  0.0000000E+00
Ar 2253  0.2789305E+02  0.3381675E+02  0.1668291E+02  0.0000000E+00
Ar 2254  0.3083911E+02  0.3620510E+02  0.1720539E+02  0.0000000E+00
Ar 2255  0.3102463E+02  0.3365339E+02  0.2012008E+02  0.0000000E+00
Ar 2256  0.2813488E+02  0.3621884E+02  0.1999649E+02  0.0000000E+00
Ar 2257  0.2801748E+02  0.3376468E+02  0.2270714E+02  0.0000000E+00
Ar 2258  0.3078963E+02  0.3648932E+02  0.2281137E+02  0.0000000E+00
Ar 2259  0.3083770E+02  0.3366606E+02  0.2522151E+02  0.0000000E+00
Ar 2260  0.2815856E+02  0.3626775E+02  0.2573635E+02  0.0000000E+00
Ar 2261  0.2837291E+02  0.3349662E+02  0.2837291E+02  0.0000000E+00
Ar 2262  0.3104570E+02  0.3634870E+02  0.2814947E+02  0.0000000E+00
Ar 2263  0.3095246E+02  0.3369396E+02  0.3095248E+02  0.0000000E+00
Ar 2264  0.2814947E+02  0.3634870E+02  0.3104572E+02  0.0000000E+00
Ar 2265  0.2787439E+02  0.3394022E+02  0.3394025E+02  0.0000000E+00
Ar 2266  0.3082822E+02  0.3636615E+02  0.3383123E+02  0.0000000E+00
Ar 2267  0.3082821E+02  0.3383123E+02  0.3636622E+02  0.0000000E+00
Ar 2268  0.2816561E+02  0.3638008E+02  0.3638010E+02  0.0000000E+00
Ar 2269  0.2840896E+02  0.3376316E+02  0.3914730E+02  0.0000000E+00
Ar 2270  0.3121631E+02  0.3639804E+02  0.3901531E+02  0.0000000E+00
Ar 2271  0.3108796E+02  0.3371797E+02  0.4172941E+02  0.0000000E+00
Ar 2272  0.2844167E+02  0.3634694E+02  0.4164307E+02  0.0000000E+00
Ar 2273  0.2812745E+02  0.3381816E+02  0.4435577E+02  0.0000000E+00
Ar 2274  0.3112634E+02  0.3639637E+02  0.4456218E+02  0.0000000E+00
Ar 2275  0.3066502E+02  0.3340380E+02  0.4725896E+02  0.0000000E+00
Ar 2276  0.2823086E+02  0.3629292E+02  0.4714120E+02  0.0000000E+00
Ar 2277  0.2822617E+02  0.3377457E+02  0.4999853E+02  0.0000000E+00
Ar 2278  0.3086841E+02  0.3651056E+02  0.4983693E+02  0.0000000E+00
Ar 2279  0.3115063E+02  0.3387838E+02  0.5241164E+02  0.0000000E+00
Ar 2280  0.2781590E+02  0.3639898E+02  0.5285350E+02  0.0000000E+00
Ar 2281  0.2831303E+02  0.3926929E+02  0.5581469E+02  0.0000000E+00
Ar 2282  0.3107013E+02  0.4078902E+02  0.9105585E+00  0.0000000E+00
Ar 2283  0.3085882E+02  0.3846353E+02  0.3867551E+01  0.0000000E+00
Ar 2284  0.2805246E+02  0.4154646E+02  0.3426714E+01  0.0000000E+00
Ar 2285  0.2785462E+02  0.3915316E+02  0.6488444E+01  0.0000000E+00
Ar 2286  0.3089173E+02  0.4147015E+02  0.5973263E+01  0.0000000E+00
Ar 2287  0.3064964E+02  0.3918443E+02  0.9013497E+01  0.0000000E+00
Ar 2288  0.2795936E+02  0.4209142E+02  0.8774738E+01  0.0000000E+00
Ar 2289  0.2769891E+02  0.3931963E+02  0.1159758E+02  0.0000000E+00
Ar 2290  0.3058357E+02  0.4179782E+02  0.1152593E+02  0.0000000E+00
Ar 2291  0.3066750E+02  0.3857289E+02  0.1426873E+02  0.0000000E+00
Ar 2292  0.2813145E+02  0.4174622E+02  0.1415850E+02  0.0000000E+00
Ar 2293  0.2803924E+02  0.3901676E+02  0.1738301E+02  0.0000000E+00
Ar 2294  0.3053258E+02  0.4176019E+02  0.1698147E+02  0.0000000E+00
Ar 2295  0.3078449E+02  0.3886826E+02  0.1973378E+02  0.0000000E+00
Ar 2296  0.2813700E+02  0.4186802E+02  0.1978438E+02  0.0000000E+00
Ar 2297  0.2791677E+02  0.3925016E+02  0.2241973E+02  0.0000000E+00
Ar 2298  0.3068714E+02  0.4225002E+02  0.2263838E+02  0.0000000E+00
Ar 2299  0.3064011E+02  0.3944644E+02  0.2532414E+02  0.0000000E+00
Ar 2300  0.2817889E+02  0.4197561E+02  0.2548742E+02  0.0000000E+00
Ar 2301  0.2808585E+02  0.3913510E+02  0.2808586E+02  0.0000000E+00
Ar 2302  0.3114371E+02  0.4165647E+02  0.2817778E+02  0.0000000E+00
Ar 2303  0.3082575E+02  0.3925841E+02  0.3082576E+02  0.0000000E+00
Ar 2304  0.2817779E+02  0.4165650E+02  0.3114377E+02  0.0000000E+00
Ar 2305  0.2840894E+02  0.3914717E+02  0.3376305E+02  0.0000000E+00
Ar 2306  0.3108817E+02  0.4172936E+02  0.3371779E+02  0.0000000E+00
Ar 2307  0.3121656E+02  0.3901489E+02  0.3639778E+02  0.0000000E+00
Ar 2308  0.2844201E+02  0.4164231E+02  0.3634608E+02  0.0000000E+00
Ar 2309  0.2848607E+02  0.3903519E+02  0.3903530E+02  0.0000000E+00
Ar 2310  0.3118153E+02  0.4188584E+02  0.3932136E+02  0.0000000E+00
Ar 2311  0.3118174E+02  0.3932168E+02  0.4188637E+02  0.0000000E+00
Ar 2312  0.2830719E+02  0.4150361E+02  0.4150374E+02  0.0000000E+00
Ar 2313  0.2838212E+02  0.3875244E+02  0.4445557E+02  0.0000000E+00
Ar 2314  0.3075023E+02  0.4180321E+02  0.4432379E+02  0.0000000E+00
Ar 2315  0.3087121E+02  0.3894524E+02  0.4724017E+02  0.0000000E+00
Ar 2316  0.2814672E+02  0.4160737E+02  0.4688366E+02  0.0000000E+00
Ar 2317  0.2791385E+02  0.3902346E+02  0.5001718E+02  0.0000000E+00
Ar 2318  0.3072195E+02  0.4111284E+02  0.4986724E+02  0.0000000E+00
Ar 2319  0.3068082E+02  0.3881745E+02  0.5310125E+02  0.0000000E+00
Ar 2320  0.2848334E+02  0.4144773E+02  0.5322732E+02  0.0000000E+00
Ar 2321  0.2840896E+02  0.4420251E+02  0.9697802E+00  0.0000000E+00
Ar 2322  0.3069630E+02  0.4700368E+02  0.5589944E+02  0.0000000E+00
Ar 2323  0.3099781E+02  0.4435253E+02  0.3685457E+01  0.0000000E+00
Ar 2324  0.2800604E+02  0.4733776E+02  0.3421844E+01  0.0000000E+00
Ar 2325  0.2761771E+02  0.4459567E+02  0.5657030E+01  0.0000000E+00
Ar 2326  0.3041239E+02  0.4723921E+02  0.6361173E+01  0.0000000E+00
Ar 2327  0.3091347E+02  0.4482661E+02  0.9139802E+01  0.0000000E+00
Ar 2328  0.2775083E+02  0.4713988E+02  0.8924024E+01  0.0000000E+00
Ar 2329  0.2794395E+02  0.4460632E+02  0.1175615E+02  0.0000000E+00
Ar 2330  0.3065109E+02  0.4727762E+02  0.1183009E+02  0.0000000E+00
Ar 2331  0.3060510E+02  0.4492696E+02  0.1449475E+02  0.0000000E+00
Ar 2332  0.2794442E+02  0.4734476E+02  0.1438009E+02  0.0000000E+00
Ar 2333  0.2779857E+02  0.4422922E+02  0.1699197E+02  0.0000000E+00
Ar 2334  0.3069030E+02  0.4705368E+02  0.1726957E+02  0.0000000E+00
Ar 2335  0.3087932E+02  0.4439189E+02  0.1969365E+02  0.0000000E+00
Ar 2336  0.2790344E+02  0.4714694E+02  0.1992381E+02  0.0000000E+00
Ar 2337  0.2797865E+02  0.4470300E+02  0.2267519E+02  0.0000000E+00
Ar 2338  0.3106230E+02  0.4710395E+02  0.2263902E+02  0.0000000E+00
Ar 2339  0.3091838E+02  0.4473433E+02  0.2546258E+02  0.0000000E+00
Ar 2340  0.2821953E+02  0.4749043E+02  0.2504639E+02  0.0000000E+00
Ar 2341  0.2812435E+02  0.4487736E+02  0.2812431E+02  0.0000000E+00
Ar 2342  0.3100264E+02  0.4724964E+02  0.2799775E+02  0.0000000E+00
Ar 2343  0.3090654E+02  0.4406416E+02  0.3090656E+02  0.0000000E+00
Ar 2344  0.2799777E+02  0.4724966E+02  0.3100263E+02  0.0000000E+00
Ar 2345  0.2812748E+02  0.4435580E+02  0.3381821E+02  0.0000000E+00
Ar 2346  0.3066496E+02  0.4725892E+02  0.3340387E+02  0.0000000E+00
Ar 2347  0.3112650E+02  0.4456201E+02  0.3639615E+02  0.0000000E+00
Ar 2348  0.2823079E+02  0.4714133E+02  0.3629299E+02  0.0000000E+00
Ar 2349  0.2838243E+02  0.4445582E+02  0.3875239E+02  0.0000000E+00
Ar 2350  0.3087104E+02  0.4724054E+02  0.3894570E+02  0.0000000E+00
Ar 2351  0.3075034E+02  0.4432351E+02  0.4180205E+02  0.0000000E+00
Ar 2352  0.2814734E+02  0.4688548E+02  0.4160871E+02  0.0000000E+00
Ar 2353  0.2793311E+02  0.4404298E+02  0.4404284E+02  0.0000000E+00
Ar 2354  0.3081455E+02  0.4718564E+02  0.4452917E+02  0.0000000E+00
Ar 2355  0.3081486E+02  0.4453012E+02  0.4718685E+02  0.0000000E+00
Ar 2356  0.2778763E+02  0.4720273E+02  0.4719893E+02  0.0000000E+00
Ar 2357  0.2798683E+02  0.4433627E+02  0.4950069E+02  0.0000000E+00
Ar 2358  0.3117549E+02  0.4702118E+02  0.5005373E+02  0.0000000E+00
Ar 2359  0.3086333E+02  0.4420304E+02  0.5278243E+02  0.0000000E+00
Ar 2360  0.2857115E+02  0.4712903E+02  0.5251034E+02  0.0000000E+00
Ar 2361  0.2811336E+02  0.4970170E+02  0.5555049E+02  0.0000000E+00
Ar 2362  0.3143438E+02  0.5234344E+02  0.6303830E+00  0.0000000E+00
Ar 2363  0.3087108E+02  0.5011382E+02  0.3061124E+01  0.0000000E+00
Ar 2364  0.2828911E+02  0.5292012E+02  0.3001397E+01  0.0000000E+00
Ar 2365  0.2811517E+02  0.5005061E+02  0.6081977E+01  0.0000000E+00
Ar 2366  0.3067465E+02  0.5226999E+02  0.5988628E+01  0.0000000E+00
Ar 2367  0.3057545E+02  0.4977120E+02  0.9250615E+01  0.0000000E+00
Ar 2368  0.2799909E+02  0.5272586E+02  0.9020074E+01  0.0000000E+00
Ar 2369  0.2788147E+02  0.5009801E+02  0.1180044E+02  0.0000000E+00
Ar 2370  0.3077959E+02  0.5246080E+02  0.1181377E+02  0.0000000E+00
Ar 2371  0.3061261E+02  0.4993142E+02  0.1450842E+02  0.0000000E+00
Ar 2372  0.2809921E+02  0.5276210E+02  0.1472005E+02  0.0000000E+00
Ar 2373  0.2779006E+02  0.4981227E+02  0.1710145E+02  0.0000000E+00
Ar 2374  0.3075444E+02  0.5212285E+02  0.1704674E+02  0.0000000E+00
Ar 2375  0.3066379E+02  0.4967409E+02  0.1992194E+02  0.0000000E+00
Ar 2376  0.2777714E+02  0.5236566E+02  0.1961449E+02  0.0000000E+00
Ar 2377  0.2789021E+02  0.4994453E+02  0.2219560E+02  0.0000000E+00
Ar 2378  0.3070502E+02  0.5260487E+02  0.2239205E+02  0.0000000E+00
Ar 2379  0.3106810E+02  0.4976508E+02  0.2554232E+02  0.0000000E+00
Ar 2380  0.2804562E+02  0.5219542E+02  0.2517454E+02  0.0000000E+00
Ar 2381  0.2816399E+02  0.5006339E+02  0.2816401E+02  0.0000000E+00
Ar 2382  0.3113103E+02  0.5267630E+02  0.2840837E+02  0.0000000E+00
Ar 2383  0.3063209E+02  0.4978259E+02  0.3063202E+02  0.0000000E+00
Ar 2384  0.2840835E+02  0.5267611E+02  0.3113099E+02  0.0000000E+00
Ar 2385  0.2822616E+02  0.4999849E+02  0.3377460E+02  0.0000000E+00
Ar 2386  0.3115074E+02  0.5241166E+02  0.3387831E+02  0.0000000E+00
Ar 2387  0.3086862E+02  0.4983734E+02  0.3651060E+02  0.0000000E+00
Ar 2388  0.2781592E+02  0.5285365E+02  0.3639878E+02  0.0000000E+00
Ar 2389  0.2791449E+02  0.5001726E+02  0.3902358E+02  0.0000000E+00
Ar 2390  0.3068022E+02  0.5310155E+02  0.3881897E+02  0.0000000E+00
Ar 2391  0.3072181E+02  0.4986642E+02  0.4111499E+02  0.0000000E+00
Ar 2392  0.2848171E+02  0.5322627E+02  0.4145149E+02  0.0000000E+00
Ar 2393  0.2798913E+02  0.4950505E+02  0.4433493E+02  0.0000000E+00
Ar 2394  0.3087888E+02  0.5278656E+02  0.4418775E+02  0.0000000E+00
Ar 2395  0.3117792E+02  0.5005324E+02  0.4702437E+02  0.0000000E+00
Ar 2396  0.2857738E+02  0.5246932E+02  0.4709620E+02  0.0000000E+00
Ar 2397  0.2832482E+02  0.5010912E+02  0.5010445E+02  0.0000000E+00
Ar 2398  0.3116250E+02  0.5268795E+02  0.4981080E+02  0.0000000E+00
Ar 2399  0.3117944E+02  0.4982237E+02  0.5267426E+02  0.0000000E+00
Ar 2400  0.2788941E+02  0.5283735E+02  0.5284803E+02  0.0000000E+00
Ar 2401  0.3267508E+02  0.5551971E+02  0.6621930E+00  0.0000000E+00
Ar 2402  0.3540530E+02  0.3579069E+01  0.6629138E+00  0.0000000E+00
Ar 2403  0.3545762E+02  0.6009725E+00  0.3589583E+01  0.0000000E+00
Ar 2404  0.3333333E+02  0.3566179E+01  0.3587478E+01  0.0000000E+00
Ar 2405  0.3362425E+02  0.5554266E+02  0.6966748E+01  0.0000000E+00
Ar 2406  0.3556148E+02  0.3399624E+01  0.6676750E+01  0.0000000E+00
Ar 2407  0.3611731E+02  0.5247275E+00  0.9191713E+01  0.0000000E+00
Ar 2408  0.3330491E+02  0.3194259E+01  0.9224817E+01  0.0000000E+00
Ar 2409  0.3338544E+02  0.5542976E+02  0.1160882E+02  0.0000000E+00
Ar 2410  0.3607096E+02  0.3358035E+01  0.1159529E+02  0.0000000E+00
Ar 2411  0.3650209E+02  0.6196828E+00  0.1448202E+02  0.0000000E+00
Ar 2412  0.3343982E+02  0.3491879E+01  0.1406111E+02  0.0000000E+00
Ar 2413  0.3292752E+02  0.4063009E+00  0.1598218E+02  0.0000000E+00
Ar 2414  0.3644411E+02  0.2989673E+01  0.1733845E+02  0.0000000E+00
Ar 2415  0.3613521E+02  0.5537451E+02  0.2012016E+02  0.0000000E+00
Ar 2416  0.3361942E+02  0.2743924E+01  0.2000361E+02  0.0000000E+00
Ar 2417  0.3303143E+02  0.5557481E+02  0.2263164E+02  0.0000000E+00
Ar 2418  0.3610498E+02  0.3282511E+01  0.2274410E+02  0.0000000E+00
Ar 2419  0.3603553E+02  0.5572678E+02  0.2493215E+02  0.0000000E+00
Ar 2420  0.3351477E+02  0.3555657E+01  0.2523598E+02  0.0000000E+00
Ar 2421  0.3376023E+02  0.7794477E+00  0.2845538E+02  0.0000000E+00
Ar 2422  0.3616883E+02  0.3265044E+01  0.2761177E+02  0.0000000E+00
Ar 2423  0.3667358E+02  0.5615078E+00  0.3134484E+02  0.0000000E+00
Ar 2424  0.3353008E+02  0.3618799E+01  0.3090245E+02  0.0000000E+00
Ar 2425  0.3398746E+02  0.5485882E+02  0.3398742E+02  0.0000000E+00
Ar 2426  0.3603388E+02  0.3581386E+01  0.3354866E+02  0.0000000E+00
Ar 2427  0.3632026E+02  0.6360072E+00  0.3631983E+02  0.0000000E+00
Ar 2428  0.3354872E+02  0.3582236E+01  0.3603318E+02  0.0000000E+00
Ar 2429  0.3385442E+02  0.5567992E+02  0.3887310E+02  0.0000000E+00
Ar 2430  0.3632469E+02  0.3671989E+01  0.3909396E+02  0.0000000E+00
Ar 2431  0.3674932E+02  0.5576833E+02  0.4212281E+02  0.0000000E+00
Ar 2432  0.3355505E+02  0.3511006E+01  0.4174404E+02  0.0000000E+00
Ar 2433  0.3321336E+02  0.8448480E+00  0.4401527E+02  0.0000000E+00
Ar 2434  0.3624545E+02  0.3486617E+01  0.4454110E+02  0.0000000E+00
Ar 2435  0.3607606E+02  0.5559355E+02  0.4659118E+02  0.0000000E+00
Ar 2436  0.3309633E+02  0.3532036E+01  0.4699199E+02  0.0000000E+00
Ar 2437  0.3321582E+02  0.5581960E+02  0.4940122E+02  0.0000000E+00
Ar 2438  0.3678338E+02  0.2815497E+01  0.4995549E+02  0.0000000E+00
Ar 2439  0.3532318E+02  0.5590478E+02  0.5255973E+02  0.0000000E+00
Ar 2440  0.3355175E+02  0.4090067E+01  0.5268865E+02  0.0000000E+00
Ar 2441  0.3367848E+02  0.6960762E+01  0.5554449E+02  0.0000000E+00
Ar 2442  0.3609835E+02  0.9194730E+01  0.5512039E+00  0.0000000E+00
Ar 2443  0.3558212E+02  0.6680469E+01  0.3386832E+01  0.0000000E+00
Ar 2444  0.3331676E+02  0.9209774E+01  0.3181078E+01  0.0000000E+00
Ar 2445  0.3351008E+02  0.6251113E+01  0.6232862E+01  0.0000000E+00
Ar 2446  0.3620354E+02  0.9075872E+01  0.6124173E+01  0.0000000E+00
Ar 2447  0.3620355E+02  0.6139486E+01  0.9090870E+01  0.0000000E+00
Ar 2448  0.3307290E+02  0.8730658E+01  0.8730752E+01  0.0000000E+00
Ar 2449  0.3343925E+02  0.5932956E+01  0.1141999E+02  0.0000000E+00
Ar 2450  0.3595022E+02  0.8925855E+01  0.1168363E+02  0.0000000E+00
Ar 2451  0.3625259E+02  0.6078740E+01  0.1443720E+02  0.0000000E+00
Ar 2452  0.3336967E+02  0.8668352E+01  0.1442280E+02  0.0000000E+00
Ar 2453  0.3364382E+02  0.6021288E+01  0.1728284E+02  0.0000000E+00
Ar 2454  0.3608718E+02  0.8853987E+01  0.1733436E+02  0.0000000E+00
Ar 2455  0.3614261E+02  0.6037838E+01  0.1980922E+02  0.0000000E+00
Ar 2456  0.3350629E+02  0.8610724E+01  0.1989048E+02  0.0000000E+00
Ar 2457  0.3331235E+02  0.5945176E+01  0.2202902E+02  0.0000000E+00
Ar 2458  0.3636230E+02  0.8914893E+01  0.2235290E+02  0.0000000E+00
Ar 2459  0.3610190E+02  0.6283502E+01  0.2538548E+02  0.0000000E+00
Ar 2460  0.3364596E+02  0.9099554E+01  0.2534591E+02  0.0000000E+00
Ar 2461  0.3373976E+02  0.6529188E+01  0.2824380E+02  0.0000000E+00
Ar 2462  0.3631515E+02  0.9189338E+01  0.2777978E+02  0.0000000E+00
Ar 2463  0.3646704E+02  0.6658940E+01  0.3067263E+02  0.0000000E+00
Ar 2464  0.3346752E+02  0.9163244E+01  0.3090062E+02  0.0000000E+00
Ar 2465  0.3322728E+02  0.6497231E+01  0.3322728E+02  0.0000000E+00
Ar 2466  0.3645370E+02  0.9019746E+01  0.3345973E+02  0.0000000E+00
Ar 2467  0.3616510E+02  0.6258326E+01  0.3616514E+02  0.0000000E+00
Ar 2468  0.3345979E+02  0.9019806E+01  0.3645376E+02  0.0000000E+00
Ar 2469  0.3368431E+02  0.6139101E+01  0.3882902E+02  0.0000000E+00
Ar 2470  0.3628377E+02  0.9352602E+01  0.3887798E+02  0.0000000E+00
Ar 2471  0.3611066E+02  0.6482708E+01  0.4160450E+02  0.0000000E+00
Ar 2472  0.3333463E+02  0.9212474E+01  0.4201957E+02  0.0000000E+00
Ar 2473  0.3362059E+02  0.6225595E+01  0.4476693E+02  0.0000000E+00
Ar 2474  0.3653179E+02  0.8862887E+01  0.4479458E+02  0.0000000E+00
Ar 2475  0.3651440E+02  0.6214826E+01  0.4715445E+02  0.0000000E+00
Ar 2476  0.3365872E+02  0.9243194E+01  0.4744051E+02  0.0000000E+00
Ar 2477  0.3322129E+02  0.6112682E+01  0.4967471E+02  0.0000000E+00
Ar 2478  0.3640235E+02  0.9062543E+01  0.4993803E+02  0.0000000E+00
Ar 2479  0.3654899E+02  0.6540475E+01  0.5291256E+02  0.0000000E+00
Ar 2480  0.3365948E+02  0.9162110E+01  0.5266752E+02  0.0000000E+00
Ar 2481  0.3336508E+02  0.1161498E+02  0.5542267E+02  0.0000000E+00
Ar 2482  0.3650105E+02  0.1448259E+02  0.6206232E+00  0.0000000E+00
Ar 2483  0.3607220E+02  0.1160679E+02  0.3378917E+01  0.0000000E+00
Ar 2484  0.3343899E+02  0.1406246E+02  0.3492460E+01  0.0000000E+00
Ar 2485  0.3344235E+02  0.1141573E+02  0.5932744E+01  0.0000000E+00
Ar 2486  0.3625295E+02  0.1443825E+02  0.6078796E+01  0.0000000E+00
Ar 2487  0.3595117E+02  0.1168317E+02  0.8925224E+01  0.0000000E+00
Ar 2488  0.3336917E+02  0.1442285E+02  0.8669362E+01  0.0000000E+00
Ar 2489  0.3327410E+02  0.1163829E+02  0.1163843E+02  0.0000000E+00
Ar 2490  0.3625850E+02  0.1450531E+02  0.1151107E+02  0.0000000E+00
Ar 2491  0.3625851E+02  0.1151079E+02  0.1450491E+02  0.0000000E+00
Ar 2492  0.3365163E+02  0.1436338E+02  0.1436342E+02  0.0000000E+00
Ar 2493  0.3358558E+02  0.1132116E+02  0.1707200E+02  0.0000000E+00
Ar 2494  0.3602051E+02  0.1416264E+02  0.1712380E+02  0.0000000E+00
Ar 2495  0.3612190E+02  0.1155752E+02  0.1961458E+02  0.0000000E+00
Ar 2496  0.3340577E+02  0.1438580E+02  0.1978487E+02  0.0000000E+00
Ar 2497  0.3354839E+02  0.1132293E+02  0.2244866E+02  0.0000000E+00
Ar 2498  0.3619874E+02  0.1441988E+02  0.2251408E+02  0.0000000E+00
Ar 2499  0.3622355E+02  0.1157086E+02  0.2501942E+02  0.0000000E+00
Ar 2500  0.3371113E+02  0.1430408E+02  0.2522658E+02  0.0000000E+00
Ar 2501  0.3347614E+02  0.1161061E+02  0.2791142E+02  0.0000000E+00
Ar 2502  0.3617569E+02  0.1378649E+02  0.2796655E+02  0.0000000E+00
Ar 2503  0.3635576E+02  0.1161200E+02  0.3075713E+02  0.0000000E+00
Ar 2504  0.3356413E+02  0.1406328E+02  0.3103455E+02  0.0000000E+00
Ar 2505  0.3398544E+02  0.1152707E+02  0.3398553E+02  0.0000000E+00
Ar 2506  0.3628641E+02  0.1451048E+02  0.3358841E+02  0.0000000E+00
Ar 2507  0.3637009E+02  0.1207270E+02  0.3636975E+02  0.0000000E+00
Ar 2508  0.3358844E+02  0.1451061E+02  0.3628633E+02  0.0000000E+00
Ar 2509  0.3370293E+02  0.1174438E+02  0.3898984E+02  0.0000000E+00
Ar 2510  0.3656702E+02  0.1454858E+02  0.3944468E+02  0.0000000E+00
Ar 2511  0.3628457E+02  0.1173215E+02  0.4172190E+02  0.0000000E+00
Ar 2512  0.3338814E+02  0.1471557E+02  0.4167130E+02  0.0000000E+00
Ar 2513  0.3356183E+02  0.1194612E+02  0.4445293E+02  0.0000000E+00
Ar 2514  0.3633329E+02  0.1452312E+02  0.4451262E+02  0.0000000E+00
Ar 2515  0.3653566E+02  0.1171366E+02  0.4720935E+02  0.0000000E+00
Ar 2516  0.3339440E+02  0.1452670E+02  0.4728811E+02  0.0000000E+00
Ar 2517  0.3346189E+02  0.1169566E+02  0.4967521E+02  0.0000000E+00
Ar 2518  0.3644026E+02  0.1430375E+02  0.4994488E+02  0.0000000E+00
Ar 2519  0.3641567E+02  0.1156237E+02  0.5280257E+02  0.0000000E+00
Ar 2520  0.3352236E+02  0.1414993E+02  0.5227626E+02  0.0000000E+00
Ar 2521  0.3292767E+02  0.1598386E+02  0.4063589E+00  0.0000000E+00
Ar 2522  0.3613432E+02  0.2011902E+02  0.5537441E+02  0.0000000E+00
Ar 2523  0.3644415E+02  0.1733911E+02  0.2990723E+01  0.0000000E+00
Ar 2524  0.3361933E+02  0.2000376E+02  0.2743898E+01  0.0000000E+00
Ar 2525  0.3364381E+02  0.1728309E+02  0.6022125E+01  0.0000000E+00
Ar 2526  0.3614238E+02  0.1980932E+02  0.6038658E+01  0.0000000E+00
Ar 2527  0.3608764E+02  0.1733664E+02  0.8855252E+01  0.0000000E+00
Ar 2528  0.3350572E+02  0.1989109E+02  0.8611041E+01  0.0000000E+00
Ar 2529  0.3358480E+02  0.1707219E+02  0.1132226E+02  0.0000000E+00
Ar 2530  0.3612192E+02  0.1961496E+02  0.1155800E+02  0.0000000E+00
Ar 2531  0.3602053E+02  0.1712384E+02  0.1416275E+02  0.0000000E+00
Ar 2532  0.3340585E+02  0.1978493E+02  0.1438591E+02  0.0000000E+00
Ar 2533  0.3326146E+02  0.1697899E+02  0.1697909E+02  0.0000000E+00
Ar 2534  0.3647381E+02  0.1991470E+02  0.1713332E+02  0.0000000E+00
Ar 2535  0.3647379E+02  0.1713328E+02  0.1991470E+02  0.0000000E+00
Ar 2536  0.3391113E+02  0.1983975E+02  0.1983978E+02  0.0000000E+00
Ar 2537  0.3355868E+02  0.1697603E+02  0.2271966E+02  0.0000000E+00
Ar 2538  0.3629599E+02  0.1977488E+02  0.2261043E+02  0.0000000E+00
Ar 2539  0.3631922E+02  0.1708622E+02  0.2513022E+02  0.0000000E+00
Ar 2540  0.3389266E+02  0.1991250E+02  0.2532659E+02  0.0000000E+00
Ar 2541  0.3381671E+02  0.1668293E+02  0.2789315E+02  0.0000000E+00
Ar 2542  0.3621878E+02  0.1999654E+02  0.2813495E+02  0.0000000E+00
Ar 2543  0.3620507E+02  0.1720545E+02  0.3083919E+02  0.0000000E+00
Ar 2544  0.3365339E+02  0.2012006E+02  0.3102468E+02  0.0000000E+00
Ar 2545  0.3361267E+02  0.1737336E+02  0.3361269E+02  0.0000000E+00
Ar 2546  0.3618485E+02  0.1997588E+02  0.3367372E+02  0.0000000E+00
Ar 2547  0.3645247E+02  0.1696842E+02  0.3645234E+02  0.0000000E+00
Ar 2548  0.3367371E+02  0.1997592E+02  0.3618480E+02  0.0000000E+00
Ar 2549  0.3330161E+02  0.1719829E+02  0.3890463E+02  0.0000000E+00
Ar 2550  0.3649068E+02  0.2003727E+02  0.3893360E+02  0.0000000E+00
Ar 2551  0.3611188E+02  0.1756932E+02  0.4160511E+02  0.0000000E+00
Ar 2552  0.3348239E+02  0.1989988E+02  0.4208778E+02  0.0000000E+00
Ar 2553  0.3361517E+02  0.1701681E+02  0.4447038E+02  0.0000000E+00
Ar 2554  0.3643049E+02  0.1978065E+02  0.4467221E+02  0.0000000E+00
Ar 2555  0.3622849E+02  0.1700295E+02  0.4725248E+02  0.0000000E+00
Ar 2556  0.3331617E+02  0.1966123E+02  0.4731127E+02  0.0000000E+00
Ar 2557  0.3367294E+02  0.1698729E+02  0.5008307E+02  0.0000000E+00
Ar 2558  0.3633635E+02  0.1961873E+02  0.4970502E+02  0.0000000E+00
Ar 2559  0.3616398E+02  0.1696971E+02  0.5315835E+02  0.0000000E+00
Ar 2560  0.3368707E+02  0.1959425E+02  0.5286413E+02  0.0000000E+00
Ar 2561  0.3303137E+02  0.2263159E+02  0.5557482E+02  0.0000000E+00
Ar 2562  0.3603530E+02  0.2493247E+02  0.5572670E+02  0.0000000E+00
Ar 2563  0.3610482E+02  0.2274502E+02  0.3282259E+01  0.0000000E+00
Ar 2564  0.3351477E+02  0.2523598E+02  0.3555715E+01  0.0000000E+00
Ar 2565  0.3331236E+02  0.2202904E+02  0.5945078E+01  0.0000000E+00
Ar 2566  0.3610189E+02  0.2538549E+02  0.6283608E+01  0.0000000E+00
Ar 2567  0.3636222E+02  0.2235282E+02  0.8915073E+01  0.0000000E+00
Ar 2568  0.3364592E+02  0.2534586E+02  0.9099550E+01  0.0000000E+00
Ar 2569  0.3354838E+02  0.2244864E+02  0.1132298E+02  0.0000000E+00
Ar 2570  0.3622324E+02  0.2501935E+02  0.1157101E+02  0.0000000E+00
Ar 2571  0.3619883E+02  0.2251409E+02  0.1441998E+02  0.0000000E+00
Ar 2572  0.3371101E+02  0.2522651E+02  0.1430420E+02  0.0000000E+00
Ar 2573  0.3355870E+02  0.2271964E+02  0.1697606E+02  0.0000000E+00
Ar 2574  0.3631918E+02  0.2513020E+02  0.1708628E+02  0.0000000E+00
Ar 2575  0.3629598E+02  0.2261042E+02  0.1977490E+02  0.0000000E+00
Ar 2576  0.3389267E+02  0.2532657E+02  0.1991254E+02  0.0000000E+00
Ar 2577  0.3373445E+02  0.2275002E+02  0.2275004E+02  0.0000000E+00
Ar 2578  0.3655669E+02  0.2521187E+02  0.2265525E+02  0.0000000E+00
Ar 2579  0.3655668E+02  0.2265524E+02  0.2521189E+02  0.0000000E+00
Ar 2580  0.3372812E+02  0.2554661E+02  0.2554663E+02  0.0000000E+00
Ar 2581  0.3376465E+02  0.2270714E+02  0.2801750E+02  0.0000000E+00
Ar 2582  0.3626774E+02  0.2573636E+02  0.2815857E+02  0.0000000E+00
Ar 2583  0.3648932E+02  0.2281138E+02  0.3078962E+02  0.0000000E+00
Ar 2584  0.3366605E+02  0.2522151E+02  0.3083773E+02  0.0000000E+00
Ar 2585  0.3358345E+02  0.2278851E+02  0.3358347E+02  0.0000000E+00
Ar 2586  0.3629767E+02  0.2514103E+02  0.3353482E+02  0.0000000E+00
Ar 2587  0.3622632E+02  0.2290411E+02  0.3622623E+02  0.0000000E+00
Ar 2588  0.3353476E+02  0.2514104E+02  0.3629762E+02  0.0000000E+00
Ar 2589  0.3368958E+02  0.2258476E+02  0.3907043E+02  0.0000000E+00
Ar 2590  0.3637879E+02  0.2534707E+02  0.3904634E+02  0.0000000E+00
Ar 2591  0.3633516E+02  0.2256077E+02  0.4160860E+02  0.0000000E+00
Ar 2592  0.3370523E+02  0.2539599E+02  0.4175144E+02  0.0000000E+00
Ar 2593  0.3398966E+02  0.2255577E+02  0.4452438E+02  0.0000000E+00
Ar 2594  0.3653816E+02  0.2536821E+02  0.4450786E+02  0.0000000E+00
Ar 2595  0.3664706E+02  0.2280755E+02  0.4731336E+02  0.0000000E+00
Ar 2596  0.3390476E+02  0.2528941E+02  0.4737160E+02  0.0000000E+00
Ar 2597  0.3373469E+02  0.2240353E+02  0.5007668E+02  0.0000000E+00
Ar 2598  0.3650102E+02  0.2530117E+02  0.5008507E+02  0.0000000E+00
Ar 2599  0.3682985E+02  0.2238318E+02  0.5254948E+02  0.0000000E+00
Ar 2600  0.3368052E+02  0.2542112E+02  0.5249940E+02  0.0000000E+00
Ar 2601  0.3376028E+02  0.2845523E+02  0.7794213E+00  0.0000000E+00
Ar 2602  0.3667341E+02  0.3134499E+02  0.5618528E+00  0.0000000E+00
Ar 2603  0.3616883E+02  0.2761158E+02  0.3264992E+01  0.0000000E+00
Ar 2604  0.3353008E+02  0.3090234E+02  0.3618788E+01  0.0000000E+00
Ar 2605  0.3373974E+02  0.2824372E+02  0.6529164E+01  0.0000000E+00
Ar 2606  0.3646646E+02  0.3067261E+02  0.6659336E+01  0.0000000E+00
Ar 2607  0.3631500E+02  0.2777971E+02  0.9189188E+01  0.0000000E+00
Ar 2608  0.3346746E+02  0.3090058E+02  0.9163235E+01  0.0000000E+00
Ar 2609  0.3347616E+02  0.2791137E+02  0.1161058E+02  0.0000000E+00
Ar 2610  0.3635568E+02  0.3075708E+02  0.1161198E+02  0.0000000E+00
Ar 2611  0.3617547E+02  0.2796659E+02  0.1378669E+02  0.0000000E+00
Ar 2612  0.3356411E+02  0.3103449E+02  0.1406332E+02  0.0000000E+00
Ar 2613  0.3381670E+02  0.2789311E+02  0.1668298E+02  0.0000000E+00
Ar 2614  0.3620500E+02  0.3083915E+02  0.1720554E+02  0.0000000E+00
Ar 2615  0.3621879E+02  0.2813492E+02  0.1999657E+02  0.0000000E+00
Ar 2616  0.3365338E+02  0.3102463E+02  0.2012008E+02  0.0000000E+00
Ar 2617  0.3376465E+02  0.2801748E+02  0.2270716E+02  0.0000000E+00
Ar 2618  0.3648929E+02  0.3078959E+02  0.2281142E+02  0.0000000E+00
Ar 2619  0.3626775E+02  0.2815855E+02  0.2573637E+02  0.0000000E+00
Ar 2620  0.3366605E+02  0.3083771E+02  0.2522154E+02  0.0000000E+00
Ar 2621  0.3349663E+02  0.2837289E+02  0.2837292E+02  0.0000000E+00
Ar 2622  0.3634871E+02  0.3104570E+02  0.2814947E+02  0.0000000E+00
Ar 2623  0.3634873E+02  0.2814945E+02  0.3104573E+02  0.0000000E+00
Ar 2624  0.3369399E+02  0.3095245E+02  0.3095247E+02  0.0000000E+00
Ar 2625  0.3394025E+02  0.2787442E+02  0.3394026E+02  0.0000000E+00
Ar 2626  0.3636623E+02  0.3082821E+02  0.3383128E+02  0.0000000E+00
Ar 2627  0.3638014E+02  0.2816566E+02  0.3638019E+02  0.0000000E+00
Ar 2628  0.3383124E+02  0.3082820E+02  0.3636619E+02  0.0000000E+00
Ar 2629  0.3376305E+02  0.2840895E+02  0.3914722E+02  0.0000000E+00
Ar 2630  0.3639780E+02  0.3121655E+02  0.3901497E+02  0.0000000E+00
Ar 2631  0.3634611E+02  0.2844200E+02  0.4164242E+02  0.0000000E+00
Ar 2632  0.3371782E+02  0.3108816E+02  0.4172941E+02  0.0000000E+00
Ar 2633  0.3381820E+02  0.2812748E+02  0.4435580E+02  0.0000000E+00
Ar 2634  0.3639630E+02  0.3112658E+02  0.4456212E+02  0.0000000E+00
Ar 2635  0.3629304E+02  0.2823076E+02  0.4714135E+02  0.0000000E+00
Ar 2636  0.3340387E+02  0.3066492E+02  0.4725896E+02  0.0000000E+00
Ar 2637  0.3377462E+02  0.2822605E+02  0.4999854E+02  0.0000000E+00
Ar 2638  0.3651044E+02  0.3086843E+02  0.4983737E+02  0.0000000E+00
Ar 2639  0.3639877E+02  0.2781602E+02  0.5285360E+02  0.0000000E+00
Ar 2640  0.3387834E+02  0.3115056E+02  0.5241169E+02  0.0000000E+00
Ar 2641  0.3398763E+02  0.3398745E+02  0.5485871E+02  0.0000000E+00
Ar 2642  0.3631894E+02  0.3632144E+02  0.6359078E+00  0.0000000E+00
Ar 2643  0.3603337E+02  0.3354863E+02  0.3582028E+01  0.0000000E+00
Ar 2644  0.3354909E+02  0.3603345E+02  0.3581604E+01  0.0000000E+00
Ar 2645  0.3322729E+02  0.3322726E+02  0.6497251E+01  0.0000000E+00
Ar 2646  0.3616512E+02  0.3616515E+02  0.6258402E+01  0.0000000E+00
Ar 2647  0.3645367E+02  0.3345975E+02  0.9019767E+01  0.0000000E+00
Ar 2648  0.3345986E+02  0.3645380E+02  0.9019950E+01  0.0000000E+00
Ar 2649  0.3398547E+02  0.3398544E+02  0.1152705E+02  0.0000000E+00
Ar 2650  0.3637012E+02  0.3636966E+02  0.1207279E+02  0.0000000E+00
Ar 2651  0.3628631E+02  0.3358838E+02  0.1451062E+02  0.0000000E+00
Ar 2652  0.3358838E+02  0.3628641E+02  0.1451054E+02  0.0000000E+00
Ar 2653  0.3361267E+02  0.3361268E+02  0.1737339E+02  0.0000000E+00
Ar 2654  0.3645236E+02  0.3645243E+02  0.1696840E+02  0.0000000E+00
Ar 2655  0.3618481E+02  0.3367370E+02  0.1997592E+02  0.0000000E+00
Ar 2656  0.3367373E+02  0.3618481E+02  0.1997588E+02  0.0000000E+00
Ar 2657  0.3358345E+02  0.3358345E+02  0.2278852E+02  0.0000000E+00
Ar 2658  0.3622626E+02  0.3622631E+02  0.2290411E+02  0.0000000E+00
Ar 2659  0.3629766E+02  0.3353480E+02  0.2514104E+02  0.0000000E+00
Ar 2660  0.3353479E+02  0.3629766E+02  0.2514103E+02  0.0000000E+00
Ar 2661  0.3394028E+02  0.3394027E+02  0.2787443E+02  0.0000000E+00
Ar 2662  0.3638027E+02  0.3638027E+02  0.2816577E+02  0.0000000E+00
Ar 2663  0.3636622E+02  0.3383125E+02  0.3082821E+02  0.0000000E+00
Ar 2664  0.3383129E+02  0.3636619E+02  0.3082819E+02  0.0000000E+00
Ar 2665  0.3337977E+02  0.3337965E+02  0.3337959E+02  0.0000000E+00
Ar 2666  0.3635117E+02  0.3635114E+02  0.3355905E+02  0.0000000E+00
Ar 2667  0.3635122E+02  0.3355910E+02  0.3635115E+02  0.0000000E+00
Ar 2668  0.3355915E+02  0.3635117E+02  0.3635120E+02  0.0000000E+00
Ar 2669  0.3356335E+02  0.3356347E+02  0.3911886E+02  0.0000000E+00
Ar 2670  0.3633812E+02  0.3633811E+02  0.3894237E+02  0.0000000E+00
Ar 2671  0.3638566E+02  0.3388206E+02  0.4166458E+02  0.0000000E+00
Ar 2672  0.3388198E+02  0.3638585E+02  0.4166470E+02  0.0000000E+00
Ar 2673  0.3347032E+02  0.3347042E+02  0.4441629E+02  0.0000000E+00
Ar 2674  0.3611505E+02  0.3611533E+02  0.4458738E+02  0.0000000E+00
Ar 2675  0.3618221E+02  0.3356932E+02  0.4728129E+02  0.0000000E+00
Ar 2676  0.3356952E+02  0.3618208E+02  0.4728118E+02  0.0000000E+00
Ar 2677  0.3342364E+02  0.3342354E+02  0.4960021E+02  0.0000000E+00
Ar 2678  0.3627851E+02  0.3627825E+02  0.5005087E+02  0.0000000E+00
Ar 2679  0.3683350E+02  0.3408275E+02  0.5271990E+02  0.0000000E+00
Ar 2680  0.3408339E+02  0.3683394E+02  0.5272132E+02  0.0000000E+00
Ar 2681  0.3387297E+02  0.3889421E+02  0.5568143E+02  0.0000000E+00
Ar 2682  0.3673611E+02  0.4210801E+02  0.5576776E+02  0.0000000E+00
Ar 2683  0.3632520E+02  0.3909344E+02  0.3672703E+01  0.0000000E+00
Ar 2684  0.3355491E+02  0.4174441E+02  0.3507649E+01  0.0000000E+00
Ar 2685  0.3368450E+02  0.3882907E+02  0.6139433E+01  0.0000000E+00
Ar 2686  0.3611024E+02  0.4160464E+02  0.6482237E+01  0.0000000E+00
Ar 2687  0.3628386E+02  0.3887815E+02  0.9352472E+01  0.0000000E+00
Ar 2688  0.3333537E+02  0.4201760E+02  0.9214185E+01  0.0000000E+00
Ar 2689  0.3370279E+02  0.3898990E+02  0.1174417E+02  0.0000000E+00
Ar 2690  0.3628448E+02  0.4172197E+02  0.1173208E+02  0.0000000E+00
Ar 2691  0.3656704E+02  0.3944480E+02  0.1454848E+02  0.0000000E+00
Ar 2692  0.3338812E+02  0.4167140E+02  0.1471544E+02  0.0000000E+00
Ar 2693  0.3330160E+02  0.3890476E+02  0.1719813E+02  0.0000000E+00
Ar 2694  0.3611179E+02  0.4160521E+02  0.1756926E+02  0.0000000E+00
Ar 2695  0.3649059E+02  0.3893387E+02  0.2003722E+02  0.0000000E+00
Ar 2696  0.3348245E+02  0.4208795E+02  0.1989974E+02  0.0000000E+00
Ar 2697  0.3368967E+02  0.3907056E+02  0.2258475E+02  0.0000000E+00
Ar 2698  0.3633598E+02  0.4160930E+02  0.2256098E+02  0.0000000E+00
Ar 2699  0.3637948E+02  0.3904704E+02  0.2534718E+02  0.0000000E+00
Ar 2700  0.3370524E+02  0.4175141E+02  0.2539595E+02  0.0000000E+00
Ar 2701  0.3376317E+02  0.3914730E+02  0.2840896E+02  0.0000000E+00
Ar 2702  0.3634702E+02  0.4164318E+02  0.2844172E+02  0.0000000E+00
Ar 2703  0.3639806E+02  0.3901533E+02  0.3121630E+02  0.0000000E+00
Ar 2704  0.3371802E+02  0.4172938E+02  0.3108799E+02  0.0000000E+00
Ar 2705  0.3356353E+02  0.3911884E+02  0.3356331E+02  0.0000000E+00
Ar 2706  0.3638597E+02  0.4166477E+02  0.3388199E+02  0.0000000E+00
Ar 2707  0.3633817E+02  0.3894237E+02  0.3633810E+02  0.0000000E+00
Ar 2708  0.3388210E+02  0.4166449E+02  0.3638557E+02  0.0000000E+00
Ar 2709  0.3360908E+02  0.3907416E+02  0.3907410E+02  0.0000000E+00
Ar 2710  0.3647591E+02  0.4199630E+02  0.3928378E+02  0.0000000E+00
Ar 2711  0.3647580E+02  0.3928378E+02  0.4199660E+02  0.0000000E+00
Ar 2712  0.3400483E+02  0.4197989E+02  0.4198011E+02  0.0000000E+00
Ar 2713  0.3372622E+02  0.3914034E+02  0.4434100E+02  0.0000000E+00
Ar 2714  0.3652800E+02  0.4193656E+02  0.4471850E+02  0.0000000E+00
Ar 2715  0.3607344E+02  0.3914978E+02  0.4703380E+02  0.0000000E+00
Ar 2716  0.3342776E+02  0.4172438E+02  0.4698139E+02  0.0000000E+00
Ar 2717  0.3364743E+02  0.3884558E+02  0.4988277E+02  0.0000000E+00
Ar 2718  0.3646058E+02  0.4151864E+02  0.5007014E+02  0.0000000E+00
Ar 2719  0.3675311E+02  0.3921623E+02  0.5305494E+02  0.0000000E+00
Ar 2720  0.3347581E+02  0.4152838E+02  0.5294031E+02  0.0000000E+00
Ar 2721  0.3320389E+02  0.4401654E+02  0.8537905E+00  0.0000000E+00
Ar 2722  0.3608635E+02  0.4657168E+02  0.5561140E+02  0.0000000E+00
Ar 2723  0.3624765E+02  0.4453726E+02  0.3489007E+01  0.0000000E+00
Ar 2724  0.3310172E+02  0.4698938E+02  0.3537174E+01  0.0000000E+00
Ar 2725  0.3362835E+02  0.4476268E+02  0.6223907E+01  0.0000000E+00
Ar 2726  0.3653507E+02  0.4716054E+02  0.6202183E+01  0.0000000E+00
Ar 2727  0.3653428E+02  0.4479659E+02  0.8858832E+01  0.0000000E+00
Ar 2728  0.3365608E+02  0.4743842E+02  0.9245528E+01  0.0000000E+00
Ar 2729  0.3356172E+02  0.4445286E+02  0.1194597E+02  0.0000000E+00
Ar 2730  0.3653536E+02  0.4720797E+02  0.1171543E+02  0.0000000E+00
Ar 2731  0.3633291E+02  0.4451268E+02  0.1452330E+02  0.0000000E+00
Ar 2732  0.3339471E+02  0.4728848E+02  0.1452603E+02  0.0000000E+00
Ar 2733  0.3361518E+02  0.4447086E+02  0.1701642E+02  0.0000000E+00
Ar 2734  0.3622866E+02  0.4725255E+02  0.1700297E+02  0.0000000E+00
Ar 2735  0.3643084E+02  0.4467237E+02  0.1978093E+02  0.0000000E+00
Ar 2736  0.3331609E+02  0.4731120E+02  0.1966129E+02  0.0000000E+00
Ar 2737  0.3398964E+02  0.4452437E+02  0.2255581E+02  0.0000000E+00
Ar 2738  0.3664738E+02  0.4731333E+02  0.2280731E+02  0.0000000E+00
Ar 2739  0.3653872E+02  0.4450832E+02  0.2536792E+02  0.0000000E+00
Ar 2740  0.3390470E+02  0.4737157E+02  0.2528933E+02  0.0000000E+00
Ar 2741  0.3381814E+02  0.4435571E+02  0.2812746E+02  0.0000000E+00
Ar 2742  0.3629299E+02  0.4714115E+02  0.2823090E+02  0.0000000E+00
Ar 2743  0.3639663E+02  0.4456243E+02  0.3112663E+02  0.0000000E+00
Ar 2744  0.3340381E+02  0.4725892E+02  0.3066502E+02  0.0000000E+00
Ar 2745  0.3347046E+02  0.4441625E+02  0.3347034E+02  0.0000000E+00
Ar 2746  0.3618316E+02  0.4728199E+02  0.3356950E+02  0.0000000E+00
Ar 2747  0.3611555E+02  0.4458743E+02  0.3611487E+02  0.0000000E+00
Ar 2748  0.3356974E+02  0.4728125E+02  0.3618193E+02  0.0000000E+00
Ar 2749  0.3372681E+02  0.4434001E+02  0.3913937E+02  0.0000000E+00
Ar 2750  0.3607394E+02  0.4703320E+02  0.3914898E+02  0.0000000E+00
Ar 2751  0.3652839E+02  0.4471779E+02  0.4193607E+02  0.0000000E+00
Ar 2752  0.3342811E+02  0.4698017E+02  0.4172355E+02  0.0000000E+00
Ar 2753  0.3334855E+02  0.4465503E+02  0.4465539E+02  0.0000000E+00
Ar 2754  0.3660022E+02  0.4724691E+02  0.4438665E+02  0.0000000E+00
Ar 2755  0.3659786E+02  0.4438647E+02  0.4724735E+02  0.0000000E+00
Ar 2756  0.3392508E+02  0.4737696E+02  0.4737548E+02  0.0000000E+00
Ar 2757  0.3368887E+02  0.4422811E+02  0.4975759E+02  0.0000000E+00
Ar 2758  0.3620160E+02  0.4732728E+02  0.5048707E+02  0.0000000E+00
Ar 2759  0.3638860E+02  0.4458204E+02  0.5244506E+02  0.0000000E+00
Ar 2760  0.3326169E+02  0.4700219E+02  0.5306047E+02  0.0000000E+00
Ar 2761  0.3325328E+02  0.4940716E+02  0.5583073E+02  0.0000000E+00
Ar 2762  0.3525749E+02  0.5256738E+02  0.5591159E+02  0.0000000E+00
Ar 2763  0.3678036E+02  0.4996492E+02  0.2835436E+01  0.0000000E+00
Ar 2764  0.3356164E+02  0.5276219E+02  0.4113115E+01  0.0000000E+00
Ar 2765  0.3322432E+02  0.4967457E+02  0.6101868E+01  0.0000000E+00
Ar 2766  0.3654141E+02  0.5292634E+02  0.6554383E+01  0.0000000E+00
Ar 2767  0.3640402E+02  0.4993139E+02  0.9073494E+01  0.0000000E+00
Ar 2768  0.3363452E+02  0.5265315E+02  0.9188393E+01  0.0000000E+00
Ar 2769  0.3346085E+02  0.4967589E+02  0.1169746E+02  0.0000000E+00
Ar 2770  0.3640940E+02  0.5279515E+02  0.1157242E+02  0.0000000E+00
Ar 2771  0.3643860E+02  0.4994521E+02  0.1430442E+02  0.0000000E+00
Ar 2772  0.3352079E+02  0.5227648E+02  0.1415036E+02  0.0000000E+00
Ar 2773  0.3367286E+02  0.5008289E+02  0.1698751E+02  0.0000000E+00
Ar 2774  0.3616450E+02  0.5315826E+02  0.1696902E+02  0.0000000E+00
Ar 2775  0.3633655E+02  0.4970488E+02  0.1961884E+02  0.0000000E+00
Ar 2776  0.3368738E+02  0.5286416E+02  0.1959407E+02  0.0000000E+00
Ar 2777  0.3373462E+02  0.5007665E+02  0.2240358E+02  0.0000000E+00
Ar 2778  0.3682992E+02  0.5254941E+02  0.2238298E+02  0.0000000E+00
Ar 2779  0.3650096E+02  0.5008510E+02  0.2530097E+02  0.0000000E+00
Ar 2780  0.3368050E+02  0.5249940E+02  0.2542121E+02  0.0000000E+00
Ar 2781  0.3377462E+02  0.4999849E+02  0.2822610E+02  0.0000000E+00
Ar 2782  0.3639914E+02  0.5285345E+02  0.2781631E+02  0.0000000E+00
Ar 2783  0.3651046E+02  0.4983717E+02  0.3086835E+02  0.0000000E+00
Ar 2784  0.3387830E+02  0.5241162E+02  0.3115059E+02  0.0000000E+00
Ar 2785  0.3342375E+02  0.4960011E+02  0.3342351E+02  0.0000000E+00
Ar 2786  0.3683290E+02  0.5272069E+02  0.3408361E+02  0.0000000E+00
Ar 2787  0.3627860E+02  0.5005090E+02  0.3627849E+02  0.0000000E+00
Ar 2788  0.3408274E+02  0.5272007E+02  0.3683336E+02  0.0000000E+00
Ar 2789  0.3364699E+02  0.4988258E+02  0.3884623E+02  0.0000000E+00
Ar 2790  0.3675245E+02  0.5305745E+02  0.3921527E+02  0.0000000E+00
Ar 2791  0.3646292E+02  0.5006918E+02  0.4151668E+02  0.0000000E+00
Ar 2792  0.3347871E+02  0.5294022E+02  0.4152848E+02  0.0000000E+00
Ar 2793  0.3368965E+02  0.4975711E+02  0.4422600E+02  0.0000000E+00
Ar 2794  0.3639200E+02  0.5246048E+02  0.4459244E+02  0.0000000E+00
Ar 2795  0.3619981E+02  0.5048697E+02  0.4732572E+02  0.0000000E+00
Ar 2796  0.3325425E+02  0.5305303E+02  0.4699372E+02  0.0000000E+00
Ar 2797  0.3371035E+02  0.5029648E+02  0.5029661E+02  0.0000000E+00
Ar 2798  0.3597433E+02  0.5303421E+02  0.5007886E+02  0.0000000E+00
Ar 2799  0.3598087E+02  0.5013091E+02  0.5305106E+02  0.0000000E+00
Ar 2800  0.3312230E+02  0.5294537E+02  0.5290160E+02  0.0000000E+00
Ar 2801  0.3862853E+02  0.9513234E+00  0.9528552E+00  0.0000000E+00
Ar 2802  0.4104795E+02  0.3945852E+01  0.8090557E+00  0.0000000E+00
Ar 2803  0.4100906E+02  0.8568019E+00  0.3921173E+01  0.0000000E+00
Ar 2804  0.3706977E+02  0.3618450E+01  0.3642704E+01  0.0000000E+00
Ar 2805  0.3826367E+02  0.5146727E+00  0.6565280E+01  0.0000000E+00
Ar 2806  0.4139109E+02  0.3728498E+01  0.6426455E+01  0.0000000E+00
Ar 2807  0.4199745E+02  0.8065410E+00  0.8564805E+01  0.0000000E+00
Ar 2808  0.3896041E+02  0.3385173E+01  0.9359908E+01  0.0000000E+00
Ar 2809  0.3934708E+02  0.4189010E+00  0.1141546E+02  0.0000000E+00
Ar 2810  0.4221457E+02  0.3272362E+01  0.1181099E+02  0.0000000E+00
Ar 2811  0.4131612E+02  0.5189277E+00  0.1399440E+02  0.0000000E+00
Ar 2812  0.3915657E+02  0.3476608E+01  0.1406181E+02  0.0000000E+00
Ar 2813  0.3981548E+02  0.5566014E+02  0.1795496E+02  0.0000000E+00
Ar 2814  0.4186155E+02  0.3265402E+01  0.1678902E+02  0.0000000E+00
Ar 2815  0.4273639E+02  0.5565400E+02  0.2002732E+02  0.0000000E+00
Ar 2816  0.3881615E+02  0.3576147E+01  0.2029935E+02  0.0000000E+00
Ar 2817  0.3933005E+02  0.5567071E+02  0.2286272E+02  0.0000000E+00
Ar 2818  0.4164582E+02  0.3444794E+01  0.2261977E+02  0.0000000E+00
Ar 2819  0.4202607E+02  0.5561794E+02  0.2544091E+02  0.0000000E+00
Ar 2820  0.3923695E+02  0.3190280E+01  0.2518188E+02  0.0000000E+00
Ar 2821  0.3927094E+02  0.5581427E+02  0.2831620E+02  0.0000000E+00
Ar 2822  0.4154667E+02  0.3426250E+01  0.2805325E+02  0.0000000E+00
Ar 2823  0.4078910E+02  0.9103058E+00  0.3106793E+02  0.0000000E+00
Ar 2824  0.3846548E+02  0.3865281E+01  0.3086142E+02  0.0000000E+00
Ar 2825  0.3888116E+02  0.5568140E+02  0.3386230E+02  0.0000000E+00
Ar 2826  0.4174429E+02  0.3508854E+01  0.3355499E+02  0.0000000E+00
Ar 2827  0.4211396E+02  0.5576853E+02  0.3674151E+02  0.0000000E+00
Ar 2828  0.3909372E+02  0.3672479E+01  0.3632525E+02  0.0000000E+00
Ar 2829  0.3944353E+02  0.5587317E+02  0.3944326E+02  0.0000000E+00
Ar 2830  0.4191691E+02  0.3359834E+01  0.3877397E+02  0.0000000E+00
Ar 2831  0.4206183E+02  0.5573535E+02  0.4206164E+02  0.0000000E+00
Ar 2832  0.3877432E+02  0.3360763E+01  0.4191636E+02  0.0000000E+00
Ar 2833  0.3919013E+02  0.5587480E+02  0.4508689E+02  0.0000000E+00
Ar 2834  0.4176798E+02  0.3314820E+01  0.4434170E+02  0.0000000E+00
Ar 2835  0.4207239E+02  0.5598052E+02  0.4696856E+02  0.0000000E+00
Ar 2836  0.3922392E+02  0.3415342E+01  0.4720513E+02  0.0000000E+00
Ar 2837  0.3905147E+02  0.5502466E+02  0.5050149E+02  0.0000000E+00
Ar 2838  0.4124239E+02  0.3471275E+01  0.5028362E+02  0.0000000E+00
Ar 2839  0.4131165E+02  0.7696795E+00  0.5303992E+02  0.0000000E+00
Ar 2840  0.3875418E+02  0.2902173E+01  0.5341518E+02  0.0000000E+00
Ar 2841  0.3830316E+02  0.6563301E+01  0.5021609E+00  0.0000000E+00
Ar 2842  0.4204049E+02  0.8598558E+01  0.8278782E+00  0.0000000E+00
Ar 2843  0.4139316E+02  0.6422777E+01  0.3729368E+01  0.0000000E+00
Ar 2844  0.3896199E+02  0.9362386E+01  0.3388711E+01  0.0000000E+00
Ar 2845  0.3874983E+02  0.5903651E+01  0.5901600E+01  0.0000000E+00
Ar 2846  0.4198582E+02  0.9358389E+01  0.6235482E+01  0.0000000E+00
Ar 2847  0.4198657E+02  0.6237071E+01  0.9359253E+01  0.0000000E+00
Ar 2848  0.3897140E+02  0.8880198E+01  0.8880885E+01  0.0000000E+00
Ar 2849  0.3871891E+02  0.6226612E+01  0.1148738E+02  0.0000000E+00
Ar 2850  0.4182256E+02  0.8982811E+01  0.1181791E+02  0.0000000E+00
Ar 2851  0.4210505E+02  0.6230355E+01  0.1421744E+02  0.0000000E+00
Ar 2852  0.3875151E+02  0.8848564E+01  0.1402477E+02  0.0000000E+00
Ar 2853  0.3873012E+02  0.6119309E+01  0.1730012E+02  0.0000000E+00
Ar 2854  0.4169143E+02  0.8581208E+01  0.1694311E+02  0.0000000E+00
Ar 2855  0.4163209E+02  0.5887676E+01  0.1994170E+02  0.0000000E+00
Ar 2856  0.3890388E+02  0.8694259E+01  0.1980409E+02  0.0000000E+00
Ar 2857  0.3883149E+02  0.6040489E+01  0.2287534E+02  0.0000000E+00
Ar 2858  0.4182067E+02  0.8680629E+01  0.2253155E+02  0.0000000E+00
Ar 2859  0.4159880E+02  0.6171695E+01  0.2514406E+02  0.0000000E+00
Ar 2860  0.3916751E+02  0.8929501E+01  0.2504183E+02  0.0000000E+00
Ar 2861  0.3915354E+02  0.6487626E+01  0.2785513E+02  0.0000000E+00
Ar 2862  0.4209142E+02  0.8774744E+01  0.2795976E+02  0.0000000E+00
Ar 2863  0.4146989E+02  0.5972834E+01  0.3089156E+02  0.0000000E+00
Ar 2864  0.3918461E+02  0.9013503E+01  0.3065001E+02  0.0000000E+00
Ar 2865  0.3882919E+02  0.6138964E+01  0.3368444E+02  0.0000000E+00
Ar 2866  0.4201937E+02  0.9212823E+01  0.3333447E+02  0.0000000E+00
Ar 2867  0.4160440E+02  0.6482997E+01  0.3611071E+02  0.0000000E+00
Ar 2868  0.3887782E+02  0.9352708E+01  0.3628352E+02  0.0000000E+00
Ar 2869  0.3899071E+02  0.6448177E+01  0.3899093E+02  0.0000000E+00
Ar 2870  0.4165710E+02  0.9238344E+01  0.3901000E+02  0.0000000E+00
Ar 2871  0.4175941E+02  0.6129272E+01  0.4175932E+02  0.0000000E+00
Ar 2872  0.3901008E+02  0.9238329E+01  0.4165680E+02  0.0000000E+00
Ar 2873  0.3909050E+02  0.6270854E+01  0.4433805E+02  0.0000000E+00
Ar 2874  0.4156128E+02  0.8905024E+01  0.4452738E+02  0.0000000E+00
Ar 2875  0.4176929E+02  0.6424683E+01  0.4728854E+02  0.0000000E+00
Ar 2876  0.3904187E+02  0.9144778E+01  0.4744251E+02  0.0000000E+00
Ar 2877  0.3908844E+02  0.6303286E+01  0.5022634E+02  0.0000000E+00
Ar 2878  0.4190642E+02  0.8900295E+01  0.4992317E+02  0.0000000E+00
Ar 2879  0.4209130E+02  0.6167734E+01  0.5254211E+02  0.0000000E+00
Ar 2880  0.3931922E+02  0.8873275E+01  0.5268907E+02  0.0000000E+00
Ar 2881  0.3934817E+02  0.1144359E+02  0.4260633E+00  0.0000000E+00
Ar 2882  0.4133481E+02  0.1400406E+02  0.5179334E+00  0.0000000E+00
Ar 2883  0.4221772E+02  0.1181348E+02  0.3271370E+01  0.0000000E+00
Ar 2884  0.3915735E+02  0.1406339E+02  0.3477057E+01  0.0000000E+00
Ar 2885  0.3871826E+02  0.1148703E+02  0.6229635E+01  0.0000000E+00
Ar 2886  0.4210522E+02  0.1421750E+02  0.6230402E+01  0.0000000E+00
Ar 2887  0.4182276E+02  0.1181748E+02  0.8982549E+01  0.0000000E+00
Ar 2888  0.3875225E+02  0.1402528E+02  0.8849204E+01  0.0000000E+00
Ar 2889  0.3860493E+02  0.1138057E+02  0.1138071E+02  0.0000000E+00
Ar 2890  0.4194486E+02  0.1456708E+02  0.1148608E+02  0.0000000E+00
Ar 2891  0.4194486E+02  0.1148628E+02  0.1456739E+02  0.0000000E+00
Ar 2892  0.3943686E+02  0.1409105E+02  0.1409105E+02  0.0000000E+00
Ar 2893  0.3927070E+02  0.1133641E+02  0.1700771E+02  0.0000000E+00
Ar 2894  0.4189148E+02  0.1445090E+02  0.1701120E+02  0.0000000E+00
Ar 2895  0.4176577E+02  0.1154977E+02  0.1978186E+02  0.0000000E+00
Ar 2896  0.3880700E+02  0.1420025E+02  0.1950902E+02  0.0000000E+00
Ar 2897  0.3909923E+02  0.1147550E+02  0.2236875E+02  0.0000000E+00
Ar 2898  0.4202611E+02  0.1441165E+02  0.2269609E+02  0.0000000E+00
Ar 2899  0.4194180E+02  0.1160230E+02  0.2509672E+02  0.0000000E+00
Ar 2900  0.3870399E+02  0.1430481E+02  0.2539731E+02  0.0000000E+00
Ar 2901  0.3931963E+02  0.1159772E+02  0.2769906E+02  0.0000000E+00
Ar 2902  0.4174654E+02  0.1415838E+02  0.2813134E+02  0.0000000E+00
Ar 2903  0.4179838E+02  0.1152565E+02  0.3058389E+02  0.0000000E+00
Ar 2904  0.3857291E+02  0.1426877E+02  0.3066759E+02  0.0000000E+00
Ar 2905  0.3899013E+02  0.1174401E+02  0.3370258E+02  0.0000000E+00
Ar 2906  0.4167151E+02  0.1471532E+02  0.3338822E+02  0.0000000E+00
Ar 2907  0.4172191E+02  0.1173201E+02  0.3628433E+02  0.0000000E+00
Ar 2908  0.3944477E+02  0.1454856E+02  0.3656701E+02  0.0000000E+00
Ar 2909  0.3906232E+02  0.1189046E+02  0.3906208E+02  0.0000000E+00
Ar 2910  0.4187203E+02  0.1522280E+02  0.3902086E+02  0.0000000E+00
Ar 2911  0.4159609E+02  0.1217294E+02  0.4159585E+02  0.0000000E+00
Ar 2912  0.3902134E+02  0.1522273E+02  0.4187156E+02  0.0000000E+00
Ar 2913  0.3898171E+02  0.1166837E+02  0.4435851E+02  0.0000000E+00
Ar 2914  0.4163292E+02  0.1436780E+02  0.4475951E+02  0.0000000E+00
Ar 2915  0.4171246E+02  0.1186167E+02  0.4737664E+02  0.0000000E+00
Ar 2916  0.3926976E+02  0.1448797E+02  0.4762357E+02  0.0000000E+00
Ar 2917  0.3901969E+02  0.1153592E+02  0.5035616E+02  0.0000000E+00
Ar 2918  0.4192564E+02  0.1448081E+02  0.4999401E+02  0.0000000E+00
Ar 2919  0.4165637E+02  0.1158690E+02  0.5253882E+02  0.0000000E+00
Ar 2920  0.3902828E+02  0.1429401E+02  0.5275346E+02  0.0000000E+00
Ar 2921  0.3981745E+02  0.1795534E+02  0.5565936E+02  0.0000000E+00
Ar 2922  0.4273638E+02  0.2003025E+02  0.5565491E+02  0.0000000E+00
Ar 2923  0.4186364E+02  0.1679012E+02  0.3263154E+01  0.0000000E+00
Ar 2924  0.3881477E+02  0.2029841E+02  0.3576071E+01  0.0000000E+00
Ar 2925  0.3873127E+02  0.1730121E+02  0.6119045E+01  0.0000000E+00
Ar 2926  0.4163004E+02  0.1993954E+02  0.5890203E+01  0.0000000E+00
Ar 2927  0.4169145E+02  0.1694310E+02  0.8581487E+01  0.0000000E+00
Ar 2928  0.3890399E+02  0.1980424E+02  0.8694444E+01  0.0000000E+00
Ar 2929  0.3927078E+02  0.1700768E+02  0.1133658E+02  0.0000000E+00
Ar 2930  0.4176556E+02  0.1978167E+02  0.1155013E+02  0.0000000E+00
Ar 2931  0.4189147E+02  0.1701113E+02  0.1445097E+02  0.0000000E+00
Ar 2932  0.3880700E+02  0.1950899E+02  0.1420034E+02  0.0000000E+00
Ar 2933  0.3877372E+02  0.1719904E+02  0.1719910E+02  0.0000000E+00
Ar 2934  0.4158143E+02  0.1985775E+02  0.1713692E+02  0.0000000E+00
Ar 2935  0.4158147E+02  0.1713685E+02  0.1985783E+02  0.0000000E+00
Ar 2936  0.3913027E+02  0.1995768E+02  0.1995770E+02  0.0000000E+00
Ar 2937  0.3912988E+02  0.1696462E+02  0.2269448E+02  0.0000000E+00
Ar 2938  0.4192451E+02  0.2012129E+02  0.2267868E+02  0.0000000E+00
Ar 2939  0.4173008E+02  0.1710841E+02  0.2522871E+02  0.0000000E+00
Ar 2940  0.3924952E+02  0.2003912E+02  0.2506946E+02  0.0000000E+00
Ar 2941  0.3901690E+02  0.1738297E+02  0.2803930E+02  0.0000000E+00
Ar 2942  0.4186806E+02  0.1978436E+02  0.2813699E+02  0.0000000E+00
Ar 2943  0.4176018E+02  0.1698131E+02  0.3053259E+02  0.0000000E+00
Ar 2944  0.3886837E+02  0.1973372E+02  0.3078454E+02  0.0000000E+00
Ar 2945  0.3890490E+02  0.1719804E+02  0.3330162E+02  0.0000000E+00
Ar 2946  0.4208801E+02  0.1989965E+02  0.3348244E+02  0.0000000E+00
Ar 2947  0.4160530E+02  0.1756925E+02  0.3611168E+02  0.0000000E+00
Ar 2948  0.3893402E+02  0.2003718E+02  0.3649060E+02  0.0000000E+00
Ar 2949  0.3916490E+02  0.1761325E+02  0.3916432E+02  0.0000000E+00
Ar 2950  0.4208460E+02  0.1991986E+02  0.3920773E+02  0.0000000E+00
Ar 2951  0.4182481E+02  0.1759108E+02  0.4182420E+02  0.0000000E+00
Ar 2952  0.3920820E+02  0.1991997E+02  0.4208337E+02  0.0000000E+00
Ar 2953  0.3943622E+02  0.1734753E+02  0.4478367E+02  0.0000000E+00
Ar 2954  0.4182162E+02  0.2015985E+02  0.4453960E+02  0.0000000E+00
Ar 2955  0.4199893E+02  0.1731041E+02  0.4742497E+02  0.0000000E+00
Ar 2956  0.3915062E+02  0.1990969E+02  0.4731427E+02  0.0000000E+00
Ar 2957  0.3909969E+02  0.1710630E+02  0.5023078E+02  0.0000000E+00
Ar 2958  0.4192876E+02  0.1968149E+02  0.5022052E+02  0.0000000E+00
Ar 2959  0.4196129E+02  0.1698784E+02  0.5292409E+02  0.0000000E+00
Ar 2960  0.3921361E+02  0.1981409E+02  0.5253674E+02  0.0000000E+00
Ar 2961  0.3932993E+02  0.2286185E+02  0.5567081E+02  0.0000000E+00
Ar 2962  0.4202843E+02  0.2544126E+02  0.5561823E+02  0.0000000E+00
Ar 2963  0.4164532E+02  0.2261801E+02  0.3448055E+01  0.0000000E+00
Ar 2964  0.3923646E+02  0.2518147E+02  0.3190291E+01  0.0000000E+00
Ar 2965  0.3883062E+02  0.2287524E+02  0.6041158E+01  0.0000000E+00
Ar 2966  0.4159954E+02  0.2514343E+02  0.6171549E+01  0.0000000E+00
Ar 2967  0.4181919E+02  0.2253141E+02  0.8681912E+01  0.0000000E+00
Ar 2968  0.3916650E+02  0.2504216E+02  0.8930056E+01  0.0000000E+00
Ar 2969  0.3909899E+02  0.2236856E+02  0.1147605E+02  0.0000000E+00
Ar 2970  0.4194141E+02  0.2509697E+02  0.1160273E+02  0.0000000E+00
Ar 2971  0.4202606E+02  0.2269565E+02  0.1441218E+02  0.0000000E+00
Ar 2972  0.3870380E+02  0.2539724E+02  0.1430502E+02  0.0000000E+00
Ar 2973  0.3912989E+02  0.2269450E+02  0.1696465E+02  0.0000000E+00
Ar 2974  0.4173011E+02  0.2522866E+02  0.1710849E+02  0.0000000E+00
Ar 2975  0.4192451E+02  0.2267867E+02  0.2012130E+02  0.0000000E+00
Ar 2976  0.3924956E+02  0.2506947E+02  0.2003911E+02  0.0000000E+00
Ar 2977  0.3920014E+02  0.2269981E+02  0.2269981E+02  0.0000000E+00
Ar 2978  0.4175334E+02  0.2541775E+02  0.2270861E+02  0.0000000E+00
Ar 2979  0.4175334E+02  0.2270860E+02  0.2541776E+02  0.0000000E+00
Ar 2980  0.3940056E+02  0.2530569E+02  0.2530570E+02  0.0000000E+00
Ar 2981  0.3925014E+02  0.2241972E+02  0.2791680E+02  0.0000000E+00
Ar 2982  0.4197562E+02  0.2548742E+02  0.2817889E+02  0.0000000E+00
Ar 2983  0.4225005E+02  0.2263835E+02  0.3068717E+02  0.0000000E+00
Ar 2984  0.3944645E+02  0.2532412E+02  0.3064011E+02  0.0000000E+00
Ar 2985  0.3907059E+02  0.2258475E+02  0.3368982E+02  0.0000000E+00
Ar 2986  0.4175144E+02  0.2539591E+02  0.3370530E+02  0.0000000E+00
Ar 2987  0.4160955E+02  0.2256107E+02  0.3633635E+02  0.0000000E+00
Ar 2988  0.3904727E+02  0.2534723E+02  0.3637977E+02  0.0000000E+00
Ar 2989  0.3891980E+02  0.2270840E+02  0.3891986E+02  0.0000000E+00
Ar 2990  0.4174244E+02  0.2579184E+02  0.3885647E+02  0.0000000E+00
Ar 2991  0.4161256E+02  0.2244121E+02  0.4161097E+02  0.0000000E+00
Ar 2992  0.3885507E+02  0.2579269E+02  0.4174091E+02  0.0000000E+00
Ar 2993  0.3890259E+02  0.2266046E+02  0.4444121E+02  0.0000000E+00
Ar 2994  0.4151693E+02  0.2532846E+02  0.4436957E+02  0.0000000E+00
Ar 2995  0.4143731E+02  0.2281888E+02  0.4734455E+02  0.0000000E+00
Ar 2996  0.3904755E+02  0.2556095E+02  0.4730255E+02  0.0000000E+00
Ar 2997  0.3919148E+02  0.2246855E+02  0.5007631E+02  0.0000000E+00
Ar 2998  0.4159049E+02  0.2548572E+02  0.4998044E+02  0.0000000E+00
Ar 2999  0.4177203E+02  0.2307155E+02  0.5243892E+02  0.0000000E+00
Ar 3000  0.3922638E+02  0.2555054E+02  0.5299622E+02  0.0000000E+00
Ar 3001  0.3927191E+02  0.2831528E+02  0.5581422E+02  0.0000000E+00
Ar 3002  0.4079005E+02  0.3106769E+02  0.9115200E+00  0.0000000E+00
Ar 3003  0.4154737E+02  0.2805111E+02  0.3427339E+01  0.0000000E+00
Ar 3004  0.3846491E+02  0.3086053E+02  0.3865682E+01  0.0000000E+00
Ar 3005  0.3915345E+02  0.2785509E+02  0.6487935E+01  0.0000000E+00
Ar 3006  0.4147097E+02  0.3089038E+02  0.5973407E+01  0.0000000E+00
Ar 3007  0.4209149E+02  0.2795996E+02  0.8775129E+01  0.0000000E+00
Ar 3008  0.3918446E+02  0.3065044E+02  0.9013326E+01  0.0000000E+00
Ar 3009  0.3931833E+02  0.2769889E+02  0.1159895E+02  0.0000000E+00
Ar 3010  0.4179786E+02  0.3058444E+02  0.1152591E+02  0.0000000E+00
Ar 3011  0.4174633E+02  0.2813143E+02  0.1415849E+02  0.0000000E+00
Ar 3012  0.3857280E+02  0.3066750E+02  0.1426876E+02  0.0000000E+00
Ar 3013  0.3901678E+02  0.2803928E+02  0.1738306E+02  0.0000000E+00
Ar 3014  0.4176017E+02  0.3053257E+02  0.1698145E+02  0.0000000E+00
Ar 3015  0.4186803E+02  0.2813699E+02  0.1978442E+02  0.0000000E+00
Ar 3016  0.3886833E+02  0.3078447E+02  0.1973380E+02  0.0000000E+00
Ar 3017  0.3925015E+02  0.2791678E+02  0.2241975E+02  0.0000000E+00
Ar 3018  0.4225002E+02  0.3068713E+02  0.2263842E+02  0.0000000E+00
Ar 3019  0.4197563E+02  0.2817887E+02  0.2548742E+02  0.0000000E+00
Ar 3020  0.3944645E+02  0.3064008E+02  0.2532412E+02  0.0000000E+00
Ar 3021  0.3913509E+02  0.2808584E+02  0.2808585E+02  0.0000000E+00
Ar 3022  0.4165648E+02  0.3114369E+02  0.2817778E+02  0.0000000E+00
Ar 3023  0.4165648E+02  0.2817776E+02  0.3114372E+02  0.0000000E+00
Ar 3024  0.3925843E+02  0.3082574E+02  0.3082575E+02  0.0000000E+00
Ar 3025  0.3914735E+02  0.2840894E+02  0.3376324E+02  0.0000000E+00
Ar 3026  0.4172945E+02  0.3108793E+02  0.3371809E+02  0.0000000E+00
Ar 3027  0.4164347E+02  0.2844158E+02  0.3634739E+02  0.0000000E+00
Ar 3028  0.3901548E+02  0.3121626E+02  0.3639815E+02  0.0000000E+00
Ar 3029  0.3903540E+02  0.2848605E+02  0.3903532E+02  0.0000000E+00
Ar 3030  0.4188659E+02  0.3118176E+02  0.3932188E+02  0.0000000E+00
Ar 3031  0.4150404E+02  0.2830738E+02  0.4150392E+02  0.0000000E+00
Ar 3032  0.3932145E+02  0.3118144E+02  0.4188594E+02  0.0000000E+00
Ar 3033  0.3875274E+02  0.2838244E+02  0.4445614E+02  0.0000000E+00
Ar 3034  0.4180222E+02  0.3075047E+02  0.4432369E+02  0.0000000E+00
Ar 3035  0.4160894E+02  0.2814750E+02  0.4688607E+02  0.0000000E+00
Ar 3036  0.3894651E+02  0.3087091E+02  0.4724118E+02  0.0000000E+00
Ar 3037  0.3902388E+02  0.2791481E+02  0.5001726E+02  0.0000000E+00
Ar 3038  0.4111657E+02  0.3072236E+02  0.4986661E+02  0.0000000E+00
Ar 3039  0.4145185E+02  0.2848156E+02  0.5322616E+02  0.0000000E+00
Ar 3040  0.3881908E+02  0.3068007E+02  0.5310140E+02  0.0000000E+00
Ar 3041  0.3887136E+02  0.3385380E+02  0.5568033E+02  0.0000000E+00
Ar 3042  0.4212126E+02  0.3674936E+02  0.5576912E+02  0.0000000E+00
Ar 3043  0.4174679E+02  0.3355465E+02  0.3507451E+01  0.0000000E+00
Ar 3044  0.3909399E+02  0.3632481E+02  0.3672014E+01  0.0000000E+00
Ar 3045  0.3882900E+02  0.3368438E+02  0.6138994E+01  0.0000000E+00
Ar 3046  0.4160440E+02  0.3611052E+02  0.6482943E+01  0.0000000E+00
Ar 3047  0.4202039E+02  0.3333409E+02  0.9211927E+01  0.0000000E+00
Ar 3048  0.3887791E+02  0.3628342E+02  0.9352784E+01  0.0000000E+00
Ar 3049  0.3898994E+02  0.3370269E+02  0.1174432E+02  0.0000000E+00
Ar 3050  0.4172190E+02  0.3628437E+02  0.1173221E+02  0.0000000E+00
Ar 3051  0.4167126E+02  0.3338812E+02  0.1471551E+02  0.0000000E+00
Ar 3052  0.3944470E+02  0.3656701E+02  0.1454865E+02  0.0000000E+00
Ar 3053  0.3890468E+02  0.3330161E+02  0.1719825E+02  0.0000000E+00
Ar 3054  0.4160516E+02  0.3611178E+02  0.1756938E+02  0.0000000E+00
Ar 3055  0.4208784E+02  0.3348240E+02  0.1989986E+02  0.0000000E+00
Ar 3056  0.3893377E+02  0.3649065E+02  0.2003729E+02  0.0000000E+00
Ar 3057  0.3907053E+02  0.3368970E+02  0.2258480E+02  0.0000000E+00
Ar 3058  0.4160930E+02  0.3633597E+02  0.2256098E+02  0.0000000E+00
Ar 3059  0.4175143E+02  0.3370524E+02  0.2539596E+02  0.0000000E+00
Ar 3060  0.3904703E+02  0.3637948E+02  0.2534719E+02  0.0000000E+00
Ar 3061  0.3914730E+02  0.3376315E+02  0.2840895E+02  0.0000000E+00
Ar 3062  0.4164320E+02  0.3634700E+02  0.2844171E+02  0.0000000E+00
Ar 3063  0.4172944E+02  0.3371799E+02  0.3108804E+02  0.0000000E+00
Ar 3064  0.3901539E+02  0.3639802E+02  0.3121636E+02  0.0000000E+00
Ar 3065  0.3911890E+02  0.3356340E+02  0.3356347E+02  0.0000000E+00
Ar 3066  0.4166484E+02  0.3638588E+02  0.3388207E+02  0.0000000E+00
Ar 3067  0.4166485E+02  0.3388204E+02  0.3638594E+02  0.0000000E+00
Ar 3068  0.3894246E+02  0.3633806E+02  0.3633804E+02  0.0000000E+00
Ar 3069  0.3907413E+02  0.3360904E+02  0.3907413E+02  0.0000000E+00
Ar 3070  0.4199680E+02  0.3647560E+02  0.3928379E+02  0.0000000E+00
Ar 3071  0.4198036E+02  0.3400489E+02  0.4198007E+02  0.0000000E+00
Ar 3072  0.3928388E+02  0.3647566E+02  0.4199638E+02  0.0000000E+00
Ar 3073  0.3913981E+02  0.3372652E+02  0.4434034E+02  0.0000000E+00
Ar 3074  0.4193610E+02  0.3652797E+02  0.4471809E+02  0.0000000E+00
Ar 3075  0.4172336E+02  0.3342792E+02  0.4698024E+02  0.0000000E+00
Ar 3076  0.3914894E+02  0.3607353E+02  0.4703338E+02  0.0000000E+00
Ar 3077  0.3884634E+02  0.3364662E+02  0.4988237E+02  0.0000000E+00
Ar 3078  0.4151659E+02  0.3646344E+02  0.5006873E+02  0.0000000E+00
Ar 3079  0.4152850E+02  0.3348123E+02  0.5294092E+02  0.0000000E+00
Ar 3080  0.3921591E+02  0.3675214E+02  0.5305756E+02  0.0000000E+00
Ar 3081  0.3944294E+02  0.3944345E+02  0.5587327E+02  0.0000000E+00
Ar 3082  0.4206209E+02  0.4206192E+02  0.5573556E+02  0.0000000E+00
Ar 3083  0.4191624E+02  0.3877454E+02  0.3361205E+01  0.0000000E+00
Ar 3084  0.3877319E+02  0.4191681E+02  0.3358538E+01  0.0000000E+00
Ar 3085  0.3899058E+02  0.3899099E+02  0.6448357E+01  0.0000000E+00
Ar 3086  0.4176045E+02  0.4175813E+02  0.6129518E+01  0.0000000E+00
Ar 3087  0.4165708E+02  0.3900977E+02  0.9238458E+01  0.0000000E+00
Ar 3088  0.3901023E+02  0.4165670E+02  0.9238291E+01  0.0000000E+00
Ar 3089  0.3906232E+02  0.3906217E+02  0.1189054E+02  0.0000000E+00
Ar 3090  0.4159602E+02  0.4159618E+02  0.1217292E+02  0.0000000E+00
Ar 3091  0.4187175E+02  0.3902120E+02  0.1522287E+02  0.0000000E+00
Ar 3092  0.3902109E+02  0.4187189E+02  0.1522281E+02  0.0000000E+00
Ar 3093  0.3916460E+02  0.3916483E+02  0.1761335E+02  0.0000000E+00
Ar 3094  0.4182449E+02  0.4182460E+02  0.1759124E+02  0.0000000E+00
Ar 3095  0.4208426E+02  0.3920839E+02  0.1992025E+02  0.0000000E+00
Ar 3096  0.3920835E+02  0.4208429E+02  0.1992026E+02  0.0000000E+00
Ar 3097  0.3891986E+02  0.3891986E+02  0.2270843E+02  0.0000000E+00
Ar 3098  0.4161154E+02  0.4161156E+02  0.2244174E+02  0.0000000E+00
Ar 3099  0.4174206E+02  0.3885608E+02  0.2579211E+02  0.0000000E+00
Ar 3100  0.3885610E+02  0.4174203E+02  0.2579212E+02  0.0000000E+00
Ar 3101  0.3903555E+02  0.3903553E+02  0.2848606E+02  0.0000000E+00
Ar 3102  0.4150446E+02  0.4150440E+02  0.2830746E+02  0.0000000E+00
Ar 3103  0.4188645E+02  0.3932191E+02  0.3118149E+02  0.0000000E+00
Ar 3104  0.3932194E+02  0.4188642E+02  0.3118144E+02  0.0000000E+00
Ar 3105  0.3907414E+02  0.3907408E+02  0.3360900E+02  0.0000000E+00
Ar 3106  0.4198046E+02  0.4198041E+02  0.3400494E+02  0.0000000E+00
Ar 3107  0.4199674E+02  0.3928390E+02  0.3647548E+02  0.0000000E+00
Ar 3108  0.3928399E+02  0.4199659E+02  0.3647545E+02  0.0000000E+00
Ar 3109  0.3881556E+02  0.3881544E+02  0.3881548E+02  0.0000000E+00
Ar 3110  0.4179448E+02  0.4179417E+02  0.3920688E+02  0.0000000E+00
Ar 3111  0.4179440E+02  0.3920690E+02  0.4179414E+02  0.0000000E+00
Ar 3112  0.3920701E+02  0.4179447E+02  0.4179432E+02  0.0000000E+00
Ar 3113  0.3925199E+02  0.3925223E+02  0.4450406E+02  0.0000000E+00
Ar 3114  0.4184088E+02  0.4184054E+02  0.4454666E+02  0.0000000E+00
Ar 3115  0.4166199E+02  0.3917231E+02  0.4729437E+02  0.0000000E+00
Ar 3116  0.3917156E+02  0.4166353E+02  0.4729445E+02  0.0000000E+00
Ar 3117  0.3919932E+02  0.3920246E+02  0.5008664E+02  0.0000000E+00
Ar 3118  0.4193884E+02  0.4194054E+02  0.5016667E+02  0.0000000E+00
Ar 3119  0.4191395E+02  0.3916722E+02  0.5297230E+02  0.0000000E+00
Ar 3120  0.3916475E+02  0.4191619E+02  0.5297267E+02  0.0000000E+00
Ar 3121  0.3919571E+02  0.4506909E+02  0.5587429E+02  0.0000000E+00
Ar 3122  0.4206624E+02  0.4697661E+02  0.5597751E+02  0.0000000E+00
Ar 3123  0.4176989E+02  0.4434078E+02  0.3314968E+01  0.0000000E+00
Ar 3124  0.3922326E+02  0.4720603E+02  0.3409956E+01  0.0000000E+00
Ar 3125  0.3909143E+02  0.4433657E+02  0.6271318E+01  0.0000000E+00
Ar 3126  0.4177151E+02  0.4729202E+02  0.6424973E+01  0.0000000E+00
Ar 3127  0.4156180E+02  0.4452831E+02  0.8906197E+01  0.0000000E+00
Ar 3128  0.3904157E+02  0.4743692E+02  0.9146628E+01  0.0000000E+00
Ar 3129  0.3898134E+02  0.4435833E+02  0.1166907E+02  0.0000000E+00
Ar 3130  0.4171591E+02  0.4736702E+02  0.1187036E+02  0.0000000E+00
Ar 3131  0.4163347E+02  0.4475665E+02  0.1436977E+02  0.0000000E+00
Ar 3132  0.3926779E+02  0.4762265E+02  0.1449109E+02  0.0000000E+00
Ar 3133  0.3943653E+02  0.4478423E+02  0.1734809E+02  0.0000000E+00
Ar 3134  0.4199949E+02  0.4742540E+02  0.1731205E+02  0.0000000E+00
Ar 3135  0.4182169E+02  0.4454032E+02  0.2015918E+02  0.0000000E+00
Ar 3136  0.3915238E+02  0.4731564E+02  0.1991044E+02  0.0000000E+00
Ar 3137  0.3890313E+02  0.4444173E+02  0.2266027E+02  0.0000000E+00
Ar 3138  0.4143751E+02  0.4734412E+02  0.2281877E+02  0.0000000E+00
Ar 3139  0.4151710E+02  0.4436886E+02  0.2532818E+02  0.0000000E+00
Ar 3140  0.3904712E+02  0.4730255E+02  0.2556070E+02  0.0000000E+00
Ar 3141  0.3875325E+02  0.4445631E+02  0.2838219E+02  0.0000000E+00
Ar 3142  0.4160794E+02  0.4688505E+02  0.2814728E+02  0.0000000E+00
Ar 3143  0.4180332E+02  0.4432413E+02  0.3075035E+02  0.0000000E+00
Ar 3144  0.3894646E+02  0.4724125E+02  0.3087120E+02  0.0000000E+00
Ar 3145  0.3914098E+02  0.4434156E+02  0.3372622E+02  0.0000000E+00
Ar 3146  0.4172395E+02  0.4698142E+02  0.3342780E+02  0.0000000E+00
Ar 3147  0.4193658E+02  0.4471896E+02  0.3652761E+02  0.0000000E+00
Ar 3148  0.3914960E+02  0.4703426E+02  0.3607337E+02  0.0000000E+00
Ar 3149  0.3925241E+02  0.4450412E+02  0.3925186E+02  0.0000000E+00
Ar 3150  0.4166344E+02  0.4729425E+02  0.3917168E+02  0.0000000E+00
Ar 3151  0.4184094E+02  0.4454669E+02  0.4184069E+02  0.0000000E+00
Ar 3152  0.3917234E+02  0.4729467E+02  0.4166217E+02  0.0000000E+00
Ar 3153  0.3928910E+02  0.4437320E+02  0.4437385E+02  0.0000000E+00
Ar 3154  0.4185969E+02  0.4730780E+02  0.4458546E+02  0.0000000E+00
Ar 3155  0.4185973E+02  0.4458497E+02  0.4730743E+02  0.0000000E+00
Ar 3156  0.3916158E+02  0.4716337E+02  0.4716309E+02  0.0000000E+00
Ar 3157  0.3914207E+02  0.4421547E+02  0.5021487E+02  0.0000000E+00
Ar 3158  0.4161738E+02  0.4714385E+02  0.5004786E+02  0.0000000E+00
Ar 3159  0.4192060E+02  0.4455542E+02  0.5308611E+02  0.0000000E+00
Ar 3160  0.3888366E+02  0.4721024E+02  0.5287476E+02  0.0000000E+00
Ar 3161  0.3904516E+02  0.5050066E+02  0.5502211E+02  0.0000000E+00
Ar 3162  0.4131266E+02  0.5303072E+02  0.7601855E+00  0.0000000E+00
Ar 3163  0.4124073E+02  0.5027992E+02  0.3478738E+01  0.0000000E+00
Ar 3164  0.3879618E+02  0.5342279E+02  0.2869364E+01  0.0000000E+00
Ar 3165  0.3909599E+02  0.5024780E+02  0.6329386E+01  0.0000000E+00
Ar 3166  0.4208263E+02  0.5254368E+02  0.6186780E+01  0.0000000E+00
Ar 3167  0.4191960E+02  0.4990093E+02  0.8927015E+01  0.0000000E+00
Ar 3168  0.3930998E+02  0.5269627E+02  0.8880112E+01  0.0000000E+00
Ar 3169  0.3902323E+02  0.5035302E+02  0.1154306E+02  0.0000000E+00
Ar 3170  0.4165928E+02  0.5253701E+02  0.1157934E+02  0.0000000E+00
Ar 3171  0.4192728E+02  0.4999431E+02  0.1448093E+02  0.0000000E+00
Ar 3172  0.3902868E+02  0.5275392E+02  0.1429240E+02  0.0000000E+00
Ar 3173  0.3909962E+02  0.5023146E+02  0.1710569E+02  0.0000000E+00
Ar 3174  0.4196003E+02  0.5292312E+02  0.1698780E+02  0.0000000E+00
Ar 3175  0.4192819E+02  0.5022258E+02  0.1968249E+02  0.0000000E+00
Ar 3176  0.3921299E+02  0.5253744E+02  0.1981366E+02  0.0000000E+00
Ar 3177  0.3919320E+02  0.5007799E+02  0.2246799E+02  0.0000000E+00
Ar 3178  0.4177420E+02  0.5244153E+02  0.2307449E+02  0.0000000E+00
Ar 3179  0.4158888E+02  0.4997972E+02  0.2548336E+02  0.0000000E+00
Ar 3180  0.3922620E+02  0.5299720E+02  0.2554951E+02  0.0000000E+00
Ar 3181  0.3902386E+02  0.5001717E+02  0.2791462E+02  0.0000000E+00
Ar 3182  0.4144803E+02  0.5322701E+02  0.2848331E+02  0.0000000E+00
Ar 3183  0.4111575E+02  0.4986701E+02  0.3072294E+02  0.0000000E+00
Ar 3184  0.3881837E+02  0.5310103E+02  0.3068163E+02  0.0000000E+00
Ar 3185  0.3884597E+02  0.4988323E+02  0.3364668E+02  0.0000000E+00
Ar 3186  0.4152961E+02  0.5294228E+02  0.3348007E+02  0.0000000E+00
Ar 3187  0.4151808E+02  0.5006900E+02  0.3646204E+02  0.0000000E+00
Ar 3188  0.3921637E+02  0.5305585E+02  0.3675262E+02  0.0000000E+00
Ar 3189  0.3920176E+02  0.5008679E+02  0.3920024E+02  0.0000000E+00
Ar 3190  0.4191486E+02  0.5297275E+02  0.3916629E+02  0.0000000E+00
Ar 3191  0.4193983E+02  0.5016663E+02  0.4193973E+02  0.0000000E+00
Ar 3192  0.3916687E+02  0.5297176E+02  0.4191462E+02  0.0000000E+00
Ar 3193  0.3914247E+02  0.5021467E+02  0.4421609E+02  0.0000000E+00
Ar 3194  0.4192022E+02  0.5308780E+02  0.4455589E+02  0.0000000E+00
Ar 3195  0.4161536E+02  0.5004879E+02  0.4714551E+02  0.0000000E+00
Ar 3196  0.3888325E+02  0.5287193E+02  0.4721042E+02  0.0000000E+00
Ar 3197  0.3897218E+02  0.5046127E+02  0.5046144E+02  0.0000000E+00
Ar 3198  0.4208674E+02  0.5321607E+02  0.4958259E+02  0.0000000E+00
Ar 3199  0.4208613E+02  0.4958573E+02  0.5321664E+02  0.0000000E+00
Ar 3200  0.4066373E+02  0.5263121E+02  0.5263115E+02  0.0000000E+00
Ar 3201  0.4362828E+02  0.1269202E+01  0.1276277E+01  0.0000000E+00
Ar 3202  0.4728949E+02  0.2901641E+01  0.3908029E+00  0.0000000E+00
Ar 3203  0.4729351E+02  0.3896489E+00  0.2892952E+01  0.0000000E+00
Ar 3204  0.4423937E+02  0.3886278E+01  0.3897763E+01  0.0000000E+00
Ar 3205  0.4451399E+02  0.6844517E+00  0.5259727E+01  0.0000000E+00
Ar 3206  0.4765156E+02  0.3727850E+01  0.6401633E+01  0.0000000E+00
Ar 3207  0.4781403E+02  0.6276979E+00  0.1018274E+02  0.0000000E+00
Ar 3208  0.4477534E+02  0.3306659E+01  0.8478454E+01  0.0000000E+00
Ar 3209  0.4464238E+02  0.5559419E+02  0.1178101E+02  0.0000000E+00
Ar 3210  0.4725551E+02  0.3651370E+01  0.1220433E+02  0.0000000E+00
Ar 3211  0.4715723E+02  0.6840689E+00  0.1442701E+02  0.0000000E+00
Ar 3212  0.4447822E+02  0.3304682E+01  0.1431147E+02  0.0000000E+00
Ar 3213  0.4446196E+02  0.5577553E+02  0.1691099E+02  0.0000000E+00
Ar 3214  0.4713682E+02  0.3320934E+01  0.1694134E+02  0.0000000E+00
Ar 3215  0.4773247E+02  0.6031013E+00  0.2026552E+02  0.0000000E+00
Ar 3216  0.4474339E+02  0.3132604E+01  0.1983986E+02  0.0000000E+00
Ar 3217  0.4446821E+02  0.5514052E+02  0.2262151E+02  0.0000000E+00
Ar 3218  0.4687823E+02  0.3294299E+01  0.2281754E+02  0.0000000E+00
Ar 3219  0.4746654E+02  0.6364273E+00  0.2548833E+02  0.0000000E+00
Ar 3220  0.4439630E+02  0.3069402E+01  0.2534715E+02  0.0000000E+00
Ar 3221  0.4421436E+02  0.9684904E+00  0.2841491E+02  0.0000000E+00
Ar 3222  0.4733673E+02  0.3415483E+01  0.2800493E+02  0.0000000E+00
Ar 3223  0.4656423E+02  0.5685534E+00  0.3029287E+02  0.0000000E+00
Ar 3224  0.4435355E+02  0.3686483E+01  0.3099860E+02  0.0000000E+00
Ar 3225  0.4401909E+02  0.8514428E+00  0.3321119E+02  0.0000000E+00
Ar 3226  0.4699155E+02  0.3531933E+01  0.3310314E+02  0.0000000E+00
Ar 3227  0.4657774E+02  0.5560359E+02  0.3608150E+02  0.0000000E+00
Ar 3228  0.4453875E+02  0.3488109E+01  0.3624653E+02  0.0000000E+00
Ar 3229  0.4507312E+02  0.5587470E+02  0.3919467E+02  0.0000000E+00
Ar 3230  0.4720404E+02  0.3413430E+01  0.3921935E+02  0.0000000E+00
Ar 3231  0.4697753E+02  0.5597793E+02  0.4206707E+02  0.0000000E+00
Ar 3232  0.4434282E+02  0.3313882E+01  0.4176808E+02  0.0000000E+00
Ar 3233  0.4444203E+02  0.5569309E+02  0.4443088E+02  0.0000000E+00
Ar 3234  0.4743292E+02  0.3457007E+01  0.4410607E+02  0.0000000E+00
Ar 3235  0.4678833E+02  0.5534032E+02  0.4678369E+02  0.0000000E+00
Ar 3236  0.4410842E+02  0.3462006E+01  0.4743709E+02  0.0000000E+00
Ar 3237  0.4474646E+02  0.5551664E+02  0.5029631E+02  0.0000000E+00
Ar 3238  0.4698638E+02  0.3149394E+01  0.4968128E+02  0.0000000E+00
Ar 3239  0.4751712E+02  0.5563748E+02  0.5294192E+02  0.0000000E+00
Ar 3240  0.4446418E+02  0.3363281E+01  0.5245615E+02  0.0000000E+00
Ar 3241  0.4450308E+02  0.5250023E+01  0.6909597E+00  0.0000000E+00
Ar 3242  0.4782755E+02  0.1020347E+02  0.6264849E+00  0.0000000E+00
Ar 3243  0.4765372E+02  0.6404690E+01  0.3723838E+01  0.0000000E+00
Ar 3244  0.4477773E+02  0.8483419E+01  0.3308981E+01  0.0000000E+00
Ar 3245  0.4462030E+02  0.6672941E+01  0.6671274E+01  0.0000000E+00
Ar 3246  0.4753843E+02  0.9098798E+01  0.6516711E+01  0.0000000E+00
Ar 3247  0.4753771E+02  0.6516950E+01  0.9099518E+01  0.0000000E+00
Ar 3248  0.4443414E+02  0.9230798E+01  0.9231330E+01  0.0000000E+00
Ar 3249  0.4491221E+02  0.6426028E+01  0.1170043E+02  0.0000000E+00
Ar 3250  0.4734534E+02  0.9044947E+01  0.1186007E+02  0.0000000E+00
Ar 3251  0.4713960E+02  0.6506132E+01  0.1435324E+02  0.0000000E+00
Ar 3252  0.4463551E+02  0.9054766E+01  0.1447929E+02  0.0000000E+00
Ar 3253  0.4454327E+02  0.5998254E+01  0.1683207E+02  0.0000000E+00
Ar 3254  0.4728599E+02  0.9122355E+01  0.1729747E+02  0.0000000E+00
Ar 3255  0.4709401E+02  0.5927880E+01  0.1948128E+02  0.0000000E+00
Ar 3256  0.4431720E+02  0.8708774E+01  0.1960639E+02  0.0000000E+00
Ar 3257  0.4458418E+02  0.6053186E+01  0.2263093E+02  0.0000000E+00
Ar 3258  0.4706411E+02  0.8502236E+01  0.2225059E+02  0.0000000E+00
Ar 3259  0.4742133E+02  0.5977586E+01  0.2526719E+02  0.0000000E+00
Ar 3260  0.4446520E+02  0.8646990E+01  0.2528246E+02  0.0000000E+00
Ar 3261  0.4459685E+02  0.5656475E+01  0.2761822E+02  0.0000000E+00
Ar 3262  0.4714028E+02  0.8924188E+01  0.2775046E+02  0.0000000E+00
Ar 3263  0.4723824E+02  0.6362218E+01  0.3041149E+02  0.0000000E+00
Ar 3264  0.4482832E+02  0.9138165E+01  0.3091329E+02  0.0000000E+00
Ar 3265  0.4476570E+02  0.6223398E+01  0.3362460E+02  0.0000000E+00
Ar 3266  0.4743928E+02  0.9244609E+01  0.3365736E+02  0.0000000E+00
Ar 3267  0.4715734E+02  0.6206884E+01  0.3652505E+02  0.0000000E+00
Ar 3268  0.4479594E+02  0.8859786E+01  0.3653310E+02  0.0000000E+00
Ar 3269  0.4433772E+02  0.6270997E+01  0.3909072E+02  0.0000000E+00
Ar 3270  0.4743952E+02  0.9144780E+01  0.3904080E+02  0.0000000E+00
Ar 3271  0.4729188E+02  0.6424289E+01  0.4177072E+02  0.0000000E+00
Ar 3272  0.4452840E+02  0.8905478E+01  0.4156103E+02  0.0000000E+00
Ar 3273  0.4418881E+02  0.6246875E+01  0.4418791E+02  0.0000000E+00
Ar 3274  0.4706716E+02  0.9423281E+01  0.4456533E+02  0.0000000E+00
Ar 3275  0.4692135E+02  0.6275457E+01  0.4693012E+02  0.0000000E+00
Ar 3276  0.4456571E+02  0.9420913E+01  0.4706727E+02  0.0000000E+00
Ar 3277  0.4451448E+02  0.6202029E+01  0.4992061E+02  0.0000000E+00
Ar 3278  0.4731108E+02  0.8945417E+01  0.4976904E+02  0.0000000E+00
Ar 3279  0.4697407E+02  0.6528074E+01  0.5321838E+02  0.0000000E+00
Ar 3280  0.4453723E+02  0.9225724E+01  0.5278633E+02  0.0000000E+00
Ar 3281  0.4465737E+02  0.1177001E+02  0.5559372E+02  0.0000000E+00
Ar 3282  0.4715684E+02  0.1442693E+02  0.6836248E+00  0.0000000E+00
Ar 3283  0.4725224E+02  0.1220392E+02  0.3654314E+01  0.0000000E+00
Ar 3284  0.4447873E+02  0.1431407E+02  0.3302117E+01  0.0000000E+00
Ar 3285  0.4491152E+02  0.1169971E+02  0.6426825E+01  0.0000000E+00
Ar 3286  0.4713840E+02  0.1435530E+02  0.6509554E+01  0.0000000E+00
Ar 3287  0.4734511E+02  0.1185969E+02  0.9044985E+01  0.0000000E+00
Ar 3288  0.4463521E+02  0.1447921E+02  0.9055123E+01  0.0000000E+00
Ar 3289  0.4479355E+02  0.1195465E+02  0.1195458E+02  0.0000000E+00
Ar 3290  0.4748961E+02  0.1449858E+02  0.1150778E+02  0.0000000E+00
Ar 3291  0.4748965E+02  0.1150796E+02  0.1449866E+02  0.0000000E+00
Ar 3292  0.4486990E+02  0.1458118E+02  0.1458120E+02  0.0000000E+00
Ar 3293  0.4457545E+02  0.1163565E+02  0.1744580E+02  0.0000000E+00
Ar 3294  0.4721227E+02  0.1421023E+02  0.1704519E+02  0.0000000E+00
Ar 3295  0.4726567E+02  0.1178040E+02  0.1975076E+02  0.0000000E+00
Ar 3296  0.4457279E+02  0.1463247E+02  0.1983279E+02  0.0000000E+00
Ar 3297  0.4443397E+02  0.1152610E+02  0.2240393E+02  0.0000000E+00
Ar 3298  0.4745165E+02  0.1432695E+02  0.2228000E+02  0.0000000E+00
Ar 3299  0.4725591E+02  0.1181113E+02  0.2484269E+02  0.0000000E+00
Ar 3300  0.4460588E+02  0.1448310E+02  0.2501895E+02  0.0000000E+00
Ar 3301  0.4460624E+02  0.1175627E+02  0.2794394E+02  0.0000000E+00
Ar 3302  0.4734477E+02  0.1438006E+02  0.2794421E+02  0.0000000E+00
Ar 3303  0.4727759E+02  0.1182965E+02  0.3065076E+02  0.0000000E+00
Ar 3304  0.4492726E+02  0.1449474E+02  0.3060544E+02  0.0000000E+00
Ar 3305  0.4445279E+02  0.1194565E+02  0.3356160E+02  0.0000000E+00
Ar 3306  0.4728893E+02  0.1452605E+02  0.3339494E+02  0.0000000E+00
Ar 3307  0.4720816E+02  0.1171461E+02  0.3653547E+02  0.0000000E+00
Ar 3308  0.4451351E+02  0.1452251E+02  0.3633279E+02  0.0000000E+00
Ar 3309  0.4435852E+02  0.1166865E+02  0.3898092E+02  0.0000000E+00
Ar 3310  0.4762349E+02  0.1448975E+02  0.3926766E+02  0.0000000E+00
Ar 3311  0.4737126E+02  0.1186768E+02  0.4171414E+02  0.0000000E+00
Ar 3312  0.4475835E+02  0.1436903E+02  0.4163262E+02  0.0000000E+00
Ar 3313  0.4420657E+02  0.1189578E+02  0.4420728E+02  0.0000000E+00
Ar 3314  0.4728084E+02  0.1435014E+02  0.4471261E+02  0.0000000E+00
Ar 3315  0.4741297E+02  0.1182916E+02  0.4741584E+02  0.0000000E+00
Ar 3316  0.4471051E+02  0.1434836E+02  0.4728332E+02  0.0000000E+00
Ar 3317  0.4470959E+02  0.1187496E+02  0.4993668E+02  0.0000000E+00
Ar 3318  0.4720622E+02  0.1446497E+02  0.5007828E+02  0.0000000E+00
Ar 3319  0.4730230E+02  0.1213283E+02  0.5250299E+02  0.0000000E+00
Ar 3320  0.4462589E+02  0.1436321E+02  0.5307317E+02  0.0000000E+00
Ar 3321  0.4447701E+02  0.1692739E+02  0.5577564E+02  0.0000000E+00
Ar 3322  0.4772481E+02  0.2025401E+02  0.6031912E+00  0.0000000E+00
Ar 3323  0.4713535E+02  0.1694060E+02  0.3321590E+01  0.0000000E+00
Ar 3324  0.4474114E+02  0.1983785E+02  0.3135220E+01  0.0000000E+00
Ar 3325  0.4454263E+02  0.1683285E+02  0.5998500E+01  0.0000000E+00
Ar 3326  0.4709522E+02  0.1948098E+02  0.5928529E+01  0.0000000E+00
Ar 3327  0.4728553E+02  0.1729765E+02  0.9122575E+01  0.0000000E+00
Ar 3328  0.4431589E+02  0.1960548E+02  0.8709780E+01  0.0000000E+00
Ar 3329  0.4457521E+02  0.1744497E+02  0.1163668E+02  0.0000000E+00
Ar 3330  0.4726537E+02  0.1975056E+02  0.1178065E+02  0.0000000E+00
Ar 3331  0.4721228E+02  0.1704504E+02  0.1421034E+02  0.0000000E+00
Ar 3332  0.4457276E+02  0.1983261E+02  0.1463261E+02  0.0000000E+00
Ar 3333  0.4428704E+02  0.1712489E+02  0.1712506E+02  0.0000000E+00
Ar 3334  0.4731667E+02  0.1969856E+02  0.1724941E+02  0.0000000E+00
Ar 3335  0.4731669E+02  0.1724929E+02  0.1969863E+02  0.0000000E+00
Ar 3336  0.4477895E+02  0.1991001E+02  0.1991003E+02  0.0000000E+00
Ar 3337  0.4446636E+02  0.1731240E+02  0.2250876E+02  0.0000000E+00
Ar 3338  0.4731023E+02  0.2009196E+02  0.2270844E+02  0.0000000E+00
Ar 3339  0.4701432E+02  0.1724937E+02  0.2536827E+02  0.0000000E+00
Ar 3340  0.4447579E+02  0.2006640E+02  0.2534017E+02  0.0000000E+00
Ar 3341  0.4422930E+02  0.1699181E+02  0.2779872E+02  0.0000000E+00
Ar 3342  0.4714704E+02  0.1992373E+02  0.2790361E+02  0.0000000E+00
Ar 3343  0.4705383E+02  0.1726938E+02  0.3069062E+02  0.0000000E+00
Ar 3344  0.4439191E+02  0.1969352E+02  0.3087931E+02  0.0000000E+00
Ar 3345  0.4447118E+02  0.1701610E+02  0.3361529E+02  0.0000000E+00
Ar 3346  0.4731106E+02  0.1966130E+02  0.3331606E+02  0.0000000E+00
Ar 3347  0.4725249E+02  0.1700301E+02  0.3622843E+02  0.0000000E+00
Ar 3348  0.4467236E+02  0.1978095E+02  0.3643096E+02  0.0000000E+00
Ar 3349  0.4478454E+02  0.1734815E+02  0.3943656E+02  0.0000000E+00
Ar 3350  0.4731571E+02  0.1991194E+02  0.3915324E+02  0.0000000E+00
Ar 3351  0.4742606E+02  0.1731280E+02  0.4199998E+02  0.0000000E+00
Ar 3352  0.4454084E+02  0.2015827E+02  0.4182124E+02  0.0000000E+00
Ar 3353  0.4473429E+02  0.1695518E+02  0.4473366E+02  0.0000000E+00
Ar 3354  0.4714450E+02  0.1980580E+02  0.4467114E+02  0.0000000E+00
Ar 3355  0.4742627E+02  0.1728598E+02  0.4742673E+02  0.0000000E+00
Ar 3356  0.4466979E+02  0.1980542E+02  0.4714527E+02  0.0000000E+00
Ar 3357  0.4467590E+02  0.1694875E+02  0.5003623E+02  0.0000000E+00
Ar 3358  0.4679130E+02  0.2012423E+02  0.5014028E+02  0.0000000E+00
Ar 3359  0.4744718E+02  0.1686967E+02  0.5312324E+02  0.0000000E+00
Ar 3360  0.4459714E+02  0.1945644E+02  0.5285960E+02  0.0000000E+00
Ar 3361  0.4446977E+02  0.2262414E+02  0.5514205E+02  0.0000000E+00
Ar 3362  0.4742749E+02  0.2544153E+02  0.6485640E+00  0.0000000E+00
Ar 3363  0.4688009E+02  0.2281285E+02  0.3297798E+01  0.0000000E+00
Ar 3364  0.4439823E+02  0.2534699E+02  0.3072048E+01  0.0000000E+00
Ar 3365  0.4458359E+02  0.2263008E+02  0.6053778E+01  0.0000000E+00
Ar 3366  0.4742658E+02  0.2527220E+02  0.5974275E+01  0.0000000E+00
Ar 3367  0.4706262E+02  0.2224988E+02  0.8503201E+01  0.0000000E+00
Ar 3368  0.4446434E+02  0.2528278E+02  0.8647733E+01  0.0000000E+00
Ar 3369  0.4443347E+02  0.2240343E+02  0.1152688E+02  0.0000000E+00
Ar 3370  0.4725539E+02  0.2484226E+02  0.1181072E+02  0.0000000E+00
Ar 3371  0.4745131E+02  0.2227989E+02  0.1432717E+02  0.0000000E+00
Ar 3372  0.4460577E+02  0.2501902E+02  0.1448323E+02  0.0000000E+00
Ar 3373  0.4446639E+02  0.2250872E+02  0.1731240E+02  0.0000000E+00
Ar 3374  0.4701426E+02  0.2536817E+02  0.1724947E+02  0.0000000E+00
Ar 3375  0.4731021E+02  0.2270839E+02  0.2009202E+02  0.0000000E+00
Ar 3376  0.4447575E+02  0.2534007E+02  0.2006657E+02  0.0000000E+00
Ar 3377  0.4455068E+02  0.2292293E+02  0.2292298E+02  0.0000000E+00
Ar 3378  0.4727659E+02  0.2536699E+02  0.2275992E+02  0.0000000E+00
Ar 3379  0.4727659E+02  0.2275993E+02  0.2536700E+02  0.0000000E+00
Ar 3380  0.4499255E+02  0.2563359E+02  0.2563360E+02  0.0000000E+00
Ar 3381  0.4470301E+02  0.2267517E+02  0.2797867E+02  0.0000000E+00
Ar 3382  0.4749040E+02  0.2504640E+02  0.2821951E+02  0.0000000E+00
Ar 3383  0.4710394E+02  0.2263897E+02  0.3106233E+02  0.0000000E+00
Ar 3384  0.4473435E+02  0.2546258E+02  0.3091838E+02  0.0000000E+00
Ar 3385  0.4452429E+02  0.2255577E+02  0.3398966E+02  0.0000000E+00
Ar 3386  0.4737152E+02  0.2528928E+02  0.3390463E+02  0.0000000E+00
Ar 3387  0.4731345E+02  0.2280734E+02  0.3664717E+02  0.0000000E+00
Ar 3388  0.4450847E+02  0.2536778E+02  0.3653895E+02  0.0000000E+00
Ar 3389  0.4444210E+02  0.2266000E+02  0.3890320E+02  0.0000000E+00
Ar 3390  0.4730264E+02  0.2556067E+02  0.3904681E+02  0.0000000E+00
Ar 3391  0.4734390E+02  0.2281888E+02  0.4143783E+02  0.0000000E+00
Ar 3392  0.4436861E+02  0.2532760E+02  0.4151698E+02  0.0000000E+00
Ar 3393  0.4452321E+02  0.2254631E+02  0.4452256E+02  0.0000000E+00
Ar 3394  0.4695187E+02  0.2545687E+02  0.4402620E+02  0.0000000E+00
Ar 3395  0.4734100E+02  0.2277924E+02  0.4734422E+02  0.0000000E+00
Ar 3396  0.4402536E+02  0.2545790E+02  0.4695341E+02  0.0000000E+00
Ar 3397  0.4449026E+02  0.2315076E+02  0.5004584E+02  0.0000000E+00
Ar 3398  0.4722286E+02  0.2551367E+02  0.4988680E+02  0.0000000E+00
Ar 3399  0.4727169E+02  0.2284944E+02  0.5292812E+02  0.0000000E+00
Ar 3400  0.4452054E+02  0.2570862E+02  0.5262922E+02  0.0000000E+00
Ar 3401  0.4421948E+02  0.2840980E+02  0.9702000E+00  0.0000000E+00
Ar 3402  0.4695374E+02  0.3071893E+02  0.5589644E+02  0.0000000E+00
Ar 3403  0.4734020E+02  0.2800523E+02  0.3402000E+01  0.0000000E+00
Ar 3404  0.4434650E+02  0.3099779E+02  0.3684690E+01  0.0000000E+00
Ar 3405  0.4459793E+02  0.2761902E+02  0.5653913E+01  0.0000000E+00
Ar 3406  0.4723770E+02  0.3041213E+02  0.6363577E+01  0.0000000E+00
Ar 3407  0.4714006E+02  0.2775058E+02  0.8924125E+01  0.0000000E+00
Ar 3408  0.4483040E+02  0.3091322E+02  0.9135686E+01  0.0000000E+00
Ar 3409  0.4460644E+02  0.2794445E+02  0.1175623E+02  0.0000000E+00
Ar 3410  0.4728330E+02  0.3065058E+02  0.1182402E+02  0.0000000E+00
Ar 3411  0.4734505E+02  0.2794477E+02  0.1437951E+02  0.0000000E+00
Ar 3412  0.4492789E+02  0.3060520E+02  0.1449412E+02  0.0000000E+00
Ar 3413  0.4422923E+02  0.2779869E+02  0.1699215E+02  0.0000000E+00
Ar 3414  0.4705365E+02  0.3069035E+02  0.1726980E+02  0.0000000E+00
Ar 3415  0.4714700E+02  0.2790355E+02  0.1992384E+02  0.0000000E+00
Ar 3416  0.4439182E+02  0.3087936E+02  0.1969377E+02  0.0000000E+00
Ar 3417  0.4470302E+02  0.2797865E+02  0.2267518E+02  0.0000000E+00
Ar 3418  0.4710403E+02  0.3106229E+02  0.2263897E+02  0.0000000E+00
Ar 3419  0.4749043E+02  0.2821953E+02  0.2504641E+02  0.0000000E+00
Ar 3420  0.4473434E+02  0.3091838E+02  0.2546258E+02  0.0000000E+00
Ar 3421  0.4487736E+02  0.2812436E+02  0.2812432E+02  0.0000000E+00
Ar 3422  0.4724965E+02  0.3100260E+02  0.2799774E+02  0.0000000E+00
Ar 3423  0.4724966E+02  0.2799777E+02  0.3100261E+02  0.0000000E+00
Ar 3424  0.4406415E+02  0.3090654E+02  0.3090654E+02  0.0000000E+00
Ar 3425  0.4435570E+02  0.2812742E+02  0.3381817E+02  0.0000000E+00
Ar 3426  0.4725890E+02  0.3066504E+02  0.3340378E+02  0.0000000E+00
Ar 3427  0.4714114E+02  0.2823093E+02  0.3629294E+02  0.0000000E+00
Ar 3428  0.4456255E+02  0.3112661E+02  0.3639657E+02  0.0000000E+00
Ar 3429  0.4445635E+02  0.2838210E+02  0.3875332E+02  0.0000000E+00
Ar 3430  0.4724087E+02  0.3087115E+02  0.3894592E+02  0.0000000E+00
Ar 3431  0.4688433E+02  0.2814701E+02  0.4160747E+02  0.0000000E+00
Ar 3432  0.4432413E+02  0.3075027E+02  0.4180373E+02  0.0000000E+00
Ar 3433  0.4404317E+02  0.2793309E+02  0.4404371E+02  0.0000000E+00
Ar 3434  0.4718805E+02  0.3081510E+02  0.4453105E+02  0.0000000E+00
Ar 3435  0.4720018E+02  0.2778969E+02  0.4720431E+02  0.0000000E+00
Ar 3436  0.4452992E+02  0.3081482E+02  0.4718633E+02  0.0000000E+00
Ar 3437  0.4433561E+02  0.2798870E+02  0.4950538E+02  0.0000000E+00
Ar 3438  0.4702651E+02  0.3118023E+02  0.5005464E+02  0.0000000E+00
Ar 3439  0.4708636E+02  0.2857589E+02  0.5245670E+02  0.0000000E+00
Ar 3440  0.4418452E+02  0.3088231E+02  0.5278713E+02  0.0000000E+00
Ar 3441  0.4402346E+02  0.3322500E+02  0.8485430E+00  0.0000000E+00
Ar 3442  0.4659416E+02  0.3607948E+02  0.5558811E+02  0.0000000E+00
Ar 3443  0.4699582E+02  0.3309433E+02  0.3534196E+01  0.0000000E+00
Ar 3444  0.4454164E+02  0.3624603E+02  0.3487907E+01  0.0000000E+00
Ar 3445  0.4476860E+02  0.3361910E+02  0.6225744E+01  0.0000000E+00
Ar 3446  0.4715929E+02  0.3651179E+02  0.6210211E+01  0.0000000E+00
Ar 3447  0.4744177E+02  0.3365902E+02  0.9241047E+01  0.0000000E+00
Ar 3448  0.4479657E+02  0.3653066E+02  0.8861287E+01  0.0000000E+00
Ar 3449  0.4445283E+02  0.3356168E+02  0.1194593E+02  0.0000000E+00
Ar 3450  0.4720936E+02  0.3653532E+02  0.1171369E+02  0.0000000E+00
Ar 3451  0.4728826E+02  0.3339457E+02  0.1452650E+02  0.0000000E+00
Ar 3452  0.4451291E+02  0.3633307E+02  0.1452290E+02  0.0000000E+00
Ar 3453  0.4447057E+02  0.3361519E+02  0.1701663E+02  0.0000000E+00
Ar 3454  0.4725246E+02  0.3622851E+02  0.1700287E+02  0.0000000E+00
Ar 3455  0.4731120E+02  0.3331617E+02  0.1966135E+02  0.0000000E+00
Ar 3456  0.4467236E+02  0.3643078E+02  0.1978097E+02  0.0000000E+00
Ar 3457  0.4452435E+02  0.3398958E+02  0.2255582E+02  0.0000000E+00
Ar 3458  0.4731331E+02  0.3664715E+02  0.2280750E+02  0.0000000E+00
Ar 3459  0.4737158E+02  0.3390465E+02  0.2528934E+02  0.0000000E+00
Ar 3460  0.4450832E+02  0.3653872E+02  0.2536793E+02  0.0000000E+00
Ar 3461  0.4435571E+02  0.3381815E+02  0.2812746E+02  0.0000000E+00
Ar 3462  0.4714117E+02  0.3629300E+02  0.2823088E+02  0.0000000E+00
Ar 3463  0.4725890E+02  0.3340380E+02  0.3066499E+02  0.0000000E+00
Ar 3464  0.4456247E+02  0.3639654E+02  0.3112671E+02  0.0000000E+00
Ar 3465  0.4441624E+02  0.3347035E+02  0.3347042E+02  0.0000000E+00
Ar 3466  0.4728200E+02  0.3618272E+02  0.3356998E+02  0.0000000E+00
Ar 3467  0.4728241E+02  0.3356976E+02  0.3618330E+02  0.0000000E+00
Ar 3468  0.4458758E+02  0.3611512E+02  0.3611523E+02  0.0000000E+00
Ar 3469  0.4434164E+02  0.3372618E+02  0.3914089E+02  0.0000000E+00
Ar 3470  0.4703401E+02  0.3607362E+02  0.3914906E+02  0.0000000E+00
Ar 3471  0.4698201E+02  0.3342784E+02  0.4172408E+02  0.0000000E+00
Ar 3472  0.4471928E+02  0.3652761E+02  0.4193628E+02  0.0000000E+00
Ar 3473  0.4465605E+02  0.3334859E+02  0.4465539E+02  0.0000000E+00
Ar 3474  0.4724751E+02  0.3659817E+02  0.4438678E+02  0.0000000E+00
Ar 3475  0.4737634E+02  0.3392493E+02  0.4737782E+02  0.0000000E+00
Ar 3476  0.4438694E+02  0.3660106E+02  0.4724698E+02  0.0000000E+00
Ar 3477  0.4422535E+02  0.3369025E+02  0.4975703E+02  0.0000000E+00
Ar 3478  0.4732581E+02  0.3620047E+02  0.5048712E+02  0.0000000E+00
Ar 3479  0.4699336E+02  0.3325644E+02  0.5305692E+02  0.0000000E+00
Ar 3480  0.4459548E+02  0.3639376E+02  0.5246437E+02  0.0000000E+00
Ar 3481  0.4508588E+02  0.3918988E+02  0.5587458E+02  0.0000000E+00
Ar 3482  0.4697140E+02  0.4207095E+02  0.5598112E+02  0.0000000E+00
Ar 3483  0.4720716E+02  0.3922305E+02  0.3413255E+01  0.0000000E+00
Ar 3484  0.4434358E+02  0.4176493E+02  0.3314945E+01  0.0000000E+00
Ar 3485  0.4434029E+02  0.3908969E+02  0.6270259E+01  0.0000000E+00
Ar 3486  0.4728894E+02  0.4176754E+02  0.6424457E+01  0.0000000E+00
Ar 3487  0.4744224E+02  0.3904139E+02  0.9145640E+01  0.0000000E+00
Ar 3488  0.4452693E+02  0.4156106E+02  0.8904934E+01  0.0000000E+00
Ar 3489  0.4435855E+02  0.3898152E+02  0.1166840E+02  0.0000000E+00
Ar 3490  0.4737836E+02  0.4171156E+02  0.1185989E+02  0.0000000E+00
Ar 3491  0.4762370E+02  0.3926984E+02  0.1448711E+02  0.0000000E+00
Ar 3492  0.4476058E+02  0.4163280E+02  0.1436747E+02  0.0000000E+00
Ar 3493  0.4478427E+02  0.3943660E+02  0.1734807E+02  0.0000000E+00
Ar 3494  0.4742608E+02  0.4199967E+02  0.1731152E+02  0.0000000E+00
Ar 3495  0.4731509E+02  0.3915226E+02  0.1991086E+02  0.0000000E+00
Ar 3496  0.4454030E+02  0.4182174E+02  0.2015917E+02  0.0000000E+00
Ar 3497  0.4444179E+02  0.3890308E+02  0.2266026E+02  0.0000000E+00
Ar 3498  0.4734417E+02  0.4143783E+02  0.2281921E+02  0.0000000E+00
Ar 3499  0.4730258E+02  0.3904706E+02  0.2556075E+02  0.0000000E+00
Ar 3500  0.4436887E+02  0.4151708E+02  0.2532819E+02  0.0000000E+00
Ar 3501  0.4445631E+02  0.3875323E+02  0.2838220E+02  0.0000000E+00
Ar 3502  0.4688505E+02  0.4160792E+02  0.2814727E+02  0.0000000E+00
Ar 3503  0.4724126E+02  0.3894644E+02  0.3087119E+02  0.0000000E+00
Ar 3504  0.4432416E+02  0.4180330E+02  0.3075036E+02  0.0000000E+00
Ar 3505  0.4434173E+02  0.3914089E+02  0.3372639E+02  0.0000000E+00
Ar 3506  0.4698145E+02  0.4172384E+02  0.3342792E+02  0.0000000E+00
Ar 3507  0.4703410E+02  0.3914909E+02  0.3607383E+02  0.0000000E+00
Ar 3508  0.4471918E+02  0.4193638E+02  0.3652769E+02  0.0000000E+00
Ar 3509  0.4450440E+02  0.3925175E+02  0.3925183E+02  0.0000000E+00
Ar 3510  0.4729487E+02  0.4166273E+02  0.3917209E+02  0.0000000E+00
Ar 3511  0.4729469E+02  0.3917170E+02  0.4166307E+02  0.0000000E+00
Ar 3512  0.4454693E+02  0.4184021E+02  0.4183998E+02  0.0000000E+00
Ar 3513  0.4437403E+02  0.3928876E+02  0.4437324E+02  0.0000000E+00
Ar 3514  0.4730804E+02  0.4186113E+02  0.4458631E+02  0.0000000E+00
Ar 3515  0.4716309E+02  0.3916267E+02  0.4716402E+02  0.0000000E+00
Ar 3516  0.4458664E+02  0.4186141E+02  0.4730860E+02  0.0000000E+00
Ar 3517  0.4421634E+02  0.3914302E+02  0.5021482E+02  0.0000000E+00
Ar 3518  0.4714717E+02  0.4161469E+02  0.5004999E+02  0.0000000E+00
Ar 3519  0.4721066E+02  0.3888433E+02  0.5287251E+02  0.0000000E+00
Ar 3520  0.4455438E+02  0.4191812E+02  0.5308732E+02  0.0000000E+00
Ar 3521  0.4443281E+02  0.4444118E+02  0.5569334E+02  0.0000000E+00
Ar 3522  0.4678995E+02  0.4678306E+02  0.5533998E+02  0.0000000E+00
Ar 3523  0.4743696E+02  0.4410825E+02  0.3463377E+01  0.0000000E+00
Ar 3524  0.4410684E+02  0.4743177E+02  0.3456049E+01  0.0000000E+00
Ar 3525  0.4418852E+02  0.4418809E+02  0.6247151E+01  0.0000000E+00
Ar 3526  0.4693541E+02  0.4691574E+02  0.6275145E+01  0.0000000E+00
Ar 3527  0.4706862E+02  0.4456563E+02  0.9420176E+01  0.0000000E+00
Ar 3528  0.4456597E+02  0.4706576E+02  0.9424503E+01  0.0000000E+00
Ar 3529  0.4420819E+02  0.4420591E+02  0.1189576E+02  0.0000000E+00
Ar 3530  0.4741728E+02  0.4741172E+02  0.1182916E+02  0.0000000E+00
Ar 3531  0.4728491E+02  0.4470946E+02  0.1434733E+02  0.0000000E+00
Ar 3532  0.4471432E+02  0.4727933E+02  0.1435174E+02  0.0000000E+00
Ar 3533  0.4473412E+02  0.4473392E+02  0.1695546E+02  0.0000000E+00
Ar 3534  0.4742681E+02  0.4742637E+02  0.1728597E+02  0.0000000E+00
Ar 3535  0.4714461E+02  0.4467080E+02  0.1980567E+02  0.0000000E+00
Ar 3536  0.4467086E+02  0.4714457E+02  0.1980563E+02  0.0000000E+00
Ar 3537  0.4452294E+02  0.4452296E+02  0.2254664E+02  0.0000000E+00
Ar 3538  0.4734269E+02  0.4734269E+02  0.2277909E+02  0.0000000E+00
Ar 3539  0.4695297E+02  0.4402549E+02  0.2545657E+02  0.0000000E+00
Ar 3540  0.4402548E+02  0.4695298E+02  0.2545651E+02  0.0000000E+00
Ar 3541  0.4404442E+02  0.4404443E+02  0.2793335E+02  0.0000000E+00
Ar 3542  0.4720343E+02  0.4720343E+02  0.2779133E+02  0.0000000E+00
Ar 3543  0.4718827E+02  0.4453136E+02  0.3081524E+02  0.0000000E+00
Ar 3544  0.4453139E+02  0.4718826E+02  0.3081524E+02  0.0000000E+00
Ar 3545  0.4465637E+02  0.4465635E+02  0.3334866E+02  0.0000000E+00
Ar 3546  0.4737736E+02  0.4737729E+02  0.3392439E+02  0.0000000E+00
Ar 3547  0.4724783E+02  0.4438675E+02  0.3659945E+02  0.0000000E+00
Ar 3548  0.4438690E+02  0.4724765E+02  0.3659931E+02  0.0000000E+00
Ar 3549  0.4437385E+02  0.4437381E+02  0.3928828E+02  0.0000000E+00
Ar 3550  0.4716313E+02  0.4716330E+02  0.3916235E+02  0.0000000E+00
Ar 3551  0.4730831E+02  0.4458635E+02  0.4186069E+02  0.0000000E+00
Ar 3552  0.4458627E+02  0.4730810E+02  0.4186111E+02  0.0000000E+00
Ar 3553  0.4418989E+02  0.4418434E+02  0.4418567E+02  0.0000000E+00
Ar 3554  0.4697443E+02  0.4697516E+02  0.4436690E+02  0.0000000E+00
Ar 3555  0.4697464E+02  0.4436720E+02  0.4697501E+02  0.0000000E+00
Ar 3556  0.4436526E+02  0.4697455E+02  0.4697500E+02  0.0000000E+00
Ar 3557  0.4463538E+02  0.4463682E+02  0.4999357E+02  0.0000000E+00
Ar 3558  0.4749665E+02  0.4749812E+02  0.5018363E+02  0.0000000E+00
Ar 3559  0.4703645E+02  0.4435188E+02  0.5265019E+02  0.0000000E+00
Ar 3560  0.4435598E+02  0.4703945E+02  0.5265040E+02  0.0000000E+00
Ar 3561  0.4474725E+02  0.5030263E+02  0.5551525E+02  0.0000000E+00
Ar 3562  0.4751806E+02  0.5294205E+02  0.5563592E+02  0.0000000E+00
Ar 3563  0.4698102E+02  0.4968870E+02  0.3148480E+01  0.0000000E+00
Ar 3564  0.4446941E+02  0.5246421E+02  0.3371779E+01  0.0000000E+00
Ar 3565  0.4452415E+02  0.4991649E+02  0.6204595E+01  0.0000000E+00
Ar 3566  0.4697690E+02  0.5321592E+02  0.6527529E+01  0.0000000E+00
Ar 3567  0.4731767E+02  0.4976538E+02  0.8944822E+01  0.0000000E+00
Ar 3568  0.4457708E+02  0.5277576E+02  0.9256603E+01  0.0000000E+00
Ar 3569  0.4471398E+02  0.4992883E+02  0.1188018E+02  0.0000000E+00
Ar 3570  0.4730896E+02  0.5249964E+02  0.1214076E+02  0.0000000E+00
Ar 3571  0.4720893E+02  0.5007261E+02  0.1447008E+02  0.0000000E+00
Ar 3572  0.4462776E+02  0.5307002E+02  0.1436521E+02  0.0000000E+00
Ar 3573  0.4467676E+02  0.5003605E+02  0.1694929E+02  0.0000000E+00
Ar 3574  0.4744680E+02  0.5312201E+02  0.1687350E+02  0.0000000E+00
Ar 3575  0.4679226E+02  0.5014077E+02  0.2012384E+02  0.0000000E+00
Ar 3576  0.4459659E+02  0.5285966E+02  0.1945466E+02  0.0000000E+00
Ar 3577  0.4449169E+02  0.5004627E+02  0.2315144E+02  0.0000000E+00
Ar 3578  0.4727276E+02  0.5292392E+02  0.2285203E+02  0.0000000E+00
Ar 3579  0.4722311E+02  0.4989119E+02  0.2551942E+02  0.0000000E+00
Ar 3580  0.4452158E+02  0.5262546E+02  0.2571404E+02  0.0000000E+00
Ar 3581  0.4433711E+02  0.4950261E+02  0.2798695E+02  0.0000000E+00
Ar 3582  0.4710864E+02  0.5248604E+02  0.2857121E+02  0.0000000E+00
Ar 3583  0.4702424E+02  0.5005682E+02  0.3117796E+02  0.0000000E+00
Ar 3584  0.4419457E+02  0.5278542E+02  0.3086950E+02  0.0000000E+00
Ar 3585  0.4422705E+02  0.4975691E+02  0.3368953E+02  0.0000000E+00
Ar 3586  0.4699830E+02  0.5305976E+02  0.3326083E+02  0.0000000E+00
Ar 3587  0.4732734E+02  0.5048780E+02  0.3620179E+02  0.0000000E+00
Ar 3588  0.4458658E+02  0.5245178E+02  0.3639221E+02  0.0000000E+00
Ar 3589  0.4421621E+02  0.5021515E+02  0.3914230E+02  0.0000000E+00
Ar 3590  0.4721360E+02  0.5287632E+02  0.3888330E+02  0.0000000E+00
Ar 3591  0.4714617E+02  0.5004964E+02  0.4161554E+02  0.0000000E+00
Ar 3592  0.4455603E+02  0.5308867E+02  0.4191797E+02  0.0000000E+00
Ar 3593  0.4463508E+02  0.4999346E+02  0.4463770E+02  0.0000000E+00
Ar 3594  0.4703877E+02  0.5264985E+02  0.4435061E+02  0.0000000E+00
Ar 3595  0.4749748E+02  0.5018305E+02  0.4749737E+02  0.0000000E+00
Ar 3596  0.4435593E+02  0.5265069E+02  0.4703885E+02  0.0000000E+00
Ar 3597  0.4410598E+02  0.4981911E+02  0.4981883E+02  0.0000000E+00
Ar 3598  0.4697946E+02  0.5303774E+02  0.5005089E+02  0.0000000E+00
Ar 3599  0.4697886E+02  0.5005203E+02  0.5303740E+02  0.0000000E+00
Ar 3600  0.4457350E+02  0.5316760E+02  0.5316212E+02  0.0000000E+00
Ar 3601  0.5056395E+02  0.5604633E+02  0.5604002E+02  0.0000000E+00
Ar 3602  0.5203711E+02  0.3899120E+01  0.5447814E+00  0.0000000E+00
Ar 3603  0.5203045E+02  0.5450461E+00  0.3892788E+01  0.0000000E+00
Ar 3604  0.5008553E+02  0.3641910E+01  0.3641048E+01  0.0000000E+00
Ar 3605  0.4949202E+02  0.6494429E+00  0.6156745E+01  0.0000000E+00
Ar 3606  0.5351034E+02  0.3442578E+01  0.6443097E+01  0.0000000E+00
Ar 3607  0.5310046E+02  0.1269609E+01  0.8795580E+01  0.0000000E+00
Ar 3608  0.4993863E+02  0.3598904E+01  0.9189676E+01  0.0000000E+00
Ar 3609  0.5098110E+02  0.8395420E+00  0.1194666E+02  0.0000000E+00
Ar 3610  0.5315040E+02  0.3678404E+01  0.1186409E+02  0.0000000E+00
Ar 3611  0.5327824E+02  0.5567165E+02  0.1533252E+02  0.0000000E+00
Ar 3612  0.5029123E+02  0.3906873E+01  0.1460819E+02  0.0000000E+00
Ar 3613  0.4990780E+02  0.5576142E+02  0.1685170E+02  0.0000000E+00
Ar 3614  0.5313075E+02  0.3329207E+01  0.1717222E+02  0.0000000E+00
Ar 3615  0.5372931E+02  0.5583560E+02  0.2020939E+02  0.0000000E+00
Ar 3616  0.4991382E+02  0.3292644E+01  0.1974845E+02  0.0000000E+00
Ar 3617  0.5010022E+02  0.5582259E+02  0.2279702E+02  0.0000000E+00
Ar 3618  0.5268340E+02  0.3243403E+01  0.2252237E+02  0.0000000E+00
Ar 3619  0.5213174E+02  0.5558527E+02  0.2546863E+02  0.0000000E+00
Ar 3620  0.5014989E+02  0.3417742E+01  0.2560285E+02  0.0000000E+00
Ar 3621  0.4968536E+02  0.5553012E+02  0.2810252E+02  0.0000000E+00
Ar 3622  0.5290698E+02  0.3051477E+01  0.2824772E+02  0.0000000E+00
Ar 3623  0.5237072E+02  0.6438104E+00  0.3143528E+02  0.0000000E+00
Ar 3624  0.5010615E+02  0.3058335E+01  0.3086017E+02  0.0000000E+00
Ar 3625  0.4940434E+02  0.5582563E+02  0.3323158E+02  0.0000000E+00
Ar 3626  0.5273465E+02  0.4101043E+01  0.3355695E+02  0.0000000E+00
Ar 3627  0.5255952E+02  0.5590962E+02  0.3530384E+02  0.0000000E+00
Ar 3628  0.4996112E+02  0.2828461E+01  0.3677787E+02  0.0000000E+00
Ar 3629  0.5050746E+02  0.5502356E+02  0.3904077E+02  0.0000000E+00
Ar 3630  0.5340712E+02  0.2873661E+01  0.3877603E+02  0.0000000E+00
Ar 3631  0.5304352E+02  0.7660114E+00  0.4131844E+02  0.0000000E+00
Ar 3632  0.5027666E+02  0.3480901E+01  0.4124458E+02  0.0000000E+00
Ar 3633  0.5030917E+02  0.5551882E+02  0.4474452E+02  0.0000000E+00
Ar 3634  0.5246723E+02  0.3370840E+01  0.4447376E+02  0.0000000E+00
Ar 3635  0.5293977E+02  0.5563681E+02  0.4752132E+02  0.0000000E+00
Ar 3636  0.4968035E+02  0.3148871E+01  0.4698414E+02  0.0000000E+00
Ar 3637  0.5044206E+02  0.5603223E+02  0.5043964E+02  0.0000000E+00
Ar 3638  0.5255106E+02  0.4148315E+01  0.4990986E+02  0.0000000E+00
Ar 3639  0.5259720E+02  0.1536790E+01  0.5259536E+02  0.0000000E+00
Ar 3640  0.4991932E+02  0.4148635E+01  0.5254605E+02  0.0000000E+00
Ar 3641  0.4949367E+02  0.6156839E+01  0.6468094E+00  0.0000000E+00
Ar 3642  0.5309326E+02  0.8800611E+01  0.1269361E+01  0.0000000E+00
Ar 3643  0.5351038E+02  0.6443672E+01  0.3442208E+01  0.0000000E+00
Ar 3644  0.4993988E+02  0.9191081E+01  0.3598609E+01  0.0000000E+00
Ar 3645  0.5066871E+02  0.6456028E+01  0.6452117E+01  0.0000000E+00
Ar 3646  0.5334458E+02  0.8825067E+01  0.6376165E+01  0.0000000E+00
Ar 3647  0.5334445E+02  0.6376448E+01  0.8824541E+01  0.0000000E+00
Ar 3648  0.5035020E+02  0.8964731E+01  0.8964719E+01  0.0000000E+00
Ar 3649  0.5038935E+02  0.6543834E+01  0.1201315E+02  0.0000000E+00
Ar 3650  0.5322681E+02  0.8836650E+01  0.1219782E+02  0.0000000E+00
Ar 3651  0.5286423E+02  0.6140646E+01  0.1498509E+02  0.0000000E+00
Ar 3652  0.5030058E+02  0.9162960E+01  0.1462557E+02  0.0000000E+00
Ar 3653  0.5002299E+02  0.6515661E+01  0.1696976E+02  0.0000000E+00
Ar 3654  0.5275928E+02  0.8926514E+01  0.1744145E+02  0.0000000E+00
Ar 3655  0.5290597E+02  0.5658497E+01  0.1982362E+02  0.0000000E+00
Ar 3656  0.5007469E+02  0.8709721E+01  0.1971930E+02  0.0000000E+00
Ar 3657  0.5007891E+02  0.5888465E+01  0.2261625E+02  0.0000000E+00
Ar 3658  0.5273999E+02  0.8519757E+01  0.2221323E+02  0.0000000E+00
Ar 3659  0.5285570E+02  0.6248220E+01  0.2531983E+02  0.0000000E+00
Ar 3660  0.4985311E+02  0.8778371E+01  0.2509499E+02  0.0000000E+00
Ar 3661  0.5004784E+02  0.6082331E+01  0.2811482E+02  0.0000000E+00
Ar 3662  0.5272721E+02  0.9019612E+01  0.2799992E+02  0.0000000E+00
Ar 3663  0.5226610E+02  0.5997963E+01  0.3066714E+02  0.0000000E+00
Ar 3664  0.4977266E+02  0.9251000E+01  0.3057522E+02  0.0000000E+00
Ar 3665  0.4967672E+02  0.6107224E+01  0.3322243E+02  0.0000000E+00
Ar 3666  0.5265920E+02  0.9178847E+01  0.3364271E+02  0.0000000E+00
Ar 3667  0.5291994E+02  0.6544959E+01  0.3654187E+02  0.0000000E+00
Ar 3668  0.4993555E+02  0.9069624E+01  0.3640269E+02  0.0000000E+00
Ar 3669  0.5023976E+02  0.6318121E+01  0.3909070E+02  0.0000000E+00
Ar 3670  0.5269334E+02  0.8874077E+01  0.3931083E+02  0.0000000E+00
Ar 3671  0.5254367E+02  0.6179177E+01  0.4208468E+02  0.0000000E+00
Ar 3672  0.4990848E+02  0.8916286E+01  0.4191495E+02  0.0000000E+00
Ar 3673  0.4992095E+02  0.6199843E+01  0.4452093E+02  0.0000000E+00
Ar 3674  0.5277957E+02  0.9244667E+01  0.4456277E+02  0.0000000E+00
Ar 3675  0.5321814E+02  0.6529413E+01  0.4697541E+02  0.0000000E+00
Ar 3676  0.4976546E+02  0.8944749E+01  0.4731474E+02  0.0000000E+00
Ar 3677  0.4993755E+02  0.6350555E+01  0.4993354E+02  0.0000000E+00
Ar 3678  0.5319314E+02  0.9739543E+01  0.5026389E+02  0.0000000E+00
Ar 3679  0.5313622E+02  0.6193231E+01  0.5313865E+02  0.0000000E+00
Ar 3680  0.5026142E+02  0.9741750E+01  0.5319531E+02  0.0000000E+00
Ar 3681  0.5098216E+02  0.1194621E+02  0.8343183E+00  0.0000000E+00
Ar 3682  0.5329617E+02  0.1531435E+02  0.5567622E+02  0.0000000E+00
Ar 3683  0.5315174E+02  0.1186803E+02  0.3676396E+01  0.0000000E+00
Ar 3684  0.5029159E+02  0.1460925E+02  0.3906465E+01  0.0000000E+00
Ar 3685  0.5038990E+02  0.1201355E+02  0.6543381E+01  0.0000000E+00
Ar 3686  0.5286447E+02  0.1498608E+02  0.6137859E+01  0.0000000E+00
Ar 3687  0.5322699E+02  0.1219773E+02  0.8836551E+01  0.0000000E+00
Ar 3688  0.5030089E+02  0.1462442E+02  0.9164040E+01  0.0000000E+00
Ar 3689  0.5014667E+02  0.1159235E+02  0.1159232E+02  0.0000000E+00
Ar 3690  0.5310774E+02  0.1480342E+02  0.1160320E+02  0.0000000E+00
Ar 3691  0.5310774E+02  0.1160314E+02  0.1480344E+02  0.0000000E+00
Ar 3692  0.5020668E+02  0.1407188E+02  0.1407193E+02  0.0000000E+00
Ar 3693  0.4997167E+02  0.1166285E+02  0.1717415E+02  0.0000000E+00
Ar 3694  0.5297470E+02  0.1427666E+02  0.1726507E+02  0.0000000E+00
Ar 3695  0.5284232E+02  0.1179404E+02  0.1982992E+02  0.0000000E+00
Ar 3696  0.4977060E+02  0.1434256E+02  0.1947050E+02  0.0000000E+00
Ar 3697  0.4981261E+02  0.1130336E+02  0.2224476E+02  0.0000000E+00
Ar 3698  0.5215210E+02  0.1421658E+02  0.2233741E+02  0.0000000E+00
Ar 3699  0.5252045E+02  0.1173274E+02  0.2492025E+02  0.0000000E+00
Ar 3700  0.4996387E+02  0.1466472E+02  0.2504761E+02  0.0000000E+00
Ar 3701  0.5009873E+02  0.1179975E+02  0.2788088E+02  0.0000000E+00
Ar 3702  0.5276289E+02  0.1471904E+02  0.2809889E+02  0.0000000E+00
Ar 3703  0.5246189E+02  0.1181177E+02  0.3078034E+02  0.0000000E+00
Ar 3704  0.4993150E+02  0.1450804E+02  0.3061283E+02  0.0000000E+00
Ar 3705  0.4967635E+02  0.1169594E+02  0.3346028E+02  0.0000000E+00
Ar 3706  0.5227658E+02  0.1414984E+02  0.3352065E+02  0.0000000E+00
Ar 3707  0.5279786E+02  0.1156979E+02  0.3641169E+02  0.0000000E+00
Ar 3708  0.4994499E+02  0.1430381E+02  0.3643876E+02  0.0000000E+00
Ar 3709  0.5035410E+02  0.1154017E+02  0.3902152E+02  0.0000000E+00
Ar 3710  0.5275333E+02  0.1429260E+02  0.3902749E+02  0.0000000E+00
Ar 3711  0.5253689E+02  0.1158052E+02  0.4165694E+02  0.0000000E+00
Ar 3712  0.4999431E+02  0.1448179E+02  0.4192649E+02  0.0000000E+00
Ar 3713  0.4993213E+02  0.1187826E+02  0.4471280E+02  0.0000000E+00
Ar 3714  0.5307117E+02  0.1436303E+02  0.4462743E+02  0.0000000E+00
Ar 3715  0.5250383E+02  0.1213471E+02  0.4730957E+02  0.0000000E+00
Ar 3716  0.5007737E+02  0.1446554E+02  0.4720741E+02  0.0000000E+00
Ar 3717  0.5038883E+02  0.1173722E+02  0.5038185E+02  0.0000000E+00
Ar 3718  0.5252419E+02  0.1463867E+02  0.5004495E+02  0.0000000E+00
Ar 3719  0.5367538E+02  0.1234335E+02  0.5367211E+02  0.0000000E+00
Ar 3720  0.5004396E+02  0.1463799E+02  0.5252467E+02  0.0000000E+00
Ar 3721  0.5047734E+02  0.1742918E+02  0.5579768E+02  0.0000000E+00
Ar 3722  0.5319059E+02  0.1957284E+02  0.5582080E+02  0.0000000E+00
Ar 3723  0.5312984E+02  0.1722147E+02  0.3299348E+01  0.0000000E+00
Ar 3724  0.4990503E+02  0.1975929E+02  0.3293271E+01  0.0000000E+00
Ar 3725  0.5002439E+02  0.1696869E+02  0.6517039E+01  0.0000000E+00
Ar 3726  0.5290790E+02  0.1982715E+02  0.5656137E+01  0.0000000E+00
Ar 3727  0.5275950E+02  0.1744140E+02  0.8926548E+01  0.0000000E+00
Ar 3728  0.5007466E+02  0.1971889E+02  0.8709954E+01  0.0000000E+00
Ar 3729  0.4997155E+02  0.1717401E+02  0.1166288E+02  0.0000000E+00
Ar 3730  0.5284228E+02  0.1982982E+02  0.1179423E+02  0.0000000E+00
Ar 3731  0.5297466E+02  0.1726495E+02  0.1427676E+02  0.0000000E+00
Ar 3732  0.4977050E+02  0.1947039E+02  0.1434261E+02  0.0000000E+00
Ar 3733  0.5008700E+02  0.1701224E+02  0.1701235E+02  0.0000000E+00
Ar 3734  0.5257725E+02  0.1989177E+02  0.1721055E+02  0.0000000E+00
Ar 3735  0.5257729E+02  0.1721040E+02  0.1989194E+02  0.0000000E+00
Ar 3736  0.5001600E+02  0.1990887E+02  0.1990909E+02  0.0000000E+00
Ar 3737  0.4983695E+02  0.1738849E+02  0.2239968E+02  0.0000000E+00
Ar 3738  0.5275916E+02  0.1990624E+02  0.2252785E+02  0.0000000E+00
Ar 3739  0.5305326E+02  0.1713022E+02  0.2516953E+02  0.0000000E+00
Ar 3740  0.4993122E+02  0.2003512E+02  0.2520786E+02  0.0000000E+00
Ar 3741  0.4981249E+02  0.1710100E+02  0.2778997E+02  0.0000000E+00
Ar 3742  0.5236514E+02  0.1961483E+02  0.2777727E+02  0.0000000E+00
Ar 3743  0.5212219E+02  0.1704633E+02  0.3075489E+02  0.0000000E+00
Ar 3744  0.4967400E+02  0.1992177E+02  0.3066385E+02  0.0000000E+00
Ar 3745  0.5008316E+02  0.1698706E+02  0.3367311E+02  0.0000000E+00
Ar 3746  0.5286393E+02  0.1959386E+02  0.3368744E+02  0.0000000E+00
Ar 3747  0.5315832E+02  0.1696917E+02  0.3616384E+02  0.0000000E+00
Ar 3748  0.4970488E+02  0.1961875E+02  0.3633659E+02  0.0000000E+00
Ar 3749  0.5023117E+02  0.1710633E+02  0.3909965E+02  0.0000000E+00
Ar 3750  0.5253716E+02  0.1981391E+02  0.3921237E+02  0.0000000E+00
Ar 3751  0.5292291E+02  0.1698855E+02  0.4196087E+02  0.0000000E+00
Ar 3752  0.5022425E+02  0.1968266E+02  0.4192809E+02  0.0000000E+00
Ar 3753  0.5003715E+02  0.1694891E+02  0.4467643E+02  0.0000000E+00
Ar 3754  0.5285967E+02  0.1945540E+02  0.4459861E+02  0.0000000E+00
Ar 3755  0.5312000E+02  0.1687055E+02  0.4744728E+02  0.0000000E+00
Ar 3756  0.5013984E+02  0.2012432E+02  0.4679249E+02  0.0000000E+00
Ar 3757  0.5006861E+02  0.1731657E+02  0.5006815E+02  0.0000000E+00
Ar 3758  0.5313166E+02  0.1982208E+02  0.5009832E+02  0.0000000E+00
Ar 3759  0.5301669E+02  0.1746770E+02  0.5302263E+02  0.0000000E+00
Ar 3760  0.5009285E+02  0.1983151E+02  0.5312352E+02  0.0000000E+00
Ar 3761  0.5008602E+02  0.2277626E+02  0.5582717E+02  0.0000000E+00
Ar 3762  0.5213468E+02  0.2546955E+02  0.5558817E+02  0.0000000E+00
Ar 3763  0.5268714E+02  0.2252301E+02  0.3244338E+01  0.0000000E+00
Ar 3764  0.5014833E+02  0.2560054E+02  0.3415947E+01  0.0000000E+00
Ar 3765  0.5007408E+02  0.2261470E+02  0.5884812E+01  0.0000000E+00
Ar 3766  0.5285280E+02  0.2531074E+02  0.6255809E+01  0.0000000E+00
Ar 3767  0.5273955E+02  0.2221303E+02  0.8519235E+01  0.0000000E+00
Ar 3768  0.4985108E+02  0.2509507E+02  0.8775772E+01  0.0000000E+00
Ar 3769  0.4981230E+02  0.2224449E+02  0.1130356E+02  0.0000000E+00
Ar 3770  0.5252023E+02  0.2492036E+02  0.1173295E+02  0.0000000E+00
Ar 3771  0.5215201E+02  0.2233733E+02  0.1421667E+02  0.0000000E+00
Ar 3772  0.4996361E+02  0.2504741E+02  0.1466509E+02  0.0000000E+00
Ar 3773  0.4983687E+02  0.2239946E+02  0.1738875E+02  0.0000000E+00
Ar 3774  0.5305295E+02  0.2516940E+02  0.1713069E+02  0.0000000E+00
Ar 3775  0.5275915E+02  0.2252779E+02  0.1990628E+02  0.0000000E+00
Ar 3776  0.4993123E+02  0.2520786E+02  0.2003513E+02  0.0000000E+00
Ar 3777  0.5020244E+02  0.2275624E+02  0.2275625E+02  0.0000000E+00
Ar 3778  0.5278325E+02  0.2529249E+02  0.2231053E+02  0.0000000E+00
Ar 3779  0.5278324E+02  0.2231053E+02  0.2529253E+02  0.0000000E+00
Ar 3780  0.4973204E+02  0.2543568E+02  0.2543569E+02  0.0000000E+00
Ar 3781  0.4994431E+02  0.2219562E+02  0.2789025E+02  0.0000000E+00
Ar 3782  0.5219539E+02  0.2517453E+02  0.2804567E+02  0.0000000E+00
Ar 3783  0.5260410E+02  0.2239249E+02  0.3070490E+02  0.0000000E+00
Ar 3784  0.4976492E+02  0.2554229E+02  0.3106801E+02  0.0000000E+00
Ar 3785  0.5007665E+02  0.2240365E+02  0.3373460E+02  0.0000000E+00
Ar 3786  0.5249937E+02  0.2542155E+02  0.3368025E+02  0.0000000E+00
Ar 3787  0.5254916E+02  0.2238292E+02  0.3682993E+02  0.0000000E+00
Ar 3788  0.5008498E+02  0.2530128E+02  0.3650040E+02  0.0000000E+00
Ar 3789  0.5007838E+02  0.2246805E+02  0.3919384E+02  0.0000000E+00
Ar 3790  0.5299744E+02  0.2554886E+02  0.3922614E+02  0.0000000E+00
Ar 3791  0.5244218E+02  0.2307511E+02  0.4177532E+02  0.0000000E+00
Ar 3792  0.4997942E+02  0.2548211E+02  0.4158843E+02  0.0000000E+00
Ar 3793  0.5004622E+02  0.2315174E+02  0.4449219E+02  0.0000000E+00
Ar 3794  0.5262426E+02  0.2571618E+02  0.4452126E+02  0.0000000E+00
Ar 3795  0.5292272E+02  0.2285222E+02  0.4727470E+02  0.0000000E+00
Ar 3796  0.4989694E+02  0.2552515E+02  0.4722377E+02  0.0000000E+00
Ar 3797  0.4981021E+02  0.2250788E+02  0.4981272E+02  0.0000000E+00
Ar 3798  0.5277043E+02  0.2533924E+02  0.4990676E+02  0.0000000E+00
Ar 3799  0.5233366E+02  0.2241178E+02  0.5234158E+02  0.0000000E+00
Ar 3800  0.4989313E+02  0.2533711E+02  0.5277492E+02  0.0000000E+00
Ar 3801  0.4966807E+02  0.2809103E+02  0.5550863E+02  0.0000000E+00
Ar 3802  0.5237353E+02  0.3139601E+02  0.6401284E+00  0.0000000E+00
Ar 3803  0.5289541E+02  0.2820198E+02  0.3101400E+01  0.0000000E+00
Ar 3804  0.5009166E+02  0.3084596E+02  0.3063932E+01  0.0000000E+00
Ar 3805  0.5004484E+02  0.2811386E+02  0.6081036E+01  0.0000000E+00
Ar 3806  0.5226193E+02  0.3063650E+02  0.6031473E+01  0.0000000E+00
Ar 3807  0.5272972E+02  0.2799738E+02  0.9018280E+01  0.0000000E+00
Ar 3808  0.4977766E+02  0.3057661E+02  0.9246195E+01  0.0000000E+00
Ar 3809  0.5010024E+02  0.2788065E+02  0.1179814E+02  0.0000000E+00
Ar 3810  0.5246104E+02  0.3078379E+02  0.1181071E+02  0.0000000E+00
Ar 3811  0.5276246E+02  0.2809811E+02  0.1471964E+02  0.0000000E+00
Ar 3812  0.4993120E+02  0.3061276E+02  0.1450839E+02  0.0000000E+00
Ar 3813  0.4981235E+02  0.2778994E+02  0.1710136E+02  0.0000000E+00
Ar 3814  0.5212229E+02  0.3075488E+02  0.1704648E+02  0.0000000E+00
Ar 3815  0.5236522E+02  0.2777731E+02  0.1961485E+02  0.0000000E+00
Ar 3816  0.4967411E+02  0.3066375E+02  0.1992180E+02  0.0000000E+00
Ar 3817  0.4994435E+02  0.2789015E+02  0.2219569E+02  0.0000000E+00
Ar 3818  0.5260420E+02  0.3070481E+02  0.2239265E+02  0.0000000E+00
Ar 3819  0.5219537E+02  0.2804552E+02  0.2517463E+02  0.0000000E+00
Ar 3820  0.4976508E+02  0.3106809E+02  0.2554230E+02  0.0000000E+00
Ar 3821  0.5006340E+02  0.2816399E+02  0.2816401E+02  0.0000000E+00
Ar 3822  0.5267631E+02  0.3113099E+02  0.2840834E+02  0.0000000E+00
Ar 3823  0.5267616E+02  0.2840832E+02  0.3113096E+02  0.0000000E+00
Ar 3824  0.4978263E+02  0.3063207E+02  0.3063201E+02  0.0000000E+00
Ar 3825  0.4999849E+02  0.2822617E+02  0.3377459E+02  0.0000000E+00
Ar 3826  0.5241167E+02  0.3115073E+02  0.3387818E+02  0.0000000E+00
Ar 3827  0.5285354E+02  0.2781634E+02  0.3639928E+02  0.0000000E+00
Ar 3828  0.4983716E+02  0.3086825E+02  0.3651051E+02  0.0000000E+00
Ar 3829  0.5001727E+02  0.2791412E+02  0.3902379E+02  0.0000000E+00
Ar 3830  0.5310095E+02  0.3068189E+02  0.3881798E+02  0.0000000E+00
Ar 3831  0.5322742E+02  0.2848364E+02  0.4144678E+02  0.0000000E+00
Ar 3832  0.4986720E+02  0.3072235E+02  0.4111424E+02  0.0000000E+00
Ar 3833  0.4950100E+02  0.2798658E+02  0.4433756E+02  0.0000000E+00
Ar 3834  0.5278350E+02  0.3086001E+02  0.4420467E+02  0.0000000E+00
Ar 3835  0.5251360E+02  0.2856909E+02  0.4713125E+02  0.0000000E+00
Ar 3836  0.5005553E+02  0.3117583E+02  0.4702148E+02  0.0000000E+00
Ar 3837  0.5010410E+02  0.2832649E+02  0.5011047E+02  0.0000000E+00
Ar 3838  0.5267489E+02  0.3118222E+02  0.4982151E+02  0.0000000E+00
Ar 3839  0.5284489E+02  0.2789291E+02  0.5283999E+02  0.0000000E+00
Ar 3840  0.4980572E+02  0.3115953E+02  0.5269264E+02  0.0000000E+00
Ar 3841  0.4939560E+02  0.3319467E+02  0.5581333E+02  0.0000000E+00
Ar 3842  0.5255910E+02  0.3534548E+02  0.5590192E+02  0.0000000E+00
Ar 3843  0.5267006E+02  0.3354594E+02  0.4086345E+01  0.0000000E+00
Ar 3844  0.4996706E+02  0.3679141E+02  0.2813493E+01  0.0000000E+00
Ar 3845  0.4967473E+02  0.3322249E+02  0.6115281E+01  0.0000000E+00
Ar 3846  0.5291334E+02  0.3655248E+02  0.6542153E+01  0.0000000E+00
Ar 3847  0.5266341E+02  0.3366058E+02  0.9163654E+01  0.0000000E+00
Ar 3848  0.4993720E+02  0.3640100E+02  0.9063124E+01  0.0000000E+00
Ar 3849  0.4967506E+02  0.3346162E+02  0.1169450E+02  0.0000000E+00
Ar 3850  0.5280511E+02  0.3641584E+02  0.1156124E+02  0.0000000E+00
Ar 3851  0.5227609E+02  0.3352287E+02  0.1414987E+02  0.0000000E+00
Ar 3852  0.4994515E+02  0.3644027E+02  0.1430341E+02  0.0000000E+00
Ar 3853  0.5008287E+02  0.3367299E+02  0.1698737E+02  0.0000000E+00
Ar 3854  0.5315830E+02  0.3616376E+02  0.1696984E+02  0.0000000E+00
Ar 3855  0.5286382E+02  0.3368717E+02  0.1959432E+02  0.0000000E+00
Ar 3856  0.4970471E+02  0.3633654E+02  0.1961884E+02  0.0000000E+00
Ar 3857  0.5007671E+02  0.3373460E+02  0.2240355E+02  0.0000000E+00
Ar 3858  0.5254946E+02  0.3682987E+02  0.2238299E+02  0.0000000E+00
Ar 3859  0.5249942E+02  0.3368047E+02  0.2542123E+02  0.0000000E+00
Ar 3860  0.5008512E+02  0.3650095E+02  0.2530096E+02  0.0000000E+00
Ar 3861  0.4999849E+02  0.3377460E+02  0.2822610E+02  0.0000000E+00
Ar 3862  0.5285346E+02  0.3639913E+02  0.2781629E+02  0.0000000E+00
Ar 3863  0.5241161E+02  0.3387827E+02  0.3115060E+02  0.0000000E+00
Ar 3864  0.4983719E+02  0.3651046E+02  0.3086835E+02  0.0000000E+00
Ar 3865  0.4960004E+02  0.3342368E+02  0.3342361E+02  0.0000000E+00
Ar 3866  0.5272064E+02  0.3683289E+02  0.3408357E+02  0.0000000E+00
Ar 3867  0.5272144E+02  0.3408409E+02  0.3683284E+02  0.0000000E+00
Ar 3868  0.5005079E+02  0.3627872E+02  0.3627873E+02  0.0000000E+00
Ar 3869  0.4988354E+02  0.3364677E+02  0.3884555E+02  0.0000000E+00
Ar 3870  0.5305442E+02  0.3675349E+02  0.3921627E+02  0.0000000E+00
Ar 3871  0.5294197E+02  0.3347866E+02  0.4153065E+02  0.0000000E+00
Ar 3872  0.5006910E+02  0.3646139E+02  0.4151895E+02  0.0000000E+00
Ar 3873  0.4975761E+02  0.3368924E+02  0.4422829E+02  0.0000000E+00
Ar 3874  0.5244686E+02  0.3639029E+02  0.4458458E+02  0.0000000E+00
Ar 3875  0.5306576E+02  0.3326494E+02  0.4700185E+02  0.0000000E+00
Ar 3876  0.5048731E+02  0.3620248E+02  0.4732785E+02  0.0000000E+00
Ar 3877  0.5029518E+02  0.3370669E+02  0.5029463E+02  0.0000000E+00
Ar 3878  0.5304832E+02  0.3598323E+02  0.5013616E+02  0.0000000E+00
Ar 3879  0.5289431E+02  0.3312111E+02  0.5295404E+02  0.0000000E+00
Ar 3880  0.5006387E+02  0.3597772E+02  0.5302123E+02  0.0000000E+00
Ar 3881  0.5050225E+02  0.3905494E+02  0.5501981E+02  0.0000000E+00
Ar 3882  0.5304360E+02  0.4129801E+02  0.7647392E+00  0.0000000E+00
Ar 3883  0.5340949E+02  0.3873580E+02  0.2922164E+01  0.0000000E+00
Ar 3884  0.5029156E+02  0.4123514E+02  0.3472266E+01  0.0000000E+00
Ar 3885  0.5022445E+02  0.3908806E+02  0.6301815E+01  0.0000000E+00
Ar 3886  0.5254521E+02  0.4209312E+02  0.6165272E+01  0.0000000E+00
Ar 3887  0.5268432E+02  0.3932237E+02  0.8872969E+01  0.0000000E+00
Ar 3888  0.4992792E+02  0.4190403E+02  0.8895495E+01  0.0000000E+00
Ar 3889  0.5035614E+02  0.3901810E+02  0.1153591E+02  0.0000000E+00
Ar 3890  0.5253940E+02  0.4165596E+02  0.1158966E+02  0.0000000E+00
Ar 3891  0.5275363E+02  0.3902773E+02  0.1429409E+02  0.0000000E+00
Ar 3892  0.4999368E+02  0.4192521E+02  0.1448092E+02  0.0000000E+00
Ar 3893  0.5023048E+02  0.3909982E+02  0.1710639E+02  0.0000000E+00
Ar 3894  0.5292322E+02  0.4196169E+02  0.1698857E+02  0.0000000E+00
Ar 3895  0.5253719E+02  0.3921278E+02  0.1981367E+02  0.0000000E+00
Ar 3896  0.5022222E+02  0.4192804E+02  0.1968281E+02  0.0000000E+00
Ar 3897  0.5007788E+02  0.3919310E+02  0.2246800E+02  0.0000000E+00
Ar 3898  0.5244129E+02  0.4177420E+02  0.2307462E+02  0.0000000E+00
Ar 3899  0.5299725E+02  0.3922612E+02  0.2554951E+02  0.0000000E+00
Ar 3900  0.4997967E+02  0.4158885E+02  0.2548348E+02  0.0000000E+00
Ar 3901  0.5001720E+02  0.3902385E+02  0.2791463E+02  0.0000000E+00
Ar 3902  0.5322702E+02  0.4144801E+02  0.2848326E+02  0.0000000E+00
Ar 3903  0.5310106E+02  0.3881838E+02  0.3068160E+02  0.0000000E+00
Ar 3904  0.4986702E+02  0.4111573E+02  0.3072296E+02  0.0000000E+00
Ar 3905  0.4988318E+02  0.3884590E+02  0.3364674E+02  0.0000000E+00
Ar 3906  0.5294220E+02  0.4152967E+02  0.3348010E+02  0.0000000E+00
Ar 3907  0.5305599E+02  0.3921534E+02  0.3675344E+02  0.0000000E+00
Ar 3908  0.5006899E+02  0.4151764E+02  0.3646268E+02  0.0000000E+00
Ar 3909  0.5008679E+02  0.3920006E+02  0.3920134E+02  0.0000000E+00
Ar 3910  0.5297274E+02  0.4191472E+02  0.3916643E+02  0.0000000E+00
Ar 3911  0.5297292E+02  0.3916543E+02  0.4191545E+02  0.0000000E+00
Ar 3912  0.5016662E+02  0.4193925E+02  0.4193995E+02  0.0000000E+00
Ar 3913  0.5021496E+02  0.3914265E+02  0.4421565E+02  0.0000000E+00
Ar 3914  0.5308664E+02  0.4192091E+02  0.4455444E+02  0.0000000E+00
Ar 3915  0.5287496E+02  0.3888482E+02  0.4720915E+02  0.0000000E+00
Ar 3916  0.5004803E+02  0.4161713E+02  0.4714496E+02  0.0000000E+00
Ar 3917  0.5046287E+02  0.3897294E+02  0.5046271E+02  0.0000000E+00
Ar 3918  0.5321859E+02  0.4208606E+02  0.4957770E+02  0.0000000E+00
Ar 3919  0.5263404E+02  0.4067232E+02  0.5263119E+02  0.0000000E+00
Ar 3920  0.4958523E+02  0.4208688E+02  0.5321647E+02  0.0000000E+00
Ar 3921  0.5030221E+02  0.4474478E+02  0.5551958E+02  0.0000000E+00
Ar 3922  0.5294118E+02  0.4752042E+02  0.5564101E+02  0.0000000E+00
Ar 3923  0.5245881E+02  0.4446550E+02  0.3359566E+01  0.0000000E+00
Ar 3924  0.4967279E+02  0.4698814E+02  0.3150506E+01  0.0000000E+00
Ar 3925  0.4992616E+02  0.4451205E+02  0.6196523E+01  0.0000000E+00
Ar 3926  0.5321991E+02  0.4697494E+02  0.6530361E+01  0.0000000E+00
Ar 3927  0.5279044E+02  0.4452935E+02  0.9220145E+01  0.0000000E+00
Ar 3928  0.4976953E+02  0.4730880E+02  0.8945574E+01  0.0000000E+00
Ar 3929  0.4993977E+02  0.4470917E+02  0.1187355E+02  0.0000000E+00
Ar 3930  0.5250731E+02  0.4730422E+02  0.1212811E+02  0.0000000E+00
Ar 3931  0.5307064E+02  0.4462673E+02  0.1436041E+02  0.0000000E+00
Ar 3932  0.5008217E+02  0.4720535E+02  0.1446082E+02  0.0000000E+00
Ar 3933  0.5003722E+02  0.4467589E+02  0.1694850E+02  0.0000000E+00
Ar 3934  0.5312213E+02  0.4744210E+02  0.1686933E+02  0.0000000E+00
Ar 3935  0.5285967E+02  0.4459750E+02  0.1945584E+02  0.0000000E+00
Ar 3936  0.5014072E+02  0.4679221E+02  0.2012379E+02  0.0000000E+00
Ar 3937  0.5004616E+02  0.4449184E+02  0.2315149E+02  0.0000000E+00
Ar 3938  0.5292397E+02  0.4727273E+02  0.2285198E+02  0.0000000E+00
Ar 3939  0.5262549E+02  0.4452162E+02  0.2571406E+02  0.0000000E+00
Ar 3940  0.4989122E+02  0.4722313E+02  0.2551944E+02  0.0000000E+00
Ar 3941  0.4950260E+02  0.4433706E+02  0.2798694E+02  0.0000000E+00
Ar 3942  0.5248604E+02  0.4710866E+02  0.2857119E+02  0.0000000E+00
Ar 3943  0.5278551E+02  0.4419453E+02  0.3086944E+02  0.0000000E+00
Ar 3944  0.5005685E+02  0.4702417E+02  0.3117798E+02  0.0000000E+00
Ar 3945  0.4975694E+02  0.4422694E+02  0.3368951E+02  0.0000000E+00
Ar 3946  0.5305981E+02  0.4699820E+02  0.3326087E+02  0.0000000E+00
Ar 3947  0.5245171E+02  0.4458653E+02  0.3639232E+02  0.0000000E+00
Ar 3948  0.5048802E+02  0.4732726E+02  0.3620164E+02  0.0000000E+00
Ar 3949  0.5021518E+02  0.4421620E+02  0.3914279E+02  0.0000000E+00
Ar 3950  0.5287638E+02  0.4721344E+02  0.3888346E+02  0.0000000E+00
Ar 3951  0.5308822E+02  0.4455687E+02  0.4191853E+02  0.0000000E+00
Ar 3952  0.5004949E+02  0.4714619E+02  0.4161509E+02  0.0000000E+00
Ar 3953  0.4999302E+02  0.4463581E+02  0.4463500E+02  0.0000000E+00
Ar 3954  0.5264881E+02  0.4704013E+02  0.4435176E+02  0.0000000E+00
Ar 3955  0.5264814E+02  0.4435435E+02  0.4703722E+02  0.0000000E+00
Ar 3956  0.5018175E+02  0.4749627E+02  0.4749696E+02  0.0000000E+00
Ar 3957  0.4982002E+02  0.4410566E+02  0.4982017E+02  0.0000000E+00
Ar 3958  0.5303574E+02  0.4697556E+02  0.5004919E+02  0.0000000E+00
Ar 3959  0.5316698E+02  0.4457282E+02  0.5317541E+02  0.0000000E+00
Ar 3960  0.5005538E+02  0.4697567E+02  0.5303861E+02  0.0000000E+00
Ar 3961  0.5043342E+02  0.5044808E+02  0.5603208E+02  0.0000000E+00
Ar 3962  0.5259789E+02  0.5259626E+02  0.1536110E+01  0.0000000E+00
Ar 3963  0.5254999E+02  0.4991064E+02  0.4149082E+01  0.0000000E+00
Ar 3964  0.4992019E+02  0.5254631E+02  0.4148311E+01  0.0000000E+00
Ar 3965  0.4993459E+02  0.4993447E+02  0.6351635E+01  0.0000000E+00
Ar 3966  0.5313604E+02  0.5313967E+02  0.6193893E+01  0.0000000E+00
Ar 3967  0.5319923E+02  0.5026708E+02  0.9742672E+01  0.0000000E+00
Ar 3968  0.5025740E+02  0.5318842E+02  0.9738819E+01  0.0000000E+00
Ar 3969  0.5039096E+02  0.5037871E+02  0.1173818E+02  0.0000000E+00
Ar 3970  0.5366873E+02  0.5367877E+02  0.1234356E+02  0.0000000E+00
Ar 3971  0.5252644E+02  0.5004327E+02  0.1464041E+02  0.0000000E+00
Ar 3972  0.5004559E+02  0.5252288E+02  0.1463706E+02  0.0000000E+00
Ar 3973  0.5006842E+02  0.5006799E+02  0.1731636E+02  0.0000000E+00
Ar 3974  0.5300274E+02  0.5301610E+02  0.1745583E+02  0.0000000E+00
Ar 3975  0.5313251E+02  0.5009361E+02  0.1982151E+02  0.0000000E+00
Ar 3976  0.5009360E+02  0.5313201E+02  0.1982193E+02  0.0000000E+00
Ar 3977  0.4981064E+02  0.4981060E+02  0.2250628E+02  0.0000000E+00
Ar 3978  0.5233689E+02  0.5233681E+02  0.2241151E+02  0.0000000E+00
Ar 3979  0.5277064E+02  0.4989861E+02  0.2533653E+02  0.0000000E+00
Ar 3980  0.4989860E+02  0.5277064E+02  0.2533656E+02  0.0000000E+00
Ar 3981  0.5010847E+02  0.5010849E+02  0.2832661E+02  0.0000000E+00
Ar 3982  0.5284302E+02  0.5284303E+02  0.2789441E+02  0.0000000E+00
Ar 3983  0.5268558E+02  0.4981530E+02  0.3117215E+02  0.0000000E+00
Ar 3984  0.4981534E+02  0.5268558E+02  0.3117212E+02  0.0000000E+00
Ar 3985  0.5029601E+02  0.5029600E+02  0.3370516E+02  0.0000000E+00
Ar 3986  0.5293123E+02  0.5293121E+02  0.3312266E+02  0.0000000E+00
Ar 3987  0.5303108E+02  0.5010523E+02  0.3598727E+02  0.0000000E+00
Ar 3988  0.5010522E+02  0.5303109E+02  0.3598724E+02  0.0000000E+00
Ar 3989  0.5046421E+02  0.5046418E+02  0.3897420E+02  0.0000000E+00
Ar 3990  0.5263066E+02  0.5263121E+02  0.4065556E+02  0.0000000E+00
Ar 3991  0.5321584E+02  0.4959751E+02  0.4208121E+02  0.0000000E+00
Ar 3992  0.4959787E+02  0.5321623E+02  0.4208230E+02  0.0000000E+00
Ar 3993  0.4982055E+02  0.4981876E+02  0.4410584E+02  0.0000000E+00
Ar 3994  0.5317210E+02  0.5317098E+02  0.4457335E+02  0.0000000E+00
Ar 3995  0.5303500E+02  0.5004982E+02  0.4697497E+02  0.0000000E+00
Ar 3996  0.5005458E+02  0.5303759E+02  0.4697625E+02  0.0000000E+00
Ar 3997  0.5032908E+02  0.5032579E+02  0.5032676E+02  0.0000000E+00
Ar 3998  0.5302860E+02  0.5303151E+02  0.5028740E+02  0.0000000E+00
Ar 3999  0.5302796E+02  0.5028708E+02  0.5303274E+02  0.0000000E+00
Ar 4000  0.5028403E+02  0.5302975E+02  0.5302945E+02  0.0000000E+00
