        4000
Lattice="  0.5534294E+02  0.3671095E+00  0.3671304E+00  0.3671090E+00  0.5534289E+02  0.3670801E+00  0.3671302E+00  0.3670803E+00  0.5534292E+02" Properties=species:S:1:id:I:1:pos:R:3:tempK:R:1
Ar    1  0.3030888E+00  0.3064873E+00  0.3063987E+00  0.0000000E+00
Ar    2  0.3243300E+01  0.3243017E+01  0.6305326E+00  0.0000000E+00
Ar    3  0.3243288E+01  0.6304945E+00  0.3242944E+01  0.0000000E+00
Ar    4  0.6321480E+00  0.3243723E+01  0.3243734E+01  0.0000000E+00
Ar    5  0.8175100E+00  0.8190780E+00  0.6604253E+01  0.0000000E+00
Ar    6  0.3275391E+01  0.3274761E+01  0.5770066E+01  0.0000000E+00
Ar    7  0.3554807E+01  0.4316806E+00  0.9126201E+01  0.0000000E+00
Ar    8  0.4323261E+00  0.3562448E+01  0.9131298E+01  0.0000000E+00
Ar    9  0.3302162E+00  0.3123758E+00  0.1209577E+02  0.0000000E+00
Ar   10  0.3181200E+01  0.3181334E+01  0.1150498E+02  0.0000000E+00
Ar   11  0.3505585E+01  0.4857852E+00  0.1445124E+02  0.0000000E+00
Ar   12  0.4850675E+00  0.3505291E+01  0.1445190E+02  0.0000000E+00
Ar   13  0.2700790E+00  0.2558382E+00  0.1620898E+02  0.0000000E+00
Ar   14  0.3486481E+01  0.3486614E+01  0.1678585E+02  0.0000000E+00
Ar   15  0.3051673E+01  0.4309566E+00  0.2003480E+02  0.0000000E+00
Ar   16  0.4312289E+00  0.3051653E+01  0.2003503E+02  0.0000000E+00
Ar   17  0.5471940E+02  0.5471936E+02  0.2294491E+02  0.0000000E+00
Ar   18  0.2943949E+01  0.2943850E+01  0.2266062E+02  0.0000000E+00
Ar   19  0.3333645E+01  0.5548318E+02  0.2567775E+02  0.0000000E+00
Ar   20  0.5548325E+02  0.3333619E+01  0.2567771E+02  0.0000000E+00
Ar   21  0.5131722E+00  0.5131892E+00  0.2845921E+02  0.0000000E+00
Ar   22  0.3048242E+01  0.3048201E+01  0.2805233E+02  0.0000000E+00
Ar   23  0.3702104E+01  0.3944221E+00  0.3108688E+02  0.0000000E+00
Ar   24  0.3944667E+00  0.3702085E+01  0.3108690E+02  0.0000000E+00
Ar   25  0.5561977E+02  0.5561971E+02  0.3339418E+02  0.0000000E+00
Ar   26  0.3578333E+01  0.3578270E+01  0.3321945E+02  0.0000000E+00
Ar   27  0.3144863E+01  0.5193876E+00  0.3565071E+02  0.0000000E+00
Ar   28  0.5194233E+00  0.3144830E+01  0.3565069E+02  0.0000000E+00
Ar   29  0.7188944E+00  0.7189041E+00  0.3805165E+02  0.0000000E+00
Ar   30  0.3273607E+01  0.3273330E+01  0.3842499E+02  0.0000000E+00
Ar   31  0.3471936E+01  0.1012109E+01  0.4090511E+02  0.0000000E+00
Ar   32  0.1011588E+01  0.3473215E+01  0.4090409E+02  0.0000000E+00
Ar   33  0.1218549E+01  0.1221796E+01  0.4378945E+02  0.0000000E+00
Ar   34  0.4107132E+01  0.4107047E+01  0.4426332E+02  0.0000000E+00
Ar   35  0.2898782E+01  0.5551407E+02  0.4743992E+02  0.0000000E+00
Ar   36  0.5551534E+02  0.2900857E+01  0.4744109E+02  0.0000000E+00
Ar   37  0.8792115E+00  0.8799657E+00  0.5015783E+02  0.0000000E+00
Ar   38  0.3373980E+01  0.3374440E+01  0.5006027E+02  0.0000000E+00
Ar   39  0.3762549E+01  0.5553186E+02  0.5234665E+02  0.0000000E+00
Ar   40  0.5553346E+02  0.3760095E+01  0.5234535E+02  0.0000000E+00
Ar   41  0.8173272E+00  0.6604336E+01  0.8195811E+00  0.0000000E+00
Ar   42  0.3554522E+01  0.9126280E+01  0.4314975E+00  0.0000000E+00
Ar   43  0.3275401E+01  0.5770003E+01  0.3274826E+01  0.0000000E+00
Ar   44  0.4322300E+00  0.9131845E+01  0.3562399E+01  0.0000000E+00
Ar   45  0.8067371E+00  0.5646972E+01  0.5646971E+01  0.0000000E+00
Ar   46  0.3309667E+01  0.8626936E+01  0.5802596E+01  0.0000000E+00
Ar   47  0.3309716E+01  0.5802691E+01  0.8626774E+01  0.0000000E+00
Ar   48  0.6788902E+00  0.8747940E+01  0.8747658E+01  0.0000000E+00
Ar   49  0.6060010E+00  0.6418964E+01  0.1159087E+02  0.0000000E+00
Ar   50  0.3231941E+01  0.8726184E+01  0.1132128E+02  0.0000000E+00
Ar   51  0.3689287E+01  0.6253149E+01  0.1398222E+02  0.0000000E+00
Ar   52  0.7350835E+00  0.8707578E+01  0.1423924E+02  0.0000000E+00
Ar   53  0.4181487E+00  0.6074767E+01  0.1733623E+02  0.0000000E+00
Ar   54  0.3406952E+01  0.8803511E+01  0.1687453E+02  0.0000000E+00
Ar   55  0.3023130E+01  0.5786212E+01  0.1973609E+02  0.0000000E+00
Ar   56  0.7031808E+00  0.8406067E+01  0.1988444E+02  0.0000000E+00
Ar   57  0.3194440E+00  0.6026309E+01  0.2270992E+02  0.0000000E+00
Ar   58  0.3101080E+01  0.8395419E+01  0.2251247E+02  0.0000000E+00
Ar   59  0.3188740E+01  0.5606299E+01  0.2557906E+02  0.0000000E+00
Ar   60  0.5530407E+02  0.8737834E+01  0.2538943E+02  0.0000000E+00
Ar   61  0.4473206E+00  0.5855993E+01  0.2764404E+02  0.0000000E+00
Ar   62  0.2919118E+01  0.8799525E+01  0.2799029E+02  0.0000000E+00
Ar   63  0.3126597E+01  0.5922450E+01  0.3016824E+02  0.0000000E+00
Ar   64  0.5515577E+02  0.8473523E+01  0.3054237E+02  0.0000000E+00
Ar   65  0.5557845E+02  0.6833705E+01  0.3415339E+02  0.0000000E+00
Ar   66  0.3065642E+01  0.8777298E+01  0.3342050E+02  0.0000000E+00
Ar   67  0.3571891E+01  0.6107258E+01  0.3594582E+02  0.0000000E+00
Ar   68  0.3775936E+00  0.9618019E+01  0.3652189E+02  0.0000000E+00
Ar   69  0.6344301E+00  0.6289806E+01  0.3898495E+02  0.0000000E+00
Ar   70  0.2865110E+01  0.9039055E+01  0.3910043E+02  0.0000000E+00
Ar   71  0.3796809E+01  0.6564063E+01  0.4176706E+02  0.0000000E+00
Ar   72  0.4456714E+00  0.8078061E+01  0.4175691E+02  0.0000000E+00
Ar   73  0.5565274E+02  0.5012500E+01  0.4493656E+02  0.0000000E+00
Ar   74  0.3378972E+01  0.8850108E+01  0.4472355E+02  0.0000000E+00
Ar   75  0.3878493E+01  0.6323827E+01  0.4742556E+02  0.0000000E+00
Ar   76  0.5402011E+00  0.1022866E+02  0.4811201E+02  0.0000000E+00
Ar   77  0.3869049E+00  0.6570768E+01  0.4982968E+02  0.0000000E+00
Ar   78  0.3847235E+01  0.9279266E+01  0.5023444E+02  0.0000000E+00
Ar   79  0.3680042E+01  0.6001451E+01  0.5317918E+02  0.0000000E+00
Ar   80  0.6851188E+00  0.9208028E+01  0.5335645E+02  0.0000000E+00
Ar   81  0.3299181E+00  0.1209596E+02  0.3126861E+00  0.0000000E+00
Ar   82  0.3505436E+01  0.1445222E+02  0.4861216E+00  0.0000000E+00
Ar   83  0.3181303E+01  0.1150490E+02  0.3181083E+01  0.0000000E+00
Ar   84  0.4849704E+00  0.1445147E+02  0.3505636E+01  0.0000000E+00
Ar   85  0.6058990E+00  0.1159141E+02  0.6418435E+01  0.0000000E+00
Ar   86  0.3688956E+01  0.1398228E+02  0.6253084E+01  0.0000000E+00
Ar   87  0.3231913E+01  0.1132144E+02  0.8725984E+01  0.0000000E+00
Ar   88  0.7350714E+00  0.1423925E+02  0.8707592E+01  0.0000000E+00
Ar   89  0.6408997E+00  0.1197260E+02  0.1197263E+02  0.0000000E+00
Ar   90  0.3097455E+01  0.1437933E+02  0.1146216E+02  0.0000000E+00
Ar   91  0.3097443E+01  0.1146211E+02  0.1437936E+02  0.0000000E+00
Ar   92  0.5122775E+00  0.1455135E+02  0.1455137E+02  0.0000000E+00
Ar   93  0.5521036E+00  0.1144354E+02  0.1707165E+02  0.0000000E+00
Ar   94  0.3282643E+01  0.1423361E+02  0.1669654E+02  0.0000000E+00
Ar   95  0.3176455E+01  0.1103918E+02  0.1976397E+02  0.0000000E+00
Ar   96  0.3291807E+00  0.1412221E+02  0.1978770E+02  0.0000000E+00
Ar   97  0.2427895E+00  0.1128073E+02  0.2225827E+02  0.0000000E+00
Ar   98  0.3021524E+01  0.1392806E+02  0.2260698E+02  0.0000000E+00
Ar   99  0.2643464E+01  0.1131670E+02  0.2516253E+02  0.0000000E+00
Ar  100  0.5517534E+02  0.1410532E+02  0.2515807E+02  0.0000000E+00
Ar  101  0.5528389E+02  0.1170158E+02  0.2795255E+02  0.0000000E+00
Ar  102  0.2748903E+01  0.1423299E+02  0.2803813E+02  0.0000000E+00
Ar  103  0.2942292E+01  0.1139105E+02  0.3065547E+02  0.0000000E+00
Ar  104  0.4817500E+00  0.1413792E+02  0.3066330E+02  0.0000000E+00
Ar  105  0.5560250E+02  0.1143288E+02  0.3342777E+02  0.0000000E+00
Ar  106  0.3387060E+01  0.1413500E+02  0.3351959E+02  0.0000000E+00
Ar  107  0.3416035E+01  0.1165324E+02  0.3629593E+02  0.0000000E+00
Ar  108  0.7208039E+00  0.1476182E+02  0.3675640E+02  0.0000000E+00
Ar  109  0.5552106E+02  0.1166723E+02  0.3930413E+02  0.0000000E+00
Ar  110  0.3480894E+01  0.1396076E+02  0.3908968E+02  0.0000000E+00
Ar  111  0.3042921E+01  0.1137546E+02  0.4208533E+02  0.0000000E+00
Ar  112  0.5544527E+02  0.1409862E+02  0.4183370E+02  0.0000000E+00
Ar  113  0.4846657E+00  0.1138282E+02  0.4455944E+02  0.0000000E+00
Ar  114  0.3347326E+01  0.1435037E+02  0.4467726E+02  0.0000000E+00
Ar  115  0.3529845E+01  0.1176665E+02  0.4735797E+02  0.0000000E+00
Ar  116  0.4110324E+00  0.1419966E+02  0.4750920E+02  0.0000000E+00
Ar  117  0.4939870E+00  0.1164903E+02  0.5094181E+02  0.0000000E+00
Ar  118  0.3299497E+01  0.1467137E+02  0.4993329E+02  0.0000000E+00
Ar  119  0.3511234E+01  0.1209398E+02  0.5291663E+02  0.0000000E+00
Ar  120  0.4768870E+00  0.1407038E+02  0.5284954E+02  0.0000000E+00
Ar  121  0.2562377E+00  0.1620892E+02  0.2693860E+00  0.0000000E+00
Ar  122  0.3049588E+01  0.2003229E+02  0.4317967E+00  0.0000000E+00
Ar  123  0.3485917E+01  0.1678625E+02  0.3486255E+01  0.0000000E+00
Ar  124  0.4309518E+00  0.2003548E+02  0.3052043E+01  0.0000000E+00
Ar  125  0.4182737E+00  0.1733606E+02  0.6074625E+01  0.0000000E+00
Ar  126  0.3023187E+01  0.1973617E+02  0.5786249E+01  0.0000000E+00
Ar  127  0.3406840E+01  0.1687455E+02  0.8803587E+01  0.0000000E+00
Ar  128  0.7028660E+00  0.1988474E+02  0.8405783E+01  0.0000000E+00
Ar  129  0.5521108E+00  0.1707163E+02  0.1144359E+02  0.0000000E+00
Ar  130  0.3176368E+01  0.1976365E+02  0.1103916E+02  0.0000000E+00
Ar  131  0.3282639E+01  0.1669650E+02  0.1423362E+02  0.0000000E+00
Ar  132  0.3291468E+00  0.1978756E+02  0.1412240E+02  0.0000000E+00
Ar  133  0.5553481E+02  0.1728363E+02  0.1728368E+02  0.0000000E+00
Ar  134  0.3237275E+01  0.1975529E+02  0.1678158E+02  0.0000000E+00
Ar  135  0.3237283E+01  0.1678155E+02  0.1975532E+02  0.0000000E+00
Ar  136  0.3424906E+00  0.1985525E+02  0.1985527E+02  0.0000000E+00
Ar  137  0.4979426E+00  0.1650895E+02  0.2241211E+02  0.0000000E+00
Ar  138  0.3075797E+01  0.1960235E+02  0.2268152E+02  0.0000000E+00
Ar  139  0.3262297E+01  0.1698351E+02  0.2496013E+02  0.0000000E+00
Ar  140  0.5562357E+02  0.1991351E+02  0.2509132E+02  0.0000000E+00
Ar  141  0.3767720E+00  0.1717936E+02  0.2838532E+02  0.0000000E+00
Ar  142  0.3060937E+01  0.1965432E+02  0.2815363E+02  0.0000000E+00
Ar  143  0.3333337E+01  0.1739453E+02  0.3090660E+02  0.0000000E+00
Ar  144  0.5552876E+02  0.1990539E+02  0.3104578E+02  0.0000000E+00
Ar  145  0.5553022E+02  0.1627949E+02  0.3337343E+02  0.0000000E+00
Ar  146  0.2972794E+01  0.1969552E+02  0.3365557E+02  0.0000000E+00
Ar  147  0.3213276E+01  0.1722860E+02  0.3601226E+02  0.0000000E+00
Ar  148  0.5164531E+00  0.1994665E+02  0.3608417E+02  0.0000000E+00
Ar  149  0.6858369E+00  0.1787916E+02  0.3919505E+02  0.0000000E+00
Ar  150  0.3119144E+01  0.2005341E+02  0.3875118E+02  0.0000000E+00
Ar  151  0.3126933E+01  0.1647210E+02  0.4165320E+02  0.0000000E+00
Ar  152  0.5567060E+02  0.1997713E+02  0.4198717E+02  0.0000000E+00
Ar  153  0.5214316E+00  0.1696703E+02  0.4457032E+02  0.0000000E+00
Ar  154  0.3042028E+01  0.1990964E+02  0.4431898E+02  0.0000000E+00
Ar  155  0.3327176E+01  0.1687169E+02  0.4740059E+02  0.0000000E+00
Ar  156  0.5234925E+00  0.1978971E+02  0.4717572E+02  0.0000000E+00
Ar  157  0.5566193E+02  0.1728436E+02  0.5040597E+02  0.0000000E+00
Ar  158  0.3367569E+01  0.1955349E+02  0.4967643E+02  0.0000000E+00
Ar  159  0.3074118E+01  0.1720477E+02  0.5307955E+02  0.0000000E+00
Ar  160  0.5579756E+02  0.2008391E+02  0.5305090E+02  0.0000000E+00
Ar  161  0.5472251E+02  0.2294489E+02  0.5471664E+02  0.0000000E+00
Ar  162  0.3328729E+01  0.2566810E+02  0.5547959E+02  0.0000000E+00
Ar  163  0.2946190E+01  0.2265764E+02  0.2945813E+01  0.0000000E+00
Ar  164  0.5548883E+02  0.2569966E+02  0.3352994E+01  0.0000000E+00
Ar  165  0.3202594E+00  0.2271122E+02  0.6025505E+01  0.0000000E+00
Ar  166  0.3187942E+01  0.2558053E+02  0.5606115E+01  0.0000000E+00
Ar  167  0.3101389E+01  0.2251208E+02  0.8395665E+01  0.0000000E+00
Ar  168  0.5530372E+02  0.2539023E+02  0.8737768E+01  0.0000000E+00
Ar  169  0.2424179E+00  0.2225791E+02  0.1128091E+02  0.0000000E+00
Ar  170  0.2643760E+01  0.2516109E+02  0.1131814E+02  0.0000000E+00
Ar  171  0.3021432E+01  0.2260689E+02  0.1392822E+02  0.0000000E+00
Ar  172  0.5517513E+02  0.2515785E+02  0.1410561E+02  0.0000000E+00
Ar  173  0.4978999E+00  0.2241204E+02  0.1650905E+02  0.0000000E+00
Ar  174  0.3262221E+01  0.2496010E+02  0.1698351E+02  0.0000000E+00
Ar  175  0.3075807E+01  0.2268151E+02  0.1960235E+02  0.0000000E+00
Ar  176  0.5562355E+02  0.2509129E+02  0.1991353E+02  0.0000000E+00
Ar  177  0.5549400E+02  0.2242819E+02  0.2242821E+02  0.0000000E+00
Ar  178  0.3022258E+01  0.2543997E+02  0.2248691E+02  0.0000000E+00
Ar  179  0.3022261E+01  0.2248690E+02  0.2543999E+02  0.0000000E+00
Ar  180  0.5545217E+02  0.2508934E+02  0.2508937E+02  0.0000000E+00
Ar  181  0.5557524E+02  0.2269467E+02  0.2799050E+02  0.0000000E+00
Ar  182  0.2935157E+01  0.2533245E+02  0.2807825E+02  0.0000000E+00
Ar  183  0.3164168E+01  0.2256753E+02  0.3023494E+02  0.0000000E+00
Ar  184  0.5550197E+02  0.2550799E+02  0.3009086E+02  0.0000000E+00
Ar  185  0.5559786E+02  0.2271547E+02  0.3361918E+02  0.0000000E+00
Ar  186  0.3393127E+01  0.2482955E+02  0.3347308E+02  0.0000000E+00
Ar  187  0.3439945E+01  0.2269660E+02  0.3638662E+02  0.0000000E+00
Ar  188  0.5563889E+02  0.2497896E+02  0.3613501E+02  0.0000000E+00
Ar  189  0.5094285E+00  0.2254957E+02  0.3881860E+02  0.0000000E+00
Ar  190  0.3252082E+01  0.2511396E+02  0.3905269E+02  0.0000000E+00
Ar  191  0.3165592E+01  0.2243850E+02  0.4174451E+02  0.0000000E+00
Ar  192  0.5577784E+02  0.2554161E+02  0.4210358E+02  0.0000000E+00
Ar  193  0.5545873E+02  0.2265250E+02  0.4501531E+02  0.0000000E+00
Ar  194  0.3054742E+01  0.2510080E+02  0.4449451E+02  0.0000000E+00
Ar  195  0.3281985E+01  0.2256673E+02  0.4708018E+02  0.0000000E+00
Ar  196  0.6559301E+00  0.2565421E+02  0.4740607E+02  0.0000000E+00
Ar  197  0.5558649E+02  0.2270745E+02  0.4961939E+02  0.0000000E+00
Ar  198  0.3009905E+01  0.2531670E+02  0.4999847E+02  0.0000000E+00
Ar  199  0.3317237E+01  0.2268327E+02  0.5279642E+02  0.0000000E+00
Ar  200  0.5537288E+02  0.2572250E+02  0.5211687E+02  0.0000000E+00
Ar  201  0.5217669E+00  0.2845922E+02  0.5047565E+00  0.0000000E+00
Ar  202  0.3702216E+01  0.3108984E+02  0.4001211E+00  0.0000000E+00
Ar  203  0.3048192E+01  0.2804924E+02  0.3042584E+01  0.0000000E+00
Ar  204  0.3924770E+00  0.3108172E+02  0.3709432E+01  0.0000000E+00
Ar  205  0.4390798E+00  0.2763351E+02  0.5839340E+01  0.0000000E+00
Ar  206  0.3126191E+01  0.3016582E+02  0.5920095E+01  0.0000000E+00
Ar  207  0.2918483E+01  0.2798941E+02  0.8798026E+01  0.0000000E+00
Ar  208  0.5515305E+02  0.3054439E+02  0.8476737E+01  0.0000000E+00
Ar  209  0.5528333E+02  0.2795162E+02  0.1170158E+02  0.0000000E+00
Ar  210  0.2940954E+01  0.3065598E+02  0.1139100E+02  0.0000000E+00
Ar  211  0.2748617E+01  0.2803794E+02  0.1423295E+02  0.0000000E+00
Ar  212  0.4819968E+00  0.3066390E+02  0.1413775E+02  0.0000000E+00
Ar  213  0.3767164E+00  0.2838549E+02  0.1717927E+02  0.0000000E+00
Ar  214  0.3333311E+01  0.3090665E+02  0.1739464E+02  0.0000000E+00
Ar  215  0.3060911E+01  0.2815360E+02  0.1965429E+02  0.0000000E+00
Ar  216  0.5552872E+02  0.3104568E+02  0.1990542E+02  0.0000000E+00
Ar  217  0.5557522E+02  0.2799044E+02  0.2269468E+02  0.0000000E+00
Ar  218  0.3164161E+01  0.3023492E+02  0.2256756E+02  0.0000000E+00
Ar  219  0.2935154E+01  0.2807824E+02  0.2533248E+02  0.0000000E+00
Ar  220  0.5550198E+02  0.3009073E+02  0.2550806E+02  0.0000000E+00
Ar  221  0.5493782E+02  0.2802647E+02  0.2802654E+02  0.0000000E+00
Ar  222  0.3520240E+01  0.3135463E+02  0.2772598E+02  0.0000000E+00
Ar  223  0.3520258E+01  0.2772596E+02  0.3135465E+02  0.0000000E+00
Ar  224  0.5572863E+02  0.3141714E+02  0.3141716E+02  0.0000000E+00
Ar  225  0.5765721E+00  0.2822133E+02  0.3369613E+02  0.0000000E+00
Ar  226  0.3577714E+01  0.3067307E+02  0.3359362E+02  0.0000000E+00
Ar  227  0.3472141E+01  0.2762319E+02  0.3616049E+02  0.0000000E+00
Ar  228  0.5552152E+02  0.3102214E+02  0.3616223E+02  0.0000000E+00
Ar  229  0.5921867E+00  0.2802575E+02  0.3888497E+02  0.0000000E+00
Ar  230  0.3690671E+01  0.3079955E+02  0.3855316E+02  0.0000000E+00
Ar  231  0.3455371E+01  0.2793187E+02  0.4118329E+02  0.0000000E+00
Ar  232  0.1041793E+01  0.3087505E+02  0.4086953E+02  0.0000000E+00
Ar  233  0.7855579E+00  0.2804333E+02  0.4429016E+02  0.0000000E+00
Ar  234  0.3296996E+01  0.3059492E+02  0.4438657E+02  0.0000000E+00
Ar  235  0.3245504E+01  0.2824265E+02  0.4727200E+02  0.0000000E+00
Ar  236  0.5573564E+02  0.3044525E+02  0.4685830E+02  0.0000000E+00
Ar  237  0.5543388E+02  0.2859231E+02  0.4986844E+02  0.0000000E+00
Ar  238  0.3378025E+01  0.3064906E+02  0.4981471E+02  0.0000000E+00
Ar  239  0.3056657E+01  0.2816067E+02  0.5294001E+02  0.0000000E+00
Ar  240  0.5944156E+00  0.3097839E+02  0.5272071E+02  0.0000000E+00
Ar  241  0.5559624E+02  0.3338339E+02  0.5561331E+02  0.0000000E+00
Ar  242  0.3203702E+01  0.3572848E+02  0.4792217E+00  0.0000000E+00
Ar  243  0.3577280E+01  0.3322137E+02  0.3583240E+01  0.0000000E+00
Ar  244  0.5532852E+00  0.3557473E+02  0.3112159E+01  0.0000000E+00
Ar  245  0.5557465E+02  0.3417023E+02  0.6823649E+01  0.0000000E+00
Ar  246  0.3531012E+01  0.3599116E+02  0.6084533E+01  0.0000000E+00
Ar  247  0.3065834E+01  0.3342838E+02  0.8776414E+01  0.0000000E+00
Ar  248  0.3933248E+00  0.3651369E+02  0.9630935E+01  0.0000000E+00
Ar  249  0.5560250E+02  0.3343015E+02  0.1143047E+02  0.0000000E+00
Ar  250  0.3418484E+01  0.3629583E+02  0.1165502E+02  0.0000000E+00
Ar  251  0.3387111E+01  0.3351990E+02  0.1413565E+02  0.0000000E+00
Ar  252  0.7220671E+00  0.3675484E+02  0.1476347E+02  0.0000000E+00
Ar  253  0.5553020E+02  0.3337297E+02  0.1628016E+02  0.0000000E+00
Ar  254  0.3213861E+01  0.3601281E+02  0.1722924E+02  0.0000000E+00
Ar  255  0.2972923E+01  0.3365569E+02  0.1969562E+02  0.0000000E+00
Ar  256  0.5164559E+00  0.3608452E+02  0.1994644E+02  0.0000000E+00
Ar  257  0.5559805E+02  0.3361935E+02  0.2271520E+02  0.0000000E+00
Ar  258  0.3440014E+01  0.3638673E+02  0.2269672E+02  0.0000000E+00
Ar  259  0.3393099E+01  0.3347306E+02  0.2482958E+02  0.0000000E+00
Ar  260  0.5563896E+02  0.3613485E+02  0.2497916E+02  0.0000000E+00
Ar  261  0.5765265E+00  0.3369616E+02  0.2822116E+02  0.0000000E+00
Ar  262  0.3472143E+01  0.3616056E+02  0.2762315E+02  0.0000000E+00
Ar  263  0.3577653E+01  0.3359363E+02  0.3067305E+02  0.0000000E+00
Ar  264  0.5552152E+02  0.3616228E+02  0.3102205E+02  0.0000000E+00
Ar  265  0.5494343E+02  0.3357944E+02  0.3357931E+02  0.0000000E+00
Ar  266  0.3303691E+01  0.3618493E+02  0.3344949E+02  0.0000000E+00
Ar  267  0.3303679E+01  0.3344956E+02  0.3618489E+02  0.0000000E+00
Ar  268  0.8644710E+00  0.3587926E+02  0.3587914E+02  0.0000000E+00
Ar  269  0.5577818E+02  0.3460807E+02  0.3956837E+02  0.0000000E+00
Ar  270  0.3470048E+01  0.3646686E+02  0.3903294E+02  0.0000000E+00
Ar  271  0.3488311E+01  0.3364190E+02  0.4174752E+02  0.0000000E+00
Ar  272  0.5191190E+00  0.3647923E+02  0.4203658E+02  0.0000000E+00
Ar  273  0.6375049E+00  0.3331885E+02  0.4422020E+02  0.0000000E+00
Ar  274  0.3482752E+01  0.3619447E+02  0.4421721E+02  0.0000000E+00
Ar  275  0.3054536E+01  0.3352381E+02  0.4704278E+02  0.0000000E+00
Ar  276  0.5560531E+02  0.3574794E+02  0.4658663E+02  0.0000000E+00
Ar  277  0.6699816E+00  0.3379174E+02  0.4977096E+02  0.0000000E+00
Ar  278  0.3382899E+01  0.3678364E+02  0.4990568E+02  0.0000000E+00
Ar  279  0.3751981E+01  0.3361105E+02  0.5293753E+02  0.0000000E+00
Ar  280  0.5561178E+02  0.3568067E+02  0.5281292E+02  0.0000000E+00
Ar  281  0.7276625E+00  0.3804807E+02  0.7367272E+00  0.0000000E+00
Ar  282  0.3490753E+01  0.4092046E+02  0.1026051E+01  0.0000000E+00
Ar  283  0.3272788E+01  0.3842476E+02  0.3268162E+01  0.0000000E+00
Ar  284  0.9978608E+00  0.4088981E+02  0.3461524E+01  0.0000000E+00
Ar  285  0.6263173E+00  0.3900355E+02  0.6307891E+01  0.0000000E+00
Ar  286  0.3794703E+01  0.4176875E+02  0.6564532E+01  0.0000000E+00
Ar  287  0.2881104E+01  0.3910366E+02  0.9057093E+01  0.0000000E+00
Ar  288  0.4551208E+00  0.4177541E+02  0.8092441E+01  0.0000000E+00
Ar  289  0.5552710E+02  0.3930445E+02  0.1167961E+02  0.0000000E+00
Ar  290  0.3041452E+01  0.4208813E+02  0.1137895E+02  0.0000000E+00
Ar  291  0.3480172E+01  0.3908952E+02  0.1396107E+02  0.0000000E+00
Ar  292  0.5544245E+02  0.4183937E+02  0.1410015E+02  0.0000000E+00
Ar  293  0.6856461E+00  0.3919591E+02  0.1787839E+02  0.0000000E+00
Ar  294  0.3126062E+01  0.4165416E+02  0.1647194E+02  0.0000000E+00
Ar  295  0.3118677E+01  0.3875077E+02  0.2005285E+02  0.0000000E+00
Ar  296  0.5567143E+02  0.4198724E+02  0.1997765E+02  0.0000000E+00
Ar  297  0.5093986E+00  0.3881809E+02  0.2255047E+02  0.0000000E+00
Ar  298  0.3166815E+01  0.4174262E+02  0.2243835E+02  0.0000000E+00
Ar  299  0.3252189E+01  0.3905269E+02  0.2511418E+02  0.0000000E+00
Ar  300  0.5577808E+02  0.4210400E+02  0.2554031E+02  0.0000000E+00
Ar  301  0.5921676E+00  0.3888505E+02  0.2802550E+02  0.0000000E+00
Ar  302  0.3455556E+01  0.4118350E+02  0.2793180E+02  0.0000000E+00
Ar  303  0.3690736E+01  0.3855309E+02  0.3079953E+02  0.0000000E+00
Ar  304  0.1042087E+01  0.4086964E+02  0.3087456E+02  0.0000000E+00
Ar  305  0.5577812E+02  0.3956824E+02  0.3460778E+02  0.0000000E+00
Ar  306  0.3488276E+01  0.4174745E+02  0.3364180E+02  0.0000000E+00
Ar  307  0.3469999E+01  0.3903297E+02  0.3646681E+02  0.0000000E+00
Ar  308  0.5200961E+00  0.4203558E+02  0.3647992E+02  0.0000000E+00
Ar  309  0.5576973E+02  0.3912019E+02  0.3912025E+02  0.0000000E+00
Ar  310  0.3493433E+01  0.4185304E+02  0.3912220E+02  0.0000000E+00
Ar  311  0.3493417E+01  0.3912228E+02  0.4185310E+02  0.0000000E+00
Ar  312  0.8525695E+00  0.4182240E+02  0.4182235E+02  0.0000000E+00
Ar  313  0.5563646E+02  0.3905227E+02  0.4485824E+02  0.0000000E+00
Ar  314  0.3371126E+01  0.4166629E+02  0.4444540E+02  0.0000000E+00
Ar  315  0.3270919E+01  0.3943516E+02  0.4708427E+02  0.0000000E+00
Ar  316  0.5583003E+02  0.4197811E+02  0.4702594E+02  0.0000000E+00
Ar  317  0.5563873E+02  0.3936231E+02  0.5006541E+02  0.0000000E+00
Ar  318  0.2885963E+01  0.4154473E+02  0.5071921E+02  0.0000000E+00
Ar  319  0.3094656E+01  0.3873499E+02  0.5325710E+02  0.0000000E+00
Ar  320  0.5591087E+02  0.4247334E+02  0.5334025E+02  0.0000000E+00
Ar  321  0.1218811E+01  0.4378984E+02  0.1222362E+01  0.0000000E+00
Ar  322  0.2899402E+01  0.4744196E+02  0.5551212E+02  0.0000000E+00
Ar  323  0.4109190E+01  0.4426181E+02  0.4105364E+01  0.0000000E+00
Ar  324  0.5551709E+02  0.4744060E+02  0.2904168E+01  0.0000000E+00
Ar  325  0.5565707E+02  0.4492673E+02  0.5010211E+01  0.0000000E+00
Ar  326  0.3872735E+01  0.4742394E+02  0.6326007E+01  0.0000000E+00
Ar  327  0.3378794E+01  0.4472300E+02  0.8850585E+01  0.0000000E+00
Ar  328  0.5444893E+00  0.4811547E+02  0.1023172E+02  0.0000000E+00
Ar  329  0.4839992E+00  0.4456016E+02  0.1138309E+02  0.0000000E+00
Ar  330  0.3531754E+01  0.4735701E+02  0.1176693E+02  0.0000000E+00
Ar  331  0.3347996E+01  0.4467752E+02  0.1435007E+02  0.0000000E+00
Ar  332  0.4106303E+00  0.4750593E+02  0.1419730E+02  0.0000000E+00
Ar  333  0.5219704E+00  0.4456736E+02  0.1696557E+02  0.0000000E+00
Ar  334  0.3326717E+01  0.4739954E+02  0.1687165E+02  0.0000000E+00
Ar  335  0.3042500E+01  0.4431844E+02  0.1991008E+02  0.0000000E+00
Ar  336  0.5235035E+00  0.4717293E+02  0.1978641E+02  0.0000000E+00
Ar  337  0.5546080E+02  0.4501220E+02  0.2265184E+02  0.0000000E+00
Ar  338  0.3280154E+01  0.4708005E+02  0.2256383E+02  0.0000000E+00
Ar  339  0.3054343E+01  0.4449451E+02  0.2509908E+02  0.0000000E+00
Ar  340  0.6563357E+00  0.4740721E+02  0.2565284E+02  0.0000000E+00
Ar  341  0.7847224E+00  0.4428884E+02  0.2804172E+02  0.0000000E+00
Ar  342  0.3244301E+01  0.4727474E+02  0.2824446E+02  0.0000000E+00
Ar  343  0.3297316E+01  0.4438744E+02  0.3059446E+02  0.0000000E+00
Ar  344  0.5573767E+02  0.4685149E+02  0.3045279E+02  0.0000000E+00
Ar  345  0.6367008E+00  0.4420887E+02  0.3331101E+02  0.0000000E+00
Ar  346  0.3054959E+01  0.4704507E+02  0.3351808E+02  0.0000000E+00
Ar  347  0.3482310E+01  0.4421784E+02  0.3619362E+02  0.0000000E+00
Ar  348  0.5560128E+02  0.4659444E+02  0.3574544E+02  0.0000000E+00
Ar  349  0.5563632E+02  0.4485906E+02  0.3905061E+02  0.0000000E+00
Ar  350  0.3269727E+01  0.4708633E+02  0.3943413E+02  0.0000000E+00
Ar  351  0.3371104E+01  0.4444592E+02  0.4166552E+02  0.0000000E+00
Ar  352  0.5583099E+02  0.4702954E+02  0.4197354E+02  0.0000000E+00
Ar  353  0.5855901E+00  0.4437669E+02  0.4437537E+02  0.0000000E+00
Ar  354  0.3439066E+01  0.4763905E+02  0.4433674E+02  0.0000000E+00
Ar  355  0.3438769E+01  0.4433694E+02  0.4763878E+02  0.0000000E+00
Ar  356  0.5530581E+02  0.4749127E+02  0.4749144E+02  0.0000000E+00
Ar  357  0.5552163E+02  0.4438281E+02  0.5041370E+02  0.0000000E+00
Ar  358  0.2677635E+01  0.4718476E+02  0.5028052E+02  0.0000000E+00
Ar  359  0.3522293E+01  0.4456744E+02  0.5226349E+02  0.0000000E+00
Ar  360  0.5581597E+02  0.4760705E+02  0.5286486E+02  0.0000000E+00
Ar  361  0.8797557E+00  0.5015743E+02  0.8794249E+00  0.0000000E+00
Ar  362  0.3762427E+01  0.5234657E+02  0.5553178E+02  0.0000000E+00
Ar  363  0.3373685E+01  0.5005997E+02  0.3374404E+01  0.0000000E+00
Ar  364  0.5553363E+02  0.5234517E+02  0.3760137E+01  0.0000000E+00
Ar  365  0.3869555E+00  0.4983054E+02  0.6570212E+01  0.0000000E+00
Ar  366  0.3680003E+01  0.5317898E+02  0.6002301E+01  0.0000000E+00
Ar  367  0.3847280E+01  0.5023515E+02  0.9278403E+01  0.0000000E+00
Ar  368  0.6852257E+00  0.5335707E+02  0.9208543E+01  0.0000000E+00
Ar  369  0.4930840E+00  0.5095435E+02  0.1166156E+02  0.0000000E+00
Ar  370  0.3510034E+01  0.5291636E+02  0.1209491E+02  0.0000000E+00
Ar  371  0.3298741E+01  0.4993299E+02  0.1467132E+02  0.0000000E+00
Ar  372  0.4750593E+00  0.5285786E+02  0.1408077E+02  0.0000000E+00
Ar  373  0.5566171E+02  0.5040681E+02  0.1728357E+02  0.0000000E+00
Ar  374  0.3074894E+01  0.5307976E+02  0.1720460E+02  0.0000000E+00
Ar  375  0.3365851E+01  0.4967602E+02  0.1955307E+02  0.0000000E+00
Ar  376  0.5579679E+02  0.5305004E+02  0.2008478E+02  0.0000000E+00
Ar  377  0.5558861E+02  0.4961878E+02  0.2270550E+02  0.0000000E+00
Ar  378  0.3316413E+01  0.5280116E+02  0.2268862E+02  0.0000000E+00
Ar  379  0.3007616E+01  0.5000042E+02  0.2531722E+02  0.0000000E+00
Ar  380  0.5536946E+02  0.5211360E+02  0.2572788E+02  0.0000000E+00
Ar  381  0.5541353E+02  0.4981138E+02  0.2854831E+02  0.0000000E+00
Ar  382  0.3086375E+01  0.5293464E+02  0.2813157E+02  0.0000000E+00
Ar  383  0.3376170E+01  0.4981343E+02  0.3065031E+02  0.0000000E+00
Ar  384  0.6382238E+00  0.5271387E+02  0.3093707E+02  0.0000000E+00
Ar  385  0.6647143E+00  0.4978130E+02  0.3378400E+02  0.0000000E+00
Ar  386  0.3751109E+01  0.5290803E+02  0.3359501E+02  0.0000000E+00
Ar  387  0.3374565E+01  0.4989062E+02  0.3677338E+02  0.0000000E+00
Ar  388  0.5560546E+02  0.5278801E+02  0.3572336E+02  0.0000000E+00
Ar  389  0.5564039E+02  0.5007662E+02  0.3936925E+02  0.0000000E+00
Ar  390  0.3088311E+01  0.5324627E+02  0.3873118E+02  0.0000000E+00
Ar  391  0.2893182E+01  0.5071988E+02  0.4154572E+02  0.0000000E+00
Ar  392  0.5590887E+02  0.5333846E+02  0.4247244E+02  0.0000000E+00
Ar  393  0.5552282E+02  0.5040819E+02  0.4438435E+02  0.0000000E+00
Ar  394  0.3519687E+01  0.5225884E+02  0.4457426E+02  0.0000000E+00
Ar  395  0.2676978E+01  0.5027853E+02  0.4718724E+02  0.0000000E+00
Ar  396  0.5581666E+02  0.5286466E+02  0.4760712E+02  0.0000000E+00
Ar  397  0.5581491E+02  0.4975074E+02  0.4975129E+02  0.0000000E+00
Ar  398  0.3688161E+01  0.5288392E+02  0.5011056E+02  0.0000000E+00
Ar  399  0.3687895E+01  0.5011191E+02  0.5288260E+02  0.0000000E+00
Ar  400  0.1446991E+01  0.5301001E+02  0.5301003E+02  0.0000000E+00
Ar  401  0.6605958E+01  0.8179935E+00  0.8191802E+00  0.0000000E+00
Ar  402  0.9131342E+01  0.3559987E+01  0.4300136E+00  0.0000000E+00
Ar  403  0.9132229E+01  0.4285086E+00  0.3558912E+01  0.0000000E+00
Ar  404  0.5769673E+01  0.3275014E+01  0.3275064E+01  0.0000000E+00
Ar  405  0.5647268E+01  0.8074055E+00  0.5647342E+01  0.0000000E+00
Ar  406  0.8627142E+01  0.3309795E+01  0.5802571E+01  0.0000000E+00
Ar  407  0.8748149E+01  0.6791115E+00  0.8747880E+01  0.0000000E+00
Ar  408  0.5802443E+01  0.3309555E+01  0.8626744E+01  0.0000000E+00
Ar  409  0.6417294E+01  0.6058611E+00  0.1158890E+02  0.0000000E+00
Ar  410  0.8725911E+01  0.3232023E+01  0.1132174E+02  0.0000000E+00
Ar  411  0.8707529E+01  0.7351587E+00  0.1423923E+02  0.0000000E+00
Ar  412  0.6253167E+01  0.3688665E+01  0.1398253E+02  0.0000000E+00
Ar  413  0.6074110E+01  0.4185415E+00  0.1733497E+02  0.0000000E+00
Ar  414  0.8803376E+01  0.3406687E+01  0.1687455E+02  0.0000000E+00
Ar  415  0.8405606E+01  0.7031334E+00  0.1988388E+02  0.0000000E+00
Ar  416  0.5786132E+01  0.3023059E+01  0.1973599E+02  0.0000000E+00
Ar  417  0.6026293E+01  0.3194180E+00  0.2270989E+02  0.0000000E+00
Ar  418  0.8395437E+01  0.3101006E+01  0.2251241E+02  0.0000000E+00
Ar  419  0.8737864E+01  0.5530399E+02  0.2538939E+02  0.0000000E+00
Ar  420  0.5606341E+01  0.3188716E+01  0.2557906E+02  0.0000000E+00
Ar  421  0.5855998E+01  0.4472897E+00  0.2764402E+02  0.0000000E+00
Ar  422  0.8799577E+01  0.2919073E+01  0.2799031E+02  0.0000000E+00
Ar  423  0.8473585E+01  0.5515574E+02  0.3054240E+02  0.0000000E+00
Ar  424  0.5922476E+01  0.3126554E+01  0.3016826E+02  0.0000000E+00
Ar  425  0.6833710E+01  0.5557840E+02  0.3415335E+02  0.0000000E+00
Ar  426  0.8777350E+01  0.3065600E+01  0.3342051E+02  0.0000000E+00
Ar  427  0.9618123E+01  0.3775774E+00  0.3652200E+02  0.0000000E+00
Ar  428  0.6107296E+01  0.3571858E+01  0.3594582E+02  0.0000000E+00
Ar  429  0.6289398E+01  0.6344782E+00  0.3898538E+02  0.0000000E+00
Ar  430  0.9039067E+01  0.2865095E+01  0.3910046E+02  0.0000000E+00
Ar  431  0.8078214E+01  0.4455904E+00  0.4175697E+02  0.0000000E+00
Ar  432  0.6564117E+01  0.3796808E+01  0.4176708E+02  0.0000000E+00
Ar  433  0.5011786E+01  0.5565257E+02  0.4493718E+02  0.0000000E+00
Ar  434  0.8850270E+01  0.3378922E+01  0.4472354E+02  0.0000000E+00
Ar  435  0.1022938E+02  0.5402292E+00  0.4811142E+02  0.0000000E+00
Ar  436  0.6324058E+01  0.3878587E+01  0.4742544E+02  0.0000000E+00
Ar  437  0.6571157E+01  0.3852619E+00  0.4982972E+02  0.0000000E+00
Ar  438  0.9280951E+01  0.3848538E+01  0.5023388E+02  0.0000000E+00
Ar  439  0.9209203E+01  0.6864808E+00  0.5335009E+02  0.0000000E+00
Ar  440  0.6002829E+01  0.3681361E+01  0.5317968E+02  0.0000000E+00
Ar  441  0.5647365E+01  0.5647349E+01  0.8075750E+00  0.0000000E+00
Ar  442  0.8748252E+01  0.8747898E+01  0.6791832E+00  0.0000000E+00
Ar  443  0.8627070E+01  0.5802617E+01  0.3309921E+01  0.0000000E+00
Ar  444  0.5802420E+01  0.8626595E+01  0.3309541E+01  0.0000000E+00
Ar  445  0.5969589E+01  0.5970420E+01  0.5970440E+01  0.0000000E+00
Ar  446  0.8632436E+01  0.8632646E+01  0.5777741E+01  0.0000000E+00
Ar  447  0.8632430E+01  0.5777824E+01  0.8632569E+01  0.0000000E+00
Ar  448  0.5777907E+01  0.8632235E+01  0.8632198E+01  0.0000000E+00
Ar  449  0.6175138E+01  0.6175157E+01  0.1135938E+02  0.0000000E+00
Ar  450  0.8734636E+01  0.8734655E+01  0.1147112E+02  0.0000000E+00
Ar  451  0.8885725E+01  0.6301198E+01  0.1418964E+02  0.0000000E+00
Ar  452  0.6301618E+01  0.8886098E+01  0.1418971E+02  0.0000000E+00
Ar  453  0.5999110E+01  0.5999042E+01  0.1712285E+02  0.0000000E+00
Ar  454  0.9222848E+01  0.9222822E+01  0.1716432E+02  0.0000000E+00
Ar  455  0.8676030E+01  0.5843948E+01  0.1994856E+02  0.0000000E+00
Ar  456  0.5843993E+01  0.8676025E+01  0.1994856E+02  0.0000000E+00
Ar  457  0.5701072E+01  0.5701056E+01  0.2301118E+02  0.0000000E+00
Ar  458  0.8458863E+01  0.8458840E+01  0.2279151E+02  0.0000000E+00
Ar  459  0.8848873E+01  0.5783186E+01  0.2528161E+02  0.0000000E+00
Ar  460  0.5783237E+01  0.8848821E+01  0.2528163E+02  0.0000000E+00
Ar  461  0.6492273E+01  0.6492208E+01  0.2779353E+02  0.0000000E+00
Ar  462  0.9085013E+01  0.9084979E+01  0.2834284E+02  0.0000000E+00
Ar  463  0.8832832E+01  0.5809521E+01  0.3060905E+02  0.0000000E+00
Ar  464  0.5809555E+01  0.8832787E+01  0.3060903E+02  0.0000000E+00
Ar  465  0.6197109E+01  0.6197082E+01  0.3318941E+02  0.0000000E+00
Ar  466  0.8807269E+01  0.8807263E+01  0.3332281E+02  0.0000000E+00
Ar  467  0.8830090E+01  0.5947381E+01  0.3606211E+02  0.0000000E+00
Ar  468  0.5947417E+01  0.8830052E+01  0.3606209E+02  0.0000000E+00
Ar  469  0.6102887E+01  0.6102837E+01  0.3854169E+02  0.0000000E+00
Ar  470  0.8531454E+01  0.8531412E+01  0.3881695E+02  0.0000000E+00
Ar  471  0.9265660E+01  0.5884872E+01  0.4172961E+02  0.0000000E+00
Ar  472  0.5884891E+01  0.9265623E+01  0.4172964E+02  0.0000000E+00
Ar  473  0.6525866E+01  0.6525821E+01  0.4471275E+02  0.0000000E+00
Ar  474  0.9314849E+01  0.9314858E+01  0.4455104E+02  0.0000000E+00
Ar  475  0.9132587E+01  0.6136328E+01  0.4740836E+02  0.0000000E+00
Ar  476  0.6136335E+01  0.9132422E+01  0.4740853E+02  0.0000000E+00
Ar  477  0.6276270E+01  0.6276189E+01  0.5003889E+02  0.0000000E+00
Ar  478  0.9148684E+01  0.9148611E+01  0.5015785E+02  0.0000000E+00
Ar  479  0.9019170E+01  0.5948997E+01  0.5304673E+02  0.0000000E+00
Ar  480  0.5947713E+01  0.9018862E+01  0.5304630E+02  0.0000000E+00
Ar  481  0.6417501E+01  0.1158833E+02  0.6060240E+00  0.0000000E+00
Ar  482  0.8707593E+01  0.1423904E+02  0.7352840E+00  0.0000000E+00
Ar  483  0.8725940E+01  0.1132171E+02  0.3232085E+01  0.0000000E+00
Ar  484  0.6253048E+01  0.1398243E+02  0.3688858E+01  0.0000000E+00
Ar  485  0.6175132E+01  0.1135938E+02  0.6175172E+01  0.0000000E+00
Ar  486  0.8885709E+01  0.1418985E+02  0.6301235E+01  0.0000000E+00
Ar  487  0.8734611E+01  0.1147117E+02  0.8734722E+01  0.0000000E+00
Ar  488  0.6301342E+01  0.1418968E+02  0.8886091E+01  0.0000000E+00
Ar  489  0.5515550E+01  0.1146945E+02  0.1146944E+02  0.0000000E+00
Ar  490  0.8530086E+01  0.1416908E+02  0.1159691E+02  0.0000000E+00
Ar  491  0.8530082E+01  0.1159696E+02  0.1416908E+02  0.0000000E+00
Ar  492  0.6013059E+01  0.1422638E+02  0.1422639E+02  0.0000000E+00
Ar  493  0.5874956E+01  0.1133291E+02  0.1715049E+02  0.0000000E+00
Ar  494  0.8655688E+01  0.1393695E+02  0.1730593E+02  0.0000000E+00
Ar  495  0.8480881E+01  0.1161001E+02  0.1995175E+02  0.0000000E+00
Ar  496  0.5534367E+01  0.1391788E+02  0.1971597E+02  0.0000000E+00
Ar  497  0.5468239E+01  0.1162599E+02  0.2261861E+02  0.0000000E+00
Ar  498  0.8503916E+01  0.1395638E+02  0.2284189E+02  0.0000000E+00
Ar  499  0.8640175E+01  0.1122995E+02  0.2556170E+02  0.0000000E+00
Ar  500  0.5798477E+01  0.1422193E+02  0.2540881E+02  0.0000000E+00
Ar  501  0.5635744E+01  0.1134969E+02  0.2806295E+02  0.0000000E+00
Ar  502  0.8616587E+01  0.1415469E+02  0.2830485E+02  0.0000000E+00
Ar  503  0.8581545E+01  0.1178139E+02  0.3103985E+02  0.0000000E+00
Ar  504  0.5899009E+01  0.1437871E+02  0.3087645E+02  0.0000000E+00
Ar  505  0.5966987E+01  0.1138524E+02  0.3339738E+02  0.0000000E+00
Ar  506  0.8589125E+01  0.1436399E+02  0.3353297E+02  0.0000000E+00
Ar  507  0.8639834E+01  0.1164510E+02  0.3593504E+02  0.0000000E+00
Ar  508  0.6084132E+01  0.1452921E+02  0.3625657E+02  0.0000000E+00
Ar  509  0.6003825E+01  0.1147780E+02  0.3896912E+02  0.0000000E+00
Ar  510  0.8745689E+01  0.1409846E+02  0.3893457E+02  0.0000000E+00
Ar  511  0.8831005E+01  0.1169114E+02  0.4179816E+02  0.0000000E+00
Ar  512  0.6003213E+01  0.1406013E+02  0.4222479E+02  0.0000000E+00
Ar  513  0.6225642E+01  0.1145018E+02  0.4463746E+02  0.0000000E+00
Ar  514  0.8895252E+01  0.1450589E+02  0.4473322E+02  0.0000000E+00
Ar  515  0.8980004E+01  0.1159305E+02  0.4757673E+02  0.0000000E+00
Ar  516  0.6067786E+01  0.1410912E+02  0.4745884E+02  0.0000000E+00
Ar  517  0.6163054E+01  0.1164580E+02  0.5046749E+02  0.0000000E+00
Ar  518  0.9045635E+01  0.1439182E+02  0.5043646E+02  0.0000000E+00
Ar  519  0.8515922E+01  0.1182915E+02  0.5318419E+02  0.0000000E+00
Ar  520  0.5822707E+01  0.1490251E+02  0.5280359E+02  0.0000000E+00
Ar  521  0.6073681E+01  0.1733535E+02  0.4186094E+00  0.0000000E+00
Ar  522  0.8406205E+01  0.1988335E+02  0.7026559E+00  0.0000000E+00
Ar  523  0.8803857E+01  0.1687490E+02  0.3406404E+01  0.0000000E+00
Ar  524  0.5786188E+01  0.1973532E+02  0.3023066E+01  0.0000000E+00
Ar  525  0.5999109E+01  0.1712280E+02  0.5998651E+01  0.0000000E+00
Ar  526  0.8676182E+01  0.1994837E+02  0.5844103E+01  0.0000000E+00
Ar  527  0.9222909E+01  0.1716426E+02  0.9222828E+01  0.0000000E+00
Ar  528  0.5844115E+01  0.1994855E+02  0.8676072E+01  0.0000000E+00
Ar  529  0.5875020E+01  0.1715046E+02  0.1133291E+02  0.0000000E+00
Ar  530  0.8480987E+01  0.1995171E+02  0.1161012E+02  0.0000000E+00
Ar  531  0.8655697E+01  0.1730585E+02  0.1393699E+02  0.0000000E+00
Ar  532  0.5534405E+01  0.1971567E+02  0.1391807E+02  0.0000000E+00
Ar  533  0.5659401E+01  0.1705008E+02  0.1705008E+02  0.0000000E+00
Ar  534  0.8359866E+01  0.1967955E+02  0.1654173E+02  0.0000000E+00
Ar  535  0.8359852E+01  0.1654173E+02  0.1967956E+02  0.0000000E+00
Ar  536  0.5897507E+01  0.1963476E+02  0.1963477E+02  0.0000000E+00
Ar  537  0.5983945E+01  0.1687912E+02  0.2246087E+02  0.0000000E+00
Ar  538  0.8573429E+01  0.1969887E+02  0.2216117E+02  0.0000000E+00
Ar  539  0.8576044E+01  0.1666865E+02  0.2534734E+02  0.0000000E+00
Ar  540  0.5943533E+01  0.1971891E+02  0.2497967E+02  0.0000000E+00
Ar  541  0.5697202E+01  0.1674607E+02  0.2782946E+02  0.0000000E+00
Ar  542  0.8684799E+01  0.1934545E+02  0.2784467E+02  0.0000000E+00
Ar  543  0.8700106E+01  0.1688002E+02  0.3092230E+02  0.0000000E+00
Ar  544  0.6131565E+01  0.1984446E+02  0.3046869E+02  0.0000000E+00
Ar  545  0.6048271E+01  0.1701611E+02  0.3349502E+02  0.0000000E+00
Ar  546  0.8538942E+01  0.1962367E+02  0.3345950E+02  0.0000000E+00
Ar  547  0.8543697E+01  0.1696841E+02  0.3613878E+02  0.0000000E+00
Ar  548  0.5784783E+01  0.1974739E+02  0.3618970E+02  0.0000000E+00
Ar  549  0.5863773E+01  0.1702975E+02  0.3876360E+02  0.0000000E+00
Ar  550  0.8701722E+01  0.1979185E+02  0.3881840E+02  0.0000000E+00
Ar  551  0.8487899E+01  0.1678355E+02  0.4162608E+02  0.0000000E+00
Ar  552  0.5724820E+01  0.1970600E+02  0.4170279E+02  0.0000000E+00
Ar  553  0.5912862E+01  0.1692462E+02  0.4490796E+02  0.0000000E+00
Ar  554  0.8520636E+01  0.1977758E+02  0.4444843E+02  0.0000000E+00
Ar  555  0.8970622E+01  0.1709135E+02  0.4719949E+02  0.0000000E+00
Ar  556  0.5905618E+01  0.1968175E+02  0.4714081E+02  0.0000000E+00
Ar  557  0.6418275E+01  0.1695516E+02  0.4953531E+02  0.0000000E+00
Ar  558  0.8832140E+01  0.1970045E+02  0.4985539E+02  0.0000000E+00
Ar  559  0.8919642E+01  0.1718587E+02  0.5318215E+02  0.0000000E+00
Ar  560  0.5519742E+01  0.1982390E+02  0.5271515E+02  0.0000000E+00
Ar  561  0.6026845E+01  0.2270656E+02  0.3185528E+00  0.0000000E+00
Ar  562  0.8738327E+01  0.2538971E+02  0.5530429E+02  0.0000000E+00
Ar  563  0.8396515E+01  0.2250981E+02  0.3101036E+01  0.0000000E+00
Ar  564  0.5608260E+01  0.2557931E+02  0.3190220E+01  0.0000000E+00
Ar  565  0.5702259E+01  0.2300944E+02  0.5700750E+01  0.0000000E+00
Ar  566  0.8850812E+01  0.2527988E+02  0.5782584E+01  0.0000000E+00
Ar  567  0.8459065E+01  0.2279139E+02  0.8458806E+01  0.0000000E+00
Ar  568  0.5783731E+01  0.2528168E+02  0.8848741E+01  0.0000000E+00
Ar  569  0.5468359E+01  0.2261837E+02  0.1162638E+02  0.0000000E+00
Ar  570  0.8640403E+01  0.2556164E+02  0.1123021E+02  0.0000000E+00
Ar  571  0.8504083E+01  0.2284182E+02  0.1395654E+02  0.0000000E+00
Ar  572  0.5798496E+01  0.2540845E+02  0.1422234E+02  0.0000000E+00
Ar  573  0.5983938E+01  0.2246086E+02  0.1687911E+02  0.0000000E+00
Ar  574  0.8576050E+01  0.2534738E+02  0.1666865E+02  0.0000000E+00
Ar  575  0.8573416E+01  0.2216116E+02  0.1969888E+02  0.0000000E+00
Ar  576  0.5943523E+01  0.2497967E+02  0.1971889E+02  0.0000000E+00
Ar  577  0.5618859E+01  0.2256816E+02  0.2256817E+02  0.0000000E+00
Ar  578  0.8869475E+01  0.2505764E+02  0.2205530E+02  0.0000000E+00
Ar  579  0.8869480E+01  0.2205529E+02  0.2505765E+02  0.0000000E+00
Ar  580  0.5717923E+01  0.2533782E+02  0.2533783E+02  0.0000000E+00
Ar  581  0.6048236E+01  0.2221424E+02  0.2759012E+02  0.0000000E+00
Ar  582  0.8690235E+01  0.2490767E+02  0.2800838E+02  0.0000000E+00
Ar  583  0.8501358E+01  0.2233836E+02  0.3060125E+02  0.0000000E+00
Ar  584  0.6077906E+01  0.2514727E+02  0.3088207E+02  0.0000000E+00
Ar  585  0.5767522E+01  0.2226990E+02  0.3326524E+02  0.0000000E+00
Ar  586  0.8818591E+01  0.2504220E+02  0.3336870E+02  0.0000000E+00
Ar  587  0.8626257E+01  0.2234582E+02  0.3620515E+02  0.0000000E+00
Ar  588  0.6240828E+01  0.2498555E+02  0.3578302E+02  0.0000000E+00
Ar  589  0.5975601E+01  0.2258383E+02  0.3891708E+02  0.0000000E+00
Ar  590  0.8749105E+01  0.2497995E+02  0.3922234E+02  0.0000000E+00
Ar  591  0.8550415E+01  0.2222146E+02  0.4187708E+02  0.0000000E+00
Ar  592  0.5767480E+01  0.2523895E+02  0.4172481E+02  0.0000000E+00
Ar  593  0.5785509E+01  0.2237157E+02  0.4431703E+02  0.0000000E+00
Ar  594  0.8766750E+01  0.2511541E+02  0.4444997E+02  0.0000000E+00
Ar  595  0.8402838E+01  0.2234867E+02  0.4734645E+02  0.0000000E+00
Ar  596  0.5868784E+01  0.2542089E+02  0.4744934E+02  0.0000000E+00
Ar  597  0.5906715E+01  0.2277636E+02  0.5000980E+02  0.0000000E+00
Ar  598  0.8539694E+01  0.2525326E+02  0.4998476E+02  0.0000000E+00
Ar  599  0.8683096E+01  0.2215343E+02  0.5282473E+02  0.0000000E+00
Ar  600  0.6038762E+01  0.2547919E+02  0.5285287E+02  0.0000000E+00
Ar  601  0.5854510E+01  0.2764237E+02  0.4495345E+00  0.0000000E+00
Ar  602  0.8474048E+01  0.3054191E+02  0.5515721E+02  0.0000000E+00
Ar  603  0.8801723E+01  0.2799228E+02  0.2919689E+01  0.0000000E+00
Ar  604  0.5923598E+01  0.3016907E+02  0.3126780E+01  0.0000000E+00
Ar  605  0.6493703E+01  0.2779298E+02  0.6492395E+01  0.0000000E+00
Ar  606  0.8832450E+01  0.3060843E+02  0.5809486E+01  0.0000000E+00
Ar  607  0.9086324E+01  0.2834208E+02  0.9084514E+01  0.0000000E+00
Ar  608  0.5812013E+01  0.3061013E+02  0.8834414E+01  0.0000000E+00
Ar  609  0.5635316E+01  0.2806249E+02  0.1135003E+02  0.0000000E+00
Ar  610  0.8582474E+01  0.3103947E+02  0.1178149E+02  0.0000000E+00
Ar  611  0.8616616E+01  0.2830488E+02  0.1415488E+02  0.0000000E+00
Ar  612  0.5899072E+01  0.3087638E+02  0.1437857E+02  0.0000000E+00
Ar  613  0.5697113E+01  0.2782952E+02  0.1674607E+02  0.0000000E+00
Ar  614  0.8700255E+01  0.3092217E+02  0.1688010E+02  0.0000000E+00
Ar  615  0.8684777E+01  0.2784466E+02  0.1934544E+02  0.0000000E+00
Ar  616  0.6131552E+01  0.3046868E+02  0.1984453E+02  0.0000000E+00
Ar  617  0.6048240E+01  0.2759009E+02  0.2221424E+02  0.0000000E+00
Ar  618  0.8501355E+01  0.3060118E+02  0.2233842E+02  0.0000000E+00
Ar  619  0.8690238E+01  0.2800834E+02  0.2490770E+02  0.0000000E+00
Ar  620  0.6077871E+01  0.3088202E+02  0.2514726E+02  0.0000000E+00
Ar  621  0.5915809E+01  0.2782631E+02  0.2782634E+02  0.0000000E+00
Ar  622  0.8685947E+01  0.3093041E+02  0.2780455E+02  0.0000000E+00
Ar  623  0.8685964E+01  0.2780453E+02  0.3093044E+02  0.0000000E+00
Ar  624  0.5866556E+01  0.3071890E+02  0.3071889E+02  0.0000000E+00
Ar  625  0.6301279E+01  0.2852515E+02  0.3363338E+02  0.0000000E+00
Ar  626  0.9350383E+01  0.3072507E+02  0.3338891E+02  0.0000000E+00
Ar  627  0.9045102E+01  0.2796054E+02  0.3622546E+02  0.0000000E+00
Ar  628  0.6737305E+01  0.3072356E+02  0.3631673E+02  0.0000000E+00
Ar  629  0.6347335E+01  0.2782513E+02  0.3904209E+02  0.0000000E+00
Ar  630  0.8787652E+01  0.3060745E+02  0.3939711E+02  0.0000000E+00
Ar  631  0.8842161E+01  0.2798833E+02  0.4196231E+02  0.0000000E+00
Ar  632  0.6046927E+01  0.3060196E+02  0.4197311E+02  0.0000000E+00
Ar  633  0.6023853E+01  0.2773396E+02  0.4446028E+02  0.0000000E+00
Ar  634  0.8916996E+01  0.3068685E+02  0.4487947E+02  0.0000000E+00
Ar  635  0.8819235E+01  0.2769785E+02  0.4717475E+02  0.0000000E+00
Ar  636  0.5819830E+01  0.3074018E+02  0.4708061E+02  0.0000000E+00
Ar  637  0.5774547E+01  0.2791592E+02  0.4992558E+02  0.0000000E+00
Ar  638  0.8834068E+01  0.3062325E+02  0.4999363E+02  0.0000000E+00
Ar  639  0.8985088E+01  0.2779709E+02  0.5233415E+02  0.0000000E+00
Ar  640  0.6119504E+01  0.3068112E+02  0.5261517E+02  0.0000000E+00
Ar  641  0.6854639E+01  0.3412568E+02  0.5557632E+02  0.0000000E+00
Ar  642  0.9612785E+01  0.3653076E+02  0.3699380E+00  0.0000000E+00
Ar  643  0.8776598E+01  0.3341957E+02  0.3069153E+01  0.0000000E+00
Ar  644  0.6104006E+01  0.3594910E+02  0.3582571E+01  0.0000000E+00
Ar  645  0.6194952E+01  0.3318936E+02  0.6198534E+01  0.0000000E+00
Ar  646  0.8830226E+01  0.3606167E+02  0.5945436E+01  0.0000000E+00
Ar  647  0.8807313E+01  0.3332357E+02  0.8807597E+01  0.0000000E+00
Ar  648  0.5941301E+01  0.3606436E+02  0.8821933E+01  0.0000000E+00
Ar  649  0.5967903E+01  0.3339786E+02  0.1138614E+02  0.0000000E+00
Ar  650  0.8640083E+01  0.3593583E+02  0.1164626E+02  0.0000000E+00
Ar  651  0.8589572E+01  0.3353269E+02  0.1436419E+02  0.0000000E+00
Ar  652  0.6084477E+01  0.3625695E+02  0.1453011E+02  0.0000000E+00
Ar  653  0.6048677E+01  0.3349477E+02  0.1701637E+02  0.0000000E+00
Ar  654  0.8544053E+01  0.3613898E+02  0.1696885E+02  0.0000000E+00
Ar  655  0.8538986E+01  0.3345953E+02  0.1962380E+02  0.0000000E+00
Ar  656  0.5785190E+01  0.3618974E+02  0.1974762E+02  0.0000000E+00
Ar  657  0.5767526E+01  0.3326520E+02  0.2227003E+02  0.0000000E+00
Ar  658  0.8626373E+01  0.3620503E+02  0.2234589E+02  0.0000000E+00
Ar  659  0.8818545E+01  0.3336866E+02  0.2504225E+02  0.0000000E+00
Ar  660  0.6240947E+01  0.3578306E+02  0.2498558E+02  0.0000000E+00
Ar  661  0.6301258E+01  0.3363338E+02  0.2852515E+02  0.0000000E+00
Ar  662  0.9045064E+01  0.3622551E+02  0.2796057E+02  0.0000000E+00
Ar  663  0.9350344E+01  0.3338887E+02  0.3072509E+02  0.0000000E+00
Ar  664  0.6737261E+01  0.3631672E+02  0.3072358E+02  0.0000000E+00
Ar  665  0.6425758E+01  0.3322147E+02  0.3322149E+02  0.0000000E+00
Ar  666  0.9075055E+01  0.3659287E+02  0.3343097E+02  0.0000000E+00
Ar  667  0.9075090E+01  0.3343093E+02  0.3659292E+02  0.0000000E+00
Ar  668  0.6616267E+01  0.3623195E+02  0.3623199E+02  0.0000000E+00
Ar  669  0.6349237E+01  0.3342359E+02  0.3874976E+02  0.0000000E+00
Ar  670  0.9175185E+01  0.3625205E+02  0.3893198E+02  0.0000000E+00
Ar  671  0.8691081E+01  0.3333523E+02  0.4197508E+02  0.0000000E+00
Ar  672  0.6593580E+01  0.3608522E+02  0.4124937E+02  0.0000000E+00
Ar  673  0.6116083E+01  0.3330418E+02  0.4459556E+02  0.0000000E+00
Ar  674  0.8983652E+01  0.3588957E+02  0.4477735E+02  0.0000000E+00
Ar  675  0.8889161E+01  0.3372818E+02  0.4737988E+02  0.0000000E+00
Ar  676  0.5755990E+01  0.3649917E+02  0.4709859E+02  0.0000000E+00
Ar  677  0.6086703E+01  0.3357747E+02  0.4945951E+02  0.0000000E+00
Ar  678  0.8853180E+01  0.3631572E+02  0.5008670E+02  0.0000000E+00
Ar  679  0.8800241E+01  0.3344263E+02  0.5257449E+02  0.0000000E+00
Ar  680  0.6682519E+01  0.3635429E+02  0.5282300E+02  0.0000000E+00
Ar  681  0.6284534E+01  0.3898216E+02  0.6482594E+00  0.0000000E+00
Ar  682  0.8071391E+01  0.4174742E+02  0.4380747E+00  0.0000000E+00
Ar  683  0.9044806E+01  0.3909812E+02  0.2870911E+01  0.0000000E+00
Ar  684  0.6565042E+01  0.4176306E+02  0.3797100E+01  0.0000000E+00
Ar  685  0.6100870E+01  0.3853976E+02  0.6103512E+01  0.0000000E+00
Ar  686  0.9266229E+01  0.4173006E+02  0.5884427E+01  0.0000000E+00
Ar  687  0.8530946E+01  0.3881744E+02  0.8530221E+01  0.0000000E+00
Ar  688  0.5883436E+01  0.4172990E+02  0.9265654E+01  0.0000000E+00
Ar  689  0.6003917E+01  0.3896948E+02  0.1147818E+02  0.0000000E+00
Ar  690  0.8830348E+01  0.4179846E+02  0.1169079E+02  0.0000000E+00
Ar  691  0.8745384E+01  0.3893489E+02  0.1409862E+02  0.0000000E+00
Ar  692  0.6003348E+01  0.4222448E+02  0.1406091E+02  0.0000000E+00
Ar  693  0.5862785E+01  0.3876465E+02  0.1702936E+02  0.0000000E+00
Ar  694  0.8488097E+01  0.4162620E+02  0.1678370E+02  0.0000000E+00
Ar  695  0.8701612E+01  0.3881852E+02  0.1979178E+02  0.0000000E+00
Ar  696  0.5724513E+01  0.4170233E+02  0.1970558E+02  0.0000000E+00
Ar  697  0.5975624E+01  0.3891692E+02  0.2258393E+02  0.0000000E+00
Ar  698  0.8550824E+01  0.4187689E+02  0.2222130E+02  0.0000000E+00
Ar  699  0.8749372E+01  0.3922221E+02  0.2497995E+02  0.0000000E+00
Ar  700  0.5768304E+01  0.4172410E+02  0.2523885E+02  0.0000000E+00
Ar  701  0.6347359E+01  0.3904211E+02  0.2782509E+02  0.0000000E+00
Ar  702  0.8842754E+01  0.4196162E+02  0.2798863E+02  0.0000000E+00
Ar  703  0.8787658E+01  0.3939697E+02  0.3060760E+02  0.0000000E+00
Ar  704  0.6046673E+01  0.4197322E+02  0.3060199E+02  0.0000000E+00
Ar  705  0.6349200E+01  0.3874975E+02  0.3342363E+02  0.0000000E+00
Ar  706  0.8690487E+01  0.4197554E+02  0.3333517E+02  0.0000000E+00
Ar  707  0.9175059E+01  0.3893207E+02  0.3625203E+02  0.0000000E+00
Ar  708  0.6593521E+01  0.4124943E+02  0.3608525E+02  0.0000000E+00
Ar  709  0.6553175E+01  0.3893029E+02  0.3893022E+02  0.0000000E+00
Ar  710  0.9130623E+01  0.4158934E+02  0.3897547E+02  0.0000000E+00
Ar  711  0.9130636E+01  0.3897547E+02  0.4158935E+02  0.0000000E+00
Ar  712  0.6260253E+01  0.4168093E+02  0.4168082E+02  0.0000000E+00
Ar  713  0.6047270E+01  0.3916613E+02  0.4436702E+02  0.0000000E+00
Ar  714  0.9047535E+01  0.4128687E+02  0.4436966E+02  0.0000000E+00
Ar  715  0.8684969E+01  0.3909665E+02  0.4733006E+02  0.0000000E+00
Ar  716  0.6330846E+01  0.4196348E+02  0.4721025E+02  0.0000000E+00
Ar  717  0.6425014E+01  0.3892518E+02  0.5005229E+02  0.0000000E+00
Ar  718  0.8944404E+01  0.4184846E+02  0.5002234E+02  0.0000000E+00
Ar  719  0.9057098E+01  0.3912233E+02  0.5313712E+02  0.0000000E+00
Ar  720  0.6584372E+01  0.4203326E+02  0.5265496E+02  0.0000000E+00
Ar  721  0.5020946E+01  0.4494999E+02  0.5564673E+02  0.0000000E+00
Ar  722  0.1022813E+02  0.4811473E+02  0.5358997E+00  0.0000000E+00
Ar  723  0.8848796E+01  0.4472291E+02  0.3379258E+01  0.0000000E+00
Ar  724  0.6320976E+01  0.4742554E+02  0.3883771E+01  0.0000000E+00
Ar  725  0.6525062E+01  0.4471172E+02  0.6527148E+01  0.0000000E+00
Ar  726  0.9132451E+01  0.4740778E+02  0.6136487E+01  0.0000000E+00
Ar  727  0.9314192E+01  0.4455078E+02  0.9315145E+01  0.0000000E+00
Ar  728  0.6135817E+01  0.4740795E+02  0.9131536E+01  0.0000000E+00
Ar  729  0.6224705E+01  0.4463729E+02  0.1144985E+02  0.0000000E+00
Ar  730  0.8979544E+01  0.4757619E+02  0.1159301E+02  0.0000000E+00
Ar  731  0.8895359E+01  0.4473292E+02  0.1450565E+02  0.0000000E+00
Ar  732  0.6067440E+01  0.4745967E+02  0.1411026E+02  0.0000000E+00
Ar  733  0.5912801E+01  0.4490708E+02  0.1692451E+02  0.0000000E+00
Ar  734  0.8969714E+01  0.4719925E+02  0.1709129E+02  0.0000000E+00
Ar  735  0.8520547E+01  0.4444791E+02  0.1977653E+02  0.0000000E+00
Ar  736  0.5905407E+01  0.4714237E+02  0.1968074E+02  0.0000000E+00
Ar  737  0.5786106E+01  0.4431655E+02  0.2237101E+02  0.0000000E+00
Ar  738  0.8402695E+01  0.4734592E+02  0.2234853E+02  0.0000000E+00
Ar  739  0.8767421E+01  0.4444935E+02  0.2511569E+02  0.0000000E+00
Ar  740  0.5868678E+01  0.4744796E+02  0.2542127E+02  0.0000000E+00
Ar  741  0.6024300E+01  0.4446002E+02  0.2773378E+02  0.0000000E+00
Ar  742  0.8819680E+01  0.4717451E+02  0.2769756E+02  0.0000000E+00
Ar  743  0.8916334E+01  0.4488002E+02  0.3068728E+02  0.0000000E+00
Ar  744  0.5816761E+01  0.4708436E+02  0.3073976E+02  0.0000000E+00
Ar  745  0.6115708E+01  0.4459816E+02  0.3330142E+02  0.0000000E+00
Ar  746  0.8886745E+01  0.4738112E+02  0.3372845E+02  0.0000000E+00
Ar  747  0.8983590E+01  0.4477753E+02  0.3588923E+02  0.0000000E+00
Ar  748  0.5762487E+01  0.4709331E+02  0.3649281E+02  0.0000000E+00
Ar  749  0.6046632E+01  0.4436771E+02  0.3916541E+02  0.0000000E+00
Ar  750  0.8684556E+01  0.4733032E+02  0.3909661E+02  0.0000000E+00
Ar  751  0.9047421E+01  0.4436955E+02  0.4128692E+02  0.0000000E+00
Ar  752  0.6330250E+01  0.4720946E+02  0.4196279E+02  0.0000000E+00
Ar  753  0.6827768E+01  0.4442327E+02  0.4442323E+02  0.0000000E+00
Ar  754  0.9259345E+01  0.4708192E+02  0.4447034E+02  0.0000000E+00
Ar  755  0.9260712E+01  0.4447040E+02  0.4708075E+02  0.0000000E+00
Ar  756  0.6232066E+01  0.4754819E+02  0.4754393E+02  0.0000000E+00
Ar  757  0.6178287E+01  0.4457568E+02  0.4984852E+02  0.0000000E+00
Ar  758  0.9221689E+01  0.4730222E+02  0.4997675E+02  0.0000000E+00
Ar  759  0.9131453E+01  0.4450363E+02  0.5280037E+02  0.0000000E+00
Ar  760  0.6460054E+01  0.4746924E+02  0.5305123E+02  0.0000000E+00
Ar  761  0.6573367E+01  0.4982937E+02  0.3865666E+00  0.0000000E+00
Ar  762  0.9209596E+01  0.5335214E+02  0.6830446E+00  0.0000000E+00
Ar  763  0.9281393E+01  0.5023309E+02  0.3848612E+01  0.0000000E+00
Ar  764  0.6001807E+01  0.5317995E+02  0.3682070E+01  0.0000000E+00
Ar  765  0.6274764E+01  0.5003839E+02  0.6277156E+01  0.0000000E+00
Ar  766  0.9019086E+01  0.5304585E+02  0.5948159E+01  0.0000000E+00
Ar  767  0.9148494E+01  0.5015750E+02  0.9148680E+01  0.0000000E+00
Ar  768  0.5948001E+01  0.5304670E+02  0.9019486E+01  0.0000000E+00
Ar  769  0.6162699E+01  0.5046719E+02  0.1164576E+02  0.0000000E+00
Ar  770  0.8515875E+01  0.5318389E+02  0.1182925E+02  0.0000000E+00
Ar  771  0.9045492E+01  0.5043558E+02  0.1439152E+02  0.0000000E+00
Ar  772  0.5822868E+01  0.5280342E+02  0.1490258E+02  0.0000000E+00
Ar  773  0.6416401E+01  0.4953486E+02  0.1695611E+02  0.0000000E+00
Ar  774  0.8920124E+01  0.5318139E+02  0.1718521E+02  0.0000000E+00
Ar  775  0.8832355E+01  0.4985533E+02  0.1970057E+02  0.0000000E+00
Ar  776  0.5518560E+01  0.5271452E+02  0.1982339E+02  0.0000000E+00
Ar  777  0.5905198E+01  0.5000842E+02  0.2277546E+02  0.0000000E+00
Ar  778  0.8681875E+01  0.5282451E+02  0.2215273E+02  0.0000000E+00
Ar  779  0.8539172E+01  0.4998452E+02  0.2525312E+02  0.0000000E+00
Ar  780  0.6043752E+01  0.5285165E+02  0.2547770E+02  0.0000000E+00
Ar  781  0.5772021E+01  0.4992443E+02  0.2792073E+02  0.0000000E+00
Ar  782  0.8984785E+01  0.5233480E+02  0.2779714E+02  0.0000000E+00
Ar  783  0.8833457E+01  0.4999520E+02  0.3062215E+02  0.0000000E+00
Ar  784  0.6117755E+01  0.5261558E+02  0.3068518E+02  0.0000000E+00
Ar  785  0.6089148E+01  0.4946214E+02  0.3356818E+02  0.0000000E+00
Ar  786  0.8794817E+01  0.5257478E+02  0.3344800E+02  0.0000000E+00
Ar  787  0.8847450E+01  0.5008985E+02  0.3631333E+02  0.0000000E+00
Ar  788  0.6660715E+01  0.5281654E+02  0.3636298E+02  0.0000000E+00
Ar  789  0.6414288E+01  0.5004743E+02  0.3891525E+02  0.0000000E+00
Ar  790  0.9044941E+01  0.5315866E+02  0.3912332E+02  0.0000000E+00
Ar  791  0.8936829E+01  0.5002907E+02  0.4184647E+02  0.0000000E+00
Ar  792  0.6566412E+01  0.5266371E+02  0.4202154E+02  0.0000000E+00
Ar  793  0.6180082E+01  0.4985151E+02  0.4457031E+02  0.0000000E+00
Ar  794  0.9125724E+01  0.5280368E+02  0.4449599E+02  0.0000000E+00
Ar  795  0.9220831E+01  0.4997734E+02  0.4729970E+02  0.0000000E+00
Ar  796  0.6460627E+01  0.5305105E+02  0.4746919E+02  0.0000000E+00
Ar  797  0.6193803E+01  0.4996499E+02  0.4996538E+02  0.0000000E+00
Ar  798  0.9356414E+01  0.5303869E+02  0.5045967E+02  0.0000000E+00
Ar  799  0.9355059E+01  0.5045964E+02  0.5304282E+02  0.0000000E+00
Ar  800  0.6512987E+01  0.5277977E+02  0.5277893E+02  0.0000000E+00
Ar  801  0.1208910E+02  0.3133359E+00  0.3235724E+00  0.0000000E+00
Ar  802  0.1445237E+02  0.3505556E+01  0.4856812E+00  0.0000000E+00
Ar  803  0.1445202E+02  0.4854514E+00  0.3506286E+01  0.0000000E+00
Ar  804  0.1150524E+02  0.3180987E+01  0.3180870E+01  0.0000000E+00
Ar  805  0.1159108E+02  0.6061466E+00  0.6418457E+01  0.0000000E+00
Ar  806  0.1398259E+02  0.3688849E+01  0.6253016E+01  0.0000000E+00
Ar  807  0.1423924E+02  0.7352370E+00  0.8707709E+01  0.0000000E+00
Ar  808  0.1132162E+02  0.3232147E+01  0.8725874E+01  0.0000000E+00
Ar  809  0.1197287E+02  0.6409992E+00  0.1197294E+02  0.0000000E+00
Ar  810  0.1437940E+02  0.3097682E+01  0.1146222E+02  0.0000000E+00
Ar  811  0.1455146E+02  0.5123660E+00  0.1455150E+02  0.0000000E+00
Ar  812  0.1146215E+02  0.3097586E+01  0.1437944E+02  0.0000000E+00
Ar  813  0.1144365E+02  0.5521699E+00  0.1707168E+02  0.0000000E+00
Ar  814  0.1423370E+02  0.3282717E+01  0.1669654E+02  0.0000000E+00
Ar  815  0.1412227E+02  0.3291689E+00  0.1978771E+02  0.0000000E+00
Ar  816  0.1103916E+02  0.3176401E+01  0.1976397E+02  0.0000000E+00
Ar  817  0.1128054E+02  0.2428018E+00  0.2225808E+02  0.0000000E+00
Ar  818  0.1392810E+02  0.3021501E+01  0.2260696E+02  0.0000000E+00
Ar  819  0.1410535E+02  0.5517525E+02  0.2515808E+02  0.0000000E+00
Ar  820  0.1131673E+02  0.2643445E+01  0.2516254E+02  0.0000000E+00
Ar  821  0.1170163E+02  0.5528381E+02  0.2795252E+02  0.0000000E+00
Ar  822  0.1423302E+02  0.2748856E+01  0.2803812E+02  0.0000000E+00
Ar  823  0.1413797E+02  0.4817189E+00  0.3066335E+02  0.0000000E+00
Ar  824  0.1139110E+02  0.2942262E+01  0.3065548E+02  0.0000000E+00
Ar  825  0.1143293E+02  0.5560243E+02  0.3342772E+02  0.0000000E+00
Ar  826  0.1413507E+02  0.3387022E+01  0.3351959E+02  0.0000000E+00
Ar  827  0.1476239E+02  0.7207194E+00  0.3675679E+02  0.0000000E+00
Ar  828  0.1165334E+02  0.3416001E+01  0.3629598E+02  0.0000000E+00
Ar  829  0.1166751E+02  0.5552095E+02  0.3930444E+02  0.0000000E+00
Ar  830  0.1396090E+02  0.3480884E+01  0.3908980E+02  0.0000000E+00
Ar  831  0.1409878E+02  0.5544515E+02  0.4183384E+02  0.0000000E+00
Ar  832  0.1137553E+02  0.3042839E+01  0.4208536E+02  0.0000000E+00
Ar  833  0.1138290E+02  0.4845987E+00  0.4455944E+02  0.0000000E+00
Ar  834  0.1435046E+02  0.3347314E+01  0.4467716E+02  0.0000000E+00
Ar  835  0.1419988E+02  0.4116680E+00  0.4750865E+02  0.0000000E+00
Ar  836  0.1176707E+02  0.3529902E+01  0.4735768E+02  0.0000000E+00
Ar  837  0.1164986E+02  0.4936509E+00  0.5094096E+02  0.0000000E+00
Ar  838  0.1467189E+02  0.3299423E+01  0.4993326E+02  0.0000000E+00
Ar  839  0.1406821E+02  0.4767104E+00  0.5285263E+02  0.0000000E+00
Ar  840  0.1209459E+02  0.3511338E+01  0.5291700E+02  0.0000000E+00
Ar  841  0.1159093E+02  0.6418788E+01  0.6063371E+00  0.0000000E+00
Ar  842  0.1423931E+02  0.8707633E+01  0.7352978E+00  0.0000000E+00
Ar  843  0.1398249E+02  0.6253105E+01  0.3689215E+01  0.0000000E+00
Ar  844  0.1132161E+02  0.8726111E+01  0.3232245E+01  0.0000000E+00
Ar  845  0.1135938E+02  0.6175312E+01  0.6175262E+01  0.0000000E+00
Ar  846  0.1418994E+02  0.8886122E+01  0.6301477E+01  0.0000000E+00
Ar  847  0.1418985E+02  0.6301182E+01  0.8885894E+01  0.0000000E+00
Ar  848  0.1147134E+02  0.8735039E+01  0.8735005E+01  0.0000000E+00
Ar  849  0.1146947E+02  0.5515547E+01  0.1146932E+02  0.0000000E+00
Ar  850  0.1416899E+02  0.8529980E+01  0.1159691E+02  0.0000000E+00
Ar  851  0.1422650E+02  0.6012989E+01  0.1422634E+02  0.0000000E+00
Ar  852  0.1159692E+02  0.8530018E+01  0.1416906E+02  0.0000000E+00
Ar  853  0.1133272E+02  0.5874782E+01  0.1715050E+02  0.0000000E+00
Ar  854  0.1393698E+02  0.8655596E+01  0.1730588E+02  0.0000000E+00
Ar  855  0.1391790E+02  0.5534346E+01  0.1971597E+02  0.0000000E+00
Ar  856  0.1161005E+02  0.8480871E+01  0.1995174E+02  0.0000000E+00
Ar  857  0.1162602E+02  0.5468210E+01  0.2261862E+02  0.0000000E+00
Ar  858  0.1395640E+02  0.8503886E+01  0.2284191E+02  0.0000000E+00
Ar  859  0.1422198E+02  0.5798443E+01  0.2540882E+02  0.0000000E+00
Ar  860  0.1122998E+02  0.8640139E+01  0.2556171E+02  0.0000000E+00
Ar  861  0.1134972E+02  0.5635705E+01  0.2806296E+02  0.0000000E+00
Ar  862  0.1415472E+02  0.8616547E+01  0.2830485E+02  0.0000000E+00
Ar  863  0.1437876E+02  0.5898992E+01  0.3087646E+02  0.0000000E+00
Ar  864  0.1178143E+02  0.8581520E+01  0.3103987E+02  0.0000000E+00
Ar  865  0.1138527E+02  0.5966964E+01  0.3339739E+02  0.0000000E+00
Ar  866  0.1436404E+02  0.8589104E+01  0.3353297E+02  0.0000000E+00
Ar  867  0.1452928E+02  0.6084109E+01  0.3625660E+02  0.0000000E+00
Ar  868  0.1164513E+02  0.8639802E+01  0.3593503E+02  0.0000000E+00
Ar  869  0.1147787E+02  0.6003764E+01  0.3896915E+02  0.0000000E+00
Ar  870  0.1409855E+02  0.8745656E+01  0.3893459E+02  0.0000000E+00
Ar  871  0.1406024E+02  0.6003071E+01  0.4222482E+02  0.0000000E+00
Ar  872  0.1169119E+02  0.8830987E+01  0.4179814E+02  0.0000000E+00
Ar  873  0.1145023E+02  0.6225622E+01  0.4463739E+02  0.0000000E+00
Ar  874  0.1450603E+02  0.8895170E+01  0.4473327E+02  0.0000000E+00
Ar  875  0.1410963E+02  0.6067779E+01  0.4745914E+02  0.0000000E+00
Ar  876  0.1159307E+02  0.8980051E+01  0.4757671E+02  0.0000000E+00
Ar  877  0.1164677E+02  0.6163867E+01  0.5046754E+02  0.0000000E+00
Ar  878  0.1439198E+02  0.9045574E+01  0.5043647E+02  0.0000000E+00
Ar  879  0.1490306E+02  0.5823202E+01  0.5280344E+02  0.0000000E+00
Ar  880  0.1182930E+02  0.8515886E+01  0.5318418E+02  0.0000000E+00
Ar  881  0.1197300E+02  0.1197296E+02  0.6409818E+00  0.0000000E+00
Ar  882  0.1455154E+02  0.1455150E+02  0.5124650E+00  0.0000000E+00
Ar  883  0.1437943E+02  0.1146218E+02  0.3097743E+01  0.0000000E+00
Ar  884  0.1146220E+02  0.1437943E+02  0.3097743E+01  0.0000000E+00
Ar  885  0.1146938E+02  0.1146936E+02  0.5515601E+01  0.0000000E+00
Ar  886  0.1422646E+02  0.1422643E+02  0.6012973E+01  0.0000000E+00
Ar  887  0.1416900E+02  0.1159696E+02  0.8530052E+01  0.0000000E+00
Ar  888  0.1159695E+02  0.1416897E+02  0.8529969E+01  0.0000000E+00
Ar  889  0.1130625E+02  0.1130636E+02  0.1130637E+02  0.0000000E+00
Ar  890  0.1452380E+02  0.1452380E+02  0.1125521E+02  0.0000000E+00
Ar  891  0.1452373E+02  0.1125511E+02  0.1452373E+02  0.0000000E+00
Ar  892  0.1125501E+02  0.1452366E+02  0.1452369E+02  0.0000000E+00
Ar  893  0.1168513E+02  0.1168515E+02  0.1682291E+02  0.0000000E+00
Ar  894  0.1431003E+02  0.1431003E+02  0.1708169E+02  0.0000000E+00
Ar  895  0.1430464E+02  0.1148880E+02  0.1975153E+02  0.0000000E+00
Ar  896  0.1148880E+02  0.1430462E+02  0.1975154E+02  0.0000000E+00
Ar  897  0.1129123E+02  0.1129122E+02  0.2235564E+02  0.0000000E+00
Ar  898  0.1400177E+02  0.1400174E+02  0.2289691E+02  0.0000000E+00
Ar  899  0.1392838E+02  0.1127602E+02  0.2522070E+02  0.0000000E+00
Ar  900  0.1127604E+02  0.1392834E+02  0.2522069E+02  0.0000000E+00
Ar  901  0.1146310E+02  0.1146306E+02  0.2839370E+02  0.0000000E+00
Ar  902  0.1414352E+02  0.1414348E+02  0.2763840E+02  0.0000000E+00
Ar  903  0.1437059E+02  0.1136136E+02  0.3066024E+02  0.0000000E+00
Ar  904  0.1136140E+02  0.1437053E+02  0.3066023E+02  0.0000000E+00
Ar  905  0.1160751E+02  0.1160749E+02  0.3356623E+02  0.0000000E+00
Ar  906  0.1403583E+02  0.1403579E+02  0.3350495E+02  0.0000000E+00
Ar  907  0.1420161E+02  0.1145537E+02  0.3609133E+02  0.0000000E+00
Ar  908  0.1145539E+02  0.1420157E+02  0.3609133E+02  0.0000000E+00
Ar  909  0.1128341E+02  0.1128338E+02  0.3888886E+02  0.0000000E+00
Ar  910  0.1403213E+02  0.1403211E+02  0.3886041E+02  0.0000000E+00
Ar  911  0.1419626E+02  0.1133051E+02  0.4179028E+02  0.0000000E+00
Ar  912  0.1133054E+02  0.1419620E+02  0.4179027E+02  0.0000000E+00
Ar  913  0.1163644E+02  0.1163641E+02  0.4475660E+02  0.0000000E+00
Ar  914  0.1417948E+02  0.1417941E+02  0.4466575E+02  0.0000000E+00
Ar  915  0.1416587E+02  0.1151425E+02  0.4746353E+02  0.0000000E+00
Ar  916  0.1151435E+02  0.1416575E+02  0.4746353E+02  0.0000000E+00
Ar  917  0.1161672E+02  0.1161659E+02  0.5006364E+02  0.0000000E+00
Ar  918  0.1423636E+02  0.1423631E+02  0.5034172E+02  0.0000000E+00
Ar  919  0.1445008E+02  0.1147999E+02  0.5330171E+02  0.0000000E+00
Ar  920  0.1148008E+02  0.1445003E+02  0.5330169E+02  0.0000000E+00
Ar  921  0.1144395E+02  0.1707140E+02  0.5518572E+00  0.0000000E+00
Ar  922  0.1412195E+02  0.1978763E+02  0.3289582E+00  0.0000000E+00
Ar  923  0.1423368E+02  0.1669656E+02  0.3282731E+01  0.0000000E+00
Ar  924  0.1103981E+02  0.1976374E+02  0.3175855E+01  0.0000000E+00
Ar  925  0.1133282E+02  0.1715039E+02  0.5875114E+01  0.0000000E+00
Ar  926  0.1391816E+02  0.1971564E+02  0.5534602E+01  0.0000000E+00
Ar  927  0.1393693E+02  0.1730601E+02  0.8655639E+01  0.0000000E+00
Ar  928  0.1160995E+02  0.1995172E+02  0.8480905E+01  0.0000000E+00
Ar  929  0.1168520E+02  0.1682286E+02  0.1168522E+02  0.0000000E+00
Ar  930  0.1430463E+02  0.1975150E+02  0.1148882E+02  0.0000000E+00
Ar  931  0.1431005E+02  0.1708166E+02  0.1431006E+02  0.0000000E+00
Ar  932  0.1148881E+02  0.1975152E+02  0.1430465E+02  0.0000000E+00
Ar  933  0.1116101E+02  0.1692504E+02  0.1692506E+02  0.0000000E+00
Ar  934  0.1426659E+02  0.1977976E+02  0.1687098E+02  0.0000000E+00
Ar  935  0.1426657E+02  0.1687095E+02  0.1977977E+02  0.0000000E+00
Ar  936  0.1135081E+02  0.1945605E+02  0.1945603E+02  0.0000000E+00
Ar  937  0.1068077E+02  0.1689398E+02  0.2233859E+02  0.0000000E+00
Ar  938  0.1405035E+02  0.1938531E+02  0.2228538E+02  0.0000000E+00
Ar  939  0.1407114E+02  0.1694281E+02  0.2509794E+02  0.0000000E+00
Ar  940  0.1135905E+02  0.1960683E+02  0.2504177E+02  0.0000000E+00
Ar  941  0.1140860E+02  0.1704752E+02  0.2775790E+02  0.0000000E+00
Ar  942  0.1399142E+02  0.1960985E+02  0.2792327E+02  0.0000000E+00
Ar  943  0.1419770E+02  0.1675465E+02  0.3087768E+02  0.0000000E+00
Ar  944  0.1145458E+02  0.1934567E+02  0.3089107E+02  0.0000000E+00
Ar  945  0.1123557E+02  0.1692594E+02  0.3357045E+02  0.0000000E+00
Ar  946  0.1428478E+02  0.1944800E+02  0.3330076E+02  0.0000000E+00
Ar  947  0.1421193E+02  0.1688466E+02  0.3612812E+02  0.0000000E+00
Ar  948  0.1153368E+02  0.1984641E+02  0.3595283E+02  0.0000000E+00
Ar  949  0.1143005E+02  0.1680629E+02  0.3909564E+02  0.0000000E+00
Ar  950  0.1408318E+02  0.1956617E+02  0.3893426E+02  0.0000000E+00
Ar  951  0.1446392E+02  0.1705143E+02  0.4169386E+02  0.0000000E+00
Ar  952  0.1145497E+02  0.1959126E+02  0.4168102E+02  0.0000000E+00
Ar  953  0.1136374E+02  0.1730610E+02  0.4449217E+02  0.0000000E+00
Ar  954  0.1440513E+02  0.1960323E+02  0.4455038E+02  0.0000000E+00
Ar  955  0.1396453E+02  0.1679304E+02  0.4733088E+02  0.0000000E+00
Ar  956  0.1155678E+02  0.1975038E+02  0.4725035E+02  0.0000000E+00
Ar  957  0.1161939E+02  0.1701970E+02  0.5013837E+02  0.0000000E+00
Ar  958  0.1435560E+02  0.1950411E+02  0.5009731E+02  0.0000000E+00
Ar  959  0.1436513E+02  0.1699787E+02  0.5297088E+02  0.0000000E+00
Ar  960  0.1171874E+02  0.1964952E+02  0.5257736E+02  0.0000000E+00
Ar  961  0.1128129E+02  0.2225825E+02  0.2429590E+00  0.0000000E+00
Ar  962  0.1410618E+02  0.2515845E+02  0.5517553E+02  0.0000000E+00
Ar  963  0.1392741E+02  0.2260670E+02  0.3022164E+01  0.0000000E+00
Ar  964  0.1131679E+02  0.2516270E+02  0.2643747E+01  0.0000000E+00
Ar  965  0.1162618E+02  0.2261835E+02  0.5468698E+01  0.0000000E+00
Ar  966  0.1422163E+02  0.2540868E+02  0.5798220E+01  0.0000000E+00
Ar  967  0.1395650E+02  0.2284184E+02  0.8503923E+01  0.0000000E+00
Ar  968  0.1123031E+02  0.2556137E+02  0.8640162E+01  0.0000000E+00
Ar  969  0.1129115E+02  0.2235570E+02  0.1129114E+02  0.0000000E+00
Ar  970  0.1392842E+02  0.2522072E+02  0.1127605E+02  0.0000000E+00
Ar  971  0.1400178E+02  0.2289690E+02  0.1400172E+02  0.0000000E+00
Ar  972  0.1127613E+02  0.2522072E+02  0.1392843E+02  0.0000000E+00
Ar  973  0.1068077E+02  0.2233859E+02  0.1689402E+02  0.0000000E+00
Ar  974  0.1407116E+02  0.2509792E+02  0.1694283E+02  0.0000000E+00
Ar  975  0.1405035E+02  0.2228538E+02  0.1938534E+02  0.0000000E+00
Ar  976  0.1135904E+02  0.2504175E+02  0.1960684E+02  0.0000000E+00
Ar  977  0.1132472E+02  0.2222728E+02  0.2222729E+02  0.0000000E+00
Ar  978  0.1421079E+02  0.2578899E+02  0.2256572E+02  0.0000000E+00
Ar  979  0.1421079E+02  0.2256569E+02  0.2578901E+02  0.0000000E+00
Ar  980  0.1164684E+02  0.2497523E+02  0.2497524E+02  0.0000000E+00
Ar  981  0.1138359E+02  0.2211484E+02  0.2805623E+02  0.0000000E+00
Ar  982  0.1425787E+02  0.2544875E+02  0.2804999E+02  0.0000000E+00
Ar  983  0.1436565E+02  0.2217905E+02  0.3071464E+02  0.0000000E+00
Ar  984  0.1139252E+02  0.2476518E+02  0.3060304E+02  0.0000000E+00
Ar  985  0.1151758E+02  0.2224338E+02  0.3334137E+02  0.0000000E+00
Ar  986  0.1392332E+02  0.2517264E+02  0.3361758E+02  0.0000000E+00
Ar  987  0.1420355E+02  0.2262175E+02  0.3608566E+02  0.0000000E+00
Ar  988  0.1134825E+02  0.2498278E+02  0.3633430E+02  0.0000000E+00
Ar  989  0.1146727E+02  0.2257846E+02  0.3927190E+02  0.0000000E+00
Ar  990  0.1423819E+02  0.2515654E+02  0.3880019E+02  0.0000000E+00
Ar  991  0.1423757E+02  0.2262131E+02  0.4176973E+02  0.0000000E+00
Ar  992  0.1168105E+02  0.2517495E+02  0.4179537E+02  0.0000000E+00
Ar  993  0.1138177E+02  0.2233537E+02  0.4447649E+02  0.0000000E+00
Ar  994  0.1453737E+02  0.2505545E+02  0.4481318E+02  0.0000000E+00
Ar  995  0.1406762E+02  0.2228898E+02  0.4758487E+02  0.0000000E+00
Ar  996  0.1152073E+02  0.2502559E+02  0.4711276E+02  0.0000000E+00
Ar  997  0.1137430E+02  0.2234113E+02  0.5010262E+02  0.0000000E+00
Ar  998  0.1450595E+02  0.2506092E+02  0.4994607E+02  0.0000000E+00
Ar  999  0.1453114E+02  0.2212222E+02  0.5263170E+02  0.0000000E+00
Ar 1000  0.1174243E+02  0.2494733E+02  0.5262603E+02  0.0000000E+00
Ar 1001  0.1170286E+02  0.2795371E+02  0.5528382E+02  0.0000000E+00
Ar 1002  0.1413808E+02  0.3066333E+02  0.4816467E+00  0.0000000E+00
Ar 1003  0.1423268E+02  0.2803794E+02  0.2748765E+01  0.0000000E+00
Ar 1004  0.1139128E+02  0.3065595E+02  0.2942513E+01  0.0000000E+00
Ar 1005  0.1135004E+02  0.2806302E+02  0.5636052E+01  0.0000000E+00
Ar 1006  0.1437871E+02  0.3087647E+02  0.5898962E+01  0.0000000E+00
Ar 1007  0.1415461E+02  0.2830481E+02  0.8616335E+01  0.0000000E+00
Ar 1008  0.1178129E+02  0.3104023E+02  0.8581409E+01  0.0000000E+00
Ar 1009  0.1146339E+02  0.2839363E+02  0.1146325E+02  0.0000000E+00
Ar 1010  0.1437052E+02  0.3066019E+02  0.1136125E+02  0.0000000E+00
Ar 1011  0.1414353E+02  0.2763835E+02  0.1414349E+02  0.0000000E+00
Ar 1012  0.1136181E+02  0.3066008E+02  0.1437087E+02  0.0000000E+00
Ar 1013  0.1140864E+02  0.2775786E+02  0.1704758E+02  0.0000000E+00
Ar 1014  0.1419778E+02  0.3087769E+02  0.1675475E+02  0.0000000E+00
Ar 1015  0.1399146E+02  0.2792321E+02  0.1960989E+02  0.0000000E+00
Ar 1016  0.1145466E+02  0.3089100E+02  0.1934572E+02  0.0000000E+00
Ar 1017  0.1138358E+02  0.2805621E+02  0.2211484E+02  0.0000000E+00
Ar 1018  0.1436570E+02  0.3071455E+02  0.2217908E+02  0.0000000E+00
Ar 1019  0.1425787E+02  0.2804996E+02  0.2544877E+02  0.0000000E+00
Ar 1020  0.1139254E+02  0.3060298E+02  0.2476524E+02  0.0000000E+00
Ar 1021  0.1164938E+02  0.2790557E+02  0.2790558E+02  0.0000000E+00
Ar 1022  0.1409849E+02  0.3079270E+02  0.2789079E+02  0.0000000E+00
Ar 1023  0.1409850E+02  0.2789076E+02  0.3079272E+02  0.0000000E+00
Ar 1024  0.1153879E+02  0.3041203E+02  0.3041205E+02  0.0000000E+00
Ar 1025  0.1142383E+02  0.2784492E+02  0.3329175E+02  0.0000000E+00
Ar 1026  0.1407077E+02  0.3100796E+02  0.3362823E+02  0.0000000E+00
Ar 1027  0.1380604E+02  0.2799432E+02  0.3619539E+02  0.0000000E+00
Ar 1028  0.1131338E+02  0.3076871E+02  0.3631000E+02  0.0000000E+00
Ar 1029  0.1106908E+02  0.2769740E+02  0.3910626E+02  0.0000000E+00
Ar 1030  0.1418390E+02  0.3073107E+02  0.3887600E+02  0.0000000E+00
Ar 1031  0.1419333E+02  0.2797257E+02  0.4140071E+02  0.0000000E+00
Ar 1032  0.1149409E+02  0.3069402E+02  0.4195822E+02  0.0000000E+00
Ar 1033  0.1172273E+02  0.2789919E+02  0.4473674E+02  0.0000000E+00
Ar 1034  0.1415986E+02  0.3054305E+02  0.4454118E+02  0.0000000E+00
Ar 1035  0.1452243E+02  0.2795497E+02  0.4727186E+02  0.0000000E+00
Ar 1036  0.1164416E+02  0.3039095E+02  0.4764641E+02  0.0000000E+00
Ar 1037  0.1160731E+02  0.2757154E+02  0.4996055E+02  0.0000000E+00
Ar 1038  0.1444837E+02  0.3076142E+02  0.4976430E+02  0.0000000E+00
Ar 1039  0.1412706E+02  0.2802087E+02  0.5246602E+02  0.0000000E+00
Ar 1040  0.1159397E+02  0.3077627E+02  0.5269727E+02  0.0000000E+00
Ar 1041  0.1143310E+02  0.3342747E+02  0.5560269E+02  0.0000000E+00
Ar 1042  0.1476158E+02  0.3675706E+02  0.7203933E+00  0.0000000E+00
Ar 1043  0.1413505E+02  0.3351952E+02  0.3386928E+01  0.0000000E+00
Ar 1044  0.1165298E+02  0.3629573E+02  0.3414927E+01  0.0000000E+00
Ar 1045  0.1138483E+02  0.3339733E+02  0.5966726E+01  0.0000000E+00
Ar 1046  0.1452909E+02  0.3625648E+02  0.6083892E+01  0.0000000E+00
Ar 1047  0.1436409E+02  0.3353295E+02  0.8588991E+01  0.0000000E+00
Ar 1048  0.1164563E+02  0.3593527E+02  0.8639773E+01  0.0000000E+00
Ar 1049  0.1160844E+02  0.3356582E+02  0.1160817E+02  0.0000000E+00
Ar 1050  0.1420187E+02  0.3609145E+02  0.1145541E+02  0.0000000E+00
Ar 1051  0.1403611E+02  0.3350492E+02  0.1403612E+02  0.0000000E+00
Ar 1052  0.1145537E+02  0.3609150E+02  0.1420179E+02  0.0000000E+00
Ar 1053  0.1123557E+02  0.3357045E+02  0.1692598E+02  0.0000000E+00
Ar 1054  0.1421189E+02  0.3612808E+02  0.1688468E+02  0.0000000E+00
Ar 1055  0.1428479E+02  0.3330073E+02  0.1944804E+02  0.0000000E+00
Ar 1056  0.1153368E+02  0.3595285E+02  0.1984650E+02  0.0000000E+00
Ar 1057  0.1151761E+02  0.3334135E+02  0.2224342E+02  0.0000000E+00
Ar 1058  0.1420358E+02  0.3608563E+02  0.2262180E+02  0.0000000E+00
Ar 1059  0.1392334E+02  0.3361754E+02  0.2517270E+02  0.0000000E+00
Ar 1060  0.1134836E+02  0.3633425E+02  0.2498287E+02  0.0000000E+00
Ar 1061  0.1142381E+02  0.3329173E+02  0.2784495E+02  0.0000000E+00
Ar 1062  0.1380606E+02  0.3619530E+02  0.2799437E+02  0.0000000E+00
Ar 1063  0.1407079E+02  0.3362819E+02  0.3100799E+02  0.0000000E+00
Ar 1064  0.1131338E+02  0.3630992E+02  0.3076873E+02  0.0000000E+00
Ar 1065  0.1151966E+02  0.3383443E+02  0.3383445E+02  0.0000000E+00
Ar 1066  0.1425510E+02  0.3635904E+02  0.3353244E+02  0.0000000E+00
Ar 1067  0.1425508E+02  0.3353241E+02  0.3635907E+02  0.0000000E+00
Ar 1068  0.1178249E+02  0.3652425E+02  0.3652426E+02  0.0000000E+00
Ar 1069  0.1159064E+02  0.3327322E+02  0.3912286E+02  0.0000000E+00
Ar 1070  0.1443440E+02  0.3645871E+02  0.3908769E+02  0.0000000E+00
Ar 1071  0.1435313E+02  0.3345431E+02  0.4156300E+02  0.0000000E+00
Ar 1072  0.1164216E+02  0.3626949E+02  0.4170606E+02  0.0000000E+00
Ar 1073  0.1182579E+02  0.3347525E+02  0.4437771E+02  0.0000000E+00
Ar 1074  0.1442546E+02  0.3631304E+02  0.4450947E+02  0.0000000E+00
Ar 1075  0.1445728E+02  0.3317767E+02  0.4724895E+02  0.0000000E+00
Ar 1076  0.1175047E+02  0.3640909E+02  0.4717885E+02  0.0000000E+00
Ar 1077  0.1164115E+02  0.3338516E+02  0.4990925E+02  0.0000000E+00
Ar 1078  0.1423818E+02  0.3650691E+02  0.5013349E+02  0.0000000E+00
Ar 1079  0.1403227E+02  0.3359112E+02  0.5239819E+02  0.0000000E+00
Ar 1080  0.1157283E+02  0.3627711E+02  0.5288565E+02  0.0000000E+00
Ar 1081  0.1166249E+02  0.3930527E+02  0.5551917E+02  0.0000000E+00
Ar 1082  0.1409922E+02  0.4183174E+02  0.5544722E+02  0.0000000E+00
Ar 1083  0.1396065E+02  0.3908984E+02  0.3480837E+01  0.0000000E+00
Ar 1084  0.1137761E+02  0.4208741E+02  0.3043093E+01  0.0000000E+00
Ar 1085  0.1147812E+02  0.3896899E+02  0.6003972E+01  0.0000000E+00
Ar 1086  0.1406024E+02  0.4222474E+02  0.6003088E+01  0.0000000E+00
Ar 1087  0.1409857E+02  0.3893456E+02  0.8745696E+01  0.0000000E+00
Ar 1088  0.1169085E+02  0.4179810E+02  0.8830822E+01  0.0000000E+00
Ar 1089  0.1128323E+02  0.3888898E+02  0.1128346E+02  0.0000000E+00
Ar 1090  0.1419626E+02  0.4179026E+02  0.1133044E+02  0.0000000E+00
Ar 1091  0.1403207E+02  0.3886037E+02  0.1403215E+02  0.0000000E+00
Ar 1092  0.1133040E+02  0.4179025E+02  0.1419607E+02  0.0000000E+00
Ar 1093  0.1143001E+02  0.3909560E+02  0.1680621E+02  0.0000000E+00
Ar 1094  0.1446387E+02  0.4169379E+02  0.1705150E+02  0.0000000E+00
Ar 1095  0.1408312E+02  0.3893417E+02  0.1956625E+02  0.0000000E+00
Ar 1096  0.1145502E+02  0.4168098E+02  0.1959124E+02  0.0000000E+00
Ar 1097  0.1146723E+02  0.3927190E+02  0.2257851E+02  0.0000000E+00
Ar 1098  0.1423772E+02  0.4176968E+02  0.2262133E+02  0.0000000E+00
Ar 1099  0.1423825E+02  0.3880025E+02  0.2515662E+02  0.0000000E+00
Ar 1100  0.1168134E+02  0.4179528E+02  0.2517470E+02  0.0000000E+00
Ar 1101  0.1106940E+02  0.3910600E+02  0.2769741E+02  0.0000000E+00
Ar 1102  0.1419332E+02  0.4140075E+02  0.2797253E+02  0.0000000E+00
Ar 1103  0.1418393E+02  0.3887591E+02  0.3073111E+02  0.0000000E+00
Ar 1104  0.1149422E+02  0.4195813E+02  0.3069407E+02  0.0000000E+00
Ar 1105  0.1159059E+02  0.3912280E+02  0.3327320E+02  0.0000000E+00
Ar 1106  0.1435313E+02  0.4156291E+02  0.3345429E+02  0.0000000E+00
Ar 1107  0.1443441E+02  0.3908767E+02  0.3645874E+02  0.0000000E+00
Ar 1108  0.1164222E+02  0.4170596E+02  0.3626951E+02  0.0000000E+00
Ar 1109  0.1195621E+02  0.3913080E+02  0.3913082E+02  0.0000000E+00
Ar 1110  0.1489135E+02  0.4186305E+02  0.3907517E+02  0.0000000E+00
Ar 1111  0.1489127E+02  0.3907509E+02  0.4186317E+02  0.0000000E+00
Ar 1112  0.1208717E+02  0.4161911E+02  0.4161917E+02  0.0000000E+00
Ar 1113  0.1180524E+02  0.3909985E+02  0.4460615E+02  0.0000000E+00
Ar 1114  0.1442152E+02  0.4180411E+02  0.4476349E+02  0.0000000E+00
Ar 1115  0.1408846E+02  0.3918259E+02  0.4750075E+02  0.0000000E+00
Ar 1116  0.1173356E+02  0.4207269E+02  0.4754782E+02  0.0000000E+00
Ar 1117  0.1166725E+02  0.3891897E+02  0.5020779E+02  0.0000000E+00
Ar 1118  0.1435921E+02  0.4212119E+02  0.5004027E+02  0.0000000E+00
Ar 1119  0.1444348E+02  0.3916120E+02  0.5270520E+02  0.0000000E+00
Ar 1120  0.1158015E+02  0.4195446E+02  0.5272853E+02  0.0000000E+00
Ar 1121  0.1138209E+02  0.4455959E+02  0.4845070E+00  0.0000000E+00
Ar 1122  0.1420086E+02  0.4750852E+02  0.4117007E+00  0.0000000E+00
Ar 1123  0.1435060E+02  0.4467763E+02  0.3347054E+01  0.0000000E+00
Ar 1124  0.1176533E+02  0.4735782E+02  0.3527497E+01  0.0000000E+00
Ar 1125  0.1145045E+02  0.4463762E+02  0.6225822E+01  0.0000000E+00
Ar 1126  0.1410845E+02  0.4745847E+02  0.6067413E+01  0.0000000E+00
Ar 1127  0.1450605E+02  0.4473320E+02  0.8895184E+01  0.0000000E+00
Ar 1128  0.1159280E+02  0.4757648E+02  0.8980105E+01  0.0000000E+00
Ar 1129  0.1163534E+02  0.4475664E+02  0.1163504E+02  0.0000000E+00
Ar 1130  0.1416577E+02  0.4746353E+02  0.1151433E+02  0.0000000E+00
Ar 1131  0.1417951E+02  0.4466570E+02  0.1417945E+02  0.0000000E+00
Ar 1132  0.1151431E+02  0.4746356E+02  0.1416589E+02  0.0000000E+00
Ar 1133  0.1136381E+02  0.4449227E+02  0.1730619E+02  0.0000000E+00
Ar 1134  0.1396458E+02  0.4733083E+02  0.1679309E+02  0.0000000E+00
Ar 1135  0.1440514E+02  0.4455034E+02  0.1960333E+02  0.0000000E+00
Ar 1136  0.1155634E+02  0.4725014E+02  0.1975035E+02  0.0000000E+00
Ar 1137  0.1138175E+02  0.4447635E+02  0.2233516E+02  0.0000000E+00
Ar 1138  0.1406761E+02  0.4758487E+02  0.2228888E+02  0.0000000E+00
Ar 1139  0.1453763E+02  0.4481327E+02  0.2505556E+02  0.0000000E+00
Ar 1140  0.1152122E+02  0.4711268E+02  0.2502522E+02  0.0000000E+00
Ar 1141  0.1172285E+02  0.4473676E+02  0.2789927E+02  0.0000000E+00
Ar 1142  0.1452245E+02  0.4727194E+02  0.2795516E+02  0.0000000E+00
Ar 1143  0.1415985E+02  0.4454117E+02  0.3054309E+02  0.0000000E+00
Ar 1144  0.1164429E+02  0.4764648E+02  0.3039092E+02  0.0000000E+00
Ar 1145  0.1182587E+02  0.4437760E+02  0.3347530E+02  0.0000000E+00
Ar 1146  0.1445727E+02  0.4724887E+02  0.3317783E+02  0.0000000E+00
Ar 1147  0.1442540E+02  0.4450949E+02  0.3631303E+02  0.0000000E+00
Ar 1148  0.1174994E+02  0.4717923E+02  0.3640918E+02  0.0000000E+00
Ar 1149  0.1180524E+02  0.4460613E+02  0.3909992E+02  0.0000000E+00
Ar 1150  0.1408820E+02  0.4750090E+02  0.3918264E+02  0.0000000E+00
Ar 1151  0.1442153E+02  0.4476341E+02  0.4180421E+02  0.0000000E+00
Ar 1152  0.1173100E+02  0.4754997E+02  0.4207279E+02  0.0000000E+00
Ar 1153  0.1171799E+02  0.4419394E+02  0.4419361E+02  0.0000000E+00
Ar 1154  0.1432039E+02  0.4739275E+02  0.4476702E+02  0.0000000E+00
Ar 1155  0.1432021E+02  0.4476696E+02  0.4739275E+02  0.0000000E+00
Ar 1156  0.1173975E+02  0.4722215E+02  0.4722150E+02  0.0000000E+00
Ar 1157  0.1172373E+02  0.4461253E+02  0.5010540E+02  0.0000000E+00
Ar 1158  0.1434962E+02  0.4740177E+02  0.5003916E+02  0.0000000E+00
Ar 1159  0.1434747E+02  0.4449991E+02  0.5293778E+02  0.0000000E+00
Ar 1160  0.1148401E+02  0.4742595E+02  0.5269031E+02  0.0000000E+00
Ar 1161  0.1165768E+02  0.5094259E+02  0.4947218E+00  0.0000000E+00
Ar 1162  0.1407110E+02  0.5285145E+02  0.4752816E+00  0.0000000E+00
Ar 1163  0.1467187E+02  0.4993398E+02  0.3299714E+01  0.0000000E+00
Ar 1164  0.1209520E+02  0.5291659E+02  0.3509858E+01  0.0000000E+00
Ar 1165  0.1164658E+02  0.5046742E+02  0.6163803E+01  0.0000000E+00
Ar 1166  0.1490307E+02  0.5280353E+02  0.5823104E+01  0.0000000E+00
Ar 1167  0.1439187E+02  0.5043647E+02  0.9045682E+01  0.0000000E+00
Ar 1168  0.1182932E+02  0.5318414E+02  0.8515765E+01  0.0000000E+00
Ar 1169  0.1161668E+02  0.5006361E+02  0.1161660E+02  0.0000000E+00
Ar 1170  0.1444997E+02  0.5330168E+02  0.1148007E+02  0.0000000E+00
Ar 1171  0.1423624E+02  0.5034174E+02  0.1423645E+02  0.0000000E+00
Ar 1172  0.1147994E+02  0.5330170E+02  0.1445010E+02  0.0000000E+00
Ar 1173  0.1161931E+02  0.5013843E+02  0.1701991E+02  0.0000000E+00
Ar 1174  0.1436501E+02  0.5297087E+02  0.1699805E+02  0.0000000E+00
Ar 1175  0.1435533E+02  0.5009759E+02  0.1950424E+02  0.0000000E+00
Ar 1176  0.1171855E+02  0.5257760E+02  0.1964926E+02  0.0000000E+00
Ar 1177  0.1137434E+02  0.5010316E+02  0.2234147E+02  0.0000000E+00
Ar 1178  0.1453202E+02  0.5263296E+02  0.2212223E+02  0.0000000E+00
Ar 1179  0.1450585E+02  0.4994626E+02  0.2506089E+02  0.0000000E+00
Ar 1180  0.1174043E+02  0.5262732E+02  0.2494680E+02  0.0000000E+00
Ar 1181  0.1160723E+02  0.4996082E+02  0.2757128E+02  0.0000000E+00
Ar 1182  0.1412660E+02  0.5246616E+02  0.2802036E+02  0.0000000E+00
Ar 1183  0.1444843E+02  0.4976427E+02  0.3076140E+02  0.0000000E+00
Ar 1184  0.1159419E+02  0.5269742E+02  0.3077660E+02  0.0000000E+00
Ar 1185  0.1164159E+02  0.4990873E+02  0.3338554E+02  0.0000000E+00
Ar 1186  0.1403240E+02  0.5239820E+02  0.3359103E+02  0.0000000E+00
Ar 1187  0.1423841E+02  0.5013338E+02  0.3650704E+02  0.0000000E+00
Ar 1188  0.1157300E+02  0.5288581E+02  0.3627817E+02  0.0000000E+00
Ar 1189  0.1166599E+02  0.5020862E+02  0.3891878E+02  0.0000000E+00
Ar 1190  0.1444460E+02  0.5270517E+02  0.3916112E+02  0.0000000E+00
Ar 1191  0.1435883E+02  0.5004089E+02  0.4212090E+02  0.0000000E+00
Ar 1192  0.1157876E+02  0.5272908E+02  0.4194979E+02  0.0000000E+00
Ar 1193  0.1172223E+02  0.5010811E+02  0.4461007E+02  0.0000000E+00
Ar 1194  0.1434466E+02  0.5293793E+02  0.4449784E+02  0.0000000E+00
Ar 1195  0.1434991E+02  0.5003930E+02  0.4740158E+02  0.0000000E+00
Ar 1196  0.1148248E+02  0.5269041E+02  0.4742531E+02  0.0000000E+00
Ar 1197  0.1174944E+02  0.5012974E+02  0.5012850E+02  0.0000000E+00
Ar 1198  0.1437850E+02  0.5276049E+02  0.4985266E+02  0.0000000E+00
Ar 1199  0.1437861E+02  0.4985279E+02  0.5276053E+02  0.0000000E+00
Ar 1200  0.1146560E+02  0.5307480E+02  0.5307598E+02  0.0000000E+00
Ar 1201  0.1620860E+02  0.2553139E+00  0.2700349E+00  0.0000000E+00
Ar 1202  0.2003569E+02  0.3052244E+01  0.4312554E+00  0.0000000E+00
Ar 1203  0.2003254E+02  0.4316403E+00  0.3049683E+01  0.0000000E+00
Ar 1204  0.1678664E+02  0.3485738E+01  0.3485854E+01  0.0000000E+00
Ar 1205  0.1733625E+02  0.4183660E+00  0.6073948E+01  0.0000000E+00
Ar 1206  0.1973546E+02  0.3023041E+01  0.5786337E+01  0.0000000E+00
Ar 1207  0.1988356E+02  0.7022967E+00  0.8406747E+01  0.0000000E+00
Ar 1208  0.1687496E+02  0.3406507E+01  0.8804102E+01  0.0000000E+00
Ar 1209  0.1707140E+02  0.5518909E+00  0.1144396E+02  0.0000000E+00
Ar 1210  0.1976359E+02  0.3175860E+01  0.1103996E+02  0.0000000E+00
Ar 1211  0.1978761E+02  0.3289443E+00  0.1412198E+02  0.0000000E+00
Ar 1212  0.1669660E+02  0.3282638E+01  0.1423361E+02  0.0000000E+00
Ar 1213  0.1728375E+02  0.5553477E+02  0.1728355E+02  0.0000000E+00
Ar 1214  0.1975541E+02  0.3237319E+01  0.1678150E+02  0.0000000E+00
Ar 1215  0.1985522E+02  0.3424357E+00  0.1985525E+02  0.0000000E+00
Ar 1216  0.1678158E+02  0.3237250E+01  0.1975533E+02  0.0000000E+00
Ar 1217  0.1650899E+02  0.4979250E+00  0.2241215E+02  0.0000000E+00
Ar 1218  0.1960237E+02  0.3075793E+01  0.2268152E+02  0.0000000E+00
Ar 1219  0.1991355E+02  0.5562352E+02  0.2509131E+02  0.0000000E+00
Ar 1220  0.1698354E+02  0.3262248E+01  0.2496015E+02  0.0000000E+00
Ar 1221  0.1717940E+02  0.3767583E+00  0.2838535E+02  0.0000000E+00
Ar 1222  0.1965436E+02  0.3060881E+01  0.2815362E+02  0.0000000E+00
Ar 1223  0.1990538E+02  0.5552868E+02  0.3104564E+02  0.0000000E+00
Ar 1224  0.1739459E+02  0.3333267E+01  0.3090659E+02  0.0000000E+00
Ar 1225  0.1627957E+02  0.5553014E+02  0.3337341E+02  0.0000000E+00
Ar 1226  0.1969557E+02  0.2972772E+01  0.3365559E+02  0.0000000E+00
Ar 1227  0.1994677E+02  0.5163575E+00  0.3608425E+02  0.0000000E+00
Ar 1228  0.1722868E+02  0.3213257E+01  0.3601227E+02  0.0000000E+00
Ar 1229  0.1787898E+02  0.6854504E+00  0.3919534E+02  0.0000000E+00
Ar 1230  0.2005274E+02  0.3119247E+01  0.3875023E+02  0.0000000E+00
Ar 1231  0.1997756E+02  0.5567075E+02  0.4198825E+02  0.0000000E+00
Ar 1232  0.1647225E+02  0.3126919E+01  0.4165320E+02  0.0000000E+00
Ar 1233  0.1697680E+02  0.5218278E+00  0.4457909E+02  0.0000000E+00
Ar 1234  0.1990767E+02  0.3043041E+01  0.4431761E+02  0.0000000E+00
Ar 1235  0.1977187E+02  0.5201199E+00  0.4716331E+02  0.0000000E+00
Ar 1236  0.1687219E+02  0.3326925E+01  0.4739984E+02  0.0000000E+00
Ar 1237  0.1728464E+02  0.5566205E+02  0.5040679E+02  0.0000000E+00
Ar 1238  0.1955284E+02  0.3367318E+01  0.4967592E+02  0.0000000E+00
Ar 1239  0.2008992E+02  0.5579438E+02  0.5305227E+02  0.0000000E+00
Ar 1240  0.1720397E+02  0.3073432E+01  0.5308301E+02  0.0000000E+00
Ar 1241  0.1733630E+02  0.6074097E+01  0.4184534E+00  0.0000000E+00
Ar 1242  0.1988496E+02  0.8405950E+01  0.7026270E+00  0.0000000E+00
Ar 1243  0.1973576E+02  0.5786512E+01  0.3023343E+01  0.0000000E+00
Ar 1244  0.1687495E+02  0.8804076E+01  0.3406557E+01  0.0000000E+00
Ar 1245  0.1712276E+02  0.5998714E+01  0.5998726E+01  0.0000000E+00
Ar 1246  0.1994849E+02  0.8676171E+01  0.5844189E+01  0.0000000E+00
Ar 1247  0.1994832E+02  0.5844304E+01  0.8676286E+01  0.0000000E+00
Ar 1248  0.1716425E+02  0.9222893E+01  0.9222914E+01  0.0000000E+00
Ar 1249  0.1715040E+02  0.5875311E+01  0.1133305E+02  0.0000000E+00
Ar 1250  0.1995179E+02  0.8480988E+01  0.1161002E+02  0.0000000E+00
Ar 1251  0.1971550E+02  0.5534617E+01  0.1391827E+02  0.0000000E+00
Ar 1252  0.1730600E+02  0.8655696E+01  0.1393690E+02  0.0000000E+00
Ar 1253  0.1705013E+02  0.5659344E+01  0.1705008E+02  0.0000000E+00
Ar 1254  0.1967962E+02  0.8359791E+01  0.1654169E+02  0.0000000E+00
Ar 1255  0.1963478E+02  0.5897479E+01  0.1963478E+02  0.0000000E+00
Ar 1256  0.1654174E+02  0.8359824E+01  0.1967957E+02  0.0000000E+00
Ar 1257  0.1687916E+02  0.5983921E+01  0.2246090E+02  0.0000000E+00
Ar 1258  0.1969892E+02  0.8573411E+01  0.2216118E+02  0.0000000E+00
Ar 1259  0.1971896E+02  0.5943496E+01  0.2497969E+02  0.0000000E+00
Ar 1260  0.1666868E+02  0.8576016E+01  0.2534734E+02  0.0000000E+00
Ar 1261  0.1674612E+02  0.5697169E+01  0.2782946E+02  0.0000000E+00
Ar 1262  0.1934550E+02  0.8684758E+01  0.2784468E+02  0.0000000E+00
Ar 1263  0.1984451E+02  0.6131531E+01  0.3046871E+02  0.0000000E+00
Ar 1264  0.1688008E+02  0.8700067E+01  0.3092231E+02  0.0000000E+00
Ar 1265  0.1701614E+02  0.6048213E+01  0.3349503E+02  0.0000000E+00
Ar 1266  0.1962374E+02  0.8538908E+01  0.3345951E+02  0.0000000E+00
Ar 1267  0.1974743E+02  0.5784749E+01  0.3618968E+02  0.0000000E+00
Ar 1268  0.1696850E+02  0.8543621E+01  0.3613876E+02  0.0000000E+00
Ar 1269  0.1702979E+02  0.5863602E+01  0.3876376E+02  0.0000000E+00
Ar 1270  0.1979186E+02  0.8701676E+01  0.3881832E+02  0.0000000E+00
Ar 1271  0.1970565E+02  0.5725055E+01  0.4170200E+02  0.0000000E+00
Ar 1272  0.1678367E+02  0.8487745E+01  0.4162610E+02  0.0000000E+00
Ar 1273  0.1692463E+02  0.5913005E+01  0.4490741E+02  0.0000000E+00
Ar 1274  0.1977677E+02  0.8522498E+01  0.4444675E+02  0.0000000E+00
Ar 1275  0.1967843E+02  0.5907934E+01  0.4714429E+02  0.0000000E+00
Ar 1276  0.1709156E+02  0.8970421E+01  0.4719943E+02  0.0000000E+00
Ar 1277  0.1695519E+02  0.6418043E+01  0.4953562E+02  0.0000000E+00
Ar 1278  0.1970033E+02  0.8832508E+01  0.4985557E+02  0.0000000E+00
Ar 1279  0.1982353E+02  0.5519302E+01  0.5271613E+02  0.0000000E+00
Ar 1280  0.1718599E+02  0.8920026E+01  0.5318193E+02  0.0000000E+00
Ar 1281  0.1707144E+02  0.1144394E+02  0.5519221E+00  0.0000000E+00
Ar 1282  0.1978755E+02  0.1412208E+02  0.3289166E+00  0.0000000E+00
Ar 1283  0.1976364E+02  0.1103959E+02  0.3175806E+01  0.0000000E+00
Ar 1284  0.1669657E+02  0.1423364E+02  0.3282742E+01  0.0000000E+00
Ar 1285  0.1715038E+02  0.1133303E+02  0.5875354E+01  0.0000000E+00
Ar 1286  0.1971550E+02  0.1391825E+02  0.5534634E+01  0.0000000E+00
Ar 1287  0.1995178E+02  0.1161001E+02  0.8481003E+01  0.0000000E+00
Ar 1288  0.1730597E+02  0.1393691E+02  0.8655624E+01  0.0000000E+00
Ar 1289  0.1682286E+02  0.1168525E+02  0.1168529E+02  0.0000000E+00
Ar 1290  0.1975155E+02  0.1430462E+02  0.1148882E+02  0.0000000E+00
Ar 1291  0.1975153E+02  0.1148880E+02  0.1430462E+02  0.0000000E+00
Ar 1292  0.1708166E+02  0.1431003E+02  0.1431006E+02  0.0000000E+00
Ar 1293  0.1692499E+02  0.1116102E+02  0.1692512E+02  0.0000000E+00
Ar 1294  0.1977976E+02  0.1426658E+02  0.1687101E+02  0.0000000E+00
Ar 1295  0.1945610E+02  0.1135078E+02  0.1945605E+02  0.0000000E+00
Ar 1296  0.1687096E+02  0.1426658E+02  0.1977978E+02  0.0000000E+00
Ar 1297  0.1689402E+02  0.1068075E+02  0.2233858E+02  0.0000000E+00
Ar 1298  0.1938536E+02  0.1405033E+02  0.2228539E+02  0.0000000E+00
Ar 1299  0.1960687E+02  0.1135902E+02  0.2504177E+02  0.0000000E+00
Ar 1300  0.1694285E+02  0.1407110E+02  0.2509794E+02  0.0000000E+00
Ar 1301  0.1704757E+02  0.1140857E+02  0.2775791E+02  0.0000000E+00
Ar 1302  0.1960991E+02  0.1399138E+02  0.2792327E+02  0.0000000E+00
Ar 1303  0.1934571E+02  0.1145455E+02  0.3089107E+02  0.0000000E+00
Ar 1304  0.1675469E+02  0.1419767E+02  0.3087768E+02  0.0000000E+00
Ar 1305  0.1692600E+02  0.1123555E+02  0.3357045E+02  0.0000000E+00
Ar 1306  0.1944806E+02  0.1428474E+02  0.3330075E+02  0.0000000E+00
Ar 1307  0.1984647E+02  0.1153367E+02  0.3595282E+02  0.0000000E+00
Ar 1308  0.1688472E+02  0.1421190E+02  0.3612812E+02  0.0000000E+00
Ar 1309  0.1680633E+02  0.1143004E+02  0.3909566E+02  0.0000000E+00
Ar 1310  0.1956619E+02  0.1408316E+02  0.3893425E+02  0.0000000E+00
Ar 1311  0.1959128E+02  0.1145495E+02  0.4168097E+02  0.0000000E+00
Ar 1312  0.1705144E+02  0.1446388E+02  0.4169386E+02  0.0000000E+00
Ar 1313  0.1730611E+02  0.1136369E+02  0.4449218E+02  0.0000000E+00
Ar 1314  0.1960312E+02  0.1440517E+02  0.4455043E+02  0.0000000E+00
Ar 1315  0.1975041E+02  0.1155679E+02  0.4725020E+02  0.0000000E+00
Ar 1316  0.1679311E+02  0.1396447E+02  0.4733087E+02  0.0000000E+00
Ar 1317  0.1701969E+02  0.1161935E+02  0.5013834E+02  0.0000000E+00
Ar 1318  0.1950410E+02  0.1435559E+02  0.5009724E+02  0.0000000E+00
Ar 1319  0.1964953E+02  0.1171884E+02  0.5257730E+02  0.0000000E+00
Ar 1320  0.1699792E+02  0.1436509E+02  0.5297085E+02  0.0000000E+00
Ar 1321  0.1728367E+02  0.1728359E+02  0.5553483E+02  0.0000000E+00
Ar 1322  0.1985521E+02  0.1985517E+02  0.3424242E+00  0.0000000E+00
Ar 1323  0.1975539E+02  0.1678149E+02  0.3237311E+01  0.0000000E+00
Ar 1324  0.1678149E+02  0.1975537E+02  0.3237307E+01  0.0000000E+00
Ar 1325  0.1705013E+02  0.1705009E+02  0.5659332E+01  0.0000000E+00
Ar 1326  0.1963478E+02  0.1963474E+02  0.5897478E+01  0.0000000E+00
Ar 1327  0.1967963E+02  0.1654167E+02  0.8359796E+01  0.0000000E+00
Ar 1328  0.1654171E+02  0.1967959E+02  0.8359791E+01  0.0000000E+00
Ar 1329  0.1692508E+02  0.1692505E+02  0.1116106E+02  0.0000000E+00
Ar 1330  0.1945611E+02  0.1945605E+02  0.1135078E+02  0.0000000E+00
Ar 1331  0.1977977E+02  0.1687096E+02  0.1426664E+02  0.0000000E+00
Ar 1332  0.1687099E+02  0.1977976E+02  0.1426661E+02  0.0000000E+00
Ar 1333  0.1721524E+02  0.1721526E+02  0.1721531E+02  0.0000000E+00
Ar 1334  0.1982592E+02  0.1982590E+02  0.1696530E+02  0.0000000E+00
Ar 1335  0.1982592E+02  0.1696528E+02  0.1982591E+02  0.0000000E+00
Ar 1336  0.1696530E+02  0.1982588E+02  0.1982590E+02  0.0000000E+00
Ar 1337  0.1686699E+02  0.1686697E+02  0.2236755E+02  0.0000000E+00
Ar 1338  0.1946928E+02  0.1946926E+02  0.2244736E+02  0.0000000E+00
Ar 1339  0.1966393E+02  0.1685591E+02  0.2524735E+02  0.0000000E+00
Ar 1340  0.1685595E+02  0.1966388E+02  0.2524734E+02  0.0000000E+00
Ar 1341  0.1716308E+02  0.1716304E+02  0.2786424E+02  0.0000000E+00
Ar 1342  0.1965736E+02  0.1965733E+02  0.2816814E+02  0.0000000E+00
Ar 1343  0.1955757E+02  0.1710389E+02  0.3068490E+02  0.0000000E+00
Ar 1344  0.1710394E+02  0.1955752E+02  0.3068490E+02  0.0000000E+00
Ar 1345  0.1703630E+02  0.1703625E+02  0.3325822E+02  0.0000000E+00
Ar 1346  0.1950334E+02  0.1950330E+02  0.3384417E+02  0.0000000E+00
Ar 1347  0.1994492E+02  0.1692032E+02  0.3661217E+02  0.0000000E+00
Ar 1348  0.1692034E+02  0.1994487E+02  0.3661216E+02  0.0000000E+00
Ar 1349  0.1683184E+02  0.1683181E+02  0.3889986E+02  0.0000000E+00
Ar 1350  0.2027643E+02  0.2027637E+02  0.3876104E+02  0.0000000E+00
Ar 1351  0.1991565E+02  0.1711924E+02  0.4183385E+02  0.0000000E+00
Ar 1352  0.1711928E+02  0.1991563E+02  0.4183387E+02  0.0000000E+00
Ar 1353  0.1708193E+02  0.1708193E+02  0.4473214E+02  0.0000000E+00
Ar 1354  0.2002916E+02  0.2002910E+02  0.4437604E+02  0.0000000E+00
Ar 1355  0.1966399E+02  0.1685701E+02  0.4732844E+02  0.0000000E+00
Ar 1356  0.1685699E+02  0.1966396E+02  0.4732843E+02  0.0000000E+00
Ar 1357  0.1692920E+02  0.1692918E+02  0.4998288E+02  0.0000000E+00
Ar 1358  0.1976108E+02  0.1976106E+02  0.4992932E+02  0.0000000E+00
Ar 1359  0.1970282E+02  0.1706544E+02  0.5270833E+02  0.0000000E+00
Ar 1360  0.1706540E+02  0.1970283E+02  0.5270836E+02  0.0000000E+00
Ar 1361  0.1651032E+02  0.2241262E+02  0.4981701E+00  0.0000000E+00
Ar 1362  0.1991359E+02  0.2509136E+02  0.5562354E+02  0.0000000E+00
Ar 1363  0.1960239E+02  0.2268148E+02  0.3075803E+01  0.0000000E+00
Ar 1364  0.1698340E+02  0.2496005E+02  0.3262179E+01  0.0000000E+00
Ar 1365  0.1687904E+02  0.2246088E+02  0.5983913E+01  0.0000000E+00
Ar 1366  0.1971894E+02  0.2497963E+02  0.5943511E+01  0.0000000E+00
Ar 1367  0.1969885E+02  0.2216113E+02  0.8573363E+01  0.0000000E+00
Ar 1368  0.1666857E+02  0.2534734E+02  0.8575935E+01  0.0000000E+00
Ar 1369  0.1689401E+02  0.2233856E+02  0.1068075E+02  0.0000000E+00
Ar 1370  0.1960688E+02  0.2504176E+02  0.1135904E+02  0.0000000E+00
Ar 1371  0.1938539E+02  0.2228540E+02  0.1405035E+02  0.0000000E+00
Ar 1372  0.1694288E+02  0.2509791E+02  0.1407112E+02  0.0000000E+00
Ar 1373  0.1686700E+02  0.2236754E+02  0.1686699E+02  0.0000000E+00
Ar 1374  0.1966397E+02  0.2524729E+02  0.1685593E+02  0.0000000E+00
Ar 1375  0.1946927E+02  0.2244736E+02  0.1946927E+02  0.0000000E+00
Ar 1376  0.1685595E+02  0.2524729E+02  0.1966392E+02  0.0000000E+00
Ar 1377  0.1640527E+02  0.2243948E+02  0.2243949E+02  0.0000000E+00
Ar 1378  0.1948438E+02  0.2538993E+02  0.2237411E+02  0.0000000E+00
Ar 1379  0.1948438E+02  0.2237409E+02  0.2538996E+02  0.0000000E+00
Ar 1380  0.1682758E+02  0.2509711E+02  0.2509714E+02  0.0000000E+00
Ar 1381  0.1712729E+02  0.2238884E+02  0.2833411E+02  0.0000000E+00
Ar 1382  0.1966153E+02  0.2560477E+02  0.2827437E+02  0.0000000E+00
Ar 1383  0.1977350E+02  0.2245132E+02  0.3108380E+02  0.0000000E+00
Ar 1384  0.1708739E+02  0.2528503E+02  0.3083975E+02  0.0000000E+00
Ar 1385  0.1704919E+02  0.2270175E+02  0.3348676E+02  0.0000000E+00
Ar 1386  0.1988856E+02  0.2530776E+02  0.3372389E+02  0.0000000E+00
Ar 1387  0.1959119E+02  0.2249348E+02  0.3617937E+02  0.0000000E+00
Ar 1388  0.1708400E+02  0.2535519E+02  0.3649178E+02  0.0000000E+00
Ar 1389  0.1710295E+02  0.2247426E+02  0.3915321E+02  0.0000000E+00
Ar 1390  0.1968514E+02  0.2538390E+02  0.3909559E+02  0.0000000E+00
Ar 1391  0.1984350E+02  0.2273281E+02  0.4193497E+02  0.0000000E+00
Ar 1392  0.1703983E+02  0.2525262E+02  0.4161054E+02  0.0000000E+00
Ar 1393  0.1706645E+02  0.2257652E+02  0.4430854E+02  0.0000000E+00
Ar 1394  0.1983749E+02  0.2540245E+02  0.4461484E+02  0.0000000E+00
Ar 1395  0.2003782E+02  0.2266717E+02  0.4697120E+02  0.0000000E+00
Ar 1396  0.1723162E+02  0.2528773E+02  0.4717895E+02  0.0000000E+00
Ar 1397  0.1713114E+02  0.2246190E+02  0.4998037E+02  0.0000000E+00
Ar 1398  0.1976874E+02  0.2505785E+02  0.5017402E+02  0.0000000E+00
Ar 1399  0.1985393E+02  0.2246662E+02  0.5287292E+02  0.0000000E+00
Ar 1400  0.1705966E+02  0.2514807E+02  0.5290626E+02  0.0000000E+00
Ar 1401  0.1717942E+02  0.2838503E+02  0.3762680E+00  0.0000000E+00
Ar 1402  0.1990298E+02  0.3104313E+02  0.5552877E+02  0.0000000E+00
Ar 1403  0.1965418E+02  0.2815381E+02  0.3060729E+01  0.0000000E+00
Ar 1404  0.1739464E+02  0.3090670E+02  0.3333336E+01  0.0000000E+00
Ar 1405  0.1674590E+02  0.2782933E+02  0.5697138E+01  0.0000000E+00
Ar 1406  0.1984452E+02  0.3046868E+02  0.6131578E+01  0.0000000E+00
Ar 1407  0.1934549E+02  0.2784465E+02  0.8684767E+01  0.0000000E+00
Ar 1408  0.1688004E+02  0.3092229E+02  0.8700043E+01  0.0000000E+00
Ar 1409  0.1704757E+02  0.2775789E+02  0.1140857E+02  0.0000000E+00
Ar 1410  0.1934572E+02  0.3089105E+02  0.1145456E+02  0.0000000E+00
Ar 1411  0.1960994E+02  0.2792324E+02  0.1399141E+02  0.0000000E+00
Ar 1412  0.1675471E+02  0.3087765E+02  0.1419770E+02  0.0000000E+00
Ar 1413  0.1716310E+02  0.2786422E+02  0.1716308E+02  0.0000000E+00
Ar 1414  0.1955758E+02  0.3068488E+02  0.1710391E+02  0.0000000E+00
Ar 1415  0.1965737E+02  0.2816812E+02  0.1965736E+02  0.0000000E+00
Ar 1416  0.1710395E+02  0.3068487E+02  0.1955754E+02  0.0000000E+00
Ar 1417  0.1712731E+02  0.2833408E+02  0.2238886E+02  0.0000000E+00
Ar 1418  0.1977351E+02  0.3108377E+02  0.2245135E+02  0.0000000E+00
Ar 1419  0.1966154E+02  0.2827435E+02  0.2560479E+02  0.0000000E+00
Ar 1420  0.1708739E+02  0.3083973E+02  0.2528506E+02  0.0000000E+00
Ar 1421  0.1684932E+02  0.2785968E+02  0.2785970E+02  0.0000000E+00
Ar 1422  0.1955765E+02  0.3112164E+02  0.2799622E+02  0.0000000E+00
Ar 1423  0.1955766E+02  0.2799621E+02  0.3112167E+02  0.0000000E+00
Ar 1424  0.1677939E+02  0.3072381E+02  0.3072384E+02  0.0000000E+00
Ar 1425  0.1685089E+02  0.2765382E+02  0.3387456E+02  0.0000000E+00
Ar 1426  0.2005704E+02  0.3076336E+02  0.3359991E+02  0.0000000E+00
Ar 1427  0.1958777E+02  0.2812150E+02  0.3626510E+02  0.0000000E+00
Ar 1428  0.1672967E+02  0.3072359E+02  0.3620017E+02  0.0000000E+00
Ar 1429  0.1704926E+02  0.2793863E+02  0.3912290E+02  0.0000000E+00
Ar 1430  0.1983308E+02  0.3100235E+02  0.3899188E+02  0.0000000E+00
Ar 1431  0.1999409E+02  0.2803257E+02  0.4185999E+02  0.0000000E+00
Ar 1432  0.1698835E+02  0.3051038E+02  0.4171238E+02  0.0000000E+00
Ar 1433  0.1692400E+02  0.2785658E+02  0.4440538E+02  0.0000000E+00
Ar 1434  0.1962677E+02  0.3062897E+02  0.4462085E+02  0.0000000E+00
Ar 1435  0.1978260E+02  0.2798004E+02  0.4756389E+02  0.0000000E+00
Ar 1436  0.1708181E+02  0.3055846E+02  0.4721362E+02  0.0000000E+00
Ar 1437  0.1701046E+02  0.2796647E+02  0.4998137E+02  0.0000000E+00
Ar 1438  0.1975178E+02  0.3045060E+02  0.5011925E+02  0.0000000E+00
Ar 1439  0.1963882E+02  0.2787208E+02  0.5284292E+02  0.0000000E+00
Ar 1440  0.1719006E+02  0.3071879E+02  0.5264324E+02  0.0000000E+00
Ar 1441  0.1627949E+02  0.3337350E+02  0.5553020E+02  0.0000000E+00
Ar 1442  0.1994678E+02  0.3608424E+02  0.5164187E+00  0.0000000E+00
Ar 1443  0.1969560E+02  0.3365562E+02  0.2972747E+01  0.0000000E+00
Ar 1444  0.1722850E+02  0.3601225E+02  0.3213069E+01  0.0000000E+00
Ar 1445  0.1701611E+02  0.3349505E+02  0.6048232E+01  0.0000000E+00
Ar 1446  0.1974742E+02  0.3618970E+02  0.5784733E+01  0.0000000E+00
Ar 1447  0.1962374E+02  0.3345949E+02  0.8538926E+01  0.0000000E+00
Ar 1448  0.1696834E+02  0.3613871E+02  0.8543509E+01  0.0000000E+00
Ar 1449  0.1692599E+02  0.3357041E+02  0.1123556E+02  0.0000000E+00
Ar 1450  0.1984645E+02  0.3595280E+02  0.1153369E+02  0.0000000E+00
Ar 1451  0.1944807E+02  0.3330074E+02  0.1428476E+02  0.0000000E+00
Ar 1452  0.1688471E+02  0.3612808E+02  0.1421194E+02  0.0000000E+00
Ar 1453  0.1703630E+02  0.3325819E+02  0.1703628E+02  0.0000000E+00
Ar 1454  0.1994491E+02  0.3661215E+02  0.1692034E+02  0.0000000E+00
Ar 1455  0.1950334E+02  0.3384416E+02  0.1950332E+02  0.0000000E+00
Ar 1456  0.1692035E+02  0.3661213E+02  0.1994487E+02  0.0000000E+00
Ar 1457  0.1704921E+02  0.3348672E+02  0.2270177E+02  0.0000000E+00
Ar 1458  0.1959120E+02  0.3617935E+02  0.2249349E+02  0.0000000E+00
Ar 1459  0.1988856E+02  0.3372387E+02  0.2530778E+02  0.0000000E+00
Ar 1460  0.1708408E+02  0.3649167E+02  0.2535522E+02  0.0000000E+00
Ar 1461  0.1685089E+02  0.3387452E+02  0.2765385E+02  0.0000000E+00
Ar 1462  0.1958780E+02  0.3626506E+02  0.2812153E+02  0.0000000E+00
Ar 1463  0.2005703E+02  0.3359987E+02  0.3076339E+02  0.0000000E+00
Ar 1464  0.1672970E+02  0.3620014E+02  0.3072364E+02  0.0000000E+00
Ar 1465  0.1744024E+02  0.3369847E+02  0.3369850E+02  0.0000000E+00
Ar 1466  0.1992277E+02  0.3642773E+02  0.3361780E+02  0.0000000E+00
Ar 1467  0.1992278E+02  0.3361778E+02  0.3642775E+02  0.0000000E+00
Ar 1468  0.1662379E+02  0.3620097E+02  0.3620098E+02  0.0000000E+00
Ar 1469  0.1695674E+02  0.3362653E+02  0.3900398E+02  0.0000000E+00
Ar 1470  0.1992381E+02  0.3620221E+02  0.3907230E+02  0.0000000E+00
Ar 1471  0.1974886E+02  0.3341714E+02  0.4203461E+02  0.0000000E+00
Ar 1472  0.1735212E+02  0.3631647E+02  0.4173518E+02  0.0000000E+00
Ar 1473  0.1689827E+02  0.3322186E+02  0.4467845E+02  0.0000000E+00
Ar 1474  0.1993511E+02  0.3634974E+02  0.4477605E+02  0.0000000E+00
Ar 1475  0.1958580E+02  0.3337105E+02  0.4722218E+02  0.0000000E+00
Ar 1476  0.1677270E+02  0.3648165E+02  0.4734083E+02  0.0000000E+00
Ar 1477  0.1679297E+02  0.3370296E+02  0.4996066E+02  0.0000000E+00
Ar 1478  0.1952725E+02  0.3616721E+02  0.4968080E+02  0.0000000E+00
Ar 1479  0.1953708E+02  0.3352116E+02  0.5247960E+02  0.0000000E+00
Ar 1480  0.1680300E+02  0.3611281E+02  0.5293815E+02  0.0000000E+00
Ar 1481  0.1787901E+02  0.3919477E+02  0.6857717E+00  0.0000000E+00
Ar 1482  0.1997727E+02  0.4198731E+02  0.5567059E+02  0.0000000E+00
Ar 1483  0.2005320E+02  0.3875097E+02  0.3119000E+01  0.0000000E+00
Ar 1484  0.1647214E+02  0.4165311E+02  0.3126910E+01  0.0000000E+00
Ar 1485  0.1702970E+02  0.3876353E+02  0.5863712E+01  0.0000000E+00
Ar 1486  0.1970595E+02  0.4170257E+02  0.5724843E+01  0.0000000E+00
Ar 1487  0.1979190E+02  0.3881836E+02  0.8701700E+01  0.0000000E+00
Ar 1488  0.1678365E+02  0.4162608E+02  0.8487808E+01  0.0000000E+00
Ar 1489  0.1680637E+02  0.3909564E+02  0.1143004E+02  0.0000000E+00
Ar 1490  0.1959132E+02  0.4168097E+02  0.1145493E+02  0.0000000E+00
Ar 1491  0.1956621E+02  0.3893423E+02  0.1408315E+02  0.0000000E+00
Ar 1492  0.1705147E+02  0.4169382E+02  0.1446389E+02  0.0000000E+00
Ar 1493  0.1683183E+02  0.3889980E+02  0.1683182E+02  0.0000000E+00
Ar 1494  0.1991565E+02  0.4183384E+02  0.1711926E+02  0.0000000E+00
Ar 1495  0.2027642E+02  0.3876102E+02  0.2027637E+02  0.0000000E+00
Ar 1496  0.1711927E+02  0.4183385E+02  0.1991562E+02  0.0000000E+00
Ar 1497  0.1710295E+02  0.3915318E+02  0.2247427E+02  0.0000000E+00
Ar 1498  0.1984351E+02  0.4193493E+02  0.2273283E+02  0.0000000E+00
Ar 1499  0.1968513E+02  0.3909558E+02  0.2538391E+02  0.0000000E+00
Ar 1500  0.1703989E+02  0.4161055E+02  0.2525263E+02  0.0000000E+00
Ar 1501  0.1704931E+02  0.3912281E+02  0.2793866E+02  0.0000000E+00
Ar 1502  0.1999409E+02  0.4185997E+02  0.2803259E+02  0.0000000E+00
Ar 1503  0.1983305E+02  0.3899186E+02  0.3100238E+02  0.0000000E+00
Ar 1504  0.1698835E+02  0.4171236E+02  0.3051039E+02  0.0000000E+00
Ar 1505  0.1695673E+02  0.3900396E+02  0.3362653E+02  0.0000000E+00
Ar 1506  0.1974883E+02  0.4203462E+02  0.3341716E+02  0.0000000E+00
Ar 1507  0.1992380E+02  0.3907229E+02  0.3620223E+02  0.0000000E+00
Ar 1508  0.1735212E+02  0.4173515E+02  0.3631646E+02  0.0000000E+00
Ar 1509  0.1757936E+02  0.3922419E+02  0.3922422E+02  0.0000000E+00
Ar 1510  0.2004550E+02  0.4208441E+02  0.3908945E+02  0.0000000E+00
Ar 1511  0.2004565E+02  0.3908946E+02  0.4208458E+02  0.0000000E+00
Ar 1512  0.1744418E+02  0.4188457E+02  0.4188468E+02  0.0000000E+00
Ar 1513  0.1742155E+02  0.3922026E+02  0.4479753E+02  0.0000000E+00
Ar 1514  0.1993475E+02  0.4193177E+02  0.4472862E+02  0.0000000E+00
Ar 1515  0.1982539E+02  0.3925603E+02  0.4763508E+02  0.0000000E+00
Ar 1516  0.1699503E+02  0.4198398E+02  0.4753000E+02  0.0000000E+00
Ar 1517  0.1697078E+02  0.3910387E+02  0.4995891E+02  0.0000000E+00
Ar 1518  0.1984071E+02  0.4183609E+02  0.5012218E+02  0.0000000E+00
Ar 1519  0.1938651E+02  0.3907553E+02  0.5280798E+02  0.0000000E+00
Ar 1520  0.1701854E+02  0.4186447E+02  0.5269031E+02  0.0000000E+00
Ar 1521  0.1697081E+02  0.4457359E+02  0.5214166E+00  0.0000000E+00
Ar 1522  0.1978402E+02  0.4717157E+02  0.5225798E+00  0.0000000E+00
Ar 1523  0.1990922E+02  0.4431861E+02  0.3042183E+01  0.0000000E+00
Ar 1524  0.1687195E+02  0.4740066E+02  0.3327326E+01  0.0000000E+00
Ar 1525  0.1692465E+02  0.4490779E+02  0.5912864E+01  0.0000000E+00
Ar 1526  0.1968097E+02  0.4714128E+02  0.5906350E+01  0.0000000E+00
Ar 1527  0.1977741E+02  0.4444789E+02  0.8521204E+01  0.0000000E+00
Ar 1528  0.1709149E+02  0.4719941E+02  0.8970665E+01  0.0000000E+00
Ar 1529  0.1730618E+02  0.4449215E+02  0.1136370E+02  0.0000000E+00
Ar 1530  0.1975040E+02  0.4725024E+02  0.1155683E+02  0.0000000E+00
Ar 1531  0.1960322E+02  0.4455036E+02  0.1440512E+02  0.0000000E+00
Ar 1532  0.1679310E+02  0.4733086E+02  0.1396444E+02  0.0000000E+00
Ar 1533  0.1708198E+02  0.4473206E+02  0.1708192E+02  0.0000000E+00
Ar 1534  0.1966399E+02  0.4732840E+02  0.1685696E+02  0.0000000E+00
Ar 1535  0.2002914E+02  0.4437603E+02  0.2002912E+02  0.0000000E+00
Ar 1536  0.1685709E+02  0.4732837E+02  0.1966396E+02  0.0000000E+00
Ar 1537  0.1706651E+02  0.4430850E+02  0.2257649E+02  0.0000000E+00
Ar 1538  0.2003783E+02  0.4697117E+02  0.2266720E+02  0.0000000E+00
Ar 1539  0.1983747E+02  0.4461480E+02  0.2540249E+02  0.0000000E+00
Ar 1540  0.1723169E+02  0.4717891E+02  0.2528781E+02  0.0000000E+00
Ar 1541  0.1692403E+02  0.4440533E+02  0.2785666E+02  0.0000000E+00
Ar 1542  0.1978262E+02  0.4756385E+02  0.2798009E+02  0.0000000E+00
Ar 1543  0.1962677E+02  0.4462082E+02  0.3062900E+02  0.0000000E+00
Ar 1544  0.1708187E+02  0.4721357E+02  0.3055856E+02  0.0000000E+00
Ar 1545  0.1689825E+02  0.4467843E+02  0.3322186E+02  0.0000000E+00
Ar 1546  0.1958578E+02  0.4722218E+02  0.3337110E+02  0.0000000E+00
Ar 1547  0.1993508E+02  0.4477602E+02  0.3634973E+02  0.0000000E+00
Ar 1548  0.1677272E+02  0.4734077E+02  0.3648163E+02  0.0000000E+00
Ar 1549  0.1742142E+02  0.4479749E+02  0.3922019E+02  0.0000000E+00
Ar 1550  0.1982505E+02  0.4763453E+02  0.3925529E+02  0.0000000E+00
Ar 1551  0.1993465E+02  0.4472762E+02  0.4193108E+02  0.0000000E+00
Ar 1552  0.1699447E+02  0.4752994E+02  0.4198363E+02  0.0000000E+00
Ar 1553  0.1696402E+02  0.4446135E+02  0.4446158E+02  0.0000000E+00
Ar 1554  0.1978283E+02  0.4718009E+02  0.4451728E+02  0.0000000E+00
Ar 1555  0.1978507E+02  0.4451754E+02  0.4718126E+02  0.0000000E+00
Ar 1556  0.1730487E+02  0.4744363E+02  0.4744421E+02  0.0000000E+00
Ar 1557  0.1695728E+02  0.4481023E+02  0.5005879E+02  0.0000000E+00
Ar 1558  0.1982177E+02  0.4725985E+02  0.5011897E+02  0.0000000E+00
Ar 1559  0.1958319E+02  0.4456389E+02  0.5307914E+02  0.0000000E+00
Ar 1560  0.1689515E+02  0.4715589E+02  0.5330031E+02  0.0000000E+00
Ar 1561  0.1728488E+02  0.5040634E+02  0.5566226E+02  0.0000000E+00
Ar 1562  0.2008560E+02  0.5305183E+02  0.5579633E+02  0.0000000E+00
Ar 1563  0.1955346E+02  0.4967643E+02  0.3368034E+01  0.0000000E+00
Ar 1564  0.1720502E+02  0.5307841E+02  0.3075513E+01  0.0000000E+00
Ar 1565  0.1695446E+02  0.4953547E+02  0.6418909E+01  0.0000000E+00
Ar 1566  0.1982326E+02  0.5271576E+02  0.5519886E+01  0.0000000E+00
Ar 1567  0.1970035E+02  0.4985534E+02  0.8832128E+01  0.0000000E+00
Ar 1568  0.1718593E+02  0.5318187E+02  0.8920000E+01  0.0000000E+00
Ar 1569  0.1701970E+02  0.5013834E+02  0.1161936E+02  0.0000000E+00
Ar 1570  0.1964952E+02  0.5257729E+02  0.1171879E+02  0.0000000E+00
Ar 1571  0.1950413E+02  0.5009723E+02  0.1435556E+02  0.0000000E+00
Ar 1572  0.1699782E+02  0.5297080E+02  0.1436514E+02  0.0000000E+00
Ar 1573  0.1692920E+02  0.4998284E+02  0.1692917E+02  0.0000000E+00
Ar 1574  0.1970287E+02  0.5270820E+02  0.1706543E+02  0.0000000E+00
Ar 1575  0.1976109E+02  0.4992929E+02  0.1976105E+02  0.0000000E+00
Ar 1576  0.1706559E+02  0.5270824E+02  0.1970273E+02  0.0000000E+00
Ar 1577  0.1713122E+02  0.4998031E+02  0.2246192E+02  0.0000000E+00
Ar 1578  0.1985392E+02  0.5287292E+02  0.2246665E+02  0.0000000E+00
Ar 1579  0.1976885E+02  0.5017395E+02  0.2505790E+02  0.0000000E+00
Ar 1580  0.1705981E+02  0.5290596E+02  0.2514843E+02  0.0000000E+00
Ar 1581  0.1701044E+02  0.4998132E+02  0.2796650E+02  0.0000000E+00
Ar 1582  0.1963884E+02  0.5284278E+02  0.2787199E+02  0.0000000E+00
Ar 1583  0.1975174E+02  0.5011923E+02  0.3045065E+02  0.0000000E+00
Ar 1584  0.1718992E+02  0.5264281E+02  0.3071887E+02  0.0000000E+00
Ar 1585  0.1679299E+02  0.4996064E+02  0.3370292E+02  0.0000000E+00
Ar 1586  0.1953706E+02  0.5247958E+02  0.3352115E+02  0.0000000E+00
Ar 1587  0.1952727E+02  0.4968081E+02  0.3616729E+02  0.0000000E+00
Ar 1588  0.1680322E+02  0.5293810E+02  0.3611267E+02  0.0000000E+00
Ar 1589  0.1697100E+02  0.4995878E+02  0.3910392E+02  0.0000000E+00
Ar 1590  0.1938658E+02  0.5280792E+02  0.3907567E+02  0.0000000E+00
Ar 1591  0.1983879E+02  0.5012087E+02  0.4183540E+02  0.0000000E+00
Ar 1592  0.1701855E+02  0.5269069E+02  0.4186465E+02  0.0000000E+00
Ar 1593  0.1695699E+02  0.5005844E+02  0.4480995E+02  0.0000000E+00
Ar 1594  0.1958200E+02  0.5307813E+02  0.4456308E+02  0.0000000E+00
Ar 1595  0.1982191E+02  0.5011891E+02  0.4725990E+02  0.0000000E+00
Ar 1596  0.1689399E+02  0.5330032E+02  0.4715450E+02  0.0000000E+00
Ar 1597  0.1690455E+02  0.4985014E+02  0.4985101E+02  0.0000000E+00
Ar 1598  0.1980723E+02  0.5295587E+02  0.4995641E+02  0.0000000E+00
Ar 1599  0.1980830E+02  0.4995703E+02  0.5295526E+02  0.0000000E+00
Ar 1600  0.1702524E+02  0.5302173E+02  0.5302272E+02  0.0000000E+00
Ar 1601  0.2294483E+02  0.5471726E+02  0.5472350E+02  0.0000000E+00
Ar 1602  0.2570498E+02  0.3351857E+01  0.5548929E+02  0.0000000E+00
Ar 1603  0.2566628E+02  0.5548011E+02  0.3333259E+01  0.0000000E+00
Ar 1604  0.2265504E+02  0.2949471E+01  0.2946440E+01  0.0000000E+00
Ar 1605  0.2270629E+02  0.3182495E+00  0.6027513E+01  0.0000000E+00
Ar 1606  0.2557964E+02  0.3190759E+01  0.5608707E+01  0.0000000E+00
Ar 1607  0.2539000E+02  0.5530431E+02  0.8738256E+01  0.0000000E+00
Ar 1608  0.2250857E+02  0.3101464E+01  0.8397543E+01  0.0000000E+00
Ar 1609  0.2225829E+02  0.2426749E+00  0.1128159E+02  0.0000000E+00
Ar 1610  0.2516206E+02  0.2643828E+01  0.1131739E+02  0.0000000E+00
Ar 1611  0.2515832E+02  0.5517540E+02  0.1410641E+02  0.0000000E+00
Ar 1612  0.2260672E+02  0.3022078E+01  0.1392749E+02  0.0000000E+00
Ar 1613  0.2241252E+02  0.4981267E+00  0.1651042E+02  0.0000000E+00
Ar 1614  0.2496006E+02  0.3262113E+01  0.1698344E+02  0.0000000E+00
Ar 1615  0.2509143E+02  0.5562350E+02  0.1991355E+02  0.0000000E+00
Ar 1616  0.2268153E+02  0.3075777E+01  0.1960240E+02  0.0000000E+00
Ar 1617  0.2242820E+02  0.5549394E+02  0.2242818E+02  0.0000000E+00
Ar 1618  0.2544003E+02  0.3022257E+01  0.2248696E+02  0.0000000E+00
Ar 1619  0.2508939E+02  0.5545210E+02  0.2508937E+02  0.0000000E+00
Ar 1620  0.2248695E+02  0.3022230E+01  0.2544000E+02  0.0000000E+00
Ar 1621  0.2269471E+02  0.5557514E+02  0.2799048E+02  0.0000000E+00
Ar 1622  0.2533249E+02  0.2935120E+01  0.2807825E+02  0.0000000E+00
Ar 1623  0.2550808E+02  0.5550191E+02  0.3009088E+02  0.0000000E+00
Ar 1624  0.2256758E+02  0.3164115E+01  0.3023494E+02  0.0000000E+00
Ar 1625  0.2271552E+02  0.5559777E+02  0.3361916E+02  0.0000000E+00
Ar 1626  0.2482957E+02  0.3393085E+01  0.3347311E+02  0.0000000E+00
Ar 1627  0.2497912E+02  0.5563879E+02  0.3613491E+02  0.0000000E+00
Ar 1628  0.2269689E+02  0.3439801E+01  0.3638697E+02  0.0000000E+00
Ar 1629  0.2255016E+02  0.5084705E+00  0.3881835E+02  0.0000000E+00
Ar 1630  0.2511433E+02  0.3251770E+01  0.3905295E+02  0.0000000E+00
Ar 1631  0.2553816E+02  0.5577902E+02  0.4210429E+02  0.0000000E+00
Ar 1632  0.2243638E+02  0.3168738E+01  0.4174066E+02  0.0000000E+00
Ar 1633  0.2265353E+02  0.5546772E+02  0.4500676E+02  0.0000000E+00
Ar 1634  0.2509561E+02  0.3051422E+01  0.4449514E+02  0.0000000E+00
Ar 1635  0.2565326E+02  0.6553452E+00  0.4741085E+02  0.0000000E+00
Ar 1636  0.2256058E+02  0.3279011E+01  0.4707570E+02  0.0000000E+00
Ar 1637  0.2270296E+02  0.5558992E+02  0.4961307E+02  0.0000000E+00
Ar 1638  0.2531410E+02  0.3006975E+01  0.5000064E+02  0.0000000E+00
Ar 1639  0.2573532E+02  0.5537228E+02  0.5211751E+02  0.0000000E+00
Ar 1640  0.2269253E+02  0.3314957E+01  0.5280392E+02  0.0000000E+00
Ar 1641  0.2271112E+02  0.6026069E+01  0.3196707E+00  0.0000000E+00
Ar 1642  0.2539013E+02  0.8738012E+01  0.5530386E+02  0.0000000E+00
Ar 1643  0.2558051E+02  0.5606677E+01  0.3188404E+01  0.0000000E+00
Ar 1644  0.2251130E+02  0.8395949E+01  0.3101748E+01  0.0000000E+00
Ar 1645  0.2300849E+02  0.5700896E+01  0.5702214E+01  0.0000000E+00
Ar 1646  0.2528115E+02  0.8849701E+01  0.5783447E+01  0.0000000E+00
Ar 1647  0.2527930E+02  0.5782663E+01  0.8851282E+01  0.0000000E+00
Ar 1648  0.2279135E+02  0.8458974E+01  0.8458972E+01  0.0000000E+00
Ar 1649  0.2261820E+02  0.5468856E+01  0.1162653E+02  0.0000000E+00
Ar 1650  0.2556124E+02  0.8640326E+01  0.1123054E+02  0.0000000E+00
Ar 1651  0.2540844E+02  0.5798244E+01  0.1422192E+02  0.0000000E+00
Ar 1652  0.2284192E+02  0.8504053E+01  0.1395653E+02  0.0000000E+00
Ar 1653  0.2246093E+02  0.5983899E+01  0.1687901E+02  0.0000000E+00
Ar 1654  0.2534744E+02  0.8575938E+01  0.1666856E+02  0.0000000E+00
Ar 1655  0.2497967E+02  0.5943518E+01  0.1971891E+02  0.0000000E+00
Ar 1656  0.2216117E+02  0.8573355E+01  0.1969881E+02  0.0000000E+00
Ar 1657  0.2256821E+02  0.5618840E+01  0.2256821E+02  0.0000000E+00
Ar 1658  0.2505771E+02  0.8869446E+01  0.2205532E+02  0.0000000E+00
Ar 1659  0.2533786E+02  0.5717894E+01  0.2533784E+02  0.0000000E+00
Ar 1660  0.2205534E+02  0.8869440E+01  0.2505768E+02  0.0000000E+00
Ar 1661  0.2221427E+02  0.6048209E+01  0.2759014E+02  0.0000000E+00
Ar 1662  0.2490771E+02  0.8690196E+01  0.2800840E+02  0.0000000E+00
Ar 1663  0.2514729E+02  0.6077838E+01  0.3088210E+02  0.0000000E+00
Ar 1664  0.2233841E+02  0.8501322E+01  0.3060127E+02  0.0000000E+00
Ar 1665  0.2226998E+02  0.5767499E+01  0.3326531E+02  0.0000000E+00
Ar 1666  0.2504225E+02  0.8818497E+01  0.3336875E+02  0.0000000E+00
Ar 1667  0.2498556E+02  0.6240820E+01  0.3578313E+02  0.0000000E+00
Ar 1668  0.2234588E+02  0.8626225E+01  0.3620517E+02  0.0000000E+00
Ar 1669  0.2258371E+02  0.5975425E+01  0.3891691E+02  0.0000000E+00
Ar 1670  0.2497981E+02  0.8749547E+01  0.3922148E+02  0.0000000E+00
Ar 1671  0.2523752E+02  0.5769088E+01  0.4172287E+02  0.0000000E+00
Ar 1672  0.2222144E+02  0.8550698E+01  0.4187623E+02  0.0000000E+00
Ar 1673  0.2236906E+02  0.5786901E+01  0.4431561E+02  0.0000000E+00
Ar 1674  0.2511481E+02  0.8767428E+01  0.4444879E+02  0.0000000E+00
Ar 1675  0.2542113E+02  0.5867718E+01  0.4744449E+02  0.0000000E+00
Ar 1676  0.2234852E+02  0.8403125E+01  0.4734578E+02  0.0000000E+00
Ar 1677  0.2277388E+02  0.5902991E+01  0.5000499E+02  0.0000000E+00
Ar 1678  0.2525300E+02  0.8538721E+01  0.4998312E+02  0.0000000E+00
Ar 1679  0.2547621E+02  0.6046256E+01  0.5285143E+02  0.0000000E+00
Ar 1680  0.2215285E+02  0.8683236E+01  0.5282443E+02  0.0000000E+00
Ar 1681  0.2225818E+02  0.1128155E+02  0.2425614E+00  0.0000000E+00
Ar 1682  0.2515802E+02  0.1410675E+02  0.5517526E+02  0.0000000E+00
Ar 1683  0.2516088E+02  0.1131815E+02  0.2643785E+01  0.0000000E+00
Ar 1684  0.2260665E+02  0.1392755E+02  0.3022097E+01  0.0000000E+00
Ar 1685  0.2261820E+02  0.1162618E+02  0.5468722E+01  0.0000000E+00
Ar 1686  0.2540800E+02  0.1422236E+02  0.5798333E+01  0.0000000E+00
Ar 1687  0.2556141E+02  0.1123043E+02  0.8640520E+01  0.0000000E+00
Ar 1688  0.2284185E+02  0.1395652E+02  0.8504081E+01  0.0000000E+00
Ar 1689  0.2235584E+02  0.1129104E+02  0.1129107E+02  0.0000000E+00
Ar 1690  0.2522082E+02  0.1392845E+02  0.1127617E+02  0.0000000E+00
Ar 1691  0.2522083E+02  0.1127605E+02  0.1392838E+02  0.0000000E+00
Ar 1692  0.2289696E+02  0.1400172E+02  0.1400176E+02  0.0000000E+00
Ar 1693  0.2233862E+02  0.1068074E+02  0.1689400E+02  0.0000000E+00
Ar 1694  0.2509797E+02  0.1407112E+02  0.1694286E+02  0.0000000E+00
Ar 1695  0.2504181E+02  0.1135902E+02  0.1960686E+02  0.0000000E+00
Ar 1696  0.2228542E+02  0.1405033E+02  0.1938536E+02  0.0000000E+00
Ar 1697  0.2222735E+02  0.1132468E+02  0.2222731E+02  0.0000000E+00
Ar 1698  0.2578902E+02  0.1421075E+02  0.2256575E+02  0.0000000E+00
Ar 1699  0.2497529E+02  0.1164679E+02  0.2497527E+02  0.0000000E+00
Ar 1700  0.2256576E+02  0.1421073E+02  0.2578900E+02  0.0000000E+00
Ar 1701  0.2211490E+02  0.1138355E+02  0.2805624E+02  0.0000000E+00
Ar 1702  0.2544879E+02  0.1425783E+02  0.2804999E+02  0.0000000E+00
Ar 1703  0.2476524E+02  0.1139246E+02  0.3060305E+02  0.0000000E+00
Ar 1704  0.2217912E+02  0.1436560E+02  0.3071464E+02  0.0000000E+00
Ar 1705  0.2224344E+02  0.1151755E+02  0.3334138E+02  0.0000000E+00
Ar 1706  0.2517269E+02  0.1392328E+02  0.3361757E+02  0.0000000E+00
Ar 1707  0.2498280E+02  0.1134837E+02  0.3633413E+02  0.0000000E+00
Ar 1708  0.2262182E+02  0.1420353E+02  0.3608572E+02  0.0000000E+00
Ar 1709  0.2257847E+02  0.1146736E+02  0.3927184E+02  0.0000000E+00
Ar 1710  0.2515678E+02  0.1423822E+02  0.3880027E+02  0.0000000E+00
Ar 1711  0.2517465E+02  0.1168195E+02  0.4179539E+02  0.0000000E+00
Ar 1712  0.2262127E+02  0.1423762E+02  0.4176975E+02  0.0000000E+00
Ar 1713  0.2233500E+02  0.1138230E+02  0.4447632E+02  0.0000000E+00
Ar 1714  0.2505552E+02  0.1453733E+02  0.4481316E+02  0.0000000E+00
Ar 1715  0.2502499E+02  0.1152064E+02  0.4711222E+02  0.0000000E+00
Ar 1716  0.2228898E+02  0.1406759E+02  0.4758479E+02  0.0000000E+00
Ar 1717  0.2234130E+02  0.1137449E+02  0.5010254E+02  0.0000000E+00
Ar 1718  0.2506071E+02  0.1450614E+02  0.4994613E+02  0.0000000E+00
Ar 1719  0.2494676E+02  0.1174084E+02  0.5262690E+02  0.0000000E+00
Ar 1720  0.2212222E+02  0.1453122E+02  0.5263169E+02  0.0000000E+00
Ar 1721  0.2241241E+02  0.1651049E+02  0.4981363E+00  0.0000000E+00
Ar 1722  0.2509143E+02  0.1991353E+02  0.5562353E+02  0.0000000E+00
Ar 1723  0.2496003E+02  0.1698345E+02  0.3262085E+01  0.0000000E+00
Ar 1724  0.2268153E+02  0.1960237E+02  0.3075784E+01  0.0000000E+00
Ar 1725  0.2246089E+02  0.1687901E+02  0.5983907E+01  0.0000000E+00
Ar 1726  0.2497966E+02  0.1971889E+02  0.5943519E+01  0.0000000E+00
Ar 1727  0.2534736E+02  0.1666864E+02  0.8575994E+01  0.0000000E+00
Ar 1728  0.2216118E+02  0.1969880E+02  0.8573370E+01  0.0000000E+00
Ar 1729  0.2233861E+02  0.1689400E+02  0.1068078E+02  0.0000000E+00
Ar 1730  0.2504180E+02  0.1960687E+02  0.1135904E+02  0.0000000E+00
Ar 1731  0.2509795E+02  0.1694285E+02  0.1407116E+02  0.0000000E+00
Ar 1732  0.2228543E+02  0.1938534E+02  0.1405036E+02  0.0000000E+00
Ar 1733  0.2236754E+02  0.1686698E+02  0.1686700E+02  0.0000000E+00
Ar 1734  0.2524730E+02  0.1966396E+02  0.1685595E+02  0.0000000E+00
Ar 1735  0.2524730E+02  0.1685592E+02  0.1966396E+02  0.0000000E+00
Ar 1736  0.2244742E+02  0.1946925E+02  0.1946927E+02  0.0000000E+00
Ar 1737  0.2243954E+02  0.1640523E+02  0.2243951E+02  0.0000000E+00
Ar 1738  0.2538998E+02  0.1948435E+02  0.2237412E+02  0.0000000E+00
Ar 1739  0.2509716E+02  0.1682755E+02  0.2509716E+02  0.0000000E+00
Ar 1740  0.2237412E+02  0.1948433E+02  0.2538995E+02  0.0000000E+00
Ar 1741  0.2238888E+02  0.1712725E+02  0.2833411E+02  0.0000000E+00
Ar 1742  0.2560481E+02  0.1966149E+02  0.2827438E+02  0.0000000E+00
Ar 1743  0.2528508E+02  0.1708734E+02  0.3083975E+02  0.0000000E+00
Ar 1744  0.2245137E+02  0.1977345E+02  0.3108380E+02  0.0000000E+00
Ar 1745  0.2270180E+02  0.1704914E+02  0.3348675E+02  0.0000000E+00
Ar 1746  0.2530780E+02  0.1988851E+02  0.3372390E+02  0.0000000E+00
Ar 1747  0.2535526E+02  0.1708392E+02  0.3649180E+02  0.0000000E+00
Ar 1748  0.2249354E+02  0.1959112E+02  0.3617937E+02  0.0000000E+00
Ar 1749  0.2247433E+02  0.1710287E+02  0.3915324E+02  0.0000000E+00
Ar 1750  0.2538398E+02  0.1968505E+02  0.3909564E+02  0.0000000E+00
Ar 1751  0.2525273E+02  0.1703976E+02  0.4161062E+02  0.0000000E+00
Ar 1752  0.2273289E+02  0.1984342E+02  0.4193497E+02  0.0000000E+00
Ar 1753  0.2257657E+02  0.1706642E+02  0.4430851E+02  0.0000000E+00
Ar 1754  0.2540253E+02  0.1983744E+02  0.4461484E+02  0.0000000E+00
Ar 1755  0.2528773E+02  0.1723164E+02  0.4717889E+02  0.0000000E+00
Ar 1756  0.2266722E+02  0.2003779E+02  0.4697117E+02  0.0000000E+00
Ar 1757  0.2246186E+02  0.1713124E+02  0.4998032E+02  0.0000000E+00
Ar 1758  0.2505793E+02  0.1976871E+02  0.5017400E+02  0.0000000E+00
Ar 1759  0.2514810E+02  0.1705977E+02  0.5290624E+02  0.0000000E+00
Ar 1760  0.2246667E+02  0.1985390E+02  0.5287290E+02  0.0000000E+00
Ar 1761  0.2242820E+02  0.2242815E+02  0.5549396E+02  0.0000000E+00
Ar 1762  0.2508937E+02  0.2508932E+02  0.5545215E+02  0.0000000E+00
Ar 1763  0.2544003E+02  0.2248693E+02  0.3022266E+01  0.0000000E+00
Ar 1764  0.2248698E+02  0.2543998E+02  0.3022252E+01  0.0000000E+00
Ar 1765  0.2256823E+02  0.2256818E+02  0.5618851E+01  0.0000000E+00
Ar 1766  0.2533785E+02  0.2533781E+02  0.5717909E+01  0.0000000E+00
Ar 1767  0.2505771E+02  0.2205530E+02  0.8869448E+01  0.0000000E+00
Ar 1768  0.2205533E+02  0.2505766E+02  0.8869451E+01  0.0000000E+00
Ar 1769  0.2222736E+02  0.2222731E+02  0.1132468E+02  0.0000000E+00
Ar 1770  0.2497528E+02  0.2497524E+02  0.1164681E+02  0.0000000E+00
Ar 1771  0.2578901E+02  0.2256572E+02  0.1421076E+02  0.0000000E+00
Ar 1772  0.2256576E+02  0.2578897E+02  0.1421075E+02  0.0000000E+00
Ar 1773  0.2243954E+02  0.2243949E+02  0.1640525E+02  0.0000000E+00
Ar 1774  0.2509717E+02  0.2509713E+02  0.1682756E+02  0.0000000E+00
Ar 1775  0.2538999E+02  0.2237409E+02  0.1948437E+02  0.0000000E+00
Ar 1776  0.2237413E+02  0.2538994E+02  0.1948435E+02  0.0000000E+00
Ar 1777  0.2223083E+02  0.2223080E+02  0.2223081E+02  0.0000000E+00
Ar 1778  0.2523286E+02  0.2523281E+02  0.2241591E+02  0.0000000E+00
Ar 1779  0.2523286E+02  0.2241587E+02  0.2523284E+02  0.0000000E+00
Ar 1780  0.2241592E+02  0.2523280E+02  0.2523283E+02  0.0000000E+00
Ar 1781  0.2219786E+02  0.2219782E+02  0.2803324E+02  0.0000000E+00
Ar 1782  0.2508203E+02  0.2508198E+02  0.2806036E+02  0.0000000E+00
Ar 1783  0.2554365E+02  0.2230340E+02  0.3065766E+02  0.0000000E+00
Ar 1784  0.2230345E+02  0.2554359E+02  0.3065766E+02  0.0000000E+00
Ar 1785  0.2289667E+02  0.2289663E+02  0.3348728E+02  0.0000000E+00
Ar 1786  0.2554042E+02  0.2554036E+02  0.3376419E+02  0.0000000E+00
Ar 1787  0.2526415E+02  0.2249715E+02  0.3635769E+02  0.0000000E+00
Ar 1788  0.2249721E+02  0.2526409E+02  0.3635769E+02  0.0000000E+00
Ar 1789  0.2281229E+02  0.2281224E+02  0.3916192E+02  0.0000000E+00
Ar 1790  0.2564583E+02  0.2564578E+02  0.3930329E+02  0.0000000E+00
Ar 1791  0.2531529E+02  0.2269440E+02  0.4184458E+02  0.0000000E+00
Ar 1792  0.2269450E+02  0.2531522E+02  0.4184456E+02  0.0000000E+00
Ar 1793  0.2274545E+02  0.2274540E+02  0.4450069E+02  0.0000000E+00
Ar 1794  0.2541150E+02  0.2541142E+02  0.4438121E+02  0.0000000E+00
Ar 1795  0.2534226E+02  0.2254377E+02  0.4749826E+02  0.0000000E+00
Ar 1796  0.2254390E+02  0.2534214E+02  0.4749826E+02  0.0000000E+00
Ar 1797  0.2243420E+02  0.2243412E+02  0.4986747E+02  0.0000000E+00
Ar 1798  0.2512758E+02  0.2512749E+02  0.5026524E+02  0.0000000E+00
Ar 1799  0.2524459E+02  0.2249978E+02  0.5278806E+02  0.0000000E+00
Ar 1800  0.2249988E+02  0.2524454E+02  0.5278808E+02  0.0000000E+00
Ar 1801  0.2269474E+02  0.2799046E+02  0.5557519E+02  0.0000000E+00
Ar 1802  0.2550811E+02  0.3009086E+02  0.5550193E+02  0.0000000E+00
Ar 1803  0.2533250E+02  0.2807823E+02  0.2935122E+01  0.0000000E+00
Ar 1804  0.2256760E+02  0.3023492E+02  0.3164127E+01  0.0000000E+00
Ar 1805  0.2221428E+02  0.2759012E+02  0.6048225E+01  0.0000000E+00
Ar 1806  0.2514727E+02  0.3088207E+02  0.6077859E+01  0.0000000E+00
Ar 1807  0.2490770E+02  0.2800838E+02  0.8690227E+01  0.0000000E+00
Ar 1808  0.2233840E+02  0.3060125E+02  0.8501362E+01  0.0000000E+00
Ar 1809  0.2211489E+02  0.2805622E+02  0.1138357E+02  0.0000000E+00
Ar 1810  0.2476523E+02  0.3060303E+02  0.1139249E+02  0.0000000E+00
Ar 1811  0.2544878E+02  0.2804996E+02  0.1425785E+02  0.0000000E+00
Ar 1812  0.2217911E+02  0.3071463E+02  0.1436562E+02  0.0000000E+00
Ar 1813  0.2238888E+02  0.2833410E+02  0.1712727E+02  0.0000000E+00
Ar 1814  0.2528508E+02  0.3083973E+02  0.1708735E+02  0.0000000E+00
Ar 1815  0.2560481E+02  0.2827437E+02  0.1966151E+02  0.0000000E+00
Ar 1816  0.2245136E+02  0.3108378E+02  0.1977347E+02  0.0000000E+00
Ar 1817  0.2219787E+02  0.2803323E+02  0.2219784E+02  0.0000000E+00
Ar 1818  0.2554366E+02  0.3065764E+02  0.2230342E+02  0.0000000E+00
Ar 1819  0.2508201E+02  0.2806035E+02  0.2508199E+02  0.0000000E+00
Ar 1820  0.2230344E+02  0.3065764E+02  0.2554362E+02  0.0000000E+00
Ar 1821  0.2283446E+02  0.2800719E+02  0.2800721E+02  0.0000000E+00
Ar 1822  0.2546157E+02  0.3087130E+02  0.2809769E+02  0.0000000E+00
Ar 1823  0.2546158E+02  0.2809766E+02  0.3087134E+02  0.0000000E+00
Ar 1824  0.2228514E+02  0.3060700E+02  0.3060703E+02  0.0000000E+00
Ar 1825  0.2250123E+02  0.2788732E+02  0.3356242E+02  0.0000000E+00
Ar 1826  0.2503414E+02  0.3069210E+02  0.3383188E+02  0.0000000E+00
Ar 1827  0.2554334E+02  0.2833030E+02  0.3642756E+02  0.0000000E+00
Ar 1828  0.2247696E+02  0.3068285E+02  0.3651016E+02  0.0000000E+00
Ar 1829  0.2243056E+02  0.2796921E+02  0.3902049E+02  0.0000000E+00
Ar 1830  0.2507051E+02  0.3091368E+02  0.3906462E+02  0.0000000E+00
Ar 1831  0.2544210E+02  0.2808462E+02  0.4206042E+02  0.0000000E+00
Ar 1832  0.2262846E+02  0.3089795E+02  0.4224710E+02  0.0000000E+00
Ar 1833  0.2241765E+02  0.2819996E+02  0.4479283E+02  0.0000000E+00
Ar 1834  0.2561861E+02  0.3091167E+02  0.4471441E+02  0.0000000E+00
Ar 1835  0.2515544E+02  0.2829858E+02  0.4741434E+02  0.0000000E+00
Ar 1836  0.2231803E+02  0.3091305E+02  0.4727993E+02  0.0000000E+00
Ar 1837  0.2265581E+02  0.2798572E+02  0.5011544E+02  0.0000000E+00
Ar 1838  0.2525951E+02  0.3116213E+02  0.4980065E+02  0.0000000E+00
Ar 1839  0.2518172E+02  0.2835779E+02  0.5251862E+02  0.0000000E+00
Ar 1840  0.2214645E+02  0.3047788E+02  0.5272424E+02  0.0000000E+00
Ar 1841  0.2271547E+02  0.3361907E+02  0.5559780E+02  0.0000000E+00
Ar 1842  0.2497894E+02  0.3613483E+02  0.5563885E+02  0.0000000E+00
Ar 1843  0.2482957E+02  0.3347306E+02  0.3393102E+01  0.0000000E+00
Ar 1844  0.2269673E+02  0.3638673E+02  0.3439866E+01  0.0000000E+00
Ar 1845  0.2226995E+02  0.3326526E+02  0.5767513E+01  0.0000000E+00
Ar 1846  0.2498558E+02  0.3578305E+02  0.6240809E+01  0.0000000E+00
Ar 1847  0.2504225E+02  0.3336871E+02  0.8818529E+01  0.0000000E+00
Ar 1848  0.2234589E+02  0.3620514E+02  0.8626251E+01  0.0000000E+00
Ar 1849  0.2224344E+02  0.3334136E+02  0.1151757E+02  0.0000000E+00
Ar 1850  0.2498283E+02  0.3633426E+02  0.1134827E+02  0.0000000E+00
Ar 1851  0.2517268E+02  0.3361756E+02  0.1392329E+02  0.0000000E+00
Ar 1852  0.2262182E+02  0.3608571E+02  0.1420353E+02  0.0000000E+00
Ar 1853  0.2270178E+02  0.3348673E+02  0.1704915E+02  0.0000000E+00
Ar 1854  0.2535527E+02  0.3649179E+02  0.1708393E+02  0.0000000E+00
Ar 1855  0.2530779E+02  0.3372388E+02  0.1988852E+02  0.0000000E+00
Ar 1856  0.2249354E+02  0.3617935E+02  0.1959113E+02  0.0000000E+00
Ar 1857  0.2289666E+02  0.3348724E+02  0.2289666E+02  0.0000000E+00
Ar 1858  0.2526414E+02  0.3635766E+02  0.2249716E+02  0.0000000E+00
Ar 1859  0.2554042E+02  0.3376416E+02  0.2554039E+02  0.0000000E+00
Ar 1860  0.2249719E+02  0.3635766E+02  0.2526411E+02  0.0000000E+00
Ar 1861  0.2250122E+02  0.3356239E+02  0.2788735E+02  0.0000000E+00
Ar 1862  0.2554333E+02  0.3642752E+02  0.2833032E+02  0.0000000E+00
Ar 1863  0.2503414E+02  0.3383185E+02  0.3069213E+02  0.0000000E+00
Ar 1864  0.2247695E+02  0.3651015E+02  0.3068287E+02  0.0000000E+00
Ar 1865  0.2253056E+02  0.3347872E+02  0.3347873E+02  0.0000000E+00
Ar 1866  0.2516330E+02  0.3658670E+02  0.3340067E+02  0.0000000E+00
Ar 1867  0.2516330E+02  0.3340065E+02  0.3658673E+02  0.0000000E+00
Ar 1868  0.2248038E+02  0.3642427E+02  0.3642428E+02  0.0000000E+00
Ar 1869  0.2243311E+02  0.3355839E+02  0.3908687E+02  0.0000000E+00
Ar 1870  0.2521958E+02  0.3615497E+02  0.3925070E+02  0.0000000E+00
Ar 1871  0.2529783E+02  0.3361214E+02  0.4184175E+02  0.0000000E+00
Ar 1872  0.2255895E+02  0.3635441E+02  0.4192717E+02  0.0000000E+00
Ar 1873  0.2263290E+02  0.3393733E+02  0.4468403E+02  0.0000000E+00
Ar 1874  0.2537966E+02  0.3649960E+02  0.4467809E+02  0.0000000E+00
Ar 1875  0.2549814E+02  0.3368234E+02  0.4712058E+02  0.0000000E+00
Ar 1876  0.2247645E+02  0.3669347E+02  0.4724393E+02  0.0000000E+00
Ar 1877  0.2236223E+02  0.3374591E+02  0.4996738E+02  0.0000000E+00
Ar 1878  0.2508100E+02  0.3639966E+02  0.5004425E+02  0.0000000E+00
Ar 1879  0.2501192E+02  0.3337490E+02  0.5253396E+02  0.0000000E+00
Ar 1880  0.2261432E+02  0.3632591E+02  0.5296268E+02  0.0000000E+00
Ar 1881  0.2255010E+02  0.3881885E+02  0.5091523E+00  0.0000000E+00
Ar 1882  0.2554056E+02  0.4210360E+02  0.5577805E+02  0.0000000E+00
Ar 1883  0.2511408E+02  0.3905275E+02  0.3251932E+01  0.0000000E+00
Ar 1884  0.2243812E+02  0.4174357E+02  0.3166273E+01  0.0000000E+00
Ar 1885  0.2258384E+02  0.3891702E+02  0.5975527E+01  0.0000000E+00
Ar 1886  0.2523839E+02  0.4172430E+02  0.5768040E+01  0.0000000E+00
Ar 1887  0.2497996E+02  0.3922212E+02  0.8749206E+01  0.0000000E+00
Ar 1888  0.2222150E+02  0.4187682E+02  0.8550442E+01  0.0000000E+00
Ar 1889  0.2257855E+02  0.3927189E+02  0.1146729E+02  0.0000000E+00
Ar 1890  0.2517501E+02  0.4179540E+02  0.1168135E+02  0.0000000E+00
Ar 1891  0.2515675E+02  0.3880029E+02  0.1423817E+02  0.0000000E+00
Ar 1892  0.2262132E+02  0.4176974E+02  0.1423755E+02  0.0000000E+00
Ar 1893  0.2247433E+02  0.3915323E+02  0.1710288E+02  0.0000000E+00
Ar 1894  0.2525274E+02  0.4161063E+02  0.1703976E+02  0.0000000E+00
Ar 1895  0.2538398E+02  0.3909563E+02  0.1968505E+02  0.0000000E+00
Ar 1896  0.2273290E+02  0.4193497E+02  0.1984342E+02  0.0000000E+00
Ar 1897  0.2281227E+02  0.3916189E+02  0.2281225E+02  0.0000000E+00
Ar 1898  0.2531529E+02  0.4184457E+02  0.2269441E+02  0.0000000E+00
Ar 1899  0.2564582E+02  0.3930328E+02  0.2564579E+02  0.0000000E+00
Ar 1900  0.2269448E+02  0.4184454E+02  0.2531525E+02  0.0000000E+00
Ar 1901  0.2243056E+02  0.3902046E+02  0.2796923E+02  0.0000000E+00
Ar 1902  0.2544209E+02  0.4206039E+02  0.2808464E+02  0.0000000E+00
Ar 1903  0.2507051E+02  0.3906458E+02  0.3091371E+02  0.0000000E+00
Ar 1904  0.2262845E+02  0.4224707E+02  0.3089799E+02  0.0000000E+00
Ar 1905  0.2243310E+02  0.3908685E+02  0.3355841E+02  0.0000000E+00
Ar 1906  0.2529784E+02  0.4184171E+02  0.3361216E+02  0.0000000E+00
Ar 1907  0.2521958E+02  0.3925059E+02  0.3615489E+02  0.0000000E+00
Ar 1908  0.2255890E+02  0.4192694E+02  0.3635420E+02  0.0000000E+00
Ar 1909  0.2273412E+02  0.3905492E+02  0.3905496E+02  0.0000000E+00
Ar 1910  0.2566401E+02  0.4175927E+02  0.3891594E+02  0.0000000E+00
Ar 1911  0.2566381E+02  0.3891700E+02  0.4176034E+02  0.0000000E+00
Ar 1912  0.2263117E+02  0.4191547E+02  0.4191652E+02  0.0000000E+00
Ar 1913  0.2264462E+02  0.3901949E+02  0.4448741E+02  0.0000000E+00
Ar 1914  0.2528878E+02  0.4145485E+02  0.4427087E+02  0.0000000E+00
Ar 1915  0.2546416E+02  0.3912879E+02  0.4719147E+02  0.0000000E+00
Ar 1916  0.2259511E+02  0.4134116E+02  0.4757521E+02  0.0000000E+00
Ar 1917  0.2264611E+02  0.3907332E+02  0.5042916E+02  0.0000000E+00
Ar 1918  0.2548714E+02  0.4163721E+02  0.5014294E+02  0.0000000E+00
Ar 1919  0.2512415E+02  0.3921267E+02  0.5296836E+02  0.0000000E+00
Ar 1920  0.2251271E+02  0.4198197E+02  0.5295328E+02  0.0000000E+00
Ar 1921  0.2265236E+02  0.4501251E+02  0.5546098E+02  0.0000000E+00
Ar 1922  0.2565409E+02  0.4740826E+02  0.6561778E+00  0.0000000E+00
Ar 1923  0.2509963E+02  0.4449464E+02  0.3053846E+01  0.0000000E+00
Ar 1924  0.2256532E+02  0.4707900E+02  0.3281272E+01  0.0000000E+00
Ar 1925  0.2237097E+02  0.4431661E+02  0.5785813E+01  0.0000000E+00
Ar 1926  0.2542097E+02  0.4744782E+02  0.5868502E+01  0.0000000E+00
Ar 1927  0.2511526E+02  0.4444961E+02  0.8766857E+01  0.0000000E+00
Ar 1928  0.2234866E+02  0.4734613E+02  0.8402971E+01  0.0000000E+00
Ar 1929  0.2233529E+02  0.4447640E+02  0.1138190E+02  0.0000000E+00
Ar 1930  0.2502548E+02  0.4711255E+02  0.1152054E+02  0.0000000E+00
Ar 1931  0.2505554E+02  0.4481318E+02  0.1453734E+02  0.0000000E+00
Ar 1932  0.2228899E+02  0.4758479E+02  0.1406761E+02  0.0000000E+00
Ar 1933  0.2257658E+02  0.4430851E+02  0.1706639E+02  0.0000000E+00
Ar 1934  0.2528773E+02  0.4717889E+02  0.1723163E+02  0.0000000E+00
Ar 1935  0.2540259E+02  0.4461482E+02  0.1983737E+02  0.0000000E+00
Ar 1936  0.2266724E+02  0.4697113E+02  0.2003780E+02  0.0000000E+00
Ar 1937  0.2274545E+02  0.4450066E+02  0.2274542E+02  0.0000000E+00
Ar 1938  0.2534226E+02  0.4749823E+02  0.2254379E+02  0.0000000E+00
Ar 1939  0.2541149E+02  0.4438117E+02  0.2541144E+02  0.0000000E+00
Ar 1940  0.2254389E+02  0.4749822E+02  0.2534216E+02  0.0000000E+00
Ar 1941  0.2241764E+02  0.4479280E+02  0.2819999E+02  0.0000000E+00
Ar 1942  0.2515544E+02  0.4741431E+02  0.2829860E+02  0.0000000E+00
Ar 1943  0.2561860E+02  0.4471439E+02  0.3091170E+02  0.0000000E+00
Ar 1944  0.2231802E+02  0.4727991E+02  0.3091308E+02  0.0000000E+00
Ar 1945  0.2263289E+02  0.4468401E+02  0.3393737E+02  0.0000000E+00
Ar 1946  0.2549817E+02  0.4712055E+02  0.3368240E+02  0.0000000E+00
Ar 1947  0.2537973E+02  0.4467786E+02  0.3649943E+02  0.0000000E+00
Ar 1948  0.2247641E+02  0.4724390E+02  0.3669351E+02  0.0000000E+00
Ar 1949  0.2264431E+02  0.4448637E+02  0.3901823E+02  0.0000000E+00
Ar 1950  0.2546410E+02  0.4719081E+02  0.3912852E+02  0.0000000E+00
Ar 1951  0.2528876E+02  0.4426939E+02  0.4145401E+02  0.0000000E+00
Ar 1952  0.2259386E+02  0.4757413E+02  0.4133893E+02  0.0000000E+00
Ar 1953  0.2256290E+02  0.4443060E+02  0.4443164E+02  0.0000000E+00
Ar 1954  0.2515560E+02  0.4705401E+02  0.4404918E+02  0.0000000E+00
Ar 1955  0.2515542E+02  0.4405040E+02  0.4705412E+02  0.0000000E+00
Ar 1956  0.2269865E+02  0.4702257E+02  0.4702138E+02  0.0000000E+00
Ar 1957  0.2295737E+02  0.4416619E+02  0.4993292E+02  0.0000000E+00
Ar 1958  0.2565615E+02  0.4720568E+02  0.5024307E+02  0.0000000E+00
Ar 1959  0.2556202E+02  0.4424257E+02  0.5285901E+02  0.0000000E+00
Ar 1960  0.2288032E+02  0.4699630E+02  0.5221070E+02  0.0000000E+00
Ar 1961  0.2270630E+02  0.4961840E+02  0.5558771E+02  0.0000000E+00
Ar 1962  0.2572004E+02  0.5211653E+02  0.5537545E+02  0.0000000E+00
Ar 1963  0.2531524E+02  0.4999683E+02  0.3012250E+01  0.0000000E+00
Ar 1964  0.2268023E+02  0.5279265E+02  0.3318342E+01  0.0000000E+00
Ar 1965  0.2277551E+02  0.5000796E+02  0.5906455E+01  0.0000000E+00
Ar 1966  0.2547752E+02  0.5285175E+02  0.6039441E+01  0.0000000E+00
Ar 1967  0.2525305E+02  0.4998412E+02  0.8539613E+01  0.0000000E+00
Ar 1968  0.2215342E+02  0.5282444E+02  0.8683330E+01  0.0000000E+00
Ar 1969  0.2234100E+02  0.5010236E+02  0.1137436E+02  0.0000000E+00
Ar 1970  0.2494735E+02  0.5262586E+02  0.1174256E+02  0.0000000E+00
Ar 1971  0.2506088E+02  0.4994598E+02  0.1450612E+02  0.0000000E+00
Ar 1972  0.2212221E+02  0.5263167E+02  0.1453120E+02  0.0000000E+00
Ar 1973  0.2246188E+02  0.4998030E+02  0.1713120E+02  0.0000000E+00
Ar 1974  0.2514809E+02  0.5290620E+02  0.1705969E+02  0.0000000E+00
Ar 1975  0.2505791E+02  0.5017397E+02  0.1976873E+02  0.0000000E+00
Ar 1976  0.2246666E+02  0.5287287E+02  0.1985391E+02  0.0000000E+00
Ar 1977  0.2243418E+02  0.4986744E+02  0.2243414E+02  0.0000000E+00
Ar 1978  0.2524458E+02  0.5278804E+02  0.2249980E+02  0.0000000E+00
Ar 1979  0.2512755E+02  0.5026522E+02  0.2512752E+02  0.0000000E+00
Ar 1980  0.2249985E+02  0.5278806E+02  0.2524456E+02  0.0000000E+00
Ar 1981  0.2265580E+02  0.5011542E+02  0.2798574E+02  0.0000000E+00
Ar 1982  0.2518172E+02  0.5251860E+02  0.2835780E+02  0.0000000E+00
Ar 1983  0.2525950E+02  0.4980063E+02  0.3116215E+02  0.0000000E+00
Ar 1984  0.2214649E+02  0.5272408E+02  0.3047782E+02  0.0000000E+00
Ar 1985  0.2236221E+02  0.4996736E+02  0.3374596E+02  0.0000000E+00
Ar 1986  0.2501189E+02  0.5253392E+02  0.3337494E+02  0.0000000E+00
Ar 1987  0.2508099E+02  0.5004417E+02  0.3639975E+02  0.0000000E+00
Ar 1988  0.2261436E+02  0.5296268E+02  0.3632597E+02  0.0000000E+00
Ar 1989  0.2264623E+02  0.5042937E+02  0.3907340E+02  0.0000000E+00
Ar 1990  0.2512450E+02  0.5296827E+02  0.3921332E+02  0.0000000E+00
Ar 1991  0.2548910E+02  0.5014285E+02  0.4163829E+02  0.0000000E+00
Ar 1992  0.2251087E+02  0.5295049E+02  0.4197801E+02  0.0000000E+00
Ar 1993  0.2295823E+02  0.4993203E+02  0.4416435E+02  0.0000000E+00
Ar 1994  0.2555877E+02  0.5286256E+02  0.4424393E+02  0.0000000E+00
Ar 1995  0.2565366E+02  0.5023998E+02  0.4720546E+02  0.0000000E+00
Ar 1996  0.2287985E+02  0.5221020E+02  0.4699428E+02  0.0000000E+00
Ar 1997  0.2312864E+02  0.4980790E+02  0.4980751E+02  0.0000000E+00
Ar 1998  0.2559195E+02  0.5263915E+02  0.4982160E+02  0.0000000E+00
Ar 1999  0.2558806E+02  0.4982625E+02  0.5263371E+02  0.0000000E+00
Ar 2000  0.2260208E+02  0.5231321E+02  0.5230990E+02  0.0000000E+00
Ar 2001  0.2845698E+02  0.5079679E+00  0.5166784E+00  0.0000000E+00
Ar 2002  0.3108685E+02  0.3714862E+01  0.3977397E+00  0.0000000E+00
Ar 2003  0.3108989E+02  0.3986940E+00  0.3707017E+01  0.0000000E+00
Ar 2004  0.2804793E+02  0.3041483E+01  0.3049538E+01  0.0000000E+00
Ar 2005  0.2763955E+02  0.4478199E+00  0.5849570E+01  0.0000000E+00
Ar 2006  0.3016898E+02  0.3126762E+01  0.5923907E+01  0.0000000E+00
Ar 2007  0.3054408E+02  0.5515655E+02  0.8475422E+01  0.0000000E+00
Ar 2008  0.2799230E+02  0.2919908E+01  0.8801632E+01  0.0000000E+00
Ar 2009  0.2795331E+02  0.5528350E+02  0.1170294E+02  0.0000000E+00
Ar 2010  0.3065622E+02  0.2941813E+01  0.1139128E+02  0.0000000E+00
Ar 2011  0.3066383E+02  0.4820408E+00  0.1413812E+02  0.0000000E+00
Ar 2012  0.2803790E+02  0.2748679E+01  0.1423273E+02  0.0000000E+00
Ar 2013  0.2838532E+02  0.3761941E+00  0.1717936E+02  0.0000000E+00
Ar 2014  0.3090677E+02  0.3333448E+01  0.1739487E+02  0.0000000E+00
Ar 2015  0.3104328E+02  0.5552869E+02  0.1990299E+02  0.0000000E+00
Ar 2016  0.2815385E+02  0.3060688E+01  0.1965417E+02  0.0000000E+00
Ar 2017  0.2799050E+02  0.5557515E+02  0.2269471E+02  0.0000000E+00
Ar 2018  0.3023498E+02  0.3164116E+01  0.2256761E+02  0.0000000E+00
Ar 2019  0.3009083E+02  0.5550191E+02  0.2550810E+02  0.0000000E+00
Ar 2020  0.2807825E+02  0.2935152E+01  0.2533248E+02  0.0000000E+00
Ar 2021  0.2802653E+02  0.5493774E+02  0.2802653E+02  0.0000000E+00
Ar 2022  0.3135465E+02  0.3520223E+01  0.2772600E+02  0.0000000E+00
Ar 2023  0.3141716E+02  0.5572857E+02  0.3141714E+02  0.0000000E+00
Ar 2024  0.2772603E+02  0.3520225E+01  0.3135466E+02  0.0000000E+00
Ar 2025  0.2822134E+02  0.5764997E+00  0.3369609E+02  0.0000000E+00
Ar 2026  0.3067313E+02  0.3577702E+01  0.3359368E+02  0.0000000E+00
Ar 2027  0.3102222E+02  0.5552149E+02  0.3616219E+02  0.0000000E+00
Ar 2028  0.2762313E+02  0.3472080E+01  0.3616066E+02  0.0000000E+00
Ar 2029  0.2802542E+02  0.5921620E+00  0.3888495E+02  0.0000000E+00
Ar 2030  0.3079967E+02  0.3691287E+01  0.3855203E+02  0.0000000E+00
Ar 2031  0.3087308E+02  0.1042993E+01  0.4086893E+02  0.0000000E+00
Ar 2032  0.2793138E+02  0.3456533E+01  0.4118426E+02  0.0000000E+00
Ar 2033  0.2803903E+02  0.7857012E+00  0.4428895E+02  0.0000000E+00
Ar 2034  0.3059297E+02  0.3296638E+01  0.4438762E+02  0.0000000E+00
Ar 2035  0.3045601E+02  0.5573943E+02  0.4684717E+02  0.0000000E+00
Ar 2036  0.2824920E+02  0.3246048E+01  0.4727872E+02  0.0000000E+00
Ar 2037  0.2852581E+02  0.5540167E+02  0.4978007E+02  0.0000000E+00
Ar 2038  0.3065458E+02  0.3374522E+01  0.4981639E+02  0.0000000E+00
Ar 2039  0.3090973E+02  0.6459622E+00  0.5269295E+02  0.0000000E+00
Ar 2040  0.2812166E+02  0.3097002E+01  0.5293279E+02  0.0000000E+00
Ar 2041  0.2762727E+02  0.5833082E+01  0.4400026E+00  0.0000000E+00
Ar 2042  0.3054320E+02  0.8478100E+01  0.5515310E+02  0.0000000E+00
Ar 2043  0.3016603E+02  0.5919899E+01  0.3126133E+01  0.0000000E+00
Ar 2044  0.2799075E+02  0.8799424E+01  0.2918085E+01  0.0000000E+00
Ar 2045  0.2779232E+02  0.6493052E+01  0.6493648E+01  0.0000000E+00
Ar 2046  0.3061058E+02  0.8834420E+01  0.5812790E+01  0.0000000E+00
Ar 2047  0.3060843E+02  0.5810628E+01  0.8832569E+01  0.0000000E+00
Ar 2048  0.2834138E+02  0.9084784E+01  0.9086669E+01  0.0000000E+00
Ar 2049  0.2806272E+02  0.5635878E+01  0.1135036E+02  0.0000000E+00
Ar 2050  0.3104004E+02  0.8581768E+01  0.1178118E+02  0.0000000E+00
Ar 2051  0.3087635E+02  0.5898926E+01  0.1437865E+02  0.0000000E+00
Ar 2052  0.2830488E+02  0.8616338E+01  0.1415471E+02  0.0000000E+00
Ar 2053  0.2782937E+02  0.5697058E+01  0.1674591E+02  0.0000000E+00
Ar 2054  0.3092222E+02  0.8700152E+01  0.1688009E+02  0.0000000E+00
Ar 2055  0.3046872E+02  0.6131650E+01  0.1984463E+02  0.0000000E+00
Ar 2056  0.2784470E+02  0.8684764E+01  0.1934547E+02  0.0000000E+00
Ar 2057  0.2759014E+02  0.6048233E+01  0.2221429E+02  0.0000000E+00
Ar 2058  0.3060124E+02  0.8501394E+01  0.2233848E+02  0.0000000E+00
Ar 2059  0.3088207E+02  0.6077831E+01  0.2514724E+02  0.0000000E+00
Ar 2060  0.2800840E+02  0.8690207E+01  0.2490771E+02  0.0000000E+00
Ar 2061  0.2782635E+02  0.5915799E+01  0.2782635E+02  0.0000000E+00
Ar 2062  0.3093046E+02  0.8685920E+01  0.2780457E+02  0.0000000E+00
Ar 2063  0.3071896E+02  0.5866526E+01  0.3071895E+02  0.0000000E+00
Ar 2064  0.2780455E+02  0.8685921E+01  0.3093046E+02  0.0000000E+00
Ar 2065  0.2852518E+02  0.6301238E+01  0.3363343E+02  0.0000000E+00
Ar 2066  0.3072512E+02  0.9350315E+01  0.3338892E+02  0.0000000E+00
Ar 2067  0.3072364E+02  0.6737300E+01  0.3631675E+02  0.0000000E+00
Ar 2068  0.2796056E+02  0.9044974E+01  0.3622549E+02  0.0000000E+00
Ar 2069  0.2782512E+02  0.6347293E+01  0.3904220E+02  0.0000000E+00
Ar 2070  0.3060785E+02  0.8787586E+01  0.3939667E+02  0.0000000E+00
Ar 2071  0.3060166E+02  0.6046023E+01  0.4197435E+02  0.0000000E+00
Ar 2072  0.2798897E+02  0.8844037E+01  0.4196037E+02  0.0000000E+00
Ar 2073  0.2773258E+02  0.6025832E+01  0.4445953E+02  0.0000000E+00
Ar 2074  0.3068841E+02  0.8917056E+01  0.4487968E+02  0.0000000E+00
Ar 2075  0.3073829E+02  0.5813209E+01  0.4708772E+02  0.0000000E+00
Ar 2076  0.2769815E+02  0.8819875E+01  0.4717452E+02  0.0000000E+00
Ar 2077  0.2792426E+02  0.5769905E+01  0.4992459E+02  0.0000000E+00
Ar 2078  0.3061991E+02  0.8826883E+01  0.4999930E+02  0.0000000E+00
Ar 2079  0.3069535E+02  0.6114127E+01  0.5262003E+02  0.0000000E+00
Ar 2080  0.2779721E+02  0.8984359E+01  0.5233458E+02  0.0000000E+00
Ar 2081  0.2795152E+02  0.1170203E+02  0.5528313E+02  0.0000000E+00
Ar 2082  0.3066403E+02  0.1413774E+02  0.4820107E+00  0.0000000E+00
Ar 2083  0.3065621E+02  0.1139161E+02  0.2941272E+01  0.0000000E+00
Ar 2084  0.2803763E+02  0.1423277E+02  0.2748369E+01  0.0000000E+00
Ar 2085  0.2806250E+02  0.1135033E+02  0.5635347E+01  0.0000000E+00
Ar 2086  0.3087644E+02  0.1437854E+02  0.5899085E+01  0.0000000E+00
Ar 2087  0.3103941E+02  0.1178152E+02  0.8582721E+01  0.0000000E+00
Ar 2088  0.2830478E+02  0.1415490E+02  0.8616533E+01  0.0000000E+00
Ar 2089  0.2839362E+02  0.1146353E+02  0.1146358E+02  0.0000000E+00
Ar 2090  0.3066005E+02  0.1437104E+02  0.1136190E+02  0.0000000E+00
Ar 2091  0.3066018E+02  0.1136141E+02  0.1437063E+02  0.0000000E+00
Ar 2092  0.2763837E+02  0.1414349E+02  0.1414350E+02  0.0000000E+00
Ar 2093  0.2775795E+02  0.1140857E+02  0.1704757E+02  0.0000000E+00
Ar 2094  0.3087772E+02  0.1419771E+02  0.1675474E+02  0.0000000E+00
Ar 2095  0.3089109E+02  0.1145460E+02  0.1934573E+02  0.0000000E+00
Ar 2096  0.2792326E+02  0.1399142E+02  0.1960991E+02  0.0000000E+00
Ar 2097  0.2805628E+02  0.1138356E+02  0.2211487E+02  0.0000000E+00
Ar 2098  0.3071460E+02  0.1436567E+02  0.2217911E+02  0.0000000E+00
Ar 2099  0.3060302E+02  0.1139252E+02  0.2476528E+02  0.0000000E+00
Ar 2100  0.2805001E+02  0.1425786E+02  0.2544879E+02  0.0000000E+00
Ar 2101  0.2790563E+02  0.1164936E+02  0.2790559E+02  0.0000000E+00
Ar 2102  0.3079275E+02  0.1409846E+02  0.2789081E+02  0.0000000E+00
Ar 2103  0.3041208E+02  0.1153875E+02  0.3041208E+02  0.0000000E+00
Ar 2104  0.2789082E+02  0.1409845E+02  0.3079272E+02  0.0000000E+00
Ar 2105  0.2784497E+02  0.1142378E+02  0.3329177E+02  0.0000000E+00
Ar 2106  0.3100803E+02  0.1407073E+02  0.3362825E+02  0.0000000E+00
Ar 2107  0.3076879E+02  0.1131333E+02  0.3630996E+02  0.0000000E+00
Ar 2108  0.2799440E+02  0.1380606E+02  0.3619531E+02  0.0000000E+00
Ar 2109  0.2769744E+02  0.1107001E+02  0.3910522E+02  0.0000000E+00
Ar 2110  0.3073109E+02  0.1418391E+02  0.3887587E+02  0.0000000E+00
Ar 2111  0.3069442E+02  0.1149446E+02  0.4195775E+02  0.0000000E+00
Ar 2112  0.2797268E+02  0.1419339E+02  0.4140068E+02  0.0000000E+00
Ar 2113  0.2789917E+02  0.1172254E+02  0.4473659E+02  0.0000000E+00
Ar 2114  0.3054286E+02  0.1415992E+02  0.4454126E+02  0.0000000E+00
Ar 2115  0.3039144E+02  0.1164419E+02  0.4764717E+02  0.0000000E+00
Ar 2116  0.2795515E+02  0.1452275E+02  0.4727173E+02  0.0000000E+00
Ar 2117  0.2757102E+02  0.1160769E+02  0.4996031E+02  0.0000000E+00
Ar 2118  0.3076158E+02  0.1444880E+02  0.4976473E+02  0.0000000E+00
Ar 2119  0.3077765E+02  0.1159621E+02  0.5269753E+02  0.0000000E+00
Ar 2120  0.2802012E+02  0.1412726E+02  0.5246563E+02  0.0000000E+00
Ar 2121  0.2838521E+02  0.1717931E+02  0.3761676E+00  0.0000000E+00
Ar 2122  0.3104326E+02  0.1990295E+02  0.5552872E+02  0.0000000E+00
Ar 2123  0.3090682E+02  0.1739467E+02  0.3333352E+01  0.0000000E+00
Ar 2124  0.2815388E+02  0.1965409E+02  0.3060717E+01  0.0000000E+00
Ar 2125  0.2782938E+02  0.1674590E+02  0.5697076E+01  0.0000000E+00
Ar 2126  0.3046873E+02  0.1984452E+02  0.6131576E+01  0.0000000E+00
Ar 2127  0.3092220E+02  0.1688015E+02  0.8700250E+01  0.0000000E+00
Ar 2128  0.2784469E+02  0.1934545E+02  0.8684770E+01  0.0000000E+00
Ar 2129  0.2775785E+02  0.1704763E+02  0.1140862E+02  0.0000000E+00
Ar 2130  0.3089104E+02  0.1934578E+02  0.1145470E+02  0.0000000E+00
Ar 2131  0.3087770E+02  0.1675480E+02  0.1419785E+02  0.0000000E+00
Ar 2132  0.2792326E+02  0.1960996E+02  0.1399149E+02  0.0000000E+00
Ar 2133  0.2786428E+02  0.1716310E+02  0.1716311E+02  0.0000000E+00
Ar 2134  0.3068493E+02  0.1955754E+02  0.1710394E+02  0.0000000E+00
Ar 2135  0.3068493E+02  0.1710391E+02  0.1955757E+02  0.0000000E+00
Ar 2136  0.2816817E+02  0.1965735E+02  0.1965737E+02  0.0000000E+00
Ar 2137  0.2833412E+02  0.1712726E+02  0.2238887E+02  0.0000000E+00
Ar 2138  0.3108382E+02  0.1977347E+02  0.2245136E+02  0.0000000E+00
Ar 2139  0.3083977E+02  0.1708735E+02  0.2528506E+02  0.0000000E+00
Ar 2140  0.2827440E+02  0.1966150E+02  0.2560480E+02  0.0000000E+00
Ar 2141  0.2785973E+02  0.1684929E+02  0.2785972E+02  0.0000000E+00
Ar 2142  0.3112169E+02  0.1955760E+02  0.2799622E+02  0.0000000E+00
Ar 2143  0.3072388E+02  0.1677934E+02  0.3072385E+02  0.0000000E+00
Ar 2144  0.2799626E+02  0.1955760E+02  0.3112168E+02  0.0000000E+00
Ar 2145  0.2765389E+02  0.1685085E+02  0.3387456E+02  0.0000000E+00
Ar 2146  0.3076342E+02  0.2005697E+02  0.3359989E+02  0.0000000E+00
Ar 2147  0.3072366E+02  0.1672967E+02  0.3620017E+02  0.0000000E+00
Ar 2148  0.2812157E+02  0.1958769E+02  0.3626513E+02  0.0000000E+00
Ar 2149  0.2793867E+02  0.1704917E+02  0.3912291E+02  0.0000000E+00
Ar 2150  0.3100242E+02  0.1983307E+02  0.3899186E+02  0.0000000E+00
Ar 2151  0.3051041E+02  0.1698835E+02  0.4171235E+02  0.0000000E+00
Ar 2152  0.2803265E+02  0.1999402E+02  0.4186001E+02  0.0000000E+00
Ar 2153  0.2785666E+02  0.1692418E+02  0.4440538E+02  0.0000000E+00
Ar 2154  0.3062911E+02  0.1962677E+02  0.4462088E+02  0.0000000E+00
Ar 2155  0.3055867E+02  0.1708202E+02  0.4721367E+02  0.0000000E+00
Ar 2156  0.2798011E+02  0.1978255E+02  0.4756391E+02  0.0000000E+00
Ar 2157  0.2796649E+02  0.1701050E+02  0.4998135E+02  0.0000000E+00
Ar 2158  0.3045057E+02  0.1975176E+02  0.5011937E+02  0.0000000E+00
Ar 2159  0.3071900E+02  0.1718990E+02  0.5264330E+02  0.0000000E+00
Ar 2160  0.2787216E+02  0.1963875E+02  0.5284287E+02  0.0000000E+00
Ar 2161  0.2799050E+02  0.2269468E+02  0.5557518E+02  0.0000000E+00
Ar 2162  0.3009080E+02  0.2550804E+02  0.5550194E+02  0.0000000E+00
Ar 2163  0.3023498E+02  0.2256758E+02  0.3164132E+01  0.0000000E+00
Ar 2164  0.2807826E+02  0.2533246E+02  0.2935156E+01  0.0000000E+00
Ar 2165  0.2759015E+02  0.2221426E+02  0.6048243E+01  0.0000000E+00
Ar 2166  0.3088206E+02  0.2514723E+02  0.6077848E+01  0.0000000E+00
Ar 2167  0.3060123E+02  0.2233842E+02  0.8501374E+01  0.0000000E+00
Ar 2168  0.2800839E+02  0.2490769E+02  0.8690222E+01  0.0000000E+00
Ar 2169  0.2805627E+02  0.2211485E+02  0.1138357E+02  0.0000000E+00
Ar 2170  0.3060303E+02  0.2476524E+02  0.1139253E+02  0.0000000E+00
Ar 2171  0.3071461E+02  0.2217910E+02  0.1436568E+02  0.0000000E+00
Ar 2172  0.2805000E+02  0.2544876E+02  0.1425788E+02  0.0000000E+00
Ar 2173  0.2833413E+02  0.2238885E+02  0.1712727E+02  0.0000000E+00
Ar 2174  0.3083977E+02  0.2528505E+02  0.1708736E+02  0.0000000E+00
Ar 2175  0.3108383E+02  0.2245133E+02  0.1977350E+02  0.0000000E+00
Ar 2176  0.2827440E+02  0.2560478E+02  0.1966151E+02  0.0000000E+00
Ar 2177  0.2803327E+02  0.2219784E+02  0.2219785E+02  0.0000000E+00
Ar 2178  0.3065770E+02  0.2554359E+02  0.2230342E+02  0.0000000E+00
Ar 2179  0.3065770E+02  0.2230339E+02  0.2554361E+02  0.0000000E+00
Ar 2180  0.2806041E+02  0.2508197E+02  0.2508199E+02  0.0000000E+00
Ar 2181  0.2800725E+02  0.2283442E+02  0.2800722E+02  0.0000000E+00
Ar 2182  0.3087135E+02  0.2546153E+02  0.2809769E+02  0.0000000E+00
Ar 2183  0.3060704E+02  0.2228508E+02  0.3060703E+02  0.0000000E+00
Ar 2184  0.2809771E+02  0.2546152E+02  0.3087133E+02  0.0000000E+00
Ar 2185  0.2788738E+02  0.2250117E+02  0.3356242E+02  0.0000000E+00
Ar 2186  0.3069216E+02  0.2503408E+02  0.3383189E+02  0.0000000E+00
Ar 2187  0.3068291E+02  0.2247691E+02  0.3651017E+02  0.0000000E+00
Ar 2188  0.2833036E+02  0.2554327E+02  0.3642756E+02  0.0000000E+00
Ar 2189  0.2796926E+02  0.2243049E+02  0.3902050E+02  0.0000000E+00
Ar 2190  0.3091375E+02  0.2507043E+02  0.3906462E+02  0.0000000E+00
Ar 2191  0.3089802E+02  0.2262840E+02  0.4224711E+02  0.0000000E+00
Ar 2192  0.2808470E+02  0.2544203E+02  0.4206043E+02  0.0000000E+00
Ar 2193  0.2820006E+02  0.2241757E+02  0.4479284E+02  0.0000000E+00
Ar 2194  0.3091175E+02  0.2561853E+02  0.4471442E+02  0.0000000E+00
Ar 2195  0.3091308E+02  0.2231795E+02  0.4727996E+02  0.0000000E+00
Ar 2196  0.2829867E+02  0.2515536E+02  0.4741435E+02  0.0000000E+00
Ar 2197  0.2798577E+02  0.2265572E+02  0.5011545E+02  0.0000000E+00
Ar 2198  0.3116220E+02  0.2525942E+02  0.4980073E+02  0.0000000E+00
Ar 2199  0.3047789E+02  0.2214650E+02  0.5272426E+02  0.0000000E+00
Ar 2200  0.2835782E+02  0.2518165E+02  0.5251864E+02  0.0000000E+00
Ar 2201  0.2802652E+02  0.2802650E+02  0.5493778E+02  0.0000000E+00
Ar 2202  0.3141722E+02  0.3141715E+02  0.5572860E+02  0.0000000E+00
Ar 2203  0.3135464E+02  0.2772597E+02  0.3520229E+01  0.0000000E+00
Ar 2204  0.2772602E+02  0.3135464E+02  0.3520248E+01  0.0000000E+00
Ar 2205  0.2782634E+02  0.2782633E+02  0.5915808E+01  0.0000000E+00
Ar 2206  0.3071897E+02  0.3071892E+02  0.5866530E+01  0.0000000E+00
Ar 2207  0.3093046E+02  0.2780454E+02  0.8685923E+01  0.0000000E+00
Ar 2208  0.2780455E+02  0.3093043E+02  0.8685934E+01  0.0000000E+00
Ar 2209  0.2790562E+02  0.2790556E+02  0.1164937E+02  0.0000000E+00
Ar 2210  0.3041208E+02  0.3041203E+02  0.1153875E+02  0.0000000E+00
Ar 2211  0.3079275E+02  0.2789078E+02  0.1409847E+02  0.0000000E+00
Ar 2212  0.2789082E+02  0.3079270E+02  0.1409847E+02  0.0000000E+00
Ar 2213  0.2785972E+02  0.2785970E+02  0.1684932E+02  0.0000000E+00
Ar 2214  0.3072388E+02  0.3072382E+02  0.1677935E+02  0.0000000E+00
Ar 2215  0.3112169E+02  0.2799621E+02  0.1955763E+02  0.0000000E+00
Ar 2216  0.2799625E+02  0.3112166E+02  0.1955762E+02  0.0000000E+00
Ar 2217  0.2800725E+02  0.2800719E+02  0.2283445E+02  0.0000000E+00
Ar 2218  0.3060703E+02  0.3060699E+02  0.2228510E+02  0.0000000E+00
Ar 2219  0.3087135E+02  0.2809766E+02  0.2546155E+02  0.0000000E+00
Ar 2220  0.2809772E+02  0.3087129E+02  0.2546155E+02  0.0000000E+00
Ar 2221  0.2813109E+02  0.2813104E+02  0.2813107E+02  0.0000000E+00
Ar 2222  0.3117426E+02  0.3117420E+02  0.2772062E+02  0.0000000E+00
Ar 2223  0.3117425E+02  0.2772060E+02  0.3117423E+02  0.0000000E+00
Ar 2224  0.2772066E+02  0.3117420E+02  0.3117423E+02  0.0000000E+00
Ar 2225  0.2823414E+02  0.2823408E+02  0.3341160E+02  0.0000000E+00
Ar 2226  0.3102635E+02  0.3102629E+02  0.3356550E+02  0.0000000E+00
Ar 2227  0.3082481E+02  0.2817152E+02  0.3647965E+02  0.0000000E+00
Ar 2228  0.2817159E+02  0.3082475E+02  0.3647965E+02  0.0000000E+00
Ar 2229  0.2821369E+02  0.2821363E+02  0.3914153E+02  0.0000000E+00
Ar 2230  0.3093176E+02  0.3093170E+02  0.3893282E+02  0.0000000E+00
Ar 2231  0.3093506E+02  0.2793075E+02  0.4176036E+02  0.0000000E+00
Ar 2232  0.2793082E+02  0.3093499E+02  0.4176035E+02  0.0000000E+00
Ar 2233  0.2810056E+02  0.2810047E+02  0.4513860E+02  0.0000000E+00
Ar 2234  0.3081983E+02  0.3081971E+02  0.4449234E+02  0.0000000E+00
Ar 2235  0.3086690E+02  0.2818258E+02  0.4729343E+02  0.0000000E+00
Ar 2236  0.2818270E+02  0.3086676E+02  0.4729339E+02  0.0000000E+00
Ar 2237  0.2786319E+02  0.2786312E+02  0.4978992E+02  0.0000000E+00
Ar 2238  0.3067736E+02  0.3067721E+02  0.4998044E+02  0.0000000E+00
Ar 2239  0.3109155E+02  0.2844860E+02  0.5294927E+02  0.0000000E+00
Ar 2240  0.2844867E+02  0.3109147E+02  0.5294928E+02  0.0000000E+00
Ar 2241  0.2822132E+02  0.3369610E+02  0.5765691E+00  0.0000000E+00
Ar 2242  0.3102220E+02  0.3616222E+02  0.5552158E+02  0.0000000E+00
Ar 2243  0.3067313E+02  0.3359366E+02  0.3577713E+01  0.0000000E+00
Ar 2244  0.2762316E+02  0.3616049E+02  0.3472103E+01  0.0000000E+00
Ar 2245  0.2852517E+02  0.3363339E+02  0.6301266E+01  0.0000000E+00
Ar 2246  0.3072360E+02  0.3631669E+02  0.6737333E+01  0.0000000E+00
Ar 2247  0.3072511E+02  0.3338890E+02  0.9350340E+01  0.0000000E+00
Ar 2248  0.2796058E+02  0.3622548E+02  0.9045068E+01  0.0000000E+00
Ar 2249  0.2784496E+02  0.3329173E+02  0.1142380E+02  0.0000000E+00
Ar 2250  0.3076877E+02  0.3630998E+02  0.1131333E+02  0.0000000E+00
Ar 2251  0.3100803E+02  0.3362822E+02  0.1407075E+02  0.0000000E+00
Ar 2252  0.2799438E+02  0.3619534E+02  0.1380604E+02  0.0000000E+00
Ar 2253  0.2765388E+02  0.3387455E+02  0.1685088E+02  0.0000000E+00
Ar 2254  0.3072364E+02  0.3620016E+02  0.1672966E+02  0.0000000E+00
Ar 2255  0.3076340E+02  0.3359986E+02  0.2005701E+02  0.0000000E+00
Ar 2256  0.2812156E+02  0.3626513E+02  0.1958771E+02  0.0000000E+00
Ar 2257  0.2788737E+02  0.3356240E+02  0.2250119E+02  0.0000000E+00
Ar 2258  0.3068291E+02  0.3651019E+02  0.2247688E+02  0.0000000E+00
Ar 2259  0.3069216E+02  0.3383187E+02  0.2503411E+02  0.0000000E+00
Ar 2260  0.2833036E+02  0.3642754E+02  0.2554329E+02  0.0000000E+00
Ar 2261  0.2823413E+02  0.3341156E+02  0.2823411E+02  0.0000000E+00
Ar 2262  0.3082480E+02  0.3647961E+02  0.2817155E+02  0.0000000E+00
Ar 2263  0.3102634E+02  0.3356548E+02  0.3102630E+02  0.0000000E+00
Ar 2264  0.2817158E+02  0.3647962E+02  0.3082477E+02  0.0000000E+00
Ar 2265  0.2775083E+02  0.3359361E+02  0.3359364E+02  0.0000000E+00
Ar 2266  0.3075399E+02  0.3639429E+02  0.3368888E+02  0.0000000E+00
Ar 2267  0.3075400E+02  0.3368885E+02  0.3639431E+02  0.0000000E+00
Ar 2268  0.2802448E+02  0.3644591E+02  0.3644593E+02  0.0000000E+00
Ar 2269  0.2818079E+02  0.3372871E+02  0.3892586E+02  0.0000000E+00
Ar 2270  0.3113749E+02  0.3626630E+02  0.3937724E+02  0.0000000E+00
Ar 2271  0.3093950E+02  0.3374353E+02  0.4181484E+02  0.0000000E+00
Ar 2272  0.2855185E+02  0.3654534E+02  0.4180217E+02  0.0000000E+00
Ar 2273  0.2813865E+02  0.3364920E+02  0.4421003E+02  0.0000000E+00
Ar 2274  0.3138102E+02  0.3630681E+02  0.4451702E+02  0.0000000E+00
Ar 2275  0.3076674E+02  0.3348084E+02  0.4710699E+02  0.0000000E+00
Ar 2276  0.2804508E+02  0.3607775E+02  0.4721641E+02  0.0000000E+00
Ar 2277  0.2820165E+02  0.3347293E+02  0.4993380E+02  0.0000000E+00
Ar 2278  0.3080568E+02  0.3664472E+02  0.5000366E+02  0.0000000E+00
Ar 2279  0.3110169E+02  0.3401186E+02  0.5243409E+02  0.0000000E+00
Ar 2280  0.2771677E+02  0.3645917E+02  0.5279443E+02  0.0000000E+00
Ar 2281  0.2802494E+02  0.3888449E+02  0.5922465E+00  0.0000000E+00
Ar 2282  0.3087093E+02  0.4086554E+02  0.1042918E+01  0.0000000E+00
Ar 2283  0.3079911E+02  0.3855126E+02  0.3692691E+01  0.0000000E+00
Ar 2284  0.2793055E+02  0.4118351E+02  0.3456882E+01  0.0000000E+00
Ar 2285  0.2782515E+02  0.3904204E+02  0.6347440E+01  0.0000000E+00
Ar 2286  0.3060187E+02  0.4197327E+02  0.6046724E+01  0.0000000E+00
Ar 2287  0.3060753E+02  0.3939689E+02  0.8787615E+01  0.0000000E+00
Ar 2288  0.2798857E+02  0.4196177E+02  0.8842700E+01  0.0000000E+00
Ar 2289  0.2769747E+02  0.3910598E+02  0.1106934E+02  0.0000000E+00
Ar 2290  0.3069415E+02  0.4195801E+02  0.1149408E+02  0.0000000E+00
Ar 2291  0.3073107E+02  0.3887595E+02  0.1418385E+02  0.0000000E+00
Ar 2292  0.2797261E+02  0.4140063E+02  0.1419337E+02  0.0000000E+00
Ar 2293  0.2793867E+02  0.3912288E+02  0.1704916E+02  0.0000000E+00
Ar 2294  0.3051037E+02  0.4171231E+02  0.1698836E+02  0.0000000E+00
Ar 2295  0.3100244E+02  0.3899187E+02  0.1983298E+02  0.0000000E+00
Ar 2296  0.2803265E+02  0.4185999E+02  0.1999402E+02  0.0000000E+00
Ar 2297  0.2796926E+02  0.3902047E+02  0.2243050E+02  0.0000000E+00
Ar 2298  0.3089802E+02  0.4224708E+02  0.2262841E+02  0.0000000E+00
Ar 2299  0.3091374E+02  0.3906459E+02  0.2507046E+02  0.0000000E+00
Ar 2300  0.2808468E+02  0.4206041E+02  0.2544205E+02  0.0000000E+00
Ar 2301  0.2821369E+02  0.3914151E+02  0.2821365E+02  0.0000000E+00
Ar 2302  0.3093505E+02  0.4176033E+02  0.2793077E+02  0.0000000E+00
Ar 2303  0.3093176E+02  0.3893280E+02  0.3093172E+02  0.0000000E+00
Ar 2304  0.2793083E+02  0.4176033E+02  0.3093501E+02  0.0000000E+00
Ar 2305  0.2818078E+02  0.3892582E+02  0.3372873E+02  0.0000000E+00
Ar 2306  0.3093951E+02  0.4181481E+02  0.3374354E+02  0.0000000E+00
Ar 2307  0.3113750E+02  0.3937716E+02  0.3626626E+02  0.0000000E+00
Ar 2308  0.2855189E+02  0.4180184E+02  0.3654502E+02  0.0000000E+00
Ar 2309  0.2867815E+02  0.3884630E+02  0.3884634E+02  0.0000000E+00
Ar 2310  0.3101440E+02  0.4166220E+02  0.3888635E+02  0.0000000E+00
Ar 2311  0.3101435E+02  0.3888652E+02  0.4166252E+02  0.0000000E+00
Ar 2312  0.2839508E+02  0.4161580E+02  0.4161650E+02  0.0000000E+00
Ar 2313  0.2834318E+02  0.3901025E+02  0.4457279E+02  0.0000000E+00
Ar 2314  0.3088443E+02  0.4175534E+02  0.4437567E+02  0.0000000E+00
Ar 2315  0.3083134E+02  0.3912834E+02  0.4717523E+02  0.0000000E+00
Ar 2316  0.2817468E+02  0.4157369E+02  0.4713449E+02  0.0000000E+00
Ar 2317  0.2795494E+02  0.3890635E+02  0.5008957E+02  0.0000000E+00
Ar 2318  0.3085619E+02  0.4175912E+02  0.5018397E+02  0.0000000E+00
Ar 2319  0.3093625E+02  0.3874158E+02  0.5294034E+02  0.0000000E+00
Ar 2320  0.2809187E+02  0.4150744E+02  0.5293119E+02  0.0000000E+00
Ar 2321  0.2804149E+02  0.4428884E+02  0.7844518E+00  0.0000000E+00
Ar 2322  0.3044496E+02  0.4685639E+02  0.5573555E+02  0.0000000E+00
Ar 2323  0.3059501E+02  0.4438538E+02  0.3295736E+01  0.0000000E+00
Ar 2324  0.2824447E+02  0.4727267E+02  0.3245892E+01  0.0000000E+00
Ar 2325  0.2773354E+02  0.4446004E+02  0.6024361E+01  0.0000000E+00
Ar 2326  0.3073922E+02  0.4708125E+02  0.5819024E+01  0.0000000E+00
Ar 2327  0.3068713E+02  0.4487938E+02  0.8917369E+01  0.0000000E+00
Ar 2328  0.2769822E+02  0.4717498E+02  0.8819278E+01  0.0000000E+00
Ar 2329  0.2789921E+02  0.4473676E+02  0.1172257E+02  0.0000000E+00
Ar 2330  0.3039101E+02  0.4764656E+02  0.1164414E+02  0.0000000E+00
Ar 2331  0.3054299E+02  0.4454107E+02  0.1415992E+02  0.0000000E+00
Ar 2332  0.2795516E+02  0.4727183E+02  0.1452266E+02  0.0000000E+00
Ar 2333  0.2785666E+02  0.4440544E+02  0.1692411E+02  0.0000000E+00
Ar 2334  0.3055865E+02  0.4721367E+02  0.1708195E+02  0.0000000E+00
Ar 2335  0.3062908E+02  0.4462086E+02  0.1962676E+02  0.0000000E+00
Ar 2336  0.2798011E+02  0.4756386E+02  0.1978257E+02  0.0000000E+00
Ar 2337  0.2820005E+02  0.4479281E+02  0.2241757E+02  0.0000000E+00
Ar 2338  0.3091306E+02  0.4727992E+02  0.2231797E+02  0.0000000E+00
Ar 2339  0.3091173E+02  0.4471439E+02  0.2561855E+02  0.0000000E+00
Ar 2340  0.2829865E+02  0.4741432E+02  0.2515537E+02  0.0000000E+00
Ar 2341  0.2810055E+02  0.4513858E+02  0.2810050E+02  0.0000000E+00
Ar 2342  0.3086689E+02  0.4729339E+02  0.2818260E+02  0.0000000E+00
Ar 2343  0.3081981E+02  0.4449231E+02  0.3081974E+02  0.0000000E+00
Ar 2344  0.2818268E+02  0.4729337E+02  0.3086679E+02  0.0000000E+00
Ar 2345  0.2813865E+02  0.4421003E+02  0.3364924E+02  0.0000000E+00
Ar 2346  0.3076672E+02  0.4710698E+02  0.3348088E+02  0.0000000E+00
Ar 2347  0.3138110E+02  0.4451694E+02  0.3630678E+02  0.0000000E+00
Ar 2348  0.2804507E+02  0.4721649E+02  0.3607796E+02  0.0000000E+00
Ar 2349  0.2834398E+02  0.4457206E+02  0.3900912E+02  0.0000000E+00
Ar 2350  0.3083208E+02  0.4717524E+02  0.3912780E+02  0.0000000E+00
Ar 2351  0.3088444E+02  0.4437470E+02  0.4175391E+02  0.0000000E+00
Ar 2352  0.2817456E+02  0.4713399E+02  0.4157368E+02  0.0000000E+00
Ar 2353  0.2781291E+02  0.4441724E+02  0.4441703E+02  0.0000000E+00
Ar 2354  0.3087882E+02  0.4724739E+02  0.4445314E+02  0.0000000E+00
Ar 2355  0.3087884E+02  0.4445485E+02  0.4724921E+02  0.0000000E+00
Ar 2356  0.2831417E+02  0.4737174E+02  0.4737040E+02  0.0000000E+00
Ar 2357  0.2802449E+02  0.4440847E+02  0.4963574E+02  0.0000000E+00
Ar 2358  0.3107314E+02  0.4724139E+02  0.4993716E+02  0.0000000E+00
Ar 2359  0.3045132E+02  0.4458280E+02  0.5271049E+02  0.0000000E+00
Ar 2360  0.2822713E+02  0.4736897E+02  0.5272807E+02  0.0000000E+00
Ar 2361  0.2858649E+02  0.4986063E+02  0.5543113E+02  0.0000000E+00
Ar 2362  0.3097334E+02  0.5272124E+02  0.5966509E+00  0.0000000E+00
Ar 2363  0.3065040E+02  0.4981562E+02  0.3377689E+01  0.0000000E+00
Ar 2364  0.2815619E+02  0.5293939E+02  0.3058093E+01  0.0000000E+00
Ar 2365  0.2791678E+02  0.4992547E+02  0.5773977E+01  0.0000000E+00
Ar 2366  0.3068206E+02  0.5261680E+02  0.6118261E+01  0.0000000E+00
Ar 2367  0.3062308E+02  0.4999467E+02  0.8832570E+01  0.0000000E+00
Ar 2368  0.2779699E+02  0.5233401E+02  0.8984838E+01  0.0000000E+00
Ar 2369  0.2757154E+02  0.4996038E+02  0.1160742E+02  0.0000000E+00
Ar 2370  0.3077694E+02  0.5269673E+02  0.1159495E+02  0.0000000E+00
Ar 2371  0.3076164E+02  0.4976460E+02  0.1444852E+02  0.0000000E+00
Ar 2372  0.2802092E+02  0.5246571E+02  0.1412725E+02  0.0000000E+00
Ar 2373  0.2796650E+02  0.4998131E+02  0.1701050E+02  0.0000000E+00
Ar 2374  0.3071883E+02  0.5264310E+02  0.1719020E+02  0.0000000E+00
Ar 2375  0.3045059E+02  0.5011923E+02  0.1975188E+02  0.0000000E+00
Ar 2376  0.2787210E+02  0.5284283E+02  0.1963879E+02  0.0000000E+00
Ar 2377  0.2798576E+02  0.5011543E+02  0.2265575E+02  0.0000000E+00
Ar 2378  0.3047788E+02  0.5272420E+02  0.2214651E+02  0.0000000E+00
Ar 2379  0.3116219E+02  0.4980069E+02  0.2525946E+02  0.0000000E+00
Ar 2380  0.2835781E+02  0.5251863E+02  0.2518169E+02  0.0000000E+00
Ar 2381  0.2786319E+02  0.4978989E+02  0.2786314E+02  0.0000000E+00
Ar 2382  0.3109157E+02  0.5294926E+02  0.2844864E+02  0.0000000E+00
Ar 2383  0.3067734E+02  0.4998040E+02  0.3067723E+02  0.0000000E+00
Ar 2384  0.2844866E+02  0.5294921E+02  0.3109148E+02  0.0000000E+00
Ar 2385  0.2820163E+02  0.4993374E+02  0.3347295E+02  0.0000000E+00
Ar 2386  0.3110167E+02  0.5243402E+02  0.3401187E+02  0.0000000E+00
Ar 2387  0.3080565E+02  0.5000378E+02  0.3664487E+02  0.0000000E+00
Ar 2388  0.2771679E+02  0.5279442E+02  0.3645919E+02  0.0000000E+00
Ar 2389  0.2795522E+02  0.5009000E+02  0.3890656E+02  0.0000000E+00
Ar 2390  0.3093606E+02  0.5294036E+02  0.3874188E+02  0.0000000E+00
Ar 2391  0.3085590E+02  0.5018369E+02  0.4176190E+02  0.0000000E+00
Ar 2392  0.2809124E+02  0.5293045E+02  0.4150977E+02  0.0000000E+00
Ar 2393  0.2802813E+02  0.4963672E+02  0.4440908E+02  0.0000000E+00
Ar 2394  0.3045737E+02  0.5271110E+02  0.4458051E+02  0.0000000E+00
Ar 2395  0.3107400E+02  0.4994202E+02  0.4723636E+02  0.0000000E+00
Ar 2396  0.2822437E+02  0.5271782E+02  0.4735418E+02  0.0000000E+00
Ar 2397  0.2794680E+02  0.5017736E+02  0.5017200E+02  0.0000000E+00
Ar 2398  0.3099379E+02  0.5254782E+02  0.4972785E+02  0.0000000E+00
Ar 2399  0.3098201E+02  0.4972208E+02  0.5254470E+02  0.0000000E+00
Ar 2400  0.2827932E+02  0.5301742E+02  0.5302865E+02  0.0000000E+00
Ar 2401  0.3338077E+02  0.5562144E+02  0.5560726E+02  0.0000000E+00
Ar 2402  0.3558742E+02  0.3112264E+01  0.5485364E+00  0.0000000E+00
Ar 2403  0.3569083E+02  0.5025623E+00  0.3175455E+01  0.0000000E+00
Ar 2404  0.3322035E+02  0.3581837E+01  0.3577983E+01  0.0000000E+00
Ar 2405  0.3414178E+02  0.5557858E+02  0.6840573E+01  0.0000000E+00
Ar 2406  0.3594639E+02  0.3579039E+01  0.6109052E+01  0.0000000E+00
Ar 2407  0.3652790E+02  0.3734624E+00  0.9614474E+01  0.0000000E+00
Ar 2408  0.3341981E+02  0.3066465E+01  0.8775815E+01  0.0000000E+00
Ar 2409  0.3342814E+02  0.5560277E+02  0.1143315E+02  0.0000000E+00
Ar 2410  0.3629579E+02  0.3415127E+01  0.1165320E+02  0.0000000E+00
Ar 2411  0.3675641E+02  0.7215305E+00  0.1476232E+02  0.0000000E+00
Ar 2412  0.3351959E+02  0.3387105E+01  0.1413569E+02  0.0000000E+00
Ar 2413  0.3337336E+02  0.5553016E+02  0.1627999E+02  0.0000000E+00
Ar 2414  0.3601274E+02  0.3213438E+01  0.1722880E+02  0.0000000E+00
Ar 2415  0.3608465E+02  0.5164606E+00  0.1994639E+02  0.0000000E+00
Ar 2416  0.3365583E+02  0.2972878E+01  0.1969567E+02  0.0000000E+00
Ar 2417  0.3361942E+02  0.5559800E+02  0.2271514E+02  0.0000000E+00
Ar 2418  0.3638679E+02  0.3439970E+01  0.2269673E+02  0.0000000E+00
Ar 2419  0.3613493E+02  0.5563886E+02  0.2497917E+02  0.0000000E+00
Ar 2420  0.3347311E+02  0.3393067E+01  0.2482957E+02  0.0000000E+00
Ar 2421  0.3369615E+02  0.5765248E+00  0.2822119E+02  0.0000000E+00
Ar 2422  0.3616060E+02  0.3472110E+01  0.2762319E+02  0.0000000E+00
Ar 2423  0.3616234E+02  0.5552145E+02  0.3102204E+02  0.0000000E+00
Ar 2424  0.3359368E+02  0.3577608E+01  0.3067307E+02  0.0000000E+00
Ar 2425  0.3357958E+02  0.5494330E+02  0.3357942E+02  0.0000000E+00
Ar 2426  0.3618496E+02  0.3303519E+01  0.3344961E+02  0.0000000E+00
Ar 2427  0.3587898E+02  0.8643764E+00  0.3587954E+02  0.0000000E+00
Ar 2428  0.3344964E+02  0.3303713E+01  0.3618478E+02  0.0000000E+00
Ar 2429  0.3460773E+02  0.5577808E+02  0.3956872E+02  0.0000000E+00
Ar 2430  0.3646671E+02  0.3469921E+01  0.3903314E+02  0.0000000E+00
Ar 2431  0.3648059E+02  0.5204650E+00  0.4203561E+02  0.0000000E+00
Ar 2432  0.3364166E+02  0.3488388E+01  0.4174791E+02  0.0000000E+00
Ar 2433  0.3330436E+02  0.6340340E+00  0.4419985E+02  0.0000000E+00
Ar 2434  0.3619329E+02  0.3481801E+01  0.4421863E+02  0.0000000E+00
Ar 2435  0.3574058E+02  0.5559841E+02  0.4660823E+02  0.0000000E+00
Ar 2436  0.3351235E+02  0.3059101E+01  0.4704152E+02  0.0000000E+00
Ar 2437  0.3376747E+02  0.6672838E+00  0.4978446E+02  0.0000000E+00
Ar 2438  0.3677052E+02  0.3365708E+01  0.4988038E+02  0.0000000E+00
Ar 2439  0.3574416E+02  0.5559724E+02  0.5277642E+02  0.0000000E+00
Ar 2440  0.3357476E+02  0.3757105E+01  0.5286965E+02  0.0000000E+00
Ar 2441  0.3417518E+02  0.6821148E+01  0.5557774E+02  0.0000000E+00
Ar 2442  0.3651558E+02  0.9631240E+01  0.3909947E+00  0.0000000E+00
Ar 2443  0.3596643E+02  0.6097080E+01  0.3552636E+01  0.0000000E+00
Ar 2444  0.3342744E+02  0.8778824E+01  0.3065293E+01  0.0000000E+00
Ar 2445  0.3318958E+02  0.6198831E+01  0.6195458E+01  0.0000000E+00
Ar 2446  0.3606469E+02  0.8828112E+01  0.5947699E+01  0.0000000E+00
Ar 2447  0.3606159E+02  0.5947784E+01  0.8831758E+01  0.0000000E+00
Ar 2448  0.3332377E+02  0.8807865E+01  0.8807379E+01  0.0000000E+00
Ar 2449  0.3339715E+02  0.5966937E+01  0.1138515E+02  0.0000000E+00
Ar 2450  0.3593577E+02  0.8639964E+01  0.1164597E+02  0.0000000E+00
Ar 2451  0.3625669E+02  0.6083779E+01  0.1452916E+02  0.0000000E+00
Ar 2452  0.3353293E+02  0.8589146E+01  0.1436415E+02  0.0000000E+00
Ar 2453  0.3349496E+02  0.6048664E+01  0.1701629E+02  0.0000000E+00
Ar 2454  0.3613899E+02  0.8543402E+01  0.1696823E+02  0.0000000E+00
Ar 2455  0.3618979E+02  0.5785080E+01  0.1974757E+02  0.0000000E+00
Ar 2456  0.3345959E+02  0.8538951E+01  0.1962383E+02  0.0000000E+00
Ar 2457  0.3326526E+02  0.5767504E+01  0.2227006E+02  0.0000000E+00
Ar 2458  0.3620508E+02  0.8626368E+01  0.2234593E+02  0.0000000E+00
Ar 2459  0.3578313E+02  0.6240920E+01  0.2498560E+02  0.0000000E+00
Ar 2460  0.3336872E+02  0.8818514E+01  0.2504228E+02  0.0000000E+00
Ar 2461  0.3363342E+02  0.6301232E+01  0.2852517E+02  0.0000000E+00
Ar 2462  0.3622559E+02  0.9045035E+01  0.2796060E+02  0.0000000E+00
Ar 2463  0.3631678E+02  0.6737231E+01  0.3072362E+02  0.0000000E+00
Ar 2464  0.3338892E+02  0.9350297E+01  0.3072510E+02  0.0000000E+00
Ar 2465  0.3322154E+02  0.6425730E+01  0.3322154E+02  0.0000000E+00
Ar 2466  0.3659295E+02  0.9075007E+01  0.3343103E+02  0.0000000E+00
Ar 2467  0.3623200E+02  0.6616248E+01  0.3623208E+02  0.0000000E+00
Ar 2468  0.3343101E+02  0.9074936E+01  0.3659300E+02  0.0000000E+00
Ar 2469  0.3342354E+02  0.6348972E+01  0.3874984E+02  0.0000000E+00
Ar 2470  0.3625218E+02  0.9175319E+01  0.3893191E+02  0.0000000E+00
Ar 2471  0.3608512E+02  0.6593283E+01  0.4124937E+02  0.0000000E+00
Ar 2472  0.3333524E+02  0.8690711E+01  0.4197536E+02  0.0000000E+00
Ar 2473  0.3330025E+02  0.6116184E+01  0.4459990E+02  0.0000000E+00
Ar 2474  0.3588902E+02  0.8983594E+01  0.4477773E+02  0.0000000E+00
Ar 2475  0.3648767E+02  0.5769654E+01  0.4708906E+02  0.0000000E+00
Ar 2476  0.3372866E+02  0.8884564E+01  0.4738226E+02  0.0000000E+00
Ar 2477  0.3355877E+02  0.6089311E+01  0.4946289E+02  0.0000000E+00
Ar 2478  0.3631088E+02  0.8841188E+01  0.5009191E+02  0.0000000E+00
Ar 2479  0.3637868E+02  0.6644249E+01  0.5281078E+02  0.0000000E+00
Ar 2480  0.3345514E+02  0.8790717E+01  0.5257432E+02  0.0000000E+00
Ar 2481  0.3342906E+02  0.1142793E+02  0.5560208E+02  0.0000000E+00
Ar 2482  0.3675568E+02  0.1476336E+02  0.7220451E+00  0.0000000E+00
Ar 2483  0.3629565E+02  0.1165538E+02  0.3419615E+01  0.0000000E+00
Ar 2484  0.3351991E+02  0.1413580E+02  0.3387170E+01  0.0000000E+00
Ar 2485  0.3339778E+02  0.1138676E+02  0.5968412E+01  0.0000000E+00
Ar 2486  0.3625706E+02  0.1453126E+02  0.6085312E+01  0.0000000E+00
Ar 2487  0.3593620E+02  0.1164702E+02  0.8640666E+01  0.0000000E+00
Ar 2488  0.3353245E+02  0.1436438E+02  0.8589766E+01  0.0000000E+00
Ar 2489  0.3356550E+02  0.1160885E+02  0.1160889E+02  0.0000000E+00
Ar 2490  0.3609162E+02  0.1420211E+02  0.1145554E+02  0.0000000E+00
Ar 2491  0.3609166E+02  0.1145543E+02  0.1420202E+02  0.0000000E+00
Ar 2492  0.3350495E+02  0.1403635E+02  0.1403637E+02  0.0000000E+00
Ar 2493  0.3357048E+02  0.1123549E+02  0.1692598E+02  0.0000000E+00
Ar 2494  0.3612807E+02  0.1421190E+02  0.1688473E+02  0.0000000E+00
Ar 2495  0.3595291E+02  0.1153368E+02  0.1984656E+02  0.0000000E+00
Ar 2496  0.3330077E+02  0.1428473E+02  0.1944805E+02  0.0000000E+00
Ar 2497  0.3334143E+02  0.1151760E+02  0.2224346E+02  0.0000000E+00
Ar 2498  0.3608568E+02  0.1420358E+02  0.2262183E+02  0.0000000E+00
Ar 2499  0.3633431E+02  0.1134834E+02  0.2498292E+02  0.0000000E+00
Ar 2500  0.3361760E+02  0.1392331E+02  0.2517273E+02  0.0000000E+00
Ar 2501  0.3329180E+02  0.1142378E+02  0.2784497E+02  0.0000000E+00
Ar 2502  0.3619536E+02  0.1380603E+02  0.2799439E+02  0.0000000E+00
Ar 2503  0.3630997E+02  0.1131332E+02  0.3076876E+02  0.0000000E+00
Ar 2504  0.3362824E+02  0.1407075E+02  0.3100800E+02  0.0000000E+00
Ar 2505  0.3383448E+02  0.1151960E+02  0.3383447E+02  0.0000000E+00
Ar 2506  0.3635911E+02  0.1425504E+02  0.3353248E+02  0.0000000E+00
Ar 2507  0.3652434E+02  0.1178248E+02  0.3652429E+02  0.0000000E+00
Ar 2508  0.3353250E+02  0.1425509E+02  0.3635903E+02  0.0000000E+00
Ar 2509  0.3327346E+02  0.1159069E+02  0.3912260E+02  0.0000000E+00
Ar 2510  0.3645880E+02  0.1443445E+02  0.3908766E+02  0.0000000E+00
Ar 2511  0.3626975E+02  0.1164243E+02  0.4170590E+02  0.0000000E+00
Ar 2512  0.3345423E+02  0.1435337E+02  0.4156272E+02  0.0000000E+00
Ar 2513  0.3347543E+02  0.1182621E+02  0.4437757E+02  0.0000000E+00
Ar 2514  0.3631317E+02  0.1442583E+02  0.4450904E+02  0.0000000E+00
Ar 2515  0.3640976E+02  0.1175056E+02  0.4717858E+02  0.0000000E+00
Ar 2516  0.3317691E+02  0.1445809E+02  0.4724839E+02  0.0000000E+00
Ar 2517  0.3338720E+02  0.1164398E+02  0.4990638E+02  0.0000000E+00
Ar 2518  0.3650752E+02  0.1423865E+02  0.5013337E+02  0.0000000E+00
Ar 2519  0.3627908E+02  0.1157316E+02  0.5288483E+02  0.0000000E+00
Ar 2520  0.3359130E+02  0.1403254E+02  0.5239829E+02  0.0000000E+00
Ar 2521  0.3337310E+02  0.1628011E+02  0.5553016E+02  0.0000000E+00
Ar 2522  0.3608460E+02  0.1994644E+02  0.5164204E+00  0.0000000E+00
Ar 2523  0.3601288E+02  0.1722913E+02  0.3213761E+01  0.0000000E+00
Ar 2524  0.3365579E+02  0.1969564E+02  0.2972889E+01  0.0000000E+00
Ar 2525  0.3349475E+02  0.1701649E+02  0.6048652E+01  0.0000000E+00
Ar 2526  0.3618978E+02  0.1974758E+02  0.5785154E+01  0.0000000E+00
Ar 2527  0.3613905E+02  0.1696932E+02  0.8544540E+01  0.0000000E+00
Ar 2528  0.3345960E+02  0.1962384E+02  0.8538988E+01  0.0000000E+00
Ar 2529  0.3357049E+02  0.1692608E+02  0.1123566E+02  0.0000000E+00
Ar 2530  0.3595290E+02  0.1984653E+02  0.1153370E+02  0.0000000E+00
Ar 2531  0.3612811E+02  0.1688472E+02  0.1421195E+02  0.0000000E+00
Ar 2532  0.3330079E+02  0.1944809E+02  0.1428481E+02  0.0000000E+00
Ar 2533  0.3325823E+02  0.1703628E+02  0.1703630E+02  0.0000000E+00
Ar 2534  0.3661219E+02  0.1994488E+02  0.1692036E+02  0.0000000E+00
Ar 2535  0.3661218E+02  0.1692033E+02  0.1994488E+02  0.0000000E+00
Ar 2536  0.3384420E+02  0.1950332E+02  0.1950334E+02  0.0000000E+00
Ar 2537  0.3348675E+02  0.1704916E+02  0.2270178E+02  0.0000000E+00
Ar 2538  0.3617939E+02  0.1959115E+02  0.2249351E+02  0.0000000E+00
Ar 2539  0.3649172E+02  0.1708402E+02  0.2535525E+02  0.0000000E+00
Ar 2540  0.3372393E+02  0.1988852E+02  0.2530778E+02  0.0000000E+00
Ar 2541  0.3387457E+02  0.1685086E+02  0.2765388E+02  0.0000000E+00
Ar 2542  0.3626512E+02  0.1958774E+02  0.2812155E+02  0.0000000E+00
Ar 2543  0.3620020E+02  0.1672966E+02  0.3072367E+02  0.0000000E+00
Ar 2544  0.3359991E+02  0.2005699E+02  0.3076340E+02  0.0000000E+00
Ar 2545  0.3369851E+02  0.1744018E+02  0.3369850E+02  0.0000000E+00
Ar 2546  0.3642778E+02  0.1992271E+02  0.3361782E+02  0.0000000E+00
Ar 2547  0.3620102E+02  0.1662376E+02  0.3620096E+02  0.0000000E+00
Ar 2548  0.3361786E+02  0.1992273E+02  0.3642777E+02  0.0000000E+00
Ar 2549  0.3362658E+02  0.1695678E+02  0.3900393E+02  0.0000000E+00
Ar 2550  0.3620226E+02  0.1992387E+02  0.3907224E+02  0.0000000E+00
Ar 2551  0.3631656E+02  0.1735250E+02  0.4173485E+02  0.0000000E+00
Ar 2552  0.3341721E+02  0.1974890E+02  0.4203457E+02  0.0000000E+00
Ar 2553  0.3322197E+02  0.1689848E+02  0.4467810E+02  0.0000000E+00
Ar 2554  0.3634970E+02  0.1993503E+02  0.4477614E+02  0.0000000E+00
Ar 2555  0.3648160E+02  0.1677260E+02  0.4734085E+02  0.0000000E+00
Ar 2556  0.3337111E+02  0.1958568E+02  0.4722232E+02  0.0000000E+00
Ar 2557  0.3370313E+02  0.1679279E+02  0.4996056E+02  0.0000000E+00
Ar 2558  0.3616746E+02  0.1952735E+02  0.4968071E+02  0.0000000E+00
Ar 2559  0.3611207E+02  0.1680370E+02  0.5293747E+02  0.0000000E+00
Ar 2560  0.3352117E+02  0.1953716E+02  0.5247980E+02  0.0000000E+00
Ar 2561  0.3361944E+02  0.2271516E+02  0.5559803E+02  0.0000000E+00
Ar 2562  0.3613491E+02  0.2497922E+02  0.5563889E+02  0.0000000E+00
Ar 2563  0.3638704E+02  0.2269690E+02  0.3439929E+01  0.0000000E+00
Ar 2564  0.3347313E+02  0.2482954E+02  0.3393085E+01  0.0000000E+00
Ar 2565  0.3326528E+02  0.2227003E+02  0.5767503E+01  0.0000000E+00
Ar 2566  0.3578316E+02  0.2498555E+02  0.6240965E+01  0.0000000E+00
Ar 2567  0.3620508E+02  0.2234589E+02  0.8626376E+01  0.0000000E+00
Ar 2568  0.3336873E+02  0.2504225E+02  0.8818503E+01  0.0000000E+00
Ar 2569  0.3334142E+02  0.2224343E+02  0.1151760E+02  0.0000000E+00
Ar 2570  0.3633414E+02  0.2498286E+02  0.1134847E+02  0.0000000E+00
Ar 2571  0.3608571E+02  0.2262184E+02  0.1420360E+02  0.0000000E+00
Ar 2572  0.3361758E+02  0.2517270E+02  0.1392332E+02  0.0000000E+00
Ar 2573  0.3348677E+02  0.2270176E+02  0.1704919E+02  0.0000000E+00
Ar 2574  0.3649174E+02  0.2535523E+02  0.1708404E+02  0.0000000E+00
Ar 2575  0.3617939E+02  0.2249348E+02  0.1959117E+02  0.0000000E+00
Ar 2576  0.3372393E+02  0.2530776E+02  0.1988854E+02  0.0000000E+00
Ar 2577  0.3348732E+02  0.2289662E+02  0.2289665E+02  0.0000000E+00
Ar 2578  0.3635772E+02  0.2526411E+02  0.2249718E+02  0.0000000E+00
Ar 2579  0.3635771E+02  0.2249715E+02  0.2526413E+02  0.0000000E+00
Ar 2580  0.3376423E+02  0.2554036E+02  0.2554039E+02  0.0000000E+00
Ar 2581  0.3356243E+02  0.2250118E+02  0.2788736E+02  0.0000000E+00
Ar 2582  0.3642758E+02  0.2554328E+02  0.2833033E+02  0.0000000E+00
Ar 2583  0.3651020E+02  0.2247689E+02  0.3068288E+02  0.0000000E+00
Ar 2584  0.3383192E+02  0.2503409E+02  0.3069215E+02  0.0000000E+00
Ar 2585  0.3347877E+02  0.2253051E+02  0.3347875E+02  0.0000000E+00
Ar 2586  0.3658677E+02  0.2516323E+02  0.3340070E+02  0.0000000E+00
Ar 2587  0.3642432E+02  0.2248033E+02  0.3642431E+02  0.0000000E+00
Ar 2588  0.3340072E+02  0.2516324E+02  0.3658674E+02  0.0000000E+00
Ar 2589  0.3355846E+02  0.2243308E+02  0.3908690E+02  0.0000000E+00
Ar 2590  0.3615494E+02  0.2521951E+02  0.3925065E+02  0.0000000E+00
Ar 2591  0.3635421E+02  0.2255882E+02  0.4192698E+02  0.0000000E+00
Ar 2592  0.3361218E+02  0.2529776E+02  0.4184173E+02  0.0000000E+00
Ar 2593  0.3393740E+02  0.2263283E+02  0.4468405E+02  0.0000000E+00
Ar 2594  0.3649944E+02  0.2537968E+02  0.4467789E+02  0.0000000E+00
Ar 2595  0.3669354E+02  0.2247633E+02  0.4724407E+02  0.0000000E+00
Ar 2596  0.3368244E+02  0.2549810E+02  0.4712059E+02  0.0000000E+00
Ar 2597  0.3374600E+02  0.2236212E+02  0.4996742E+02  0.0000000E+00
Ar 2598  0.3639999E+02  0.2508072E+02  0.5004432E+02  0.0000000E+00
Ar 2599  0.3632619E+02  0.2261415E+02  0.5296283E+02  0.0000000E+00
Ar 2600  0.3337518E+02  0.2501162E+02  0.5253404E+02  0.0000000E+00
Ar 2601  0.3369616E+02  0.2822118E+02  0.5764681E+00  0.0000000E+00
Ar 2602  0.3616235E+02  0.3102206E+02  0.5552151E+02  0.0000000E+00
Ar 2603  0.3616070E+02  0.2762307E+02  0.3472105E+01  0.0000000E+00
Ar 2604  0.3359368E+02  0.3067303E+02  0.3577631E+01  0.0000000E+00
Ar 2605  0.3363346E+02  0.2852514E+02  0.6301234E+01  0.0000000E+00
Ar 2606  0.3631680E+02  0.3072363E+02  0.6737265E+01  0.0000000E+00
Ar 2607  0.3622561E+02  0.2796055E+02  0.9044972E+01  0.0000000E+00
Ar 2608  0.3338892E+02  0.3072506E+02  0.9350295E+01  0.0000000E+00
Ar 2609  0.3329181E+02  0.2784494E+02  0.1142379E+02  0.0000000E+00
Ar 2610  0.3630994E+02  0.3076875E+02  0.1131332E+02  0.0000000E+00
Ar 2611  0.3619529E+02  0.2799438E+02  0.1380610E+02  0.0000000E+00
Ar 2612  0.3362824E+02  0.3100796E+02  0.1407077E+02  0.0000000E+00
Ar 2613  0.3387457E+02  0.2765387E+02  0.1685089E+02  0.0000000E+00
Ar 2614  0.3620017E+02  0.3072364E+02  0.1672971E+02  0.0000000E+00
Ar 2615  0.3626513E+02  0.2812153E+02  0.1958775E+02  0.0000000E+00
Ar 2616  0.3359990E+02  0.3076337E+02  0.2005701E+02  0.0000000E+00
Ar 2617  0.3356243E+02  0.2788734E+02  0.2250120E+02  0.0000000E+00
Ar 2618  0.3651019E+02  0.3068285E+02  0.2247690E+02  0.0000000E+00
Ar 2619  0.3642759E+02  0.2833031E+02  0.2554330E+02  0.0000000E+00
Ar 2620  0.3383192E+02  0.3069212E+02  0.2503412E+02  0.0000000E+00
Ar 2621  0.3341162E+02  0.2823408E+02  0.2823411E+02  0.0000000E+00
Ar 2622  0.3647968E+02  0.3082475E+02  0.2817156E+02  0.0000000E+00
Ar 2623  0.3647968E+02  0.2817153E+02  0.3082478E+02  0.0000000E+00
Ar 2624  0.3356553E+02  0.3102629E+02  0.3102632E+02  0.0000000E+00
Ar 2625  0.3359367E+02  0.2775080E+02  0.3359365E+02  0.0000000E+00
Ar 2626  0.3639437E+02  0.3075395E+02  0.3368889E+02  0.0000000E+00
Ar 2627  0.3644603E+02  0.2802447E+02  0.3644600E+02  0.0000000E+00
Ar 2628  0.3368894E+02  0.3075395E+02  0.3639433E+02  0.0000000E+00
Ar 2629  0.3372878E+02  0.2818074E+02  0.3892587E+02  0.0000000E+00
Ar 2630  0.3626633E+02  0.3113743E+02  0.3937719E+02  0.0000000E+00
Ar 2631  0.3654507E+02  0.2855183E+02  0.4180190E+02  0.0000000E+00
Ar 2632  0.3374358E+02  0.3093942E+02  0.4181485E+02  0.0000000E+00
Ar 2633  0.3364928E+02  0.2813859E+02  0.4421006E+02  0.0000000E+00
Ar 2634  0.3630683E+02  0.3138105E+02  0.4451699E+02  0.0000000E+00
Ar 2635  0.3607799E+02  0.2804502E+02  0.4721652E+02  0.0000000E+00
Ar 2636  0.3348092E+02  0.3076666E+02  0.4710701E+02  0.0000000E+00
Ar 2637  0.3347305E+02  0.2820148E+02  0.4993380E+02  0.0000000E+00
Ar 2638  0.3664496E+02  0.3080565E+02  0.5000383E+02  0.0000000E+00
Ar 2639  0.3645927E+02  0.2771673E+02  0.5279444E+02  0.0000000E+00
Ar 2640  0.3401202E+02  0.3110148E+02  0.5243415E+02  0.0000000E+00
Ar 2641  0.3357954E+02  0.3357940E+02  0.5494329E+02  0.0000000E+00
Ar 2642  0.3587942E+02  0.3587907E+02  0.8644333E+00  0.0000000E+00
Ar 2643  0.3618484E+02  0.3344954E+02  0.3303688E+01  0.0000000E+00
Ar 2644  0.3344966E+02  0.3618489E+02  0.3303583E+01  0.0000000E+00
Ar 2645  0.3322155E+02  0.3322151E+02  0.6425738E+01  0.0000000E+00
Ar 2646  0.3623204E+02  0.3623205E+02  0.6616277E+01  0.0000000E+00
Ar 2647  0.3659300E+02  0.3343102E+02  0.9074940E+01  0.0000000E+00
Ar 2648  0.3343098E+02  0.3659295E+02  0.9074983E+01  0.0000000E+00
Ar 2649  0.3383447E+02  0.3383443E+02  0.1151960E+02  0.0000000E+00
Ar 2650  0.3652434E+02  0.3652421E+02  0.1178254E+02  0.0000000E+00
Ar 2651  0.3635905E+02  0.3353244E+02  0.1425510E+02  0.0000000E+00
Ar 2652  0.3353247E+02  0.3635905E+02  0.1425506E+02  0.0000000E+00
Ar 2653  0.3369851E+02  0.3369847E+02  0.1744020E+02  0.0000000E+00
Ar 2654  0.3620099E+02  0.3620098E+02  0.1662377E+02  0.0000000E+00
Ar 2655  0.3642779E+02  0.3361780E+02  0.1992274E+02  0.0000000E+00
Ar 2656  0.3361784E+02  0.3642777E+02  0.1992274E+02  0.0000000E+00
Ar 2657  0.3347877E+02  0.3347873E+02  0.2253052E+02  0.0000000E+00
Ar 2658  0.3642432E+02  0.3642429E+02  0.2248033E+02  0.0000000E+00
Ar 2659  0.3658677E+02  0.3340068E+02  0.2516325E+02  0.0000000E+00
Ar 2660  0.3340073E+02  0.3658672E+02  0.2516326E+02  0.0000000E+00
Ar 2661  0.3359367E+02  0.3359362E+02  0.2775082E+02  0.0000000E+00
Ar 2662  0.3644611E+02  0.3644606E+02  0.2802452E+02  0.0000000E+00
Ar 2663  0.3639436E+02  0.3368886E+02  0.3075397E+02  0.0000000E+00
Ar 2664  0.3368893E+02  0.3639431E+02  0.3075396E+02  0.0000000E+00
Ar 2665  0.3401865E+02  0.3401857E+02  0.3401859E+02  0.0000000E+00
Ar 2666  0.3633442E+02  0.3633435E+02  0.3372280E+02  0.0000000E+00
Ar 2667  0.3633439E+02  0.3372280E+02  0.3633435E+02  0.0000000E+00
Ar 2668  0.3372286E+02  0.3633429E+02  0.3633431E+02  0.0000000E+00
Ar 2669  0.3359198E+02  0.3359191E+02  0.3886989E+02  0.0000000E+00
Ar 2670  0.3627516E+02  0.3627502E+02  0.3901321E+02  0.0000000E+00
Ar 2671  0.3651665E+02  0.3373199E+02  0.4171439E+02  0.0000000E+00
Ar 2672  0.3373199E+02  0.3651663E+02  0.4171443E+02  0.0000000E+00
Ar 2673  0.3358800E+02  0.3358800E+02  0.4430075E+02  0.0000000E+00
Ar 2674  0.3622700E+02  0.3622703E+02  0.4433041E+02  0.0000000E+00
Ar 2675  0.3631216E+02  0.3375795E+02  0.4738188E+02  0.0000000E+00
Ar 2676  0.3375804E+02  0.3631193E+02  0.4738165E+02  0.0000000E+00
Ar 2677  0.3342973E+02  0.3342962E+02  0.4972271E+02  0.0000000E+00
Ar 2678  0.3629549E+02  0.3629529E+02  0.5003277E+02  0.0000000E+00
Ar 2679  0.3676081E+02  0.3370534E+02  0.5281018E+02  0.0000000E+00
Ar 2680  0.3370559E+02  0.3676057E+02  0.5281018E+02  0.0000000E+00
Ar 2681  0.3460813E+02  0.3956864E+02  0.5577812E+02  0.0000000E+00
Ar 2682  0.3647995E+02  0.4203639E+02  0.5194637E+00  0.0000000E+00
Ar 2683  0.3646698E+02  0.3903265E+02  0.3470022E+01  0.0000000E+00
Ar 2684  0.3364163E+02  0.4174823E+02  0.3487907E+01  0.0000000E+00
Ar 2685  0.3342345E+02  0.3874978E+02  0.6349053E+01  0.0000000E+00
Ar 2686  0.3608503E+02  0.4124925E+02  0.6592953E+01  0.0000000E+00
Ar 2687  0.3625226E+02  0.3893171E+02  0.9175551E+01  0.0000000E+00
Ar 2688  0.3333529E+02  0.4197478E+02  0.8691322E+01  0.0000000E+00
Ar 2689  0.3327334E+02  0.3912274E+02  0.1159065E+02  0.0000000E+00
Ar 2690  0.3626965E+02  0.4170606E+02  0.1164223E+02  0.0000000E+00
Ar 2691  0.3645876E+02  0.3908768E+02  0.1443439E+02  0.0000000E+00
Ar 2692  0.3345427E+02  0.4156284E+02  0.1435321E+02  0.0000000E+00
Ar 2693  0.3362655E+02  0.3900399E+02  0.1695672E+02  0.0000000E+00
Ar 2694  0.3631648E+02  0.4173506E+02  0.1735222E+02  0.0000000E+00
Ar 2695  0.3620222E+02  0.3907231E+02  0.1992380E+02  0.0000000E+00
Ar 2696  0.3341720E+02  0.4203465E+02  0.1974882E+02  0.0000000E+00
Ar 2697  0.3355842E+02  0.3908689E+02  0.2243305E+02  0.0000000E+00
Ar 2698  0.3635441E+02  0.4192715E+02  0.2255887E+02  0.0000000E+00
Ar 2699  0.3615504E+02  0.3925070E+02  0.2521956E+02  0.0000000E+00
Ar 2700  0.3361218E+02  0.4184170E+02  0.2529778E+02  0.0000000E+00
Ar 2701  0.3372877E+02  0.3892584E+02  0.2818076E+02  0.0000000E+00
Ar 2702  0.3654538E+02  0.4180215E+02  0.2855180E+02  0.0000000E+00
Ar 2703  0.3626642E+02  0.3937723E+02  0.3113743E+02  0.0000000E+00
Ar 2704  0.3374360E+02  0.4181482E+02  0.3093943E+02  0.0000000E+00
Ar 2705  0.3359198E+02  0.3886987E+02  0.3359192E+02  0.0000000E+00
Ar 2706  0.3651676E+02  0.4171439E+02  0.3373192E+02  0.0000000E+00
Ar 2707  0.3627519E+02  0.3901318E+02  0.3627502E+02  0.0000000E+00
Ar 2708  0.3373209E+02  0.4171434E+02  0.3651657E+02  0.0000000E+00
Ar 2709  0.3391318E+02  0.3891246E+02  0.3891252E+02  0.0000000E+00
Ar 2710  0.3643114E+02  0.4190218E+02  0.3924195E+02  0.0000000E+00
Ar 2711  0.3643112E+02  0.3924193E+02  0.4190223E+02  0.0000000E+00
Ar 2712  0.3390857E+02  0.4207420E+02  0.4207465E+02  0.0000000E+00
Ar 2713  0.3371172E+02  0.3908814E+02  0.4456857E+02  0.0000000E+00
Ar 2714  0.3640325E+02  0.4187036E+02  0.4466582E+02  0.0000000E+00
Ar 2715  0.3657903E+02  0.3900904E+02  0.4711698E+02  0.0000000E+00
Ar 2716  0.3354680E+02  0.4167454E+02  0.4706137E+02  0.0000000E+00
Ar 2717  0.3353457E+02  0.3909294E+02  0.4977315E+02  0.0000000E+00
Ar 2718  0.3643998E+02  0.4157487E+02  0.5021195E+02  0.0000000E+00
Ar 2719  0.3667552E+02  0.3924734E+02  0.5295041E+02  0.0000000E+00
Ar 2720  0.3351176E+02  0.4158737E+02  0.5274187E+02  0.0000000E+00
Ar 2721  0.3331564E+02  0.4421503E+02  0.6391979E+00  0.0000000E+00
Ar 2722  0.3574041E+02  0.4658110E+02  0.5560326E+02  0.0000000E+00
Ar 2723  0.3619404E+02  0.4421869E+02  0.3481574E+01  0.0000000E+00
Ar 2724  0.3351930E+02  0.4704224E+02  0.3058297E+01  0.0000000E+00
Ar 2725  0.3330405E+02  0.4459621E+02  0.6116288E+01  0.0000000E+00
Ar 2726  0.3649798E+02  0.4709546E+02  0.5759677E+01  0.0000000E+00
Ar 2727  0.3588952E+02  0.4477729E+02  0.8983642E+01  0.0000000E+00
Ar 2728  0.3372840E+02  0.4738023E+02  0.8888654E+01  0.0000000E+00
Ar 2729  0.3347532E+02  0.4437757E+02  0.1182596E+02  0.0000000E+00
Ar 2730  0.3640936E+02  0.4717833E+02  0.1175092E+02  0.0000000E+00
Ar 2731  0.3631304E+02  0.4450919E+02  0.1442572E+02  0.0000000E+00
Ar 2732  0.3317729E+02  0.4724872E+02  0.1445767E+02  0.0000000E+00
Ar 2733  0.3322191E+02  0.4467830E+02  0.1689835E+02  0.0000000E+00
Ar 2734  0.3648175E+02  0.4734087E+02  0.1677264E+02  0.0000000E+00
Ar 2735  0.3634972E+02  0.4477614E+02  0.1993506E+02  0.0000000E+00
Ar 2736  0.3337106E+02  0.4722227E+02  0.1958570E+02  0.0000000E+00
Ar 2737  0.3393738E+02  0.4468402E+02  0.2263286E+02  0.0000000E+00
Ar 2738  0.3669355E+02  0.4724403E+02  0.2247637E+02  0.0000000E+00
Ar 2739  0.3649963E+02  0.4467804E+02  0.2537963E+02  0.0000000E+00
Ar 2740  0.3368239E+02  0.4712057E+02  0.2549810E+02  0.0000000E+00
Ar 2741  0.3364925E+02  0.4420999E+02  0.2813861E+02  0.0000000E+00
Ar 2742  0.3607779E+02  0.4721635E+02  0.2804506E+02  0.0000000E+00
Ar 2743  0.3630689E+02  0.4451701E+02  0.3138101E+02  0.0000000E+00
Ar 2744  0.3348092E+02  0.4710693E+02  0.3076672E+02  0.0000000E+00
Ar 2745  0.3358807E+02  0.4430070E+02  0.3358796E+02  0.0000000E+00
Ar 2746  0.3631246E+02  0.4738197E+02  0.3375797E+02  0.0000000E+00
Ar 2747  0.3622717E+02  0.4433038E+02  0.3622692E+02  0.0000000E+00
Ar 2748  0.3375806E+02  0.4738173E+02  0.3631197E+02  0.0000000E+00
Ar 2749  0.3371206E+02  0.4456830E+02  0.3908777E+02  0.0000000E+00
Ar 2750  0.3657942E+02  0.4711679E+02  0.3900842E+02  0.0000000E+00
Ar 2751  0.3640334E+02  0.4466555E+02  0.4187025E+02  0.0000000E+00
Ar 2752  0.3354724E+02  0.4706056E+02  0.4167368E+02  0.0000000E+00
Ar 2753  0.3367820E+02  0.4467674E+02  0.4467689E+02  0.0000000E+00
Ar 2754  0.3655890E+02  0.4729708E+02  0.4446583E+02  0.0000000E+00
Ar 2755  0.3655764E+02  0.4446642E+02  0.4729814E+02  0.0000000E+00
Ar 2756  0.3384062E+02  0.4738710E+02  0.4738647E+02  0.0000000E+00
Ar 2757  0.3398117E+02  0.4435000E+02  0.4980655E+02  0.0000000E+00
Ar 2758  0.3650543E+02  0.4726776E+02  0.4989657E+02  0.0000000E+00
Ar 2759  0.3588858E+02  0.4425129E+02  0.5294485E+02  0.0000000E+00
Ar 2760  0.3359058E+02  0.4705928E+02  0.5289999E+02  0.0000000E+00
Ar 2761  0.3378965E+02  0.4977426E+02  0.6696548E+00  0.0000000E+00
Ar 2762  0.3568841E+02  0.5281149E+02  0.5561082E+02  0.0000000E+00
Ar 2763  0.3677889E+02  0.4989715E+02  0.3379548E+01  0.0000000E+00
Ar 2764  0.3361182E+02  0.5293392E+02  0.3751421E+01  0.0000000E+00
Ar 2765  0.3357394E+02  0.4945904E+02  0.6086751E+01  0.0000000E+00
Ar 2766  0.3635784E+02  0.5282023E+02  0.6673841E+01  0.0000000E+00
Ar 2767  0.3631519E+02  0.5008798E+02  0.8850541E+01  0.0000000E+00
Ar 2768  0.3344519E+02  0.5257492E+02  0.8797828E+01  0.0000000E+00
Ar 2769  0.3338595E+02  0.4990858E+02  0.1164195E+02  0.0000000E+00
Ar 2770  0.3627748E+02  0.5288590E+02  0.1157269E+02  0.0000000E+00
Ar 2771  0.3650737E+02  0.5013334E+02  0.1423841E+02  0.0000000E+00
Ar 2772  0.3359108E+02  0.5239785E+02  0.1403275E+02  0.0000000E+00
Ar 2773  0.3370313E+02  0.4996050E+02  0.1679285E+02  0.0000000E+00
Ar 2774  0.3611237E+02  0.5293750E+02  0.1680338E+02  0.0000000E+00
Ar 2775  0.3616738E+02  0.4968066E+02  0.1952737E+02  0.0000000E+00
Ar 2776  0.3352119E+02  0.5247977E+02  0.1953719E+02  0.0000000E+00
Ar 2777  0.3374596E+02  0.4996739E+02  0.2236216E+02  0.0000000E+00
Ar 2778  0.3632613E+02  0.5296278E+02  0.2261414E+02  0.0000000E+00
Ar 2779  0.3639993E+02  0.5004431E+02  0.2508075E+02  0.0000000E+00
Ar 2780  0.3337515E+02  0.5253400E+02  0.2501168E+02  0.0000000E+00
Ar 2781  0.3347303E+02  0.4993377E+02  0.2820152E+02  0.0000000E+00
Ar 2782  0.3645930E+02  0.5279436E+02  0.2771678E+02  0.0000000E+00
Ar 2783  0.3664487E+02  0.5000371E+02  0.3080574E+02  0.0000000E+00
Ar 2784  0.3401199E+02  0.5243412E+02  0.3110152E+02  0.0000000E+00
Ar 2785  0.3342972E+02  0.4972266E+02  0.3342965E+02  0.0000000E+00
Ar 2786  0.3676051E+02  0.5281012E+02  0.3370562E+02  0.0000000E+00
Ar 2787  0.3629553E+02  0.5003280E+02  0.3629535E+02  0.0000000E+00
Ar 2788  0.3370541E+02  0.5281016E+02  0.3676073E+02  0.0000000E+00
Ar 2789  0.3353475E+02  0.4977320E+02  0.3909309E+02  0.0000000E+00
Ar 2790  0.3667523E+02  0.5295088E+02  0.3924739E+02  0.0000000E+00
Ar 2791  0.3644179E+02  0.5021146E+02  0.4157320E+02  0.0000000E+00
Ar 2792  0.3351297E+02  0.5274159E+02  0.4158734E+02  0.0000000E+00
Ar 2793  0.3398315E+02  0.4980554E+02  0.4434731E+02  0.0000000E+00
Ar 2794  0.3589260E+02  0.5294272E+02  0.4424960E+02  0.0000000E+00
Ar 2795  0.3650470E+02  0.4989599E+02  0.4726774E+02  0.0000000E+00
Ar 2796  0.3358419E+02  0.5289576E+02  0.4705414E+02  0.0000000E+00
Ar 2797  0.3391957E+02  0.5014102E+02  0.5013850E+02  0.0000000E+00
Ar 2798  0.3606511E+02  0.5320685E+02  0.5019594E+02  0.0000000E+00
Ar 2799  0.3607085E+02  0.5020147E+02  0.5320564E+02  0.0000000E+00
Ar 2800  0.3319451E+02  0.5282397E+02  0.5282132E+02  0.0000000E+00
Ar 2801  0.3804726E+02  0.7249637E+00  0.7191417E+00  0.0000000E+00
Ar 2802  0.4089772E+02  0.3477220E+01  0.1005478E+01  0.0000000E+00
Ar 2803  0.4091491E+02  0.1020685E+01  0.3493175E+01  0.0000000E+00
Ar 2804  0.3843114E+02  0.3268843E+01  0.3268902E+01  0.0000000E+00
Ar 2805  0.3898161E+02  0.6439956E+00  0.6289350E+01  0.0000000E+00
Ar 2806  0.4175860E+02  0.3795924E+01  0.6569140E+01  0.0000000E+00
Ar 2807  0.4175218E+02  0.4417230E+00  0.8074412E+01  0.0000000E+00
Ar 2808  0.3909920E+02  0.2869395E+01  0.9044523E+01  0.0000000E+00
Ar 2809  0.3930741E+02  0.5551911E+02  0.1166609E+02  0.0000000E+00
Ar 2810  0.4208770E+02  0.3042394E+01  0.1137696E+02  0.0000000E+00
Ar 2811  0.4183285E+02  0.5544549E+02  0.1410012E+02  0.0000000E+00
Ar 2812  0.3908984E+02  0.3480269E+01  0.1396036E+02  0.0000000E+00
Ar 2813  0.3919487E+02  0.6857336E+00  0.1787781E+02  0.0000000E+00
Ar 2814  0.4165347E+02  0.3126609E+01  0.1647213E+02  0.0000000E+00
Ar 2815  0.4198680E+02  0.5567119E+02  0.1997734E+02  0.0000000E+00
Ar 2816  0.3875086E+02  0.3118168E+01  0.2005237E+02  0.0000000E+00
Ar 2817  0.3881816E+02  0.5093865E+00  0.2255049E+02  0.0000000E+00
Ar 2818  0.4174286E+02  0.3166714E+01  0.2243815E+02  0.0000000E+00
Ar 2819  0.4210406E+02  0.5577800E+02  0.2554029E+02  0.0000000E+00
Ar 2820  0.3905276E+02  0.3252162E+01  0.2511421E+02  0.0000000E+00
Ar 2821  0.3888508E+02  0.5921427E+00  0.2802548E+02  0.0000000E+00
Ar 2822  0.4118360E+02  0.3455534E+01  0.2793183E+02  0.0000000E+00
Ar 2823  0.4086966E+02  0.1042046E+01  0.3087459E+02  0.0000000E+00
Ar 2824  0.3855312E+02  0.3690694E+01  0.3079954E+02  0.0000000E+00
Ar 2825  0.3956813E+02  0.5577809E+02  0.3460796E+02  0.0000000E+00
Ar 2826  0.4174751E+02  0.3488236E+01  0.3364187E+02  0.0000000E+00
Ar 2827  0.4203558E+02  0.5200483E+00  0.3647999E+02  0.0000000E+00
Ar 2828  0.3903272E+02  0.3470008E+01  0.3646709E+02  0.0000000E+00
Ar 2829  0.3912032E+02  0.5576986E+02  0.3912024E+02  0.0000000E+00
Ar 2830  0.4185297E+02  0.3493474E+01  0.3912228E+02  0.0000000E+00
Ar 2831  0.4182260E+02  0.8524066E+00  0.4182164E+02  0.0000000E+00
Ar 2832  0.3912211E+02  0.3493543E+01  0.4185281E+02  0.0000000E+00
Ar 2833  0.3905097E+02  0.5563629E+02  0.4486026E+02  0.0000000E+00
Ar 2834  0.4166508E+02  0.3370825E+01  0.4444556E+02  0.0000000E+00
Ar 2835  0.4198511E+02  0.5583152E+02  0.4702603E+02  0.0000000E+00
Ar 2836  0.3943622E+02  0.3270666E+01  0.4708836E+02  0.0000000E+00
Ar 2837  0.3937683E+02  0.5563987E+02  0.5006888E+02  0.0000000E+00
Ar 2838  0.4153796E+02  0.2892449E+01  0.5071947E+02  0.0000000E+00
Ar 2839  0.4247306E+02  0.5590085E+02  0.5333747E+02  0.0000000E+00
Ar 2840  0.3872441E+02  0.3100193E+01  0.5325030E+02  0.0000000E+00
Ar 2841  0.3899591E+02  0.6304267E+01  0.6260566E+00  0.0000000E+00
Ar 2842  0.4177077E+02  0.8088370E+01  0.4538818E+00  0.0000000E+00
Ar 2843  0.4176275E+02  0.6568534E+01  0.3795003E+01  0.0000000E+00
Ar 2844  0.3910456E+02  0.9047266E+01  0.2873560E+01  0.0000000E+00
Ar 2845  0.3854182E+02  0.6102376E+01  0.6102046E+01  0.0000000E+00
Ar 2846  0.4173012E+02  0.9266764E+01  0.5884420E+01  0.0000000E+00
Ar 2847  0.4173058E+02  0.5884879E+01  0.9267278E+01  0.0000000E+00
Ar 2848  0.3881801E+02  0.8531680E+01  0.8532261E+01  0.0000000E+00
Ar 2849  0.3896919E+02  0.6004022E+01  0.1147795E+02  0.0000000E+00
Ar 2850  0.4179808E+02  0.8830971E+01  0.1169148E+02  0.0000000E+00
Ar 2851  0.4222423E+02  0.6003197E+01  0.1406076E+02  0.0000000E+00
Ar 2852  0.3893479E+02  0.8745364E+01  0.1409871E+02  0.0000000E+00
Ar 2853  0.3876413E+02  0.5863008E+01  0.1702901E+02  0.0000000E+00
Ar 2854  0.4162620E+02  0.8488037E+01  0.1678360E+02  0.0000000E+00
Ar 2855  0.4170243E+02  0.5724298E+01  0.1970544E+02  0.0000000E+00
Ar 2856  0.3881854E+02  0.8701569E+01  0.1979177E+02  0.0000000E+00
Ar 2857  0.3891695E+02  0.5975597E+01  0.2258395E+02  0.0000000E+00
Ar 2858  0.4187694E+02  0.8550744E+01  0.2222133E+02  0.0000000E+00
Ar 2859  0.4172419E+02  0.5768275E+01  0.2523886E+02  0.0000000E+00
Ar 2860  0.3922230E+02  0.8749358E+01  0.2497999E+02  0.0000000E+00
Ar 2861  0.3904218E+02  0.6347316E+01  0.2782511E+02  0.0000000E+00
Ar 2862  0.4196171E+02  0.8842728E+01  0.2798866E+02  0.0000000E+00
Ar 2863  0.4197330E+02  0.6046642E+01  0.3060202E+02  0.0000000E+00
Ar 2864  0.3939704E+02  0.8787611E+01  0.3060763E+02  0.0000000E+00
Ar 2865  0.3874983E+02  0.6349159E+01  0.3342364E+02  0.0000000E+00
Ar 2866  0.4197560E+02  0.8690458E+01  0.3333521E+02  0.0000000E+00
Ar 2867  0.4124953E+02  0.6593461E+01  0.3608524E+02  0.0000000E+00
Ar 2868  0.3893215E+02  0.9175019E+01  0.3625206E+02  0.0000000E+00
Ar 2869  0.3893044E+02  0.6553155E+01  0.3893017E+02  0.0000000E+00
Ar 2870  0.4158937E+02  0.9130609E+01  0.3897541E+02  0.0000000E+00
Ar 2871  0.4168107E+02  0.6260225E+01  0.4168083E+02  0.0000000E+00
Ar 2872  0.3897564E+02  0.9130791E+01  0.4158920E+02  0.0000000E+00
Ar 2873  0.3916523E+02  0.6046313E+01  0.4436752E+02  0.0000000E+00
Ar 2874  0.4128715E+02  0.9047420E+01  0.4436927E+02  0.0000000E+00
Ar 2875  0.4196270E+02  0.6330384E+01  0.4720817E+02  0.0000000E+00
Ar 2876  0.3909710E+02  0.8685255E+01  0.4732976E+02  0.0000000E+00
Ar 2877  0.3890839E+02  0.6405819E+01  0.5004121E+02  0.0000000E+00
Ar 2878  0.4184429E+02  0.8928582E+01  0.5003782E+02  0.0000000E+00
Ar 2879  0.4200847E+02  0.6543632E+01  0.5267575E+02  0.0000000E+00
Ar 2880  0.3912833E+02  0.9035969E+01  0.5317988E+02  0.0000000E+00
Ar 2881  0.3930782E+02  0.1167810E+02  0.5552328E+02  0.0000000E+00
Ar 2882  0.4183959E+02  0.1410114E+02  0.5544342E+02  0.0000000E+00
Ar 2883  0.4208732E+02  0.1137718E+02  0.3041726E+01  0.0000000E+00
Ar 2884  0.3909016E+02  0.1396105E+02  0.3480226E+01  0.0000000E+00
Ar 2885  0.3896950E+02  0.1147832E+02  0.6004244E+01  0.0000000E+00
Ar 2886  0.4222455E+02  0.1406089E+02  0.6003343E+01  0.0000000E+00
Ar 2887  0.4179819E+02  0.1169122E+02  0.8830841E+01  0.0000000E+00
Ar 2888  0.3893494E+02  0.1409877E+02  0.8745537E+01  0.0000000E+00
Ar 2889  0.3888894E+02  0.1128320E+02  0.1128320E+02  0.0000000E+00
Ar 2890  0.4179038E+02  0.1419625E+02  0.1133054E+02  0.0000000E+00
Ar 2891  0.4179038E+02  0.1133053E+02  0.1419631E+02  0.0000000E+00
Ar 2892  0.3886041E+02  0.1403207E+02  0.1403214E+02  0.0000000E+00
Ar 2893  0.3909561E+02  0.1142996E+02  0.1680625E+02  0.0000000E+00
Ar 2894  0.4169381E+02  0.1446386E+02  0.1705154E+02  0.0000000E+00
Ar 2895  0.4168103E+02  0.1145497E+02  0.1959125E+02  0.0000000E+00
Ar 2896  0.3893421E+02  0.1408309E+02  0.1956630E+02  0.0000000E+00
Ar 2897  0.3927196E+02  0.1146720E+02  0.2257854E+02  0.0000000E+00
Ar 2898  0.4176974E+02  0.1423769E+02  0.2262136E+02  0.0000000E+00
Ar 2899  0.4179534E+02  0.1168131E+02  0.2517474E+02  0.0000000E+00
Ar 2900  0.3880032E+02  0.1423822E+02  0.2515666E+02  0.0000000E+00
Ar 2901  0.3910608E+02  0.1106937E+02  0.2769747E+02  0.0000000E+00
Ar 2902  0.4140084E+02  0.1419329E+02  0.2797256E+02  0.0000000E+00
Ar 2903  0.4195819E+02  0.1149418E+02  0.3069409E+02  0.0000000E+00
Ar 2904  0.3887598E+02  0.1418389E+02  0.3073115E+02  0.0000000E+00
Ar 2905  0.3912286E+02  0.1159053E+02  0.3327322E+02  0.0000000E+00
Ar 2906  0.4156297E+02  0.1435309E+02  0.3345434E+02  0.0000000E+00
Ar 2907  0.4170601E+02  0.1164219E+02  0.3626957E+02  0.0000000E+00
Ar 2908  0.3908775E+02  0.1443439E+02  0.3645877E+02  0.0000000E+00
Ar 2909  0.3913090E+02  0.1195624E+02  0.3913081E+02  0.0000000E+00
Ar 2910  0.4186324E+02  0.1489155E+02  0.3907491E+02  0.0000000E+00
Ar 2911  0.4161941E+02  0.1208742E+02  0.4161912E+02  0.0000000E+00
Ar 2912  0.3907537E+02  0.1489189E+02  0.4186254E+02  0.0000000E+00
Ar 2913  0.3910039E+02  0.1180544E+02  0.4460607E+02  0.0000000E+00
Ar 2914  0.4180445E+02  0.1442157E+02  0.4476323E+02  0.0000000E+00
Ar 2915  0.4207357E+02  0.1172771E+02  0.4755197E+02  0.0000000E+00
Ar 2916  0.3918347E+02  0.1408877E+02  0.4750070E+02  0.0000000E+00
Ar 2917  0.3891881E+02  0.1166523E+02  0.5020912E+02  0.0000000E+00
Ar 2918  0.4212053E+02  0.1435792E+02  0.5004102E+02  0.0000000E+00
Ar 2919  0.4194499E+02  0.1157826E+02  0.5273056E+02  0.0000000E+00
Ar 2920  0.3916153E+02  0.1444562E+02  0.5270488E+02  0.0000000E+00
Ar 2921  0.3919585E+02  0.1787801E+02  0.6854403E+00  0.0000000E+00
Ar 2922  0.4198808E+02  0.1997790E+02  0.5567162E+02  0.0000000E+00
Ar 2923  0.4165427E+02  0.1647219E+02  0.3126092E+01  0.0000000E+00
Ar 2924  0.3875013E+02  0.2005221E+02  0.3118689E+01  0.0000000E+00
Ar 2925  0.3876482E+02  0.1702936E+02  0.5862720E+01  0.0000000E+00
Ar 2926  0.4170175E+02  0.1970528E+02  0.5724796E+01  0.0000000E+00
Ar 2927  0.4162625E+02  0.1678369E+02  0.8488073E+01  0.0000000E+00
Ar 2928  0.3881851E+02  0.1979176E+02  0.8701597E+01  0.0000000E+00
Ar 2929  0.3909567E+02  0.1680625E+02  0.1143005E+02  0.0000000E+00
Ar 2930  0.4168101E+02  0.1959120E+02  0.1145503E+02  0.0000000E+00
Ar 2931  0.4169381E+02  0.1705151E+02  0.1446389E+02  0.0000000E+00
Ar 2932  0.3893419E+02  0.1956627E+02  0.1408313E+02  0.0000000E+00
Ar 2933  0.3889980E+02  0.1683184E+02  0.1683188E+02  0.0000000E+00
Ar 2934  0.4183388E+02  0.1991558E+02  0.1711928E+02  0.0000000E+00
Ar 2935  0.4183390E+02  0.1711924E+02  0.1991564E+02  0.0000000E+00
Ar 2936  0.3876106E+02  0.2027639E+02  0.2027641E+02  0.0000000E+00
Ar 2937  0.3915323E+02  0.1710293E+02  0.2247429E+02  0.0000000E+00
Ar 2938  0.4193499E+02  0.1984348E+02  0.2273283E+02  0.0000000E+00
Ar 2939  0.4161060E+02  0.1703985E+02  0.2525265E+02  0.0000000E+00
Ar 2940  0.3909563E+02  0.1968508E+02  0.2538394E+02  0.0000000E+00
Ar 2941  0.3912286E+02  0.1704928E+02  0.2793869E+02  0.0000000E+00
Ar 2942  0.4186002E+02  0.1999403E+02  0.2803262E+02  0.0000000E+00
Ar 2943  0.4171242E+02  0.1698832E+02  0.3051042E+02  0.0000000E+00
Ar 2944  0.3899194E+02  0.1983302E+02  0.3100240E+02  0.0000000E+00
Ar 2945  0.3900403E+02  0.1695669E+02  0.3362655E+02  0.0000000E+00
Ar 2946  0.4203468E+02  0.1974879E+02  0.3341718E+02  0.0000000E+00
Ar 2947  0.4173521E+02  0.1735210E+02  0.3631643E+02  0.0000000E+00
Ar 2948  0.3907236E+02  0.1992377E+02  0.3620225E+02  0.0000000E+00
Ar 2949  0.3922428E+02  0.1757935E+02  0.3922418E+02  0.0000000E+00
Ar 2950  0.4208469E+02  0.2004560E+02  0.3908949E+02  0.0000000E+00
Ar 2951  0.4188495E+02  0.1744424E+02  0.4188470E+02  0.0000000E+00
Ar 2952  0.3908956E+02  0.2004550E+02  0.4208444E+02  0.0000000E+00
Ar 2953  0.3922014E+02  0.1742144E+02  0.4479757E+02  0.0000000E+00
Ar 2954  0.4193132E+02  0.1993460E+02  0.4472773E+02  0.0000000E+00
Ar 2955  0.4198408E+02  0.1699444E+02  0.4752973E+02  0.0000000E+00
Ar 2956  0.3925556E+02  0.1982547E+02  0.4763440E+02  0.0000000E+00
Ar 2957  0.3910430E+02  0.1697109E+02  0.4995876E+02  0.0000000E+00
Ar 2958  0.4183573E+02  0.1983849E+02  0.5012076E+02  0.0000000E+00
Ar 2959  0.4186473E+02  0.1701863E+02  0.5269058E+02  0.0000000E+00
Ar 2960  0.3907589E+02  0.1938630E+02  0.5280779E+02  0.0000000E+00
Ar 2961  0.3881765E+02  0.2255054E+02  0.5087015E+00  0.0000000E+00
Ar 2962  0.4210444E+02  0.2553763E+02  0.5577899E+02  0.0000000E+00
Ar 2963  0.4173970E+02  0.2243667E+02  0.3169283E+01  0.0000000E+00
Ar 2964  0.3905294E+02  0.2511443E+02  0.3252006E+01  0.0000000E+00
Ar 2965  0.3891683E+02  0.2258380E+02  0.5975524E+01  0.0000000E+00
Ar 2966  0.4172270E+02  0.2523790E+02  0.5769517E+01  0.0000000E+00
Ar 2967  0.4187628E+02  0.2222126E+02  0.8551089E+01  0.0000000E+00
Ar 2968  0.3922162E+02  0.2497981E+02  0.8749741E+01  0.0000000E+00
Ar 2969  0.3927190E+02  0.2257850E+02  0.1146736E+02  0.0000000E+00
Ar 2970  0.4179536E+02  0.2517452E+02  0.1168208E+02  0.0000000E+00
Ar 2971  0.4176972E+02  0.2262128E+02  0.1423780E+02  0.0000000E+00
Ar 2972  0.3880038E+02  0.2515683E+02  0.1423830E+02  0.0000000E+00
Ar 2973  0.3915324E+02  0.2247429E+02  0.1710294E+02  0.0000000E+00
Ar 2974  0.4161066E+02  0.2525269E+02  0.1703986E+02  0.0000000E+00
Ar 2975  0.4193499E+02  0.2273284E+02  0.1984348E+02  0.0000000E+00
Ar 2976  0.3909565E+02  0.2538394E+02  0.1968508E+02  0.0000000E+00
Ar 2977  0.3916194E+02  0.2281225E+02  0.2281228E+02  0.0000000E+00
Ar 2978  0.4184460E+02  0.2531526E+02  0.2269443E+02  0.0000000E+00
Ar 2979  0.4184459E+02  0.2269443E+02  0.2531526E+02  0.0000000E+00
Ar 2980  0.3930333E+02  0.2564578E+02  0.2564581E+02  0.0000000E+00
Ar 2981  0.3902051E+02  0.2243050E+02  0.2796923E+02  0.0000000E+00
Ar 2982  0.4206044E+02  0.2544204E+02  0.2808467E+02  0.0000000E+00
Ar 2983  0.4224713E+02  0.2262840E+02  0.3089801E+02  0.0000000E+00
Ar 2984  0.3906464E+02  0.2507046E+02  0.3091371E+02  0.0000000E+00
Ar 2985  0.3908691E+02  0.2243306E+02  0.3355844E+02  0.0000000E+00
Ar 2986  0.4184178E+02  0.2529778E+02  0.3361217E+02  0.0000000E+00
Ar 2987  0.4192727E+02  0.2255889E+02  0.3635452E+02  0.0000000E+00
Ar 2988  0.3925078E+02  0.2521956E+02  0.3615505E+02  0.0000000E+00
Ar 2989  0.3905498E+02  0.2273405E+02  0.3905500E+02  0.0000000E+00
Ar 2990  0.4176068E+02  0.2566369E+02  0.3891733E+02  0.0000000E+00
Ar 2991  0.4191678E+02  0.2263140E+02  0.4191547E+02  0.0000000E+00
Ar 2992  0.3891602E+02  0.2566393E+02  0.4175937E+02  0.0000000E+00
Ar 2993  0.3901837E+02  0.2264429E+02  0.4448649E+02  0.0000000E+00
Ar 2994  0.4145412E+02  0.2528871E+02  0.4426947E+02  0.0000000E+00
Ar 2995  0.4133929E+02  0.2259342E+02  0.4757476E+02  0.0000000E+00
Ar 2996  0.3912865E+02  0.2546397E+02  0.4719082E+02  0.0000000E+00
Ar 2997  0.3907374E+02  0.2264562E+02  0.5042959E+02  0.0000000E+00
Ar 2998  0.4163835E+02  0.2548903E+02  0.5014295E+02  0.0000000E+00
Ar 2999  0.4197796E+02  0.2251113E+02  0.5294968E+02  0.0000000E+00
Ar 3000  0.3921337E+02  0.2512441E+02  0.5296793E+02  0.0000000E+00
Ar 3001  0.3888514E+02  0.2802529E+02  0.5921909E+00  0.0000000E+00
Ar 3002  0.4086924E+02  0.3087355E+02  0.1043003E+01  0.0000000E+00
Ar 3003  0.4118438E+02  0.2793166E+02  0.3456299E+01  0.0000000E+00
Ar 3004  0.3855239E+02  0.3079958E+02  0.3691012E+01  0.0000000E+00
Ar 3005  0.3904225E+02  0.2782504E+02  0.6347285E+01  0.0000000E+00
Ar 3006  0.4197450E+02  0.3060186E+02  0.6045978E+01  0.0000000E+00
Ar 3007  0.4196032E+02  0.2798908E+02  0.8844106E+01  0.0000000E+00
Ar 3008  0.3939679E+02  0.3060789E+02  0.8787577E+01  0.0000000E+00
Ar 3009  0.3910530E+02  0.2769746E+02  0.1107009E+02  0.0000000E+00
Ar 3010  0.4195785E+02  0.3069434E+02  0.1149447E+02  0.0000000E+00
Ar 3011  0.4140079E+02  0.2797257E+02  0.1419344E+02  0.0000000E+00
Ar 3012  0.3887587E+02  0.3073110E+02  0.1418396E+02  0.0000000E+00
Ar 3013  0.3912284E+02  0.2793865E+02  0.1704928E+02  0.0000000E+00
Ar 3014  0.4171236E+02  0.3051037E+02  0.1698838E+02  0.0000000E+00
Ar 3015  0.4186004E+02  0.2803261E+02  0.1999405E+02  0.0000000E+00
Ar 3016  0.3899190E+02  0.3100237E+02  0.1983308E+02  0.0000000E+00
Ar 3017  0.3902053E+02  0.2796922E+02  0.2243053E+02  0.0000000E+00
Ar 3018  0.4224714E+02  0.3089797E+02  0.2262842E+02  0.0000000E+00
Ar 3019  0.4206045E+02  0.2808465E+02  0.2544206E+02  0.0000000E+00
Ar 3020  0.3906464E+02  0.3091370E+02  0.2507047E+02  0.0000000E+00
Ar 3021  0.3914156E+02  0.2821365E+02  0.2821366E+02  0.0000000E+00
Ar 3022  0.4176039E+02  0.3093499E+02  0.2793080E+02  0.0000000E+00
Ar 3023  0.4176038E+02  0.2793078E+02  0.3093501E+02  0.0000000E+00
Ar 3024  0.3893286E+02  0.3093171E+02  0.3093172E+02  0.0000000E+00
Ar 3025  0.3892589E+02  0.2818075E+02  0.3372874E+02  0.0000000E+00
Ar 3026  0.4181485E+02  0.3093944E+02  0.3374359E+02  0.0000000E+00
Ar 3027  0.4180229E+02  0.2855178E+02  0.3654551E+02  0.0000000E+00
Ar 3028  0.3937729E+02  0.3113741E+02  0.3626639E+02  0.0000000E+00
Ar 3029  0.3884641E+02  0.2867816E+02  0.3884639E+02  0.0000000E+00
Ar 3030  0.4166271E+02  0.3101431E+02  0.3888663E+02  0.0000000E+00
Ar 3031  0.4161676E+02  0.2839480E+02  0.4161586E+02  0.0000000E+00
Ar 3032  0.3888640E+02  0.3101434E+02  0.4166230E+02  0.0000000E+00
Ar 3033  0.3900924E+02  0.2834392E+02  0.4457211E+02  0.0000000E+00
Ar 3034  0.4175389E+02  0.3088456E+02  0.4437484E+02  0.0000000E+00
Ar 3035  0.4157399E+02  0.2817456E+02  0.4713441E+02  0.0000000E+00
Ar 3036  0.3912793E+02  0.3083210E+02  0.4717535E+02  0.0000000E+00
Ar 3037  0.3890662E+02  0.2795520E+02  0.5009007E+02  0.0000000E+00
Ar 3038  0.4176379E+02  0.3085664E+02  0.5018463E+02  0.0000000E+00
Ar 3039  0.4151001E+02  0.2809128E+02  0.5293041E+02  0.0000000E+00
Ar 3040  0.3874205E+02  0.3093611E+02  0.5294034E+02  0.0000000E+00
Ar 3041  0.3956842E+02  0.3460763E+02  0.5577818E+02  0.0000000E+00
Ar 3042  0.4203535E+02  0.3648028E+02  0.5207966E+00  0.0000000E+00
Ar 3043  0.4174776E+02  0.3364170E+02  0.3488342E+01  0.0000000E+00
Ar 3044  0.3903304E+02  0.3646683E+02  0.3469965E+01  0.0000000E+00
Ar 3045  0.3874990E+02  0.3342355E+02  0.6349030E+01  0.0000000E+00
Ar 3046  0.4124951E+02  0.3608502E+02  0.6593446E+01  0.0000000E+00
Ar 3047  0.4197574E+02  0.3333512E+02  0.8690323E+01  0.0000000E+00
Ar 3048  0.3893219E+02  0.3625199E+02  0.9175102E+01  0.0000000E+00
Ar 3049  0.3912268E+02  0.3327333E+02  0.1159062E+02  0.0000000E+00
Ar 3050  0.4170596E+02  0.3626963E+02  0.1164234E+02  0.0000000E+00
Ar 3051  0.4156279E+02  0.3345423E+02  0.1435328E+02  0.0000000E+00
Ar 3052  0.3908770E+02  0.3645874E+02  0.1443443E+02  0.0000000E+00
Ar 3053  0.3900400E+02  0.3362654E+02  0.1695675E+02  0.0000000E+00
Ar 3054  0.4173500E+02  0.3631646E+02  0.1735239E+02  0.0000000E+00
Ar 3055  0.4203462E+02  0.3341716E+02  0.1974887E+02  0.0000000E+00
Ar 3056  0.3907231E+02  0.3620221E+02  0.1992385E+02  0.0000000E+00
Ar 3057  0.3908692E+02  0.3355840E+02  0.2243309E+02  0.0000000E+00
Ar 3058  0.4192720E+02  0.3635436E+02  0.2255887E+02  0.0000000E+00
Ar 3059  0.4184176E+02  0.3361214E+02  0.2529781E+02  0.0000000E+00
Ar 3060  0.3925076E+02  0.3615500E+02  0.2521958E+02  0.0000000E+00
Ar 3061  0.3892589E+02  0.3372872E+02  0.2818076E+02  0.0000000E+00
Ar 3062  0.4180220E+02  0.3654534E+02  0.2855181E+02  0.0000000E+00
Ar 3063  0.4181487E+02  0.3374355E+02  0.3093945E+02  0.0000000E+00
Ar 3064  0.3937728E+02  0.3626635E+02  0.3113742E+02  0.0000000E+00
Ar 3065  0.3886994E+02  0.3359192E+02  0.3359193E+02  0.0000000E+00
Ar 3066  0.4171446E+02  0.3651669E+02  0.3373196E+02  0.0000000E+00
Ar 3067  0.4171449E+02  0.3373193E+02  0.3651671E+02  0.0000000E+00
Ar 3068  0.3901325E+02  0.3627510E+02  0.3627504E+02  0.0000000E+00
Ar 3069  0.3891261E+02  0.3391306E+02  0.3891251E+02  0.0000000E+00
Ar 3070  0.4190231E+02  0.3643101E+02  0.3924197E+02  0.0000000E+00
Ar 3071  0.4207490E+02  0.3390846E+02  0.4207431E+02  0.0000000E+00
Ar 3072  0.3924201E+02  0.3643102E+02  0.4190222E+02  0.0000000E+00
Ar 3073  0.3908798E+02  0.3371202E+02  0.4456853E+02  0.0000000E+00
Ar 3074  0.4187022E+02  0.3640322E+02  0.4466568E+02  0.0000000E+00
Ar 3075  0.4167427E+02  0.3354734E+02  0.4706128E+02  0.0000000E+00
Ar 3076  0.3900857E+02  0.3657886E+02  0.4711678E+02  0.0000000E+00
Ar 3077  0.3909335E+02  0.3353431E+02  0.4977312E+02  0.0000000E+00
Ar 3078  0.4157308E+02  0.3644192E+02  0.5021098E+02  0.0000000E+00
Ar 3079  0.4158698E+02  0.3351377E+02  0.5274170E+02  0.0000000E+00
Ar 3080  0.3924774E+02  0.3667491E+02  0.5295099E+02  0.0000000E+00
Ar 3081  0.3912042E+02  0.3912028E+02  0.5577006E+02  0.0000000E+00
Ar 3082  0.4182154E+02  0.4182252E+02  0.8525376E+00  0.0000000E+00
Ar 3083  0.4185295E+02  0.3912227E+02  0.3493337E+01  0.0000000E+00
Ar 3084  0.3912200E+02  0.4185267E+02  0.3494177E+01  0.0000000E+00
Ar 3085  0.3893068E+02  0.3892989E+02  0.6553310E+01  0.0000000E+00
Ar 3086  0.4168109E+02  0.4168073E+02  0.6260363E+01  0.0000000E+00
Ar 3087  0.4158940E+02  0.3897538E+02  0.9130690E+01  0.0000000E+00
Ar 3088  0.3897567E+02  0.4158912E+02  0.9130850E+01  0.0000000E+00
Ar 3089  0.3913087E+02  0.3913082E+02  0.1195627E+02  0.0000000E+00
Ar 3090  0.4161925E+02  0.4161928E+02  0.1208741E+02  0.0000000E+00
Ar 3091  0.4186275E+02  0.3907516E+02  0.1489186E+02  0.0000000E+00
Ar 3092  0.3907513E+02  0.4186304E+02  0.1489159E+02  0.0000000E+00
Ar 3093  0.3922423E+02  0.3922422E+02  0.1757938E+02  0.0000000E+00
Ar 3094  0.4188497E+02  0.4188495E+02  0.1744426E+02  0.0000000E+00
Ar 3095  0.4208461E+02  0.3908950E+02  0.2004562E+02  0.0000000E+00
Ar 3096  0.3908951E+02  0.4208457E+02  0.2004558E+02  0.0000000E+00
Ar 3097  0.3905501E+02  0.3905496E+02  0.2273407E+02  0.0000000E+00
Ar 3098  0.4191626E+02  0.4191621E+02  0.2263203E+02  0.0000000E+00
Ar 3099  0.4176039E+02  0.3891695E+02  0.2566376E+02  0.0000000E+00
Ar 3100  0.3891701E+02  0.4176033E+02  0.2566376E+02  0.0000000E+00
Ar 3101  0.3884648E+02  0.3884643E+02  0.2867825E+02  0.0000000E+00
Ar 3102  0.4161663E+02  0.4161655E+02  0.2839436E+02  0.0000000E+00
Ar 3103  0.4166267E+02  0.3888654E+02  0.3101433E+02  0.0000000E+00
Ar 3104  0.3888661E+02  0.4166261E+02  0.3101431E+02  0.0000000E+00
Ar 3105  0.3891261E+02  0.3891253E+02  0.3391300E+02  0.0000000E+00
Ar 3106  0.4207478E+02  0.4207472E+02  0.3390832E+02  0.0000000E+00
Ar 3107  0.4190228E+02  0.3924195E+02  0.3643101E+02  0.0000000E+00
Ar 3108  0.3924204E+02  0.4190217E+02  0.3643102E+02  0.0000000E+00
Ar 3109  0.3899306E+02  0.3899283E+02  0.3899288E+02  0.0000000E+00
Ar 3110  0.4176720E+02  0.4176707E+02  0.3901201E+02  0.0000000E+00
Ar 3111  0.4176720E+02  0.3901199E+02  0.4176710E+02  0.0000000E+00
Ar 3112  0.3901215E+02  0.4176709E+02  0.4176711E+02  0.0000000E+00
Ar 3113  0.3924269E+02  0.3924265E+02  0.4439209E+02  0.0000000E+00
Ar 3114  0.4174822E+02  0.4174821E+02  0.4479899E+02  0.0000000E+00
Ar 3115  0.4189433E+02  0.3918351E+02  0.4732353E+02  0.0000000E+00
Ar 3116  0.3918357E+02  0.4189501E+02  0.4732400E+02  0.0000000E+00
Ar 3117  0.3941029E+02  0.3941071E+02  0.4990105E+02  0.0000000E+00
Ar 3118  0.4205696E+02  0.4205740E+02  0.4989771E+02  0.0000000E+00
Ar 3119  0.4205745E+02  0.3914092E+02  0.5311034E+02  0.0000000E+00
Ar 3120  0.3913987E+02  0.4205846E+02  0.5311003E+02  0.0000000E+00
Ar 3121  0.3905225E+02  0.4485908E+02  0.5563630E+02  0.0000000E+00
Ar 3122  0.4198178E+02  0.4702727E+02  0.5582950E+02  0.0000000E+00
Ar 3123  0.4166568E+02  0.4444558E+02  0.3370844E+01  0.0000000E+00
Ar 3124  0.3943607E+02  0.4708585E+02  0.3269844E+01  0.0000000E+00
Ar 3125  0.3916591E+02  0.4436666E+02  0.6047448E+01  0.0000000E+00
Ar 3126  0.4196307E+02  0.4721017E+02  0.6331020E+01  0.0000000E+00
Ar 3127  0.4128670E+02  0.4436968E+02  0.9047726E+01  0.0000000E+00
Ar 3128  0.3909674E+02  0.4733064E+02  0.8685000E+01  0.0000000E+00
Ar 3129  0.3910005E+02  0.4460620E+02  0.1180553E+02  0.0000000E+00
Ar 3130  0.4207293E+02  0.4754839E+02  0.1173264E+02  0.0000000E+00
Ar 3131  0.4180446E+02  0.4476341E+02  0.1442161E+02  0.0000000E+00
Ar 3132  0.3918308E+02  0.4750068E+02  0.1408884E+02  0.0000000E+00
Ar 3133  0.3922027E+02  0.4479762E+02  0.1742154E+02  0.0000000E+00
Ar 3134  0.4198426E+02  0.4752986E+02  0.1699492E+02  0.0000000E+00
Ar 3135  0.4193201E+02  0.4472858E+02  0.1993468E+02  0.0000000E+00
Ar 3136  0.3925621E+02  0.4763508E+02  0.1982548E+02  0.0000000E+00
Ar 3137  0.3901955E+02  0.4448730E+02  0.2264464E+02  0.0000000E+00
Ar 3138  0.4134057E+02  0.4757507E+02  0.2259446E+02  0.0000000E+00
Ar 3139  0.4145499E+02  0.4427074E+02  0.2528882E+02  0.0000000E+00
Ar 3140  0.3912894E+02  0.4719136E+02  0.2546414E+02  0.0000000E+00
Ar 3141  0.3901042E+02  0.4457279E+02  0.2834323E+02  0.0000000E+00
Ar 3142  0.4157438E+02  0.4713549E+02  0.2817473E+02  0.0000000E+00
Ar 3143  0.4175504E+02  0.4437567E+02  0.3088461E+02  0.0000000E+00
Ar 3144  0.3912853E+02  0.4717544E+02  0.3083152E+02  0.0000000E+00
Ar 3145  0.3908844E+02  0.4456878E+02  0.3371177E+02  0.0000000E+00
Ar 3146  0.4167523E+02  0.4706247E+02  0.3354711E+02  0.0000000E+00
Ar 3147  0.4187031E+02  0.4466589E+02  0.3640318E+02  0.0000000E+00
Ar 3148  0.3900920E+02  0.4711735E+02  0.3657877E+02  0.0000000E+00
Ar 3149  0.3924278E+02  0.4439214E+02  0.3924250E+02  0.0000000E+00
Ar 3150  0.4189479E+02  0.4732388E+02  0.3918340E+02  0.0000000E+00
Ar 3151  0.4174817E+02  0.4479899E+02  0.4174830E+02  0.0000000E+00
Ar 3152  0.3918380E+02  0.4732370E+02  0.4189454E+02  0.0000000E+00
Ar 3153  0.3900258E+02  0.4448176E+02  0.4448201E+02  0.0000000E+00
Ar 3154  0.4172314E+02  0.4714875E+02  0.4448136E+02  0.0000000E+00
Ar 3155  0.4172320E+02  0.4448111E+02  0.4714857E+02  0.0000000E+00
Ar 3156  0.3915676E+02  0.4715419E+02  0.4715486E+02  0.0000000E+00
Ar 3157  0.3908270E+02  0.4433802E+02  0.4991811E+02  0.0000000E+00
Ar 3158  0.4154398E+02  0.4721880E+02  0.5003209E+02  0.0000000E+00
Ar 3159  0.4183767E+02  0.4452496E+02  0.5323417E+02  0.0000000E+00
Ar 3160  0.3894544E+02  0.4713977E+02  0.5289530E+02  0.0000000E+00
Ar 3161  0.3936977E+02  0.5007243E+02  0.5563653E+02  0.0000000E+00
Ar 3162  0.4247277E+02  0.5333805E+02  0.5590113E+02  0.0000000E+00
Ar 3163  0.4154746E+02  0.5071756E+02  0.2894194E+01  0.0000000E+00
Ar 3164  0.3873128E+02  0.5325368E+02  0.3089764E+01  0.0000000E+00
Ar 3165  0.3892263E+02  0.5005096E+02  0.6420752E+01  0.0000000E+00
Ar 3166  0.4202939E+02  0.5265754E+02  0.6578154E+01  0.0000000E+00
Ar 3167  0.4184780E+02  0.5002546E+02  0.8941836E+01  0.0000000E+00
Ar 3168  0.3912266E+02  0.5314825E+02  0.9051137E+01  0.0000000E+00
Ar 3169  0.3891903E+02  0.5020826E+02  0.1166697E+02  0.0000000E+00
Ar 3170  0.4195309E+02  0.5273010E+02  0.1158060E+02  0.0000000E+00
Ar 3171  0.4212083E+02  0.5004005E+02  0.1435851E+02  0.0000000E+00
Ar 3172  0.3916197E+02  0.5270538E+02  0.1444356E+02  0.0000000E+00
Ar 3173  0.3910423E+02  0.4995899E+02  0.1697075E+02  0.0000000E+00
Ar 3174  0.4186423E+02  0.5269008E+02  0.1701819E+02  0.0000000E+00
Ar 3175  0.4183619E+02  0.5012209E+02  0.1984010E+02  0.0000000E+00
Ar 3176  0.3907571E+02  0.5280784E+02  0.1938620E+02  0.0000000E+00
Ar 3177  0.3907368E+02  0.5042933E+02  0.2264550E+02  0.0000000E+00
Ar 3178  0.4198181E+02  0.5295260E+02  0.2251289E+02  0.0000000E+00
Ar 3179  0.4163724E+02  0.5014300E+02  0.2548725E+02  0.0000000E+00
Ar 3180  0.3921268E+02  0.5296793E+02  0.2512404E+02  0.0000000E+00
Ar 3181  0.3890639E+02  0.5008959E+02  0.2795500E+02  0.0000000E+00
Ar 3182  0.4150760E+02  0.5293113E+02  0.2809213E+02  0.0000000E+00
Ar 3183  0.4176215E+02  0.5018496E+02  0.3085758E+02  0.0000000E+00
Ar 3184  0.3874224E+02  0.5294012E+02  0.3093706E+02  0.0000000E+00
Ar 3185  0.3909420E+02  0.4977426E+02  0.3353377E+02  0.0000000E+00
Ar 3186  0.4158806E+02  0.5274242E+02  0.3351316E+02  0.0000000E+00
Ar 3187  0.4157458E+02  0.5021152E+02  0.3644067E+02  0.0000000E+00
Ar 3188  0.3924802E+02  0.5295073E+02  0.3667457E+02  0.0000000E+00
Ar 3189  0.3941087E+02  0.4990113E+02  0.3941020E+02  0.0000000E+00
Ar 3190  0.4205801E+02  0.5311039E+02  0.3914041E+02  0.0000000E+00
Ar 3191  0.4205736E+02  0.4989764E+02  0.4205701E+02  0.0000000E+00
Ar 3192  0.3914051E+02  0.5311009E+02  0.4205779E+02  0.0000000E+00
Ar 3193  0.3908416E+02  0.4991821E+02  0.4433729E+02  0.0000000E+00
Ar 3194  0.4183739E+02  0.5323387E+02  0.4452535E+02  0.0000000E+00
Ar 3195  0.4154371E+02  0.5003432E+02  0.4722133E+02  0.0000000E+00
Ar 3196  0.3894346E+02  0.5289452E+02  0.4713885E+02  0.0000000E+00
Ar 3197  0.3909100E+02  0.5023923E+02  0.5023922E+02  0.0000000E+00
Ar 3198  0.4203214E+02  0.5266901E+02  0.4953584E+02  0.0000000E+00
Ar 3199  0.4203300E+02  0.4953590E+02  0.5266741E+02  0.0000000E+00
Ar 3200  0.4050950E+02  0.5293051E+02  0.5292752E+02  0.0000000E+00
Ar 3201  0.4379425E+02  0.1220558E+01  0.1222435E+01  0.0000000E+00
Ar 3202  0.4744412E+02  0.2903163E+01  0.5551550E+02  0.0000000E+00
Ar 3203  0.4744807E+02  0.5551510E+02  0.2902300E+01  0.0000000E+00
Ar 3204  0.4426464E+02  0.4116723E+01  0.4118873E+01  0.0000000E+00
Ar 3205  0.4494457E+02  0.5565255E+02  0.5007882E+01  0.0000000E+00
Ar 3206  0.4743257E+02  0.3880707E+01  0.6325325E+01  0.0000000E+00
Ar 3207  0.4810918E+02  0.5355715E+00  0.1022785E+02  0.0000000E+00
Ar 3208  0.4472362E+02  0.3380000E+01  0.8847914E+01  0.0000000E+00
Ar 3209  0.4455979E+02  0.4849508E+00  0.1138251E+02  0.0000000E+00
Ar 3210  0.4735866E+02  0.3527385E+01  0.1176453E+02  0.0000000E+00
Ar 3211  0.4750843E+02  0.4115276E+00  0.1420126E+02  0.0000000E+00
Ar 3212  0.4467854E+02  0.3347737E+01  0.1435032E+02  0.0000000E+00
Ar 3213  0.4456804E+02  0.5222660E+00  0.1696482E+02  0.0000000E+00
Ar 3214  0.4739981E+02  0.3326650E+01  0.1687215E+02  0.0000000E+00
Ar 3215  0.4717294E+02  0.5238152E+00  0.1978712E+02  0.0000000E+00
Ar 3216  0.4431815E+02  0.3042048E+01  0.1990958E+02  0.0000000E+00
Ar 3217  0.4501239E+02  0.5546069E+02  0.2265182E+02  0.0000000E+00
Ar 3218  0.4708002E+02  0.3280132E+01  0.2256391E+02  0.0000000E+00
Ar 3219  0.4740727E+02  0.6563400E+00  0.2565290E+02  0.0000000E+00
Ar 3220  0.4449456E+02  0.3054306E+01  0.2509914E+02  0.0000000E+00
Ar 3221  0.4428891E+02  0.7846879E+00  0.2804176E+02  0.0000000E+00
Ar 3222  0.4727479E+02  0.3244300E+01  0.2824450E+02  0.0000000E+00
Ar 3223  0.4685158E+02  0.5573757E+02  0.3045281E+02  0.0000000E+00
Ar 3224  0.4438751E+02  0.3297271E+01  0.3059453E+02  0.0000000E+00
Ar 3225  0.4420902E+02  0.6367629E+00  0.3331117E+02  0.0000000E+00
Ar 3226  0.4704515E+02  0.3054937E+01  0.3351811E+02  0.0000000E+00
Ar 3227  0.4659462E+02  0.5560121E+02  0.3574543E+02  0.0000000E+00
Ar 3228  0.4421793E+02  0.3482245E+01  0.3619368E+02  0.0000000E+00
Ar 3229  0.4485940E+02  0.5563626E+02  0.3905042E+02  0.0000000E+00
Ar 3230  0.4708674E+02  0.3269686E+01  0.3943389E+02  0.0000000E+00
Ar 3231  0.4702994E+02  0.5583099E+02  0.4197369E+02  0.0000000E+00
Ar 3232  0.4444637E+02  0.3370721E+01  0.4166474E+02  0.0000000E+00
Ar 3233  0.4437654E+02  0.5864153E+00  0.4437448E+02  0.0000000E+00
Ar 3234  0.4763905E+02  0.3439205E+01  0.4433701E+02  0.0000000E+00
Ar 3235  0.4749418E+02  0.5530622E+02  0.4749199E+02  0.0000000E+00
Ar 3236  0.4433689E+02  0.3438861E+01  0.4764052E+02  0.0000000E+00
Ar 3237  0.4438924E+02  0.5552490E+02  0.5039554E+02  0.0000000E+00
Ar 3238  0.4718912E+02  0.2675350E+01  0.5027828E+02  0.0000000E+00
Ar 3239  0.4760440E+02  0.5581922E+02  0.5286994E+02  0.0000000E+00
Ar 3240  0.4457811E+02  0.3523298E+01  0.5225801E+02  0.0000000E+00
Ar 3241  0.4492846E+02  0.5001031E+01  0.5565930E+02  0.0000000E+00
Ar 3242  0.4811336E+02  0.1023138E+02  0.5399439E+00  0.0000000E+00
Ar 3243  0.4743182E+02  0.6328037E+01  0.3875671E+01  0.0000000E+00
Ar 3244  0.4472377E+02  0.8849142E+01  0.3379860E+01  0.0000000E+00
Ar 3245  0.4471229E+02  0.6535359E+01  0.6533766E+01  0.0000000E+00
Ar 3246  0.4740880E+02  0.9132962E+01  0.6136268E+01  0.0000000E+00
Ar 3247  0.4740853E+02  0.6136460E+01  0.9133286E+01  0.0000000E+00
Ar 3248  0.4455218E+02  0.9318787E+01  0.9319220E+01  0.0000000E+00
Ar 3249  0.4463837E+02  0.6225827E+01  0.1145062E+02  0.0000000E+00
Ar 3250  0.4757733E+02  0.8979843E+01  0.1159310E+02  0.0000000E+00
Ar 3251  0.4745965E+02  0.6066796E+01  0.1410980E+02  0.0000000E+00
Ar 3252  0.4473312E+02  0.8895134E+01  0.1450570E+02  0.0000000E+00
Ar 3253  0.4490718E+02  0.5912692E+01  0.1692458E+02  0.0000000E+00
Ar 3254  0.4719943E+02  0.8969711E+01  0.1709144E+02  0.0000000E+00
Ar 3255  0.4714237E+02  0.5905426E+01  0.1968079E+02  0.0000000E+00
Ar 3256  0.4444794E+02  0.8520537E+01  0.1977658E+02  0.0000000E+00
Ar 3257  0.4431660E+02  0.5785706E+01  0.2237069E+02  0.0000000E+00
Ar 3258  0.4734598E+02  0.8402689E+01  0.2234858E+02  0.0000000E+00
Ar 3259  0.4744804E+02  0.5868673E+01  0.2542129E+02  0.0000000E+00
Ar 3260  0.4444942E+02  0.8767381E+01  0.2511573E+02  0.0000000E+00
Ar 3261  0.4446010E+02  0.6024258E+01  0.2773382E+02  0.0000000E+00
Ar 3262  0.4717460E+02  0.8819636E+01  0.2769759E+02  0.0000000E+00
Ar 3263  0.4708445E+02  0.5816722E+01  0.3073982E+02  0.0000000E+00
Ar 3264  0.4488009E+02  0.8916290E+01  0.3068732E+02  0.0000000E+00
Ar 3265  0.4459824E+02  0.6115681E+01  0.3330146E+02  0.0000000E+00
Ar 3266  0.4738121E+02  0.8886711E+01  0.3372848E+02  0.0000000E+00
Ar 3267  0.4709341E+02  0.5762441E+01  0.3649283E+02  0.0000000E+00
Ar 3268  0.4477760E+02  0.8983552E+01  0.3588926E+02  0.0000000E+00
Ar 3269  0.4436778E+02  0.6046709E+01  0.3916530E+02  0.0000000E+00
Ar 3270  0.4733050E+02  0.8684585E+01  0.3909649E+02  0.0000000E+00
Ar 3271  0.4721030E+02  0.6330238E+01  0.4196230E+02  0.0000000E+00
Ar 3272  0.4436969E+02  0.9047695E+01  0.4128659E+02  0.0000000E+00
Ar 3273  0.4442361E+02  0.6828802E+01  0.4442255E+02  0.0000000E+00
Ar 3274  0.4708276E+02  0.9259811E+01  0.4447038E+02  0.0000000E+00
Ar 3275  0.4754383E+02  0.6232543E+01  0.4754908E+02  0.0000000E+00
Ar 3276  0.4447123E+02  0.9257929E+01  0.4708347E+02  0.0000000E+00
Ar 3277  0.4456444E+02  0.6182969E+01  0.4985340E+02  0.0000000E+00
Ar 3278  0.4729707E+02  0.9219112E+01  0.4997842E+02  0.0000000E+00
Ar 3279  0.4746978E+02  0.6461350E+01  0.5305202E+02  0.0000000E+00
Ar 3280  0.4448656E+02  0.9119960E+01  0.5280722E+02  0.0000000E+00
Ar 3281  0.4456014E+02  0.1138312E+02  0.4848026E+00  0.0000000E+00
Ar 3282  0.4750565E+02  0.1419894E+02  0.4113544E+00  0.0000000E+00
Ar 3283  0.4735787E+02  0.1176565E+02  0.3529608E+01  0.0000000E+00
Ar 3284  0.4467801E+02  0.1435052E+02  0.3347850E+01  0.0000000E+00
Ar 3285  0.4463806E+02  0.1144998E+02  0.6225506E+01  0.0000000E+00
Ar 3286  0.4745915E+02  0.1410948E+02  0.6067014E+01  0.0000000E+00
Ar 3287  0.4757728E+02  0.1159299E+02  0.8979828E+01  0.0000000E+00
Ar 3288  0.4473319E+02  0.1450565E+02  0.8895092E+01  0.0000000E+00
Ar 3289  0.4475666E+02  0.1164258E+02  0.1164260E+02  0.0000000E+00
Ar 3290  0.4746369E+02  0.1416590E+02  0.1151427E+02  0.0000000E+00
Ar 3291  0.4746369E+02  0.1151432E+02  0.1416587E+02  0.0000000E+00
Ar 3292  0.4466573E+02  0.1417973E+02  0.1417975E+02  0.0000000E+00
Ar 3293  0.4449238E+02  0.1136367E+02  0.1730618E+02  0.0000000E+00
Ar 3294  0.4733091E+02  0.1396451E+02  0.1679313E+02  0.0000000E+00
Ar 3295  0.4725022E+02  0.1155632E+02  0.1975041E+02  0.0000000E+00
Ar 3296  0.4455039E+02  0.1440511E+02  0.1960335E+02  0.0000000E+00
Ar 3297  0.4447639E+02  0.1138172E+02  0.2233520E+02  0.0000000E+00
Ar 3298  0.4758494E+02  0.1406757E+02  0.2228893E+02  0.0000000E+00
Ar 3299  0.4711275E+02  0.1152120E+02  0.2502526E+02  0.0000000E+00
Ar 3300  0.4481334E+02  0.1453761E+02  0.2505560E+02  0.0000000E+00
Ar 3301  0.4473686E+02  0.1172284E+02  0.2789932E+02  0.0000000E+00
Ar 3302  0.4727202E+02  0.1452242E+02  0.2795520E+02  0.0000000E+00
Ar 3303  0.4764657E+02  0.1164427E+02  0.3039096E+02  0.0000000E+00
Ar 3304  0.4454123E+02  0.1415982E+02  0.3054315E+02  0.0000000E+00
Ar 3305  0.4437766E+02  0.1182582E+02  0.3347532E+02  0.0000000E+00
Ar 3306  0.4724895E+02  0.1445723E+02  0.3317787E+02  0.0000000E+00
Ar 3307  0.4717930E+02  0.1174991E+02  0.3640920E+02  0.0000000E+00
Ar 3308  0.4450956E+02  0.1442538E+02  0.3631301E+02  0.0000000E+00
Ar 3309  0.4460621E+02  0.1180536E+02  0.3909976E+02  0.0000000E+00
Ar 3310  0.4750099E+02  0.1408819E+02  0.3918267E+02  0.0000000E+00
Ar 3311  0.4755012E+02  0.1173106E+02  0.4207256E+02  0.0000000E+00
Ar 3312  0.4476364E+02  0.1442152E+02  0.4180424E+02  0.0000000E+00
Ar 3313  0.4419433E+02  0.1171732E+02  0.4419447E+02  0.0000000E+00
Ar 3314  0.4739321E+02  0.1432007E+02  0.4476697E+02  0.0000000E+00
Ar 3315  0.4722178E+02  0.1173897E+02  0.4722267E+02  0.0000000E+00
Ar 3316  0.4476734E+02  0.1432029E+02  0.4739300E+02  0.0000000E+00
Ar 3317  0.4460792E+02  0.1172067E+02  0.5011048E+02  0.0000000E+00
Ar 3318  0.4740198E+02  0.1434933E+02  0.5004016E+02  0.0000000E+00
Ar 3319  0.4742494E+02  0.1148102E+02  0.5269030E+02  0.0000000E+00
Ar 3320  0.4449649E+02  0.1434242E+02  0.5293789E+02  0.0000000E+00
Ar 3321  0.4457346E+02  0.1697278E+02  0.5219312E+00  0.0000000E+00
Ar 3322  0.4716554E+02  0.1977468E+02  0.5208637E+00  0.0000000E+00
Ar 3323  0.4739951E+02  0.1687232E+02  0.3326941E+01  0.0000000E+00
Ar 3324  0.4431752E+02  0.1990870E+02  0.3043441E+01  0.0000000E+00
Ar 3325  0.4490682E+02  0.1692456E+02  0.5912846E+01  0.0000000E+00
Ar 3326  0.4714416E+02  0.1967884E+02  0.5907101E+01  0.0000000E+00
Ar 3327  0.4719919E+02  0.1709149E+02  0.8969779E+01  0.0000000E+00
Ar 3328  0.4444662E+02  0.1977585E+02  0.8522051E+01  0.0000000E+00
Ar 3329  0.4449238E+02  0.1730609E+02  0.1136370E+02  0.0000000E+00
Ar 3330  0.4725007E+02  0.1975032E+02  0.1155641E+02  0.0000000E+00
Ar 3331  0.4733092E+02  0.1679311E+02  0.1396452E+02  0.0000000E+00
Ar 3332  0.4455041E+02  0.1960322E+02  0.1440521E+02  0.0000000E+00
Ar 3333  0.4473205E+02  0.1708193E+02  0.1708200E+02  0.0000000E+00
Ar 3334  0.4732843E+02  0.1966394E+02  0.1685713E+02  0.0000000E+00
Ar 3335  0.4732843E+02  0.1685704E+02  0.1966399E+02  0.0000000E+00
Ar 3336  0.4437608E+02  0.2002911E+02  0.2002913E+02  0.0000000E+00
Ar 3337  0.4430856E+02  0.1706648E+02  0.2257652E+02  0.0000000E+00
Ar 3338  0.4697122E+02  0.2003780E+02  0.2266722E+02  0.0000000E+00
Ar 3339  0.4717899E+02  0.1723166E+02  0.2528783E+02  0.0000000E+00
Ar 3340  0.4461485E+02  0.1983744E+02  0.2540252E+02  0.0000000E+00
Ar 3341  0.4440540E+02  0.1692399E+02  0.2785667E+02  0.0000000E+00
Ar 3342  0.4756392E+02  0.1978259E+02  0.2798011E+02  0.0000000E+00
Ar 3343  0.4721363E+02  0.1708183E+02  0.3055859E+02  0.0000000E+00
Ar 3344  0.4462087E+02  0.1962673E+02  0.3062901E+02  0.0000000E+00
Ar 3345  0.4467848E+02  0.1689822E+02  0.3322188E+02  0.0000000E+00
Ar 3346  0.4722222E+02  0.1958573E+02  0.3337106E+02  0.0000000E+00
Ar 3347  0.4734081E+02  0.1677266E+02  0.3648162E+02  0.0000000E+00
Ar 3348  0.4477611E+02  0.1993507E+02  0.3634976E+02  0.0000000E+00
Ar 3349  0.4479763E+02  0.1742153E+02  0.3922034E+02  0.0000000E+00
Ar 3350  0.4763511E+02  0.1982562E+02  0.3925626E+02  0.0000000E+00
Ar 3351  0.4753025E+02  0.1699506E+02  0.4198416E+02  0.0000000E+00
Ar 3352  0.4472891E+02  0.1993469E+02  0.4193207E+02  0.0000000E+00
Ar 3353  0.4446176E+02  0.1696411E+02  0.4446133E+02  0.0000000E+00
Ar 3354  0.4718163E+02  0.1978563E+02  0.4451756E+02  0.0000000E+00
Ar 3355  0.4744427E+02  0.1730509E+02  0.4744359E+02  0.0000000E+00
Ar 3356  0.4451684E+02  0.1978264E+02  0.4718098E+02  0.0000000E+00
Ar 3357  0.4480996E+02  0.1695668E+02  0.5005866E+02  0.0000000E+00
Ar 3358  0.4725943E+02  0.1982177E+02  0.5011888E+02  0.0000000E+00
Ar 3359  0.4715335E+02  0.1689329E+02  0.5330097E+02  0.0000000E+00
Ar 3360  0.4456289E+02  0.1958233E+02  0.5307816E+02  0.0000000E+00
Ar 3361  0.4500633E+02  0.2265297E+02  0.5546799E+02  0.0000000E+00
Ar 3362  0.4741040E+02  0.2565214E+02  0.6554007E+00  0.0000000E+00
Ar 3363  0.4707700E+02  0.2256024E+02  0.3278177E+01  0.0000000E+00
Ar 3364  0.4449506E+02  0.2509520E+02  0.3051950E+01  0.0000000E+00
Ar 3365  0.4431541E+02  0.2236921E+02  0.5787201E+01  0.0000000E+00
Ar 3366  0.4744472E+02  0.2542151E+02  0.5867841E+01  0.0000000E+00
Ar 3367  0.4734543E+02  0.2234841E+02  0.8403092E+01  0.0000000E+00
Ar 3368  0.4444856E+02  0.2511519E+02  0.8767886E+01  0.0000000E+00
Ar 3369  0.4447626E+02  0.2233484E+02  0.1138218E+02  0.0000000E+00
Ar 3370  0.4711225E+02  0.2502486E+02  0.1152095E+02  0.0000000E+00
Ar 3371  0.4758484E+02  0.2228886E+02  0.1406762E+02  0.0000000E+00
Ar 3372  0.4481332E+02  0.2505559E+02  0.1453762E+02  0.0000000E+00
Ar 3373  0.4430853E+02  0.2257649E+02  0.1706651E+02  0.0000000E+00
Ar 3374  0.4717893E+02  0.2528774E+02  0.1723175E+02  0.0000000E+00
Ar 3375  0.4697121E+02  0.2266719E+02  0.2003784E+02  0.0000000E+00
Ar 3376  0.4461487E+02  0.2540251E+02  0.1983745E+02  0.0000000E+00
Ar 3377  0.4450072E+02  0.2274542E+02  0.2274543E+02  0.0000000E+00
Ar 3378  0.4749828E+02  0.2534222E+02  0.2254381E+02  0.0000000E+00
Ar 3379  0.4749829E+02  0.2254385E+02  0.2534219E+02  0.0000000E+00
Ar 3380  0.4438122E+02  0.2541145E+02  0.2541147E+02  0.0000000E+00
Ar 3381  0.4479286E+02  0.2241761E+02  0.2820001E+02  0.0000000E+00
Ar 3382  0.4741438E+02  0.2515539E+02  0.2829861E+02  0.0000000E+00
Ar 3383  0.4727995E+02  0.2231797E+02  0.3091308E+02  0.0000000E+00
Ar 3384  0.4471445E+02  0.2561855E+02  0.3091170E+02  0.0000000E+00
Ar 3385  0.4468406E+02  0.2263284E+02  0.3393737E+02  0.0000000E+00
Ar 3386  0.4712061E+02  0.2549809E+02  0.3368235E+02  0.0000000E+00
Ar 3387  0.4724396E+02  0.2247643E+02  0.3669349E+02  0.0000000E+00
Ar 3388  0.4467818E+02  0.2537959E+02  0.3649971E+02  0.0000000E+00
Ar 3389  0.4448771E+02  0.2264464E+02  0.3901990E+02  0.0000000E+00
Ar 3390  0.4719169E+02  0.2546420E+02  0.3912897E+02  0.0000000E+00
Ar 3391  0.4757528E+02  0.2259539E+02  0.4134151E+02  0.0000000E+00
Ar 3392  0.4427133E+02  0.2528875E+02  0.4145516E+02  0.0000000E+00
Ar 3393  0.4443185E+02  0.2256305E+02  0.4443039E+02  0.0000000E+00
Ar 3394  0.4705421E+02  0.2515545E+02  0.4405075E+02  0.0000000E+00
Ar 3395  0.4702124E+02  0.2269849E+02  0.4702290E+02  0.0000000E+00
Ar 3396  0.4404905E+02  0.2515519E+02  0.4705446E+02  0.0000000E+00
Ar 3397  0.4416395E+02  0.2295775E+02  0.4993268E+02  0.0000000E+00
Ar 3398  0.4720575E+02  0.2565348E+02  0.5023963E+02  0.0000000E+00
Ar 3399  0.4699431E+02  0.2287970E+02  0.5221036E+02  0.0000000E+00
Ar 3400  0.4424398E+02  0.2555837E+02  0.5286262E+02  0.0000000E+00
Ar 3401  0.4428890E+02  0.2803938E+02  0.7857002E+00  0.0000000E+00
Ar 3402  0.4684563E+02  0.3045995E+02  0.5573963E+02  0.0000000E+00
Ar 3403  0.4727991E+02  0.2824941E+02  0.3245025E+01  0.0000000E+00
Ar 3404  0.4438832E+02  0.3059293E+02  0.3296888E+01  0.0000000E+00
Ar 3405  0.4445961E+02  0.2773269E+02  0.6025808E+01  0.0000000E+00
Ar 3406  0.4708992E+02  0.3073878E+02  0.5811034E+01  0.0000000E+00
Ar 3407  0.4717483E+02  0.2769808E+02  0.8819914E+01  0.0000000E+00
Ar 3408  0.4488019E+02  0.3068828E+02  0.8916530E+01  0.0000000E+00
Ar 3409  0.4473684E+02  0.2789929E+02  0.1172261E+02  0.0000000E+00
Ar 3410  0.4764739E+02  0.3039129E+02  0.1164381E+02  0.0000000E+00
Ar 3411  0.4727190E+02  0.2795532E+02  0.1452276E+02  0.0000000E+00
Ar 3412  0.4454127E+02  0.3054294E+02  0.1415991E+02  0.0000000E+00
Ar 3413  0.4440542E+02  0.2785667E+02  0.1692422E+02  0.0000000E+00
Ar 3414  0.4721372E+02  0.3055873E+02  0.1708205E+02  0.0000000E+00
Ar 3415  0.4756393E+02  0.2798009E+02  0.1978259E+02  0.0000000E+00
Ar 3416  0.4462090E+02  0.3062905E+02  0.1962680E+02  0.0000000E+00
Ar 3417  0.4479288E+02  0.2820002E+02  0.2241760E+02  0.0000000E+00
Ar 3418  0.4727999E+02  0.3091302E+02  0.2231797E+02  0.0000000E+00
Ar 3419  0.4741439E+02  0.2829861E+02  0.2515540E+02  0.0000000E+00
Ar 3420  0.4471445E+02  0.3091169E+02  0.2561857E+02  0.0000000E+00
Ar 3421  0.4513862E+02  0.2810049E+02  0.2810050E+02  0.0000000E+00
Ar 3422  0.4729346E+02  0.3086683E+02  0.2818262E+02  0.0000000E+00
Ar 3423  0.4729343E+02  0.2818262E+02  0.3086681E+02  0.0000000E+00
Ar 3424  0.4449236E+02  0.3081976E+02  0.3081974E+02  0.0000000E+00
Ar 3425  0.4421003E+02  0.2813859E+02  0.3364923E+02  0.0000000E+00
Ar 3426  0.4710698E+02  0.3076669E+02  0.3348089E+02  0.0000000E+00
Ar 3427  0.4721638E+02  0.2804502E+02  0.3607771E+02  0.0000000E+00
Ar 3428  0.4451710E+02  0.3138097E+02  0.3630688E+02  0.0000000E+00
Ar 3429  0.4457318E+02  0.2834295E+02  0.3901076E+02  0.0000000E+00
Ar 3430  0.4717554E+02  0.3083127E+02  0.3912873E+02  0.0000000E+00
Ar 3431  0.4713576E+02  0.2817477E+02  0.4157457E+02  0.0000000E+00
Ar 3432  0.4437606E+02  0.3088454E+02  0.4175566E+02  0.0000000E+00
Ar 3433  0.4441741E+02  0.2781285E+02  0.4441778E+02  0.0000000E+00
Ar 3434  0.4724991E+02  0.3087887E+02  0.4445555E+02  0.0000000E+00
Ar 3435  0.4737126E+02  0.2831619E+02  0.4737288E+02  0.0000000E+00
Ar 3436  0.4445341E+02  0.3087890E+02  0.4724756E+02  0.0000000E+00
Ar 3437  0.4440954E+02  0.2802817E+02  0.4963755E+02  0.0000000E+00
Ar 3438  0.4723693E+02  0.3107468E+02  0.4994305E+02  0.0000000E+00
Ar 3439  0.4735104E+02  0.2822359E+02  0.5271550E+02  0.0000000E+00
Ar 3440  0.4458082E+02  0.3045732E+02  0.5271176E+02  0.0000000E+00
Ar 3441  0.4420724E+02  0.3331172E+02  0.6324712E+00  0.0000000E+00
Ar 3442  0.4661678E+02  0.3574464E+02  0.5560327E+02  0.0000000E+00
Ar 3443  0.4704177E+02  0.3351274E+02  0.3056189E+01  0.0000000E+00
Ar 3444  0.4421830E+02  0.3619356E+02  0.3482534E+01  0.0000000E+00
Ar 3445  0.4460081E+02  0.3329920E+02  0.6115914E+01  0.0000000E+00
Ar 3446  0.4709176E+02  0.3648595E+02  0.5768199E+01  0.0000000E+00
Ar 3447  0.4738324E+02  0.3372860E+02  0.8883141E+01  0.0000000E+00
Ar 3448  0.4477792E+02  0.3588882E+02  0.8983551E+01  0.0000000E+00
Ar 3449  0.4437751E+02  0.3347538E+02  0.1182611E+02  0.0000000E+00
Ar 3450  0.4717890E+02  0.3640954E+02  0.1175023E+02  0.0000000E+00
Ar 3451  0.4724859E+02  0.3317733E+02  0.1445787E+02  0.0000000E+00
Ar 3452  0.4450922E+02  0.3631301E+02  0.1442574E+02  0.0000000E+00
Ar 3453  0.4467823E+02  0.3322192E+02  0.1689842E+02  0.0000000E+00
Ar 3454  0.4734085E+02  0.3648153E+02  0.1677262E+02  0.0000000E+00
Ar 3455  0.4722232E+02  0.3337101E+02  0.1958570E+02  0.0000000E+00
Ar 3456  0.4477618E+02  0.3634966E+02  0.1993508E+02  0.0000000E+00
Ar 3457  0.4468407E+02  0.3393733E+02  0.2263287E+02  0.0000000E+00
Ar 3458  0.4724409E+02  0.3669346E+02  0.2247641E+02  0.0000000E+00
Ar 3459  0.4712063E+02  0.3368234E+02  0.2549812E+02  0.0000000E+00
Ar 3460  0.4467811E+02  0.3649958E+02  0.2537963E+02  0.0000000E+00
Ar 3461  0.4421004E+02  0.3364920E+02  0.2813862E+02  0.0000000E+00
Ar 3462  0.4721642E+02  0.3607775E+02  0.2804504E+02  0.0000000E+00
Ar 3463  0.4710698E+02  0.3348088E+02  0.3076671E+02  0.0000000E+00
Ar 3464  0.4451708E+02  0.3630683E+02  0.3138103E+02  0.0000000E+00
Ar 3465  0.4430076E+02  0.3358798E+02  0.3358803E+02  0.0000000E+00
Ar 3466  0.4738205E+02  0.3631237E+02  0.3375800E+02  0.0000000E+00
Ar 3467  0.4738217E+02  0.3375792E+02  0.3631255E+02  0.0000000E+00
Ar 3468  0.4433048E+02  0.3622699E+02  0.3622703E+02  0.0000000E+00
Ar 3469  0.4456879E+02  0.3371161E+02  0.3908843E+02  0.0000000E+00
Ar 3470  0.4711728E+02  0.3657916E+02  0.3900858E+02  0.0000000E+00
Ar 3471  0.4706235E+02  0.3354684E+02  0.4167496E+02  0.0000000E+00
Ar 3472  0.4466603E+02  0.3640314E+02  0.4187033E+02  0.0000000E+00
Ar 3473  0.4467713E+02  0.3367880E+02  0.4467696E+02  0.0000000E+00
Ar 3474  0.4729862E+02  0.3655724E+02  0.4446666E+02  0.0000000E+00
Ar 3475  0.4738716E+02  0.3384048E+02  0.4738785E+02  0.0000000E+00
Ar 3476  0.4446602E+02  0.3655876E+02  0.4729745E+02  0.0000000E+00
Ar 3477  0.4434702E+02  0.3398347E+02  0.4980565E+02  0.0000000E+00
Ar 3478  0.4726845E+02  0.3650497E+02  0.4989584E+02  0.0000000E+00
Ar 3479  0.4705374E+02  0.3358502E+02  0.5289579E+02  0.0000000E+00
Ar 3480  0.4424927E+02  0.3589372E+02  0.5294290E+02  0.0000000E+00
Ar 3481  0.4485987E+02  0.3905042E+02  0.5563647E+02  0.0000000E+00
Ar 3482  0.4702211E+02  0.4198388E+02  0.5583281E+02  0.0000000E+00
Ar 3483  0.4709117E+02  0.3943544E+02  0.3268358E+01  0.0000000E+00
Ar 3484  0.4444618E+02  0.4166409E+02  0.3370719E+01  0.0000000E+00
Ar 3485  0.4436848E+02  0.3916515E+02  0.6045990E+01  0.0000000E+00
Ar 3486  0.4720823E+02  0.4196180E+02  0.6329809E+01  0.0000000E+00
Ar 3487  0.4732896E+02  0.3909704E+02  0.8685934E+01  0.0000000E+00
Ar 3488  0.4436919E+02  0.4128700E+02  0.9047487E+01  0.0000000E+00
Ar 3489  0.4460611E+02  0.3910019E+02  0.1180551E+02  0.0000000E+00
Ar 3490  0.4755293E+02  0.4207365E+02  0.1172646E+02  0.0000000E+00
Ar 3491  0.4750085E+02  0.3918330E+02  0.1408849E+02  0.0000000E+00
Ar 3492  0.4476343E+02  0.4180445E+02  0.1442163E+02  0.0000000E+00
Ar 3493  0.4479766E+02  0.3922020E+02  0.1742158E+02  0.0000000E+00
Ar 3494  0.4753003E+02  0.4198439E+02  0.1699480E+02  0.0000000E+00
Ar 3495  0.4763477E+02  0.3925614E+02  0.1982594E+02  0.0000000E+00
Ar 3496  0.4472863E+02  0.4193197E+02  0.1993469E+02  0.0000000E+00
Ar 3497  0.4448736E+02  0.3901950E+02  0.2264463E+02  0.0000000E+00
Ar 3498  0.4757512E+02  0.4134053E+02  0.2259453E+02  0.0000000E+00
Ar 3499  0.4719143E+02  0.3912888E+02  0.2546414E+02  0.0000000E+00
Ar 3500  0.4427081E+02  0.4145493E+02  0.2528882E+02  0.0000000E+00
Ar 3501  0.4457286E+02  0.3901036E+02  0.2834323E+02  0.0000000E+00
Ar 3502  0.4713553E+02  0.4157433E+02  0.2817472E+02  0.0000000E+00
Ar 3503  0.4717551E+02  0.3912847E+02  0.3083152E+02  0.0000000E+00
Ar 3504  0.4437575E+02  0.4175498E+02  0.3088462E+02  0.0000000E+00
Ar 3505  0.4456885E+02  0.3908838E+02  0.3371179E+02  0.0000000E+00
Ar 3506  0.4706254E+02  0.4167516E+02  0.3354712E+02  0.0000000E+00
Ar 3507  0.4711741E+02  0.3900869E+02  0.3657926E+02  0.0000000E+00
Ar 3508  0.4466598E+02  0.4187023E+02  0.3640319E+02  0.0000000E+00
Ar 3509  0.4439240E+02  0.3924254E+02  0.3924256E+02  0.0000000E+00
Ar 3510  0.4732405E+02  0.4189473E+02  0.3918348E+02  0.0000000E+00
Ar 3511  0.4732413E+02  0.3918326E+02  0.4189495E+02  0.0000000E+00
Ar 3512  0.4479891E+02  0.4174805E+02  0.4174802E+02  0.0000000E+00
Ar 3513  0.4448187E+02  0.3900198E+02  0.4448156E+02  0.0000000E+00
Ar 3514  0.4714859E+02  0.4172303E+02  0.4448109E+02  0.0000000E+00
Ar 3515  0.4715493E+02  0.3915739E+02  0.4715433E+02  0.0000000E+00
Ar 3516  0.4448147E+02  0.4172294E+02  0.4714887E+02  0.0000000E+00
Ar 3517  0.4433686E+02  0.3908485E+02  0.4991826E+02  0.0000000E+00
Ar 3518  0.4722319E+02  0.4154340E+02  0.5003641E+02  0.0000000E+00
Ar 3519  0.4713897E+02  0.3894446E+02  0.5289504E+02  0.0000000E+00
Ar 3520  0.4452516E+02  0.4183715E+02  0.5323387E+02  0.0000000E+00
Ar 3521  0.4437576E+02  0.4437522E+02  0.5865705E+00  0.0000000E+00
Ar 3522  0.4749481E+02  0.4749152E+02  0.5530627E+02  0.0000000E+00
Ar 3523  0.4763976E+02  0.4433716E+02  0.3440346E+01  0.0000000E+00
Ar 3524  0.4433695E+02  0.4763967E+02  0.3438014E+01  0.0000000E+00
Ar 3525  0.4442296E+02  0.4442302E+02  0.6828916E+01  0.0000000E+00
Ar 3526  0.4755210E+02  0.4754052E+02  0.6232306E+01  0.0000000E+00
Ar 3527  0.4708473E+02  0.4447106E+02  0.9257050E+01  0.0000000E+00
Ar 3528  0.4447073E+02  0.4708191E+02  0.9260535E+01  0.0000000E+00
Ar 3529  0.4419506E+02  0.4419414E+02  0.1171718E+02  0.0000000E+00
Ar 3530  0.4722314E+02  0.4722141E+02  0.1173893E+02  0.0000000E+00
Ar 3531  0.4739344E+02  0.4476720E+02  0.1432028E+02  0.0000000E+00
Ar 3532  0.4476745E+02  0.4739320E+02  0.1432038E+02  0.0000000E+00
Ar 3533  0.4446154E+02  0.4446152E+02  0.1696424E+02  0.0000000E+00
Ar 3534  0.4744387E+02  0.4744379E+02  0.1730537E+02  0.0000000E+00
Ar 3535  0.4718205E+02  0.4451689E+02  0.1978450E+02  0.0000000E+00
Ar 3536  0.4451695E+02  0.4718197E+02  0.1978447E+02  0.0000000E+00
Ar 3537  0.4443097E+02  0.4443091E+02  0.2256349E+02  0.0000000E+00
Ar 3538  0.4702213E+02  0.4702207E+02  0.2269837E+02  0.0000000E+00
Ar 3539  0.4705441E+02  0.4404990E+02  0.2515523E+02  0.0000000E+00
Ar 3540  0.4404997E+02  0.4705436E+02  0.2515522E+02  0.0000000E+00
Ar 3541  0.4441852E+02  0.4441848E+02  0.2781298E+02  0.0000000E+00
Ar 3542  0.4737311E+02  0.4737304E+02  0.2831813E+02  0.0000000E+00
Ar 3543  0.4724930E+02  0.4445509E+02  0.3087902E+02  0.0000000E+00
Ar 3544  0.4445516E+02  0.4724923E+02  0.3087902E+02  0.0000000E+00
Ar 3545  0.4467725E+02  0.4467719E+02  0.3367913E+02  0.0000000E+00
Ar 3546  0.4738801E+02  0.4738793E+02  0.3384029E+02  0.0000000E+00
Ar 3547  0.4729859E+02  0.4446642E+02  0.3655777E+02  0.0000000E+00
Ar 3548  0.4446653E+02  0.4729847E+02  0.3655777E+02  0.0000000E+00
Ar 3549  0.4448183E+02  0.4448172E+02  0.3900199E+02  0.0000000E+00
Ar 3550  0.4715474E+02  0.4715459E+02  0.3915697E+02  0.0000000E+00
Ar 3551  0.4714873E+02  0.4448127E+02  0.4172295E+02  0.0000000E+00
Ar 3552  0.4448137E+02  0.4714865E+02  0.4172289E+02  0.0000000E+00
Ar 3553  0.4462548E+02  0.4462462E+02  0.4462482E+02  0.0000000E+00
Ar 3554  0.4711347E+02  0.4711376E+02  0.4451404E+02  0.0000000E+00
Ar 3555  0.4711465E+02  0.4451425E+02  0.4711478E+02  0.0000000E+00
Ar 3556  0.4451333E+02  0.4711037E+02  0.4711051E+02  0.0000000E+00
Ar 3557  0.4483851E+02  0.4483932E+02  0.4962129E+02  0.0000000E+00
Ar 3558  0.4753748E+02  0.4753678E+02  0.5020949E+02  0.0000000E+00
Ar 3559  0.4715294E+02  0.4471727E+02  0.5271952E+02  0.0000000E+00
Ar 3560  0.4472077E+02  0.4715518E+02  0.5272133E+02  0.0000000E+00
Ar 3561  0.4439005E+02  0.5039824E+02  0.5552254E+02  0.0000000E+00
Ar 3562  0.4760512E+02  0.5286984E+02  0.5581987E+02  0.0000000E+00
Ar 3563  0.4718674E+02  0.5027988E+02  0.2676622E+01  0.0000000E+00
Ar 3564  0.4457069E+02  0.5226201E+02  0.3527483E+01  0.0000000E+00
Ar 3565  0.4457447E+02  0.4984758E+02  0.6179219E+01  0.0000000E+00
Ar 3566  0.4747033E+02  0.5305177E+02  0.6460380E+01  0.0000000E+00
Ar 3567  0.4730197E+02  0.4997699E+02  0.9220761E+01  0.0000000E+00
Ar 3568  0.4450100E+02  0.5280105E+02  0.9129290E+01  0.0000000E+00
Ar 3569  0.4461202E+02  0.5010578E+02  0.1172285E+02  0.0000000E+00
Ar 3570  0.4742573E+02  0.5268979E+02  0.1148413E+02  0.0000000E+00
Ar 3571  0.4740287E+02  0.5003960E+02  0.1434899E+02  0.0000000E+00
Ar 3572  0.4450063E+02  0.5293664E+02  0.1434694E+02  0.0000000E+00
Ar 3573  0.4481022E+02  0.5005880E+02  0.1695700E+02  0.0000000E+00
Ar 3574  0.4715434E+02  0.5330124E+02  0.1689427E+02  0.0000000E+00
Ar 3575  0.4725996E+02  0.5011887E+02  0.1982140E+02  0.0000000E+00
Ar 3576  0.4456381E+02  0.5307834E+02  0.1958354E+02  0.0000000E+00
Ar 3577  0.4416530E+02  0.4993355E+02  0.2295726E+02  0.0000000E+00
Ar 3578  0.4699606E+02  0.5221018E+02  0.2288037E+02  0.0000000E+00
Ar 3579  0.4720629E+02  0.5024117E+02  0.2565590E+02  0.0000000E+00
Ar 3580  0.4424223E+02  0.5285907E+02  0.2556146E+02  0.0000000E+00
Ar 3581  0.4440972E+02  0.4963823E+02  0.2802512E+02  0.0000000E+00
Ar 3582  0.4736154E+02  0.5272246E+02  0.2822581E+02  0.0000000E+00
Ar 3583  0.4724067E+02  0.4994073E+02  0.3107463E+02  0.0000000E+00
Ar 3584  0.4458185E+02  0.5271232E+02  0.3045197E+02  0.0000000E+00
Ar 3585  0.4434917E+02  0.4980682E+02  0.3398244E+02  0.0000000E+00
Ar 3586  0.4705727E+02  0.5289820E+02  0.3358941E+02  0.0000000E+00
Ar 3587  0.4726901E+02  0.4989587E+02  0.3650527E+02  0.0000000E+00
Ar 3588  0.4425022E+02  0.5294358E+02  0.3589199E+02  0.0000000E+00
Ar 3589  0.4433739E+02  0.4991857E+02  0.3908392E+02  0.0000000E+00
Ar 3590  0.4714099E+02  0.5289747E+02  0.3894469E+02  0.0000000E+00
Ar 3591  0.4722105E+02  0.5003437E+02  0.4154329E+02  0.0000000E+00
Ar 3592  0.4452522E+02  0.5323438E+02  0.4183708E+02  0.0000000E+00
Ar 3593  0.4483841E+02  0.4962126E+02  0.4483951E+02  0.0000000E+00
Ar 3594  0.4715239E+02  0.5271938E+02  0.4471862E+02  0.0000000E+00
Ar 3595  0.4753798E+02  0.5020941E+02  0.4753664E+02  0.0000000E+00
Ar 3596  0.4471930E+02  0.5272148E+02  0.4715564E+02  0.0000000E+00
Ar 3597  0.4450755E+02  0.4963808E+02  0.4963691E+02  0.0000000E+00
Ar 3598  0.4759779E+02  0.5269723E+02  0.5041972E+02  0.0000000E+00
Ar 3599  0.4759741E+02  0.5042022E+02  0.5269742E+02  0.0000000E+00
Ar 3600  0.4492535E+02  0.5296239E+02  0.5296284E+02  0.0000000E+00
Ar 3601  0.5016323E+02  0.8799911E+00  0.8797090E+00  0.0000000E+00
Ar 3602  0.5235023E+02  0.3763830E+01  0.5553129E+02  0.0000000E+00
Ar 3603  0.5235016E+02  0.5553125E+02  0.3764046E+01  0.0000000E+00
Ar 3604  0.5006227E+02  0.3376265E+01  0.3376201E+01  0.0000000E+00
Ar 3605  0.4982791E+02  0.3867300E+00  0.6570706E+01  0.0000000E+00
Ar 3606  0.5317845E+02  0.3679610E+01  0.6002005E+01  0.0000000E+00
Ar 3607  0.5334669E+02  0.6927901E+00  0.9214186E+01  0.0000000E+00
Ar 3608  0.5023560E+02  0.3845864E+01  0.9276904E+01  0.0000000E+00
Ar 3609  0.5093417E+02  0.4938803E+00  0.1164572E+02  0.0000000E+00
Ar 3610  0.5291676E+02  0.3511403E+01  0.1209429E+02  0.0000000E+00
Ar 3611  0.5284788E+02  0.4762456E+00  0.1406316E+02  0.0000000E+00
Ar 3612  0.4993333E+02  0.3299324E+01  0.1467195E+02  0.0000000E+00
Ar 3613  0.5040717E+02  0.5566180E+02  0.1728473E+02  0.0000000E+00
Ar 3614  0.5308151E+02  0.3073568E+01  0.1720440E+02  0.0000000E+00
Ar 3615  0.5305011E+02  0.5579672E+02  0.2008492E+02  0.0000000E+00
Ar 3616  0.4967594E+02  0.3365926E+01  0.1955313E+02  0.0000000E+00
Ar 3617  0.4961871E+02  0.5558858E+02  0.2270538E+02  0.0000000E+00
Ar 3618  0.5280120E+02  0.3316418E+01  0.2268863E+02  0.0000000E+00
Ar 3619  0.5211369E+02  0.5536937E+02  0.2572788E+02  0.0000000E+00
Ar 3620  0.5000052E+02  0.3007577E+01  0.2531723E+02  0.0000000E+00
Ar 3621  0.4981140E+02  0.5541343E+02  0.2854827E+02  0.0000000E+00
Ar 3622  0.5293471E+02  0.3086368E+01  0.2813157E+02  0.0000000E+00
Ar 3623  0.5271392E+02  0.6381937E+00  0.3093706E+02  0.0000000E+00
Ar 3624  0.4981348E+02  0.3376133E+01  0.3065034E+02  0.0000000E+00
Ar 3625  0.4978137E+02  0.6646953E+00  0.3378394E+02  0.0000000E+00
Ar 3626  0.5290806E+02  0.3751050E+01  0.3359506E+02  0.0000000E+00
Ar 3627  0.5278806E+02  0.5560538E+02  0.3572335E+02  0.0000000E+00
Ar 3628  0.4989073E+02  0.3374538E+01  0.3677339E+02  0.0000000E+00
Ar 3629  0.5007668E+02  0.5564039E+02  0.3936913E+02  0.0000000E+00
Ar 3630  0.5324634E+02  0.3088279E+01  0.3873126E+02  0.0000000E+00
Ar 3631  0.5333741E+02  0.5590836E+02  0.4247220E+02  0.0000000E+00
Ar 3632  0.5071963E+02  0.2893166E+01  0.4154581E+02  0.0000000E+00
Ar 3633  0.5040821E+02  0.5552326E+02  0.4438504E+02  0.0000000E+00
Ar 3634  0.5225896E+02  0.3519446E+01  0.4457462E+02  0.0000000E+00
Ar 3635  0.5286830E+02  0.5581992E+02  0.4760742E+02  0.0000000E+00
Ar 3636  0.5027844E+02  0.2676431E+01  0.4718783E+02  0.0000000E+00
Ar 3637  0.4975241E+02  0.5581341E+02  0.4975184E+02  0.0000000E+00
Ar 3638  0.5288286E+02  0.3687873E+01  0.5011107E+02  0.0000000E+00
Ar 3639  0.5300979E+02  0.1447265E+01  0.5300920E+02  0.0000000E+00
Ar 3640  0.5011545E+02  0.3687976E+01  0.5287924E+02  0.0000000E+00
Ar 3641  0.4982924E+02  0.6569696E+01  0.3856372E+00  0.0000000E+00
Ar 3642  0.5334709E+02  0.9214316E+01  0.6928959E+00  0.0000000E+00
Ar 3643  0.5317847E+02  0.6001934E+01  0.3679736E+01  0.0000000E+00
Ar 3644  0.5023598E+02  0.9276980E+01  0.3845893E+01  0.0000000E+00
Ar 3645  0.5004070E+02  0.6278535E+01  0.6277313E+01  0.0000000E+00
Ar 3646  0.5304721E+02  0.9019479E+01  0.5949201E+01  0.0000000E+00
Ar 3647  0.5304702E+02  0.5949248E+01  0.9019385E+01  0.0000000E+00
Ar 3648  0.5015676E+02  0.9146648E+01  0.9146625E+01  0.0000000E+00
Ar 3649  0.5046727E+02  0.6162426E+01  0.1164563E+02  0.0000000E+00
Ar 3650  0.5318328E+02  0.8515777E+01  0.1182861E+02  0.0000000E+00
Ar 3651  0.5280329E+02  0.5823343E+01  0.1490299E+02  0.0000000E+00
Ar 3652  0.5043555E+02  0.9045484E+01  0.1439134E+02  0.0000000E+00
Ar 3653  0.4953462E+02  0.6416101E+01  0.1695624E+02  0.0000000E+00
Ar 3654  0.5318104E+02  0.8920456E+01  0.1718521E+02  0.0000000E+00
Ar 3655  0.5271443E+02  0.5518873E+01  0.1982375E+02  0.0000000E+00
Ar 3656  0.4985540E+02  0.8832324E+01  0.1970061E+02  0.0000000E+00
Ar 3657  0.5000846E+02  0.5905178E+01  0.2277553E+02  0.0000000E+00
Ar 3658  0.5282456E+02  0.8681886E+01  0.2215279E+02  0.0000000E+00
Ar 3659  0.5285171E+02  0.6043700E+01  0.2547770E+02  0.0000000E+00
Ar 3660  0.4998460E+02  0.8539152E+01  0.2525314E+02  0.0000000E+00
Ar 3661  0.4992450E+02  0.5771964E+01  0.2792076E+02  0.0000000E+00
Ar 3662  0.5233488E+02  0.8984748E+01  0.2779716E+02  0.0000000E+00
Ar 3663  0.5261564E+02  0.6117694E+01  0.3068520E+02  0.0000000E+00
Ar 3664  0.4999529E+02  0.8833427E+01  0.3062219E+02  0.0000000E+00
Ar 3665  0.4946222E+02  0.6089111E+01  0.3356823E+02  0.0000000E+00
Ar 3666  0.5257487E+02  0.8794766E+01  0.3344804E+02  0.0000000E+00
Ar 3667  0.5281664E+02  0.6660653E+01  0.3636302E+02  0.0000000E+00
Ar 3668  0.5008996E+02  0.8847411E+01  0.3631338E+02  0.0000000E+00
Ar 3669  0.5004752E+02  0.6414223E+01  0.3891531E+02  0.0000000E+00
Ar 3670  0.5315871E+02  0.9044811E+01  0.3912335E+02  0.0000000E+00
Ar 3671  0.5266378E+02  0.6566330E+01  0.4202154E+02  0.0000000E+00
Ar 3672  0.5002927E+02  0.8936766E+01  0.4184636E+02  0.0000000E+00
Ar 3673  0.4985119E+02  0.6179722E+01  0.4457114E+02  0.0000000E+00
Ar 3674  0.5280378E+02  0.9125581E+01  0.4449585E+02  0.0000000E+00
Ar 3675  0.5305181E+02  0.6461010E+01  0.4746939E+02  0.0000000E+00
Ar 3676  0.4997726E+02  0.9220488E+01  0.4730001E+02  0.0000000E+00
Ar 3677  0.4996538E+02  0.6193622E+01  0.4996456E+02  0.0000000E+00
Ar 3678  0.5304181E+02  0.9354054E+01  0.5046160E+02  0.0000000E+00
Ar 3679  0.5277635E+02  0.6514862E+01  0.5277978E+02  0.0000000E+00
Ar 3680  0.5045954E+02  0.9361144E+01  0.5303345E+02  0.0000000E+00
Ar 3681  0.5094730E+02  0.1165896E+02  0.4935873E+00  0.0000000E+00
Ar 3682  0.5285582E+02  0.1407381E+02  0.4753915E+00  0.0000000E+00
Ar 3683  0.5291676E+02  0.1209524E+02  0.3510091E+01  0.0000000E+00
Ar 3684  0.4993341E+02  0.1467196E+02  0.3299226E+01  0.0000000E+00
Ar 3685  0.5046721E+02  0.1164562E+02  0.6162404E+01  0.0000000E+00
Ar 3686  0.5280338E+02  0.1490298E+02  0.5823360E+01  0.0000000E+00
Ar 3687  0.5318332E+02  0.1182860E+02  0.8515683E+01  0.0000000E+00
Ar 3688  0.5043558E+02  0.1439133E+02  0.9045487E+01  0.0000000E+00
Ar 3689  0.5006365E+02  0.1161627E+02  0.1161622E+02  0.0000000E+00
Ar 3690  0.5330175E+02  0.1444983E+02  0.1147983E+02  0.0000000E+00
Ar 3691  0.5330176E+02  0.1147985E+02  0.1444985E+02  0.0000000E+00
Ar 3692  0.5034183E+02  0.1423632E+02  0.1423634E+02  0.0000000E+00
Ar 3693  0.5013854E+02  0.1161911E+02  0.1701971E+02  0.0000000E+00
Ar 3694  0.5297090E+02  0.1436500E+02  0.1699798E+02  0.0000000E+00
Ar 3695  0.5257764E+02  0.1171851E+02  0.1964924E+02  0.0000000E+00
Ar 3696  0.5009768E+02  0.1435528E+02  0.1950429E+02  0.0000000E+00
Ar 3697  0.5010323E+02  0.1137433E+02  0.2234151E+02  0.0000000E+00
Ar 3698  0.5263303E+02  0.1453197E+02  0.2212225E+02  0.0000000E+00
Ar 3699  0.5262740E+02  0.1174040E+02  0.2494681E+02  0.0000000E+00
Ar 3700  0.4994633E+02  0.1450581E+02  0.2506091E+02  0.0000000E+00
Ar 3701  0.4996090E+02  0.1160719E+02  0.2757131E+02  0.0000000E+00
Ar 3702  0.5246625E+02  0.1412656E+02  0.2802036E+02  0.0000000E+00
Ar 3703  0.5269748E+02  0.1159411E+02  0.3077662E+02  0.0000000E+00
Ar 3704  0.4976435E+02  0.1444841E+02  0.3076143E+02  0.0000000E+00
Ar 3705  0.4990879E+02  0.1164153E+02  0.3338560E+02  0.0000000E+00
Ar 3706  0.5239823E+02  0.1403234E+02  0.3359105E+02  0.0000000E+00
Ar 3707  0.5288590E+02  0.1157297E+02  0.3627819E+02  0.0000000E+00
Ar 3708  0.5013343E+02  0.1423835E+02  0.3650703E+02  0.0000000E+00
Ar 3709  0.5020871E+02  0.1166596E+02  0.3891878E+02  0.0000000E+00
Ar 3710  0.5270511E+02  0.1444451E+02  0.3916106E+02  0.0000000E+00
Ar 3711  0.5272899E+02  0.1157860E+02  0.4194978E+02  0.0000000E+00
Ar 3712  0.5004086E+02  0.1435868E+02  0.4212085E+02  0.0000000E+00
Ar 3713  0.5010808E+02  0.1172192E+02  0.4461015E+02  0.0000000E+00
Ar 3714  0.5293808E+02  0.1434485E+02  0.4449799E+02  0.0000000E+00
Ar 3715  0.5269048E+02  0.1148204E+02  0.4742561E+02  0.0000000E+00
Ar 3716  0.5003906E+02  0.1434917E+02  0.4740243E+02  0.0000000E+00
Ar 3717  0.5012702E+02  0.1174717E+02  0.5012915E+02  0.0000000E+00
Ar 3718  0.5276067E+02  0.1437780E+02  0.4985295E+02  0.0000000E+00
Ar 3719  0.5307739E+02  0.1146713E+02  0.5307586E+02  0.0000000E+00
Ar 3720  0.4985333E+02  0.1437853E+02  0.5276019E+02  0.0000000E+00
Ar 3721  0.5040762E+02  0.1728436E+02  0.5566186E+02  0.0000000E+00
Ar 3722  0.5305045E+02  0.2008775E+02  0.5579529E+02  0.0000000E+00
Ar 3723  0.5308185E+02  0.1720416E+02  0.3074485E+01  0.0000000E+00
Ar 3724  0.4967596E+02  0.1955288E+02  0.3366646E+01  0.0000000E+00
Ar 3725  0.4953516E+02  0.1695496E+02  0.6417596E+01  0.0000000E+00
Ar 3726  0.5271585E+02  0.1982302E+02  0.5518966E+01  0.0000000E+00
Ar 3727  0.5318111E+02  0.1718519E+02  0.8920457E+01  0.0000000E+00
Ar 3728  0.4985547E+02  0.1970036E+02  0.8832578E+01  0.0000000E+00
Ar 3729  0.5013850E+02  0.1701962E+02  0.1161909E+02  0.0000000E+00
Ar 3730  0.5257758E+02  0.1964912E+02  0.1171861E+02  0.0000000E+00
Ar 3731  0.5297090E+02  0.1699795E+02  0.1436505E+02  0.0000000E+00
Ar 3732  0.5009760E+02  0.1950419E+02  0.1435533E+02  0.0000000E+00
Ar 3733  0.4998289E+02  0.1692913E+02  0.1692920E+02  0.0000000E+00
Ar 3734  0.5270821E+02  0.1970273E+02  0.1706565E+02  0.0000000E+00
Ar 3735  0.5270823E+02  0.1706557E+02  0.1970281E+02  0.0000000E+00
Ar 3736  0.4992936E+02  0.1976105E+02  0.1976110E+02  0.0000000E+00
Ar 3737  0.4998036E+02  0.1713119E+02  0.2246196E+02  0.0000000E+00
Ar 3738  0.5287296E+02  0.1985389E+02  0.2246665E+02  0.0000000E+00
Ar 3739  0.5290605E+02  0.1705977E+02  0.2514846E+02  0.0000000E+00
Ar 3740  0.5017403E+02  0.1976883E+02  0.2505795E+02  0.0000000E+00
Ar 3741  0.4998140E+02  0.1701040E+02  0.2796651E+02  0.0000000E+00
Ar 3742  0.5284279E+02  0.1963880E+02  0.2787198E+02  0.0000000E+00
Ar 3743  0.5264285E+02  0.1718986E+02  0.3071890E+02  0.0000000E+00
Ar 3744  0.5011929E+02  0.1975170E+02  0.3045067E+02  0.0000000E+00
Ar 3745  0.4996068E+02  0.1679294E+02  0.3370295E+02  0.0000000E+00
Ar 3746  0.5247965E+02  0.1953699E+02  0.3352117E+02  0.0000000E+00
Ar 3747  0.5293815E+02  0.1680313E+02  0.3611263E+02  0.0000000E+00
Ar 3748  0.4968079E+02  0.1952721E+02  0.3616723E+02  0.0000000E+00
Ar 3749  0.4995875E+02  0.1697096E+02  0.3910394E+02  0.0000000E+00
Ar 3750  0.5280796E+02  0.1938644E+02  0.3907547E+02  0.0000000E+00
Ar 3751  0.5269021E+02  0.1701895E+02  0.4186481E+02  0.0000000E+00
Ar 3752  0.5012267E+02  0.1984118E+02  0.4183622E+02  0.0000000E+00
Ar 3753  0.5005908E+02  0.1695716E+02  0.4481039E+02  0.0000000E+00
Ar 3754  0.5307907E+02  0.1958371E+02  0.4456441E+02  0.0000000E+00
Ar 3755  0.5330039E+02  0.1689509E+02  0.4715612E+02  0.0000000E+00
Ar 3756  0.5011874E+02  0.1982159E+02  0.4726010E+02  0.0000000E+00
Ar 3757  0.4985092E+02  0.1690455E+02  0.4985035E+02  0.0000000E+00
Ar 3758  0.5295518E+02  0.1980838E+02  0.4995730E+02  0.0000000E+00
Ar 3759  0.5302309E+02  0.1702551E+02  0.5302129E+02  0.0000000E+00
Ar 3760  0.4995575E+02  0.1980739E+02  0.5295643E+02  0.0000000E+00
Ar 3761  0.4961469E+02  0.2270256E+02  0.5559097E+02  0.0000000E+00
Ar 3762  0.5211513E+02  0.2573550E+02  0.5537096E+02  0.0000000E+00
Ar 3763  0.5280309E+02  0.2269219E+02  0.3314780E+01  0.0000000E+00
Ar 3764  0.5000131E+02  0.2531517E+02  0.3006797E+01  0.0000000E+00
Ar 3765  0.5000476E+02  0.2277382E+02  0.5903032E+01  0.0000000E+00
Ar 3766  0.5285022E+02  0.2547386E+02  0.6048384E+01  0.0000000E+00
Ar 3767  0.5282446E+02  0.2215268E+02  0.8682163E+01  0.0000000E+00
Ar 3768  0.4998339E+02  0.2525288E+02  0.8538778E+01  0.0000000E+00
Ar 3769  0.5010283E+02  0.2234118E+02  0.1137450E+02  0.0000000E+00
Ar 3770  0.5262710E+02  0.2494666E+02  0.1174050E+02  0.0000000E+00
Ar 3771  0.5263296E+02  0.2212216E+02  0.1453208E+02  0.0000000E+00
Ar 3772  0.4994621E+02  0.2506073E+02  0.1450617E+02  0.0000000E+00
Ar 3773  0.4998031E+02  0.2246185E+02  0.1713133E+02  0.0000000E+00
Ar 3774  0.5290603E+02  0.2514842E+02  0.1705988E+02  0.0000000E+00
Ar 3775  0.5287295E+02  0.2246665E+02  0.1985392E+02  0.0000000E+00
Ar 3776  0.5017401E+02  0.2505794E+02  0.1976885E+02  0.0000000E+00
Ar 3777  0.4986752E+02  0.2243415E+02  0.2243416E+02  0.0000000E+00
Ar 3778  0.5278811E+02  0.2524453E+02  0.2249982E+02  0.0000000E+00
Ar 3779  0.5278812E+02  0.2249982E+02  0.2524459E+02  0.0000000E+00
Ar 3780  0.5026530E+02  0.2512753E+02  0.2512754E+02  0.0000000E+00
Ar 3781  0.5011547E+02  0.2265576E+02  0.2798577E+02  0.0000000E+00
Ar 3782  0.5251868E+02  0.2518166E+02  0.2835783E+02  0.0000000E+00
Ar 3783  0.5272416E+02  0.2214644E+02  0.3047781E+02  0.0000000E+00
Ar 3784  0.4980070E+02  0.2525945E+02  0.3116215E+02  0.0000000E+00
Ar 3785  0.4996744E+02  0.2236218E+02  0.3374591E+02  0.0000000E+00
Ar 3786  0.5253399E+02  0.2501189E+02  0.3337494E+02  0.0000000E+00
Ar 3787  0.5296273E+02  0.2261424E+02  0.3632590E+02  0.0000000E+00
Ar 3788  0.5004429E+02  0.2508095E+02  0.3639967E+02  0.0000000E+00
Ar 3789  0.5042909E+02  0.2264595E+02  0.3907332E+02  0.0000000E+00
Ar 3790  0.5296828E+02  0.2512389E+02  0.3921226E+02  0.0000000E+00
Ar 3791  0.5295414E+02  0.2251320E+02  0.4198321E+02  0.0000000E+00
Ar 3792  0.5014288E+02  0.2548655E+02  0.4163698E+02  0.0000000E+00
Ar 3793  0.4993322E+02  0.2295716E+02  0.4416659E+02  0.0000000E+00
Ar 3794  0.5285712E+02  0.2556235E+02  0.4424164E+02  0.0000000E+00
Ar 3795  0.5221056E+02  0.2288059E+02  0.4699691E+02  0.0000000E+00
Ar 3796  0.5024327E+02  0.2565685E+02  0.4720596E+02  0.0000000E+00
Ar 3797  0.4980734E+02  0.2312791E+02  0.4980749E+02  0.0000000E+00
Ar 3798  0.5263347E+02  0.2558855E+02  0.4982651E+02  0.0000000E+00
Ar 3799  0.5230846E+02  0.2260127E+02  0.5231369E+02  0.0000000E+00
Ar 3800  0.4982157E+02  0.2559200E+02  0.5263883E+02  0.0000000E+00
Ar 3801  0.4976023E+02  0.2850981E+02  0.5539405E+02  0.0000000E+00
Ar 3802  0.5269139E+02  0.3088591E+02  0.6675651E+00  0.0000000E+00
Ar 3803  0.5293044E+02  0.2810483E+02  0.3112589E+01  0.0000000E+00
Ar 3804  0.4981581E+02  0.3065505E+02  0.3372821E+01  0.0000000E+00
Ar 3805  0.4992441E+02  0.2792682E+02  0.5768961E+01  0.0000000E+00
Ar 3806  0.5262158E+02  0.3069673E+02  0.6113146E+01  0.0000000E+00
Ar 3807  0.5233503E+02  0.2779755E+02  0.8983707E+01  0.0000000E+00
Ar 3808  0.5000119E+02  0.3061985E+02  0.8825772E+01  0.0000000E+00
Ar 3809  0.4996059E+02  0.2757104E+02  0.1160758E+02  0.0000000E+00
Ar 3810  0.5269729E+02  0.3077771E+02  0.1159663E+02  0.0000000E+00
Ar 3811  0.5246582E+02  0.2801993E+02  0.1412698E+02  0.0000000E+00
Ar 3812  0.4976466E+02  0.3076157E+02  0.1444874E+02  0.0000000E+00
Ar 3813  0.4998139E+02  0.2796650E+02  0.1701047E+02  0.0000000E+00
Ar 3814  0.5264293E+02  0.3071900E+02  0.1718981E+02  0.0000000E+00
Ar 3815  0.5284278E+02  0.2787197E+02  0.1963878E+02  0.0000000E+00
Ar 3816  0.5011941E+02  0.3045053E+02  0.1975178E+02  0.0000000E+00
Ar 3817  0.5011548E+02  0.2798572E+02  0.2265577E+02  0.0000000E+00
Ar 3818  0.5272416E+02  0.3047773E+02  0.2214658E+02  0.0000000E+00
Ar 3819  0.5251869E+02  0.2835779E+02  0.2518170E+02  0.0000000E+00
Ar 3820  0.4980076E+02  0.3116214E+02  0.2525945E+02  0.0000000E+00
Ar 3821  0.4978996E+02  0.2786315E+02  0.2786316E+02  0.0000000E+00
Ar 3822  0.5294933E+02  0.3109151E+02  0.2844863E+02  0.0000000E+00
Ar 3823  0.5294929E+02  0.2844860E+02  0.3109148E+02  0.0000000E+00
Ar 3824  0.4998047E+02  0.3067728E+02  0.3067723E+02  0.0000000E+00
Ar 3825  0.4993381E+02  0.2820160E+02  0.3347295E+02  0.0000000E+00
Ar 3826  0.5243412E+02  0.3110163E+02  0.3401184E+02  0.0000000E+00
Ar 3827  0.5279448E+02  0.2771681E+02  0.3645926E+02  0.0000000E+00
Ar 3828  0.5000378E+02  0.3080571E+02  0.3664477E+02  0.0000000E+00
Ar 3829  0.5008951E+02  0.2795487E+02  0.3890630E+02  0.0000000E+00
Ar 3830  0.5294009E+02  0.3093751E+02  0.3874225E+02  0.0000000E+00
Ar 3831  0.5293152E+02  0.2809204E+02  0.4150678E+02  0.0000000E+00
Ar 3832  0.5018473E+02  0.3085726E+02  0.4176007E+02  0.0000000E+00
Ar 3833  0.4963830E+02  0.2802447E+02  0.4440931E+02  0.0000000E+00
Ar 3834  0.5271196E+02  0.3044940E+02  0.4458237E+02  0.0000000E+00
Ar 3835  0.5272860E+02  0.2822732E+02  0.4737062E+02  0.0000000E+00
Ar 3836  0.4993732E+02  0.3107311E+02  0.4724279E+02  0.0000000E+00
Ar 3837  0.5017202E+02  0.2794807E+02  0.5017817E+02  0.0000000E+00
Ar 3838  0.5254703E+02  0.3097968E+02  0.4972115E+02  0.0000000E+00
Ar 3839  0.5302826E+02  0.2828150E+02  0.5301805E+02  0.0000000E+00
Ar 3840  0.4972899E+02  0.3099497E+02  0.5255103E+02  0.0000000E+00
Ar 3841  0.4978424E+02  0.3376025E+02  0.6635066E+00  0.0000000E+00
Ar 3842  0.5276221E+02  0.3575857E+02  0.5559213E+02  0.0000000E+00
Ar 3843  0.5284506E+02  0.3355541E+02  0.3762786E+01  0.0000000E+00
Ar 3844  0.4988710E+02  0.3677402E+02  0.3363687E+01  0.0000000E+00
Ar 3845  0.4946459E+02  0.3355733E+02  0.6088824E+01  0.0000000E+00
Ar 3846  0.5281120E+02  0.3638123E+02  0.6644907E+01  0.0000000E+00
Ar 3847  0.5257380E+02  0.3345600E+02  0.8789890E+01  0.0000000E+00
Ar 3848  0.5009266E+02  0.3630958E+02  0.8839780E+01  0.0000000E+00
Ar 3849  0.4990686E+02  0.3338689E+02  0.1164356E+02  0.0000000E+00
Ar 3850  0.5288601E+02  0.3627901E+02  0.1157273E+02  0.0000000E+00
Ar 3851  0.5239825E+02  0.3359128E+02  0.1403257E+02  0.0000000E+00
Ar 3852  0.5013351E+02  0.3650746E+02  0.1423858E+02  0.0000000E+00
Ar 3853  0.4996054E+02  0.3370300E+02  0.1679281E+02  0.0000000E+00
Ar 3854  0.5293744E+02  0.3611183E+02  0.1680386E+02  0.0000000E+00
Ar 3855  0.5247983E+02  0.3352108E+02  0.1953715E+02  0.0000000E+00
Ar 3856  0.4968064E+02  0.3616733E+02  0.1952736E+02  0.0000000E+00
Ar 3857  0.4996747E+02  0.3374590E+02  0.2236215E+02  0.0000000E+00
Ar 3858  0.5296286E+02  0.3632607E+02  0.2261414E+02  0.0000000E+00
Ar 3859  0.5253407E+02  0.3337508E+02  0.2501171E+02  0.0000000E+00
Ar 3860  0.5004436E+02  0.3639988E+02  0.2508077E+02  0.0000000E+00
Ar 3861  0.4993382E+02  0.3347297E+02  0.2820154E+02  0.0000000E+00
Ar 3862  0.5279444E+02  0.3645924E+02  0.2771679E+02  0.0000000E+00
Ar 3863  0.5243417E+02  0.3401193E+02  0.3110153E+02  0.0000000E+00
Ar 3864  0.5000378E+02  0.3664482E+02  0.3080574E+02  0.0000000E+00
Ar 3865  0.4972272E+02  0.3342967E+02  0.3342965E+02  0.0000000E+00
Ar 3866  0.5281022E+02  0.3676047E+02  0.3370559E+02  0.0000000E+00
Ar 3867  0.5281022E+02  0.3370575E+02  0.3676027E+02  0.0000000E+00
Ar 3868  0.5003292E+02  0.3629544E+02  0.3629546E+02  0.0000000E+00
Ar 3869  0.4977499E+02  0.3353348E+02  0.3909468E+02  0.0000000E+00
Ar 3870  0.5295059E+02  0.3667427E+02  0.3924831E+02  0.0000000E+00
Ar 3871  0.5274265E+02  0.3351213E+02  0.4158835E+02  0.0000000E+00
Ar 3872  0.5021132E+02  0.3644006E+02  0.4157519E+02  0.0000000E+00
Ar 3873  0.4980710E+02  0.3398117E+02  0.4435052E+02  0.0000000E+00
Ar 3874  0.5294389E+02  0.3589035E+02  0.4425133E+02  0.0000000E+00
Ar 3875  0.5290078E+02  0.3359222E+02  0.4706021E+02  0.0000000E+00
Ar 3876  0.4989652E+02  0.3650597E+02  0.4726832E+02  0.0000000E+00
Ar 3877  0.5013896E+02  0.3391964E+02  0.5014131E+02  0.0000000E+00
Ar 3878  0.5320368E+02  0.3607267E+02  0.5020337E+02  0.0000000E+00
Ar 3879  0.5281610E+02  0.3319680E+02  0.5281917E+02  0.0000000E+00
Ar 3880  0.5019551E+02  0.3606678E+02  0.5320443E+02  0.0000000E+00
Ar 3881  0.5006983E+02  0.3938048E+02  0.5563738E+02  0.0000000E+00
Ar 3882  0.5333506E+02  0.4246976E+02  0.5590554E+02  0.0000000E+00
Ar 3883  0.5326187E+02  0.3872242E+02  0.3116589E+01  0.0000000E+00
Ar 3884  0.5072425E+02  0.4153400E+02  0.2890346E+01  0.0000000E+00
Ar 3885  0.5003891E+02  0.3890530E+02  0.6405005E+01  0.0000000E+00
Ar 3886  0.5267910E+02  0.4200580E+02  0.6536690E+01  0.0000000E+00
Ar 3887  0.5318125E+02  0.3912731E+02  0.9038127E+01  0.0000000E+00
Ar 3888  0.5004014E+02  0.4184292E+02  0.8926126E+01  0.0000000E+00
Ar 3889  0.5020923E+02  0.3891874E+02  0.1166491E+02  0.0000000E+00
Ar 3890  0.5273066E+02  0.4194296E+02  0.1157816E+02  0.0000000E+00
Ar 3891  0.5270498E+02  0.3916124E+02  0.1444580E+02  0.0000000E+00
Ar 3892  0.5004121E+02  0.4212009E+02  0.1435762E+02  0.0000000E+00
Ar 3893  0.4995864E+02  0.3910426E+02  0.1697118E+02  0.0000000E+00
Ar 3894  0.5269022E+02  0.4186481E+02  0.1701901E+02  0.0000000E+00
Ar 3895  0.5280772E+02  0.3907563E+02  0.1938624E+02  0.0000000E+00
Ar 3896  0.5012210E+02  0.4183606E+02  0.1984017E+02  0.0000000E+00
Ar 3897  0.5042940E+02  0.3907359E+02  0.2264548E+02  0.0000000E+00
Ar 3898  0.5295246E+02  0.4198178E+02  0.2251304E+02  0.0000000E+00
Ar 3899  0.5296801E+02  0.3921262E+02  0.2512403E+02  0.0000000E+00
Ar 3900  0.5014308E+02  0.4163716E+02  0.2548726E+02  0.0000000E+00
Ar 3901  0.5008966E+02  0.3890634E+02  0.2795501E+02  0.0000000E+00
Ar 3902  0.5293120E+02  0.4150754E+02  0.2809211E+02  0.0000000E+00
Ar 3903  0.5294021E+02  0.3874219E+02  0.3093704E+02  0.0000000E+00
Ar 3904  0.5018503E+02  0.4176209E+02  0.3085760E+02  0.0000000E+00
Ar 3905  0.4977434E+02  0.3909412E+02  0.3353377E+02  0.0000000E+00
Ar 3906  0.5274249E+02  0.4158801E+02  0.3351318E+02  0.0000000E+00
Ar 3907  0.5295081E+02  0.3924788E+02  0.3667463E+02  0.0000000E+00
Ar 3908  0.5021157E+02  0.4157447E+02  0.3644075E+02  0.0000000E+00
Ar 3909  0.4990131E+02  0.3941037E+02  0.3941051E+02  0.0000000E+00
Ar 3910  0.5311044E+02  0.4205789E+02  0.3914060E+02  0.0000000E+00
Ar 3911  0.5311017E+02  0.3914052E+02  0.4205799E+02  0.0000000E+00
Ar 3912  0.4989780E+02  0.4205689E+02  0.4205724E+02  0.0000000E+00
Ar 3913  0.4991822E+02  0.3908296E+02  0.4433799E+02  0.0000000E+00
Ar 3914  0.5323406E+02  0.4183768E+02  0.4452476E+02  0.0000000E+00
Ar 3915  0.5289531E+02  0.3894650E+02  0.4713949E+02  0.0000000E+00
Ar 3916  0.5003307E+02  0.4154396E+02  0.4721982E+02  0.0000000E+00
Ar 3917  0.5023998E+02  0.3909100E+02  0.5024007E+02  0.0000000E+00
Ar 3918  0.5266791E+02  0.4203311E+02  0.4953552E+02  0.0000000E+00
Ar 3919  0.5293119E+02  0.4051164E+02  0.5292253E+02  0.0000000E+00
Ar 3920  0.4953554E+02  0.4203239E+02  0.5267052E+02  0.0000000E+00
Ar 3921  0.5040600E+02  0.4438434E+02  0.5552567E+02  0.0000000E+00
Ar 3922  0.5286948E+02  0.4760722E+02  0.5582123E+02  0.0000000E+00
Ar 3923  0.5225585E+02  0.4458240E+02  0.3513594E+01  0.0000000E+00
Ar 3924  0.5027571E+02  0.4719053E+02  0.2674894E+01  0.0000000E+00
Ar 3925  0.4985603E+02  0.4456158E+02  0.6183063E+01  0.0000000E+00
Ar 3926  0.5305230E+02  0.4746972E+02  0.6461915E+01  0.0000000E+00
Ar 3927  0.5281074E+02  0.4448364E+02  0.9118862E+01  0.0000000E+00
Ar 3928  0.4997887E+02  0.4729517E+02  0.9218294E+01  0.0000000E+00
Ar 3929  0.5011193E+02  0.4460644E+02  0.1171953E+02  0.0000000E+00
Ar 3930  0.5269120E+02  0.4742534E+02  0.1147883E+02  0.0000000E+00
Ar 3931  0.5293807E+02  0.4449548E+02  0.1434126E+02  0.0000000E+00
Ar 3932  0.5004001E+02  0.4740210E+02  0.1434939E+02  0.0000000E+00
Ar 3933  0.5005907E+02  0.4481008E+02  0.1695683E+02  0.0000000E+00
Ar 3934  0.5330138E+02  0.4715388E+02  0.1689375E+02  0.0000000E+00
Ar 3935  0.5307849E+02  0.4456401E+02  0.1958376E+02  0.0000000E+00
Ar 3936  0.5011893E+02  0.4725988E+02  0.1982135E+02  0.0000000E+00
Ar 3937  0.4993361E+02  0.4416524E+02  0.2295730E+02  0.0000000E+00
Ar 3938  0.5221023E+02  0.4699603E+02  0.2288037E+02  0.0000000E+00
Ar 3939  0.5285913E+02  0.4424217E+02  0.2556145E+02  0.0000000E+00
Ar 3940  0.5024123E+02  0.4720622E+02  0.2565591E+02  0.0000000E+00
Ar 3941  0.4963828E+02  0.4440965E+02  0.2802511E+02  0.0000000E+00
Ar 3942  0.5272250E+02  0.4736149E+02  0.2822583E+02  0.0000000E+00
Ar 3943  0.5271242E+02  0.4458177E+02  0.3045191E+02  0.0000000E+00
Ar 3944  0.4994079E+02  0.4724056E+02  0.3107464E+02  0.0000000E+00
Ar 3945  0.4980690E+02  0.4434909E+02  0.3398244E+02  0.0000000E+00
Ar 3946  0.5289826E+02  0.4705719E+02  0.3358942E+02  0.0000000E+00
Ar 3947  0.5294359E+02  0.4425011E+02  0.3589207E+02  0.0000000E+00
Ar 3948  0.4989607E+02  0.4726887E+02  0.3650520E+02  0.0000000E+00
Ar 3949  0.4991865E+02  0.4433746E+02  0.3908417E+02  0.0000000E+00
Ar 3950  0.5289751E+02  0.4714089E+02  0.3894483E+02  0.0000000E+00
Ar 3951  0.5323423E+02  0.4452537E+02  0.4183708E+02  0.0000000E+00
Ar 3952  0.5003419E+02  0.4722112E+02  0.4154351E+02  0.0000000E+00
Ar 3953  0.4962029E+02  0.4483885E+02  0.4483864E+02  0.0000000E+00
Ar 3954  0.5271917E+02  0.4715440E+02  0.4471884E+02  0.0000000E+00
Ar 3955  0.5271908E+02  0.4471908E+02  0.4715431E+02  0.0000000E+00
Ar 3956  0.5020916E+02  0.4753726E+02  0.4753845E+02  0.0000000E+00
Ar 3957  0.4963758E+02  0.4450866E+02  0.4963909E+02  0.0000000E+00
Ar 3958  0.5269828E+02  0.4759510E+02  0.5041910E+02  0.0000000E+00
Ar 3959  0.5296601E+02  0.4492405E+02  0.5296441E+02  0.0000000E+00
Ar 3960  0.5042352E+02  0.4759170E+02  0.5270008E+02  0.0000000E+00
Ar 3961  0.4975229E+02  0.4975201E+02  0.5581367E+02  0.0000000E+00
Ar 3962  0.5301000E+02  0.5300928E+02  0.1447266E+01  0.0000000E+00
Ar 3963  0.5288087E+02  0.5011274E+02  0.3688148E+01  0.0000000E+00
Ar 3964  0.5011653E+02  0.5287824E+02  0.3688275E+01  0.0000000E+00
Ar 3965  0.4996477E+02  0.4996488E+02  0.6193527E+01  0.0000000E+00
Ar 3966  0.5277635E+02  0.5277984E+02  0.6514833E+01  0.0000000E+00
Ar 3967  0.5304171E+02  0.5046121E+02  0.9354128E+01  0.0000000E+00
Ar 3968  0.5045950E+02  0.5303247E+02  0.9361297E+01  0.0000000E+00
Ar 3969  0.5012979E+02  0.5012615E+02  0.1174699E+02  0.0000000E+00
Ar 3970  0.5307660E+02  0.5307587E+02  0.1146697E+02  0.0000000E+00
Ar 3971  0.5276053E+02  0.4985323E+02  0.1437792E+02  0.0000000E+00
Ar 3972  0.4985272E+02  0.5276078E+02  0.1437851E+02  0.0000000E+00
Ar 3973  0.4985073E+02  0.4985076E+02  0.1690451E+02  0.0000000E+00
Ar 3974  0.5302251E+02  0.5302175E+02  0.1702570E+02  0.0000000E+00
Ar 3975  0.5295672E+02  0.4995568E+02  0.1980767E+02  0.0000000E+00
Ar 3976  0.4995579E+02  0.5295663E+02  0.1980765E+02  0.0000000E+00
Ar 3977  0.4980649E+02  0.4980644E+02  0.2312623E+02  0.0000000E+00
Ar 3978  0.5231043E+02  0.5231036E+02  0.2259935E+02  0.0000000E+00
Ar 3979  0.5263530E+02  0.4982359E+02  0.2558880E+02  0.0000000E+00
Ar 3980  0.4982366E+02  0.5263525E+02  0.2558878E+02  0.0000000E+00
Ar 3981  0.5017564E+02  0.5017560E+02  0.2794838E+02  0.0000000E+00
Ar 3982  0.5302273E+02  0.5302270E+02  0.2828218E+02  0.0000000E+00
Ar 3983  0.5255187E+02  0.4972456E+02  0.3098598E+02  0.0000000E+00
Ar 3984  0.4972465E+02  0.5255181E+02  0.3098597E+02  0.0000000E+00
Ar 3985  0.5014038E+02  0.5014031E+02  0.3391921E+02  0.0000000E+00
Ar 3986  0.5281561E+02  0.5281552E+02  0.3320196E+02  0.0000000E+00
Ar 3987  0.5320245E+02  0.5020008E+02  0.3607167E+02  0.0000000E+00
Ar 3988  0.5020016E+02  0.5320238E+02  0.3607167E+02  0.0000000E+00
Ar 3989  0.5023992E+02  0.5023978E+02  0.3909057E+02  0.0000000E+00
Ar 3990  0.5294400E+02  0.5294379E+02  0.4050477E+02  0.0000000E+00
Ar 3991  0.5266859E+02  0.4953613E+02  0.4203274E+02  0.0000000E+00
Ar 3992  0.4953604E+02  0.5266883E+02  0.4203302E+02  0.0000000E+00
Ar 3993  0.4963852E+02  0.4963767E+02  0.4450867E+02  0.0000000E+00
Ar 3994  0.5296577E+02  0.5296561E+02  0.4492373E+02  0.0000000E+00
Ar 3995  0.5269804E+02  0.5041900E+02  0.4759532E+02  0.0000000E+00
Ar 3996  0.5042256E+02  0.5269959E+02  0.4759245E+02  0.0000000E+00
Ar 3997  0.5069038E+02  0.5068680E+02  0.5068697E+02  0.0000000E+00
Ar 3998  0.5328738E+02  0.5328804E+02  0.5017940E+02  0.0000000E+00
Ar 3999  0.5328720E+02  0.5017949E+02  0.5328831E+02  0.0000000E+00
Ar 4000  0.5017986E+02  0.5328751E+02  0.5328754E+02  0.0000000E+00
