        4000
Lattice="  0.5320636E+02  0.0000000E+00  0.0000000E+00  0.0000000E+00  0.5320636E+02  0.0000000E+00  0.0000000E+00  0.0000000E+00  0.5320636E+02" Properties=species:S:1:id:I:1:pos:R:3:tempK:R:1
Ar     1  0.1060703E+01  0.1191430E+01  0.2896938E+00  0.0000000E+00
Ar     2  0.3857024E+01  0.3775889E+01  0.5786981E-01  0.0000000E+00
Ar     3  0.3903965E+01  0.1120114E+01  0.2781625E+01  0.0000000E+00
Ar     4  0.9294961E+00  0.3824365E+01  0.2801842E+01  0.0000000E+00
Ar     5  0.7434893E+00  0.1148076E+01  0.5361023E+01  0.0000000E+00
Ar     6  0.3670422E+01  0.3702719E+01  0.5593515E+01  0.0000000E+00
Ar     7  0.3682215E+01  0.7532800E+00  0.8016661E+01  0.0000000E+00
Ar     8  0.9331193E+00  0.3827327E+01  0.8086268E+01  0.0000000E+00
Ar     9  0.1146210E+01  0.1088529E+01  0.1048339E+02  0.0000000E+00
Ar    10  0.3657520E+01  0.3840090E+01  0.1073356E+02  0.0000000E+00
Ar    11  0.3802410E+01  0.1108562E+01  0.1340035E+02  0.0000000E+00
Ar    12  0.1171487E+01  0.3533910E+01  0.1327939E+02  0.0000000E+00
Ar    13  0.1278878E+01  0.1079202E+01  0.1584606E+02  0.0000000E+00
Ar    14  0.3992745E+01  0.3996817E+01  0.1603097E+02  0.0000000E+00
Ar    15  0.3565789E+01  0.1094816E+01  0.1858130E+02  0.0000000E+00
Ar    16  0.8834497E+00  0.3609182E+01  0.1845563E+02  0.0000000E+00
Ar    17  0.7571451E+00  0.8438771E+00  0.2129370E+02  0.0000000E+00
Ar    18  0.4048343E+01  0.3511547E+01  0.2130981E+02  0.0000000E+00
Ar    19  0.3863269E+01  0.8704323E+00  0.2413790E+02  0.0000000E+00
Ar    20  0.1248731E+01  0.3608585E+01  0.2399327E+02  0.0000000E+00
Ar    21  0.1144169E+01  0.8460914E+00  0.2658745E+02  0.0000000E+00
Ar    22  0.3855956E+01  0.3538089E+01  0.2676651E+02  0.0000000E+00
Ar    23  0.3580447E+01  0.7486827E+00  0.2908639E+02  0.0000000E+00
Ar    24  0.1050753E+01  0.3451643E+01  0.2907310E+02  0.0000000E+00
Ar    25  0.8055086E+00  0.9542272E+00  0.3200610E+02  0.0000000E+00
Ar    26  0.3934475E+01  0.3765664E+01  0.3191854E+02  0.0000000E+00
Ar    27  0.3906681E+01  0.1161586E+01  0.3463020E+02  0.0000000E+00
Ar    28  0.1128239E+01  0.3686258E+01  0.3466801E+02  0.0000000E+00
Ar    29  0.1002407E+01  0.1095192E+01  0.3729398E+02  0.0000000E+00
Ar    30  0.3855984E+01  0.3725303E+01  0.3743479E+02  0.0000000E+00
Ar    31  0.3780115E+01  0.1062802E+01  0.3985900E+02  0.0000000E+00
Ar    32  0.1234125E+01  0.3878241E+01  0.4017898E+02  0.0000000E+00
Ar    33  0.9950977E+00  0.1231891E+01  0.4274915E+02  0.0000000E+00
Ar    34  0.3867652E+01  0.4009573E+01  0.4276094E+02  0.0000000E+00
Ar    35  0.3682634E+01  0.9037468E+00  0.4546761E+02  0.0000000E+00
Ar    36  0.1486428E+01  0.3883060E+01  0.4529300E+02  0.0000000E+00
Ar    37  0.7320623E+00  0.1259661E+01  0.4795786E+02  0.0000000E+00
Ar    38  0.3605510E+01  0.3620904E+01  0.4817547E+02  0.0000000E+00
Ar    39  0.3936674E+01  0.7673129E+00  0.5067862E+02  0.0000000E+00
Ar    40  0.1152712E+01  0.3572519E+01  0.5077749E+02  0.0000000E+00
Ar    41  0.1063588E+01  0.6378508E+01  0.5297577E+02  0.0000000E+00
Ar    42  0.3836877E+01  0.8949210E+01  0.1516671E+00  0.0000000E+00
Ar    43  0.4045334E+01  0.6308286E+01  0.2563671E+01  0.0000000E+00
Ar    44  0.1138133E+01  0.8796110E+01  0.2772541E+01  0.0000000E+00
Ar    45  0.6980496E+00  0.6364893E+01  0.5430877E+01  0.0000000E+00
Ar    46  0.3469769E+01  0.8762599E+01  0.5416098E+01  0.0000000E+00
Ar    47  0.3401791E+01  0.6484474E+01  0.8126681E+01  0.0000000E+00
Ar    48  0.1139642E+01  0.9220530E+01  0.8177346E+01  0.0000000E+00
Ar    49  0.1059062E+01  0.6542828E+01  0.1091043E+02  0.0000000E+00
Ar    50  0.3534894E+01  0.9247624E+01  0.1068186E+02  0.0000000E+00
Ar    51  0.3838875E+01  0.6548166E+01  0.1368804E+02  0.0000000E+00
Ar    52  0.9508841E+00  0.9047002E+01  0.1358164E+02  0.0000000E+00
Ar    53  0.1006937E+01  0.6619587E+01  0.1613511E+02  0.0000000E+00
Ar    54  0.3646856E+01  0.9048491E+01  0.1622281E+02  0.0000000E+00
Ar    55  0.3744570E+01  0.6396923E+01  0.1867499E+02  0.0000000E+00
Ar    56  0.1134127E+01  0.9208828E+01  0.1878498E+02  0.0000000E+00
Ar    57  0.9310543E+00  0.6289382E+01  0.2087836E+02  0.0000000E+00
Ar    58  0.3938003E+01  0.9088046E+01  0.2134613E+02  0.0000000E+00
Ar    59  0.3705402E+01  0.6225809E+01  0.2392206E+02  0.0000000E+00
Ar    60  0.1067962E+01  0.8938773E+01  0.2398859E+02  0.0000000E+00
Ar    61  0.8211962E+00  0.6152477E+01  0.2658903E+02  0.0000000E+00
Ar    62  0.3728701E+01  0.9057706E+01  0.2660490E+02  0.0000000E+00
Ar    63  0.3711662E+01  0.6156733E+01  0.2947428E+02  0.0000000E+00
Ar    64  0.9545751E+00  0.8892928E+01  0.2923892E+02  0.0000000E+00
Ar    65  0.1050815E+01  0.6492679E+01  0.3186528E+02  0.0000000E+00
Ar    66  0.3667122E+01  0.9188226E+01  0.3206244E+02  0.0000000E+00
Ar    67  0.3427102E+01  0.6589569E+01  0.3443335E+02  0.0000000E+00
Ar    68  0.9353367E+00  0.9182271E+01  0.3467616E+02  0.0000000E+00
Ar    69  0.1318489E+01  0.6580293E+01  0.3718690E+02  0.0000000E+00
Ar    70  0.3783204E+01  0.9010055E+01  0.3742026E+02  0.0000000E+00
Ar    71  0.3732644E+01  0.6361896E+01  0.4009692E+02  0.0000000E+00
Ar    72  0.1096668E+01  0.9057287E+01  0.4029118E+02  0.0000000E+00
Ar    73  0.1453083E+01  0.6459586E+01  0.4301664E+02  0.0000000E+00
Ar    74  0.4152600E+01  0.8876127E+01  0.4253229E+02  0.0000000E+00
Ar    75  0.3892813E+01  0.6702546E+01  0.4547756E+02  0.0000000E+00
Ar    76  0.1242427E+01  0.9180779E+01  0.4535464E+02  0.0000000E+00
Ar    77  0.1577123E+01  0.6343748E+01  0.4811083E+02  0.0000000E+00
Ar    78  0.3734579E+01  0.9092287E+01  0.4814008E+02  0.0000000E+00
Ar    79  0.3954403E+01  0.6448021E+01  0.5075914E+02  0.0000000E+00
Ar    80  0.1114490E+01  0.9162123E+01  0.5069570E+02  0.0000000E+00
Ar    81  0.9514524E+00  0.1144501E+02  0.2098161E+00  0.0000000E+00
Ar    82  0.3693801E+01  0.1433123E+02  0.5545643E-01  0.0000000E+00
Ar    83  0.3680745E+01  0.1167044E+02  0.2736129E+01  0.0000000E+00
Ar    84  0.1116483E+01  0.1417619E+02  0.2710186E+01  0.0000000E+00
Ar    85  0.1154882E+01  0.1145814E+02  0.5316825E+01  0.0000000E+00
Ar    86  0.3722576E+01  0.1392355E+02  0.5438037E+01  0.0000000E+00
Ar    87  0.3847594E+01  0.1168009E+02  0.7989543E+01  0.0000000E+00
Ar    88  0.1074520E+01  0.1397055E+02  0.8140242E+01  0.0000000E+00
Ar    89  0.1193073E+01  0.1162311E+02  0.1084261E+02  0.0000000E+00
Ar    90  0.3694649E+01  0.1427996E+02  0.1080283E+02  0.0000000E+00
Ar    91  0.3740141E+01  0.1184012E+02  0.1332416E+02  0.0000000E+00
Ar    92  0.1041291E+01  0.1441272E+02  0.1341144E+02  0.0000000E+00
Ar    93  0.1083803E+01  0.1164749E+02  0.1594857E+02  0.0000000E+00
Ar    94  0.3637343E+01  0.1417940E+02  0.1595759E+02  0.0000000E+00
Ar    95  0.3877644E+01  0.1165129E+02  0.1872011E+02  0.0000000E+00
Ar    96  0.1232535E+01  0.1426244E+02  0.1885109E+02  0.0000000E+00
Ar    97  0.1313549E+01  0.1175381E+02  0.2161516E+02  0.0000000E+00
Ar    98  0.3682536E+01  0.1455960E+02  0.2151065E+02  0.0000000E+00
Ar    99  0.3976038E+01  0.1195189E+02  0.2415527E+02  0.0000000E+00
Ar   100  0.1101624E+01  0.1423498E+02  0.2424092E+02  0.0000000E+00
Ar   101  0.9043185E+00  0.1182326E+02  0.2685337E+02  0.0000000E+00
Ar   102  0.3638702E+01  0.1442550E+02  0.2681311E+02  0.0000000E+00
Ar   103  0.3721600E+01  0.1199661E+02  0.2932664E+02  0.0000000E+00
Ar   104  0.9494211E+00  0.1448229E+02  0.2924509E+02  0.0000000E+00
Ar   105  0.9301356E+00  0.1168083E+02  0.3185848E+02  0.0000000E+00
Ar   106  0.3798234E+01  0.1434647E+02  0.3199519E+02  0.0000000E+00
Ar   107  0.3769524E+01  0.1187423E+02  0.3488911E+02  0.0000000E+00
Ar   108  0.1207424E+01  0.1469501E+02  0.3476368E+02  0.0000000E+00
Ar   109  0.1190922E+01  0.1166218E+02  0.3768660E+02  0.0000000E+00
Ar   110  0.3684931E+01  0.1446670E+02  0.3731515E+02  0.0000000E+00
Ar   111  0.3886745E+01  0.1148461E+02  0.3994014E+02  0.0000000E+00
Ar   112  0.9976856E+00  0.1462793E+02  0.3987047E+02  0.0000000E+00
Ar   113  0.7715040E+00  0.1168800E+02  0.4260773E+02  0.0000000E+00
Ar   114  0.3906827E+01  0.1420683E+02  0.4240656E+02  0.0000000E+00
Ar   115  0.3938803E+01  0.1153140E+02  0.4538885E+02  0.0000000E+00
Ar   116  0.1168812E+01  0.1403638E+02  0.4516697E+02  0.0000000E+00
Ar   117  0.6990545E+00  0.1152293E+02  0.4810645E+02  0.0000000E+00
Ar   118  0.3493361E+01  0.1431620E+02  0.4798460E+02  0.0000000E+00
Ar   119  0.3515921E+01  0.1158636E+02  0.5074779E+02  0.0000000E+00
Ar   120  0.7713422E+00  0.1421579E+02  0.5056572E+02  0.0000000E+00
Ar   121  0.1008471E+01  0.1712964E+02  0.2818385E+00  0.0000000E+00
Ar   122  0.3658486E+01  0.1953712E+02  0.1626888E+00  0.0000000E+00
Ar   123  0.3636001E+01  0.1682048E+02  0.2749282E+01  0.0000000E+00
Ar   124  0.1088085E+01  0.1951800E+02  0.3313298E+01  0.0000000E+00
Ar   125  0.1201609E+01  0.1672445E+02  0.5556202E+01  0.0000000E+00
Ar   126  0.4096565E+01  0.1967494E+02  0.5395015E+01  0.0000000E+00
Ar   127  0.3802919E+01  0.1677164E+02  0.7901468E+01  0.0000000E+00
Ar   128  0.9887886E+00  0.1964544E+02  0.8028927E+01  0.0000000E+00
Ar   129  0.1022870E+01  0.1681008E+02  0.1065380E+02  0.0000000E+00
Ar   130  0.3611159E+01  0.1936914E+02  0.1086882E+02  0.0000000E+00
Ar   131  0.3671063E+01  0.1685167E+02  0.1354431E+02  0.0000000E+00
Ar   132  0.1170724E+01  0.1954828E+02  0.1338737E+02  0.0000000E+00
Ar   133  0.1120378E+01  0.1696959E+02  0.1601311E+02  0.0000000E+00
Ar   134  0.3786502E+01  0.1986053E+02  0.1582925E+02  0.0000000E+00
Ar   135  0.3906320E+01  0.1691267E+02  0.1836090E+02  0.0000000E+00
Ar   136  0.9851479E+00  0.1955981E+02  0.1862681E+02  0.0000000E+00
Ar   137  0.1225090E+01  0.1710681E+02  0.2136315E+02  0.0000000E+00
Ar   138  0.3795482E+01  0.1962077E+02  0.2128513E+02  0.0000000E+00
Ar   139  0.3521922E+01  0.1696952E+02  0.2396926E+02  0.0000000E+00
Ar   140  0.1086624E+01  0.1966863E+02  0.2414843E+02  0.0000000E+00
Ar   141  0.1046936E+01  0.1728527E+02  0.2690116E+02  0.0000000E+00
Ar   142  0.3886467E+01  0.1963580E+02  0.2675077E+02  0.0000000E+00
Ar   143  0.3801298E+01  0.1684218E+02  0.2949452E+02  0.0000000E+00
Ar   144  0.8954400E+00  0.1964351E+02  0.2940497E+02  0.0000000E+00
Ar   145  0.9908838E+00  0.1724581E+02  0.3204182E+02  0.0000000E+00
Ar   146  0.3864348E+01  0.1962558E+02  0.3215502E+02  0.0000000E+00
Ar   147  0.3938933E+01  0.1690893E+02  0.3470137E+02  0.0000000E+00
Ar   148  0.1114740E+01  0.1988997E+02  0.3463834E+02  0.0000000E+00
Ar   149  0.9960034E+00  0.1737592E+02  0.3728739E+02  0.0000000E+00
Ar   150  0.3747943E+01  0.1985189E+02  0.3727644E+02  0.0000000E+00
Ar   151  0.3675617E+01  0.1709387E+02  0.4018341E+02  0.0000000E+00
Ar   152  0.1120281E+01  0.1986497E+02  0.3970095E+02  0.0000000E+00
Ar   153  0.1029028E+01  0.1714040E+02  0.4271931E+02  0.0000000E+00
Ar   154  0.3801669E+01  0.1968602E+02  0.4261178E+02  0.0000000E+00
Ar   155  0.3638573E+01  0.1704043E+02  0.4529097E+02  0.0000000E+00
Ar   156  0.9113214E+00  0.1981809E+02  0.4531506E+02  0.0000000E+00
Ar   157  0.9550497E+00  0.1697656E+02  0.4791753E+02  0.0000000E+00
Ar   158  0.3597962E+01  0.1960304E+02  0.4780337E+02  0.0000000E+00
Ar   159  0.3577939E+01  0.1674742E+02  0.5062547E+02  0.0000000E+00
Ar   160  0.1178480E+01  0.1968330E+02  0.5052430E+02  0.0000000E+00
Ar   161  0.1149430E+01  0.2209663E+02  0.1787941E+00  0.0000000E+00
Ar   162  0.3548519E+01  0.2486495E+02  0.3412516E+00  0.0000000E+00
Ar   163  0.4032597E+01  0.2199073E+02  0.2705549E+01  0.0000000E+00
Ar   164  0.9299321E+00  0.2472533E+02  0.2756114E+01  0.0000000E+00
Ar   165  0.1184226E+01  0.2220184E+02  0.5441721E+01  0.0000000E+00
Ar   166  0.3907293E+01  0.2481044E+02  0.5346653E+01  0.0000000E+00
Ar   167  0.3752318E+01  0.2207562E+02  0.8220657E+01  0.0000000E+00
Ar   168  0.1273575E+01  0.2541999E+02  0.7881707E+01  0.0000000E+00
Ar   169  0.1146286E+01  0.2210859E+02  0.1051941E+02  0.0000000E+00
Ar   170  0.3735036E+01  0.2496497E+02  0.1065705E+02  0.0000000E+00
Ar   171  0.3622404E+01  0.2232897E+02  0.1331317E+02  0.0000000E+00
Ar   172  0.9588788E+00  0.2497356E+02  0.1330401E+02  0.0000000E+00
Ar   173  0.7613020E+00  0.2258341E+02  0.1601929E+02  0.0000000E+00
Ar   174  0.3760390E+01  0.2499044E+02  0.1618635E+02  0.0000000E+00
Ar   175  0.3398969E+01  0.2216475E+02  0.1875184E+02  0.0000000E+00
Ar   176  0.9653932E+00  0.2497957E+02  0.1850486E+02  0.0000000E+00
Ar   177  0.8732544E+00  0.2197662E+02  0.2140068E+02  0.0000000E+00
Ar   178  0.3486414E+01  0.2477714E+02  0.2122648E+02  0.0000000E+00
Ar   179  0.3719438E+01  0.2217309E+02  0.2407222E+02  0.0000000E+00
Ar   180  0.1045720E+01  0.2481956E+02  0.2392037E+02  0.0000000E+00
Ar   181  0.8374815E+00  0.2223401E+02  0.2698068E+02  0.0000000E+00
Ar   182  0.3579109E+01  0.2490943E+02  0.2679913E+02  0.0000000E+00
Ar   183  0.3779828E+01  0.2238176E+02  0.2929197E+02  0.0000000E+00
Ar   184  0.6590266E+00  0.2503611E+02  0.2913413E+02  0.0000000E+00
Ar   185  0.1261487E+01  0.2215853E+02  0.3184771E+02  0.0000000E+00
Ar   186  0.3763771E+01  0.2474181E+02  0.3210411E+02  0.0000000E+00
Ar   187  0.3537973E+01  0.2232764E+02  0.3490581E+02  0.0000000E+00
Ar   188  0.7784634E+00  0.2519542E+02  0.3469219E+02  0.0000000E+00
Ar   189  0.8114018E+00  0.2252107E+02  0.3735537E+02  0.0000000E+00
Ar   190  0.3711002E+01  0.2493758E+02  0.3734218E+02  0.0000000E+00
Ar   191  0.3619234E+01  0.2226234E+02  0.4004979E+02  0.0000000E+00
Ar   192  0.1060848E+01  0.2501725E+02  0.3996807E+02  0.0000000E+00
Ar   193  0.7346263E+00  0.2244215E+02  0.4243730E+02  0.0000000E+00
Ar   194  0.3963807E+01  0.2514052E+02  0.4268313E+02  0.0000000E+00
Ar   195  0.3806500E+01  0.2206727E+02  0.4525320E+02  0.0000000E+00
Ar   196  0.1262980E+01  0.2460410E+02  0.4518943E+02  0.0000000E+00
Ar   197  0.9774204E+00  0.2224095E+02  0.4812833E+02  0.0000000E+00
Ar   198  0.3597939E+01  0.2500259E+02  0.4805246E+02  0.0000000E+00
Ar   199  0.3628797E+01  0.2215994E+02  0.5094559E+02  0.0000000E+00
Ar   200  0.1206579E+01  0.2486674E+02  0.5085557E+02  0.0000000E+00
Ar   201  0.8842121E+00  0.2769318E+02  0.5317223E+02  0.0000000E+00
Ar   202  0.3781941E+01  0.3009010E+02  0.2419007E+00  0.0000000E+00
Ar   203  0.3960329E+01  0.2734045E+02  0.2814423E+01  0.0000000E+00
Ar   204  0.1164292E+01  0.3027574E+02  0.2681321E+01  0.0000000E+00
Ar   205  0.1265100E+01  0.2754872E+02  0.5197152E+01  0.0000000E+00
Ar   206  0.3683081E+01  0.3020622E+02  0.5408181E+01  0.0000000E+00
Ar   207  0.3848901E+01  0.2776085E+02  0.8096586E+01  0.0000000E+00
Ar   208  0.1149337E+01  0.3025330E+02  0.8005272E+01  0.0000000E+00
Ar   209  0.1085389E+01  0.2778127E+02  0.1077596E+02  0.0000000E+00
Ar   210  0.3914131E+01  0.3025503E+02  0.1092650E+02  0.0000000E+00
Ar   211  0.3784795E+01  0.2751160E+02  0.1346028E+02  0.0000000E+00
Ar   212  0.8479401E+00  0.3007461E+02  0.1317954E+02  0.0000000E+00
Ar   213  0.9388347E+00  0.2756338E+02  0.1611954E+02  0.0000000E+00
Ar   214  0.3567364E+01  0.3001573E+02  0.1612097E+02  0.0000000E+00
Ar   215  0.3433209E+01  0.2759701E+02  0.1866663E+02  0.0000000E+00
Ar   216  0.9530727E+00  0.3016445E+02  0.1889335E+02  0.0000000E+00
Ar   217  0.8560889E+00  0.2755938E+02  0.2144662E+02  0.0000000E+00
Ar   218  0.3708723E+01  0.3031853E+02  0.2151178E+02  0.0000000E+00
Ar   219  0.3771922E+01  0.2772940E+02  0.2384565E+02  0.0000000E+00
Ar   220  0.1076921E+01  0.3042837E+02  0.2411661E+02  0.0000000E+00
Ar   221  0.1087097E+01  0.2782939E+02  0.2643186E+02  0.0000000E+00
Ar   222  0.3692580E+01  0.3047277E+02  0.2673176E+02  0.0000000E+00
Ar   223  0.3534164E+01  0.2752414E+02  0.2937787E+02  0.0000000E+00
Ar   224  0.1153678E+01  0.3034918E+02  0.2926200E+02  0.0000000E+00
Ar   225  0.1135890E+01  0.2766135E+02  0.3197291E+02  0.0000000E+00
Ar   226  0.3819139E+01  0.3047695E+02  0.3204519E+02  0.0000000E+00
Ar   227  0.3790856E+01  0.2756051E+02  0.3466121E+02  0.0000000E+00
Ar   228  0.1068352E+01  0.3046922E+02  0.3466429E+02  0.0000000E+00
Ar   229  0.1017673E+01  0.2765281E+02  0.3730298E+02  0.0000000E+00
Ar   230  0.3864708E+01  0.3017278E+02  0.3749037E+02  0.0000000E+00
Ar   231  0.3890317E+01  0.2749631E+02  0.3994079E+02  0.0000000E+00
Ar   232  0.1034609E+01  0.3039765E+02  0.4016721E+02  0.0000000E+00
Ar   233  0.9219261E+00  0.2766415E+02  0.4264620E+02  0.0000000E+00
Ar   234  0.3568918E+01  0.3032330E+02  0.4261679E+02  0.0000000E+00
Ar   235  0.3753836E+01  0.2763368E+02  0.4534538E+02  0.0000000E+00
Ar   236  0.1131342E+01  0.3033979E+02  0.4515354E+02  0.0000000E+00
Ar   237  0.1208365E+01  0.2762775E+02  0.4809976E+02  0.0000000E+00
Ar   238  0.3496440E+01  0.3007711E+02  0.4805713E+02  0.0000000E+00
Ar   239  0.3880046E+01  0.2737549E+02  0.5068697E+02  0.0000000E+00
Ar   240  0.8649108E+00  0.3023856E+02  0.5068356E+02  0.0000000E+00
Ar   241  0.9968872E+00  0.3278877E+02  0.4775976E-01  0.0000000E+00
Ar   242  0.3385819E+01  0.3538386E+02  0.1206788E+00  0.0000000E+00
Ar   243  0.3669660E+01  0.3286125E+02  0.2767793E+01  0.0000000E+00
Ar   244  0.6090825E+00  0.3588025E+02  0.2828919E+01  0.0000000E+00
Ar   245  0.8718984E+00  0.3288559E+02  0.5397780E+01  0.0000000E+00
Ar   246  0.3533543E+01  0.3561443E+02  0.5312979E+01  0.0000000E+00
Ar   247  0.3723064E+01  0.3275837E+02  0.7996661E+01  0.0000000E+00
Ar   248  0.9240533E+00  0.3528323E+02  0.8205776E+01  0.0000000E+00
Ar   249  0.1070554E+01  0.3289174E+02  0.1074612E+02  0.0000000E+00
Ar   250  0.3663770E+01  0.3518581E+02  0.1076232E+02  0.0000000E+00
Ar   251  0.3481524E+01  0.3270009E+02  0.1344636E+02  0.0000000E+00
Ar   252  0.8831086E+00  0.3542227E+02  0.1357208E+02  0.0000000E+00
Ar   253  0.8682052E+00  0.3274193E+02  0.1623152E+02  0.0000000E+00
Ar   254  0.3502682E+01  0.3570149E+02  0.1605288E+02  0.0000000E+00
Ar   255  0.3591172E+01  0.3277985E+02  0.1852923E+02  0.0000000E+00
Ar   256  0.9794685E+00  0.3540459E+02  0.1866198E+02  0.0000000E+00
Ar   257  0.9511322E+00  0.3281788E+02  0.2134629E+02  0.0000000E+00
Ar   258  0.3725327E+01  0.3553629E+02  0.2150308E+02  0.0000000E+00
Ar   259  0.3676289E+01  0.3317054E+02  0.2411566E+02  0.0000000E+00
Ar   260  0.9959455E+00  0.3566082E+02  0.2408082E+02  0.0000000E+00
Ar   261  0.1105364E+01  0.3318868E+02  0.2666841E+02  0.0000000E+00
Ar   262  0.3976203E+01  0.3563003E+02  0.2689200E+02  0.0000000E+00
Ar   263  0.3883864E+01  0.3292964E+02  0.2950908E+02  0.0000000E+00
Ar   264  0.1110776E+01  0.3547542E+02  0.2947333E+02  0.0000000E+00
Ar   265  0.1079742E+01  0.3281664E+02  0.3196427E+02  0.0000000E+00
Ar   266  0.3986900E+01  0.3541177E+02  0.3192446E+02  0.0000000E+00
Ar   267  0.3816255E+01  0.3298319E+02  0.3454557E+02  0.0000000E+00
Ar   268  0.1080904E+01  0.3562166E+02  0.3450538E+02  0.0000000E+00
Ar   269  0.1108571E+01  0.3308165E+02  0.3729717E+02  0.0000000E+00
Ar   270  0.3905359E+01  0.3550991E+02  0.3726533E+02  0.0000000E+00
Ar   271  0.3852714E+01  0.3293112E+02  0.3997924E+02  0.0000000E+00
Ar   272  0.9361924E+00  0.3569876E+02  0.3994591E+02  0.0000000E+00
Ar   273  0.1136127E+01  0.3306271E+02  0.4253741E+02  0.0000000E+00
Ar   274  0.3868463E+01  0.3560156E+02  0.4266317E+02  0.0000000E+00
Ar   275  0.3694957E+01  0.3280496E+02  0.4551959E+02  0.0000000E+00
Ar   276  0.1155777E+01  0.3554441E+02  0.4500123E+02  0.0000000E+00
Ar   277  0.1032732E+01  0.3286114E+02  0.4808046E+02  0.0000000E+00
Ar   278  0.3668942E+01  0.3552191E+02  0.4797921E+02  0.0000000E+00
Ar   279  0.3608036E+01  0.3283940E+02  0.5051959E+02  0.0000000E+00
Ar   280  0.9710764E+00  0.3549757E+02  0.5055109E+02  0.0000000E+00
Ar   281  0.1005855E+01  0.3823299E+02  0.5311127E+02  0.0000000E+00
Ar   282  0.3534407E+01  0.4082439E+02  0.1213043E-01  0.0000000E+00
Ar   283  0.3596380E+01  0.3829339E+02  0.2717797E+01  0.0000000E+00
Ar   284  0.1219450E+01  0.4101302E+02  0.2661191E+01  0.0000000E+00
Ar   285  0.8906337E+00  0.3831662E+02  0.5471718E+01  0.0000000E+00
Ar   286  0.3471957E+01  0.4093004E+02  0.5406708E+01  0.0000000E+00
Ar   287  0.3550028E+01  0.3816870E+02  0.8154335E+01  0.0000000E+00
Ar   288  0.1004171E+01  0.4094899E+02  0.8115233E+01  0.0000000E+00
Ar   289  0.6507651E+00  0.3818074E+02  0.1048882E+02  0.0000000E+00
Ar   290  0.3593148E+01  0.4065063E+02  0.1082270E+02  0.0000000E+00
Ar   291  0.3468467E+01  0.3799473E+02  0.1329340E+02  0.0000000E+00
Ar   292  0.1061380E+01  0.4064268E+02  0.1352463E+02  0.0000000E+00
Ar   293  0.1212797E+01  0.3825553E+02  0.1597166E+02  0.0000000E+00
Ar   294  0.3589553E+01  0.4082078E+02  0.1603218E+02  0.0000000E+00
Ar   295  0.3705148E+01  0.3837052E+02  0.1879286E+02  0.0000000E+00
Ar   296  0.1025092E+01  0.4090221E+02  0.1844066E+02  0.0000000E+00
Ar   297  0.8955422E+00  0.3823814E+02  0.2120539E+02  0.0000000E+00
Ar   298  0.3667602E+01  0.4097183E+02  0.2139693E+02  0.0000000E+00
Ar   299  0.3728693E+01  0.3785023E+02  0.2405055E+02  0.0000000E+00
Ar   300  0.1346185E+01  0.4089626E+02  0.2390431E+02  0.0000000E+00
Ar   301  0.1252490E+01  0.3819906E+02  0.2680539E+02  0.0000000E+00
Ar   302  0.3638919E+01  0.4088908E+02  0.2656030E+02  0.0000000E+00
Ar   303  0.3930274E+01  0.3822593E+02  0.2933119E+02  0.0000000E+00
Ar   304  0.1099486E+01  0.4102528E+02  0.2940079E+02  0.0000000E+00
Ar   305  0.1311403E+01  0.3827451E+02  0.3184308E+02  0.0000000E+00
Ar   306  0.4020921E+01  0.4081546E+02  0.3181184E+02  0.0000000E+00
Ar   307  0.4009429E+01  0.3841994E+02  0.3474502E+02  0.0000000E+00
Ar   308  0.1162462E+01  0.4093273E+02  0.3433245E+02  0.0000000E+00
Ar   309  0.1440433E+01  0.3823044E+02  0.3729424E+02  0.0000000E+00
Ar   310  0.3444927E+01  0.4104353E+02  0.3725769E+02  0.0000000E+00
Ar   311  0.3975822E+01  0.3819706E+02  0.4032198E+02  0.0000000E+00
Ar   312  0.1095287E+01  0.4091470E+02  0.3998354E+02  0.0000000E+00
Ar   313  0.1315463E+01  0.3845692E+02  0.4265855E+02  0.0000000E+00
Ar   314  0.3846232E+01  0.4111290E+02  0.4274864E+02  0.0000000E+00
Ar   315  0.3863596E+01  0.3814781E+02  0.4529161E+02  0.0000000E+00
Ar   316  0.8896141E+00  0.4111674E+02  0.4515311E+02  0.0000000E+00
Ar   317  0.1125518E+01  0.3824465E+02  0.4782694E+02  0.0000000E+00
Ar   318  0.3863540E+01  0.4107712E+02  0.4799372E+02  0.0000000E+00
Ar   319  0.3646753E+01  0.3808592E+02  0.5070732E+02  0.0000000E+00
Ar   320  0.9933259E+00  0.4074313E+02  0.5047670E+02  0.0000000E+00
Ar   321  0.9543171E+00  0.4331894E+02  0.5308858E+02  0.0000000E+00
Ar   322  0.3533466E+01  0.4641114E+02  0.1302831E+00  0.0000000E+00
Ar   323  0.3518052E+01  0.4357986E+02  0.2669415E+01  0.0000000E+00
Ar   324  0.1020712E+01  0.4595901E+02  0.2896400E+01  0.0000000E+00
Ar   325  0.8568371E+00  0.4344764E+02  0.5310160E+01  0.0000000E+00
Ar   326  0.3566012E+01  0.4633481E+02  0.5140371E+01  0.0000000E+00
Ar   327  0.3640258E+01  0.4375979E+02  0.7795887E+01  0.0000000E+00
Ar   328  0.1072858E+01  0.4623317E+02  0.7801634E+01  0.0000000E+00
Ar   329  0.9242591E+00  0.4357350E+02  0.1042059E+02  0.0000000E+00
Ar   330  0.3729831E+01  0.4617467E+02  0.1064466E+02  0.0000000E+00
Ar   331  0.3554033E+01  0.4354637E+02  0.1317153E+02  0.0000000E+00
Ar   332  0.9907567E+00  0.4614464E+02  0.1323416E+02  0.0000000E+00
Ar   333  0.8748463E+00  0.4359374E+02  0.1599820E+02  0.0000000E+00
Ar   334  0.3598241E+01  0.4618389E+02  0.1601606E+02  0.0000000E+00
Ar   335  0.3642004E+01  0.4365845E+02  0.1861396E+02  0.0000000E+00
Ar   336  0.9586271E+00  0.4618437E+02  0.1850961E+02  0.0000000E+00
Ar   337  0.1047218E+01  0.4334236E+02  0.2131033E+02  0.0000000E+00
Ar   338  0.3673323E+01  0.4601904E+02  0.2138494E+02  0.0000000E+00
Ar   339  0.3562664E+01  0.4362931E+02  0.2415258E+02  0.0000000E+00
Ar   340  0.9100750E+00  0.4616741E+02  0.2385535E+02  0.0000000E+00
Ar   341  0.1042867E+01  0.4366438E+02  0.2683506E+02  0.0000000E+00
Ar   342  0.3757973E+01  0.4627563E+02  0.2654557E+02  0.0000000E+00
Ar   343  0.3822073E+01  0.4372702E+02  0.2907964E+02  0.0000000E+00
Ar   344  0.1111347E+01  0.4627470E+02  0.2919301E+02  0.0000000E+00
Ar   345  0.1580626E+01  0.4354418E+02  0.3189681E+02  0.0000000E+00
Ar   346  0.3710933E+01  0.4639576E+02  0.3184645E+02  0.0000000E+00
Ar   347  0.3700012E+01  0.4382726E+02  0.3473497E+02  0.0000000E+00
Ar   348  0.1162488E+01  0.4657537E+02  0.3461795E+02  0.0000000E+00
Ar   349  0.1000248E+01  0.4340064E+02  0.3717589E+02  0.0000000E+00
Ar   350  0.3828712E+01  0.4659378E+02  0.3721008E+02  0.0000000E+00
Ar   351  0.3519895E+01  0.4368374E+02  0.4009471E+02  0.0000000E+00
Ar   352  0.6232220E+00  0.4640869E+02  0.3996492E+02  0.0000000E+00
Ar   353  0.1144166E+01  0.4357848E+02  0.4256924E+02  0.0000000E+00
Ar   354  0.3765300E+01  0.4641635E+02  0.4259678E+02  0.0000000E+00
Ar   355  0.3757095E+01  0.4376257E+02  0.4501100E+02  0.0000000E+00
Ar   356  0.1163534E+01  0.4640588E+02  0.4547333E+02  0.0000000E+00
Ar   357  0.1024511E+01  0.4338985E+02  0.4800253E+02  0.0000000E+00
Ar   358  0.3868089E+01  0.4597027E+02  0.4790056E+02  0.0000000E+00
Ar   359  0.3878958E+01  0.4353771E+02  0.5074478E+02  0.0000000E+00
Ar   360  0.1415152E+01  0.4629283E+02  0.5034897E+02  0.0000000E+00
Ar   361  0.8818648E+00  0.4904671E+02  0.5308691E+02  0.0000000E+00
Ar   362  0.3683414E+01  0.5147165E+02  0.4647914E-01  0.0000000E+00
Ar   363  0.3442166E+01  0.4896254E+02  0.2696544E+01  0.0000000E+00
Ar   364  0.1094909E+01  0.5167976E+02  0.2720310E+01  0.0000000E+00
Ar   365  0.8533656E+00  0.4886075E+02  0.5411833E+01  0.0000000E+00
Ar   366  0.3635056E+01  0.5169381E+02  0.5313081E+01  0.0000000E+00
Ar   367  0.3870066E+01  0.4884544E+02  0.8046154E+01  0.0000000E+00
Ar   368  0.9522061E+00  0.5132414E+02  0.7888141E+01  0.0000000E+00
Ar   369  0.1025467E+01  0.4881493E+02  0.1039918E+02  0.0000000E+00
Ar   370  0.3736264E+01  0.5169859E+02  0.1075137E+02  0.0000000E+00
Ar   371  0.3195065E+01  0.4875558E+02  0.1322062E+02  0.0000000E+00
Ar   372  0.7739092E+00  0.5157894E+02  0.1335101E+02  0.0000000E+00
Ar   373  0.7797470E+00  0.4879330E+02  0.1620043E+02  0.0000000E+00
Ar   374  0.3431658E+01  0.5148698E+02  0.1590230E+02  0.0000000E+00
Ar   375  0.3599950E+01  0.4882869E+02  0.1864646E+02  0.0000000E+00
Ar   376  0.1002898E+01  0.5157454E+02  0.1854599E+02  0.0000000E+00
Ar   377  0.9198127E+00  0.4857996E+02  0.2124248E+02  0.0000000E+00
Ar   378  0.3789960E+01  0.5175258E+02  0.2133198E+02  0.0000000E+00
Ar   379  0.3728418E+01  0.4885386E+02  0.2386249E+02  0.0000000E+00
Ar   380  0.1166028E+01  0.5139477E+02  0.2372922E+02  0.0000000E+00
Ar   381  0.1166508E+01  0.4894774E+02  0.2645199E+02  0.0000000E+00
Ar   382  0.3878128E+01  0.5142003E+02  0.2675297E+02  0.0000000E+00
Ar   383  0.3688093E+01  0.4888942E+02  0.2928361E+02  0.0000000E+00
Ar   384  0.1218368E+01  0.5149347E+02  0.2911860E+02  0.0000000E+00
Ar   385  0.1084088E+01  0.4899310E+02  0.3203924E+02  0.0000000E+00
Ar   386  0.4177836E+01  0.5152403E+02  0.3187091E+02  0.0000000E+00
Ar   387  0.3795319E+01  0.4892860E+02  0.3453448E+02  0.0000000E+00
Ar   388  0.1268743E+01  0.5177337E+02  0.3455400E+02  0.0000000E+00
Ar   389  0.1373534E+01  0.4906519E+02  0.3715500E+02  0.0000000E+00
Ar   390  0.3869226E+01  0.5181794E+02  0.3726713E+02  0.0000000E+00
Ar   391  0.3608617E+01  0.4883157E+02  0.3990076E+02  0.0000000E+00
Ar   392  0.1021873E+01  0.5167493E+02  0.4006049E+02  0.0000000E+00
Ar   393  0.1064222E+01  0.4879092E+02  0.4265707E+02  0.0000000E+00
Ar   394  0.3555309E+01  0.5169771E+02  0.4279774E+02  0.0000000E+00
Ar   395  0.3789334E+01  0.4884135E+02  0.4544866E+02  0.0000000E+00
Ar   396  0.1145248E+01  0.5154115E+02  0.4528201E+02  0.0000000E+00
Ar   397  0.9808331E+00  0.4893554E+02  0.4791628E+02  0.0000000E+00
Ar   398  0.3877027E+01  0.5152084E+02  0.4808977E+02  0.0000000E+00
Ar   399  0.3549455E+01  0.4899683E+02  0.5069718E+02  0.0000000E+00
Ar   400  0.9476423E+00  0.5196197E+02  0.5075875E+02  0.0000000E+00
Ar   401  0.6631025E+01  0.1157332E+01  0.2800427E-02  0.0000000E+00
Ar   402  0.9211929E+01  0.3703707E+01  0.1469959E+00  0.0000000E+00
Ar   403  0.9188466E+01  0.1129700E+01  0.2777907E+01  0.0000000E+00
Ar   404  0.6622618E+01  0.3645510E+01  0.2733098E+01  0.0000000E+00
Ar   405  0.6477473E+01  0.8618319E+00  0.5410368E+01  0.0000000E+00
Ar   406  0.9378946E+01  0.3788090E+01  0.5442986E+01  0.0000000E+00
Ar   407  0.9140396E+01  0.8226115E+00  0.7968643E+01  0.0000000E+00
Ar   408  0.6388280E+01  0.3486733E+01  0.8222479E+01  0.0000000E+00
Ar   409  0.6477003E+01  0.6984461E+00  0.1063318E+02  0.0000000E+00
Ar   410  0.9070668E+01  0.3482556E+01  0.1073420E+02  0.0000000E+00
Ar   411  0.8945170E+01  0.8072918E+00  0.1342266E+02  0.0000000E+00
Ar   412  0.6340520E+01  0.3751986E+01  0.1357118E+02  0.0000000E+00
Ar   413  0.6234190E+01  0.9438004E+00  0.1618725E+02  0.0000000E+00
Ar   414  0.9281070E+01  0.3657867E+01  0.1587069E+02  0.0000000E+00
Ar   415  0.9376513E+01  0.8687308E+00  0.1865199E+02  0.0000000E+00
Ar   416  0.6670599E+01  0.3475563E+01  0.1865734E+02  0.0000000E+00
Ar   417  0.6453217E+01  0.1055355E+01  0.2121547E+02  0.0000000E+00
Ar   418  0.9042441E+01  0.3638609E+01  0.2130176E+02  0.0000000E+00
Ar   419  0.8856635E+01  0.1020621E+01  0.2399638E+02  0.0000000E+00
Ar   420  0.6220085E+01  0.3556190E+01  0.2406294E+02  0.0000000E+00
Ar   421  0.6410619E+01  0.9184487E+00  0.2677568E+02  0.0000000E+00
Ar   422  0.8946714E+01  0.3638046E+01  0.2650072E+02  0.0000000E+00
Ar   423  0.9258381E+01  0.1200297E+01  0.2929677E+02  0.0000000E+00
Ar   424  0.6436793E+01  0.3855566E+01  0.2925761E+02  0.0000000E+00
Ar   425  0.6680554E+01  0.1064677E+01  0.3155525E+02  0.0000000E+00
Ar   426  0.9181370E+01  0.3760607E+01  0.3194937E+02  0.0000000E+00
Ar   427  0.9261238E+01  0.1012708E+01  0.3476493E+02  0.0000000E+00
Ar   428  0.6520743E+01  0.3570812E+01  0.3453580E+02  0.0000000E+00
Ar   429  0.6538650E+01  0.1159752E+01  0.3723950E+02  0.0000000E+00
Ar   430  0.9247975E+01  0.3543757E+01  0.3742194E+02  0.0000000E+00
Ar   431  0.9037767E+01  0.8957310E+00  0.4006289E+02  0.0000000E+00
Ar   432  0.6517584E+01  0.3742445E+01  0.3999270E+02  0.0000000E+00
Ar   433  0.6287768E+01  0.8945723E+00  0.4261060E+02  0.0000000E+00
Ar   434  0.9056165E+01  0.3683169E+01  0.4280897E+02  0.0000000E+00
Ar   435  0.9178470E+01  0.1168241E+01  0.4541748E+02  0.0000000E+00
Ar   436  0.6205147E+01  0.3441170E+01  0.4550925E+02  0.0000000E+00
Ar   437  0.6394596E+01  0.1011115E+01  0.4822700E+02  0.0000000E+00
Ar   438  0.9131322E+01  0.3637687E+01  0.4795280E+02  0.0000000E+00
Ar   439  0.9109731E+01  0.9260666E+00  0.5075045E+02  0.0000000E+00
Ar   440  0.6519352E+01  0.3626891E+01  0.5075116E+02  0.0000000E+00
Ar   441  0.6518482E+01  0.6452782E+01  0.5320134E+02  0.0000000E+00
Ar   442  0.9245180E+01  0.9074080E+01  0.1651524E+00  0.0000000E+00
Ar   443  0.9312300E+01  0.6280531E+01  0.2914303E+01  0.0000000E+00
Ar   444  0.6193479E+01  0.9047093E+01  0.2739975E+01  0.0000000E+00
Ar   445  0.6520319E+01  0.6404391E+01  0.5423017E+01  0.0000000E+00
Ar   446  0.9400954E+01  0.9157652E+01  0.5580789E+01  0.0000000E+00
Ar   447  0.9182245E+01  0.6340266E+01  0.8198773E+01  0.0000000E+00
Ar   448  0.6526600E+01  0.9084769E+01  0.8314990E+01  0.0000000E+00
Ar   449  0.6096486E+01  0.6462234E+01  0.1076353E+02  0.0000000E+00
Ar   450  0.8718173E+01  0.9319139E+01  0.1091709E+02  0.0000000E+00
Ar   451  0.9071316E+01  0.6479708E+01  0.1331193E+02  0.0000000E+00
Ar   452  0.6094940E+01  0.9332590E+01  0.1358954E+02  0.0000000E+00
Ar   453  0.6440640E+01  0.6472140E+01  0.1598450E+02  0.0000000E+00
Ar   454  0.8914856E+01  0.8953101E+01  0.1592968E+02  0.0000000E+00
Ar   455  0.9057629E+01  0.6451822E+01  0.1856503E+02  0.0000000E+00
Ar   456  0.6514318E+01  0.9183250E+01  0.1852626E+02  0.0000000E+00
Ar   457  0.6465092E+01  0.6655910E+01  0.2114499E+02  0.0000000E+00
Ar   458  0.9142240E+01  0.8993172E+01  0.2134063E+02  0.0000000E+00
Ar   459  0.9013052E+01  0.6232055E+01  0.2371138E+02  0.0000000E+00
Ar   460  0.6564490E+01  0.9136980E+01  0.2399073E+02  0.0000000E+00
Ar   461  0.6183856E+01  0.6384219E+01  0.2648354E+02  0.0000000E+00
Ar   462  0.8890816E+01  0.9018671E+01  0.2669718E+02  0.0000000E+00
Ar   463  0.9084866E+01  0.6442597E+01  0.2910836E+02  0.0000000E+00
Ar   464  0.6334860E+01  0.8941280E+01  0.2928558E+02  0.0000000E+00
Ar   465  0.6417277E+01  0.6785377E+01  0.3221372E+02  0.0000000E+00
Ar   466  0.9195112E+01  0.8800578E+01  0.3210162E+02  0.0000000E+00
Ar   467  0.9071714E+01  0.6305534E+01  0.3475730E+02  0.0000000E+00
Ar   468  0.6831938E+01  0.9100316E+01  0.3481588E+02  0.0000000E+00
Ar   469  0.6579306E+01  0.6432852E+01  0.3741395E+02  0.0000000E+00
Ar   470  0.9157816E+01  0.9118946E+01  0.3745843E+02  0.0000000E+00
Ar   471  0.9112081E+01  0.6291030E+01  0.4014036E+02  0.0000000E+00
Ar   472  0.6770484E+01  0.9269198E+01  0.4006298E+02  0.0000000E+00
Ar   473  0.6716498E+01  0.6358326E+01  0.4287339E+02  0.0000000E+00
Ar   474  0.9151236E+01  0.9019365E+01  0.4288326E+02  0.0000000E+00
Ar   475  0.9035970E+01  0.6224581E+01  0.4559562E+02  0.0000000E+00
Ar   476  0.6580842E+01  0.8931569E+01  0.4526022E+02  0.0000000E+00
Ar   477  0.6346759E+01  0.6291359E+01  0.4792684E+02  0.0000000E+00
Ar   478  0.9177673E+01  0.9021762E+01  0.4804967E+02  0.0000000E+00
Ar   479  0.9253049E+01  0.6466206E+01  0.5056384E+02  0.0000000E+00
Ar   480  0.6930505E+01  0.8938630E+01  0.5069053E+02  0.0000000E+00
Ar   481  0.6234130E+01  0.1162262E+02  0.7762119E-01  0.0000000E+00
Ar   482  0.9008188E+01  0.1398019E+02  0.1234491E+00  0.0000000E+00
Ar   483  0.8901067E+01  0.1161887E+02  0.2828586E+01  0.0000000E+00
Ar   484  0.6285327E+01  0.1424957E+02  0.2600270E+01  0.0000000E+00
Ar   485  0.6300960E+01  0.1140366E+02  0.5349617E+01  0.0000000E+00
Ar   486  0.8794400E+01  0.1424122E+02  0.5441711E+01  0.0000000E+00
Ar   487  0.9078678E+01  0.1165690E+02  0.8150161E+01  0.0000000E+00
Ar   488  0.6382508E+01  0.1424025E+02  0.8025612E+01  0.0000000E+00
Ar   489  0.6262835E+01  0.1164168E+02  0.1080788E+02  0.0000000E+00
Ar   490  0.9007697E+01  0.1441115E+02  0.1095373E+02  0.0000000E+00
Ar   491  0.9131892E+01  0.1183289E+02  0.1358576E+02  0.0000000E+00
Ar   492  0.6423386E+01  0.1455364E+02  0.1351948E+02  0.0000000E+00
Ar   493  0.6661863E+01  0.1192385E+02  0.1621348E+02  0.0000000E+00
Ar   494  0.9231146E+01  0.1426766E+02  0.1605645E+02  0.0000000E+00
Ar   495  0.9175452E+01  0.1173780E+02  0.1886191E+02  0.0000000E+00
Ar   496  0.6180446E+01  0.1430737E+02  0.1888235E+02  0.0000000E+00
Ar   497  0.6474370E+01  0.1177310E+02  0.2128047E+02  0.0000000E+00
Ar   498  0.9214866E+01  0.1448617E+02  0.2123993E+02  0.0000000E+00
Ar   499  0.9331093E+01  0.1176058E+02  0.2375532E+02  0.0000000E+00
Ar   500  0.6485480E+01  0.1449249E+02  0.2398723E+02  0.0000000E+00
Ar   501  0.6466142E+01  0.1174707E+02  0.2684910E+02  0.0000000E+00
Ar   502  0.9244079E+01  0.1471330E+02  0.2690290E+02  0.0000000E+00
Ar   503  0.9152960E+01  0.1172256E+02  0.2953827E+02  0.0000000E+00
Ar   504  0.6374358E+01  0.1449572E+02  0.2956302E+02  0.0000000E+00
Ar   505  0.6545984E+01  0.1158452E+02  0.3190392E+02  0.0000000E+00
Ar   506  0.9212060E+01  0.1428344E+02  0.3217321E+02  0.0000000E+00
Ar   507  0.9191736E+01  0.1171062E+02  0.3459807E+02  0.0000000E+00
Ar   508  0.6357513E+01  0.1428260E+02  0.3479420E+02  0.0000000E+00
Ar   509  0.6463583E+01  0.1163958E+02  0.3734398E+02  0.0000000E+00
Ar   510  0.9103967E+01  0.1452150E+02  0.3722006E+02  0.0000000E+00
Ar   511  0.9306755E+01  0.1182227E+02  0.3997162E+02  0.0000000E+00
Ar   512  0.6438844E+01  0.1435870E+02  0.3970050E+02  0.0000000E+00
Ar   513  0.6637525E+01  0.1185733E+02  0.4266352E+02  0.0000000E+00
Ar   514  0.9273449E+01  0.1420872E+02  0.4272503E+02  0.0000000E+00
Ar   515  0.9103275E+01  0.1162696E+02  0.4532712E+02  0.0000000E+00
Ar   516  0.6280023E+01  0.1454512E+02  0.4501013E+02  0.0000000E+00
Ar   517  0.6233773E+01  0.1169986E+02  0.4803863E+02  0.0000000E+00
Ar   518  0.8953551E+01  0.1443123E+02  0.4807776E+02  0.0000000E+00
Ar   519  0.9298744E+01  0.1170002E+02  0.5049976E+02  0.0000000E+00
Ar   520  0.6262638E+01  0.1432274E+02  0.5070910E+02  0.0000000E+00
Ar   521  0.6301107E+01  0.1710586E+02  0.1068450E+00  0.0000000E+00
Ar   522  0.8927453E+01  0.1950057E+02  0.5290368E+02  0.0000000E+00
Ar   523  0.9074245E+01  0.1693681E+02  0.2669325E+01  0.0000000E+00
Ar   524  0.6712838E+01  0.1986568E+02  0.2644650E+01  0.0000000E+00
Ar   525  0.6367560E+01  0.1680041E+02  0.5166507E+01  0.0000000E+00
Ar   526  0.8964720E+01  0.1978003E+02  0.5601201E+01  0.0000000E+00
Ar   527  0.8880195E+01  0.1685286E+02  0.7979439E+01  0.0000000E+00
Ar   528  0.6318933E+01  0.1930474E+02  0.8262371E+01  0.0000000E+00
Ar   529  0.6292014E+01  0.1677905E+02  0.1096098E+02  0.0000000E+00
Ar   530  0.9007716E+01  0.1937465E+02  0.1060107E+02  0.0000000E+00
Ar   531  0.9188393E+01  0.1708111E+02  0.1342254E+02  0.0000000E+00
Ar   532  0.6437104E+01  0.1974046E+02  0.1325893E+02  0.0000000E+00
Ar   533  0.6377019E+01  0.1695274E+02  0.1587426E+02  0.0000000E+00
Ar   534  0.8861705E+01  0.1968945E+02  0.1628349E+02  0.0000000E+00
Ar   535  0.9266505E+01  0.1700920E+02  0.1872232E+02  0.0000000E+00
Ar   536  0.6439487E+01  0.1968735E+02  0.1878807E+02  0.0000000E+00
Ar   537  0.6286840E+01  0.1711185E+02  0.2144843E+02  0.0000000E+00
Ar   538  0.9100015E+01  0.1970951E+02  0.2131622E+02  0.0000000E+00
Ar   539  0.9240251E+01  0.1698263E+02  0.2397379E+02  0.0000000E+00
Ar   540  0.6525380E+01  0.1998629E+02  0.2395128E+02  0.0000000E+00
Ar   541  0.6451014E+01  0.1714303E+02  0.2658547E+02  0.0000000E+00
Ar   542  0.9251905E+01  0.1993236E+02  0.2659527E+02  0.0000000E+00
Ar   543  0.9068441E+01  0.1706382E+02  0.2974634E+02  0.0000000E+00
Ar   544  0.6419922E+01  0.1952418E+02  0.2965305E+02  0.0000000E+00
Ar   545  0.6448280E+01  0.1675014E+02  0.3214908E+02  0.0000000E+00
Ar   546  0.9153730E+01  0.1968749E+02  0.3218351E+02  0.0000000E+00
Ar   547  0.8883275E+01  0.1689572E+02  0.3473454E+02  0.0000000E+00
Ar   548  0.6511491E+01  0.1978448E+02  0.3467013E+02  0.0000000E+00
Ar   549  0.6411483E+01  0.1698814E+02  0.3734085E+02  0.0000000E+00
Ar   550  0.9132189E+01  0.1943053E+02  0.3729401E+02  0.0000000E+00
Ar   551  0.8966882E+01  0.1693234E+02  0.4038344E+02  0.0000000E+00
Ar   552  0.6466744E+01  0.1978205E+02  0.3973041E+02  0.0000000E+00
Ar   553  0.6464563E+01  0.1727605E+02  0.4259572E+02  0.0000000E+00
Ar   554  0.9115129E+01  0.1979398E+02  0.4234532E+02  0.0000000E+00
Ar   555  0.9046834E+01  0.1709377E+02  0.4512403E+02  0.0000000E+00
Ar   556  0.6487021E+01  0.1970481E+02  0.4545165E+02  0.0000000E+00
Ar   557  0.6138987E+01  0.1693421E+02  0.4772558E+02  0.0000000E+00
Ar   558  0.8844189E+01  0.1967278E+02  0.4811803E+02  0.0000000E+00
Ar   559  0.8968473E+01  0.1679827E+02  0.5069218E+02  0.0000000E+00
Ar   560  0.6173660E+01  0.1932440E+02  0.5044381E+02  0.0000000E+00
Ar   561  0.6313051E+01  0.2222466E+02  0.4556038E-01  0.0000000E+00
Ar   562  0.9194674E+01  0.2493082E+02  0.2439946E+00  0.0000000E+00
Ar   563  0.9105980E+01  0.2239457E+02  0.2803505E+01  0.0000000E+00
Ar   564  0.6483914E+01  0.2463615E+02  0.2876122E+01  0.0000000E+00
Ar   565  0.6403701E+01  0.2227831E+02  0.5674176E+01  0.0000000E+00
Ar   566  0.8914812E+01  0.2496235E+02  0.5845773E+01  0.0000000E+00
Ar   567  0.9031128E+01  0.2213804E+02  0.8266258E+01  0.0000000E+00
Ar   568  0.6338410E+01  0.2512666E+02  0.8401787E+01  0.0000000E+00
Ar   569  0.6087471E+01  0.2208417E+02  0.1072430E+02  0.0000000E+00
Ar   570  0.9090373E+01  0.2489703E+02  0.1068664E+02  0.0000000E+00
Ar   571  0.8984904E+01  0.2213541E+02  0.1346150E+02  0.0000000E+00
Ar   572  0.6327379E+01  0.2494560E+02  0.1307138E+02  0.0000000E+00
Ar   573  0.6166802E+01  0.2262739E+02  0.1596698E+02  0.0000000E+00
Ar   574  0.8905991E+01  0.2493212E+02  0.1582433E+02  0.0000000E+00
Ar   575  0.8911623E+01  0.2245516E+02  0.1882712E+02  0.0000000E+00
Ar   576  0.6193345E+01  0.2492822E+02  0.1892873E+02  0.0000000E+00
Ar   577  0.6374880E+01  0.2227860E+02  0.2121749E+02  0.0000000E+00
Ar   578  0.8796112E+01  0.2519421E+02  0.2143937E+02  0.0000000E+00
Ar   579  0.8931372E+01  0.2253618E+02  0.2395796E+02  0.0000000E+00
Ar   580  0.6138422E+01  0.2481200E+02  0.2399689E+02  0.0000000E+00
Ar   581  0.6420988E+01  0.2213223E+02  0.2686248E+02  0.0000000E+00
Ar   582  0.9010983E+01  0.2512526E+02  0.2644969E+02  0.0000000E+00
Ar   583  0.9041035E+01  0.2221694E+02  0.2938759E+02  0.0000000E+00
Ar   584  0.6500933E+01  0.2482729E+02  0.2916921E+02  0.0000000E+00
Ar   585  0.6302775E+01  0.2244814E+02  0.3186077E+02  0.0000000E+00
Ar   586  0.8995814E+01  0.2489662E+02  0.3213807E+02  0.0000000E+00
Ar   587  0.9043757E+01  0.2235980E+02  0.3480622E+02  0.0000000E+00
Ar   588  0.6425340E+01  0.2486225E+02  0.3479601E+02  0.0000000E+00
Ar   589  0.6558930E+01  0.2237425E+02  0.3749676E+02  0.0000000E+00
Ar   590  0.9301382E+01  0.2493499E+02  0.3743812E+02  0.0000000E+00
Ar   591  0.9022635E+01  0.2231542E+02  0.3998077E+02  0.0000000E+00
Ar   592  0.6539120E+01  0.2489275E+02  0.4031187E+02  0.0000000E+00
Ar   593  0.6510338E+01  0.2225377E+02  0.4254613E+02  0.0000000E+00
Ar   594  0.9040852E+01  0.2482833E+02  0.4283659E+02  0.0000000E+00
Ar   595  0.8976298E+01  0.2228922E+02  0.4554782E+02  0.0000000E+00
Ar   596  0.6241081E+01  0.2488627E+02  0.4523990E+02  0.0000000E+00
Ar   597  0.6351196E+01  0.2244195E+02  0.4827214E+02  0.0000000E+00
Ar   598  0.8738000E+01  0.2523604E+02  0.4827502E+02  0.0000000E+00
Ar   599  0.9006160E+01  0.2232277E+02  0.5079195E+02  0.0000000E+00
Ar   600  0.6478626E+01  0.2469268E+02  0.5086658E+02  0.0000000E+00
Ar   601  0.6505464E+01  0.2770198E+02  0.1917231E+00  0.0000000E+00
Ar   602  0.8995793E+01  0.3027326E+02  0.2575444E-01  0.0000000E+00
Ar   603  0.9045137E+01  0.2743820E+02  0.2693709E+01  0.0000000E+00
Ar   604  0.6269956E+01  0.2994772E+02  0.2689789E+01  0.0000000E+00
Ar   605  0.6404655E+01  0.2733932E+02  0.5343928E+01  0.0000000E+00
Ar   606  0.8834990E+01  0.3013373E+02  0.5136248E+01  0.0000000E+00
Ar   607  0.9314266E+01  0.2754674E+02  0.8348189E+01  0.0000000E+00
Ar   608  0.6646583E+01  0.3027815E+02  0.7975443E+01  0.0000000E+00
Ar   609  0.6175531E+01  0.2762908E+02  0.1077864E+02  0.0000000E+00
Ar   610  0.9043501E+01  0.3039772E+02  0.1071121E+02  0.0000000E+00
Ar   611  0.8849643E+01  0.2762496E+02  0.1340561E+02  0.0000000E+00
Ar   612  0.6282863E+01  0.3010733E+02  0.1361486E+02  0.0000000E+00
Ar   613  0.6245525E+01  0.2738157E+02  0.1614539E+02  0.0000000E+00
Ar   614  0.8923331E+01  0.3023152E+02  0.1612536E+02  0.0000000E+00
Ar   615  0.9096243E+01  0.2752314E+02  0.1868114E+02  0.0000000E+00
Ar   616  0.6366756E+01  0.3031091E+02  0.1889506E+02  0.0000000E+00
Ar   617  0.6283354E+01  0.2781224E+02  0.2146025E+02  0.0000000E+00
Ar   618  0.9205909E+01  0.3015713E+02  0.2110146E+02  0.0000000E+00
Ar   619  0.9034975E+01  0.2764627E+02  0.2399820E+02  0.0000000E+00
Ar   620  0.6450846E+01  0.3030623E+02  0.2428113E+02  0.0000000E+00
Ar   621  0.6047282E+01  0.2755613E+02  0.2693529E+02  0.0000000E+00
Ar   622  0.9144492E+01  0.3033263E+02  0.2662385E+02  0.0000000E+00
Ar   623  0.9337454E+01  0.2759986E+02  0.2940133E+02  0.0000000E+00
Ar   624  0.6589218E+01  0.3015078E+02  0.2925238E+02  0.0000000E+00
Ar   625  0.6346683E+01  0.2761797E+02  0.3194082E+02  0.0000000E+00
Ar   626  0.9194680E+01  0.3036422E+02  0.3213548E+02  0.0000000E+00
Ar   627  0.8797681E+01  0.2759317E+02  0.3460704E+02  0.0000000E+00
Ar   628  0.6550218E+01  0.3022332E+02  0.3477375E+02  0.0000000E+00
Ar   629  0.6698765E+01  0.2749549E+02  0.3758635E+02  0.0000000E+00
Ar   630  0.9205578E+01  0.3018008E+02  0.3731096E+02  0.0000000E+00
Ar   631  0.9029070E+01  0.2774667E+02  0.4013311E+02  0.0000000E+00
Ar   632  0.6515667E+01  0.3019987E+02  0.3982706E+02  0.0000000E+00
Ar   633  0.6521451E+01  0.2781416E+02  0.4272934E+02  0.0000000E+00
Ar   634  0.9044635E+01  0.3051683E+02  0.4265949E+02  0.0000000E+00
Ar   635  0.9005966E+01  0.2761476E+02  0.4551291E+02  0.0000000E+00
Ar   636  0.6446346E+01  0.3025581E+02  0.4543648E+02  0.0000000E+00
Ar   637  0.6209075E+01  0.2755865E+02  0.4795503E+02  0.0000000E+00
Ar   638  0.9162632E+01  0.3027917E+02  0.4805907E+02  0.0000000E+00
Ar   639  0.9276061E+01  0.2772143E+02  0.5086082E+02  0.0000000E+00
Ar   640  0.6378337E+01  0.3023531E+02  0.5042954E+02  0.0000000E+00
Ar   641  0.6346085E+01  0.3280064E+02  0.5312617E+02  0.0000000E+00
Ar   642  0.8726361E+01  0.3579323E+02  0.5307662E+02  0.0000000E+00
Ar   643  0.8716665E+01  0.3276673E+02  0.2663151E+01  0.0000000E+00
Ar   644  0.6363021E+01  0.3572237E+02  0.2662084E+01  0.0000000E+00
Ar   645  0.6210045E+01  0.3277802E+02  0.5251363E+01  0.0000000E+00
Ar   646  0.9184383E+01  0.3564418E+02  0.5399159E+01  0.0000000E+00
Ar   647  0.8828659E+01  0.3302167E+02  0.8125138E+01  0.0000000E+00
Ar   648  0.6485000E+01  0.3579825E+02  0.8036957E+01  0.0000000E+00
Ar   649  0.6532441E+01  0.3309277E+02  0.1072642E+02  0.0000000E+00
Ar   650  0.9080809E+01  0.3597385E+02  0.1089988E+02  0.0000000E+00
Ar   651  0.9210056E+01  0.3283310E+02  0.1365403E+02  0.0000000E+00
Ar   652  0.6270173E+01  0.3544842E+02  0.1322436E+02  0.0000000E+00
Ar   653  0.6329560E+01  0.3291818E+02  0.1610034E+02  0.0000000E+00
Ar   654  0.8925039E+01  0.3558954E+02  0.1605868E+02  0.0000000E+00
Ar   655  0.8844225E+01  0.3291923E+02  0.1856375E+02  0.0000000E+00
Ar   656  0.6345481E+01  0.3562110E+02  0.1870917E+02  0.0000000E+00
Ar   657  0.6349555E+01  0.3294807E+02  0.2138846E+02  0.0000000E+00
Ar   658  0.8872004E+01  0.3567930E+02  0.2130062E+02  0.0000000E+00
Ar   659  0.9046426E+01  0.3298461E+02  0.2411736E+02  0.0000000E+00
Ar   660  0.6648354E+01  0.3580180E+02  0.2410649E+02  0.0000000E+00
Ar   661  0.6468557E+01  0.3292187E+02  0.2669172E+02  0.0000000E+00
Ar   662  0.9098232E+01  0.3587000E+02  0.2658815E+02  0.0000000E+00
Ar   663  0.9018909E+01  0.3309847E+02  0.2930656E+02  0.0000000E+00
Ar   664  0.6579084E+01  0.3566315E+02  0.2940166E+02  0.0000000E+00
Ar   665  0.6683380E+01  0.3286348E+02  0.3179611E+02  0.0000000E+00
Ar   666  0.9078390E+01  0.3544339E+02  0.3208431E+02  0.0000000E+00
Ar   667  0.9275282E+01  0.3264235E+02  0.3489839E+02  0.0000000E+00
Ar   668  0.6321375E+01  0.3567457E+02  0.3443613E+02  0.0000000E+00
Ar   669  0.6480984E+01  0.3285634E+02  0.3730607E+02  0.0000000E+00
Ar   670  0.9034913E+01  0.3594016E+02  0.3735655E+02  0.0000000E+00
Ar   671  0.9212354E+01  0.3280662E+02  0.3997577E+02  0.0000000E+00
Ar   672  0.6617569E+01  0.3520689E+02  0.3993164E+02  0.0000000E+00
Ar   673  0.6361066E+01  0.3271667E+02  0.4284319E+02  0.0000000E+00
Ar   674  0.9201975E+01  0.3559782E+02  0.4249374E+02  0.0000000E+00
Ar   675  0.9225811E+01  0.3308538E+02  0.4530184E+02  0.0000000E+00
Ar   676  0.6255703E+01  0.3571034E+02  0.4536338E+02  0.0000000E+00
Ar   677  0.6384380E+01  0.3275359E+02  0.4788010E+02  0.0000000E+00
Ar   678  0.9141664E+01  0.3539860E+02  0.4794122E+02  0.0000000E+00
Ar   679  0.9197230E+01  0.3285875E+02  0.5067229E+02  0.0000000E+00
Ar   680  0.6411726E+01  0.3562345E+02  0.5026291E+02  0.0000000E+00
Ar   681  0.6179323E+01  0.3818071E+02  0.1674911E+00  0.0000000E+00
Ar   682  0.8900435E+01  0.4090505E+02  0.8219496E-01  0.0000000E+00
Ar   683  0.9025853E+01  0.3822798E+02  0.2636529E+01  0.0000000E+00
Ar   684  0.6123499E+01  0.4089690E+02  0.2757342E+01  0.0000000E+00
Ar   685  0.6323616E+01  0.3829147E+02  0.5353337E+01  0.0000000E+00
Ar   686  0.9059071E+01  0.4065403E+02  0.5318457E+01  0.0000000E+00
Ar   687  0.8902678E+01  0.3822784E+02  0.7938340E+01  0.0000000E+00
Ar   688  0.6140122E+01  0.4078652E+02  0.7965255E+01  0.0000000E+00
Ar   689  0.6134133E+01  0.3801981E+02  0.1070211E+02  0.0000000E+00
Ar   690  0.8754711E+01  0.4083803E+02  0.1065802E+02  0.0000000E+00
Ar   691  0.8800882E+01  0.3840164E+02  0.1351814E+02  0.0000000E+00
Ar   692  0.6232861E+01  0.4099095E+02  0.1335020E+02  0.0000000E+00
Ar   693  0.6055149E+01  0.3810942E+02  0.1598482E+02  0.0000000E+00
Ar   694  0.8999299E+01  0.4095063E+02  0.1595077E+02  0.0000000E+00
Ar   695  0.9013936E+01  0.3849892E+02  0.1854094E+02  0.0000000E+00
Ar   696  0.6342407E+01  0.4097728E+02  0.1846538E+02  0.0000000E+00
Ar   697  0.6290613E+01  0.3841891E+02  0.2118206E+02  0.0000000E+00
Ar   698  0.8931979E+01  0.4103198E+02  0.2124938E+02  0.0000000E+00
Ar   699  0.9091775E+01  0.3842614E+02  0.2378666E+02  0.0000000E+00
Ar   700  0.6434961E+01  0.4099654E+02  0.2382330E+02  0.0000000E+00
Ar   701  0.6293027E+01  0.3840026E+02  0.2656158E+02  0.0000000E+00
Ar   702  0.9038052E+01  0.4084158E+02  0.2660538E+02  0.0000000E+00
Ar   703  0.9241065E+01  0.3843127E+02  0.2952621E+02  0.0000000E+00
Ar   704  0.6507215E+01  0.4078344E+02  0.2939925E+02  0.0000000E+00
Ar   705  0.6616007E+01  0.3849444E+02  0.3207530E+02  0.0000000E+00
Ar   706  0.9209721E+01  0.4112147E+02  0.3194802E+02  0.0000000E+00
Ar   707  0.9021933E+01  0.3845107E+02  0.3467268E+02  0.0000000E+00
Ar   708  0.6459654E+01  0.4081967E+02  0.3478936E+02  0.0000000E+00
Ar   709  0.6459117E+01  0.3832300E+02  0.3723113E+02  0.0000000E+00
Ar   710  0.9093048E+01  0.4115603E+02  0.3746030E+02  0.0000000E+00
Ar   711  0.8968448E+01  0.3833046E+02  0.4010436E+02  0.0000000E+00
Ar   712  0.6179539E+01  0.4111466E+02  0.3987517E+02  0.0000000E+00
Ar   713  0.6535761E+01  0.3797552E+02  0.4281707E+02  0.0000000E+00
Ar   714  0.8893261E+01  0.4102549E+02  0.4254539E+02  0.0000000E+00
Ar   715  0.9188252E+01  0.3810347E+02  0.4533630E+02  0.0000000E+00
Ar   716  0.6578493E+01  0.4116527E+02  0.4522503E+02  0.0000000E+00
Ar   717  0.6397293E+01  0.3833174E+02  0.4787579E+02  0.0000000E+00
Ar   718  0.9085167E+01  0.4074639E+02  0.4787254E+02  0.0000000E+00
Ar   719  0.8810936E+01  0.3824151E+02  0.5039197E+02  0.0000000E+00
Ar   720  0.6373458E+01  0.4067924E+02  0.5069391E+02  0.0000000E+00
Ar   721  0.6532186E+01  0.4370740E+02  0.8630878E-01  0.0000000E+00
Ar   722  0.9058302E+01  0.4651558E+02  0.5335819E-01  0.0000000E+00
Ar   723  0.9063179E+01  0.4363564E+02  0.2699090E+01  0.0000000E+00
Ar   724  0.6283648E+01  0.4635951E+02  0.2646611E+01  0.0000000E+00
Ar   725  0.6422655E+01  0.4346592E+02  0.5171278E+01  0.0000000E+00
Ar   726  0.8964579E+01  0.4609510E+02  0.5229217E+01  0.0000000E+00
Ar   727  0.9098769E+01  0.4355598E+02  0.7879246E+01  0.0000000E+00
Ar   728  0.6408210E+01  0.4599288E+02  0.8134624E+01  0.0000000E+00
Ar   729  0.6350963E+01  0.4326099E+02  0.1056870E+02  0.0000000E+00
Ar   730  0.8738443E+01  0.4619017E+02  0.1063660E+02  0.0000000E+00
Ar   731  0.8573401E+01  0.4375163E+02  0.1336354E+02  0.0000000E+00
Ar   732  0.6129602E+01  0.4622346E+02  0.1338672E+02  0.0000000E+00
Ar   733  0.6191812E+01  0.4362986E+02  0.1611438E+02  0.0000000E+00
Ar   734  0.8657188E+01  0.4627490E+02  0.1590957E+02  0.0000000E+00
Ar   735  0.8802802E+01  0.4352923E+02  0.1864125E+02  0.0000000E+00
Ar   736  0.6192346E+01  0.4633350E+02  0.1870171E+02  0.0000000E+00
Ar   737  0.6284413E+01  0.4362245E+02  0.2118184E+02  0.0000000E+00
Ar   738  0.9008213E+01  0.4629214E+02  0.2126763E+02  0.0000000E+00
Ar   739  0.8960215E+01  0.4385724E+02  0.2373615E+02  0.0000000E+00
Ar   740  0.6360016E+01  0.4653033E+02  0.2389934E+02  0.0000000E+00
Ar   741  0.6460882E+01  0.4360235E+02  0.2641047E+02  0.0000000E+00
Ar   742  0.9104790E+01  0.4646523E+02  0.2660456E+02  0.0000000E+00
Ar   743  0.8963591E+01  0.4342286E+02  0.2940516E+02  0.0000000E+00
Ar   744  0.6391040E+01  0.4639720E+02  0.2929932E+02  0.0000000E+00
Ar   745  0.6261112E+01  0.4352753E+02  0.3207110E+02  0.0000000E+00
Ar   746  0.8824835E+01  0.4610836E+02  0.3175615E+02  0.0000000E+00
Ar   747  0.8853255E+01  0.4363679E+02  0.3468651E+02  0.0000000E+00
Ar   748  0.6643705E+01  0.4628424E+02  0.3483219E+02  0.0000000E+00
Ar   749  0.6246827E+01  0.4378713E+02  0.3728055E+02  0.0000000E+00
Ar   750  0.9131091E+01  0.4620987E+02  0.3750323E+02  0.0000000E+00
Ar   751  0.9080078E+01  0.4367195E+02  0.4006624E+02  0.0000000E+00
Ar   752  0.6307818E+01  0.4626601E+02  0.3985036E+02  0.0000000E+00
Ar   753  0.6583282E+01  0.4399844E+02  0.4239200E+02  0.0000000E+00
Ar   754  0.9048129E+01  0.4650345E+02  0.4274347E+02  0.0000000E+00
Ar   755  0.8990397E+01  0.4378525E+02  0.4506415E+02  0.0000000E+00
Ar   756  0.6450641E+01  0.4629174E+02  0.4527914E+02  0.0000000E+00
Ar   757  0.6501917E+01  0.4366026E+02  0.4770474E+02  0.0000000E+00
Ar   758  0.9225003E+01  0.4626081E+02  0.4796104E+02  0.0000000E+00
Ar   759  0.8874564E+01  0.4350725E+02  0.5072385E+02  0.0000000E+00
Ar   760  0.6361187E+01  0.4632421E+02  0.5064133E+02  0.0000000E+00
Ar   761  0.6289683E+01  0.4889281E+02  0.1966381E+00  0.0000000E+00
Ar   762  0.9126336E+01  0.5150622E+02  0.3280817E+00  0.0000000E+00
Ar   763  0.9197007E+01  0.4885169E+02  0.2873114E+01  0.0000000E+00
Ar   764  0.6384334E+01  0.5131352E+02  0.2659601E+01  0.0000000E+00
Ar   765  0.6266701E+01  0.4875004E+02  0.5141986E+01  0.0000000E+00
Ar   766  0.9116901E+01  0.5140960E+02  0.5444718E+01  0.0000000E+00
Ar   767  0.8725378E+01  0.4873297E+02  0.8025175E+01  0.0000000E+00
Ar   768  0.6490673E+01  0.5143147E+02  0.7788207E+01  0.0000000E+00
Ar   769  0.6252538E+01  0.4878878E+02  0.1072193E+02  0.0000000E+00
Ar   770  0.9364697E+01  0.5171007E+02  0.1056667E+02  0.0000000E+00
Ar   771  0.9003924E+01  0.4899022E+02  0.1340288E+02  0.0000000E+00
Ar   772  0.6361172E+01  0.5156775E+02  0.1330980E+02  0.0000000E+00
Ar   773  0.6084585E+01  0.4902605E+02  0.1593940E+02  0.0000000E+00
Ar   774  0.8935954E+01  0.5156659E+02  0.1604306E+02  0.0000000E+00
Ar   775  0.8949294E+01  0.4877488E+02  0.1858799E+02  0.0000000E+00
Ar   776  0.6411968E+01  0.5127868E+02  0.1870311E+02  0.0000000E+00
Ar   777  0.6196774E+01  0.4890891E+02  0.2123502E+02  0.0000000E+00
Ar   778  0.8804062E+01  0.5142471E+02  0.2119321E+02  0.0000000E+00
Ar   779  0.8991464E+01  0.4881295E+02  0.2396667E+02  0.0000000E+00
Ar   780  0.6397838E+01  0.5131699E+02  0.2393955E+02  0.0000000E+00
Ar   781  0.6494554E+01  0.4888032E+02  0.2661002E+02  0.0000000E+00
Ar   782  0.8867160E+01  0.5163159E+02  0.2680342E+02  0.0000000E+00
Ar   783  0.8982241E+01  0.4882822E+02  0.2935557E+02  0.0000000E+00
Ar   784  0.6447744E+01  0.5166995E+02  0.2928697E+02  0.0000000E+00
Ar   785  0.6382105E+01  0.4886898E+02  0.3193755E+02  0.0000000E+00
Ar   786  0.8974878E+01  0.5153673E+02  0.3191528E+02  0.0000000E+00
Ar   787  0.9050362E+01  0.4872097E+02  0.3457293E+02  0.0000000E+00
Ar   788  0.6356451E+01  0.5165290E+02  0.3447644E+02  0.0000000E+00
Ar   789  0.6434018E+01  0.4884573E+02  0.3714209E+02  0.0000000E+00
Ar   790  0.8806886E+01  0.5142329E+02  0.3735078E+02  0.0000000E+00
Ar   791  0.9012211E+01  0.4901502E+02  0.3995666E+02  0.0000000E+00
Ar   792  0.6336167E+01  0.5158632E+02  0.4013879E+02  0.0000000E+00
Ar   793  0.6144685E+01  0.4909209E+02  0.4271581E+02  0.0000000E+00
Ar   794  0.8897197E+01  0.5158349E+02  0.4277464E+02  0.0000000E+00
Ar   795  0.8970530E+01  0.4885981E+02  0.4528373E+02  0.0000000E+00
Ar   796  0.6430905E+01  0.5160000E+02  0.4543839E+02  0.0000000E+00
Ar   797  0.6311848E+01  0.4867535E+02  0.4795956E+02  0.0000000E+00
Ar   798  0.9195494E+01  0.5163321E+02  0.4784903E+02  0.0000000E+00
Ar   799  0.9447011E+01  0.4891229E+02  0.5044300E+02  0.0000000E+00
Ar   800  0.6474295E+01  0.5123257E+02  0.5060388E+02  0.0000000E+00
Ar   801  0.1209261E+02  0.1239765E+01  0.9724302E-01  0.0000000E+00
Ar   802  0.1457107E+02  0.3795718E+01  0.8317170E-01  0.0000000E+00
Ar   803  0.1440139E+02  0.1000178E+01  0.2743161E+01  0.0000000E+00
Ar   804  0.1185717E+02  0.3914325E+01  0.2475875E+01  0.0000000E+00
Ar   805  0.1197866E+02  0.8534570E+00  0.5467012E+01  0.0000000E+00
Ar   806  0.1449524E+02  0.3817572E+01  0.5429196E+01  0.0000000E+00
Ar   807  0.1431195E+02  0.1177344E+01  0.8080607E+01  0.0000000E+00
Ar   808  0.1178516E+02  0.3699108E+01  0.8209145E+01  0.0000000E+00
Ar   809  0.1186168E+02  0.7873440E+00  0.1087753E+02  0.0000000E+00
Ar   810  0.1450242E+02  0.3715647E+01  0.1088746E+02  0.0000000E+00
Ar   811  0.1442043E+02  0.1012590E+01  0.1329028E+02  0.0000000E+00
Ar   812  0.1190788E+02  0.3569468E+01  0.1330603E+02  0.0000000E+00
Ar   813  0.1199037E+02  0.8174302E+00  0.1583416E+02  0.0000000E+00
Ar   814  0.1449015E+02  0.3650468E+01  0.1598934E+02  0.0000000E+00
Ar   815  0.1425430E+02  0.1204632E+01  0.1874494E+02  0.0000000E+00
Ar   816  0.1173541E+02  0.3679422E+01  0.1852309E+02  0.0000000E+00
Ar   817  0.1183019E+02  0.9226436E+00  0.2143639E+02  0.0000000E+00
Ar   818  0.1427424E+02  0.3782838E+01  0.2138782E+02  0.0000000E+00
Ar   819  0.1439892E+02  0.8563788E+00  0.2418820E+02  0.0000000E+00
Ar   820  0.1160868E+02  0.3619055E+01  0.2386255E+02  0.0000000E+00
Ar   821  0.1188740E+02  0.9428858E+00  0.2653249E+02  0.0000000E+00
Ar   822  0.1421891E+02  0.3606403E+01  0.2657069E+02  0.0000000E+00
Ar   823  0.1455585E+02  0.1254558E+01  0.2936192E+02  0.0000000E+00
Ar   824  0.1190495E+02  0.3924153E+01  0.2939982E+02  0.0000000E+00
Ar   825  0.1159664E+02  0.1092991E+01  0.3219862E+02  0.0000000E+00
Ar   826  0.1436647E+02  0.3741812E+01  0.3195125E+02  0.0000000E+00
Ar   827  0.1451794E+02  0.9108969E+00  0.3456397E+02  0.0000000E+00
Ar   828  0.1195237E+02  0.3813424E+01  0.3485055E+02  0.0000000E+00
Ar   829  0.1159222E+02  0.8340113E+00  0.3726262E+02  0.0000000E+00
Ar   830  0.1426094E+02  0.3364311E+01  0.3753579E+02  0.0000000E+00
Ar   831  0.1447536E+02  0.9541685E+00  0.4006309E+02  0.0000000E+00
Ar   832  0.1162514E+02  0.3662723E+01  0.4009102E+02  0.0000000E+00
Ar   833  0.1152803E+02  0.1137680E+01  0.4293675E+02  0.0000000E+00
Ar   834  0.1441388E+02  0.3474382E+01  0.4264450E+02  0.0000000E+00
Ar   835  0.1422920E+02  0.1019000E+01  0.4529412E+02  0.0000000E+00
Ar   836  0.1183048E+02  0.3736933E+01  0.4534299E+02  0.0000000E+00
Ar   837  0.1172834E+02  0.8367179E+00  0.4801991E+02  0.0000000E+00
Ar   838  0.1466525E+02  0.3609372E+01  0.4802648E+02  0.0000000E+00
Ar   839  0.1436392E+02  0.1154119E+01  0.5058470E+02  0.0000000E+00
Ar   840  0.1145851E+02  0.3894829E+01  0.5086754E+02  0.0000000E+00
Ar   841  0.1180823E+02  0.6721304E+01  0.5138008E-01  0.0000000E+00
Ar   842  0.1418146E+02  0.9175772E+01  0.5308419E+02  0.0000000E+00
Ar   843  0.1460676E+02  0.6298458E+01  0.2921202E+01  0.0000000E+00
Ar   844  0.1175325E+02  0.8957052E+01  0.2881941E+01  0.0000000E+00
Ar   845  0.1185262E+02  0.6395698E+01  0.5533058E+01  0.0000000E+00
Ar   846  0.1443793E+02  0.9199765E+01  0.5582450E+01  0.0000000E+00
Ar   847  0.1445755E+02  0.6288308E+01  0.8094173E+01  0.0000000E+00
Ar   848  0.1157112E+02  0.8908377E+01  0.8440296E+01  0.0000000E+00
Ar   849  0.1172324E+02  0.6179318E+01  0.1089145E+02  0.0000000E+00
Ar   850  0.1430837E+02  0.9212627E+01  0.1069730E+02  0.0000000E+00
Ar   851  0.1439773E+02  0.6281405E+01  0.1341119E+02  0.0000000E+00
Ar   852  0.1171078E+02  0.9083808E+01  0.1340407E+02  0.0000000E+00
Ar   853  0.1194718E+02  0.6373328E+01  0.1574953E+02  0.0000000E+00
Ar   854  0.1447009E+02  0.9159330E+01  0.1624945E+02  0.0000000E+00
Ar   855  0.1435306E+02  0.6384132E+01  0.1870622E+02  0.0000000E+00
Ar   856  0.1177125E+02  0.9126321E+01  0.1860720E+02  0.0000000E+00
Ar   857  0.1190946E+02  0.6585762E+01  0.2118021E+02  0.0000000E+00
Ar   858  0.1431995E+02  0.9024844E+01  0.2141592E+02  0.0000000E+00
Ar   859  0.1435874E+02  0.6161501E+01  0.2413305E+02  0.0000000E+00
Ar   860  0.1177023E+02  0.9075963E+01  0.2423317E+02  0.0000000E+00
Ar   861  0.1132895E+02  0.6102951E+01  0.2650870E+02  0.0000000E+00
Ar   862  0.1456020E+02  0.8913308E+01  0.2651773E+02  0.0000000E+00
Ar   863  0.1435769E+02  0.6285274E+01  0.2898775E+02  0.0000000E+00
Ar   864  0.1176564E+02  0.8848263E+01  0.2911849E+02  0.0000000E+00
Ar   865  0.1192234E+02  0.6496436E+01  0.3214692E+02  0.0000000E+00
Ar   866  0.1439234E+02  0.9079092E+01  0.3208558E+02  0.0000000E+00
Ar   867  0.1434677E+02  0.6439076E+01  0.3500003E+02  0.0000000E+00
Ar   868  0.1183292E+02  0.9290757E+01  0.3455802E+02  0.0000000E+00
Ar   869  0.1181449E+02  0.6366789E+01  0.3752239E+02  0.0000000E+00
Ar   870  0.1456033E+02  0.8829939E+01  0.3755732E+02  0.0000000E+00
Ar   871  0.1440908E+02  0.6349851E+01  0.4025725E+02  0.0000000E+00
Ar   872  0.1176370E+02  0.8989580E+01  0.4006205E+02  0.0000000E+00
Ar   873  0.1173955E+02  0.6272565E+01  0.4282603E+02  0.0000000E+00
Ar   874  0.1435472E+02  0.9154744E+01  0.4278907E+02  0.0000000E+00
Ar   875  0.1452019E+02  0.6362780E+01  0.4527212E+02  0.0000000E+00
Ar   876  0.1189478E+02  0.8905713E+01  0.4538759E+02  0.0000000E+00
Ar   877  0.1197364E+02  0.6305926E+01  0.4791206E+02  0.0000000E+00
Ar   878  0.1441344E+02  0.8924403E+01  0.4779114E+02  0.0000000E+00
Ar   879  0.1424009E+02  0.6107561E+01  0.5061580E+02  0.0000000E+00
Ar   880  0.1174798E+02  0.9137853E+01  0.5035985E+02  0.0000000E+00
Ar   881  0.1169600E+02  0.1145904E+02  0.1877264E+00  0.0000000E+00
Ar   882  0.1432896E+02  0.1443481E+02  0.5318262E+02  0.0000000E+00
Ar   883  0.1444818E+02  0.1169604E+02  0.2731208E+01  0.0000000E+00
Ar   884  0.1162082E+02  0.1402320E+02  0.2719869E+01  0.0000000E+00
Ar   885  0.1176345E+02  0.1163684E+02  0.5456714E+01  0.0000000E+00
Ar   886  0.1423537E+02  0.1436970E+02  0.5324155E+01  0.0000000E+00
Ar   887  0.1449042E+02  0.1170064E+02  0.8158488E+01  0.0000000E+00
Ar   888  0.1173209E+02  0.1433360E+02  0.8075746E+01  0.0000000E+00
Ar   889  0.1170007E+02  0.1166249E+02  0.1074060E+02  0.0000000E+00
Ar   890  0.1446904E+02  0.1424243E+02  0.1077556E+02  0.0000000E+00
Ar   891  0.1455394E+02  0.1163592E+02  0.1346938E+02  0.0000000E+00
Ar   892  0.1158867E+02  0.1437300E+02  0.1342830E+02  0.0000000E+00
Ar   893  0.1165771E+02  0.1163366E+02  0.1613760E+02  0.0000000E+00
Ar   894  0.1439307E+02  0.1403368E+02  0.1619145E+02  0.0000000E+00
Ar   895  0.1442422E+02  0.1158626E+02  0.1880243E+02  0.0000000E+00
Ar   896  0.1176890E+02  0.1460379E+02  0.1876722E+02  0.0000000E+00
Ar   897  0.1167155E+02  0.1148717E+02  0.2117037E+02  0.0000000E+00
Ar   898  0.1421414E+02  0.1441911E+02  0.2139533E+02  0.0000000E+00
Ar   899  0.1438002E+02  0.1173933E+02  0.2420815E+02  0.0000000E+00
Ar   900  0.1170502E+02  0.1437071E+02  0.2417894E+02  0.0000000E+00
Ar   901  0.1175093E+02  0.1205369E+02  0.2674130E+02  0.0000000E+00
Ar   902  0.1463048E+02  0.1429756E+02  0.2671716E+02  0.0000000E+00
Ar   903  0.1463587E+02  0.1150955E+02  0.2944549E+02  0.0000000E+00
Ar   904  0.1185184E+02  0.1468389E+02  0.2935782E+02  0.0000000E+00
Ar   905  0.1193342E+02  0.1179599E+02  0.3182805E+02  0.0000000E+00
Ar   906  0.1465634E+02  0.1432205E+02  0.3217387E+02  0.0000000E+00
Ar   907  0.1460434E+02  0.1165708E+02  0.3473582E+02  0.0000000E+00
Ar   908  0.1174085E+02  0.1438721E+02  0.3496281E+02  0.0000000E+00
Ar   909  0.1203483E+02  0.1152467E+02  0.3724216E+02  0.0000000E+00
Ar   910  0.1447880E+02  0.1463432E+02  0.3735559E+02  0.0000000E+00
Ar   911  0.1456817E+02  0.1163051E+02  0.3989655E+02  0.0000000E+00
Ar   912  0.1163351E+02  0.1442236E+02  0.3977180E+02  0.0000000E+00
Ar   913  0.1159439E+02  0.1148422E+02  0.4259588E+02  0.0000000E+00
Ar   914  0.1402216E+02  0.1420260E+02  0.4258312E+02  0.0000000E+00
Ar   915  0.1428922E+02  0.1172826E+02  0.4524614E+02  0.0000000E+00
Ar   916  0.1158598E+02  0.1436183E+02  0.4536884E+02  0.0000000E+00
Ar   917  0.1176148E+02  0.1156585E+02  0.4779338E+02  0.0000000E+00
Ar   918  0.1421653E+02  0.1424794E+02  0.4795281E+02  0.0000000E+00
Ar   919  0.1449473E+02  0.1173017E+02  0.5073273E+02  0.0000000E+00
Ar   920  0.1180440E+02  0.1434420E+02  0.5060254E+02  0.0000000E+00
Ar   921  0.1169464E+02  0.1670151E+02  0.2316558E+00  0.0000000E+00
Ar   922  0.1425546E+02  0.1960420E+02  0.3640189E+00  0.0000000E+00
Ar   923  0.1418307E+02  0.1677384E+02  0.2784610E+01  0.0000000E+00
Ar   924  0.1168151E+02  0.1983364E+02  0.2616503E+01  0.0000000E+00
Ar   925  0.1147352E+02  0.1700865E+02  0.5278141E+01  0.0000000E+00
Ar   926  0.1419106E+02  0.1965861E+02  0.5352875E+01  0.0000000E+00
Ar   927  0.1425361E+02  0.1703729E+02  0.8062528E+01  0.0000000E+00
Ar   928  0.1174340E+02  0.1953199E+02  0.8305345E+01  0.0000000E+00
Ar   929  0.1174557E+02  0.1686983E+02  0.1084046E+02  0.0000000E+00
Ar   930  0.1453681E+02  0.1942371E+02  0.1067120E+02  0.0000000E+00
Ar   931  0.1450753E+02  0.1674569E+02  0.1337842E+02  0.0000000E+00
Ar   932  0.1196128E+02  0.1951683E+02  0.1321610E+02  0.0000000E+00
Ar   933  0.1181805E+02  0.1705475E+02  0.1606989E+02  0.0000000E+00
Ar   934  0.1449353E+02  0.1941692E+02  0.1616712E+02  0.0000000E+00
Ar   935  0.1446781E+02  0.1711332E+02  0.1879739E+02  0.0000000E+00
Ar   936  0.1164090E+02  0.1982323E+02  0.1874122E+02  0.0000000E+00
Ar   937  0.1187500E+02  0.1734845E+02  0.2130757E+02  0.0000000E+00
Ar   938  0.1424836E+02  0.1984917E+02  0.2159520E+02  0.0000000E+00
Ar   939  0.1422188E+02  0.1729331E+02  0.2438036E+02  0.0000000E+00
Ar   940  0.1174575E+02  0.1985109E+02  0.2410717E+02  0.0000000E+00
Ar   941  0.1175746E+02  0.1705800E+02  0.2687491E+02  0.0000000E+00
Ar   942  0.1476227E+02  0.1981171E+02  0.2682393E+02  0.0000000E+00
Ar   943  0.1458236E+02  0.1708193E+02  0.2937943E+02  0.0000000E+00
Ar   944  0.1173962E+02  0.1955018E+02  0.2923409E+02  0.0000000E+00
Ar   945  0.1177272E+02  0.1690666E+02  0.3208354E+02  0.0000000E+00
Ar   946  0.1430920E+02  0.1981176E+02  0.3214042E+02  0.0000000E+00
Ar   947  0.1443271E+02  0.1744010E+02  0.3486610E+02  0.0000000E+00
Ar   948  0.1186891E+02  0.1962939E+02  0.3483479E+02  0.0000000E+00
Ar   949  0.1183948E+02  0.1701394E+02  0.3731869E+02  0.0000000E+00
Ar   950  0.1445335E+02  0.1996209E+02  0.3743064E+02  0.0000000E+00
Ar   951  0.1437176E+02  0.1712330E+02  0.4012714E+02  0.0000000E+00
Ar   952  0.1170900E+02  0.1968113E+02  0.3997905E+02  0.0000000E+00
Ar   953  0.1175763E+02  0.1699034E+02  0.4266474E+02  0.0000000E+00
Ar   954  0.1465695E+02  0.1962405E+02  0.4261201E+02  0.0000000E+00
Ar   955  0.1435129E+02  0.1707408E+02  0.4520483E+02  0.0000000E+00
Ar   956  0.1185800E+02  0.1979063E+02  0.4532563E+02  0.0000000E+00
Ar   957  0.1151711E+02  0.1719478E+02  0.4778254E+02  0.0000000E+00
Ar   958  0.1420895E+02  0.1948845E+02  0.4809738E+02  0.0000000E+00
Ar   959  0.1426852E+02  0.1702814E+02  0.5077011E+02  0.0000000E+00
Ar   960  0.1165862E+02  0.1949949E+02  0.5088030E+02  0.0000000E+00
Ar   961  0.1165599E+02  0.2236481E+02  0.4009364E-01  0.0000000E+00
Ar   962  0.1435447E+02  0.2488244E+02  0.1163110E-01  0.0000000E+00
Ar   963  0.1400588E+02  0.2258278E+02  0.2965185E+01  0.0000000E+00
Ar   964  0.1155924E+02  0.2508999E+02  0.2885947E+01  0.0000000E+00
Ar   965  0.1132121E+02  0.2221173E+02  0.5476666E+01  0.0000000E+00
Ar   966  0.1427325E+02  0.2488724E+02  0.5581410E+01  0.0000000E+00
Ar   967  0.1447767E+02  0.2205918E+02  0.8134573E+01  0.0000000E+00
Ar   968  0.1190496E+02  0.2482280E+02  0.8095596E+01  0.0000000E+00
Ar   969  0.1194700E+02  0.2250461E+02  0.1085340E+02  0.0000000E+00
Ar   970  0.1436376E+02  0.2505906E+02  0.1074384E+02  0.0000000E+00
Ar   971  0.1455786E+02  0.2214137E+02  0.1341482E+02  0.0000000E+00
Ar   972  0.1136304E+02  0.2469734E+02  0.1338702E+02  0.0000000E+00
Ar   973  0.1161985E+02  0.2231532E+02  0.1604752E+02  0.0000000E+00
Ar   974  0.1415952E+02  0.2504955E+02  0.1566743E+02  0.0000000E+00
Ar   975  0.1431408E+02  0.2248122E+02  0.1864600E+02  0.0000000E+00
Ar   976  0.1169378E+02  0.2484816E+02  0.1894316E+02  0.0000000E+00
Ar   977  0.1172593E+02  0.2240025E+02  0.2144666E+02  0.0000000E+00
Ar   978  0.1441805E+02  0.2516780E+02  0.2161441E+02  0.0000000E+00
Ar   979  0.1442180E+02  0.2238685E+02  0.2403903E+02  0.0000000E+00
Ar   980  0.1168694E+02  0.2512145E+02  0.2418216E+02  0.0000000E+00
Ar   981  0.1171515E+02  0.2236487E+02  0.2682428E+02  0.0000000E+00
Ar   982  0.1432346E+02  0.2521751E+02  0.2691392E+02  0.0000000E+00
Ar   983  0.1435598E+02  0.2244197E+02  0.2939164E+02  0.0000000E+00
Ar   984  0.1163542E+02  0.2509373E+02  0.2949167E+02  0.0000000E+00
Ar   985  0.1177166E+02  0.2232964E+02  0.3214711E+02  0.0000000E+00
Ar   986  0.1431877E+02  0.2508455E+02  0.3205203E+02  0.0000000E+00
Ar   987  0.1443264E+02  0.2231055E+02  0.3450317E+02  0.0000000E+00
Ar   988  0.1185512E+02  0.2505362E+02  0.3494067E+02  0.0000000E+00
Ar   989  0.1156379E+02  0.2231612E+02  0.3756389E+02  0.0000000E+00
Ar   990  0.1440872E+02  0.2520436E+02  0.3738476E+02  0.0000000E+00
Ar   991  0.1437261E+02  0.2263380E+02  0.4029780E+02  0.0000000E+00
Ar   992  0.1189804E+02  0.2511121E+02  0.4007849E+02  0.0000000E+00
Ar   993  0.1140675E+02  0.2225187E+02  0.4287113E+02  0.0000000E+00
Ar   994  0.1463554E+02  0.2523522E+02  0.4279916E+02  0.0000000E+00
Ar   995  0.1436279E+02  0.2224494E+02  0.4528921E+02  0.0000000E+00
Ar   996  0.1169114E+02  0.2529942E+02  0.4561620E+02  0.0000000E+00
Ar   997  0.1144140E+02  0.2238695E+02  0.4789129E+02  0.0000000E+00
Ar   998  0.1422154E+02  0.2463850E+02  0.4807477E+02  0.0000000E+00
Ar   999  0.1420077E+02  0.2235335E+02  0.5085572E+02  0.0000000E+00
Ar  1000  0.1174908E+02  0.2516765E+02  0.5082172E+02  0.0000000E+00
Ar  1001  0.1198412E+02  0.2775304E+02  0.1644894E+00  0.0000000E+00
Ar  1002  0.1449187E+02  0.3041675E+02  0.1694131E+00  0.0000000E+00
Ar  1003  0.1435913E+02  0.2746000E+02  0.2882246E+01  0.0000000E+00
Ar  1004  0.1136309E+02  0.3037824E+02  0.2773704E+01  0.0000000E+00
Ar  1005  0.1145539E+02  0.2778865E+02  0.5158848E+01  0.0000000E+00
Ar  1006  0.1462380E+02  0.3038515E+02  0.5418798E+01  0.0000000E+00
Ar  1007  0.1446446E+02  0.2772021E+02  0.7875527E+01  0.0000000E+00
Ar  1008  0.1154030E+02  0.3037663E+02  0.7935903E+01  0.0000000E+00
Ar  1009  0.1189768E+02  0.2761848E+02  0.1079452E+02  0.0000000E+00
Ar  1010  0.1425345E+02  0.3022006E+02  0.1053525E+02  0.0000000E+00
Ar  1011  0.1419738E+02  0.2768302E+02  0.1344684E+02  0.0000000E+00
Ar  1012  0.1170113E+02  0.3048230E+02  0.1334096E+02  0.0000000E+00
Ar  1013  0.1156679E+02  0.2764499E+02  0.1592765E+02  0.0000000E+00
Ar  1014  0.1423739E+02  0.3036215E+02  0.1606483E+02  0.0000000E+00
Ar  1015  0.1401331E+02  0.2748931E+02  0.1876811E+02  0.0000000E+00
Ar  1016  0.1161703E+02  0.3031109E+02  0.1857555E+02  0.0000000E+00
Ar  1017  0.1161054E+02  0.2763993E+02  0.2167821E+02  0.0000000E+00
Ar  1018  0.1431690E+02  0.3027270E+02  0.2127448E+02  0.0000000E+00
Ar  1019  0.1450265E+02  0.2782166E+02  0.2427355E+02  0.0000000E+00
Ar  1020  0.1167691E+02  0.3032315E+02  0.2409226E+02  0.0000000E+00
Ar  1021  0.1183650E+02  0.2749832E+02  0.2685550E+02  0.0000000E+00
Ar  1022  0.1427789E+02  0.3051421E+02  0.2688561E+02  0.0000000E+00
Ar  1023  0.1457544E+02  0.2754973E+02  0.2944134E+02  0.0000000E+00
Ar  1024  0.1149367E+02  0.3054821E+02  0.2924745E+02  0.0000000E+00
Ar  1025  0.1169592E+02  0.2769073E+02  0.3218266E+02  0.0000000E+00
Ar  1026  0.1455583E+02  0.3036929E+02  0.3192325E+02  0.0000000E+00
Ar  1027  0.1439342E+02  0.2751307E+02  0.3453431E+02  0.0000000E+00
Ar  1028  0.1194854E+02  0.3028354E+02  0.3463319E+02  0.0000000E+00
Ar  1029  0.1158916E+02  0.2761414E+02  0.3744149E+02  0.0000000E+00
Ar  1030  0.1429864E+02  0.3025112E+02  0.3706016E+02  0.0000000E+00
Ar  1031  0.1459258E+02  0.2767179E+02  0.3998490E+02  0.0000000E+00
Ar  1032  0.1192804E+02  0.3043336E+02  0.3985176E+02  0.0000000E+00
Ar  1033  0.1158606E+02  0.2771804E+02  0.4267925E+02  0.0000000E+00
Ar  1034  0.1430231E+02  0.3000780E+02  0.4264603E+02  0.0000000E+00
Ar  1035  0.1461156E+02  0.2786799E+02  0.4546864E+02  0.0000000E+00
Ar  1036  0.1152248E+02  0.3026710E+02  0.4524306E+02  0.0000000E+00
Ar  1037  0.1172484E+02  0.2777771E+02  0.4815333E+02  0.0000000E+00
Ar  1038  0.1425648E+02  0.3036490E+02  0.4808888E+02  0.0000000E+00
Ar  1039  0.1431814E+02  0.2778359E+02  0.5057930E+02  0.0000000E+00
Ar  1040  0.1164964E+02  0.3017953E+02  0.5083440E+02  0.0000000E+00
Ar  1041  0.1168801E+02  0.3288014E+02  0.4130847E-01  0.0000000E+00
Ar  1042  0.1427825E+02  0.3538968E+02  0.9593874E-01  0.0000000E+00
Ar  1043  0.1443657E+02  0.3276710E+02  0.2656238E+01  0.0000000E+00
Ar  1044  0.1160012E+02  0.3577889E+02  0.2739251E+01  0.0000000E+00
Ar  1045  0.1153810E+02  0.3283418E+02  0.5435098E+01  0.0000000E+00
Ar  1046  0.1433800E+02  0.3545529E+02  0.5405334E+01  0.0000000E+00
Ar  1047  0.1416421E+02  0.3295898E+02  0.7819134E+01  0.0000000E+00
Ar  1048  0.1167488E+02  0.3576868E+02  0.8041859E+01  0.0000000E+00
Ar  1049  0.1152193E+02  0.3297163E+02  0.1063751E+02  0.0000000E+00
Ar  1050  0.1436430E+02  0.3525654E+02  0.1079794E+02  0.0000000E+00
Ar  1051  0.1445911E+02  0.3283848E+02  0.1316067E+02  0.0000000E+00
Ar  1052  0.1144076E+02  0.3537996E+02  0.1354292E+02  0.0000000E+00
Ar  1053  0.1170549E+02  0.3288476E+02  0.1607868E+02  0.0000000E+00
Ar  1054  0.1412860E+02  0.3534190E+02  0.1586798E+02  0.0000000E+00
Ar  1055  0.1432083E+02  0.3303997E+02  0.1877598E+02  0.0000000E+00
Ar  1056  0.1155011E+02  0.3565358E+02  0.1868075E+02  0.0000000E+00
Ar  1057  0.1179623E+02  0.3274711E+02  0.2124283E+02  0.0000000E+00
Ar  1058  0.1429806E+02  0.3571600E+02  0.2127989E+02  0.0000000E+00
Ar  1059  0.1431951E+02  0.3278282E+02  0.2388695E+02  0.0000000E+00
Ar  1060  0.1143695E+02  0.3581742E+02  0.2360583E+02  0.0000000E+00
Ar  1061  0.1174148E+02  0.3313410E+02  0.2641989E+02  0.0000000E+00
Ar  1062  0.1441553E+02  0.3562497E+02  0.2631676E+02  0.0000000E+00
Ar  1063  0.1414389E+02  0.3292845E+02  0.2952594E+02  0.0000000E+00
Ar  1064  0.1182777E+02  0.3568133E+02  0.2937023E+02  0.0000000E+00
Ar  1065  0.1184129E+02  0.3291205E+02  0.3224895E+02  0.0000000E+00
Ar  1066  0.1436932E+02  0.3595900E+02  0.3220255E+02  0.0000000E+00
Ar  1067  0.1470248E+02  0.3302006E+02  0.3481239E+02  0.0000000E+00
Ar  1068  0.1180790E+02  0.3579134E+02  0.3472837E+02  0.0000000E+00
Ar  1069  0.1169627E+02  0.3302179E+02  0.3727058E+02  0.0000000E+00
Ar  1070  0.1438843E+02  0.3563892E+02  0.3728834E+02  0.0000000E+00
Ar  1071  0.1423314E+02  0.3301935E+02  0.3981415E+02  0.0000000E+00
Ar  1072  0.1181174E+02  0.3563112E+02  0.3990544E+02  0.0000000E+00
Ar  1073  0.1196938E+02  0.3311718E+02  0.4277642E+02  0.0000000E+00
Ar  1074  0.1450306E+02  0.3566885E+02  0.4253742E+02  0.0000000E+00
Ar  1075  0.1447423E+02  0.3294437E+02  0.4557282E+02  0.0000000E+00
Ar  1076  0.1194949E+02  0.3556705E+02  0.4543913E+02  0.0000000E+00
Ar  1077  0.1158771E+02  0.3298530E+02  0.4805745E+02  0.0000000E+00
Ar  1078  0.1455222E+02  0.3547042E+02  0.4780371E+02  0.0000000E+00
Ar  1079  0.1422778E+02  0.3310873E+02  0.5056794E+02  0.0000000E+00
Ar  1080  0.1185911E+02  0.3562397E+02  0.5061115E+02  0.0000000E+00
Ar  1081  0.1169430E+02  0.3827036E+02  0.5311170E+02  0.0000000E+00
Ar  1082  0.1415428E+02  0.4093895E+02  0.5305767E+02  0.0000000E+00
Ar  1083  0.1432971E+02  0.3808079E+02  0.2720017E+01  0.0000000E+00
Ar  1084  0.1161239E+02  0.4082646E+02  0.2557116E+01  0.0000000E+00
Ar  1085  0.1178903E+02  0.3839877E+02  0.5584797E+01  0.0000000E+00
Ar  1086  0.1423045E+02  0.4093797E+02  0.5431666E+01  0.0000000E+00
Ar  1087  0.1434284E+02  0.3815189E+02  0.7915165E+01  0.0000000E+00
Ar  1088  0.1164603E+02  0.4100832E+02  0.8041983E+01  0.0000000E+00
Ar  1089  0.1154761E+02  0.3847845E+02  0.1055603E+02  0.0000000E+00
Ar  1090  0.1427269E+02  0.4078198E+02  0.1090153E+02  0.0000000E+00
Ar  1091  0.1423955E+02  0.3802725E+02  0.1348033E+02  0.0000000E+00
Ar  1092  0.1156672E+02  0.4109253E+02  0.1310407E+02  0.0000000E+00
Ar  1093  0.1155028E+02  0.3827210E+02  0.1606646E+02  0.0000000E+00
Ar  1094  0.1421735E+02  0.4092316E+02  0.1597988E+02  0.0000000E+00
Ar  1095  0.1458203E+02  0.3849435E+02  0.1844792E+02  0.0000000E+00
Ar  1096  0.1143652E+02  0.4100212E+02  0.1837412E+02  0.0000000E+00
Ar  1097  0.1175295E+02  0.3839822E+02  0.2117458E+02  0.0000000E+00
Ar  1098  0.1425452E+02  0.4105897E+02  0.2141859E+02  0.0000000E+00
Ar  1099  0.1431803E+02  0.3832855E+02  0.2381859E+02  0.0000000E+00
Ar  1100  0.1172900E+02  0.4090280E+02  0.2372960E+02  0.0000000E+00
Ar  1101  0.1155968E+02  0.3839345E+02  0.2631895E+02  0.0000000E+00
Ar  1102  0.1441695E+02  0.4088045E+02  0.2633468E+02  0.0000000E+00
Ar  1103  0.1417064E+02  0.3847814E+02  0.2962712E+02  0.0000000E+00
Ar  1104  0.1187886E+02  0.4106981E+02  0.2918959E+02  0.0000000E+00
Ar  1105  0.1163605E+02  0.3841639E+02  0.3220263E+02  0.0000000E+00
Ar  1106  0.1452421E+02  0.4120366E+02  0.3207627E+02  0.0000000E+00
Ar  1107  0.1462206E+02  0.3821037E+02  0.3493172E+02  0.0000000E+00
Ar  1108  0.1165747E+02  0.4111384E+02  0.3476034E+02  0.0000000E+00
Ar  1109  0.1187449E+02  0.3814256E+02  0.3742767E+02  0.0000000E+00
Ar  1110  0.1439576E+02  0.4090240E+02  0.3733027E+02  0.0000000E+00
Ar  1111  0.1445832E+02  0.3833162E+02  0.3986386E+02  0.0000000E+00
Ar  1112  0.1172057E+02  0.4082740E+02  0.4009228E+02  0.0000000E+00
Ar  1113  0.1176372E+02  0.3810889E+02  0.4271043E+02  0.0000000E+00
Ar  1114  0.1456341E+02  0.4070349E+02  0.4287806E+02  0.0000000E+00
Ar  1115  0.1423042E+02  0.3825083E+02  0.4552204E+02  0.0000000E+00
Ar  1116  0.1174491E+02  0.4097165E+02  0.4518025E+02  0.0000000E+00
Ar  1117  0.1176367E+02  0.3819731E+02  0.4795459E+02  0.0000000E+00
Ar  1118  0.1431087E+02  0.4109766E+02  0.4782731E+02  0.0000000E+00
Ar  1119  0.1437487E+02  0.3840662E+02  0.5062760E+02  0.0000000E+00
Ar  1120  0.1158875E+02  0.4095024E+02  0.5062827E+02  0.0000000E+00
Ar  1121  0.1168230E+02  0.4377315E+02  0.5314825E+02  0.0000000E+00
Ar  1122  0.1431082E+02  0.4637214E+02  0.4237255E-01  0.0000000E+00
Ar  1123  0.1435064E+02  0.4374537E+02  0.2491352E+01  0.0000000E+00
Ar  1124  0.1208480E+02  0.4645063E+02  0.2715958E+01  0.0000000E+00
Ar  1125  0.1177652E+02  0.4356051E+02  0.5230763E+01  0.0000000E+00
Ar  1126  0.1433660E+02  0.4674192E+02  0.5629324E+01  0.0000000E+00
Ar  1127  0.1434115E+02  0.4347927E+02  0.8295537E+01  0.0000000E+00
Ar  1128  0.1149603E+02  0.4609045E+02  0.8125777E+01  0.0000000E+00
Ar  1129  0.1157325E+02  0.4345936E+02  0.1038674E+02  0.0000000E+00
Ar  1130  0.1401896E+02  0.4623432E+02  0.1095107E+02  0.0000000E+00
Ar  1131  0.1417657E+02  0.4369771E+02  0.1314504E+02  0.0000000E+00
Ar  1132  0.1140905E+02  0.4597670E+02  0.1348443E+02  0.0000000E+00
Ar  1133  0.1147212E+02  0.4371086E+02  0.1604546E+02  0.0000000E+00
Ar  1134  0.1424866E+02  0.4613064E+02  0.1604895E+02  0.0000000E+00
Ar  1135  0.1412657E+02  0.4345575E+02  0.1871300E+02  0.0000000E+00
Ar  1136  0.1135069E+02  0.4615647E+02  0.1865521E+02  0.0000000E+00
Ar  1137  0.1161482E+02  0.4348604E+02  0.2120251E+02  0.0000000E+00
Ar  1138  0.1424122E+02  0.4645975E+02  0.2127214E+02  0.0000000E+00
Ar  1139  0.1421119E+02  0.4371508E+02  0.2364792E+02  0.0000000E+00
Ar  1140  0.1172107E+02  0.4621801E+02  0.2400948E+02  0.0000000E+00
Ar  1141  0.1159848E+02  0.4326536E+02  0.2648545E+02  0.0000000E+00
Ar  1142  0.1431937E+02  0.4616609E+02  0.2657525E+02  0.0000000E+00
Ar  1143  0.1438375E+02  0.4367281E+02  0.2948019E+02  0.0000000E+00
Ar  1144  0.1146735E+02  0.4610740E+02  0.2923440E+02  0.0000000E+00
Ar  1145  0.1152112E+02  0.4382657E+02  0.3226558E+02  0.0000000E+00
Ar  1146  0.1437817E+02  0.4613036E+02  0.3217018E+02  0.0000000E+00
Ar  1147  0.1435343E+02  0.4355854E+02  0.3480382E+02  0.0000000E+00
Ar  1148  0.1187103E+02  0.4618451E+02  0.3483551E+02  0.0000000E+00
Ar  1149  0.1192863E+02  0.4348352E+02  0.3759247E+02  0.0000000E+00
Ar  1150  0.1450066E+02  0.4625295E+02  0.3752863E+02  0.0000000E+00
Ar  1151  0.1422579E+02  0.4354878E+02  0.4055331E+02  0.0000000E+00
Ar  1152  0.1166797E+02  0.4618228E+02  0.4000217E+02  0.0000000E+00
Ar  1153  0.1152433E+02  0.4389662E+02  0.4268185E+02  0.0000000E+00
Ar  1154  0.1473841E+02  0.4623763E+02  0.4274728E+02  0.0000000E+00
Ar  1155  0.1458290E+02  0.4354491E+02  0.4541437E+02  0.0000000E+00
Ar  1156  0.1161501E+02  0.4627779E+02  0.4525930E+02  0.0000000E+00
Ar  1157  0.1165665E+02  0.4367122E+02  0.4772848E+02  0.0000000E+00
Ar  1158  0.1446001E+02  0.4632943E+02  0.4773762E+02  0.0000000E+00
Ar  1159  0.1441729E+02  0.4354815E+02  0.5038351E+02  0.0000000E+00
Ar  1160  0.1192957E+02  0.4615609E+02  0.5040977E+02  0.0000000E+00
Ar  1161  0.1171436E+02  0.4890703E+02  0.4665423E-01  0.0000000E+00
Ar  1162  0.1458074E+02  0.5171268E+02  0.5313325E+02  0.0000000E+00
Ar  1163  0.1437435E+02  0.4901600E+02  0.2805711E+01  0.0000000E+00
Ar  1164  0.1180546E+02  0.5158122E+02  0.2936223E+01  0.0000000E+00
Ar  1165  0.1161681E+02  0.4874763E+02  0.5691014E+01  0.0000000E+00
Ar  1166  0.1467349E+02  0.5155910E+02  0.5466925E+01  0.0000000E+00
Ar  1167  0.1463078E+02  0.4891318E+02  0.8067554E+01  0.0000000E+00
Ar  1168  0.1181116E+02  0.5155059E+02  0.7996048E+01  0.0000000E+00
Ar  1169  0.1162120E+02  0.4886907E+02  0.1070086E+02  0.0000000E+00
Ar  1170  0.1448239E+02  0.5149696E+02  0.1062499E+02  0.0000000E+00
Ar  1171  0.1417352E+02  0.4878132E+02  0.1329878E+02  0.0000000E+00
Ar  1172  0.1177463E+02  0.5138663E+02  0.1349416E+02  0.0000000E+00
Ar  1173  0.1158264E+02  0.4872658E+02  0.1598293E+02  0.0000000E+00
Ar  1174  0.1467347E+02  0.5133101E+02  0.1603950E+02  0.0000000E+00
Ar  1175  0.1419956E+02  0.4896793E+02  0.1853433E+02  0.0000000E+00
Ar  1176  0.1176592E+02  0.5149568E+02  0.1863799E+02  0.0000000E+00
Ar  1177  0.1151346E+02  0.4898670E+02  0.2103759E+02  0.0000000E+00
Ar  1178  0.1441441E+02  0.5156050E+02  0.2130459E+02  0.0000000E+00
Ar  1179  0.1445334E+02  0.4905201E+02  0.2402987E+02  0.0000000E+00
Ar  1180  0.1158892E+02  0.5146063E+02  0.2412388E+02  0.0000000E+00
Ar  1181  0.1156663E+02  0.4913886E+02  0.2691853E+02  0.0000000E+00
Ar  1182  0.1431412E+02  0.5153942E+02  0.2670259E+02  0.0000000E+00
Ar  1183  0.1435609E+02  0.4892109E+02  0.2960731E+02  0.0000000E+00
Ar  1184  0.1171950E+02  0.5189448E+02  0.2922407E+02  0.0000000E+00
Ar  1185  0.1151265E+02  0.4864441E+02  0.3209302E+02  0.0000000E+00
Ar  1186  0.1421502E+02  0.5165705E+02  0.3194515E+02  0.0000000E+00
Ar  1187  0.1437465E+02  0.4895548E+02  0.3461678E+02  0.0000000E+00
Ar  1188  0.1166957E+02  0.5143357E+02  0.3449792E+02  0.0000000E+00
Ar  1189  0.1176001E+02  0.4886770E+02  0.3738781E+02  0.0000000E+00
Ar  1190  0.1428645E+02  0.5141342E+02  0.3718991E+02  0.0000000E+00
Ar  1191  0.1435097E+02  0.4887619E+02  0.4004358E+02  0.0000000E+00
Ar  1192  0.1168568E+02  0.5145110E+02  0.4002577E+02  0.0000000E+00
Ar  1193  0.1182630E+02  0.4886715E+02  0.4253545E+02  0.0000000E+00
Ar  1194  0.1417936E+02  0.5160056E+02  0.4282370E+02  0.0000000E+00
Ar  1195  0.1458585E+02  0.4881696E+02  0.4536210E+02  0.0000000E+00
Ar  1196  0.1177382E+02  0.5149590E+02  0.4547381E+02  0.0000000E+00
Ar  1197  0.1199696E+02  0.4909384E+02  0.4784024E+02  0.0000000E+00
Ar  1198  0.1448171E+02  0.5170325E+02  0.4792599E+02  0.0000000E+00
Ar  1199  0.1479228E+02  0.4889235E+02  0.5054812E+02  0.0000000E+00
Ar  1200  0.1173139E+02  0.5170080E+02  0.5085610E+02  0.0000000E+00
Ar  1201  0.1698865E+02  0.1089090E+01  0.1436576E+00  0.0000000E+00
Ar  1202  0.1959815E+02  0.3645144E+01  0.2250130E+00  0.0000000E+00
Ar  1203  0.1981711E+02  0.1050297E+01  0.2761043E+01  0.0000000E+00
Ar  1204  0.1710469E+02  0.3633763E+01  0.2800656E+01  0.0000000E+00
Ar  1205  0.1702590E+02  0.1192195E+01  0.5393804E+01  0.0000000E+00
Ar  1206  0.1954225E+02  0.3845196E+01  0.5312774E+01  0.0000000E+00
Ar  1207  0.1967989E+02  0.1367326E+01  0.8011397E+01  0.0000000E+00
Ar  1208  0.1703032E+02  0.3700674E+01  0.8146183E+01  0.0000000E+00
Ar  1209  0.1718982E+02  0.9829535E+00  0.1082680E+02  0.0000000E+00
Ar  1210  0.1977625E+02  0.3750121E+01  0.1077613E+02  0.0000000E+00
Ar  1211  0.1978024E+02  0.1105263E+01  0.1349230E+02  0.0000000E+00
Ar  1212  0.1722699E+02  0.3867713E+01  0.1316786E+02  0.0000000E+00
Ar  1213  0.1702753E+02  0.1231836E+01  0.1561799E+02  0.0000000E+00
Ar  1214  0.1990508E+02  0.3688993E+01  0.1610244E+02  0.0000000E+00
Ar  1215  0.1984603E+02  0.9680777E+00  0.1865130E+02  0.0000000E+00
Ar  1216  0.1703603E+02  0.3843880E+01  0.1866488E+02  0.0000000E+00
Ar  1217  0.1693131E+02  0.1197576E+01  0.2137443E+02  0.0000000E+00
Ar  1218  0.1949105E+02  0.3662198E+01  0.2133968E+02  0.0000000E+00
Ar  1219  0.1977650E+02  0.9387639E+00  0.2388306E+02  0.0000000E+00
Ar  1220  0.1719944E+02  0.3628137E+01  0.2412711E+02  0.0000000E+00
Ar  1221  0.1702325E+02  0.1139003E+01  0.2675626E+02  0.0000000E+00
Ar  1222  0.1961942E+02  0.3807995E+01  0.2684634E+02  0.0000000E+00
Ar  1223  0.1952583E+02  0.1157285E+01  0.2925255E+02  0.0000000E+00
Ar  1224  0.1710021E+02  0.3912677E+01  0.2925912E+02  0.0000000E+00
Ar  1225  0.1718659E+02  0.1070950E+01  0.3205376E+02  0.0000000E+00
Ar  1226  0.1947501E+02  0.4055117E+01  0.3202583E+02  0.0000000E+00
Ar  1227  0.1993620E+02  0.1262452E+01  0.3461286E+02  0.0000000E+00
Ar  1228  0.1688102E+02  0.4001553E+01  0.3467063E+02  0.0000000E+00
Ar  1229  0.1708259E+02  0.1114488E+01  0.3710172E+02  0.0000000E+00
Ar  1230  0.1958206E+02  0.3845455E+01  0.3717294E+02  0.0000000E+00
Ar  1231  0.1948633E+02  0.1273222E+01  0.4017450E+02  0.0000000E+00
Ar  1232  0.1711646E+02  0.3803344E+01  0.4025197E+02  0.0000000E+00
Ar  1233  0.1677410E+02  0.1065645E+01  0.4280111E+02  0.0000000E+00
Ar  1234  0.1964757E+02  0.3944268E+01  0.4275873E+02  0.0000000E+00
Ar  1235  0.1975410E+02  0.1234520E+01  0.4521721E+02  0.0000000E+00
Ar  1236  0.1709671E+02  0.3606456E+01  0.4544388E+02  0.0000000E+00
Ar  1237  0.1731807E+02  0.7978362E+00  0.4801510E+02  0.0000000E+00
Ar  1238  0.1971440E+02  0.3508280E+01  0.4784773E+02  0.0000000E+00
Ar  1239  0.1977810E+02  0.1090117E+01  0.5085805E+02  0.0000000E+00
Ar  1240  0.1701963E+02  0.3546634E+01  0.5059871E+02  0.0000000E+00
Ar  1241  0.1699452E+02  0.6397097E+01  0.5301207E+02  0.0000000E+00
Ar  1242  0.1971819E+02  0.9074480E+01  0.5296040E+02  0.0000000E+00
Ar  1243  0.1989798E+02  0.6559402E+01  0.2837175E+01  0.0000000E+00
Ar  1244  0.1700659E+02  0.8916298E+01  0.2402783E+01  0.0000000E+00
Ar  1245  0.1705902E+02  0.6608445E+01  0.5654737E+01  0.0000000E+00
Ar  1246  0.1967383E+02  0.8967076E+01  0.5681921E+01  0.0000000E+00
Ar  1247  0.1999814E+02  0.5979752E+01  0.8029714E+01  0.0000000E+00
Ar  1248  0.1703790E+02  0.9052531E+01  0.8412486E+01  0.0000000E+00
Ar  1249  0.1706942E+02  0.6181081E+01  0.1048581E+02  0.0000000E+00
Ar  1250  0.1982550E+02  0.9092081E+01  0.1091242E+02  0.0000000E+00
Ar  1251  0.1960275E+02  0.6458065E+01  0.1326290E+02  0.0000000E+00
Ar  1252  0.1710585E+02  0.8760152E+01  0.1344894E+02  0.0000000E+00
Ar  1253  0.1695220E+02  0.6451649E+01  0.1611062E+02  0.0000000E+00
Ar  1254  0.1967447E+02  0.9015737E+01  0.1616250E+02  0.0000000E+00
Ar  1255  0.1988046E+02  0.6529374E+01  0.1876593E+02  0.0000000E+00
Ar  1256  0.1687244E+02  0.8838810E+01  0.1877955E+02  0.0000000E+00
Ar  1257  0.1704215E+02  0.6366230E+01  0.2151743E+02  0.0000000E+00
Ar  1258  0.1954330E+02  0.9254975E+01  0.2135774E+02  0.0000000E+00
Ar  1259  0.1985950E+02  0.6323181E+01  0.2389869E+02  0.0000000E+00
Ar  1260  0.1687154E+02  0.8941155E+01  0.2383254E+02  0.0000000E+00
Ar  1261  0.1691455E+02  0.6263906E+01  0.2636842E+02  0.0000000E+00
Ar  1262  0.1939333E+02  0.8913415E+01  0.2663355E+02  0.0000000E+00
Ar  1263  0.1966982E+02  0.6367485E+01  0.2929407E+02  0.0000000E+00
Ar  1264  0.1701174E+02  0.9026039E+01  0.2929948E+02  0.0000000E+00
Ar  1265  0.1676064E+02  0.6504276E+01  0.3203038E+02  0.0000000E+00
Ar  1266  0.1975713E+02  0.9048883E+01  0.3187724E+02  0.0000000E+00
Ar  1267  0.1962994E+02  0.6437912E+01  0.3468795E+02  0.0000000E+00
Ar  1268  0.1715369E+02  0.9100447E+01  0.3487275E+02  0.0000000E+00
Ar  1269  0.1682471E+02  0.6292258E+01  0.3754753E+02  0.0000000E+00
Ar  1270  0.1960480E+02  0.8899271E+01  0.3736218E+02  0.0000000E+00
Ar  1271  0.1968873E+02  0.6407623E+01  0.3987706E+02  0.0000000E+00
Ar  1272  0.1705895E+02  0.8944088E+01  0.4017337E+02  0.0000000E+00
Ar  1273  0.1687459E+02  0.6289646E+01  0.4254615E+02  0.0000000E+00
Ar  1274  0.1966960E+02  0.8946295E+01  0.4263102E+02  0.0000000E+00
Ar  1275  0.1980347E+02  0.6185210E+01  0.4547308E+02  0.0000000E+00
Ar  1276  0.1735259E+02  0.8912556E+01  0.4527647E+02  0.0000000E+00
Ar  1277  0.1695558E+02  0.6188584E+01  0.4780808E+02  0.0000000E+00
Ar  1278  0.1991426E+02  0.9078322E+01  0.4786356E+02  0.0000000E+00
Ar  1279  0.1974686E+02  0.6162159E+01  0.5036601E+02  0.0000000E+00
Ar  1280  0.1705709E+02  0.9147182E+01  0.5072501E+02  0.0000000E+00
Ar  1281  0.1690227E+02  0.1175611E+02  0.5315099E+02  0.0000000E+00
Ar  1282  0.1973976E+02  0.1404881E+02  0.2319957E+00  0.0000000E+00
Ar  1283  0.2004245E+02  0.1130064E+02  0.2915387E+01  0.0000000E+00
Ar  1284  0.1704925E+02  0.1432846E+02  0.2607021E+01  0.0000000E+00
Ar  1285  0.1713562E+02  0.1167991E+02  0.5037531E+01  0.0000000E+00
Ar  1286  0.1971295E+02  0.1414842E+02  0.5363225E+01  0.0000000E+00
Ar  1287  0.1970977E+02  0.1158629E+02  0.8257276E+01  0.0000000E+00
Ar  1288  0.1708069E+02  0.1433075E+02  0.8205526E+01  0.0000000E+00
Ar  1289  0.1695636E+02  0.1160614E+02  0.1086581E+02  0.0000000E+00
Ar  1290  0.1997717E+02  0.1432267E+02  0.1082076E+02  0.0000000E+00
Ar  1291  0.1977702E+02  0.1161134E+02  0.1359031E+02  0.0000000E+00
Ar  1292  0.1717466E+02  0.1432068E+02  0.1365816E+02  0.0000000E+00
Ar  1293  0.1712998E+02  0.1163351E+02  0.1594615E+02  0.0000000E+00
Ar  1294  0.1964560E+02  0.1433035E+02  0.1610213E+02  0.0000000E+00
Ar  1295  0.1945914E+02  0.1153015E+02  0.1869510E+02  0.0000000E+00
Ar  1296  0.1701909E+02  0.1459157E+02  0.1910829E+02  0.0000000E+00
Ar  1297  0.1691415E+02  0.1157627E+02  0.2140069E+02  0.0000000E+00
Ar  1298  0.1982804E+02  0.1438402E+02  0.2141732E+02  0.0000000E+00
Ar  1299  0.1955055E+02  0.1175996E+02  0.2405777E+02  0.0000000E+00
Ar  1300  0.1697892E+02  0.1431838E+02  0.2397651E+02  0.0000000E+00
Ar  1301  0.1711344E+02  0.1175226E+02  0.2668728E+02  0.0000000E+00
Ar  1302  0.1968961E+02  0.1443942E+02  0.2681691E+02  0.0000000E+00
Ar  1303  0.1968849E+02  0.1179534E+02  0.2922371E+02  0.0000000E+00
Ar  1304  0.1711551E+02  0.1437805E+02  0.2943930E+02  0.0000000E+00
Ar  1305  0.1710907E+02  0.1161873E+02  0.3206675E+02  0.0000000E+00
Ar  1306  0.1971767E+02  0.1452114E+02  0.3207097E+02  0.0000000E+00
Ar  1307  0.1963482E+02  0.1178847E+02  0.3457587E+02  0.0000000E+00
Ar  1308  0.1710502E+02  0.1449790E+02  0.3487460E+02  0.0000000E+00
Ar  1309  0.1713517E+02  0.1179469E+02  0.3733491E+02  0.0000000E+00
Ar  1310  0.1985723E+02  0.1420436E+02  0.3729885E+02  0.0000000E+00
Ar  1311  0.1938333E+02  0.1168847E+02  0.4008294E+02  0.0000000E+00
Ar  1312  0.1718702E+02  0.1443047E+02  0.4006990E+02  0.0000000E+00
Ar  1313  0.1682931E+02  0.1181939E+02  0.4269114E+02  0.0000000E+00
Ar  1314  0.1975519E+02  0.1446275E+02  0.4270189E+02  0.0000000E+00
Ar  1315  0.1948284E+02  0.1156217E+02  0.4503724E+02  0.0000000E+00
Ar  1316  0.1681724E+02  0.1426024E+02  0.4523445E+02  0.0000000E+00
Ar  1317  0.1697945E+02  0.1180372E+02  0.4793389E+02  0.0000000E+00
Ar  1318  0.1934187E+02  0.1430879E+02  0.4788486E+02  0.0000000E+00
Ar  1319  0.1961931E+02  0.1199987E+02  0.5051139E+02  0.0000000E+00
Ar  1320  0.1672162E+02  0.1463177E+02  0.5058034E+02  0.0000000E+00
Ar  1321  0.1697272E+02  0.1706911E+02  0.5319937E+02  0.0000000E+00
Ar  1322  0.1975461E+02  0.1968902E+02  0.5302003E+02  0.0000000E+00
Ar  1323  0.1936869E+02  0.1713459E+02  0.2745282E+01  0.0000000E+00
Ar  1324  0.1680366E+02  0.1958212E+02  0.2697558E+01  0.0000000E+00
Ar  1325  0.1689046E+02  0.1693888E+02  0.5495891E+01  0.0000000E+00
Ar  1326  0.1969655E+02  0.1968223E+02  0.5617189E+01  0.0000000E+00
Ar  1327  0.1974454E+02  0.1691782E+02  0.8070659E+01  0.0000000E+00
Ar  1328  0.1683873E+02  0.1946733E+02  0.7944552E+01  0.0000000E+00
Ar  1329  0.1702314E+02  0.1688948E+02  0.1092515E+02  0.0000000E+00
Ar  1330  0.1957340E+02  0.1968892E+02  0.1075564E+02  0.0000000E+00
Ar  1331  0.1975085E+02  0.1714960E+02  0.1348351E+02  0.0000000E+00
Ar  1332  0.1706324E+02  0.1967312E+02  0.1339495E+02  0.0000000E+00
Ar  1333  0.1728859E+02  0.1683388E+02  0.1620452E+02  0.0000000E+00
Ar  1334  0.1992282E+02  0.1970560E+02  0.1633261E+02  0.0000000E+00
Ar  1335  0.1966174E+02  0.1694422E+02  0.1866428E+02  0.0000000E+00
Ar  1336  0.1700090E+02  0.1987394E+02  0.1898619E+02  0.0000000E+00
Ar  1337  0.1709241E+02  0.1728036E+02  0.2163978E+02  0.0000000E+00
Ar  1338  0.1977320E+02  0.1979201E+02  0.2127759E+02  0.0000000E+00
Ar  1339  0.1959875E+02  0.1717635E+02  0.2413687E+02  0.0000000E+00
Ar  1340  0.1677420E+02  0.1997328E+02  0.2402163E+02  0.0000000E+00
Ar  1341  0.1723640E+02  0.1713394E+02  0.2666971E+02  0.0000000E+00
Ar  1342  0.1968135E+02  0.1978299E+02  0.2685939E+02  0.0000000E+00
Ar  1343  0.1970445E+02  0.1689120E+02  0.2945761E+02  0.0000000E+00
Ar  1344  0.1711607E+02  0.1986505E+02  0.2929134E+02  0.0000000E+00
Ar  1345  0.1695394E+02  0.1715117E+02  0.3211141E+02  0.0000000E+00
Ar  1346  0.1946520E+02  0.1988549E+02  0.3214151E+02  0.0000000E+00
Ar  1347  0.1972502E+02  0.1688206E+02  0.3476030E+02  0.0000000E+00
Ar  1348  0.1731446E+02  0.1969840E+02  0.3497573E+02  0.0000000E+00
Ar  1349  0.1714680E+02  0.1707149E+02  0.3766409E+02  0.0000000E+00
Ar  1350  0.1981693E+02  0.1956142E+02  0.3735085E+02  0.0000000E+00
Ar  1351  0.1975215E+02  0.1705948E+02  0.4006679E+02  0.0000000E+00
Ar  1352  0.1720176E+02  0.1978760E+02  0.4030659E+02  0.0000000E+00
Ar  1353  0.1711307E+02  0.1697846E+02  0.4280818E+02  0.0000000E+00
Ar  1354  0.1984738E+02  0.1942146E+02  0.4307987E+02  0.0000000E+00
Ar  1355  0.1989908E+02  0.1672101E+02  0.4535637E+02  0.0000000E+00
Ar  1356  0.1707742E+02  0.1957167E+02  0.4525189E+02  0.0000000E+00
Ar  1357  0.1691367E+02  0.1710210E+02  0.4790378E+02  0.0000000E+00
Ar  1358  0.1959635E+02  0.1937550E+02  0.4778542E+02  0.0000000E+00
Ar  1359  0.1971681E+02  0.1702564E+02  0.5094203E+02  0.0000000E+00
Ar  1360  0.1699449E+02  0.1962174E+02  0.5064225E+02  0.0000000E+00
Ar  1361  0.1696758E+02  0.2209304E+02  0.6908031E-01  0.0000000E+00
Ar  1362  0.1985739E+02  0.2519035E+02  0.1092272E+00  0.0000000E+00
Ar  1363  0.1953041E+02  0.2211142E+02  0.2770139E+01  0.0000000E+00
Ar  1364  0.1708804E+02  0.2483631E+02  0.2677747E+01  0.0000000E+00
Ar  1365  0.1692200E+02  0.2236631E+02  0.5577493E+01  0.0000000E+00
Ar  1366  0.1981094E+02  0.2486123E+02  0.5275671E+01  0.0000000E+00
Ar  1367  0.1977129E+02  0.2238119E+02  0.8059887E+01  0.0000000E+00
Ar  1368  0.1695906E+02  0.2481813E+02  0.8204721E+01  0.0000000E+00
Ar  1369  0.1730843E+02  0.2224789E+02  0.1059264E+02  0.0000000E+00
Ar  1370  0.1971660E+02  0.2509935E+02  0.1057392E+02  0.0000000E+00
Ar  1371  0.1968576E+02  0.2258700E+02  0.1352772E+02  0.0000000E+00
Ar  1372  0.1714909E+02  0.2520818E+02  0.1338448E+02  0.0000000E+00
Ar  1373  0.1709271E+02  0.2228810E+02  0.1617618E+02  0.0000000E+00
Ar  1374  0.1948031E+02  0.2485162E+02  0.1618076E+02  0.0000000E+00
Ar  1375  0.1963485E+02  0.2227865E+02  0.1876613E+02  0.0000000E+00
Ar  1376  0.1680348E+02  0.2519756E+02  0.1904491E+02  0.0000000E+00
Ar  1377  0.1691057E+02  0.2240655E+02  0.2152573E+02  0.0000000E+00
Ar  1378  0.1985625E+02  0.2491523E+02  0.2164465E+02  0.0000000E+00
Ar  1379  0.1967801E+02  0.2248551E+02  0.2406486E+02  0.0000000E+00
Ar  1380  0.1704387E+02  0.2508804E+02  0.2425980E+02  0.0000000E+00
Ar  1381  0.1707025E+02  0.2259806E+02  0.2677742E+02  0.0000000E+00
Ar  1382  0.1972629E+02  0.2501363E+02  0.2678188E+02  0.0000000E+00
Ar  1383  0.1964504E+02  0.2270026E+02  0.2972340E+02  0.0000000E+00
Ar  1384  0.1724711E+02  0.2518747E+02  0.2940395E+02  0.0000000E+00
Ar  1385  0.1683930E+02  0.2248986E+02  0.3195435E+02  0.0000000E+00
Ar  1386  0.1981094E+02  0.2517653E+02  0.3209983E+02  0.0000000E+00
Ar  1387  0.1981982E+02  0.2260970E+02  0.3446308E+02  0.0000000E+00
Ar  1388  0.1686823E+02  0.2491475E+02  0.3461424E+02  0.0000000E+00
Ar  1389  0.1714568E+02  0.2225065E+02  0.3746857E+02  0.0000000E+00
Ar  1390  0.1995796E+02  0.2486604E+02  0.3733999E+02  0.0000000E+00
Ar  1391  0.1978287E+02  0.2225793E+02  0.4012154E+02  0.0000000E+00
Ar  1392  0.1745042E+02  0.2475928E+02  0.3983175E+02  0.0000000E+00
Ar  1393  0.1705623E+02  0.2242712E+02  0.4279113E+02  0.0000000E+00
Ar  1394  0.1963986E+02  0.2492725E+02  0.4255091E+02  0.0000000E+00
Ar  1395  0.1970924E+02  0.2224612E+02  0.4552119E+02  0.0000000E+00
Ar  1396  0.1712879E+02  0.2506041E+02  0.4565616E+02  0.0000000E+00
Ar  1397  0.1688197E+02  0.2216113E+02  0.4803127E+02  0.0000000E+00
Ar  1398  0.1957427E+02  0.2488372E+02  0.4806230E+02  0.0000000E+00
Ar  1399  0.1958342E+02  0.2220203E+02  0.5044462E+02  0.0000000E+00
Ar  1400  0.1684165E+02  0.2488312E+02  0.5073334E+02  0.0000000E+00
Ar  1401  0.1699460E+02  0.2767577E+02  0.5313473E+02  0.0000000E+00
Ar  1402  0.1959273E+02  0.3041990E+02  0.6199653E-01  0.0000000E+00
Ar  1403  0.1966826E+02  0.2763097E+02  0.2787603E+01  0.0000000E+00
Ar  1404  0.1698435E+02  0.3026645E+02  0.2720278E+01  0.0000000E+00
Ar  1405  0.1694243E+02  0.2740630E+02  0.5440662E+01  0.0000000E+00
Ar  1406  0.1968749E+02  0.3022133E+02  0.5399099E+01  0.0000000E+00
Ar  1407  0.1983493E+02  0.2740221E+02  0.7950652E+01  0.0000000E+00
Ar  1408  0.1709257E+02  0.2996509E+02  0.8062603E+01  0.0000000E+00
Ar  1409  0.1679602E+02  0.2768062E+02  0.1076049E+02  0.0000000E+00
Ar  1410  0.1958558E+02  0.3000203E+02  0.1081077E+02  0.0000000E+00
Ar  1411  0.2004455E+02  0.2778846E+02  0.1341361E+02  0.0000000E+00
Ar  1412  0.1682596E+02  0.3021417E+02  0.1341927E+02  0.0000000E+00
Ar  1413  0.1711221E+02  0.2773718E+02  0.1605340E+02  0.0000000E+00
Ar  1414  0.1956965E+02  0.3034571E+02  0.1585219E+02  0.0000000E+00
Ar  1415  0.1985345E+02  0.2777140E+02  0.1844465E+02  0.0000000E+00
Ar  1416  0.1696486E+02  0.3028366E+02  0.1870367E+02  0.0000000E+00
Ar  1417  0.1704859E+02  0.2758579E+02  0.2145786E+02  0.0000000E+00
Ar  1418  0.1956159E+02  0.3029322E+02  0.2125636E+02  0.0000000E+00
Ar  1419  0.1977215E+02  0.2755199E+02  0.2422845E+02  0.0000000E+00
Ar  1420  0.1711578E+02  0.3034266E+02  0.2391270E+02  0.0000000E+00
Ar  1421  0.1700208E+02  0.2787178E+02  0.2702536E+02  0.0000000E+00
Ar  1422  0.1981241E+02  0.3024839E+02  0.2679028E+02  0.0000000E+00
Ar  1423  0.1978992E+02  0.2756027E+02  0.2930977E+02  0.0000000E+00
Ar  1424  0.1700012E+02  0.3071394E+02  0.2933440E+02  0.0000000E+00
Ar  1425  0.1727287E+02  0.2767234E+02  0.3202581E+02  0.0000000E+00
Ar  1426  0.1964547E+02  0.3035389E+02  0.3209489E+02  0.0000000E+00
Ar  1427  0.1963768E+02  0.2767714E+02  0.3484887E+02  0.0000000E+00
Ar  1428  0.1707438E+02  0.3038064E+02  0.3473181E+02  0.0000000E+00
Ar  1429  0.1718417E+02  0.2774293E+02  0.3759424E+02  0.0000000E+00
Ar  1430  0.1982093E+02  0.3050455E+02  0.3755277E+02  0.0000000E+00
Ar  1431  0.1998563E+02  0.2772699E+02  0.4011750E+02  0.0000000E+00
Ar  1432  0.1685138E+02  0.3037510E+02  0.3998006E+02  0.0000000E+00
Ar  1433  0.1742341E+02  0.2763161E+02  0.4275672E+02  0.0000000E+00
Ar  1434  0.1982512E+02  0.3048458E+02  0.4263565E+02  0.0000000E+00
Ar  1435  0.1968293E+02  0.2769669E+02  0.4555246E+02  0.0000000E+00
Ar  1436  0.1737906E+02  0.3024902E+02  0.4519075E+02  0.0000000E+00
Ar  1437  0.1706210E+02  0.2772224E+02  0.4812685E+02  0.0000000E+00
Ar  1438  0.1974406E+02  0.3024241E+02  0.4807293E+02  0.0000000E+00
Ar  1439  0.1999370E+02  0.2763156E+02  0.5065586E+02  0.0000000E+00
Ar  1440  0.1685963E+02  0.3029325E+02  0.5069894E+02  0.0000000E+00
Ar  1441  0.1683701E+02  0.3302247E+02  0.5318148E+02  0.0000000E+00
Ar  1442  0.1940592E+02  0.3569419E+02  0.3683462E-01  0.0000000E+00
Ar  1443  0.1982383E+02  0.3286012E+02  0.2648582E+01  0.0000000E+00
Ar  1444  0.1693335E+02  0.3560939E+02  0.2545934E+01  0.0000000E+00
Ar  1445  0.1739831E+02  0.3282662E+02  0.5234053E+01  0.0000000E+00
Ar  1446  0.1984982E+02  0.3553609E+02  0.5602360E+01  0.0000000E+00
Ar  1447  0.1976653E+02  0.3278356E+02  0.8207102E+01  0.0000000E+00
Ar  1448  0.1688850E+02  0.3530028E+02  0.8016766E+01  0.0000000E+00
Ar  1449  0.1691187E+02  0.3273968E+02  0.1045625E+02  0.0000000E+00
Ar  1450  0.1961432E+02  0.3563690E+02  0.1060314E+02  0.0000000E+00
Ar  1451  0.1951150E+02  0.3303158E+02  0.1335219E+02  0.0000000E+00
Ar  1452  0.1707168E+02  0.3540548E+02  0.1335069E+02  0.0000000E+00
Ar  1453  0.1687242E+02  0.3298961E+02  0.1601770E+02  0.0000000E+00
Ar  1454  0.1943479E+02  0.3549395E+02  0.1594458E+02  0.0000000E+00
Ar  1455  0.1948920E+02  0.3296165E+02  0.1866874E+02  0.0000000E+00
Ar  1456  0.1696882E+02  0.3560127E+02  0.1847973E+02  0.0000000E+00
Ar  1457  0.1711413E+02  0.3302209E+02  0.2154827E+02  0.0000000E+00
Ar  1458  0.1963867E+02  0.3585431E+02  0.2141156E+02  0.0000000E+00
Ar  1459  0.1954974E+02  0.3310106E+02  0.2442251E+02  0.0000000E+00
Ar  1460  0.1702155E+02  0.3593699E+02  0.2382573E+02  0.0000000E+00
Ar  1461  0.1691205E+02  0.3312578E+02  0.2665841E+02  0.0000000E+00
Ar  1462  0.1951653E+02  0.3590308E+02  0.2674301E+02  0.0000000E+00
Ar  1463  0.1945470E+02  0.3361235E+02  0.2928651E+02  0.0000000E+00
Ar  1464  0.1673394E+02  0.3580840E+02  0.2939267E+02  0.0000000E+00
Ar  1465  0.1696563E+02  0.3315753E+02  0.3204846E+02  0.0000000E+00
Ar  1466  0.1973647E+02  0.3576612E+02  0.3212357E+02  0.0000000E+00
Ar  1467  0.1958778E+02  0.3313032E+02  0.3455276E+02  0.0000000E+00
Ar  1468  0.1711803E+02  0.3586207E+02  0.3466665E+02  0.0000000E+00
Ar  1469  0.1699898E+02  0.3285050E+02  0.3725465E+02  0.0000000E+00
Ar  1470  0.1961452E+02  0.3576252E+02  0.3722123E+02  0.0000000E+00
Ar  1471  0.1962083E+02  0.3334011E+02  0.4009103E+02  0.0000000E+00
Ar  1472  0.1695320E+02  0.3557470E+02  0.3974981E+02  0.0000000E+00
Ar  1473  0.1698176E+02  0.3301899E+02  0.4275293E+02  0.0000000E+00
Ar  1474  0.1967468E+02  0.3579466E+02  0.4269827E+02  0.0000000E+00
Ar  1475  0.1978836E+02  0.3286504E+02  0.4562000E+02  0.0000000E+00
Ar  1476  0.1700637E+02  0.3569770E+02  0.4536679E+02  0.0000000E+00
Ar  1477  0.1724139E+02  0.3284957E+02  0.4793446E+02  0.0000000E+00
Ar  1478  0.1994465E+02  0.3559657E+02  0.4799895E+02  0.0000000E+00
Ar  1479  0.1973880E+02  0.3272405E+02  0.5082765E+02  0.0000000E+00
Ar  1480  0.1709510E+02  0.3574587E+02  0.5047689E+02  0.0000000E+00
Ar  1481  0.1673631E+02  0.3815086E+02  0.9193994E-01  0.0000000E+00
Ar  1482  0.1948830E+02  0.4048885E+02  0.5317638E+02  0.0000000E+00
Ar  1483  0.1970421E+02  0.3829700E+02  0.2630988E+01  0.0000000E+00
Ar  1484  0.1678769E+02  0.4104585E+02  0.2717151E+01  0.0000000E+00
Ar  1485  0.1700517E+02  0.3809086E+02  0.5334250E+01  0.0000000E+00
Ar  1486  0.1957443E+02  0.4071027E+02  0.5506034E+01  0.0000000E+00
Ar  1487  0.1972900E+02  0.3832671E+02  0.8236068E+01  0.0000000E+00
Ar  1488  0.1711317E+02  0.4085512E+02  0.8044181E+01  0.0000000E+00
Ar  1489  0.1713986E+02  0.3834420E+02  0.1078620E+02  0.0000000E+00
Ar  1490  0.1949890E+02  0.4108481E+02  0.1090990E+02  0.0000000E+00
Ar  1491  0.1949729E+02  0.3840118E+02  0.1331661E+02  0.0000000E+00
Ar  1492  0.1671131E+02  0.4078927E+02  0.1343242E+02  0.0000000E+00
Ar  1493  0.1689983E+02  0.3823526E+02  0.1600958E+02  0.0000000E+00
Ar  1494  0.1952384E+02  0.4089880E+02  0.1603148E+02  0.0000000E+00
Ar  1495  0.1983183E+02  0.3822059E+02  0.1866164E+02  0.0000000E+00
Ar  1496  0.1690179E+02  0.4107644E+02  0.1847001E+02  0.0000000E+00
Ar  1497  0.1704792E+02  0.3820050E+02  0.2099465E+02  0.0000000E+00
Ar  1498  0.1972455E+02  0.4091556E+02  0.2134260E+02  0.0000000E+00
Ar  1499  0.1967330E+02  0.3826568E+02  0.2413409E+02  0.0000000E+00
Ar  1500  0.1707319E+02  0.4075346E+02  0.2388972E+02  0.0000000E+00
Ar  1501  0.1690067E+02  0.3834143E+02  0.2669303E+02  0.0000000E+00
Ar  1502  0.1942885E+02  0.4101513E+02  0.2682711E+02  0.0000000E+00
Ar  1503  0.1956194E+02  0.3829568E+02  0.2938424E+02  0.0000000E+00
Ar  1504  0.1705231E+02  0.4080844E+02  0.2947855E+02  0.0000000E+00
Ar  1505  0.1688166E+02  0.3858212E+02  0.3194067E+02  0.0000000E+00
Ar  1506  0.1978501E+02  0.4090990E+02  0.3183281E+02  0.0000000E+00
Ar  1507  0.1966405E+02  0.3845115E+02  0.3446385E+02  0.0000000E+00
Ar  1508  0.1714770E+02  0.4110715E+02  0.3481629E+02  0.0000000E+00
Ar  1509  0.1719424E+02  0.3841989E+02  0.3721554E+02  0.0000000E+00
Ar  1510  0.2008372E+02  0.4084116E+02  0.3764030E+02  0.0000000E+00
Ar  1511  0.1968639E+02  0.3824809E+02  0.3993395E+02  0.0000000E+00
Ar  1512  0.1707724E+02  0.4098370E+02  0.4006249E+02  0.0000000E+00
Ar  1513  0.1707562E+02  0.3809314E+02  0.4258183E+02  0.0000000E+00
Ar  1514  0.1976531E+02  0.4080463E+02  0.4269111E+02  0.0000000E+00
Ar  1515  0.1988898E+02  0.3820876E+02  0.4520624E+02  0.0000000E+00
Ar  1516  0.1731308E+02  0.4093200E+02  0.4551573E+02  0.0000000E+00
Ar  1517  0.1738275E+02  0.3826091E+02  0.4797799E+02  0.0000000E+00
Ar  1518  0.1980791E+02  0.4105536E+02  0.4793272E+02  0.0000000E+00
Ar  1519  0.1972300E+02  0.3841863E+02  0.5046639E+02  0.0000000E+00
Ar  1520  0.1708477E+02  0.4087348E+02  0.5050806E+02  0.0000000E+00
Ar  1521  0.1690813E+02  0.4346089E+02  0.6419656E-01  0.0000000E+00
Ar  1522  0.1956128E+02  0.4628541E+02  0.1264360E+00  0.0000000E+00
Ar  1523  0.1958093E+02  0.4350265E+02  0.3032444E+01  0.0000000E+00
Ar  1524  0.1699230E+02  0.4622595E+02  0.2742723E+01  0.0000000E+00
Ar  1525  0.1682966E+02  0.4361676E+02  0.5635076E+01  0.0000000E+00
Ar  1526  0.1979308E+02  0.4609345E+02  0.5339876E+01  0.0000000E+00
Ar  1527  0.1972495E+02  0.4356700E+02  0.7818347E+01  0.0000000E+00
Ar  1528  0.1701362E+02  0.4613892E+02  0.8127273E+01  0.0000000E+00
Ar  1529  0.1688561E+02  0.4365984E+02  0.1068747E+02  0.0000000E+00
Ar  1530  0.1965686E+02  0.4625973E+02  0.1050058E+02  0.0000000E+00
Ar  1531  0.1977586E+02  0.4384920E+02  0.1312933E+02  0.0000000E+00
Ar  1532  0.1704584E+02  0.4639261E+02  0.1326211E+02  0.0000000E+00
Ar  1533  0.1712940E+02  0.4377640E+02  0.1594393E+02  0.0000000E+00
Ar  1534  0.1981012E+02  0.4627833E+02  0.1623891E+02  0.0000000E+00
Ar  1535  0.1951146E+02  0.4362688E+02  0.1853720E+02  0.0000000E+00
Ar  1536  0.1676532E+02  0.4653449E+02  0.1850155E+02  0.0000000E+00
Ar  1537  0.1679119E+02  0.4388252E+02  0.2120168E+02  0.0000000E+00
Ar  1538  0.1974178E+02  0.4639746E+02  0.2102338E+02  0.0000000E+00
Ar  1539  0.1992394E+02  0.4347999E+02  0.2390658E+02  0.0000000E+00
Ar  1540  0.1713738E+02  0.4609218E+02  0.2386448E+02  0.0000000E+00
Ar  1541  0.1694750E+02  0.4361862E+02  0.2649707E+02  0.0000000E+00
Ar  1542  0.1953441E+02  0.4642340E+02  0.2646498E+02  0.0000000E+00
Ar  1543  0.1988077E+02  0.4366634E+02  0.2926916E+02  0.0000000E+00
Ar  1544  0.1690438E+02  0.4632101E+02  0.2939534E+02  0.0000000E+00
Ar  1545  0.1726214E+02  0.4351572E+02  0.3223182E+02  0.0000000E+00
Ar  1546  0.1983066E+02  0.4628373E+02  0.3200438E+02  0.0000000E+00
Ar  1547  0.1973596E+02  0.4367449E+02  0.3487369E+02  0.0000000E+00
Ar  1548  0.1696597E+02  0.4611232E+02  0.3457854E+02  0.0000000E+00
Ar  1549  0.1702497E+02  0.4354906E+02  0.3742540E+02  0.0000000E+00
Ar  1550  0.1982326E+02  0.4610130E+02  0.3738641E+02  0.0000000E+00
Ar  1551  0.1973314E+02  0.4355968E+02  0.4002399E+02  0.0000000E+00
Ar  1552  0.1716751E+02  0.4595507E+02  0.3996708E+02  0.0000000E+00
Ar  1553  0.1721269E+02  0.4323483E+02  0.4265333E+02  0.0000000E+00
Ar  1554  0.1999925E+02  0.4634433E+02  0.4237315E+02  0.0000000E+00
Ar  1555  0.1982064E+02  0.4367463E+02  0.4510551E+02  0.0000000E+00
Ar  1556  0.1723975E+02  0.4615614E+02  0.4518269E+02  0.0000000E+00
Ar  1557  0.1707625E+02  0.4373051E+02  0.4800309E+02  0.0000000E+00
Ar  1558  0.1969233E+02  0.4600670E+02  0.4803093E+02  0.0000000E+00
Ar  1559  0.1964043E+02  0.4343029E+02  0.5040278E+02  0.0000000E+00
Ar  1560  0.1709747E+02  0.4605025E+02  0.5071558E+02  0.0000000E+00
Ar  1561  0.1706012E+02  0.4908114E+02  0.2010460E+00  0.0000000E+00
Ar  1562  0.1965169E+02  0.5151869E+02  0.5311728E+02  0.0000000E+00
Ar  1563  0.1983956E+02  0.4918563E+02  0.2975495E+01  0.0000000E+00
Ar  1564  0.1716141E+02  0.5151111E+02  0.2911845E+01  0.0000000E+00
Ar  1565  0.1710373E+02  0.4869880E+02  0.5392115E+01  0.0000000E+00
Ar  1566  0.1971231E+02  0.5176967E+02  0.5323552E+01  0.0000000E+00
Ar  1567  0.1974475E+02  0.4900880E+02  0.7736951E+01  0.0000000E+00
Ar  1568  0.1689622E+02  0.5176525E+02  0.8093818E+01  0.0000000E+00
Ar  1569  0.1705071E+02  0.4887364E+02  0.1078192E+02  0.0000000E+00
Ar  1570  0.1976131E+02  0.5156776E+02  0.1057173E+02  0.0000000E+00
Ar  1571  0.1968150E+02  0.4887302E+02  0.1321562E+02  0.0000000E+00
Ar  1572  0.1696624E+02  0.5145930E+02  0.1321994E+02  0.0000000E+00
Ar  1573  0.1686728E+02  0.4877944E+02  0.1565889E+02  0.0000000E+00
Ar  1574  0.1963196E+02  0.5153981E+02  0.1569441E+02  0.0000000E+00
Ar  1575  0.1973455E+02  0.4887341E+02  0.1868262E+02  0.0000000E+00
Ar  1576  0.1726118E+02  0.5160695E+02  0.1864445E+02  0.0000000E+00
Ar  1577  0.1718383E+02  0.4918399E+02  0.2132141E+02  0.0000000E+00
Ar  1578  0.1985254E+02  0.5168971E+02  0.2142300E+02  0.0000000E+00
Ar  1579  0.1966509E+02  0.4914108E+02  0.2384847E+02  0.0000000E+00
Ar  1580  0.1717116E+02  0.5165494E+02  0.2403892E+02  0.0000000E+00
Ar  1581  0.1699204E+02  0.4895613E+02  0.2657707E+02  0.0000000E+00
Ar  1582  0.1981307E+02  0.5185709E+02  0.2684257E+02  0.0000000E+00
Ar  1583  0.1950767E+02  0.4873091E+02  0.2941326E+02  0.0000000E+00
Ar  1584  0.1686564E+02  0.5165558E+02  0.2940498E+02  0.0000000E+00
Ar  1585  0.1696159E+02  0.4875189E+02  0.3196996E+02  0.0000000E+00
Ar  1586  0.1964985E+02  0.5150123E+02  0.3192006E+02  0.0000000E+00
Ar  1587  0.1952471E+02  0.4891558E+02  0.3452223E+02  0.0000000E+00
Ar  1588  0.1709011E+02  0.5158801E+02  0.3431102E+02  0.0000000E+00
Ar  1589  0.1707087E+02  0.4889130E+02  0.3734820E+02  0.0000000E+00
Ar  1590  0.1947251E+02  0.5173966E+02  0.3710311E+02  0.0000000E+00
Ar  1591  0.1950741E+02  0.4878876E+02  0.3993509E+02  0.0000000E+00
Ar  1592  0.1701450E+02  0.5165119E+02  0.3991646E+02  0.0000000E+00
Ar  1593  0.1719303E+02  0.4913637E+02  0.4265943E+02  0.0000000E+00
Ar  1594  0.1987917E+02  0.5162073E+02  0.4254931E+02  0.0000000E+00
Ar  1595  0.1971315E+02  0.4894681E+02  0.4531861E+02  0.0000000E+00
Ar  1596  0.1685151E+02  0.5153158E+02  0.4518448E+02  0.0000000E+00
Ar  1597  0.1736834E+02  0.4888344E+02  0.4805038E+02  0.0000000E+00
Ar  1598  0.1994433E+02  0.5162977E+02  0.4762446E+02  0.0000000E+00
Ar  1599  0.1971805E+02  0.4885399E+02  0.5064780E+02  0.0000000E+00
Ar  1600  0.1703748E+02  0.5144512E+02  0.5055954E+02  0.0000000E+00
Ar  1601  0.2244151E+02  0.1188458E+01  0.4219746E-01  0.0000000E+00
Ar  1602  0.2516768E+02  0.3667733E+01  0.1308018E+00  0.0000000E+00
Ar  1603  0.2512376E+02  0.1075461E+01  0.2720744E+01  0.0000000E+00
Ar  1604  0.2219242E+02  0.3764771E+01  0.2571073E+01  0.0000000E+00
Ar  1605  0.2250827E+02  0.1243865E+01  0.5330807E+01  0.0000000E+00
Ar  1606  0.2523545E+02  0.3821889E+01  0.5488623E+01  0.0000000E+00
Ar  1607  0.2521819E+02  0.1267034E+01  0.8151789E+01  0.0000000E+00
Ar  1608  0.2260948E+02  0.3628748E+01  0.8031315E+01  0.0000000E+00
Ar  1609  0.2244942E+02  0.9418671E+00  0.1076203E+02  0.0000000E+00
Ar  1610  0.2500509E+02  0.3900093E+01  0.1097168E+02  0.0000000E+00
Ar  1611  0.2499623E+02  0.8861625E+00  0.1358939E+02  0.0000000E+00
Ar  1612  0.2230602E+02  0.3589109E+01  0.1343670E+02  0.0000000E+00
Ar  1613  0.2251154E+02  0.9302543E+00  0.1617029E+02  0.0000000E+00
Ar  1614  0.2485229E+02  0.3787823E+01  0.1614086E+02  0.0000000E+00
Ar  1615  0.2500847E+02  0.1060975E+01  0.1872843E+02  0.0000000E+00
Ar  1616  0.2240612E+02  0.3724445E+01  0.1877324E+02  0.0000000E+00
Ar  1617  0.2242453E+02  0.9231269E+00  0.2107001E+02  0.0000000E+00
Ar  1618  0.2504237E+02  0.3703324E+01  0.2129466E+02  0.0000000E+00
Ar  1619  0.2529890E+02  0.1182372E+01  0.2408794E+02  0.0000000E+00
Ar  1620  0.2248712E+02  0.3712280E+01  0.2404819E+02  0.0000000E+00
Ar  1621  0.2234672E+02  0.1190489E+01  0.2668688E+02  0.0000000E+00
Ar  1622  0.2535885E+02  0.3911272E+01  0.2649712E+02  0.0000000E+00
Ar  1623  0.2483238E+02  0.1391445E+01  0.2924874E+02  0.0000000E+00
Ar  1624  0.2238556E+02  0.3930377E+01  0.2940541E+02  0.0000000E+00
Ar  1625  0.2228258E+02  0.1066202E+01  0.3189416E+02  0.0000000E+00
Ar  1626  0.2519819E+02  0.3871764E+01  0.3202512E+02  0.0000000E+00
Ar  1627  0.2502926E+02  0.1476613E+01  0.3470710E+02  0.0000000E+00
Ar  1628  0.2229533E+02  0.4009610E+01  0.3456621E+02  0.0000000E+00
Ar  1629  0.2221999E+02  0.1228450E+01  0.3741780E+02  0.0000000E+00
Ar  1630  0.2504205E+02  0.3787442E+01  0.3736060E+02  0.0000000E+00
Ar  1631  0.2482136E+02  0.9915356E+00  0.4014896E+02  0.0000000E+00
Ar  1632  0.2203742E+02  0.3909093E+01  0.4004869E+02  0.0000000E+00
Ar  1633  0.2220529E+02  0.1113703E+01  0.4257248E+02  0.0000000E+00
Ar  1634  0.2493056E+02  0.3602888E+01  0.4237676E+02  0.0000000E+00
Ar  1635  0.2479228E+02  0.1201700E+01  0.4511915E+02  0.0000000E+00
Ar  1636  0.2253512E+02  0.3782502E+01  0.4509871E+02  0.0000000E+00
Ar  1637  0.2251028E+02  0.1074347E+01  0.4827451E+02  0.0000000E+00
Ar  1638  0.2510728E+02  0.3922004E+01  0.4788285E+02  0.0000000E+00
Ar  1639  0.2518255E+02  0.1094289E+01  0.5062298E+02  0.0000000E+00
Ar  1640  0.2261119E+02  0.3698062E+01  0.5074082E+02  0.0000000E+00
Ar  1641  0.2238161E+02  0.6198947E+01  0.5313902E+02  0.0000000E+00
Ar  1642  0.2489905E+02  0.8726391E+01  0.5311481E+02  0.0000000E+00
Ar  1643  0.2514190E+02  0.6267467E+01  0.2762960E+01  0.0000000E+00
Ar  1644  0.2249046E+02  0.8927302E+01  0.2671201E+01  0.0000000E+00
Ar  1645  0.2250162E+02  0.6194809E+01  0.5256806E+01  0.0000000E+00
Ar  1646  0.2499678E+02  0.8976011E+01  0.5619196E+01  0.0000000E+00
Ar  1647  0.2507885E+02  0.6333342E+01  0.8217531E+01  0.0000000E+00
Ar  1648  0.2253699E+02  0.9221934E+01  0.8337283E+01  0.0000000E+00
Ar  1649  0.2252964E+02  0.6650607E+01  0.1081551E+02  0.0000000E+00
Ar  1650  0.2518592E+02  0.9223979E+01  0.1093245E+02  0.0000000E+00
Ar  1651  0.2497450E+02  0.6249291E+01  0.1333288E+02  0.0000000E+00
Ar  1652  0.2234419E+02  0.8817893E+01  0.1368436E+02  0.0000000E+00
Ar  1653  0.2243260E+02  0.6468204E+01  0.1626053E+02  0.0000000E+00
Ar  1654  0.2498281E+02  0.8937053E+01  0.1588333E+02  0.0000000E+00
Ar  1655  0.2513401E+02  0.6438365E+01  0.1874884E+02  0.0000000E+00
Ar  1656  0.2256203E+02  0.9164867E+01  0.1875307E+02  0.0000000E+00
Ar  1657  0.2236532E+02  0.6216319E+01  0.2152344E+02  0.0000000E+00
Ar  1658  0.2516592E+02  0.9074614E+01  0.2121560E+02  0.0000000E+00
Ar  1659  0.2509019E+02  0.6729650E+01  0.2428709E+02  0.0000000E+00
Ar  1660  0.2239182E+02  0.9065446E+01  0.2392095E+02  0.0000000E+00
Ar  1661  0.2243457E+02  0.6138648E+01  0.2667647E+02  0.0000000E+00
Ar  1662  0.2492942E+02  0.9191238E+01  0.2641056E+02  0.0000000E+00
Ar  1663  0.2511775E+02  0.6544146E+01  0.2949055E+02  0.0000000E+00
Ar  1664  0.2212167E+02  0.9219725E+01  0.2926793E+02  0.0000000E+00
Ar  1665  0.2205360E+02  0.6505430E+01  0.3183251E+02  0.0000000E+00
Ar  1666  0.2476041E+02  0.8959800E+01  0.3216931E+02  0.0000000E+00
Ar  1667  0.2531291E+02  0.6189971E+01  0.3461380E+02  0.0000000E+00
Ar  1668  0.2210575E+02  0.9254903E+01  0.3454762E+02  0.0000000E+00
Ar  1669  0.2243883E+02  0.6531123E+01  0.3708697E+02  0.0000000E+00
Ar  1670  0.2500831E+02  0.8883693E+01  0.3725569E+02  0.0000000E+00
Ar  1671  0.2507149E+02  0.6367971E+01  0.4012859E+02  0.0000000E+00
Ar  1672  0.2239985E+02  0.9226460E+01  0.3970978E+02  0.0000000E+00
Ar  1673  0.2232962E+02  0.6465621E+01  0.4272228E+02  0.0000000E+00
Ar  1674  0.2502771E+02  0.9165862E+01  0.4276863E+02  0.0000000E+00
Ar  1675  0.2504331E+02  0.6096173E+01  0.4527595E+02  0.0000000E+00
Ar  1676  0.2226499E+02  0.9115208E+01  0.4533856E+02  0.0000000E+00
Ar  1677  0.2244573E+02  0.6158887E+01  0.4790930E+02  0.0000000E+00
Ar  1678  0.2496063E+02  0.8943957E+01  0.4775000E+02  0.0000000E+00
Ar  1679  0.2527032E+02  0.6436561E+01  0.5048232E+02  0.0000000E+00
Ar  1680  0.2228301E+02  0.8760672E+01  0.5044232E+02  0.0000000E+00
Ar  1681  0.2263366E+02  0.1138797E+02  0.5294347E+02  0.0000000E+00
Ar  1682  0.2521647E+02  0.1419257E+02  0.6387886E-01  0.0000000E+00
Ar  1683  0.2487438E+02  0.1126976E+02  0.2627984E+01  0.0000000E+00
Ar  1684  0.2246477E+02  0.1453718E+02  0.2710134E+01  0.0000000E+00
Ar  1685  0.2249492E+02  0.1162218E+02  0.5604173E+01  0.0000000E+00
Ar  1686  0.2490667E+02  0.1432534E+02  0.5173759E+01  0.0000000E+00
Ar  1687  0.2507108E+02  0.1178989E+02  0.8198522E+01  0.0000000E+00
Ar  1688  0.2217936E+02  0.1434485E+02  0.7959530E+01  0.0000000E+00
Ar  1689  0.2228214E+02  0.1171241E+02  0.1091633E+02  0.0000000E+00
Ar  1690  0.2483646E+02  0.1424506E+02  0.1082924E+02  0.0000000E+00
Ar  1691  0.2501530E+02  0.1187993E+02  0.1348891E+02  0.0000000E+00
Ar  1692  0.2240543E+02  0.1447656E+02  0.1381205E+02  0.0000000E+00
Ar  1693  0.2242718E+02  0.1140372E+02  0.1585349E+02  0.0000000E+00
Ar  1694  0.2499375E+02  0.1443165E+02  0.1617273E+02  0.0000000E+00
Ar  1695  0.2511011E+02  0.1177189E+02  0.1899311E+02  0.0000000E+00
Ar  1696  0.2231598E+02  0.1434949E+02  0.1852972E+02  0.0000000E+00
Ar  1697  0.2246842E+02  0.1173962E+02  0.2123272E+02  0.0000000E+00
Ar  1698  0.2510630E+02  0.1465556E+02  0.2153491E+02  0.0000000E+00
Ar  1699  0.2514424E+02  0.1199493E+02  0.2393374E+02  0.0000000E+00
Ar  1700  0.2221192E+02  0.1422227E+02  0.2403326E+02  0.0000000E+00
Ar  1701  0.2225793E+02  0.1173661E+02  0.2654077E+02  0.0000000E+00
Ar  1702  0.2514450E+02  0.1464670E+02  0.2645773E+02  0.0000000E+00
Ar  1703  0.2498560E+02  0.1159440E+02  0.2937713E+02  0.0000000E+00
Ar  1704  0.2232891E+02  0.1426987E+02  0.2939515E+02  0.0000000E+00
Ar  1705  0.2204059E+02  0.1183583E+02  0.3213187E+02  0.0000000E+00
Ar  1706  0.2468220E+02  0.1437795E+02  0.3190341E+02  0.0000000E+00
Ar  1707  0.2486886E+02  0.1176000E+02  0.3452615E+02  0.0000000E+00
Ar  1708  0.2218245E+02  0.1436531E+02  0.3460097E+02  0.0000000E+00
Ar  1709  0.2246472E+02  0.1189276E+02  0.3746198E+02  0.0000000E+00
Ar  1710  0.2485709E+02  0.1440746E+02  0.3733923E+02  0.0000000E+00
Ar  1711  0.2504398E+02  0.1173798E+02  0.3996005E+02  0.0000000E+00
Ar  1712  0.2247087E+02  0.1420839E+02  0.4017438E+02  0.0000000E+00
Ar  1713  0.2236307E+02  0.1158806E+02  0.4255397E+02  0.0000000E+00
Ar  1714  0.2505460E+02  0.1431095E+02  0.4260930E+02  0.0000000E+00
Ar  1715  0.2508406E+02  0.1173830E+02  0.4523389E+02  0.0000000E+00
Ar  1716  0.2247642E+02  0.1421782E+02  0.4522972E+02  0.0000000E+00
Ar  1717  0.2249017E+02  0.1153661E+02  0.4794934E+02  0.0000000E+00
Ar  1718  0.2540322E+02  0.1433283E+02  0.4785619E+02  0.0000000E+00
Ar  1719  0.2516866E+02  0.1155913E+02  0.5048319E+02  0.0000000E+00
Ar  1720  0.2229200E+02  0.1420549E+02  0.5061792E+02  0.0000000E+00
Ar  1721  0.2243131E+02  0.1682693E+02  0.8962614E-01  0.0000000E+00
Ar  1722  0.2495902E+02  0.1937126E+02  0.5290652E+02  0.0000000E+00
Ar  1723  0.2518703E+02  0.1706760E+02  0.2612318E+01  0.0000000E+00
Ar  1724  0.2245379E+02  0.1947933E+02  0.2545094E+01  0.0000000E+00
Ar  1725  0.2221677E+02  0.1707762E+02  0.5163376E+01  0.0000000E+00
Ar  1726  0.2506881E+02  0.1944999E+02  0.5294160E+01  0.0000000E+00
Ar  1727  0.2471625E+02  0.1673673E+02  0.7860008E+01  0.0000000E+00
Ar  1728  0.2248890E+02  0.1959068E+02  0.8069395E+01  0.0000000E+00
Ar  1729  0.2258114E+02  0.1696365E+02  0.1090749E+02  0.0000000E+00
Ar  1730  0.2507807E+02  0.1959238E+02  0.1059440E+02  0.0000000E+00
Ar  1731  0.2517842E+02  0.1716234E+02  0.1336346E+02  0.0000000E+00
Ar  1732  0.2213982E+02  0.1959711E+02  0.1329756E+02  0.0000000E+00
Ar  1733  0.2240880E+02  0.1722214E+02  0.1613762E+02  0.0000000E+00
Ar  1734  0.2488704E+02  0.1995325E+02  0.1609474E+02  0.0000000E+00
Ar  1735  0.2496431E+02  0.1746989E+02  0.1856655E+02  0.0000000E+00
Ar  1736  0.2235084E+02  0.1986363E+02  0.1891724E+02  0.0000000E+00
Ar  1737  0.2237868E+02  0.1713428E+02  0.2119485E+02  0.0000000E+00
Ar  1738  0.2496329E+02  0.1961864E+02  0.2147132E+02  0.0000000E+00
Ar  1739  0.2472909E+02  0.1713499E+02  0.2399058E+02  0.0000000E+00
Ar  1740  0.2221786E+02  0.1967139E+02  0.2419026E+02  0.0000000E+00
Ar  1741  0.2235377E+02  0.1716738E+02  0.2697162E+02  0.0000000E+00
Ar  1742  0.2512948E+02  0.1970587E+02  0.2654244E+02  0.0000000E+00
Ar  1743  0.2509914E+02  0.1717826E+02  0.2935177E+02  0.0000000E+00
Ar  1744  0.2214970E+02  0.1978047E+02  0.2933343E+02  0.0000000E+00
Ar  1745  0.2237425E+02  0.1702296E+02  0.3198798E+02  0.0000000E+00
Ar  1746  0.2523323E+02  0.1956751E+02  0.3165898E+02  0.0000000E+00
Ar  1747  0.2507388E+02  0.1688585E+02  0.3460982E+02  0.0000000E+00
Ar  1748  0.2249286E+02  0.1948474E+02  0.3457835E+02  0.0000000E+00
Ar  1749  0.2232308E+02  0.1694746E+02  0.3724663E+02  0.0000000E+00
Ar  1750  0.2483231E+02  0.1955059E+02  0.3702327E+02  0.0000000E+00
Ar  1751  0.2515701E+02  0.1721950E+02  0.4007973E+02  0.0000000E+00
Ar  1752  0.2248701E+02  0.1965391E+02  0.3981721E+02  0.0000000E+00
Ar  1753  0.2282818E+02  0.1711021E+02  0.4278234E+02  0.0000000E+00
Ar  1754  0.2501954E+02  0.1987318E+02  0.4267787E+02  0.0000000E+00
Ar  1755  0.2492552E+02  0.1689175E+02  0.4541294E+02  0.0000000E+00
Ar  1756  0.2268463E+02  0.1977151E+02  0.4555889E+02  0.0000000E+00
Ar  1757  0.2234088E+02  0.1685547E+02  0.4806774E+02  0.0000000E+00
Ar  1758  0.2508076E+02  0.1936113E+02  0.4815365E+02  0.0000000E+00
Ar  1759  0.2520942E+02  0.1680039E+02  0.5050485E+02  0.0000000E+00
Ar  1760  0.2221158E+02  0.1972864E+02  0.5038274E+02  0.0000000E+00
Ar  1761  0.2218052E+02  0.2223280E+02  0.8918878E-01  0.0000000E+00
Ar  1762  0.2486112E+02  0.2499204E+02  0.5312267E+02  0.0000000E+00
Ar  1763  0.2521115E+02  0.2222646E+02  0.2687801E+01  0.0000000E+00
Ar  1764  0.2242397E+02  0.2494744E+02  0.2747791E+01  0.0000000E+00
Ar  1765  0.2256547E+02  0.2212387E+02  0.5202321E+01  0.0000000E+00
Ar  1766  0.2498372E+02  0.2491746E+02  0.5208527E+01  0.0000000E+00
Ar  1767  0.2491535E+02  0.2228969E+02  0.7858404E+01  0.0000000E+00
Ar  1768  0.2256514E+02  0.2486102E+02  0.8258581E+01  0.0000000E+00
Ar  1769  0.2235618E+02  0.2211836E+02  0.1079706E+02  0.0000000E+00
Ar  1770  0.2506552E+02  0.2484560E+02  0.1070823E+02  0.0000000E+00
Ar  1771  0.2472012E+02  0.2216189E+02  0.1345451E+02  0.0000000E+00
Ar  1772  0.2248398E+02  0.2504920E+02  0.1337790E+02  0.0000000E+00
Ar  1773  0.2220799E+02  0.2241416E+02  0.1616426E+02  0.0000000E+00
Ar  1774  0.2510378E+02  0.2488434E+02  0.1601875E+02  0.0000000E+00
Ar  1775  0.2495713E+02  0.2245156E+02  0.1857884E+02  0.0000000E+00
Ar  1776  0.2248962E+02  0.2511476E+02  0.1868443E+02  0.0000000E+00
Ar  1777  0.2245179E+02  0.2259945E+02  0.2133071E+02  0.0000000E+00
Ar  1778  0.2514423E+02  0.2512474E+02  0.2141594E+02  0.0000000E+00
Ar  1779  0.2489102E+02  0.2241981E+02  0.2399041E+02  0.0000000E+00
Ar  1780  0.2251563E+02  0.2505960E+02  0.2400469E+02  0.0000000E+00
Ar  1781  0.2224135E+02  0.2237549E+02  0.2689907E+02  0.0000000E+00
Ar  1782  0.2502898E+02  0.2504511E+02  0.2668240E+02  0.0000000E+00
Ar  1783  0.2501151E+02  0.2226002E+02  0.2906674E+02  0.0000000E+00
Ar  1784  0.2255898E+02  0.2504226E+02  0.2965470E+02  0.0000000E+00
Ar  1785  0.2266180E+02  0.2219714E+02  0.3190664E+02  0.0000000E+00
Ar  1786  0.2501543E+02  0.2513671E+02  0.3181888E+02  0.0000000E+00
Ar  1787  0.2508444E+02  0.2234763E+02  0.3452398E+02  0.0000000E+00
Ar  1788  0.2260473E+02  0.2509606E+02  0.3487677E+02  0.0000000E+00
Ar  1789  0.2239047E+02  0.2219884E+02  0.3717224E+02  0.0000000E+00
Ar  1790  0.2528918E+02  0.2493081E+02  0.3730364E+02  0.0000000E+00
Ar  1791  0.2500520E+02  0.2223540E+02  0.3987396E+02  0.0000000E+00
Ar  1792  0.2231514E+02  0.2496537E+02  0.4010613E+02  0.0000000E+00
Ar  1793  0.2218144E+02  0.2228138E+02  0.4279193E+02  0.0000000E+00
Ar  1794  0.2506951E+02  0.2469389E+02  0.4280362E+02  0.0000000E+00
Ar  1795  0.2524533E+02  0.2238798E+02  0.4545069E+02  0.0000000E+00
Ar  1796  0.2212978E+02  0.2504315E+02  0.4537057E+02  0.0000000E+00
Ar  1797  0.2251878E+02  0.2239204E+02  0.4793449E+02  0.0000000E+00
Ar  1798  0.2493376E+02  0.2505693E+02  0.4809318E+02  0.0000000E+00
Ar  1799  0.2478393E+02  0.2215732E+02  0.5053658E+02  0.0000000E+00
Ar  1800  0.2216579E+02  0.2474427E+02  0.5064572E+02  0.0000000E+00
Ar  1801  0.2240313E+02  0.2767600E+02  0.2064916E+00  0.0000000E+00
Ar  1802  0.2534207E+02  0.3033838E+02  0.1374838E+00  0.0000000E+00
Ar  1803  0.2497301E+02  0.2759729E+02  0.2682277E+01  0.0000000E+00
Ar  1804  0.2233250E+02  0.3031356E+02  0.2683734E+01  0.0000000E+00
Ar  1805  0.2244860E+02  0.2789070E+02  0.5210927E+01  0.0000000E+00
Ar  1806  0.2511091E+02  0.3028085E+02  0.5417120E+01  0.0000000E+00
Ar  1807  0.2506446E+02  0.2758143E+02  0.7855027E+01  0.0000000E+00
Ar  1808  0.2245775E+02  0.3040636E+02  0.7768980E+01  0.0000000E+00
Ar  1809  0.2249124E+02  0.2773836E+02  0.1037434E+02  0.0000000E+00
Ar  1810  0.2476261E+02  0.3032105E+02  0.1042491E+02  0.0000000E+00
Ar  1811  0.2493540E+02  0.2767192E+02  0.1296083E+02  0.0000000E+00
Ar  1812  0.2223300E+02  0.3024674E+02  0.1361475E+02  0.0000000E+00
Ar  1813  0.2271163E+02  0.2782602E+02  0.1614162E+02  0.0000000E+00
Ar  1814  0.2495035E+02  0.3032854E+02  0.1590017E+02  0.0000000E+00
Ar  1815  0.2524407E+02  0.2756435E+02  0.1874709E+02  0.0000000E+00
Ar  1816  0.2228595E+02  0.3051504E+02  0.1860787E+02  0.0000000E+00
Ar  1817  0.2227342E+02  0.2760092E+02  0.2128197E+02  0.0000000E+00
Ar  1818  0.2500573E+02  0.3053434E+02  0.2128893E+02  0.0000000E+00
Ar  1819  0.2503468E+02  0.2787083E+02  0.2383678E+02  0.0000000E+00
Ar  1820  0.2236278E+02  0.3039249E+02  0.2394643E+02  0.0000000E+00
Ar  1821  0.2247182E+02  0.2765700E+02  0.2668128E+02  0.0000000E+00
Ar  1822  0.2508518E+02  0.3047676E+02  0.2697940E+02  0.0000000E+00
Ar  1823  0.2529216E+02  0.2778753E+02  0.2937967E+02  0.0000000E+00
Ar  1824  0.2205294E+02  0.3031885E+02  0.2948124E+02  0.0000000E+00
Ar  1825  0.2253969E+02  0.2774772E+02  0.3189706E+02  0.0000000E+00
Ar  1826  0.2490798E+02  0.3044438E+02  0.3198085E+02  0.0000000E+00
Ar  1827  0.2501673E+02  0.2759617E+02  0.3456193E+02  0.0000000E+00
Ar  1828  0.2241286E+02  0.3046145E+02  0.3461023E+02  0.0000000E+00
Ar  1829  0.2230587E+02  0.2774181E+02  0.3728422E+02  0.0000000E+00
Ar  1830  0.2497120E+02  0.3020867E+02  0.3706765E+02  0.0000000E+00
Ar  1831  0.2499958E+02  0.2739650E+02  0.3992176E+02  0.0000000E+00
Ar  1832  0.2244681E+02  0.3036216E+02  0.4000462E+02  0.0000000E+00
Ar  1833  0.2232124E+02  0.2757637E+02  0.4284169E+02  0.0000000E+00
Ar  1834  0.2484188E+02  0.3032287E+02  0.4242056E+02  0.0000000E+00
Ar  1835  0.2532484E+02  0.2757551E+02  0.4536242E+02  0.0000000E+00
Ar  1836  0.2285440E+02  0.3008049E+02  0.4547542E+02  0.0000000E+00
Ar  1837  0.2247981E+02  0.2747481E+02  0.4801791E+02  0.0000000E+00
Ar  1838  0.2493830E+02  0.3045577E+02  0.4824877E+02  0.0000000E+00
Ar  1839  0.2503987E+02  0.2786088E+02  0.5069958E+02  0.0000000E+00
Ar  1840  0.2239306E+02  0.3020255E+02  0.5084649E+02  0.0000000E+00
Ar  1841  0.2287653E+02  0.3300759E+02  0.5318744E+02  0.0000000E+00
Ar  1842  0.2508843E+02  0.3561003E+02  0.5311935E+02  0.0000000E+00
Ar  1843  0.2514371E+02  0.3287405E+02  0.2622894E+01  0.0000000E+00
Ar  1844  0.2229097E+02  0.3572917E+02  0.2528508E+01  0.0000000E+00
Ar  1845  0.2257966E+02  0.3303031E+02  0.5288658E+01  0.0000000E+00
Ar  1846  0.2498374E+02  0.3564945E+02  0.5664020E+01  0.0000000E+00
Ar  1847  0.2509806E+02  0.3304509E+02  0.8066812E+01  0.0000000E+00
Ar  1848  0.2220637E+02  0.3554495E+02  0.8177066E+01  0.0000000E+00
Ar  1849  0.2212802E+02  0.3280622E+02  0.1077681E+02  0.0000000E+00
Ar  1850  0.2477293E+02  0.3543903E+02  0.1072775E+02  0.0000000E+00
Ar  1851  0.2501627E+02  0.3294455E+02  0.1324043E+02  0.0000000E+00
Ar  1852  0.2213622E+02  0.3549702E+02  0.1335190E+02  0.0000000E+00
Ar  1853  0.2233200E+02  0.3314122E+02  0.1590520E+02  0.0000000E+00
Ar  1854  0.2487534E+02  0.3550511E+02  0.1591193E+02  0.0000000E+00
Ar  1855  0.2498162E+02  0.3310175E+02  0.1874050E+02  0.0000000E+00
Ar  1856  0.2233114E+02  0.3556174E+02  0.1899607E+02  0.0000000E+00
Ar  1857  0.2237605E+02  0.3313162E+02  0.2160889E+02  0.0000000E+00
Ar  1858  0.2535143E+02  0.3587135E+02  0.2134979E+02  0.0000000E+00
Ar  1859  0.2501333E+02  0.3318345E+02  0.2382963E+02  0.0000000E+00
Ar  1860  0.2207301E+02  0.3590083E+02  0.2428000E+02  0.0000000E+00
Ar  1861  0.2222321E+02  0.3300883E+02  0.2671494E+02  0.0000000E+00
Ar  1862  0.2534229E+02  0.3562197E+02  0.2674148E+02  0.0000000E+00
Ar  1863  0.2463929E+02  0.3289405E+02  0.2935669E+02  0.0000000E+00
Ar  1864  0.2229007E+02  0.3573456E+02  0.2933832E+02  0.0000000E+00
Ar  1865  0.2245714E+02  0.3339861E+02  0.3222416E+02  0.0000000E+00
Ar  1866  0.2510667E+02  0.3565036E+02  0.3219090E+02  0.0000000E+00
Ar  1867  0.2506860E+02  0.3315567E+02  0.3477756E+02  0.0000000E+00
Ar  1868  0.2248174E+02  0.3576239E+02  0.3487689E+02  0.0000000E+00
Ar  1869  0.2244488E+02  0.3319033E+02  0.3759636E+02  0.0000000E+00
Ar  1870  0.2512190E+02  0.3559957E+02  0.3732960E+02  0.0000000E+00
Ar  1871  0.2510085E+02  0.3265709E+02  0.4004089E+02  0.0000000E+00
Ar  1872  0.2253395E+02  0.3566777E+02  0.4007215E+02  0.0000000E+00
Ar  1873  0.2242759E+02  0.3305376E+02  0.4280682E+02  0.0000000E+00
Ar  1874  0.2512394E+02  0.3587474E+02  0.4253203E+02  0.0000000E+00
Ar  1875  0.2520840E+02  0.3313871E+02  0.4529161E+02  0.0000000E+00
Ar  1876  0.2236861E+02  0.3565951E+02  0.4536146E+02  0.0000000E+00
Ar  1877  0.2248500E+02  0.3287362E+02  0.4836177E+02  0.0000000E+00
Ar  1878  0.2496854E+02  0.3566840E+02  0.4798145E+02  0.0000000E+00
Ar  1879  0.2532561E+02  0.3298211E+02  0.5062137E+02  0.0000000E+00
Ar  1880  0.2255160E+02  0.3554079E+02  0.5069003E+02  0.0000000E+00
Ar  1881  0.2252256E+02  0.3824961E+02  0.5308133E+02  0.0000000E+00
Ar  1882  0.2518700E+02  0.4078257E+02  0.5301585E+02  0.0000000E+00
Ar  1883  0.2516718E+02  0.3806793E+02  0.2762464E+01  0.0000000E+00
Ar  1884  0.2242166E+02  0.4085806E+02  0.2724156E+01  0.0000000E+00
Ar  1885  0.2241481E+02  0.3815567E+02  0.5588607E+01  0.0000000E+00
Ar  1886  0.2490067E+02  0.4080084E+02  0.5450457E+01  0.0000000E+00
Ar  1887  0.2481837E+02  0.3810009E+02  0.8155563E+01  0.0000000E+00
Ar  1888  0.2215339E+02  0.4097897E+02  0.8121616E+01  0.0000000E+00
Ar  1889  0.2208028E+02  0.3827326E+02  0.1088014E+02  0.0000000E+00
Ar  1890  0.2493596E+02  0.4082390E+02  0.1040094E+02  0.0000000E+00
Ar  1891  0.2471520E+02  0.3806093E+02  0.1324230E+02  0.0000000E+00
Ar  1892  0.2238406E+02  0.4072542E+02  0.1333668E+02  0.0000000E+00
Ar  1893  0.2209737E+02  0.3851825E+02  0.1573106E+02  0.0000000E+00
Ar  1894  0.2491651E+02  0.4109758E+02  0.1594302E+02  0.0000000E+00
Ar  1895  0.2487705E+02  0.3817708E+02  0.1830560E+02  0.0000000E+00
Ar  1896  0.2252644E+02  0.4090851E+02  0.1864140E+02  0.0000000E+00
Ar  1897  0.2241716E+02  0.3826183E+02  0.2118591E+02  0.0000000E+00
Ar  1898  0.2509802E+02  0.4068087E+02  0.2117272E+02  0.0000000E+00
Ar  1899  0.2503024E+02  0.3831203E+02  0.2386988E+02  0.0000000E+00
Ar  1900  0.2220734E+02  0.4076443E+02  0.2383701E+02  0.0000000E+00
Ar  1901  0.2218426E+02  0.3850217E+02  0.2681631E+02  0.0000000E+00
Ar  1902  0.2495787E+02  0.4088977E+02  0.2646108E+02  0.0000000E+00
Ar  1903  0.2494936E+02  0.3838108E+02  0.2928332E+02  0.0000000E+00
Ar  1904  0.2260744E+02  0.4099386E+02  0.2934220E+02  0.0000000E+00
Ar  1905  0.2250286E+02  0.3825420E+02  0.3207758E+02  0.0000000E+00
Ar  1906  0.2526596E+02  0.4134071E+02  0.3181122E+02  0.0000000E+00
Ar  1907  0.2523611E+02  0.3856486E+02  0.3451325E+02  0.0000000E+00
Ar  1908  0.2244813E+02  0.4110953E+02  0.3459547E+02  0.0000000E+00
Ar  1909  0.2233303E+02  0.3829929E+02  0.3752824E+02  0.0000000E+00
Ar  1910  0.2503525E+02  0.4120461E+02  0.3751521E+02  0.0000000E+00
Ar  1911  0.2515702E+02  0.3846149E+02  0.4005804E+02  0.0000000E+00
Ar  1912  0.2236251E+02  0.4105799E+02  0.4022379E+02  0.0000000E+00
Ar  1913  0.2259681E+02  0.3827436E+02  0.4262863E+02  0.0000000E+00
Ar  1914  0.2513039E+02  0.4082370E+02  0.4269403E+02  0.0000000E+00
Ar  1915  0.2517930E+02  0.3835688E+02  0.4532363E+02  0.0000000E+00
Ar  1916  0.2233863E+02  0.4093373E+02  0.4530788E+02  0.0000000E+00
Ar  1917  0.2245148E+02  0.3843806E+02  0.4807013E+02  0.0000000E+00
Ar  1918  0.2502326E+02  0.4112869E+02  0.4803294E+02  0.0000000E+00
Ar  1919  0.2510833E+02  0.3830838E+02  0.5065137E+02  0.0000000E+00
Ar  1920  0.2251160E+02  0.4087709E+02  0.5040260E+02  0.0000000E+00
Ar  1921  0.2246650E+02  0.4345199E+02  0.1394900E+00  0.0000000E+00
Ar  1922  0.2484990E+02  0.4633546E+02  0.5307550E+02  0.0000000E+00
Ar  1923  0.2511968E+02  0.4346245E+02  0.2564948E+01  0.0000000E+00
Ar  1924  0.2253831E+02  0.4649031E+02  0.2533609E+01  0.0000000E+00
Ar  1925  0.2260234E+02  0.4338656E+02  0.5258583E+01  0.0000000E+00
Ar  1926  0.2479994E+02  0.4635023E+02  0.5248649E+01  0.0000000E+00
Ar  1927  0.2512335E+02  0.4374905E+02  0.7842455E+01  0.0000000E+00
Ar  1928  0.2237574E+02  0.4633693E+02  0.7994251E+01  0.0000000E+00
Ar  1929  0.2221904E+02  0.4346126E+02  0.1062125E+02  0.0000000E+00
Ar  1930  0.2498031E+02  0.4605367E+02  0.1049913E+02  0.0000000E+00
Ar  1931  0.2477535E+02  0.4369365E+02  0.1311593E+02  0.0000000E+00
Ar  1932  0.2233018E+02  0.4645868E+02  0.1315142E+02  0.0000000E+00
Ar  1933  0.2244713E+02  0.4380249E+02  0.1598483E+02  0.0000000E+00
Ar  1934  0.2493930E+02  0.4617258E+02  0.1622027E+02  0.0000000E+00
Ar  1935  0.2498470E+02  0.4345352E+02  0.1868695E+02  0.0000000E+00
Ar  1936  0.2242643E+02  0.4596843E+02  0.1897617E+02  0.0000000E+00
Ar  1937  0.2244753E+02  0.4356514E+02  0.2132016E+02  0.0000000E+00
Ar  1938  0.2500289E+02  0.4623874E+02  0.2135222E+02  0.0000000E+00
Ar  1939  0.2493156E+02  0.4353559E+02  0.2388357E+02  0.0000000E+00
Ar  1940  0.2239700E+02  0.4623294E+02  0.2383223E+02  0.0000000E+00
Ar  1941  0.2241851E+02  0.4340027E+02  0.2643907E+02  0.0000000E+00
Ar  1942  0.2503582E+02  0.4624221E+02  0.2665437E+02  0.0000000E+00
Ar  1943  0.2500056E+02  0.4384983E+02  0.2941168E+02  0.0000000E+00
Ar  1944  0.2244509E+02  0.4628824E+02  0.2942820E+02  0.0000000E+00
Ar  1945  0.2235798E+02  0.4378962E+02  0.3229088E+02  0.0000000E+00
Ar  1946  0.2505532E+02  0.4634143E+02  0.3200389E+02  0.0000000E+00
Ar  1947  0.2505425E+02  0.4398222E+02  0.3482516E+02  0.0000000E+00
Ar  1948  0.2227234E+02  0.4650940E+02  0.3480750E+02  0.0000000E+00
Ar  1949  0.2232089E+02  0.4350717E+02  0.3732121E+02  0.0000000E+00
Ar  1950  0.2468437E+02  0.4637895E+02  0.3740719E+02  0.0000000E+00
Ar  1951  0.2521100E+02  0.4385307E+02  0.4002808E+02  0.0000000E+00
Ar  1952  0.2233440E+02  0.4640759E+02  0.3981554E+02  0.0000000E+00
Ar  1953  0.2267353E+02  0.4358714E+02  0.4257227E+02  0.0000000E+00
Ar  1954  0.2494943E+02  0.4645104E+02  0.4258271E+02  0.0000000E+00
Ar  1955  0.2492567E+02  0.4347468E+02  0.4520109E+02  0.0000000E+00
Ar  1956  0.2243598E+02  0.4610680E+02  0.4544595E+02  0.0000000E+00
Ar  1957  0.2245393E+02  0.4378368E+02  0.4794673E+02  0.0000000E+00
Ar  1958  0.2504401E+02  0.4616379E+02  0.4804464E+02  0.0000000E+00
Ar  1959  0.2522185E+02  0.4359319E+02  0.5066792E+02  0.0000000E+00
Ar  1960  0.2230045E+02  0.4612473E+02  0.5060356E+02  0.0000000E+00
Ar  1961  0.2244328E+02  0.4901897E+02  0.5311855E+02  0.0000000E+00
Ar  1962  0.2491847E+02  0.5160482E+02  0.5299476E+02  0.0000000E+00
Ar  1963  0.2501288E+02  0.4905879E+02  0.2746288E+01  0.0000000E+00
Ar  1964  0.2243932E+02  0.5166577E+02  0.2665973E+01  0.0000000E+00
Ar  1965  0.2244923E+02  0.4877462E+02  0.5346799E+01  0.0000000E+00
Ar  1966  0.2502158E+02  0.5178885E+02  0.5546542E+01  0.0000000E+00
Ar  1967  0.2512567E+02  0.4886440E+02  0.8125498E+01  0.0000000E+00
Ar  1968  0.2243261E+02  0.5169376E+02  0.7929981E+01  0.0000000E+00
Ar  1969  0.2235775E+02  0.4912511E+02  0.1055812E+02  0.0000000E+00
Ar  1970  0.2509931E+02  0.5127609E+02  0.1112965E+02  0.0000000E+00
Ar  1971  0.2502410E+02  0.4867819E+02  0.1343265E+02  0.0000000E+00
Ar  1972  0.2225176E+02  0.5152199E+02  0.1328147E+02  0.0000000E+00
Ar  1973  0.2237836E+02  0.4898441E+02  0.1578703E+02  0.0000000E+00
Ar  1974  0.2527209E+02  0.5128098E+02  0.1608252E+02  0.0000000E+00
Ar  1975  0.2493140E+02  0.4877530E+02  0.1876050E+02  0.0000000E+00
Ar  1976  0.2245757E+02  0.5124784E+02  0.1846078E+02  0.0000000E+00
Ar  1977  0.2258563E+02  0.4876279E+02  0.2144503E+02  0.0000000E+00
Ar  1978  0.2510258E+02  0.5157980E+02  0.2116487E+02  0.0000000E+00
Ar  1979  0.2509251E+02  0.4887819E+02  0.2417582E+02  0.0000000E+00
Ar  1980  0.2288723E+02  0.5172590E+02  0.2398201E+02  0.0000000E+00
Ar  1981  0.2229887E+02  0.4882654E+02  0.2647935E+02  0.0000000E+00
Ar  1982  0.2520370E+02  0.5195166E+02  0.2687732E+02  0.0000000E+00
Ar  1983  0.2517980E+02  0.4906345E+02  0.2915268E+02  0.0000000E+00
Ar  1984  0.2255825E+02  0.5170322E+02  0.2911001E+02  0.0000000E+00
Ar  1985  0.2261752E+02  0.4886250E+02  0.3201151E+02  0.0000000E+00
Ar  1986  0.2512039E+02  0.5183274E+02  0.3167775E+02  0.0000000E+00
Ar  1987  0.2503725E+02  0.4922422E+02  0.3462648E+02  0.0000000E+00
Ar  1988  0.2202962E+02  0.5174017E+02  0.3452007E+02  0.0000000E+00
Ar  1989  0.2225823E+02  0.4906222E+02  0.3710706E+02  0.0000000E+00
Ar  1990  0.2507489E+02  0.5187690E+02  0.3723982E+02  0.0000000E+00
Ar  1991  0.2521072E+02  0.4909054E+02  0.4002428E+02  0.0000000E+00
Ar  1992  0.2222922E+02  0.5158365E+02  0.3981221E+02  0.0000000E+00
Ar  1993  0.2228146E+02  0.4888341E+02  0.4264380E+02  0.0000000E+00
Ar  1994  0.2501714E+02  0.5170116E+02  0.4272303E+02  0.0000000E+00
Ar  1995  0.2482210E+02  0.4909839E+02  0.4533368E+02  0.0000000E+00
Ar  1996  0.2249068E+02  0.5182501E+02  0.4523310E+02  0.0000000E+00
Ar  1997  0.2210882E+02  0.4885361E+02  0.4792978E+02  0.0000000E+00
Ar  1998  0.2517796E+02  0.5181149E+02  0.4780764E+02  0.0000000E+00
Ar  1999  0.2484421E+02  0.4884485E+02  0.5056025E+02  0.0000000E+00
Ar  2000  0.2236278E+02  0.5150194E+02  0.5047894E+02  0.0000000E+00
Ar  2001  0.2788321E+02  0.1041149E+01  0.5315070E+02  0.0000000E+00
Ar  2002  0.3018109E+02  0.3489871E+01  0.5490742E-01  0.0000000E+00
Ar  2003  0.3024865E+02  0.9823931E+00  0.2804309E+01  0.0000000E+00
Ar  2004  0.2773347E+02  0.3743243E+01  0.2846076E+01  0.0000000E+00
Ar  2005  0.2766294E+02  0.1004772E+01  0.5623654E+01  0.0000000E+00
Ar  2006  0.3009437E+02  0.3746023E+01  0.5492248E+01  0.0000000E+00
Ar  2007  0.3014190E+02  0.1147994E+01  0.8243305E+01  0.0000000E+00
Ar  2008  0.2768578E+02  0.3888808E+01  0.8386831E+01  0.0000000E+00
Ar  2009  0.2741061E+02  0.7637990E+00  0.1087826E+02  0.0000000E+00
Ar  2010  0.3034561E+02  0.3553906E+01  0.1107649E+02  0.0000000E+00
Ar  2011  0.3045906E+02  0.7781223E+00  0.1346113E+02  0.0000000E+00
Ar  2012  0.2765304E+02  0.3746582E+01  0.1336476E+02  0.0000000E+00
Ar  2013  0.2757641E+02  0.1138572E+01  0.1616837E+02  0.0000000E+00
Ar  2014  0.3039020E+02  0.3665985E+01  0.1598812E+02  0.0000000E+00
Ar  2015  0.3055127E+02  0.1324722E+01  0.1834631E+02  0.0000000E+00
Ar  2016  0.2773672E+02  0.3868370E+01  0.1863643E+02  0.0000000E+00
Ar  2017  0.2774328E+02  0.1207396E+01  0.2121347E+02  0.0000000E+00
Ar  2018  0.3017892E+02  0.3852303E+01  0.2110926E+02  0.0000000E+00
Ar  2019  0.3026163E+02  0.1255674E+01  0.2379374E+02  0.0000000E+00
Ar  2020  0.2779421E+02  0.3759716E+01  0.2357425E+02  0.0000000E+00
Ar  2021  0.2764938E+02  0.1232782E+01  0.2688409E+02  0.0000000E+00
Ar  2022  0.3028584E+02  0.3974602E+01  0.2670075E+02  0.0000000E+00
Ar  2023  0.3042768E+02  0.1037258E+01  0.2943067E+02  0.0000000E+00
Ar  2024  0.2766891E+02  0.3938720E+01  0.2941131E+02  0.0000000E+00
Ar  2025  0.2757182E+02  0.1165521E+01  0.3199074E+02  0.0000000E+00
Ar  2026  0.3042957E+02  0.3524744E+01  0.3205562E+02  0.0000000E+00
Ar  2027  0.3054111E+02  0.9568232E+00  0.3466551E+02  0.0000000E+00
Ar  2028  0.2797069E+02  0.3627722E+01  0.3482916E+02  0.0000000E+00
Ar  2029  0.2758010E+02  0.1086188E+01  0.3713643E+02  0.0000000E+00
Ar  2030  0.3059945E+02  0.3657914E+01  0.3747334E+02  0.0000000E+00
Ar  2031  0.3054930E+02  0.1029363E+01  0.3998985E+02  0.0000000E+00
Ar  2032  0.2794213E+02  0.3858506E+01  0.4009674E+02  0.0000000E+00
Ar  2033  0.2764223E+02  0.1105248E+01  0.4245062E+02  0.0000000E+00
Ar  2034  0.3059276E+02  0.3616175E+01  0.4253323E+02  0.0000000E+00
Ar  2035  0.3053777E+02  0.1136608E+01  0.4509447E+02  0.0000000E+00
Ar  2036  0.2782428E+02  0.3573628E+01  0.4509515E+02  0.0000000E+00
Ar  2037  0.2784877E+02  0.1001911E+01  0.4785880E+02  0.0000000E+00
Ar  2038  0.3073964E+02  0.3739945E+01  0.4787375E+02  0.0000000E+00
Ar  2039  0.3058112E+02  0.7927040E+00  0.5056643E+02  0.0000000E+00
Ar  2040  0.2790979E+02  0.3760439E+01  0.5034745E+02  0.0000000E+00
Ar  2041  0.2790787E+02  0.6422897E+01  0.2206663E+00  0.0000000E+00
Ar  2042  0.3028276E+02  0.8886055E+01  0.5316139E+02  0.0000000E+00
Ar  2043  0.3033035E+02  0.6138625E+01  0.2672909E+01  0.0000000E+00
Ar  2044  0.2764549E+02  0.9060138E+01  0.2709147E+01  0.0000000E+00
Ar  2045  0.2773665E+02  0.6361977E+01  0.5229892E+01  0.0000000E+00
Ar  2046  0.3039909E+02  0.8947549E+01  0.5244688E+01  0.0000000E+00
Ar  2047  0.3036078E+02  0.6280766E+01  0.8082988E+01  0.0000000E+00
Ar  2048  0.2783015E+02  0.9356126E+01  0.7894979E+01  0.0000000E+00
Ar  2049  0.2761124E+02  0.6424663E+01  0.1074337E+02  0.0000000E+00
Ar  2050  0.3060351E+02  0.9120759E+01  0.1078696E+02  0.0000000E+00
Ar  2051  0.3031968E+02  0.6305460E+01  0.1334864E+02  0.0000000E+00
Ar  2052  0.2752630E+02  0.9078066E+01  0.1349189E+02  0.0000000E+00
Ar  2053  0.2748580E+02  0.6363372E+01  0.1585333E+02  0.0000000E+00
Ar  2054  0.3037730E+02  0.8811348E+01  0.1600923E+02  0.0000000E+00
Ar  2055  0.3021797E+02  0.6416776E+01  0.1865108E+02  0.0000000E+00
Ar  2056  0.2762677E+02  0.9171522E+01  0.1855085E+02  0.0000000E+00
Ar  2057  0.2762139E+02  0.6393189E+01  0.2135558E+02  0.0000000E+00
Ar  2058  0.3034089E+02  0.9081706E+01  0.2111996E+02  0.0000000E+00
Ar  2059  0.3034070E+02  0.6229943E+01  0.2401812E+02  0.0000000E+00
Ar  2060  0.2769422E+02  0.9079682E+01  0.2381077E+02  0.0000000E+00
Ar  2061  0.2765148E+02  0.6438257E+01  0.2686807E+02  0.0000000E+00
Ar  2062  0.3021925E+02  0.9102346E+01  0.2666453E+02  0.0000000E+00
Ar  2063  0.3063161E+02  0.6363329E+01  0.2926838E+02  0.0000000E+00
Ar  2064  0.2742574E+02  0.9269339E+01  0.2935848E+02  0.0000000E+00
Ar  2065  0.2788547E+02  0.6378011E+01  0.3201676E+02  0.0000000E+00
Ar  2066  0.3034295E+02  0.9277443E+01  0.3201902E+02  0.0000000E+00
Ar  2067  0.3041353E+02  0.6405324E+01  0.3457686E+02  0.0000000E+00
Ar  2068  0.2769379E+02  0.9241485E+01  0.3443840E+02  0.0000000E+00
Ar  2069  0.2781998E+02  0.6342023E+01  0.3736148E+02  0.0000000E+00
Ar  2070  0.3034189E+02  0.8829624E+01  0.3726984E+02  0.0000000E+00
Ar  2071  0.3044536E+02  0.6393742E+01  0.3994222E+02  0.0000000E+00
Ar  2072  0.2740666E+02  0.8942303E+01  0.3977835E+02  0.0000000E+00
Ar  2073  0.2787591E+02  0.6542942E+01  0.4263573E+02  0.0000000E+00
Ar  2074  0.3051800E+02  0.8951428E+01  0.4266799E+02  0.0000000E+00
Ar  2075  0.3036777E+02  0.6533604E+01  0.4531238E+02  0.0000000E+00
Ar  2076  0.2776328E+02  0.9093531E+01  0.4555193E+02  0.0000000E+00
Ar  2077  0.2769178E+02  0.6339158E+01  0.4786340E+02  0.0000000E+00
Ar  2078  0.3033695E+02  0.9068809E+01  0.4789645E+02  0.0000000E+00
Ar  2079  0.3025438E+02  0.6379207E+01  0.5068222E+02  0.0000000E+00
Ar  2080  0.2767926E+02  0.8930462E+01  0.5055922E+02  0.0000000E+00
Ar  2081  0.2764179E+02  0.1141541E+02  0.8796980E-01  0.0000000E+00
Ar  2082  0.3032203E+02  0.1430400E+02  0.5307717E+02  0.0000000E+00
Ar  2083  0.3050280E+02  0.1155345E+02  0.2650003E+01  0.0000000E+00
Ar  2084  0.2764927E+02  0.1426922E+02  0.2684257E+01  0.0000000E+00
Ar  2085  0.2766426E+02  0.1160270E+02  0.5460450E+01  0.0000000E+00
Ar  2086  0.3019372E+02  0.1443797E+02  0.5133400E+01  0.0000000E+00
Ar  2087  0.3047051E+02  0.1164899E+02  0.7932924E+01  0.0000000E+00
Ar  2088  0.2755950E+02  0.1430832E+02  0.7927250E+01  0.0000000E+00
Ar  2089  0.2765551E+02  0.1168988E+02  0.1078574E+02  0.0000000E+00
Ar  2090  0.3021933E+02  0.1414291E+02  0.1067883E+02  0.0000000E+00
Ar  2091  0.3021765E+02  0.1171613E+02  0.1345550E+02  0.0000000E+00
Ar  2092  0.2758953E+02  0.1433821E+02  0.1343010E+02  0.0000000E+00
Ar  2093  0.2759028E+02  0.1169204E+02  0.1600478E+02  0.0000000E+00
Ar  2094  0.3017002E+02  0.1433055E+02  0.1611963E+02  0.0000000E+00
Ar  2095  0.3045761E+02  0.1160654E+02  0.1851071E+02  0.0000000E+00
Ar  2096  0.2781138E+02  0.1464799E+02  0.1866184E+02  0.0000000E+00
Ar  2097  0.2800710E+02  0.1162187E+02  0.2120950E+02  0.0000000E+00
Ar  2098  0.3041091E+02  0.1451221E+02  0.2133769E+02  0.0000000E+00
Ar  2099  0.3022919E+02  0.1185072E+02  0.2398069E+02  0.0000000E+00
Ar  2100  0.2772236E+02  0.1462262E+02  0.2398091E+02  0.0000000E+00
Ar  2101  0.2764754E+02  0.1165853E+02  0.2671692E+02  0.0000000E+00
Ar  2102  0.3043675E+02  0.1453486E+02  0.2650211E+02  0.0000000E+00
Ar  2103  0.3011930E+02  0.1173877E+02  0.2942453E+02  0.0000000E+00
Ar  2104  0.2733960E+02  0.1439849E+02  0.2929687E+02  0.0000000E+00
Ar  2105  0.2773353E+02  0.1212654E+02  0.3200711E+02  0.0000000E+00
Ar  2106  0.3036019E+02  0.1446119E+02  0.3214735E+02  0.0000000E+00
Ar  2107  0.3023386E+02  0.1183150E+02  0.3457521E+02  0.0000000E+00
Ar  2108  0.2767703E+02  0.1442248E+02  0.3478834E+02  0.0000000E+00
Ar  2109  0.2759507E+02  0.1180097E+02  0.3747489E+02  0.0000000E+00
Ar  2110  0.3040838E+02  0.1423257E+02  0.3731560E+02  0.0000000E+00
Ar  2111  0.3040317E+02  0.1166963E+02  0.4018790E+02  0.0000000E+00
Ar  2112  0.2760746E+02  0.1428666E+02  0.4003719E+02  0.0000000E+00
Ar  2113  0.2754169E+02  0.1156931E+02  0.4267908E+02  0.0000000E+00
Ar  2114  0.3039928E+02  0.1427079E+02  0.4262205E+02  0.0000000E+00
Ar  2115  0.3060482E+02  0.1149399E+02  0.4527343E+02  0.0000000E+00
Ar  2116  0.2793397E+02  0.1422687E+02  0.4512778E+02  0.0000000E+00
Ar  2117  0.2772477E+02  0.1171246E+02  0.4796344E+02  0.0000000E+00
Ar  2118  0.3074453E+02  0.1393336E+02  0.4796031E+02  0.0000000E+00
Ar  2119  0.3046811E+02  0.1163202E+02  0.5064768E+02  0.0000000E+00
Ar  2120  0.2799352E+02  0.1430619E+02  0.5054966E+02  0.0000000E+00
Ar  2121  0.2787097E+02  0.1693355E+02  0.4965353E-01  0.0000000E+00
Ar  2122  0.3043669E+02  0.1969610E+02  0.5315968E+02  0.0000000E+00
Ar  2123  0.3037980E+02  0.1677498E+02  0.2518102E+01  0.0000000E+00
Ar  2124  0.2760960E+02  0.1958733E+02  0.2584070E+01  0.0000000E+00
Ar  2125  0.2730991E+02  0.1695628E+02  0.5511482E+01  0.0000000E+00
Ar  2126  0.3011028E+02  0.1929366E+02  0.5231332E+01  0.0000000E+00
Ar  2127  0.3006230E+02  0.1685153E+02  0.7767051E+01  0.0000000E+00
Ar  2128  0.2752267E+02  0.1973077E+02  0.7974578E+01  0.0000000E+00
Ar  2129  0.2755491E+02  0.1691785E+02  0.1058360E+02  0.0000000E+00
Ar  2130  0.3048256E+02  0.1935786E+02  0.1032658E+02  0.0000000E+00
Ar  2131  0.3007724E+02  0.1693066E+02  0.1315984E+02  0.0000000E+00
Ar  2132  0.2763753E+02  0.1989621E+02  0.1341100E+02  0.0000000E+00
Ar  2133  0.2780783E+02  0.1704119E+02  0.1572024E+02  0.0000000E+00
Ar  2134  0.3040894E+02  0.1994040E+02  0.1584003E+02  0.0000000E+00
Ar  2135  0.3020197E+02  0.1725814E+02  0.1839793E+02  0.0000000E+00
Ar  2136  0.2764723E+02  0.1994709E+02  0.1842147E+02  0.0000000E+00
Ar  2137  0.2759073E+02  0.1728429E+02  0.2154907E+02  0.0000000E+00
Ar  2138  0.3030882E+02  0.1973555E+02  0.2104198E+02  0.0000000E+00
Ar  2139  0.3063092E+02  0.1717207E+02  0.2398906E+02  0.0000000E+00
Ar  2140  0.2786391E+02  0.1974361E+02  0.2397247E+02  0.0000000E+00
Ar  2141  0.2766368E+02  0.1704624E+02  0.2628951E+02  0.0000000E+00
Ar  2142  0.3067218E+02  0.1964567E+02  0.2663221E+02  0.0000000E+00
Ar  2143  0.3039274E+02  0.1689713E+02  0.2915065E+02  0.0000000E+00
Ar  2144  0.2791909E+02  0.1961477E+02  0.2917780E+02  0.0000000E+00
Ar  2145  0.2764302E+02  0.1696572E+02  0.3189042E+02  0.0000000E+00
Ar  2146  0.3033912E+02  0.1939108E+02  0.3215966E+02  0.0000000E+00
Ar  2147  0.3026226E+02  0.1685714E+02  0.3489137E+02  0.0000000E+00
Ar  2148  0.2745207E+02  0.1953382E+02  0.3467209E+02  0.0000000E+00
Ar  2149  0.2762553E+02  0.1687104E+02  0.3742929E+02  0.0000000E+00
Ar  2150  0.3023833E+02  0.1950970E+02  0.3757827E+02  0.0000000E+00
Ar  2151  0.3055797E+02  0.1672069E+02  0.3981974E+02  0.0000000E+00
Ar  2152  0.2799226E+02  0.1921642E+02  0.4010591E+02  0.0000000E+00
Ar  2153  0.2763490E+02  0.1697142E+02  0.4281548E+02  0.0000000E+00
Ar  2154  0.3036374E+02  0.1973440E+02  0.4265202E+02  0.0000000E+00
Ar  2155  0.3041189E+02  0.1687047E+02  0.4537894E+02  0.0000000E+00
Ar  2156  0.2747543E+02  0.1940291E+02  0.4556264E+02  0.0000000E+00
Ar  2157  0.2804841E+02  0.1660108E+02  0.4790603E+02  0.0000000E+00
Ar  2158  0.3035997E+02  0.1959650E+02  0.4789133E+02  0.0000000E+00
Ar  2159  0.3048486E+02  0.1696137E+02  0.5072838E+02  0.0000000E+00
Ar  2160  0.2779603E+02  0.1955359E+02  0.5053578E+02  0.0000000E+00
Ar  2161  0.2773252E+02  0.2218781E+02  0.5318288E+02  0.0000000E+00
Ar  2162  0.3008191E+02  0.2492543E+02  0.1268743E+00  0.0000000E+00
Ar  2163  0.3016219E+02  0.2239826E+02  0.2724628E+01  0.0000000E+00
Ar  2164  0.2773566E+02  0.2471967E+02  0.2669227E+01  0.0000000E+00
Ar  2165  0.2750533E+02  0.2222102E+02  0.5190571E+01  0.0000000E+00
Ar  2166  0.3030898E+02  0.2484427E+02  0.5675671E+01  0.0000000E+00
Ar  2167  0.2983444E+02  0.2232251E+02  0.8245218E+01  0.0000000E+00
Ar  2168  0.2753924E+02  0.2493772E+02  0.7987451E+01  0.0000000E+00
Ar  2169  0.2732667E+02  0.2229633E+02  0.1062448E+02  0.0000000E+00
Ar  2170  0.3023477E+02  0.2493143E+02  0.1092110E+02  0.0000000E+00
Ar  2171  0.3038637E+02  0.2252094E+02  0.1365930E+02  0.0000000E+00
Ar  2172  0.2753955E+02  0.2499186E+02  0.1327864E+02  0.0000000E+00
Ar  2173  0.2776444E+02  0.2256376E+02  0.1615486E+02  0.0000000E+00
Ar  2174  0.3049184E+02  0.2511545E+02  0.1609755E+02  0.0000000E+00
Ar  2175  0.3035216E+02  0.2250414E+02  0.1855190E+02  0.0000000E+00
Ar  2176  0.2765620E+02  0.2494891E+02  0.1885817E+02  0.0000000E+00
Ar  2177  0.2740647E+02  0.2221424E+02  0.2121498E+02  0.0000000E+00
Ar  2178  0.3027238E+02  0.2490125E+02  0.2150101E+02  0.0000000E+00
Ar  2179  0.3041055E+02  0.2214330E+02  0.2407647E+02  0.0000000E+00
Ar  2180  0.2763154E+02  0.2502188E+02  0.2415442E+02  0.0000000E+00
Ar  2181  0.2779247E+02  0.2208505E+02  0.2656343E+02  0.0000000E+00
Ar  2182  0.3034791E+02  0.2501918E+02  0.2656926E+02  0.0000000E+00
Ar  2183  0.3050264E+02  0.2228731E+02  0.2913797E+02  0.0000000E+00
Ar  2184  0.2766799E+02  0.2476415E+02  0.2912439E+02  0.0000000E+00
Ar  2185  0.2759812E+02  0.2241770E+02  0.3186853E+02  0.0000000E+00
Ar  2186  0.3005849E+02  0.2502402E+02  0.3198152E+02  0.0000000E+00
Ar  2187  0.3015960E+02  0.2212382E+02  0.3463816E+02  0.0000000E+00
Ar  2188  0.2762923E+02  0.2474883E+02  0.3457608E+02  0.0000000E+00
Ar  2189  0.2761293E+02  0.2227417E+02  0.3727192E+02  0.0000000E+00
Ar  2190  0.3010987E+02  0.2477577E+02  0.3735863E+02  0.0000000E+00
Ar  2191  0.3036724E+02  0.2227946E+02  0.4013966E+02  0.0000000E+00
Ar  2192  0.2776417E+02  0.2487389E+02  0.4002199E+02  0.0000000E+00
Ar  2193  0.2775551E+02  0.2222990E+02  0.4272548E+02  0.0000000E+00
Ar  2194  0.3049078E+02  0.2486226E+02  0.4272931E+02  0.0000000E+00
Ar  2195  0.3033257E+02  0.2231969E+02  0.4541505E+02  0.0000000E+00
Ar  2196  0.2796500E+02  0.2488440E+02  0.4552044E+02  0.0000000E+00
Ar  2197  0.2762983E+02  0.2247040E+02  0.4838882E+02  0.0000000E+00
Ar  2198  0.3022619E+02  0.2469825E+02  0.4814420E+02  0.0000000E+00
Ar  2199  0.3054071E+02  0.2221745E+02  0.5071645E+02  0.0000000E+00
Ar  2200  0.2738783E+02  0.2514405E+02  0.5086967E+02  0.0000000E+00
Ar  2201  0.2762697E+02  0.2744103E+02  0.4145939E-01  0.0000000E+00
Ar  2202  0.3061135E+02  0.3019809E+02  0.6185456E-01  0.0000000E+00
Ar  2203  0.3033367E+02  0.2754310E+02  0.2833370E+01  0.0000000E+00
Ar  2204  0.2780233E+02  0.3000830E+02  0.2595653E+01  0.0000000E+00
Ar  2205  0.2755440E+02  0.2742390E+02  0.5085254E+01  0.0000000E+00
Ar  2206  0.3050659E+02  0.3017438E+02  0.5433525E+01  0.0000000E+00
Ar  2207  0.3024304E+02  0.2746795E+02  0.7854492E+01  0.0000000E+00
Ar  2208  0.2777312E+02  0.3021517E+02  0.8016660E+01  0.0000000E+00
Ar  2209  0.2757370E+02  0.2766053E+02  0.1038228E+02  0.0000000E+00
Ar  2210  0.3040401E+02  0.3015036E+02  0.1078077E+02  0.0000000E+00
Ar  2211  0.3011532E+02  0.2772339E+02  0.1345141E+02  0.0000000E+00
Ar  2212  0.2759471E+02  0.3015356E+02  0.1315352E+02  0.0000000E+00
Ar  2213  0.2776364E+02  0.2762897E+02  0.1625855E+02  0.0000000E+00
Ar  2214  0.3042932E+02  0.3037589E+02  0.1603593E+02  0.0000000E+00
Ar  2215  0.3064139E+02  0.2787818E+02  0.1890396E+02  0.0000000E+00
Ar  2216  0.2765069E+02  0.3028295E+02  0.1875990E+02  0.0000000E+00
Ar  2217  0.2790041E+02  0.2793369E+02  0.2150097E+02  0.0000000E+00
Ar  2218  0.3047506E+02  0.3062679E+02  0.2122931E+02  0.0000000E+00
Ar  2219  0.3031154E+02  0.2782499E+02  0.2410449E+02  0.0000000E+00
Ar  2220  0.2769179E+02  0.3029808E+02  0.2414715E+02  0.0000000E+00
Ar  2221  0.2773110E+02  0.2770035E+02  0.2667026E+02  0.0000000E+00
Ar  2222  0.3018458E+02  0.3034639E+02  0.2680411E+02  0.0000000E+00
Ar  2223  0.3035930E+02  0.2742818E+02  0.2944462E+02  0.0000000E+00
Ar  2224  0.2779816E+02  0.3046436E+02  0.2948029E+02  0.0000000E+00
Ar  2225  0.2784355E+02  0.2757663E+02  0.3203166E+02  0.0000000E+00
Ar  2226  0.3053590E+02  0.3018912E+02  0.3206612E+02  0.0000000E+00
Ar  2227  0.3027979E+02  0.2763526E+02  0.3486602E+02  0.0000000E+00
Ar  2228  0.2740048E+02  0.3047436E+02  0.3455228E+02  0.0000000E+00
Ar  2229  0.2768825E+02  0.2755249E+02  0.3736186E+02  0.0000000E+00
Ar  2230  0.3014425E+02  0.3047766E+02  0.3728529E+02  0.0000000E+00
Ar  2231  0.3048941E+02  0.2751678E+02  0.4015875E+02  0.0000000E+00
Ar  2232  0.2789033E+02  0.3007761E+02  0.3988268E+02  0.0000000E+00
Ar  2233  0.2786271E+02  0.2766799E+02  0.4282184E+02  0.0000000E+00
Ar  2234  0.3051489E+02  0.3010261E+02  0.4276310E+02  0.0000000E+00
Ar  2235  0.3037340E+02  0.2743575E+02  0.4569556E+02  0.0000000E+00
Ar  2236  0.2800543E+02  0.3031656E+02  0.4536301E+02  0.0000000E+00
Ar  2237  0.2773072E+02  0.2771316E+02  0.4809194E+02  0.0000000E+00
Ar  2238  0.3062432E+02  0.3033535E+02  0.4794615E+02  0.0000000E+00
Ar  2239  0.3035853E+02  0.2742492E+02  0.5074751E+02  0.0000000E+00
Ar  2240  0.2776525E+02  0.3018316E+02  0.5086881E+02  0.0000000E+00
Ar  2241  0.2770917E+02  0.3304051E+02  0.9292735E-01  0.0000000E+00
Ar  2242  0.3019497E+02  0.3555556E+02  0.5294798E+02  0.0000000E+00
Ar  2243  0.3029569E+02  0.3281897E+02  0.2531058E+01  0.0000000E+00
Ar  2244  0.2794435E+02  0.3562666E+02  0.2872763E+01  0.0000000E+00
Ar  2245  0.2778314E+02  0.3302296E+02  0.5514950E+01  0.0000000E+00
Ar  2246  0.3035752E+02  0.3549937E+02  0.5609007E+01  0.0000000E+00
Ar  2247  0.3020717E+02  0.3305833E+02  0.8210045E+01  0.0000000E+00
Ar  2248  0.2764035E+02  0.3562846E+02  0.8127356E+01  0.0000000E+00
Ar  2249  0.2766368E+02  0.3288487E+02  0.1088127E+02  0.0000000E+00
Ar  2250  0.3047901E+02  0.3550595E+02  0.1090310E+02  0.0000000E+00
Ar  2251  0.3038638E+02  0.3278372E+02  0.1346163E+02  0.0000000E+00
Ar  2252  0.2758153E+02  0.3560885E+02  0.1327244E+02  0.0000000E+00
Ar  2253  0.2753404E+02  0.3301664E+02  0.1592877E+02  0.0000000E+00
Ar  2254  0.3012894E+02  0.3553291E+02  0.1605396E+02  0.0000000E+00
Ar  2255  0.3009672E+02  0.3304316E+02  0.1845221E+02  0.0000000E+00
Ar  2256  0.2767005E+02  0.3560211E+02  0.1836724E+02  0.0000000E+00
Ar  2257  0.2758826E+02  0.3320755E+02  0.2111691E+02  0.0000000E+00
Ar  2258  0.3062084E+02  0.3557416E+02  0.2123369E+02  0.0000000E+00
Ar  2259  0.3034013E+02  0.3298998E+02  0.2402394E+02  0.0000000E+00
Ar  2260  0.2774711E+02  0.3566920E+02  0.2387939E+02  0.0000000E+00
Ar  2261  0.2768975E+02  0.3305751E+02  0.2673667E+02  0.0000000E+00
Ar  2262  0.3050207E+02  0.3568873E+02  0.2646922E+02  0.0000000E+00
Ar  2263  0.3053136E+02  0.3309212E+02  0.2935788E+02  0.0000000E+00
Ar  2264  0.2764953E+02  0.3557097E+02  0.2944566E+02  0.0000000E+00
Ar  2265  0.2756171E+02  0.3307021E+02  0.3172244E+02  0.0000000E+00
Ar  2266  0.3043226E+02  0.3573361E+02  0.3207312E+02  0.0000000E+00
Ar  2267  0.3013883E+02  0.3315591E+02  0.3476700E+02  0.0000000E+00
Ar  2268  0.2780440E+02  0.3584013E+02  0.3480054E+02  0.0000000E+00
Ar  2269  0.2765667E+02  0.3285674E+02  0.3748034E+02  0.0000000E+00
Ar  2270  0.3023423E+02  0.3555220E+02  0.3725340E+02  0.0000000E+00
Ar  2271  0.3030562E+02  0.3307378E+02  0.3994698E+02  0.0000000E+00
Ar  2272  0.2746977E+02  0.3540657E+02  0.4003493E+02  0.0000000E+00
Ar  2273  0.2751759E+02  0.3286471E+02  0.4254441E+02  0.0000000E+00
Ar  2274  0.3021825E+02  0.3569964E+02  0.4282348E+02  0.0000000E+00
Ar  2275  0.3060624E+02  0.3279648E+02  0.4518133E+02  0.0000000E+00
Ar  2276  0.2767877E+02  0.3570728E+02  0.4528482E+02  0.0000000E+00
Ar  2277  0.2766593E+02  0.3287187E+02  0.4783891E+02  0.0000000E+00
Ar  2278  0.3053147E+02  0.3549481E+02  0.4783122E+02  0.0000000E+00
Ar  2279  0.3041123E+02  0.3286134E+02  0.5065134E+02  0.0000000E+00
Ar  2280  0.2768558E+02  0.3572639E+02  0.5041768E+02  0.0000000E+00
Ar  2281  0.2772796E+02  0.3819791E+02  0.4425323E-01  0.0000000E+00
Ar  2282  0.3035343E+02  0.4092722E+02  0.7883209E-01  0.0000000E+00
Ar  2283  0.3044143E+02  0.3831383E+02  0.2722664E+01  0.0000000E+00
Ar  2284  0.2766739E+02  0.4089977E+02  0.2390833E+01  0.0000000E+00
Ar  2285  0.2763330E+02  0.3822463E+02  0.5326677E+01  0.0000000E+00
Ar  2286  0.3000890E+02  0.4077127E+02  0.5180262E+01  0.0000000E+00
Ar  2287  0.3030022E+02  0.3835078E+02  0.7939491E+01  0.0000000E+00
Ar  2288  0.2781049E+02  0.4097008E+02  0.7830687E+01  0.0000000E+00
Ar  2289  0.2760899E+02  0.3849271E+02  0.1052038E+02  0.0000000E+00
Ar  2290  0.3043917E+02  0.4094078E+02  0.1068326E+02  0.0000000E+00
Ar  2291  0.3029974E+02  0.3824941E+02  0.1327878E+02  0.0000000E+00
Ar  2292  0.2729687E+02  0.4078388E+02  0.1321623E+02  0.0000000E+00
Ar  2293  0.2768007E+02  0.3834862E+02  0.1593846E+02  0.0000000E+00
Ar  2294  0.3019626E+02  0.4069400E+02  0.1622870E+02  0.0000000E+00
Ar  2295  0.3035498E+02  0.3820448E+02  0.1886312E+02  0.0000000E+00
Ar  2296  0.2772016E+02  0.4093901E+02  0.1878861E+02  0.0000000E+00
Ar  2297  0.2783944E+02  0.3827882E+02  0.2121677E+02  0.0000000E+00
Ar  2298  0.3029536E+02  0.4095964E+02  0.2139270E+02  0.0000000E+00
Ar  2299  0.3037626E+02  0.3825809E+02  0.2382405E+02  0.0000000E+00
Ar  2300  0.2754903E+02  0.4105163E+02  0.2401490E+02  0.0000000E+00
Ar  2301  0.2786543E+02  0.3827329E+02  0.2661396E+02  0.0000000E+00
Ar  2302  0.3038669E+02  0.4113319E+02  0.2650042E+02  0.0000000E+00
Ar  2303  0.3035941E+02  0.3836321E+02  0.2945767E+02  0.0000000E+00
Ar  2304  0.2781875E+02  0.4100399E+02  0.2954567E+02  0.0000000E+00
Ar  2305  0.2781902E+02  0.3840881E+02  0.3174990E+02  0.0000000E+00
Ar  2306  0.3039942E+02  0.4093555E+02  0.3206024E+02  0.0000000E+00
Ar  2307  0.3051203E+02  0.3838204E+02  0.3443795E+02  0.0000000E+00
Ar  2308  0.2809307E+02  0.4101304E+02  0.3473770E+02  0.0000000E+00
Ar  2309  0.2790150E+02  0.3833559E+02  0.3743187E+02  0.0000000E+00
Ar  2310  0.3044575E+02  0.4099911E+02  0.3736431E+02  0.0000000E+00
Ar  2311  0.3049539E+02  0.3824913E+02  0.3987358E+02  0.0000000E+00
Ar  2312  0.2751674E+02  0.4103005E+02  0.4002212E+02  0.0000000E+00
Ar  2313  0.2795340E+02  0.3827196E+02  0.4275565E+02  0.0000000E+00
Ar  2314  0.3058875E+02  0.4075537E+02  0.4257932E+02  0.0000000E+00
Ar  2315  0.3057997E+02  0.3846934E+02  0.4532378E+02  0.0000000E+00
Ar  2316  0.2771533E+02  0.4107089E+02  0.4526339E+02  0.0000000E+00
Ar  2317  0.2772022E+02  0.3811837E+02  0.4783477E+02  0.0000000E+00
Ar  2318  0.3041024E+02  0.4087851E+02  0.4803391E+02  0.0000000E+00
Ar  2319  0.3031098E+02  0.3839059E+02  0.5076792E+02  0.0000000E+00
Ar  2320  0.2762509E+02  0.4101271E+02  0.5053589E+02  0.0000000E+00
Ar  2321  0.2771574E+02  0.4373335E+02  0.9341979E-01  0.0000000E+00
Ar  2322  0.3034951E+02  0.4637854E+02  0.8604850E-01  0.0000000E+00
Ar  2323  0.3052017E+02  0.4365921E+02  0.2626356E+01  0.0000000E+00
Ar  2324  0.2758332E+02  0.4621162E+02  0.2739290E+01  0.0000000E+00
Ar  2325  0.2765245E+02  0.4359869E+02  0.5213552E+01  0.0000000E+00
Ar  2326  0.3000999E+02  0.4624982E+02  0.5489761E+01  0.0000000E+00
Ar  2327  0.3030883E+02  0.4360182E+02  0.8389584E+01  0.0000000E+00
Ar  2328  0.2758229E+02  0.4604503E+02  0.8273446E+01  0.0000000E+00
Ar  2329  0.2756556E+02  0.4341121E+02  0.1068000E+02  0.0000000E+00
Ar  2330  0.3030329E+02  0.4646849E+02  0.1059934E+02  0.0000000E+00
Ar  2331  0.3036988E+02  0.4330541E+02  0.1324964E+02  0.0000000E+00
Ar  2332  0.2773630E+02  0.4630946E+02  0.1340996E+02  0.0000000E+00
Ar  2333  0.2773646E+02  0.4359816E+02  0.1613984E+02  0.0000000E+00
Ar  2334  0.3040000E+02  0.4615780E+02  0.1613017E+02  0.0000000E+00
Ar  2335  0.3007655E+02  0.4347991E+02  0.1863265E+02  0.0000000E+00
Ar  2336  0.2765338E+02  0.4623504E+02  0.1845534E+02  0.0000000E+00
Ar  2337  0.2775534E+02  0.4379930E+02  0.2141402E+02  0.0000000E+00
Ar  2338  0.3066834E+02  0.4614603E+02  0.2142815E+02  0.0000000E+00
Ar  2339  0.3021398E+02  0.4359475E+02  0.2395103E+02  0.0000000E+00
Ar  2340  0.2797216E+02  0.4626943E+02  0.2411962E+02  0.0000000E+00
Ar  2341  0.2764923E+02  0.4371156E+02  0.2671240E+02  0.0000000E+00
Ar  2342  0.3042686E+02  0.4613641E+02  0.2674507E+02  0.0000000E+00
Ar  2343  0.3023340E+02  0.4349843E+02  0.2935095E+02  0.0000000E+00
Ar  2344  0.2766464E+02  0.4636219E+02  0.2910339E+02  0.0000000E+00
Ar  2345  0.2795763E+02  0.4359713E+02  0.3219340E+02  0.0000000E+00
Ar  2346  0.3059273E+02  0.4638127E+02  0.3180726E+02  0.0000000E+00
Ar  2347  0.3048840E+02  0.4350481E+02  0.3469690E+02  0.0000000E+00
Ar  2348  0.2802361E+02  0.4637929E+02  0.3453164E+02  0.0000000E+00
Ar  2349  0.2771106E+02  0.4386398E+02  0.3725975E+02  0.0000000E+00
Ar  2350  0.3047535E+02  0.4664504E+02  0.3742342E+02  0.0000000E+00
Ar  2351  0.3064389E+02  0.4356688E+02  0.4000607E+02  0.0000000E+00
Ar  2352  0.2796190E+02  0.4624258E+02  0.4007484E+02  0.0000000E+00
Ar  2353  0.2765606E+02  0.4358123E+02  0.4258807E+02  0.0000000E+00
Ar  2354  0.3060214E+02  0.4657135E+02  0.4283390E+02  0.0000000E+00
Ar  2355  0.3042966E+02  0.4354075E+02  0.4519287E+02  0.0000000E+00
Ar  2356  0.2773404E+02  0.4628206E+02  0.4539955E+02  0.0000000E+00
Ar  2357  0.2803719E+02  0.4365466E+02  0.4785840E+02  0.0000000E+00
Ar  2358  0.3057145E+02  0.4648464E+02  0.4798090E+02  0.0000000E+00
Ar  2359  0.3029423E+02  0.4360259E+02  0.5060985E+02  0.0000000E+00
Ar  2360  0.2758520E+02  0.4646702E+02  0.5051959E+02  0.0000000E+00
Ar  2361  0.2742119E+02  0.4888946E+02  0.1362195E+00  0.0000000E+00
Ar  2362  0.3041655E+02  0.5144024E+02  0.5301574E+02  0.0000000E+00
Ar  2363  0.3013494E+02  0.4899316E+02  0.2993872E+01  0.0000000E+00
Ar  2364  0.2758635E+02  0.5176233E+02  0.2656914E+01  0.0000000E+00
Ar  2365  0.2740716E+02  0.4888275E+02  0.5409105E+01  0.0000000E+00
Ar  2366  0.3025885E+02  0.5145104E+02  0.5729205E+01  0.0000000E+00
Ar  2367  0.3032984E+02  0.4890104E+02  0.8014576E+01  0.0000000E+00
Ar  2368  0.2755043E+02  0.5154755E+02  0.8197633E+01  0.0000000E+00
Ar  2369  0.2764974E+02  0.4888003E+02  0.1090349E+02  0.0000000E+00
Ar  2370  0.3024153E+02  0.5138409E+02  0.1077249E+02  0.0000000E+00
Ar  2371  0.3044994E+02  0.4881073E+02  0.1352122E+02  0.0000000E+00
Ar  2372  0.2777433E+02  0.5145957E+02  0.1349453E+02  0.0000000E+00
Ar  2373  0.2785352E+02  0.4891624E+02  0.1617481E+02  0.0000000E+00
Ar  2374  0.3039259E+02  0.5172789E+02  0.1628124E+02  0.0000000E+00
Ar  2375  0.3055909E+02  0.4885207E+02  0.1889238E+02  0.0000000E+00
Ar  2376  0.2781466E+02  0.5153991E+02  0.1886331E+02  0.0000000E+00
Ar  2377  0.2797379E+02  0.4881202E+02  0.2133699E+02  0.0000000E+00
Ar  2378  0.3020980E+02  0.5169837E+02  0.2149875E+02  0.0000000E+00
Ar  2379  0.3034944E+02  0.4894911E+02  0.2438469E+02  0.0000000E+00
Ar  2380  0.2755539E+02  0.5156402E+02  0.2377020E+02  0.0000000E+00
Ar  2381  0.2748736E+02  0.4911328E+02  0.2665674E+02  0.0000000E+00
Ar  2382  0.3001935E+02  0.5189841E+02  0.2642913E+02  0.0000000E+00
Ar  2383  0.3067812E+02  0.4890893E+02  0.2934915E+02  0.0000000E+00
Ar  2384  0.2799307E+02  0.5154379E+02  0.2947010E+02  0.0000000E+00
Ar  2385  0.2780087E+02  0.4882205E+02  0.3185140E+02  0.0000000E+00
Ar  2386  0.3046883E+02  0.5169759E+02  0.3194121E+02  0.0000000E+00
Ar  2387  0.3052454E+02  0.4901275E+02  0.3457670E+02  0.0000000E+00
Ar  2388  0.2762347E+02  0.5150593E+02  0.3457545E+02  0.0000000E+00
Ar  2389  0.2764623E+02  0.4883881E+02  0.3730308E+02  0.0000000E+00
Ar  2390  0.3030163E+02  0.5163653E+02  0.3726668E+02  0.0000000E+00
Ar  2391  0.3024853E+02  0.4898136E+02  0.4003973E+02  0.0000000E+00
Ar  2392  0.2766609E+02  0.5170081E+02  0.3980651E+02  0.0000000E+00
Ar  2393  0.2759674E+02  0.4885072E+02  0.4278670E+02  0.0000000E+00
Ar  2394  0.3059472E+02  0.5142580E+02  0.4248650E+02  0.0000000E+00
Ar  2395  0.3030916E+02  0.4895443E+02  0.4526040E+02  0.0000000E+00
Ar  2396  0.2780185E+02  0.5163184E+02  0.4543483E+02  0.0000000E+00
Ar  2397  0.2767574E+02  0.4903663E+02  0.4773272E+02  0.0000000E+00
Ar  2398  0.3058755E+02  0.5142642E+02  0.4789032E+02  0.0000000E+00
Ar  2399  0.3024793E+02  0.4885991E+02  0.5053951E+02  0.0000000E+00
Ar  2400  0.2781758E+02  0.5168340E+02  0.5058524E+02  0.0000000E+00
Ar  2401  0.3296071E+02  0.7024187E+00  0.4571466E-01  0.0000000E+00
Ar  2402  0.3561570E+02  0.3684984E+01  0.9902687E-01  0.0000000E+00
Ar  2403  0.3559561E+02  0.8931852E+00  0.2560224E+01  0.0000000E+00
Ar  2404  0.3285270E+02  0.3539280E+01  0.2601213E+01  0.0000000E+00
Ar  2405  0.3283130E+02  0.6595570E+00  0.5558321E+01  0.0000000E+00
Ar  2406  0.3528393E+02  0.3281175E+01  0.5542517E+01  0.0000000E+00
Ar  2407  0.3564592E+02  0.9460877E+00  0.8045085E+01  0.0000000E+00
Ar  2408  0.3278564E+02  0.3631259E+01  0.7870279E+01  0.0000000E+00
Ar  2409  0.3297334E+02  0.9305039E+00  0.1038139E+02  0.0000000E+00
Ar  2410  0.3553250E+02  0.3720875E+01  0.1058733E+02  0.0000000E+00
Ar  2411  0.3555434E+02  0.1079599E+01  0.1335274E+02  0.0000000E+00
Ar  2412  0.3299104E+02  0.3483418E+01  0.1332204E+02  0.0000000E+00
Ar  2413  0.3309539E+02  0.9207426E+00  0.1621005E+02  0.0000000E+00
Ar  2414  0.3573561E+02  0.3865716E+01  0.1582862E+02  0.0000000E+00
Ar  2415  0.3583327E+02  0.1041271E+01  0.1862136E+02  0.0000000E+00
Ar  2416  0.3330446E+02  0.3678963E+01  0.1861738E+02  0.0000000E+00
Ar  2417  0.3319563E+02  0.9703233E+00  0.2120400E+02  0.0000000E+00
Ar  2418  0.3588072E+02  0.3498993E+01  0.2135370E+02  0.0000000E+00
Ar  2419  0.3576823E+02  0.1048436E+01  0.2398105E+02  0.0000000E+00
Ar  2420  0.3328076E+02  0.3745087E+01  0.2398144E+02  0.0000000E+00
Ar  2421  0.3312216E+02  0.1148678E+01  0.2647985E+02  0.0000000E+00
Ar  2422  0.3570650E+02  0.3783829E+01  0.2675751E+02  0.0000000E+00
Ar  2423  0.3564965E+02  0.9873870E+00  0.2924339E+02  0.0000000E+00
Ar  2424  0.3307494E+02  0.3763474E+01  0.2961054E+02  0.0000000E+00
Ar  2425  0.3309914E+02  0.1015127E+01  0.3210196E+02  0.0000000E+00
Ar  2426  0.3605730E+02  0.3820266E+01  0.3205890E+02  0.0000000E+00
Ar  2427  0.3580801E+02  0.9837148E+00  0.3444209E+02  0.0000000E+00
Ar  2428  0.3324612E+02  0.3679784E+01  0.3442206E+02  0.0000000E+00
Ar  2429  0.3301952E+02  0.1126336E+01  0.3719615E+02  0.0000000E+00
Ar  2430  0.3572362E+02  0.3704208E+01  0.3711480E+02  0.0000000E+00
Ar  2431  0.3575281E+02  0.1127499E+01  0.3963201E+02  0.0000000E+00
Ar  2432  0.3318076E+02  0.3849426E+01  0.3973202E+02  0.0000000E+00
Ar  2433  0.3319754E+02  0.9155522E+00  0.4246513E+02  0.0000000E+00
Ar  2434  0.3575890E+02  0.3858504E+01  0.4273354E+02  0.0000000E+00
Ar  2435  0.3583542E+02  0.9570684E+00  0.4520966E+02  0.0000000E+00
Ar  2436  0.3305135E+02  0.3673212E+01  0.4497417E+02  0.0000000E+00
Ar  2437  0.3301608E+02  0.9733557E+00  0.4803612E+02  0.0000000E+00
Ar  2438  0.3558346E+02  0.3563645E+01  0.4801511E+02  0.0000000E+00
Ar  2439  0.3551460E+02  0.9592249E+00  0.5049975E+02  0.0000000E+00
Ar  2440  0.3299167E+02  0.3793792E+01  0.5060508E+02  0.0000000E+00
Ar  2441  0.3280574E+02  0.6299666E+01  0.5303047E+02  0.0000000E+00
Ar  2442  0.3560786E+02  0.8704585E+01  0.5304939E+02  0.0000000E+00
Ar  2443  0.3537623E+02  0.6317512E+01  0.2686746E+01  0.0000000E+00
Ar  2444  0.3291677E+02  0.8838813E+01  0.2617757E+01  0.0000000E+00
Ar  2445  0.3284373E+02  0.6042059E+01  0.5454190E+01  0.0000000E+00
Ar  2446  0.3548296E+02  0.8836771E+01  0.5253745E+01  0.0000000E+00
Ar  2447  0.3571966E+02  0.6211053E+01  0.7941289E+01  0.0000000E+00
Ar  2448  0.3300451E+02  0.8916025E+01  0.7845569E+01  0.0000000E+00
Ar  2449  0.3286032E+02  0.6151100E+01  0.1076231E+02  0.0000000E+00
Ar  2450  0.3553626E+02  0.8812193E+01  0.1065473E+02  0.0000000E+00
Ar  2451  0.3540218E+02  0.6408638E+01  0.1319941E+02  0.0000000E+00
Ar  2452  0.3302166E+02  0.9126389E+01  0.1328209E+02  0.0000000E+00
Ar  2453  0.3303455E+02  0.6072759E+01  0.1600186E+02  0.0000000E+00
Ar  2454  0.3566643E+02  0.9076047E+01  0.1584557E+02  0.0000000E+00
Ar  2455  0.3577156E+02  0.6406865E+01  0.1884352E+02  0.0000000E+00
Ar  2456  0.3312145E+02  0.8927279E+01  0.1860632E+02  0.0000000E+00
Ar  2457  0.3298396E+02  0.6288497E+01  0.2131250E+02  0.0000000E+00
Ar  2458  0.3553090E+02  0.9073637E+01  0.2149175E+02  0.0000000E+00
Ar  2459  0.3604043E+02  0.6373708E+01  0.2412657E+02  0.0000000E+00
Ar  2460  0.3274573E+02  0.9142191E+01  0.2401352E+02  0.0000000E+00
Ar  2461  0.3323920E+02  0.6447854E+01  0.2653148E+02  0.0000000E+00
Ar  2462  0.3560201E+02  0.8895008E+01  0.2652363E+02  0.0000000E+00
Ar  2463  0.3553479E+02  0.6416707E+01  0.2930546E+02  0.0000000E+00
Ar  2464  0.3286860E+02  0.9001129E+01  0.2942186E+02  0.0000000E+00
Ar  2465  0.3305002E+02  0.6438450E+01  0.3219279E+02  0.0000000E+00
Ar  2466  0.3561270E+02  0.8950735E+01  0.3200897E+02  0.0000000E+00
Ar  2467  0.3596079E+02  0.6465348E+01  0.3472458E+02  0.0000000E+00
Ar  2468  0.3288752E+02  0.9104415E+01  0.3467515E+02  0.0000000E+00
Ar  2469  0.3315562E+02  0.6400407E+01  0.3703837E+02  0.0000000E+00
Ar  2470  0.3586802E+02  0.8923816E+01  0.3720560E+02  0.0000000E+00
Ar  2471  0.3586442E+02  0.6435512E+01  0.3993830E+02  0.0000000E+00
Ar  2472  0.3323334E+02  0.9013118E+01  0.3990227E+02  0.0000000E+00
Ar  2473  0.3313275E+02  0.6422543E+01  0.4273951E+02  0.0000000E+00
Ar  2474  0.3574980E+02  0.8951058E+01  0.4250085E+02  0.0000000E+00
Ar  2475  0.3580422E+02  0.6480031E+01  0.4543155E+02  0.0000000E+00
Ar  2476  0.3321506E+02  0.8913805E+01  0.4545715E+02  0.0000000E+00
Ar  2477  0.3307044E+02  0.6432721E+01  0.4793591E+02  0.0000000E+00
Ar  2478  0.3569970E+02  0.8894424E+01  0.4815872E+02  0.0000000E+00
Ar  2479  0.3568811E+02  0.6208353E+01  0.5061313E+02  0.0000000E+00
Ar  2480  0.3297504E+02  0.8988054E+01  0.5053020E+02  0.0000000E+00
Ar  2481  0.3329122E+02  0.1163159E+02  0.5285763E+02  0.0000000E+00
Ar  2482  0.3567971E+02  0.1426998E+02  0.5320043E+02  0.0000000E+00
Ar  2483  0.3563868E+02  0.1131854E+02  0.2526913E+01  0.0000000E+00
Ar  2484  0.3308719E+02  0.1407000E+02  0.2509912E+01  0.0000000E+00
Ar  2485  0.3297741E+02  0.1191084E+02  0.5294400E+01  0.0000000E+00
Ar  2486  0.3548134E+02  0.1449565E+02  0.5212551E+01  0.0000000E+00
Ar  2487  0.3550758E+02  0.1168808E+02  0.8063256E+01  0.0000000E+00
Ar  2488  0.3297719E+02  0.1449955E+02  0.8096653E+01  0.0000000E+00
Ar  2489  0.3302079E+02  0.1177892E+02  0.1061517E+02  0.0000000E+00
Ar  2490  0.3546977E+02  0.1422541E+02  0.1056454E+02  0.0000000E+00
Ar  2491  0.3564022E+02  0.1169500E+02  0.1316825E+02  0.0000000E+00
Ar  2492  0.3272835E+02  0.1448548E+02  0.1344738E+02  0.0000000E+00
Ar  2493  0.3299408E+02  0.1154714E+02  0.1593205E+02  0.0000000E+00
Ar  2494  0.3574706E+02  0.1431863E+02  0.1610558E+02  0.0000000E+00
Ar  2495  0.3567582E+02  0.1170066E+02  0.1870364E+02  0.0000000E+00
Ar  2496  0.3285773E+02  0.1446225E+02  0.1850219E+02  0.0000000E+00
Ar  2497  0.3292620E+02  0.1187860E+02  0.2106221E+02  0.0000000E+00
Ar  2498  0.3562409E+02  0.1453359E+02  0.2120694E+02  0.0000000E+00
Ar  2499  0.3552372E+02  0.1185411E+02  0.2375480E+02  0.0000000E+00
Ar  2500  0.3293724E+02  0.1420687E+02  0.2394425E+02  0.0000000E+00
Ar  2501  0.3274215E+02  0.1157889E+02  0.2656819E+02  0.0000000E+00
Ar  2502  0.3554916E+02  0.1415297E+02  0.2673218E+02  0.0000000E+00
Ar  2503  0.3568823E+02  0.1157475E+02  0.2922860E+02  0.0000000E+00
Ar  2504  0.3294120E+02  0.1418412E+02  0.2939473E+02  0.0000000E+00
Ar  2505  0.3305098E+02  0.1164505E+02  0.3197979E+02  0.0000000E+00
Ar  2506  0.3572652E+02  0.1431110E+02  0.3192587E+02  0.0000000E+00
Ar  2507  0.3578356E+02  0.1167538E+02  0.3459895E+02  0.0000000E+00
Ar  2508  0.3288766E+02  0.1420006E+02  0.3457688E+02  0.0000000E+00
Ar  2509  0.3294134E+02  0.1171380E+02  0.3727258E+02  0.0000000E+00
Ar  2510  0.3564113E+02  0.1422325E+02  0.3727659E+02  0.0000000E+00
Ar  2511  0.3575241E+02  0.1176460E+02  0.3975999E+02  0.0000000E+00
Ar  2512  0.3298770E+02  0.1410060E+02  0.3988702E+02  0.0000000E+00
Ar  2513  0.3334456E+02  0.1165441E+02  0.4258603E+02  0.0000000E+00
Ar  2514  0.3574360E+02  0.1453396E+02  0.4240929E+02  0.0000000E+00
Ar  2515  0.3577940E+02  0.1154922E+02  0.4524423E+02  0.0000000E+00
Ar  2516  0.3293970E+02  0.1411544E+02  0.4527021E+02  0.0000000E+00
Ar  2517  0.3332110E+02  0.1169296E+02  0.4785489E+02  0.0000000E+00
Ar  2518  0.3568803E+02  0.1426608E+02  0.4774435E+02  0.0000000E+00
Ar  2519  0.3583501E+02  0.1147873E+02  0.5057647E+02  0.0000000E+00
Ar  2520  0.3319993E+02  0.1426216E+02  0.5045895E+02  0.0000000E+00
Ar  2521  0.3303216E+02  0.1685546E+02  0.5305960E+02  0.0000000E+00
Ar  2522  0.3566347E+02  0.1958215E+02  0.3208156E-01  0.0000000E+00
Ar  2523  0.3562123E+02  0.1690742E+02  0.2439976E+01  0.0000000E+00
Ar  2524  0.3267227E+02  0.1957118E+02  0.2962642E+01  0.0000000E+00
Ar  2525  0.3311660E+02  0.1701723E+02  0.5071173E+01  0.0000000E+00
Ar  2526  0.3572487E+02  0.1937544E+02  0.4972532E+01  0.0000000E+00
Ar  2527  0.3569547E+02  0.1713369E+02  0.7947400E+01  0.0000000E+00
Ar  2528  0.3304261E+02  0.1966433E+02  0.7789503E+01  0.0000000E+00
Ar  2529  0.3301831E+02  0.1684968E+02  0.1069927E+02  0.0000000E+00
Ar  2530  0.3549465E+02  0.1972872E+02  0.1075549E+02  0.0000000E+00
Ar  2531  0.3563894E+02  0.1701206E+02  0.1320292E+02  0.0000000E+00
Ar  2532  0.3301819E+02  0.1971601E+02  0.1315302E+02  0.0000000E+00
Ar  2533  0.3284592E+02  0.1719090E+02  0.1603235E+02  0.0000000E+00
Ar  2534  0.3550132E+02  0.1974309E+02  0.1576023E+02  0.0000000E+00
Ar  2535  0.3564041E+02  0.1727703E+02  0.1857813E+02  0.0000000E+00
Ar  2536  0.3283710E+02  0.1985306E+02  0.1850148E+02  0.0000000E+00
Ar  2537  0.3288662E+02  0.1711617E+02  0.2112769E+02  0.0000000E+00
Ar  2538  0.3570727E+02  0.1971500E+02  0.2113578E+02  0.0000000E+00
Ar  2539  0.3547185E+02  0.1714146E+02  0.2371263E+02  0.0000000E+00
Ar  2540  0.3314560E+02  0.1974718E+02  0.2397514E+02  0.0000000E+00
Ar  2541  0.3330278E+02  0.1697128E+02  0.2659179E+02  0.0000000E+00
Ar  2542  0.3551991E+02  0.1964177E+02  0.2672001E+02  0.0000000E+00
Ar  2543  0.3559697E+02  0.1680005E+02  0.2927868E+02  0.0000000E+00
Ar  2544  0.3292651E+02  0.1962369E+02  0.2948641E+02  0.0000000E+00
Ar  2545  0.3307091E+02  0.1687675E+02  0.3208708E+02  0.0000000E+00
Ar  2546  0.3544385E+02  0.1992599E+02  0.3204454E+02  0.0000000E+00
Ar  2547  0.3571429E+02  0.1687349E+02  0.3469873E+02  0.0000000E+00
Ar  2548  0.3290034E+02  0.1941674E+02  0.3480646E+02  0.0000000E+00
Ar  2549  0.3313906E+02  0.1676645E+02  0.3739402E+02  0.0000000E+00
Ar  2550  0.3560903E+02  0.1947340E+02  0.3704112E+02  0.0000000E+00
Ar  2551  0.3573247E+02  0.1701047E+02  0.3995147E+02  0.0000000E+00
Ar  2552  0.3309740E+02  0.1937302E+02  0.3983480E+02  0.0000000E+00
Ar  2553  0.3281605E+02  0.1715044E+02  0.4259768E+02  0.0000000E+00
Ar  2554  0.3576932E+02  0.1957396E+02  0.4245595E+02  0.0000000E+00
Ar  2555  0.3567424E+02  0.1699354E+02  0.4516750E+02  0.0000000E+00
Ar  2556  0.3280434E+02  0.1963258E+02  0.4515552E+02  0.0000000E+00
Ar  2557  0.3292995E+02  0.1691518E+02  0.4791567E+02  0.0000000E+00
Ar  2558  0.3543547E+02  0.1966428E+02  0.4811596E+02  0.0000000E+00
Ar  2559  0.3574256E+02  0.1664484E+02  0.5048857E+02  0.0000000E+00
Ar  2560  0.3305410E+02  0.1972532E+02  0.5071727E+02  0.0000000E+00
Ar  2561  0.3295719E+02  0.2222647E+02  0.1617096E+00  0.0000000E+00
Ar  2562  0.3542575E+02  0.2476367E+02  0.6042322E-01  0.0000000E+00
Ar  2563  0.3573636E+02  0.2205398E+02  0.2602471E+01  0.0000000E+00
Ar  2564  0.3279216E+02  0.2477932E+02  0.2898881E+01  0.0000000E+00
Ar  2565  0.3283714E+02  0.2240040E+02  0.5376171E+01  0.0000000E+00
Ar  2566  0.3550873E+02  0.2481637E+02  0.5413515E+01  0.0000000E+00
Ar  2567  0.3572568E+02  0.2247419E+02  0.8191489E+01  0.0000000E+00
Ar  2568  0.3279704E+02  0.2487674E+02  0.8192995E+01  0.0000000E+00
Ar  2569  0.3264468E+02  0.2240709E+02  0.1073672E+02  0.0000000E+00
Ar  2570  0.3548992E+02  0.2509221E+02  0.1084228E+02  0.0000000E+00
Ar  2571  0.3536279E+02  0.2233440E+02  0.1331492E+02  0.0000000E+00
Ar  2572  0.3291019E+02  0.2518331E+02  0.1343750E+02  0.0000000E+00
Ar  2573  0.3297733E+02  0.2255633E+02  0.1610122E+02  0.0000000E+00
Ar  2574  0.3601408E+02  0.2511768E+02  0.1622690E+02  0.0000000E+00
Ar  2575  0.3562354E+02  0.2257210E+02  0.1853869E+02  0.0000000E+00
Ar  2576  0.3290295E+02  0.2498935E+02  0.1882603E+02  0.0000000E+00
Ar  2577  0.3289784E+02  0.2246116E+02  0.2120877E+02  0.0000000E+00
Ar  2578  0.3572343E+02  0.2511956E+02  0.2146865E+02  0.0000000E+00
Ar  2579  0.3570682E+02  0.2229899E+02  0.2402884E+02  0.0000000E+00
Ar  2580  0.3301602E+02  0.2517806E+02  0.2401971E+02  0.0000000E+00
Ar  2581  0.3297655E+02  0.2233908E+02  0.2642848E+02  0.0000000E+00
Ar  2582  0.3573391E+02  0.2518904E+02  0.2672728E+02  0.0000000E+00
Ar  2583  0.3542102E+02  0.2229425E+02  0.2916793E+02  0.0000000E+00
Ar  2584  0.3306360E+02  0.2502219E+02  0.2930850E+02  0.0000000E+00
Ar  2585  0.3276369E+02  0.2244193E+02  0.3200338E+02  0.0000000E+00
Ar  2586  0.3554307E+02  0.2486437E+02  0.3186605E+02  0.0000000E+00
Ar  2587  0.3551935E+02  0.2226014E+02  0.3439319E+02  0.0000000E+00
Ar  2588  0.3292678E+02  0.2466580E+02  0.3472914E+02  0.0000000E+00
Ar  2589  0.3279602E+02  0.2214088E+02  0.3731217E+02  0.0000000E+00
Ar  2590  0.3562156E+02  0.2486319E+02  0.3733529E+02  0.0000000E+00
Ar  2591  0.3564889E+02  0.2214626E+02  0.3975164E+02  0.0000000E+00
Ar  2592  0.3304907E+02  0.2489389E+02  0.4000222E+02  0.0000000E+00
Ar  2593  0.3288760E+02  0.2200410E+02  0.4245675E+02  0.0000000E+00
Ar  2594  0.3581683E+02  0.2482489E+02  0.4239232E+02  0.0000000E+00
Ar  2595  0.3555590E+02  0.2220445E+02  0.4517594E+02  0.0000000E+00
Ar  2596  0.3316034E+02  0.2495167E+02  0.4527078E+02  0.0000000E+00
Ar  2597  0.3302211E+02  0.2228990E+02  0.4801279E+02  0.0000000E+00
Ar  2598  0.3560067E+02  0.2507454E+02  0.4800005E+02  0.0000000E+00
Ar  2599  0.3551141E+02  0.2240543E+02  0.5059664E+02  0.0000000E+00
Ar  2600  0.3279572E+02  0.2484715E+02  0.5084333E+02  0.0000000E+00
Ar  2601  0.3271831E+02  0.2732092E+02  0.2304836E+00  0.0000000E+00
Ar  2602  0.3550954E+02  0.3005099E+02  0.5312599E+02  0.0000000E+00
Ar  2603  0.3572973E+02  0.2757025E+02  0.2482036E+01  0.0000000E+00
Ar  2604  0.3293007E+02  0.2995097E+02  0.2621674E+01  0.0000000E+00
Ar  2605  0.3286539E+02  0.2732363E+02  0.5467571E+01  0.0000000E+00
Ar  2606  0.3535662E+02  0.3004252E+02  0.5044883E+01  0.0000000E+00
Ar  2607  0.3532116E+02  0.2763315E+02  0.8068631E+01  0.0000000E+00
Ar  2608  0.3309400E+02  0.3024596E+02  0.8063335E+01  0.0000000E+00
Ar  2609  0.3285983E+02  0.2749559E+02  0.1063789E+02  0.0000000E+00
Ar  2610  0.3579979E+02  0.3043257E+02  0.1104697E+02  0.0000000E+00
Ar  2611  0.3590723E+02  0.2773682E+02  0.1376768E+02  0.0000000E+00
Ar  2612  0.3315659E+02  0.3025557E+02  0.1347617E+02  0.0000000E+00
Ar  2613  0.3293664E+02  0.2754065E+02  0.1616751E+02  0.0000000E+00
Ar  2614  0.3576648E+02  0.3061846E+02  0.1612184E+02  0.0000000E+00
Ar  2615  0.3563414E+02  0.2777618E+02  0.1844229E+02  0.0000000E+00
Ar  2616  0.3298573E+02  0.3038275E+02  0.1864343E+02  0.0000000E+00
Ar  2617  0.3313317E+02  0.2781100E+02  0.2154390E+02  0.0000000E+00
Ar  2618  0.3573848E+02  0.3039222E+02  0.2123386E+02  0.0000000E+00
Ar  2619  0.3574689E+02  0.2795204E+02  0.2392707E+02  0.0000000E+00
Ar  2620  0.3299292E+02  0.3069481E+02  0.2393719E+02  0.0000000E+00
Ar  2621  0.3292325E+02  0.2768048E+02  0.2678731E+02  0.0000000E+00
Ar  2622  0.3562857E+02  0.3011348E+02  0.2698696E+02  0.0000000E+00
Ar  2623  0.3552052E+02  0.2757643E+02  0.2934396E+02  0.0000000E+00
Ar  2624  0.3281040E+02  0.3016278E+02  0.2945594E+02  0.0000000E+00
Ar  2625  0.3283427E+02  0.2754235E+02  0.3194396E+02  0.0000000E+00
Ar  2626  0.3543152E+02  0.3007408E+02  0.3210163E+02  0.0000000E+00
Ar  2627  0.3545506E+02  0.2748624E+02  0.3477007E+02  0.0000000E+00
Ar  2628  0.3289954E+02  0.3017945E+02  0.3463220E+02  0.0000000E+00
Ar  2629  0.3279267E+02  0.2755712E+02  0.3738527E+02  0.0000000E+00
Ar  2630  0.3543869E+02  0.3050527E+02  0.3743984E+02  0.0000000E+00
Ar  2631  0.3527524E+02  0.2770919E+02  0.3990290E+02  0.0000000E+00
Ar  2632  0.3310407E+02  0.3031521E+02  0.3991521E+02  0.0000000E+00
Ar  2633  0.3314862E+02  0.2759146E+02  0.4259222E+02  0.0000000E+00
Ar  2634  0.3552821E+02  0.3032487E+02  0.4237581E+02  0.0000000E+00
Ar  2635  0.3552691E+02  0.2761922E+02  0.4545854E+02  0.0000000E+00
Ar  2636  0.3293853E+02  0.3018733E+02  0.4508318E+02  0.0000000E+00
Ar  2637  0.3300021E+02  0.2767064E+02  0.4813206E+02  0.0000000E+00
Ar  2638  0.3557465E+02  0.3027557E+02  0.4817229E+02  0.0000000E+00
Ar  2639  0.3537947E+02  0.2766594E+02  0.5065427E+02  0.0000000E+00
Ar  2640  0.3306766E+02  0.3035238E+02  0.5059571E+02  0.0000000E+00
Ar  2641  0.3308983E+02  0.3278829E+02  0.1840357E+00  0.0000000E+00
Ar  2642  0.3544699E+02  0.3545764E+02  0.2226328E+00  0.0000000E+00
Ar  2643  0.3554907E+02  0.3292401E+02  0.2920241E+01  0.0000000E+00
Ar  2644  0.3288316E+02  0.3529789E+02  0.2784177E+01  0.0000000E+00
Ar  2645  0.3290573E+02  0.3287220E+02  0.5290291E+01  0.0000000E+00
Ar  2646  0.3557003E+02  0.3554453E+02  0.5470124E+01  0.0000000E+00
Ar  2647  0.3574201E+02  0.3276553E+02  0.7994874E+01  0.0000000E+00
Ar  2648  0.3314948E+02  0.3545803E+02  0.7837777E+01  0.0000000E+00
Ar  2649  0.3291816E+02  0.3289400E+02  0.1052211E+02  0.0000000E+00
Ar  2650  0.3537380E+02  0.3544966E+02  0.1068999E+02  0.0000000E+00
Ar  2651  0.3560619E+02  0.3302068E+02  0.1351438E+02  0.0000000E+00
Ar  2652  0.3289445E+02  0.3565716E+02  0.1350955E+02  0.0000000E+00
Ar  2653  0.3310569E+02  0.3302661E+02  0.1604216E+02  0.0000000E+00
Ar  2654  0.3588882E+02  0.3552942E+02  0.1603285E+02  0.0000000E+00
Ar  2655  0.3583278E+02  0.3296348E+02  0.1866996E+02  0.0000000E+00
Ar  2656  0.3313104E+02  0.3550108E+02  0.1846412E+02  0.0000000E+00
Ar  2657  0.3302480E+02  0.3302519E+02  0.2117046E+02  0.0000000E+00
Ar  2658  0.3565949E+02  0.3572168E+02  0.2148228E+02  0.0000000E+00
Ar  2659  0.3572278E+02  0.3307747E+02  0.2405937E+02  0.0000000E+00
Ar  2660  0.3300101E+02  0.3571501E+02  0.2394629E+02  0.0000000E+00
Ar  2661  0.3290432E+02  0.3300442E+02  0.2680043E+02  0.0000000E+00
Ar  2662  0.3561013E+02  0.3560737E+02  0.2658352E+02  0.0000000E+00
Ar  2663  0.3551724E+02  0.3278634E+02  0.2963273E+02  0.0000000E+00
Ar  2664  0.3315361E+02  0.3553021E+02  0.2975535E+02  0.0000000E+00
Ar  2665  0.3304330E+02  0.3302243E+02  0.3226343E+02  0.0000000E+00
Ar  2666  0.3582739E+02  0.3571783E+02  0.3213295E+02  0.0000000E+00
Ar  2667  0.3571986E+02  0.3280992E+02  0.3472455E+02  0.0000000E+00
Ar  2668  0.3297021E+02  0.3577306E+02  0.3462636E+02  0.0000000E+00
Ar  2669  0.3303975E+02  0.3330499E+02  0.3729768E+02  0.0000000E+00
Ar  2670  0.3575953E+02  0.3576619E+02  0.3703717E+02  0.0000000E+00
Ar  2671  0.3579504E+02  0.3306709E+02  0.4006773E+02  0.0000000E+00
Ar  2672  0.3297600E+02  0.3577288E+02  0.4009001E+02  0.0000000E+00
Ar  2673  0.3310848E+02  0.3307780E+02  0.4259657E+02  0.0000000E+00
Ar  2674  0.3581361E+02  0.3573221E+02  0.4254527E+02  0.0000000E+00
Ar  2675  0.3563912E+02  0.3298042E+02  0.4518183E+02  0.0000000E+00
Ar  2676  0.3335529E+02  0.3571629E+02  0.4562292E+02  0.0000000E+00
Ar  2677  0.3315847E+02  0.3310866E+02  0.4813689E+02  0.0000000E+00
Ar  2678  0.3565404E+02  0.3555361E+02  0.4805457E+02  0.0000000E+00
Ar  2679  0.3547090E+02  0.3279535E+02  0.5066368E+02  0.0000000E+00
Ar  2680  0.3297650E+02  0.3565263E+02  0.5058301E+02  0.0000000E+00
Ar  2681  0.3324648E+02  0.3832785E+02  0.2297439E+00  0.0000000E+00
Ar  2682  0.3590764E+02  0.4094441E+02  0.3929180E+00  0.0000000E+00
Ar  2683  0.3596830E+02  0.3788637E+02  0.2731097E+01  0.0000000E+00
Ar  2684  0.3296433E+02  0.4107998E+02  0.2903717E+01  0.0000000E+00
Ar  2685  0.3293454E+02  0.3825200E+02  0.5391252E+01  0.0000000E+00
Ar  2686  0.3585252E+02  0.4071179E+02  0.5270848E+01  0.0000000E+00
Ar  2687  0.3544017E+02  0.3798043E+02  0.7998950E+01  0.0000000E+00
Ar  2688  0.3312188E+02  0.4088435E+02  0.7910149E+01  0.0000000E+00
Ar  2689  0.3283937E+02  0.3833696E+02  0.1051653E+02  0.0000000E+00
Ar  2690  0.3573142E+02  0.4077113E+02  0.1040980E+02  0.0000000E+00
Ar  2691  0.3554959E+02  0.3810753E+02  0.1307857E+02  0.0000000E+00
Ar  2692  0.3303769E+02  0.4083739E+02  0.1341114E+02  0.0000000E+00
Ar  2693  0.3289701E+02  0.3824114E+02  0.1599933E+02  0.0000000E+00
Ar  2694  0.3563984E+02  0.4099151E+02  0.1606522E+02  0.0000000E+00
Ar  2695  0.3563133E+02  0.3823468E+02  0.1824312E+02  0.0000000E+00
Ar  2696  0.3295465E+02  0.4115805E+02  0.1882230E+02  0.0000000E+00
Ar  2697  0.3300586E+02  0.3815841E+02  0.2109096E+02  0.0000000E+00
Ar  2698  0.3543170E+02  0.4052048E+02  0.2112502E+02  0.0000000E+00
Ar  2699  0.3543592E+02  0.3826603E+02  0.2397522E+02  0.0000000E+00
Ar  2700  0.3281416E+02  0.4086904E+02  0.2386479E+02  0.0000000E+00
Ar  2701  0.3302923E+02  0.3829605E+02  0.2663250E+02  0.0000000E+00
Ar  2702  0.3576060E+02  0.4089935E+02  0.2629719E+02  0.0000000E+00
Ar  2703  0.3547704E+02  0.3824178E+02  0.2929062E+02  0.0000000E+00
Ar  2704  0.3307902E+02  0.4082403E+02  0.2912120E+02  0.0000000E+00
Ar  2705  0.3303633E+02  0.3836249E+02  0.3200029E+02  0.0000000E+00
Ar  2706  0.3564577E+02  0.4111166E+02  0.3189175E+02  0.0000000E+00
Ar  2707  0.3569358E+02  0.3830363E+02  0.3454406E+02  0.0000000E+00
Ar  2708  0.3301964E+02  0.4092972E+02  0.3471394E+02  0.0000000E+00
Ar  2709  0.3295210E+02  0.3811733E+02  0.3721162E+02  0.0000000E+00
Ar  2710  0.3564540E+02  0.4076638E+02  0.3739010E+02  0.0000000E+00
Ar  2711  0.3568592E+02  0.3837698E+02  0.4007036E+02  0.0000000E+00
Ar  2712  0.3312118E+02  0.4093877E+02  0.4006124E+02  0.0000000E+00
Ar  2713  0.3301701E+02  0.3811990E+02  0.4280698E+02  0.0000000E+00
Ar  2714  0.3568269E+02  0.4072358E+02  0.4263835E+02  0.0000000E+00
Ar  2715  0.3604229E+02  0.3835864E+02  0.4566986E+02  0.0000000E+00
Ar  2716  0.3338214E+02  0.4066078E+02  0.4539386E+02  0.0000000E+00
Ar  2717  0.3304895E+02  0.3829197E+02  0.4817089E+02  0.0000000E+00
Ar  2718  0.3587252E+02  0.4077731E+02  0.4812898E+02  0.0000000E+00
Ar  2719  0.3583985E+02  0.3826758E+02  0.5047470E+02  0.0000000E+00
Ar  2720  0.3325930E+02  0.4090677E+02  0.5101266E+02  0.0000000E+00
Ar  2721  0.3287477E+02  0.4361511E+02  0.5314749E+02  0.0000000E+00
Ar  2722  0.3555013E+02  0.4608490E+02  0.5312331E+02  0.0000000E+00
Ar  2723  0.3566157E+02  0.4363515E+02  0.2639021E+01  0.0000000E+00
Ar  2724  0.3305893E+02  0.4648887E+02  0.2633077E+01  0.0000000E+00
Ar  2725  0.3255710E+02  0.4354829E+02  0.5524240E+01  0.0000000E+00
Ar  2726  0.3538360E+02  0.4596464E+02  0.5469713E+01  0.0000000E+00
Ar  2727  0.3547881E+02  0.4339311E+02  0.8087035E+01  0.0000000E+00
Ar  2728  0.3283224E+02  0.4643344E+02  0.7951278E+01  0.0000000E+00
Ar  2729  0.3302913E+02  0.4337497E+02  0.1062347E+02  0.0000000E+00
Ar  2730  0.3553976E+02  0.4608323E+02  0.1049724E+02  0.0000000E+00
Ar  2731  0.3558932E+02  0.4352462E+02  0.1339646E+02  0.0000000E+00
Ar  2732  0.3292351E+02  0.4609108E+02  0.1319776E+02  0.0000000E+00
Ar  2733  0.3295291E+02  0.4340446E+02  0.1606459E+02  0.0000000E+00
Ar  2734  0.3536398E+02  0.4645146E+02  0.1591290E+02  0.0000000E+00
Ar  2735  0.3573407E+02  0.4350881E+02  0.1860039E+02  0.0000000E+00
Ar  2736  0.3305043E+02  0.4629890E+02  0.1870765E+02  0.0000000E+00
Ar  2737  0.3312805E+02  0.4347742E+02  0.2145734E+02  0.0000000E+00
Ar  2738  0.3560609E+02  0.4627723E+02  0.2123809E+02  0.0000000E+00
Ar  2739  0.3567227E+02  0.4376971E+02  0.2388073E+02  0.0000000E+00
Ar  2740  0.3319343E+02  0.4620858E+02  0.2410214E+02  0.0000000E+00
Ar  2741  0.3269462E+02  0.4378272E+02  0.2681605E+02  0.0000000E+00
Ar  2742  0.3580521E+02  0.4592221E+02  0.2667759E+02  0.0000000E+00
Ar  2743  0.3568618E+02  0.4355951E+02  0.2937972E+02  0.0000000E+00
Ar  2744  0.3298810E+02  0.4620871E+02  0.2944433E+02  0.0000000E+00
Ar  2745  0.3295061E+02  0.4343720E+02  0.3183306E+02  0.0000000E+00
Ar  2746  0.3552336E+02  0.4609055E+02  0.3191864E+02  0.0000000E+00
Ar  2747  0.3548693E+02  0.4356230E+02  0.3452417E+02  0.0000000E+00
Ar  2748  0.3304555E+02  0.4606816E+02  0.3484489E+02  0.0000000E+00
Ar  2749  0.3294508E+02  0.4346095E+02  0.3748835E+02  0.0000000E+00
Ar  2750  0.3553164E+02  0.4609753E+02  0.3724361E+02  0.0000000E+00
Ar  2751  0.3584834E+02  0.4350923E+02  0.4025226E+02  0.0000000E+00
Ar  2752  0.3315720E+02  0.4641073E+02  0.3999364E+02  0.0000000E+00
Ar  2753  0.3307963E+02  0.4335456E+02  0.4272386E+02  0.0000000E+00
Ar  2754  0.3584772E+02  0.4628529E+02  0.4284887E+02  0.0000000E+00
Ar  2755  0.3606364E+02  0.4340091E+02  0.4523556E+02  0.0000000E+00
Ar  2756  0.3323286E+02  0.4621861E+02  0.4525039E+02  0.0000000E+00
Ar  2757  0.3327781E+02  0.4343441E+02  0.4811285E+02  0.0000000E+00
Ar  2758  0.3581877E+02  0.4604744E+02  0.4760496E+02  0.0000000E+00
Ar  2759  0.3596004E+02  0.4340914E+02  0.5093130E+02  0.0000000E+00
Ar  2760  0.3300754E+02  0.4608814E+02  0.5036144E+02  0.0000000E+00
Ar  2761  0.3310130E+02  0.4872516E+02  0.1218308E+00  0.0000000E+00
Ar  2762  0.3561916E+02  0.5130198E+02  0.9373063E-01  0.0000000E+00
Ar  2763  0.3556426E+02  0.4889732E+02  0.2647264E+01  0.0000000E+00
Ar  2764  0.3271638E+02  0.5143427E+02  0.2732144E+01  0.0000000E+00
Ar  2765  0.3291890E+02  0.4875768E+02  0.5282066E+01  0.0000000E+00
Ar  2766  0.3561549E+02  0.5164895E+02  0.5385817E+01  0.0000000E+00
Ar  2767  0.3585216E+02  0.4863951E+02  0.8078642E+01  0.0000000E+00
Ar  2768  0.3291728E+02  0.5143216E+02  0.7811725E+01  0.0000000E+00
Ar  2769  0.3306757E+02  0.4883587E+02  0.1084816E+02  0.0000000E+00
Ar  2770  0.3582810E+02  0.5128643E+02  0.1056190E+02  0.0000000E+00
Ar  2771  0.3580377E+02  0.4886340E+02  0.1316698E+02  0.0000000E+00
Ar  2772  0.3306175E+02  0.5161705E+02  0.1325560E+02  0.0000000E+00
Ar  2773  0.3284476E+02  0.4915662E+02  0.1602591E+02  0.0000000E+00
Ar  2774  0.3550322E+02  0.5155104E+02  0.1591716E+02  0.0000000E+00
Ar  2775  0.3548235E+02  0.4896086E+02  0.1868267E+02  0.0000000E+00
Ar  2776  0.3312503E+02  0.5166422E+02  0.1863250E+02  0.0000000E+00
Ar  2777  0.3299006E+02  0.4873657E+02  0.2140390E+02  0.0000000E+00
Ar  2778  0.3575908E+02  0.5152984E+02  0.2161487E+02  0.0000000E+00
Ar  2779  0.3574802E+02  0.4899710E+02  0.2419490E+02  0.0000000E+00
Ar  2780  0.3292779E+02  0.5151568E+02  0.2409226E+02  0.0000000E+00
Ar  2781  0.3312145E+02  0.4864905E+02  0.2677485E+02  0.0000000E+00
Ar  2782  0.3574024E+02  0.5165109E+02  0.2676952E+02  0.0000000E+00
Ar  2783  0.3575478E+02  0.4869149E+02  0.2947834E+02  0.0000000E+00
Ar  2784  0.3311148E+02  0.5159645E+02  0.2913448E+02  0.0000000E+00
Ar  2785  0.3334627E+02  0.4876149E+02  0.3215757E+02  0.0000000E+00
Ar  2786  0.3578636E+02  0.5155326E+02  0.3184195E+02  0.0000000E+00
Ar  2787  0.3578793E+02  0.4898789E+02  0.3445793E+02  0.0000000E+00
Ar  2788  0.3319748E+02  0.5152019E+02  0.3470308E+02  0.0000000E+00
Ar  2789  0.3303839E+02  0.4896922E+02  0.3723034E+02  0.0000000E+00
Ar  2790  0.3569083E+02  0.5177204E+02  0.3706799E+02  0.0000000E+00
Ar  2791  0.3579071E+02  0.4878903E+02  0.3978995E+02  0.0000000E+00
Ar  2792  0.3315323E+02  0.5165735E+02  0.3981619E+02  0.0000000E+00
Ar  2793  0.3320178E+02  0.4898398E+02  0.4279258E+02  0.0000000E+00
Ar  2794  0.3588585E+02  0.5147696E+02  0.4243703E+02  0.0000000E+00
Ar  2795  0.3563843E+02  0.4905391E+02  0.4556945E+02  0.0000000E+00
Ar  2796  0.3297948E+02  0.5172484E+02  0.4525455E+02  0.0000000E+00
Ar  2797  0.3303432E+02  0.4895313E+02  0.4787637E+02  0.0000000E+00
Ar  2798  0.3583195E+02  0.5154847E+02  0.4794573E+02  0.0000000E+00
Ar  2799  0.3576510E+02  0.4874918E+02  0.5046560E+02  0.0000000E+00
Ar  2800  0.3318822E+02  0.5117151E+02  0.5083083E+02  0.0000000E+00
Ar  2801  0.3809033E+02  0.1057653E+01  0.5312186E+02  0.0000000E+00
Ar  2802  0.4080207E+02  0.3404680E+01  0.2554654E+00  0.0000000E+00
Ar  2803  0.4057442E+02  0.1048660E+01  0.2862799E+01  0.0000000E+00
Ar  2804  0.3819001E+02  0.3648482E+01  0.2982115E+01  0.0000000E+00
Ar  2805  0.3815524E+02  0.9047218E+00  0.5475340E+01  0.0000000E+00
Ar  2806  0.4099260E+02  0.3703025E+01  0.5556544E+01  0.0000000E+00
Ar  2807  0.4085259E+02  0.1143099E+01  0.8068577E+01  0.0000000E+00
Ar  2808  0.3829387E+02  0.3984717E+01  0.7946696E+01  0.0000000E+00
Ar  2809  0.3821602E+02  0.1051724E+01  0.1077763E+02  0.0000000E+00
Ar  2810  0.4108369E+02  0.3666260E+01  0.1080725E+02  0.0000000E+00
Ar  2811  0.4094760E+02  0.9094770E+00  0.1344931E+02  0.0000000E+00
Ar  2812  0.3829424E+02  0.3841729E+01  0.1325883E+02  0.0000000E+00
Ar  2813  0.3838113E+02  0.9939566E+00  0.1583996E+02  0.0000000E+00
Ar  2814  0.4096091E+02  0.3714088E+01  0.1602826E+02  0.0000000E+00
Ar  2815  0.4096793E+02  0.9777150E+00  0.1901925E+02  0.0000000E+00
Ar  2816  0.3834221E+02  0.3622515E+01  0.1875155E+02  0.0000000E+00
Ar  2817  0.3833678E+02  0.1071747E+01  0.2156290E+02  0.0000000E+00
Ar  2818  0.4099277E+02  0.3751680E+01  0.2129325E+02  0.0000000E+00
Ar  2819  0.4133131E+02  0.7145141E+00  0.2389348E+02  0.0000000E+00
Ar  2820  0.3862934E+02  0.3964277E+01  0.2418107E+02  0.0000000E+00
Ar  2821  0.3830349E+02  0.1197424E+01  0.2672368E+02  0.0000000E+00
Ar  2822  0.4110299E+02  0.3517999E+01  0.2652645E+02  0.0000000E+00
Ar  2823  0.4097565E+02  0.1117298E+01  0.2932121E+02  0.0000000E+00
Ar  2824  0.3836721E+02  0.3540765E+01  0.2945456E+02  0.0000000E+00
Ar  2825  0.3853309E+02  0.1121103E+01  0.3215768E+02  0.0000000E+00
Ar  2826  0.4101936E+02  0.3773616E+01  0.3157898E+02  0.0000000E+00
Ar  2827  0.4124861E+02  0.1209867E+01  0.3489820E+02  0.0000000E+00
Ar  2828  0.3849522E+02  0.3763459E+01  0.3468968E+02  0.0000000E+00
Ar  2829  0.3860147E+02  0.1107390E+01  0.3730355E+02  0.0000000E+00
Ar  2830  0.4119252E+02  0.3808119E+01  0.3744028E+02  0.0000000E+00
Ar  2831  0.4090387E+02  0.1013753E+01  0.3998040E+02  0.0000000E+00
Ar  2832  0.3829487E+02  0.3787799E+01  0.3977018E+02  0.0000000E+00
Ar  2833  0.3812697E+02  0.1259833E+01  0.4235886E+02  0.0000000E+00
Ar  2834  0.4114765E+02  0.3464014E+01  0.4257163E+02  0.0000000E+00
Ar  2835  0.4109405E+02  0.7761809E+00  0.4541242E+02  0.0000000E+00
Ar  2836  0.3836644E+02  0.3578901E+01  0.4532120E+02  0.0000000E+00
Ar  2837  0.3816278E+02  0.1045368E+01  0.4799891E+02  0.0000000E+00
Ar  2838  0.4098455E+02  0.3639922E+01  0.4782797E+02  0.0000000E+00
Ar  2839  0.4091220E+02  0.1185778E+01  0.5068822E+02  0.0000000E+00
Ar  2840  0.3810366E+02  0.3548312E+01  0.5054153E+02  0.0000000E+00
Ar  2841  0.3816832E+02  0.6148244E+01  0.2145101E+00  0.0000000E+00
Ar  2842  0.4079318E+02  0.8791184E+01  0.1534579E+00  0.0000000E+00
Ar  2843  0.4100118E+02  0.6149863E+01  0.2752781E+01  0.0000000E+00
Ar  2844  0.3841903E+02  0.8795668E+01  0.2757882E+01  0.0000000E+00
Ar  2845  0.3821399E+02  0.6302073E+01  0.5245007E+01  0.0000000E+00
Ar  2846  0.4091440E+02  0.8657868E+01  0.5472927E+01  0.0000000E+00
Ar  2847  0.4087176E+02  0.6427970E+01  0.8253196E+01  0.0000000E+00
Ar  2848  0.3830083E+02  0.9018690E+01  0.7956836E+01  0.0000000E+00
Ar  2849  0.3815338E+02  0.6348699E+01  0.1055417E+02  0.0000000E+00
Ar  2850  0.4089930E+02  0.8960120E+01  0.1069678E+02  0.0000000E+00
Ar  2851  0.4110203E+02  0.6568232E+01  0.1336669E+02  0.0000000E+00
Ar  2852  0.3840597E+02  0.8869323E+01  0.1323788E+02  0.0000000E+00
Ar  2853  0.3834656E+02  0.6157389E+01  0.1606514E+02  0.0000000E+00
Ar  2854  0.4078137E+02  0.8840752E+01  0.1615084E+02  0.0000000E+00
Ar  2855  0.4095914E+02  0.6096782E+01  0.1880061E+02  0.0000000E+00
Ar  2856  0.3804478E+02  0.9134725E+01  0.1878386E+02  0.0000000E+00
Ar  2857  0.3850924E+02  0.6521771E+01  0.2144338E+02  0.0000000E+00
Ar  2858  0.4088814E+02  0.8991634E+01  0.2120813E+02  0.0000000E+00
Ar  2859  0.4115383E+02  0.6469781E+01  0.2391496E+02  0.0000000E+00
Ar  2860  0.3827407E+02  0.9161814E+01  0.2395639E+02  0.0000000E+00
Ar  2861  0.3853060E+02  0.6592599E+01  0.2656855E+02  0.0000000E+00
Ar  2862  0.4105241E+02  0.9330975E+01  0.2667420E+02  0.0000000E+00
Ar  2863  0.4104289E+02  0.6274068E+01  0.2909906E+02  0.0000000E+00
Ar  2864  0.3828375E+02  0.8816266E+01  0.2928528E+02  0.0000000E+00
Ar  2865  0.3870685E+02  0.6191135E+01  0.3197052E+02  0.0000000E+00
Ar  2866  0.4094537E+02  0.9017311E+01  0.3181042E+02  0.0000000E+00
Ar  2867  0.4098269E+02  0.6252570E+01  0.3464990E+02  0.0000000E+00
Ar  2868  0.3840610E+02  0.8969760E+01  0.3460491E+02  0.0000000E+00
Ar  2869  0.3836849E+02  0.6370039E+01  0.3725004E+02  0.0000000E+00
Ar  2870  0.4104966E+02  0.8912282E+01  0.3727310E+02  0.0000000E+00
Ar  2871  0.4087636E+02  0.6398307E+01  0.4004976E+02  0.0000000E+00
Ar  2872  0.3826139E+02  0.9027782E+01  0.3979479E+02  0.0000000E+00
Ar  2873  0.3835136E+02  0.6324758E+01  0.4261910E+02  0.0000000E+00
Ar  2874  0.4112391E+02  0.9113925E+01  0.4231583E+02  0.0000000E+00
Ar  2875  0.4097659E+02  0.6364877E+01  0.4513824E+02  0.0000000E+00
Ar  2876  0.3842403E+02  0.8915674E+01  0.4502018E+02  0.0000000E+00
Ar  2877  0.3852444E+02  0.6395879E+01  0.4783262E+02  0.0000000E+00
Ar  2878  0.4095035E+02  0.8723140E+01  0.4800872E+02  0.0000000E+00
Ar  2879  0.4065227E+02  0.5978945E+01  0.5068883E+02  0.0000000E+00
Ar  2880  0.3835450E+02  0.8890698E+01  0.5056728E+02  0.0000000E+00
Ar  2881  0.3832001E+02  0.1168549E+02  0.5299496E+02  0.0000000E+00
Ar  2882  0.4110195E+02  0.1400640E+02  0.1070579E-02  0.0000000E+00
Ar  2883  0.4072644E+02  0.1175120E+02  0.2766154E+01  0.0000000E+00
Ar  2884  0.3829776E+02  0.1417285E+02  0.2379388E+01  0.0000000E+00
Ar  2885  0.3815724E+02  0.1172422E+02  0.5505120E+01  0.0000000E+00
Ar  2886  0.4081867E+02  0.1419406E+02  0.5553649E+01  0.0000000E+00
Ar  2887  0.4085977E+02  0.1167938E+02  0.8345546E+01  0.0000000E+00
Ar  2888  0.3818304E+02  0.1422537E+02  0.8091779E+01  0.0000000E+00
Ar  2889  0.3825887E+02  0.1155248E+02  0.1054626E+02  0.0000000E+00
Ar  2890  0.4088042E+02  0.1463650E+02  0.1052941E+02  0.0000000E+00
Ar  2891  0.4081030E+02  0.1153303E+02  0.1304852E+02  0.0000000E+00
Ar  2892  0.3833093E+02  0.1396156E+02  0.1328164E+02  0.0000000E+00
Ar  2893  0.3834125E+02  0.1160428E+02  0.1592392E+02  0.0000000E+00
Ar  2894  0.4089947E+02  0.1434940E+02  0.1602431E+02  0.0000000E+00
Ar  2895  0.4084360E+02  0.1181208E+02  0.1873261E+02  0.0000000E+00
Ar  2896  0.3806898E+02  0.1469817E+02  0.1891544E+02  0.0000000E+00
Ar  2897  0.3823384E+02  0.1188570E+02  0.2116522E+02  0.0000000E+00
Ar  2898  0.4073825E+02  0.1438087E+02  0.2129232E+02  0.0000000E+00
Ar  2899  0.4083730E+02  0.1165983E+02  0.2400801E+02  0.0000000E+00
Ar  2900  0.3849239E+02  0.1427135E+02  0.2399978E+02  0.0000000E+00
Ar  2901  0.3808104E+02  0.1156248E+02  0.2663755E+02  0.0000000E+00
Ar  2902  0.4094722E+02  0.1442744E+02  0.2673601E+02  0.0000000E+00
Ar  2903  0.4099584E+02  0.1179518E+02  0.2944399E+02  0.0000000E+00
Ar  2904  0.3812835E+02  0.1442540E+02  0.2920250E+02  0.0000000E+00
Ar  2905  0.3827411E+02  0.1173665E+02  0.3172411E+02  0.0000000E+00
Ar  2906  0.4087451E+02  0.1432843E+02  0.3202526E+02  0.0000000E+00
Ar  2907  0.4092252E+02  0.1163814E+02  0.3468317E+02  0.0000000E+00
Ar  2908  0.3834612E+02  0.1414308E+02  0.3470772E+02  0.0000000E+00
Ar  2909  0.3839728E+02  0.1147292E+02  0.3726962E+02  0.0000000E+00
Ar  2910  0.4109697E+02  0.1446317E+02  0.3713909E+02  0.0000000E+00
Ar  2911  0.4102006E+02  0.1186761E+02  0.3974080E+02  0.0000000E+00
Ar  2912  0.3835423E+02  0.1460051E+02  0.3988111E+02  0.0000000E+00
Ar  2913  0.3847606E+02  0.1157757E+02  0.4246939E+02  0.0000000E+00
Ar  2914  0.4098140E+02  0.1434923E+02  0.4263689E+02  0.0000000E+00
Ar  2915  0.4068896E+02  0.1166435E+02  0.4558953E+02  0.0000000E+00
Ar  2916  0.3822784E+02  0.1439405E+02  0.4512853E+02  0.0000000E+00
Ar  2917  0.3816395E+02  0.1161056E+02  0.4822887E+02  0.0000000E+00
Ar  2918  0.4071182E+02  0.1473980E+02  0.4798089E+02  0.0000000E+00
Ar  2919  0.4099649E+02  0.1139975E+02  0.5049029E+02  0.0000000E+00
Ar  2920  0.3851517E+02  0.1420910E+02  0.5062703E+02  0.0000000E+00
Ar  2921  0.3843719E+02  0.1683900E+02  0.5302117E+02  0.0000000E+00
Ar  2922  0.4072430E+02  0.1972758E+02  0.2046345E+00  0.0000000E+00
Ar  2923  0.4110890E+02  0.1685266E+02  0.2888893E+01  0.0000000E+00
Ar  2924  0.3831411E+02  0.1941643E+02  0.2656891E+01  0.0000000E+00
Ar  2925  0.3821553E+02  0.1684660E+02  0.5193306E+01  0.0000000E+00
Ar  2926  0.4103437E+02  0.1961098E+02  0.5421463E+01  0.0000000E+00
Ar  2927  0.4091483E+02  0.1706161E+02  0.7795177E+01  0.0000000E+00
Ar  2928  0.3838972E+02  0.1981636E+02  0.8160995E+01  0.0000000E+00
Ar  2929  0.3829062E+02  0.1702821E+02  0.1068574E+02  0.0000000E+00
Ar  2930  0.4095417E+02  0.1958718E+02  0.1073926E+02  0.0000000E+00
Ar  2931  0.4109776E+02  0.1692466E+02  0.1333466E+02  0.0000000E+00
Ar  2932  0.3824255E+02  0.1973765E+02  0.1324391E+02  0.0000000E+00
Ar  2933  0.3825793E+02  0.1686484E+02  0.1559676E+02  0.0000000E+00
Ar  2934  0.4083883E+02  0.1946645E+02  0.1593252E+02  0.0000000E+00
Ar  2935  0.4084190E+02  0.1683873E+02  0.1856792E+02  0.0000000E+00
Ar  2936  0.3839349E+02  0.2001737E+02  0.1856528E+02  0.0000000E+00
Ar  2937  0.3830709E+02  0.1712877E+02  0.2131324E+02  0.0000000E+00
Ar  2938  0.4103102E+02  0.1964743E+02  0.2118135E+02  0.0000000E+00
Ar  2939  0.4088252E+02  0.1709602E+02  0.2388788E+02  0.0000000E+00
Ar  2940  0.3813274E+02  0.1969394E+02  0.2390671E+02  0.0000000E+00
Ar  2941  0.3796980E+02  0.1739757E+02  0.2630336E+02  0.0000000E+00
Ar  2942  0.4090363E+02  0.1975635E+02  0.2685152E+02  0.0000000E+00
Ar  2943  0.4086452E+02  0.1693489E+02  0.2949113E+02  0.0000000E+00
Ar  2944  0.3819008E+02  0.1972788E+02  0.2938760E+02  0.0000000E+00
Ar  2945  0.3803141E+02  0.1696683E+02  0.3212400E+02  0.0000000E+00
Ar  2946  0.4093637E+02  0.1985218E+02  0.3192782E+02  0.0000000E+00
Ar  2947  0.4069826E+02  0.1713185E+02  0.3444089E+02  0.0000000E+00
Ar  2948  0.3832073E+02  0.1986033E+02  0.3449432E+02  0.0000000E+00
Ar  2949  0.3819622E+02  0.1679283E+02  0.3720426E+02  0.0000000E+00
Ar  2950  0.4084721E+02  0.1943274E+02  0.3718780E+02  0.0000000E+00
Ar  2951  0.4122924E+02  0.1688217E+02  0.3972643E+02  0.0000000E+00
Ar  2952  0.3829979E+02  0.1957331E+02  0.3992324E+02  0.0000000E+00
Ar  2953  0.3849399E+02  0.1690135E+02  0.4272728E+02  0.0000000E+00
Ar  2954  0.4103394E+02  0.1954540E+02  0.4276710E+02  0.0000000E+00
Ar  2955  0.4112837E+02  0.1696498E+02  0.4513400E+02  0.0000000E+00
Ar  2956  0.3830239E+02  0.1948595E+02  0.4532683E+02  0.0000000E+00
Ar  2957  0.3831398E+02  0.1716755E+02  0.4787463E+02  0.0000000E+00
Ar  2958  0.4103286E+02  0.1960222E+02  0.4785063E+02  0.0000000E+00
Ar  2959  0.4089595E+02  0.1701237E+02  0.5061402E+02  0.0000000E+00
Ar  2960  0.3822605E+02  0.1967724E+02  0.5048913E+02  0.0000000E+00
Ar  2961  0.3807608E+02  0.2212385E+02  0.5299382E+02  0.0000000E+00
Ar  2962  0.4074596E+02  0.2494246E+02  0.5307053E+02  0.0000000E+00
Ar  2963  0.4084744E+02  0.2226267E+02  0.2700984E+01  0.0000000E+00
Ar  2964  0.3829587E+02  0.2495379E+02  0.2650984E+01  0.0000000E+00
Ar  2965  0.3804048E+02  0.2216999E+02  0.5404714E+01  0.0000000E+00
Ar  2966  0.4079060E+02  0.2485795E+02  0.5367619E+01  0.0000000E+00
Ar  2967  0.4077405E+02  0.2240931E+02  0.7990943E+01  0.0000000E+00
Ar  2968  0.3815629E+02  0.2527180E+02  0.8134316E+01  0.0000000E+00
Ar  2969  0.3834164E+02  0.2255200E+02  0.1072222E+02  0.0000000E+00
Ar  2970  0.4114940E+02  0.2512678E+02  0.1057537E+02  0.0000000E+00
Ar  2971  0.4094366E+02  0.2248402E+02  0.1329975E+02  0.0000000E+00
Ar  2972  0.3830107E+02  0.2484736E+02  0.1356233E+02  0.0000000E+00
Ar  2973  0.3857586E+02  0.2230740E+02  0.1581140E+02  0.0000000E+00
Ar  2974  0.4097725E+02  0.2501917E+02  0.1592718E+02  0.0000000E+00
Ar  2975  0.4084689E+02  0.2273479E+02  0.1888638E+02  0.0000000E+00
Ar  2976  0.3819002E+02  0.2509125E+02  0.1894325E+02  0.0000000E+00
Ar  2977  0.3823878E+02  0.2247995E+02  0.2136034E+02  0.0000000E+00
Ar  2978  0.4074472E+02  0.2547328E+02  0.2140953E+02  0.0000000E+00
Ar  2979  0.4102975E+02  0.2241651E+02  0.2367734E+02  0.0000000E+00
Ar  2980  0.3834146E+02  0.2503273E+02  0.2408633E+02  0.0000000E+00
Ar  2981  0.3814155E+02  0.2210549E+02  0.2671600E+02  0.0000000E+00
Ar  2982  0.4090775E+02  0.2475990E+02  0.2667108E+02  0.0000000E+00
Ar  2983  0.4092432E+02  0.2234398E+02  0.2923837E+02  0.0000000E+00
Ar  2984  0.3839551E+02  0.2507539E+02  0.2932217E+02  0.0000000E+00
Ar  2985  0.3845162E+02  0.2253037E+02  0.3202939E+02  0.0000000E+00
Ar  2986  0.4094088E+02  0.2503932E+02  0.3210731E+02  0.0000000E+00
Ar  2987  0.4092748E+02  0.2228046E+02  0.3469265E+02  0.0000000E+00
Ar  2988  0.3821813E+02  0.2475330E+02  0.3458828E+02  0.0000000E+00
Ar  2989  0.3863372E+02  0.2239643E+02  0.3717963E+02  0.0000000E+00
Ar  2990  0.4098196E+02  0.2513747E+02  0.3717198E+02  0.0000000E+00
Ar  2991  0.4090839E+02  0.2268431E+02  0.3990139E+02  0.0000000E+00
Ar  2992  0.3812794E+02  0.2507328E+02  0.3993215E+02  0.0000000E+00
Ar  2993  0.3840176E+02  0.2221438E+02  0.4247464E+02  0.0000000E+00
Ar  2994  0.4113057E+02  0.2484850E+02  0.4256369E+02  0.0000000E+00
Ar  2995  0.4093318E+02  0.2225999E+02  0.4507582E+02  0.0000000E+00
Ar  2996  0.3805580E+02  0.2467526E+02  0.4522680E+02  0.0000000E+00
Ar  2997  0.3832212E+02  0.2211116E+02  0.4789216E+02  0.0000000E+00
Ar  2998  0.4084795E+02  0.2452852E+02  0.4797726E+02  0.0000000E+00
Ar  2999  0.4092678E+02  0.2231527E+02  0.5069736E+02  0.0000000E+00
Ar  3000  0.3813003E+02  0.2487572E+02  0.5064868E+02  0.0000000E+00
Ar  3001  0.3814526E+02  0.2762393E+02  0.5309558E+02  0.0000000E+00
Ar  3002  0.4108791E+02  0.3016694E+02  0.3465986E-01  0.0000000E+00
Ar  3003  0.4077199E+02  0.2752054E+02  0.2911104E+01  0.0000000E+00
Ar  3004  0.3824214E+02  0.3002793E+02  0.2540490E+01  0.0000000E+00
Ar  3005  0.3813010E+02  0.2735136E+02  0.5445806E+01  0.0000000E+00
Ar  3006  0.4095937E+02  0.3016264E+02  0.5329144E+01  0.0000000E+00
Ar  3007  0.4104114E+02  0.2755679E+02  0.7914904E+01  0.0000000E+00
Ar  3008  0.3804834E+02  0.3016204E+02  0.7904545E+01  0.0000000E+00
Ar  3009  0.3853914E+02  0.2768233E+02  0.1055013E+02  0.0000000E+00
Ar  3010  0.4104761E+02  0.3028986E+02  0.1074457E+02  0.0000000E+00
Ar  3011  0.4128878E+02  0.2763513E+02  0.1328570E+02  0.0000000E+00
Ar  3012  0.3838883E+02  0.3027385E+02  0.1355574E+02  0.0000000E+00
Ar  3013  0.3852689E+02  0.2757933E+02  0.1607772E+02  0.0000000E+00
Ar  3014  0.4098843E+02  0.3048859E+02  0.1596651E+02  0.0000000E+00
Ar  3015  0.4086588E+02  0.2775259E+02  0.1876190E+02  0.0000000E+00
Ar  3016  0.3841996E+02  0.3023161E+02  0.1866392E+02  0.0000000E+00
Ar  3017  0.3822734E+02  0.2796074E+02  0.2144204E+02  0.0000000E+00
Ar  3018  0.4087004E+02  0.3024476E+02  0.2130415E+02  0.0000000E+00
Ar  3019  0.4092822E+02  0.2767072E+02  0.2416791E+02  0.0000000E+00
Ar  3020  0.3826307E+02  0.3048919E+02  0.2403861E+02  0.0000000E+00
Ar  3021  0.3844865E+02  0.2764595E+02  0.2689898E+02  0.0000000E+00
Ar  3022  0.4086495E+02  0.3067680E+02  0.2640602E+02  0.0000000E+00
Ar  3023  0.4101930E+02  0.2749365E+02  0.2958699E+02  0.0000000E+00
Ar  3024  0.3847341E+02  0.3010062E+02  0.2943111E+02  0.0000000E+00
Ar  3025  0.3815189E+02  0.2736071E+02  0.3208903E+02  0.0000000E+00
Ar  3026  0.4093527E+02  0.3040984E+02  0.3204263E+02  0.0000000E+00
Ar  3027  0.4075151E+02  0.2766567E+02  0.3461178E+02  0.0000000E+00
Ar  3028  0.3822456E+02  0.2999825E+02  0.3470898E+02  0.0000000E+00
Ar  3029  0.3826955E+02  0.2758358E+02  0.3738146E+02  0.0000000E+00
Ar  3030  0.4098552E+02  0.3018068E+02  0.3739019E+02  0.0000000E+00
Ar  3031  0.4092635E+02  0.2761462E+02  0.3999525E+02  0.0000000E+00
Ar  3032  0.3818184E+02  0.3007276E+02  0.3994143E+02  0.0000000E+00
Ar  3033  0.3823195E+02  0.2723764E+02  0.4275839E+02  0.0000000E+00
Ar  3034  0.4084566E+02  0.3031175E+02  0.4257128E+02  0.0000000E+00
Ar  3035  0.4104157E+02  0.2741852E+02  0.4522071E+02  0.0000000E+00
Ar  3036  0.3798665E+02  0.3001524E+02  0.4533636E+02  0.0000000E+00
Ar  3037  0.3838491E+02  0.2722625E+02  0.4797538E+02  0.0000000E+00
Ar  3038  0.4086436E+02  0.3015850E+02  0.4790902E+02  0.0000000E+00
Ar  3039  0.4077749E+02  0.2753475E+02  0.5060162E+02  0.0000000E+00
Ar  3040  0.3810551E+02  0.3022020E+02  0.5047567E+02  0.0000000E+00
Ar  3041  0.3807854E+02  0.3280102E+02  0.2146942E+00  0.0000000E+00
Ar  3042  0.4097924E+02  0.3532275E+02  0.5297941E+02  0.0000000E+00
Ar  3043  0.4102820E+02  0.3280170E+02  0.2619931E+01  0.0000000E+00
Ar  3044  0.3852884E+02  0.3544037E+02  0.2954653E+01  0.0000000E+00
Ar  3045  0.3821038E+02  0.3266166E+02  0.5434808E+01  0.0000000E+00
Ar  3046  0.4075989E+02  0.3521400E+02  0.5410660E+01  0.0000000E+00
Ar  3047  0.4089920E+02  0.3276547E+02  0.8048271E+01  0.0000000E+00
Ar  3048  0.3828819E+02  0.3571524E+02  0.8439020E+01  0.0000000E+00
Ar  3049  0.3815724E+02  0.3281409E+02  0.1072539E+02  0.0000000E+00
Ar  3050  0.4090846E+02  0.3547607E+02  0.1078343E+02  0.0000000E+00
Ar  3051  0.4105621E+02  0.3298607E+02  0.1322227E+02  0.0000000E+00
Ar  3052  0.3831795E+02  0.3539577E+02  0.1332736E+02  0.0000000E+00
Ar  3053  0.3850618E+02  0.3291405E+02  0.1592098E+02  0.0000000E+00
Ar  3054  0.4104925E+02  0.3554571E+02  0.1597134E+02  0.0000000E+00
Ar  3055  0.4113228E+02  0.3294464E+02  0.1889338E+02  0.0000000E+00
Ar  3056  0.3851445E+02  0.3573018E+02  0.1877023E+02  0.0000000E+00
Ar  3057  0.3813722E+02  0.3302170E+02  0.2126344E+02  0.0000000E+00
Ar  3058  0.4118225E+02  0.3560706E+02  0.2110515E+02  0.0000000E+00
Ar  3059  0.4104193E+02  0.3307078E+02  0.2395782E+02  0.0000000E+00
Ar  3060  0.3830441E+02  0.3539423E+02  0.2406142E+02  0.0000000E+00
Ar  3061  0.3822260E+02  0.3292218E+02  0.2681691E+02  0.0000000E+00
Ar  3062  0.4110370E+02  0.3566322E+02  0.2659548E+02  0.0000000E+00
Ar  3063  0.4104528E+02  0.3301931E+02  0.2926025E+02  0.0000000E+00
Ar  3064  0.3824282E+02  0.3551238E+02  0.2932803E+02  0.0000000E+00
Ar  3065  0.3828581E+02  0.3284193E+02  0.3205231E+02  0.0000000E+00
Ar  3066  0.4108113E+02  0.3577171E+02  0.3197025E+02  0.0000000E+00
Ar  3067  0.4101673E+02  0.3298906E+02  0.3466454E+02  0.0000000E+00
Ar  3068  0.3848645E+02  0.3557272E+02  0.3460511E+02  0.0000000E+00
Ar  3069  0.3833266E+02  0.3277380E+02  0.3724094E+02  0.0000000E+00
Ar  3070  0.4089141E+02  0.3563810E+02  0.3718536E+02  0.0000000E+00
Ar  3071  0.4072914E+02  0.3275446E+02  0.3979023E+02  0.0000000E+00
Ar  3072  0.3827680E+02  0.3556985E+02  0.3997010E+02  0.0000000E+00
Ar  3073  0.3839019E+02  0.3276358E+02  0.4274841E+02  0.0000000E+00
Ar  3074  0.4101648E+02  0.3547524E+02  0.4243605E+02  0.0000000E+00
Ar  3075  0.4118896E+02  0.3289211E+02  0.4516572E+02  0.0000000E+00
Ar  3076  0.3835356E+02  0.3546171E+02  0.4527950E+02  0.0000000E+00
Ar  3077  0.3822344E+02  0.3275788E+02  0.4788786E+02  0.0000000E+00
Ar  3078  0.4106774E+02  0.3521471E+02  0.4797484E+02  0.0000000E+00
Ar  3079  0.4093208E+02  0.3269465E+02  0.5061193E+02  0.0000000E+00
Ar  3080  0.3849668E+02  0.3520532E+02  0.5050963E+02  0.0000000E+00
Ar  3081  0.3846145E+02  0.3778673E+02  0.1230863E+00  0.0000000E+00
Ar  3082  0.4098023E+02  0.4076957E+02  0.2159618E+00  0.0000000E+00
Ar  3083  0.4099254E+02  0.3797209E+02  0.2747102E+01  0.0000000E+00
Ar  3084  0.3848610E+02  0.4084950E+02  0.2759235E+01  0.0000000E+00
Ar  3085  0.3835931E+02  0.3799172E+02  0.5484622E+01  0.0000000E+00
Ar  3086  0.4093866E+02  0.4055260E+02  0.5440120E+01  0.0000000E+00
Ar  3087  0.4110688E+02  0.3814600E+02  0.8104946E+01  0.0000000E+00
Ar  3088  0.3842253E+02  0.4086309E+02  0.7816362E+01  0.0000000E+00
Ar  3089  0.3825773E+02  0.3829059E+02  0.1075492E+02  0.0000000E+00
Ar  3090  0.4077363E+02  0.4082751E+02  0.1055120E+02  0.0000000E+00
Ar  3091  0.4085441E+02  0.3814931E+02  0.1331391E+02  0.0000000E+00
Ar  3092  0.3786958E+02  0.4091212E+02  0.1325997E+02  0.0000000E+00
Ar  3093  0.3848931E+02  0.3822406E+02  0.1595164E+02  0.0000000E+00
Ar  3094  0.4096098E+02  0.4073903E+02  0.1605100E+02  0.0000000E+00
Ar  3095  0.4093090E+02  0.3825747E+02  0.1872012E+02  0.0000000E+00
Ar  3096  0.3831110E+02  0.4090883E+02  0.1882693E+02  0.0000000E+00
Ar  3097  0.3813243E+02  0.3803839E+02  0.2174434E+02  0.0000000E+00
Ar  3098  0.4099437E+02  0.4078876E+02  0.2125532E+02  0.0000000E+00
Ar  3099  0.4098092E+02  0.3839164E+02  0.2414410E+02  0.0000000E+00
Ar  3100  0.3803502E+02  0.4102703E+02  0.2361621E+02  0.0000000E+00
Ar  3101  0.3843319E+02  0.3812884E+02  0.2671880E+02  0.0000000E+00
Ar  3102  0.4107843E+02  0.4086101E+02  0.2682236E+02  0.0000000E+00
Ar  3103  0.4106037E+02  0.3826640E+02  0.2916327E+02  0.0000000E+00
Ar  3104  0.3826273E+02  0.4083670E+02  0.2910501E+02  0.0000000E+00
Ar  3105  0.3839447E+02  0.3849828E+02  0.3192311E+02  0.0000000E+00
Ar  3106  0.4115299E+02  0.4097544E+02  0.3173435E+02  0.0000000E+00
Ar  3107  0.4093164E+02  0.3834176E+02  0.3465475E+02  0.0000000E+00
Ar  3108  0.3840463E+02  0.4108772E+02  0.3461360E+02  0.0000000E+00
Ar  3109  0.3828920E+02  0.3835928E+02  0.3721180E+02  0.0000000E+00
Ar  3110  0.4113178E+02  0.4121564E+02  0.3741237E+02  0.0000000E+00
Ar  3111  0.4108449E+02  0.3838649E+02  0.4010835E+02  0.0000000E+00
Ar  3112  0.3839508E+02  0.4096905E+02  0.3983350E+02  0.0000000E+00
Ar  3113  0.3847963E+02  0.3810754E+02  0.4263930E+02  0.0000000E+00
Ar  3114  0.4132643E+02  0.4101373E+02  0.4250441E+02  0.0000000E+00
Ar  3115  0.4086852E+02  0.3817832E+02  0.4523761E+02  0.0000000E+00
Ar  3116  0.3859659E+02  0.4090561E+02  0.4543820E+02  0.0000000E+00
Ar  3117  0.3879187E+02  0.3816125E+02  0.4798785E+02  0.0000000E+00
Ar  3118  0.4134444E+02  0.4084476E+02  0.4800722E+02  0.0000000E+00
Ar  3119  0.4102706E+02  0.3808886E+02  0.5074529E+02  0.0000000E+00
Ar  3120  0.3855902E+02  0.4072950E+02  0.5052926E+02  0.0000000E+00
Ar  3121  0.3860613E+02  0.4383617E+02  0.1956026E+00  0.0000000E+00
Ar  3122  0.4122135E+02  0.4615777E+02  0.5313222E+02  0.0000000E+00
Ar  3123  0.4089898E+02  0.4376603E+02  0.2619606E+01  0.0000000E+00
Ar  3124  0.3827241E+02  0.4635417E+02  0.2839896E+01  0.0000000E+00
Ar  3125  0.3837563E+02  0.4349541E+02  0.5323106E+01  0.0000000E+00
Ar  3126  0.4098001E+02  0.4614926E+02  0.5301006E+01  0.0000000E+00
Ar  3127  0.4113484E+02  0.4354469E+02  0.8231187E+01  0.0000000E+00
Ar  3128  0.3838639E+02  0.4606176E+02  0.7680031E+01  0.0000000E+00
Ar  3129  0.3803532E+02  0.4372494E+02  0.1041869E+02  0.0000000E+00
Ar  3130  0.4088239E+02  0.4625988E+02  0.1053675E+02  0.0000000E+00
Ar  3131  0.4055711E+02  0.4353850E+02  0.1323090E+02  0.0000000E+00
Ar  3132  0.3815551E+02  0.4622254E+02  0.1296413E+02  0.0000000E+00
Ar  3133  0.3814405E+02  0.4370590E+02  0.1610627E+02  0.0000000E+00
Ar  3134  0.4091785E+02  0.4617241E+02  0.1603814E+02  0.0000000E+00
Ar  3135  0.4093003E+02  0.4379896E+02  0.1875090E+02  0.0000000E+00
Ar  3136  0.3816504E+02  0.4618382E+02  0.1853831E+02  0.0000000E+00
Ar  3137  0.3823262E+02  0.4368384E+02  0.2110108E+02  0.0000000E+00
Ar  3138  0.4075276E+02  0.4641802E+02  0.2126021E+02  0.0000000E+00
Ar  3139  0.4081697E+02  0.4339298E+02  0.2397561E+02  0.0000000E+00
Ar  3140  0.3846666E+02  0.4638807E+02  0.2404611E+02  0.0000000E+00
Ar  3141  0.3850257E+02  0.4338599E+02  0.2665180E+02  0.0000000E+00
Ar  3142  0.4109726E+02  0.4632310E+02  0.2669909E+02  0.0000000E+00
Ar  3143  0.4075666E+02  0.4355762E+02  0.2936153E+02  0.0000000E+00
Ar  3144  0.3861264E+02  0.4648851E+02  0.2909702E+02  0.0000000E+00
Ar  3145  0.3842147E+02  0.4369215E+02  0.3195516E+02  0.0000000E+00
Ar  3146  0.4098214E+02  0.4657296E+02  0.3190947E+02  0.0000000E+00
Ar  3147  0.4106094E+02  0.4359141E+02  0.3458917E+02  0.0000000E+00
Ar  3148  0.3825564E+02  0.4641331E+02  0.3437577E+02  0.0000000E+00
Ar  3149  0.3823782E+02  0.4385204E+02  0.3729117E+02  0.0000000E+00
Ar  3150  0.4088859E+02  0.4627590E+02  0.3745126E+02  0.0000000E+00
Ar  3151  0.4113986E+02  0.4359897E+02  0.4005643E+02  0.0000000E+00
Ar  3152  0.3843301E+02  0.4614680E+02  0.4016313E+02  0.0000000E+00
Ar  3153  0.3856821E+02  0.4341408E+02  0.4270976E+02  0.0000000E+00
Ar  3154  0.4118421E+02  0.4609069E+02  0.4280562E+02  0.0000000E+00
Ar  3155  0.4118717E+02  0.4342786E+02  0.4513210E+02  0.0000000E+00
Ar  3156  0.3873201E+02  0.4612236E+02  0.4535516E+02  0.0000000E+00
Ar  3157  0.3845114E+02  0.4332515E+02  0.4819705E+02  0.0000000E+00
Ar  3158  0.4093219E+02  0.4596387E+02  0.4801636E+02  0.0000000E+00
Ar  3159  0.4099388E+02  0.4325550E+02  0.5059982E+02  0.0000000E+00
Ar  3160  0.3836704E+02  0.4623925E+02  0.5054050E+02  0.0000000E+00
Ar  3161  0.3848174E+02  0.4869456E+02  0.5304160E+02  0.0000000E+00
Ar  3162  0.4080575E+02  0.5160289E+02  0.1232472E+00  0.0000000E+00
Ar  3163  0.4077364E+02  0.4900511E+02  0.2674780E+01  0.0000000E+00
Ar  3164  0.3833170E+02  0.5158226E+02  0.2642247E+01  0.0000000E+00
Ar  3165  0.3851166E+02  0.4885517E+02  0.5327386E+01  0.0000000E+00
Ar  3166  0.4083599E+02  0.5160671E+02  0.5385007E+01  0.0000000E+00
Ar  3167  0.4093360E+02  0.4896225E+02  0.8139472E+01  0.0000000E+00
Ar  3168  0.3818543E+02  0.5141673E+02  0.7987105E+01  0.0000000E+00
Ar  3169  0.3839932E+02  0.4881534E+02  0.1075524E+02  0.0000000E+00
Ar  3170  0.4085822E+02  0.5164658E+02  0.1085997E+02  0.0000000E+00
Ar  3171  0.4097134E+02  0.4895416E+02  0.1340917E+02  0.0000000E+00
Ar  3172  0.3825127E+02  0.5167886E+02  0.1327713E+02  0.0000000E+00
Ar  3173  0.3811638E+02  0.4871688E+02  0.1588385E+02  0.0000000E+00
Ar  3174  0.4106411E+02  0.5140367E+02  0.1619217E+02  0.0000000E+00
Ar  3175  0.4079907E+02  0.4884885E+02  0.1877561E+02  0.0000000E+00
Ar  3176  0.3838949E+02  0.5163361E+02  0.1888212E+02  0.0000000E+00
Ar  3177  0.3818584E+02  0.4890729E+02  0.2153558E+02  0.0000000E+00
Ar  3178  0.4073039E+02  0.5156544E+02  0.2127400E+02  0.0000000E+00
Ar  3179  0.4118210E+02  0.4887312E+02  0.2412003E+02  0.0000000E+00
Ar  3180  0.3851685E+02  0.5139210E+02  0.2423476E+02  0.0000000E+00
Ar  3181  0.3849262E+02  0.4910784E+02  0.2681789E+02  0.0000000E+00
Ar  3182  0.4120353E+02  0.5159252E+02  0.2677165E+02  0.0000000E+00
Ar  3183  0.4125670E+02  0.4917013E+02  0.2945088E+02  0.0000000E+00
Ar  3184  0.3843602E+02  0.5157313E+02  0.2924763E+02  0.0000000E+00
Ar  3185  0.3836415E+02  0.4896551E+02  0.3178550E+02  0.0000000E+00
Ar  3186  0.4109779E+02  0.5166579E+02  0.3221983E+02  0.0000000E+00
Ar  3187  0.4101486E+02  0.4922957E+02  0.3467726E+02  0.0000000E+00
Ar  3188  0.3832265E+02  0.5162546E+02  0.3484126E+02  0.0000000E+00
Ar  3189  0.3825593E+02  0.4896159E+02  0.3718383E+02  0.0000000E+00
Ar  3190  0.4097507E+02  0.5145066E+02  0.3726252E+02  0.0000000E+00
Ar  3191  0.4101985E+02  0.4876684E+02  0.3988041E+02  0.0000000E+00
Ar  3192  0.3851680E+02  0.5155611E+02  0.3983902E+02  0.0000000E+00
Ar  3193  0.3858773E+02  0.4873043E+02  0.4272244E+02  0.0000000E+00
Ar  3194  0.4098341E+02  0.5147112E+02  0.4262681E+02  0.0000000E+00
Ar  3195  0.4097718E+02  0.4888563E+02  0.4518907E+02  0.0000000E+00
Ar  3196  0.3847451E+02  0.5133384E+02  0.4510788E+02  0.0000000E+00
Ar  3197  0.3833380E+02  0.4871570E+02  0.4782553E+02  0.0000000E+00
Ar  3198  0.4100811E+02  0.5156748E+02  0.4799360E+02  0.0000000E+00
Ar  3199  0.4103370E+02  0.4877561E+02  0.5055865E+02  0.0000000E+00
Ar  3200  0.3823890E+02  0.5158745E+02  0.5062104E+02  0.0000000E+00
Ar  3201  0.4352259E+02  0.1009739E+01  0.5314062E+02  0.0000000E+00
Ar  3202  0.4599753E+02  0.3627726E+01  0.1595651E+00  0.0000000E+00
Ar  3203  0.4612650E+02  0.9843606E+00  0.3057789E+01  0.0000000E+00
Ar  3204  0.4355966E+02  0.3545396E+01  0.2995286E+01  0.0000000E+00
Ar  3205  0.4332365E+02  0.8135333E+00  0.5689622E+01  0.0000000E+00
Ar  3206  0.4647490E+02  0.3835423E+01  0.5699188E+01  0.0000000E+00
Ar  3207  0.4652700E+02  0.9946151E+00  0.8369103E+01  0.0000000E+00
Ar  3208  0.4358256E+02  0.3518644E+01  0.8210002E+01  0.0000000E+00
Ar  3209  0.4377934E+02  0.9430591E+00  0.1074844E+02  0.0000000E+00
Ar  3210  0.4633595E+02  0.3907616E+01  0.1052187E+02  0.0000000E+00
Ar  3211  0.4647113E+02  0.1252090E+01  0.1335526E+02  0.0000000E+00
Ar  3212  0.4362751E+02  0.3869444E+01  0.1332613E+02  0.0000000E+00
Ar  3213  0.4353163E+02  0.8408865E+00  0.1576698E+02  0.0000000E+00
Ar  3214  0.4617904E+02  0.3775495E+01  0.1590854E+02  0.0000000E+00
Ar  3215  0.4618112E+02  0.7635961E+00  0.1841402E+02  0.0000000E+00
Ar  3216  0.4369410E+02  0.3499055E+01  0.1845500E+02  0.0000000E+00
Ar  3217  0.4369430E+02  0.8727035E+00  0.2133778E+02  0.0000000E+00
Ar  3218  0.4626371E+02  0.3493846E+01  0.2114538E+02  0.0000000E+00
Ar  3219  0.4644518E+02  0.8892020E+00  0.2378103E+02  0.0000000E+00
Ar  3220  0.4386979E+02  0.3430487E+01  0.2371300E+02  0.0000000E+00
Ar  3221  0.4389299E+02  0.9196850E+00  0.2649073E+02  0.0000000E+00
Ar  3222  0.4645043E+02  0.3701739E+01  0.2659246E+02  0.0000000E+00
Ar  3223  0.4642345E+02  0.1216851E+01  0.2933531E+02  0.0000000E+00
Ar  3224  0.4372898E+02  0.3638029E+01  0.2915866E+02  0.0000000E+00
Ar  3225  0.4354924E+02  0.1214746E+01  0.3219439E+02  0.0000000E+00
Ar  3226  0.4629215E+02  0.3691994E+01  0.3206584E+02  0.0000000E+00
Ar  3227  0.4653473E+02  0.1166350E+01  0.3461802E+02  0.0000000E+00
Ar  3228  0.4377634E+02  0.3961871E+01  0.3474960E+02  0.0000000E+00
Ar  3229  0.4401271E+02  0.1195144E+01  0.3730104E+02  0.0000000E+00
Ar  3230  0.4657786E+02  0.4038957E+01  0.3704384E+02  0.0000000E+00
Ar  3231  0.4645059E+02  0.1118712E+01  0.3989462E+02  0.0000000E+00
Ar  3232  0.4357250E+02  0.3593747E+01  0.4012468E+02  0.0000000E+00
Ar  3233  0.4357168E+02  0.9366611E+00  0.4265498E+02  0.0000000E+00
Ar  3234  0.4619167E+02  0.3464377E+01  0.4243311E+02  0.0000000E+00
Ar  3235  0.4632660E+02  0.9266336E+00  0.4516986E+02  0.0000000E+00
Ar  3236  0.4351031E+02  0.3523759E+01  0.4517194E+02  0.0000000E+00
Ar  3237  0.4376037E+02  0.8482222E+00  0.4813924E+02  0.0000000E+00
Ar  3238  0.4617945E+02  0.3556543E+01  0.4814591E+02  0.0000000E+00
Ar  3239  0.4611215E+02  0.9483626E+00  0.5066646E+02  0.0000000E+00
Ar  3240  0.4355731E+02  0.3622792E+01  0.5063018E+02  0.0000000E+00
Ar  3241  0.4343752E+02  0.6216335E+01  0.5316581E+02  0.0000000E+00
Ar  3242  0.4606522E+02  0.8671840E+01  0.1147078E+00  0.0000000E+00
Ar  3243  0.4621783E+02  0.6262177E+01  0.2750526E+01  0.0000000E+00
Ar  3244  0.4340769E+02  0.8798629E+01  0.2784787E+01  0.0000000E+00
Ar  3245  0.4385198E+02  0.6352576E+01  0.5616296E+01  0.0000000E+00
Ar  3246  0.4616401E+02  0.8904963E+01  0.5748089E+01  0.0000000E+00
Ar  3247  0.4660760E+02  0.6468719E+01  0.8188829E+01  0.0000000E+00
Ar  3248  0.4350600E+02  0.8961229E+01  0.8139757E+01  0.0000000E+00
Ar  3249  0.4376784E+02  0.6535744E+01  0.1080003E+02  0.0000000E+00
Ar  3250  0.4625591E+02  0.9081742E+01  0.1093014E+02  0.0000000E+00
Ar  3251  0.4638637E+02  0.6424582E+01  0.1342256E+02  0.0000000E+00
Ar  3252  0.4373465E+02  0.9243970E+01  0.1352987E+02  0.0000000E+00
Ar  3253  0.4372362E+02  0.6655098E+01  0.1623489E+02  0.0000000E+00
Ar  3254  0.4636984E+02  0.9164185E+01  0.1623454E+02  0.0000000E+00
Ar  3255  0.4649849E+02  0.6268001E+01  0.1894589E+02  0.0000000E+00
Ar  3256  0.4364965E+02  0.9021493E+01  0.1876552E+02  0.0000000E+00
Ar  3257  0.4360992E+02  0.6213331E+01  0.2130520E+02  0.0000000E+00
Ar  3258  0.4615989E+02  0.9269172E+01  0.2115054E+02  0.0000000E+00
Ar  3259  0.4639788E+02  0.6290445E+01  0.2411005E+02  0.0000000E+00
Ar  3260  0.4348809E+02  0.8958136E+01  0.2405506E+02  0.0000000E+00
Ar  3261  0.4381001E+02  0.6406154E+01  0.2684517E+02  0.0000000E+00
Ar  3262  0.4616603E+02  0.9004959E+01  0.2652677E+02  0.0000000E+00
Ar  3263  0.4642339E+02  0.6174384E+01  0.2939970E+02  0.0000000E+00
Ar  3264  0.4377570E+02  0.9264080E+01  0.2914346E+02  0.0000000E+00
Ar  3265  0.4362491E+02  0.6643632E+01  0.3205141E+02  0.0000000E+00
Ar  3266  0.4605639E+02  0.9197342E+01  0.3201130E+02  0.0000000E+00
Ar  3267  0.4657338E+02  0.6560561E+01  0.3460509E+02  0.0000000E+00
Ar  3268  0.4395084E+02  0.8890601E+01  0.3464622E+02  0.0000000E+00
Ar  3269  0.4368757E+02  0.6507896E+01  0.3730269E+02  0.0000000E+00
Ar  3270  0.4633928E+02  0.8959346E+01  0.3716602E+02  0.0000000E+00
Ar  3271  0.4628557E+02  0.6518977E+01  0.3994500E+02  0.0000000E+00
Ar  3272  0.4362582E+02  0.8862200E+01  0.3992696E+02  0.0000000E+00
Ar  3273  0.4358995E+02  0.6157408E+01  0.4257299E+02  0.0000000E+00
Ar  3274  0.4638319E+02  0.8774980E+01  0.4292357E+02  0.0000000E+00
Ar  3275  0.4606915E+02  0.6198831E+01  0.4532367E+02  0.0000000E+00
Ar  3276  0.4328306E+02  0.9069518E+01  0.4515963E+02  0.0000000E+00
Ar  3277  0.4359781E+02  0.6413543E+01  0.4813870E+02  0.0000000E+00
Ar  3278  0.4618930E+02  0.8788733E+01  0.4780149E+02  0.0000000E+00
Ar  3279  0.4615485E+02  0.6294826E+01  0.5066867E+02  0.0000000E+00
Ar  3280  0.4361213E+02  0.8847509E+01  0.5086213E+02  0.0000000E+00
Ar  3281  0.4345032E+02  0.1134509E+02  0.8548233E-01  0.0000000E+00
Ar  3282  0.4602556E+02  0.1406094E+02  0.5319137E+02  0.0000000E+00
Ar  3283  0.4609362E+02  0.1156164E+02  0.3120666E+01  0.0000000E+00
Ar  3284  0.4354893E+02  0.1403142E+02  0.2763704E+01  0.0000000E+00
Ar  3285  0.4348165E+02  0.1158946E+02  0.5468794E+01  0.0000000E+00
Ar  3286  0.4626348E+02  0.1413423E+02  0.5476678E+01  0.0000000E+00
Ar  3287  0.4619259E+02  0.1164809E+02  0.7989759E+01  0.0000000E+00
Ar  3288  0.4353411E+02  0.1455990E+02  0.7914068E+01  0.0000000E+00
Ar  3289  0.4356760E+02  0.1152126E+02  0.1065846E+02  0.0000000E+00
Ar  3290  0.4606974E+02  0.1453102E+02  0.1069956E+02  0.0000000E+00
Ar  3291  0.4619252E+02  0.1199739E+02  0.1352212E+02  0.0000000E+00
Ar  3292  0.4344956E+02  0.1439190E+02  0.1314953E+02  0.0000000E+00
Ar  3293  0.4338577E+02  0.1191816E+02  0.1631408E+02  0.0000000E+00
Ar  3294  0.4639944E+02  0.1450664E+02  0.1618412E+02  0.0000000E+00
Ar  3295  0.4621218E+02  0.1202347E+02  0.1888412E+02  0.0000000E+00
Ar  3296  0.4366466E+02  0.1455252E+02  0.1860634E+02  0.0000000E+00
Ar  3297  0.4349931E+02  0.1164958E+02  0.2145358E+02  0.0000000E+00
Ar  3298  0.4614192E+02  0.1410225E+02  0.2175810E+02  0.0000000E+00
Ar  3299  0.4635113E+02  0.1146643E+02  0.2401115E+02  0.0000000E+00
Ar  3300  0.4316701E+02  0.1454833E+02  0.2397893E+02  0.0000000E+00
Ar  3301  0.4368796E+02  0.1173944E+02  0.2673865E+02  0.0000000E+00
Ar  3302  0.4647351E+02  0.1413774E+02  0.2694275E+02  0.0000000E+00
Ar  3303  0.4622782E+02  0.1168615E+02  0.2935199E+02  0.0000000E+00
Ar  3304  0.4357321E+02  0.1434195E+02  0.2919350E+02  0.0000000E+00
Ar  3305  0.4369883E+02  0.1168974E+02  0.3210959E+02  0.0000000E+00
Ar  3306  0.4637727E+02  0.1451833E+02  0.3202615E+02  0.0000000E+00
Ar  3307  0.4651558E+02  0.1157135E+02  0.3459708E+02  0.0000000E+00
Ar  3308  0.4366907E+02  0.1423561E+02  0.3461029E+02  0.0000000E+00
Ar  3309  0.4356494E+02  0.1138794E+02  0.3733424E+02  0.0000000E+00
Ar  3310  0.4634532E+02  0.1418054E+02  0.3717574E+02  0.0000000E+00
Ar  3311  0.4654856E+02  0.1150653E+02  0.3971924E+02  0.0000000E+00
Ar  3312  0.4375178E+02  0.1421254E+02  0.3994226E+02  0.0000000E+00
Ar  3313  0.4366633E+02  0.1162295E+02  0.4263258E+02  0.0000000E+00
Ar  3314  0.4633270E+02  0.1427591E+02  0.4243065E+02  0.0000000E+00
Ar  3315  0.4617970E+02  0.1166305E+02  0.4538701E+02  0.0000000E+00
Ar  3316  0.4341534E+02  0.1411570E+02  0.4538956E+02  0.0000000E+00
Ar  3317  0.4387319E+02  0.1158592E+02  0.4795439E+02  0.0000000E+00
Ar  3318  0.4620229E+02  0.1453999E+02  0.4784499E+02  0.0000000E+00
Ar  3319  0.4625800E+02  0.1157162E+02  0.5072869E+02  0.0000000E+00
Ar  3320  0.4360369E+02  0.1404063E+02  0.5050828E+02  0.0000000E+00
Ar  3321  0.4344684E+02  0.1698353E+02  0.5320073E+02  0.0000000E+00
Ar  3322  0.4606777E+02  0.1969024E+02  0.5306273E+02  0.0000000E+00
Ar  3323  0.4609599E+02  0.1714679E+02  0.2710258E+01  0.0000000E+00
Ar  3324  0.4342522E+02  0.1952723E+02  0.2597390E+01  0.0000000E+00
Ar  3325  0.4361787E+02  0.1669663E+02  0.5296304E+01  0.0000000E+00
Ar  3326  0.4642221E+02  0.1958704E+02  0.5609161E+01  0.0000000E+00
Ar  3327  0.4603905E+02  0.1674532E+02  0.8188731E+01  0.0000000E+00
Ar  3328  0.4342287E+02  0.1957296E+02  0.8065351E+01  0.0000000E+00
Ar  3329  0.4341263E+02  0.1697895E+02  0.1059691E+02  0.0000000E+00
Ar  3330  0.4604209E+02  0.1931771E+02  0.1060890E+02  0.0000000E+00
Ar  3331  0.4642002E+02  0.1699907E+02  0.1326420E+02  0.0000000E+00
Ar  3332  0.4358202E+02  0.1971152E+02  0.1326793E+02  0.0000000E+00
Ar  3333  0.4369879E+02  0.1692809E+02  0.1596029E+02  0.0000000E+00
Ar  3334  0.4640503E+02  0.1961108E+02  0.1568674E+02  0.0000000E+00
Ar  3335  0.4651191E+02  0.1728089E+02  0.1849634E+02  0.0000000E+00
Ar  3336  0.4355236E+02  0.1952629E+02  0.1852349E+02  0.0000000E+00
Ar  3337  0.4382410E+02  0.1708989E+02  0.2141059E+02  0.0000000E+00
Ar  3338  0.4653984E+02  0.1957031E+02  0.2161357E+02  0.0000000E+00
Ar  3339  0.4611133E+02  0.1726075E+02  0.2429815E+02  0.0000000E+00
Ar  3340  0.4359126E+02  0.1973118E+02  0.2422626E+02  0.0000000E+00
Ar  3341  0.4363760E+02  0.1694993E+02  0.2677343E+02  0.0000000E+00
Ar  3342  0.4603823E+02  0.1995144E+02  0.2672753E+02  0.0000000E+00
Ar  3343  0.4608853E+02  0.1690283E+02  0.2955173E+02  0.0000000E+00
Ar  3344  0.4354337E+02  0.1964769E+02  0.2951462E+02  0.0000000E+00
Ar  3345  0.4326407E+02  0.1695375E+02  0.3199725E+02  0.0000000E+00
Ar  3346  0.4618365E+02  0.1959845E+02  0.3213969E+02  0.0000000E+00
Ar  3347  0.4618554E+02  0.1693006E+02  0.3480086E+02  0.0000000E+00
Ar  3348  0.4342997E+02  0.1936064E+02  0.3467041E+02  0.0000000E+00
Ar  3349  0.4375515E+02  0.1673878E+02  0.3749797E+02  0.0000000E+00
Ar  3350  0.4616511E+02  0.1957672E+02  0.3741395E+02  0.0000000E+00
Ar  3351  0.4633088E+02  0.1693757E+02  0.4007853E+02  0.0000000E+00
Ar  3352  0.4368554E+02  0.1951146E+02  0.3998158E+02  0.0000000E+00
Ar  3353  0.4372851E+02  0.1693320E+02  0.4273632E+02  0.0000000E+00
Ar  3354  0.4609287E+02  0.1965971E+02  0.4264841E+02  0.0000000E+00
Ar  3355  0.4597064E+02  0.1716672E+02  0.4540712E+02  0.0000000E+00
Ar  3356  0.4369902E+02  0.1985995E+02  0.4515186E+02  0.0000000E+00
Ar  3357  0.4344150E+02  0.1712556E+02  0.4779914E+02  0.0000000E+00
Ar  3358  0.4588610E+02  0.1963460E+02  0.4791739E+02  0.0000000E+00
Ar  3359  0.4609640E+02  0.1715148E+02  0.5075710E+02  0.0000000E+00
Ar  3360  0.4344691E+02  0.1970196E+02  0.5071750E+02  0.0000000E+00
Ar  3361  0.4363261E+02  0.2242583E+02  0.4251055E+00  0.0000000E+00
Ar  3362  0.4631534E+02  0.2474927E+02  0.2981547E+00  0.0000000E+00
Ar  3363  0.4627686E+02  0.2222951E+02  0.2671119E+01  0.0000000E+00
Ar  3364  0.4361323E+02  0.2480142E+02  0.2798857E+01  0.0000000E+00
Ar  3365  0.4355194E+02  0.2212203E+02  0.5283936E+01  0.0000000E+00
Ar  3366  0.4648839E+02  0.2496631E+02  0.5641138E+01  0.0000000E+00
Ar  3367  0.4648449E+02  0.2203121E+02  0.8104956E+01  0.0000000E+00
Ar  3368  0.4360956E+02  0.2504022E+02  0.7982270E+01  0.0000000E+00
Ar  3369  0.4347651E+02  0.2230587E+02  0.1062333E+02  0.0000000E+00
Ar  3370  0.4617824E+02  0.2491108E+02  0.1083439E+02  0.0000000E+00
Ar  3371  0.4628367E+02  0.2203302E+02  0.1320186E+02  0.0000000E+00
Ar  3372  0.4383433E+02  0.2464801E+02  0.1366162E+02  0.0000000E+00
Ar  3373  0.4339287E+02  0.2204616E+02  0.1603552E+02  0.0000000E+00
Ar  3374  0.4650158E+02  0.2485763E+02  0.1604708E+02  0.0000000E+00
Ar  3375  0.4649603E+02  0.2230193E+02  0.1837712E+02  0.0000000E+00
Ar  3376  0.4334406E+02  0.2489300E+02  0.1868215E+02  0.0000000E+00
Ar  3377  0.4395944E+02  0.2193373E+02  0.2111124E+02  0.0000000E+00
Ar  3378  0.4620670E+02  0.2478040E+02  0.2139641E+02  0.0000000E+00
Ar  3379  0.4638630E+02  0.2220728E+02  0.2416116E+02  0.0000000E+00
Ar  3380  0.4335073E+02  0.2504938E+02  0.2395154E+02  0.0000000E+00
Ar  3381  0.4358612E+02  0.2247281E+02  0.2661961E+02  0.0000000E+00
Ar  3382  0.4611268E+02  0.2500215E+02  0.2660354E+02  0.0000000E+00
Ar  3383  0.4617704E+02  0.2235001E+02  0.2947989E+02  0.0000000E+00
Ar  3384  0.4344728E+02  0.2483105E+02  0.2933971E+02  0.0000000E+00
Ar  3385  0.4351702E+02  0.2230956E+02  0.3190141E+02  0.0000000E+00
Ar  3386  0.4636189E+02  0.2526782E+02  0.3206134E+02  0.0000000E+00
Ar  3387  0.4613406E+02  0.2217118E+02  0.3464642E+02  0.0000000E+00
Ar  3388  0.4356063E+02  0.2509767E+02  0.3476690E+02  0.0000000E+00
Ar  3389  0.4362663E+02  0.2236014E+02  0.3721645E+02  0.0000000E+00
Ar  3390  0.4614897E+02  0.2512625E+02  0.3733204E+02  0.0000000E+00
Ar  3391  0.4601504E+02  0.2243359E+02  0.3979805E+02  0.0000000E+00
Ar  3392  0.4341960E+02  0.2501080E+02  0.3975330E+02  0.0000000E+00
Ar  3393  0.4358002E+02  0.2223528E+02  0.4238830E+02  0.0000000E+00
Ar  3394  0.4631150E+02  0.2480771E+02  0.4254451E+02  0.0000000E+00
Ar  3395  0.4629572E+02  0.2210818E+02  0.4516923E+02  0.0000000E+00
Ar  3396  0.4352328E+02  0.2483100E+02  0.4534095E+02  0.0000000E+00
Ar  3397  0.4339689E+02  0.2226550E+02  0.4780410E+02  0.0000000E+00
Ar  3398  0.4626947E+02  0.2440541E+02  0.4791391E+02  0.0000000E+00
Ar  3399  0.4645318E+02  0.2234027E+02  0.5084574E+02  0.0000000E+00
Ar  3400  0.4345554E+02  0.2489052E+02  0.5061736E+02  0.0000000E+00
Ar  3401  0.4357132E+02  0.2724202E+02  0.2246179E+00  0.0000000E+00
Ar  3402  0.4620139E+02  0.3009165E+02  0.5313012E+02  0.0000000E+00
Ar  3403  0.4635735E+02  0.2744284E+02  0.2756386E+01  0.0000000E+00
Ar  3404  0.4367828E+02  0.2996676E+02  0.2597872E+01  0.0000000E+00
Ar  3405  0.4354556E+02  0.2771926E+02  0.5197197E+01  0.0000000E+00
Ar  3406  0.4613245E+02  0.3022489E+02  0.5465701E+01  0.0000000E+00
Ar  3407  0.4613889E+02  0.2751566E+02  0.8118716E+01  0.0000000E+00
Ar  3408  0.4355643E+02  0.3024062E+02  0.8268741E+01  0.0000000E+00
Ar  3409  0.4388449E+02  0.2752622E+02  0.1096694E+02  0.0000000E+00
Ar  3410  0.4626398E+02  0.3031397E+02  0.1076902E+02  0.0000000E+00
Ar  3411  0.4620091E+02  0.2747008E+02  0.1353142E+02  0.0000000E+00
Ar  3412  0.4376914E+02  0.3031675E+02  0.1322329E+02  0.0000000E+00
Ar  3413  0.4363515E+02  0.2752464E+02  0.1615382E+02  0.0000000E+00
Ar  3414  0.4618429E+02  0.2999738E+02  0.1616729E+02  0.0000000E+00
Ar  3415  0.4627134E+02  0.2733187E+02  0.1876842E+02  0.0000000E+00
Ar  3416  0.4338883E+02  0.3018379E+02  0.1849007E+02  0.0000000E+00
Ar  3417  0.4343095E+02  0.2793540E+02  0.2147460E+02  0.0000000E+00
Ar  3418  0.4604568E+02  0.3015004E+02  0.2117780E+02  0.0000000E+00
Ar  3419  0.4620189E+02  0.2759693E+02  0.2394887E+02  0.0000000E+00
Ar  3420  0.4356412E+02  0.3019399E+02  0.2412535E+02  0.0000000E+00
Ar  3421  0.4346458E+02  0.2775394E+02  0.2657440E+02  0.0000000E+00
Ar  3422  0.4627876E+02  0.3045891E+02  0.2670924E+02  0.0000000E+00
Ar  3423  0.4590881E+02  0.2761521E+02  0.2935160E+02  0.0000000E+00
Ar  3424  0.4352372E+02  0.3039511E+02  0.2933337E+02  0.0000000E+00
Ar  3425  0.4365154E+02  0.2771513E+02  0.3225431E+02  0.0000000E+00
Ar  3426  0.4606799E+02  0.3034032E+02  0.3205438E+02  0.0000000E+00
Ar  3427  0.4626172E+02  0.2763804E+02  0.3486705E+02  0.0000000E+00
Ar  3428  0.4343425E+02  0.3042988E+02  0.3463427E+02  0.0000000E+00
Ar  3429  0.4349408E+02  0.2765706E+02  0.3723548E+02  0.0000000E+00
Ar  3430  0.4618086E+02  0.3017115E+02  0.3757753E+02  0.0000000E+00
Ar  3431  0.4639601E+02  0.2745097E+02  0.4004385E+02  0.0000000E+00
Ar  3432  0.4361041E+02  0.3003582E+02  0.3982550E+02  0.0000000E+00
Ar  3433  0.4383588E+02  0.2753764E+02  0.4270662E+02  0.0000000E+00
Ar  3434  0.4622520E+02  0.3030329E+02  0.4268278E+02  0.0000000E+00
Ar  3435  0.4632688E+02  0.2756210E+02  0.4530478E+02  0.0000000E+00
Ar  3436  0.4347031E+02  0.2995086E+02  0.4525278E+02  0.0000000E+00
Ar  3437  0.4357970E+02  0.2762660E+02  0.4798510E+02  0.0000000E+00
Ar  3438  0.4639886E+02  0.3026038E+02  0.4824058E+02  0.0000000E+00
Ar  3439  0.4619278E+02  0.2723961E+02  0.5089474E+02  0.0000000E+00
Ar  3440  0.4354885E+02  0.3019840E+02  0.5063373E+02  0.0000000E+00
Ar  3441  0.4361907E+02  0.3301534E+02  0.1985177E+00  0.0000000E+00
Ar  3442  0.4633108E+02  0.3552234E+02  0.5305409E+02  0.0000000E+00
Ar  3443  0.4612733E+02  0.3299678E+02  0.2855679E+01  0.0000000E+00
Ar  3444  0.4363626E+02  0.3567088E+02  0.2929834E+01  0.0000000E+00
Ar  3445  0.4348296E+02  0.3279189E+02  0.5477630E+01  0.0000000E+00
Ar  3446  0.4642199E+02  0.3558051E+02  0.5423904E+01  0.0000000E+00
Ar  3447  0.4616653E+02  0.3302764E+02  0.8132833E+01  0.0000000E+00
Ar  3448  0.4369095E+02  0.3549002E+02  0.7918521E+01  0.0000000E+00
Ar  3449  0.4358004E+02  0.3312990E+02  0.1074113E+02  0.0000000E+00
Ar  3450  0.4634883E+02  0.3549752E+02  0.1118555E+02  0.0000000E+00
Ar  3451  0.4636580E+02  0.3269596E+02  0.1365048E+02  0.0000000E+00
Ar  3452  0.4348545E+02  0.3549019E+02  0.1335387E+02  0.0000000E+00
Ar  3453  0.4364567E+02  0.3299170E+02  0.1579708E+02  0.0000000E+00
Ar  3454  0.4631674E+02  0.3568956E+02  0.1588013E+02  0.0000000E+00
Ar  3455  0.4636165E+02  0.3291840E+02  0.1857158E+02  0.0000000E+00
Ar  3456  0.4376496E+02  0.3530371E+02  0.1849602E+02  0.0000000E+00
Ar  3457  0.4347444E+02  0.3293667E+02  0.2164390E+02  0.0000000E+00
Ar  3458  0.4636902E+02  0.3572708E+02  0.2115732E+02  0.0000000E+00
Ar  3459  0.4635835E+02  0.3322121E+02  0.2369428E+02  0.0000000E+00
Ar  3460  0.4342618E+02  0.3591277E+02  0.2392801E+02  0.0000000E+00
Ar  3461  0.4369767E+02  0.3309906E+02  0.2654360E+02  0.0000000E+00
Ar  3462  0.4638526E+02  0.3568605E+02  0.2678785E+02  0.0000000E+00
Ar  3463  0.4626032E+02  0.3299579E+02  0.2939896E+02  0.0000000E+00
Ar  3464  0.4382086E+02  0.3585105E+02  0.2937423E+02  0.0000000E+00
Ar  3465  0.4376763E+02  0.3321466E+02  0.3198565E+02  0.0000000E+00
Ar  3466  0.4637501E+02  0.3566368E+02  0.3200902E+02  0.0000000E+00
Ar  3467  0.4619298E+02  0.3289548E+02  0.3481886E+02  0.0000000E+00
Ar  3468  0.4377038E+02  0.3554237E+02  0.3479201E+02  0.0000000E+00
Ar  3469  0.4373347E+02  0.3281399E+02  0.3766817E+02  0.0000000E+00
Ar  3470  0.4641695E+02  0.3558124E+02  0.3738880E+02  0.0000000E+00
Ar  3471  0.4606916E+02  0.3292405E+02  0.4012274E+02  0.0000000E+00
Ar  3472  0.4353859E+02  0.3543164E+02  0.3990213E+02  0.0000000E+00
Ar  3473  0.4355908E+02  0.3278158E+02  0.4247614E+02  0.0000000E+00
Ar  3474  0.4612727E+02  0.3540174E+02  0.4250767E+02  0.0000000E+00
Ar  3475  0.4601093E+02  0.3278392E+02  0.4523591E+02  0.0000000E+00
Ar  3476  0.4356945E+02  0.3551029E+02  0.4522761E+02  0.0000000E+00
Ar  3477  0.4368261E+02  0.3260305E+02  0.4786782E+02  0.0000000E+00
Ar  3478  0.4613422E+02  0.3531889E+02  0.4800918E+02  0.0000000E+00
Ar  3479  0.4629241E+02  0.3286608E+02  0.5051307E+02  0.0000000E+00
Ar  3480  0.4381077E+02  0.3549464E+02  0.5039955E+02  0.0000000E+00
Ar  3481  0.4370522E+02  0.3811708E+02  0.5315472E+02  0.0000000E+00
Ar  3482  0.4630049E+02  0.4084247E+02  0.2704772E+00  0.0000000E+00
Ar  3483  0.4630494E+02  0.3815461E+02  0.2610476E+01  0.0000000E+00
Ar  3484  0.4347839E+02  0.4101468E+02  0.2888931E+01  0.0000000E+00
Ar  3485  0.4383295E+02  0.3828690E+02  0.5515684E+01  0.0000000E+00
Ar  3486  0.4612340E+02  0.4100338E+02  0.5553476E+01  0.0000000E+00
Ar  3487  0.4641235E+02  0.3804013E+02  0.8173544E+01  0.0000000E+00
Ar  3488  0.4353356E+02  0.4100914E+02  0.8035711E+01  0.0000000E+00
Ar  3489  0.4387342E+02  0.3816050E+02  0.1089254E+02  0.0000000E+00
Ar  3490  0.4626017E+02  0.4074100E+02  0.1073848E+02  0.0000000E+00
Ar  3491  0.4626319E+02  0.3840043E+02  0.1337857E+02  0.0000000E+00
Ar  3492  0.4364739E+02  0.4079831E+02  0.1340441E+02  0.0000000E+00
Ar  3493  0.4343610E+02  0.3825911E+02  0.1622986E+02  0.0000000E+00
Ar  3494  0.4617797E+02  0.4080071E+02  0.1609201E+02  0.0000000E+00
Ar  3495  0.4633345E+02  0.3813681E+02  0.1846692E+02  0.0000000E+00
Ar  3496  0.4373798E+02  0.4096514E+02  0.1876614E+02  0.0000000E+00
Ar  3497  0.4369797E+02  0.3818281E+02  0.2135249E+02  0.0000000E+00
Ar  3498  0.4644954E+02  0.4102183E+02  0.2129987E+02  0.0000000E+00
Ar  3499  0.4637280E+02  0.3839917E+02  0.2417085E+02  0.0000000E+00
Ar  3500  0.4350730E+02  0.4115367E+02  0.2412812E+02  0.0000000E+00
Ar  3501  0.4365056E+02  0.3823125E+02  0.2645813E+02  0.0000000E+00
Ar  3502  0.4654311E+02  0.4099652E+02  0.2667091E+02  0.0000000E+00
Ar  3503  0.4659109E+02  0.3802757E+02  0.2932215E+02  0.0000000E+00
Ar  3504  0.4367117E+02  0.4082441E+02  0.2942671E+02  0.0000000E+00
Ar  3505  0.4390040E+02  0.3832851E+02  0.3210977E+02  0.0000000E+00
Ar  3506  0.4625995E+02  0.4092428E+02  0.3238656E+02  0.0000000E+00
Ar  3507  0.4636919E+02  0.3824130E+02  0.3490738E+02  0.0000000E+00
Ar  3508  0.4363805E+02  0.4091224E+02  0.3441246E+02  0.0000000E+00
Ar  3509  0.4356086E+02  0.3823184E+02  0.3741562E+02  0.0000000E+00
Ar  3510  0.4668473E+02  0.4085162E+02  0.3723253E+02  0.0000000E+00
Ar  3511  0.4641006E+02  0.3836521E+02  0.4005670E+02  0.0000000E+00
Ar  3512  0.4396198E+02  0.4102237E+02  0.4001297E+02  0.0000000E+00
Ar  3513  0.4371688E+02  0.3820978E+02  0.4260531E+02  0.0000000E+00
Ar  3514  0.4672644E+02  0.4116036E+02  0.4247662E+02  0.0000000E+00
Ar  3515  0.4646093E+02  0.3802414E+02  0.4547330E+02  0.0000000E+00
Ar  3516  0.4374839E+02  0.4084455E+02  0.4515513E+02  0.0000000E+00
Ar  3517  0.4354159E+02  0.3806793E+02  0.4799808E+02  0.0000000E+00
Ar  3518  0.4615416E+02  0.4091875E+02  0.4812480E+02  0.0000000E+00
Ar  3519  0.4617467E+02  0.3813001E+02  0.5047017E+02  0.0000000E+00
Ar  3520  0.4380529E+02  0.4096654E+02  0.5066379E+02  0.0000000E+00
Ar  3521  0.4380539E+02  0.4357301E+02  0.1224415E+00  0.0000000E+00
Ar  3522  0.4644438E+02  0.4608540E+02  0.1294942E+00  0.0000000E+00
Ar  3523  0.4613646E+02  0.4347088E+02  0.2680911E+01  0.0000000E+00
Ar  3524  0.4350637E+02  0.4636752E+02  0.2515954E+01  0.0000000E+00
Ar  3525  0.4318082E+02  0.4357323E+02  0.5023413E+01  0.0000000E+00
Ar  3526  0.4609190E+02  0.4617907E+02  0.5107990E+01  0.0000000E+00
Ar  3527  0.4619629E+02  0.4358388E+02  0.7833722E+01  0.0000000E+00
Ar  3528  0.4354248E+02  0.4636246E+02  0.7945489E+01  0.0000000E+00
Ar  3529  0.4352136E+02  0.4327368E+02  0.1082585E+02  0.0000000E+00
Ar  3530  0.4612786E+02  0.4585211E+02  0.1078941E+02  0.0000000E+00
Ar  3531  0.4621464E+02  0.4335228E+02  0.1347057E+02  0.0000000E+00
Ar  3532  0.4332257E+02  0.4611310E+02  0.1316046E+02  0.0000000E+00
Ar  3533  0.4347982E+02  0.4339352E+02  0.1592081E+02  0.0000000E+00
Ar  3534  0.4630695E+02  0.4608804E+02  0.1597589E+02  0.0000000E+00
Ar  3535  0.4625190E+02  0.4375554E+02  0.1867086E+02  0.0000000E+00
Ar  3536  0.4354145E+02  0.4636456E+02  0.1843758E+02  0.0000000E+00
Ar  3537  0.4373863E+02  0.4362689E+02  0.2121078E+02  0.0000000E+00
Ar  3538  0.4636768E+02  0.4616625E+02  0.2136202E+02  0.0000000E+00
Ar  3539  0.4637937E+02  0.4375731E+02  0.2394671E+02  0.0000000E+00
Ar  3540  0.4340988E+02  0.4616378E+02  0.2414506E+02  0.0000000E+00
Ar  3541  0.4381222E+02  0.4355720E+02  0.2713440E+02  0.0000000E+00
Ar  3542  0.4636014E+02  0.4649478E+02  0.2655438E+02  0.0000000E+00
Ar  3543  0.4635434E+02  0.4348236E+02  0.2957968E+02  0.0000000E+00
Ar  3544  0.4365365E+02  0.4635064E+02  0.2957954E+02  0.0000000E+00
Ar  3545  0.4366849E+02  0.4366220E+02  0.3202569E+02  0.0000000E+00
Ar  3546  0.4636834E+02  0.4640108E+02  0.3205207E+02  0.0000000E+00
Ar  3547  0.4636785E+02  0.4351512E+02  0.3477112E+02  0.0000000E+00
Ar  3548  0.4375270E+02  0.4641234E+02  0.3447746E+02  0.0000000E+00
Ar  3549  0.4358484E+02  0.4372619E+02  0.3727684E+02  0.0000000E+00
Ar  3550  0.4646879E+02  0.4624948E+02  0.3724708E+02  0.0000000E+00
Ar  3551  0.4664048E+02  0.4362014E+02  0.3976535E+02  0.0000000E+00
Ar  3552  0.4373030E+02  0.4616351E+02  0.3986913E+02  0.0000000E+00
Ar  3553  0.4382381E+02  0.4368397E+02  0.4268436E+02  0.0000000E+00
Ar  3554  0.4623100E+02  0.4632758E+02  0.4276122E+02  0.0000000E+00
Ar  3555  0.4631372E+02  0.4329900E+02  0.4541989E+02  0.0000000E+00
Ar  3556  0.4360413E+02  0.4638179E+02  0.4544245E+02  0.0000000E+00
Ar  3557  0.4379578E+02  0.4344512E+02  0.4793478E+02  0.0000000E+00
Ar  3558  0.4617745E+02  0.4592094E+02  0.4812498E+02  0.0000000E+00
Ar  3559  0.4620964E+02  0.4369574E+02  0.5080568E+02  0.0000000E+00
Ar  3560  0.4343076E+02  0.4626283E+02  0.5058023E+02  0.0000000E+00
Ar  3561  0.4353280E+02  0.4898160E+02  0.1153273E+00  0.0000000E+00
Ar  3562  0.4627484E+02  0.5147016E+02  0.5320411E+02  0.0000000E+00
Ar  3563  0.4619378E+02  0.4909162E+02  0.2822843E+01  0.0000000E+00
Ar  3564  0.4334994E+02  0.5174394E+02  0.2633062E+01  0.0000000E+00
Ar  3565  0.4352450E+02  0.4906659E+02  0.5251622E+01  0.0000000E+00
Ar  3566  0.4634642E+02  0.5160605E+02  0.5595536E+01  0.0000000E+00
Ar  3567  0.4598068E+02  0.4881443E+02  0.8081280E+01  0.0000000E+00
Ar  3568  0.4358095E+02  0.5136494E+02  0.8299802E+01  0.0000000E+00
Ar  3569  0.4348604E+02  0.4878923E+02  0.1073926E+02  0.0000000E+00
Ar  3570  0.4638129E+02  0.5165898E+02  0.1074343E+02  0.0000000E+00
Ar  3571  0.4623983E+02  0.4867398E+02  0.1321866E+02  0.0000000E+00
Ar  3572  0.4358695E+02  0.5155255E+02  0.1330532E+02  0.0000000E+00
Ar  3573  0.4349788E+02  0.4866025E+02  0.1585219E+02  0.0000000E+00
Ar  3574  0.4642173E+02  0.5137906E+02  0.1573869E+02  0.0000000E+00
Ar  3575  0.4642471E+02  0.4860290E+02  0.1852286E+02  0.0000000E+00
Ar  3576  0.4374893E+02  0.5126684E+02  0.1855797E+02  0.0000000E+00
Ar  3577  0.4354247E+02  0.4887532E+02  0.2106490E+02  0.0000000E+00
Ar  3578  0.4618112E+02  0.5120187E+02  0.2118955E+02  0.0000000E+00
Ar  3579  0.4654597E+02  0.4904218E+02  0.2403264E+02  0.0000000E+00
Ar  3580  0.4384689E+02  0.5129742E+02  0.2411639E+02  0.0000000E+00
Ar  3581  0.4361090E+02  0.4874454E+02  0.2691352E+02  0.0000000E+00
Ar  3582  0.4631186E+02  0.5145777E+02  0.2684962E+02  0.0000000E+00
Ar  3583  0.4633801E+02  0.4874312E+02  0.2949247E+02  0.0000000E+00
Ar  3584  0.4365410E+02  0.5191497E+02  0.2931925E+02  0.0000000E+00
Ar  3585  0.4371251E+02  0.4907529E+02  0.3192381E+02  0.0000000E+00
Ar  3586  0.4653965E+02  0.5163252E+02  0.3202746E+02  0.0000000E+00
Ar  3587  0.4642582E+02  0.4906340E+02  0.3459717E+02  0.0000000E+00
Ar  3588  0.4380797E+02  0.5166856E+02  0.3476768E+02  0.0000000E+00
Ar  3589  0.4413923E+02  0.4910481E+02  0.3732458E+02  0.0000000E+00
Ar  3590  0.4671744E+02  0.5192102E+02  0.3737260E+02  0.0000000E+00
Ar  3591  0.4662640E+02  0.4910612E+02  0.3996237E+02  0.0000000E+00
Ar  3592  0.4366572E+02  0.5176890E+02  0.3996770E+02  0.0000000E+00
Ar  3593  0.4343456E+02  0.4889834E+02  0.4251111E+02  0.0000000E+00
Ar  3594  0.4639729E+02  0.5146042E+02  0.4282005E+02  0.0000000E+00
Ar  3595  0.4629534E+02  0.4853804E+02  0.4539314E+02  0.0000000E+00
Ar  3596  0.4374902E+02  0.5127108E+02  0.4553322E+02  0.0000000E+00
Ar  3597  0.4378707E+02  0.4899910E+02  0.4813672E+02  0.0000000E+00
Ar  3598  0.4649410E+02  0.5153784E+02  0.4775274E+02  0.0000000E+00
Ar  3599  0.4667291E+02  0.4877708E+02  0.5052697E+02  0.0000000E+00
Ar  3600  0.4354594E+02  0.5152320E+02  0.5065799E+02  0.0000000E+00
Ar  3601  0.4906155E+02  0.1084742E+01  0.2655222E+00  0.0000000E+00
Ar  3602  0.5143218E+02  0.3704792E+01  0.2762238E+00  0.0000000E+00
Ar  3603  0.5155828E+02  0.9766482E+00  0.2864558E+01  0.0000000E+00
Ar  3604  0.4868137E+02  0.3762426E+01  0.2859023E+01  0.0000000E+00
Ar  3605  0.4898248E+02  0.9407640E+00  0.5377608E+01  0.0000000E+00
Ar  3606  0.5132895E+02  0.3630417E+01  0.5303069E+01  0.0000000E+00
Ar  3607  0.5161535E+02  0.1157142E+01  0.8167265E+01  0.0000000E+00
Ar  3608  0.4904353E+02  0.3565441E+01  0.7984117E+01  0.0000000E+00
Ar  3609  0.4919077E+02  0.9988554E+00  0.1112042E+02  0.0000000E+00
Ar  3610  0.5148773E+02  0.3869608E+01  0.1053793E+02  0.0000000E+00
Ar  3611  0.5153377E+02  0.1066272E+01  0.1354002E+02  0.0000000E+00
Ar  3612  0.4898891E+02  0.3946761E+01  0.1336796E+02  0.0000000E+00
Ar  3613  0.4886203E+02  0.1492108E+01  0.1598616E+02  0.0000000E+00
Ar  3614  0.5165811E+02  0.3966438E+01  0.1595688E+02  0.0000000E+00
Ar  3615  0.5155474E+02  0.9011187E+00  0.1829263E+02  0.0000000E+00
Ar  3616  0.4896131E+02  0.3698205E+01  0.1871284E+02  0.0000000E+00
Ar  3617  0.4883011E+02  0.1020558E+01  0.2107655E+02  0.0000000E+00
Ar  3618  0.5160597E+02  0.3569230E+01  0.2124859E+02  0.0000000E+00
Ar  3619  0.5172397E+02  0.7180418E+00  0.2396173E+02  0.0000000E+00
Ar  3620  0.4913129E+02  0.3612963E+01  0.2398880E+02  0.0000000E+00
Ar  3621  0.4887589E+02  0.7121678E+00  0.2643042E+02  0.0000000E+00
Ar  3622  0.5159418E+02  0.3427666E+01  0.2669658E+02  0.0000000E+00
Ar  3623  0.5151822E+02  0.8826760E+00  0.2936292E+02  0.0000000E+00
Ar  3624  0.4897575E+02  0.3593603E+01  0.2935357E+02  0.0000000E+00
Ar  3625  0.4919546E+02  0.9881662E+00  0.3206038E+02  0.0000000E+00
Ar  3626  0.5169488E+02  0.3836058E+01  0.3186968E+02  0.0000000E+00
Ar  3627  0.5145982E+02  0.1008997E+01  0.3452257E+02  0.0000000E+00
Ar  3628  0.4923393E+02  0.3604579E+01  0.3466669E+02  0.0000000E+00
Ar  3629  0.4914621E+02  0.1211318E+01  0.3705170E+02  0.0000000E+00
Ar  3630  0.5175048E+02  0.3608168E+01  0.3716035E+02  0.0000000E+00
Ar  3631  0.5149447E+02  0.1309924E+01  0.4012989E+02  0.0000000E+00
Ar  3632  0.4899410E+02  0.3814335E+01  0.3975022E+02  0.0000000E+00
Ar  3633  0.4888939E+02  0.1070820E+01  0.4250509E+02  0.0000000E+00
Ar  3634  0.5185687E+02  0.4014317E+01  0.4253935E+02  0.0000000E+00
Ar  3635  0.5139469E+02  0.1237655E+01  0.4520792E+02  0.0000000E+00
Ar  3636  0.4873102E+02  0.3839684E+01  0.4547030E+02  0.0000000E+00
Ar  3637  0.4886923E+02  0.1024079E+01  0.4797618E+02  0.0000000E+00
Ar  3638  0.5141069E+02  0.4125903E+01  0.4780641E+02  0.0000000E+00
Ar  3639  0.5167428E+02  0.1115512E+01  0.5054561E+02  0.0000000E+00
Ar  3640  0.4880766E+02  0.3950094E+01  0.5081120E+02  0.0000000E+00
Ar  3641  0.4888615E+02  0.6408042E+01  0.1735903E+00  0.0000000E+00
Ar  3642  0.5131133E+02  0.8847458E+01  0.5306662E+02  0.0000000E+00
Ar  3643  0.5150920E+02  0.6342002E+01  0.2584896E+01  0.0000000E+00
Ar  3644  0.4876300E+02  0.9070048E+01  0.2621454E+01  0.0000000E+00
Ar  3645  0.4882919E+02  0.6594693E+01  0.5323190E+01  0.0000000E+00
Ar  3646  0.5150202E+02  0.9146690E+01  0.5342625E+01  0.0000000E+00
Ar  3647  0.5166345E+02  0.6552009E+01  0.8215785E+01  0.0000000E+00
Ar  3648  0.4874152E+02  0.9273355E+01  0.8151270E+01  0.0000000E+00
Ar  3649  0.4895846E+02  0.6586735E+01  0.1086745E+02  0.0000000E+00
Ar  3650  0.5135701E+02  0.9149772E+01  0.1088593E+02  0.0000000E+00
Ar  3651  0.5161843E+02  0.6723059E+01  0.1342939E+02  0.0000000E+00
Ar  3652  0.4896976E+02  0.9084341E+01  0.1345947E+02  0.0000000E+00
Ar  3653  0.4894578E+02  0.6480382E+01  0.1598185E+02  0.0000000E+00
Ar  3654  0.5153406E+02  0.9181954E+01  0.1616410E+02  0.0000000E+00
Ar  3655  0.5128685E+02  0.6437055E+01  0.1874799E+02  0.0000000E+00
Ar  3656  0.4878270E+02  0.9354431E+01  0.1875574E+02  0.0000000E+00
Ar  3657  0.4896319E+02  0.6412488E+01  0.2147104E+02  0.0000000E+00
Ar  3658  0.5159418E+02  0.9083589E+01  0.2122590E+02  0.0000000E+00
Ar  3659  0.5152602E+02  0.6352931E+01  0.2410598E+02  0.0000000E+00
Ar  3660  0.4909375E+02  0.8929566E+01  0.2390649E+02  0.0000000E+00
Ar  3661  0.4896985E+02  0.6223190E+01  0.2657904E+02  0.0000000E+00
Ar  3662  0.5180162E+02  0.8952442E+01  0.2662645E+02  0.0000000E+00
Ar  3663  0.5157150E+02  0.6336028E+01  0.2931854E+02  0.0000000E+00
Ar  3664  0.4886669E+02  0.8927778E+01  0.2933279E+02  0.0000000E+00
Ar  3665  0.4900020E+02  0.6281002E+01  0.3211022E+02  0.0000000E+00
Ar  3666  0.5154089E+02  0.8863066E+01  0.3191303E+02  0.0000000E+00
Ar  3667  0.5184558E+02  0.6349089E+01  0.3460890E+02  0.0000000E+00
Ar  3668  0.4922288E+02  0.8916206E+01  0.3473459E+02  0.0000000E+00
Ar  3669  0.4916725E+02  0.6198860E+01  0.3721937E+02  0.0000000E+00
Ar  3670  0.5178151E+02  0.9176343E+01  0.3716222E+02  0.0000000E+00
Ar  3671  0.5164840E+02  0.6369198E+01  0.3996604E+02  0.0000000E+00
Ar  3672  0.4898005E+02  0.8956688E+01  0.4019221E+02  0.0000000E+00
Ar  3673  0.4909339E+02  0.6400401E+01  0.4261158E+02  0.0000000E+00
Ar  3674  0.5187205E+02  0.8971948E+01  0.4273138E+02  0.0000000E+00
Ar  3675  0.5154175E+02  0.6163577E+01  0.4515416E+02  0.0000000E+00
Ar  3676  0.4898613E+02  0.8953266E+01  0.4531580E+02  0.0000000E+00
Ar  3677  0.4887869E+02  0.6506854E+01  0.4797711E+02  0.0000000E+00
Ar  3678  0.5160637E+02  0.8898708E+01  0.4783433E+02  0.0000000E+00
Ar  3679  0.5146588E+02  0.6338806E+01  0.5057970E+02  0.0000000E+00
Ar  3680  0.4859599E+02  0.9036295E+01  0.5081856E+02  0.0000000E+00
Ar  3681  0.4878728E+02  0.1144521E+02  0.4988138E-01  0.0000000E+00
Ar  3682  0.5136293E+02  0.1429086E+02  0.1167588E+00  0.0000000E+00
Ar  3683  0.5168374E+02  0.1141774E+02  0.2483328E+01  0.0000000E+00
Ar  3684  0.4872152E+02  0.1423720E+02  0.2885043E+01  0.0000000E+00
Ar  3685  0.4894758E+02  0.1142418E+02  0.5626209E+01  0.0000000E+00
Ar  3686  0.5159064E+02  0.1400909E+02  0.5532748E+01  0.0000000E+00
Ar  3687  0.5145551E+02  0.1167836E+02  0.8323412E+01  0.0000000E+00
Ar  3688  0.4892838E+02  0.1413614E+02  0.8111450E+01  0.0000000E+00
Ar  3689  0.4885911E+02  0.1174579E+02  0.1095369E+02  0.0000000E+00
Ar  3690  0.5148827E+02  0.1411603E+02  0.1080771E+02  0.0000000E+00
Ar  3691  0.5155403E+02  0.1169106E+02  0.1328882E+02  0.0000000E+00
Ar  3692  0.4908457E+02  0.1434215E+02  0.1364012E+02  0.0000000E+00
Ar  3693  0.4889188E+02  0.1158128E+02  0.1602685E+02  0.0000000E+00
Ar  3694  0.5174089E+02  0.1427148E+02  0.1605607E+02  0.0000000E+00
Ar  3695  0.5173650E+02  0.1180300E+02  0.1860686E+02  0.0000000E+00
Ar  3696  0.4901989E+02  0.1412417E+02  0.1869294E+02  0.0000000E+00
Ar  3697  0.4892797E+02  0.1168842E+02  0.2154175E+02  0.0000000E+00
Ar  3698  0.5171106E+02  0.1409514E+02  0.2116349E+02  0.0000000E+00
Ar  3699  0.5172830E+02  0.1155308E+02  0.2404524E+02  0.0000000E+00
Ar  3700  0.4884839E+02  0.1441253E+02  0.2437704E+02  0.0000000E+00
Ar  3701  0.4913191E+02  0.1155004E+02  0.2675164E+02  0.0000000E+00
Ar  3702  0.5144471E+02  0.1448151E+02  0.2653077E+02  0.0000000E+00
Ar  3703  0.5172628E+02  0.1186150E+02  0.2944097E+02  0.0000000E+00
Ar  3704  0.4908932E+02  0.1442896E+02  0.2938832E+02  0.0000000E+00
Ar  3705  0.4917640E+02  0.1167527E+02  0.3188396E+02  0.0000000E+00
Ar  3706  0.5170862E+02  0.1445004E+02  0.3186386E+02  0.0000000E+00
Ar  3707  0.5177893E+02  0.1163668E+02  0.3438151E+02  0.0000000E+00
Ar  3708  0.4894391E+02  0.1440161E+02  0.3460226E+02  0.0000000E+00
Ar  3709  0.4928615E+02  0.1175805E+02  0.3712220E+02  0.0000000E+00
Ar  3710  0.5193307E+02  0.1451395E+02  0.3728326E+02  0.0000000E+00
Ar  3711  0.5116854E+02  0.1152111E+02  0.4009231E+02  0.0000000E+00
Ar  3712  0.4910790E+02  0.1428811E+02  0.3987619E+02  0.0000000E+00
Ar  3713  0.4891232E+02  0.1149998E+02  0.4278918E+02  0.0000000E+00
Ar  3714  0.5144430E+02  0.1450590E+02  0.4260854E+02  0.0000000E+00
Ar  3715  0.5147783E+02  0.1175571E+02  0.4514576E+02  0.0000000E+00
Ar  3716  0.4881094E+02  0.1458783E+02  0.4497648E+02  0.0000000E+00
Ar  3717  0.4877174E+02  0.1154504E+02  0.4779582E+02  0.0000000E+00
Ar  3718  0.5171741E+02  0.1459786E+02  0.4790634E+02  0.0000000E+00
Ar  3719  0.5147536E+02  0.1160735E+02  0.5080545E+02  0.0000000E+00
Ar  3720  0.4894023E+02  0.1422258E+02  0.5049661E+02  0.0000000E+00
Ar  3721  0.4879631E+02  0.1710307E+02  0.5312907E+02  0.0000000E+00
Ar  3722  0.5164709E+02  0.1946248E+02  0.5515485E+00  0.0000000E+00
Ar  3723  0.5175797E+02  0.1676541E+02  0.2941951E+01  0.0000000E+00
Ar  3724  0.4907991E+02  0.1943112E+02  0.3034810E+01  0.0000000E+00
Ar  3725  0.4901067E+02  0.1663207E+02  0.5785176E+01  0.0000000E+00
Ar  3726  0.5163170E+02  0.1924550E+02  0.5577772E+01  0.0000000E+00
Ar  3727  0.5162210E+02  0.1677037E+02  0.8117171E+01  0.0000000E+00
Ar  3728  0.4889807E+02  0.1935943E+02  0.7985810E+01  0.0000000E+00
Ar  3729  0.4910734E+02  0.1686770E+02  0.1091018E+02  0.0000000E+00
Ar  3730  0.5170629E+02  0.1943017E+02  0.1079168E+02  0.0000000E+00
Ar  3731  0.5153007E+02  0.1689340E+02  0.1359099E+02  0.0000000E+00
Ar  3732  0.4908263E+02  0.1969273E+02  0.1350404E+02  0.0000000E+00
Ar  3733  0.4902823E+02  0.1696710E+02  0.1607947E+02  0.0000000E+00
Ar  3734  0.5169514E+02  0.1952760E+02  0.1581690E+02  0.0000000E+00
Ar  3735  0.5181984E+02  0.1696365E+02  0.1867311E+02  0.0000000E+00
Ar  3736  0.4908412E+02  0.1978889E+02  0.1845328E+02  0.0000000E+00
Ar  3737  0.4880002E+02  0.1675159E+02  0.2135249E+02  0.0000000E+00
Ar  3738  0.5141653E+02  0.1946857E+02  0.2123247E+02  0.0000000E+00
Ar  3739  0.5156925E+02  0.1673193E+02  0.2374356E+02  0.0000000E+00
Ar  3740  0.4919053E+02  0.1955253E+02  0.2414293E+02  0.0000000E+00
Ar  3741  0.4874219E+02  0.1705779E+02  0.2690470E+02  0.0000000E+00
Ar  3742  0.5111532E+02  0.1973821E+02  0.2698947E+02  0.0000000E+00
Ar  3743  0.5143955E+02  0.1704516E+02  0.2915833E+02  0.0000000E+00
Ar  3744  0.4873845E+02  0.1962619E+02  0.2934873E+02  0.0000000E+00
Ar  3745  0.4901261E+02  0.1702811E+02  0.3201590E+02  0.0000000E+00
Ar  3746  0.5158032E+02  0.1979259E+02  0.3203571E+02  0.0000000E+00
Ar  3747  0.5162962E+02  0.1696872E+02  0.3462589E+02  0.0000000E+00
Ar  3748  0.4885523E+02  0.1980329E+02  0.3469008E+02  0.0000000E+00
Ar  3749  0.4891385E+02  0.1673482E+02  0.3740648E+02  0.0000000E+00
Ar  3750  0.5151967E+02  0.1996394E+02  0.3725666E+02  0.0000000E+00
Ar  3751  0.5140522E+02  0.1724094E+02  0.4019243E+02  0.0000000E+00
Ar  3752  0.4874976E+02  0.2005762E+02  0.3982060E+02  0.0000000E+00
Ar  3753  0.4882570E+02  0.1737714E+02  0.4266736E+02  0.0000000E+00
Ar  3754  0.5173273E+02  0.1969320E+02  0.4285311E+02  0.0000000E+00
Ar  3755  0.5145187E+02  0.1719158E+02  0.4530125E+02  0.0000000E+00
Ar  3756  0.4874401E+02  0.1956271E+02  0.4543944E+02  0.0000000E+00
Ar  3757  0.4899140E+02  0.1717017E+02  0.4800381E+02  0.0000000E+00
Ar  3758  0.5145894E+02  0.1978415E+02  0.4799960E+02  0.0000000E+00
Ar  3759  0.5174846E+02  0.1713655E+02  0.5085798E+02  0.0000000E+00
Ar  3760  0.4897503E+02  0.1959361E+02  0.5059221E+02  0.0000000E+00
Ar  3761  0.4902057E+02  0.2217636E+02  0.2411445E+00  0.0000000E+00
Ar  3762  0.5179501E+02  0.2484337E+02  0.2667837E+00  0.0000000E+00
Ar  3763  0.5164342E+02  0.2207080E+02  0.3027618E+01  0.0000000E+00
Ar  3764  0.4900548E+02  0.2478329E+02  0.2871074E+01  0.0000000E+00
Ar  3765  0.4902336E+02  0.2215985E+02  0.5546918E+01  0.0000000E+00
Ar  3766  0.5167193E+02  0.2480892E+02  0.5452576E+01  0.0000000E+00
Ar  3767  0.5168553E+02  0.2203958E+02  0.8106590E+01  0.0000000E+00
Ar  3768  0.4903501E+02  0.2479049E+02  0.8293449E+01  0.0000000E+00
Ar  3769  0.4878099E+02  0.2187366E+02  0.1074518E+02  0.0000000E+00
Ar  3770  0.5209902E+02  0.2493849E+02  0.1035662E+02  0.0000000E+00
Ar  3771  0.5166019E+02  0.2206621E+02  0.1333736E+02  0.0000000E+00
Ar  3772  0.4906750E+02  0.2457870E+02  0.1313931E+02  0.0000000E+00
Ar  3773  0.4905635E+02  0.2221786E+02  0.1617202E+02  0.0000000E+00
Ar  3774  0.5149397E+02  0.2503319E+02  0.1605250E+02  0.0000000E+00
Ar  3775  0.5155251E+02  0.2244110E+02  0.1858073E+02  0.0000000E+00
Ar  3776  0.4882172E+02  0.2502684E+02  0.1886824E+02  0.0000000E+00
Ar  3777  0.4898165E+02  0.2216718E+02  0.2116145E+02  0.0000000E+00
Ar  3778  0.5156009E+02  0.2472858E+02  0.2104931E+02  0.0000000E+00
Ar  3779  0.5148637E+02  0.2229430E+02  0.2417272E+02  0.0000000E+00
Ar  3780  0.4892924E+02  0.2491153E+02  0.2387297E+02  0.0000000E+00
Ar  3781  0.4870018E+02  0.2256319E+02  0.2690128E+02  0.0000000E+00
Ar  3782  0.5161302E+02  0.2485199E+02  0.2668000E+02  0.0000000E+00
Ar  3783  0.5126727E+02  0.2244877E+02  0.2957219E+02  0.0000000E+00
Ar  3784  0.4866783E+02  0.2509029E+02  0.2926017E+02  0.0000000E+00
Ar  3785  0.4857741E+02  0.2244327E+02  0.3206476E+02  0.0000000E+00
Ar  3786  0.5133012E+02  0.2505523E+02  0.3207644E+02  0.0000000E+00
Ar  3787  0.5150746E+02  0.2211107E+02  0.3453909E+02  0.0000000E+00
Ar  3788  0.4903535E+02  0.2522777E+02  0.3473585E+02  0.0000000E+00
Ar  3789  0.4888312E+02  0.2239292E+02  0.3704469E+02  0.0000000E+00
Ar  3790  0.5160408E+02  0.2492653E+02  0.3733522E+02  0.0000000E+00
Ar  3791  0.5135009E+02  0.2227960E+02  0.3987605E+02  0.0000000E+00
Ar  3792  0.4867353E+02  0.2470192E+02  0.3970561E+02  0.0000000E+00
Ar  3793  0.4905199E+02  0.2215600E+02  0.4275860E+02  0.0000000E+00
Ar  3794  0.5133233E+02  0.2524223E+02  0.4242811E+02  0.0000000E+00
Ar  3795  0.5172932E+02  0.2241455E+02  0.4520802E+02  0.0000000E+00
Ar  3796  0.4894705E+02  0.2478220E+02  0.4541119E+02  0.0000000E+00
Ar  3797  0.4917471E+02  0.2228175E+02  0.4808249E+02  0.0000000E+00
Ar  3798  0.5193102E+02  0.2502618E+02  0.4794786E+02  0.0000000E+00
Ar  3799  0.5137021E+02  0.2204430E+02  0.5100388E+02  0.0000000E+00
Ar  3800  0.4910958E+02  0.2478302E+02  0.5068816E+02  0.0000000E+00
Ar  3801  0.4899933E+02  0.2744602E+02  0.2881708E+00  0.0000000E+00
Ar  3802  0.5152631E+02  0.3012369E+02  0.8859571E-01  0.0000000E+00
Ar  3803  0.5163960E+02  0.2764965E+02  0.2723817E+01  0.0000000E+00
Ar  3804  0.4875243E+02  0.3031216E+02  0.2785504E+01  0.0000000E+00
Ar  3805  0.4872427E+02  0.2761289E+02  0.5420430E+01  0.0000000E+00
Ar  3806  0.5172013E+02  0.3012241E+02  0.5617087E+01  0.0000000E+00
Ar  3807  0.5148374E+02  0.2766533E+02  0.8165310E+01  0.0000000E+00
Ar  3808  0.4856862E+02  0.3037985E+02  0.7925356E+01  0.0000000E+00
Ar  3809  0.4876430E+02  0.2733547E+02  0.1080285E+02  0.0000000E+00
Ar  3810  0.5149853E+02  0.3021260E+02  0.1062036E+02  0.0000000E+00
Ar  3811  0.5154296E+02  0.2747569E+02  0.1328939E+02  0.0000000E+00
Ar  3812  0.4878919E+02  0.3001127E+02  0.1328700E+02  0.0000000E+00
Ar  3813  0.4902151E+02  0.2752038E+02  0.1599616E+02  0.0000000E+00
Ar  3814  0.5158218E+02  0.3001495E+02  0.1612073E+02  0.0000000E+00
Ar  3815  0.5143037E+02  0.2752353E+02  0.1873706E+02  0.0000000E+00
Ar  3816  0.4886978E+02  0.3024091E+02  0.1869251E+02  0.0000000E+00
Ar  3817  0.4869229E+02  0.2773230E+02  0.2151030E+02  0.0000000E+00
Ar  3818  0.5148707E+02  0.3010934E+02  0.2132306E+02  0.0000000E+00
Ar  3819  0.5147618E+02  0.2761349E+02  0.2422500E+02  0.0000000E+00
Ar  3820  0.4870013E+02  0.3039025E+02  0.2408780E+02  0.0000000E+00
Ar  3821  0.4888102E+02  0.2774940E+02  0.2680411E+02  0.0000000E+00
Ar  3822  0.5143983E+02  0.3041647E+02  0.2666756E+02  0.0000000E+00
Ar  3823  0.5164815E+02  0.2772962E+02  0.2931132E+02  0.0000000E+00
Ar  3824  0.4891613E+02  0.3029340E+02  0.2939848E+02  0.0000000E+00
Ar  3825  0.4891604E+02  0.2781380E+02  0.3194543E+02  0.0000000E+00
Ar  3826  0.5170237E+02  0.3033398E+02  0.3205664E+02  0.0000000E+00
Ar  3827  0.5174617E+02  0.2783482E+02  0.3493794E+02  0.0000000E+00
Ar  3828  0.4879368E+02  0.3022397E+02  0.3462270E+02  0.0000000E+00
Ar  3829  0.4883773E+02  0.2758945E+02  0.3748649E+02  0.0000000E+00
Ar  3830  0.5159959E+02  0.3033984E+02  0.3740796E+02  0.0000000E+00
Ar  3831  0.5168667E+02  0.2779202E+02  0.3988418E+02  0.0000000E+00
Ar  3832  0.4881689E+02  0.3040773E+02  0.3993841E+02  0.0000000E+00
Ar  3833  0.4883503E+02  0.2765263E+02  0.4269200E+02  0.0000000E+00
Ar  3834  0.5139439E+02  0.3018012E+02  0.4263480E+02  0.0000000E+00
Ar  3835  0.5169408E+02  0.2758568E+02  0.4524561E+02  0.0000000E+00
Ar  3836  0.4879663E+02  0.3016885E+02  0.4548473E+02  0.0000000E+00
Ar  3837  0.4914713E+02  0.2742095E+02  0.4786234E+02  0.0000000E+00
Ar  3838  0.5138971E+02  0.3025409E+02  0.4781600E+02  0.0000000E+00
Ar  3839  0.5144136E+02  0.2750515E+02  0.5074321E+02  0.0000000E+00
Ar  3840  0.4898241E+02  0.2996213E+02  0.5071704E+02  0.0000000E+00
Ar  3841  0.4901806E+02  0.3293427E+02  0.2465682E+00  0.0000000E+00
Ar  3842  0.5176964E+02  0.3543606E+02  0.2879147E-01  0.0000000E+00
Ar  3843  0.5150571E+02  0.3271959E+02  0.2760543E+01  0.0000000E+00
Ar  3844  0.4919245E+02  0.3550307E+02  0.2875192E+01  0.0000000E+00
Ar  3845  0.4899025E+02  0.3292376E+02  0.5288446E+01  0.0000000E+00
Ar  3846  0.5140959E+02  0.3579778E+02  0.5514643E+01  0.0000000E+00
Ar  3847  0.5144992E+02  0.3286810E+02  0.7949305E+01  0.0000000E+00
Ar  3848  0.4906533E+02  0.3542488E+02  0.8149356E+01  0.0000000E+00
Ar  3849  0.4888512E+02  0.3266488E+02  0.1097516E+02  0.0000000E+00
Ar  3850  0.5143201E+02  0.3540054E+02  0.1066606E+02  0.0000000E+00
Ar  3851  0.5148152E+02  0.3263840E+02  0.1351015E+02  0.0000000E+00
Ar  3852  0.4909987E+02  0.3566995E+02  0.1352073E+02  0.0000000E+00
Ar  3853  0.4902197E+02  0.3271227E+02  0.1607239E+02  0.0000000E+00
Ar  3854  0.5140713E+02  0.3557472E+02  0.1618047E+02  0.0000000E+00
Ar  3855  0.5152315E+02  0.3281173E+02  0.1867086E+02  0.0000000E+00
Ar  3856  0.4891570E+02  0.3530783E+02  0.1868747E+02  0.0000000E+00
Ar  3857  0.4901358E+02  0.3280434E+02  0.2138066E+02  0.0000000E+00
Ar  3858  0.5148569E+02  0.3567196E+02  0.2119122E+02  0.0000000E+00
Ar  3859  0.5142057E+02  0.3282487E+02  0.2392869E+02  0.0000000E+00
Ar  3860  0.4898802E+02  0.3577446E+02  0.2383251E+02  0.0000000E+00
Ar  3861  0.4903093E+02  0.3307862E+02  0.2651423E+02  0.0000000E+00
Ar  3862  0.5151148E+02  0.3576310E+02  0.2661049E+02  0.0000000E+00
Ar  3863  0.5157171E+02  0.3298740E+02  0.2934506E+02  0.0000000E+00
Ar  3864  0.4910367E+02  0.3530406E+02  0.2944250E+02  0.0000000E+00
Ar  3865  0.4896059E+02  0.3283013E+02  0.3191499E+02  0.0000000E+00
Ar  3866  0.5163425E+02  0.3542002E+02  0.3203386E+02  0.0000000E+00
Ar  3867  0.5161558E+02  0.3285761E+02  0.3465710E+02  0.0000000E+00
Ar  3868  0.4887941E+02  0.3538716E+02  0.3451453E+02  0.0000000E+00
Ar  3869  0.4862524E+02  0.3290317E+02  0.3745548E+02  0.0000000E+00
Ar  3870  0.5176070E+02  0.3543925E+02  0.3737102E+02  0.0000000E+00
Ar  3871  0.5157351E+02  0.3292620E+02  0.4016883E+02  0.0000000E+00
Ar  3872  0.4895264E+02  0.3560894E+02  0.4004061E+02  0.0000000E+00
Ar  3873  0.4881098E+02  0.3294140E+02  0.4270834E+02  0.0000000E+00
Ar  3874  0.5165666E+02  0.3569225E+02  0.4282179E+02  0.0000000E+00
Ar  3875  0.5162617E+02  0.3298088E+02  0.4530327E+02  0.0000000E+00
Ar  3876  0.4908664E+02  0.3527206E+02  0.4536362E+02  0.0000000E+00
Ar  3877  0.4881161E+02  0.3294788E+02  0.4809490E+02  0.0000000E+00
Ar  3878  0.5169717E+02  0.3538393E+02  0.4777354E+02  0.0000000E+00
Ar  3879  0.5150354E+02  0.3275949E+02  0.5073851E+02  0.0000000E+00
Ar  3880  0.4906633E+02  0.3550765E+02  0.5088460E+02  0.0000000E+00
Ar  3881  0.4896768E+02  0.3796417E+02  0.3535242E+00  0.0000000E+00
Ar  3882  0.5166492E+02  0.4069747E+02  0.5289949E+02  0.0000000E+00
Ar  3883  0.5144290E+02  0.3845391E+02  0.2832394E+01  0.0000000E+00
Ar  3884  0.4872785E+02  0.4091490E+02  0.2782574E+01  0.0000000E+00
Ar  3885  0.4884812E+02  0.3858283E+02  0.5310366E+01  0.0000000E+00
Ar  3886  0.5166228E+02  0.4082808E+02  0.5355521E+01  0.0000000E+00
Ar  3887  0.5141558E+02  0.3828350E+02  0.7921630E+01  0.0000000E+00
Ar  3888  0.4868007E+02  0.4071281E+02  0.8184119E+01  0.0000000E+00
Ar  3889  0.4903397E+02  0.3837624E+02  0.1063590E+02  0.0000000E+00
Ar  3890  0.5154150E+02  0.4090670E+02  0.1081542E+02  0.0000000E+00
Ar  3891  0.5162689E+02  0.3808293E+02  0.1348727E+02  0.0000000E+00
Ar  3892  0.4897594E+02  0.4059777E+02  0.1337312E+02  0.0000000E+00
Ar  3893  0.4893309E+02  0.3801507E+02  0.1604125E+02  0.0000000E+00
Ar  3894  0.5130832E+02  0.4085478E+02  0.1591234E+02  0.0000000E+00
Ar  3895  0.5151331E+02  0.3827926E+02  0.1875009E+02  0.0000000E+00
Ar  3896  0.4883791E+02  0.4094381E+02  0.1851034E+02  0.0000000E+00
Ar  3897  0.4864851E+02  0.3825296E+02  0.2117048E+02  0.0000000E+00
Ar  3898  0.5168285E+02  0.4077349E+02  0.2131198E+02  0.0000000E+00
Ar  3899  0.5165444E+02  0.3815666E+02  0.2386465E+02  0.0000000E+00
Ar  3900  0.4908076E+02  0.4105642E+02  0.2393713E+02  0.0000000E+00
Ar  3901  0.4912333E+02  0.3830618E+02  0.2645934E+02  0.0000000E+00
Ar  3902  0.5174405E+02  0.4089067E+02  0.2668788E+02  0.0000000E+00
Ar  3903  0.5183459E+02  0.3799883E+02  0.2937017E+02  0.0000000E+00
Ar  3904  0.4899245E+02  0.4097944E+02  0.2918188E+02  0.0000000E+00
Ar  3905  0.4919852E+02  0.3814295E+02  0.3184390E+02  0.0000000E+00
Ar  3906  0.5157179E+02  0.4078097E+02  0.3169149E+02  0.0000000E+00
Ar  3907  0.5146596E+02  0.3787029E+02  0.3464203E+02  0.0000000E+00
Ar  3908  0.4935522E+02  0.4073383E+02  0.3442803E+02  0.0000000E+00
Ar  3909  0.4904783E+02  0.3794120E+02  0.3705062E+02  0.0000000E+00
Ar  3910  0.5188283E+02  0.4087436E+02  0.3741599E+02  0.0000000E+00
Ar  3911  0.5147662E+02  0.3827388E+02  0.3992350E+02  0.0000000E+00
Ar  3912  0.4898897E+02  0.4084784E+02  0.3984922E+02  0.0000000E+00
Ar  3913  0.4886170E+02  0.3808269E+02  0.4276708E+02  0.0000000E+00
Ar  3914  0.5161401E+02  0.4085412E+02  0.4262936E+02  0.0000000E+00
Ar  3915  0.5173728E+02  0.3828995E+02  0.4506893E+02  0.0000000E+00
Ar  3916  0.4898348E+02  0.4083741E+02  0.4535410E+02  0.0000000E+00
Ar  3917  0.4901711E+02  0.3794746E+02  0.4791330E+02  0.0000000E+00
Ar  3918  0.5139399E+02  0.4076098E+02  0.4798115E+02  0.0000000E+00
Ar  3919  0.5153132E+02  0.3818540E+02  0.5067730E+02  0.0000000E+00
Ar  3920  0.4887340E+02  0.4072392E+02  0.5079267E+02  0.0000000E+00
Ar  3921  0.4903464E+02  0.4335526E+02  0.7149429E-01  0.0000000E+00
Ar  3922  0.5166714E+02  0.4597407E+02  0.5283040E+02  0.0000000E+00
Ar  3923  0.5168422E+02  0.4331431E+02  0.2645865E+01  0.0000000E+00
Ar  3924  0.4894550E+02  0.4619086E+02  0.2528472E+01  0.0000000E+00
Ar  3925  0.4895867E+02  0.4333465E+02  0.5284678E+01  0.0000000E+00
Ar  3926  0.5137950E+02  0.4622268E+02  0.5464990E+01  0.0000000E+00
Ar  3927  0.5147365E+02  0.4334834E+02  0.7999333E+01  0.0000000E+00
Ar  3928  0.4854663E+02  0.4598451E+02  0.7805352E+01  0.0000000E+00
Ar  3929  0.4879345E+02  0.4357631E+02  0.1070340E+02  0.0000000E+00
Ar  3930  0.5147743E+02  0.4615126E+02  0.1045800E+02  0.0000000E+00
Ar  3931  0.5186892E+02  0.4347055E+02  0.1325005E+02  0.0000000E+00
Ar  3932  0.4886040E+02  0.4594674E+02  0.1326830E+02  0.0000000E+00
Ar  3933  0.4876846E+02  0.4356626E+02  0.1588934E+02  0.0000000E+00
Ar  3934  0.5162702E+02  0.4587139E+02  0.1589340E+02  0.0000000E+00
Ar  3935  0.5151200E+02  0.4322305E+02  0.1867772E+02  0.0000000E+00
Ar  3936  0.4883555E+02  0.4615967E+02  0.1875225E+02  0.0000000E+00
Ar  3937  0.4886426E+02  0.4343134E+02  0.2123842E+02  0.0000000E+00
Ar  3938  0.5146558E+02  0.4581965E+02  0.2130650E+02  0.0000000E+00
Ar  3939  0.5182628E+02  0.4338252E+02  0.2416257E+02  0.0000000E+00
Ar  3940  0.4902673E+02  0.4630439E+02  0.2387271E+02  0.0000000E+00
Ar  3941  0.4913816E+02  0.4352684E+02  0.2675394E+02  0.0000000E+00
Ar  3942  0.5180104E+02  0.4626033E+02  0.2650969E+02  0.0000000E+00
Ar  3943  0.5172982E+02  0.4375854E+02  0.2955803E+02  0.0000000E+00
Ar  3944  0.4922175E+02  0.4623115E+02  0.2950929E+02  0.0000000E+00
Ar  3945  0.4894675E+02  0.4343786E+02  0.3204348E+02  0.0000000E+00
Ar  3946  0.5166428E+02  0.4625945E+02  0.3230745E+02  0.0000000E+00
Ar  3947  0.5164067E+02  0.4334269E+02  0.3456464E+02  0.0000000E+00
Ar  3948  0.4871963E+02  0.4598092E+02  0.3472593E+02  0.0000000E+00
Ar  3949  0.4934258E+02  0.4328700E+02  0.3739584E+02  0.0000000E+00
Ar  3950  0.5178153E+02  0.4606468E+02  0.3701513E+02  0.0000000E+00
Ar  3951  0.5166951E+02  0.4345964E+02  0.4023427E+02  0.0000000E+00
Ar  3952  0.4909845E+02  0.4624879E+02  0.3993028E+02  0.0000000E+00
Ar  3953  0.4881406E+02  0.4381811E+02  0.4278184E+02  0.0000000E+00
Ar  3954  0.5162052E+02  0.4626363E+02  0.4290231E+02  0.0000000E+00
Ar  3955  0.5140993E+02  0.4356088E+02  0.4543672E+02  0.0000000E+00
Ar  3956  0.4906701E+02  0.4642445E+02  0.4556794E+02  0.0000000E+00
Ar  3957  0.4877456E+02  0.4340944E+02  0.4808652E+02  0.0000000E+00
Ar  3958  0.5169590E+02  0.4619954E+02  0.4803547E+02  0.0000000E+00
Ar  3959  0.5170146E+02  0.4347949E+02  0.5045258E+02  0.0000000E+00
Ar  3960  0.4900979E+02  0.4618687E+02  0.5048097E+02  0.0000000E+00
Ar  3961  0.4910598E+02  0.4881656E+02  0.5316366E+02  0.0000000E+00
Ar  3962  0.5148886E+02  0.5172466E+02  0.5310823E+02  0.0000000E+00
Ar  3963  0.5166347E+02  0.4900892E+02  0.2534081E+01  0.0000000E+00
Ar  3964  0.4879988E+02  0.5137429E+02  0.2536532E+01  0.0000000E+00
Ar  3965  0.4891465E+02  0.4888683E+02  0.5398955E+01  0.0000000E+00
Ar  3966  0.5163622E+02  0.5143881E+02  0.5198494E+01  0.0000000E+00
Ar  3967  0.5126487E+02  0.4868201E+02  0.8084726E+01  0.0000000E+00
Ar  3968  0.4889036E+02  0.5137332E+02  0.8331619E+01  0.0000000E+00
Ar  3969  0.4857603E+02  0.4822590E+02  0.1058107E+02  0.0000000E+00
Ar  3970  0.5175573E+02  0.5139887E+02  0.1058031E+02  0.0000000E+00
Ar  3971  0.5143212E+02  0.4891768E+02  0.1318246E+02  0.0000000E+00
Ar  3972  0.4881595E+02  0.5147738E+02  0.1321571E+02  0.0000000E+00
Ar  3973  0.4904276E+02  0.4864016E+02  0.1570929E+02  0.0000000E+00
Ar  3974  0.5118533E+02  0.5153302E+02  0.1564251E+02  0.0000000E+00
Ar  3975  0.5112924E+02  0.4889044E+02  0.1868849E+02  0.0000000E+00
Ar  3976  0.4865716E+02  0.5141038E+02  0.1861927E+02  0.0000000E+00
Ar  3977  0.4876507E+02  0.4890222E+02  0.2139516E+02  0.0000000E+00
Ar  3978  0.5135861E+02  0.5148816E+02  0.2098025E+02  0.0000000E+00
Ar  3979  0.5167555E+02  0.4905005E+02  0.2381411E+02  0.0000000E+00
Ar  3980  0.4888190E+02  0.5145728E+02  0.2380199E+02  0.0000000E+00
Ar  3981  0.4904286E+02  0.4891790E+02  0.2683274E+02  0.0000000E+00
Ar  3982  0.5173264E+02  0.5136737E+02  0.2655111E+02  0.0000000E+00
Ar  3983  0.5200524E+02  0.4896553E+02  0.2899639E+02  0.0000000E+00
Ar  3984  0.4901773E+02  0.5167367E+02  0.2923273E+02  0.0000000E+00
Ar  3985  0.4922932E+02  0.4892073E+02  0.3191888E+02  0.0000000E+00
Ar  3986  0.5167140E+02  0.5145536E+02  0.3178300E+02  0.0000000E+00
Ar  3987  0.5176939E+02  0.4899097E+02  0.3479706E+02  0.0000000E+00
Ar  3988  0.4902885E+02  0.5156153E+02  0.3444446E+02  0.0000000E+00
Ar  3989  0.4926992E+02  0.4887844E+02  0.3736833E+02  0.0000000E+00
Ar  3990  0.5166101E+02  0.5171973E+02  0.3736546E+02  0.0000000E+00
Ar  3991  0.5155555E+02  0.4895872E+02  0.4028150E+02  0.0000000E+00
Ar  3992  0.4907947E+02  0.5187874E+02  0.3981338E+02  0.0000000E+00
Ar  3993  0.4901664E+02  0.4904104E+02  0.4264666E+02  0.0000000E+00
Ar  3994  0.5160959E+02  0.5164077E+02  0.4260083E+02  0.0000000E+00
Ar  3995  0.5163748E+02  0.4909643E+02  0.4526174E+02  0.0000000E+00
Ar  3996  0.4902708E+02  0.5169809E+02  0.4522519E+02  0.0000000E+00
Ar  3997  0.4916278E+02  0.4895851E+02  0.4815113E+02  0.0000000E+00
Ar  3998  0.5174647E+02  0.5156907E+02  0.4794456E+02  0.0000000E+00
Ar  3999  0.5145566E+02  0.4910559E+02  0.5072661E+02  0.0000000E+00
Ar  4000  0.4884830E+02  0.5179449E+02  0.5055671E+02  0.0000000E+00
